ODB Name,Step,Frame,Part Instance Name,    êﬂì_ÉâÉxÉã,X,Y,Z,Section Name,Material Name,Section Point,   U-Magnitude,          U-U1,          U-U2,       S-Mises
C:/temp/dataset/6/26_12.odb,Step-1,Increment      1: Step Time =    1.000,"PART-1-1",             1,            5.,           -5.,            0.,NA,NA,"",   385.423E-03,   384.784E-03,  -22.1868E-03,   5.58547E-03
C:/temp/dataset/6/26_12.odb,Step-1,Increment      1: Step Time =    1.000,"PART-1-1",             2,            0.,           -5.,            0.,NA,NA,"",   368.336E-03,   366.968E-03,  -31.7232E-03,   4.78475E-03
C:/temp/dataset/6/26_12.odb,Step-1,Increment      1: Step Time =    1.000,"PART-1-1",             3,            5.,      -10.0250,            0.,NA,NA,"",   385.245E-03,   385.106E-03,   10.3378E-03,   11.1877E-03
C:/temp/dataset/6/26_12.odb,Step-1,Increment      1: Step Time =    1.000,"PART-1-1",             4,            5.,      -15.0500,            0.,NA,NA,"",   296.485E-03,   290.940E-03,   57.0738E-03,   7.64956E-03
C:/temp/dataset/6/26_12.odb,Step-1,Increment      1: Step Time =    1.000,"PART-1-1",             5,            5.,          -20.,            0.,NA,NA,"",   105.004E-03,   99.7856E-03,   32.6907E-03,   25.9853E-03
C:/temp/dataset/6/26_12.odb,Step-1,Increment      1: Step Time =    1.000,"PART-1-1",             6,            0.,          -20.,            0.,NA,NA,"",   56.6097E-03,   56.6094E-03,   193.098E-06,   3.21571E-03
C:/temp/dataset/6/26_12.odb,Step-1,Increment      1: Step Time =    1.000,"PART-1-1",             7,           -5.,          -20.,            0.,NA,NA,"",   65.0809E-03,   61.6418E-03,  -20.8760E-03,   10.2594E-03
C:/temp/dataset/6/26_12.odb,Step-1,Increment      1: Step Time =    1.000,"PART-1-1",             8,           -5.,      -14.9750,            0.,NA,NA,"",   153.216E-03,   145.988E-03,  -46.5042E-03,   2.08587E-03
C:/temp/dataset/6/26_12.odb,Step-1,Increment      1: Step Time =    1.000,"PART-1-1",             9,           -5.,      -9.95000,            0.,NA,NA,"",   240.475E-03,   235.451E-03,  -48.8954E-03,   1.29031E-03
C:/temp/dataset/6/26_12.odb,Step-1,Increment      1: Step Time =    1.000,"PART-1-1",            10,           -5.,           -5.,            0.,NA,NA,"",   336.814E-03,   335.480E-03,  -29.9488E-03,   12.5305E-03
C:/temp/dataset/6/26_12.odb,Step-1,Increment      1: Step Time =    1.000,"PART-1-1",            11,           15.,          -30.,            0.,NA,NA,"",            0.,   5.73081E-39,  -10.2432E-39,   19.9457E-03
C:/temp/dataset/6/26_12.odb,Step-1,Increment      1: Step Time =    1.000,"PART-1-1",            12,          -15.,          -30.,            0.,NA,NA,"",            0.,   3.81483E-39,   6.59793E-39,   12.5118E-03
C:/temp/dataset/6/26_12.odb,Step-1,Increment      1: Step Time =    1.000,"PART-1-1",            13,           15.,        -21.25,            0.,NA,NA,"",   156.522E-03,   117.643E-03,  -103.243E-03,   9.78852E-03
C:/temp/dataset/6/26_12.odb,Step-1,Increment      1: Step Time =    1.000,"PART-1-1",            14,           15.,         -12.5,            0.,NA,NA,"",   342.353E-03,   323.470E-03,  -112.130E-03,   7.91061E-03
C:/temp/dataset/6/26_12.odb,Step-1,Increment      1: Step Time =    1.000,"PART-1-1",            15,           15.,         -3.75,            0.,NA,NA,"",   396.705E-03,   392.665E-03,  -56.4672E-03,   3.49413E-03
C:/temp/dataset/6/26_12.odb,Step-1,Increment      1: Step Time =    1.000,"PART-1-1",            16,           15.,            5.,            0.,NA,NA,"",   400.566E-03,   397.602E-03,  -48.6396E-03,   50.0389E-06
C:/temp/dataset/6/26_12.odb,Step-1,Increment      1: Step Time =    1.000,"PART-1-1",            17,           10.,            5.,            0.,NA,NA,"",   399.050E-03,   396.748E-03,  -42.8003E-03,   675.791E-06
C:/temp/dataset/6/26_12.odb,Step-1,Increment      1: Step Time =    1.000,"PART-1-1",            18,            5.,            5.,            0.,NA,NA,"",   394.846E-03,   392.911E-03,  -39.0475E-03,   511.345E-06
C:/temp/dataset/6/26_12.odb,Step-1,Increment      1: Step Time =    1.000,"PART-1-1",            19,            0.,            5.,            0.,NA,NA,"",   397.858E-03,   396.151E-03,  -36.8154E-03,   2.08346E-03
C:/temp/dataset/6/26_12.odb,Step-1,Increment      1: Step Time =    1.000,"PART-1-1",            20,           -5.,            5.,            0.,NA,NA,"",   412.751E-03,   412.275E-03,  -19.8219E-03,   3.86304E-03
C:/temp/dataset/6/26_12.odb,Step-1,Increment      1: Step Time =    1.000,"PART-1-1",            21,           -5.,         11.25,            0.,NA,NA,"",   477.148E-03,   476.723E-03,  -20.1320E-03,   73.4273E-06
C:/temp/dataset/6/26_12.odb,Step-1,Increment      1: Step Time =    1.000,"PART-1-1",            22,           -5.,          17.5,            0.,NA,NA,"",   535.684E-03,   535.301E-03,  -20.2543E-03,   3.59165E-06
C:/temp/dataset/6/26_12.odb,Step-1,Increment      1: Step Time =    1.000,"PART-1-1",            23,           -5.,         23.75,            0.,NA,NA,"",   594.189E-03,   593.834E-03,  -20.5261E-03,   269.169E-09
C:/temp/dataset/6/26_12.odb,Step-1,Increment      1: Step Time =    1.000,"PART-1-1",            24,           -5.,           30.,            0.,NA,NA,"",   652.709E-03,   652.377E-03,  -20.8009E-03,   7.38736E-09
C:/temp/dataset/6/26_12.odb,Step-1,Increment      1: Step Time =    1.000,"PART-1-1",            25,          -10.,           30.,            0.,NA,NA,"",   653.116E-03,   652.597E-03,   26.0339E-03,   88.0055E-09
C:/temp/dataset/6/26_12.odb,Step-1,Increment      1: Step Time =    1.000,"PART-1-1",            26,          -15.,           30.,            0.,NA,NA,"",   656.871E-03,   652.816E-03,   72.8692E-03,   8.72680E-09
C:/temp/dataset/6/26_12.odb,Step-1,Increment      1: Step Time =    1.000,"PART-1-1",            27,          -15.,          22.5,            0.,NA,NA,"",   587.143E-03,   582.563E-03,   73.1991E-03,   333.597E-09
C:/temp/dataset/6/26_12.odb,Step-1,Increment      1: Step Time =    1.000,"PART-1-1",            28,          -15.,           15.,            0.,NA,NA,"",   517.537E-03,   512.290E-03,   73.5084E-03,   14.3555E-06
C:/temp/dataset/6/26_12.odb,Step-1,Increment      1: Step Time =    1.000,"PART-1-1",            29,          -15.,           7.5,            0.,NA,NA,"",   448.679E-03,   442.627E-03,   73.4459E-03,   57.4981E-06
C:/temp/dataset/6/26_12.odb,Step-1,Increment      1: Step Time =    1.000,"PART-1-1",            30,          -15.,            0.,            0.,NA,NA,"",   383.837E-03,   375.735E-03,   78.4492E-03,   2.06086E-03
C:/temp/dataset/6/26_12.odb,Step-1,Increment      1: Step Time =    1.000,"PART-1-1",            31,          -15.,          -7.5,            0.,NA,NA,"",   297.180E-03,   280.756E-03,   97.4274E-03,   1.90457E-03
C:/temp/dataset/6/26_12.odb,Step-1,Increment      1: Step Time =    1.000,"PART-1-1",            32,          -15.,          -15.,            0.,NA,NA,"",   177.298E-03,   151.637E-03,   91.8744E-03,   3.97174E-03
C:/temp/dataset/6/26_12.odb,Step-1,Increment      1: Step Time =    1.000,"PART-1-1",            33,          -15.,         -22.5,            0.,NA,NA,"",   75.8714E-03,   54.8796E-03,   52.3899E-03,   6.91441E-03
C:/temp/dataset/6/26_12.odb,Step-1,Increment      1: Step Time =    1.000,"PART-1-1",            34,           2.5,           -5.,            0.,NA,NA,"",   377.915E-03,   376.603E-03,  -31.4554E-03,   4.09698E-03
C:/temp/dataset/6/26_12.odb,Step-1,Increment      1: Step Time =    1.000,"PART-1-1",            35,            5.,      -7.51250,            0.,NA,NA,"",   382.931E-03,   382.902E-03,  -4.68155E-03,   7.41377E-03
C:/temp/dataset/6/26_12.odb,Step-1,Increment      1: Step Time =    1.000,"PART-1-1",            36,            5.,      -12.5375,            0.,NA,NA,"",   368.282E-03,   366.519E-03,   35.9871E-03,   16.1722E-03
C:/temp/dataset/6/26_12.odb,Step-1,Increment      1: Step Time =    1.000,"PART-1-1",            37,            5.,      -17.5250,            0.,NA,NA,"",   205.350E-03,   196.972E-03,   58.0560E-03,   5.66267E-03
C:/temp/dataset/6/26_12.odb,Step-1,Increment      1: Step Time =    1.000,"PART-1-1",            38,           2.5,          -20.,            0.,NA,NA,"",   65.8892E-03,   65.0906E-03,   10.2277E-03,   10.0030E-03
C:/temp/dataset/6/26_12.odb,Step-1,Increment      1: Step Time =    1.000,"PART-1-1",            39,          -2.5,          -20.,            0.,NA,NA,"",   53.2101E-03,   52.7210E-03,  -7.19779E-03,   1.96653E-03
C:/temp/dataset/6/26_12.odb,Step-1,Increment      1: Step Time =    1.000,"PART-1-1",            40,           -5.,      -17.4875,            0.,NA,NA,"",   111.056E-03,   103.771E-03,  -39.5595E-03,   5.44429E-03
C:/temp/dataset/6/26_12.odb,Step-1,Increment      1: Step Time =    1.000,"PART-1-1",            41,           -5.,      -12.4625,            0.,NA,NA,"",   196.425E-03,   190.024E-03,  -49.7353E-03,   353.516E-06
C:/temp/dataset/6/26_12.odb,Step-1,Increment      1: Step Time =    1.000,"PART-1-1",            42,           -5.,      -7.47500,            0.,NA,NA,"",   284.881E-03,   281.349E-03,  -44.7212E-03,   4.04453E-03
C:/temp/dataset/6/26_12.odb,Step-1,Increment      1: Step Time =    1.000,"PART-1-1",            43,          -2.5,           -5.,            0.,NA,NA,"",   357.028E-03,   355.791E-03,  -29.6880E-03,   7.15529E-03
C:/temp/dataset/6/26_12.odb,Step-1,Increment      1: Step Time =    1.000,"PART-1-1",            44,          12.5,          -30.,            0.,NA,NA,"",            0.,   5.69664E-39,  -13.7663E-39,   6.21400E-03
C:/temp/dataset/6/26_12.odb,Step-1,Increment      1: Step Time =    1.000,"PART-1-1",            45,           10.,          -30.,            0.,NA,NA,"",            0.,  -473.394E-42,  -4.36135E-39,   3.12129E-03
C:/temp/dataset/6/26_12.odb,Step-1,Increment      1: Step Time =    1.000,"PART-1-1",            46,           7.5,          -30.,            0.,NA,NA,"",            0.,   1.61110E-39,   848.617E-42,   1.92646E-03
C:/temp/dataset/6/26_12.odb,Step-1,Increment      1: Step Time =    1.000,"PART-1-1",            47,            5.,          -30.,            0.,NA,NA,"",            0.,   3.19885E-39,   2.22445E-39,   3.97634E-03
C:/temp/dataset/6/26_12.odb,Step-1,Increment      1: Step Time =    1.000,"PART-1-1",            48,           2.5,          -30.,            0.,NA,NA,"",            0.,   4.67530E-39,   2.06947E-39,   5.35466E-03
C:/temp/dataset/6/26_12.odb,Step-1,Increment      1: Step Time =    1.000,"PART-1-1",            49,            0.,          -30.,            0.,NA,NA,"",            0.,   5.88781E-39,   5.37298E-39,   5.68125E-03
C:/temp/dataset/6/26_12.odb,Step-1,Increment      1: Step Time =    1.000,"PART-1-1",            50,          -2.5,          -30.,            0.,NA,NA,"",            0.,   4.65357E-39,  -1.63526E-39,   5.07460E-03
C:/temp/dataset/6/26_12.odb,Step-1,Increment      1: Step Time =    1.000,"PART-1-1",            51,           -5.,          -30.,            0.,NA,NA,"",            0.,   3.56997E-39,  -1.53522E-39,   3.83164E-03
C:/temp/dataset/6/26_12.odb,Step-1,Increment      1: Step Time =    1.000,"PART-1-1",            52,          -7.5,          -30.,            0.,NA,NA,"",            0.,   1.91237E-39,   132.913E-42,   2.62597E-03
C:/temp/dataset/6/26_12.odb,Step-1,Increment      1: Step Time =    1.000,"PART-1-1",            53,          -10.,          -30.,            0.,NA,NA,"",            0.,   2.70215E-39,   5.00325E-39,   2.84964E-03
C:/temp/dataset/6/26_12.odb,Step-1,Increment      1: Step Time =    1.000,"PART-1-1",            54,         -12.5,          -30.,            0.,NA,NA,"",            0.,   2.89814E-39,   7.07356E-39,   4.15484E-03
C:/temp/dataset/6/26_12.odb,Step-1,Increment      1: Step Time =    1.000,"PART-1-1",            55,           15.,      -23.4375,            0.,NA,NA,"",   112.759E-03,   78.1735E-03,  -81.2612E-03,   11.7900E-03
C:/temp/dataset/6/26_12.odb,Step-1,Increment      1: Step Time =    1.000,"PART-1-1",            56,           15.,       -25.625,            0.,NA,NA,"",   74.5549E-03,   48.1334E-03,  -56.9351E-03,   12.5214E-03
C:/temp/dataset/6/26_12.odb,Step-1,Increment      1: Step Time =    1.000,"PART-1-1",            57,           15.,      -27.8125,            0.,NA,NA,"",   40.4120E-03,   25.3248E-03,  -31.4926E-03,   14.8281E-03
C:/temp/dataset/6/26_12.odb,Step-1,Increment      1: Step Time =    1.000,"PART-1-1",            58,           15.,      -14.6875,            0.,NA,NA,"",   303.603E-03,   276.947E-03,  -124.399E-03,   4.39047E-03
C:/temp/dataset/6/26_12.odb,Step-1,Increment      1: Step Time =    1.000,"PART-1-1",            59,           15.,       -16.875,            0.,NA,NA,"",   256.235E-03,   222.267E-03,  -127.489E-03,   925.321E-06
C:/temp/dataset/6/26_12.odb,Step-1,Increment      1: Step Time =    1.000,"PART-1-1",            60,           15.,      -19.0625,            0.,NA,NA,"",   205.462E-03,   166.876E-03,  -119.863E-03,   6.08487E-03
C:/temp/dataset/6/26_12.odb,Step-1,Increment      1: Step Time =    1.000,"PART-1-1",            61,           15.,       -5.9375,            0.,NA,NA,"",   393.777E-03,   388.316E-03,  -65.3529E-03,   5.63835E-03
C:/temp/dataset/6/26_12.odb,Step-1,Increment      1: Step Time =    1.000,"PART-1-1",            62,           15.,        -8.125,            0.,NA,NA,"",   385.851E-03,   377.765E-03,  -78.5805E-03,   7.75050E-03
C:/temp/dataset/6/26_12.odb,Step-1,Increment      1: Step Time =    1.000,"PART-1-1",            63,           15.,      -10.3125,            0.,NA,NA,"",   369.617E-03,   357.142E-03,  -95.2164E-03,   8.87668E-03
C:/temp/dataset/6/26_12.odb,Step-1,Increment      1: Step Time =    1.000,"PART-1-1",            64,           15.,        2.8125,            0.,NA,NA,"",   398.747E-03,   395.772E-03,  -48.6201E-03,   98.4392E-06
C:/temp/dataset/6/26_12.odb,Step-1,Increment      1: Step Time =    1.000,"PART-1-1",            65,           15.,      625.E-03,            0.,NA,NA,"",   397.768E-03,   394.714E-03,  -49.2029E-03,   689.099E-06
C:/temp/dataset/6/26_12.odb,Step-1,Increment      1: Step Time =    1.000,"PART-1-1",            66,           15.,       -1.5625,            0.,NA,NA,"",   397.411E-03,   394.069E-03,  -51.4340E-03,   1.80854E-03
C:/temp/dataset/6/26_12.odb,Step-1,Increment      1: Step Time =    1.000,"PART-1-1",            67,          12.5,            5.,            0.,NA,NA,"",   400.272E-03,   397.613E-03,  -46.0592E-03,   121.953E-06
C:/temp/dataset/6/26_12.odb,Step-1,Increment      1: Step Time =    1.000,"PART-1-1",            68,           7.5,            5.,            0.,NA,NA,"",   396.789E-03,   394.752E-03,  -40.1490E-03,   981.120E-06
C:/temp/dataset/6/26_12.odb,Step-1,Increment      1: Step Time =    1.000,"PART-1-1",            69,           2.5,            5.,            0.,NA,NA,"",   394.935E-03,   393.038E-03,  -38.6659E-03,   720.496E-06
C:/temp/dataset/6/26_12.odb,Step-1,Increment      1: Step Time =    1.000,"PART-1-1",            70,          -2.5,            5.,            0.,NA,NA,"",   403.436E-03,   402.236E-03,  -31.0933E-03,   3.43912E-03
C:/temp/dataset/6/26_12.odb,Step-1,Increment      1: Step Time =    1.000,"PART-1-1",            71,           -5.,       9.16667,            0.,NA,NA,"",   457.403E-03,   456.955E-03,  -20.2524E-03,   183.194E-06
C:/temp/dataset/6/26_12.odb,Step-1,Increment      1: Step Time =    1.000,"PART-1-1",            72,           -5.,       7.08333,            0.,NA,NA,"",   436.891E-03,   436.405E-03,  -20.6021E-03,   891.607E-06
C:/temp/dataset/6/26_12.odb,Step-1,Increment      1: Step Time =    1.000,"PART-1-1",            73,           -5.,       15.4167,            0.,NA,NA,"",   516.190E-03,   515.795E-03,  -20.1754E-03,   12.1516E-06
C:/temp/dataset/6/26_12.odb,Step-1,Increment      1: Step Time =    1.000,"PART-1-1",            74,           -5.,       13.3333,            0.,NA,NA,"",   496.689E-03,   496.281E-03,  -20.1253E-03,   35.2327E-06
C:/temp/dataset/6/26_12.odb,Step-1,Increment      1: Step Time =    1.000,"PART-1-1",            75,           -5.,       21.6667,            0.,NA,NA,"",   574.684E-03,   574.321E-03,  -20.4342E-03,   367.051E-09
C:/temp/dataset/6/26_12.odb,Step-1,Increment      1: Step Time =    1.000,"PART-1-1",            76,           -5.,       19.5833,            0.,NA,NA,"",   555.182E-03,   554.809E-03,  -20.3427E-03,   461.797E-09
C:/temp/dataset/6/26_12.odb,Step-1,Increment      1: Step Time =    1.000,"PART-1-1",            77,           -5.,       27.9167,            0.,NA,NA,"",   633.201E-03,   632.863E-03,  -20.7095E-03,   36.2096E-09
C:/temp/dataset/6/26_12.odb,Step-1,Increment      1: Step Time =    1.000,"PART-1-1",            78,           -5.,       25.8333,            0.,NA,NA,"",   613.695E-03,   613.348E-03,  -20.6179E-03,   136.611E-09
C:/temp/dataset/6/26_12.odb,Step-1,Increment      1: Step Time =    1.000,"PART-1-1",            79,          -7.5,           30.,            0.,NA,NA,"",   652.492E-03,   652.487E-03,   2.61647E-03,   42.0728E-09
C:/temp/dataset/6/26_12.odb,Step-1,Increment      1: Step Time =    1.000,"PART-1-1",            80,         -12.5,           30.,            0.,NA,NA,"",   654.577E-03,   652.707E-03,   49.4515E-03,   39.8754E-09
C:/temp/dataset/6/26_12.odb,Step-1,Increment      1: Step Time =    1.000,"PART-1-1",            81,          -15.,           25.,            0.,NA,NA,"",   610.373E-03,   605.981E-03,   73.0889E-03,   186.188E-09
C:/temp/dataset/6/26_12.odb,Step-1,Increment      1: Step Time =    1.000,"PART-1-1",            82,          -15.,          27.5,            0.,NA,NA,"",   633.615E-03,   629.399E-03,   72.9789E-03,   52.3985E-09
C:/temp/dataset/6/26_12.odb,Step-1,Increment      1: Step Time =    1.000,"PART-1-1",            83,          -15.,          17.5,            0.,NA,NA,"",   540.725E-03,   535.718E-03,   73.4161E-03,   3.06244E-06
C:/temp/dataset/6/26_12.odb,Step-1,Increment      1: Step Time =    1.000,"PART-1-1",            84,          -15.,           20.,            0.,NA,NA,"",   563.928E-03,   559.142E-03,   73.3093E-03,   224.509E-09
C:/temp/dataset/6/26_12.odb,Step-1,Increment      1: Step Time =    1.000,"PART-1-1",            85,          -15.,           10.,            0.,NA,NA,"",   471.353E-03,   465.583E-03,   73.5273E-03,   85.3150E-06
C:/temp/dataset/6/26_12.odb,Step-1,Increment      1: Step Time =    1.000,"PART-1-1",            86,          -15.,          12.5,            0.,NA,NA,"",   494.384E-03,   488.881E-03,   73.5586E-03,   42.1012E-06
C:/temp/dataset/6/26_12.odb,Step-1,Increment      1: Step Time =    1.000,"PART-1-1",            87,          -15.,           2.5,            0.,NA,NA,"",   405.415E-03,   398.423E-03,   74.9676E-03,   989.352E-06
C:/temp/dataset/6/26_12.odb,Step-1,Increment      1: Step Time =    1.000,"PART-1-1",            88,          -15.,            5.,            0.,NA,NA,"",   426.697E-03,   420.293E-03,   73.6492E-03,   249.153E-06
C:/temp/dataset/6/26_12.odb,Step-1,Increment      1: Step Time =    1.000,"PART-1-1",            89,          -15.,           -5.,            0.,NA,NA,"",   331.260E-03,   318.391E-03,   91.4347E-03,   2.91065E-03
C:/temp/dataset/6/26_12.odb,Step-1,Increment      1: Step Time =    1.000,"PART-1-1",            90,          -15.,          -2.5,            0.,NA,NA,"",   359.869E-03,   349.851E-03,   84.3187E-03,   2.95469E-03
C:/temp/dataset/6/26_12.odb,Step-1,Increment      1: Step Time =    1.000,"PART-1-1",            91,          -15.,         -12.5,            0.,NA,NA,"",   217.855E-03,   194.441E-03,   98.2516E-03,   2.00914E-03
C:/temp/dataset/6/26_12.odb,Step-1,Increment      1: Step Time =    1.000,"PART-1-1",            92,          -15.,          -10.,            0.,NA,NA,"",   258.563E-03,   238.450E-03,   99.9799E-03,   228.539E-06
C:/temp/dataset/6/26_12.odb,Step-1,Increment      1: Step Time =    1.000,"PART-1-1",            93,          -15.,          -20.,            0.,NA,NA,"",   105.001E-03,   80.3847E-03,   67.5530E-03,   6.58048E-03
C:/temp/dataset/6/26_12.odb,Step-1,Increment      1: Step Time =    1.000,"PART-1-1",            94,          -15.,         -17.5,            0.,NA,NA,"",   139.099E-03,   112.881E-03,   81.2789E-03,   5.61248E-03
C:/temp/dataset/6/26_12.odb,Step-1,Increment      1: Step Time =    1.000,"PART-1-1",            95,          -15.,         -27.5,            0.,NA,NA,"",   28.2141E-03,   18.7225E-03,   21.1069E-03,   8.20768E-03
C:/temp/dataset/6/26_12.odb,Step-1,Increment      1: Step Time =    1.000,"PART-1-1",            96,          -15.,          -25.,            0.,NA,NA,"",   50.9664E-03,   35.0434E-03,   37.0073E-03,   6.84458E-03
C:/temp/dataset/6/26_12.odb,Step-1,Increment      1: Step Time =    1.000,"PART-1-1",            97,       13.0047,      -3.80353,            0.,NA,NA,"",   398.260E-03,   394.967E-03,  -51.1096E-03,   3.02464E-03
C:/temp/dataset/6/26_12.odb,Step-1,Increment      1: Step Time =    1.000,"PART-1-1",            98,       6.97971,      -7.55833,            0.,NA,NA,"",   387.649E-03,   387.494E-03,  -10.9767E-03,   6.21833E-03
C:/temp/dataset/6/26_12.odb,Step-1,Increment      1: Step Time =    1.000,"PART-1-1",            99,       6.96639,      -10.0829,            0.,NA,NA,"",   382.760E-03,   382.760E-03,   21.0639E-06,   8.30058E-03
C:/temp/dataset/6/26_12.odb,Step-1,Increment      1: Step Time =    1.000,"PART-1-1",           100,       12.9900,      -12.5465,            0.,NA,NA,"",   337.939E-03,   328.482E-03,  -79.3867E-03,   5.01460E-03
C:/temp/dataset/6/26_12.odb,Step-1,Increment      1: Step Time =    1.000,"PART-1-1",           101,       6.90028,      -17.1420,            0.,NA,NA,"",   209.870E-03,   209.751E-03,   7.06250E-03,   11.0642E-03
C:/temp/dataset/6/26_12.odb,Step-1,Increment      1: Step Time =    1.000,"PART-1-1",           102,       7.03871,      -19.0570,            0.,NA,NA,"",   144.414E-03,   144.326E-03,   5.06243E-03,   12.0244E-03
C:/temp/dataset/6/26_12.odb,Step-1,Increment      1: Step Time =    1.000,"PART-1-1",           103,       5.31709,      -21.2647,            0.,NA,NA,"",   84.2945E-03,   80.7396E-03,   24.2218E-03,   9.28453E-03
C:/temp/dataset/6/26_12.odb,Step-1,Increment      1: Step Time =    1.000,"PART-1-1",           104,      -4.83361,      -22.6144,            0.,NA,NA,"",   47.8831E-03,   46.7143E-03,  -10.5149E-03,   5.48220E-03
C:/temp/dataset/6/26_12.odb,Step-1,Increment      1: Step Time =    1.000,"PART-1-1",           105,      -7.46484,      -17.6587,            0.,NA,NA,"",   99.8451E-03,   99.6106E-03,  -6.83913E-03,   4.60703E-03
C:/temp/dataset/6/26_12.odb,Step-1,Increment      1: Step Time =    1.000,"PART-1-1",           106,      -12.5283,      -27.3245,            0.,NA,NA,"",   17.8097E-03,   13.7809E-03,   11.2814E-03,   5.66104E-03
C:/temp/dataset/6/26_12.odb,Step-1,Increment      1: Step Time =    1.000,"PART-1-1",           107,      -12.4870,      -17.6221,            0.,NA,NA,"",   116.246E-03,   105.736E-03,   48.3004E-03,   3.90787E-03
C:/temp/dataset/6/26_12.odb,Step-1,Increment      1: Step Time =    1.000,"PART-1-1",           108,      -7.32043,      -12.6401,            0.,NA,NA,"",   187.410E-03,   187.015E-03,  -12.1687E-03,   2.41730E-03
C:/temp/dataset/6/26_12.odb,Step-1,Increment      1: Step Time =    1.000,"PART-1-1",           109,      -7.14644,      -8.03697,            0.,NA,NA,"",   272.747E-03,   272.511E-03,  -11.3430E-03,   4.29002E-03
C:/temp/dataset/6/26_12.odb,Step-1,Increment      1: Step Time =    1.000,"PART-1-1",           110,      -12.6601,       4.88622,            0.,NA,NA,"",   422.541E-03,   419.320E-03,   52.0680E-03,   654.416E-06
C:/temp/dataset/6/26_12.odb,Step-1,Increment      1: Step Time =    1.000,"PART-1-1",           111,      -13.0978,       12.5399,            0.,NA,NA,"",   492.326E-03,   489.153E-03,   55.8071E-03,   29.1345E-06
C:/temp/dataset/6/26_12.odb,Step-1,Increment      1: Step Time =    1.000,"PART-1-1",           112,      -6.45576,       21.8628,            0.,NA,NA,"",   576.262E-03,   576.222E-03,  -6.80767E-03,   235.769E-09
C:/temp/dataset/6/26_12.odb,Step-1,Increment      1: Step Time =    1.000,"PART-1-1",           113,      -7.28884,       25.7044,            0.,NA,NA,"",   612.241E-03,   612.241E-03,   826.993E-06,   107.523E-09
C:/temp/dataset/6/26_12.odb,Step-1,Increment      1: Step Time =    1.000,"PART-1-1",           114,      -9.90518,       27.6474,            0.,NA,NA,"",   631.061E-03,   630.555E-03,   25.2488E-03,   61.0440E-09
C:/temp/dataset/6/26_12.odb,Step-1,Increment      1: Step Time =    1.000,"PART-1-1",           115,      -3.01211,      -3.13168,            0.,NA,NA,"",   360.995E-03,   359.610E-03,  -31.5928E-03,   5.66074E-03
C:/temp/dataset/6/26_12.odb,Step-1,Increment      1: Step Time =    1.000,"PART-1-1",           116,      -2.19169,       3.00836,            0.,NA,NA,"",   394.753E-03,   393.294E-03,  -33.9013E-03,   1.93960E-03
C:/temp/dataset/6/26_12.odb,Step-1,Increment      1: Step Time =    1.000,"PART-1-1",           117,       1.85193,      -2.77696,            0.,NA,NA,"",   377.178E-03,   375.512E-03,  -35.4077E-03,   2.91803E-03
C:/temp/dataset/6/26_12.odb,Step-1,Increment      1: Step Time =    1.000,"PART-1-1",           118,       2.83229,       2.22691,            0.,NA,NA,"",   390.772E-03,   388.846E-03,  -38.7495E-03,   1.87605E-03
C:/temp/dataset/6/26_12.odb,Step-1,Increment      1: Step Time =    1.000,"PART-1-1",           119,       7.74921,       3.07964,            0.,NA,NA,"",   395.361E-03,   393.382E-03,  -39.5089E-03,   886.286E-06
C:/temp/dataset/6/26_12.odb,Step-1,Increment      1: Step Time =    1.000,"PART-1-1",           120,      -2.47342,      -22.6017,            0.,NA,NA,"",   49.8394E-03,   49.5785E-03,  -5.09352E-03,   5.97277E-03
C:/temp/dataset/6/26_12.odb,Step-1,Increment      1: Step Time =    1.000,"PART-1-1",           121,      -7.48266,       20.3798,            0.,NA,NA,"",   562.384E-03,   562.377E-03,   2.87618E-03,   1.29302E-06
C:/temp/dataset/6/26_12.odb,Step-1,Increment      1: Step Time =    1.000,"PART-1-1",           122,      -7.10993,       13.1351,            0.,NA,NA,"",   494.531E-03,   494.531E-03,  -294.099E-06,   28.8690E-06
C:/temp/dataset/6/26_12.odb,Step-1,Increment      1: Step Time =    1.000,"PART-1-1",           123,      -6.64156,       6.82435,            0.,NA,NA,"",   434.374E-03,   434.351E-03,  -4.45738E-03,   778.836E-06
C:/temp/dataset/6/26_12.odb,Step-1,Increment      1: Step Time =    1.000,"PART-1-1",           124,      -12.9641,      -2.37512,            0.,NA,NA,"",   358.292E-03,   353.187E-03,   60.2673E-03,   1.57185E-03
C:/temp/dataset/6/26_12.odb,Step-1,Increment      1: Step Time =    1.000,"PART-1-1",           125,      -12.1317,      -9.84573,            0.,NA,NA,"",   246.995E-03,   240.646E-03,   55.6439E-03,   2.89482E-03
C:/temp/dataset/6/26_12.odb,Step-1,Increment      1: Step Time =    1.000,"PART-1-1",           126,       4.04132,      -2.67712,            0.,NA,NA,"",   381.934E-03,   380.554E-03,  -32.4471E-03,   3.48652E-03
C:/temp/dataset/6/26_12.odb,Step-1,Increment      1: Step Time =    1.000,"PART-1-1",           127,       6.95362,      -12.5367,            0.,NA,NA,"",   356.692E-03,   356.680E-03,   2.94701E-03,   10.3565E-03
C:/temp/dataset/6/26_12.odb,Step-1,Increment      1: Step Time =    1.000,"PART-1-1",           128,       6.92458,      -14.9216,            0.,NA,NA,"",   289.603E-03,   289.585E-03,   3.22401E-03,   12.7157E-03
C:/temp/dataset/6/26_12.odb,Step-1,Increment      1: Step Time =    1.000,"PART-1-1",           129,       12.9089,      -21.3671,            0.,NA,NA,"",   125.694E-03,   107.589E-03,  -64.9894E-03,   7.71977E-03
C:/temp/dataset/6/26_12.odb,Step-1,Increment      1: Step Time =    1.000,"PART-1-1",           130,   283.131E-03,      -22.8786,            0.,NA,NA,"",   53.7656E-03,   53.6006E-03,   4.20925E-03,   6.20089E-03
C:/temp/dataset/6/26_12.odb,Step-1,Increment      1: Step Time =    1.000,"PART-1-1",           131,      -12.9776,      -22.4214,            0.,NA,NA,"",   61.3477E-03,   50.1719E-03,   35.3033E-03,   4.87072E-03
C:/temp/dataset/6/26_12.odb,Step-1,Increment      1: Step Time =    1.000,"PART-1-1",           132,      -7.42030,      -15.1083,            0.,NA,NA,"",   142.810E-03,   142.500E-03,  -9.41391E-03,   3.00980E-03
C:/temp/dataset/6/26_12.odb,Step-1,Increment      1: Step Time =    1.000,"PART-1-1",           133,      -7.18486,      -10.2642,            0.,NA,NA,"",   231.443E-03,   231.078E-03,  -12.9883E-03,   2.71357E-03
C:/temp/dataset/6/26_12.odb,Step-1,Increment      1: Step Time =    1.000,"PART-1-1",           134,      -7.33974,      -5.93881,            0.,NA,NA,"",   311.348E-03,   311.299E-03,  -5.49144E-03,   4.03891E-03
C:/temp/dataset/6/26_12.odb,Step-1,Increment      1: Step Time =    1.000,"PART-1-1",           135,  -533.729E-03,      -2.94296,            0.,NA,NA,"",   370.026E-03,   368.356E-03,  -35.1152E-03,   3.89837E-03
C:/temp/dataset/6/26_12.odb,Step-1,Increment      1: Step Time =    1.000,"PART-1-1",           136,       10.2172,      -28.0250,            0.,NA,NA,"",   10.2318E-03,   8.81180E-03,  -5.20010E-03,   4.40239E-03
C:/temp/dataset/6/26_12.odb,Step-1,Increment      1: Step Time =    1.000,"PART-1-1",           137,       7.82196,      -28.0777,            0.,NA,NA,"",   9.10783E-03,   9.10440E-03,   250.094E-06,   3.26128E-03
C:/temp/dataset/6/26_12.odb,Step-1,Increment      1: Step Time =    1.000,"PART-1-1",           138,       5.43540,      -28.0544,            0.,NA,NA,"",   12.3313E-03,   11.8778E-03,   3.31339E-03,   4.91089E-03
C:/temp/dataset/6/26_12.odb,Step-1,Increment      1: Step Time =    1.000,"PART-1-1",           139,       2.98405,      -27.8165,            0.,NA,NA,"",   17.2395E-03,   16.7110E-03,   4.23601E-03,   6.04489E-03
C:/temp/dataset/6/26_12.odb,Step-1,Increment      1: Step Time =    1.000,"PART-1-1",           140,   324.250E-03,      -27.0908,            0.,NA,NA,"",   23.9178E-03,   23.7352E-03,   2.95012E-03,   6.11434E-03
C:/temp/dataset/6/26_12.odb,Step-1,Increment      1: Step Time =    1.000,"PART-1-1",           141,      -2.46293,      -27.5198,            0.,NA,NA,"",   18.6127E-03,   18.6110E-03,  -252.719E-06,   5.34698E-03
C:/temp/dataset/6/26_12.odb,Step-1,Increment      1: Step Time =    1.000,"PART-1-1",           142,      -4.88996,      -27.5861,            0.,NA,NA,"",   15.0243E-03,   14.9749E-03,  -1.21703E-03,   4.46773E-03
C:/temp/dataset/6/26_12.odb,Step-1,Increment      1: Step Time =    1.000,"PART-1-1",           143,      -7.26500,      -27.4866,            0.,NA,NA,"",   12.2988E-03,   12.2988E-03,  -38.2240E-06,   3.32681E-03
C:/temp/dataset/6/26_12.odb,Step-1,Increment      1: Step Time =    1.000,"PART-1-1",           144,      -9.86695,      -26.8928,            0.,NA,NA,"",   14.5943E-03,   13.8313E-03,   4.65718E-03,   2.93203E-03
C:/temp/dataset/6/26_12.odb,Step-1,Increment      1: Step Time =    1.000,"PART-1-1",           145,       12.7710,      -23.5898,            0.,NA,NA,"",   81.6510E-03,   65.9989E-03,  -48.0731E-03,   8.05614E-03
C:/temp/dataset/6/26_12.odb,Step-1,Increment      1: Step Time =    1.000,"PART-1-1",           146,       12.6989,      -25.7990,            0.,NA,NA,"",   46.8520E-03,   35.3541E-03,  -30.7441E-03,   8.85424E-03
C:/temp/dataset/6/26_12.odb,Step-1,Increment      1: Step Time =    1.000,"PART-1-1",           147,       12.6207,      -27.9366,            0.,NA,NA,"",   20.0255E-03,   13.7876E-03,  -14.5232E-03,   9.35261E-03
C:/temp/dataset/6/26_12.odb,Step-1,Increment      1: Step Time =    1.000,"PART-1-1",           148,       12.9983,      -14.8223,            0.,NA,NA,"",   289.753E-03,   276.921E-03,  -85.2754E-03,   6.24623E-03
C:/temp/dataset/6/26_12.odb,Step-1,Increment      1: Step Time =    1.000,"PART-1-1",           149,       13.0558,      -17.0719,            0.,NA,NA,"",   232.782E-03,   216.357E-03,  -85.8908E-03,   7.05001E-03
C:/temp/dataset/6/26_12.odb,Step-1,Increment      1: Step Time =    1.000,"PART-1-1",           150,       13.1682,      -19.2108,            0.,NA,NA,"",   178.504E-03,   158.983E-03,  -81.1671E-03,   7.25498E-03
C:/temp/dataset/6/26_12.odb,Step-1,Increment      1: Step Time =    1.000,"PART-1-1",           151,       13.0670,      -5.94273,            0.,NA,NA,"",   396.017E-03,   392.039E-03,  -55.9918E-03,   3.94849E-03
C:/temp/dataset/6/26_12.odb,Step-1,Increment      1: Step Time =    1.000,"PART-1-1",           152,       13.0350,      -8.09399,            0.,NA,NA,"",   388.322E-03,   383.259E-03,  -62.5029E-03,   4.50432E-03
C:/temp/dataset/6/26_12.odb,Step-1,Increment      1: Step Time =    1.000,"PART-1-1",           153,       12.9982,      -10.2981,            0.,NA,NA,"",   370.507E-03,   363.698E-03,  -70.7025E-03,   4.59302E-03
C:/temp/dataset/6/26_12.odb,Step-1,Increment      1: Step Time =    1.000,"PART-1-1",           154,       12.5107,   556.281E-03,            0.,NA,NA,"",   397.851E-03,   395.155E-03,  -46.2384E-03,   1.34261E-03
C:/temp/dataset/6/26_12.odb,Step-1,Increment      1: Step Time =    1.000,"PART-1-1",           155,       12.7702,      -1.64554,            0.,NA,NA,"",   398.198E-03,   395.316E-03,  -47.8202E-03,   2.12279E-03
C:/temp/dataset/6/26_12.odb,Step-1,Increment      1: Step Time =    1.000,"PART-1-1",           156,       10.0517,       2.85834,            0.,NA,NA,"",   397.136E-03,   394.885E-03,  -42.2214E-03,   894.622E-06
C:/temp/dataset/6/26_12.odb,Step-1,Increment      1: Step Time =    1.000,"PART-1-1",           157,       5.39286,       2.85476,            0.,NA,NA,"",   393.216E-03,   391.334E-03,  -38.4265E-03,   1.15692E-03
C:/temp/dataset/6/26_12.odb,Step-1,Increment      1: Step Time =    1.000,"PART-1-1",           158,   175.602E-03,       2.90951,            0.,NA,NA,"",   392.767E-03,   390.897E-03,  -38.2814E-03,   1.72417E-03
C:/temp/dataset/6/26_12.odb,Step-1,Increment      1: Step Time =    1.000,"PART-1-1",           159,      -4.35394,       2.91920,            0.,NA,NA,"",   396.306E-03,   395.533E-03,  -24.7485E-03,   1.08886E-03
C:/temp/dataset/6/26_12.odb,Step-1,Increment      1: Step Time =    1.000,"PART-1-1",           160,      -7.05997,       10.9599,            0.,NA,NA,"",   474.121E-03,   474.121E-03,  -662.525E-06,   39.6351E-06
C:/temp/dataset/6/26_12.odb,Step-1,Increment      1: Step Time =    1.000,"PART-1-1",           161,      -6.93805,       8.84105,            0.,NA,NA,"",   454.024E-03,   454.021E-03,  -1.69061E-03,   116.915E-06
C:/temp/dataset/6/26_12.odb,Step-1,Increment      1: Step Time =    1.000,"PART-1-1",           162,      -7.28921,       17.6445,            0.,NA,NA,"",   536.756E-03,   536.755E-03,   1.18473E-03,   5.72646E-06
C:/temp/dataset/6/26_12.odb,Step-1,Increment      1: Step Time =    1.000,"PART-1-1",           163,      -7.17735,       15.3234,            0.,NA,NA,"",   515.022E-03,   515.022E-03,   239.544E-06,   15.4729E-06
C:/temp/dataset/6/26_12.odb,Step-1,Increment      1: Step Time =    1.000,"PART-1-1",           164,      -6.93557,       23.5874,            0.,NA,NA,"",   592.400E-03,   592.395E-03,  -2.38914E-03,   58.3296E-09
C:/temp/dataset/6/26_12.odb,Step-1,Increment      1: Step Time =    1.000,"PART-1-1",           165,      -13.1925,       19.7530,            0.,NA,NA,"",   559.597E-03,   556.749E-03,   56.3882E-03,   1.55978E-06
C:/temp/dataset/6/26_12.odb,Step-1,Increment      1: Step Time =    1.000,"PART-1-1",           166,      -7.44963,       27.8335,            0.,NA,NA,"",   632.195E-03,   632.191E-03,   2.23967E-03,   86.1899E-09
C:/temp/dataset/6/26_12.odb,Step-1,Increment      1: Step Time =    1.000,"PART-1-1",           167,      -13.0424,       22.0734,            0.,NA,NA,"",   581.078E-03,   578.481E-03,   54.8805E-03,   241.585E-09
C:/temp/dataset/6/26_12.odb,Step-1,Increment      1: Step Time =    1.000,"PART-1-1",           168,      -13.1316,       14.9813,            0.,NA,NA,"",   515.082E-03,   512.026E-03,   56.0235E-03,   15.9657E-06
C:/temp/dataset/6/26_12.odb,Step-1,Increment      1: Step Time =    1.000,"PART-1-1",           169,      -13.1727,       17.3972,            0.,NA,NA,"",   537.629E-03,   534.672E-03,   56.3052E-03,   5.78816E-06
C:/temp/dataset/6/26_12.odb,Step-1,Increment      1: Step Time =    1.000,"PART-1-1",           170,      -12.8574,       7.53984,            0.,NA,NA,"",   446.100E-03,   442.849E-03,   53.7571E-03,   157.439E-06
C:/temp/dataset/6/26_12.odb,Step-1,Increment      1: Step Time =    1.000,"PART-1-1",           171,      -13.0166,       10.0884,            0.,NA,NA,"",   469.525E-03,   466.275E-03,   55.1455E-03,   21.5540E-06
C:/temp/dataset/6/26_12.odb,Step-1,Increment      1: Step Time =    1.000,"PART-1-1",           172,      -12.8045,  -118.323E-03,            0.,NA,NA,"",   380.142E-03,   376.023E-03,   55.8054E-03,   1.54551E-03
C:/temp/dataset/6/26_12.odb,Step-1,Increment      1: Step Time =    1.000,"PART-1-1",           173,      -12.7039,       2.28772,            0.,NA,NA,"",   400.715E-03,   397.180E-03,   53.1142E-03,   1.25199E-03
C:/temp/dataset/6/26_12.odb,Step-1,Increment      1: Step Time =    1.000,"PART-1-1",           174,      -12.8488,      -7.31355,            0.,NA,NA,"",   292.196E-03,   284.861E-03,   65.0630E-03,   1.91968E-03
C:/temp/dataset/6/26_12.odb,Step-1,Increment      1: Step Time =    1.000,"PART-1-1",           175,      -12.6051,      -4.81291,            0.,NA,NA,"",   328.561E-03,   323.193E-03,   59.1500E-03,   1.47456E-03
C:/temp/dataset/6/26_12.odb,Step-1,Increment      1: Step Time =    1.000,"PART-1-1",           176,      -12.4260,      -15.0682,            0.,NA,NA,"",   156.139E-03,   146.519E-03,   53.9588E-03,   3.53206E-03
C:/temp/dataset/6/26_12.odb,Step-1,Increment      1: Step Time =    1.000,"PART-1-1",           177,      -12.3344,      -12.5112,            0.,NA,NA,"",   200.081E-03,   191.871E-03,   56.7260E-03,   3.19558E-03
C:/temp/dataset/6/26_12.odb,Step-1,Increment      1: Step Time =    1.000,"PART-1-1",           178,      -12.6598,      -20.1148,            0.,NA,NA,"",   84.1756E-03,   73.1348E-03,   41.6753E-03,   4.37891E-03
C:/temp/dataset/6/26_12.odb,Step-1,Increment      1: Step Time =    1.000,"PART-1-1",           179,      -8.70618,       22.9331,            0.,NA,NA,"",   586.517E-03,   586.345E-03,   14.2245E-03,   240.697E-09
C:/temp/dataset/6/26_12.odb,Step-1,Increment      1: Step Time =    1.000,"PART-1-1",           180,      -9.21222,       15.1634,            0.,NA,NA,"",   513.960E-03,   513.596E-03,   19.3327E-03,   17.9720E-06
C:/temp/dataset/6/26_12.odb,Step-1,Increment      1: Step Time =    1.000,"PART-1-1",           181,      -9.55138,       19.8926,            0.,NA,NA,"",   558.347E-03,   557.902E-03,   22.2766E-03,   2.10506E-06
C:/temp/dataset/6/26_12.odb,Step-1,Increment      1: Step Time =    1.000,"PART-1-1",           182,      -8.92203,       8.32966,            0.,NA,NA,"",   449.698E-03,   449.378E-03,   16.9844E-03,   147.039E-06
C:/temp/dataset/6/26_12.odb,Step-1,Increment      1: Step Time =    1.000,"PART-1-1",           183,      -9.17670,       12.8809,            0.,NA,NA,"",   492.587E-03,   492.215E-03,   19.1420E-03,   33.1512E-06
C:/temp/dataset/6/26_12.odb,Step-1,Increment      1: Step Time =    1.000,"PART-1-1",           184,      -9.09923,       10.6117,            0.,NA,NA,"",   471.293E-03,   470.927E-03,   18.5660E-03,   45.4663E-06
C:/temp/dataset/6/26_12.odb,Step-1,Increment      1: Step Time =    1.000,"PART-1-1",           185,      -9.30530,       17.5014,            0.,NA,NA,"",   535.872E-03,   535.496E-03,   20.0833E-03,   7.12604E-06
C:/temp/dataset/6/26_12.odb,Step-1,Increment      1: Step Time =    1.000,"PART-1-1",           186,      -8.37864,       6.17865,            0.,NA,NA,"",   428.934E-03,   428.779E-03,   11.5159E-03,   868.208E-06
C:/temp/dataset/6/26_12.odb,Step-1,Increment      1: Step Time =    1.000,"PART-1-1",           187,       10.9988,      -10.2527,            0.,NA,NA,"",   372.398E-03,   369.482E-03,  -46.5120E-03,   3.27610E-03
C:/temp/dataset/6/26_12.odb,Step-1,Increment      1: Step Time =    1.000,"PART-1-1",           188,       10.8643,      -17.5211,            0.,NA,NA,"",   207.985E-03,   201.457E-03,  -51.7024E-03,   11.2062E-03
C:/temp/dataset/6/26_12.odb,Step-1,Increment      1: Step Time =    1.000,"PART-1-1",           189,       11.0508,      -8.01555,            0.,NA,NA,"",   389.379E-03,   386.930E-03,  -43.6033E-03,   3.49930E-03
C:/temp/dataset/6/26_12.odb,Step-1,Increment      1: Step Time =    1.000,"PART-1-1",           190,       10.6332,      -2.00908,            0.,NA,NA,"",   396.984E-03,   394.860E-03,  -41.0154E-03,   2.64791E-03
C:/temp/dataset/6/26_12.odb,Step-1,Increment      1: Step Time =    1.000,"PART-1-1",           191,       11.1668,      -5.92645,            0.,NA,NA,"",   395.986E-03,   393.639E-03,  -43.0452E-03,   3.62704E-03
C:/temp/dataset/6/26_12.odb,Step-1,Increment      1: Step Time =    1.000,"PART-1-1",           192,       10.9732,      -14.9280,            0.,NA,NA,"",   282.737E-03,   277.248E-03,  -55.4430E-03,   9.65404E-03
C:/temp/dataset/6/26_12.odb,Step-1,Increment      1: Step Time =    1.000,"PART-1-1",           193,       10.5476,      -23.6927,            0.,NA,NA,"",   61.6878E-03,   57.4076E-03,  -22.5777E-03,   5.71803E-03
C:/temp/dataset/6/26_12.odb,Step-1,Increment      1: Step Time =    1.000,"PART-1-1",           194,       10.5707,      -21.1850,            0.,NA,NA,"",   108.906E-03,   103.508E-03,  -33.8619E-03,   8.32774E-03
C:/temp/dataset/6/26_12.odb,Step-1,Increment      1: Step Time =    1.000,"PART-1-1",           195,       10.9760,      -12.5622,            0.,NA,NA,"",   337.962E-03,   333.994E-03,  -51.6341E-03,   5.97081E-03
C:/temp/dataset/6/26_12.odb,Step-1,Increment      1: Step Time =    1.000,"PART-1-1",           196,       11.6229,      -19.2502,            0.,NA,NA,"",   164.337E-03,   154.272E-03,  -56.6271E-03,   9.32083E-03
C:/temp/dataset/6/26_12.odb,Step-1,Increment      1: Step Time =    1.000,"PART-1-1",           197,       11.1609,      -3.97100,            0.,NA,NA,"",   397.654E-03,   395.365E-03,  -42.6125E-03,   3.27775E-03
C:/temp/dataset/6/26_12.odb,Step-1,Increment      1: Step Time =    1.000,"PART-1-1",           198,      -9.55101,       25.2781,            0.,NA,NA,"",   608.746E-03,   608.347E-03,   22.0351E-03,   85.4389E-09
C:/temp/dataset/6/26_12.odb,Step-1,Increment      1: Step Time =    1.000,"PART-1-1",           199,      -6.13353,       2.97524,            0.,NA,NA,"",   398.200E-03,   398.027E-03,  -11.7293E-03,   1.91710E-03
C:/temp/dataset/6/26_12.odb,Step-1,Increment      1: Step Time =    1.000,"PART-1-1",           200,       8.52809,      -18.5145,            0.,NA,NA,"",   166.865E-03,   165.851E-03,  -18.3725E-03,   12.1254E-03
C:/temp/dataset/6/26_12.odb,Step-1,Increment      1: Step Time =    1.000,"PART-1-1",           201,      -9.31256,      -6.57829,            0.,NA,NA,"",   299.637E-03,   299.042E-03,   18.8692E-03,   3.06694E-03
C:/temp/dataset/6/26_12.odb,Step-1,Increment      1: Step Time =    1.000,"PART-1-1",           202,      -7.82061,      -4.24854,            0.,NA,NA,"",   336.769E-03,   336.769E-03,   275.658E-06,   3.10082E-03
C:/temp/dataset/6/26_12.odb,Step-1,Increment      1: Step Time =    1.000,"PART-1-1",           203,       7.55002,      -20.4955,            0.,NA,NA,"",   105.837E-03,   105.836E-03,   578.332E-06,   9.94518E-03
C:/temp/dataset/6/26_12.odb,Step-1,Increment      1: Step Time =    1.000,"PART-1-1",           204,      -9.18944,      -8.43706,            0.,NA,NA,"",   266.674E-03,   266.153E-03,   16.6566E-03,   3.66121E-03
C:/temp/dataset/6/26_12.odb,Step-1,Increment      1: Step Time =    1.000,"PART-1-1",           205,      -12.3720,       27.4312,            0.,NA,NA,"",   630.497E-03,   628.639E-03,   48.3649E-03,   97.6053E-09
C:/temp/dataset/6/26_12.odb,Step-1,Increment      1: Step Time =    1.000,"PART-1-1",           206,      -10.3791,       22.2070,            0.,NA,NA,"",   580.388E-03,   579.616E-03,   29.9267E-03,   452.988E-09
C:/temp/dataset/6/26_12.odb,Step-1,Increment      1: Step Time =    1.000,"PART-1-1",           207,       3.40286,  -884.176E-03,            0.,NA,NA,"",   383.746E-03,   382.054E-03,  -35.9915E-03,   2.89040E-03
C:/temp/dataset/6/26_12.odb,Step-1,Increment      1: Step Time =    1.000,"PART-1-1",           208,       7.88020,       1.44192,            0.,NA,NA,"",   394.107E-03,   392.223E-03,  -38.4985E-03,   1.38496E-03
C:/temp/dataset/6/26_12.odb,Step-1,Increment      1: Step Time =    1.000,"PART-1-1",           209,      -1.17287,  -897.893E-03,            0.,NA,NA,"",   376.512E-03,   374.723E-03,  -36.6620E-03,   2.80284E-03
C:/temp/dataset/6/26_12.odb,Step-1,Increment      1: Step Time =    1.000,"PART-1-1",           210,       10.4014,      -25.9274,            0.,NA,NA,"",   30.7155E-03,   27.9849E-03,  -12.6604E-03,   4.72494E-03
C:/temp/dataset/6/26_12.odb,Step-1,Increment      1: Step Time =    1.000,"PART-1-1",           211,       2.00108,      -24.8239,            0.,NA,NA,"",   43.2259E-03,   42.1898E-03,   9.40759E-03,   7.51082E-03
C:/temp/dataset/6/26_12.odb,Step-1,Increment      1: Step Time =    1.000,"PART-1-1",           212,      -4.80900,      -25.1606,            0.,NA,NA,"",   31.2041E-03,   30.8234E-03,  -4.85911E-03,   4.92358E-03
C:/temp/dataset/6/26_12.odb,Step-1,Increment      1: Step Time =    1.000,"PART-1-1",           213,      -11.5765,       21.3848,            0.,NA,NA,"",   573.446E-03,   571.966E-03,   41.1790E-03,   752.452E-09
C:/temp/dataset/6/26_12.odb,Step-1,Increment      1: Step Time =    1.000,"PART-1-1",           214,      -11.0630,       10.3038,            0.,NA,NA,"",   469.624E-03,   468.167E-03,   36.9550E-03,   41.5687E-06
C:/temp/dataset/6/26_12.odb,Step-1,Increment      1: Step Time =    1.000,"PART-1-1",           215,      -10.2832,  -591.021E-03,            0.,NA,NA,"",   373.572E-03,   372.544E-03,   27.6948E-03,   1.62909E-03
C:/temp/dataset/6/26_12.odb,Step-1,Increment      1: Step Time =    1.000,"PART-1-1",           216,      -11.1869,      -5.64306,            0.,NA,NA,"",   315.076E-03,   312.285E-03,   41.8449E-03,   1.85933E-03
C:/temp/dataset/6/26_12.odb,Step-1,Increment      1: Step Time =    1.000,"PART-1-1",           217,      -9.48237,      -10.3825,            0.,NA,NA,"",   230.797E-03,   229.979E-03,   19.4158E-03,   3.49962E-03
C:/temp/dataset/6/26_12.odb,Step-1,Increment      1: Step Time =    1.000,"PART-1-1",           218,      -10.0191,      -20.7277,            0.,NA,NA,"",   63.3131E-03,   61.3963E-03,   15.4612E-03,   2.59836E-03
C:/temp/dataset/6/26_12.odb,Step-1,Increment      1: Step Time =    1.000,"PART-1-1",           219,      -12.8377,      -24.8331,            0.,NA,NA,"",   38.5591E-03,   30.5356E-03,   23.5454E-03,   5.21712E-03
C:/temp/dataset/6/26_12.odb,Step-1,Increment      1: Step Time =    1.000,"PART-1-1",           220,  -752.185E-03,      -25.0561,            0.,NA,NA,"",   38.4542E-03,   38.4243E-03,   1.51795E-03,   6.36273E-03
C:/temp/dataset/6/26_12.odb,Step-1,Increment      1: Step Time =    1.000,"PART-1-1",           221,      -11.3411,      -22.5061,            0.,NA,NA,"",   51.1561E-03,   46.2440E-03,   21.8732E-03,   3.35271E-03
C:/temp/dataset/6/26_12.odb,Step-1,Increment      1: Step Time =    1.000,"PART-1-1",           222,       5.90860,      -26.1342,            0.,NA,NA,"",   27.5911E-03,   26.6484E-03,   7.15059E-03,   5.32758E-03
C:/temp/dataset/6/26_12.odb,Step-1,Increment      1: Step Time =    1.000,"PART-1-1",           223,       3.81352,      -25.8758,            0.,NA,NA,"",   33.3281E-03,   31.9236E-03,   9.57336E-03,   6.94843E-03
C:/temp/dataset/6/26_12.odb,Step-1,Increment      1: Step Time =    1.000,"PART-1-1",           224,      -6.87266,      -25.1947,            0.,NA,NA,"",   26.7746E-03,   26.6415E-03,  -2.66598E-03,   3.38833E-03
C:/temp/dataset/6/26_12.odb,Step-1,Increment      1: Step Time =    1.000,"PART-1-1",           225,       9.77381,   336.875E-03,            0.,NA,NA,"",   395.881E-03,   393.814E-03,  -40.4068E-03,   1.74522E-03
C:/temp/dataset/6/26_12.odb,Step-1,Increment      1: Step Time =    1.000,"PART-1-1",           226,       4.59800,   29.7464E-03,            0.,NA,NA,"",   387.580E-03,   385.892E-03,  -36.1354E-03,   2.49584E-03
C:/temp/dataset/6/26_12.odb,Step-1,Increment      1: Step Time =    1.000,"PART-1-1",           227,      -11.1551,       12.6912,            0.,NA,NA,"",   491.942E-03,   490.497E-03,   37.6745E-03,   31.8931E-06
C:/temp/dataset/6/26_12.odb,Step-1,Increment      1: Step Time =    1.000,"PART-1-1",           228,      -11.2689,       17.3859,            0.,NA,NA,"",   535.872E-03,   534.489E-03,   38.4806E-03,   7.32456E-06
C:/temp/dataset/6/26_12.odb,Step-1,Increment      1: Step Time =    1.000,"PART-1-1",           229,      -11.2102,       15.0558,            0.,NA,NA,"",   514.062E-03,   512.652E-03,   38.0498E-03,   17.8789E-06
C:/temp/dataset/6/26_12.odb,Step-1,Increment      1: Step Time =    1.000,"PART-1-1",           230,      -10.8139,       7.79620,            0.,NA,NA,"",   446.225E-03,   444.877E-03,   34.6605E-03,   205.187E-06
C:/temp/dataset/6/26_12.odb,Step-1,Increment      1: Step Time =    1.000,"PART-1-1",           231,      -10.1648,       4.85487,            0.,NA,NA,"",   419.075E-03,   418.149E-03,   27.8431E-03,   999.307E-06
C:/temp/dataset/6/26_12.odb,Step-1,Increment      1: Step Time =    1.000,"PART-1-1",           232,      -10.4473,       2.01195,            0.,NA,NA,"",   395.674E-03,   394.561E-03,   29.6535E-03,   1.66671E-03
C:/temp/dataset/6/26_12.odb,Step-1,Increment      1: Step Time =    1.000,"PART-1-1",           233,      -10.4810,      -3.59789,            0.,NA,NA,"",   342.498E-03,   341.044E-03,   31.5337E-03,   1.32625E-03
C:/temp/dataset/6/26_12.odb,Step-1,Increment      1: Step Time =    1.000,"PART-1-1",           234,      -9.89141,      -15.1395,            0.,NA,NA,"",   144.336E-03,   142.665E-03,   21.9020E-03,   3.55401E-03
C:/temp/dataset/6/26_12.odb,Step-1,Increment      1: Step Time =    1.000,"PART-1-1",           235,      -9.95744,      -17.7636,            0.,NA,NA,"",   101.467E-03,   99.4901E-03,   19.9322E-03,   3.70331E-03
C:/temp/dataset/6/26_12.odb,Step-1,Increment      1: Step Time =    1.000,"PART-1-1",           236,      -3.63694,      -1.16253,            0.,NA,NA,"",   371.429E-03,   370.141E-03,  -30.8984E-03,   2.48911E-03
C:/temp/dataset/6/26_12.odb,Step-1,Increment      1: Step Time =    1.000,"PART-1-1",           237,      -7.00580,      -22.7773,            0.,NA,NA,"",   42.5839E-03,   42.2119E-03,  -5.61640E-03,   2.30558E-03
C:/temp/dataset/6/26_12.odb,Step-1,Increment      1: Step Time =    1.000,"PART-1-1",           238,       7.08723,      -4.67483,            0.,NA,NA,"",   390.484E-03,   389.795E-03,  -23.1975E-03,   4.77125E-03
C:/temp/dataset/6/26_12.odb,Step-1,Increment      1: Step Time =    1.000,"PART-1-1",           239,       8.96532,      -10.1697,            0.,NA,NA,"",   376.947E-03,   376.285E-03,  -22.3306E-03,   4.55365E-03
C:/temp/dataset/6/26_12.odb,Step-1,Increment      1: Step Time =    1.000,"PART-1-1",           240,       8.99874,      -7.82238,            0.,NA,NA,"",   389.900E-03,   389.116E-03,  -24.7161E-03,   4.47433E-03
C:/temp/dataset/6/26_12.odb,Step-1,Increment      1: Step Time =    1.000,"PART-1-1",           241,       8.96760,      -14.8663,            0.,NA,NA,"",   285.146E-03,   283.673E-03,  -28.9399E-03,   11.5882E-03
C:/temp/dataset/6/26_12.odb,Step-1,Increment      1: Step Time =    1.000,"PART-1-1",           242,      -12.0836,       24.5335,            0.,NA,NA,"",   603.224E-03,   601.483E-03,   45.7905E-03,   97.1439E-09
C:/temp/dataset/6/26_12.odb,Step-1,Increment      1: Step Time =    1.000,"PART-1-1",           243,       9.21542,      -5.66363,            0.,NA,NA,"",   394.540E-03,   393.400E-03,  -29.9636E-03,   4.12919E-03
C:/temp/dataset/6/26_12.odb,Step-1,Increment      1: Step Time =    1.000,"PART-1-1",           244,       8.72776,      -2.97127,            0.,NA,NA,"",   394.050E-03,   392.662E-03,  -33.0476E-03,   3.54992E-03
C:/temp/dataset/6/26_12.odb,Step-1,Increment      1: Step Time =    1.000,"PART-1-1",           245,       9.39471,      -19.4524,            0.,NA,NA,"",   143.826E-03,   141.402E-03,  -26.2991E-03,   11.0798E-03
C:/temp/dataset/6/26_12.odb,Step-1,Increment      1: Step Time =    1.000,"PART-1-1",           246,       8.06548,      -22.0810,            0.,NA,NA,"",   76.3885E-03,   76.3699E-03,  -1.68605E-03,   5.31461E-03
C:/temp/dataset/6/26_12.odb,Step-1,Increment      1: Step Time =    1.000,"PART-1-1",           247,      -7.53738,       4.79758,            0.,NA,NA,"",   415.137E-03,   415.127E-03,   2.85808E-03,   1.49604E-03
C:/temp/dataset/6/26_12.odb,Step-1,Increment      1: Step Time =    1.000,"PART-1-1",           248,      -10.8025,      -24.3532,            0.,NA,NA,"",   33.5336E-03,   30.7810E-03,   13.3054E-03,   2.88273E-03
C:/temp/dataset/6/26_12.odb,Step-1,Increment      1: Step Time =    1.000,"PART-1-1",           249,       5.82981,      -2.08643,            0.,NA,NA,"",   386.707E-03,   385.451E-03,  -31.1435E-03,   3.99062E-03
C:/temp/dataset/6/26_12.odb,Step-1,Increment      1: Step Time =    1.000,"PART-1-1",           250,      -8.67175,      -2.53401,            0.,NA,NA,"",   355.265E-03,   355.138E-03,   9.51969E-03,   1.80591E-03
C:/temp/dataset/6/26_12.odb,Step-1,Increment      1: Step Time =    1.000,"PART-1-1",           251,       5.78686,      -22.7214,            0.,NA,NA,"",   65.0965E-03,   62.9003E-03,   16.7663E-03,   6.38729E-03
C:/temp/dataset/6/26_12.odb,Step-1,Increment      1: Step Time =    1.000,"PART-1-1",           252,      -8.27594,       1.60152,            0.,NA,NA,"",   390.185E-03,   390.123E-03,   6.96274E-03,   1.93036E-03
C:/temp/dataset/6/26_12.odb,Step-1,Increment      1: Step Time =    1.000,"PART-1-1",           253,       8.25490,      -24.0061,            0.,NA,NA,"",   48.3985E-03,   48.3790E-03,  -1.37614E-03,   3.45158E-03
C:/temp/dataset/6/26_12.odb,Step-1,Increment      1: Step Time =    1.000,"PART-1-1",           254,      -9.04303,      -23.2600,            0.,NA,NA,"",   38.1558E-03,   37.8312E-03,   4.96630E-03,   1.27182E-03
C:/temp/dataset/6/26_12.odb,Step-1,Increment      1: Step Time =    1.000,"PART-1-1",           255,       7.61656,      -1.09448,            0.,NA,NA,"",   391.929E-03,   390.403E-03,  -34.5439E-03,   2.75805E-03
C:/temp/dataset/6/26_12.odb,Step-1,Increment      1: Step Time =    1.000,"PART-1-1",           256,      -4.02262,   861.151E-03,            0.,NA,NA,"",   383.648E-03,   382.639E-03,  -27.7987E-03,   938.721E-06
C:/temp/dataset/6/26_12.odb,Step-1,Increment      1: Step Time =    1.000,"PART-1-1",           257,  -104.141E-03,       1.31276,            0.,NA,NA,"",   387.064E-03,   385.169E-03,  -38.2536E-03,   2.14265E-03
C:/temp/dataset/6/26_12.odb,Step-1,Increment      1: Step Time =    1.000,"PART-1-1",           258,       3.72123,      -23.4419,            0.,NA,NA,"",   57.1308E-03,   54.6628E-03,   16.6106E-03,   8.96891E-03
C:/temp/dataset/6/26_12.odb,Step-1,Increment      1: Step Time =    1.000,"PART-1-1",           259,      -10.7950,      -8.39617,            0.,NA,NA,"",   269.373E-03,   266.727E-03,   37.6639E-03,   3.07030E-03
C:/temp/dataset/6/26_12.odb,Step-1,Increment      1: Step Time =    1.000,"PART-1-1",           260,      -1.85786,       1.02916,            0.,NA,NA,"",   385.229E-03,   383.580E-03,  -35.6052E-03,   1.87369E-03
C:/temp/dataset/6/26_12.odb,Step-1,Increment      1: Step Time =    1.000,"PART-1-1",           261,      -6.46179,      -1.33856,            0.,NA,NA,"",   367.584E-03,   367.361E-03,  -12.8210E-03,   1.84609E-03
C:/temp/dataset/6/26_12.odb,Step-1,Increment      1: Step Time =    1.000,"PART-1-1",           262,      -11.1078,      -7.00587,            0.,NA,NA,"",   293.663E-03,   290.700E-03,   41.6103E-03,   2.53301E-03
C:/temp/dataset/6/26_12.odb,Step-1,Increment      1: Step Time =    1.000,"PART-1-1",           263,      -5.52697,      -3.44125,            0.,NA,NA,"",   351.398E-03,   350.639E-03,  -23.0846E-03,   3.50785E-03
C:/temp/dataset/6/26_12.odb,Step-1,Increment      1: Step Time =    1.000,"PART-1-1",           264,      -9.72268,      -4.98378,            0.,NA,NA,"",   324.450E-03,   323.615E-03,   23.2613E-03,   2.16470E-03
C:/temp/dataset/6/26_12.odb,Step-1,Increment      1: Step Time =    1.000,"PART-1-1",           265,      -6.27329,       4.89376,            0.,NA,NA,"",   414.159E-03,   414.071E-03,  -8.53506E-03,   2.21875E-03
C:/temp/dataset/6/26_12.odb,Step-1,Increment      1: Step Time =    1.000,"PART-1-1",           266,       12.4963,       2.80040,            0.,NA,NA,"",   398.405E-03,   395.746E-03,  -45.9543E-03,   637.694E-06
C:/temp/dataset/6/26_12.odb,Step-1,Increment      1: Step Time =    1.000,"PART-1-1",           267,      -7.37176,      -20.2559,            0.,NA,NA,"",   63.3366E-03,   63.0949E-03,  -5.52700E-03,   2.59674E-03
C:/temp/dataset/6/26_12.odb,Step-1,Increment      1: Step Time =    1.000,"PART-1-1",           268,       2.88963,      -21.8777,            0.,NA,NA,"",   67.2421E-03,   65.7496E-03,   14.0888E-03,   11.4163E-03
C:/temp/dataset/6/26_12.odb,Step-1,Increment      1: Step Time =    1.000,"PART-1-1",           269,      -8.05085,       3.52655,            0.,NA,NA,"",   404.943E-03,   404.892E-03,   6.42446E-03,   1.82410E-03
C:/temp/dataset/6/26_12.odb,Step-1,Increment      1: Step Time =    1.000,"PART-1-1",           270,       8.95558,      -12.5395,            0.,NA,NA,"",   344.191E-03,   343.261E-03,  -25.2837E-03,   7.65958E-03
C:/temp/dataset/6/26_12.odb,Step-1,Increment      1: Step Time =    1.000,"PART-1-1",           271,       1.35989,  -223.950E-03,            0.,NA,NA,"",   382.730E-03,   380.837E-03,  -38.0170E-03,   2.67792E-03
C:/temp/dataset/6/26_12.odb,Step-1,Increment      1: Step Time =    1.000,"PART-1-1",           272,      -9.75004,      -12.6533,            0.,NA,NA,"",   188.869E-03,   187.630E-03,   21.5985E-03,   3.58707E-03
C:/temp/dataset/6/26_12.odb,Step-1,Increment      1: Step Time =    1.000,"PART-1-1",           273,      -8.51206,      -25.1011,            0.,NA,NA,"",   25.4604E-03,   25.3834E-03,   1.97799E-03,   2.10688E-03
C:/temp/dataset/6/26_12.odb,Step-1,Increment      1: Step Time =    1.000,"PART-1-1",           274,      -6.19138,   998.181E-03,            0.,NA,NA,"",   384.591E-03,   384.371E-03,  -13.0200E-03,   1.43120E-03
C:/temp/dataset/6/26_12.odb,Step-1,Increment      1: Step Time =    1.000,"PART-1-1",           275,      -2.63339,      -25.0950,            0.,NA,NA,"",   35.4608E-03,   35.3444E-03,  -2.87169E-03,   6.17332E-03
C:/temp/dataset/6/26_12.odb,Step-1,Increment      1: Step Time =    1.000,"PART-1-1",           276,       8.11811,      -26.0558,            0.,NA,NA,"",   25.3809E-03,   25.3807E-03,  -97.8523E-06,   3.38419E-03
C:/temp/dataset/6/26_12.odb,Step-1,Increment      1: Step Time =    1.000,"PART-1-1",           277,       6.33403,   764.508E-03,            0.,NA,NA,"",   391.322E-03,   389.593E-03,  -36.7403E-03,   1.92642E-03
C:/temp/dataset/6/26_12.odb,Step-1,Increment      1: Step Time =    1.000,"PART-1-1",           278,       8.84044,      -16.9880,            0.,NA,NA,"",   217.148E-03,   215.596E-03,  -25.9155E-03,   13.2811E-03
C:/temp/dataset/6/26_12.odb,Step-1,Increment      1: Step Time =    1.000,"PART-1-1",           279,      -11.3950,       19.6047,            0.,NA,NA,"",   556.689E-03,   555.282E-03,   39.5588E-03,   2.39704E-06
C:/temp/dataset/6/26_12.odb,Step-1,Increment      1: Step Time =    1.000,"PART-1-1",           280,      -11.2464,      -2.22607,            0.,NA,NA,"",   358.215E-03,   356.010E-03,   39.6799E-03,   1.29793E-03
C:/temp/dataset/6/26_12.odb,Step-1,Increment      1: Step Time =    1.000,"PART-1-1",           281,      -8.41776,  -32.7016E-03,            0.,NA,NA,"",   377.555E-03,   377.484E-03,   7.33040E-03,   1.84090E-03
C:/temp/dataset/6/26_12.odb,Step-1,Increment      1: Step Time =    1.000,"PART-1-1",           282,       4.48255,      -24.5345,            0.,NA,NA,"",   45.7493E-03,   43.6352E-03,   13.7465E-03,   7.22700E-03
C:/temp/dataset/6/26_12.odb,Step-1,Increment      1: Step Time =    1.000,"PART-1-1",           283,       6.11275,      -24.3348,            0.,NA,NA,"",   45.5409E-03,   44.1794E-03,   11.0522E-03,   5.28456E-03
C:/temp/dataset/6/26_12.odb,Step-1,Increment      1: Step Time =    1.000,"PART-1-1",           284,       9.69767,      -4.20039,            0.,NA,NA,"",   395.875E-03,   394.328E-03,  -34.9678E-03,   3.66272E-03
C:/temp/dataset/6/26_12.odb,Step-1,Increment      1: Step Time =    1.000,"PART-1-1",           285,       13.8851,      -1.60402,            0.,NA,NA,"",   398.046E-03,   394.854E-03,  -50.3082E-03,   1.69214E-03
C:/temp/dataset/6/26_12.odb,Step-1,Increment      1: Step Time =    1.000,"PART-1-1",           286,           15.,   -468.75E-03,            0.,NA,NA,"",   397.556E-03,   394.393E-03,  -50.0489E-03,   1.25083E-03
C:/temp/dataset/6/26_12.odb,Step-1,Increment      1: Step Time =    1.000,"PART-1-1",           287,       13.7553,   590.641E-03,            0.,NA,NA,"",   397.964E-03,   395.034E-03,  -48.1976E-03,   853.008E-06
C:/temp/dataset/6/26_12.odb,Step-1,Increment      1: Step Time =    1.000,"PART-1-1",           288,       12.6405,  -544.629E-03,            0.,NA,NA,"",   397.976E-03,   395.207E-03,  -46.8664E-03,   1.71873E-03
C:/temp/dataset/6/26_12.odb,Step-1,Increment      1: Step Time =    1.000,"PART-1-1",           289,       6.57104,       2.96720,            0.,NA,NA,"",   394.249E-03,   392.344E-03,  -38.7168E-03,   930.315E-06
C:/temp/dataset/6/26_12.odb,Step-1,Increment      1: Step Time =    1.000,"PART-1-1",           290,       5.86345,       1.80964,            0.,NA,NA,"",   392.205E-03,   390.384E-03,  -37.7446E-03,   1.49082E-03
C:/temp/dataset/6/26_12.odb,Step-1,Increment      1: Step Time =    1.000,"PART-1-1",           291,       7.10711,       1.10321,            0.,NA,NA,"",   392.809E-03,   391.018E-03,  -37.4671E-03,   1.58586E-03
C:/temp/dataset/6/26_12.odb,Step-1,Increment      1: Step Time =    1.000,"PART-1-1",           292,       7.81470,       2.26078,            0.,NA,NA,"",   394.723E-03,   392.783E-03,  -39.0835E-03,   1.12984E-03
C:/temp/dataset/6/26_12.odb,Step-1,Increment      1: Step Time =    1.000,"PART-1-1",           293,       6.97305,      -8.82061,            0.,NA,NA,"",   385.951E-03,   385.920E-03,  -4.84697E-03,   7.02486E-03
C:/temp/dataset/6/26_12.odb,Step-1,Increment      1: Step Time =    1.000,"PART-1-1",           294,       5.98985,      -7.53541,            0.,NA,NA,"",   385.598E-03,   385.517E-03,  -7.91223E-03,   6.67201E-03
C:/temp/dataset/6/26_12.odb,Step-1,Increment      1: Step Time =    1.000,"PART-1-1",           295,            5.,      -8.76875,            0.,NA,NA,"",   379.528E-03,   379.522E-03,   2.29033E-03,   7.97313E-03
C:/temp/dataset/6/26_12.odb,Step-1,Increment      1: Step Time =    1.000,"PART-1-1",           296,       5.98320,      -10.0539,            0.,NA,NA,"",   384.755E-03,   384.639E-03,   9.44624E-03,   9.59425E-03
C:/temp/dataset/6/26_12.odb,Step-1,Increment      1: Step Time =    1.000,"PART-1-1",           297,       12.0429,      -8.05477,            0.,NA,NA,"",   388.975E-03,   385.324E-03,  -53.1677E-03,   3.70148E-03
C:/temp/dataset/6/26_12.odb,Step-1,Increment      1: Step Time =    1.000,"PART-1-1",           298,       11.0248,      -9.13413,            0.,NA,NA,"",   382.552E-03,   379.918E-03,  -44.8151E-03,   3.00519E-03
C:/temp/dataset/6/26_12.odb,Step-1,Increment      1: Step Time =    1.000,"PART-1-1",           299,       11.9985,      -10.2754,            0.,NA,NA,"",   371.218E-03,   366.570E-03,  -58.5625E-03,   3.75980E-03
C:/temp/dataset/6/26_12.odb,Step-1,Increment      1: Step Time =    1.000,"PART-1-1",           300,       13.0166,      -9.19606,            0.,NA,NA,"",   380.965E-03,   375.116E-03,  -66.5005E-03,   4.43675E-03
C:/temp/dataset/6/26_12.odb,Step-1,Increment      1: Step Time =    1.000,"PART-1-1",           301,       13.9992,      -14.7549,            0.,NA,NA,"",   295.767E-03,   277.209E-03,  -103.117E-03,   4.38305E-03
C:/temp/dataset/6/26_12.odb,Step-1,Increment      1: Step Time =    1.000,"PART-1-1",           302,       13.0271,      -15.9471,            0.,NA,NA,"",   261.905E-03,   247.250E-03,  -86.3828E-03,   6.46950E-03
C:/temp/dataset/6/26_12.odb,Step-1,Increment      1: Step Time =    1.000,"PART-1-1",           303,       14.0279,      -16.9735,            0.,NA,NA,"",   243.170E-03,   219.486E-03,  -104.679E-03,   3.82053E-03
C:/temp/dataset/6/26_12.odb,Step-1,Increment      1: Step Time =    1.000,"PART-1-1",           304,           15.,      -15.7813,            0.,NA,NA,"",   280.679E-03,   250.196E-03,  -127.212E-03,   1.80045E-03
C:/temp/dataset/6/26_12.odb,Step-1,Increment      1: Step Time =    1.000,"PART-1-1",           305,       6.96949,      -18.0995,            0.,NA,NA,"",   174.987E-03,   174.919E-03,   4.88964E-03,   10.4684E-03
C:/temp/dataset/6/26_12.odb,Step-1,Increment      1: Step Time =    1.000,"PART-1-1",           306,       5.95014,      -17.3335,            0.,NA,NA,"",   204.054E-03,   202.034E-03,   28.6442E-03,   4.29495E-03
C:/temp/dataset/6/26_12.odb,Step-1,Increment      1: Step Time =    1.000,"PART-1-1",           307,            5.,      -18.7625,            0.,NA,NA,"",   162.694E-03,   154.909E-03,   49.7268E-03,   13.2123E-03
C:/temp/dataset/6/26_12.odb,Step-1,Increment      1: Step Time =    1.000,"PART-1-1",           308,       6.01935,      -19.5285,            0.,NA,NA,"",   123.906E-03,   122.245E-03,   20.2171E-03,   15.6432E-03
C:/temp/dataset/6/26_12.odb,Step-1,Increment      1: Step Time =    1.000,"PART-1-1",           309,       7.66098,      -29.0388,            0.,NA,NA,"",   3.71770E-03,   3.71651E-03,   94.0809E-06,   2.59285E-03
C:/temp/dataset/6/26_12.odb,Step-1,Increment      1: Step Time =    1.000,"PART-1-1",           310,       6.62868,      -28.0660,            0.,NA,NA,"",   10.5512E-03,   10.3412E-03,   2.09440E-03,   3.99560E-03
C:/temp/dataset/6/26_12.odb,Step-1,Increment      1: Step Time =    1.000,"PART-1-1",           311,       5.21770,      -29.0272,            0.,NA,NA,"",   5.82902E-03,   5.64410E-03,   1.45657E-03,   4.38219E-03
C:/temp/dataset/6/26_12.odb,Step-1,Increment      1: Step Time =    1.000,"PART-1-1",           312,          6.25,          -30.,            0.,NA,NA,"",            0.,   2.61760E-39,   1.69332E-39,   2.90392E-03
C:/temp/dataset/6/26_12.odb,Step-1,Increment      1: Step Time =    1.000,"PART-1-1",           313,   162.125E-03,      -28.5454,            0.,NA,NA,"",   12.2535E-03,   12.1719E-03,   1.41157E-03,   5.87262E-03
C:/temp/dataset/6/26_12.odb,Step-1,Increment      1: Step Time =    1.000,"PART-1-1",           314,      -1.06934,      -27.3053,            0.,NA,NA,"",   21.5149E-03,   21.4902E-03,   1.02911E-03,   5.64872E-03
C:/temp/dataset/6/26_12.odb,Step-1,Increment      1: Step Time =    1.000,"PART-1-1",           315,      -2.48147,      -28.7599,            0.,NA,NA,"",   9.52790E-03,   9.52648E-03,   164.486E-06,   5.14024E-03
C:/temp/dataset/6/26_12.odb,Step-1,Increment      1: Step Time =    1.000,"PART-1-1",           316,         -1.25,          -30.,            0.,NA,NA,"",            0.,   5.26046E-39,   1.59122E-39,   5.34685E-03
C:/temp/dataset/6/26_12.odb,Step-1,Increment      1: Step Time =    1.000,"PART-1-1",           317,          -15.,        -21.25,            0.,NA,NA,"",   89.8389E-03,   66.7844E-03,   60.0905E-03,   6.76806E-03
C:/temp/dataset/6/26_12.odb,Step-1,Increment      1: Step Time =    1.000,"PART-1-1",           318,      -13.9888,      -22.4607,            0.,NA,NA,"",   68.1720E-03,   52.2739E-03,   43.7591E-03,   5.88695E-03
C:/temp/dataset/6/26_12.odb,Step-1,Increment      1: Step Time =    1.000,"PART-1-1",           319,      -12.8187,      -21.2681,            0.,NA,NA,"",   72.1577E-03,   60.8780E-03,   38.7377E-03,   4.59074E-03
C:/temp/dataset/6/26_12.odb,Step-1,Increment      1: Step Time =    1.000,"PART-1-1",           320,      -13.8299,      -20.0574,            0.,NA,NA,"",   93.7762E-03,   76.5082E-03,   54.2261E-03,   5.42822E-03
C:/temp/dataset/6/26_12.odb,Step-1,Increment      1: Step Time =    1.000,"PART-1-1",           321,      -12.5142,      -28.6623,            0.,NA,NA,"",   7.37721E-03,   5.40091E-03,   5.02528E-03,   5.06132E-03
C:/temp/dataset/6/26_12.odb,Step-1,Increment      1: Step Time =    1.000,"PART-1-1",           322,        -11.25,          -30.,            0.,NA,NA,"",            0.,   1.50148E-39,   6.37235E-39,   3.73452E-03
C:/temp/dataset/6/26_12.odb,Step-1,Increment      1: Step Time =    1.000,"PART-1-1",           323,      -9.93348,      -28.4464,            0.,NA,NA,"",   6.19694E-03,   5.65875E-03,   2.52599E-03,   2.87847E-03
C:/temp/dataset/6/26_12.odb,Step-1,Increment      1: Step Time =    1.000,"PART-1-1",           324,      -11.1976,      -27.1087,            0.,NA,NA,"",   15.2678E-03,   13.1622E-03,   7.73719E-03,   4.02041E-03
C:/temp/dataset/6/26_12.odb,Step-1,Increment      1: Step Time =    1.000,"PART-1-1",           325,      -7.37036,      -13.8742,            0.,NA,NA,"",   164.893E-03,   164.522E-03,  -11.0591E-03,   2.55891E-03
C:/temp/dataset/6/26_12.odb,Step-1,Increment      1: Step Time =    1.000,"PART-1-1",           326,      -6.21015,      -15.0417,            0.,NA,NA,"",   146.747E-03,   144.222E-03,  -27.1083E-03,   2.05698E-03
C:/temp/dataset/6/26_12.odb,Step-1,Increment      1: Step Time =    1.000,"PART-1-1",           327,           -5.,      -13.7188,            0.,NA,NA,"",   174.659E-03,   167.762E-03,  -48.5956E-03,   1.22628E-03
C:/temp/dataset/6/26_12.odb,Step-1,Increment      1: Step Time =    1.000,"PART-1-1",           328,      -6.16021,      -12.5513,            0.,NA,NA,"",   190.841E-03,   188.472E-03,  -29.9776E-03,   1.25288E-03
C:/temp/dataset/6/26_12.odb,Step-1,Increment      1: Step Time =    1.000,"PART-1-1",           329,      -9.33590,      -9.40979,            0.,NA,NA,"",   248.720E-03,   248.066E-03,   18.0145E-03,   3.61604E-03
C:/temp/dataset/6/26_12.odb,Step-1,Increment      1: Step Time =    1.000,"PART-1-1",           330,      -8.33361,      -10.3234,            0.,NA,NA,"",   230.591E-03,   230.564E-03,   3.53512E-03,   3.13823E-03
C:/temp/dataset/6/26_12.odb,Step-1,Increment      1: Step Time =    1.000,"PART-1-1",           331,      -7.16565,      -9.15059,            0.,NA,NA,"",   252.253E-03,   251.954E-03,  -12.2761E-03,   3.15751E-03
C:/temp/dataset/6/26_12.odb,Step-1,Increment      1: Step Time =    1.000,"PART-1-1",           332,      -8.16794,      -8.23701,            0.,NA,NA,"",   269.543E-03,   269.525E-03,   3.16538E-03,   3.68081E-03
C:/temp/dataset/6/26_12.odb,Step-1,Increment      1: Step Time =    1.000,"PART-1-1",           333,      -11.1473,      -6.32447,            0.,NA,NA,"",   304.649E-03,   301.769E-03,   41.7856E-03,   2.17027E-03
C:/temp/dataset/6/26_12.odb,Step-1,Increment      1: Step Time =    1.000,"PART-1-1",           334,      -10.2102,      -6.79208,            0.,NA,NA,"",   296.341E-03,   294.812E-03,   30.0672E-03,   2.78887E-03
C:/temp/dataset/6/26_12.odb,Step-1,Increment      1: Step Time =    1.000,"PART-1-1",           335,      -9.51762,      -5.78103,            0.,NA,NA,"",   312.407E-03,   311.689E-03,   21.1660E-03,   2.55023E-03
C:/temp/dataset/6/26_12.odb,Step-1,Increment      1: Step Time =    1.000,"PART-1-1",           336,      -10.4548,      -5.31342,            0.,NA,NA,"",   319.536E-03,   317.879E-03,   32.4970E-03,   2.00663E-03
C:/temp/dataset/6/26_12.odb,Step-1,Increment      1: Step Time =    1.000,"PART-1-1",           337,      -5.04937,      -1.25055,            0.,NA,NA,"",   369.454E-03,   368.704E-03,  -23.5276E-03,   1.63458E-03
C:/temp/dataset/6/26_12.odb,Step-1,Increment      1: Step Time =    1.000,"PART-1-1",           338,      -3.82978,  -150.691E-03,            0.,NA,NA,"",   377.519E-03,   376.373E-03,  -29.3904E-03,   1.57322E-03
C:/temp/dataset/6/26_12.odb,Step-1,Increment      1: Step Time =    1.000,"PART-1-1",           339,      -5.10700,   929.666E-03,            0.,NA,NA,"",   383.974E-03,   383.388E-03,  -21.2080E-03,   908.648E-06
C:/temp/dataset/6/26_12.odb,Step-1,Increment      1: Step Time =    1.000,"PART-1-1",           340,      -6.32658,  -170.190E-03,            0.,NA,NA,"",   376.390E-03,   376.170E-03,  -12.8926E-03,   1.49264E-03
C:/temp/dataset/6/26_12.odb,Step-1,Increment      1: Step Time =    1.000,"PART-1-1",           341,          -15.,          3.75,            0.,NA,NA,"",   415.996E-03,   409.343E-03,   74.1043E-03,   611.261E-06
C:/temp/dataset/6/26_12.odb,Step-1,Increment      1: Step Time =    1.000,"PART-1-1",           342,      -13.8520,       2.39386,            0.,NA,NA,"",   403.077E-03,   397.888E-03,   64.4670E-03,   959.523E-06
C:/temp/dataset/6/26_12.odb,Step-1,Increment      1: Step Time =    1.000,"PART-1-1",           343,      -12.6820,       3.58697,            0.,NA,NA,"",   411.574E-03,   408.213E-03,   52.4872E-03,   943.215E-06
C:/temp/dataset/6/26_12.odb,Step-1,Increment      1: Step Time =    1.000,"PART-1-1",           344,      -13.8301,       4.94311,            0.,NA,NA,"",   424.567E-03,   419.856E-03,   63.0739E-03,   382.957E-06
C:/temp/dataset/6/26_12.odb,Step-1,Increment      1: Step Time =    1.000,"PART-1-1",           345,          -15.,         11.25,            0.,NA,NA,"",   482.843E-03,   477.208E-03,   73.5530E-03,   60.6735E-06
C:/temp/dataset/6/26_12.odb,Step-1,Increment      1: Step Time =    1.000,"PART-1-1",           346,      -14.0083,       10.0442,            0.,NA,NA,"",   470.342E-03,   465.921E-03,   64.3351E-03,   45.6837E-06
C:/temp/dataset/6/26_12.odb,Step-1,Increment      1: Step Time =    1.000,"PART-1-1",           347,      -13.0572,       11.3141,            0.,NA,NA,"",   480.902E-03,   477.692E-03,   55.4752E-03,   22.6783E-06
C:/temp/dataset/6/26_12.odb,Step-1,Increment      1: Step Time =    1.000,"PART-1-1",           348,      -14.0489,       12.5200,            0.,NA,NA,"",   493.271E-03,   489.013E-03,   64.6754E-03,   29.3462E-06
C:/temp/dataset/6/26_12.odb,Step-1,Increment      1: Step Time =    1.000,"PART-1-1",           349,           -5.,       22.7083,            0.,NA,NA,"",   584.436E-03,   584.077E-03,  -20.4801E-03,   288.211E-09
C:/temp/dataset/6/26_12.odb,Step-1,Increment      1: Step Time =    1.000,"PART-1-1",           350,      -5.96779,       23.6687,            0.,NA,NA,"",   593.225E-03,   593.115E-03,  -11.4576E-03,   128.625E-09
C:/temp/dataset/6/26_12.odb,Step-1,Increment      1: Step Time =    1.000,"PART-1-1",           351,      -6.69567,       22.7251,            0.,NA,NA,"",   584.327E-03,   584.308E-03,  -4.59841E-03,   112.062E-09
C:/temp/dataset/6/26_12.odb,Step-1,Increment      1: Step Time =    1.000,"PART-1-1",           352,      -5.72788,       21.7648,            0.,NA,NA,"",   575.432E-03,   575.271E-03,  -13.6210E-03,   142.003E-09
C:/temp/dataset/6/26_12.odb,Step-1,Increment      1: Step Time =    1.000,"PART-1-1",           353,      -9.95259,       28.8237,            0.,NA,NA,"",   642.088E-03,   641.576E-03,   25.6413E-03,   66.4793E-09
C:/temp/dataset/6/26_12.odb,Step-1,Increment      1: Step Time =    1.000,"PART-1-1",           354,      -8.67740,       27.7404,            0.,NA,NA,"",   631.523E-03,   631.373E-03,   13.7442E-03,   62.0022E-09
C:/temp/dataset/6/26_12.odb,Step-1,Increment      1: Step Time =    1.000,"PART-1-1",           355,      -7.47481,       28.9167,            0.,NA,NA,"",   642.344E-03,   642.339E-03,   2.42807E-03,   56.1826E-09
C:/temp/dataset/6/26_12.odb,Step-1,Increment      1: Step Time =    1.000,"PART-1-1",           356,         -8.75,           30.,            0.,NA,NA,"",   652.699E-03,   652.542E-03,   14.3251E-03,   68.3294E-09
C:/temp/dataset/6/26_12.odb,Step-1,Increment      1: Step Time =    1.000,"PART-1-1",           357,      -12.4360,       28.7156,            0.,NA,NA,"",   642.537E-03,   640.673E-03,   48.9082E-03,   59.3581E-09
C:/temp/dataset/6/26_12.odb,Step-1,Increment      1: Step Time =    1.000,"PART-1-1",           358,        -13.75,           30.,            0.,NA,NA,"",   655.620E-03,   652.761E-03,   61.1604E-03,   15.2169E-09
C:/temp/dataset/6/26_12.odb,Step-1,Increment      1: Step Time =    1.000,"PART-1-1",           359,          -15.,         28.75,            0.,NA,NA,"",   645.242E-03,   641.107E-03,   72.9241E-03,   19.5944E-09
C:/temp/dataset/6/26_12.odb,Step-1,Increment      1: Step Time =    1.000,"PART-1-1",           360,      -13.6860,       27.4656,            0.,NA,NA,"",   631.938E-03,   629.019E-03,   60.6719E-03,   62.5780E-09
C:/temp/dataset/6/26_12.odb,Step-1,Increment      1: Step Time =    1.000,"PART-1-1",           361,         -3.75,           -5.,            0.,NA,NA,"",   347.488E-03,   346.395E-03,  -27.5410E-03,   9.46423E-03
C:/temp/dataset/6/26_12.odb,Step-1,Increment      1: Step Time =    1.000,"PART-1-1",           362,      -2.75606,      -4.06584,            0.,NA,NA,"",   357.224E-03,   355.847E-03,  -31.3289E-03,   5.61717E-03
C:/temp/dataset/6/26_12.odb,Step-1,Increment      1: Step Time =    1.000,"PART-1-1",           363,      -4.26954,      -3.28646,            0.,NA,NA,"",   355.486E-03,   354.218E-03,  -30.0019E-03,   4.13906E-03
C:/temp/dataset/6/26_12.odb,Step-1,Increment      1: Step Time =    1.000,"PART-1-1",           364,      -5.26349,      -4.22062,            0.,NA,NA,"",   344.545E-03,   343.459E-03,  -27.3344E-03,   7.15485E-03
C:/temp/dataset/6/26_12.odb,Step-1,Increment      1: Step Time =    1.000,"PART-1-1",           365,   659.099E-03,      -2.85996,            0.,NA,NA,"",   373.889E-03,   372.186E-03,  -35.6452E-03,   3.42141E-03
C:/temp/dataset/6/26_12.odb,Step-1,Increment      1: Step Time =    1.000,"PART-1-1",           366,  -266.865E-03,      -3.97148,            0.,NA,NA,"",   368.746E-03,   367.222E-03,  -33.4986E-03,   4.27311E-03
C:/temp/dataset/6/26_12.odb,Step-1,Increment      1: Step Time =    1.000,"PART-1-1",           367,          1.25,           -5.,            0.,NA,NA,"",   373.430E-03,   372.046E-03,  -32.1149E-03,   4.23423E-03
C:/temp/dataset/6/26_12.odb,Step-1,Increment      1: Step Time =    1.000,"PART-1-1",           368,       2.17596,      -3.88848,            0.,NA,NA,"",   376.787E-03,   375.299E-03,  -33.4486E-03,   3.25583E-03
C:/temp/dataset/6/26_12.odb,Step-1,Increment      1: Step Time =    1.000,"PART-1-1",           369,   93.5104E-03,  -560.922E-03,            0.,NA,NA,"",   379.877E-03,   377.992E-03,  -37.7892E-03,   2.72901E-03
C:/temp/dataset/6/26_12.odb,Step-1,Increment      1: Step Time =    1.000,"PART-1-1",           370,   627.873E-03,   544.404E-03,            0.,NA,NA,"",   384.572E-03,   382.644E-03,  -38.4625E-03,   2.33984E-03
C:/temp/dataset/6/26_12.odb,Step-1,Increment      1: Step Time =    1.000,"PART-1-1",           371,  -981.002E-03,       1.17096,            0.,NA,NA,"",   386.165E-03,   384.363E-03,  -37.2604E-03,   1.96376E-03
C:/temp/dataset/6/26_12.odb,Step-1,Increment      1: Step Time =    1.000,"PART-1-1",           372,      -1.51537,   65.6335E-03,            0.,NA,NA,"",   380.663E-03,   378.918E-03,  -36.4056E-03,   2.26759E-03
C:/temp/dataset/6/26_12.odb,Step-1,Increment      1: Step Time =    1.000,"PART-1-1",           373,       4.11258,       2.54084,            0.,NA,NA,"",   391.990E-03,   390.099E-03,  -38.4617E-03,   1.48821E-03
C:/temp/dataset/6/26_12.odb,Step-1,Increment      1: Step Time =    1.000,"PART-1-1",           374,       3.71515,       1.12833,            0.,NA,NA,"",   388.798E-03,   386.959E-03,  -37.7729E-03,   2.08181E-03
C:/temp/dataset/6/26_12.odb,Step-1,Increment      1: Step Time =    1.000,"PART-1-1",           375,       5.46602,   397.127E-03,            0.,NA,NA,"",   389.508E-03,   387.818E-03,  -36.2445E-03,   2.17810E-03
C:/temp/dataset/6/26_12.odb,Step-1,Increment      1: Step Time =    1.000,"PART-1-1",           376,       8.69518,  -378.803E-03,            0.,NA,NA,"",   394.220E-03,   392.433E-03,  -37.4893E-03,   2.14103E-03
C:/temp/dataset/6/26_12.odb,Step-1,Increment      1: Step Time =    1.000,"PART-1-1",           377,       8.82700,   889.396E-03,            0.,NA,NA,"",   394.928E-03,   392.982E-03,  -39.1540E-03,   1.46542E-03
C:/temp/dataset/6/26_12.odb,Step-1,Increment      1: Step Time =    1.000,"PART-1-1",           378,       6.97530,  -164.986E-03,            0.,NA,NA,"",   391.322E-03,   389.701E-03,  -35.5917E-03,   2.24676E-03
C:/temp/dataset/6/26_12.odb,Step-1,Increment      1: Step Time =    1.000,"PART-1-1",           379,      -3.65351,      -22.6081,            0.,NA,NA,"",   49.6940E-03,   48.7752E-03,  -9.51183E-03,   5.50473E-03
C:/temp/dataset/6/26_12.odb,Step-1,Increment      1: Step Time =    1.000,"PART-1-1",           380,      -2.48671,      -21.3009,            0.,NA,NA,"",   55.0068E-03,   54.5557E-03,  -7.02998E-03,   2.70419E-03
C:/temp/dataset/6/26_12.odb,Step-1,Increment      1: Step Time =    1.000,"PART-1-1",           381,         -3.75,          -20.,            0.,NA,NA,"",   57.2160E-03,   56.0865E-03,  -11.3127E-03,   5.12376E-03
C:/temp/dataset/6/26_12.odb,Step-1,Increment      1: Step Time =    1.000,"PART-1-1",           382,      -4.91680,      -21.3072,            0.,NA,NA,"",   56.3256E-03,   54.0520E-03,  -15.8417E-03,   6.27517E-03
C:/temp/dataset/6/26_12.odb,Step-1,Increment      1: Step Time =    1.000,"PART-1-1",           383,       12.8399,      -22.4784,            0.,NA,NA,"",   102.529E-03,   85.3794E-03,  -56.7674E-03,   7.83104E-03
C:/temp/dataset/6/26_12.odb,Step-1,Increment      1: Step Time =    1.000,"PART-1-1",           384,       11.7398,      -21.2760,            0.,NA,NA,"",   116.322E-03,   105.675E-03,  -48.6171E-03,   7.83266E-03
C:/temp/dataset/6/26_12.odb,Step-1,Increment      1: Step Time =    1.000,"PART-1-1",           385,       10.5591,      -22.4389,            0.,NA,NA,"",   83.1863E-03,   78.3207E-03,  -28.0327E-03,   6.89253E-03
C:/temp/dataset/6/26_12.odb,Step-1,Increment      1: Step Time =    1.000,"PART-1-1",           386,       11.6593,      -23.6412,            0.,NA,NA,"",   70.4420E-03,   61.3977E-03,  -34.5312E-03,   6.77587E-03
C:/temp/dataset/6/26_12.odb,Step-1,Increment      1: Step Time =    1.000,"PART-1-1",           387,          8.75,            5.,            0.,NA,NA,"",   397.977E-03,   395.827E-03,  -41.3112E-03,   831.921E-06
C:/temp/dataset/6/26_12.odb,Step-1,Increment      1: Step Time =    1.000,"PART-1-1",           388,       7.62461,       4.03982,            0.,NA,NA,"",   396.090E-03,   394.081E-03,  -39.8450E-03,   914.824E-06
C:/temp/dataset/6/26_12.odb,Step-1,Increment      1: Step Time =    1.000,"PART-1-1",           389,       8.90047,       2.96899,            0.,NA,NA,"",   396.286E-03,   394.192E-03,  -40.6810E-03,   835.408E-06
C:/temp/dataset/6/26_12.odb,Step-1,Increment      1: Step Time =    1.000,"PART-1-1",           390,       10.0259,       3.92917,            0.,NA,NA,"",   397.890E-03,   395.612E-03,  -42.5197E-03,   732.439E-06
C:/temp/dataset/6/26_12.odb,Step-1,Increment      1: Step Time =    1.000,"PART-1-1",           391,      -6.96921,       21.1213,            0.,NA,NA,"",   569.302E-03,   569.299E-03,  -1.96587E-03,   769.971E-09
C:/temp/dataset/6/26_12.odb,Step-1,Increment      1: Step Time =    1.000,"PART-1-1",           392,      -6.24133,       19.9816,            0.,NA,NA,"",   558.661E-03,   558.593E-03,  -8.73387E-03,   819.858E-09
C:/temp/dataset/6/26_12.odb,Step-1,Increment      1: Step Time =    1.000,"PART-1-1",           393,           -5.,        20.625,            0.,NA,NA,"",   564.932E-03,   564.564E-03,  -20.3882E-03,   113.079E-09
C:/temp/dataset/6/26_12.odb,Step-1,Increment      1: Step Time =    1.000,"PART-1-1",           394,      -12.9370,       8.81410,            0.,NA,NA,"",   457.740E-03,   454.491E-03,   54.4482E-03,   70.9501E-06
C:/temp/dataset/6/26_12.odb,Step-1,Increment      1: Step Time =    1.000,"PART-1-1",           395,          -15.,          8.75,            0.,NA,NA,"",   459.947E-03,   454.041E-03,   73.4734E-03,   68.7645E-06
C:/temp/dataset/6/26_12.odb,Step-1,Increment      1: Step Time =    1.000,"PART-1-1",           396,      -13.9287,       7.51992,            0.,NA,NA,"",   447.295E-03,   442.743E-03,   63.6522E-03,   77.1533E-06
C:/temp/dataset/6/26_12.odb,Step-1,Increment      1: Step Time =    1.000,"PART-1-1",           397,          -15.,          1.25,            0.,NA,NA,"",   394.775E-03,   387.309E-03,   76.4176E-03,   1.51985E-03
C:/temp/dataset/6/26_12.odb,Step-1,Increment      1: Step Time =    1.000,"PART-1-1",           398,      -13.9023,  -59.1614E-03,            0.,NA,NA,"",   382.019E-03,   376.001E-03,   67.5442E-03,   1.64716E-03
C:/temp/dataset/6/26_12.odb,Step-1,Increment      1: Step Time =    1.000,"PART-1-1",           399,      -12.7542,       1.08470,            0.,NA,NA,"",   390.644E-03,   386.850E-03,   54.3120E-03,   1.38829E-03
C:/temp/dataset/6/26_12.odb,Step-1,Increment      1: Step Time =    1.000,"PART-1-1",           400,          -15.,         -1.25,            0.,NA,NA,"",   372.309E-03,   363.359E-03,   81.1405E-03,   2.50572E-03
C:/temp/dataset/6/26_12.odb,Step-1,Increment      1: Step Time =    1.000,"PART-1-1",           401,      -13.9820,      -2.43756,            0.,NA,NA,"",   359.046E-03,   351.664E-03,   72.4320E-03,   2.20550E-03
C:/temp/dataset/6/26_12.odb,Step-1,Increment      1: Step Time =    1.000,"PART-1-1",           402,      -12.8843,      -1.24672,            0.,NA,NA,"",   369.671E-03,   365.109E-03,   57.8983E-03,   1.51234E-03
C:/temp/dataset/6/26_12.odb,Step-1,Increment      1: Step Time =    1.000,"PART-1-1",           403,      -12.3802,      -13.7897,            0.,NA,NA,"",   177.725E-03,   168.788E-03,   55.6497E-03,   3.31770E-03
C:/temp/dataset/6/26_12.odb,Step-1,Increment      1: Step Time =    1.000,"PART-1-1",           404,      -13.6672,      -12.5056,            0.,NA,NA,"",   207.596E-03,   193.049E-03,   76.3421E-03,   2.28479E-03
C:/temp/dataset/6/26_12.odb,Step-1,Increment      1: Step Time =    1.000,"PART-1-1",           405,          -15.,        -13.75,            0.,NA,NA,"",   197.410E-03,   172.712E-03,   95.6091E-03,   2.98544E-03
C:/temp/dataset/6/26_12.odb,Step-1,Increment      1: Step Time =    1.000,"PART-1-1",           406,      -13.7130,      -15.0341,            0.,NA,NA,"",   165.322E-03,   148.867E-03,   71.9024E-03,   3.46075E-03
C:/temp/dataset/6/26_12.odb,Step-1,Increment      1: Step Time =    1.000,"PART-1-1",           407,       9.21271,      -3.58583,            0.,NA,NA,"",   395.077E-03,   393.635E-03,  -33.7279E-03,   3.57427E-03
C:/temp/dataset/6/26_12.odb,Step-1,Increment      1: Step Time =    1.000,"PART-1-1",           408,       7.90749,      -3.82305,            0.,NA,NA,"",   392.304E-03,   391.280E-03,  -28.3167E-03,   4.07886E-03
C:/temp/dataset/6/26_12.odb,Step-1,Increment      1: Step Time =    1.000,"PART-1-1",           409,       8.15132,      -5.16923,            0.,NA,NA,"",   392.876E-03,   392.051E-03,  -25.4388E-03,   4.14557E-03
C:/temp/dataset/6/26_12.odb,Step-1,Increment      1: Step Time =    1.000,"PART-1-1",           410,       9.45655,      -4.93201,            0.,NA,NA,"",   395.315E-03,   393.964E-03,  -32.6538E-03,   3.91795E-03
C:/temp/dataset/6/26_12.odb,Step-1,Increment      1: Step Time =    1.000,"PART-1-1",           411,       6.91243,      -16.0318,            0.,NA,NA,"",   249.757E-03,   249.709E-03,   4.86451E-03,   11.3997E-03
C:/temp/dataset/6/26_12.odb,Step-1,Increment      1: Step Time =    1.000,"PART-1-1",           412,       5.96229,      -14.9858,            0.,NA,NA,"",   291.914E-03,   290.887E-03,   24.4706E-03,   9.73739E-03
C:/temp/dataset/6/26_12.odb,Step-1,Increment      1: Step Time =    1.000,"PART-1-1",           413,            5.,      -16.2875,            0.,NA,NA,"",   247.932E-03,   240.573E-03,   59.9594E-03,   1.14994E-03
C:/temp/dataset/6/26_12.odb,Step-1,Increment      1: Step Time =    1.000,"PART-1-1",           414,       6.93910,      -13.7291,            0.,NA,NA,"",   327.158E-03,   327.145E-03,   2.84870E-03,   10.8824E-03
C:/temp/dataset/6/26_12.odb,Step-1,Increment      1: Step Time =    1.000,"PART-1-1",           415,       5.97681,      -12.5371,            0.,NA,NA,"",   362.924E-03,   362.455E-03,   18.4585E-03,   11.7888E-03
C:/temp/dataset/6/26_12.odb,Step-1,Increment      1: Step Time =    1.000,"PART-1-1",           416,            5.,      -13.7937,            0.,NA,NA,"",   341.819E-03,   338.467E-03,   47.7481E-03,   12.2047E-03
C:/temp/dataset/6/26_12.odb,Step-1,Increment      1: Step Time =    1.000,"PART-1-1",           417,         -1.25,          -20.,            0.,NA,NA,"",   53.6402E-03,   53.5627E-03,  -2.88306E-03,   1.28555E-03
C:/temp/dataset/6/26_12.odb,Step-1,Increment      1: Step Time =    1.000,"PART-1-1",           418,      -1.09514,      -22.7401,            0.,NA,NA,"",   51.3411E-03,   51.3342E-03,  -841.041E-06,   5.66133E-03
C:/temp/dataset/6/26_12.odb,Step-1,Increment      1: Step Time =    1.000,"PART-1-1",           419,   141.566E-03,      -21.4393,            0.,NA,NA,"",   57.3294E-03,   57.2769E-03,   2.45227E-03,   3.93941E-03
C:/temp/dataset/6/26_12.odb,Step-1,Increment      1: Step Time =    1.000,"PART-1-1",           420,      -7.69236,      -25.1479,            0.,NA,NA,"",   25.8218E-03,   25.8136E-03,  -650.036E-06,   2.59942E-03
C:/temp/dataset/6/26_12.odb,Step-1,Increment      1: Step Time =    1.000,"PART-1-1",           421,      -9.18951,      -25.9970,            0.,NA,NA,"",   19.7208E-03,   19.3506E-03,   3.80329E-03,   2.37460E-03
C:/temp/dataset/6/26_12.odb,Step-1,Increment      1: Step Time =    1.000,"PART-1-1",           422,      -8.56598,      -27.1897,            0.,NA,NA,"",   12.8019E-03,   12.6882E-03,   1.70262E-03,   2.90694E-03
C:/temp/dataset/6/26_12.odb,Step-1,Increment      1: Step Time =    1.000,"PART-1-1",           423,      -7.06883,      -26.3407,            0.,NA,NA,"",   19.2902E-03,   19.2609E-03,  -1.06356E-03,   3.31978E-03
C:/temp/dataset/6/26_12.odb,Step-1,Increment      1: Step Time =    1.000,"PART-1-1",           424,      -9.82073,      -13.8964,            0.,NA,NA,"",   166.275E-03,   164.836E-03,   21.8290E-03,   3.59443E-03
C:/temp/dataset/6/26_12.odb,Step-1,Increment      1: Step Time =    1.000,"PART-1-1",           425,      -8.65586,      -15.1239,            0.,NA,NA,"",   142.487E-03,   142.340E-03,   6.48636E-03,   3.22330E-03
C:/temp/dataset/6/26_12.odb,Step-1,Increment      1: Step Time =    1.000,"PART-1-1",           426,      -8.53523,      -12.6467,            0.,NA,NA,"",   187.312E-03,   187.238E-03,   5.23691E-03,   2.97417E-03
C:/temp/dataset/6/26_12.odb,Step-1,Increment      1: Step Time =    1.000,"PART-1-1",           427,      -6.09243,      -10.1071,            0.,NA,NA,"",   235.177E-03,   233.217E-03,  -30.2997E-03,   1.73056E-03
C:/temp/dataset/6/26_12.odb,Step-1,Increment      1: Step Time =    1.000,"PART-1-1",           428,           -5.,      -8.71250,            0.,NA,NA,"",   262.142E-03,   257.805E-03,  -47.4847E-03,   2.49228E-03
C:/temp/dataset/6/26_12.odb,Step-1,Increment      1: Step Time =    1.000,"PART-1-1",           429,      -6.07322,      -7.75598,            0.,NA,NA,"",   278.831E-03,   277.599E-03,  -26.1774E-03,   3.12421E-03
C:/temp/dataset/6/26_12.odb,Step-1,Increment      1: Step Time =    1.000,"PART-1-1",           430,      -12.7270,      -6.06323,            0.,NA,NA,"",   311.119E-03,   304.833E-03,   62.2237E-03,   1.60937E-03
C:/temp/dataset/6/26_12.odb,Step-1,Increment      1: Step Time =    1.000,"PART-1-1",           431,      -13.8025,      -4.90646,            0.,NA,NA,"",   329.565E-03,   320.930E-03,   74.9465E-03,   2.09919E-03
C:/temp/dataset/6/26_12.odb,Step-1,Increment      1: Step Time =    1.000,"PART-1-1",           432,          -15.,         -6.25,            0.,NA,NA,"",   314.885E-03,   300.311E-03,   94.6881E-03,   2.41637E-03
C:/temp/dataset/6/26_12.odb,Step-1,Increment      1: Step Time =    1.000,"PART-1-1",           433,      -13.9244,      -7.40677,            0.,NA,NA,"",   294.157E-03,   282.906E-03,   80.5759E-03,   1.58096E-03
C:/temp/dataset/6/26_12.odb,Step-1,Increment      1: Step Time =    1.000,"PART-1-1",           434,       1.60591,      -1.50045,            0.,NA,NA,"",   379.320E-03,   377.517E-03,  -36.9353E-03,   2.78410E-03
C:/temp/dataset/6/26_12.odb,Step-1,Increment      1: Step Time =    1.000,"PART-1-1",           435,  -853.298E-03,      -1.92043,            0.,NA,NA,"",   372.865E-03,   371.113E-03,  -36.1120E-03,   3.27380E-03
C:/temp/dataset/6/26_12.odb,Step-1,Increment      1: Step Time =    1.000,"PART-1-1",           436,         13.75,          -30.,            0.,NA,NA,"",            0.,   585.200E-42,  -18.7692E-39,   12.5832E-03
C:/temp/dataset/6/26_12.odb,Step-1,Increment      1: Step Time =    1.000,"PART-1-1",           437,           15.,      -28.9063,            0.,NA,NA,"",   21.8251E-03,   14.9744E-03,  -15.8778E-03,   15.9179E-03
C:/temp/dataset/6/26_12.odb,Step-1,Increment      1: Step Time =    1.000,"PART-1-1",           438,       13.8103,      -27.8746,            0.,NA,NA,"",   27.3406E-03,   17.9153E-03,  -20.6531E-03,   11.6882E-03
C:/temp/dataset/6/26_12.odb,Step-1,Increment      1: Step Time =    1.000,"PART-1-1",           439,       12.5603,      -28.9683,            0.,NA,NA,"",   7.90992E-03,   4.63264E-03,  -6.41136E-03,   7.89819E-03
C:/temp/dataset/6/26_12.odb,Step-1,Increment      1: Step Time =    1.000,"PART-1-1",           440,       12.6598,      -26.8678,            0.,NA,NA,"",   32.5061E-03,   23.4927E-03,  -22.4663E-03,   8.81588E-03
C:/temp/dataset/6/26_12.odb,Step-1,Increment      1: Step Time =    1.000,"PART-1-1",           441,       11.5501,      -25.8632,            0.,NA,NA,"",   37.5428E-03,   31.0656E-03,  -21.0805E-03,   6.66617E-03
C:/temp/dataset/6/26_12.odb,Step-1,Increment      1: Step Time =    1.000,"PART-1-1",           442,       10.3093,      -26.9762,            0.,NA,NA,"",   19.4738E-03,   17.4343E-03,  -8.67618E-03,   4.64052E-03
C:/temp/dataset/6/26_12.odb,Step-1,Increment      1: Step Time =    1.000,"PART-1-1",           443,       11.4189,      -27.9808,            0.,NA,NA,"",   13.7519E-03,   10.4464E-03,  -8.94351E-03,   6.56866E-03
C:/temp/dataset/6/26_12.odb,Step-1,Increment      1: Step Time =    1.000,"PART-1-1",           444,       10.1086,      -29.0125,            0.,NA,NA,"",   3.95568E-03,   3.09654E-03,  -2.46147E-03,   3.57489E-03
C:/temp/dataset/6/26_12.odb,Step-1,Increment      1: Step Time =    1.000,"PART-1-1",           445,       9.01957,      -28.0513,            0.,NA,NA,"",   8.83848E-03,   8.57453E-03,  -2.14387E-03,   3.32847E-03
C:/temp/dataset/6/26_12.odb,Step-1,Increment      1: Step Time =    1.000,"PART-1-1",           446,          8.75,          -30.,            0.,NA,NA,"",            0.,   1.28339E-39,  -2.70907E-39,   2.07311E-03
C:/temp/dataset/6/26_12.odb,Step-1,Increment      1: Step Time =    1.000,"PART-1-1",           447,       4.20973,      -27.9354,            0.,NA,NA,"",   14.9511E-03,   14.3750E-03,   4.11066E-03,   5.48246E-03
C:/temp/dataset/6/26_12.odb,Step-1,Increment      1: Step Time =    1.000,"PART-1-1",           448,       2.74203,      -28.9082,            0.,NA,NA,"",   8.57821E-03,   8.38443E-03,   1.81303E-03,   5.65894E-03
C:/temp/dataset/6/26_12.odb,Step-1,Increment      1: Step Time =    1.000,"PART-1-1",           449,          3.75,          -30.,            0.,NA,NA,"",            0.,   4.25530E-39,   3.43369E-39,   4.67313E-03
C:/temp/dataset/6/26_12.odb,Step-1,Increment      1: Step Time =    1.000,"PART-1-1",           450,       1.16266,      -25.9573,            0.,NA,NA,"",   33.3200E-03,   32.8344E-03,   5.66774E-03,   6.87744E-03
C:/temp/dataset/6/26_12.odb,Step-1,Increment      1: Step Time =    1.000,"PART-1-1",           451,       1.65415,      -27.4536,            0.,NA,NA,"",   21.0231E-03,   20.6266E-03,   4.06394E-03,   6.00961E-03
C:/temp/dataset/6/26_12.odb,Step-1,Increment      1: Step Time =    1.000,"PART-1-1",           452,       3.39879,      -26.8461,            0.,NA,NA,"",   25.0466E-03,   24.1036E-03,   6.80776E-03,   6.46950E-03
C:/temp/dataset/6/26_12.odb,Step-1,Increment      1: Step Time =    1.000,"PART-1-1",           453,       2.90730,      -25.3498,            0.,NA,NA,"",   38.7761E-03,   37.4250E-03,   10.1467E-03,   7.11559E-03
C:/temp/dataset/6/26_12.odb,Step-1,Increment      1: Step Time =    1.000,"PART-1-1",           454,      -3.67645,      -27.5530,            0.,NA,NA,"",   16.9642E-03,   16.9331E-03,  -1.02697E-03,   4.89768E-03
C:/temp/dataset/6/26_12.odb,Step-1,Increment      1: Step Time =    1.000,"PART-1-1",           455,      -2.54816,      -26.3074,            0.,NA,NA,"",   27.2338E-03,   27.2032E-03,  -1.28970E-03,   5.65046E-03
C:/temp/dataset/6/26_12.odb,Step-1,Increment      1: Step Time =    1.000,"PART-1-1",           456,      -3.72120,      -25.1278,            0.,NA,NA,"",   33.3204E-03,   33.0501E-03,  -4.23599E-03,   5.52878E-03
C:/temp/dataset/6/26_12.odb,Step-1,Increment      1: Step Time =    1.000,"PART-1-1",           457,      -4.84948,      -26.3734,            0.,NA,NA,"",   22.9998E-03,   22.8271E-03,  -2.81327E-03,   4.69297E-03
C:/temp/dataset/6/26_12.odb,Step-1,Increment      1: Step Time =    1.000,"PART-1-1",           458,      -4.94498,      -28.7931,            0.,NA,NA,"",   7.34933E-03,   7.34557E-03,  -235.217E-06,   4.06793E-03
C:/temp/dataset/6/26_12.odb,Step-1,Increment      1: Step Time =    1.000,"PART-1-1",           459,         -3.75,          -30.,            0.,NA,NA,"",            0.,   4.35068E-39,   520.446E-42,   4.46322E-03
C:/temp/dataset/6/26_12.odb,Step-1,Increment      1: Step Time =    1.000,"PART-1-1",           460,      -6.07748,      -27.5364,            0.,NA,NA,"",   13.5823E-03,   13.5498E-03,  -938.060E-06,   3.87578E-03
C:/temp/dataset/6/26_12.odb,Step-1,Increment      1: Step Time =    1.000,"PART-1-1",           461,      -7.38250,      -28.7433,            0.,NA,NA,"",   5.58301E-03,   5.57057E-03,   372.518E-06,   2.90096E-03
C:/temp/dataset/6/26_12.odb,Step-1,Increment      1: Step Time =    1.000,"PART-1-1",           462,         -6.25,          -30.,            0.,NA,NA,"",            0.,   3.00440E-39,   812.495E-42,   3.20185E-03
C:/temp/dataset/6/26_12.odb,Step-1,Increment      1: Step Time =    1.000,"PART-1-1",           463,      -8.77755,      -24.1806,            0.,NA,NA,"",   31.5074E-03,   31.3464E-03,   3.18040E-03,   1.59006E-03
C:/temp/dataset/6/26_12.odb,Step-1,Increment      1: Step Time =    1.000,"PART-1-1",           464,      -9.92276,      -23.8066,            0.,NA,NA,"",   35.4400E-03,   34.1552E-03,   9.45597E-03,   2.03157E-03
C:/temp/dataset/6/26_12.odb,Step-1,Increment      1: Step Time =    1.000,"PART-1-1",           465,      -10.3347,      -25.6230,            0.,NA,NA,"",   23.3401E-03,   21.7870E-03,   8.37200E-03,   2.81019E-03
C:/temp/dataset/6/26_12.odb,Step-1,Increment      1: Step Time =    1.000,"PART-1-1",           466,       13.9544,      -21.3085,            0.,NA,NA,"",   139.548E-03,   112.401E-03,  -82.7027E-03,   8.41509E-03
C:/temp/dataset/6/26_12.odb,Step-1,Increment      1: Step Time =    1.000,"PART-1-1",           467,       13.8855,      -23.5136,            0.,NA,NA,"",   95.8190E-03,   71.6133E-03,  -63.6617E-03,   9.80953E-03
C:/temp/dataset/6/26_12.odb,Step-1,Increment      1: Step Time =    1.000,"PART-1-1",           468,           15.,      -22.3438,            0.,NA,NA,"",   133.906E-03,   96.6119E-03,  -92.7201E-03,   10.8040E-03
C:/temp/dataset/6/26_12.odb,Step-1,Increment      1: Step Time =    1.000,"PART-1-1",           469,       12.7349,      -24.6944,            0.,NA,NA,"",   63.4188E-03,   49.5496E-03,  -39.5826E-03,   8.37086E-03
C:/temp/dataset/6/26_12.odb,Step-1,Increment      1: Step Time =    1.000,"PART-1-1",           470,       13.8494,      -25.7120,            0.,NA,NA,"",   59.7584E-03,   41.3872E-03,  -43.1064E-03,   10.6414E-03
C:/temp/dataset/6/26_12.odb,Step-1,Increment      1: Step Time =    1.000,"PART-1-1",           471,           15.,      -24.5313,            0.,NA,NA,"",   92.9930E-03,   62.0392E-03,  -69.2737E-03,   12.1591E-03
C:/temp/dataset/6/26_12.odb,Step-1,Increment      1: Step Time =    1.000,"PART-1-1",           472,         11.25,          -30.,            0.,NA,NA,"",            0.,   1.13623E-39,  -9.71315E-39,   4.96938E-03
C:/temp/dataset/6/26_12.odb,Step-1,Increment      1: Step Time =    1.000,"PART-1-1",           473,       13.9950,      -12.5232,            0.,NA,NA,"",   339.800E-03,   326.280E-03,  -94.8992E-03,   6.10175E-03
C:/temp/dataset/6/26_12.odb,Step-1,Increment      1: Step Time =    1.000,"PART-1-1",           474,       12.9942,      -13.6844,            0.,NA,NA,"",   315.528E-03,   304.439E-03,  -82.9147E-03,   5.37418E-03
C:/temp/dataset/6/26_12.odb,Step-1,Increment      1: Step Time =    1.000,"PART-1-1",           475,           15.,      -13.5938,            0.,NA,NA,"",   324.306E-03,   301.626E-03,  -119.147E-03,   6.17772E-03
C:/temp/dataset/6/26_12.odb,Step-1,Increment      1: Step Time =    1.000,"PART-1-1",           476,       9.85236,      -17.2546,            0.,NA,NA,"",   211.771E-03,   208.149E-03,  -38.9955E-03,   12.0144E-03
C:/temp/dataset/6/26_12.odb,Step-1,Increment      1: Step Time =    1.000,"PART-1-1",           477,       8.68427,      -17.7513,            0.,NA,NA,"",   191.795E-03,   190.518E-03,  -22.0944E-03,   12.5050E-03
C:/temp/dataset/6/26_12.odb,Step-1,Increment      1: Step Time =    1.000,"PART-1-1",           478,       8.96140,      -18.9835,            0.,NA,NA,"",   154.883E-03,   153.230E-03,  -22.5677E-03,   11.6915E-03
C:/temp/dataset/6/26_12.odb,Step-1,Increment      1: Step Time =    1.000,"PART-1-1",           479,       10.1295,      -18.4868,            0.,NA,NA,"",   175.795E-03,   171.342E-03,  -39.3152E-03,   11.0112E-03
C:/temp/dataset/6/26_12.odb,Step-1,Increment      1: Step Time =    1.000,"PART-1-1",           480,       11.2436,      -18.3856,            0.,NA,NA,"",   185.148E-03,   176.967E-03,  -54.4295E-03,   10.1140E-03
C:/temp/dataset/6/26_12.odb,Step-1,Increment      1: Step Time =    1.000,"PART-1-1",           481,       12.3956,      -19.2305,            0.,NA,NA,"",   170.917E-03,   156.708E-03,  -68.2297E-03,   8.18368E-03
C:/temp/dataset/6/26_12.odb,Step-1,Increment      1: Step Time =    1.000,"PART-1-1",           482,       13.1120,      -18.1414,            0.,NA,NA,"",   205.230E-03,   187.135E-03,  -84.2609E-03,   6.95694E-03
C:/temp/dataset/6/26_12.odb,Step-1,Increment      1: Step Time =    1.000,"PART-1-1",           483,       11.9600,      -17.2965,            0.,NA,NA,"",   219.925E-03,   209.243E-03,  -67.7066E-03,   9.07663E-03
C:/temp/dataset/6/26_12.odb,Step-1,Increment      1: Step Time =    1.000,"PART-1-1",           484,       14.0024,      -3.77677,            0.,NA,NA,"",   397.778E-03,   394.021E-03,  -54.5433E-03,   2.96026E-03
C:/temp/dataset/6/26_12.odb,Step-1,Increment      1: Step Time =    1.000,"PART-1-1",           485,       13.0359,      -4.87313,            0.,NA,NA,"",   397.607E-03,   394.022E-03,  -53.2717E-03,   3.46520E-03
C:/temp/dataset/6/26_12.odb,Step-1,Increment      1: Step Time =    1.000,"PART-1-1",           486,       14.0335,      -5.94012,            0.,NA,NA,"",   395.265E-03,   390.460E-03,  -61.4447E-03,   4.51993E-03
C:/temp/dataset/6/26_12.odb,Step-1,Increment      1: Step Time =    1.000,"PART-1-1",           487,           15.,      -4.84375,            0.,NA,NA,"",   395.670E-03,   391.033E-03,  -60.3970E-03,   4.55519E-03
C:/temp/dataset/6/26_12.odb,Step-1,Increment      1: Step Time =    1.000,"PART-1-1",           488,       13.0510,      -7.01836,            0.,NA,NA,"",   393.112E-03,   388.655E-03,  -59.0276E-03,   4.19082E-03
C:/temp/dataset/6/26_12.odb,Step-1,Increment      1: Step Time =    1.000,"PART-1-1",           489,       14.0175,      -8.10950,            0.,NA,NA,"",   387.459E-03,   380.875E-03,  -71.1282E-03,   5.95318E-03
C:/temp/dataset/6/26_12.odb,Step-1,Increment      1: Step Time =    1.000,"PART-1-1",           490,           15.,      -7.03125,            0.,NA,NA,"",   390.644E-03,   384.049E-03,  -71.4763E-03,   6.68284E-03
C:/temp/dataset/6/26_12.odb,Step-1,Increment      1: Step Time =    1.000,"PART-1-1",           491,         13.75,            5.,            0.,NA,NA,"",   400.462E-03,   397.643E-03,  -47.4324E-03,   45.2146E-06
C:/temp/dataset/6/26_12.odb,Step-1,Increment      1: Step Time =    1.000,"PART-1-1",           492,       12.4982,       3.90020,            0.,NA,NA,"",   399.143E-03,   396.485E-03,  -45.9871E-03,   347.673E-06
C:/temp/dataset/6/26_12.odb,Step-1,Increment      1: Step Time =    1.000,"PART-1-1",           493,       13.7482,       2.80645,            0.,NA,NA,"",   398.655E-03,   395.815E-03,  -47.5073E-03,   313.587E-06
C:/temp/dataset/6/26_12.odb,Step-1,Increment      1: Step Time =    1.000,"PART-1-1",           494,           15.,       3.90625,            0.,NA,NA,"",   399.600E-03,   396.634E-03,  -48.6021E-03,   46.2483E-06
C:/temp/dataset/6/26_12.odb,Step-1,Increment      1: Step Time =    1.000,"PART-1-1",           495,         11.25,            5.,            0.,NA,NA,"",   399.804E-03,   397.324E-03,  -44.4563E-03,   393.802E-06
C:/temp/dataset/6/26_12.odb,Step-1,Increment      1: Step Time =    1.000,"PART-1-1",           496,       11.2740,       2.82937,            0.,NA,NA,"",   397.876E-03,   395.424E-03,  -44.1070E-03,   755.478E-06
C:/temp/dataset/6/26_12.odb,Step-1,Increment      1: Step Time =    1.000,"PART-1-1",           497,       11.1422,   446.578E-03,            0.,NA,NA,"",   397.171E-03,   394.793E-03,  -43.3969E-03,   1.43978E-03
C:/temp/dataset/6/26_12.odb,Step-1,Increment      1: Step Time =    1.000,"PART-1-1",           498,       10.2035,  -836.101E-03,            0.,NA,NA,"",   396.327E-03,   394.251E-03,  -40.5123E-03,   2.17890E-03
C:/temp/dataset/6/26_12.odb,Step-1,Increment      1: Step Time =    1.000,"PART-1-1",           499,       11.7017,      -1.82731,            0.,NA,NA,"",   397.883E-03,   395.364E-03,  -44.7013E-03,   2.24484E-03
C:/temp/dataset/6/26_12.odb,Step-1,Increment      1: Step Time =    1.000,"PART-1-1",           500,       12.5035,       1.67834,            0.,NA,NA,"",   397.970E-03,   395.300E-03,  -46.0200E-03,   974.616E-06
C:/temp/dataset/6/26_12.odb,Step-1,Increment      1: Step Time =    1.000,"PART-1-1",           501,       9.91277,       1.59761,            0.,NA,NA,"",   396.387E-03,   394.212E-03,  -41.4673E-03,   1.29156E-03
C:/temp/dataset/6/26_12.odb,Step-1,Increment      1: Step Time =    1.000,"PART-1-1",           502,       5.19643,       3.92738,            0.,NA,NA,"",   394.316E-03,   392.403E-03,  -38.8010E-03,   770.996E-06
C:/temp/dataset/6/26_12.odb,Step-1,Increment      1: Step Time =    1.000,"PART-1-1",           503,          3.75,            5.,            0.,NA,NA,"",   394.547E-03,   392.626E-03,  -38.8896E-03,   153.018E-06
C:/temp/dataset/6/26_12.odb,Step-1,Increment      1: Step Time =    1.000,"PART-1-1",           504,       2.66615,       3.61346,            0.,NA,NA,"",   393.519E-03,   391.587E-03,  -38.9480E-03,   1.00913E-03
C:/temp/dataset/6/26_12.odb,Step-1,Increment      1: Step Time =    1.000,"PART-1-1",           505,      -1.00804,       2.95894,            0.,NA,NA,"",   393.653E-03,   391.934E-03,  -36.7484E-03,   1.73137E-03
C:/temp/dataset/6/26_12.odb,Step-1,Increment      1: Step Time =    1.000,"PART-1-1",           506,   87.8012E-03,       3.95476,            0.,NA,NA,"",   395.733E-03,   393.933E-03,  -37.7069E-03,   1.60306E-03
C:/temp/dataset/6/26_12.odb,Step-1,Increment      1: Step Time =    1.000,"PART-1-1",           507,         -1.25,            5.,            0.,NA,NA,"",   400.305E-03,   398.819E-03,  -34.4616E-03,   2.75703E-03
C:/temp/dataset/6/26_12.odb,Step-1,Increment      1: Step Time =    1.000,"PART-1-1",           508,      -2.34584,       4.00418,            0.,NA,NA,"",   399.591E-03,   398.241E-03,  -32.8140E-03,   2.41430E-03
C:/temp/dataset/6/26_12.odb,Step-1,Increment      1: Step Time =    1.000,"PART-1-1",           509,      -3.27281,       2.96378,            0.,NA,NA,"",   395.740E-03,   394.579E-03,  -30.2892E-03,   1.36657E-03
C:/temp/dataset/6/26_12.odb,Step-1,Increment      1: Step Time =    1.000,"PART-1-1",           510,         -3.75,            5.,            0.,NA,NA,"",   407.716E-03,   406.890E-03,  -25.9286E-03,   4.17167E-03
C:/temp/dataset/6/26_12.odb,Step-1,Increment      1: Step Time =    1.000,"PART-1-1",           511,      -4.67697,       3.95960,            0.,NA,NA,"",   403.497E-03,   402.867E-03,  -22.5407E-03,   2.39237E-03
C:/temp/dataset/6/26_12.odb,Step-1,Increment      1: Step Time =    1.000,"PART-1-1",           512,      -7.93004,       8.58536,            0.,NA,NA,"",   451.754E-03,   451.689E-03,   7.67766E-03,   124.496E-06
C:/temp/dataset/6/26_12.odb,Step-1,Increment      1: Step Time =    1.000,"PART-1-1",           513,      -8.65034,       7.25415,            0.,NA,NA,"",   439.390E-03,   439.155E-03,   14.3646E-03,   480.318E-06
C:/temp/dataset/6/26_12.odb,Step-1,Increment      1: Step Time =    1.000,"PART-1-1",           514,      -7.51010,       6.50150,            0.,NA,NA,"",   431.374E-03,   431.359E-03,   3.61019E-03,   657.162E-06
C:/temp/dataset/6/26_12.odb,Step-1,Increment      1: Step Time =    1.000,"PART-1-1",           515,      -6.78981,       7.83270,            0.,NA,NA,"",   444.248E-03,   444.237E-03,  -3.07765E-03,   271.863E-06
C:/temp/dataset/6/26_12.odb,Step-1,Increment      1: Step Time =    1.000,"PART-1-1",           516,      -7.08495,       12.0475,            0.,NA,NA,"",   484.337E-03,   484.337E-03,  -480.287E-06,   33.2552E-06
C:/temp/dataset/6/26_12.odb,Step-1,Increment      1: Step Time =    1.000,"PART-1-1",           517,      -6.02998,       11.1050,            0.,NA,NA,"",   475.539E-03,   475.425E-03,  -10.4099E-03,   42.3365E-06
C:/temp/dataset/6/26_12.odb,Step-1,Increment      1: Step Time =    1.000,"PART-1-1",           518,           -5.,       12.2917,            0.,NA,NA,"",   486.931E-03,   486.515E-03,  -20.1193E-03,   54.2682E-06
C:/temp/dataset/6/26_12.odb,Step-1,Increment      1: Step Time =    1.000,"PART-1-1",           519,      -6.05497,       13.2342,            0.,NA,NA,"",   495.518E-03,   495.413E-03,  -10.2193E-03,   25.1066E-06
C:/temp/dataset/6/26_12.odb,Step-1,Increment      1: Step Time =    1.000,"PART-1-1",           520,      -9.96524,       21.0498,            0.,NA,NA,"",   569.357E-03,   568.759E-03,   26.1013E-03,   1.28033E-06
C:/temp/dataset/6/26_12.odb,Step-1,Increment      1: Step Time =    1.000,"PART-1-1",           521,      -8.51702,       20.1362,            0.,NA,NA,"",   560.281E-03,   560.140E-03,   12.5763E-03,   1.54946E-06
C:/temp/dataset/6/26_12.odb,Step-1,Increment      1: Step Time =    1.000,"PART-1-1",           522,      -8.09442,       21.6565,            0.,NA,NA,"",   574.424E-03,   574.360E-03,   8.55034E-03,   738.522E-09
C:/temp/dataset/6/26_12.odb,Step-1,Increment      1: Step Time =    1.000,"PART-1-1",           523,      -9.54264,       22.5701,            0.,NA,NA,"",   583.398E-03,   582.981E-03,   22.0756E-03,   329.948E-09
C:/temp/dataset/6/26_12.odb,Step-1,Increment      1: Step Time =    1.000,"PART-1-1",           524,      -7.38593,       19.0122,            0.,NA,NA,"",   549.569E-03,   549.565E-03,   2.03045E-03,   3.47322E-06
C:/temp/dataset/6/26_12.odb,Step-1,Increment      1: Step Time =    1.000,"PART-1-1",           525,      -6.14460,       17.5723,            0.,NA,NA,"",   536.114E-03,   536.029E-03,  -9.53661E-03,   3.67221E-06
C:/temp/dataset/6/26_12.odb,Step-1,Increment      1: Step Time =    1.000,"PART-1-1",           526,           -5.,       18.5417,            0.,NA,NA,"",   545.432E-03,   545.054E-03,  -20.2976E-03,   2.06025E-06
C:/temp/dataset/6/26_12.odb,Step-1,Increment      1: Step Time =    1.000,"PART-1-1",           527,      -9.12859,       24.1056,            0.,NA,NA,"",   597.621E-03,   597.346E-03,   18.1298E-03,   137.518E-09
C:/temp/dataset/6/26_12.odb,Step-1,Increment      1: Step Time =    1.000,"PART-1-1",           528,      -7.82088,       23.2603,            0.,NA,NA,"",   589.400E-03,   589.370E-03,   5.91762E-03,   138.075E-09
C:/temp/dataset/6/26_12.odb,Step-1,Increment      1: Step Time =    1.000,"PART-1-1",           529,      -7.11221,       24.6459,            0.,NA,NA,"",   602.318E-03,   602.318E-03,  -781.077E-06,   66.1196E-09
C:/temp/dataset/6/26_12.odb,Step-1,Increment      1: Step Time =    1.000,"PART-1-1",           530,      -8.41993,       25.4912,            0.,NA,NA,"",   610.401E-03,   610.294E-03,   11.4310E-03,   78.5874E-09
C:/temp/dataset/6/26_12.odb,Step-1,Increment      1: Step Time =    1.000,"PART-1-1",           531,           -5.,       28.9583,            0.,NA,NA,"",   642.955E-03,   642.620E-03,  -20.7552E-03,   14.8439E-09
C:/temp/dataset/6/26_12.odb,Step-1,Increment      1: Step Time =    1.000,"PART-1-1",           532,         -6.25,           30.,            0.,NA,NA,"",   652.495E-03,   652.432E-03,  -9.09219E-03,   15.3506E-09
C:/temp/dataset/6/26_12.odb,Step-1,Increment      1: Step Time =    1.000,"PART-1-1",           533,      -6.22481,       27.8751,            0.,NA,NA,"",   632.594E-03,   632.527E-03,  -9.23487E-03,   52.3481E-09
C:/temp/dataset/6/26_12.odb,Step-1,Increment      1: Step Time =    1.000,"PART-1-1",           534,      -11.1386,       27.5393,            0.,NA,NA,"",   630.672E-03,   629.597E-03,   36.8068E-03,   64.3115E-09
C:/temp/dataset/6/26_12.odb,Step-1,Increment      1: Step Time =    1.000,"PART-1-1",           535,        -11.25,           30.,            0.,NA,NA,"",   653.742E-03,   652.652E-03,   37.7427E-03,   68.4886E-09
C:/temp/dataset/6/26_12.odb,Step-1,Increment      1: Step Time =    1.000,"PART-1-1",           536,      -13.1147,       13.7606,            0.,NA,NA,"",   503.698E-03,   500.585E-03,   55.9158E-03,   21.7679E-06
C:/temp/dataset/6/26_12.odb,Step-1,Increment      1: Step Time =    1.000,"PART-1-1",           537,      -14.0658,       14.9906,            0.,NA,NA,"",   516.235E-03,   512.156E-03,   64.7617E-03,   12.1985E-06
C:/temp/dataset/6/26_12.odb,Step-1,Increment      1: Step Time =    1.000,"PART-1-1",           538,          -15.,         13.75,            0.,NA,NA,"",   505.953E-03,   500.580E-03,   73.5410E-03,   27.5309E-06
C:/temp/dataset/6/26_12.odb,Step-1,Increment      1: Step Time =    1.000,"PART-1-1",           539,      -9.42834,       18.6970,            0.,NA,NA,"",   547.109E-03,   546.698E-03,   21.1789E-03,   4.54089E-06
C:/temp/dataset/6/26_12.odb,Step-1,Increment      1: Step Time =    1.000,"PART-1-1",           540,      -8.29725,       17.5730,            0.,NA,NA,"",   536.232E-03,   536.126E-03,   10.6342E-03,   5.81516E-06
C:/temp/dataset/6/26_12.odb,Step-1,Increment      1: Step Time =    1.000,"PART-1-1",           541,      -12.7588,       6.21303,            0.,NA,NA,"",   434.180E-03,   430.948E-03,   52.8835E-03,   391.793E-06
C:/temp/dataset/6/26_12.odb,Step-1,Increment      1: Step Time =    1.000,"PART-1-1",           542,          -15.,          6.25,            0.,NA,NA,"",   437.578E-03,   431.368E-03,   73.4580E-03,   91.9812E-06
C:/temp/dataset/6/26_12.odb,Step-1,Increment      1: Step Time =    1.000,"PART-1-1",           543,      -9.01063,       9.47069,            0.,NA,NA,"",   460.537E-03,   460.192E-03,   17.8040E-03,   81.9317E-06
C:/temp/dataset/6/26_12.odb,Step-1,Increment      1: Step Time =    1.000,"PART-1-1",           544,      -10.0811,       10.4578,            0.,NA,NA,"",   470.362E-03,   469.541E-03,   27.7807E-03,   34.6238E-06
C:/temp/dataset/6/26_12.odb,Step-1,Increment      1: Step Time =    1.000,"PART-1-1",           545,      -10.9384,       9.05000,            0.,NA,NA,"",   457.875E-03,   456.470E-03,   35.8451E-03,   102.141E-06
C:/temp/dataset/6/26_12.odb,Step-1,Increment      1: Step Time =    1.000,"PART-1-1",           546,      -9.86794,       8.06293,            0.,NA,NA,"",   447.857E-03,   447.111E-03,   25.8257E-03,   176.731E-06
C:/temp/dataset/6/26_12.odb,Step-1,Increment      1: Step Time =    1.000,"PART-1-1",           547,      -7.23366,       1.29985,            0.,NA,NA,"",   387.154E-03,   387.138E-03,  -3.48060E-03,   1.69983E-03
C:/temp/dataset/6/26_12.odb,Step-1,Increment      1: Step Time =    1.000,"PART-1-1",           548,      -8.34685,   784.410E-03,            0.,NA,NA,"",   383.939E-03,   383.874E-03,   7.06504E-03,   1.82953E-03
C:/temp/dataset/6/26_12.odb,Step-1,Increment      1: Step Time =    1.000,"PART-1-1",           549,      -7.43977,  -685.632E-03,            0.,NA,NA,"",   372.285E-03,   372.272E-03,  -3.03221E-03,   1.68838E-03
C:/temp/dataset/6/26_12.odb,Step-1,Increment      1: Step Time =    1.000,"PART-1-1",           550,      -12.4903,      -8.57964,            0.,NA,NA,"",   270.240E-03,   263.342E-03,   60.6674E-03,   2.34650E-03
C:/temp/dataset/6/26_12.odb,Step-1,Increment      1: Step Time =    1.000,"PART-1-1",           551,          -15.,         -8.75,            0.,NA,NA,"",   278.284E-03,   259.993E-03,   99.2238E-03,   979.700E-06
C:/temp/dataset/6/26_12.odb,Step-1,Increment      1: Step Time =    1.000,"PART-1-1",           552,      -13.5658,      -9.92286,            0.,NA,NA,"",   251.523E-03,   239.577E-03,   76.5959E-03,   1.56951E-03
C:/temp/dataset/6/26_12.odb,Step-1,Increment      1: Step Time =    1.000,"PART-1-1",           553,      -11.9783,      -7.15971,            0.,NA,NA,"",   292.578E-03,   287.722E-03,   53.0816E-03,   2.22830E-03
C:/temp/dataset/6/26_12.odb,Step-1,Increment      1: Step Time =    1.000,"PART-1-1",           554,      -11.8960,      -5.22799,            0.,NA,NA,"",   321.828E-03,   317.839E-03,   50.5142E-03,   1.58066E-03
C:/temp/dataset/6/26_12.odb,Step-1,Increment      1: Step Time =    1.000,"PART-1-1",           555,      -12.4565,      -16.3452,            0.,NA,NA,"",   135.470E-03,   125.320E-03,   51.4481E-03,   3.68227E-03
C:/temp/dataset/6/26_12.odb,Step-1,Increment      1: Step Time =    1.000,"PART-1-1",           556,          -15.,        -16.25,            0.,NA,NA,"",   157.784E-03,   131.608E-03,   87.0355E-03,   4.79545E-03
C:/temp/dataset/6/26_12.odb,Step-1,Increment      1: Step Time =    1.000,"PART-1-1",           557,      -13.7435,      -17.5611,            0.,NA,NA,"",   126.431E-03,   109.045E-03,   63.9844E-03,   4.59930E-03
C:/temp/dataset/6/26_12.odb,Step-1,Increment      1: Step Time =    1.000,"PART-1-1",           558,      -9.99221,      -8.41662,            0.,NA,NA,"",   267.855E-03,   266.472E-03,   27.1825E-03,   3.30300E-03
C:/temp/dataset/6/26_12.odb,Step-1,Increment      1: Step Time =    1.000,"PART-1-1",           559,      -11.4633,      -9.12095,            0.,NA,NA,"",   257.954E-03,   253.713E-03,   46.5840E-03,   2.94650E-03
C:/temp/dataset/6/26_12.odb,Step-1,Increment      1: Step Time =    1.000,"PART-1-1",           560,      -10.8070,      -10.1141,            0.,NA,NA,"",   238.359E-03,   235.410E-03,   37.3791E-03,   3.21351E-03
C:/temp/dataset/6/26_12.odb,Step-1,Increment      1: Step Time =    1.000,"PART-1-1",           561,      -13.9189,      -24.9166,            0.,NA,NA,"",   44.4896E-03,   32.6529E-03,   30.2177E-03,   6.02983E-03
C:/temp/dataset/6/26_12.odb,Step-1,Increment      1: Step Time =    1.000,"PART-1-1",           562,      -12.9076,      -23.6273,            0.,NA,NA,"",   49.4999E-03,   39.7873E-03,   29.4486E-03,   4.99710E-03
C:/temp/dataset/6/26_12.odb,Step-1,Increment      1: Step Time =    1.000,"PART-1-1",           563,          -15.,        -23.75,            0.,NA,NA,"",   63.0168E-03,   44.4114E-03,   44.7073E-03,   6.88197E-03
C:/temp/dataset/6/26_12.odb,Step-1,Increment      1: Step Time =    1.000,"PART-1-1",           564,          -15.,        -28.75,            0.,NA,NA,"",   15.7382E-03,   11.2077E-03,   11.0488E-03,   9.42537E-03
C:/temp/dataset/6/26_12.odb,Step-1,Increment      1: Step Time =    1.000,"PART-1-1",           565,        -13.75,          -30.,            0.,NA,NA,"",            0.,   504.175E-42,   11.2987E-39,   8.06732E-03
C:/temp/dataset/6/26_12.odb,Step-1,Increment      1: Step Time =    1.000,"PART-1-1",           566,      -13.7642,      -27.4123,            0.,NA,NA,"",   21.4584E-03,   15.3613E-03,   14.9832E-03,   6.69001E-03
C:/temp/dataset/6/26_12.odb,Step-1,Increment      1: Step Time =    1.000,"PART-1-1",           567,            5.,      -6.25625,            0.,NA,NA,"",   385.259E-03,   385.022E-03,  -13.4933E-03,   7.14913E-03
C:/temp/dataset/6/26_12.odb,Step-1,Increment      1: Step Time =    1.000,"PART-1-1",           568,       7.03347,      -6.11658,            0.,NA,NA,"",   390.183E-03,   389.782E-03,  -17.6868E-03,   4.76889E-03
C:/temp/dataset/6/26_12.odb,Step-1,Increment      1: Step Time =    1.000,"PART-1-1",           569,       6.04361,      -4.83741,            0.,NA,NA,"",   388.014E-03,   387.460E-03,  -20.7351E-03,   5.17737E-03
C:/temp/dataset/6/26_12.odb,Step-1,Increment      1: Step Time =    1.000,"PART-1-1",           570,           15.,      -2.65625,            0.,NA,NA,"",   397.197E-03,   393.572E-03,  -53.5429E-03,   2.64496E-03
C:/temp/dataset/6/26_12.odb,Step-1,Increment      1: Step Time =    1.000,"PART-1-1",           571,       12.8875,      -2.72454,            0.,NA,NA,"",   398.380E-03,   395.330E-03,  -49.2009E-03,   2.55275E-03
C:/temp/dataset/6/26_12.odb,Step-1,Increment      1: Step Time =    1.000,"PART-1-1",           572,       10.0248,      -7.91896,            0.,NA,NA,"",   389.886E-03,   388.419E-03,  -33.7817E-03,   3.63919E-03
C:/temp/dataset/6/26_12.odb,Step-1,Increment      1: Step Time =    1.000,"PART-1-1",           573,       8.98203,      -8.99604,            0.,NA,NA,"",   385.112E-03,   384.429E-03,  -22.9157E-03,   4.01392E-03
C:/temp/dataset/6/26_12.odb,Step-1,Increment      1: Step Time =    1.000,"PART-1-1",           574,       9.98204,      -10.2112,            0.,NA,NA,"",   374.408E-03,   372.826E-03,  -34.3900E-03,   3.59307E-03
C:/temp/dataset/6/26_12.odb,Step-1,Increment      1: Step Time =    1.000,"PART-1-1",           575,            5.,      -11.2813,            0.,NA,NA,"",   386.373E-03,   385.696E-03,   22.8720E-03,   14.0135E-03
C:/temp/dataset/6/26_12.odb,Step-1,Increment      1: Step Time =    1.000,"PART-1-1",           576,       6.96001,      -11.3098,            0.,NA,NA,"",   374.197E-03,   374.189E-03,   2.43945E-03,   7.93963E-03
C:/temp/dataset/6/26_12.odb,Step-1,Increment      1: Step Time =    1.000,"PART-1-1",           577,       12.1169,      -5.93459,            0.,NA,NA,"",   396.237E-03,   393.101E-03,  -49.7532E-03,   3.54344E-03
C:/temp/dataset/6/26_12.odb,Step-1,Increment      1: Step Time =    1.000,"PART-1-1",           578,       11.1088,      -6.97100,            0.,NA,NA,"",   393.510E-03,   391.132E-03,  -43.2013E-03,   3.49383E-03
C:/temp/dataset/6/26_12.odb,Step-1,Increment      1: Step Time =    1.000,"PART-1-1",           579,           15.,      -11.4063,            0.,NA,NA,"",   357.477E-03,   342.029E-03,  -103.949E-03,   8.41648E-03
C:/temp/dataset/6/26_12.odb,Step-1,Increment      1: Step Time =    1.000,"PART-1-1",           580,       13.9991,      -10.3053,            0.,NA,NA,"",   370.204E-03,   360.781E-03,  -82.9951E-03,   6.67954E-03
C:/temp/dataset/6/26_12.odb,Step-1,Increment      1: Step Time =    1.000,"PART-1-1",           581,       12.9941,      -11.4223,            0.,NA,NA,"",   356.171E-03,   348.135E-03,  -75.2300E-03,   4.53240E-03
C:/temp/dataset/6/26_12.odb,Step-1,Increment      1: Step Time =    1.000,"PART-1-1",           582,           15.,      -9.21875,            0.,NA,NA,"",   378.991E-03,   368.950E-03,  -86.6626E-03,   8.31884E-03
C:/temp/dataset/6/26_12.odb,Step-1,Increment      1: Step Time =    1.000,"PART-1-1",           583,       9.25975,      -25.9916,            0.,NA,NA,"",   26.7534E-03,   26.1272E-03,  -5.75483E-03,   3.59537E-03
C:/temp/dataset/6/26_12.odb,Step-1,Increment      1: Step Time =    1.000,"PART-1-1",           584,       7.97004,      -27.0667,            0.,NA,NA,"",   16.3976E-03,   16.3951E-03,   282.866E-06,   3.30842E-03
C:/temp/dataset/6/26_12.odb,Step-1,Increment      1: Step Time =    1.000,"PART-1-1",           585,       9.98268,      -20.3187,            0.,NA,NA,"",   124.999E-03,   121.263E-03,  -30.3335E-03,   9.58735E-03
C:/temp/dataset/6/26_12.odb,Step-1,Increment      1: Step Time =    1.000,"PART-1-1",           586,       8.47236,      -19.9740,            0.,NA,NA,"",   124.162E-03,   123.508E-03,  -12.7185E-03,   10.3325E-03
C:/temp/dataset/6/26_12.odb,Step-1,Increment      1: Step Time =    1.000,"PART-1-1",           587,       7.80775,      -21.2882,            0.,NA,NA,"",   89.8794E-03,   89.8783E-03,  -441.906E-06,   7.55503E-03
C:/temp/dataset/6/26_12.odb,Step-1,Increment      1: Step Time =    1.000,"PART-1-1",           588,       9.31806,      -21.6330,            0.,NA,NA,"",   90.9004E-03,   89.3009E-03,  -16.9774E-03,   6.89113E-03
C:/temp/dataset/6/26_12.odb,Step-1,Increment      1: Step Time =    1.000,"PART-1-1",           589,          3.75,          -20.,            0.,NA,NA,"",   80.2130E-03,   78.7219E-03,   15.3943E-03,   16.7278E-03
C:/temp/dataset/6/26_12.odb,Step-1,Increment      1: Step Time =    1.000,"PART-1-1",           590,       2.69482,      -20.9389,            0.,NA,NA,"",   71.0075E-03,   69.7566E-03,   13.2694E-03,   7.66885E-03
C:/temp/dataset/6/26_12.odb,Step-1,Increment      1: Step Time =    1.000,"PART-1-1",           591,       4.10336,      -21.5712,            0.,NA,NA,"",   77.7582E-03,   74.3354E-03,   22.8163E-03,   10.3765E-03
C:/temp/dataset/6/26_12.odb,Step-1,Increment      1: Step Time =    1.000,"PART-1-1",           592,       5.15854,      -20.6323,            0.,NA,NA,"",   94.5999E-03,   89.7877E-03,   29.7875E-03,   16.1463E-03
C:/temp/dataset/6/26_12.odb,Step-1,Increment      1: Step Time =    1.000,"PART-1-1",           593,          1.25,          -20.,            0.,NA,NA,"",   59.9953E-03,   59.9034E-03,   3.32009E-03,   5.26734E-03
C:/temp/dataset/6/26_12.odb,Step-1,Increment      1: Step Time =    1.000,"PART-1-1",           594,       1.58638,      -22.3782,            0.,NA,NA,"",   59.3875E-03,   58.6602E-03,   9.26577E-03,   7.67460E-03
C:/temp/dataset/6/26_12.odb,Step-1,Increment      1: Step Time =    1.000,"PART-1-1",           595,      -7.18878,      -21.5166,            0.,NA,NA,"",   51.4145E-03,   51.0233E-03,  -6.33086E-03,   1.78787E-03
C:/temp/dataset/6/26_12.odb,Step-1,Increment      1: Step Time =    1.000,"PART-1-1",           596,      -8.69544,      -20.4918,            0.,NA,NA,"",   62.4257E-03,   62.2517E-03,   4.65704E-03,   2.33667E-03
C:/temp/dataset/6/26_12.odb,Step-1,Increment      1: Step Time =    1.000,"PART-1-1",           597,      -9.53108,      -21.9939,            0.,NA,NA,"",   49.4474E-03,   48.5132E-03,   9.56638E-03,   1.87059E-03
C:/temp/dataset/6/26_12.odb,Step-1,Increment      1: Step Time =    1.000,"PART-1-1",           598,      -8.02442,      -23.0186,            0.,NA,NA,"",   39.7469E-03,   39.7428E-03,  -568.637E-06,   1.27111E-03
C:/temp/dataset/6/26_12.odb,Step-1,Increment      1: Step Time =    1.000,"PART-1-1",           599,           -5.,      -18.7437,            0.,NA,NA,"",   89.3518E-03,   83.7846E-03,  -31.0464E-03,   8.11260E-03
C:/temp/dataset/6/26_12.odb,Step-1,Increment      1: Step Time =    1.000,"PART-1-1",           600,      -6.23242,      -17.5731,            0.,NA,NA,"",   102.660E-03,   100.600E-03,  -20.4615E-03,   3.76970E-03
C:/temp/dataset/6/26_12.odb,Step-1,Increment      1: Step Time =    1.000,"PART-1-1",           601,      -7.41830,      -18.9573,            0.,NA,NA,"",   78.9993E-03,   78.8068E-03,  -5.51197E-03,   3.35737E-03
C:/temp/dataset/6/26_12.odb,Step-1,Increment      1: Step Time =    1.000,"PART-1-1",           602,      -6.18588,      -20.1280,            0.,NA,NA,"",   63.4216E-03,   61.7479E-03,  -14.4737E-03,   5.19626E-03
C:/temp/dataset/6/26_12.odb,Step-1,Increment      1: Step Time =    1.000,"PART-1-1",           603,           -5.,      -16.2312,            0.,NA,NA,"",   132.688E-03,   125.239E-03,  -43.8338E-03,   3.47407E-03
C:/temp/dataset/6/26_12.odb,Step-1,Increment      1: Step Time =    1.000,"PART-1-1",           604,      -7.44257,      -16.3835,            0.,NA,NA,"",   120.524E-03,   120.251E-03,  -8.09306E-03,   3.49393E-03
C:/temp/dataset/6/26_12.odb,Step-1,Increment      1: Step Time =    1.000,"PART-1-1",           605,      -12.6830,      -26.0788,            0.,NA,NA,"",   27.6073E-03,   21.6077E-03,   17.1833E-03,   5.20416E-03
C:/temp/dataset/6/26_12.odb,Step-1,Increment      1: Step Time =    1.000,"PART-1-1",           606,          -15.,        -26.25,            0.,NA,NA,"",   39.8875E-03,   26.9339E-03,   29.4207E-03,   7.40122E-03
C:/temp/dataset/6/26_12.odb,Step-1,Increment      1: Step Time =    1.000,"PART-1-1",           607,         -8.75,          -30.,            0.,NA,NA,"",            0.,   1.92432E-39,   2.80370E-39,   2.58117E-03
C:/temp/dataset/6/26_12.odb,Step-1,Increment      1: Step Time =    1.000,"PART-1-1",           608,          -15.,        -18.75,            0.,NA,NA,"",   121.451E-03,   95.7639E-03,   74.6970E-03,   6.10570E-03
C:/temp/dataset/6/26_12.odb,Step-1,Increment      1: Step Time =    1.000,"PART-1-1",           609,      -12.5734,      -18.8685,            0.,NA,NA,"",   99.3868E-03,   88.4632E-03,   45.2991E-03,   4.10936E-03
C:/temp/dataset/6/26_12.odb,Step-1,Increment      1: Step Time =    1.000,"PART-1-1",           610,           -5.,      -11.2063,            0.,NA,NA,"",   218.359E-03,   212.607E-03,  -49.7865E-03,   519.684E-06
C:/temp/dataset/6/26_12.odb,Step-1,Increment      1: Step Time =    1.000,"PART-1-1",           611,      -7.25264,      -11.4522,            0.,NA,NA,"",   209.377E-03,   208.982E-03,  -12.8447E-03,   2.45907E-03
C:/temp/dataset/6/26_12.odb,Step-1,Increment      1: Step Time =    1.000,"PART-1-1",           612,           -5.,      -6.23750,            0.,NA,NA,"",   307.278E-03,   304.797E-03,  -38.9681E-03,   7.15085E-03
C:/temp/dataset/6/26_12.odb,Step-1,Increment      1: Step Time =    1.000,"PART-1-1",           613,      -6.16987,      -5.46941,            0.,NA,NA,"",   323.435E-03,   322.886E-03,  -18.8435E-03,   6.94043E-03
C:/temp/dataset/6/26_12.odb,Step-1,Increment      1: Step Time =    1.000,"PART-1-1",           614,      -7.24309,      -6.98789,            0.,NA,NA,"",   293.213E-03,   293.116E-03,  -7.55793E-03,   3.66169E-03
C:/temp/dataset/6/26_12.odb,Step-1,Increment      1: Step Time =    1.000,"PART-1-1",           615,           -5.,       16.4583,            0.,NA,NA,"",   525.936E-03,   525.548E-03,  -20.2126E-03,   7.92429E-06
C:/temp/dataset/6/26_12.odb,Step-1,Increment      1: Step Time =    1.000,"PART-1-1",           616,      -7.23328,       16.4840,            0.,NA,NA,"",   525.888E-03,   525.888E-03,   712.215E-06,   10.5027E-06
C:/temp/dataset/6/26_12.odb,Step-1,Increment      1: Step Time =    1.000,"PART-1-1",           617,      -6.08867,       15.3700,            0.,NA,NA,"",   515.507E-03,   515.411E-03,  -9.97312E-03,   10.5778E-06
C:/temp/dataset/6/26_12.odb,Step-1,Increment      1: Step Time =    1.000,"PART-1-1",           618,      -13.1522,       16.1892,            0.,NA,NA,"",   526.355E-03,   523.350E-03,   56.1646E-03,   10.5835E-06
C:/temp/dataset/6/26_12.odb,Step-1,Increment      1: Step Time =    1.000,"PART-1-1",           619,      -14.0864,       17.4486,            0.,NA,NA,"",   539.110E-03,   535.194E-03,   64.8590E-03,   3.65634E-06
C:/temp/dataset/6/26_12.odb,Step-1,Increment      1: Step Time =    1.000,"PART-1-1",           620,          -15.,         16.25,            0.,NA,NA,"",   529.129E-03,   524.004E-03,   73.4656E-03,   8.63106E-06
C:/temp/dataset/6/26_12.odb,Step-1,Increment      1: Step Time =    1.000,"PART-1-1",           621,           -5.,       24.7917,            0.,NA,NA,"",   603.941E-03,   603.591E-03,  -20.5720E-03,   204.425E-09
C:/temp/dataset/6/26_12.odb,Step-1,Increment      1: Step Time =    1.000,"PART-1-1",           622,      -6.14442,       25.7689,            0.,NA,NA,"",   612.874E-03,   612.794E-03,  -9.89543E-03,   94.1098E-09
C:/temp/dataset/6/26_12.odb,Step-1,Increment      1: Step Time =    1.000,"PART-1-1",           623,           -5.,        26.875,            0.,NA,NA,"",   623.448E-03,   623.105E-03,  -20.6637E-03,   86.7136E-09
C:/temp/dataset/6/26_12.odb,Step-1,Increment      1: Step Time =    1.000,"PART-1-1",           624,      -7.36924,       26.7689,            0.,NA,NA,"",   622.218E-03,   622.216E-03,   1.53333E-03,   92.7596E-09
C:/temp/dataset/6/26_12.odb,Step-1,Increment      1: Step Time =    1.000,"PART-1-1",           625,      -13.1175,       20.9132,            0.,NA,NA,"",   570.335E-03,   567.615E-03,   55.6344E-03,   919.280E-09
C:/temp/dataset/6/26_12.odb,Step-1,Increment      1: Step Time =    1.000,"PART-1-1",           626,      -14.0212,       22.2867,            0.,NA,NA,"",   584.043E-03,   580.522E-03,   64.0398E-03,   162.223E-09
C:/temp/dataset/6/26_12.odb,Step-1,Increment      1: Step Time =    1.000,"PART-1-1",           627,          -15.,         21.25,            0.,NA,NA,"",   575.534E-03,   570.853E-03,   73.2544E-03,   84.7907E-09
C:/temp/dataset/6/26_12.odb,Step-1,Increment      1: Step Time =    1.000,"PART-1-1",           628,      -14.0963,       19.8765,            0.,NA,NA,"",   561.701E-03,   557.945E-03,   64.8483E-03,   745.538E-09
C:/temp/dataset/6/26_12.odb,Step-1,Increment      1: Step Time =    1.000,"PART-1-1",           629,         -1.25,           -5.,            0.,NA,NA,"",   362.961E-03,   361.697E-03,  -30.2652E-03,   5.47204E-03
C:/temp/dataset/6/26_12.odb,Step-1,Increment      1: Step Time =    1.000,"PART-1-1",           630,      -1.77292,      -3.03732,            0.,NA,NA,"",   365.783E-03,   364.195E-03,  -34.0514E-03,   4.38808E-03
C:/temp/dataset/6/26_12.odb,Step-1,Increment      1: Step Time =    1.000,"PART-1-1",           631,      -12.1053,      -2.30059,            0.,NA,NA,"",   358.105E-03,   354.602E-03,   49.9674E-03,   1.38072E-03
C:/temp/dataset/6/26_12.odb,Step-1,Increment      1: Step Time =    1.000,"PART-1-1",           632,      -10.7648,      -1.40855,            0.,NA,NA,"",   366.220E-03,   364.686E-03,   33.4871E-03,   1.35740E-03
C:/temp/dataset/6/26_12.odb,Step-1,Increment      1: Step Time =    1.000,"PART-1-1",           633,      -11.5438,  -354.672E-03,            0.,NA,NA,"",   376.657E-03,   374.319E-03,   41.9091E-03,   1.51361E-03
C:/temp/dataset/6/26_12.odb,Step-1,Increment      1: Step Time =    1.000,"PART-1-1",           634,          3.75,           -5.,            0.,NA,NA,"",   382.305E-03,   381.167E-03,  -29.4807E-03,   3.49462E-03
C:/temp/dataset/6/26_12.odb,Step-1,Increment      1: Step Time =    1.000,"PART-1-1",           635,       4.52066,      -3.83856,            0.,NA,NA,"",   381.926E-03,   380.871E-03,  -28.3698E-03,   4.03490E-03
C:/temp/dataset/6/26_12.odb,Step-1,Increment      1: Step Time =    1.000,"PART-1-1",           636,       2.94662,      -2.72704,            0.,NA,NA,"",   379.495E-03,   377.973E-03,  -33.9554E-03,   2.96036E-03
C:/temp/dataset/6/26_12.odb,Step-1,Increment      1: Step Time =    1.000,"PART-1-1",           637,       1.50395,       2.56821,            0.,NA,NA,"",   391.440E-03,   389.498E-03,  -38.9449E-03,   1.71171E-03
C:/temp/dataset/6/26_12.odb,Step-1,Increment      1: Step Time =    1.000,"PART-1-1",           638,          1.25,            5.,            0.,NA,NA,"",   396.042E-03,   394.207E-03,  -38.0771E-03,   1.40407E-03
C:/temp/dataset/6/26_12.odb,Step-1,Increment      1: Step Time =    1.000,"PART-1-1",           639,          6.25,            5.,            0.,NA,NA,"",   395.656E-03,   393.688E-03,  -39.4137E-03,   751.829E-06
C:/temp/dataset/6/26_12.odb,Step-1,Increment      1: Step Time =    1.000,"PART-1-1",           640,  -213.968E-03,      -26.0734,            0.,NA,NA,"",   31.4931E-03,   31.3783E-03,   2.68671E-03,   6.25442E-03
C:/temp/dataset/6/26_12.odb,Step-1,Increment      1: Step Time =    1.000,"PART-1-1",           641,       1.14210,      -23.8512,            0.,NA,NA,"",   49.4742E-03,   48.9308E-03,   7.31254E-03,   6.87513E-03
C:/temp/dataset/6/26_12.odb,Step-1,Increment      1: Step Time =    1.000,"PART-1-1",           642,  -234.527E-03,      -23.9674,            0.,NA,NA,"",   46.3542E-03,   46.2605E-03,   2.94573E-03,   6.35472E-03
C:/temp/dataset/6/26_12.odb,Step-1,Increment      1: Step Time =    1.000,"PART-1-1",           643,           -5.,        14.375,            0.,NA,NA,"",   506.442E-03,   506.041E-03,  -20.1447E-03,   23.8732E-06
C:/temp/dataset/6/26_12.odb,Step-1,Increment      1: Step Time =    1.000,"PART-1-1",           644,      -7.14364,       14.2292,            0.,NA,NA,"",   504.778E-03,   504.778E-03,  -27.6253E-06,   22.0272E-06
C:/temp/dataset/6/26_12.odb,Step-1,Increment      1: Step Time =    1.000,"PART-1-1",           645,           -5.,       6.04167,            0.,NA,NA,"",   426.321E-03,   425.834E-03,  -20.3618E-03,   1.18829E-03
C:/temp/dataset/6/26_12.odb,Step-1,Increment      1: Step Time =    1.000,"PART-1-1",           646,      -5.82078,       6.95384,            0.,NA,NA,"",   435.463E-03,   435.289E-03,  -12.2901E-03,   437.768E-06
C:/temp/dataset/6/26_12.odb,Step-1,Increment      1: Step Time =    1.000,"PART-1-1",           647,      -6.45742,       5.85906,            0.,NA,NA,"",   424.068E-03,   424.023E-03,  -6.17856E-03,   1.23456E-03
C:/temp/dataset/6/26_12.odb,Step-1,Increment      1: Step Time =    1.000,"PART-1-1",           648,      -5.63664,       4.94688,            0.,NA,NA,"",   413.328E-03,   413.090E-03,  -14.0136E-03,   2.56699E-03
C:/temp/dataset/6/26_12.odb,Step-1,Increment      1: Step Time =    1.000,"PART-1-1",           649,           -5.,         8.125,            0.,NA,NA,"",   447.453E-03,   446.988E-03,  -20.4106E-03,   154.860E-06
C:/temp/dataset/6/26_12.odb,Step-1,Increment      1: Step Time =    1.000,"PART-1-1",           650,      -5.96903,       9.00386,            0.,NA,NA,"",   455.655E-03,   455.523E-03,  -10.9846E-03,   77.3999E-06
C:/temp/dataset/6/26_12.odb,Step-1,Increment      1: Step Time =    1.000,"PART-1-1",           651,          -15.,         -3.75,            0.,NA,NA,"",   346.272E-03,   334.931E-03,   87.8980E-03,   2.94931E-03
C:/temp/dataset/6/26_12.odb,Step-1,Increment      1: Step Time =    1.000,"PART-1-1",           652,      -12.7846,      -3.59401,            0.,NA,NA,"",   344.258E-03,   339.024E-03,   59.8022E-03,   1.38625E-03
C:/temp/dataset/6/26_12.odb,Step-1,Increment      1: Step Time =    1.000,"PART-1-1",           653,      -11.5430,      -4.20540,            0.,NA,NA,"",   335.302E-03,   332.259E-03,   45.0669E-03,   1.29793E-03
C:/temp/dataset/6/26_12.odb,Step-1,Increment      1: Step Time =    1.000,"PART-1-1",           654,      -10.1018,      -4.29084,            0.,NA,NA,"",   333.768E-03,   332.638E-03,   27.4444E-03,   1.62459E-03
C:/temp/dataset/6/26_12.odb,Step-1,Increment      1: Step Time =    1.000,"PART-1-1",           655,          -15.,        -11.25,            0.,NA,NA,"",   238.334E-03,   216.486E-03,   99.6847E-03,   994.063E-06
C:/temp/dataset/6/26_12.odb,Step-1,Increment      1: Step Time =    1.000,"PART-1-1",           656,      -12.2331,      -11.1785,            0.,NA,NA,"",   223.530E-03,   216.282E-03,   56.4603E-03,   3.00806E-03
C:/temp/dataset/6/26_12.odb,Step-1,Increment      1: Step Time =    1.000,"PART-1-1",           657,       5.21391,      -1.02834,            0.,NA,NA,"",   386.737E-03,   385.236E-03,  -34.0409E-03,   3.01759E-03
C:/temp/dataset/6/26_12.odb,Step-1,Increment      1: Step Time =    1.000,"PART-1-1",           658,       6.72319,      -1.59046,            0.,NA,NA,"",   389.524E-03,   388.167E-03,  -32.4845E-03,   3.27054E-03
C:/temp/dataset/6/26_12.odb,Step-1,Increment      1: Step Time =    1.000,"PART-1-1",           659,       10.9187,      -16.2245,            0.,NA,NA,"",   246.128E-03,   240.003E-03,  -54.5651E-03,   10.3443E-03
C:/temp/dataset/6/26_12.odb,Step-1,Increment      1: Step Time =    1.000,"PART-1-1",           660,       11.9858,      -14.8752,            0.,NA,NA,"",   285.576E-03,   276.979E-03,  -69.5454E-03,   7.88727E-03
C:/temp/dataset/6/26_12.odb,Step-1,Increment      1: Step Time =    1.000,"PART-1-1",           661,       10.9746,      -13.7451,            0.,NA,NA,"",   312.501E-03,   307.793E-03,  -54.0391E-03,   7.55875E-03
C:/temp/dataset/6/26_12.odb,Step-1,Increment      1: Step Time =    1.000,"PART-1-1",           662,       11.9830,      -12.5543,            0.,NA,NA,"",   337.326E-03,   330.989E-03,  -65.0803E-03,   5.35257E-03
C:/temp/dataset/6/26_12.odb,Step-1,Increment      1: Step Time =    1.000,"PART-1-1",           663,           15.,      -20.1563,            0.,NA,NA,"",   180.459E-03,   141.168E-03,  -112.415E-03,   7.95501E-03
C:/temp/dataset/6/26_12.odb,Step-1,Increment      1: Step Time =    1.000,"PART-1-1",           664,       14.0841,      -19.1367,            0.,NA,NA,"",   190.552E-03,   162.916E-03,  -98.8350E-03,   6.10122E-03
C:/temp/dataset/6/26_12.odb,Step-1,Increment      1: Step Time =    1.000,"PART-1-1",           665,       13.0385,      -20.2889,            0.,NA,NA,"",   151.179E-03,   132.139E-03,  -73.4447E-03,   7.41266E-03
C:/temp/dataset/6/26_12.odb,Step-1,Increment      1: Step Time =    1.000,"PART-1-1",           666,           15.,      -17.9688,            0.,NA,NA,"",   230.883E-03,   194.170E-03,  -124.920E-03,   3.49949E-03
C:/temp/dataset/6/26_12.odb,Step-1,Increment      1: Step Time =    1.000,"PART-1-1",           667,          1.25,          -30.,            0.,NA,NA,"",            0.,   5.22702E-39,   2.95085E-39,   5.52567E-03
C:/temp/dataset/6/26_12.odb,Step-1,Increment      1: Step Time =    1.000,"PART-1-1",           668,       3.30543,      -22.6598,            0.,NA,NA,"",   63.9890E-03,   61.7342E-03,   16.8366E-03,   9.50184E-03
C:/temp/dataset/6/26_12.odb,Step-1,Increment      1: Step Time =    1.000,"PART-1-1",           669,       2.86115,      -24.1329,            0.,NA,NA,"",   49.8988E-03,   48.2527E-03,   12.7107E-03,   8.24022E-03
C:/temp/dataset/6/26_12.odb,Step-1,Increment      1: Step Time =    1.000,"PART-1-1",           670,      -10.6801,      -21.6169,            0.,NA,NA,"",   56.7390E-03,   53.4482E-03,   19.0420E-03,   2.92455E-03
C:/temp/dataset/6/26_12.odb,Step-1,Increment      1: Step Time =    1.000,"PART-1-1",           671,      -11.3394,      -20.4213,            0.,NA,NA,"",   72.5759E-03,   66.9987E-03,   27.9005E-03,   3.45312E-03
C:/temp/dataset/6/26_12.odb,Step-1,Increment      1: Step Time =    1.000,"PART-1-1",           672,      -12.1593,      -22.4638,            0.,NA,NA,"",   55.8213E-03,   48.0595E-03,   28.3954E-03,   4.09396E-03
C:/temp/dataset/6/26_12.odb,Step-1,Increment      1: Step Time =    1.000,"PART-1-1",           673,      -9.92443,      -16.4516,            0.,NA,NA,"",   122.281E-03,   120.447E-03,   21.0992E-03,   3.60622E-03
C:/temp/dataset/6/26_12.odb,Step-1,Increment      1: Step Time =    1.000,"PART-1-1",           674,      -8.71114,      -17.7111,            0.,NA,NA,"",   99.3516E-03,   99.1092E-03,   6.93589E-03,   3.50169E-03
C:/temp/dataset/6/26_12.odb,Step-1,Increment      1: Step Time =    1.000,"PART-1-1",           675,      -9.25100,      -7.50767,            0.,NA,NA,"",   283.420E-03,   282.863E-03,   17.7618E-03,   3.35756E-03
C:/temp/dataset/6/26_12.odb,Step-1,Increment      1: Step Time =    1.000,"PART-1-1",           676,      -8.32615,      -6.25855,            0.,NA,NA,"",   305.098E-03,   305.030E-03,   6.45255E-03,   3.53915E-03
C:/temp/dataset/6/26_12.odb,Step-1,Increment      1: Step Time =    1.000,"PART-1-1",           677,      -7.58018,      -5.09368,            0.,NA,NA,"",   325.501E-03,   325.494E-03,  -2.15624E-03,   3.49107E-03
C:/temp/dataset/6/26_12.odb,Step-1,Increment      1: Step Time =    1.000,"PART-1-1",           678,      -6.67379,      -3.84489,            0.,NA,NA,"",   344.743E-03,   344.510E-03,  -12.6798E-03,   3.17686E-03
C:/temp/dataset/6/26_12.odb,Step-1,Increment      1: Step Time =    1.000,"PART-1-1",           679,      -2.40491,      -1.03021,            0.,NA,NA,"",   373.867E-03,   372.283E-03,  -34.3781E-03,   2.69195E-03
C:/temp/dataset/6/26_12.odb,Step-1,Increment      1: Step Time =    1.000,"PART-1-1",           680,      -3.32453,      -2.14711,            0.,NA,NA,"",   365.657E-03,   364.255E-03,  -31.9867E-03,   3.73285E-03
C:/temp/dataset/6/26_12.odb,Step-1,Increment      1: Step Time =    1.000,"PART-1-1",           681,       10.4745,      -24.8101,            0.,NA,NA,"",   44.9041E-03,   41.4225E-03,  -17.3365E-03,   5.21091E-03
C:/temp/dataset/6/26_12.odb,Step-1,Increment      1: Step Time =    1.000,"PART-1-1",           682,       8.16019,      -23.0435,            0.,NA,NA,"",   61.4704E-03,   61.4567E-03,  -1.30066E-03,   4.25411E-03
C:/temp/dataset/6/26_12.odb,Step-1,Increment      1: Step Time =    1.000,"PART-1-1",           683,       9.40124,      -23.8494,            0.,NA,NA,"",   53.4676E-03,   52.3088E-03,  -11.0709E-03,   4.32290E-03
C:/temp/dataset/6/26_12.odb,Step-1,Increment      1: Step Time =    1.000,"PART-1-1",           684,       5.67200,      -27.0943,            0.,NA,NA,"",   19.5559E-03,   18.8404E-03,   5.24168E-03,   5.13338E-03
C:/temp/dataset/6/26_12.odb,Step-1,Increment      1: Step Time =    1.000,"PART-1-1",           685,       4.86106,      -26.0050,            0.,NA,NA,"",   30.7117E-03,   29.3483E-03,   9.04901E-03,   6.12949E-03
C:/temp/dataset/6/26_12.odb,Step-1,Increment      1: Step Time =    1.000,"PART-1-1",           686,      -2.55341,      -23.8484,            0.,NA,NA,"",   43.7635E-03,   43.5650E-03,  -4.16330E-03,   5.78538E-03
C:/temp/dataset/6/26_12.odb,Step-1,Increment      1: Step Time =    1.000,"PART-1-1",           687,      -4.82130,      -23.8875,            0.,NA,NA,"",   39.4534E-03,   38.7608E-03,  -7.36039E-03,   5.10832E-03
C:/temp/dataset/6/26_12.odb,Step-1,Increment      1: Step Time =    1.000,"PART-1-1",           688,      -5.84083,      -25.1777,            0.,NA,NA,"",   28.9602E-03,   28.6497E-03,  -4.22953E-03,   4.15925E-03
C:/temp/dataset/6/26_12.odb,Step-1,Increment      1: Step Time =    1.000,"PART-1-1",           689,           15.,      -26.7188,            0.,NA,NA,"",   57.7109E-03,   36.5290E-03,  -44.6786E-03,   13.4323E-03
C:/temp/dataset/6/26_12.odb,Step-1,Increment      1: Step Time =    1.000,"PART-1-1",           690,       10.9874,      -11.4075,            0.,NA,NA,"",   357.590E-03,   354.214E-03,  -49.0246E-03,   4.07701E-03
C:/temp/dataset/6/26_12.odb,Step-1,Increment      1: Step Time =    1.000,"PART-1-1",           691,       7.29436,      -19.7763,            0.,NA,NA,"",   122.638E-03,   122.622E-03,   1.98185E-03,   11.1718E-03
C:/temp/dataset/6/26_12.odb,Step-1,Increment      1: Step Time =    1.000,"PART-1-1",           692,       7.78340,      -18.7858,            0.,NA,NA,"",   155.388E-03,   155.241E-03,  -6.77860E-03,   11.8194E-03
C:/temp/dataset/6/26_12.odb,Step-1,Increment      1: Step Time =    1.000,"PART-1-1",           693,       10.8970,      -2.99004,            0.,NA,NA,"",   397.429E-03,   395.250E-03,  -41.5617E-03,   2.93249E-03
C:/temp/dataset/6/26_12.odb,Step-1,Increment      1: Step Time =    1.000,"PART-1-1",           694,       12.0828,      -3.88727,            0.,NA,NA,"",   398.189E-03,   395.388E-03,  -47.1505E-03,   2.97490E-03
C:/temp/dataset/6/26_12.odb,Step-1,Increment      1: Step Time =    1.000,"PART-1-1",           695,           15.,       1.71875,            0.,NA,NA,"",   398.141E-03,   395.143E-03,  -48.7680E-03,   390.308E-06
C:/temp/dataset/6/26_12.odb,Step-1,Increment      1: Step Time =    1.000,"PART-1-1",           696,       4.00043,  -427.215E-03,            0.,NA,NA,"",   385.695E-03,   384.013E-03,  -35.9875E-03,   2.70671E-03
C:/temp/dataset/6/26_12.odb,Step-1,Increment      1: Step Time =    1.000,"PART-1-1",           697,       2.09609,       1.00148,            0.,NA,NA,"",   387.161E-03,   385.241E-03,  -38.5124E-03,   2.22261E-03
C:/temp/dataset/6/26_12.odb,Step-1,Increment      1: Step Time =    1.000,"PART-1-1",           698,       2.38138,  -554.063E-03,            0.,NA,NA,"",   383.054E-03,   381.237E-03,  -37.2627E-03,   2.77930E-03
C:/temp/dataset/6/26_12.odb,Step-1,Increment      1: Step Time =    1.000,"PART-1-1",           699,   35.7305E-03,       2.11113,            0.,NA,NA,"",   390.114E-03,   388.227E-03,  -38.3249E-03,   1.87763E-03
C:/temp/dataset/6/26_12.odb,Step-1,Increment      1: Step Time =    1.000,"PART-1-1",           700,           -5.,       10.2083,            0.,NA,NA,"",   467.320E-03,   466.884E-03,  -20.1706E-03,   116.310E-06
C:/temp/dataset/6/26_12.odb,Step-1,Increment      1: Step Time =    1.000,"PART-1-1",           701,      -6.99901,       9.90050,            0.,NA,NA,"",   464.110E-03,   464.108E-03,  -1.18465E-03,   39.0729E-06
C:/temp/dataset/6/26_12.odb,Step-1,Increment      1: Step Time =    1.000,"PART-1-1",           702,      -11.2396,       16.2208,            0.,NA,NA,"",   524.967E-03,   523.571E-03,   38.2631E-03,   12.1606E-06
C:/temp/dataset/6/26_12.odb,Step-1,Increment      1: Step Time =    1.000,"PART-1-1",           703,      -10.2112,       15.1096,            0.,NA,NA,"",   513.926E-03,   513.124E-03,   28.6957E-03,   16.2979E-06
C:/temp/dataset/6/26_12.odb,Step-1,Increment      1: Step Time =    1.000,"PART-1-1",           704,      -9.25876,       16.3324,            0.,NA,NA,"",   524.916E-03,   524.546E-03,   19.7056E-03,   12.1554E-06
C:/temp/dataset/6/26_12.odb,Step-1,Increment      1: Step Time =    1.000,"PART-1-1",           705,      -10.2871,       17.4437,            0.,NA,NA,"",   535.793E-03,   534.992E-03,   29.2830E-03,   6.64422E-06
C:/temp/dataset/6/26_12.odb,Step-1,Increment      1: Step Time =    1.000,"PART-1-1",           706,      -8.19479,       15.2434,            0.,NA,NA,"",   514.404E-03,   514.311E-03,   9.78793E-03,   14.6268E-06
C:/temp/dataset/6/26_12.odb,Step-1,Increment      1: Step Time =    1.000,"PART-1-1",           707,      -9.19446,       14.0222,            0.,NA,NA,"",   503.276E-03,   502.908E-03,   19.2339E-03,   24.2122E-06
C:/temp/dataset/6/26_12.odb,Step-1,Increment      1: Step Time =    1.000,"PART-1-1",           708,      -8.14331,       13.0080,            0.,NA,NA,"",   493.468E-03,   493.378E-03,   9.42811E-03,   26.6976E-06
C:/temp/dataset/6/26_12.odb,Step-1,Increment      1: Step Time =    1.000,"PART-1-1",           709,          -15.,         18.75,            0.,NA,NA,"",   552.324E-03,   547.430E-03,   73.3637E-03,   1.66303E-06
C:/temp/dataset/6/26_12.odb,Step-1,Increment      1: Step Time =    1.000,"PART-1-1",           710,      -13.1826,       18.5751,            0.,NA,NA,"",   548.613E-03,   545.711E-03,   56.3468E-03,   3.63967E-06
C:/temp/dataset/6/26_12.odb,Step-1,Increment      1: Step Time =    1.000,"PART-1-1",           711,      -11.2313,       23.3702,            0.,NA,NA,"",   591.762E-03,   590.549E-03,   37.8585E-03,   211.338E-09
C:/temp/dataset/6/26_12.odb,Step-1,Increment      1: Step Time =    1.000,"PART-1-1",           712,      -10.8173,       24.9058,            0.,NA,NA,"",   605.865E-03,   604.915E-03,   33.9127E-03,   82.3850E-09
C:/temp/dataset/6/26_12.odb,Step-1,Increment      1: Step Time =    1.000,"PART-1-1",           713,      -13.5418,       24.7667,            0.,NA,NA,"",   606.651E-03,   603.732E-03,   59.4397E-03,   93.4840E-09
C:/temp/dataset/6/26_12.odb,Step-1,Increment      1: Step Time =    1.000,"PART-1-1",           714,      -12.2278,       25.9824,            0.,NA,NA,"",   616.860E-03,   615.061E-03,   47.0777E-03,   87.1685E-09
C:/temp/dataset/6/26_12.odb,Step-1,Increment      1: Step Time =    1.000,"PART-1-1",           715,          -15.,         26.25,            0.,NA,NA,"",   621.992E-03,   617.690E-03,   73.0339E-03,   115.223E-09
C:/temp/dataset/6/26_12.odb,Step-1,Increment      1: Step Time =    1.000,"PART-1-1",           716,          -15.,         23.75,            0.,NA,NA,"",   598.756E-03,   594.272E-03,   73.1440E-03,   236.632E-09
C:/temp/dataset/6/26_12.odb,Step-1,Increment      1: Step Time =    1.000,"PART-1-1",           717,      -12.5630,       23.3034,            0.,NA,NA,"",   592.125E-03,   589.982E-03,   50.3355E-03,   119.517E-09
C:/temp/dataset/6/26_12.odb,Step-1,Increment      1: Step Time =    1.000,"PART-1-1",           718,      -11.1827,       13.8735,            0.,NA,NA,"",   502.999E-03,   501.573E-03,   37.8595E-03,   23.3396E-06
C:/temp/dataset/6/26_12.odb,Step-1,Increment      1: Step Time =    1.000,"PART-1-1",           719,      -10.1659,       12.7861,            0.,NA,NA,"",   492.177E-03,   491.356E-03,   28.4165E-03,   29.2664E-06
C:/temp/dataset/6/26_12.odb,Step-1,Increment      1: Step Time =    1.000,"PART-1-1",           720,      -11.4858,       20.4947,            0.,NA,NA,"",   565.068E-03,   563.624E-03,   40.3686E-03,   1.57479E-06
C:/temp/dataset/6/26_12.odb,Step-1,Increment      1: Step Time =    1.000,"PART-1-1",           721,      -10.4732,       19.7487,            0.,NA,NA,"",   557.450E-03,   556.592E-03,   30.9179E-03,   2.11223E-06
C:/temp/dataset/6/26_12.odb,Step-1,Increment      1: Step Time =    1.000,"PART-1-1",           722,      -10.9778,       21.7959,            0.,NA,NA,"",   576.888E-03,   575.791E-03,   35.5529E-03,   603.158E-09
C:/temp/dataset/6/26_12.odb,Step-1,Increment      1: Step Time =    1.000,"PART-1-1",           723,      -9.13796,       11.7463,            0.,NA,NA,"",   481.951E-03,   481.582E-03,   18.8550E-03,   30.2645E-06
C:/temp/dataset/6/26_12.odb,Step-1,Increment      1: Step Time =    1.000,"PART-1-1",           724,      -11.1090,       11.4975,            0.,NA,NA,"",   480.771E-03,   479.320E-03,   37.3188E-03,   25.9685E-06
C:/temp/dataset/6/26_12.odb,Step-1,Increment      1: Step Time =    1.000,"PART-1-1",           725,      -7.95801,       5.48811,            0.,NA,NA,"",   422.007E-03,   421.946E-03,   7.22167E-03,   1.15260E-03
C:/temp/dataset/6/26_12.odb,Step-1,Increment      1: Step Time =    1.000,"PART-1-1",           726,      -9.27172,       5.51676,            0.,NA,NA,"",   423.805E-03,   423.353E-03,   19.5820E-03,   824.112E-06
C:/temp/dataset/6/26_12.odb,Step-1,Increment      1: Step Time =    1.000,"PART-1-1",           727,      -9.10783,       4.19071,            0.,NA,NA,"",   411.952E-03,   411.593E-03,   17.2115E-03,   1.39220E-03
C:/temp/dataset/6/26_12.odb,Step-1,Increment      1: Step Time =    1.000,"PART-1-1",           728,      -7.79412,       4.16207,            0.,NA,NA,"",   409.908E-03,   409.881E-03,   4.64602E-03,   1.62522E-03
C:/temp/dataset/6/26_12.odb,Step-1,Increment      1: Step Time =    1.000,"PART-1-1",           729,      -10.3652,   710.465E-03,            0.,NA,NA,"",   384.848E-03,   383.786E-03,   28.5638E-03,   1.61475E-03
C:/temp/dataset/6/26_12.odb,Step-1,Increment      1: Step Time =    1.000,"PART-1-1",           730,      -11.5756,       2.14983,            0.,NA,NA,"",   398.169E-03,   396.000E-03,   41.5067E-03,   1.38303E-03
C:/temp/dataset/6/26_12.odb,Step-1,Increment      1: Step Time =    1.000,"PART-1-1",           731,      -10.9514,      -7.70102,            0.,NA,NA,"",   281.774E-03,   278.954E-03,   39.7608E-03,   2.76664E-03
C:/temp/dataset/6/26_12.odb,Step-1,Increment      1: Step Time =    1.000,"PART-1-1",           732,      -11.1587,      -15.1039,            0.,NA,NA,"",   149.211E-03,   144.400E-03,   37.5848E-03,   3.47437E-03
C:/temp/dataset/6/26_12.odb,Step-1,Increment      1: Step Time =    1.000,"PART-1-1",           733,      -11.0422,      -12.5823,            0.,NA,NA,"",   193.620E-03,   189.668E-03,   38.9197E-03,   3.35235E-03
C:/temp/dataset/6/26_12.odb,Step-1,Increment      1: Step Time =    1.000,"PART-1-1",           734,      -9.98828,      -19.2456,            0.,NA,NA,"",   80.9298E-03,   78.9573E-03,   17.7588E-03,   3.11812E-03
C:/temp/dataset/6/26_12.odb,Step-1,Increment      1: Step Time =    1.000,"PART-1-1",           735,      -11.2222,      -17.6929,            0.,NA,NA,"",   107.909E-03,   102.516E-03,   33.6864E-03,   3.61351E-03
C:/temp/dataset/6/26_12.odb,Step-1,Increment      1: Step Time =    1.000,"PART-1-1",           736,      -9.72809,       26.4627,            0.,NA,NA,"",   619.902E-03,   619.451E-03,   23.6420E-03,   71.3722E-09
C:/temp/dataset/6/26_12.odb,Step-1,Increment      1: Step Time =    1.000,"PART-1-1",           737,      -8.07960,       10.7858,            0.,NA,NA,"",   472.602E-03,   472.517E-03,   8.97006E-03,   30.5155E-06
C:/temp/dataset/6/26_12.odb,Step-1,Increment      1: Step Time =    1.000,"PART-1-1",           738,      -11.3320,       18.4953,            0.,NA,NA,"",   546.281E-03,   544.886E-03,   39.0187E-03,   4.78982E-06
C:/temp/dataset/6/26_12.odb,Step-1,Increment      1: Step Time =    1.000,"PART-1-1",           739,      -10.4893,       6.32554,            0.,NA,NA,"",   432.485E-03,   431.342E-03,   31.4226E-03,   570.921E-06
C:/temp/dataset/6/26_12.odb,Step-1,Increment      1: Step Time =    1.000,"PART-1-1",           740,      -11.8356,       7.66802,            0.,NA,NA,"",   446.077E-03,   443.880E-03,   44.2204E-03,   172.528E-06
C:/temp/dataset/6/26_12.odb,Step-1,Increment      1: Step Time =    1.000,"PART-1-1",           741,      -11.4125,       4.87054,            0.,NA,NA,"",   420.806E-03,   418.901E-03,   39.9973E-03,   771.855E-06
C:/temp/dataset/6/26_12.odb,Step-1,Increment      1: Step Time =    1.000,"PART-1-1",           742,       10.1911,      -5.79504,            0.,NA,NA,"",   395.492E-03,   393.828E-03,  -36.2403E-03,   3.66772E-03
C:/temp/dataset/6/26_12.odb,Step-1,Increment      1: Step Time =    1.000,"PART-1-1",           743,       9.10708,      -6.74300,            0.,NA,NA,"",   392.762E-03,   391.809E-03,  -27.3370E-03,   4.13271E-03
C:/temp/dataset/6/26_12.odb,Step-1,Increment      1: Step Time =    1.000,"PART-1-1",           744,       11.1638,      -4.94873,            0.,NA,NA,"",   397.182E-03,   394.878E-03,  -42.7193E-03,   3.42771E-03
C:/temp/dataset/6/26_12.odb,Step-1,Increment      1: Step Time =    1.000,"PART-1-1",           745,       10.4293,      -4.08570,            0.,NA,NA,"",   396.888E-03,   394.986E-03,  -38.8107E-03,   3.36822E-03
C:/temp/dataset/6/26_12.odb,Step-1,Increment      1: Step Time =    1.000,"PART-1-1",           746,       9.97038,      -14.8971,            0.,NA,NA,"",   283.270E-03,   280.109E-03,  -42.2038E-03,   10.5819E-03
C:/temp/dataset/6/26_12.odb,Step-1,Increment      1: Step Time =    1.000,"PART-1-1",           747,       9.96577,      -12.5508,            0.,NA,NA,"",   340.245E-03,   338.059E-03,  -38.5141E-03,   6.71178E-03
C:/temp/dataset/6/26_12.odb,Step-1,Increment      1: Step Time =    1.000,"PART-1-1",           748,       8.96159,      -13.7029,            0.,NA,NA,"",   317.661E-03,   316.464E-03,  -27.5525E-03,   9.35603E-03
C:/temp/dataset/6/26_12.odb,Step-1,Increment      1: Step Time =    1.000,"PART-1-1",           749,       6.92617,      -22.4012,            0.,NA,NA,"",   69.1691E-03,   68.4929E-03,   9.64782E-03,   4.80746E-03
C:/temp/dataset/6/26_12.odb,Step-1,Increment      1: Step Time =    1.000,"PART-1-1",           750,       5.94981,      -23.5281,            0.,NA,NA,"",   55.0400E-03,   53.3006E-03,   13.7276E-03,   5.82337E-03
C:/temp/dataset/6/26_12.odb,Step-1,Increment      1: Step Time =    1.000,"PART-1-1",           751,       7.18383,      -24.1705,            0.,NA,NA,"",   46.1514E-03,   45.7663E-03,   5.95018E-03,   4.03137E-03
C:/temp/dataset/6/26_12.odb,Step-1,Increment      1: Step Time =    1.000,"PART-1-1",           752,       11.0968,      -20.2176,            0.,NA,NA,"",   135.548E-03,   127.829E-03,  -45.0902E-03,   8.83199E-03
C:/temp/dataset/6/26_12.odb,Step-1,Increment      1: Step Time =    1.000,"PART-1-1",           753,       6.43355,      -20.8801,            0.,NA,NA,"",   92.2247E-03,   90.9500E-03,   15.2809E-03,   8.11965E-03
C:/temp/dataset/6/26_12.odb,Step-1,Increment      1: Step Time =    1.000,"PART-1-1",           754,       8.96045,      -11.3546,            0.,NA,NA,"",   363.842E-03,   363.096E-03,  -23.2889E-03,   5.23714E-03
C:/temp/dataset/6/26_12.odb,Step-1,Increment      1: Step Time =    1.000,"PART-1-1",           755,       8.17216,      -2.03287,            0.,NA,NA,"",   392.852E-03,   391.417E-03,  -33.5419E-03,   3.06674E-03
C:/temp/dataset/6/26_12.odb,Step-1,Increment      1: Step Time =    1.000,"PART-1-1",           756,       9.68046,      -2.49017,            0.,NA,NA,"",   395.767E-03,   394.014E-03,  -37.2039E-03,   2.99443E-03
C:/temp/dataset/6/26_12.odb,Step-1,Increment      1: Step Time =    1.000,"PART-1-1",           757,      -5.24373,       2.94722,            0.,NA,NA,"",   397.187E-03,   396.734E-03,  -18.9707E-03,   1.42770E-03
C:/temp/dataset/6/26_12.odb,Step-1,Increment      1: Step Time =    1.000,"PART-1-1",           758,      -6.20341,       3.93450,            0.,NA,NA,"",   405.594E-03,   405.466E-03,  -10.1867E-03,   2.04675E-03
C:/temp/dataset/6/26_12.odb,Step-1,Increment      1: Step Time =    1.000,"PART-1-1",           759,       7.87036,      -17.0650,            0.,NA,NA,"",   212.890E-03,   212.584E-03,  -11.4124E-03,   12.0650E-03
C:/temp/dataset/6/26_12.odb,Step-1,Increment      1: Step Time =    1.000,"PART-1-1",           760,      -8.77165,      -4.61616,            0.,NA,NA,"",   330.287E-03,   330.084E-03,   11.5683E-03,   2.48460E-03
C:/temp/dataset/6/26_12.odb,Step-1,Increment      1: Step Time =    1.000,"PART-1-1",           761,       8.90402,      -15.9271,            0.,NA,NA,"",   252.329E-03,   250.766E-03,  -28.0428E-03,   12.1905E-03
C:/temp/dataset/6/26_12.odb,Step-1,Increment      1: Step Time =    1.000,"PART-1-1",           762,       7.94609,      -14.8939,            0.,NA,NA,"",   286.901E-03,   286.550E-03,  -14.1910E-03,   11.7141E-03
C:/temp/dataset/6/26_12.odb,Step-1,Increment      1: Step Time =    1.000,"PART-1-1",           763,      -12.3095,       21.7291,            0.,NA,NA,"",   577.225E-03,   575.223E-03,   48.0297E-03,   499.633E-09
C:/temp/dataset/6/26_12.odb,Step-1,Increment      1: Step Time =    1.000,"PART-1-1",           764,      -12.2938,       19.6789,            0.,NA,NA,"",   558.081E-03,   556.015E-03,   47.9733E-03,   1.86432E-06
C:/temp/dataset/6/26_12.odb,Step-1,Increment      1: Step Time =    1.000,"PART-1-1",           765,       3.72209,      -1.78065,            0.,NA,NA,"",   382.580E-03,   381.030E-03,  -34.3932E-03,   3.03523E-03
C:/temp/dataset/6/26_12.odb,Step-1,Increment      1: Step Time =    1.000,"PART-1-1",           766,       6.45852,      -3.38063,            0.,NA,NA,"",   388.250E-03,   387.321E-03,  -26.8455E-03,   4.39742E-03
C:/temp/dataset/6/26_12.odb,Step-1,Increment      1: Step Time =    1.000,"PART-1-1",           767,       4.93556,      -2.38177,            0.,NA,NA,"",   384.188E-03,   382.899E-03,  -31.4423E-03,   3.78374E-03
C:/temp/dataset/6/26_12.odb,Step-1,Increment      1: Step Time =    1.000,"PART-1-1",           768,      -2.94024,   945.156E-03,            0.,NA,NA,"",   384.378E-03,   383.003E-03,  -32.4816E-03,   1.36329E-03
C:/temp/dataset/6/26_12.odb,Step-1,Increment      1: Step Time =    1.000,"PART-1-1",           769,      -1.69279,      -25.0756,            0.,NA,NA,"",   37.0620E-03,   37.0546E-03,  -739.431E-06,   6.23959E-03
C:/temp/dataset/6/26_12.odb,Step-1,Increment      1: Step Time =    1.000,"PART-1-1",           770,      -6.93923,      -23.9860,            0.,NA,NA,"",   34.4702E-03,   34.2268E-03,  -4.08920E-03,   2.81001E-03
C:/temp/dataset/6/26_12.odb,Step-1,Increment      1: Step Time =    1.000,"PART-1-1",           771,      -5.91970,      -22.6959,            0.,NA,NA,"",   45.1803E-03,   44.1643E-03,  -9.52754E-03,   4.03754E-03
C:/temp/dataset/6/26_12.odb,Step-1,Increment      1: Step Time =    1.000,"PART-1-1",           772,      -12.2208,       17.3915,            0.,NA,NA,"",   536.676E-03,   534.580E-03,   47.3928E-03,   5.99049E-06
C:/temp/dataset/6/26_12.odb,Step-1,Increment      1: Step Time =    1.000,"PART-1-1",           773,      -12.0398,       10.1961,            0.,NA,NA,"",   469.486E-03,   467.221E-03,   46.0638E-03,   24.9859E-06
C:/temp/dataset/6/26_12.odb,Step-1,Increment      1: Step Time =    1.000,"PART-1-1",           774,      -10.8637,      -2.91198,            0.,NA,NA,"",   350.613E-03,   348.800E-03,   35.6154E-03,   1.18096E-03
C:/temp/dataset/6/26_12.odb,Step-1,Increment      1: Step Time =    1.000,"PART-1-1",           775,      -9.61620,      -11.5179,            0.,NA,NA,"",   209.734E-03,   208.728E-03,   20.5110E-03,   3.56032E-03
C:/temp/dataset/6/26_12.odb,Step-1,Increment      1: Step Time =    1.000,"PART-1-1",           776,      -11.8201,      -24.5932,            0.,NA,NA,"",   35.5517E-03,   30.3702E-03,   18.4818E-03,   4.00624E-03
C:/temp/dataset/6/26_12.odb,Step-1,Increment      1: Step Time =    1.000,"PART-1-1",           777,      -11.0718,      -23.4296,            0.,NA,NA,"",   41.9084E-03,   38.1586E-03,   17.3272E-03,   3.11975E-03
C:/temp/dataset/6/26_12.odb,Step-1,Increment      1: Step Time =    1.000,"PART-1-1",           778,       4.75405,      -23.0816,            0.,NA,NA,"",   61.0958E-03,   58.2816E-03,   18.3292E-03,   7.64125E-03
C:/temp/dataset/6/26_12.odb,Step-1,Increment      1: Step Time =    1.000,"PART-1-1",           779,       5.55198,      -21.9930,            0.,NA,NA,"",   74.3543E-03,   71.5562E-03,   20.2058E-03,   7.47360E-03
C:/temp/dataset/6/26_12.odb,Step-1,Increment      1: Step Time =    1.000,"PART-1-1",           780,       7.01336,      -26.0950,            0.,NA,NA,"",   26.0406E-03,   25.6949E-03,   4.22954E-03,   4.21311E-03
C:/temp/dataset/6/26_12.odb,Step-1,Increment      1: Step Time =    1.000,"PART-1-1",           781,       4.10189,      -23.9882,            0.,NA,NA,"",   51.6973E-03,   49.3270E-03,   15.4745E-03,   7.83603E-03
C:/temp/dataset/6/26_12.odb,Step-1,Increment      1: Step Time =    1.000,"PART-1-1",           782,       4.14804,      -25.2051,            0.,NA,NA,"",   39.4090E-03,   37.6309E-03,   11.7041E-03,   7.10097E-03
C:/temp/dataset/6/26_12.odb,Step-1,Increment      1: Step Time =    1.000,"PART-1-1",           783,      -12.1264,       12.6156,            0.,NA,NA,"",   492.047E-03,   489.821E-03,   46.7452E-03,   26.1363E-06
C:/temp/dataset/6/26_12.odb,Step-1,Increment      1: Step Time =    1.000,"PART-1-1",           784,      -12.1709,       15.0185,            0.,NA,NA,"",   514.492E-03,   512.337E-03,   47.0380E-03,   15.0052E-06
C:/temp/dataset/6/26_12.odb,Step-1,Increment      1: Step Time =    1.000,"PART-1-1",           785,      -10.3060,       3.43341,            0.,NA,NA,"",   407.185E-03,   406.175E-03,   28.6625E-03,   1.30006E-03
C:/temp/dataset/6/26_12.odb,Step-1,Increment      1: Step Time =    1.000,"PART-1-1",           786,      -9.35047,  -311.861E-03,            0.,NA,NA,"",   375.542E-03,   375.142E-03,   17.3180E-03,   1.72654E-03
C:/temp/dataset/6/26_12.odb,Step-1,Increment      1: Step Time =    1.000,"PART-1-1",           787,      -9.47746,      -1.56252,            0.,NA,NA,"",   364.429E-03,   363.950E-03,   18.6896E-03,   1.57868E-03
C:/temp/dataset/6/26_12.odb,Step-1,Increment      1: Step Time =    1.000,"PART-1-1",           788,      -7.56677,      -1.93629,            0.,NA,NA,"",   361.759E-03,   361.750E-03,  -2.49967E-03,   1.72593E-03
C:/temp/dataset/6/26_12.odb,Step-1,Increment      1: Step Time =    1.000,"PART-1-1",           789,      -9.57637,      -3.06595,            0.,NA,NA,"",   348.977E-03,   348.384E-03,   20.3414E-03,   1.46855E-03
C:/temp/dataset/6/26_12.odb,Step-1,Increment      1: Step Time =    1.000,"PART-1-1",           790,      -8.24618,      -3.39128,            0.,NA,NA,"",   346.561E-03,   346.527E-03,   4.85685E-03,   2.19548E-03
C:/temp/dataset/6/26_12.odb,Step-1,Increment      1: Step Time =    1.000,"PART-1-1",           791,       7.98922,      -7.69035,            0.,NA,NA,"",   389.339E-03,   388.976E-03,  -16.7971E-03,   5.06112E-03
C:/temp/dataset/6/26_12.odb,Step-1,Increment      1: Step Time =    1.000,"PART-1-1",           792,       7.96586,      -10.1263,            0.,NA,NA,"",   379.982E-03,   379.833E-03,  -10.6466E-03,   5.77466E-03
C:/temp/dataset/6/26_12.odb,Step-1,Increment      1: Step Time =    1.000,"PART-1-1",           793,       7.95460,      -12.5381,            0.,NA,NA,"",   349.535E-03,   349.338E-03,  -11.7298E-03,   8.72866E-03
C:/temp/dataset/6/26_12.odb,Step-1,Increment      1: Step Time =    1.000,"PART-1-1",           794,      -6.90534,       4.84567,            0.,NA,NA,"",   414.702E-03,   414.691E-03,  -2.90767E-03,   1.76631E-03
C:/temp/dataset/6/26_12.odb,Step-1,Increment      1: Step Time =    1.000,"PART-1-1",           795,      -7.09219,       3.25090,            0.,NA,NA,"",   401.435E-03,   401.425E-03,  -2.89967E-03,   1.88342E-03
C:/temp/dataset/6/26_12.odb,Step-1,Increment      1: Step Time =    1.000,"PART-1-1",           796,      -5.99438,      -2.38990,            0.,NA,NA,"",   359.757E-03,   359.314E-03,  -17.8632E-03,   2.44350E-03
C:/temp/dataset/6/26_12.odb,Step-1,Increment      1: Step Time =    1.000,"PART-1-1",           797,      -8.16339,       2.56404,            0.,NA,NA,"",   397.443E-03,   397.388E-03,   6.61417E-03,   1.82790E-03
C:/temp/dataset/6/26_12.odb,Step-1,Increment      1: Step Time =    1.000,"PART-1-1",           798,      -6.16245,       1.98671,            0.,NA,NA,"",   391.314E-03,   391.119E-03,  -12.3661E-03,   1.56578E-03
C:/temp/dataset/6/26_12.odb,Step-1,Increment      1: Step Time =    1.000,"PART-1-1",           799,      -9.36160,       1.80674,            0.,NA,NA,"",   392.813E-03,   392.391E-03,   18.1971E-03,   1.76835E-03
C:/temp/dataset/6/26_12.odb,Step-1,Increment      1: Step Time =    1.000,"PART-1-1",           800,      -4.18828,       1.89018,            0.,NA,NA,"",   389.885E-03,   389.000E-03,  -26.2619E-03,   841.964E-06
C:/temp/dataset/6/26_12.odb,Step-1,Increment      1: Step Time =    1.000,"PART-1-1",           801,      -2.02478,       2.01876,            0.,NA,NA,"",   390.063E-03,   388.498E-03,  -34.9084E-03,   1.64917E-03
C:/temp/dataset/6/26_12.odb,Step-1,Increment      1: Step Time =    1.000,"PART-1-1",           802,       5.29765,      -24.4346,            0.,NA,NA,"",   45.7661E-03,   43.8407E-03,   13.1350E-03,   6.27492E-03
C:/temp/dataset/6/26_12.odb,Step-1,Increment      1: Step Time =    1.000,"PART-1-1",           803,       8.18651,      -25.0309,            0.,NA,NA,"",   36.0476E-03,   36.0444E-03,  -476.209E-06,   3.31716E-03
C:/temp/dataset/6/26_12.odb,Step-1,Increment      1: Step Time =    1.000,"PART-1-1",           804,       6.01068,      -25.2345,            0.,NA,NA,"",   36.1820E-03,   35.0115E-03,   9.12880E-03,   5.31099E-03
