ODB Name,Step,Frame,Part Instance Name,    êﬂì_ÉâÉxÉã,X,Y,Z,Section Name,Material Name,Section Point,   U-Magnitude,          U-U1,          U-U2,       S-Mises
C:/temp/dataset/6/28_18.odb,Step-1,Increment      1: Step Time =    1.000,"PART-1-1",             1,            5.,           -5.,            0.,NA,NA,"",   748.588E-03,  -745.992E-03,  -62.2925E-03,   29.7447E-03
C:/temp/dataset/6/28_18.odb,Step-1,Increment      1: Step Time =    1.000,"PART-1-1",             2,            0.,           -5.,            0.,NA,NA,"",   820.368E-03,  -818.634E-03,  -53.3091E-03,   8.97044E-03
C:/temp/dataset/6/28_18.odb,Step-1,Increment      1: Step Time =    1.000,"PART-1-1",             3,            5.,      -10.0250,            0.,NA,NA,"",   526.271E-03,  -515.152E-03,  -107.610E-03,   3.87748E-03
C:/temp/dataset/6/28_18.odb,Step-1,Increment      1: Step Time =    1.000,"PART-1-1",             4,            5.,      -15.0500,            0.,NA,NA,"",   326.168E-03,  -309.566E-03,  -102.733E-03,   4.17791E-03
C:/temp/dataset/6/28_18.odb,Step-1,Increment      1: Step Time =    1.000,"PART-1-1",             5,            5.,          -20.,            0.,NA,NA,"",   122.228E-03,  -113.569E-03,  -45.1847E-03,   27.0888E-03
C:/temp/dataset/6/28_18.odb,Step-1,Increment      1: Step Time =    1.000,"PART-1-1",             6,            0.,          -20.,            0.,NA,NA,"",   89.7111E-03,  -89.7020E-03,   1.27681E-03,   2.13168E-03
C:/temp/dataset/6/28_18.odb,Step-1,Increment      1: Step Time =    1.000,"PART-1-1",             7,           -5.,          -20.,            0.,NA,NA,"",   159.428E-03,  -148.599E-03,   57.7553E-03,   36.3016E-03
C:/temp/dataset/6/28_18.odb,Step-1,Increment      1: Step Time =    1.000,"PART-1-1",             8,           -5.,      -14.9750,            0.,NA,NA,"",   445.334E-03,  -430.253E-03,   114.911E-03,   1.86736E-03
C:/temp/dataset/6/28_18.odb,Step-1,Increment      1: Step Time =    1.000,"PART-1-1",             9,           -5.,      -9.95000,            0.,NA,NA,"",   719.952E-03,  -714.841E-03,   85.6322E-03,   17.1397E-03
C:/temp/dataset/6/28_18.odb,Step-1,Increment      1: Step Time =    1.000,"PART-1-1",            10,           -5.,           -5.,            0.,NA,NA,"",   858.493E-03,  -858.247E-03,  -20.5622E-03,   18.6852E-03
C:/temp/dataset/6/28_18.odb,Step-1,Increment      1: Step Time =    1.000,"PART-1-1",            11,           15.,          -30.,            0.,NA,NA,"",            0.,  -7.50026E-39,   13.3202E-39,   25.7881E-03
C:/temp/dataset/6/28_18.odb,Step-1,Increment      1: Step Time =    1.000,"PART-1-1",            12,          -15.,          -30.,            0.,NA,NA,"",            0.,  -9.29477E-39,  -16.4949E-39,   31.4834E-03
C:/temp/dataset/6/28_18.odb,Step-1,Increment      1: Step Time =    1.000,"PART-1-1",            13,           15.,        -21.25,            0.,NA,NA,"",   192.831E-03,  -135.341E-03,   137.355E-03,   16.7324E-03
C:/temp/dataset/6/28_18.odb,Step-1,Increment      1: Step Time =    1.000,"PART-1-1",            14,           15.,         -12.5,            0.,NA,NA,"",   485.869E-03,  -429.051E-03,   228.000E-03,   4.90405E-03
C:/temp/dataset/6/28_18.odb,Step-1,Increment      1: Step Time =    1.000,"PART-1-1",            15,           15.,         -3.75,            0.,NA,NA,"",   775.447E-03,  -748.604E-03,   202.260E-03,   6.76844E-03
C:/temp/dataset/6/28_18.odb,Step-1,Increment      1: Step Time =    1.000,"PART-1-1",            16,           15.,            5.,            0.,NA,NA,"",   962.432E-03,  -946.301E-03,   175.467E-03,   230.743E-06
C:/temp/dataset/6/28_18.odb,Step-1,Increment      1: Step Time =    1.000,"PART-1-1",            17,           10.,            5.,            0.,NA,NA,"",   941.613E-03,  -939.616E-03,   61.3022E-03,   3.83273E-03
C:/temp/dataset/6/28_18.odb,Step-1,Increment      1: Step Time =    1.000,"PART-1-1",            18,            5.,            5.,            0.,NA,NA,"",   910.425E-03,  -909.912E-03,  -30.5531E-03,   7.70901E-03
C:/temp/dataset/6/28_18.odb,Step-1,Increment      1: Step Time =    1.000,"PART-1-1",            19,            0.,            5.,            0.,NA,NA,"",   885.765E-03,  -883.426E-03,  -64.3324E-03,   2.69871E-03
C:/temp/dataset/6/28_18.odb,Step-1,Increment      1: Step Time =    1.000,"PART-1-1",            20,           -5.,            5.,            0.,NA,NA,"",   895.818E-03,  -893.171E-03,  -68.8158E-03,   5.81642E-03
C:/temp/dataset/6/28_18.odb,Step-1,Increment      1: Step Time =    1.000,"PART-1-1",            21,           -5.,         11.25,            0.,NA,NA,"",   952.209E-03,  -949.687E-03,  -69.2498E-03,   159.697E-06
C:/temp/dataset/6/28_18.odb,Step-1,Increment      1: Step Time =    1.000,"PART-1-1",            22,           -5.,          17.5,            0.,NA,NA,"",   998.140E-03,  -995.701E-03,  -69.7378E-03,   6.59904E-06
C:/temp/dataset/6/28_18.odb,Step-1,Increment      1: Step Time =    1.000,"PART-1-1",            23,           -5.,         23.75,            0.,NA,NA,"",       1.04400,      -1.04166,  -69.9094E-03,   628.172E-09
C:/temp/dataset/6/28_18.odb,Step-1,Increment      1: Step Time =    1.000,"PART-1-1",            24,           -5.,           30.,            0.,NA,NA,"",       1.08989,      -1.08763,  -70.0773E-03,   15.8362E-09
C:/temp/dataset/6/28_18.odb,Step-1,Increment      1: Step Time =    1.000,"PART-1-1",            25,          -10.,           30.,            0.,NA,NA,"",       1.09274,      -1.08750,  -106.860E-03,   187.114E-09
C:/temp/dataset/6/28_18.odb,Step-1,Increment      1: Step Time =    1.000,"PART-1-1",            26,          -15.,           30.,            0.,NA,NA,"",       1.09681,      -1.08736,  -143.643E-03,   19.4919E-09
C:/temp/dataset/6/28_18.odb,Step-1,Increment      1: Step Time =    1.000,"PART-1-1",            27,          -15.,          22.5,            0.,NA,NA,"",       1.04211,      -1.03219,  -143.442E-03,   824.879E-09
C:/temp/dataset/6/28_18.odb,Step-1,Increment      1: Step Time =    1.000,"PART-1-1",            28,          -15.,           15.,            0.,NA,NA,"",   987.405E-03,  -976.966E-03,  -143.202E-03,   28.7601E-06
C:/temp/dataset/6/28_18.odb,Step-1,Increment      1: Step Time =    1.000,"PART-1-1",            29,          -15.,           7.5,            0.,NA,NA,"",   933.841E-03,  -922.972E-03,  -142.060E-03,   214.636E-06
C:/temp/dataset/6/28_18.odb,Step-1,Increment      1: Step Time =    1.000,"PART-1-1",            30,          -15.,            0.,            0.,NA,NA,"",   892.375E-03,  -879.420E-03,  -151.505E-03,   5.27352E-03
C:/temp/dataset/6/28_18.odb,Step-1,Increment      1: Step Time =    1.000,"PART-1-1",            31,          -15.,          -7.5,            0.,NA,NA,"",   800.269E-03,  -766.318E-03,  -230.622E-03,   15.7433E-03
C:/temp/dataset/6/28_18.odb,Step-1,Increment      1: Step Time =    1.000,"PART-1-1",            32,          -15.,          -15.,            0.,NA,NA,"",   513.386E-03,  -436.110E-03,  -270.875E-03,   5.61312E-03
C:/temp/dataset/6/28_18.odb,Step-1,Increment      1: Step Time =    1.000,"PART-1-1",            33,          -15.,         -22.5,            0.,NA,NA,"",   208.123E-03,  -136.819E-03,  -156.830E-03,   22.0137E-03
C:/temp/dataset/6/28_18.odb,Step-1,Increment      1: Step Time =    1.000,"PART-1-1",            34,           2.5,           -5.,            0.,NA,NA,"",   796.740E-03,  -795.023E-03,  -52.2780E-03,   13.6086E-03
C:/temp/dataset/6/28_18.odb,Step-1,Increment      1: Step Time =    1.000,"PART-1-1",            35,            5.,      -7.51250,            0.,NA,NA,"",   630.900E-03,  -623.329E-03,  -97.4433E-03,   11.7735E-03
C:/temp/dataset/6/28_18.odb,Step-1,Increment      1: Step Time =    1.000,"PART-1-1",            36,            5.,      -12.5375,            0.,NA,NA,"",   425.130E-03,  -410.661E-03,  -109.970E-03,   173.814E-06
C:/temp/dataset/6/28_18.odb,Step-1,Increment      1: Step Time =    1.000,"PART-1-1",            37,            5.,      -17.5250,            0.,NA,NA,"",   231.054E-03,  -213.990E-03,  -87.1459E-03,   10.2425E-03
C:/temp/dataset/6/28_18.odb,Step-1,Increment      1: Step Time =    1.000,"PART-1-1",            38,           2.5,          -20.,            0.,NA,NA,"",   89.2387E-03,  -88.0187E-03,  -14.7056E-03,   7.73868E-03
C:/temp/dataset/6/28_18.odb,Step-1,Increment      1: Step Time =    1.000,"PART-1-1",            39,          -2.5,          -20.,            0.,NA,NA,"",   100.645E-03,  -98.9496E-03,   18.3970E-03,   12.9351E-03
C:/temp/dataset/6/28_18.odb,Step-1,Increment      1: Step Time =    1.000,"PART-1-1",            40,           -5.,      -17.4875,            0.,NA,NA,"",   314.478E-03,  -295.656E-03,   107.162E-03,   14.4397E-03
C:/temp/dataset/6/28_18.odb,Step-1,Increment      1: Step Time =    1.000,"PART-1-1",            41,           -5.,      -12.4625,            0.,NA,NA,"",   575.154E-03,  -565.085E-03,   107.151E-03,   5.60987E-03
C:/temp/dataset/6/28_18.odb,Step-1,Increment      1: Step Time =    1.000,"PART-1-1",            42,           -5.,      -7.47500,            0.,NA,NA,"",   833.148E-03,  -832.293E-03,   37.7349E-03,   28.6680E-03
C:/temp/dataset/6/28_18.odb,Step-1,Increment      1: Step Time =    1.000,"PART-1-1",            43,          -2.5,           -5.,            0.,NA,NA,"",   839.569E-03,  -838.126E-03,  -49.2003E-03,   9.19333E-03
C:/temp/dataset/6/28_18.odb,Step-1,Increment      1: Step Time =    1.000,"PART-1-1",            44,          12.5,          -30.,            0.,NA,NA,"",            0.,  -10.2059E-39,   24.0844E-39,   8.71638E-03
C:/temp/dataset/6/28_18.odb,Step-1,Increment      1: Step Time =    1.000,"PART-1-1",            45,           10.,          -30.,            0.,NA,NA,"",            0.,   1.51238E-39,   9.00257E-39,   5.08984E-03
C:/temp/dataset/6/28_18.odb,Step-1,Increment      1: Step Time =    1.000,"PART-1-1",            46,           7.5,          -30.,            0.,NA,NA,"",            0.,  -2.26569E-39,   1.13246E-39,   3.17543E-03
C:/temp/dataset/6/28_18.odb,Step-1,Increment      1: Step Time =    1.000,"PART-1-1",            47,            5.,          -30.,            0.,NA,NA,"",            0.,  -7.30046E-39,   1.86345E-39,   5.60437E-03
C:/temp/dataset/6/28_18.odb,Step-1,Increment      1: Step Time =    1.000,"PART-1-1",            48,           2.5,          -30.,            0.,NA,NA,"",            0.,  -10.5108E-39,   3.85243E-39,   7.93795E-03
C:/temp/dataset/6/28_18.odb,Step-1,Increment      1: Step Time =    1.000,"PART-1-1",            49,            0.,          -30.,            0.,NA,NA,"",            0.,  -9.30979E-39,  -5.20079E-39,   8.92857E-03
C:/temp/dataset/6/28_18.odb,Step-1,Increment      1: Step Time =    1.000,"PART-1-1",            50,          -2.5,          -30.,            0.,NA,NA,"",            0.,  -11.0916E-39,   11.2197E-39,   8.13701E-03
C:/temp/dataset/6/28_18.odb,Step-1,Increment      1: Step Time =    1.000,"PART-1-1",            51,           -5.,          -30.,            0.,NA,NA,"",            0.,  -7.22817E-39,   8.65425E-39,   5.52703E-03
C:/temp/dataset/6/28_18.odb,Step-1,Increment      1: Step Time =    1.000,"PART-1-1",            52,          -7.5,          -30.,            0.,NA,NA,"",            0.,  -1.48399E-39,   593.519E-42,   2.28642E-03
C:/temp/dataset/6/28_18.odb,Step-1,Increment      1: Step Time =    1.000,"PART-1-1",            53,          -10.,          -30.,            0.,NA,NA,"",            0.,  -5.27551E-39,  -13.2356E-39,   5.61447E-03
C:/temp/dataset/6/28_18.odb,Step-1,Increment      1: Step Time =    1.000,"PART-1-1",            54,         -12.5,          -30.,            0.,NA,NA,"",            0.,  -4.59572E-39,  -26.4671E-39,   10.9641E-03
C:/temp/dataset/6/28_18.odb,Step-1,Increment      1: Step Time =    1.000,"PART-1-1",            55,           15.,      -23.4375,            0.,NA,NA,"",   139.222E-03,  -91.8969E-03,   104.584E-03,   16.8535E-03
C:/temp/dataset/6/28_18.odb,Step-1,Increment      1: Step Time =    1.000,"PART-1-1",            56,           15.,       -25.625,            0.,NA,NA,"",   93.1134E-03,  -58.8816E-03,   72.1322E-03,   16.4171E-03
C:/temp/dataset/6/28_18.odb,Step-1,Increment      1: Step Time =    1.000,"PART-1-1",            57,           15.,      -27.8125,            0.,NA,NA,"",   51.4555E-03,  -32.4824E-03,   39.9070E-03,   18.7566E-03
C:/temp/dataset/6/28_18.odb,Step-1,Increment      1: Step Time =    1.000,"PART-1-1",            58,           15.,      -14.6875,            0.,NA,NA,"",   404.692E-03,  -342.268E-03,   215.936E-03,   9.09493E-03
C:/temp/dataset/6/28_18.odb,Step-1,Increment      1: Step Time =    1.000,"PART-1-1",            59,           15.,       -16.875,            0.,NA,NA,"",   326.929E-03,  -261.868E-03,   195.724E-03,   12.8344E-03
C:/temp/dataset/6/28_18.odb,Step-1,Increment      1: Step Time =    1.000,"PART-1-1",            60,           15.,      -19.0625,            0.,NA,NA,"",   255.587E-03,  -192.006E-03,   168.696E-03,   15.5366E-03
C:/temp/dataset/6/28_18.odb,Step-1,Increment      1: Step Time =    1.000,"PART-1-1",            61,           15.,       -5.9375,            0.,NA,NA,"",   714.909E-03,  -681.374E-03,   216.387E-03,   5.99441E-03
C:/temp/dataset/6/28_18.odb,Step-1,Increment      1: Step Time =    1.000,"PART-1-1",            62,           15.,        -8.125,            0.,NA,NA,"",   644.668E-03,  -603.289E-03,   227.242E-03,   3.25603E-03
C:/temp/dataset/6/28_18.odb,Step-1,Increment      1: Step Time =    1.000,"PART-1-1",            63,           15.,      -10.3125,            0.,NA,NA,"",   567.095E-03,  -517.634E-03,   231.629E-03,   685.161E-06
C:/temp/dataset/6/28_18.odb,Step-1,Increment      1: Step Time =    1.000,"PART-1-1",            64,           15.,        2.8125,            0.,NA,NA,"",   915.964E-03,  -898.873E-03,   176.121E-03,   678.541E-06
C:/temp/dataset/6/28_18.odb,Step-1,Increment      1: Step Time =    1.000,"PART-1-1",            65,           15.,      625.E-03,            0.,NA,NA,"",   871.920E-03,  -853.152E-03,   179.934E-03,   3.01002E-03
C:/temp/dataset/6/28_18.odb,Step-1,Increment      1: Step Time =    1.000,"PART-1-1",            66,           15.,       -1.5625,            0.,NA,NA,"",   826.675E-03,  -804.781E-03,   188.993E-03,   5.50472E-03
C:/temp/dataset/6/28_18.odb,Step-1,Increment      1: Step Time =    1.000,"PART-1-1",            67,          12.5,            5.,            0.,NA,NA,"",   952.845E-03,  -945.371E-03,   119.109E-03,   880.474E-06
C:/temp/dataset/6/28_18.odb,Step-1,Increment      1: Step Time =    1.000,"PART-1-1",            68,           7.5,            5.,            0.,NA,NA,"",   927.032E-03,  -926.989E-03,   9.00774E-03,   6.72063E-03
C:/temp/dataset/6/28_18.odb,Step-1,Increment      1: Step Time =    1.000,"PART-1-1",            69,           2.5,            5.,            0.,NA,NA,"",   895.315E-03,  -893.674E-03,  -54.1811E-03,   6.00823E-03
C:/temp/dataset/6/28_18.odb,Step-1,Increment      1: Step Time =    1.000,"PART-1-1",            70,          -2.5,            5.,            0.,NA,NA,"",   884.653E-03,  -882.128E-03,  -66.7975E-03,   1.84953E-03
C:/temp/dataset/6/28_18.odb,Step-1,Increment      1: Step Time =    1.000,"PART-1-1",            71,           -5.,       9.16667,            0.,NA,NA,"",   936.424E-03,  -933.898E-03,  -68.7408E-03,   365.557E-06
C:/temp/dataset/6/28_18.odb,Step-1,Increment      1: Step Time =    1.000,"PART-1-1",            72,           -5.,       7.08333,            0.,NA,NA,"",   919.109E-03,  -916.612E-03,  -67.7052E-03,   1.44146E-03
C:/temp/dataset/6/28_18.odb,Step-1,Increment      1: Step Time =    1.000,"PART-1-1",            73,           -5.,       15.4167,            0.,NA,NA,"",   982.869E-03,  -980.398E-03,  -69.6575E-03,   24.3145E-06
C:/temp/dataset/6/28_18.odb,Step-1,Increment      1: Step Time =    1.000,"PART-1-1",            74,           -5.,       13.3333,            0.,NA,NA,"",   967.584E-03,  -965.084E-03,  -69.5181E-03,   73.1999E-06
C:/temp/dataset/6/28_18.odb,Step-1,Increment      1: Step Time =    1.000,"PART-1-1",            75,           -5.,       21.6667,            0.,NA,NA,"",       1.02871,      -1.02633,  -69.8544E-03,   935.786E-09
C:/temp/dataset/6/28_18.odb,Step-1,Increment      1: Step Time =    1.000,"PART-1-1",            76,           -5.,       19.5833,            0.,NA,NA,"",       1.01342,      -1.01101,  -69.7989E-03,   718.012E-09
C:/temp/dataset/6/28_18.odb,Step-1,Increment      1: Step Time =    1.000,"PART-1-1",            77,           -5.,       27.9167,            0.,NA,NA,"",       1.07459,      -1.07231,  -70.0209E-03,   76.1330E-09
C:/temp/dataset/6/28_18.odb,Step-1,Increment      1: Step Time =    1.000,"PART-1-1",            78,           -5.,       25.8333,            0.,NA,NA,"",       1.05929,      -1.05698,  -69.9649E-03,   299.594E-09
C:/temp/dataset/6/28_18.odb,Step-1,Increment      1: Step Time =    1.000,"PART-1-1",            79,          -7.5,           30.,            0.,NA,NA,"",       1.09116,      -1.08757,  -88.4683E-03,   88.3222E-09
C:/temp/dataset/6/28_18.odb,Step-1,Increment      1: Step Time =    1.000,"PART-1-1",            80,         -12.5,           30.,            0.,NA,NA,"",       1.09462,      -1.08743,  -125.251E-03,   84.0079E-09
C:/temp/dataset/6/28_18.odb,Step-1,Increment      1: Step Time =    1.000,"PART-1-1",            81,          -15.,           25.,            0.,NA,NA,"",       1.06034,      -1.05058,  -143.508E-03,   422.850E-09
C:/temp/dataset/6/28_18.odb,Step-1,Increment      1: Step Time =    1.000,"PART-1-1",            82,          -15.,          27.5,            0.,NA,NA,"",       1.07857,      -1.06897,  -143.575E-03,   108.778E-09
C:/temp/dataset/6/28_18.odb,Step-1,Increment      1: Step Time =    1.000,"PART-1-1",            83,          -15.,          17.5,            0.,NA,NA,"",       1.00565,  -995.383E-03,  -143.303E-03,   5.44419E-06
C:/temp/dataset/6/28_18.odb,Step-1,Increment      1: Step Time =    1.000,"PART-1-1",            84,          -15.,           20.,            0.,NA,NA,"",       1.02388,      -1.01379,  -143.376E-03,   453.422E-09
C:/temp/dataset/6/28_18.odb,Step-1,Increment      1: Step Time =    1.000,"PART-1-1",            85,          -15.,           10.,            0.,NA,NA,"",   951.162E-03,  -940.408E-03,  -142.629E-03,   201.319E-06
C:/temp/dataset/6/28_18.odb,Step-1,Increment      1: Step Time =    1.000,"PART-1-1",            86,          -15.,          12.5,            0.,NA,NA,"",   969.189E-03,  -958.580E-03,  -143.009E-03,   90.1815E-06
C:/temp/dataset/6/28_18.odb,Step-1,Increment      1: Step Time =    1.000,"PART-1-1",            87,          -15.,           2.5,            0.,NA,NA,"",   904.662E-03,  -893.141E-03,  -143.913E-03,   1.98176E-03
C:/temp/dataset/6/28_18.odb,Step-1,Increment      1: Step Time =    1.000,"PART-1-1",            88,          -15.,            5.,            0.,NA,NA,"",   918.122E-03,  -907.093E-03,  -141.883E-03,   316.083E-06
C:/temp/dataset/6/28_18.odb,Step-1,Increment      1: Step Time =    1.000,"PART-1-1",            89,          -15.,           -5.,            0.,NA,NA,"",   849.447E-03,  -826.459E-03,  -196.278E-03,   14.4330E-03
C:/temp/dataset/6/28_18.odb,Step-1,Increment      1: Step Time =    1.000,"PART-1-1",            90,          -15.,          -2.5,            0.,NA,NA,"",   876.851E-03,  -860.542E-03,  -168.331E-03,   10.0901E-03
C:/temp/dataset/6/28_18.odb,Step-1,Increment      1: Step Time =    1.000,"PART-1-1",            91,          -15.,         -12.5,            0.,NA,NA,"",   624.915E-03,  -560.606E-03,  -276.114E-03,   3.64503E-03
C:/temp/dataset/6/28_18.odb,Step-1,Increment      1: Step Time =    1.000,"PART-1-1",            92,          -15.,          -10.,            0.,NA,NA,"",   723.808E-03,  -675.221E-03,  -260.720E-03,   11.2857E-03
C:/temp/dataset/6/28_18.odb,Step-1,Increment      1: Step Time =    1.000,"PART-1-1",            93,          -15.,          -20.,            0.,NA,NA,"",   297.333E-03,  -214.969E-03,  -205.415E-03,   19.4378E-03
C:/temp/dataset/6/28_18.odb,Step-1,Increment      1: Step Time =    1.000,"PART-1-1",            94,          -15.,         -17.5,            0.,NA,NA,"",   401.036E-03,  -316.853E-03,  -245.833E-03,   13.8141E-03
C:/temp/dataset/6/28_18.odb,Step-1,Increment      1: Step Time =    1.000,"PART-1-1",            95,          -15.,         -27.5,            0.,NA,NA,"",   70.5722E-03,  -41.8598E-03,  -56.8171E-03,   23.9301E-03
C:/temp/dataset/6/28_18.odb,Step-1,Increment      1: Step Time =    1.000,"PART-1-1",            96,          -15.,          -25.,            0.,NA,NA,"",   133.922E-03,  -81.1162E-03,  -106.561E-03,   21.9037E-03
C:/temp/dataset/6/28_18.odb,Step-1,Increment      1: Step Time =    1.000,"PART-1-1",            97,       13.0047,      -3.80353,            0.,NA,NA,"",   764.986E-03,  -750.985E-03,   145.689E-03,   3.28230E-03
C:/temp/dataset/6/28_18.odb,Step-1,Increment      1: Step Time =    1.000,"PART-1-1",            98,       6.97971,      -7.55833,            0.,NA,NA,"",   625.228E-03,  -624.739E-03,  -24.7057E-03,   11.6367E-03
C:/temp/dataset/6/28_18.odb,Step-1,Increment      1: Step Time =    1.000,"PART-1-1",            99,       6.96639,      -10.0829,            0.,NA,NA,"",   517.903E-03,  -516.871E-03,  -32.6726E-03,   6.71295E-03
C:/temp/dataset/6/28_18.odb,Step-1,Increment      1: Step Time =    1.000,"PART-1-1",           100,       12.9900,      -12.5465,            0.,NA,NA,"",   449.211E-03,  -421.800E-03,   154.517E-03,   6.77735E-03
C:/temp/dataset/6/28_18.odb,Step-1,Increment      1: Step Time =    1.000,"PART-1-1",           101,       6.90028,      -17.1420,            0.,NA,NA,"",   227.922E-03,  -226.164E-03,  -28.2562E-03,   9.65001E-03
C:/temp/dataset/6/28_18.odb,Step-1,Increment      1: Step Time =    1.000,"PART-1-1",           102,       7.03871,      -19.0570,            0.,NA,NA,"",   156.609E-03,  -155.679E-03,  -17.0476E-03,   9.67358E-03
C:/temp/dataset/6/28_18.odb,Step-1,Increment      1: Step Time =    1.000,"PART-1-1",           103,       5.31709,      -21.2647,            0.,NA,NA,"",   101.813E-03,  -96.5245E-03,  -32.3865E-03,   11.5988E-03
C:/temp/dataset/6/28_18.odb,Step-1,Increment      1: Step Time =    1.000,"PART-1-1",           104,      -4.83361,      -22.6144,            0.,NA,NA,"",   100.422E-03,  -95.0700E-03,   32.3461E-03,   13.3476E-03
C:/temp/dataset/6/28_18.odb,Step-1,Increment      1: Step Time =    1.000,"PART-1-1",           105,      -7.46484,      -17.6587,            0.,NA,NA,"",   282.930E-03,  -282.856E-03,   6.43888E-03,   17.4833E-03
C:/temp/dataset/6/28_18.odb,Step-1,Increment      1: Step Time =    1.000,"PART-1-1",           106,      -12.5283,      -27.3245,            0.,NA,NA,"",   41.3893E-03,  -26.0227E-03,  -32.1853E-03,   15.4649E-03
C:/temp/dataset/6/28_18.odb,Step-1,Increment      1: Step Time =    1.000,"PART-1-1",           107,      -12.4870,      -17.6221,            0.,NA,NA,"",   334.066E-03,  -300.067E-03,  -146.834E-03,   13.0222E-03
C:/temp/dataset/6/28_18.odb,Step-1,Increment      1: Step Time =    1.000,"PART-1-1",           108,      -7.32043,      -12.6401,            0.,NA,NA,"",   557.292E-03,  -557.292E-03,   17.1914E-06,   12.4986E-03
C:/temp/dataset/6/28_18.odb,Step-1,Increment      1: Step Time =    1.000,"PART-1-1",           109,      -7.14644,      -8.03697,            0.,NA,NA,"",   800.070E-03,  -799.814E-03,  -20.2415E-03,   15.5862E-03
C:/temp/dataset/6/28_18.odb,Step-1,Increment      1: Step Time =    1.000,"PART-1-1",           110,      -12.6601,       4.88622,            0.,NA,NA,"",   915.308E-03,  -906.608E-03,  -125.899E-03,   1.35490E-03
C:/temp/dataset/6/28_18.odb,Step-1,Increment      1: Step Time =    1.000,"PART-1-1",           111,      -13.0978,       12.5399,            0.,NA,NA,"",   967.543E-03,  -958.884E-03,  -129.155E-03,   69.6235E-06
C:/temp/dataset/6/28_18.odb,Step-1,Increment      1: Step Time =    1.000,"PART-1-1",           112,      -6.45576,       21.8628,            0.,NA,NA,"",       1.03089,      -1.02774,  -80.5668E-03,   323.569E-09
C:/temp/dataset/6/28_18.odb,Step-1,Increment      1: Step Time =    1.000,"PART-1-1",           113,      -7.28884,       25.7044,            0.,NA,NA,"",       1.05953,      -1.05597,  -86.7986E-03,   261.433E-09
C:/temp/dataset/6/28_18.odb,Step-1,Increment      1: Step Time =    1.000,"PART-1-1",           114,      -9.90518,       27.6474,            0.,NA,NA,"",       1.07544,      -1.07019,  -106.098E-03,   142.899E-09
C:/temp/dataset/6/28_18.odb,Step-1,Increment      1: Step Time =    1.000,"PART-1-1",           115,      -3.01211,      -3.13168,            0.,NA,NA,"",   839.292E-03,  -837.539E-03,  -54.2112E-03,   5.56818E-03
C:/temp/dataset/6/28_18.odb,Step-1,Increment      1: Step Time =    1.000,"PART-1-1",           116,      -2.19169,       3.00836,            0.,NA,NA,"",   876.566E-03,  -874.086E-03,  -65.8857E-03,   5.17595E-03
C:/temp/dataset/6/28_18.odb,Step-1,Increment      1: Step Time =    1.000,"PART-1-1",           117,       1.85193,      -2.77696,            0.,NA,NA,"",   816.183E-03,  -813.944E-03,  -60.4168E-03,   10.9873E-03
C:/temp/dataset/6/28_18.odb,Step-1,Increment      1: Step Time =    1.000,"PART-1-1",           118,       2.83229,       2.22691,            0.,NA,NA,"",   870.742E-03,  -868.864E-03,  -57.1525E-03,   4.02875E-03
C:/temp/dataset/6/28_18.odb,Step-1,Increment      1: Step Time =    1.000,"PART-1-1",           119,       7.74921,       3.07964,            0.,NA,NA,"",   894.184E-03,  -894.131E-03,   9.73601E-03,   3.95501E-03
C:/temp/dataset/6/28_18.odb,Step-1,Increment      1: Step Time =    1.000,"PART-1-1",           120,      -2.47342,      -22.6017,            0.,NA,NA,"",   92.8558E-03,  -90.6412E-03,   20.1587E-03,   15.6308E-03
C:/temp/dataset/6/28_18.odb,Step-1,Increment      1: Step Time =    1.000,"PART-1-1",           121,      -7.48266,       20.3798,            0.,NA,NA,"",       1.02061,      -1.01680,  -88.0805E-03,   2.41071E-06
C:/temp/dataset/6/28_18.odb,Step-1,Increment      1: Step Time =    1.000,"PART-1-1",           122,      -7.10993,       13.1351,            0.,NA,NA,"",   967.351E-03,  -963.596E-03,  -85.1502E-03,   66.0129E-06
C:/temp/dataset/6/28_18.odb,Step-1,Increment      1: Step Time =    1.000,"PART-1-1",           123,      -6.64156,       6.82435,            0.,NA,NA,"",   918.711E-03,  -915.105E-03,  -81.3191E-03,   1.33645E-03
C:/temp/dataset/6/28_18.odb,Step-1,Increment      1: Step Time =    1.000,"PART-1-1",           124,      -12.9641,      -2.37512,            0.,NA,NA,"",   879.987E-03,  -868.640E-03,  -140.858E-03,   7.24983E-03
C:/temp/dataset/6/28_18.odb,Step-1,Increment      1: Step Time =    1.000,"PART-1-1",           125,      -12.1317,      -9.84573,            0.,NA,NA,"",   712.487E-03,  -694.382E-03,  -159.598E-03,   9.85807E-03
C:/temp/dataset/6/28_18.odb,Step-1,Increment      1: Step Time =    1.000,"PART-1-1",           126,       4.04132,      -2.67712,            0.,NA,NA,"",   803.396E-03,  -801.477E-03,  -55.5063E-03,   8.79482E-03
C:/temp/dataset/6/28_18.odb,Step-1,Increment      1: Step Time =    1.000,"PART-1-1",           127,       6.95362,      -12.5367,            0.,NA,NA,"",   413.969E-03,  -412.366E-03,  -36.3967E-03,   5.04729E-03
C:/temp/dataset/6/28_18.odb,Step-1,Increment      1: Step Time =    1.000,"PART-1-1",           128,       6.92458,      -14.9216,            0.,NA,NA,"",   315.373E-03,  -313.526E-03,  -34.0834E-03,   5.68061E-03
C:/temp/dataset/6/28_18.odb,Step-1,Increment      1: Step Time =    1.000,"PART-1-1",           129,       12.9089,      -21.3671,            0.,NA,NA,"",   149.753E-03,  -118.899E-03,   91.0433E-03,   11.4759E-03
C:/temp/dataset/6/28_18.odb,Step-1,Increment      1: Step Time =    1.000,"PART-1-1",           130,   283.131E-03,      -22.8786,            0.,NA,NA,"",   84.9216E-03,  -84.9030E-03,   1.77465E-03,   9.68808E-03
C:/temp/dataset/6/28_18.odb,Step-1,Increment      1: Step Time =    1.000,"PART-1-1",           131,      -12.9776,      -22.4214,            0.,NA,NA,"",   161.861E-03,  -122.726E-03,  -105.534E-03,   14.8051E-03
C:/temp/dataset/6/28_18.odb,Step-1,Increment      1: Step Time =    1.000,"PART-1-1",           132,      -7.42030,      -15.1083,            0.,NA,NA,"",   420.219E-03,  -420.190E-03,   4.98793E-03,   11.7378E-03
C:/temp/dataset/6/28_18.odb,Step-1,Increment      1: Step Time =    1.000,"PART-1-1",           133,      -7.18486,      -10.2642,            0.,NA,NA,"",   691.793E-03,  -691.704E-03,  -11.0909E-03,   17.5928E-03
C:/temp/dataset/6/28_18.odb,Step-1,Increment      1: Step Time =    1.000,"PART-1-1",           134,      -7.33974,      -5.93881,            0.,NA,NA,"",   849.984E-03,  -849.432E-03,  -30.6290E-03,   13.8499E-03
C:/temp/dataset/6/28_18.odb,Step-1,Increment      1: Step Time =    1.000,"PART-1-1",           135,  -533.729E-03,      -2.94296,            0.,NA,NA,"",   829.117E-03,  -826.925E-03,  -60.2619E-03,   7.56041E-03
C:/temp/dataset/6/28_18.odb,Step-1,Increment      1: Step Time =    1.000,"PART-1-1",           136,       10.2172,      -28.0250,            0.,NA,NA,"",   13.8192E-03,  -11.1502E-03,   8.16359E-03,   6.18166E-03
C:/temp/dataset/6/28_18.odb,Step-1,Increment      1: Step Time =    1.000,"PART-1-1",           137,       7.82196,      -28.0777,            0.,NA,NA,"",   12.2992E-03,  -12.2325E-03,   1.27893E-03,   4.46830E-03
C:/temp/dataset/6/28_18.odb,Step-1,Increment      1: Step Time =    1.000,"PART-1-1",           138,       5.43540,      -28.0544,            0.,NA,NA,"",   17.3075E-03,  -17.1603E-03,  -2.25258E-03,   6.60861E-03
C:/temp/dataset/6/28_18.odb,Step-1,Increment      1: Step Time =    1.000,"PART-1-1",           139,       2.98405,      -27.8165,            0.,NA,NA,"",   25.4424E-03,  -25.3251E-03,  -2.44073E-03,   8.50789E-03
C:/temp/dataset/6/28_18.odb,Step-1,Increment      1: Step Time =    1.000,"PART-1-1",           140,   324.250E-03,      -27.0908,            0.,NA,NA,"",   37.5939E-03,  -37.5624E-03,   1.54071E-03,   9.74746E-03
C:/temp/dataset/6/28_18.odb,Step-1,Increment      1: Step Time =    1.000,"PART-1-1",           141,      -2.46293,      -27.5198,            0.,NA,NA,"",   30.7895E-03,  -30.1291E-03,   6.34270E-03,   9.69299E-03
C:/temp/dataset/6/28_18.odb,Step-1,Increment      1: Step Time =    1.000,"PART-1-1",           142,      -4.88996,      -27.5861,            0.,NA,NA,"",   24.4814E-03,  -23.4711E-03,   6.96057E-03,   8.40405E-03
C:/temp/dataset/6/28_18.odb,Step-1,Increment      1: Step Time =    1.000,"PART-1-1",           143,      -7.26500,      -27.4866,            0.,NA,NA,"",   18.2772E-03,  -18.1651E-03,   2.02129E-03,   5.41849E-03
C:/temp/dataset/6/28_18.odb,Step-1,Increment      1: Step Time =    1.000,"PART-1-1",           144,      -9.86695,      -26.8928,            0.,NA,NA,"",   25.9974E-03,  -22.5656E-03,  -12.9097E-03,   6.08587E-03
C:/temp/dataset/6/28_18.odb,Step-1,Increment      1: Step Time =    1.000,"PART-1-1",           145,       12.7710,      -23.5898,            0.,NA,NA,"",   99.7316E-03,  -74.8354E-03,   65.9246E-03,   11.5469E-03
C:/temp/dataset/6/28_18.odb,Step-1,Increment      1: Step Time =    1.000,"PART-1-1",           146,       12.6989,      -25.7990,            0.,NA,NA,"",   59.3562E-03,  -42.1057E-03,   41.8362E-03,   12.1156E-03
C:/temp/dataset/6/28_18.odb,Step-1,Increment      1: Step Time =    1.000,"PART-1-1",           147,       12.6207,      -27.9366,            0.,NA,NA,"",   26.4571E-03,  -17.6085E-03,   19.7463E-03,   12.6244E-03
C:/temp/dataset/6/28_18.odb,Step-1,Increment      1: Step Time =    1.000,"PART-1-1",           148,       12.9983,      -14.8223,            0.,NA,NA,"",   359.674E-03,  -328.752E-03,   145.901E-03,   8.32074E-03
C:/temp/dataset/6/28_18.odb,Step-1,Increment      1: Step Time =    1.000,"PART-1-1",           149,       13.0558,      -17.0719,            0.,NA,NA,"",   278.529E-03,  -244.470E-03,   133.465E-03,   9.87916E-03
C:/temp/dataset/6/28_18.odb,Step-1,Increment      1: Step Time =    1.000,"PART-1-1",           150,       13.1682,      -19.2108,            0.,NA,NA,"",   212.060E-03,  -176.037E-03,   118.240E-03,   11.3070E-03
C:/temp/dataset/6/28_18.odb,Step-1,Increment      1: Step Time =    1.000,"PART-1-1",           151,       13.0670,      -5.94273,            0.,NA,NA,"",   701.335E-03,  -684.099E-03,   154.529E-03,   3.58919E-03
C:/temp/dataset/6/28_18.odb,Step-1,Increment      1: Step Time =    1.000,"PART-1-1",           152,       13.0350,      -8.09399,            0.,NA,NA,"",   625.584E-03,  -605.173E-03,   158.496E-03,   4.47307E-03
C:/temp/dataset/6/28_18.odb,Step-1,Increment      1: Step Time =    1.000,"PART-1-1",           153,       12.9982,      -10.2981,            0.,NA,NA,"",   539.739E-03,  -515.966E-03,   158.422E-03,   5.53875E-03
C:/temp/dataset/6/28_18.odb,Step-1,Increment      1: Step Time =    1.000,"PART-1-1",           154,       12.5107,   556.281E-03,            0.,NA,NA,"",   862.123E-03,  -853.541E-03,   121.342E-03,   3.86239E-03
C:/temp/dataset/6/28_18.odb,Step-1,Increment      1: Step Time =    1.000,"PART-1-1",           155,       12.7702,      -1.64554,            0.,NA,NA,"",   817.213E-03,  -806.385E-03,   132.592E-03,   3.55187E-03
C:/temp/dataset/6/28_18.odb,Step-1,Increment      1: Step Time =    1.000,"PART-1-1",           156,       10.0517,       2.85834,            0.,NA,NA,"",   898.098E-03,  -896.081E-03,   60.1488E-03,   3.91741E-03
C:/temp/dataset/6/28_18.odb,Step-1,Increment      1: Step Time =    1.000,"PART-1-1",           157,       5.39286,       2.85476,            0.,NA,NA,"",   883.520E-03,  -882.987E-03,  -30.6824E-03,   3.38740E-03
C:/temp/dataset/6/28_18.odb,Step-1,Increment      1: Step Time =    1.000,"PART-1-1",           158,   175.602E-03,       2.90951,            0.,NA,NA,"",   875.047E-03,  -872.580E-03,  -65.6586E-03,   4.65324E-03
C:/temp/dataset/6/28_18.odb,Step-1,Increment      1: Step Time =    1.000,"PART-1-1",           159,      -4.35394,       2.91920,            0.,NA,NA,"",   880.165E-03,  -877.676E-03,  -66.1462E-03,   3.62578E-03
C:/temp/dataset/6/28_18.odb,Step-1,Increment      1: Step Time =    1.000,"PART-1-1",           160,      -7.05997,       10.9599,            0.,NA,NA,"",   951.329E-03,  -947.548E-03,  -84.7272E-03,   96.1605E-06
C:/temp/dataset/6/28_18.odb,Step-1,Increment      1: Step Time =    1.000,"PART-1-1",           161,      -6.93805,       8.84105,            0.,NA,NA,"",   935.262E-03,  -931.501E-03,  -83.7886E-03,   180.458E-06
C:/temp/dataset/6/28_18.odb,Step-1,Increment      1: Step Time =    1.000,"PART-1-1",           162,      -7.28921,       17.6445,            0.,NA,NA,"",       1.00046,  -996.702E-03,  -86.5850E-03,   11.7167E-06
C:/temp/dataset/6/28_18.odb,Step-1,Increment      1: Step Time =    1.000,"PART-1-1",           163,      -7.17735,       15.3234,            0.,NA,NA,"",   983.404E-03,  -979.662E-03,  -85.7013E-03,   33.0782E-06
C:/temp/dataset/6/28_18.odb,Step-1,Increment      1: Step Time =    1.000,"PART-1-1",           164,      -6.93557,       23.5874,            0.,NA,NA,"",       1.04380,      -1.04041,  -84.1427E-03,   155.268E-09
C:/temp/dataset/6/28_18.odb,Step-1,Increment      1: Step Time =    1.000,"PART-1-1",           165,      -13.1925,       19.7530,            0.,NA,NA,"",       1.02035,      -1.01202,  -130.069E-03,   2.93724E-06
C:/temp/dataset/6/28_18.odb,Step-1,Increment      1: Step Time =    1.000,"PART-1-1",           166,      -7.44963,       27.8335,            0.,NA,NA,"",       1.07524,      -1.07163,  -88.0391E-03,   189.954E-09
C:/temp/dataset/6/28_18.odb,Step-1,Increment      1: Step Time =    1.000,"PART-1-1",           167,      -13.0424,       22.0734,            0.,NA,NA,"",       1.03716,      -1.02910,  -129.027E-03,   354.808E-09
C:/temp/dataset/6/28_18.odb,Step-1,Increment      1: Step Time =    1.000,"PART-1-1",           168,      -13.1316,       14.9813,            0.,NA,NA,"",   985.410E-03,  -976.866E-03,  -129.484E-03,   34.6132E-06
C:/temp/dataset/6/28_18.odb,Step-1,Increment      1: Step Time =    1.000,"PART-1-1",           169,      -13.1727,       17.3972,            0.,NA,NA,"",       1.00311,  -994.672E-03,  -129.857E-03,   11.8010E-06
C:/temp/dataset/6/28_18.odb,Step-1,Increment      1: Step Time =    1.000,"PART-1-1",           170,      -12.8574,       7.53984,            0.,NA,NA,"",   931.896E-03,  -923.167E-03,  -127.250E-03,   247.835E-06
C:/temp/dataset/6/28_18.odb,Step-1,Increment      1: Step Time =    1.000,"PART-1-1",           171,      -13.0166,       10.0884,            0.,NA,NA,"",   949.734E-03,  -941.004E-03,  -128.477E-03,   73.7931E-06
C:/temp/dataset/6/28_18.odb,Step-1,Increment      1: Step Time =    1.000,"PART-1-1",           172,      -12.8045,  -118.323E-03,            0.,NA,NA,"",   892.333E-03,  -882.573E-03,  -131.620E-03,   5.45579E-03
C:/temp/dataset/6/28_18.odb,Step-1,Increment      1: Step Time =    1.000,"PART-1-1",           173,      -12.7039,       2.28772,            0.,NA,NA,"",   902.461E-03,  -893.448E-03,  -127.225E-03,   3.26110E-03
C:/temp/dataset/6/28_18.odb,Step-1,Increment      1: Step Time =    1.000,"PART-1-1",           174,      -12.8488,      -7.31355,            0.,NA,NA,"",   802.162E-03,  -784.339E-03,  -168.151E-03,   7.83188E-03
C:/temp/dataset/6/28_18.odb,Step-1,Increment      1: Step Time =    1.000,"PART-1-1",           175,      -12.6051,      -4.81291,            0.,NA,NA,"",   854.414E-03,  -841.760E-03,  -146.503E-03,   7.55860E-03
C:/temp/dataset/6/28_18.odb,Step-1,Increment      1: Step Time =    1.000,"PART-1-1",           176,      -12.4260,      -15.0682,            0.,NA,NA,"",   458.912E-03,  -429.004E-03,  -162.959E-03,   12.9498E-03
C:/temp/dataset/6/28_18.odb,Step-1,Increment      1: Step Time =    1.000,"PART-1-1",           177,      -12.3344,      -12.5112,            0.,NA,NA,"",   588.989E-03,  -564.443E-03,  -168.264E-03,   12.3689E-03
C:/temp/dataset/6/28_18.odb,Step-1,Increment      1: Step Time =    1.000,"PART-1-1",           178,      -12.6598,      -20.1148,            0.,NA,NA,"",   232.137E-03,  -194.875E-03,  -126.140E-03,   13.4395E-03
C:/temp/dataset/6/28_18.odb,Step-1,Increment      1: Step Time =    1.000,"PART-1-1",           179,      -8.70618,       22.9331,            0.,NA,NA,"",       1.04009,      -1.03555,  -97.1496E-03,   412.130E-09
C:/temp/dataset/6/28_18.odb,Step-1,Increment      1: Step Time =    1.000,"PART-1-1",           180,      -9.21222,       15.1634,            0.,NA,NA,"",   983.564E-03,  -978.394E-03,  -100.719E-03,   39.0717E-06
C:/temp/dataset/6/28_18.odb,Step-1,Increment      1: Step Time =    1.000,"PART-1-1",           181,      -9.55138,       19.8926,            0.,NA,NA,"",       1.01841,      -1.01316,  -103.288E-03,   4.09994E-06
C:/temp/dataset/6/28_18.odb,Step-1,Increment      1: Step Time =    1.000,"PART-1-1",           182,      -8.92203,       8.32966,            0.,NA,NA,"",   933.014E-03,  -927.787E-03,  -98.6204E-03,   260.351E-06
C:/temp/dataset/6/28_18.odb,Step-1,Increment      1: Step Time =    1.000,"PART-1-1",           183,      -9.17670,       12.8809,            0.,NA,NA,"",   966.844E-03,  -961.608E-03,  -100.488E-03,   75.6261E-06
C:/temp/dataset/6/28_18.odb,Step-1,Increment      1: Step Time =    1.000,"PART-1-1",           184,      -9.09923,       10.6117,            0.,NA,NA,"",   950.146E-03,  -944.871E-03,  -99.9866E-03,   105.064E-06
C:/temp/dataset/6/28_18.odb,Step-1,Increment      1: Step Time =    1.000,"PART-1-1",           185,      -9.30530,       17.5014,            0.,NA,NA,"",       1.00073,  -995.579E-03,  -101.427E-03,   14.7139E-06
C:/temp/dataset/6/28_18.odb,Step-1,Increment      1: Step Time =    1.000,"PART-1-1",           186,      -8.37864,       6.17865,            0.,NA,NA,"",   915.850E-03,  -911.046E-03,  -93.6879E-03,   1.61494E-03
C:/temp/dataset/6/28_18.odb,Step-1,Increment      1: Step Time =    1.000,"PART-1-1",           187,       10.9988,      -10.2527,            0.,NA,NA,"",   524.143E-03,  -515.548E-03,   94.5273E-03,   8.07064E-03
C:/temp/dataset/6/28_18.odb,Step-1,Increment      1: Step Time =    1.000,"PART-1-1",           188,       10.8643,      -17.5211,            0.,NA,NA,"",   231.279E-03,  -219.603E-03,   72.5581E-03,   8.80796E-03
C:/temp/dataset/6/28_18.odb,Step-1,Increment      1: Step Time =    1.000,"PART-1-1",           189,       11.0508,      -8.01555,            0.,NA,NA,"",   616.090E-03,  -608.418E-03,   96.9226E-03,   6.85407E-03
C:/temp/dataset/6/28_18.odb,Step-1,Increment      1: Step Time =    1.000,"PART-1-1",           190,       10.6332,      -2.00908,            0.,NA,NA,"",   804.379E-03,  -800.762E-03,   76.1906E-03,   3.30787E-03
C:/temp/dataset/6/28_18.odb,Step-1,Increment      1: Step Time =    1.000,"PART-1-1",           191,       11.1668,      -5.92645,            0.,NA,NA,"",   694.068E-03,  -687.085E-03,   98.2072E-03,   4.65162E-03
C:/temp/dataset/6/28_18.odb,Step-1,Increment      1: Step Time =    1.000,"PART-1-1",           192,       10.9732,      -14.9280,            0.,NA,NA,"",   329.597E-03,  -318.456E-03,   84.9738E-03,   8.74069E-03
C:/temp/dataset/6/28_18.odb,Step-1,Increment      1: Step Time =    1.000,"PART-1-1",           193,       10.5476,      -23.6927,            0.,NA,NA,"",   71.6262E-03,  -64.0127E-03,   32.1355E-03,   6.26841E-03
C:/temp/dataset/6/28_18.odb,Step-1,Increment      1: Step Time =    1.000,"PART-1-1",           194,       10.5707,      -21.1850,            0.,NA,NA,"",   120.838E-03,  -111.521E-03,   46.5285E-03,   7.40176E-03
C:/temp/dataset/6/28_18.odb,Step-1,Increment      1: Step Time =    1.000,"PART-1-1",           195,       10.9760,      -12.5622,            0.,NA,NA,"",   426.666E-03,  -416.934E-03,   90.6094E-03,   8.52268E-03
C:/temp/dataset/6/28_18.odb,Step-1,Increment      1: Step Time =    1.000,"PART-1-1",           196,       11.6229,      -19.2502,            0.,NA,NA,"",   185.615E-03,  -167.044E-03,   80.9275E-03,   9.18441E-03
C:/temp/dataset/6/28_18.odb,Step-1,Increment      1: Step Time =    1.000,"PART-1-1",           197,       11.1609,      -3.97100,            0.,NA,NA,"",   755.226E-03,  -749.328E-03,   94.2013E-03,   2.81334E-03
C:/temp/dataset/6/28_18.odb,Step-1,Increment      1: Step Time =    1.000,"PART-1-1",           198,      -9.55101,       25.2781,            0.,NA,NA,"",       1.05784,      -1.05277,  -103.428E-03,   222.917E-09
C:/temp/dataset/6/28_18.odb,Step-1,Increment      1: Step Time =    1.000,"PART-1-1",           199,      -6.13353,       2.97524,            0.,NA,NA,"",   885.704E-03,  -882.731E-03,  -72.5091E-03,   3.60316E-03
C:/temp/dataset/6/28_18.odb,Step-1,Increment      1: Step Time =    1.000,"PART-1-1",           200,       8.52809,      -18.5145,            0.,NA,NA,"",   178.056E-03,  -177.400E-03,   15.2752E-03,   8.09103E-03
C:/temp/dataset/6/28_18.odb,Step-1,Increment      1: Step Time =    1.000,"PART-1-1",           201,      -9.31256,      -6.57829,            0.,NA,NA,"",   827.082E-03,  -823.629E-03,  -75.5016E-03,   7.81647E-03
C:/temp/dataset/6/28_18.odb,Step-1,Increment      1: Step Time =    1.000,"PART-1-1",           202,      -7.82061,      -4.24854,            0.,NA,NA,"",   860.803E-03,  -859.577E-03,  -45.9275E-03,   12.9528E-03
C:/temp/dataset/6/28_18.odb,Step-1,Increment      1: Step Time =    1.000,"PART-1-1",           203,       7.55002,      -20.4955,            0.,NA,NA,"",   115.864E-03,  -115.704E-03,  -6.08900E-03,   6.65718E-03
C:/temp/dataset/6/28_18.odb,Step-1,Increment      1: Step Time =    1.000,"PART-1-1",           204,      -9.18944,      -8.43706,            0.,NA,NA,"",   771.034E-03,  -767.391E-03,  -74.8624E-03,   11.1438E-03
C:/temp/dataset/6/28_18.odb,Step-1,Increment      1: Step Time =    1.000,"PART-1-1",           205,      -12.3720,       27.4312,            0.,NA,NA,"",       1.07574,      -1.06854,  -124.240E-03,   215.987E-09
C:/temp/dataset/6/28_18.odb,Step-1,Increment      1: Step Time =    1.000,"PART-1-1",           206,      -10.3791,       22.2070,            0.,NA,NA,"",       1.03596,      -1.03016,  -109.437E-03,   803.159E-09
C:/temp/dataset/6/28_18.odb,Step-1,Increment      1: Step Time =    1.000,"PART-1-1",           207,       3.40286,  -884.176E-03,            0.,NA,NA,"",   830.934E-03,  -828.937E-03,  -57.5710E-03,   6.17065E-03
C:/temp/dataset/6/28_18.odb,Step-1,Increment      1: Step Time =    1.000,"PART-1-1",           208,       7.88020,       1.44192,            0.,NA,NA,"",   867.257E-03,  -867.198E-03,   10.1404E-03,   3.47417E-03
C:/temp/dataset/6/28_18.odb,Step-1,Increment      1: Step Time =    1.000,"PART-1-1",           209,      -1.17287,  -897.893E-03,            0.,NA,NA,"",   844.201E-03,  -841.840E-03,  -63.0861E-03,   6.80229E-03
C:/temp/dataset/6/28_18.odb,Step-1,Increment      1: Step Time =    1.000,"PART-1-1",           210,       10.4014,      -25.9274,            0.,NA,NA,"",   37.9313E-03,  -32.9084E-03,   18.8631E-03,   5.94429E-03
C:/temp/dataset/6/28_18.odb,Step-1,Increment      1: Step Time =    1.000,"PART-1-1",           211,       2.00108,      -24.8239,            0.,NA,NA,"",   63.0824E-03,  -62.7474E-03,  -6.49225E-03,   10.8042E-03
C:/temp/dataset/6/28_18.odb,Step-1,Increment      1: Step Time =    1.000,"PART-1-1",           212,      -4.80900,      -25.1606,            0.,NA,NA,"",   58.1606E-03,  -55.1696E-03,   18.4113E-03,   10.3231E-03
C:/temp/dataset/6/28_18.odb,Step-1,Increment      1: Step Time =    1.000,"PART-1-1",           213,      -11.5765,       21.3848,            0.,NA,NA,"",       1.03088,      -1.02408,  -118.224E-03,   1.37037E-06
C:/temp/dataset/6/28_18.odb,Step-1,Increment      1: Step Time =    1.000,"PART-1-1",           214,      -11.0630,       10.3038,            0.,NA,NA,"",   949.500E-03,  -942.584E-03,  -114.394E-03,   91.6891E-06
C:/temp/dataset/6/28_18.odb,Step-1,Increment      1: Step Time =    1.000,"PART-1-1",           215,      -10.2832,  -591.021E-03,            0.,NA,NA,"",   884.947E-03,  -879.433E-03,  -98.6338E-03,   6.76772E-03
C:/temp/dataset/6/28_18.odb,Step-1,Increment      1: Step Time =    1.000,"PART-1-1",           216,      -11.1869,      -5.64306,            0.,NA,NA,"",   841.307E-03,  -832.985E-03,  -118.045E-03,   5.95841E-03
C:/temp/dataset/6/28_18.odb,Step-1,Increment      1: Step Time =    1.000,"PART-1-1",           217,      -9.48237,      -10.3825,            0.,NA,NA,"",   683.664E-03,  -678.675E-03,  -82.4400E-03,   14.4939E-03
C:/temp/dataset/6/28_18.odb,Step-1,Increment      1: Step Time =    1.000,"PART-1-1",           218,      -10.0191,      -20.7277,            0.,NA,NA,"",   165.506E-03,  -157.611E-03,  -50.5062E-03,   10.5327E-03
C:/temp/dataset/6/28_18.odb,Step-1,Increment      1: Step Time =    1.000,"PART-1-1",           219,      -12.8377,      -24.8331,            0.,NA,NA,"",   96.0131E-03,  -66.6313E-03,  -69.1287E-03,   15.5225E-03
C:/temp/dataset/6/28_18.odb,Step-1,Increment      1: Step Time =    1.000,"PART-1-1",           220,  -752.185E-03,      -25.0561,            0.,NA,NA,"",   63.5573E-03,  -63.1282E-03,   7.37303E-03,   11.1142E-03
C:/temp/dataset/6/28_18.odb,Step-1,Increment      1: Step Time =    1.000,"PART-1-1",           221,      -11.3411,      -22.5061,            0.,NA,NA,"",   128.945E-03,  -110.571E-03,  -66.3391E-03,   10.6578E-03
C:/temp/dataset/6/28_18.odb,Step-1,Increment      1: Step Time =    1.000,"PART-1-1",           222,       5.90860,      -26.1342,            0.,NA,NA,"",   36.3176E-03,  -35.7352E-03,  -6.47833E-03,   7.06010E-03
C:/temp/dataset/6/28_18.odb,Step-1,Increment      1: Step Time =    1.000,"PART-1-1",           223,       3.81352,      -25.8758,            0.,NA,NA,"",   46.3965E-03,  -45.6198E-03,  -8.45435E-03,   9.47838E-03
C:/temp/dataset/6/28_18.odb,Step-1,Increment      1: Step Time =    1.000,"PART-1-1",           224,      -6.87266,      -25.1947,            0.,NA,NA,"",   49.3720E-03,  -48.4211E-03,   9.64347E-03,   6.46625E-03
C:/temp/dataset/6/28_18.odb,Step-1,Increment      1: Step Time =    1.000,"PART-1-1",           225,       9.77381,   336.875E-03,            0.,NA,NA,"",   851.030E-03,  -849.401E-03,   52.6206E-03,   4.20766E-03
C:/temp/dataset/6/28_18.odb,Step-1,Increment      1: Step Time =    1.000,"PART-1-1",           226,       4.59800,   29.7464E-03,            0.,NA,NA,"",   842.815E-03,  -841.550E-03,  -46.1705E-03,   3.81491E-03
C:/temp/dataset/6/28_18.odb,Step-1,Increment      1: Step Time =    1.000,"PART-1-1",           227,      -11.1551,       12.6912,            0.,NA,NA,"",   966.949E-03,  -960.084E-03,  -115.023E-03,   75.7945E-06
C:/temp/dataset/6/28_18.odb,Step-1,Increment      1: Step Time =    1.000,"PART-1-1",           228,      -11.2689,       17.3859,            0.,NA,NA,"",       1.00138,  -994.653E-03,  -115.867E-03,   15.1964E-06
C:/temp/dataset/6/28_18.odb,Step-1,Increment      1: Step Time =    1.000,"PART-1-1",           229,      -11.2102,       15.0558,            0.,NA,NA,"",   984.283E-03,  -977.494E-03,  -115.408E-03,   38.8525E-06
C:/temp/dataset/6/28_18.odb,Step-1,Increment      1: Step Time =    1.000,"PART-1-1",           230,      -10.8139,       7.79620,            0.,NA,NA,"",   931.363E-03,  -924.549E-03,  -112.455E-03,   347.366E-06
C:/temp/dataset/6/28_18.odb,Step-1,Increment      1: Step Time =    1.000,"PART-1-1",           231,      -10.1648,       4.85487,            0.,NA,NA,"",   910.767E-03,  -904.583E-03,  -105.950E-03,   2.06320E-03
C:/temp/dataset/6/28_18.odb,Step-1,Increment      1: Step Time =    1.000,"PART-1-1",           232,      -10.4473,       2.01195,            0.,NA,NA,"",   896.539E-03,  -890.375E-03,  -104.948E-03,   4.44174E-03
C:/temp/dataset/6/28_18.odb,Step-1,Increment      1: Step Time =    1.000,"PART-1-1",           233,      -10.4810,      -3.59789,            0.,NA,NA,"",   868.206E-03,  -862.580E-03,  -98.6784E-03,   7.68990E-03
C:/temp/dataset/6/28_18.odb,Step-1,Increment      1: Step Time =    1.000,"PART-1-1",           234,      -9.89141,      -15.1395,            0.,NA,NA,"",   427.985E-03,  -420.561E-03,  -79.3655E-03,   15.6642E-03
C:/temp/dataset/6/28_18.odb,Step-1,Increment      1: Step Time =    1.000,"PART-1-1",           235,      -9.95744,      -17.7636,            0.,NA,NA,"",   290.507E-03,  -282.333E-03,  -68.4269E-03,   15.6818E-03
C:/temp/dataset/6/28_18.odb,Step-1,Increment      1: Step Time =    1.000,"PART-1-1",           236,      -3.63694,      -1.16253,            0.,NA,NA,"",   850.113E-03,  -848.236E-03,  -56.4684E-03,   8.03976E-03
C:/temp/dataset/6/28_18.odb,Step-1,Increment      1: Step Time =    1.000,"PART-1-1",           237,      -7.00580,      -22.7773,            0.,NA,NA,"",   91.3255E-03,  -90.0266E-03,   15.3480E-03,   5.24861E-03
C:/temp/dataset/6/28_18.odb,Step-1,Increment      1: Step Time =    1.000,"PART-1-1",           238,       7.08723,      -4.67483,            0.,NA,NA,"",   741.838E-03,  -741.715E-03,  -13.4858E-03,   9.24058E-03
C:/temp/dataset/6/28_18.odb,Step-1,Increment      1: Step Time =    1.000,"PART-1-1",           239,       8.96532,      -10.1697,            0.,NA,NA,"",   517.929E-03,  -516.916E-03,   32.3867E-03,   8.13911E-03
C:/temp/dataset/6/28_18.odb,Step-1,Increment      1: Step Time =    1.000,"PART-1-1",           240,       8.99874,      -7.82238,            0.,NA,NA,"",   618.150E-03,  -617.040E-03,   37.0245E-03,   8.89679E-03
C:/temp/dataset/6/28_18.odb,Step-1,Increment      1: Step Time =    1.000,"PART-1-1",           241,       8.96760,      -14.8663,            0.,NA,NA,"",   318.133E-03,  -316.893E-03,   28.0529E-03,   7.88963E-03
C:/temp/dataset/6/28_18.odb,Step-1,Increment      1: Step Time =    1.000,"PART-1-1",           242,      -12.0836,       24.5335,            0.,NA,NA,"",       1.05431,      -1.04723,  -122.039E-03,   257.337E-09
C:/temp/dataset/6/28_18.odb,Step-1,Increment      1: Step Time =    1.000,"PART-1-1",           243,       9.21542,      -5.66363,            0.,NA,NA,"",   701.840E-03,  -700.507E-03,   43.2455E-03,   6.51918E-03
C:/temp/dataset/6/28_18.odb,Step-1,Increment      1: Step Time =    1.000,"PART-1-1",           244,       8.72776,      -2.97127,            0.,NA,NA,"",   782.713E-03,  -782.241E-03,   27.1681E-03,   4.01891E-03
C:/temp/dataset/6/28_18.odb,Step-1,Increment      1: Step Time =    1.000,"PART-1-1",           245,       9.39471,      -19.4524,            0.,NA,NA,"",   154.296E-03,  -151.085E-03,   31.3149E-03,   7.64955E-03
C:/temp/dataset/6/28_18.odb,Step-1,Increment      1: Step Time =    1.000,"PART-1-1",           246,       8.06548,      -22.0810,            0.,NA,NA,"",   85.1515E-03,  -85.1431E-03,   1.19446E-03,   2.11194E-03
C:/temp/dataset/6/28_18.odb,Step-1,Increment      1: Step Time =    1.000,"PART-1-1",           247,      -7.53738,       4.79758,            0.,NA,NA,"",   903.233E-03,  -899.151E-03,  -85.7756E-03,   2.87816E-03
C:/temp/dataset/6/28_18.odb,Step-1,Increment      1: Step Time =    1.000,"PART-1-1",           248,      -10.8025,      -24.3532,            0.,NA,NA,"",   76.4175E-03,  -65.3006E-03,  -39.6922E-03,   8.66282E-03
C:/temp/dataset/6/28_18.odb,Step-1,Increment      1: Step Time =    1.000,"PART-1-1",           249,       5.82981,      -2.08643,            0.,NA,NA,"",   808.014E-03,  -807.251E-03,  -35.0937E-03,   6.00043E-03
C:/temp/dataset/6/28_18.odb,Step-1,Increment      1: Step Time =    1.000,"PART-1-1",           250,      -8.67175,      -2.53401,            0.,NA,NA,"",   870.697E-03,  -867.966E-03,  -68.9039E-03,   9.55728E-03
C:/temp/dataset/6/28_18.odb,Step-1,Increment      1: Step Time =    1.000,"PART-1-1",           251,       5.78686,      -22.7214,            0.,NA,NA,"",   79.8660E-03,  -77.0773E-03,  -20.9204E-03,   7.84212E-03
C:/temp/dataset/6/28_18.odb,Step-1,Increment      1: Step Time =    1.000,"PART-1-1",           252,      -8.27594,       1.60152,            0.,NA,NA,"",   886.614E-03,  -882.708E-03,  -83.1384E-03,   5.24679E-03
C:/temp/dataset/6/28_18.odb,Step-1,Increment      1: Step Time =    1.000,"PART-1-1",           253,       8.25490,      -24.0061,            0.,NA,NA,"",   56.2962E-03,  -56.1935E-03,   3.39831E-03,   2.14331E-03
C:/temp/dataset/6/28_18.odb,Step-1,Increment      1: Step Time =    1.000,"PART-1-1",           254,      -9.04303,      -23.2600,            0.,NA,NA,"",   84.1090E-03,  -82.5486E-03,  -16.1262E-03,   4.78041E-03
C:/temp/dataset/6/28_18.odb,Step-1,Increment      1: Step Time =    1.000,"PART-1-1",           255,       7.61656,      -1.09448,            0.,NA,NA,"",   823.651E-03,  -823.650E-03,   1.04681E-03,   3.77798E-03
C:/temp/dataset/6/28_18.odb,Step-1,Increment      1: Step Time =    1.000,"PART-1-1",           256,      -4.02262,   861.151E-03,            0.,NA,NA,"",   865.219E-03,  -863.000E-03,  -61.9141E-03,   6.06650E-03
C:/temp/dataset/6/28_18.odb,Step-1,Increment      1: Step Time =    1.000,"PART-1-1",           257,  -104.141E-03,       1.31276,            0.,NA,NA,"",   861.417E-03,  -858.895E-03,  -65.8662E-03,   6.15311E-03
C:/temp/dataset/6/28_18.odb,Step-1,Increment      1: Step Time =    1.000,"PART-1-1",           258,       3.72123,      -23.4419,            0.,NA,NA,"",   76.1607E-03,  -74.0376E-03,  -17.8574E-03,   11.5674E-03
C:/temp/dataset/6/28_18.odb,Step-1,Increment      1: Step Time =    1.000,"PART-1-1",           259,      -10.7950,      -8.39617,            0.,NA,NA,"",   768.136E-03,  -759.096E-03,  -117.499E-03,   8.56140E-03
C:/temp/dataset/6/28_18.odb,Step-1,Increment      1: Step Time =    1.000,"PART-1-1",           260,      -1.85786,       1.02916,            0.,NA,NA,"",   861.492E-03,  -859.081E-03,  -64.4123E-03,   6.62620E-03
C:/temp/dataset/6/28_18.odb,Step-1,Increment      1: Step Time =    1.000,"PART-1-1",           261,      -6.46179,      -1.33856,            0.,NA,NA,"",   863.116E-03,  -861.343E-03,  -55.2916E-03,   8.87157E-03
C:/temp/dataset/6/28_18.odb,Step-1,Increment      1: Step Time =    1.000,"PART-1-1",           262,      -11.1078,      -7.00587,            0.,NA,NA,"",   811.095E-03,  -801.996E-03,  -121.152E-03,   6.21454E-03
C:/temp/dataset/6/28_18.odb,Step-1,Increment      1: Step Time =    1.000,"PART-1-1",           263,      -5.52697,      -3.44125,            0.,NA,NA,"",   850.634E-03,  -849.904E-03,  -35.2312E-03,   14.3802E-03
C:/temp/dataset/6/28_18.odb,Step-1,Increment      1: Step Time =    1.000,"PART-1-1",           264,      -9.72268,      -4.98378,            0.,NA,NA,"",   853.730E-03,  -849.663E-03,  -83.2286E-03,   7.64270E-03
C:/temp/dataset/6/28_18.odb,Step-1,Increment      1: Step Time =    1.000,"PART-1-1",           265,      -6.27329,       4.89376,            0.,NA,NA,"",   899.861E-03,  -896.542E-03,  -77.2117E-03,   3.73077E-03
C:/temp/dataset/6/28_18.odb,Step-1,Increment      1: Step Time =    1.000,"PART-1-1",           266,       12.4963,       2.80040,            0.,NA,NA,"",   906.011E-03,  -898.161E-03,   119.004E-03,   2.81011E-03
C:/temp/dataset/6/28_18.odb,Step-1,Increment      1: Step Time =    1.000,"PART-1-1",           267,      -7.37176,      -20.2559,            0.,NA,NA,"",   159.882E-03,  -159.629E-03,   8.98582E-03,   12.1888E-03
C:/temp/dataset/6/28_18.odb,Step-1,Increment      1: Step Time =    1.000,"PART-1-1",           268,       2.88963,      -21.8777,            0.,NA,NA,"",   90.6512E-03,  -89.2630E-03,  -15.8037E-03,   11.7718E-03
C:/temp/dataset/6/28_18.odb,Step-1,Increment      1: Step Time =    1.000,"PART-1-1",           269,      -8.05085,       3.52655,            0.,NA,NA,"",   896.272E-03,  -892.061E-03,  -86.7813E-03,   3.84368E-03
C:/temp/dataset/6/28_18.odb,Step-1,Increment      1: Step Time =    1.000,"PART-1-1",           270,       8.95558,      -12.5395,            0.,NA,NA,"",   415.700E-03,  -414.687E-03,   29.0106E-03,   7.94097E-03
C:/temp/dataset/6/28_18.odb,Step-1,Increment      1: Step Time =    1.000,"PART-1-1",           271,       1.35989,  -223.950E-03,            0.,NA,NA,"",   843.694E-03,  -841.209E-03,  -64.7140E-03,   6.75780E-03
C:/temp/dataset/6/28_18.odb,Step-1,Increment      1: Step Time =    1.000,"PART-1-1",           272,      -9.75004,      -12.6533,            0.,NA,NA,"",   564.419E-03,  -558.089E-03,  -84.2968E-03,   16.0063E-03
C:/temp/dataset/6/28_18.odb,Step-1,Increment      1: Step Time =    1.000,"PART-1-1",           273,      -8.51206,      -25.1011,            0.,NA,NA,"",   48.1385E-03,  -47.8497E-03,  -5.26469E-03,   3.46853E-03
C:/temp/dataset/6/28_18.odb,Step-1,Increment      1: Step Time =    1.000,"PART-1-1",           274,      -6.19138,   998.181E-03,            0.,NA,NA,"",   874.214E-03,  -871.661E-03,  -66.7579E-03,   5.15038E-03
C:/temp/dataset/6/28_18.odb,Step-1,Increment      1: Step Time =    1.000,"PART-1-1",           275,      -2.63339,      -25.0950,            0.,NA,NA,"",   63.2316E-03,  -61.1709E-03,   16.0112E-03,   12.5918E-03
C:/temp/dataset/6/28_18.odb,Step-1,Increment      1: Step Time =    1.000,"PART-1-1",           276,       8.11811,      -26.0558,            0.,NA,NA,"",   31.4433E-03,  -31.3498E-03,   2.42380E-03,   3.89816E-03
C:/temp/dataset/6/28_18.odb,Step-1,Increment      1: Step Time =    1.000,"PART-1-1",           277,       6.33403,   764.508E-03,            0.,NA,NA,"",   854.341E-03,  -854.101E-03,  -20.2562E-03,   2.49773E-03
C:/temp/dataset/6/28_18.odb,Step-1,Increment      1: Step Time =    1.000,"PART-1-1",           278,       8.84044,      -16.9880,            0.,NA,NA,"",   233.944E-03,  -232.740E-03,   23.7068E-03,   8.75823E-03
C:/temp/dataset/6/28_18.odb,Step-1,Increment      1: Step Time =    1.000,"PART-1-1",           279,      -11.3950,       19.6047,            0.,NA,NA,"",       1.01771,      -1.01098,  -116.843E-03,   4.70182E-06
C:/temp/dataset/6/28_18.odb,Step-1,Increment      1: Step Time =    1.000,"PART-1-1",           280,      -11.2464,      -2.22607,            0.,NA,NA,"",   879.288E-03,  -872.090E-03,  -112.273E-03,   7.25339E-03
C:/temp/dataset/6/28_18.odb,Step-1,Increment      1: Step Time =    1.000,"PART-1-1",           281,      -8.41776,  -32.7016E-03,            0.,NA,NA,"",   879.672E-03,  -876.195E-03,  -78.1314E-03,   6.88084E-03
C:/temp/dataset/6/28_18.odb,Step-1,Increment      1: Step Time =    1.000,"PART-1-1",           282,       4.48255,      -24.5345,            0.,NA,NA,"",   60.7473E-03,  -59.0332E-03,  -14.3285E-03,   9.67981E-03
C:/temp/dataset/6/28_18.odb,Step-1,Increment      1: Step Time =    1.000,"PART-1-1",           283,       6.11275,      -24.3348,            0.,NA,NA,"",   57.1594E-03,  -55.8703E-03,  -12.0710E-03,   6.73873E-03
C:/temp/dataset/6/28_18.odb,Step-1,Increment      1: Step Time =    1.000,"PART-1-1",           284,       9.69767,      -4.20039,            0.,NA,NA,"",   747.934E-03,  -745.947E-03,   54.4816E-03,   4.12311E-03
C:/temp/dataset/6/28_18.odb,Step-1,Increment      1: Step Time =    1.000,"PART-1-1",           285,       13.8851,      -1.60402,            0.,NA,NA,"",   821.926E-03,  -805.880E-03,   161.615E-03,   4.21889E-03
C:/temp/dataset/6/28_18.odb,Step-1,Increment      1: Step Time =    1.000,"PART-1-1",           286,           15.,   -468.75E-03,            0.,NA,NA,"",   849.781E-03,  -829.655E-03,   183.851E-03,   4.26666E-03
C:/temp/dataset/6/28_18.odb,Step-1,Increment      1: Step Time =    1.000,"PART-1-1",           287,       13.7553,   590.641E-03,            0.,NA,NA,"",   866.992E-03,  -853.578E-03,   151.919E-03,   2.97140E-03
C:/temp/dataset/6/28_18.odb,Step-1,Increment      1: Step Time =    1.000,"PART-1-1",           288,       12.6405,  -544.629E-03,            0.,NA,NA,"",   840.367E-03,  -830.770E-03,   126.640E-03,   3.63450E-03
C:/temp/dataset/6/28_18.odb,Step-1,Increment      1: Step Time =    1.000,"PART-1-1",           289,       6.57104,       2.96720,            0.,NA,NA,"",   888.533E-03,  -888.448E-03,  -12.2724E-03,   3.51808E-03
C:/temp/dataset/6/28_18.odb,Step-1,Increment      1: Step Time =    1.000,"PART-1-1",           290,       5.86345,       1.80964,            0.,NA,NA,"",   869.576E-03,  -869.192E-03,  -25.8316E-03,   2.67932E-03
C:/temp/dataset/6/28_18.odb,Step-1,Increment      1: Step Time =    1.000,"PART-1-1",           291,       7.10711,       1.10321,            0.,NA,NA,"",   860.505E-03,  -860.486E-03,  -5.84697E-03,   2.79497E-03
C:/temp/dataset/6/28_18.odb,Step-1,Increment      1: Step Time =    1.000,"PART-1-1",           292,       7.81470,       2.26078,            0.,NA,NA,"",   880.651E-03,  -880.595E-03,   9.88139E-03,   3.57753E-03
C:/temp/dataset/6/28_18.odb,Step-1,Increment      1: Step Time =    1.000,"PART-1-1",           293,       6.97305,      -8.82061,            0.,NA,NA,"",   572.514E-03,  -571.779E-03,  -29.0033E-03,   8.00473E-03
C:/temp/dataset/6/28_18.odb,Step-1,Increment      1: Step Time =    1.000,"PART-1-1",           294,       5.98985,      -7.53541,            0.,NA,NA,"",   628.065E-03,  -625.504E-03,  -56.6658E-03,   9.26687E-03
C:/temp/dataset/6/28_18.odb,Step-1,Increment      1: Step Time =    1.000,"PART-1-1",           295,            5.,      -8.76875,            0.,NA,NA,"",   576.296E-03,  -566.832E-03,  -104.008E-03,   6.54164E-03
C:/temp/dataset/6/28_18.odb,Step-1,Increment      1: Step Time =    1.000,"PART-1-1",           296,       5.98320,      -10.0539,            0.,NA,NA,"",   520.454E-03,  -515.860E-03,  -69.0057E-03,   4.68212E-03
C:/temp/dataset/6/28_18.odb,Step-1,Increment      1: Step Time =    1.000,"PART-1-1",           297,       12.0429,      -8.05477,            0.,NA,NA,"",   619.932E-03,  -606.783E-03,   127.007E-03,   5.60611E-03
C:/temp/dataset/6/28_18.odb,Step-1,Increment      1: Step Time =    1.000,"PART-1-1",           298,       11.0248,      -9.13413,            0.,NA,NA,"",   570.975E-03,  -562.822E-03,   96.1432E-03,   7.41910E-03
C:/temp/dataset/6/28_18.odb,Step-1,Increment      1: Step Time =    1.000,"PART-1-1",           299,       11.9985,      -10.2754,            0.,NA,NA,"",   530.867E-03,  -515.757E-03,   125.757E-03,   6.78271E-03
C:/temp/dataset/6/28_18.odb,Step-1,Increment      1: Step Time =    1.000,"PART-1-1",           300,       13.0166,      -9.19606,            0.,NA,NA,"",   583.367E-03,  -561.284E-03,   158.987E-03,   4.88174E-03
C:/temp/dataset/6/28_18.odb,Step-1,Increment      1: Step Time =    1.000,"PART-1-1",           301,       13.9992,      -14.7549,            0.,NA,NA,"",   380.132E-03,  -335.209E-03,   179.262E-03,   8.25813E-03
C:/temp/dataset/6/28_18.odb,Step-1,Increment      1: Step Time =    1.000,"PART-1-1",           302,       13.0271,      -15.9471,            0.,NA,NA,"",   318.008E-03,  -285.358E-03,   140.357E-03,   9.04237E-03
C:/temp/dataset/6/28_18.odb,Step-1,Increment      1: Step Time =    1.000,"PART-1-1",           303,       14.0279,      -16.9735,            0.,NA,NA,"",   300.875E-03,  -252.776E-03,   163.188E-03,   11.0869E-03
C:/temp/dataset/6/28_18.odb,Step-1,Increment      1: Step Time =    1.000,"PART-1-1",           304,           15.,      -15.7813,            0.,NA,NA,"",   365.173E-03,  -300.986E-03,   206.782E-03,   10.9589E-03
C:/temp/dataset/6/28_18.odb,Step-1,Increment      1: Step Time =    1.000,"PART-1-1",           305,       6.96949,      -18.0995,            0.,NA,NA,"",   189.482E-03,  -188.337E-03,  -20.7993E-03,   8.59732E-03
C:/temp/dataset/6/28_18.odb,Step-1,Increment      1: Step Time =    1.000,"PART-1-1",           306,       5.95014,      -17.3335,            0.,NA,NA,"",   225.427E-03,  -218.848E-03,  -54.0636E-03,   7.54012E-03
C:/temp/dataset/6/28_18.odb,Step-1,Increment      1: Step Time =    1.000,"PART-1-1",           307,            5.,      -18.7625,            0.,NA,NA,"",   183.292E-03,  -169.148E-03,  -70.6032E-03,   18.0496E-03
C:/temp/dataset/6/28_18.odb,Step-1,Increment      1: Step Time =    1.000,"PART-1-1",           308,       6.01935,      -19.5285,            0.,NA,NA,"",   138.385E-03,  -134.023E-03,  -34.4703E-03,   15.5976E-03
C:/temp/dataset/6/28_18.odb,Step-1,Increment      1: Step Time =    1.000,"PART-1-1",           309,       7.66098,      -29.0388,            0.,NA,NA,"",   5.32874E-03,  -5.27037E-03,   786.559E-06,   3.77313E-03
C:/temp/dataset/6/28_18.odb,Step-1,Increment      1: Step Time =    1.000,"PART-1-1",           310,       6.62868,      -28.0660,            0.,NA,NA,"",   14.4719E-03,  -14.4420E-03,  -930.613E-06,   5.41403E-03
C:/temp/dataset/6/28_18.odb,Step-1,Increment      1: Step Time =    1.000,"PART-1-1",           311,       5.21770,      -29.0272,            0.,NA,NA,"",   8.50029E-03,  -8.47013E-03,  -715.451E-06,   5.94357E-03
C:/temp/dataset/6/28_18.odb,Step-1,Increment      1: Step Time =    1.000,"PART-1-1",           312,          6.25,          -30.,            0.,NA,NA,"",            0.,  -4.04821E-39,   743.249E-42,   4.28520E-03
C:/temp/dataset/6/28_18.odb,Step-1,Increment      1: Step Time =    1.000,"PART-1-1",           313,   162.125E-03,      -28.5454,            0.,NA,NA,"",   19.3729E-03,  -19.3440E-03,   1.05731E-03,   9.26952E-03
C:/temp/dataset/6/28_18.odb,Step-1,Increment      1: Step Time =    1.000,"PART-1-1",           314,      -1.06934,      -27.3053,            0.,NA,NA,"",   34.9838E-03,  -34.6759E-03,   4.63152E-03,   9.49932E-03
C:/temp/dataset/6/28_18.odb,Step-1,Increment      1: Step Time =    1.000,"PART-1-1",           315,      -2.48147,      -28.7599,            0.,NA,NA,"",   15.2544E-03,  -15.0198E-03,   2.66482E-03,   8.82104E-03
C:/temp/dataset/6/28_18.odb,Step-1,Increment      1: Step Time =    1.000,"PART-1-1",           316,         -1.25,          -30.,            0.,NA,NA,"",            0.,  -8.19770E-39,   3.19332E-39,   8.51385E-03
C:/temp/dataset/6/28_18.odb,Step-1,Increment      1: Step Time =    1.000,"PART-1-1",           317,          -15.,        -21.25,            0.,NA,NA,"",   250.805E-03,  -172.773E-03,  -181.804E-03,   20.7989E-03
C:/temp/dataset/6/28_18.odb,Step-1,Increment      1: Step Time =    1.000,"PART-1-1",           318,      -13.9888,      -22.4607,            0.,NA,NA,"",   183.543E-03,  -128.922E-03,  -130.641E-03,   18.3268E-03
C:/temp/dataset/6/28_18.odb,Step-1,Increment      1: Step Time =    1.000,"PART-1-1",           319,      -12.8187,      -21.2681,            0.,NA,NA,"",   194.628E-03,  -155.816E-03,  -116.625E-03,   13.9002E-03
C:/temp/dataset/6/28_18.odb,Step-1,Increment      1: Step Time =    1.000,"PART-1-1",           320,      -13.8299,      -20.0574,            0.,NA,NA,"",   261.672E-03,  -204.239E-03,  -163.581E-03,   15.9943E-03
C:/temp/dataset/6/28_18.odb,Step-1,Increment      1: Step Time =    1.000,"PART-1-1",           321,      -12.5142,      -28.6623,            0.,NA,NA,"",   16.6182E-03,  -8.59262E-03,  -14.2244E-03,   13.4729E-03
C:/temp/dataset/6/28_18.odb,Step-1,Increment      1: Step Time =    1.000,"PART-1-1",           322,        -11.25,          -30.,            0.,NA,NA,"",            0.,  -687.816E-42,  -17.2200E-39,   8.87337E-03
C:/temp/dataset/6/28_18.odb,Step-1,Increment      1: Step Time =    1.000,"PART-1-1",           323,      -9.93348,      -28.4464,            0.,NA,NA,"",   9.49421E-03,  -6.76614E-03,  -6.66028E-03,   5.62244E-03
C:/temp/dataset/6/28_18.odb,Step-1,Increment      1: Step Time =    1.000,"PART-1-1",           324,      -11.1976,      -27.1087,            0.,NA,NA,"",   31.6660E-03,  -22.6120E-03,  -22.1683E-03,   10.3918E-03
C:/temp/dataset/6/28_18.odb,Step-1,Increment      1: Step Time =    1.000,"PART-1-1",           325,      -7.37036,      -13.8742,            0.,NA,NA,"",   488.660E-03,  -488.645E-03,   3.84268E-03,   11.1237E-03
C:/temp/dataset/6/28_18.odb,Step-1,Increment      1: Step Time =    1.000,"PART-1-1",           326,      -6.21015,      -15.0417,            0.,NA,NA,"",   428.920E-03,  -425.227E-03,   56.1642E-03,   5.54449E-03
C:/temp/dataset/6/28_18.odb,Step-1,Increment      1: Step Time =    1.000,"PART-1-1",           327,           -5.,      -13.7188,            0.,NA,NA,"",   509.902E-03,  -497.228E-03,   112.979E-03,   2.15044E-03
C:/temp/dataset/6/28_18.odb,Step-1,Increment      1: Step Time =    1.000,"PART-1-1",           328,      -6.16021,      -12.5513,            0.,NA,NA,"",   563.388E-03,  -561.187E-03,   49.7558E-03,   7.46365E-03
C:/temp/dataset/6/28_18.odb,Step-1,Increment      1: Step Time =    1.000,"PART-1-1",           329,      -9.33590,      -9.40979,            0.,NA,NA,"",   729.796E-03,  -725.491E-03,  -79.1588E-03,   12.4807E-03
C:/temp/dataset/6/28_18.odb,Step-1,Increment      1: Step Time =    1.000,"PART-1-1",           330,      -8.33361,      -10.3234,            0.,NA,NA,"",   687.134E-03,  -685.429E-03,  -48.3718E-03,   14.9971E-03
C:/temp/dataset/6/28_18.odb,Step-1,Increment      1: Step Time =    1.000,"PART-1-1",           331,      -7.16565,      -9.15059,            0.,NA,NA,"",   750.441E-03,  -750.255E-03,  -16.7074E-03,   15.8206E-03
C:/temp/dataset/6/28_18.odb,Step-1,Increment      1: Step Time =    1.000,"PART-1-1",           332,      -8.16794,      -8.23701,            0.,NA,NA,"",   784.316E-03,  -782.861E-03,  -47.7533E-03,   12.8184E-03
C:/temp/dataset/6/28_18.odb,Step-1,Increment      1: Step Time =    1.000,"PART-1-1",           333,      -11.1473,      -6.32447,            0.,NA,NA,"",   827.536E-03,  -818.849E-03,  -119.595E-03,   5.61454E-03
C:/temp/dataset/6/28_18.odb,Step-1,Increment      1: Step Time =    1.000,"PART-1-1",           334,      -10.2102,      -6.79208,            0.,NA,NA,"",   818.588E-03,  -812.716E-03,  -97.8694E-03,   6.55312E-03
C:/temp/dataset/6/28_18.odb,Step-1,Increment      1: Step Time =    1.000,"PART-1-1",           335,      -9.51762,      -5.78103,            0.,NA,NA,"",   842.222E-03,  -838.490E-03,  -79.1987E-03,   7.07202E-03
C:/temp/dataset/6/28_18.odb,Step-1,Increment      1: Step Time =    1.000,"PART-1-1",           336,      -10.4548,      -5.31342,            0.,NA,NA,"",   847.936E-03,  -842.003E-03,  -100.136E-03,   6.29562E-03
C:/temp/dataset/6/28_18.odb,Step-1,Increment      1: Step Time =    1.000,"PART-1-1",           337,      -5.04937,      -1.25055,            0.,NA,NA,"",   855.705E-03,  -854.054E-03,  -53.1211E-03,   7.65166E-03
C:/temp/dataset/6/28_18.odb,Step-1,Increment      1: Step Time =    1.000,"PART-1-1",           338,      -3.82978,  -150.691E-03,            0.,NA,NA,"",   857.377E-03,  -855.326E-03,  -59.2641E-03,   6.96600E-03
C:/temp/dataset/6/28_18.odb,Step-1,Increment      1: Step Time =    1.000,"PART-1-1",           339,      -5.10700,   929.666E-03,            0.,NA,NA,"",   869.451E-03,  -867.151E-03,  -63.1942E-03,   5.21992E-03
C:/temp/dataset/6/28_18.odb,Step-1,Increment      1: Step Time =    1.000,"PART-1-1",           340,      -6.32658,  -170.190E-03,            0.,NA,NA,"",   868.308E-03,  -866.092E-03,  -62.0069E-03,   6.82824E-03
C:/temp/dataset/6/28_18.odb,Step-1,Increment      1: Step Time =    1.000,"PART-1-1",           341,          -15.,          3.75,            0.,NA,NA,"",   911.093E-03,  -899.893E-03,  -142.424E-03,   1.13325E-03
C:/temp/dataset/6/28_18.odb,Step-1,Increment      1: Step Time =    1.000,"PART-1-1",           342,      -13.8520,       2.39386,            0.,NA,NA,"",   903.904E-03,  -893.509E-03,  -136.691E-03,   2.20423E-03
C:/temp/dataset/6/28_18.odb,Step-1,Increment      1: Step Time =    1.000,"PART-1-1",           343,      -12.6820,       3.58697,            0.,NA,NA,"",   908.516E-03,  -899.692E-03,  -126.321E-03,   2.28976E-03
C:/temp/dataset/6/28_18.odb,Step-1,Increment      1: Step Time =    1.000,"PART-1-1",           344,      -13.8301,       4.94311,            0.,NA,NA,"",   916.827E-03,  -906.932E-03,  -134.339E-03,   727.810E-06
C:/temp/dataset/6/28_18.odb,Step-1,Increment      1: Step Time =    1.000,"PART-1-1",           345,          -15.,         11.25,            0.,NA,NA,"",   960.133E-03,  -949.447E-03,  -142.845E-03,   138.949E-06
C:/temp/dataset/6/28_18.odb,Step-1,Increment      1: Step Time =    1.000,"PART-1-1",           346,      -14.0083,       10.0442,            0.,NA,NA,"",   950.402E-03,  -940.687E-03,  -135.540E-03,   113.057E-06
C:/temp/dataset/6/28_18.odb,Step-1,Increment      1: Step Time =    1.000,"PART-1-1",           347,      -13.0572,       11.3141,            0.,NA,NA,"",   958.593E-03,  -949.899E-03,  -128.813E-03,   65.3246E-06
C:/temp/dataset/6/28_18.odb,Step-1,Increment      1: Step Time =    1.000,"PART-1-1",           348,      -14.0489,       12.5200,            0.,NA,NA,"",   968.330E-03,  -958.723E-03,  -136.064E-03,   65.3784E-06
C:/temp/dataset/6/28_18.odb,Step-1,Increment      1: Step Time =    1.000,"PART-1-1",           349,           -5.,       22.7083,            0.,NA,NA,"",       1.03635,      -1.03399,  -69.8819E-03,   721.219E-09
C:/temp/dataset/6/28_18.odb,Step-1,Increment      1: Step Time =    1.000,"PART-1-1",           350,      -5.96779,       23.6687,            0.,NA,NA,"",       1.04388,      -1.04103,  -77.0261E-03,   319.456E-09
C:/temp/dataset/6/28_18.odb,Step-1,Increment      1: Step Time =    1.000,"PART-1-1",           351,      -6.69567,       22.7251,            0.,NA,NA,"",       1.03735,      -1.03407,  -82.3547E-03,   129.647E-09
C:/temp/dataset/6/28_18.odb,Step-1,Increment      1: Step Time =    1.000,"PART-1-1",           352,      -5.72788,       21.7648,            0.,NA,NA,"",       1.02978,      -1.02703,  -75.2105E-03,   380.109E-09
C:/temp/dataset/6/28_18.odb,Step-1,Increment      1: Step Time =    1.000,"PART-1-1",           353,      -9.95259,       28.8237,            0.,NA,NA,"",       1.08409,      -1.07885,  -106.479E-03,   148.955E-09
C:/temp/dataset/6/28_18.odb,Step-1,Increment      1: Step Time =    1.000,"PART-1-1",           354,      -8.67740,       27.7404,            0.,NA,NA,"",       1.07530,      -1.07091,  -97.0685E-03,   141.065E-09
C:/temp/dataset/6/28_18.odb,Step-1,Increment      1: Step Time =    1.000,"PART-1-1",           355,      -7.47481,       28.9167,            0.,NA,NA,"",       1.08320,      -1.07960,  -88.2537E-03,   122.826E-09
C:/temp/dataset/6/28_18.odb,Step-1,Increment      1: Step Time =    1.000,"PART-1-1",           356,         -8.75,           30.,            0.,NA,NA,"",       1.09191,      -1.08753,  -97.6639E-03,   145.024E-09
C:/temp/dataset/6/28_18.odb,Step-1,Increment      1: Step Time =    1.000,"PART-1-1",           357,      -12.4360,       28.7156,            0.,NA,NA,"",       1.08518,      -1.07798,  -124.745E-03,   130.284E-09
C:/temp/dataset/6/28_18.odb,Step-1,Increment      1: Step Time =    1.000,"PART-1-1",           358,        -13.75,           30.,            0.,NA,NA,"",       1.09568,      -1.08740,  -134.447E-03,   31.7608E-09
C:/temp/dataset/6/28_18.odb,Step-1,Increment      1: Step Time =    1.000,"PART-1-1",           359,          -15.,         28.75,            0.,NA,NA,"",       1.08769,      -1.07817,  -143.609E-03,   41.5071E-09
C:/temp/dataset/6/28_18.odb,Step-1,Increment      1: Step Time =    1.000,"PART-1-1",           360,      -13.6860,       27.4656,            0.,NA,NA,"",       1.07711,      -1.06876,  -133.908E-03,   136.524E-09
C:/temp/dataset/6/28_18.odb,Step-1,Increment      1: Step Time =    1.000,"PART-1-1",           361,         -3.75,           -5.,            0.,NA,NA,"",   848.842E-03,  -847.629E-03,  -45.3612E-03,   7.27298E-03
C:/temp/dataset/6/28_18.odb,Step-1,Increment      1: Step Time =    1.000,"PART-1-1",           362,      -2.75606,      -4.06584,            0.,NA,NA,"",   839.487E-03,  -837.848E-03,  -52.4302E-03,   5.72448E-03
C:/temp/dataset/6/28_18.odb,Step-1,Increment      1: Step Time =    1.000,"PART-1-1",           363,      -4.26954,      -3.28646,            0.,NA,NA,"",   843.331E-03,  -842.200E-03,  -43.6654E-03,   8.63014E-03
C:/temp/dataset/6/28_18.odb,Step-1,Increment      1: Step Time =    1.000,"PART-1-1",           364,      -5.26349,      -4.22062,            0.,NA,NA,"",   849.170E-03,  -848.755E-03,  -26.5755E-03,   14.5675E-03
C:/temp/dataset/6/28_18.odb,Step-1,Increment      1: Step Time =    1.000,"PART-1-1",           365,   659.099E-03,      -2.85996,            0.,NA,NA,"",   822.678E-03,  -820.403E-03,  -61.1510E-03,   8.51869E-03
C:/temp/dataset/6/28_18.odb,Step-1,Increment      1: Step Time =    1.000,"PART-1-1",           366,  -266.865E-03,      -3.97148,            0.,NA,NA,"",   824.024E-03,  -822.057E-03,  -56.9053E-03,   8.10862E-03
C:/temp/dataset/6/28_18.odb,Step-1,Increment      1: Step Time =    1.000,"PART-1-1",           367,          1.25,           -5.,            0.,NA,NA,"",   809.839E-03,  -808.154E-03,  -52.2089E-03,   11.3096E-03
C:/temp/dataset/6/28_18.odb,Step-1,Increment      1: Step Time =    1.000,"PART-1-1",           368,       2.17596,      -3.88848,            0.,NA,NA,"",   803.014E-03,  -800.915E-03,  -58.0182E-03,   10.6989E-03
C:/temp/dataset/6/28_18.odb,Step-1,Increment      1: Step Time =    1.000,"PART-1-1",           369,   93.5104E-03,  -560.922E-03,            0.,NA,NA,"",   843.605E-03,  -841.108E-03,  -64.8585E-03,   6.92289E-03
C:/temp/dataset/6/28_18.odb,Step-1,Increment      1: Step Time =    1.000,"PART-1-1",           370,   627.873E-03,   544.404E-03,            0.,NA,NA,"",   853.116E-03,  -850.603E-03,  -65.4315E-03,   6.40432E-03
C:/temp/dataset/6/28_18.odb,Step-1,Increment      1: Step Time =    1.000,"PART-1-1",           371,  -981.002E-03,       1.17096,            0.,NA,NA,"",   861.222E-03,  -858.727E-03,  -65.5054E-03,   6.32594E-03
C:/temp/dataset/6/28_18.odb,Step-1,Increment      1: Step Time =    1.000,"PART-1-1",           372,      -1.51537,   65.6335E-03,            0.,NA,NA,"",   852.858E-03,  -850.469E-03,  -63.8010E-03,   6.76692E-03
C:/temp/dataset/6/28_18.odb,Step-1,Increment      1: Step Time =    1.000,"PART-1-1",           373,       4.11258,       2.54084,            0.,NA,NA,"",   876.428E-03,  -875.198E-03,  -46.4113E-03,   3.15010E-03
C:/temp/dataset/6/28_18.odb,Step-1,Increment      1: Step Time =    1.000,"PART-1-1",           374,       3.71515,       1.12833,            0.,NA,NA,"",   857.888E-03,  -856.284E-03,  -52.4370E-03,   3.66248E-03
C:/temp/dataset/6/28_18.odb,Step-1,Increment      1: Step Time =    1.000,"PART-1-1",           375,       5.46602,   397.127E-03,            0.,NA,NA,"",   848.312E-03,  -847.610E-03,  -34.4856E-03,   2.66532E-03
C:/temp/dataset/6/28_18.odb,Step-1,Increment      1: Step Time =    1.000,"PART-1-1",           376,       8.69518,  -378.803E-03,            0.,NA,NA,"",   836.674E-03,  -836.259E-03,   26.3373E-03,   3.70902E-03
C:/temp/dataset/6/28_18.odb,Step-1,Increment      1: Step Time =    1.000,"PART-1-1",           377,       8.82700,   889.396E-03,            0.,NA,NA,"",   859.434E-03,  -858.902E-03,   30.2329E-03,   3.65932E-03
C:/temp/dataset/6/28_18.odb,Step-1,Increment      1: Step Time =    1.000,"PART-1-1",           378,       6.97530,  -164.986E-03,            0.,NA,NA,"",   839.798E-03,  -839.732E-03,  -10.5332E-03,   2.93931E-03
C:/temp/dataset/6/28_18.odb,Step-1,Increment      1: Step Time =    1.000,"PART-1-1",           379,      -3.65351,      -22.6081,            0.,NA,NA,"",   100.452E-03,  -95.4310E-03,   31.3612E-03,   13.4643E-03
C:/temp/dataset/6/28_18.odb,Step-1,Increment      1: Step Time =    1.000,"PART-1-1",           380,      -2.48671,      -21.3009,            0.,NA,NA,"",   106.820E-03,  -104.383E-03,   22.6846E-03,   9.96826E-03
C:/temp/dataset/6/28_18.odb,Step-1,Increment      1: Step Time =    1.000,"PART-1-1",           381,         -3.75,          -20.,            0.,NA,NA,"",   123.831E-03,  -120.183E-03,   29.8362E-03,   23.4719E-03
C:/temp/dataset/6/28_18.odb,Step-1,Increment      1: Step Time =    1.000,"PART-1-1",           382,      -4.91680,      -21.3072,            0.,NA,NA,"",   126.528E-03,  -117.901E-03,   45.9199E-03,   20.2462E-03
C:/temp/dataset/6/28_18.odb,Step-1,Increment      1: Step Time =    1.000,"PART-1-1",           383,       12.8399,      -22.4784,            0.,NA,NA,"",   123.436E-03,  -95.2646E-03,   78.4931E-03,   11.5092E-03
C:/temp/dataset/6/28_18.odb,Step-1,Increment      1: Step Time =    1.000,"PART-1-1",           384,       11.7398,      -21.2760,            0.,NA,NA,"",   133.677E-03,  -114.846E-03,   68.4090E-03,   9.32109E-03
C:/temp/dataset/6/28_18.odb,Step-1,Increment      1: Step Time =    1.000,"PART-1-1",           385,       10.5591,      -22.4389,            0.,NA,NA,"",   94.0585E-03,  -85.5184E-03,   39.1612E-03,   6.73451E-03
C:/temp/dataset/6/28_18.odb,Step-1,Increment      1: Step Time =    1.000,"PART-1-1",           386,       11.6593,      -23.6412,            0.,NA,NA,"",   83.9977E-03,  -68.7006E-03,   48.3307E-03,   8.88277E-03
C:/temp/dataset/6/28_18.odb,Step-1,Increment      1: Step Time =    1.000,"PART-1-1",           387,          8.75,            5.,            0.,NA,NA,"",   934.673E-03,  -934.056E-03,   33.9425E-03,   5.28785E-03
C:/temp/dataset/6/28_18.odb,Step-1,Increment      1: Step Time =    1.000,"PART-1-1",           388,       7.62461,       4.03982,            0.,NA,NA,"",   910.150E-03,  -910.105E-03,   9.02426E-03,   5.08261E-03
C:/temp/dataset/6/28_18.odb,Step-1,Increment      1: Step Time =    1.000,"PART-1-1",           389,       8.90047,       2.96899,            0.,NA,NA,"",   896.112E-03,  -895.470E-03,   33.9114E-03,   3.82656E-03
C:/temp/dataset/6/28_18.odb,Step-1,Increment      1: Step Time =    1.000,"PART-1-1",           390,       10.0259,       3.92917,            0.,NA,NA,"",   918.776E-03,  -916.781E-03,   60.5135E-03,   3.39991E-03
C:/temp/dataset/6/28_18.odb,Step-1,Increment      1: Step Time =    1.000,"PART-1-1",           391,      -6.96921,       21.1213,            0.,NA,NA,"",       1.02574,      -1.02227,  -84.3235E-03,   1.39068E-06
C:/temp/dataset/6/28_18.odb,Step-1,Increment      1: Step Time =    1.000,"PART-1-1",           392,      -6.24133,       19.9816,            0.,NA,NA,"",       1.01698,      -1.01391,  -78.9385E-03,   1.48426E-06
C:/temp/dataset/6/28_18.odb,Step-1,Increment      1: Step Time =    1.000,"PART-1-1",           393,           -5.,        20.625,            0.,NA,NA,"",       1.02106,      -1.01867,  -69.8270E-03,   305.116E-09
C:/temp/dataset/6/28_18.odb,Step-1,Increment      1: Step Time =    1.000,"PART-1-1",           394,      -12.9370,       8.81410,            0.,NA,NA,"",   940.652E-03,  -931.923E-03,  -127.853E-03,   100.707E-06
C:/temp/dataset/6/28_18.odb,Step-1,Increment      1: Step Time =    1.000,"PART-1-1",           395,          -15.,          8.75,            0.,NA,NA,"",   942.365E-03,  -931.554E-03,  -142.332E-03,   198.736E-06
C:/temp/dataset/6/28_18.odb,Step-1,Increment      1: Step Time =    1.000,"PART-1-1",           396,      -13.9287,       7.51992,            0.,NA,NA,"",   932.845E-03,  -923.063E-03,  -134.739E-03,   138.133E-06
C:/temp/dataset/6/28_18.odb,Step-1,Increment      1: Step Time =    1.000,"PART-1-1",           397,          -15.,          1.25,            0.,NA,NA,"",   898.551E-03,  -886.477E-03,  -146.807E-03,   3.60959E-03
C:/temp/dataset/6/28_18.odb,Step-1,Increment      1: Step Time =    1.000,"PART-1-1",           398,      -13.9023,  -59.1614E-03,            0.,NA,NA,"",   892.951E-03,  -881.391E-03,  -143.220E-03,   4.67509E-03
C:/temp/dataset/6/28_18.odb,Step-1,Increment      1: Step Time =    1.000,"PART-1-1",           399,      -12.7542,       1.08470,            0.,NA,NA,"",   897.430E-03,  -888.117E-03,  -128.953E-03,   4.33373E-03
C:/temp/dataset/6/28_18.odb,Step-1,Increment      1: Step Time =    1.000,"PART-1-1",           400,          -15.,         -1.25,            0.,NA,NA,"",   885.494E-03,  -871.171E-03,  -158.626E-03,   7.64829E-03
C:/temp/dataset/6/28_18.odb,Step-1,Increment      1: Step Time =    1.000,"PART-1-1",           401,      -13.9820,      -2.43756,            0.,NA,NA,"",   879.191E-03,  -865.205E-03,  -156.196E-03,   7.99470E-03
C:/temp/dataset/6/28_18.odb,Step-1,Increment      1: Step Time =    1.000,"PART-1-1",           402,      -12.8843,      -1.24672,            0.,NA,NA,"",   886.909E-03,  -876.481E-03,  -135.606E-03,   6.26669E-03
C:/temp/dataset/6/28_18.odb,Step-1,Increment      1: Step Time =    1.000,"PART-1-1",           403,      -12.3802,      -13.7897,            0.,NA,NA,"",   524.180E-03,  -496.910E-03,  -166.870E-03,   12.4145E-03
C:/temp/dataset/6/28_18.odb,Step-1,Increment      1: Step Time =    1.000,"PART-1-1",           404,      -13.6672,      -12.5056,            0.,NA,NA,"",   603.676E-03,  -563.199E-03,  -217.328E-03,   6.87760E-03
C:/temp/dataset/6/28_18.odb,Step-1,Increment      1: Step Time =    1.000,"PART-1-1",           405,          -15.,        -13.75,            0.,NA,NA,"",   569.914E-03,  -498.636E-03,  -275.979E-03,   1.29281E-03
C:/temp/dataset/6/28_18.odb,Step-1,Increment      1: Step Time =    1.000,"PART-1-1",           406,      -13.7130,      -15.0341,            0.,NA,NA,"",   481.937E-03,  -432.707E-03,  -212.198E-03,   8.17204E-03
C:/temp/dataset/6/28_18.odb,Step-1,Increment      1: Step Time =    1.000,"PART-1-1",           407,       9.21271,      -3.58583,            0.,NA,NA,"",   766.088E-03,  -765.012E-03,   40.5833E-03,   3.81987E-03
C:/temp/dataset/6/28_18.odb,Step-1,Increment      1: Step Time =    1.000,"PART-1-1",           408,       7.90749,      -3.82305,            0.,NA,NA,"",   762.966E-03,  -762.933E-03,   7.06406E-03,   5.95277E-03
C:/temp/dataset/6/28_18.odb,Step-1,Increment      1: Step Time =    1.000,"PART-1-1",           409,       8.15132,      -5.16923,            0.,NA,NA,"",   720.823E-03,  -720.687E-03,   13.9638E-03,   7.54276E-03
C:/temp/dataset/6/28_18.odb,Step-1,Increment      1: Step Time =    1.000,"PART-1-1",           410,       9.45655,      -4.93201,            0.,NA,NA,"",   726.029E-03,  -724.374E-03,   48.9938E-03,   4.76784E-03
C:/temp/dataset/6/28_18.odb,Step-1,Increment      1: Step Time =    1.000,"PART-1-1",           411,       6.91243,      -16.0318,            0.,NA,NA,"",   270.677E-03,  -268.834E-03,  -31.5317E-03,   6.97467E-03
C:/temp/dataset/6/28_18.odb,Step-1,Increment      1: Step Time =    1.000,"PART-1-1",           412,       5.96229,      -14.9858,            0.,NA,NA,"",   318.631E-03,  -311.457E-03,  -67.2319E-03,   4.03721E-03
C:/temp/dataset/6/28_18.odb,Step-1,Increment      1: Step Time =    1.000,"PART-1-1",           413,            5.,      -16.2875,            0.,NA,NA,"",   279.484E-03,  -262.273E-03,  -96.5638E-03,   7.03173E-03
C:/temp/dataset/6/28_18.odb,Step-1,Increment      1: Step Time =    1.000,"PART-1-1",           414,       6.93910,      -13.7291,            0.,NA,NA,"",   364.215E-03,  -362.435E-03,  -35.9672E-03,   5.02343E-03
C:/temp/dataset/6/28_18.odb,Step-1,Increment      1: Step Time =    1.000,"PART-1-1",           415,       5.97681,      -12.5371,            0.,NA,NA,"",   417.645E-03,  -411.482E-03,  -71.4850E-03,   2.55617E-03
C:/temp/dataset/6/28_18.odb,Step-1,Increment      1: Step Time =    1.000,"PART-1-1",           416,            5.,      -13.7937,            0.,NA,NA,"",   375.262E-03,  -359.542E-03,  -107.478E-03,   2.21386E-03
C:/temp/dataset/6/28_18.odb,Step-1,Increment      1: Step Time =    1.000,"PART-1-1",           417,         -1.25,          -20.,            0.,NA,NA,"",   92.0802E-03,  -91.8049E-03,   7.11496E-03,   6.44788E-03
C:/temp/dataset/6/28_18.odb,Step-1,Increment      1: Step Time =    1.000,"PART-1-1",           418,      -1.09514,      -22.7401,            0.,NA,NA,"",   88.1968E-03,  -87.4649E-03,   11.3389E-03,   11.4422E-03
C:/temp/dataset/6/28_18.odb,Step-1,Increment      1: Step Time =    1.000,"PART-1-1",           419,   141.566E-03,      -21.4393,            0.,NA,NA,"",   90.7411E-03,  -90.7313E-03,   1.33394E-03,   5.00131E-03
C:/temp/dataset/6/28_18.odb,Step-1,Increment      1: Step Time =    1.000,"PART-1-1",           420,      -7.69236,      -25.1479,            0.,NA,NA,"",   47.7521E-03,  -47.6567E-03,   3.01645E-03,   4.34169E-03
C:/temp/dataset/6/28_18.odb,Step-1,Increment      1: Step Time =    1.000,"PART-1-1",           421,      -9.18951,      -25.9970,            0.,NA,NA,"",   35.7545E-03,  -34.1960E-03,  -10.4409E-03,   4.40099E-03
C:/temp/dataset/6/28_18.odb,Step-1,Increment      1: Step Time =    1.000,"PART-1-1",           422,      -8.56598,      -27.1897,            0.,NA,NA,"",   19.5928E-03,  -19.2395E-03,  -3.70407E-03,   4.55849E-03
C:/temp/dataset/6/28_18.odb,Step-1,Increment      1: Step Time =    1.000,"PART-1-1",           423,      -7.06883,      -26.3407,            0.,NA,NA,"",   32.4817E-03,  -32.0623E-03,   5.20273E-03,   5.86871E-03
C:/temp/dataset/6/28_18.odb,Step-1,Increment      1: Step Time =    1.000,"PART-1-1",           424,      -9.82073,      -13.8964,            0.,NA,NA,"",   496.127E-03,  -489.286E-03,  -82.1058E-03,   15.8581E-03
C:/temp/dataset/6/28_18.odb,Step-1,Increment      1: Step Time =    1.000,"PART-1-1",           425,      -8.65586,      -15.1239,            0.,NA,NA,"",   421.710E-03,  -419.930E-03,  -38.7077E-03,   13.9356E-03
C:/temp/dataset/6/28_18.odb,Step-1,Increment      1: Step Time =    1.000,"PART-1-1",           426,      -8.53523,      -12.6467,            0.,NA,NA,"",   559.923E-03,  -558.134E-03,  -44.7191E-03,   14.2741E-03
C:/temp/dataset/6/28_18.odb,Step-1,Increment      1: Step Time =    1.000,"PART-1-1",           427,      -6.09243,      -10.1071,            0.,NA,NA,"",   703.618E-03,  -703.046E-03,   28.3865E-03,   16.3267E-03
C:/temp/dataset/6/28_18.odb,Step-1,Increment      1: Step Time =    1.000,"PART-1-1",           428,           -5.,      -8.71250,            0.,NA,NA,"",   789.672E-03,  -787.192E-03,   62.5379E-03,   23.1689E-03
C:/temp/dataset/6/28_18.odb,Step-1,Increment      1: Step Time =    1.000,"PART-1-1",           429,      -6.07322,      -7.75598,            0.,NA,NA,"",   818.478E-03,  -818.431E-03,   8.80991E-03,   19.5201E-03
C:/temp/dataset/6/28_18.odb,Step-1,Increment      1: Step Time =    1.000,"PART-1-1",           430,      -12.7270,      -6.06323,            0.,NA,NA,"",   832.203E-03,  -817.278E-03,  -156.903E-03,   7.19088E-03
C:/temp/dataset/6/28_18.odb,Step-1,Increment      1: Step Time =    1.000,"PART-1-1",           431,      -13.8025,      -4.90646,            0.,NA,NA,"",   852.580E-03,  -834.980E-03,  -172.339E-03,   10.5286E-03
C:/temp/dataset/6/28_18.odb,Step-1,Increment      1: Step Time =    1.000,"PART-1-1",           432,          -15.,         -6.25,            0.,NA,NA,"",   828.068E-03,  -800.153E-03,  -213.197E-03,   15.1072E-03
C:/temp/dataset/6/28_18.odb,Step-1,Increment      1: Step Time =    1.000,"PART-1-1",           433,      -13.9244,      -7.40677,            0.,NA,NA,"",   801.059E-03,  -776.054E-03,  -198.585E-03,   11.5301E-03
C:/temp/dataset/6/28_18.odb,Step-1,Increment      1: Step Time =    1.000,"PART-1-1",           434,       1.60591,      -1.50045,            0.,NA,NA,"",   829.432E-03,  -827.008E-03,  -63.3632E-03,   8.23570E-03
C:/temp/dataset/6/28_18.odb,Step-1,Increment      1: Step Time =    1.000,"PART-1-1",           435,  -853.298E-03,      -1.92043,            0.,NA,NA,"",   836.277E-03,  -833.962E-03,  -62.1815E-03,   6.72178E-03
C:/temp/dataset/6/28_18.odb,Step-1,Increment      1: Step Time =    1.000,"PART-1-1",           436,         13.75,          -30.,            0.,NA,NA,"",            0.,  -1.17277E-39,   24.5921E-39,   16.6461E-03
C:/temp/dataset/6/28_18.odb,Step-1,Increment      1: Step Time =    1.000,"PART-1-1",           437,           15.,      -28.9063,            0.,NA,NA,"",   28.1347E-03,  -19.5672E-03,   20.2160E-03,   20.4043E-03
C:/temp/dataset/6/28_18.odb,Step-1,Increment      1: Step Time =    1.000,"PART-1-1",           438,       13.8103,      -27.8746,            0.,NA,NA,"",   35.5630E-03,  -23.0694E-03,   27.0653E-03,   15.2689E-03
C:/temp/dataset/6/28_18.odb,Step-1,Increment      1: Step Time =    1.000,"PART-1-1",           439,       12.5603,      -28.9683,            0.,NA,NA,"",   10.7835E-03,  -6.28170E-03,   8.76496E-03,   10.8358E-03
C:/temp/dataset/6/28_18.odb,Step-1,Increment      1: Step Time =    1.000,"PART-1-1",           440,       12.6598,      -26.8678,            0.,NA,NA,"",   42.0493E-03,  -28.8811E-03,   30.5618E-03,   11.9951E-03
C:/temp/dataset/6/28_18.odb,Step-1,Increment      1: Step Time =    1.000,"PART-1-1",           441,       11.5501,      -25.8632,            0.,NA,NA,"",   47.1394E-03,  -36.5653E-03,   29.7506E-03,   8.91968E-03
C:/temp/dataset/6/28_18.odb,Step-1,Increment      1: Step Time =    1.000,"PART-1-1",           442,       10.3093,      -26.9762,            0.,NA,NA,"",   24.9838E-03,  -21.1778E-03,   13.2548E-03,   6.15086E-03
C:/temp/dataset/6/28_18.odb,Step-1,Increment      1: Step Time =    1.000,"PART-1-1",           443,       11.4189,      -27.9808,            0.,NA,NA,"",   18.4428E-03,  -13.1946E-03,   12.8856E-03,   9.06516E-03
C:/temp/dataset/6/28_18.odb,Step-1,Increment      1: Step Time =    1.000,"PART-1-1",           444,       10.1086,      -29.0125,            0.,NA,NA,"",   5.71687E-03,  -4.14095E-03,   3.94147E-03,   5.44143E-03
C:/temp/dataset/6/28_18.odb,Step-1,Increment      1: Step Time =    1.000,"PART-1-1",           445,       9.01957,      -28.0513,            0.,NA,NA,"",   11.8887E-03,  -11.0893E-03,   4.28573E-03,   4.74356E-03
C:/temp/dataset/6/28_18.odb,Step-1,Increment      1: Step Time =    1.000,"PART-1-1",           446,          8.75,          -30.,            0.,NA,NA,"",            0.,  -1.92840E-39,   5.73926E-39,   3.80112E-03
C:/temp/dataset/6/28_18.odb,Step-1,Increment      1: Step Time =    1.000,"PART-1-1",           447,       4.20973,      -27.9354,            0.,NA,NA,"",   21.5011E-03,  -21.3098E-03,  -2.86153E-03,   7.55130E-03
C:/temp/dataset/6/28_18.odb,Step-1,Increment      1: Step Time =    1.000,"PART-1-1",           448,       2.74203,      -28.9082,            0.,NA,NA,"",   13.0344E-03,  -13.0190E-03,  -633.494E-06,   8.09439E-03
C:/temp/dataset/6/28_18.odb,Step-1,Increment      1: Step Time =    1.000,"PART-1-1",           449,          3.75,          -30.,            0.,NA,NA,"",            0.,  -6.70601E-39,  -649.231E-42,   6.79341E-03
C:/temp/dataset/6/28_18.odb,Step-1,Increment      1: Step Time =    1.000,"PART-1-1",           450,       1.16266,      -25.9573,            0.,NA,NA,"",   50.8128E-03,  -50.7960E-03,  -1.30588E-03,   10.3057E-03
C:/temp/dataset/6/28_18.odb,Step-1,Increment      1: Step Time =    1.000,"PART-1-1",           451,       1.65415,      -27.4536,            0.,NA,NA,"",   31.9513E-03,  -31.9280E-03,  -1.22133E-03,   8.98305E-03
C:/temp/dataset/6/28_18.odb,Step-1,Increment      1: Step Time =    1.000,"PART-1-1",           452,       3.39879,      -26.8461,            0.,NA,NA,"",   35.9090E-03,  -35.5424E-03,  -5.11772E-03,   8.98191E-03
C:/temp/dataset/6/28_18.odb,Step-1,Increment      1: Step Time =    1.000,"PART-1-1",           453,       2.90730,      -25.3498,            0.,NA,NA,"",   55.0336E-03,  -54.3944E-03,  -8.36362E-03,   10.0343E-03
C:/temp/dataset/6/28_18.odb,Step-1,Increment      1: Step Time =    1.000,"PART-1-1",           454,      -3.67645,      -27.5530,            0.,NA,NA,"",   28.2139E-03,  -27.2248E-03,   7.40502E-03,   9.02210E-03
C:/temp/dataset/6/28_18.odb,Step-1,Increment      1: Step Time =    1.000,"PART-1-1",           455,      -2.54816,      -26.3074,            0.,NA,NA,"",   46.7555E-03,  -45.4710E-03,   10.8845E-03,   10.8156E-03
C:/temp/dataset/6/28_18.odb,Step-1,Increment      1: Step Time =    1.000,"PART-1-1",           456,      -3.72120,      -25.1278,            0.,NA,NA,"",   60.8975E-03,  -58.1422E-03,   18.1103E-03,   11.3919E-03
C:/temp/dataset/6/28_18.odb,Step-1,Increment      1: Step Time =    1.000,"PART-1-1",           457,      -4.84948,      -26.3734,            0.,NA,NA,"",   40.2496E-03,  -38.2987E-03,   12.3789E-03,   9.41160E-03
C:/temp/dataset/6/28_18.odb,Step-1,Increment      1: Step Time =    1.000,"PART-1-1",           458,      -4.94498,      -28.7931,            0.,NA,NA,"",   10.9989E-03,  -10.6648E-03,   2.68996E-03,   6.85732E-03
C:/temp/dataset/6/28_18.odb,Step-1,Increment      1: Step Time =    1.000,"PART-1-1",           459,         -3.75,          -30.,            0.,NA,NA,"",            0.,  -6.31667E-39,   4.22426E-39,   6.84523E-03
C:/temp/dataset/6/28_18.odb,Step-1,Increment      1: Step Time =    1.000,"PART-1-1",           460,      -6.07748,      -27.5364,            0.,NA,NA,"",   21.2749E-03,  -20.5917E-03,   5.34808E-03,   6.82910E-03
C:/temp/dataset/6/28_18.odb,Step-1,Increment      1: Step Time =    1.000,"PART-1-1",           461,      -7.38250,      -28.7433,            0.,NA,NA,"",   6.77269E-03,  -6.77086E-03,   157.233E-06,   3.75572E-03
C:/temp/dataset/6/28_18.odb,Step-1,Increment      1: Step Time =    1.000,"PART-1-1",           462,         -6.25,          -30.,            0.,NA,NA,"",            0.,  -3.37269E-39,   1.43238E-39,   3.72643E-03
C:/temp/dataset/6/28_18.odb,Step-1,Increment      1: Step Time =    1.000,"PART-1-1",           463,      -8.77755,      -24.1806,            0.,NA,NA,"",   64.5310E-03,  -63.7941E-03,  -9.72419E-03,   3.57630E-03
C:/temp/dataset/6/28_18.odb,Step-1,Increment      1: Step Time =    1.000,"PART-1-1",           464,      -9.92276,      -23.8066,            0.,NA,NA,"",   78.9620E-03,  -73.5138E-03,  -28.8223E-03,   6.51241E-03
C:/temp/dataset/6/28_18.odb,Step-1,Increment      1: Step Time =    1.000,"PART-1-1",           465,      -10.3347,      -25.6230,            0.,NA,NA,"",   48.0316E-03,  -41.4004E-03,  -24.3525E-03,   7.29281E-03
C:/temp/dataset/6/28_18.odb,Step-1,Increment      1: Step Time =    1.000,"PART-1-1",           466,       13.9544,      -21.3085,            0.,NA,NA,"",   170.142E-03,  -126.590E-03,   113.680E-03,   14.0550E-03
C:/temp/dataset/6/28_18.odb,Step-1,Increment      1: Step Time =    1.000,"PART-1-1",           467,       13.8855,      -23.5136,            0.,NA,NA,"",   118.505E-03,  -82.6697E-03,   84.9070E-03,   14.1949E-03
C:/temp/dataset/6/28_18.odb,Step-1,Increment      1: Step Time =    1.000,"PART-1-1",           468,           15.,      -22.3438,            0.,NA,NA,"",   164.958E-03,  -112.073E-03,   121.040E-03,   16.8028E-03
C:/temp/dataset/6/28_18.odb,Step-1,Increment      1: Step Time =    1.000,"PART-1-1",           469,       12.7349,      -24.6944,            0.,NA,NA,"",   78.8084E-03,  -57.4254E-03,   53.9730E-03,   11.7475E-03
C:/temp/dataset/6/28_18.odb,Step-1,Increment      1: Step Time =    1.000,"PART-1-1",           470,       13.8494,      -25.7120,            0.,NA,NA,"",   75.5648E-03,  -50.0649E-03,   56.5999E-03,   14.3104E-03
C:/temp/dataset/6/28_18.odb,Step-1,Increment      1: Step Time =    1.000,"PART-1-1",           471,           15.,      -24.5313,            0.,NA,NA,"",   115.367E-03,  -74.2657E-03,   88.2844E-03,   16.6332E-03
C:/temp/dataset/6/28_18.odb,Step-1,Increment      1: Step Time =    1.000,"PART-1-1",           472,         11.25,          -30.,            0.,NA,NA,"",            0.,  -1.68522E-39,   14.0630E-39,   7.27902E-03
C:/temp/dataset/6/28_18.odb,Step-1,Increment      1: Step Time =    1.000,"PART-1-1",           473,       13.9950,      -12.5232,            0.,NA,NA,"",   465.607E-03,  -425.269E-03,   189.568E-03,   5.29938E-03
C:/temp/dataset/6/28_18.odb,Step-1,Increment      1: Step Time =    1.000,"PART-1-1",           474,       12.9942,      -13.6844,            0.,NA,NA,"",   403.896E-03,  -374.660E-03,   150.869E-03,   7.48075E-03
C:/temp/dataset/6/28_18.odb,Step-1,Increment      1: Step Time =    1.000,"PART-1-1",           475,           15.,      -13.5938,            0.,NA,NA,"",   445.054E-03,  -385.145E-03,   223.018E-03,   6.99422E-03
C:/temp/dataset/6/28_18.odb,Step-1,Increment      1: Step Time =    1.000,"PART-1-1",           476,       9.85236,      -17.2546,            0.,NA,NA,"",   230.742E-03,  -225.574E-03,   48.5591E-03,   8.34701E-03
C:/temp/dataset/6/28_18.odb,Step-1,Increment      1: Step Time =    1.000,"PART-1-1",           477,       8.68427,      -17.7513,            0.,NA,NA,"",   205.246E-03,  -204.352E-03,   19.1320E-03,   8.34818E-03
C:/temp/dataset/6/28_18.odb,Step-1,Increment      1: Step Time =    1.000,"PART-1-1",           478,       8.96140,      -18.9835,            0.,NA,NA,"",   165.483E-03,  -163.769E-03,   23.7589E-03,   7.80892E-03
C:/temp/dataset/6/28_18.odb,Step-1,Increment      1: Step Time =    1.000,"PART-1-1",           479,       10.1295,      -18.4868,            0.,NA,NA,"",   190.953E-03,  -184.003E-03,   51.0474E-03,   8.12525E-03
C:/temp/dataset/6/28_18.odb,Step-1,Increment      1: Step Time =    1.000,"PART-1-1",           480,       11.2436,      -18.3856,            0.,NA,NA,"",   206.957E-03,  -191.916E-03,   77.4566E-03,   8.78464E-03
C:/temp/dataset/6/28_18.odb,Step-1,Increment      1: Step Time =    1.000,"PART-1-1",           481,       12.3956,      -19.2305,            0.,NA,NA,"",   198.016E-03,  -171.395E-03,   99.1685E-03,   10.1503E-03
C:/temp/dataset/6/28_18.odb,Step-1,Increment      1: Step Time =    1.000,"PART-1-1",           482,       13.1120,      -18.1414,            0.,NA,NA,"",   243.986E-03,  -208.659E-03,   126.453E-03,   10.5404E-03
C:/temp/dataset/6/28_18.odb,Step-1,Increment      1: Step Time =    1.000,"PART-1-1",           483,       11.9600,      -17.2965,            0.,NA,NA,"",   253.170E-03,  -231.777E-03,   101.855E-03,   9.11640E-03
C:/temp/dataset/6/28_18.odb,Step-1,Increment      1: Step Time =    1.000,"PART-1-1",           484,       14.0024,      -3.77677,            0.,NA,NA,"",   770.002E-03,  -750.083E-03,   174.006E-03,   4.96137E-03
C:/temp/dataset/6/28_18.odb,Step-1,Increment      1: Step Time =    1.000,"PART-1-1",           485,       13.0359,      -4.87313,            0.,NA,NA,"",   734.627E-03,  -719.107E-03,   150.203E-03,   3.19922E-03
C:/temp/dataset/6/28_18.odb,Step-1,Increment      1: Step Time =    1.000,"PART-1-1",           486,       14.0335,      -5.94012,            0.,NA,NA,"",   707.527E-03,  -682.990E-03,   184.712E-03,   4.43701E-03
C:/temp/dataset/6/28_18.odb,Step-1,Increment      1: Step Time =    1.000,"PART-1-1",           487,           15.,      -4.84375,            0.,NA,NA,"",   746.441E-03,  -716.451E-03,   209.459E-03,   6.40044E-03
C:/temp/dataset/6/28_18.odb,Step-1,Increment      1: Step Time =    1.000,"PART-1-1",           488,       13.0510,      -7.01836,            0.,NA,NA,"",   664.707E-03,  -645.926E-03,   156.892E-03,   3.85121E-03
C:/temp/dataset/6/28_18.odb,Step-1,Increment      1: Step Time =    1.000,"PART-1-1",           489,       14.0175,      -8.10950,            0.,NA,NA,"",   634.008E-03,  -604.393E-03,   191.509E-03,   3.05475E-03
C:/temp/dataset/6/28_18.odb,Step-1,Increment      1: Step Time =    1.000,"PART-1-1",           490,           15.,      -7.03125,            0.,NA,NA,"",   680.896E-03,  -643.540E-03,   222.432E-03,   4.62462E-03
C:/temp/dataset/6/28_18.odb,Step-1,Increment      1: Step Time =    1.000,"PART-1-1",           491,         13.75,            5.,            0.,NA,NA,"",   957.548E-03,  -946.100E-03,   147.629E-03,   317.551E-06
C:/temp/dataset/6/28_18.odb,Step-1,Increment      1: Step Time =    1.000,"PART-1-1",           492,       12.4982,       3.90020,            0.,NA,NA,"",   928.578E-03,  -920.931E-03,   118.929E-03,   1.62075E-03
C:/temp/dataset/6/28_18.odb,Step-1,Increment      1: Step Time =    1.000,"PART-1-1",           493,       13.7482,       2.80645,            0.,NA,NA,"",   910.927E-03,  -898.748E-03,   148.458E-03,   1.54348E-03
C:/temp/dataset/6/28_18.odb,Step-1,Increment      1: Step Time =    1.000,"PART-1-1",           494,           15.,       3.90625,            0.,NA,NA,"",   938.928E-03,  -922.353E-03,   175.641E-03,   277.566E-06
C:/temp/dataset/6/28_18.odb,Step-1,Increment      1: Step Time =    1.000,"PART-1-1",           495,         11.25,            5.,            0.,NA,NA,"",   947.553E-03,  -943.268E-03,   90.0150E-03,   2.36757E-03
C:/temp/dataset/6/28_18.odb,Step-1,Increment      1: Step Time =    1.000,"PART-1-1",           496,       11.2740,       2.82937,            0.,NA,NA,"",   901.942E-03,  -897.495E-03,   89.4535E-03,   3.31998E-03
C:/temp/dataset/6/28_18.odb,Step-1,Increment      1: Step Time =    1.000,"PART-1-1",           497,       11.1422,   446.578E-03,            0.,NA,NA,"",   856.011E-03,  -851.596E-03,   86.8224E-03,   3.92166E-03
C:/temp/dataset/6/28_18.odb,Step-1,Increment      1: Step Time =    1.000,"PART-1-1",           498,       10.2035,  -836.101E-03,            0.,NA,NA,"",   829.003E-03,  -826.547E-03,   63.7651E-03,   3.57348E-03
C:/temp/dataset/6/28_18.odb,Step-1,Increment      1: Step Time =    1.000,"PART-1-1",           499,       11.7017,      -1.82731,            0.,NA,NA,"",   810.247E-03,  -803.478E-03,   104.517E-03,   3.30794E-03
C:/temp/dataset/6/28_18.odb,Step-1,Increment      1: Step Time =    1.000,"PART-1-1",           500,       12.5035,       1.67834,            0.,NA,NA,"",   883.981E-03,  -875.814E-03,   119.888E-03,   3.28180E-03
C:/temp/dataset/6/28_18.odb,Step-1,Increment      1: Step Time =    1.000,"PART-1-1",           501,       9.91277,       1.59761,            0.,NA,NA,"",   874.420E-03,  -872.612E-03,   56.1964E-03,   3.90623E-03
C:/temp/dataset/6/28_18.odb,Step-1,Increment      1: Step Time =    1.000,"PART-1-1",           502,       5.19643,       3.92738,            0.,NA,NA,"",   897.441E-03,  -896.902E-03,  -31.0900E-03,   5.45493E-03
C:/temp/dataset/6/28_18.odb,Step-1,Increment      1: Step Time =    1.000,"PART-1-1",           503,          3.75,            5.,            0.,NA,NA,"",   902.332E-03,  -901.243E-03,  -44.3285E-03,   6.89604E-03
C:/temp/dataset/6/28_18.odb,Step-1,Increment      1: Step Time =    1.000,"PART-1-1",           504,       2.66615,       3.61346,            0.,NA,NA,"",   884.885E-03,  -883.102E-03,  -56.1400E-03,   4.23852E-03
C:/temp/dataset/6/28_18.odb,Step-1,Increment      1: Step Time =    1.000,"PART-1-1",           505,      -1.00804,       2.95894,            0.,NA,NA,"",   875.412E-03,  -872.912E-03,  -66.1173E-03,   4.69722E-03
C:/temp/dataset/6/28_18.odb,Step-1,Increment      1: Step Time =    1.000,"PART-1-1",           506,   87.8012E-03,       3.95476,            0.,NA,NA,"",   881.951E-03,  -879.537E-03,  -65.2112E-03,   2.92035E-03
C:/temp/dataset/6/28_18.odb,Step-1,Increment      1: Step Time =    1.000,"PART-1-1",           507,         -1.25,            5.,            0.,NA,NA,"",   884.043E-03,  -881.555E-03,  -66.2773E-03,   488.956E-06
C:/temp/dataset/6/28_18.odb,Step-1,Increment      1: Step Time =    1.000,"PART-1-1",           508,      -2.34584,       4.00418,            0.,NA,NA,"",   882.426E-03,  -879.943E-03,  -66.1490E-03,   2.91245E-03
C:/temp/dataset/6/28_18.odb,Step-1,Increment      1: Step Time =    1.000,"PART-1-1",           509,      -3.27281,       2.96378,            0.,NA,NA,"",   878.289E-03,  -875.867E-03,  -65.1766E-03,   4.33244E-03
C:/temp/dataset/6/28_18.odb,Step-1,Increment      1: Step Time =    1.000,"PART-1-1",           510,         -3.75,            5.,            0.,NA,NA,"",   888.905E-03,  -886.308E-03,  -67.8973E-03,   4.53892E-03
C:/temp/dataset/6/28_18.odb,Step-1,Increment      1: Step Time =    1.000,"PART-1-1",           511,      -4.67697,       3.95960,            0.,NA,NA,"",   887.399E-03,  -884.850E-03,  -67.2107E-03,   4.21565E-03
C:/temp/dataset/6/28_18.odb,Step-1,Increment      1: Step Time =    1.000,"PART-1-1",           512,      -7.93004,       8.58536,            0.,NA,NA,"",   934.088E-03,  -929.619E-03,  -91.2684E-03,   204.142E-06
C:/temp/dataset/6/28_18.odb,Step-1,Increment      1: Step Time =    1.000,"PART-1-1",           513,      -8.65034,       7.25415,            0.,NA,NA,"",   924.635E-03,  -919.599E-03,  -96.3722E-03,   885.457E-06
C:/temp/dataset/6/28_18.odb,Step-1,Increment      1: Step Time =    1.000,"PART-1-1",           514,      -7.51010,       6.50150,            0.,NA,NA,"",   916.914E-03,  -912.716E-03,  -87.6405E-03,   1.21170E-03
C:/temp/dataset/6/28_18.odb,Step-1,Increment      1: Step Time =    1.000,"PART-1-1",           515,      -6.78981,       7.83270,            0.,NA,NA,"",   927.125E-03,  -923.442E-03,  -82.5565E-03,   479.064E-06
C:/temp/dataset/6/28_18.odb,Step-1,Increment      1: Step Time =    1.000,"PART-1-1",           516,      -7.08495,       12.0475,            0.,NA,NA,"",   959.361E-03,  -955.593E-03,  -84.9365E-03,   78.5011E-06
C:/temp/dataset/6/28_18.odb,Step-1,Increment      1: Step Time =    1.000,"PART-1-1",           517,      -6.02998,       11.1050,            0.,NA,NA,"",   951.746E-03,  -948.629E-03,  -76.9592E-03,   98.7376E-06
C:/temp/dataset/6/28_18.odb,Step-1,Increment      1: Step Time =    1.000,"PART-1-1",           518,           -5.,       12.2917,            0.,NA,NA,"",   959.923E-03,  -957.410E-03,  -69.4054E-03,   116.569E-06
C:/temp/dataset/6/28_18.odb,Step-1,Increment      1: Step Time =    1.000,"PART-1-1",           519,      -6.05497,       13.2342,            0.,NA,NA,"",   967.448E-03,  -964.353E-03,  -77.3120E-03,   54.1690E-06
C:/temp/dataset/6/28_18.odb,Step-1,Increment      1: Step Time =    1.000,"PART-1-1",           520,      -9.96524,       21.0498,            0.,NA,NA,"",       1.02718,      -1.02166,  -106.362E-03,   2.45693E-06
C:/temp/dataset/6/28_18.odb,Step-1,Increment      1: Step Time =    1.000,"PART-1-1",           521,      -8.51702,       20.1362,            0.,NA,NA,"",       1.01948,      -1.01498,  -95.6841E-03,   2.98229E-06
C:/temp/dataset/6/28_18.odb,Step-1,Increment      1: Step Time =    1.000,"PART-1-1",           522,      -8.09442,       21.6565,            0.,NA,NA,"",       1.03034,      -1.02617,  -92.6150E-03,   1.35394E-06
C:/temp/dataset/6/28_18.odb,Step-1,Increment      1: Step Time =    1.000,"PART-1-1",           523,      -9.54264,       22.5701,            0.,NA,NA,"",       1.03801,      -1.03285,  -103.293E-03,   584.249E-09
C:/temp/dataset/6/28_18.odb,Step-1,Increment      1: Step Time =    1.000,"PART-1-1",           524,      -7.38593,       19.0122,            0.,NA,NA,"",       1.01053,      -1.00675,  -87.3327E-03,   6.98608E-06
C:/temp/dataset/6/28_18.odb,Step-1,Increment      1: Step Time =    1.000,"PART-1-1",           525,      -6.14460,       17.5723,            0.,NA,NA,"",   999.265E-03,  -996.203E-03,  -78.1576E-03,   7.29473E-06
C:/temp/dataset/6/28_18.odb,Step-1,Increment      1: Step Time =    1.000,"PART-1-1",           526,           -5.,       18.5417,            0.,NA,NA,"",       1.00578,      -1.00336,  -69.7701E-03,   3.64592E-06
C:/temp/dataset/6/28_18.odb,Step-1,Increment      1: Step Time =    1.000,"PART-1-1",           527,      -9.12859,       24.1056,            0.,NA,NA,"",       1.04897,      -1.04416,  -100.289E-03,   254.228E-09
C:/temp/dataset/6/28_18.odb,Step-1,Increment      1: Step Time =    1.000,"PART-1-1",           528,      -7.82088,       23.2603,            0.,NA,NA,"",       1.04193,      -1.03798,  -90.6461E-03,   242.448E-09
C:/temp/dataset/6/28_18.odb,Step-1,Increment      1: Step Time =    1.000,"PART-1-1",           529,      -7.11221,       24.6459,            0.,NA,NA,"",       1.05167,      -1.04819,  -85.4706E-03,   199.337E-09
C:/temp/dataset/6/28_18.odb,Step-1,Increment      1: Step Time =    1.000,"PART-1-1",           530,      -8.41993,       25.4912,            0.,NA,NA,"",       1.05865,      -1.05437,  -95.1133E-03,   198.506E-09
C:/temp/dataset/6/28_18.odb,Step-1,Increment      1: Step Time =    1.000,"PART-1-1",           531,           -5.,       28.9583,            0.,NA,NA,"",       1.08224,      -1.07997,  -70.0491E-03,   31.4223E-09
C:/temp/dataset/6/28_18.odb,Step-1,Increment      1: Step Time =    1.000,"PART-1-1",           532,         -6.25,           30.,            0.,NA,NA,"",       1.09049,      -1.08760,  -79.2728E-03,   32.1507E-09
C:/temp/dataset/6/28_18.odb,Step-1,Increment      1: Step Time =    1.000,"PART-1-1",           533,      -6.22481,       27.8751,            0.,NA,NA,"",       1.07488,      -1.07197,  -79.0301E-03,   113.697E-09
C:/temp/dataset/6/28_18.odb,Step-1,Increment      1: Step Time =    1.000,"PART-1-1",           534,      -11.1386,       27.5393,            0.,NA,NA,"",       1.07555,      -1.06937,  -115.169E-03,   147.669E-09
C:/temp/dataset/6/28_18.odb,Step-1,Increment      1: Step Time =    1.000,"PART-1-1",           535,        -11.25,           30.,            0.,NA,NA,"",       1.09364,      -1.08747,  -116.055E-03,   144.723E-09
C:/temp/dataset/6/28_18.odb,Step-1,Increment      1: Step Time =    1.000,"PART-1-1",           536,      -13.1147,       13.7606,            0.,NA,NA,"",   976.469E-03,  -967.868E-03,  -129.321E-03,   50.0620E-06
C:/temp/dataset/6/28_18.odb,Step-1,Increment      1: Step Time =    1.000,"PART-1-1",           537,      -14.0658,       14.9906,            0.,NA,NA,"",   986.380E-03,  -976.913E-03,  -136.333E-03,   25.4505E-06
C:/temp/dataset/6/28_18.odb,Step-1,Increment      1: Step Time =    1.000,"PART-1-1",           538,          -15.,         13.75,            0.,NA,NA,"",   978.290E-03,  -967.764E-03,  -143.122E-03,   58.2678E-06
C:/temp/dataset/6/28_18.odb,Step-1,Increment      1: Step Time =    1.000,"PART-1-1",           539,      -9.42834,       18.6970,            0.,NA,NA,"",       1.00957,      -1.00437,  -102.355E-03,   9.28057E-06
C:/temp/dataset/6/28_18.odb,Step-1,Increment      1: Step Time =    1.000,"PART-1-1",           540,      -8.29725,       17.5730,            0.,NA,NA,"",       1.00057,  -996.143E-03,  -94.0063E-03,   11.9740E-06
C:/temp/dataset/6/28_18.odb,Step-1,Increment      1: Step Time =    1.000,"PART-1-1",           541,      -12.7588,       6.21303,            0.,NA,NA,"",   923.232E-03,  -914.523E-03,  -126.511E-03,   772.860E-06
C:/temp/dataset/6/28_18.odb,Step-1,Increment      1: Step Time =    1.000,"PART-1-1",           542,          -15.,          6.25,            0.,NA,NA,"",   925.706E-03,  -914.780E-03,  -141.804E-03,   60.5152E-06
C:/temp/dataset/6/28_18.odb,Step-1,Increment      1: Step Time =    1.000,"PART-1-1",           543,      -9.01063,       9.47069,            0.,NA,NA,"",   941.659E-03,  -936.402E-03,  -99.3583E-03,   143.303E-06
C:/temp/dataset/6/28_18.odb,Step-1,Increment      1: Step Time =    1.000,"PART-1-1",           544,      -10.0811,       10.4578,            0.,NA,NA,"",   949.787E-03,  -943.714E-03,  -107.235E-03,   84.3466E-06
C:/temp/dataset/6/28_18.odb,Step-1,Increment      1: Step Time =    1.000,"PART-1-1",           545,      -10.9384,       9.05000,            0.,NA,NA,"",   940.344E-03,  -933.471E-03,  -113.487E-03,   168.486E-06
C:/temp/dataset/6/28_18.odb,Step-1,Increment      1: Step Time =    1.000,"PART-1-1",           546,      -9.86794,       8.06293,            0.,NA,NA,"",   932.140E-03,  -926.144E-03,  -105.561E-03,   307.522E-06
C:/temp/dataset/6/28_18.odb,Step-1,Increment      1: Step Time =    1.000,"PART-1-1",           547,      -7.23366,       1.29985,            0.,NA,NA,"",   880.478E-03,  -877.373E-03,  -73.8898E-03,   4.95245E-03
C:/temp/dataset/6/28_18.odb,Step-1,Increment      1: Step Time =    1.000,"PART-1-1",           548,      -8.34685,   784.410E-03,            0.,NA,NA,"",   882.974E-03,  -879.272E-03,  -80.7619E-03,   6.02393E-03
C:/temp/dataset/6/28_18.odb,Step-1,Increment      1: Step Time =    1.000,"PART-1-1",           549,      -7.43977,  -685.632E-03,            0.,NA,NA,"",   871.820E-03,  -869.327E-03,  -65.8887E-03,   7.50825E-03
C:/temp/dataset/6/28_18.odb,Step-1,Increment      1: Step Time =    1.000,"PART-1-1",           550,      -12.4903,      -8.57964,            0.,NA,NA,"",   762.133E-03,  -743.981E-03,  -165.348E-03,   7.82482E-03
C:/temp/dataset/6/28_18.odb,Step-1,Increment      1: Step Time =    1.000,"PART-1-1",           551,          -15.,         -8.75,            0.,NA,NA,"",   765.389E-03,  -724.374E-03,  -247.190E-03,   13.5653E-03
C:/temp/dataset/6/28_18.odb,Step-1,Increment      1: Step Time =    1.000,"PART-1-1",           552,      -13.5658,      -9.92286,            0.,NA,NA,"",   715.986E-03,  -685.635E-03,  -206.252E-03,   8.95156E-03
C:/temp/dataset/6/28_18.odb,Step-1,Increment      1: Step Time =    1.000,"PART-1-1",           553,      -11.9783,      -7.15971,            0.,NA,NA,"",   806.023E-03,  -793.026E-03,  -144.161E-03,   6.97657E-03
C:/temp/dataset/6/28_18.odb,Step-1,Increment      1: Step Time =    1.000,"PART-1-1",           554,      -11.8960,      -5.22799,            0.,NA,NA,"",   848.016E-03,  -837.535E-03,  -132.917E-03,   6.60785E-03
C:/temp/dataset/6/28_18.odb,Step-1,Increment      1: Step Time =    1.000,"PART-1-1",           555,      -12.4565,      -16.3452,            0.,NA,NA,"",   394.765E-03,  -362.604E-03,  -156.071E-03,   12.7663E-03
C:/temp/dataset/6/28_18.odb,Step-1,Increment      1: Step Time =    1.000,"PART-1-1",           556,          -15.,        -16.25,            0.,NA,NA,"",   456.638E-03,  -375.018E-03,  -260.538E-03,   9.73284E-03
C:/temp/dataset/6/28_18.odb,Step-1,Increment      1: Step Time =    1.000,"PART-1-1",           557,      -13.7435,      -17.5611,            0.,NA,NA,"",   363.208E-03,  -308.102E-03,  -192.336E-03,   12.2541E-03
C:/temp/dataset/6/28_18.odb,Step-1,Increment      1: Step Time =    1.000,"PART-1-1",           558,      -9.99221,      -8.41662,            0.,NA,NA,"",   768.859E-03,  -762.818E-03,  -96.1912E-03,   9.67905E-03
C:/temp/dataset/6/28_18.odb,Step-1,Increment      1: Step Time =    1.000,"PART-1-1",           559,      -11.4633,      -9.12095,            0.,NA,NA,"",   740.566E-03,  -727.612E-03,  -137.911E-03,   9.02689E-03
C:/temp/dataset/6/28_18.odb,Step-1,Increment      1: Step Time =    1.000,"PART-1-1",           560,      -10.8070,      -10.1141,            0.,NA,NA,"",   697.577E-03,  -687.044E-03,  -120.768E-03,   11.8395E-03
C:/temp/dataset/6/28_18.odb,Step-1,Increment      1: Step Time =    1.000,"PART-1-1",           561,      -13.9189,      -24.9166,            0.,NA,NA,"",   114.446E-03,  -73.2778E-03,  -87.9109E-03,   18.7039E-03
C:/temp/dataset/6/28_18.odb,Step-1,Increment      1: Step Time =    1.000,"PART-1-1",           562,      -12.9076,      -23.6273,            0.,NA,NA,"",   126.924E-03,  -92.1396E-03,  -87.2919E-03,   15.0685E-03
C:/temp/dataset/6/28_18.odb,Step-1,Increment      1: Step Time =    1.000,"PART-1-1",           563,          -15.,        -23.75,            0.,NA,NA,"",   169.387E-03,  -106.559E-03,  -131.670E-03,   21.9555E-03
C:/temp/dataset/6/28_18.odb,Step-1,Increment      1: Step Time =    1.000,"PART-1-1",           564,          -15.,        -28.75,            0.,NA,NA,"",   38.8549E-03,  -26.0147E-03,  -28.8607E-03,   25.2844E-03
C:/temp/dataset/6/28_18.odb,Step-1,Increment      1: Step Time =    1.000,"PART-1-1",           565,        -13.75,          -30.,            0.,NA,NA,"",            0.,   48.9305E-42,  -30.6323E-39,   20.3862E-03
C:/temp/dataset/6/28_18.odb,Step-1,Increment      1: Step Time =    1.000,"PART-1-1",           566,      -13.7642,      -27.4123,            0.,NA,NA,"",   52.8454E-03,  -31.5908E-03,  -42.3633E-03,   19.3473E-03
C:/temp/dataset/6/28_18.odb,Step-1,Increment      1: Step Time =    1.000,"PART-1-1",           567,            5.,      -6.25625,            0.,NA,NA,"",   681.517E-03,  -676.561E-03,  -82.0425E-03,   17.9954E-03
C:/temp/dataset/6/28_18.odb,Step-1,Increment      1: Step Time =    1.000,"PART-1-1",           568,       7.03347,      -6.11658,            0.,NA,NA,"",   689.777E-03,  -689.590E-03,  -16.0598E-03,   9.42520E-03
C:/temp/dataset/6/28_18.odb,Step-1,Increment      1: Step Time =    1.000,"PART-1-1",           569,       6.04361,      -4.83741,            0.,NA,NA,"",   746.467E-03,  -745.454E-03,  -38.8726E-03,   16.3789E-03
C:/temp/dataset/6/28_18.odb,Step-1,Increment      1: Step Time =    1.000,"PART-1-1",           570,           15.,      -2.65625,            0.,NA,NA,"",   802.092E-03,  -777.957E-03,   195.281E-03,   6.15302E-03
C:/temp/dataset/6/28_18.odb,Step-1,Increment      1: Step Time =    1.000,"PART-1-1",           571,       12.8875,      -2.72454,            0.,NA,NA,"",   792.354E-03,  -780.086E-03,   138.895E-03,   3.20122E-03
C:/temp/dataset/6/28_18.odb,Step-1,Increment      1: Step Time =    1.000,"PART-1-1",           572,       10.0248,      -7.91896,            0.,NA,NA,"",   616.352E-03,  -612.728E-03,   66.7371E-03,   7.72472E-03
C:/temp/dataset/6/28_18.odb,Step-1,Increment      1: Step Time =    1.000,"PART-1-1",           573,       8.98203,      -8.99604,            0.,NA,NA,"",   568.109E-03,  -567.048E-03,   34.6907E-03,   8.56202E-03
C:/temp/dataset/6/28_18.odb,Step-1,Increment      1: Step Time =    1.000,"PART-1-1",           574,       9.98204,      -10.2112,            0.,NA,NA,"",   520.228E-03,  -516.331E-03,   63.5611E-03,   8.13268E-03
C:/temp/dataset/6/28_18.odb,Step-1,Increment      1: Step Time =    1.000,"PART-1-1",           575,            5.,      -11.2813,            0.,NA,NA,"",   475.376E-03,  -462.514E-03,  -109.831E-03,   1.89803E-03
C:/temp/dataset/6/28_18.odb,Step-1,Increment      1: Step Time =    1.000,"PART-1-1",           576,       6.96001,      -11.3098,            0.,NA,NA,"",   465.872E-03,  -464.530E-03,  -35.3357E-03,   5.42083E-03
C:/temp/dataset/6/28_18.odb,Step-1,Increment      1: Step Time =    1.000,"PART-1-1",           577,       12.1169,      -5.93459,            0.,NA,NA,"",   696.960E-03,  -685.492E-03,   125.911E-03,   3.96176E-03
C:/temp/dataset/6/28_18.odb,Step-1,Increment      1: Step Time =    1.000,"PART-1-1",           578,       11.1088,      -6.97100,            0.,NA,NA,"",   656.514E-03,  -649.164E-03,   97.9627E-03,   5.69492E-03
C:/temp/dataset/6/28_18.odb,Step-1,Increment      1: Step Time =    1.000,"PART-1-1",           579,           15.,      -11.4063,            0.,NA,NA,"",   526.705E-03,  -473.416E-03,   230.857E-03,   2.78206E-03
C:/temp/dataset/6/28_18.odb,Step-1,Increment      1: Step Time =    1.000,"PART-1-1",           580,       13.9991,      -10.3053,            0.,NA,NA,"",   551.812E-03,  -516.815E-03,   193.386E-03,   3.00636E-03
C:/temp/dataset/6/28_18.odb,Step-1,Increment      1: Step Time =    1.000,"PART-1-1",           581,       12.9941,      -11.4223,            0.,NA,NA,"",   494.532E-03,  -468.923E-03,   157.077E-03,   6.06930E-03
C:/temp/dataset/6/28_18.odb,Step-1,Increment      1: Step Time =    1.000,"PART-1-1",           582,           15.,      -9.21875,            0.,NA,NA,"",   606.579E-03,  -561.137E-03,   230.355E-03,   1.31984E-03
C:/temp/dataset/6/28_18.odb,Step-1,Increment      1: Step Time =    1.000,"PART-1-1",           583,       9.25975,      -25.9916,            0.,NA,NA,"",   32.7379E-03,  -31.2355E-03,   9.80365E-03,   4.12894E-03
C:/temp/dataset/6/28_18.odb,Step-1,Increment      1: Step Time =    1.000,"PART-1-1",           584,       7.97004,      -27.0667,            0.,NA,NA,"",   21.1187E-03,  -21.0477E-03,   1.73027E-03,   4.17767E-03
C:/temp/dataset/6/28_18.odb,Step-1,Increment      1: Step Time =    1.000,"PART-1-1",           585,       9.98268,      -20.3187,            0.,NA,NA,"",   135.831E-03,  -129.892E-03,   39.7267E-03,   7.20986E-03
C:/temp/dataset/6/28_18.odb,Step-1,Increment      1: Step Time =    1.000,"PART-1-1",           586,       8.47236,      -19.9740,            0.,NA,NA,"",   133.112E-03,  -132.622E-03,   11.4179E-03,   6.81181E-03
C:/temp/dataset/6/28_18.odb,Step-1,Increment      1: Step Time =    1.000,"PART-1-1",           587,       7.80775,      -21.2882,            0.,NA,NA,"",   99.2427E-03,  -99.2154E-03,  -2.32864E-03,   4.32314E-03
C:/temp/dataset/6/28_18.odb,Step-1,Increment      1: Step Time =    1.000,"PART-1-1",           588,       9.31806,      -21.6330,            0.,NA,NA,"",   99.4456E-03,  -96.9702E-03,   22.0502E-03,   4.64649E-03
C:/temp/dataset/6/28_18.odb,Step-1,Increment      1: Step Time =    1.000,"PART-1-1",           589,          3.75,          -20.,            0.,NA,NA,"",   99.7263E-03,  -97.3391E-03,  -21.6894E-03,   13.7081E-03
C:/temp/dataset/6/28_18.odb,Step-1,Increment      1: Step Time =    1.000,"PART-1-1",           590,       2.69482,      -20.9389,            0.,NA,NA,"",   94.7971E-03,  -93.4060E-03,  -16.1806E-03,   5.63662E-03
C:/temp/dataset/6/28_18.odb,Step-1,Increment      1: Step Time =    1.000,"PART-1-1",           591,       4.10336,      -21.5712,            0.,NA,NA,"",   98.3890E-03,  -94.2732E-03,  -28.1596E-03,   11.3739E-03
C:/temp/dataset/6/28_18.odb,Step-1,Increment      1: Step Time =    1.000,"PART-1-1",           592,       5.15854,      -20.6323,            0.,NA,NA,"",   112.879E-03,  -105.399E-03,  -40.4082E-03,   16.4753E-03
C:/temp/dataset/6/28_18.odb,Step-1,Increment      1: Step Time =    1.000,"PART-1-1",           593,          1.25,          -20.,            0.,NA,NA,"",   87.6848E-03,  -87.5477E-03,  -4.90022E-03,   971.857E-06
C:/temp/dataset/6/28_18.odb,Step-1,Increment      1: Step Time =    1.000,"PART-1-1",           594,       1.58638,      -22.3782,            0.,NA,NA,"",   86.3864E-03,  -86.0561E-03,  -7.54634E-03,   9.08001E-03
C:/temp/dataset/6/28_18.odb,Step-1,Increment      1: Step Time =    1.000,"PART-1-1",           595,      -7.18878,      -21.5166,            0.,NA,NA,"",   119.543E-03,  -118.644E-03,   14.6367E-03,   7.98277E-03
C:/temp/dataset/6/28_18.odb,Step-1,Increment      1: Step Time =    1.000,"PART-1-1",           596,      -8.69544,      -20.4918,            0.,NA,NA,"",   160.373E-03,  -159.108E-03,  -20.1016E-03,   10.9148E-03
C:/temp/dataset/6/28_18.odb,Step-1,Increment      1: Step Time =    1.000,"PART-1-1",           597,      -9.53108,      -21.9939,            0.,NA,NA,"",   120.095E-03,  -115.888E-03,  -31.5089E-03,   7.65021E-03
C:/temp/dataset/6/28_18.odb,Step-1,Increment      1: Step Time =    1.000,"PART-1-1",           598,      -8.02442,      -23.0186,            0.,NA,NA,"",   85.8100E-03,  -85.8099E-03,   109.455E-06,   3.74142E-03
C:/temp/dataset/6/28_18.odb,Step-1,Increment      1: Step Time =    1.000,"PART-1-1",           599,           -5.,      -18.7437,            0.,NA,NA,"",   244.223E-03,  -228.738E-03,   85.5776E-03,   25.0000E-03
C:/temp/dataset/6/28_18.odb,Step-1,Increment      1: Step Time =    1.000,"PART-1-1",           600,      -6.23242,      -17.5731,            0.,NA,NA,"",   289.234E-03,  -285.356E-03,   47.2040E-03,   11.1716E-03
C:/temp/dataset/6/28_18.odb,Step-1,Increment      1: Step Time =    1.000,"PART-1-1",           601,      -7.41830,      -18.9573,            0.,NA,NA,"",   213.138E-03,  -213.062E-03,   5.70291E-03,   14.1623E-03
C:/temp/dataset/6/28_18.odb,Step-1,Increment      1: Step Time =    1.000,"PART-1-1",           602,      -6.18588,      -20.1280,            0.,NA,NA,"",   156.657E-03,  -152.476E-03,   35.9529E-03,   19.5487E-03
C:/temp/dataset/6/28_18.odb,Step-1,Increment      1: Step Time =    1.000,"PART-1-1",           603,           -5.,      -16.2312,            0.,NA,NA,"",   382.459E-03,  -365.100E-03,   113.916E-03,   6.82619E-03
C:/temp/dataset/6/28_18.odb,Step-1,Increment      1: Step Time =    1.000,"PART-1-1",           604,      -7.44257,      -16.3835,            0.,NA,NA,"",   349.691E-03,  -349.637E-03,   6.17092E-03,   13.4345E-03
C:/temp/dataset/6/28_18.odb,Step-1,Increment      1: Step Time =    1.000,"PART-1-1",           605,      -12.6830,      -26.0788,            0.,NA,NA,"",   66.4685E-03,  -43.9705E-03,  -49.8463E-03,   14.9836E-03
C:/temp/dataset/6/28_18.odb,Step-1,Increment      1: Step Time =    1.000,"PART-1-1",           606,          -15.,        -26.25,            0.,NA,NA,"",   102.208E-03,  -60.7714E-03,  -82.1791E-03,   22.5910E-03
C:/temp/dataset/6/28_18.odb,Step-1,Increment      1: Step Time =    1.000,"PART-1-1",           607,         -8.75,          -30.,            0.,NA,NA,"",            0.,  -1.07255E-39,  -5.95681E-39,   3.33504E-03
C:/temp/dataset/6/28_18.odb,Step-1,Increment      1: Step Time =    1.000,"PART-1-1",           608,          -15.,        -18.75,            0.,NA,NA,"",   347.594E-03,  -263.168E-03,  -227.078E-03,   16.6587E-03
C:/temp/dataset/6/28_18.odb,Step-1,Increment      1: Step Time =    1.000,"PART-1-1",           609,      -12.5734,      -18.8685,            0.,NA,NA,"",   280.351E-03,  -244.304E-03,  -137.522E-03,   12.9994E-03
C:/temp/dataset/6/28_18.odb,Step-1,Increment      1: Step Time =    1.000,"PART-1-1",           610,           -5.,      -11.2063,            0.,NA,NA,"",   641.083E-03,  -633.338E-03,   99.3476E-03,   9.43738E-03
C:/temp/dataset/6/28_18.odb,Step-1,Increment      1: Step Time =    1.000,"PART-1-1",           611,      -7.25264,      -11.4522,            0.,NA,NA,"",   625.223E-03,  -625.200E-03,  -5.39632E-03,   15.0439E-03
C:/temp/dataset/6/28_18.odb,Step-1,Increment      1: Step Time =    1.000,"PART-1-1",           612,           -5.,      -6.23750,            0.,NA,NA,"",   860.130E-03,  -860.092E-03,   8.06478E-03,   27.3752E-03
C:/temp/dataset/6/28_18.odb,Step-1,Increment      1: Step Time =    1.000,"PART-1-1",           613,      -6.16987,      -5.46941,            0.,NA,NA,"",   860.255E-03,  -860.176E-03,  -11.7003E-03,   16.2864E-03
C:/temp/dataset/6/28_18.odb,Step-1,Increment      1: Step Time =    1.000,"PART-1-1",           614,      -7.24309,      -6.98789,            0.,NA,NA,"",   830.566E-03,  -830.168E-03,  -25.7045E-03,   13.1579E-03
C:/temp/dataset/6/28_18.odb,Step-1,Increment      1: Step Time =    1.000,"PART-1-1",           615,           -5.,       16.4583,            0.,NA,NA,"",   990.504E-03,  -988.048E-03,  -69.7023E-03,   15.6170E-06
C:/temp/dataset/6/28_18.odb,Step-1,Increment      1: Step Time =    1.000,"PART-1-1",           616,      -7.23328,       16.4840,            0.,NA,NA,"",   991.927E-03,  -988.180E-03,  -86.1434E-03,   22.1591E-06
C:/temp/dataset/6/28_18.odb,Step-1,Increment      1: Step Time =    1.000,"PART-1-1",           617,      -6.08867,       15.3700,            0.,NA,NA,"",   983.107E-03,  -980.034E-03,  -77.6686E-03,   22.1182E-06
C:/temp/dataset/6/28_18.odb,Step-1,Increment      1: Step Time =    1.000,"PART-1-1",           618,      -13.1522,       16.1892,            0.,NA,NA,"",   994.263E-03,  -985.771E-03,  -129.671E-03,   22.5867E-06
C:/temp/dataset/6/28_18.odb,Step-1,Increment      1: Step Time =    1.000,"PART-1-1",           619,      -14.0864,       17.4486,            0.,NA,NA,"",       1.00436,  -995.027E-03,  -136.577E-03,   7.16434E-06
C:/temp/dataset/6/28_18.odb,Step-1,Increment      1: Step Time =    1.000,"PART-1-1",           620,          -15.,         16.25,            0.,NA,NA,"",   996.526E-03,  -986.175E-03,  -143.259E-03,   17.0394E-06
C:/temp/dataset/6/28_18.odb,Step-1,Increment      1: Step Time =    1.000,"PART-1-1",           621,           -5.,       24.7917,            0.,NA,NA,"",       1.05165,      -1.04932,  -69.9371E-03,   466.390E-09
C:/temp/dataset/6/28_18.odb,Step-1,Increment      1: Step Time =    1.000,"PART-1-1",           622,      -6.14442,       25.7689,            0.,NA,NA,"",       1.05938,      -1.05648,  -78.3818E-03,   216.267E-09
C:/temp/dataset/6/28_18.odb,Step-1,Increment      1: Step Time =    1.000,"PART-1-1",           623,           -5.,        26.875,            0.,NA,NA,"",       1.06694,      -1.06464,  -69.9929E-03,   188.613E-09
C:/temp/dataset/6/28_18.odb,Step-1,Increment      1: Step Time =    1.000,"PART-1-1",           624,      -7.36924,       26.7689,            0.,NA,NA,"",       1.06739,      -1.06380,  -87.4189E-03,   217.531E-09
C:/temp/dataset/6/28_18.odb,Step-1,Increment      1: Step Time =    1.000,"PART-1-1",           625,      -13.1175,       20.9132,            0.,NA,NA,"",       1.02875,      -1.02056,  -129.548E-03,   1.68456E-06
C:/temp/dataset/6/28_18.odb,Step-1,Increment      1: Step Time =    1.000,"PART-1-1",           626,      -14.0212,       22.2867,            0.,NA,NA,"",       1.03961,      -1.03065,  -136.235E-03,   375.001E-09
C:/temp/dataset/6/28_18.odb,Step-1,Increment      1: Step Time =    1.000,"PART-1-1",           627,          -15.,         21.25,            0.,NA,NA,"",       1.03299,      -1.02299,  -143.409E-03,   420.891E-09
C:/temp/dataset/6/28_18.odb,Step-1,Increment      1: Step Time =    1.000,"PART-1-1",           628,      -14.0963,       19.8765,            0.,NA,NA,"",       1.02209,      -1.01291,  -136.721E-03,   1.32753E-06
C:/temp/dataset/6/28_18.odb,Step-1,Increment      1: Step Time =    1.000,"PART-1-1",           629,         -1.25,           -5.,            0.,NA,NA,"",   830.076E-03,  -828.403E-03,  -52.6662E-03,   8.88627E-03
C:/temp/dataset/6/28_18.odb,Step-1,Increment      1: Step Time =    1.000,"PART-1-1",           630,      -1.77292,      -3.03732,            0.,NA,NA,"",   835.042E-03,  -833.030E-03,  -57.9373E-03,   5.81545E-03
C:/temp/dataset/6/28_18.odb,Step-1,Increment      1: Step Time =    1.000,"PART-1-1",           631,      -12.1053,      -2.30059,            0.,NA,NA,"",   879.908E-03,  -870.715E-03,  -126.859E-03,   6.82727E-03
C:/temp/dataset/6/28_18.odb,Step-1,Increment      1: Step Time =    1.000,"PART-1-1",           632,      -10.7648,      -1.40855,            0.,NA,NA,"",   882.674E-03,  -876.464E-03,  -104.518E-03,   6.84480E-03
C:/temp/dataset/6/28_18.odb,Step-1,Increment      1: Step Time =    1.000,"PART-1-1",           633,      -11.5438,  -354.672E-03,            0.,NA,NA,"",   889.405E-03,  -881.817E-03,  -115.930E-03,   5.72010E-03
C:/temp/dataset/6/28_18.odb,Step-1,Increment      1: Step Time =    1.000,"PART-1-1",           634,          3.75,           -5.,            0.,NA,NA,"",   776.385E-03,  -774.736E-03,  -50.5794E-03,   21.5368E-03
C:/temp/dataset/6/28_18.odb,Step-1,Increment      1: Step Time =    1.000,"PART-1-1",           635,       4.52066,      -3.83856,            0.,NA,NA,"",   780.757E-03,  -778.530E-03,  -58.9316E-03,   16.9699E-03
C:/temp/dataset/6/28_18.odb,Step-1,Increment      1: Step Time =    1.000,"PART-1-1",           636,       2.94662,      -2.72704,            0.,NA,NA,"",   807.908E-03,  -805.622E-03,  -60.7293E-03,   8.72966E-03
C:/temp/dataset/6/28_18.odb,Step-1,Increment      1: Step Time =    1.000,"PART-1-1",           637,       1.50395,       2.56821,            0.,NA,NA,"",   873.047E-03,  -870.772E-03,  -62.9849E-03,   4.32302E-03
C:/temp/dataset/6/28_18.odb,Step-1,Increment      1: Step Time =    1.000,"PART-1-1",           638,          1.25,            5.,            0.,NA,NA,"",   889.712E-03,  -887.641E-03,  -60.6673E-03,   4.35813E-03
C:/temp/dataset/6/28_18.odb,Step-1,Increment      1: Step Time =    1.000,"PART-1-1",           639,          6.25,            5.,            0.,NA,NA,"",   918.741E-03,  -918.654E-03,  -12.6843E-03,   7.22038E-03
C:/temp/dataset/6/28_18.odb,Step-1,Increment      1: Step Time =    1.000,"PART-1-1",           640,  -213.968E-03,      -26.0734,            0.,NA,NA,"",   50.5722E-03,  -50.4192E-03,   3.93050E-03,   10.5257E-03
C:/temp/dataset/6/28_18.odb,Step-1,Increment      1: Step Time =    1.000,"PART-1-1",           641,       1.14210,      -23.8512,            0.,NA,NA,"",   74.6815E-03,  -74.6274E-03,  -2.84244E-03,   10.3368E-03
C:/temp/dataset/6/28_18.odb,Step-1,Increment      1: Step Time =    1.000,"PART-1-1",           642,  -234.527E-03,      -23.9674,            0.,NA,NA,"",   75.1269E-03,  -74.9626E-03,   4.96603E-03,   10.6165E-03
C:/temp/dataset/6/28_18.odb,Step-1,Increment      1: Step Time =    1.000,"PART-1-1",           643,           -5.,        14.375,            0.,NA,NA,"",   975.231E-03,  -972.745E-03,  -69.5998E-03,   48.9771E-06
C:/temp/dataset/6/28_18.odb,Step-1,Increment      1: Step Time =    1.000,"PART-1-1",           644,      -7.14364,       14.2292,            0.,NA,NA,"",   975.379E-03,  -971.631E-03,  -85.4253E-03,   49.1518E-06
C:/temp/dataset/6/28_18.odb,Step-1,Increment      1: Step Time =    1.000,"PART-1-1",           645,           -5.,       6.04167,            0.,NA,NA,"",   909.807E-03,  -907.267E-03,  -67.9371E-03,   1.99290E-03
C:/temp/dataset/6/28_18.odb,Step-1,Increment      1: Step Time =    1.000,"PART-1-1",           646,      -5.82078,       6.95384,            0.,NA,NA,"",   918.780E-03,  -915.718E-03,  -74.9513E-03,   670.177E-06
C:/temp/dataset/6/28_18.odb,Step-1,Increment      1: Step Time =    1.000,"PART-1-1",           647,      -6.45742,       5.85906,            0.,NA,NA,"",   909.142E-03,  -905.635E-03,  -79.7778E-03,   2.22620E-03
C:/temp/dataset/6/28_18.odb,Step-1,Increment      1: Step Time =    1.000,"PART-1-1",           648,      -5.63664,       4.94688,            0.,NA,NA,"",   897.623E-03,  -894.630E-03,  -73.2497E-03,   4.04828E-03
C:/temp/dataset/6/28_18.odb,Step-1,Increment      1: Step Time =    1.000,"PART-1-1",           649,           -5.,         8.125,            0.,NA,NA,"",   928.313E-03,  -925.799E-03,  -68.2616E-03,   344.764E-06
C:/temp/dataset/6/28_18.odb,Step-1,Increment      1: Step Time =    1.000,"PART-1-1",           650,      -5.96903,       9.00386,            0.,NA,NA,"",   935.872E-03,  -932.763E-03,  -76.2212E-03,   158.560E-06
C:/temp/dataset/6/28_18.odb,Step-1,Increment      1: Step Time =    1.000,"PART-1-1",           651,          -15.,         -3.75,            0.,NA,NA,"",   865.407E-03,  -846.222E-03,  -181.211E-03,   12.2496E-03
C:/temp/dataset/6/28_18.odb,Step-1,Increment      1: Step Time =    1.000,"PART-1-1",           652,      -12.7846,      -3.59401,            0.,NA,NA,"",   869.439E-03,  -857.492E-03,  -143.638E-03,   7.37214E-03
C:/temp/dataset/6/28_18.odb,Step-1,Increment      1: Step Time =    1.000,"PART-1-1",           653,      -11.5430,      -4.20540,            0.,NA,NA,"",   862.414E-03,  -853.825E-03,  -121.408E-03,   6.67773E-03
C:/temp/dataset/6/28_18.odb,Step-1,Increment      1: Step Time =    1.000,"PART-1-1",           654,      -10.1018,      -4.29084,            0.,NA,NA,"",   861.475E-03,  -856.649E-03,  -91.0575E-03,   7.54742E-03
C:/temp/dataset/6/28_18.odb,Step-1,Increment      1: Step Time =    1.000,"PART-1-1",           655,          -15.,        -11.25,            0.,NA,NA,"",   676.674E-03,  -620.205E-03,  -270.619E-03,   7.51891E-03
C:/temp/dataset/6/28_18.odb,Step-1,Increment      1: Step Time =    1.000,"PART-1-1",           656,      -12.2331,      -11.1785,            0.,NA,NA,"",   653.381E-03,  -632.178E-03,  -165.098E-03,   10.9399E-03
C:/temp/dataset/6/28_18.odb,Step-1,Increment      1: Step Time =    1.000,"PART-1-1",           657,       5.21391,      -1.02834,            0.,NA,NA,"",   826.515E-03,  -825.485E-03,  -41.2468E-03,   4.55435E-03
C:/temp/dataset/6/28_18.odb,Step-1,Increment      1: Step Time =    1.000,"PART-1-1",           658,       6.72319,      -1.59046,            0.,NA,NA,"",   815.197E-03,  -814.993E-03,  -18.2172E-03,   4.38252E-03
C:/temp/dataset/6/28_18.odb,Step-1,Increment      1: Step Time =    1.000,"PART-1-1",           659,       10.9187,      -16.2245,            0.,NA,NA,"",   278.762E-03,  -267.254E-03,   79.2680E-03,   8.73074E-03
C:/temp/dataset/6/28_18.odb,Step-1,Increment      1: Step Time =    1.000,"PART-1-1",           660,       11.9858,      -14.8752,            0.,NA,NA,"",   343.077E-03,  -323.359E-03,   114.633E-03,   8.34985E-03
C:/temp/dataset/6/28_18.odb,Step-1,Increment      1: Step Time =    1.000,"PART-1-1",           661,       10.9746,      -13.7451,            0.,NA,NA,"",   377.438E-03,  -367.008E-03,   88.1190E-03,   8.55905E-03
C:/temp/dataset/6/28_18.odb,Step-1,Increment      1: Step Time =    1.000,"PART-1-1",           662,       11.9830,      -12.5543,            0.,NA,NA,"",   436.572E-03,  -419.233E-03,   121.817E-03,   7.57239E-03
C:/temp/dataset/6/28_18.odb,Step-1,Increment      1: Step Time =    1.000,"PART-1-1",           663,           15.,      -20.1563,            0.,NA,NA,"",   223.036E-03,  -161.948E-03,   153.355E-03,   16.1463E-03
C:/temp/dataset/6/28_18.odb,Step-1,Increment      1: Step Time =    1.000,"PART-1-1",           664,       14.0841,      -19.1367,            0.,NA,NA,"",   232.479E-03,  -183.618E-03,   142.586E-03,   13.3232E-03
C:/temp/dataset/6/28_18.odb,Step-1,Increment      1: Step Time =    1.000,"PART-1-1",           665,       13.0385,      -20.2889,            0.,NA,NA,"",   179.400E-03,  -145.725E-03,   104.635E-03,   11.3884E-03
C:/temp/dataset/6/28_18.odb,Step-1,Increment      1: Step Time =    1.000,"PART-1-1",           666,           15.,      -17.9688,            0.,NA,NA,"",   290.275E-03,  -225.389E-03,   182.919E-03,   14.1927E-03
C:/temp/dataset/6/28_18.odb,Step-1,Increment      1: Step Time =    1.000,"PART-1-1",           667,          1.25,          -30.,            0.,NA,NA,"",            0.,  -8.43299E-39,   862.206E-42,   8.39549E-03
C:/temp/dataset/6/28_18.odb,Step-1,Increment      1: Step Time =    1.000,"PART-1-1",           668,       3.30543,      -22.6598,            0.,NA,NA,"",   85.6033E-03,  -83.5798E-03,  -18.5023E-03,   11.0203E-03
C:/temp/dataset/6/28_18.odb,Step-1,Increment      1: Step Time =    1.000,"PART-1-1",           669,       2.86115,      -24.1329,            0.,NA,NA,"",   69.7025E-03,  -68.7147E-03,  -11.6928E-03,   10.9710E-03
C:/temp/dataset/6/28_18.odb,Step-1,Increment      1: Step Time =    1.000,"PART-1-1",           670,      -10.6801,      -21.6169,            0.,NA,NA,"",   145.193E-03,  -132.545E-03,  -59.2676E-03,   10.2846E-03
C:/temp/dataset/6/28_18.odb,Step-1,Increment      1: Step Time =    1.000,"PART-1-1",           671,      -11.3394,      -20.4213,            0.,NA,NA,"",   195.923E-03,  -175.952E-03,  -86.1801E-03,   11.8289E-03
C:/temp/dataset/6/28_18.odb,Step-1,Increment      1: Step Time =    1.000,"PART-1-1",           672,      -12.1593,      -22.4638,            0.,NA,NA,"",   144.243E-03,  -116.313E-03,  -85.3063E-03,   12.6964E-03
C:/temp/dataset/6/28_18.odb,Step-1,Increment      1: Step Time =    1.000,"PART-1-1",           673,      -9.92443,      -16.4516,            0.,NA,NA,"",   357.896E-03,  -350.096E-03,  -74.3124E-03,   15.6572E-03
C:/temp/dataset/6/28_18.odb,Step-1,Increment      1: Step Time =    1.000,"PART-1-1",           674,      -8.71114,      -17.7111,            0.,NA,NA,"",   283.142E-03,  -281.233E-03,  -32.8261E-03,   14.9833E-03
C:/temp/dataset/6/28_18.odb,Step-1,Increment      1: Step Time =    1.000,"PART-1-1",           675,      -9.25100,      -7.50767,            0.,NA,NA,"",   802.638E-03,  -799.099E-03,  -75.2982E-03,   8.53015E-03
C:/temp/dataset/6/28_18.odb,Step-1,Increment      1: Step Time =    1.000,"PART-1-1",           676,      -8.32615,      -6.25855,            0.,NA,NA,"",   838.882E-03,  -837.293E-03,  -51.6219E-03,   9.44593E-03
C:/temp/dataset/6/28_18.odb,Step-1,Increment      1: Step Time =    1.000,"PART-1-1",           677,      -7.58018,      -5.09368,            0.,NA,NA,"",   857.659E-03,  -856.808E-03,  -38.1878E-03,   12.9803E-03
C:/temp/dataset/6/28_18.odb,Step-1,Increment      1: Step Time =    1.000,"PART-1-1",           678,      -6.67379,      -3.84489,            0.,NA,NA,"",   858.073E-03,  -857.382E-03,  -34.4389E-03,   12.5654E-03
C:/temp/dataset/6/28_18.odb,Step-1,Increment      1: Step Time =    1.000,"PART-1-1",           679,      -2.40491,      -1.03021,            0.,NA,NA,"",   846.865E-03,  -844.719E-03,  -60.2608E-03,   7.10144E-03
C:/temp/dataset/6/28_18.odb,Step-1,Increment      1: Step Time =    1.000,"PART-1-1",           680,      -3.32453,      -2.14711,            0.,NA,NA,"",   843.356E-03,  -841.593E-03,  -54.5098E-03,   7.13935E-03
C:/temp/dataset/6/28_18.odb,Step-1,Increment      1: Step Time =    1.000,"PART-1-1",           681,       10.4745,      -24.8101,            0.,NA,NA,"",   53.6225E-03,  -47.3215E-03,   25.2201E-03,   6.06517E-03
C:/temp/dataset/6/28_18.odb,Step-1,Increment      1: Step Time =    1.000,"PART-1-1",           682,       8.16019,      -23.0435,            0.,NA,NA,"",   69.9575E-03,  -69.9189E-03,   2.32302E-03,   1.64258E-03
C:/temp/dataset/6/28_18.odb,Step-1,Increment      1: Step Time =    1.000,"PART-1-1",           683,       9.40124,      -23.8494,            0.,NA,NA,"",   61.3150E-03,  -59.0655E-03,   16.4558E-03,   3.50453E-03
C:/temp/dataset/6/28_18.odb,Step-1,Increment      1: Step Time =    1.000,"PART-1-1",           684,       5.67200,      -27.0943,            0.,NA,NA,"",   26.5521E-03,  -26.2171E-03,  -4.20448E-03,   6.82363E-03
C:/temp/dataset/6/28_18.odb,Step-1,Increment      1: Step Time =    1.000,"PART-1-1",           685,       4.86106,      -26.0050,            0.,NA,NA,"",   41.5304E-03,  -40.6683E-03,  -8.41803E-03,   8.25011E-03
C:/temp/dataset/6/28_18.odb,Step-1,Increment      1: Step Time =    1.000,"PART-1-1",           686,      -2.55341,      -23.8484,            0.,NA,NA,"",   80.3851E-03,  -78.0212E-03,   19.3509E-03,   12.7979E-03
C:/temp/dataset/6/28_18.odb,Step-1,Increment      1: Step Time =    1.000,"PART-1-1",           687,      -4.82130,      -23.8875,            0.,NA,NA,"",   77.7242E-03,  -73.6687E-03,   24.7786E-03,   11.7543E-03
C:/temp/dataset/6/28_18.odb,Step-1,Increment      1: Step Time =    1.000,"PART-1-1",           688,      -5.84083,      -25.1777,            0.,NA,NA,"",   53.9010E-03,  -51.6970E-03,   15.2555E-03,   8.37288E-03
C:/temp/dataset/6/28_18.odb,Step-1,Increment      1: Step Time =    1.000,"PART-1-1",           689,           15.,      -26.7188,            0.,NA,NA,"",   72.6982E-03,  -45.7798E-03,   56.4733E-03,   17.2885E-03
C:/temp/dataset/6/28_18.odb,Step-1,Increment      1: Step Time =    1.000,"PART-1-1",           690,       10.9874,      -11.4075,            0.,NA,NA,"",   475.476E-03,  -466.321E-03,   92.8553E-03,   8.21935E-03
C:/temp/dataset/6/28_18.odb,Step-1,Increment      1: Step Time =    1.000,"PART-1-1",           691,       7.29436,      -19.7763,            0.,NA,NA,"",   133.218E-03,  -132.809E-03,  -10.4388E-03,   8.04953E-03
C:/temp/dataset/6/28_18.odb,Step-1,Increment      1: Step Time =    1.000,"PART-1-1",           692,       7.78340,      -18.7858,            0.,NA,NA,"",   166.540E-03,  -166.534E-03,  -1.47339E-03,   8.56153E-03
C:/temp/dataset/6/28_18.odb,Step-1,Increment      1: Step Time =    1.000,"PART-1-1",           693,       10.8970,      -2.99004,            0.,NA,NA,"",   781.125E-03,  -776.492E-03,   84.9552E-03,   2.64846E-03
C:/temp/dataset/6/28_18.odb,Step-1,Increment      1: Step Time =    1.000,"PART-1-1",           694,       12.0828,      -3.88727,            0.,NA,NA,"",   759.581E-03,  -750.069E-03,   119.833E-03,   2.90464E-03
C:/temp/dataset/6/28_18.odb,Step-1,Increment      1: Step Time =    1.000,"PART-1-1",           695,           15.,       1.71875,            0.,NA,NA,"",   893.795E-03,  -875.995E-03,   177.488E-03,   1.85127E-03
C:/temp/dataset/6/28_18.odb,Step-1,Increment      1: Step Time =    1.000,"PART-1-1",           696,       4.00043,  -427.215E-03,            0.,NA,NA,"",   836.541E-03,  -834.893E-03,  -52.4846E-03,   5.01456E-03
C:/temp/dataset/6/28_18.odb,Step-1,Increment      1: Step Time =    1.000,"PART-1-1",           697,       2.09609,       1.00148,            0.,NA,NA,"",   856.520E-03,  -854.263E-03,  -62.1328E-03,   4.93990E-03
C:/temp/dataset/6/28_18.odb,Step-1,Increment      1: Step Time =    1.000,"PART-1-1",           698,       2.38138,  -554.063E-03,            0.,NA,NA,"",   837.913E-03,  -835.606E-03,  -62.1346E-03,   6.35673E-03
C:/temp/dataset/6/28_18.odb,Step-1,Increment      1: Step Time =    1.000,"PART-1-1",           699,   35.7305E-03,       2.11113,            0.,NA,NA,"",   868.526E-03,  -866.024E-03,  -65.8820E-03,   5.37520E-03
C:/temp/dataset/6/28_18.odb,Step-1,Increment      1: Step Time =    1.000,"PART-1-1",           700,           -5.,       10.2083,            0.,NA,NA,"",   944.401E-03,  -941.874E-03,  -69.0400E-03,   247.796E-06
C:/temp/dataset/6/28_18.odb,Step-1,Increment      1: Step Time =    1.000,"PART-1-1",           701,      -6.99901,       9.90050,            0.,NA,NA,"",   943.375E-03,  -939.605E-03,  -84.2468E-03,   79.3446E-06
C:/temp/dataset/6/28_18.odb,Step-1,Increment      1: Step Time =    1.000,"PART-1-1",           702,      -11.2396,       16.2208,            0.,NA,NA,"",   992.831E-03,  -986.074E-03,  -115.633E-03,   26.2420E-06
C:/temp/dataset/6/28_18.odb,Step-1,Increment      1: Step Time =    1.000,"PART-1-1",           703,      -10.2112,       15.1096,            0.,NA,NA,"",   983.896E-03,  -977.943E-03,  -108.072E-03,   35.5167E-06
C:/temp/dataset/6/28_18.odb,Step-1,Increment      1: Step Time =    1.000,"PART-1-1",           704,      -9.25876,       16.3324,            0.,NA,NA,"",   992.147E-03,  -986.986E-03,  -101.068E-03,   26.1907E-06
C:/temp/dataset/6/28_18.odb,Step-1,Increment      1: Step Time =    1.000,"PART-1-1",           705,      -10.2871,       17.4437,            0.,NA,NA,"",       1.00103,  -995.116E-03,  -108.649E-03,   13.7675E-06
C:/temp/dataset/6/28_18.odb,Step-1,Increment      1: Step Time =    1.000,"PART-1-1",           706,      -8.19479,       15.2434,            0.,NA,NA,"",   983.460E-03,  -979.032E-03,  -93.2135E-03,   31.7996E-06
C:/temp/dataset/6/28_18.odb,Step-1,Increment      1: Step Time =    1.000,"PART-1-1",           707,      -9.19446,       14.0222,            0.,NA,NA,"",   975.207E-03,  -970.004E-03,  -100.595E-03,   54.8673E-06
C:/temp/dataset/6/28_18.odb,Step-1,Increment      1: Step Time =    1.000,"PART-1-1",           708,      -8.14331,       13.0080,            0.,NA,NA,"",   967.078E-03,  -962.613E-03,  -92.8280E-03,   61.3139E-06
C:/temp/dataset/6/28_18.odb,Step-1,Increment      1: Step Time =    1.000,"PART-1-1",           709,          -15.,         18.75,            0.,NA,NA,"",       1.01476,      -1.00459,  -143.341E-03,   2.82492E-06
C:/temp/dataset/6/28_18.odb,Step-1,Increment      1: Step Time =    1.000,"PART-1-1",           710,      -13.1826,       18.5751,            0.,NA,NA,"",       1.01173,      -1.00335,  -129.963E-03,   7.31275E-06
C:/temp/dataset/6/28_18.odb,Step-1,Increment      1: Step Time =    1.000,"PART-1-1",           711,      -11.2313,       23.3702,            0.,NA,NA,"",       1.04512,      -1.03869,  -115.738E-03,   366.355E-09
C:/temp/dataset/6/28_18.odb,Step-1,Increment      1: Step Time =    1.000,"PART-1-1",           712,      -10.8173,       24.9058,            0.,NA,NA,"",       1.05604,      -1.05000,  -112.734E-03,   202.077E-09
C:/temp/dataset/6/28_18.odb,Step-1,Increment      1: Step Time =    1.000,"PART-1-1",           713,      -13.5418,       24.7667,            0.,NA,NA,"",       1.05727,      -1.04890,  -132.774E-03,   225.414E-09
C:/temp/dataset/6/28_18.odb,Step-1,Increment      1: Step Time =    1.000,"PART-1-1",           714,      -12.2278,       25.9824,            0.,NA,NA,"",       1.06503,      -1.05788,  -123.140E-03,   218.869E-09
C:/temp/dataset/6/28_18.odb,Step-1,Increment      1: Step Time =    1.000,"PART-1-1",           715,          -15.,         26.25,            0.,NA,NA,"",       1.06945,      -1.05978,  -143.542E-03,   257.676E-09
C:/temp/dataset/6/28_18.odb,Step-1,Increment      1: Step Time =    1.000,"PART-1-1",           716,          -15.,         23.75,            0.,NA,NA,"",       1.05122,      -1.04138,  -143.475E-03,   575.497E-09
C:/temp/dataset/6/28_18.odb,Step-1,Increment      1: Step Time =    1.000,"PART-1-1",           717,      -12.5630,       23.3034,            0.,NA,NA,"",       1.04573,      -1.03817,  -125.533E-03,   178.068E-09
C:/temp/dataset/6/28_18.odb,Step-1,Increment      1: Step Time =    1.000,"PART-1-1",           718,      -11.1827,       13.8735,            0.,NA,NA,"",   975.612E-03,  -968.786E-03,  -115.208E-03,   54.4009E-06
C:/temp/dataset/6/28_18.odb,Step-1,Increment      1: Step Time =    1.000,"PART-1-1",           719,      -10.1659,       12.7861,            0.,NA,NA,"",   966.871E-03,  -960.845E-03,  -107.774E-03,   68.2710E-06
C:/temp/dataset/6/28_18.odb,Step-1,Increment      1: Step Time =    1.000,"PART-1-1",           720,      -11.4858,       20.4947,            0.,NA,NA,"",       1.02429,      -1.01753,  -117.533E-03,   3.04761E-06
C:/temp/dataset/6/28_18.odb,Step-1,Increment      1: Step Time =    1.000,"PART-1-1",           721,      -10.4732,       19.7487,            0.,NA,NA,"",       1.01804,      -1.01207,  -110.066E-03,   4.14167E-06
C:/temp/dataset/6/28_18.odb,Step-1,Increment      1: Step Time =    1.000,"PART-1-1",           722,      -10.9778,       21.7959,            0.,NA,NA,"",       1.03341,      -1.02712,  -113.830E-03,   1.08733E-06
C:/temp/dataset/6/28_18.odb,Step-1,Increment      1: Step Time =    1.000,"PART-1-1",           723,      -9.13796,       11.7463,            0.,NA,NA,"",   958.514E-03,  -953.259E-03,  -100.235E-03,   75.8526E-06
C:/temp/dataset/6/28_18.odb,Step-1,Increment      1: Step Time =    1.000,"PART-1-1",           724,      -11.1090,       11.4975,            0.,NA,NA,"",   958.203E-03,  -951.311E-03,  -114.712E-03,   67.3703E-06
C:/temp/dataset/6/28_18.odb,Step-1,Increment      1: Step Time =    1.000,"PART-1-1",           725,      -7.95801,       5.48811,            0.,NA,NA,"",   909.618E-03,  -905.174E-03,  -89.8079E-03,   2.21526E-03
C:/temp/dataset/6/28_18.odb,Step-1,Increment      1: Step Time =    1.000,"PART-1-1",           726,      -9.27172,       5.51676,            0.,NA,NA,"",   912.986E-03,  -907.530E-03,  -99.6655E-03,   1.67273E-03
C:/temp/dataset/6/28_18.odb,Step-1,Increment      1: Step Time =    1.000,"PART-1-1",           727,      -9.10783,       4.19071,            0.,NA,NA,"",   903.882E-03,  -898.711E-03,  -96.5433E-03,   2.88537E-03
C:/temp/dataset/6/28_18.odb,Step-1,Increment      1: Step Time =    1.000,"PART-1-1",           728,      -7.79412,       4.16207,            0.,NA,NA,"",   899.481E-03,  -895.324E-03,  -86.3734E-03,   3.31334E-03
C:/temp/dataset/6/28_18.odb,Step-1,Increment      1: Step Time =    1.000,"PART-1-1",           729,      -10.3652,   710.465E-03,            0.,NA,NA,"",   890.647E-03,  -884.785E-03,  -102.017E-03,   5.56675E-03
C:/temp/dataset/6/28_18.odb,Step-1,Increment      1: Step Time =    1.000,"PART-1-1",           730,      -11.5756,       2.14983,            0.,NA,NA,"",   900.000E-03,  -892.438E-03,  -116.428E-03,   3.61836E-03
C:/temp/dataset/6/28_18.odb,Step-1,Increment      1: Step Time =    1.000,"PART-1-1",           731,      -10.9514,      -7.70102,            0.,NA,NA,"",   791.159E-03,  -782.078E-03,  -119.526E-03,   7.02343E-03
C:/temp/dataset/6/28_18.odb,Step-1,Increment      1: Step Time =    1.000,"PART-1-1",           732,      -11.1587,      -15.1039,            0.,NA,NA,"",   441.335E-03,  -424.722E-03,  -119.948E-03,   14.3411E-03
C:/temp/dataset/6/28_18.odb,Step-1,Increment      1: Step Time =    1.000,"PART-1-1",           733,      -11.0422,      -12.5823,            0.,NA,NA,"",   575.478E-03,  -561.619E-03,  -125.535E-03,   13.9972E-03
C:/temp/dataset/6/28_18.odb,Step-1,Increment      1: Step Time =    1.000,"PART-1-1",           734,      -9.98828,      -19.2456,            0.,NA,NA,"",   223.155E-03,  -215.067E-03,  -59.5329E-03,   12.9819E-03
C:/temp/dataset/6/28_18.odb,Step-1,Increment      1: Step Time =    1.000,"PART-1-1",           735,      -11.2222,      -17.6929,            0.,NA,NA,"",   310.067E-03,  -291.342E-03,  -106.119E-03,   13.9040E-03
C:/temp/dataset/6/28_18.odb,Step-1,Increment      1: Step Time =    1.000,"PART-1-1",           736,      -9.72809,       26.4627,            0.,NA,NA,"",       1.06664,      -1.06148,  -104.763E-03,   180.115E-09
C:/temp/dataset/6/28_18.odb,Step-1,Increment      1: Step Time =    1.000,"PART-1-1",           737,      -8.07960,       10.7858,            0.,NA,NA,"",   950.703E-03,  -946.203E-03,  -92.3914E-03,   78.6218E-06
C:/temp/dataset/6/28_18.odb,Step-1,Increment      1: Step Time =    1.000,"PART-1-1",           738,      -11.3320,       18.4953,            0.,NA,NA,"",       1.00955,      -1.00282,  -116.353E-03,   9.83916E-06
C:/temp/dataset/6/28_18.odb,Step-1,Increment      1: Step Time =    1.000,"PART-1-1",           739,      -10.4893,       6.32554,            0.,NA,NA,"",   920.810E-03,  -914.266E-03,  -109.587E-03,   1.15435E-03
C:/temp/dataset/6/28_18.odb,Step-1,Increment      1: Step Time =    1.000,"PART-1-1",           740,      -11.8356,       7.66802,            0.,NA,NA,"",   931.626E-03,  -923.879E-03,  -119.896E-03,   292.546E-06
C:/temp/dataset/6/28_18.odb,Step-1,Increment      1: Step Time =    1.000,"PART-1-1",           741,      -11.4125,       4.87054,            0.,NA,NA,"",   913.356E-03,  -905.953E-03,  -116.051E-03,   1.59567E-03
C:/temp/dataset/6/28_18.odb,Step-1,Increment      1: Step Time =    1.000,"PART-1-1",           742,       10.1911,      -5.79504,            0.,NA,NA,"",   697.053E-03,  -693.489E-03,   70.3975E-03,   5.60718E-03
C:/temp/dataset/6/28_18.odb,Step-1,Increment      1: Step Time =    1.000,"PART-1-1",           743,       9.10708,      -6.74300,            0.,NA,NA,"",   661.310E-03,  -660.074E-03,   40.4148E-03,   7.64990E-03
C:/temp/dataset/6/28_18.odb,Step-1,Increment      1: Step Time =    1.000,"PART-1-1",           744,       11.1638,      -4.94873,            0.,NA,NA,"",   726.119E-03,  -719.704E-03,   96.2994E-03,   3.43771E-03
C:/temp/dataset/6/28_18.odb,Step-1,Increment      1: Step Time =    1.000,"PART-1-1",           745,       10.4293,      -4.08570,            0.,NA,NA,"",   751.188E-03,  -747.515E-03,   74.1995E-03,   3.34277E-03
C:/temp/dataset/6/28_18.odb,Step-1,Increment      1: Step Time =    1.000,"PART-1-1",           746,       9.97038,      -14.8971,            0.,NA,NA,"",   322.371E-03,  -317.367E-03,   56.5755E-03,   8.26706E-03
C:/temp/dataset/6/28_18.odb,Step-1,Increment      1: Step Time =    1.000,"PART-1-1",           747,       9.96577,      -12.5508,            0.,NA,NA,"",   419.999E-03,  -415.693E-03,   59.9871E-03,   8.18734E-03
C:/temp/dataset/6/28_18.odb,Step-1,Increment      1: Step Time =    1.000,"PART-1-1",           748,       8.96159,      -13.7029,            0.,NA,NA,"",   366.389E-03,  -365.287E-03,   28.3885E-03,   7.97561E-03
C:/temp/dataset/6/28_18.odb,Step-1,Increment      1: Step Time =    1.000,"PART-1-1",           749,       6.92617,      -22.4012,            0.,NA,NA,"",   80.7105E-03,  -79.6516E-03,  -13.0310E-03,   3.97827E-03
C:/temp/dataset/6/28_18.odb,Step-1,Increment      1: Step Time =    1.000,"PART-1-1",           750,       5.94981,      -23.5281,            0.,NA,NA,"",   68.2609E-03,  -66.3286E-03,  -16.1264E-03,   7.22139E-03
C:/temp/dataset/6/28_18.odb,Step-1,Increment      1: Step Time =    1.000,"PART-1-1",           751,       7.18383,      -24.1705,            0.,NA,NA,"",   55.6115E-03,  -55.2895E-03,  -5.97519E-03,   4.24270E-03
C:/temp/dataset/6/28_18.odb,Step-1,Increment      1: Step Time =    1.000,"PART-1-1",           752,       11.0968,      -20.2176,            0.,NA,NA,"",   151.262E-03,  -137.562E-03,   62.9036E-03,   8.29310E-03
C:/temp/dataset/6/28_18.odb,Step-1,Increment      1: Step Time =    1.000,"PART-1-1",           753,       6.43355,      -20.8801,            0.,NA,NA,"",   105.630E-03,  -102.904E-03,  -23.8412E-03,   6.93309E-03
C:/temp/dataset/6/28_18.odb,Step-1,Increment      1: Step Time =    1.000,"PART-1-1",           754,       8.96045,      -11.3546,            0.,NA,NA,"",   466.611E-03,  -465.612E-03,   30.5214E-03,   8.12988E-03
C:/temp/dataset/6/28_18.odb,Step-1,Increment      1: Step Time =    1.000,"PART-1-1",           755,       8.17216,      -2.03287,            0.,NA,NA,"",   804.516E-03,  -804.404E-03,   13.3983E-03,   3.84037E-03
C:/temp/dataset/6/28_18.odb,Step-1,Increment      1: Step Time =    1.000,"PART-1-1",           756,       9.68046,      -2.49017,            0.,NA,NA,"",   793.015E-03,  -791.336E-03,   51.5809E-03,   3.45278E-03
C:/temp/dataset/6/28_18.odb,Step-1,Increment      1: Step Time =    1.000,"PART-1-1",           757,      -5.24373,       2.94722,            0.,NA,NA,"",   882.637E-03,  -879.994E-03,  -68.2488E-03,   3.25484E-03
C:/temp/dataset/6/28_18.odb,Step-1,Increment      1: Step Time =    1.000,"PART-1-1",           758,      -6.20341,       3.93450,            0.,NA,NA,"",   892.131E-03,  -888.978E-03,  -74.9356E-03,   3.77403E-03
C:/temp/dataset/6/28_18.odb,Step-1,Increment      1: Step Time =    1.000,"PART-1-1",           759,       7.87036,      -17.0650,            0.,NA,NA,"",   228.671E-03,  -228.667E-03,  -1.26250E-03,   8.18547E-03
C:/temp/dataset/6/28_18.odb,Step-1,Increment      1: Step Time =    1.000,"PART-1-1",           760,      -8.77165,      -4.61616,            0.,NA,NA,"",   858.845E-03,  -856.542E-03,  -62.8500E-03,   9.38300E-03
C:/temp/dataset/6/28_18.odb,Step-1,Increment      1: Step Time =    1.000,"PART-1-1",           761,       8.90402,      -15.9271,            0.,NA,NA,"",   275.428E-03,  -274.216E-03,   25.8122E-03,   8.26421E-03
C:/temp/dataset/6/28_18.odb,Step-1,Increment      1: Step Time =    1.000,"PART-1-1",           762,       7.94609,      -14.8939,            0.,NA,NA,"",   314.897E-03,  -314.889E-03,  -2.25915E-03,   6.71880E-03
C:/temp/dataset/6/28_18.odb,Step-1,Increment      1: Step Time =    1.000,"PART-1-1",           763,      -12.3095,       21.7291,            0.,NA,NA,"",       1.03401,      -1.02659,  -123.625E-03,   874.971E-09
C:/temp/dataset/6/28_18.odb,Step-1,Increment      1: Step Time =    1.000,"PART-1-1",           764,      -12.2938,       19.6789,            0.,NA,NA,"",       1.01901,      -1.01150,  -123.456E-03,   3.61820E-06
C:/temp/dataset/6/28_18.odb,Step-1,Increment      1: Step Time =    1.000,"PART-1-1",           765,       3.72209,      -1.78065,            0.,NA,NA,"",   818.047E-03,  -816.106E-03,  -56.3207E-03,   7.49734E-03
C:/temp/dataset/6/28_18.odb,Step-1,Increment      1: Step Time =    1.000,"PART-1-1",           766,       6.45852,      -3.38063,            0.,NA,NA,"",   780.583E-03,  -780.090E-03,  -27.7377E-03,   6.84420E-03
C:/temp/dataset/6/28_18.odb,Step-1,Increment      1: Step Time =    1.000,"PART-1-1",           767,       4.93556,      -2.38177,            0.,NA,NA,"",   804.570E-03,  -803.072E-03,  -49.0713E-03,   7.11002E-03
C:/temp/dataset/6/28_18.odb,Step-1,Increment      1: Step Time =    1.000,"PART-1-1",           768,      -2.94024,   945.156E-03,            0.,NA,NA,"",   862.927E-03,  -860.630E-03,  -62.9208E-03,   6.25333E-03
C:/temp/dataset/6/28_18.odb,Step-1,Increment      1: Step Time =    1.000,"PART-1-1",           769,      -1.69279,      -25.0756,            0.,NA,NA,"",   63.6959E-03,  -62.6201E-03,   11.6571E-03,   11.8776E-03
C:/temp/dataset/6/28_18.odb,Step-1,Increment      1: Step Time =    1.000,"PART-1-1",           770,      -6.93923,      -23.9860,            0.,NA,NA,"",   68.7268E-03,  -67.5505E-03,   12.6611E-03,   5.75793E-03
C:/temp/dataset/6/28_18.odb,Step-1,Increment      1: Step Time =    1.000,"PART-1-1",           771,      -5.91970,      -22.6959,            0.,NA,NA,"",   96.3098E-03,  -92.1176E-03,   28.1057E-03,   9.82154E-03
C:/temp/dataset/6/28_18.odb,Step-1,Increment      1: Step Time =    1.000,"PART-1-1",           772,      -12.2208,       17.3915,            0.,NA,NA,"",       1.00222,  -994.661E-03,  -122.862E-03,   12.3825E-06
C:/temp/dataset/6/28_18.odb,Step-1,Increment      1: Step Time =    1.000,"PART-1-1",           773,      -12.0398,       10.1961,            0.,NA,NA,"",   949.591E-03,  -941.790E-03,  -121.468E-03,   62.5239E-06
C:/temp/dataset/6/28_18.odb,Step-1,Increment      1: Step Time =    1.000,"PART-1-1",           774,      -10.8637,      -2.91198,            0.,NA,NA,"",   874.052E-03,  -867.619E-03,  -105.844E-03,   7.37452E-03
C:/temp/dataset/6/28_18.odb,Step-1,Increment      1: Step Time =    1.000,"PART-1-1",           775,      -9.61620,      -11.5179,            0.,NA,NA,"",   625.400E-03,  -619.746E-03,  -83.9084E-03,   15.1211E-03
C:/temp/dataset/6/28_18.odb,Step-1,Increment      1: Step Time =    1.000,"PART-1-1",           776,      -11.8201,      -24.5932,            0.,NA,NA,"",   85.0947E-03,  -65.2485E-03,  -54.6236E-03,   12.0184E-03
C:/temp/dataset/6/28_18.odb,Step-1,Increment      1: Step Time =    1.000,"PART-1-1",           777,      -11.0718,      -23.4296,            0.,NA,NA,"",   100.922E-03,  -86.3668E-03,  -52.2121E-03,   9.71251E-03
C:/temp/dataset/6/28_18.odb,Step-1,Increment      1: Step Time =    1.000,"PART-1-1",           778,       4.75405,      -23.0816,            0.,NA,NA,"",   78.1734E-03,  -75.1703E-03,  -21.4594E-03,   9.63929E-03
C:/temp/dataset/6/28_18.odb,Step-1,Increment      1: Step Time =    1.000,"PART-1-1",           779,       5.55198,      -21.9930,            0.,NA,NA,"",   90.6206E-03,  -86.7292E-03,  -26.2706E-03,   9.10700E-03
C:/temp/dataset/6/28_18.odb,Step-1,Increment      1: Step Time =    1.000,"PART-1-1",           780,       7.01336,      -26.0950,            0.,NA,NA,"",   33.1789E-03,  -33.0406E-03,  -3.02617E-03,   5.31583E-03
C:/temp/dataset/6/28_18.odb,Step-1,Increment      1: Step Time =    1.000,"PART-1-1",           781,       4.10189,      -23.9882,            0.,NA,NA,"",   68.7726E-03,  -66.7719E-03,  -16.4679E-03,   10.2576E-03
C:/temp/dataset/6/28_18.odb,Step-1,Increment      1: Step Time =    1.000,"PART-1-1",           782,       4.14804,      -25.2051,            0.,NA,NA,"",   53.5509E-03,  -52.3414E-03,  -11.3169E-03,   9.56300E-03
C:/temp/dataset/6/28_18.odb,Step-1,Increment      1: Step Time =    1.000,"PART-1-1",           783,      -12.1264,       12.6156,            0.,NA,NA,"",   967.212E-03,  -959.475E-03,  -122.098E-03,   62.7850E-06
C:/temp/dataset/6/28_18.odb,Step-1,Increment      1: Step Time =    1.000,"PART-1-1",           784,      -12.1709,       15.0185,            0.,NA,NA,"",   984.817E-03,  -977.175E-03,  -122.448E-03,   32.7775E-06
C:/temp/dataset/6/28_18.odb,Step-1,Increment      1: Step Time =    1.000,"PART-1-1",           785,      -10.3060,       3.43341,            0.,NA,NA,"",   903.030E-03,  -896.841E-03,  -105.542E-03,   3.20904E-03
C:/temp/dataset/6/28_18.odb,Step-1,Increment      1: Step Time =    1.000,"PART-1-1",           786,      -9.35047,  -311.861E-03,            0.,NA,NA,"",   882.657E-03,  -878.307E-03,  -87.5173E-03,   6.55356E-03
C:/temp/dataset/6/28_18.odb,Step-1,Increment      1: Step Time =    1.000,"PART-1-1",           787,      -9.47746,      -1.56252,            0.,NA,NA,"",   877.906E-03,  -873.790E-03,  -84.9076E-03,   8.01952E-03
C:/temp/dataset/6/28_18.odb,Step-1,Increment      1: Step Time =    1.000,"PART-1-1",           788,      -7.56677,      -1.93629,            0.,NA,NA,"",   867.263E-03,  -865.243E-03,  -59.1494E-03,   8.86260E-03
C:/temp/dataset/6/28_18.odb,Step-1,Increment      1: Step Time =    1.000,"PART-1-1",           789,      -9.57637,      -3.06595,            0.,NA,NA,"",   870.625E-03,  -866.746E-03,  -82.0978E-03,   8.01603E-03
C:/temp/dataset/6/28_18.odb,Step-1,Increment      1: Step Time =    1.000,"PART-1-1",           790,      -8.24618,      -3.39128,            0.,NA,NA,"",   865.490E-03,  -863.543E-03,  -58.0254E-03,   10.7758E-03
C:/temp/dataset/6/28_18.odb,Step-1,Increment      1: Step Time =    1.000,"PART-1-1",           791,       7.98922,      -7.69035,            0.,NA,NA,"",   621.366E-03,  -621.325E-03,   7.11895E-03,   9.46247E-03
C:/temp/dataset/6/28_18.odb,Step-1,Increment      1: Step Time =    1.000,"PART-1-1",           792,       7.96586,      -10.1263,            0.,NA,NA,"",   517.062E-03,  -517.062E-03,   614.046E-06,   7.49563E-03
C:/temp/dataset/6/28_18.odb,Step-1,Increment      1: Step Time =    1.000,"PART-1-1",           793,       7.95460,      -12.5381,            0.,NA,NA,"",   413.440E-03,  -413.432E-03,  -2.63359E-03,   6.43428E-03
C:/temp/dataset/6/28_18.odb,Step-1,Increment      1: Step Time =    1.000,"PART-1-1",           794,      -6.90534,       4.84567,            0.,NA,NA,"",   901.597E-03,  -897.914E-03,  -81.4177E-03,   3.17533E-03
C:/temp/dataset/6/28_18.odb,Step-1,Increment      1: Step Time =    1.000,"PART-1-1",           795,      -7.09219,       3.25090,            0.,NA,NA,"",   890.941E-03,  -887.420E-03,  -79.1296E-03,   3.75539E-03
C:/temp/dataset/6/28_18.odb,Step-1,Increment      1: Step Time =    1.000,"PART-1-1",           796,      -5.99438,      -2.38990,            0.,NA,NA,"",   855.786E-03,  -854.585E-03,  -45.3202E-03,   11.0469E-03
C:/temp/dataset/6/28_18.odb,Step-1,Increment      1: Step Time =    1.000,"PART-1-1",           797,      -8.16339,       2.56404,            0.,NA,NA,"",   891.145E-03,  -887.067E-03,  -85.1576E-03,   4.48415E-03
C:/temp/dataset/6/28_18.odb,Step-1,Increment      1: Step Time =    1.000,"PART-1-1",           798,      -6.16245,       1.98671,            0.,NA,NA,"",   879.823E-03,  -877.027E-03,  -70.0817E-03,   4.29479E-03
C:/temp/dataset/6/28_18.odb,Step-1,Increment      1: Step Time =    1.000,"PART-1-1",           799,      -9.36160,       1.80674,            0.,NA,NA,"",   891.942E-03,  -887.003E-03,  -93.7310E-03,   4.69198E-03
C:/temp/dataset/6/28_18.odb,Step-1,Increment      1: Step Time =    1.000,"PART-1-1",           800,      -4.18828,       1.89018,            0.,NA,NA,"",   872.922E-03,  -870.546E-03,  -64.3567E-03,   4.90333E-03
C:/temp/dataset/6/28_18.odb,Step-1,Increment      1: Step Time =    1.000,"PART-1-1",           801,      -2.02478,       2.01876,            0.,NA,NA,"",   869.565E-03,  -867.119E-03,  -65.1883E-03,   5.78169E-03
C:/temp/dataset/6/28_18.odb,Step-1,Increment      1: Step Time =    1.000,"PART-1-1",           802,       5.29765,      -24.4346,            0.,NA,NA,"",   59.0888E-03,  -57.3558E-03,  -14.2053E-03,   8.19979E-03
C:/temp/dataset/6/28_18.odb,Step-1,Increment      1: Step Time =    1.000,"PART-1-1",           803,       8.18651,      -25.0309,            0.,NA,NA,"",   43.2052E-03,  -43.1149E-03,   2.79237E-03,   2.98562E-03
C:/temp/dataset/6/28_18.odb,Step-1,Increment      1: Step Time =    1.000,"PART-1-1",           804,       6.01068,      -25.2345,            0.,NA,NA,"",   46.4826E-03,  -45.5762E-03,  -9.13481E-03,   6.89523E-03
