ODB Name,Step,Frame,Part Instance Name,    êﬂì_ÉâÉxÉã,X,Y,Z,Section Name,Material Name,Section Point,   U-Magnitude,          U-U1,          U-U2,       S-Mises
C:/temp/dataset/6/28_12.odb,Step-1,Increment      1: Step Time =    1.000,"PART-1-1",             1,            5.,           -5.,            0.,NA,NA,"",   502.588E-03,  -501.024E-03,  -39.6198E-03,   19.9286E-03
C:/temp/dataset/6/28_12.odb,Step-1,Increment      1: Step Time =    1.000,"PART-1-1",             2,            0.,           -5.,            0.,NA,NA,"",   550.504E-03,  -549.515E-03,  -32.9775E-03,   5.98547E-03
C:/temp/dataset/6/28_12.odb,Step-1,Increment      1: Step Time =    1.000,"PART-1-1",             3,            5.,      -10.0250,            0.,NA,NA,"",   353.340E-03,  -346.157E-03,  -70.8816E-03,   2.56704E-03
C:/temp/dataset/6/28_12.odb,Step-1,Increment      1: Step Time =    1.000,"PART-1-1",             4,            5.,      -15.0500,            0.,NA,NA,"",   219.012E-03,  -208.078E-03,  -68.3361E-03,   2.85436E-03
C:/temp/dataset/6/28_12.odb,Step-1,Increment      1: Step Time =    1.000,"PART-1-1",             5,            5.,          -20.,            0.,NA,NA,"",   82.1467E-03,  -76.4020E-03,  -30.1798E-03,   18.2276E-03
C:/temp/dataset/6/28_12.odb,Step-1,Increment      1: Step Time =    1.000,"PART-1-1",             6,            0.,          -20.,            0.,NA,NA,"",   60.1247E-03,  -60.1182E-03,   882.556E-06,   1.39959E-03
C:/temp/dataset/6/28_12.odb,Step-1,Increment      1: Step Time =    1.000,"PART-1-1",             7,           -5.,          -20.,            0.,NA,NA,"",   106.683E-03,  -99.2275E-03,   39.1825E-03,   24.2499E-03
C:/temp/dataset/6/28_12.odb,Step-1,Increment      1: Step Time =    1.000,"PART-1-1",             8,           -5.,      -14.9750,            0.,NA,NA,"",   298.545E-03,  -288.031E-03,   78.5297E-03,   1.19409E-03
C:/temp/dataset/6/28_12.odb,Step-1,Increment      1: Step Time =    1.000,"PART-1-1",             9,           -5.,      -9.95000,            0.,NA,NA,"",   482.756E-03,  -478.974E-03,   60.3126E-03,   11.5389E-03
C:/temp/dataset/6/28_12.odb,Step-1,Increment      1: Step Time =    1.000,"PART-1-1",            10,           -5.,           -5.,            0.,NA,NA,"",   575.945E-03,  -575.848E-03,  -10.5956E-03,   12.5830E-03
C:/temp/dataset/6/28_12.odb,Step-1,Increment      1: Step Time =    1.000,"PART-1-1",            11,           15.,          -30.,            0.,NA,NA,"",            0.,  -5.01321E-39,   8.90738E-39,   17.2590E-03
C:/temp/dataset/6/28_12.odb,Step-1,Increment      1: Step Time =    1.000,"PART-1-1",            12,          -15.,          -30.,            0.,NA,NA,"",            0.,  -6.26140E-39,  -11.1067E-39,   21.1432E-03
C:/temp/dataset/6/28_12.odb,Step-1,Increment      1: Step Time =    1.000,"PART-1-1",            13,           15.,        -21.25,            0.,NA,NA,"",   129.179E-03,  -90.3757E-03,   92.3014E-03,   11.2226E-03
C:/temp/dataset/6/28_12.odb,Step-1,Increment      1: Step Time =    1.000,"PART-1-1",            14,           15.,         -12.5,            0.,NA,NA,"",   325.834E-03,  -287.044E-03,   154.186E-03,   3.28025E-03
C:/temp/dataset/6/28_12.odb,Step-1,Increment      1: Step Time =    1.000,"PART-1-1",            15,           15.,         -3.75,            0.,NA,NA,"",   520.419E-03,  -501.775E-03,   138.047E-03,   4.56546E-03
C:/temp/dataset/6/28_12.odb,Step-1,Increment      1: Step Time =    1.000,"PART-1-1",            16,           15.,            5.,            0.,NA,NA,"",   645.808E-03,  -634.469E-03,   120.487E-03,   155.386E-06
C:/temp/dataset/6/28_12.odb,Step-1,Increment      1: Step Time =    1.000,"PART-1-1",            17,           10.,            5.,            0.,NA,NA,"",   631.780E-03,  -630.253E-03,   43.8995E-03,   2.58397E-03
C:/temp/dataset/6/28_12.odb,Step-1,Increment      1: Step Time =    1.000,"PART-1-1",            18,            5.,            5.,            0.,NA,NA,"",   610.681E-03,  -610.423E-03,  -17.7541E-03,   5.19817E-03
C:/temp/dataset/6/28_12.odb,Step-1,Increment      1: Step Time =    1.000,"PART-1-1",            19,            0.,            5.,            0.,NA,NA,"",   593.956E-03,  -592.589E-03,  -40.2713E-03,   1.82264E-03
C:/temp/dataset/6/28_12.odb,Step-1,Increment      1: Step Time =    1.000,"PART-1-1",            20,           -5.,            5.,            0.,NA,NA,"",   600.666E-03,  -599.122E-03,  -43.0400E-03,   3.90967E-03
C:/temp/dataset/6/28_12.odb,Step-1,Increment      1: Step Time =    1.000,"PART-1-1",            21,           -5.,         11.25,            0.,NA,NA,"",   638.375E-03,  -636.906E-03,  -43.2798E-03,   107.358E-06
C:/temp/dataset/6/28_12.odb,Step-1,Increment      1: Step Time =    1.000,"PART-1-1",            22,           -5.,          17.5,            0.,NA,NA,"",   669.047E-03,  -667.627E-03,  -43.5694E-03,   4.42950E-06
C:/temp/dataset/6/28_12.odb,Step-1,Increment      1: Step Time =    1.000,"PART-1-1",            23,           -5.,         23.75,            0.,NA,NA,"",   699.671E-03,  -698.309E-03,  -43.6465E-03,   422.441E-09
C:/temp/dataset/6/28_12.odb,Step-1,Increment      1: Step Time =    1.000,"PART-1-1",            24,           -5.,           30.,            0.,NA,NA,"",   730.315E-03,  -729.005E-03,  -43.7211E-03,   10.5290E-09
C:/temp/dataset/6/28_12.odb,Step-1,Increment      1: Step Time =    1.000,"PART-1-1",            25,          -10.,           30.,            0.,NA,NA,"",   732.136E-03,  -728.945E-03,  -68.2783E-03,   125.799E-09
C:/temp/dataset/6/28_12.odb,Step-1,Increment      1: Step Time =    1.000,"PART-1-1",            26,          -15.,           30.,            0.,NA,NA,"",   734.773E-03,  -728.885E-03,  -92.8363E-03,   13.0060E-09
C:/temp/dataset/6/28_12.odb,Step-1,Increment      1: Step Time =    1.000,"PART-1-1",            27,          -15.,          22.5,            0.,NA,NA,"",   698.234E-03,  -692.047E-03,  -92.7471E-03,   554.894E-09
C:/temp/dataset/6/28_12.odb,Step-1,Increment      1: Step Time =    1.000,"PART-1-1",            28,          -15.,           15.,            0.,NA,NA,"",   661.695E-03,  -655.179E-03,  -92.6316E-03,   19.3179E-06
C:/temp/dataset/6/28_12.odb,Step-1,Increment      1: Step Time =    1.000,"PART-1-1",            29,          -15.,           7.5,            0.,NA,NA,"",   625.918E-03,  -619.133E-03,  -91.9081E-03,   144.489E-06
C:/temp/dataset/6/28_12.odb,Step-1,Increment      1: Step Time =    1.000,"PART-1-1",            30,          -15.,            0.,            0.,NA,NA,"",   598.256E-03,  -590.130E-03,  -98.2694E-03,   3.53886E-03
C:/temp/dataset/6/28_12.odb,Step-1,Increment      1: Step Time =    1.000,"PART-1-1",            31,          -15.,          -7.5,            0.,NA,NA,"",   536.600E-03,  -514.741E-03,  -151.594E-03,   10.5589E-03
C:/temp/dataset/6/28_12.odb,Step-1,Increment      1: Step Time =    1.000,"PART-1-1",            32,          -15.,          -15.,            0.,NA,NA,"",   344.440E-03,  -293.587E-03,  -180.126E-03,   3.78225E-03
C:/temp/dataset/6/28_12.odb,Step-1,Increment      1: Step Time =    1.000,"PART-1-1",            33,          -15.,         -22.5,            0.,NA,NA,"",   139.708E-03,  -92.2446E-03,  -104.924E-03,   14.7624E-03
C:/temp/dataset/6/28_12.odb,Step-1,Increment      1: Step Time =    1.000,"PART-1-1",            34,           2.5,           -5.,            0.,NA,NA,"",   534.740E-03,  -533.750E-03,  -32.5111E-03,   9.11420E-03
C:/temp/dataset/6/28_12.odb,Step-1,Increment      1: Step Time =    1.000,"PART-1-1",            35,            5.,      -7.51250,            0.,NA,NA,"",   423.589E-03,  -418.780E-03,  -63.6438E-03,   7.89201E-03
C:/temp/dataset/6/28_12.odb,Step-1,Increment      1: Step Time =    1.000,"PART-1-1",            36,            5.,      -12.5375,            0.,NA,NA,"",   285.449E-03,  -275.996E-03,  -72.8516E-03,   144.022E-06
C:/temp/dataset/6/28_12.odb,Step-1,Increment      1: Step Time =    1.000,"PART-1-1",            37,            5.,      -17.5250,            0.,NA,NA,"",   155.173E-03,  -143.861E-03,  -58.1586E-03,   6.91803E-03
C:/temp/dataset/6/28_12.odb,Step-1,Increment      1: Step Time =    1.000,"PART-1-1",            38,           2.5,          -20.,            0.,NA,NA,"",   59.8881E-03,  -59.0741E-03,  -9.84054E-03,   5.20009E-03
C:/temp/dataset/6/28_12.odb,Step-1,Increment      1: Step Time =    1.000,"PART-1-1",            39,          -2.5,          -20.,            0.,NA,NA,"",   67.3847E-03,  -66.2235E-03,   12.4560E-03,   8.67187E-03
C:/temp/dataset/6/28_12.odb,Step-1,Increment      1: Step Time =    1.000,"PART-1-1",            40,           -5.,      -17.4875,            0.,NA,NA,"",   210.716E-03,  -197.758E-03,   72.7533E-03,   9.64737E-03
C:/temp/dataset/6/28_12.odb,Step-1,Increment      1: Step Time =    1.000,"PART-1-1",            41,           -5.,      -12.4625,            0.,NA,NA,"",   385.642E-03,  -378.488E-03,   73.9325E-03,   3.83194E-03
C:/temp/dataset/6/28_12.odb,Step-1,Increment      1: Step Time =    1.000,"PART-1-1",            42,           -5.,      -7.47500,            0.,NA,NA,"",   558.804E-03,  -558.068E-03,   28.6745E-03,   19.2879E-03
C:/temp/dataset/6/28_12.odb,Step-1,Increment      1: Step Time =    1.000,"PART-1-1",            43,          -2.5,           -5.,            0.,NA,NA,"",   563.313E-03,  -562.513E-03,  -30.0199E-03,   6.13037E-03
C:/temp/dataset/6/28_12.odb,Step-1,Increment      1: Step Time =    1.000,"PART-1-1",            44,          12.5,          -30.,            0.,NA,NA,"",            0.,  -5.20606E-39,   12.7356E-39,   5.82726E-03
C:/temp/dataset/6/28_12.odb,Step-1,Increment      1: Step Time =    1.000,"PART-1-1",            45,           10.,          -30.,            0.,NA,NA,"",            0.,   545.737E-42,   5.01186E-39,   3.40270E-03
C:/temp/dataset/6/28_12.odb,Step-1,Increment      1: Step Time =    1.000,"PART-1-1",            46,           7.5,          -30.,            0.,NA,NA,"",            0.,  -1.32011E-39,   774.698E-42,   2.12436E-03
C:/temp/dataset/6/28_12.odb,Step-1,Increment      1: Step Time =    1.000,"PART-1-1",            47,            5.,          -30.,            0.,NA,NA,"",            0.,  -3.86022E-39,   737.257E-42,   3.76321E-03
C:/temp/dataset/6/28_12.odb,Step-1,Increment      1: Step Time =    1.000,"PART-1-1",            48,           2.5,          -30.,            0.,NA,NA,"",            0.,  -5.55361E-39,   1.66391E-39,   5.33121E-03
C:/temp/dataset/6/28_12.odb,Step-1,Increment      1: Step Time =    1.000,"PART-1-1",            49,            0.,          -30.,            0.,NA,NA,"",            0.,  -5.14854E-39,  -2.06145E-39,   5.99523E-03
C:/temp/dataset/6/28_12.odb,Step-1,Increment      1: Step Time =    1.000,"PART-1-1",            50,          -2.5,          -30.,            0.,NA,NA,"",            0.,  -5.83832E-39,   5.57234E-39,   5.46205E-03
C:/temp/dataset/6/28_12.odb,Step-1,Increment      1: Step Time =    1.000,"PART-1-1",            51,           -5.,          -30.,            0.,NA,NA,"",            0.,  -3.78973E-39,   4.34796E-39,   3.71043E-03
C:/temp/dataset/6/28_12.odb,Step-1,Increment      1: Step Time =    1.000,"PART-1-1",            52,          -7.5,          -30.,            0.,NA,NA,"",            0.,  -877.388E-42,   182.090E-42,   1.53771E-03
C:/temp/dataset/6/28_12.odb,Step-1,Increment      1: Step Time =    1.000,"PART-1-1",            53,          -10.,          -30.,            0.,NA,NA,"",            0.,  -2.36604E-39,  -7.03925E-39,   3.76727E-03
C:/temp/dataset/6/28_12.odb,Step-1,Increment      1: Step Time =    1.000,"PART-1-1",            54,         -12.5,          -30.,            0.,NA,NA,"",            0.,  -2.92561E-39,  -14.3316E-39,   7.36896E-03
C:/temp/dataset/6/28_12.odb,Step-1,Increment      1: Step Time =    1.000,"PART-1-1",            55,           15.,      -23.4375,            0.,NA,NA,"",   93.2514E-03,  -61.3549E-03,   70.2239E-03,   11.3040E-03
C:/temp/dataset/6/28_12.odb,Step-1,Increment      1: Step Time =    1.000,"PART-1-1",            56,           15.,       -25.625,            0.,NA,NA,"",   62.3570E-03,  -39.3100E-03,   48.4058E-03,   11.0100E-03
C:/temp/dataset/6/28_12.odb,Step-1,Increment      1: Step Time =    1.000,"PART-1-1",            57,           15.,      -27.8125,            0.,NA,NA,"",   34.4486E-03,  -21.6899E-03,   26.7629E-03,   12.5826E-03
C:/temp/dataset/6/28_12.odb,Step-1,Increment      1: Step Time =    1.000,"PART-1-1",            58,           15.,      -14.6875,            0.,NA,NA,"",   271.312E-03,  -228.850E-03,   145.732E-03,   6.09680E-03
C:/temp/dataset/6/28_12.odb,Step-1,Increment      1: Step Time =    1.000,"PART-1-1",            59,           15.,       -16.875,            0.,NA,NA,"",   219.113E-03,  -174.998E-03,   131.857E-03,   8.60762E-03
C:/temp/dataset/6/28_12.odb,Step-1,Increment      1: Step Time =    1.000,"PART-1-1",            60,           15.,      -19.0625,            0.,NA,NA,"",   171.254E-03,  -128.254E-03,   113.485E-03,   10.4206E-03
C:/temp/dataset/6/28_12.odb,Step-1,Increment      1: Step Time =    1.000,"PART-1-1",            61,           15.,       -5.9375,            0.,NA,NA,"",   479.753E-03,  -456.566E-03,   147.346E-03,   4.04786E-03
C:/temp/dataset/6/28_12.odb,Step-1,Increment      1: Step Time =    1.000,"PART-1-1",            62,           15.,        -8.125,            0.,NA,NA,"",   432.549E-03,  -404.065E-03,   154.371E-03,   2.20749E-03
C:/temp/dataset/6/28_12.odb,Step-1,Increment      1: Step Time =    1.000,"PART-1-1",            63,           15.,      -10.3125,            0.,NA,NA,"",   380.413E-03,  -346.510E-03,   156.987E-03,   444.474E-06
C:/temp/dataset/6/28_12.odb,Step-1,Increment      1: Step Time =    1.000,"PART-1-1",            64,           15.,        2.8125,            0.,NA,NA,"",   614.660E-03,  -602.670E-03,   120.813E-03,   457.570E-06
C:/temp/dataset/6/28_12.odb,Step-1,Increment      1: Step Time =    1.000,"PART-1-1",            65,           15.,      625.E-03,            0.,NA,NA,"",   585.140E-03,  -572.007E-03,   123.276E-03,   2.02924E-03
C:/temp/dataset/6/28_12.odb,Step-1,Increment      1: Step Time =    1.000,"PART-1-1",            66,           15.,       -1.5625,            0.,NA,NA,"",   554.802E-03,  -539.533E-03,   129.264E-03,   3.71166E-03
C:/temp/dataset/6/28_12.odb,Step-1,Increment      1: Step Time =    1.000,"PART-1-1",            67,          12.5,            5.,            0.,NA,NA,"",   639.354E-03,  -633.984E-03,   82.6931E-03,   593.740E-06
C:/temp/dataset/6/28_12.odb,Step-1,Increment      1: Step Time =    1.000,"PART-1-1",            68,           7.5,            5.,            0.,NA,NA,"",   621.925E-03,  -621.863E-03,   8.79019E-03,   4.53127E-03
C:/temp/dataset/6/28_12.odb,Step-1,Increment      1: Step Time =    1.000,"PART-1-1",            69,           2.5,            5.,            0.,NA,NA,"",   600.437E-03,  -599.499E-03,  -33.5577E-03,   4.05228E-03
C:/temp/dataset/6/28_12.odb,Step-1,Increment      1: Step Time =    1.000,"PART-1-1",            70,          -2.5,            5.,            0.,NA,NA,"",   593.178E-03,  -591.703E-03,  -41.8052E-03,   1.24272E-03
C:/temp/dataset/6/28_12.odb,Step-1,Increment      1: Step Time =    1.000,"PART-1-1",            71,           -5.,       9.16667,            0.,NA,NA,"",   627.833E-03,  -626.362E-03,  -42.9512E-03,   245.840E-06
C:/temp/dataset/6/28_12.odb,Step-1,Increment      1: Step Time =    1.000,"PART-1-1",            72,           -5.,       7.08333,            0.,NA,NA,"",   616.262E-03,  -614.811E-03,  -42.2704E-03,   970.743E-06
C:/temp/dataset/6/28_12.odb,Step-1,Increment      1: Step Time =    1.000,"PART-1-1",            73,           -5.,       15.4167,            0.,NA,NA,"",   658.850E-03,  -657.410E-03,  -43.5282E-03,   16.3318E-06
C:/temp/dataset/6/28_12.odb,Step-1,Increment      1: Step Time =    1.000,"PART-1-1",            74,           -5.,       13.3333,            0.,NA,NA,"",   648.643E-03,  -647.186E-03,  -43.4473E-03,   49.1803E-06
C:/temp/dataset/6/28_12.odb,Step-1,Increment      1: Step Time =    1.000,"PART-1-1",            75,           -5.,       21.6667,            0.,NA,NA,"",   689.459E-03,  -688.078E-03,  -43.6223E-03,   629.626E-09
C:/temp/dataset/6/28_12.odb,Step-1,Increment      1: Step Time =    1.000,"PART-1-1",            76,           -5.,       19.5833,            0.,NA,NA,"",   679.251E-03,  -677.850E-03,  -43.5977E-03,   481.636E-09
C:/temp/dataset/6/28_12.odb,Step-1,Increment      1: Step Time =    1.000,"PART-1-1",            77,           -5.,       27.9167,            0.,NA,NA,"",   720.100E-03,  -718.773E-03,  -43.6959E-03,   51.2076E-09
C:/temp/dataset/6/28_12.odb,Step-1,Increment      1: Step Time =    1.000,"PART-1-1",            78,           -5.,       25.8333,            0.,NA,NA,"",   709.885E-03,  -708.540E-03,  -43.6710E-03,   201.421E-09
C:/temp/dataset/6/28_12.odb,Step-1,Increment      1: Step Time =    1.000,"PART-1-1",            79,          -7.5,           30.,            0.,NA,NA,"",   731.122E-03,  -728.975E-03,  -55.9996E-03,   59.4060E-09
C:/temp/dataset/6/28_12.odb,Step-1,Increment      1: Step Time =    1.000,"PART-1-1",            80,         -12.5,           30.,            0.,NA,NA,"",   733.353E-03,  -728.915E-03,  -80.5572E-03,   56.5120E-09
C:/temp/dataset/6/28_12.odb,Step-1,Increment      1: Step Time =    1.000,"PART-1-1",            81,          -15.,           25.,            0.,NA,NA,"",   710.411E-03,  -704.327E-03,  -92.7764E-03,   284.329E-09
C:/temp/dataset/6/28_12.odb,Step-1,Increment      1: Step Time =    1.000,"PART-1-1",            82,          -15.,          27.5,            0.,NA,NA,"",   722.590E-03,  -716.606E-03,  -92.8062E-03,   73.1365E-09
C:/temp/dataset/6/28_12.odb,Step-1,Increment      1: Step Time =    1.000,"PART-1-1",            83,          -15.,          17.5,            0.,NA,NA,"",   673.879E-03,  -667.475E-03,  -92.6846E-03,   3.65350E-06
C:/temp/dataset/6/28_12.odb,Step-1,Increment      1: Step Time =    1.000,"PART-1-1",            84,          -15.,           20.,            0.,NA,NA,"",   686.058E-03,  -679.764E-03,  -92.7179E-03,   304.996E-09
C:/temp/dataset/6/28_12.odb,Step-1,Increment      1: Step Time =    1.000,"PART-1-1",            85,          -15.,           10.,            0.,NA,NA,"",   637.485E-03,  -630.771E-03,  -92.2768E-03,   135.340E-06
C:/temp/dataset/6/28_12.odb,Step-1,Increment      1: Step Time =    1.000,"PART-1-1",            86,          -15.,          12.5,            0.,NA,NA,"",   649.526E-03,  -642.903E-03,  -92.5178E-03,   60.5976E-06
C:/temp/dataset/6/28_12.odb,Step-1,Increment      1: Step Time =    1.000,"PART-1-1",            87,          -15.,           2.5,            0.,NA,NA,"",   606.451E-03,  -599.251E-03,  -93.1690E-03,   1.32938E-03
C:/temp/dataset/6/28_12.odb,Step-1,Increment      1: Step Time =    1.000,"PART-1-1",            88,          -15.,            5.,            0.,NA,NA,"",   615.427E-03,  -608.542E-03,  -91.7995E-03,   211.554E-06
C:/temp/dataset/6/28_12.odb,Step-1,Increment      1: Step Time =    1.000,"PART-1-1",            89,          -15.,           -5.,            0.,NA,NA,"",   569.535E-03,  -554.876E-03,  -128.384E-03,   9.68409E-03
C:/temp/dataset/6/28_12.odb,Step-1,Increment      1: Step Time =    1.000,"PART-1-1",            90,          -15.,          -2.5,            0.,NA,NA,"",   587.881E-03,  -577.579E-03,  -109.574E-03,   6.77119E-03
C:/temp/dataset/6/28_12.odb,Step-1,Increment      1: Step Time =    1.000,"PART-1-1",            91,          -15.,         -12.5,            0.,NA,NA,"",   419.162E-03,  -377.101E-03,  -183.007E-03,   2.42919E-03
C:/temp/dataset/6/28_12.odb,Step-1,Increment      1: Step Time =    1.000,"PART-1-1",            92,          -15.,          -10.,            0.,NA,NA,"",   485.394E-03,  -453.845E-03,  -172.139E-03,   7.56092E-03
C:/temp/dataset/6/28_12.odb,Step-1,Increment      1: Step Time =    1.000,"PART-1-1",            93,          -15.,          -20.,            0.,NA,NA,"",   199.569E-03,  -144.889E-03,  -137.241E-03,   13.0451E-03
C:/temp/dataset/6/28_12.odb,Step-1,Increment      1: Step Time =    1.000,"PART-1-1",            94,          -15.,         -17.5,            0.,NA,NA,"",   269.127E-03,  -213.450E-03,  -163.915E-03,   9.28016E-03
C:/temp/dataset/6/28_12.odb,Step-1,Increment      1: Step Time =    1.000,"PART-1-1",            95,          -15.,         -27.5,            0.,NA,NA,"",   47.3981E-03,  -28.2185E-03,  -38.0827E-03,   16.0281E-03
C:/temp/dataset/6/28_12.odb,Step-1,Increment      1: Step Time =    1.000,"PART-1-1",            96,          -15.,          -25.,            0.,NA,NA,"",   89.9082E-03,  -54.6983E-03,  -71.3553E-03,   14.6832E-03
C:/temp/dataset/6/28_12.odb,Step-1,Increment      1: Step Time =    1.000,"PART-1-1",            97,       13.0047,      -3.80353,            0.,NA,NA,"",   513.423E-03,  -503.569E-03,   100.106E-03,   2.22271E-03
C:/temp/dataset/6/28_12.odb,Step-1,Increment      1: Step Time =    1.000,"PART-1-1",            98,       6.97971,      -7.55833,            0.,NA,NA,"",   419.645E-03,  -419.387E-03,  -14.7162E-03,   7.81889E-03
C:/temp/dataset/6/28_12.odb,Step-1,Increment      1: Step Time =    1.000,"PART-1-1",            99,       6.96639,      -10.0829,            0.,NA,NA,"",   347.574E-03,  -346.969E-03,  -20.5095E-03,   4.50092E-03
C:/temp/dataset/6/28_12.odb,Step-1,Increment      1: Step Time =    1.000,"PART-1-1",           100,       12.9900,      -12.5465,            0.,NA,NA,"",   301.287E-03,  -282.478E-03,   104.784E-03,   4.55177E-03
C:/temp/dataset/6/28_12.odb,Step-1,Increment      1: Step Time =    1.000,"PART-1-1",           101,       6.90028,      -17.1420,            0.,NA,NA,"",   152.920E-03,  -151.776E-03,  -18.6704E-03,   6.48659E-03
C:/temp/dataset/6/28_12.odb,Step-1,Increment      1: Step Time =    1.000,"PART-1-1",           102,       7.03871,      -19.0570,            0.,NA,NA,"",   105.085E-03,  -104.470E-03,  -11.3504E-03,   6.45834E-03
C:/temp/dataset/6/28_12.odb,Step-1,Increment      1: Step Time =    1.000,"PART-1-1",           103,       5.31709,      -21.2647,            0.,NA,NA,"",   68.3556E-03,  -64.8272E-03,  -21.6779E-03,   7.77188E-03
C:/temp/dataset/6/28_12.odb,Step-1,Increment      1: Step Time =    1.000,"PART-1-1",           104,      -4.83361,      -22.6144,            0.,NA,NA,"",   67.3135E-03,  -63.6687E-03,   21.8496E-03,   8.98691E-03
C:/temp/dataset/6/28_12.odb,Step-1,Increment      1: Step Time =    1.000,"PART-1-1",           105,      -7.46484,      -17.6587,            0.,NA,NA,"",   189.773E-03,  -189.708E-03,   4.98334E-03,   11.7558E-03
C:/temp/dataset/6/28_12.odb,Step-1,Increment      1: Step Time =    1.000,"PART-1-1",           106,      -12.5283,      -27.3245,            0.,NA,NA,"",   27.8603E-03,  -17.5984E-03,  -21.5984E-03,   10.3883E-03
C:/temp/dataset/6/28_12.odb,Step-1,Increment      1: Step Time =    1.000,"PART-1-1",           107,      -12.4870,      -17.6221,            0.,NA,NA,"",   224.176E-03,  -201.763E-03,  -97.7072E-03,   8.72690E-03
C:/temp/dataset/6/28_12.odb,Step-1,Increment      1: Step Time =    1.000,"PART-1-1",           108,      -7.32043,      -12.6401,            0.,NA,NA,"",   373.865E-03,  -373.859E-03,   2.13184E-03,   8.37726E-03
C:/temp/dataset/6/28_12.odb,Step-1,Increment      1: Step Time =    1.000,"PART-1-1",           109,      -7.14644,      -8.03697,            0.,NA,NA,"",   536.568E-03,  -536.469E-03,  -10.3007E-03,   10.4239E-03
C:/temp/dataset/6/28_12.odb,Step-1,Increment      1: Step Time =    1.000,"PART-1-1",           110,      -12.6601,       4.88622,            0.,NA,NA,"",   613.595E-03,  -608.208E-03,  -81.1350E-03,   909.671E-06
C:/temp/dataset/6/28_12.odb,Step-1,Increment      1: Step Time =    1.000,"PART-1-1",           111,      -13.0978,       12.5399,            0.,NA,NA,"",   648.463E-03,  -643.095E-03,  -83.2686E-03,   46.8093E-06
C:/temp/dataset/6/28_12.odb,Step-1,Increment      1: Step Time =    1.000,"PART-1-1",           112,      -6.45576,       21.8628,            0.,NA,NA,"",   690.891E-03,  -689.023E-03,  -50.7731E-03,   216.590E-09
C:/temp/dataset/6/28_12.odb,Step-1,Increment      1: Step Time =    1.000,"PART-1-1",           113,      -7.28884,       25.7044,            0.,NA,NA,"",   710.006E-03,  -707.879E-03,  -54.9107E-03,   175.828E-09
C:/temp/dataset/6/28_12.odb,Step-1,Increment      1: Step Time =    1.000,"PART-1-1",           114,      -9.90518,       27.6474,            0.,NA,NA,"",   720.586E-03,  -717.391E-03,  -67.7840E-03,   96.0885E-09
C:/temp/dataset/6/28_12.odb,Step-1,Increment      1: Step Time =    1.000,"PART-1-1",           115,      -3.01211,      -3.13168,            0.,NA,NA,"",   562.990E-03,  -562.002E-03,  -33.3289E-03,   3.75549E-03
C:/temp/dataset/6/28_12.odb,Step-1,Increment      1: Step Time =    1.000,"PART-1-1",           116,      -2.19169,       3.00836,            0.,NA,NA,"",   587.832E-03,  -586.385E-03,  -41.2132E-03,   3.48505E-03
C:/temp/dataset/6/28_12.odb,Step-1,Increment      1: Step Time =    1.000,"PART-1-1",           117,       1.85193,      -2.77696,            0.,NA,NA,"",   547.584E-03,  -546.273E-03,  -37.8765E-03,   7.37699E-03
C:/temp/dataset/6/28_12.odb,Step-1,Increment      1: Step Time =    1.000,"PART-1-1",           118,       2.83229,       2.22691,            0.,NA,NA,"",   584.051E-03,  -582.964E-03,  -35.6176E-03,   2.71898E-03
C:/temp/dataset/6/28_12.odb,Step-1,Increment      1: Step Time =    1.000,"PART-1-1",           119,       7.74921,       3.07964,            0.,NA,NA,"",   599.939E-03,  -599.868E-03,   9.19716E-03,   2.67146E-03
C:/temp/dataset/6/28_12.odb,Step-1,Increment      1: Step Time =    1.000,"PART-1-1",           120,      -2.47342,      -22.6017,            0.,NA,NA,"",   62.2798E-03,  -60.7770E-03,   13.5989E-03,   10.5130E-03
C:/temp/dataset/6/28_12.odb,Step-1,Increment      1: Step Time =    1.000,"PART-1-1",           121,      -7.48266,       20.3798,            0.,NA,NA,"",   684.009E-03,  -681.729E-03,  -55.7984E-03,   1.61838E-06
C:/temp/dataset/6/28_12.odb,Step-1,Increment      1: Step Time =    1.000,"PART-1-1",           122,      -7.10993,       13.1351,            0.,NA,NA,"",   648.448E-03,  -646.206E-03,  -53.8854E-03,   44.3791E-06
C:/temp/dataset/6/28_12.odb,Step-1,Increment      1: Step Time =    1.000,"PART-1-1",           123,      -6.64156,       6.82435,            0.,NA,NA,"",   615.966E-03,  -613.820E-03,  -51.3683E-03,   898.326E-06
C:/temp/dataset/6/28_12.odb,Step-1,Increment      1: Step Time =    1.000,"PART-1-1",           124,      -12.9641,      -2.37512,            0.,NA,NA,"",   590.056E-03,  -582.969E-03,  -91.1752E-03,   4.86644E-03
C:/temp/dataset/6/28_12.odb,Step-1,Increment      1: Step Time =    1.000,"PART-1-1",           125,      -12.1317,      -9.84573,            0.,NA,NA,"",   477.790E-03,  -466.289E-03,  -104.200E-03,   6.61746E-03
C:/temp/dataset/6/28_12.odb,Step-1,Increment      1: Step Time =    1.000,"PART-1-1",           126,       4.04132,      -2.67712,            0.,NA,NA,"",   539.093E-03,  -537.971E-03,  -34.7647E-03,   5.92129E-03
C:/temp/dataset/6/28_12.odb,Step-1,Increment      1: Step Time =    1.000,"PART-1-1",           127,       6.95362,      -12.5367,            0.,NA,NA,"",   277.797E-03,  -276.806E-03,  -23.4399E-03,   3.39063E-03
C:/temp/dataset/6/28_12.odb,Step-1,Increment      1: Step Time =    1.000,"PART-1-1",           128,       6.92458,      -14.9216,            0.,NA,NA,"",   211.605E-03,  -210.430E-03,  -22.2719E-03,   3.82725E-03
C:/temp/dataset/6/28_12.odb,Step-1,Increment      1: Step Time =    1.000,"PART-1-1",           129,       12.9089,      -21.3671,            0.,NA,NA,"",   100.253E-03,  -79.4507E-03,   61.1407E-03,   7.68087E-03
C:/temp/dataset/6/28_12.odb,Step-1,Increment      1: Step Time =    1.000,"PART-1-1",           130,   283.131E-03,      -22.8786,            0.,NA,NA,"",   56.9665E-03,  -56.9539E-03,   1.19811E-03,   6.50154E-03
C:/temp/dataset/6/28_12.odb,Step-1,Increment      1: Step Time =    1.000,"PART-1-1",           131,      -12.9776,      -22.4214,            0.,NA,NA,"",   108.741E-03,  -82.6630E-03,  -70.6507E-03,   9.95095E-03
C:/temp/dataset/6/28_12.odb,Step-1,Increment      1: Step Time =    1.000,"PART-1-1",           132,      -7.42030,      -15.1083,            0.,NA,NA,"",   281.928E-03,  -281.888E-03,   4.71017E-03,   7.87186E-03
C:/temp/dataset/6/28_12.odb,Step-1,Increment      1: Step Time =    1.000,"PART-1-1",           133,      -7.18486,      -10.2642,            0.,NA,NA,"",   464.019E-03,  -463.996E-03,  -4.59765E-03,   11.7722E-03
C:/temp/dataset/6/28_12.odb,Step-1,Increment      1: Step Time =    1.000,"PART-1-1",           134,      -7.33974,      -5.93881,            0.,NA,NA,"",   570.076E-03,  -569.815E-03,  -17.2492E-03,   9.26002E-03
C:/temp/dataset/6/28_12.odb,Step-1,Increment      1: Step Time =    1.000,"PART-1-1",           135,  -533.729E-03,      -2.94296,            0.,NA,NA,"",   556.203E-03,  -554.932E-03,  -37.5776E-03,   5.05981E-03
C:/temp/dataset/6/28_12.odb,Step-1,Increment      1: Step Time =    1.000,"PART-1-1",           136,       10.2172,      -28.0250,            0.,NA,NA,"",   9.21557E-03,  -7.42484E-03,   5.45880E-03,   4.13263E-03
C:/temp/dataset/6/28_12.odb,Step-1,Increment      1: Step Time =    1.000,"PART-1-1",           137,       7.82196,      -28.0777,            0.,NA,NA,"",   8.23036E-03,  -8.18647E-03,   848.846E-06,   2.99787E-03
C:/temp/dataset/6/28_12.odb,Step-1,Increment      1: Step Time =    1.000,"PART-1-1",           138,       5.43540,      -28.0544,            0.,NA,NA,"",   11.6125E-03,  -11.5139E-03,  -1.50969E-03,   4.43692E-03
C:/temp/dataset/6/28_12.odb,Step-1,Increment      1: Step Time =    1.000,"PART-1-1",           139,       2.98405,      -27.8165,            0.,NA,NA,"",   17.0769E-03,  -16.9993E-03,  -1.62582E-03,   5.70979E-03
C:/temp/dataset/6/28_12.odb,Step-1,Increment      1: Step Time =    1.000,"PART-1-1",           140,   324.250E-03,      -27.0908,            0.,NA,NA,"",   25.2327E-03,  -25.2106E-03,   1.05654E-03,   6.54262E-03
C:/temp/dataset/6/28_12.odb,Step-1,Increment      1: Step Time =    1.000,"PART-1-1",           141,      -2.46293,      -27.5198,            0.,NA,NA,"",   20.6656E-03,  -20.2162E-03,   4.28641E-03,   6.50731E-03
C:/temp/dataset/6/28_12.odb,Step-1,Increment      1: Step Time =    1.000,"PART-1-1",           142,      -4.88996,      -27.5861,            0.,NA,NA,"",   16.4274E-03,  -15.7411E-03,   4.69864E-03,   5.64018E-03
C:/temp/dataset/6/28_12.odb,Step-1,Increment      1: Step Time =    1.000,"PART-1-1",           143,      -7.26500,      -27.4866,            0.,NA,NA,"",   12.2745E-03,  -12.1982E-03,   1.36644E-03,   3.62396E-03
C:/temp/dataset/6/28_12.odb,Step-1,Increment      1: Step Time =    1.000,"PART-1-1",           144,      -9.86695,      -26.8928,            0.,NA,NA,"",   17.5156E-03,  -15.2175E-03,  -8.67326E-03,   4.08681E-03
C:/temp/dataset/6/28_12.odb,Step-1,Increment      1: Step Time =    1.000,"PART-1-1",           145,       12.7710,      -23.5898,            0.,NA,NA,"",   66.7321E-03,  -49.9730E-03,   44.2253E-03,   7.73024E-03
C:/temp/dataset/6/28_12.odb,Step-1,Increment      1: Step Time =    1.000,"PART-1-1",           146,       12.6989,      -25.7990,            0.,NA,NA,"",   39.6899E-03,  -28.0886E-03,   28.0413E-03,   8.11411E-03
C:/temp/dataset/6/28_12.odb,Step-1,Increment      1: Step Time =    1.000,"PART-1-1",           147,       12.6207,      -27.9366,            0.,NA,NA,"",   17.6751E-03,  -11.7228E-03,   13.2282E-03,   8.45016E-03
C:/temp/dataset/6/28_12.odb,Step-1,Increment      1: Step Time =    1.000,"PART-1-1",           148,       12.9983,      -14.8223,            0.,NA,NA,"",   241.133E-03,  -220.048E-03,   98.6107E-03,   5.58234E-03
C:/temp/dataset/6/28_12.odb,Step-1,Increment      1: Step Time =    1.000,"PART-1-1",           149,       13.0558,      -17.0719,            0.,NA,NA,"",   186.641E-03,  -163.537E-03,   89.9472E-03,   6.62018E-03
C:/temp/dataset/6/28_12.odb,Step-1,Increment      1: Step Time =    1.000,"PART-1-1",           150,       13.1682,      -19.2108,            0.,NA,NA,"",   142.034E-03,  -117.686E-03,   79.5221E-03,   7.57121E-03
C:/temp/dataset/6/28_12.odb,Step-1,Increment      1: Step Time =    1.000,"PART-1-1",           151,       13.0670,      -5.94273,            0.,NA,NA,"",   470.687E-03,  -458.632E-03,   105.845E-03,   2.42295E-03
C:/temp/dataset/6/28_12.odb,Step-1,Increment      1: Step Time =    1.000,"PART-1-1",           152,       13.0350,      -8.09399,            0.,NA,NA,"",   419.801E-03,  -405.611E-03,   108.225E-03,   3.00906E-03
C:/temp/dataset/6/28_12.odb,Step-1,Increment      1: Step Time =    1.000,"PART-1-1",           153,       12.9982,      -10.2981,            0.,NA,NA,"",   362.119E-03,  -345.698E-03,   107.811E-03,   3.72258E-03
C:/temp/dataset/6/28_12.odb,Step-1,Increment      1: Step Time =    1.000,"PART-1-1",           154,       12.5107,   556.281E-03,            0.,NA,NA,"",   578.559E-03,  -572.430E-03,   83.9869E-03,   2.60477E-03
C:/temp/dataset/6/28_12.odb,Step-1,Increment      1: Step Time =    1.000,"PART-1-1",           155,       12.7702,      -1.64554,            0.,NA,NA,"",   548.460E-03,  -540.783E-03,   91.4437E-03,   2.39960E-03
C:/temp/dataset/6/28_12.odb,Step-1,Increment      1: Step Time =    1.000,"PART-1-1",           156,       10.0517,       2.85834,            0.,NA,NA,"",   602.623E-03,  -601.086E-03,   43.0178E-03,   2.64156E-03
C:/temp/dataset/6/28_12.odb,Step-1,Increment      1: Step Time =    1.000,"PART-1-1",           157,       5.39286,       2.85476,            0.,NA,NA,"",   592.706E-03,  -592.435E-03,  -17.9115E-03,   2.29595E-03
C:/temp/dataset/6/28_12.odb,Step-1,Increment      1: Step Time =    1.000,"PART-1-1",           158,   175.602E-03,       2.90951,            0.,NA,NA,"",   586.844E-03,  -585.397E-03,  -41.1865E-03,   3.13609E-03
C:/temp/dataset/6/28_12.odb,Step-1,Increment      1: Step Time =    1.000,"PART-1-1",           159,      -4.35394,       2.91920,            0.,NA,NA,"",   590.237E-03,  -588.791E-03,  -41.2853E-03,   2.43660E-03
C:/temp/dataset/6/28_12.odb,Step-1,Increment      1: Step Time =    1.000,"PART-1-1",           160,      -7.05997,       10.9599,            0.,NA,NA,"",   637.749E-03,  -635.491E-03,  -53.6163E-03,   64.6983E-06
C:/temp/dataset/6/28_12.odb,Step-1,Increment      1: Step Time =    1.000,"PART-1-1",           161,      -6.93805,       8.84105,            0.,NA,NA,"",   627.019E-03,  -624.775E-03,  -53.0031E-03,   121.277E-06
C:/temp/dataset/6/28_12.odb,Step-1,Increment      1: Step Time =    1.000,"PART-1-1",           162,      -7.28921,       17.6445,            0.,NA,NA,"",   670.553E-03,  -668.309E-03,  -54.8164E-03,   7.87084E-06
C:/temp/dataset/6/28_12.odb,Step-1,Increment      1: Step Time =    1.000,"PART-1-1",           163,      -7.17735,       15.3234,            0.,NA,NA,"",   659.167E-03,  -656.932E-03,  -54.2403E-03,   22.2293E-06
C:/temp/dataset/6/28_12.odb,Step-1,Increment      1: Step Time =    1.000,"PART-1-1",           164,      -6.93557,       23.5874,            0.,NA,NA,"",   699.508E-03,  -697.486E-03,  -53.1501E-03,   104.591E-09
C:/temp/dataset/6/28_12.odb,Step-1,Increment      1: Step Time =    1.000,"PART-1-1",           165,      -13.1925,       19.7530,            0.,NA,NA,"",   683.731E-03,  -678.572E-03,  -83.8351E-03,   1.97197E-06
C:/temp/dataset/6/28_12.odb,Step-1,Increment      1: Step Time =    1.000,"PART-1-1",           166,      -7.44963,       27.8335,            0.,NA,NA,"",   720.493E-03,  -718.335E-03,  -55.7260E-03,   127.693E-09
C:/temp/dataset/6/28_12.odb,Step-1,Increment      1: Step Time =    1.000,"PART-1-1",           167,      -13.0424,       22.0734,            0.,NA,NA,"",   694.964E-03,  -689.975E-03,  -83.1260E-03,   237.675E-09
C:/temp/dataset/6/28_12.odb,Step-1,Increment      1: Step Time =    1.000,"PART-1-1",           168,      -13.1316,       14.9813,            0.,NA,NA,"",   660.397E-03,  -655.101E-03,  -83.4735E-03,   23.2607E-06
C:/temp/dataset/6/28_12.odb,Step-1,Increment      1: Step Time =    1.000,"PART-1-1",           169,      -13.1727,       17.3972,            0.,NA,NA,"",   672.221E-03,  -666.989E-03,  -83.7082E-03,   7.92745E-06
C:/temp/dataset/6/28_12.odb,Step-1,Increment      1: Step Time =    1.000,"PART-1-1",           170,      -12.8574,       7.53984,            0.,NA,NA,"",   624.660E-03,  -619.251E-03,  -82.0246E-03,   166.210E-06
C:/temp/dataset/6/28_12.odb,Step-1,Increment      1: Step Time =    1.000,"PART-1-1",           171,      -13.0166,       10.0884,            0.,NA,NA,"",   636.569E-03,  -631.157E-03,  -82.8303E-03,   49.6904E-06
C:/temp/dataset/6/28_12.odb,Step-1,Increment      1: Step Time =    1.000,"PART-1-1",           172,      -12.8045,  -118.323E-03,            0.,NA,NA,"",   598.296E-03,  -592.230E-03,  -84.9805E-03,   3.66488E-03
C:/temp/dataset/6/28_12.odb,Step-1,Increment      1: Step Time =    1.000,"PART-1-1",           173,      -12.7039,       2.28772,            0.,NA,NA,"",   605.037E-03,  -599.450E-03,  -82.0313E-03,   2.19041E-03
C:/temp/dataset/6/28_12.odb,Step-1,Increment      1: Step Time =    1.000,"PART-1-1",           174,      -12.8488,      -7.31355,            0.,NA,NA,"",   537.911E-03,  -526.625E-03,  -109.611E-03,   5.22984E-03
C:/temp/dataset/6/28_12.odb,Step-1,Increment      1: Step Time =    1.000,"PART-1-1",           175,      -12.6051,      -4.81291,            0.,NA,NA,"",   572.947E-03,  -565.020E-03,  -94.9785E-03,   5.05661E-03
C:/temp/dataset/6/28_12.odb,Step-1,Increment      1: Step Time =    1.000,"PART-1-1",           176,      -12.4260,      -15.0682,            0.,NA,NA,"",   307.833E-03,  -288.323E-03,  -107.848E-03,   8.67628E-03
C:/temp/dataset/6/28_12.odb,Step-1,Increment      1: Step Time =    1.000,"PART-1-1",           177,      -12.3344,      -12.5112,            0.,NA,NA,"",   395.004E-03,  -379.188E-03,  -110.656E-03,   8.30106E-03
C:/temp/dataset/6/28_12.odb,Step-1,Increment      1: Step Time =    1.000,"PART-1-1",           178,      -12.6598,      -20.1148,            0.,NA,NA,"",   155.864E-03,  -131.121E-03,  -84.2665E-03,   9.02837E-03
C:/temp/dataset/6/28_12.odb,Step-1,Increment      1: Step Time =    1.000,"PART-1-1",           179,      -8.70618,       22.9331,            0.,NA,NA,"",   697.000E-03,  -694.252E-03,  -61.8380E-03,   276.457E-09
C:/temp/dataset/6/28_12.odb,Step-1,Increment      1: Step Time =    1.000,"PART-1-1",           180,      -9.21222,       15.1634,            0.,NA,NA,"",   659.238E-03,  -656.097E-03,  -64.2678E-03,   26.2595E-06
C:/temp/dataset/6/28_12.odb,Step-1,Increment      1: Step Time =    1.000,"PART-1-1",           181,      -9.55138,       19.8926,            0.,NA,NA,"",   682.503E-03,  -679.309E-03,  -65.9546E-03,   2.75332E-06
C:/temp/dataset/6/28_12.odb,Step-1,Increment      1: Step Time =    1.000,"PART-1-1",           182,      -8.92203,       8.32966,            0.,NA,NA,"",   625.479E-03,  -622.308E-03,  -62.9099E-03,   174.686E-06
C:/temp/dataset/6/28_12.odb,Step-1,Increment      1: Step Time =    1.000,"PART-1-1",           183,      -9.17670,       12.8809,            0.,NA,NA,"",   648.071E-03,  -644.890E-03,  -64.1279E-03,   50.8554E-06
C:/temp/dataset/6/28_12.odb,Step-1,Increment      1: Step Time =    1.000,"PART-1-1",           184,      -9.09923,       10.6117,            0.,NA,NA,"",   636.920E-03,  -633.716E-03,  -63.8074E-03,   70.6976E-06
C:/temp/dataset/6/28_12.odb,Step-1,Increment      1: Step Time =    1.000,"PART-1-1",           185,      -9.30530,       17.5014,            0.,NA,NA,"",   670.702E-03,  -667.571E-03,  -64.7264E-03,   9.88577E-06
C:/temp/dataset/6/28_12.odb,Step-1,Increment      1: Step Time =    1.000,"PART-1-1",           186,      -8.37864,       6.17865,            0.,NA,NA,"",   614.024E-03,  -611.122E-03,  -59.6277E-03,   1.08534E-03
C:/temp/dataset/6/28_12.odb,Step-1,Increment      1: Step Time =    1.000,"PART-1-1",           187,       10.9988,      -10.2527,            0.,NA,NA,"",   351.683E-03,  -345.641E-03,   64.9067E-03,   5.42753E-03
C:/temp/dataset/6/28_12.odb,Step-1,Increment      1: Step Time =    1.000,"PART-1-1",           188,       10.8643,      -17.5211,            0.,NA,NA,"",   154.984E-03,  -147.048E-03,   48.9562E-03,   5.89976E-03
C:/temp/dataset/6/28_12.odb,Step-1,Increment      1: Step Time =    1.000,"PART-1-1",           189,       11.0508,      -8.01555,            0.,NA,NA,"",   413.459E-03,  -408.010E-03,   66.9022E-03,   4.60906E-03
C:/temp/dataset/6/28_12.odb,Step-1,Increment      1: Step Time =    1.000,"PART-1-1",           190,       10.6332,      -2.00908,            0.,NA,NA,"",   539.862E-03,  -537.196E-03,   53.5856E-03,   2.24077E-03
C:/temp/dataset/6/28_12.odb,Step-1,Increment      1: Step Time =    1.000,"PART-1-1",           191,       11.1668,      -5.92645,            0.,NA,NA,"",   465.838E-03,  -460.840E-03,   68.0532E-03,   3.13006E-03
C:/temp/dataset/6/28_12.odb,Step-1,Increment      1: Step Time =    1.000,"PART-1-1",           192,       10.9732,      -14.9280,            0.,NA,NA,"",   220.991E-03,  -213.339E-03,   57.6520E-03,   5.86822E-03
C:/temp/dataset/6/28_12.odb,Step-1,Increment      1: Step Time =    1.000,"PART-1-1",           193,       10.5476,      -23.6927,            0.,NA,NA,"",   47.9109E-03,  -42.8027E-03,   21.5263E-03,   4.18272E-03
C:/temp/dataset/6/28_12.odb,Step-1,Increment      1: Step Time =    1.000,"PART-1-1",           194,       10.5707,      -21.1850,            0.,NA,NA,"",   80.9032E-03,  -74.6335E-03,   31.2276E-03,   4.93880E-03
C:/temp/dataset/6/28_12.odb,Step-1,Increment      1: Step Time =    1.000,"PART-1-1",           195,       10.9760,      -12.5622,            0.,NA,NA,"",   286.194E-03,  -279.431E-03,   61.8482E-03,   5.72893E-03
C:/temp/dataset/6/28_12.odb,Step-1,Increment      1: Step Time =    1.000,"PART-1-1",           196,       11.6229,      -19.2502,            0.,NA,NA,"",   124.317E-03,  -111.767E-03,   54.4317E-03,   6.14264E-03
C:/temp/dataset/6/28_12.odb,Step-1,Increment      1: Step Time =    1.000,"PART-1-1",           197,       11.1609,      -3.97100,            0.,NA,NA,"",   506.894E-03,  -502.638E-03,   65.5510E-03,   1.90302E-03
C:/temp/dataset/6/28_12.odb,Step-1,Increment      1: Step Time =    1.000,"PART-1-1",           198,      -9.55101,       25.2781,            0.,NA,NA,"",   708.839E-03,  -705.758E-03,  -66.0157E-03,   149.949E-09
C:/temp/dataset/6/28_12.odb,Step-1,Increment      1: Step Time =    1.000,"PART-1-1",           199,      -6.13353,       2.97524,            0.,NA,NA,"",   593.929E-03,  -592.184E-03,  -45.4910E-03,   2.41986E-03
C:/temp/dataset/6/28_12.odb,Step-1,Increment      1: Step Time =    1.000,"PART-1-1",           200,       8.52809,      -18.5145,            0.,NA,NA,"",   119.374E-03,  -118.922E-03,   10.3778E-03,   5.41822E-03
C:/temp/dataset/6/28_12.odb,Step-1,Increment      1: Step Time =    1.000,"PART-1-1",           201,      -9.31256,      -6.57829,            0.,NA,NA,"",   554.676E-03,  -552.649E-03,  -47.3764E-03,   5.21969E-03
C:/temp/dataset/6/28_12.odb,Step-1,Increment      1: Step Time =    1.000,"PART-1-1",           202,      -7.82061,      -4.24854,            0.,NA,NA,"",   577.369E-03,  -576.711E-03,  -27.5619E-03,   8.66778E-03
C:/temp/dataset/6/28_12.odb,Step-1,Increment      1: Step Time =    1.000,"PART-1-1",           203,       7.55002,      -20.4955,            0.,NA,NA,"",   77.7275E-03,  -77.6200E-03,  -4.08501E-03,   4.43116E-03
C:/temp/dataset/6/28_12.odb,Step-1,Increment      1: Step Time =    1.000,"PART-1-1",           204,      -9.18944,      -8.43706,            0.,NA,NA,"",   517.091E-03,  -514.943E-03,  -47.0771E-03,   7.46055E-03
C:/temp/dataset/6/28_12.odb,Step-1,Increment      1: Step Time =    1.000,"PART-1-1",           205,      -12.3720,       27.4312,            0.,NA,NA,"",   720.742E-03,  -716.300E-03,  -79.8973E-03,   145.191E-09
C:/temp/dataset/6/28_12.odb,Step-1,Increment      1: Step Time =    1.000,"PART-1-1",           206,      -10.3791,       22.2070,            0.,NA,NA,"",   694.207E-03,  -690.665E-03,  -70.0459E-03,   538.953E-09
C:/temp/dataset/6/28_12.odb,Step-1,Increment      1: Step Time =    1.000,"PART-1-1",           207,       3.40286,  -884.176E-03,            0.,NA,NA,"",   557.461E-03,  -556.295E-03,  -36.0289E-03,   4.14831E-03
C:/temp/dataset/6/28_12.odb,Step-1,Increment      1: Step Time =    1.000,"PART-1-1",           208,       7.88020,       1.44192,            0.,NA,NA,"",   581.922E-03,  -581.846E-03,   9.40454E-03,   2.35074E-03
C:/temp/dataset/6/28_12.odb,Step-1,Increment      1: Step Time =    1.000,"PART-1-1",           209,      -1.17287,  -897.893E-03,            0.,NA,NA,"",   566.234E-03,  -564.861E-03,  -39.4083E-03,   4.58211E-03
C:/temp/dataset/6/28_12.odb,Step-1,Increment      1: Step Time =    1.000,"PART-1-1",           210,       10.4014,      -25.9274,            0.,NA,NA,"",   25.3422E-03,  -21.9765E-03,   12.6199E-03,   3.97036E-03
C:/temp/dataset/6/28_12.odb,Step-1,Increment      1: Step Time =    1.000,"PART-1-1",           211,       2.00108,      -24.8239,            0.,NA,NA,"",   42.3227E-03,  -42.0996E-03,  -4.33993E-03,   7.24610E-03
C:/temp/dataset/6/28_12.odb,Step-1,Increment      1: Step Time =    1.000,"PART-1-1",           212,      -4.80900,      -25.1606,            0.,NA,NA,"",   39.0112E-03,  -36.9798E-03,   12.4245E-03,   6.92231E-03
C:/temp/dataset/6/28_12.odb,Step-1,Increment      1: Step Time =    1.000,"PART-1-1",           213,      -11.5765,       21.3848,            0.,NA,NA,"",   690.795E-03,  -686.610E-03,  -75.9173E-03,   919.787E-09
C:/temp/dataset/6/28_12.odb,Step-1,Increment      1: Step Time =    1.000,"PART-1-1",           214,      -11.0630,       10.3038,            0.,NA,NA,"",   636.450E-03,  -632.200E-03,  -73.4279E-03,   61.6939E-06
C:/temp/dataset/6/28_12.odb,Step-1,Increment      1: Step Time =    1.000,"PART-1-1",           215,      -10.2832,  -591.021E-03,            0.,NA,NA,"",   593.433E-03,  -590.090E-03,  -62.9004E-03,   4.54455E-03
C:/temp/dataset/6/28_12.odb,Step-1,Increment      1: Step Time =    1.000,"PART-1-1",           216,      -11.1869,      -5.64306,            0.,NA,NA,"",   564.190E-03,  -559.061E-03,  -75.9007E-03,   3.97407E-03
C:/temp/dataset/6/28_12.odb,Step-1,Increment      1: Step Time =    1.000,"PART-1-1",           217,      -9.48237,      -10.3825,            0.,NA,NA,"",   458.531E-03,  -455.513E-03,  -52.5205E-03,   9.70708E-03
C:/temp/dataset/6/28_12.odb,Step-1,Increment      1: Step Time =    1.000,"PART-1-1",           218,      -10.0191,      -20.7277,            0.,NA,NA,"",   111.079E-03,  -105.846E-03,  -33.6896E-03,   7.07998E-03
C:/temp/dataset/6/28_12.odb,Step-1,Increment      1: Step Time =    1.000,"PART-1-1",           219,      -12.8377,      -24.8331,            0.,NA,NA,"",   64.5502E-03,  -44.9348E-03,  -46.3422E-03,   10.4238E-03
C:/temp/dataset/6/28_12.odb,Step-1,Increment      1: Step Time =    1.000,"PART-1-1",           220,  -752.185E-03,      -25.0561,            0.,NA,NA,"",   42.6507E-03,  -42.3586E-03,   4.98289E-03,   7.45983E-03
C:/temp/dataset/6/28_12.odb,Step-1,Increment      1: Step Time =    1.000,"PART-1-1",           221,      -11.3411,      -22.5061,            0.,NA,NA,"",   86.6317E-03,  -74.3776E-03,  -44.4187E-03,   7.17027E-03
C:/temp/dataset/6/28_12.odb,Step-1,Increment      1: Step Time =    1.000,"PART-1-1",           222,       5.90860,      -26.1342,            0.,NA,NA,"",   24.3615E-03,  -23.9700E-03,  -4.34992E-03,   4.74560E-03
C:/temp/dataset/6/28_12.odb,Step-1,Increment      1: Step Time =    1.000,"PART-1-1",           223,       3.81352,      -25.8758,            0.,NA,NA,"",   31.1315E-03,  -30.6124E-03,  -5.66111E-03,   6.36042E-03
C:/temp/dataset/6/28_12.odb,Step-1,Increment      1: Step Time =    1.000,"PART-1-1",           224,      -6.87266,      -25.1947,            0.,NA,NA,"",   33.1095E-03,  -32.4623E-03,   6.51464E-03,   4.31655E-03
C:/temp/dataset/6/28_12.odb,Step-1,Increment      1: Step Time =    1.000,"PART-1-1",           225,       9.77381,   336.875E-03,            0.,NA,NA,"",   571.102E-03,  -569.845E-03,   37.8677E-03,   2.84339E-03
C:/temp/dataset/6/28_12.odb,Step-1,Increment      1: Step Time =    1.000,"PART-1-1",           226,       4.59800,   29.7464E-03,            0.,NA,NA,"",   565.452E-03,  -564.738E-03,  -28.3961E-03,   2.57520E-03
C:/temp/dataset/6/28_12.odb,Step-1,Increment      1: Step Time =    1.000,"PART-1-1",           227,      -11.1551,       12.6912,            0.,NA,NA,"",   648.104E-03,  -643.884E-03,  -73.8333E-03,   50.9659E-06
C:/temp/dataset/6/28_12.odb,Step-1,Increment      1: Step Time =    1.000,"PART-1-1",           228,      -11.2689,       17.3859,            0.,NA,NA,"",   671.098E-03,  -666.965E-03,  -74.3679E-03,   10.2099E-06
C:/temp/dataset/6/28_12.odb,Step-1,Increment      1: Step Time =    1.000,"PART-1-1",           229,      -11.2102,       15.0558,            0.,NA,NA,"",   659.681E-03,  -655.509E-03,  -74.0754E-03,   26.1132E-06
C:/temp/dataset/6/28_12.odb,Step-1,Increment      1: Step Time =    1.000,"PART-1-1",           230,      -10.8139,       7.79620,            0.,NA,NA,"",   624.343E-03,  -620.160E-03,  -72.1479E-03,   233.155E-06
C:/temp/dataset/6/28_12.odb,Step-1,Increment      1: Step Time =    1.000,"PART-1-1",           231,      -10.1648,       4.85487,            0.,NA,NA,"",   610.609E-03,  -606.831E-03,  -67.8140E-03,   1.38616E-03
C:/temp/dataset/6/28_12.odb,Step-1,Increment      1: Step Time =    1.000,"PART-1-1",           232,      -10.4473,       2.01195,            0.,NA,NA,"",   601.134E-03,  -597.373E-03,  -67.1390E-03,   2.98418E-03
C:/temp/dataset/6/28_12.odb,Step-1,Increment      1: Step Time =    1.000,"PART-1-1",           233,      -10.4810,      -3.59789,            0.,NA,NA,"",   582.244E-03,  -578.836E-03,  -62.9039E-03,   5.15096E-03
C:/temp/dataset/6/28_12.odb,Step-1,Increment      1: Step Time =    1.000,"PART-1-1",           234,      -9.89141,      -15.1395,            0.,NA,NA,"",   287.131E-03,  -282.409E-03,  -51.8577E-03,   10.5008E-03
C:/temp/dataset/6/28_12.odb,Step-1,Increment      1: Step Time =    1.000,"PART-1-1",           235,      -9.95744,      -17.7636,            0.,NA,NA,"",   194.922E-03,  -189.599E-03,  -45.2425E-03,   10.5296E-03
C:/temp/dataset/6/28_12.odb,Step-1,Increment      1: Step Time =    1.000,"PART-1-1",           236,      -3.63694,      -1.16253,            0.,NA,NA,"",   570.198E-03,  -569.135E-03,  -34.8093E-03,   5.41537E-03
C:/temp/dataset/6/28_12.odb,Step-1,Increment      1: Step Time =    1.000,"PART-1-1",           237,      -7.00580,      -22.7773,            0.,NA,NA,"",   61.1980E-03,  -60.3111E-03,   10.3808E-03,   3.49739E-03
C:/temp/dataset/6/28_12.odb,Step-1,Increment      1: Step Time =    1.000,"PART-1-1",           238,       7.08723,      -4.67483,            0.,NA,NA,"",   497.965E-03,  -497.919E-03,  -6.75862E-03,   6.23246E-03
C:/temp/dataset/6/28_12.odb,Step-1,Increment      1: Step Time =    1.000,"PART-1-1",           239,       8.96532,      -10.1697,            0.,NA,NA,"",   347.540E-03,  -346.765E-03,   23.1919E-03,   5.47111E-03
C:/temp/dataset/6/28_12.odb,Step-1,Increment      1: Step Time =    1.000,"PART-1-1",           240,       8.99874,      -7.82238,            0.,NA,NA,"",   414.867E-03,  -414.005E-03,   26.7296E-03,   5.98527E-03
C:/temp/dataset/6/28_12.odb,Step-1,Increment      1: Step Time =    1.000,"PART-1-1",           241,       8.96760,      -14.8663,            0.,NA,NA,"",   213.358E-03,  -212.471E-03,   19.4350E-03,   5.29892E-03
C:/temp/dataset/6/28_12.odb,Step-1,Increment      1: Step Time =    1.000,"PART-1-1",           242,      -12.0836,       24.5335,            0.,NA,NA,"",   706.440E-03,  -702.071E-03,  -78.4457E-03,   173.143E-09
C:/temp/dataset/6/28_12.odb,Step-1,Increment      1: Step Time =    1.000,"PART-1-1",           243,       9.21542,      -5.66363,            0.,NA,NA,"",   471.084E-03,  -470.049E-03,   31.2094E-03,   4.38456E-03
C:/temp/dataset/6/28_12.odb,Step-1,Increment      1: Step Time =    1.000,"PART-1-1",           244,       8.72776,      -2.97127,            0.,NA,NA,"",   525.353E-03,  -524.947E-03,   20.6374E-03,   2.71721E-03
C:/temp/dataset/6/28_12.odb,Step-1,Increment      1: Step Time =    1.000,"PART-1-1",           245,       9.39471,      -19.4524,            0.,NA,NA,"",   103.396E-03,  -101.224E-03,   21.0786E-03,   5.10572E-03
C:/temp/dataset/6/28_12.odb,Step-1,Increment      1: Step Time =    1.000,"PART-1-1",           246,       8.06548,      -22.0810,            0.,NA,NA,"",   57.0965E-03,  -57.0912E-03,   782.583E-06,   1.40341E-03
C:/temp/dataset/6/28_12.odb,Step-1,Increment      1: Step Time =    1.000,"PART-1-1",           247,      -7.53738,       4.79758,            0.,NA,NA,"",   605.610E-03,  -603.166E-03,  -54.3480E-03,   1.93459E-03
C:/temp/dataset/6/28_12.odb,Step-1,Increment      1: Step Time =    1.000,"PART-1-1",           248,      -10.8025,      -24.3532,            0.,NA,NA,"",   51.3835E-03,  -43.9504E-03,  -26.6201E-03,   5.83029E-03
C:/temp/dataset/6/28_12.odb,Step-1,Increment      1: Step Time =    1.000,"PART-1-1",           249,       5.82981,      -2.08643,            0.,NA,NA,"",   542.240E-03,  -541.830E-03,  -21.0893E-03,   4.05616E-03
C:/temp/dataset/6/28_12.odb,Step-1,Increment      1: Step Time =    1.000,"PART-1-1",           250,      -8.67175,      -2.53401,            0.,NA,NA,"",   583.968E-03,  -582.384E-03,  -42.9760E-03,   6.41288E-03
C:/temp/dataset/6/28_12.odb,Step-1,Increment      1: Step Time =    1.000,"PART-1-1",           251,       5.78686,      -22.7214,            0.,NA,NA,"",   53.6002E-03,  -51.7331E-03,  -14.0237E-03,   5.27141E-03
C:/temp/dataset/6/28_12.odb,Step-1,Increment      1: Step Time =    1.000,"PART-1-1",           252,      -8.27594,       1.60152,            0.,NA,NA,"",   594.545E-03,  -592.217E-03,  -52.5606E-03,   3.52437E-03
C:/temp/dataset/6/28_12.odb,Step-1,Increment      1: Step Time =    1.000,"PART-1-1",           253,       8.25490,      -24.0061,            0.,NA,NA,"",   37.7187E-03,  -37.6514E-03,   2.25084E-03,   1.45143E-03
C:/temp/dataset/6/28_12.odb,Step-1,Increment      1: Step Time =    1.000,"PART-1-1",           254,      -9.04303,      -23.2600,            0.,NA,NA,"",   56.4405E-03,  -55.4026E-03,  -10.7742E-03,   3.21747E-03
C:/temp/dataset/6/28_12.odb,Step-1,Increment      1: Step Time =    1.000,"PART-1-1",           255,       7.61656,      -1.09448,            0.,NA,NA,"",   552.749E-03,  -552.739E-03,   3.19472E-03,   2.56079E-03
C:/temp/dataset/6/28_12.odb,Step-1,Increment      1: Step Time =    1.000,"PART-1-1",           256,      -4.02262,   861.151E-03,            0.,NA,NA,"",   580.274E-03,  -578.998E-03,  -38.4604E-03,   4.08019E-03
C:/temp/dataset/6/28_12.odb,Step-1,Increment      1: Step Time =    1.000,"PART-1-1",           257,  -104.141E-03,       1.31276,            0.,NA,NA,"",   577.741E-03,  -576.261E-03,  -41.3268E-03,   4.14642E-03
C:/temp/dataset/6/28_12.odb,Step-1,Increment      1: Step Time =    1.000,"PART-1-1",           258,       3.72123,      -23.4419,            0.,NA,NA,"",   51.0946E-03,  -49.6736E-03,  -11.9660E-03,   7.75195E-03
C:/temp/dataset/6/28_12.odb,Step-1,Increment      1: Step Time =    1.000,"PART-1-1",           259,      -10.7950,      -8.39617,            0.,NA,NA,"",   515.122E-03,  -509.528E-03,  -75.7121E-03,   5.73321E-03
C:/temp/dataset/6/28_12.odb,Step-1,Increment      1: Step Time =    1.000,"PART-1-1",           260,      -1.85786,       1.02916,            0.,NA,NA,"",   577.779E-03,  -576.375E-03,  -40.2486E-03,   4.46382E-03
C:/temp/dataset/6/28_12.odb,Step-1,Increment      1: Step Time =    1.000,"PART-1-1",           261,      -6.46179,      -1.33856,            0.,NA,NA,"",   578.918E-03,  -577.924E-03,  -33.9154E-03,   5.95710E-03
C:/temp/dataset/6/28_12.odb,Step-1,Increment      1: Step Time =    1.000,"PART-1-1",           262,      -11.1078,      -7.00587,            0.,NA,NA,"",   543.926E-03,  -538.299E-03,  -78.0398E-03,   4.14738E-03
C:/temp/dataset/6/28_12.odb,Step-1,Increment      1: Step Time =    1.000,"PART-1-1",           263,      -5.52697,      -3.44125,            0.,NA,NA,"",   570.625E-03,  -570.258E-03,  -20.4500E-03,   9.67138E-03
C:/temp/dataset/6/28_12.odb,Step-1,Increment      1: Step Time =    1.000,"PART-1-1",           264,      -9.72268,      -4.98378,            0.,NA,NA,"",   572.554E-03,  -570.138E-03,  -52.5404E-03,   5.10966E-03
C:/temp/dataset/6/28_12.odb,Step-1,Increment      1: Step Time =    1.000,"PART-1-1",           265,      -6.27329,       4.89376,            0.,NA,NA,"",   603.365E-03,  -601.402E-03,  -48.6374E-03,   2.50925E-03
C:/temp/dataset/6/28_12.odb,Step-1,Increment      1: Step Time =    1.000,"PART-1-1",           266,       12.4963,       2.80040,            0.,NA,NA,"",   607.962E-03,  -602.338E-03,   82.5088E-03,   1.89432E-03
C:/temp/dataset/6/28_12.odb,Step-1,Increment      1: Step Time =    1.000,"PART-1-1",           267,      -7.37176,      -20.2559,            0.,NA,NA,"",   107.135E-03,  -106.953E-03,   6.24056E-03,   8.23749E-03
C:/temp/dataset/6/28_12.odb,Step-1,Increment      1: Step Time =    1.000,"PART-1-1",           268,       2.88963,      -21.8777,            0.,NA,NA,"",   60.8146E-03,  -59.8829E-03,  -10.6043E-03,   7.88456E-03
C:/temp/dataset/6/28_12.odb,Step-1,Increment      1: Step Time =    1.000,"PART-1-1",           269,      -8.05085,       3.52655,            0.,NA,NA,"",   600.967E-03,  -598.444E-03,  -55.0113E-03,   2.58348E-03
C:/temp/dataset/6/28_12.odb,Step-1,Increment      1: Step Time =    1.000,"PART-1-1",           270,       8.95558,      -12.5395,            0.,NA,NA,"",   278.877E-03,  -278.123E-03,   20.4835E-03,   5.33729E-03
C:/temp/dataset/6/28_12.odb,Step-1,Increment      1: Step Time =    1.000,"PART-1-1",           271,       1.35989,  -223.950E-03,            0.,NA,NA,"",   565.925E-03,  -564.461E-03,  -40.6729E-03,   4.55148E-03
C:/temp/dataset/6/28_12.odb,Step-1,Increment      1: Step Time =    1.000,"PART-1-1",           272,      -9.75004,      -12.6533,            0.,NA,NA,"",   378.603E-03,  -374.676E-03,  -54.3908E-03,   10.7223E-03
C:/temp/dataset/6/28_12.odb,Step-1,Increment      1: Step Time =    1.000,"PART-1-1",           273,      -8.51206,      -25.1011,            0.,NA,NA,"",   32.3192E-03,  -32.1270E-03,  -3.51865E-03,   2.31094E-03
C:/temp/dataset/6/28_12.odb,Step-1,Increment      1: Step Time =    1.000,"PART-1-1",           274,      -6.19138,   998.181E-03,            0.,NA,NA,"",   586.286E-03,  -584.806E-03,  -41.6286E-03,   3.45971E-03
C:/temp/dataset/6/28_12.odb,Step-1,Increment      1: Step Time =    1.000,"PART-1-1",           275,      -2.63339,      -25.0950,            0.,NA,NA,"",   42.4330E-03,  -41.0332E-03,   10.8090E-03,   8.45945E-03
C:/temp/dataset/6/28_12.odb,Step-1,Increment      1: Step Time =    1.000,"PART-1-1",           276,       8.11811,      -26.0558,            0.,NA,NA,"",   21.0527E-03,  -20.9916E-03,   1.60250E-03,   2.62366E-03
C:/temp/dataset/6/28_12.odb,Step-1,Increment      1: Step Time =    1.000,"PART-1-1",           277,       6.33403,   764.508E-03,            0.,NA,NA,"",   573.231E-03,  -573.125E-03,  -11.0114E-03,   1.69576E-03
C:/temp/dataset/6/28_12.odb,Step-1,Increment      1: Step Time =    1.000,"PART-1-1",           278,       8.84044,      -16.9880,            0.,NA,NA,"",   156.853E-03,  -156.014E-03,   16.2030E-03,   5.86994E-03
C:/temp/dataset/6/28_12.odb,Step-1,Increment      1: Step Time =    1.000,"PART-1-1",           279,      -11.3950,       19.6047,            0.,NA,NA,"",   682.004E-03,  -677.867E-03,  -75.0062E-03,   3.15778E-06
C:/temp/dataset/6/28_12.odb,Step-1,Increment      1: Step Time =    1.000,"PART-1-1",           280,      -11.2464,      -2.22607,            0.,NA,NA,"",   589.638E-03,  -585.223E-03,  -72.0219E-03,   4.86869E-03
C:/temp/dataset/6/28_12.odb,Step-1,Increment      1: Step Time =    1.000,"PART-1-1",           281,      -8.41776,  -32.7016E-03,            0.,NA,NA,"",   589.936E-03,  -587.881E-03,  -49.1929E-03,   4.62022E-03
C:/temp/dataset/6/28_12.odb,Step-1,Increment      1: Step Time =    1.000,"PART-1-1",           282,       4.48255,      -24.5345,            0.,NA,NA,"",   40.7582E-03,  -39.6109E-03,  -9.60256E-03,   6.49788E-03
C:/temp/dataset/6/28_12.odb,Step-1,Increment      1: Step Time =    1.000,"PART-1-1",           283,       6.11275,      -24.3348,            0.,NA,NA,"",   38.3480E-03,  -37.4825E-03,  -8.10131E-03,   4.53421E-03
C:/temp/dataset/6/28_12.odb,Step-1,Increment      1: Step Time =    1.000,"PART-1-1",           284,       9.69767,      -4.20039,            0.,NA,NA,"",   502.016E-03,  -500.508E-03,   38.8834E-03,   2.77778E-03
C:/temp/dataset/6/28_12.odb,Step-1,Increment      1: Step Time =    1.000,"PART-1-1",           285,       13.8851,      -1.60402,            0.,NA,NA,"",   551.617E-03,  -540.352E-03,   110.910E-03,   2.84744E-03
C:/temp/dataset/6/28_12.odb,Step-1,Increment      1: Step Time =    1.000,"PART-1-1",           286,           15.,   -468.75E-03,            0.,NA,NA,"",   570.298E-03,  -556.237E-03,   125.861E-03,   2.87669E-03
C:/temp/dataset/6/28_12.odb,Step-1,Increment      1: Step Time =    1.000,"PART-1-1",           287,       13.7553,   590.641E-03,            0.,NA,NA,"",   581.829E-03,  -572.368E-03,   104.496E-03,   2.00405E-03
C:/temp/dataset/6/28_12.odb,Step-1,Increment      1: Step Time =    1.000,"PART-1-1",           288,       12.6405,  -544.629E-03,            0.,NA,NA,"",   563.980E-03,  -557.151E-03,   87.4982E-03,   2.45262E-03
C:/temp/dataset/6/28_12.odb,Step-1,Increment      1: Step Time =    1.000,"PART-1-1",           289,       6.57104,       2.96720,            0.,NA,NA,"",   596.111E-03,  -596.085E-03,  -5.56952E-03,   2.37993E-03
C:/temp/dataset/6/28_12.odb,Step-1,Increment      1: Step Time =    1.000,"PART-1-1",           290,       5.86345,       1.80964,            0.,NA,NA,"",   583.400E-03,  -583.215E-03,  -14.7034E-03,   1.81997E-03
C:/temp/dataset/6/28_12.odb,Step-1,Increment      1: Step Time =    1.000,"PART-1-1",           291,       7.10711,       1.10321,            0.,NA,NA,"",   577.381E-03,  -577.379E-03,  -1.33471E-03,   1.89571E-03
C:/temp/dataset/6/28_12.odb,Step-1,Increment      1: Step Time =    1.000,"PART-1-1",           292,       7.81470,       2.26078,            0.,NA,NA,"",   590.882E-03,  -590.810E-03,   9.26248E-03,   2.41901E-03
C:/temp/dataset/6/28_12.odb,Step-1,Increment      1: Step Time =    1.000,"PART-1-1",           293,       6.97305,      -8.82061,            0.,NA,NA,"",   384.249E-03,  -383.836E-03,  -17.8140E-03,   5.36612E-03
C:/temp/dataset/6/28_12.odb,Step-1,Increment      1: Step Time =    1.000,"PART-1-1",           294,       5.98985,      -7.53541,            0.,NA,NA,"",   421.588E-03,  -420.031E-03,  -36.1983E-03,   6.20356E-03
C:/temp/dataset/6/28_12.odb,Step-1,Increment      1: Step Time =    1.000,"PART-1-1",           295,            5.,      -8.76875,            0.,NA,NA,"",   386.919E-03,  -380.847E-03,  -68.2770E-03,   4.35219E-03
C:/temp/dataset/6/28_12.odb,Step-1,Increment      1: Step Time =    1.000,"PART-1-1",           296,       5.98320,      -10.0539,            0.,NA,NA,"",   349.350E-03,  -346.448E-03,  -44.9315E-03,   3.11838E-03
C:/temp/dataset/6/28_12.odb,Step-1,Increment      1: Step Time =    1.000,"PART-1-1",           297,       12.0429,      -8.05477,            0.,NA,NA,"",   416.026E-03,  -406.807E-03,   87.0919E-03,   3.77041E-03
C:/temp/dataset/6/28_12.odb,Step-1,Increment      1: Step Time =    1.000,"PART-1-1",           298,       11.0248,      -9.13413,            0.,NA,NA,"",   383.149E-03,  -377.388E-03,   66.1937E-03,   4.98873E-03
C:/temp/dataset/6/28_12.odb,Step-1,Increment      1: Step Time =    1.000,"PART-1-1",           299,       11.9985,      -10.2754,            0.,NA,NA,"",   356.183E-03,  -345.675E-03,   85.8760E-03,   4.56014E-03
C:/temp/dataset/6/28_12.odb,Step-1,Increment      1: Step Time =    1.000,"PART-1-1",           300,       13.0166,      -9.19606,            0.,NA,NA,"",   391.435E-03,  -376.132E-03,   108.380E-03,   3.28138E-03
C:/temp/dataset/6/28_12.odb,Step-1,Increment      1: Step Time =    1.000,"PART-1-1",           301,       13.9992,      -14.7549,            0.,NA,NA,"",   254.844E-03,  -224.259E-03,   121.051E-03,   5.53462E-03
C:/temp/dataset/6/28_12.odb,Step-1,Increment      1: Step Time =    1.000,"PART-1-1",           302,       13.0271,      -15.9471,            0.,NA,NA,"",   213.149E-03,  -190.946E-03,   94.7200E-03,   6.06331E-03
C:/temp/dataset/6/28_12.odb,Step-1,Increment      1: Step Time =    1.000,"PART-1-1",           303,       14.0279,      -16.9735,            0.,NA,NA,"",   201.626E-03,  -169.010E-03,   109.949E-03,   7.43048E-03
C:/temp/dataset/6/28_12.odb,Step-1,Increment      1: Step Time =    1.000,"PART-1-1",           304,           15.,      -15.7813,            0.,NA,NA,"",   244.780E-03,  -201.191E-03,   139.425E-03,   7.34839E-03
C:/temp/dataset/6/28_12.odb,Step-1,Increment      1: Step Time =    1.000,"PART-1-1",           305,       6.96949,      -18.0995,            0.,NA,NA,"",   127.130E-03,  -126.380E-03,  -13.7918E-03,   5.76763E-03
C:/temp/dataset/6/28_12.odb,Step-1,Increment      1: Step Time =    1.000,"PART-1-1",           306,       5.95014,      -17.3335,            0.,NA,NA,"",   151.306E-03,  -146.964E-03,  -35.9853E-03,   5.10004E-03
C:/temp/dataset/6/28_12.odb,Step-1,Increment      1: Step Time =    1.000,"PART-1-1",           307,            5.,      -18.7625,            0.,NA,NA,"",   123.083E-03,  -113.702E-03,  -47.1296E-03,   12.2086E-03
C:/temp/dataset/6/28_12.odb,Step-1,Increment      1: Step Time =    1.000,"PART-1-1",           308,       6.01935,      -19.5285,            0.,NA,NA,"",   92.9562E-03,  -90.0433E-03,  -23.0884E-03,   10.4910E-03
C:/temp/dataset/6/28_12.odb,Step-1,Increment      1: Step Time =    1.000,"PART-1-1",           309,       7.66098,      -29.0388,            0.,NA,NA,"",   3.56567E-03,  -3.52687E-03,   524.592E-06,   2.52759E-03
C:/temp/dataset/6/28_12.odb,Step-1,Increment      1: Step Time =    1.000,"PART-1-1",           310,       6.62868,      -28.0660,            0.,NA,NA,"",   9.70190E-03,  -9.68154E-03,  -628.238E-06,   3.63468E-03
C:/temp/dataset/6/28_12.odb,Step-1,Increment      1: Step Time =    1.000,"PART-1-1",           311,       5.21770,      -29.0272,            0.,NA,NA,"",   5.70522E-03,  -5.68515E-03,  -478.082E-06,   3.99025E-03
C:/temp/dataset/6/28_12.odb,Step-1,Increment      1: Step Time =    1.000,"PART-1-1",           312,          6.25,          -30.,            0.,NA,NA,"",            0.,  -2.71610E-39,   503.974E-42,   2.87392E-03
C:/temp/dataset/6/28_12.odb,Step-1,Increment      1: Step Time =    1.000,"PART-1-1",           313,   162.125E-03,      -28.5454,            0.,NA,NA,"",   13.0058E-03,  -12.9857E-03,   723.699E-06,   6.22255E-03
C:/temp/dataset/6/28_12.odb,Step-1,Increment      1: Step Time =    1.000,"PART-1-1",           314,      -1.06934,      -27.3053,            0.,NA,NA,"",   23.4820E-03,  -23.2716E-03,   3.13654E-03,   6.37599E-03
C:/temp/dataset/6/28_12.odb,Step-1,Increment      1: Step Time =    1.000,"PART-1-1",           315,      -2.48147,      -28.7599,            0.,NA,NA,"",   10.2387E-03,  -10.0786E-03,   1.80340E-03,   5.92217E-03
C:/temp/dataset/6/28_12.odb,Step-1,Increment      1: Step Time =    1.000,"PART-1-1",           316,         -1.25,          -30.,            0.,NA,NA,"",            0.,  -5.50228E-39,   2.16495E-39,   5.71579E-03
C:/temp/dataset/6/28_12.odb,Step-1,Increment      1: Step Time =    1.000,"PART-1-1",           317,          -15.,        -21.25,            0.,NA,NA,"",   168.352E-03,  -116.473E-03,  -121.559E-03,   13.9530E-03
C:/temp/dataset/6/28_12.odb,Step-1,Increment      1: Step Time =    1.000,"PART-1-1",           318,      -13.9888,      -22.4607,            0.,NA,NA,"",   123.270E-03,  -86.8931E-03,  -87.4362E-03,   12.3024E-03
C:/temp/dataset/6/28_12.odb,Step-1,Increment      1: Step Time =    1.000,"PART-1-1",           319,      -12.8187,      -21.2681,            0.,NA,NA,"",   130.719E-03,  -104.892E-03,  -78.0070E-03,   9.33932E-03
C:/temp/dataset/6/28_12.odb,Step-1,Increment      1: Step Time =    1.000,"PART-1-1",           320,      -13.8299,      -20.0574,            0.,NA,NA,"",   175.684E-03,  -137.542E-03,  -109.304E-03,   10.7446E-03
C:/temp/dataset/6/28_12.odb,Step-1,Increment      1: Step Time =    1.000,"PART-1-1",           321,      -12.5142,      -28.6623,            0.,NA,NA,"",   11.2018E-03,  -5.85264E-03,  -9.55131E-03,   9.05315E-03
C:/temp/dataset/6/28_12.odb,Step-1,Increment      1: Step Time =    1.000,"PART-1-1",           322,        -11.25,          -30.,            0.,NA,NA,"",            0.,  -479.419E-42,  -11.5310E-39,   5.95585E-03
C:/temp/dataset/6/28_12.odb,Step-1,Increment      1: Step Time =    1.000,"PART-1-1",           323,      -9.93348,      -28.4464,            0.,NA,NA,"",   6.40944E-03,  -4.59080E-03,  -4.47276E-03,   3.77718E-03
C:/temp/dataset/6/28_12.odb,Step-1,Increment      1: Step Time =    1.000,"PART-1-1",           324,      -11.1976,      -27.1087,            0.,NA,NA,"",   21.3371E-03,  -15.2852E-03,  -14.8874E-03,   6.98633E-03
C:/temp/dataset/6/28_12.odb,Step-1,Increment      1: Step Time =    1.000,"PART-1-1",           325,      -7.37036,      -13.8742,            0.,NA,NA,"",   327.837E-03,  -327.809E-03,   4.31823E-03,   7.45622E-03
C:/temp/dataset/6/28_12.odb,Step-1,Increment      1: Step Time =    1.000,"PART-1-1",           326,      -6.21015,      -15.0417,            0.,NA,NA,"",   287.685E-03,  -285.018E-03,   39.0814E-03,   3.70281E-03
C:/temp/dataset/6/28_12.odb,Step-1,Increment      1: Step Time =    1.000,"PART-1-1",           327,           -5.,      -13.7188,            0.,NA,NA,"",   341.867E-03,  -332.960E-03,   77.5295E-03,   1.51623E-03
C:/temp/dataset/6/28_12.odb,Step-1,Increment      1: Step Time =    1.000,"PART-1-1",           328,      -6.16021,      -12.5513,            0.,NA,NA,"",   377.894E-03,  -376.225E-03,   35.4761E-03,   5.04317E-03
C:/temp/dataset/6/28_12.odb,Step-1,Increment      1: Step Time =    1.000,"PART-1-1",           329,      -9.33590,      -9.40979,            0.,NA,NA,"",   489.449E-03,  -486.876E-03,  -50.1152E-03,   8.36279E-03
C:/temp/dataset/6/28_12.odb,Step-1,Increment      1: Step Time =    1.000,"PART-1-1",           330,      -8.33361,      -10.3234,            0.,NA,NA,"",   460.883E-03,  -459.929E-03,  -29.6318E-03,   10.0445E-03
C:/temp/dataset/6/28_12.odb,Step-1,Increment      1: Step Time =    1.000,"PART-1-1",           331,      -7.16565,      -9.15059,            0.,NA,NA,"",   503.314E-03,  -503.249E-03,  -8.09713E-03,   10.5948E-03
C:/temp/dataset/6/28_12.odb,Step-1,Increment      1: Step Time =    1.000,"PART-1-1",           332,      -8.16794,      -8.23701,            0.,NA,NA,"",   526.003E-03,  -525.213E-03,  -28.8287E-03,   8.58401E-03
C:/temp/dataset/6/28_12.odb,Step-1,Increment      1: Step Time =    1.000,"PART-1-1",           333,      -11.1473,      -6.32447,            0.,NA,NA,"",   554.954E-03,  -549.591E-03,  -76.9615E-03,   3.74422E-03
C:/temp/dataset/6/28_12.odb,Step-1,Increment      1: Step Time =    1.000,"PART-1-1",           334,      -10.2102,      -6.79208,            0.,NA,NA,"",   548.965E-03,  -545.407E-03,  -62.3991E-03,   4.37329E-03
C:/temp/dataset/6/28_12.odb,Step-1,Increment      1: Step Time =    1.000,"PART-1-1",           335,      -9.51762,      -5.78103,            0.,NA,NA,"",   564.833E-03,  -562.630E-03,  -49.8395E-03,   4.72515E-03
C:/temp/dataset/6/28_12.odb,Step-1,Increment      1: Step Time =    1.000,"PART-1-1",           336,      -10.4548,      -5.31342,            0.,NA,NA,"",   568.650E-03,  -565.050E-03,  -63.8808E-03,   4.20436E-03
C:/temp/dataset/6/28_12.odb,Step-1,Increment      1: Step Time =    1.000,"PART-1-1",           337,      -5.04937,      -1.25055,            0.,NA,NA,"",   573.956E-03,  -573.035E-03,  -32.5044E-03,   5.14697E-03
C:/temp/dataset/6/28_12.odb,Step-1,Increment      1: Step Time =    1.000,"PART-1-1",           338,      -3.82978,  -150.691E-03,            0.,NA,NA,"",   575.043E-03,  -573.871E-03,  -36.6858E-03,   4.68826E-03
C:/temp/dataset/6/28_12.odb,Step-1,Increment      1: Step Time =    1.000,"PART-1-1",           339,      -5.10700,   929.666E-03,            0.,NA,NA,"",   583.104E-03,  -581.780E-03,  -39.2753E-03,   3.50877E-03
C:/temp/dataset/6/28_12.odb,Step-1,Increment      1: Step Time =    1.000,"PART-1-1",           340,      -6.32658,  -170.190E-03,            0.,NA,NA,"",   582.362E-03,  -581.093E-03,  -38.4326E-03,   4.58655E-03
C:/temp/dataset/6/28_12.odb,Step-1,Increment      1: Step Time =    1.000,"PART-1-1",           341,          -15.,          3.75,            0.,NA,NA,"",   610.739E-03,  -603.745E-03,  -92.1666E-03,   759.959E-06
C:/temp/dataset/6/28_12.odb,Step-1,Increment      1: Step Time =    1.000,"PART-1-1",           342,      -13.8520,       2.39386,            0.,NA,NA,"",   605.972E-03,  -599.496E-03,  -88.3535E-03,   1.47963E-03
C:/temp/dataset/6/28_12.odb,Step-1,Increment      1: Step Time =    1.000,"PART-1-1",           343,      -12.6820,       3.58697,            0.,NA,NA,"",   609.069E-03,  -603.602E-03,  -81.4219E-03,   1.53781E-03
C:/temp/dataset/6/28_12.odb,Step-1,Increment      1: Step Time =    1.000,"PART-1-1",           344,      -13.8301,       4.94311,            0.,NA,NA,"",   614.586E-03,  -608.430E-03,  -86.7677E-03,   488.445E-06
C:/temp/dataset/6/28_12.odb,Step-1,Increment      1: Step Time =    1.000,"PART-1-1",           345,          -15.,         11.25,            0.,NA,NA,"",   643.476E-03,  -636.806E-03,  -92.4149E-03,   93.4004E-06
C:/temp/dataset/6/28_12.odb,Step-1,Increment      1: Step Time =    1.000,"PART-1-1",           346,      -14.0083,       10.0442,            0.,NA,NA,"",   636.996E-03,  -630.952E-03,  -87.5451E-03,   76.0353E-06
C:/temp/dataset/6/28_12.odb,Step-1,Increment      1: Step Time =    1.000,"PART-1-1",           347,      -13.0572,       11.3141,            0.,NA,NA,"",   642.485E-03,  -637.096E-03,  -83.0471E-03,   43.9661E-06
C:/temp/dataset/6/28_12.odb,Step-1,Increment      1: Step Time =    1.000,"PART-1-1",           348,      -14.0489,       12.5200,            0.,NA,NA,"",   648.971E-03,  -642.993E-03,  -87.8811E-03,   43.9425E-06
C:/temp/dataset/6/28_12.odb,Step-1,Increment      1: Step Time =    1.000,"PART-1-1",           349,           -5.,       22.7083,            0.,NA,NA,"",   694.565E-03,  -693.193E-03,  -43.6344E-03,   485.206E-09
C:/temp/dataset/6/28_12.odb,Step-1,Increment      1: Step Time =    1.000,"PART-1-1",           350,      -5.96779,       23.6687,            0.,NA,NA,"",   699.574E-03,  -697.897E-03,  -48.3983E-03,   214.945E-09
C:/temp/dataset/6/28_12.odb,Step-1,Increment      1: Step Time =    1.000,"PART-1-1",           351,      -6.69567,       22.7251,            0.,NA,NA,"",   695.199E-03,  -693.255E-03,  -51.9616E-03,   86.6729E-09
C:/temp/dataset/6/28_12.odb,Step-1,Increment      1: Step Time =    1.000,"PART-1-1",           352,      -5.72788,       21.7648,            0.,NA,NA,"",   690.166E-03,  -688.551E-03,  -47.1977E-03,   255.930E-09
C:/temp/dataset/6/28_12.odb,Step-1,Increment      1: Step Time =    1.000,"PART-1-1",           353,      -9.95259,       28.8237,            0.,NA,NA,"",   726.361E-03,  -723.168E-03,  -68.0311E-03,   100.170E-09
C:/temp/dataset/6/28_12.odb,Step-1,Increment      1: Step Time =    1.000,"PART-1-1",           354,      -8.67740,       27.7404,            0.,NA,NA,"",   720.514E-03,  -717.863E-03,  -61.7550E-03,   94.8481E-09
C:/temp/dataset/6/28_12.odb,Step-1,Increment      1: Step Time =    1.000,"PART-1-1",           355,      -7.47481,       28.9167,            0.,NA,NA,"",   725.808E-03,  -723.655E-03,  -55.8628E-03,   82.5858E-09
C:/temp/dataset/6/28_12.odb,Step-1,Increment      1: Step Time =    1.000,"PART-1-1",           356,         -8.75,           30.,            0.,NA,NA,"",   731.603E-03,  -728.960E-03,  -62.1389E-03,   97.5126E-09
C:/temp/dataset/6/28_12.odb,Step-1,Increment      1: Step Time =    1.000,"PART-1-1",           357,      -12.4360,       28.7156,            0.,NA,NA,"",   727.047E-03,  -722.607E-03,  -80.2273E-03,   87.5956E-09
C:/temp/dataset/6/28_12.odb,Step-1,Increment      1: Step Time =    1.000,"PART-1-1",           358,        -13.75,           30.,            0.,NA,NA,"",   734.038E-03,  -728.900E-03,  -86.6968E-03,   21.3807E-09
C:/temp/dataset/6/28_12.odb,Step-1,Increment      1: Step Time =    1.000,"PART-1-1",           359,          -15.,         28.75,            0.,NA,NA,"",   728.681E-03,  -722.745E-03,  -92.8212E-03,   27.9267E-09
C:/temp/dataset/6/28_12.odb,Step-1,Increment      1: Step Time =    1.000,"PART-1-1",           360,      -13.6860,       27.4656,            0.,NA,NA,"",   721.638E-03,  -716.453E-03,  -86.3518E-03,   91.7891E-09
C:/temp/dataset/6/28_12.odb,Step-1,Increment      1: Step Time =    1.000,"PART-1-1",           361,         -3.75,           -5.,            0.,NA,NA,"",   569.455E-03,  -568.798E-03,  -27.3531E-03,   4.81313E-03
C:/temp/dataset/6/28_12.odb,Step-1,Increment      1: Step Time =    1.000,"PART-1-1",           362,      -2.75606,      -4.06584,            0.,NA,NA,"",   563.162E-03,  -562.243E-03,  -32.1537E-03,   3.81157E-03
C:/temp/dataset/6/28_12.odb,Step-1,Increment      1: Step Time =    1.000,"PART-1-1",           363,      -4.26954,      -3.28646,            0.,NA,NA,"",   565.712E-03,  -565.107E-03,  -26.1530E-03,   5.81923E-03
C:/temp/dataset/6/28_12.odb,Step-1,Increment      1: Step Time =    1.000,"PART-1-1",           364,      -5.26349,      -4.22062,            0.,NA,NA,"",   569.681E-03,  -569.494E-03,  -14.6192E-03,   9.79061E-03
C:/temp/dataset/6/28_12.odb,Step-1,Increment      1: Step Time =    1.000,"PART-1-1",           365,   659.099E-03,      -2.85996,            0.,NA,NA,"",   551.910E-03,  -550.581E-03,  -38.2721E-03,   5.70699E-03
C:/temp/dataset/6/28_12.odb,Step-1,Increment      1: Step Time =    1.000,"PART-1-1",           366,  -266.865E-03,      -3.97148,            0.,NA,NA,"",   552.865E-03,  -551.733E-03,  -35.3587E-03,   5.41156E-03
C:/temp/dataset/6/28_12.odb,Step-1,Increment      1: Step Time =    1.000,"PART-1-1",           367,          1.25,           -5.,            0.,NA,NA,"",   543.487E-03,  -542.524E-03,  -32.3387E-03,   7.55780E-03
C:/temp/dataset/6/28_12.odb,Step-1,Increment      1: Step Time =    1.000,"PART-1-1",           368,       2.17596,      -3.88848,            0.,NA,NA,"",   538.828E-03,  -537.602E-03,  -36.3201E-03,   7.16009E-03
C:/temp/dataset/6/28_12.odb,Step-1,Increment      1: Step Time =    1.000,"PART-1-1",           369,   93.5104E-03,  -560.922E-03,            0.,NA,NA,"",   565.845E-03,  -564.381E-03,  -40.6847E-03,   4.66159E-03
C:/temp/dataset/6/28_12.odb,Step-1,Increment      1: Step Time =    1.000,"PART-1-1",           370,   627.873E-03,   544.404E-03,            0.,NA,NA,"",   572.207E-03,  -570.730E-03,  -41.0906E-03,   4.31432E-03
C:/temp/dataset/6/28_12.odb,Step-1,Increment      1: Step Time =    1.000,"PART-1-1",           371,  -981.002E-03,       1.17096,            0.,NA,NA,"",   577.602E-03,  -576.142E-03,  -41.0331E-03,   4.26153E-03
C:/temp/dataset/6/28_12.odb,Step-1,Increment      1: Step Time =    1.000,"PART-1-1",           372,      -1.51537,   65.6335E-03,            0.,NA,NA,"",   572.013E-03,  -570.623E-03,  -39.8614E-03,   4.55889E-03
C:/temp/dataset/6/28_12.odb,Step-1,Increment      1: Step Time =    1.000,"PART-1-1",           373,       4.11258,       2.54084,            0.,NA,NA,"",   587.905E-03,  -587.216E-03,  -28.4470E-03,   2.13109E-03
C:/temp/dataset/6/28_12.odb,Step-1,Increment      1: Step Time =    1.000,"PART-1-1",           374,       3.71515,       1.12833,            0.,NA,NA,"",   575.493E-03,  -574.573E-03,  -32.5237E-03,   2.47242E-03
C:/temp/dataset/6/28_12.odb,Step-1,Increment      1: Step Time =    1.000,"PART-1-1",           375,       5.46602,   397.127E-03,            0.,NA,NA,"",   569.166E-03,  -568.794E-03,  -20.5605E-03,   1.80545E-03
C:/temp/dataset/6/28_12.odb,Step-1,Increment      1: Step Time =    1.000,"PART-1-1",           376,       8.69518,  -378.803E-03,            0.,NA,NA,"",   561.479E-03,  -561.115E-03,   20.1995E-03,   2.51225E-03
C:/temp/dataset/6/28_12.odb,Step-1,Increment      1: Step Time =    1.000,"PART-1-1",           377,       8.82700,   889.396E-03,            0.,NA,NA,"",   576.711E-03,  -576.258E-03,   22.8638E-03,   2.47326E-03
C:/temp/dataset/6/28_12.odb,Step-1,Increment      1: Step Time =    1.000,"PART-1-1",           378,       6.97530,  -164.986E-03,            0.,NA,NA,"",   563.527E-03,  -563.509E-03,  -4.53033E-03,   1.99358E-03
C:/temp/dataset/6/28_12.odb,Step-1,Increment      1: Step Time =    1.000,"PART-1-1",           379,      -3.65351,      -22.6081,            0.,NA,NA,"",   67.3749E-03,  -63.9572E-03,   21.1861E-03,   9.04949E-03
C:/temp/dataset/6/28_12.odb,Step-1,Increment      1: Step Time =    1.000,"PART-1-1",           380,      -2.48671,      -21.3009,            0.,NA,NA,"",   71.6118E-03,  -69.9564E-03,   15.3087E-03,   6.67644E-03
C:/temp/dataset/6/28_12.odb,Step-1,Increment      1: Step Time =    1.000,"PART-1-1",           381,         -3.75,          -20.,            0.,NA,NA,"",   82.8804E-03,  -80.3785E-03,   20.2100E-03,   15.6497E-03
C:/temp/dataset/6/28_12.odb,Step-1,Increment      1: Step Time =    1.000,"PART-1-1",           382,      -4.91680,      -21.3072,            0.,NA,NA,"",   84.8039E-03,  -78.8974E-03,   31.0950E-03,   13.5490E-03
C:/temp/dataset/6/28_12.odb,Step-1,Increment      1: Step Time =    1.000,"PART-1-1",           383,       12.8399,      -22.4784,            0.,NA,NA,"",   82.6147E-03,  -63.6378E-03,   52.6823E-03,   7.70422E-03
C:/temp/dataset/6/28_12.odb,Step-1,Increment      1: Step Time =    1.000,"PART-1-1",           384,       11.7398,      -21.2760,            0.,NA,NA,"",   89.4809E-03,  -76.7956E-03,   45.9268E-03,   6.23079E-03
C:/temp/dataset/6/28_12.odb,Step-1,Increment      1: Step Time =    1.000,"PART-1-1",           385,       10.5591,      -22.4389,            0.,NA,NA,"",   62.9475E-03,  -57.2110E-03,   26.2543E-03,   4.49348E-03
C:/temp/dataset/6/28_12.odb,Step-1,Increment      1: Step Time =    1.000,"PART-1-1",           386,       11.6593,      -23.6412,            0.,NA,NA,"",   56.1853E-03,  -45.9008E-03,   32.4022E-03,   5.93940E-03
C:/temp/dataset/6/28_12.odb,Step-1,Increment      1: Step Time =    1.000,"PART-1-1",           387,          8.75,            5.,            0.,NA,NA,"",   627.092E-03,  -626.572E-03,   25.5308E-03,   3.56501E-03
C:/temp/dataset/6/28_12.odb,Step-1,Increment      1: Step Time =    1.000,"PART-1-1",           388,       7.62461,       4.03982,            0.,NA,NA,"",   610.624E-03,  -610.561E-03,   8.75899E-03,   3.42978E-03
C:/temp/dataset/6/28_12.odb,Step-1,Increment      1: Step Time =    1.000,"PART-1-1",           389,       8.90047,       2.96899,            0.,NA,NA,"",   601.265E-03,  -600.728E-03,   25.4146E-03,   2.58180E-03
C:/temp/dataset/6/28_12.odb,Step-1,Increment      1: Step Time =    1.000,"PART-1-1",           390,       10.0259,       3.92917,            0.,NA,NA,"",   616.475E-03,  -614.951E-03,   43.3110E-03,   2.29312E-03
C:/temp/dataset/6/28_12.odb,Step-1,Increment      1: Step Time =    1.000,"PART-1-1",           391,      -6.96921,       21.1213,            0.,NA,NA,"",   687.444E-03,  -685.376E-03,  -53.2856E-03,   933.360E-09
C:/temp/dataset/6/28_12.odb,Step-1,Increment      1: Step Time =    1.000,"PART-1-1",           392,      -6.24133,       19.9816,            0.,NA,NA,"",   681.604E-03,  -679.790E-03,  -49.6973E-03,   996.217E-09
C:/temp/dataset/6/28_12.odb,Step-1,Increment      1: Step Time =    1.000,"PART-1-1",           393,           -5.,        20.625,            0.,NA,NA,"",   684.354E-03,  -682.963E-03,  -43.6103E-03,   206.083E-09
C:/temp/dataset/6/28_12.odb,Step-1,Increment      1: Step Time =    1.000,"PART-1-1",           394,      -12.9370,       8.81410,            0.,NA,NA,"",   630.505E-03,  -625.095E-03,  -82.4204E-03,   67.4855E-06
C:/temp/dataset/6/28_12.odb,Step-1,Increment      1: Step Time =    1.000,"PART-1-1",           395,          -15.,          8.75,            0.,NA,NA,"",   631.609E-03,  -624.861E-03,  -92.0848E-03,   133.708E-06
C:/temp/dataset/6/28_12.odb,Step-1,Increment      1: Step Time =    1.000,"PART-1-1",           396,      -13.9287,       7.51992,            0.,NA,NA,"",   625.273E-03,  -619.188E-03,  -87.0227E-03,   92.8214E-06
C:/temp/dataset/6/28_12.odb,Step-1,Increment      1: Step Time =    1.000,"PART-1-1",           397,          -15.,          1.25,            0.,NA,NA,"",   602.376E-03,  -594.819E-03,  -95.1134E-03,   2.42196E-03
C:/temp/dataset/6/28_12.odb,Step-1,Increment      1: Step Time =    1.000,"PART-1-1",           398,      -13.9023,  -59.1614E-03,            0.,NA,NA,"",   598.674E-03,  -591.447E-03,  -92.7391E-03,   3.13753E-03
C:/temp/dataset/6/28_12.odb,Step-1,Increment      1: Step Time =    1.000,"PART-1-1",           399,      -12.7542,       1.08470,            0.,NA,NA,"",   601.689E-03,  -595.910E-03,  -83.1916E-03,   2.91131E-03
C:/temp/dataset/6/28_12.odb,Step-1,Increment      1: Step Time =    1.000,"PART-1-1",           400,          -15.,         -1.25,            0.,NA,NA,"",   593.659E-03,  -584.647E-03,  -103.053E-03,   5.13255E-03
C:/temp/dataset/6/28_12.odb,Step-1,Increment      1: Step Time =    1.000,"PART-1-1",           401,      -13.9820,      -2.43756,            0.,NA,NA,"",   589.488E-03,  -580.692E-03,  -101.453E-03,   5.36301E-03
C:/temp/dataset/6/28_12.odb,Step-1,Increment      1: Step Time =    1.000,"PART-1-1",           402,      -12.8843,      -1.24672,            0.,NA,NA,"",   594.679E-03,  -588.184E-03,  -87.6532E-03,   4.20893E-03
C:/temp/dataset/6/28_12.odb,Step-1,Increment      1: Step Time =    1.000,"PART-1-1",           403,      -12.3802,      -13.7897,            0.,NA,NA,"",   351.569E-03,  -333.886E-03,  -110.093E-03,   8.32430E-03
C:/temp/dataset/6/28_12.odb,Step-1,Increment      1: Step Time =    1.000,"PART-1-1",           404,      -13.6672,      -12.5056,            0.,NA,NA,"",   404.852E-03,  -378.544E-03,  -143.559E-03,   4.61206E-03
C:/temp/dataset/6/28_12.odb,Step-1,Increment      1: Step Time =    1.000,"PART-1-1",           405,          -15.,        -13.75,            0.,NA,NA,"",   382.314E-03,  -335.546E-03,  -183.230E-03,   881.411E-06
C:/temp/dataset/6/28_12.odb,Step-1,Increment      1: Step Time =    1.000,"PART-1-1",           406,      -13.7130,      -15.0341,            0.,NA,NA,"",   323.288E-03,  -291.002E-03,  -140.830E-03,   5.48509E-03
C:/temp/dataset/6/28_12.odb,Step-1,Increment      1: Step Time =    1.000,"PART-1-1",           407,       9.21271,      -3.58583,            0.,NA,NA,"",   514.202E-03,  -513.349E-03,   29.6035E-03,   2.57571E-03
C:/temp/dataset/6/28_12.odb,Step-1,Increment      1: Step Time =    1.000,"PART-1-1",           408,       7.90749,      -3.82305,            0.,NA,NA,"",   512.122E-03,  -512.073E-03,   7.09582E-03,   4.00784E-03
C:/temp/dataset/6/28_12.odb,Step-1,Increment      1: Step Time =    1.000,"PART-1-1",           409,       8.15132,      -5.16923,            0.,NA,NA,"",   483.843E-03,  -483.704E-03,   11.6143E-03,   5.07174E-03
C:/temp/dataset/6/28_12.odb,Step-1,Increment      1: Step Time =    1.000,"PART-1-1",           410,       9.45655,      -4.93201,            0.,NA,NA,"",   487.320E-03,  -486.052E-03,   35.1399E-03,   3.20610E-03
C:/temp/dataset/6/28_12.odb,Step-1,Increment      1: Step Time =    1.000,"PART-1-1",           411,       6.91243,      -16.0318,            0.,NA,NA,"",   181.608E-03,  -180.422E-03,  -20.7243E-03,   4.69727E-03
C:/temp/dataset/6/28_12.odb,Step-1,Increment      1: Step Time =    1.000,"PART-1-1",           412,       5.96229,      -14.9858,            0.,NA,NA,"",   213.866E-03,  -209.181E-03,  -44.5164E-03,   2.74424E-03
C:/temp/dataset/6/28_12.odb,Step-1,Increment      1: Step Time =    1.000,"PART-1-1",           413,            5.,      -16.2875,            0.,NA,NA,"",   187.673E-03,  -176.301E-03,  -64.3362E-03,   4.77409E-03
C:/temp/dataset/6/28_12.odb,Step-1,Increment      1: Step Time =    1.000,"PART-1-1",           414,       6.93910,      -13.7291,            0.,NA,NA,"",   244.394E-03,  -243.276E-03,  -23.3493E-03,   3.38033E-03
C:/temp/dataset/6/28_12.odb,Step-1,Increment      1: Step Time =    1.000,"PART-1-1",           415,       5.97681,      -12.5371,            0.,NA,NA,"",   280.332E-03,  -276.364E-03,  -47.0034E-03,   1.71466E-03
C:/temp/dataset/6/28_12.odb,Step-1,Increment      1: Step Time =    1.000,"PART-1-1",           416,            5.,      -13.7937,            0.,NA,NA,"",   251.970E-03,  -241.655E-03,  -71.3572E-03,   1.53134E-03
C:/temp/dataset/6/28_12.odb,Step-1,Increment      1: Step Time =    1.000,"PART-1-1",           417,         -1.25,          -20.,            0.,NA,NA,"",   61.6686E-03,  -61.4799E-03,   4.82111E-03,   4.29012E-03
C:/temp/dataset/6/28_12.odb,Step-1,Increment      1: Step Time =    1.000,"PART-1-1",           418,      -1.09514,      -22.7401,            0.,NA,NA,"",   59.1603E-03,  -58.6646E-03,   7.64249E-03,   7.68128E-03
C:/temp/dataset/6/28_12.odb,Step-1,Increment      1: Step Time =    1.000,"PART-1-1",           419,   141.566E-03,      -21.4393,            0.,NA,NA,"",   60.8457E-03,  -60.8391E-03,   899.773E-06,   3.34610E-03
C:/temp/dataset/6/28_12.odb,Step-1,Increment      1: Step Time =    1.000,"PART-1-1",           420,      -7.69236,      -25.1479,            0.,NA,NA,"",   32.0352E-03,  -31.9696E-03,   2.04838E-03,   2.88491E-03
C:/temp/dataset/6/28_12.odb,Step-1,Increment      1: Step Time =    1.000,"PART-1-1",           421,      -9.18951,      -25.9970,            0.,NA,NA,"",   24.0432E-03,  -22.9991E-03,  -7.00824E-03,   2.94813E-03
C:/temp/dataset/6/28_12.odb,Step-1,Increment      1: Step Time =    1.000,"PART-1-1",           422,      -8.56598,      -27.1897,            0.,NA,NA,"",   13.1814E-03,  -12.9449E-03,  -2.48537E-03,   3.05051E-03
C:/temp/dataset/6/28_12.odb,Step-1,Increment      1: Step Time =    1.000,"PART-1-1",           423,      -7.06883,      -26.3407,            0.,NA,NA,"",   21.7954E-03,  -21.5104E-03,   3.51288E-03,   3.92107E-03
C:/temp/dataset/6/28_12.odb,Step-1,Increment      1: Step Time =    1.000,"PART-1-1",           424,      -9.82073,      -13.8964,            0.,NA,NA,"",   332.823E-03,  -328.526E-03,  -53.3075E-03,   10.6279E-03
C:/temp/dataset/6/28_12.odb,Step-1,Increment      1: Step Time =    1.000,"PART-1-1",           425,      -8.65586,      -15.1239,            0.,NA,NA,"",   282.939E-03,  -281.868E-03,  -24.5970E-03,   9.34498E-03
C:/temp/dataset/6/28_12.odb,Step-1,Increment      1: Step Time =    1.000,"PART-1-1",           426,      -8.53523,      -12.6467,            0.,NA,NA,"",   375.626E-03,  -374.592E-03,  -27.8526E-03,   9.56189E-03
C:/temp/dataset/6/28_12.odb,Step-1,Increment      1: Step Time =    1.000,"PART-1-1",           427,      -6.09243,      -10.1071,            0.,NA,NA,"",   471.945E-03,  -471.435E-03,   21.9353E-03,   10.9731E-03
C:/temp/dataset/6/28_12.odb,Step-1,Increment      1: Step Time =    1.000,"PART-1-1",           428,           -5.,      -8.71250,            0.,NA,NA,"",   529.559E-03,  -527.625E-03,   45.2208E-03,   15.5844E-03
C:/temp/dataset/6/28_12.odb,Step-1,Increment      1: Step Time =    1.000,"PART-1-1",           429,      -6.07322,      -7.75598,            0.,NA,NA,"",   548.903E-03,  -548.826E-03,   9.24811E-03,   13.1174E-03
C:/temp/dataset/6/28_12.odb,Step-1,Increment      1: Step Time =    1.000,"PART-1-1",           430,      -12.7270,      -6.06323,            0.,NA,NA,"",   558.056E-03,  -548.657E-03,  -101.991E-03,   4.80624E-03
C:/temp/dataset/6/28_12.odb,Step-1,Increment      1: Step Time =    1.000,"PART-1-1",           431,      -13.8025,      -4.90646,            0.,NA,NA,"",   571.686E-03,  -560.544E-03,  -112.317E-03,   7.05542E-03
C:/temp/dataset/6/28_12.odb,Step-1,Increment      1: Step Time =    1.000,"PART-1-1",           432,          -15.,         -6.25,            0.,NA,NA,"",   555.220E-03,  -537.332E-03,  -139.800E-03,   10.1355E-03
C:/temp/dataset/6/28_12.odb,Step-1,Increment      1: Step Time =    1.000,"PART-1-1",           433,      -13.9244,      -7.40677,            0.,NA,NA,"",   537.156E-03,  -521.175E-03,  -130.054E-03,   7.72090E-03
C:/temp/dataset/6/28_12.odb,Step-1,Increment      1: Step Time =    1.000,"PART-1-1",           434,       1.60591,      -1.50045,            0.,NA,NA,"",   556.406E-03,  -554.980E-03,  -39.8111E-03,   5.53139E-03
C:/temp/dataset/6/28_12.odb,Step-1,Increment      1: Step Time =    1.000,"PART-1-1",           435,  -853.298E-03,      -1.92043,            0.,NA,NA,"",   560.955E-03,  -559.610E-03,  -38.8311E-03,   4.51521E-03
C:/temp/dataset/6/28_12.odb,Step-1,Increment      1: Step Time =    1.000,"PART-1-1",           436,         13.75,          -30.,            0.,NA,NA,"",            0.,  -764.456E-42,   16.4764E-39,   11.1333E-03
C:/temp/dataset/6/28_12.odb,Step-1,Increment      1: Step Time =    1.000,"PART-1-1",           437,           15.,      -28.9063,            0.,NA,NA,"",   18.8275E-03,  -13.0737E-03,   13.5482E-03,   13.6630E-03
C:/temp/dataset/6/28_12.odb,Step-1,Increment      1: Step Time =    1.000,"PART-1-1",           438,       13.8103,      -27.8746,            0.,NA,NA,"",   23.7748E-03,  -15.3755E-03,   18.1338E-03,   10.2308E-03
C:/temp/dataset/6/28_12.odb,Step-1,Increment      1: Step Time =    1.000,"PART-1-1",           439,       12.5603,      -28.9683,            0.,NA,NA,"",   7.19563E-03,  -4.16293E-03,   5.86917E-03,   7.24831E-03
C:/temp/dataset/6/28_12.odb,Step-1,Increment      1: Step Time =    1.000,"PART-1-1",           440,       12.6598,      -26.8678,            0.,NA,NA,"",   28.1036E-03,  -19.2491E-03,   20.4765E-03,   8.03032E-03
C:/temp/dataset/6/28_12.odb,Step-1,Increment      1: Step Time =    1.000,"PART-1-1",           441,       11.5501,      -25.8632,            0.,NA,NA,"",   31.5013E-03,  -24.3979E-03,   19.9266E-03,   5.96701E-03
C:/temp/dataset/6/28_12.odb,Step-1,Increment      1: Step Time =    1.000,"PART-1-1",           442,       10.3093,      -26.9762,            0.,NA,NA,"",   16.6793E-03,  -14.1284E-03,   8.86490E-03,   4.11074E-03
C:/temp/dataset/6/28_12.odb,Step-1,Increment      1: Step Time =    1.000,"PART-1-1",           443,       11.4189,      -27.9808,            0.,NA,NA,"",   12.3053E-03,  -8.77832E-03,   8.62324E-03,   6.06141E-03
C:/temp/dataset/6/28_12.odb,Step-1,Increment      1: Step Time =    1.000,"PART-1-1",           444,       10.1086,      -29.0125,            0.,NA,NA,"",   3.80905E-03,  -2.74885E-03,   2.63680E-03,   3.63634E-03
C:/temp/dataset/6/28_12.odb,Step-1,Increment      1: Step Time =    1.000,"PART-1-1",           445,       9.01957,      -28.0513,            0.,NA,NA,"",   7.93664E-03,  -7.40298E-03,   2.86112E-03,   3.17352E-03
C:/temp/dataset/6/28_12.odb,Step-1,Increment      1: Step Time =    1.000,"PART-1-1",           446,          8.75,          -30.,            0.,NA,NA,"",            0.,  -1.28550E-39,   3.84811E-39,   2.53929E-03
C:/temp/dataset/6/28_12.odb,Step-1,Increment      1: Step Time =    1.000,"PART-1-1",           447,       4.20973,      -27.9354,            0.,NA,NA,"",   14.4304E-03,  -14.3030E-03,  -1.91321E-03,   5.06845E-03
C:/temp/dataset/6/28_12.odb,Step-1,Increment      1: Step Time =    1.000,"PART-1-1",           448,       2.74203,      -28.9082,            0.,NA,NA,"",   8.75118E-03,  -8.74120E-03,  -417.813E-06,   5.43378E-03
C:/temp/dataset/6/28_12.odb,Step-1,Increment      1: Step Time =    1.000,"PART-1-1",           449,          3.75,          -30.,            0.,NA,NA,"",            0.,  -4.50308E-39,  -423.108E-42,   4.56210E-03
C:/temp/dataset/6/28_12.odb,Step-1,Increment      1: Step Time =    1.000,"PART-1-1",           450,       1.16266,      -25.9573,            0.,NA,NA,"",   34.0981E-03,  -34.0874E-03,  -854.914E-06,   6.91354E-03
C:/temp/dataset/6/28_12.odb,Step-1,Increment      1: Step Time =    1.000,"PART-1-1",           451,       1.65415,      -27.4536,            0.,NA,NA,"",   21.4456E-03,  -21.4306E-03,  -802.362E-06,   6.02840E-03
C:/temp/dataset/6/28_12.odb,Step-1,Increment      1: Step Time =    1.000,"PART-1-1",           452,       3.39879,      -26.8461,            0.,NA,NA,"",   24.0974E-03,  -23.8532E-03,  -3.42149E-03,   6.02786E-03
C:/temp/dataset/6/28_12.odb,Step-1,Increment      1: Step Time =    1.000,"PART-1-1",           453,       2.90730,      -25.3498,            0.,NA,NA,"",   36.9250E-03,  -36.4983E-03,  -5.59694E-03,   6.73237E-03
C:/temp/dataset/6/28_12.odb,Step-1,Increment      1: Step Time =    1.000,"PART-1-1",           454,      -3.67645,      -27.5530,            0.,NA,NA,"",   18.9348E-03,  -18.2625E-03,   5.00067E-03,   6.05608E-03
C:/temp/dataset/6/28_12.odb,Step-1,Increment      1: Step Time =    1.000,"PART-1-1",           455,      -2.54816,      -26.3074,            0.,NA,NA,"",   31.3785E-03,  -30.5055E-03,   7.35028E-03,   7.26267E-03
C:/temp/dataset/6/28_12.odb,Step-1,Increment      1: Step Time =    1.000,"PART-1-1",           456,      -3.72120,      -25.1278,            0.,NA,NA,"",   40.8547E-03,  -38.9841E-03,   12.2209E-03,   7.64654E-03
C:/temp/dataset/6/28_12.odb,Step-1,Increment      1: Step Time =    1.000,"PART-1-1",           457,      -4.84948,      -26.3734,            0.,NA,NA,"",   27.0044E-03,  -25.6799E-03,   8.35350E-03,   6.31218E-03
C:/temp/dataset/6/28_12.odb,Step-1,Increment      1: Step Time =    1.000,"PART-1-1",           458,      -4.94498,      -28.7931,            0.,NA,NA,"",   7.37969E-03,  -7.15229E-03,   1.81784E-03,   4.60233E-03
C:/temp/dataset/6/28_12.odb,Step-1,Increment      1: Step Time =    1.000,"PART-1-1",           459,         -3.75,          -30.,            0.,NA,NA,"",            0.,  -4.23739E-39,   2.86197E-39,   4.59502E-03
C:/temp/dataset/6/28_12.odb,Step-1,Increment      1: Step Time =    1.000,"PART-1-1",           460,      -6.07748,      -27.5364,            0.,NA,NA,"",   14.2757E-03,  -13.8119E-03,   3.60956E-03,   4.57690E-03
C:/temp/dataset/6/28_12.odb,Step-1,Increment      1: Step Time =    1.000,"PART-1-1",           461,      -7.38250,      -28.7433,            0.,NA,NA,"",   4.55227E-03,  -4.55091E-03,   111.357E-06,   2.51647E-03
C:/temp/dataset/6/28_12.odb,Step-1,Increment      1: Step Time =    1.000,"PART-1-1",           462,         -6.25,          -30.,            0.,NA,NA,"",            0.,  -2.26414E-39,   988.842E-42,   2.50377E-03
C:/temp/dataset/6/28_12.odb,Step-1,Increment      1: Step Time =    1.000,"PART-1-1",           463,      -8.77755,      -24.1806,            0.,NA,NA,"",   43.3161E-03,  -42.8253E-03,  -6.50192E-03,   2.39206E-03
C:/temp/dataset/6/28_12.odb,Step-1,Increment      1: Step Time =    1.000,"PART-1-1",           464,      -9.92276,      -23.8066,            0.,NA,NA,"",   53.0479E-03,  -49.4070E-03,  -19.3137E-03,   4.38584E-03
C:/temp/dataset/6/28_12.odb,Step-1,Increment      1: Step Time =    1.000,"PART-1-1",           465,      -10.3347,      -25.6230,            0.,NA,NA,"",   32.3198E-03,  -27.8812E-03,  -16.3465E-03,   4.90543E-03
C:/temp/dataset/6/28_12.odb,Step-1,Increment      1: Step Time =    1.000,"PART-1-1",           466,       13.9544,      -21.3085,            0.,NA,NA,"",   113.935E-03,  -84.5532E-03,   76.3675E-03,   9.41855E-03
C:/temp/dataset/6/28_12.odb,Step-1,Increment      1: Step Time =    1.000,"PART-1-1",           467,       13.8855,      -23.5136,            0.,NA,NA,"",   79.3330E-03,  -55.1908E-03,   56.9886E-03,   9.51355E-03
C:/temp/dataset/6/28_12.odb,Step-1,Increment      1: Step Time =    1.000,"PART-1-1",           468,           15.,      -22.3438,            0.,NA,NA,"",   110.498E-03,  -74.8295E-03,   81.3034E-03,   11.2701E-03
C:/temp/dataset/6/28_12.odb,Step-1,Increment      1: Step Time =    1.000,"PART-1-1",           469,       12.7349,      -24.6944,            0.,NA,NA,"",   52.7169E-03,  -38.3301E-03,   36.1922E-03,   7.86592E-03
C:/temp/dataset/6/28_12.odb,Step-1,Increment      1: Step Time =    1.000,"PART-1-1",           470,       13.8494,      -25.7120,            0.,NA,NA,"",   50.5698E-03,  -33.4078E-03,   37.9634E-03,   9.59143E-03
C:/temp/dataset/6/28_12.odb,Step-1,Increment      1: Step Time =    1.000,"PART-1-1",           471,           15.,      -24.5313,            0.,NA,NA,"",   77.2671E-03,  -49.5812E-03,   59.2614E-03,   11.1551E-03
C:/temp/dataset/6/28_12.odb,Step-1,Increment      1: Step Time =    1.000,"PART-1-1",           472,         11.25,          -30.,            0.,NA,NA,"",            0.,  -1.11192E-39,   9.42465E-39,   4.86942E-03
C:/temp/dataset/6/28_12.odb,Step-1,Increment      1: Step Time =    1.000,"PART-1-1",           473,       13.9950,      -12.5232,            0.,NA,NA,"",   312.266E-03,  -284.671E-03,   128.345E-03,   3.55027E-03
C:/temp/dataset/6/28_12.odb,Step-1,Increment      1: Step Time =    1.000,"PART-1-1",           474,       12.9942,      -13.6844,            0.,NA,NA,"",   270.840E-03,  -250.844E-03,   102.135E-03,   5.02162E-03
C:/temp/dataset/6/28_12.odb,Step-1,Increment      1: Step Time =    1.000,"PART-1-1",           475,           15.,      -13.5938,            0.,NA,NA,"",   298.417E-03,  -257.594E-03,   150.660E-03,   4.68501E-03
C:/temp/dataset/6/28_12.odb,Step-1,Increment      1: Step Time =    1.000,"PART-1-1",           476,       9.85236,      -17.2546,            0.,NA,NA,"",   154.661E-03,  -151.129E-03,   32.8618E-03,   5.59252E-03
C:/temp/dataset/6/28_12.odb,Step-1,Increment      1: Step Time =    1.000,"PART-1-1",           477,       8.68427,      -17.7513,            0.,NA,NA,"",   137.607E-03,  -136.988E-03,   13.0434E-03,   5.59387E-03
C:/temp/dataset/6/28_12.odb,Step-1,Increment      1: Step Time =    1.000,"PART-1-1",           478,       8.96140,      -18.9835,            0.,NA,NA,"",   110.919E-03,  -109.754E-03,   16.0336E-03,   5.22141E-03
C:/temp/dataset/6/28_12.odb,Step-1,Increment      1: Step Time =    1.000,"PART-1-1",           479,       10.1295,      -18.4868,            0.,NA,NA,"",   127.950E-03,  -123.237E-03,   34.4073E-03,   5.43482E-03
C:/temp/dataset/6/28_12.odb,Step-1,Increment      1: Step Time =    1.000,"PART-1-1",           480,       11.2436,      -18.3856,            0.,NA,NA,"",   138.648E-03,  -128.461E-03,   52.1636E-03,   5.88004E-03
C:/temp/dataset/6/28_12.odb,Step-1,Increment      1: Step Time =    1.000,"PART-1-1",           481,       12.3956,      -19.2305,            0.,NA,NA,"",   132.620E-03,  -114.629E-03,   66.6962E-03,   6.79263E-03
C:/temp/dataset/6/28_12.odb,Step-1,Increment      1: Step Time =    1.000,"PART-1-1",           482,       13.1120,      -18.1414,            0.,NA,NA,"",   163.454E-03,  -139.538E-03,   85.1260E-03,   7.06083E-03
C:/temp/dataset/6/28_12.odb,Step-1,Increment      1: Step Time =    1.000,"PART-1-1",           483,       11.9600,      -17.2965,            0.,NA,NA,"",   169.644E-03,  -155.123E-03,   68.6709E-03,   6.10620E-03
C:/temp/dataset/6/28_12.odb,Step-1,Increment      1: Step Time =    1.000,"PART-1-1",           484,       14.0024,      -3.77677,            0.,NA,NA,"",   516.776E-03,  -502.864E-03,   119.101E-03,   3.35106E-03
C:/temp/dataset/6/28_12.odb,Step-1,Increment      1: Step Time =    1.000,"PART-1-1",           485,       13.0359,      -4.87313,            0.,NA,NA,"",   493.043E-03,  -482.154E-03,   103.049E-03,   2.16364E-03
C:/temp/dataset/6/28_12.odb,Step-1,Increment      1: Step Time =    1.000,"PART-1-1",           486,       14.0335,      -5.94012,            0.,NA,NA,"",   474.824E-03,  -457.774E-03,   126.099E-03,   2.99957E-03
C:/temp/dataset/6/28_12.odb,Step-1,Increment      1: Step Time =    1.000,"PART-1-1",           487,           15.,      -4.84375,            0.,NA,NA,"",   500.938E-03,  -480.154E-03,   142.797E-03,   4.31938E-03
C:/temp/dataset/6/28_12.odb,Step-1,Increment      1: Step Time =    1.000,"PART-1-1",           488,       13.0510,      -7.01836,            0.,NA,NA,"",   446.085E-03,  -432.987E-03,   107.301E-03,   2.59354E-03
C:/temp/dataset/6/28_12.odb,Step-1,Increment      1: Step Time =    1.000,"PART-1-1",           489,       14.0175,      -8.10950,            0.,NA,NA,"",   425.431E-03,  -404.958E-03,   130.387E-03,   2.06506E-03
C:/temp/dataset/6/28_12.odb,Step-1,Increment      1: Step Time =    1.000,"PART-1-1",           490,           15.,      -7.03125,            0.,NA,NA,"",   456.897E-03,  -431.125E-03,   151.283E-03,   3.12722E-03
C:/temp/dataset/6/28_12.odb,Step-1,Increment      1: Step Time =    1.000,"PART-1-1",           491,         13.75,            5.,            0.,NA,NA,"",   642.522E-03,  -634.402E-03,   101.821E-03,   214.170E-06
C:/temp/dataset/6/28_12.odb,Step-1,Increment      1: Step Time =    1.000,"PART-1-1",           492,       12.4982,       3.90020,            0.,NA,NA,"",   623.086E-03,  -617.599E-03,   82.5104E-03,   1.09282E-03
C:/temp/dataset/6/28_12.odb,Step-1,Increment      1: Step Time =    1.000,"PART-1-1",           493,       13.7482,       2.80645,            0.,NA,NA,"",   611.271E-03,  -602.656E-03,   102.266E-03,   1.04065E-03
C:/temp/dataset/6/28_12.odb,Step-1,Increment      1: Step Time =    1.000,"PART-1-1",           494,           15.,       3.90625,            0.,NA,NA,"",   630.052E-03,  -618.413E-03,   120.545E-03,   187.192E-06
C:/temp/dataset/6/28_12.odb,Step-1,Increment      1: Step Time =    1.000,"PART-1-1",           495,         11.25,            5.,            0.,NA,NA,"",   635.788E-03,  -632.642E-03,   63.1710E-03,   1.59629E-03
C:/temp/dataset/6/28_12.odb,Step-1,Increment      1: Step Time =    1.000,"PART-1-1",           496,       11.2740,       2.82937,            0.,NA,NA,"",   605.220E-03,  -601.965E-03,   62.6826E-03,   2.23809E-03
C:/temp/dataset/6/28_12.odb,Step-1,Increment      1: Step Time =    1.000,"PART-1-1",           497,       11.1422,   446.578E-03,            0.,NA,NA,"",   574.453E-03,  -571.224E-03,   60.8230E-03,   2.64721E-03
C:/temp/dataset/6/28_12.odb,Step-1,Increment      1: Step Time =    1.000,"PART-1-1",           498,       10.2035,  -836.101E-03,            0.,NA,NA,"",   556.358E-03,  -554.511E-03,   45.3000E-03,   2.41691E-03
C:/temp/dataset/6/28_12.odb,Step-1,Increment      1: Step Time =    1.000,"PART-1-1",           499,       11.7017,      -1.82731,            0.,NA,NA,"",   543.792E-03,  -538.924E-03,   72.6013E-03,   2.23862E-03
C:/temp/dataset/6/28_12.odb,Step-1,Increment      1: Step Time =    1.000,"PART-1-1",           500,       12.5035,       1.67834,            0.,NA,NA,"",   593.203E-03,  -587.360E-03,   83.0548E-03,   2.21261E-03
C:/temp/dataset/6/28_12.odb,Step-1,Increment      1: Step Time =    1.000,"PART-1-1",           501,       9.91277,       1.59761,            0.,NA,NA,"",   586.764E-03,  -585.377E-03,   40.3151E-03,   2.63703E-03
C:/temp/dataset/6/28_12.odb,Step-1,Increment      1: Step Time =    1.000,"PART-1-1",           502,       5.19643,       3.92738,            0.,NA,NA,"",   602.007E-03,  -601.733E-03,  -18.1466E-03,   3.68404E-03
C:/temp/dataset/6/28_12.odb,Step-1,Increment      1: Step Time =    1.000,"PART-1-1",           503,          3.75,            5.,            0.,NA,NA,"",   605.196E-03,  -604.594E-03,  -26.9782E-03,   4.65065E-03
C:/temp/dataset/6/28_12.odb,Step-1,Increment      1: Step Time =    1.000,"PART-1-1",           504,       2.66615,       3.61346,            0.,NA,NA,"",   593.491E-03,  -592.464E-03,  -34.8998E-03,   2.86464E-03
C:/temp/dataset/6/28_12.odb,Step-1,Increment      1: Step Time =    1.000,"PART-1-1",           505,      -1.00804,       2.95894,            0.,NA,NA,"",   587.071E-03,  -585.607E-03,  -41.4311E-03,   3.16384E-03
C:/temp/dataset/6/28_12.odb,Step-1,Increment      1: Step Time =    1.000,"PART-1-1",           506,   87.8012E-03,       3.95476,            0.,NA,NA,"",   591.439E-03,  -590.025E-03,  -40.8727E-03,   1.97169E-03
C:/temp/dataset/6/28_12.odb,Step-1,Increment      1: Step Time =    1.000,"PART-1-1",           507,         -1.25,            5.,            0.,NA,NA,"",   592.778E-03,  -591.323E-03,  -41.5180E-03,   333.274E-06
C:/temp/dataset/6/28_12.odb,Step-1,Increment      1: Step Time =    1.000,"PART-1-1",           508,      -2.34584,       4.00418,            0.,NA,NA,"",   591.730E-03,  -590.281E-03,  -41.3788E-03,   1.95909E-03
C:/temp/dataset/6/28_12.odb,Step-1,Increment      1: Step Time =    1.000,"PART-1-1",           509,      -3.27281,       2.96378,            0.,NA,NA,"",   588.985E-03,  -587.578E-03,  -40.6826E-03,   2.91521E-03
C:/temp/dataset/6/28_12.odb,Step-1,Increment      1: Step Time =    1.000,"PART-1-1",           510,         -3.75,            5.,            0.,NA,NA,"",   596.028E-03,  -594.512E-03,  -42.4835E-03,   3.04929E-03
C:/temp/dataset/6/28_12.odb,Step-1,Increment      1: Step Time =    1.000,"PART-1-1",           511,      -4.67697,       3.95960,            0.,NA,NA,"",   595.055E-03,  -593.572E-03,  -41.9808E-03,   2.83148E-03
C:/temp/dataset/6/28_12.odb,Step-1,Increment      1: Step Time =    1.000,"PART-1-1",           512,      -7.93004,       8.58536,            0.,NA,NA,"",   626.216E-03,  -623.525E-03,  -57.9995E-03,   136.982E-06
C:/temp/dataset/6/28_12.odb,Step-1,Increment      1: Step Time =    1.000,"PART-1-1",           513,      -8.65034,       7.25415,            0.,NA,NA,"",   619.888E-03,  -616.838E-03,  -61.4151E-03,   594.830E-06
C:/temp/dataset/6/28_12.odb,Step-1,Increment      1: Step Time =    1.000,"PART-1-1",           514,      -7.51010,       6.50150,            0.,NA,NA,"",   614.748E-03,  -612.230E-03,  -55.5908E-03,   814.100E-06
C:/temp/dataset/6/28_12.odb,Step-1,Increment      1: Step Time =    1.000,"PART-1-1",           515,      -6.78981,       7.83270,            0.,NA,NA,"",   621.585E-03,  -619.391E-03,  -52.1872E-03,   321.468E-06
C:/temp/dataset/6/28_12.odb,Step-1,Increment      1: Step Time =    1.000,"PART-1-1",           516,      -7.08495,       12.0475,            0.,NA,NA,"",   643.113E-03,  -640.862E-03,  -53.7493E-03,   52.8118E-06
C:/temp/dataset/6/28_12.odb,Step-1,Increment      1: Step Time =    1.000,"PART-1-1",           517,      -6.02998,       11.1050,            0.,NA,NA,"",   638.047E-03,  -636.206E-03,  -48.4283E-03,   66.3971E-06
C:/temp/dataset/6/28_12.odb,Step-1,Increment      1: Step Time =    1.000,"PART-1-1",           518,           -5.,       12.2917,            0.,NA,NA,"",   643.526E-03,  -642.063E-03,  -43.3780E-03,   78.3563E-06
C:/temp/dataset/6/28_12.odb,Step-1,Increment      1: Step Time =    1.000,"PART-1-1",           519,      -6.05497,       13.2342,            0.,NA,NA,"",   648.532E-03,  -646.705E-03,  -48.6514E-03,   36.4077E-06
C:/temp/dataset/6/28_12.odb,Step-1,Increment      1: Step Time =    1.000,"PART-1-1",           520,      -9.96524,       21.0498,            0.,NA,NA,"",   688.353E-03,  -684.986E-03,  -67.9998E-03,   1.64976E-06
C:/temp/dataset/6/28_12.odb,Step-1,Increment      1: Step Time =    1.000,"PART-1-1",           521,      -8.51702,       20.1362,            0.,NA,NA,"",   683.237E-03,  -680.520E-03,  -60.8764E-03,   2.00253E-06
C:/temp/dataset/6/28_12.odb,Step-1,Increment      1: Step Time =    1.000,"PART-1-1",           522,      -8.09442,       21.6565,            0.,NA,NA,"",   690.499E-03,  -687.990E-03,  -58.8182E-03,   908.801E-09
C:/temp/dataset/6/28_12.odb,Step-1,Increment      1: Step Time =    1.000,"PART-1-1",           523,      -9.54264,       22.5701,            0.,NA,NA,"",   695.591E-03,  -692.458E-03,  -65.9419E-03,   392.028E-09
C:/temp/dataset/6/28_12.odb,Step-1,Increment      1: Step Time =    1.000,"PART-1-1",           524,      -7.38593,       19.0122,            0.,NA,NA,"",   677.279E-03,  -675.017E-03,  -55.3074E-03,   4.69259E-06
C:/temp/dataset/6/28_12.odb,Step-1,Increment      1: Step Time =    1.000,"PART-1-1",           525,      -6.14460,       17.5723,            0.,NA,NA,"",   669.778E-03,  -667.969E-03,  -49.1903E-03,   4.89951E-06
C:/temp/dataset/6/28_12.odb,Step-1,Increment      1: Step Time =    1.000,"PART-1-1",           526,           -5.,       18.5417,            0.,NA,NA,"",   674.148E-03,  -672.738E-03,  -43.5847E-03,   2.44660E-06
C:/temp/dataset/6/28_12.odb,Step-1,Increment      1: Step Time =    1.000,"PART-1-1",           527,      -9.12859,       24.1056,            0.,NA,NA,"",   702.918E-03,  -700.005E-03,  -63.9268E-03,   170.625E-09
C:/temp/dataset/6/28_12.odb,Step-1,Increment      1: Step Time =    1.000,"PART-1-1",           528,      -7.82088,       23.2603,            0.,NA,NA,"",   698.240E-03,  -695.869E-03,  -57.4940E-03,   162.687E-09
C:/temp/dataset/6/28_12.odb,Step-1,Increment      1: Step Time =    1.000,"PART-1-1",           529,      -7.11221,       24.6459,            0.,NA,NA,"",   704.757E-03,  -702.683E-03,  -54.0304E-03,   134.224E-09
C:/temp/dataset/6/28_12.odb,Step-1,Increment      1: Step Time =    1.000,"PART-1-1",           530,      -8.41993,       25.4912,            0.,NA,NA,"",   709.400E-03,  -706.819E-03,  -60.4631E-03,   133.511E-09
C:/temp/dataset/6/28_12.odb,Step-1,Increment      1: Step Time =    1.000,"PART-1-1",           531,           -5.,       28.9583,            0.,NA,NA,"",   725.207E-03,  -723.889E-03,  -43.7085E-03,   21.1464E-09
C:/temp/dataset/6/28_12.odb,Step-1,Increment      1: Step Time =    1.000,"PART-1-1",           532,         -6.25,           30.,            0.,NA,NA,"",   730.693E-03,  -728.990E-03,  -49.8603E-03,   21.6454E-09
C:/temp/dataset/6/28_12.odb,Step-1,Increment      1: Step Time =    1.000,"PART-1-1",           533,      -6.22481,       27.8751,            0.,NA,NA,"",   720.271E-03,  -718.554E-03,  -49.7110E-03,   76.4431E-09
C:/temp/dataset/6/28_12.odb,Step-1,Increment      1: Step Time =    1.000,"PART-1-1",           534,      -11.1386,       27.5393,            0.,NA,NA,"",   720.638E-03,  -716.845E-03,  -73.8406E-03,   99.2925E-09
C:/temp/dataset/6/28_12.odb,Step-1,Increment      1: Step Time =    1.000,"PART-1-1",           535,        -11.25,           30.,            0.,NA,NA,"",   732.719E-03,  -728.930E-03,  -74.4177E-03,   97.3081E-09
C:/temp/dataset/6/28_12.odb,Step-1,Increment      1: Step Time =    1.000,"PART-1-1",           536,      -13.1147,       13.7606,            0.,NA,NA,"",   654.425E-03,  -649.093E-03,  -83.3718E-03,   33.6552E-06
C:/temp/dataset/6/28_12.odb,Step-1,Increment      1: Step Time =    1.000,"PART-1-1",           537,      -14.0658,       14.9906,            0.,NA,NA,"",   661.027E-03,  -655.137E-03,  -88.0462E-03,   17.0998E-06
C:/temp/dataset/6/28_12.odb,Step-1,Increment      1: Step Time =    1.000,"PART-1-1",           538,          -15.,         13.75,            0.,NA,NA,"",   655.605E-03,  -649.035E-03,  -92.5860E-03,   39.1511E-06
C:/temp/dataset/6/28_12.odb,Step-1,Increment      1: Step Time =    1.000,"PART-1-1",           539,      -9.42834,       18.6970,            0.,NA,NA,"",   676.602E-03,  -673.440E-03,  -65.3389E-03,   6.23473E-06
C:/temp/dataset/6/28_12.odb,Step-1,Increment      1: Step Time =    1.000,"PART-1-1",           540,      -8.29725,       17.5730,            0.,NA,NA,"",   670.611E-03,  -667.942E-03,  -59.7716E-03,   8.04457E-06
C:/temp/dataset/6/28_12.odb,Step-1,Increment      1: Step Time =    1.000,"PART-1-1",           541,      -12.7588,       6.21303,            0.,NA,NA,"",   618.879E-03,  -613.484E-03,  -81.5378E-03,   518.798E-06
C:/temp/dataset/6/28_12.odb,Step-1,Increment      1: Step Time =    1.000,"PART-1-1",           542,          -15.,          6.25,            0.,NA,NA,"",   620.487E-03,  -613.668E-03,  -91.7417E-03,   40.2687E-06
C:/temp/dataset/6/28_12.odb,Step-1,Increment      1: Step Time =    1.000,"PART-1-1",           543,      -9.01063,       9.47069,            0.,NA,NA,"",   631.253E-03,  -628.061E-03,  -63.3953E-03,   96.1565E-06
C:/temp/dataset/6/28_12.odb,Step-1,Increment      1: Step Time =    1.000,"PART-1-1",           544,      -10.0811,       10.4578,            0.,NA,NA,"",   636.661E-03,  -632.949E-03,  -68.6477E-03,   56.7508E-06
C:/temp/dataset/6/28_12.odb,Step-1,Increment      1: Step Time =    1.000,"PART-1-1",           545,      -10.9384,       9.05000,            0.,NA,NA,"",   630.338E-03,  -626.116E-03,  -72.8303E-03,   113.035E-06
C:/temp/dataset/6/28_12.odb,Step-1,Increment      1: Step Time =    1.000,"PART-1-1",           546,      -9.86794,       8.06293,            0.,NA,NA,"",   624.879E-03,  -621.218E-03,  -67.5447E-03,   206.407E-06
C:/temp/dataset/6/28_12.odb,Step-1,Increment      1: Step Time =    1.000,"PART-1-1",           547,      -7.23366,       1.29985,            0.,NA,NA,"",   590.461E-03,  -588.637E-03,  -46.3834E-03,   3.32667E-03
C:/temp/dataset/6/28_12.odb,Step-1,Increment      1: Step Time =    1.000,"PART-1-1",           548,      -8.34685,   784.410E-03,            0.,NA,NA,"",   592.127E-03,  -589.930E-03,  -50.9625E-03,   4.04563E-03
C:/temp/dataset/6/28_12.odb,Step-1,Increment      1: Step Time =    1.000,"PART-1-1",           549,      -7.43977,  -685.632E-03,            0.,NA,NA,"",   584.714E-03,  -583.275E-03,  -41.0015E-03,   5.04213E-03
C:/temp/dataset/6/28_12.odb,Step-1,Increment      1: Step Time =    1.000,"PART-1-1",           550,      -12.4903,      -8.57964,            0.,NA,NA,"",   511.074E-03,  -499.563E-03,  -107.858E-03,   5.24639E-03
C:/temp/dataset/6/28_12.odb,Step-1,Increment      1: Step Time =    1.000,"PART-1-1",           551,          -15.,         -8.75,            0.,NA,NA,"",   513.244E-03,  -486.719E-03,  -162.859E-03,   9.09423E-03
C:/temp/dataset/6/28_12.odb,Step-1,Increment      1: Step Time =    1.000,"PART-1-1",           552,      -13.5658,      -9.92286,            0.,NA,NA,"",   480.125E-03,  -460.600E-03,  -135.528E-03,   5.99483E-03
C:/temp/dataset/6/28_12.odb,Step-1,Increment      1: Step Time =    1.000,"PART-1-1",           553,      -11.9783,      -7.15971,            0.,NA,NA,"",   540.512E-03,  -532.364E-03,  -93.4961E-03,   4.65683E-03
C:/temp/dataset/6/28_12.odb,Step-1,Increment      1: Step Time =    1.000,"PART-1-1",           554,      -11.8960,      -5.22799,            0.,NA,NA,"",   568.675E-03,  -562.154E-03,  -85.8703E-03,   4.41405E-03
C:/temp/dataset/6/28_12.odb,Step-1,Increment      1: Step Time =    1.000,"PART-1-1",           555,      -12.4565,      -16.3452,            0.,NA,NA,"",   264.849E-03,  -243.751E-03,  -103.588E-03,   8.55080E-03
C:/temp/dataset/6/28_12.odb,Step-1,Increment      1: Step Time =    1.000,"PART-1-1",           556,          -15.,        -16.25,            0.,NA,NA,"",   306.404E-03,  -252.550E-03,  -173.500E-03,   6.54413E-03
C:/temp/dataset/6/28_12.odb,Step-1,Increment      1: Step Time =    1.000,"PART-1-1",           557,      -13.7435,      -17.5611,            0.,NA,NA,"",   243.742E-03,  -207.333E-03,  -128.152E-03,   8.23097E-03
C:/temp/dataset/6/28_12.odb,Step-1,Increment      1: Step Time =    1.000,"PART-1-1",           558,      -9.99221,      -8.41662,            0.,NA,NA,"",   515.621E-03,  -511.951E-03,  -61.4058E-03,   6.48119E-03
C:/temp/dataset/6/28_12.odb,Step-1,Increment      1: Step Time =    1.000,"PART-1-1",           559,      -11.4633,      -9.12095,            0.,NA,NA,"",   496.628E-03,  -488.493E-03,  -89.5193E-03,   6.05257E-03
C:/temp/dataset/6/28_12.odb,Step-1,Increment      1: Step Time =    1.000,"PART-1-1",           560,      -10.8070,      -10.1141,            0.,NA,NA,"",   467.822E-03,  -461.241E-03,  -78.1917E-03,   7.93772E-03
C:/temp/dataset/6/28_12.odb,Step-1,Increment      1: Step Time =    1.000,"PART-1-1",           561,      -13.9189,      -24.9166,            0.,NA,NA,"",   76.8915E-03,  -49.4267E-03,  -58.9007E-03,   12.5478E-03
C:/temp/dataset/6/28_12.odb,Step-1,Increment      1: Step Time =    1.000,"PART-1-1",           562,      -12.9076,      -23.6273,            0.,NA,NA,"",   85.2981E-03,  -62.0943E-03,  -58.4813E-03,   10.1230E-03
C:/temp/dataset/6/28_12.odb,Step-1,Increment      1: Step Time =    1.000,"PART-1-1",           563,          -15.,        -23.75,            0.,NA,NA,"",   113.710E-03,  -71.8494E-03,  -88.1339E-03,   14.7214E-03
C:/temp/dataset/6/28_12.odb,Step-1,Increment      1: Step Time =    1.000,"PART-1-1",           564,          -15.,        -28.75,            0.,NA,NA,"",   26.1065E-03,  -17.5150E-03,  -19.3590E-03,   16.9703E-03
C:/temp/dataset/6/28_12.odb,Step-1,Increment      1: Step Time =    1.000,"PART-1-1",           565,        -13.75,          -30.,            0.,NA,NA,"",            0.,   11.0590E-42,  -20.5505E-39,   13.7002E-03
C:/temp/dataset/6/28_12.odb,Step-1,Increment      1: Step Time =    1.000,"PART-1-1",           566,      -13.7642,      -27.4123,            0.,NA,NA,"",   35.5441E-03,  -21.3479E-03,  -28.4193E-03,   12.9772E-03
C:/temp/dataset/6/28_12.odb,Step-1,Increment      1: Step Time =    1.000,"PART-1-1",           567,            5.,      -6.25625,            0.,NA,NA,"",   457.515E-03,  -454.421E-03,  -53.1173E-03,   12.0127E-03
C:/temp/dataset/6/28_12.odb,Step-1,Increment      1: Step Time =    1.000,"PART-1-1",           568,       7.03347,      -6.11658,            0.,NA,NA,"",   463.014E-03,  -462.934E-03,  -8.63971E-03,   6.32959E-03
C:/temp/dataset/6/28_12.odb,Step-1,Increment      1: Step Time =    1.000,"PART-1-1",           569,       6.04361,      -4.83741,            0.,NA,NA,"",   501.134E-03,  -500.568E-03,  -23.8033E-03,   10.9822E-03
C:/temp/dataset/6/28_12.odb,Step-1,Increment      1: Step Time =    1.000,"PART-1-1",           570,           15.,      -2.65625,            0.,NA,NA,"",   538.306E-03,  -521.507E-03,   133.430E-03,   4.14952E-03
C:/temp/dataset/6/28_12.odb,Step-1,Increment      1: Step Time =    1.000,"PART-1-1",           571,       12.8875,      -2.72454,            0.,NA,NA,"",   531.787E-03,  -523.120E-03,   95.6164E-03,   2.16573E-03
C:/temp/dataset/6/28_12.odb,Step-1,Increment      1: Step Time =    1.000,"PART-1-1",           572,       10.0248,      -7.91896,            0.,NA,NA,"",   413.648E-03,  -411.009E-03,   46.6572E-03,   5.19507E-03
C:/temp/dataset/6/28_12.odb,Step-1,Increment      1: Step Time =    1.000,"PART-1-1",           573,       8.98203,      -8.99604,            0.,NA,NA,"",   381.246E-03,  -380.429E-03,   24.9521E-03,   5.75687E-03
C:/temp/dataset/6/28_12.odb,Step-1,Increment      1: Step Time =    1.000,"PART-1-1",           574,       9.98204,      -10.2112,            0.,NA,NA,"",   349.068E-03,  -346.269E-03,   44.1208E-03,   5.46833E-03
C:/temp/dataset/6/28_12.odb,Step-1,Increment      1: Step Time =    1.000,"PART-1-1",           575,            5.,      -11.2813,            0.,NA,NA,"",   319.175E-03,  -310.816E-03,  -72.5685E-03,   1.23531E-03
C:/temp/dataset/6/28_12.odb,Step-1,Increment      1: Step Time =    1.000,"PART-1-1",           576,       6.96001,      -11.3098,            0.,NA,NA,"",   312.644E-03,  -311.832E-03,  -22.5145E-03,   3.63437E-03
C:/temp/dataset/6/28_12.odb,Step-1,Increment      1: Step Time =    1.000,"PART-1-1",           577,       12.1169,      -5.93459,            0.,NA,NA,"",   467.766E-03,  -459.672E-03,   86.6423E-03,   2.66976E-03
C:/temp/dataset/6/28_12.odb,Step-1,Increment      1: Step Time =    1.000,"PART-1-1",           578,       11.1088,      -6.97100,            0.,NA,NA,"",   440.615E-03,  -435.374E-03,   67.7564E-03,   3.82893E-03
C:/temp/dataset/6/28_12.odb,Step-1,Increment      1: Step Time =    1.000,"PART-1-1",           579,           15.,      -11.4063,            0.,NA,NA,"",   353.271E-03,  -316.820E-03,   156.288E-03,   1.85330E-03
C:/temp/dataset/6/28_12.odb,Step-1,Increment      1: Step Time =    1.000,"PART-1-1",           580,       13.9991,      -10.3053,            0.,NA,NA,"",   370.195E-03,  -346.129E-03,   131.296E-03,   2.01668E-03
C:/temp/dataset/6/28_12.odb,Step-1,Increment      1: Step Time =    1.000,"PART-1-1",           581,       12.9941,      -11.4223,            0.,NA,NA,"",   331.740E-03,  -314.111E-03,   106.706E-03,   4.07740E-03
C:/temp/dataset/6/28_12.odb,Step-1,Increment      1: Step Time =    1.000,"PART-1-1",           582,           15.,      -9.21875,            0.,NA,NA,"",   406.950E-03,  -375.736E-03,   156.303E-03,   904.978E-06
C:/temp/dataset/6/28_12.odb,Step-1,Increment      1: Step Time =    1.000,"PART-1-1",           583,       9.25975,      -25.9916,            0.,NA,NA,"",   21.8879E-03,  -20.8860E-03,   6.54625E-03,   2.76206E-03
C:/temp/dataset/6/28_12.odb,Step-1,Increment      1: Step Time =    1.000,"PART-1-1",           584,       7.97004,      -27.0667,            0.,NA,NA,"",   14.1359E-03,  -14.0895E-03,   1.14413E-03,   2.80707E-03
C:/temp/dataset/6/28_12.odb,Step-1,Increment      1: Step Time =    1.000,"PART-1-1",           585,       9.98268,      -20.3187,            0.,NA,NA,"",   90.9816E-03,  -86.9798E-03,   26.6863E-03,   4.81222E-03
C:/temp/dataset/6/28_12.odb,Step-1,Increment      1: Step Time =    1.000,"PART-1-1",           586,       8.47236,      -19.9740,            0.,NA,NA,"",   89.2430E-03,  -88.9111E-03,   7.69008E-03,   4.54786E-03
C:/temp/dataset/6/28_12.odb,Step-1,Increment      1: Step Time =    1.000,"PART-1-1",           587,       7.80775,      -21.2882,            0.,NA,NA,"",   66.5656E-03,  -66.5470E-03,  -1.57333E-03,   2.88043E-03
C:/temp/dataset/6/28_12.odb,Step-1,Increment      1: Step Time =    1.000,"PART-1-1",           588,       9.31806,      -21.6330,            0.,NA,NA,"",   66.6126E-03,  -64.9527E-03,   14.7777E-03,   3.09009E-03
C:/temp/dataset/6/28_12.odb,Step-1,Increment      1: Step Time =    1.000,"PART-1-1",           589,          3.75,          -20.,            0.,NA,NA,"",   66.9748E-03,  -65.3787E-03,  -14.5347E-03,   9.27025E-03
C:/temp/dataset/6/28_12.odb,Step-1,Increment      1: Step Time =    1.000,"PART-1-1",           590,       2.69482,      -20.9389,            0.,NA,NA,"",   63.6077E-03,  -62.6749E-03,  -10.8535E-03,   3.78312E-03
C:/temp/dataset/6/28_12.odb,Step-1,Increment      1: Step Time =    1.000,"PART-1-1",           591,       4.10336,      -21.5712,            0.,NA,NA,"",   66.0183E-03,  -63.2676E-03,  -18.8582E-03,   7.62918E-03
C:/temp/dataset/6/28_12.odb,Step-1,Increment      1: Step Time =    1.000,"PART-1-1",           592,       5.15854,      -20.6323,            0.,NA,NA,"",   75.8015E-03,  -70.8270E-03,  -27.0075E-03,   11.0816E-03
C:/temp/dataset/6/28_12.odb,Step-1,Increment      1: Step Time =    1.000,"PART-1-1",           593,          1.25,          -20.,            0.,NA,NA,"",   58.8049E-03,  -58.7136E-03,  -3.27651E-03,   682.069E-06
C:/temp/dataset/6/28_12.odb,Step-1,Increment      1: Step Time =    1.000,"PART-1-1",           594,       1.58638,      -22.3782,            0.,NA,NA,"",   57.9462E-03,  -57.7243E-03,  -5.06662E-03,   6.09005E-03
C:/temp/dataset/6/28_12.odb,Step-1,Increment      1: Step Time =    1.000,"PART-1-1",           595,      -7.18878,      -21.5166,            0.,NA,NA,"",   80.0628E-03,  -79.4402E-03,   9.96527E-03,   5.35366E-03
C:/temp/dataset/6/28_12.odb,Step-1,Increment      1: Step Time =    1.000,"PART-1-1",           596,      -8.69544,      -20.4918,            0.,NA,NA,"",   107.555E-03,  -106.731E-03,  -13.2890E-03,   7.34709E-03
C:/temp/dataset/6/28_12.odb,Step-1,Increment      1: Step Time =    1.000,"PART-1-1",           597,      -9.53108,      -21.9939,            0.,NA,NA,"",   80.6005E-03,  -77.8034E-03,  -21.0491E-03,   5.14710E-03
C:/temp/dataset/6/28_12.odb,Step-1,Increment      1: Step Time =    1.000,"PART-1-1",           598,      -8.02442,      -23.0186,            0.,NA,NA,"",   57.5312E-03,  -57.5310E-03,   136.556E-06,   2.49602E-03
C:/temp/dataset/6/28_12.odb,Step-1,Increment      1: Step Time =    1.000,"PART-1-1",           599,           -5.,      -18.7437,            0.,NA,NA,"",   163.635E-03,  -152.997E-03,   58.0390E-03,   16.6276E-03
C:/temp/dataset/6/28_12.odb,Step-1,Increment      1: Step Time =    1.000,"PART-1-1",           600,      -6.23242,      -17.5731,            0.,NA,NA,"",   193.933E-03,  -191.212E-03,   32.3749E-03,   7.46055E-03
C:/temp/dataset/6/28_12.odb,Step-1,Increment      1: Step Time =    1.000,"PART-1-1",           601,      -7.41830,      -18.9573,            0.,NA,NA,"",   142.881E-03,  -142.820E-03,   4.18220E-03,   9.52470E-03
C:/temp/dataset/6/28_12.odb,Step-1,Increment      1: Step Time =    1.000,"PART-1-1",           602,      -6.18588,      -20.1280,            0.,NA,NA,"",   104.821E-03,  -101.954E-03,   24.3446E-03,   13.0724E-03
C:/temp/dataset/6/28_12.odb,Step-1,Increment      1: Step Time =    1.000,"PART-1-1",           603,           -5.,      -16.2312,            0.,NA,NA,"",   256.362E-03,  -244.338E-03,   77.5909E-03,   4.49885E-03
C:/temp/dataset/6/28_12.odb,Step-1,Increment      1: Step Time =    1.000,"PART-1-1",           604,      -7.44257,      -16.3835,            0.,NA,NA,"",   234.591E-03,  -234.535E-03,   5.12635E-03,   9.01291E-03
C:/temp/dataset/6/28_12.odb,Step-1,Increment      1: Step Time =    1.000,"PART-1-1",           605,      -12.6830,      -26.0788,            0.,NA,NA,"",   44.7157E-03,  -29.6880E-03,  -33.4382E-03,   10.0644E-03
C:/temp/dataset/6/28_12.odb,Step-1,Increment      1: Step Time =    1.000,"PART-1-1",           606,          -15.,        -26.25,            0.,NA,NA,"",   68.6229E-03,  -40.9723E-03,  -55.0488E-03,   15.1402E-03
C:/temp/dataset/6/28_12.odb,Step-1,Increment      1: Step Time =    1.000,"PART-1-1",           607,         -8.75,          -30.,            0.,NA,NA,"",            0.,  -727.809E-42,  -3.96989E-39,   2.23917E-03
C:/temp/dataset/6/28_12.odb,Step-1,Increment      1: Step Time =    1.000,"PART-1-1",           608,          -15.,        -18.75,            0.,NA,NA,"",   233.288E-03,  -177.336E-03,  -151.576E-03,   11.1846E-03
C:/temp/dataset/6/28_12.odb,Step-1,Increment      1: Step Time =    1.000,"PART-1-1",           609,      -12.5734,      -18.8685,            0.,NA,NA,"",   188.181E-03,  -164.319E-03,  -91.7125E-03,   8.71849E-03
C:/temp/dataset/6/28_12.odb,Step-1,Increment      1: Step Time =    1.000,"PART-1-1",           610,           -5.,      -11.2063,            0.,NA,NA,"",   429.854E-03,  -424.277E-03,   69.0167E-03,   6.39379E-03
C:/temp/dataset/6/28_12.odb,Step-1,Increment      1: Step Time =    1.000,"PART-1-1",           611,      -7.25264,      -11.4522,            0.,NA,NA,"",   419.410E-03,  -419.408E-03,  -1.12098E-03,   10.0780E-03
C:/temp/dataset/6/28_12.odb,Step-1,Increment      1: Step Time =    1.000,"PART-1-1",           612,           -5.,      -6.23750,            0.,NA,NA,"",   576.912E-03,  -576.845E-03,   8.75132E-03,   18.4444E-03
C:/temp/dataset/6/28_12.odb,Step-1,Increment      1: Step Time =    1.000,"PART-1-1",           613,      -6.16987,      -5.46941,            0.,NA,NA,"",   577.049E-03,  -577.030E-03,  -4.61476E-03,   10.9522E-03
C:/temp/dataset/6/28_12.odb,Step-1,Increment      1: Step Time =    1.000,"PART-1-1",           614,      -7.24309,      -6.98789,            0.,NA,NA,"",   557.028E-03,  -556.853E-03,  -13.9379E-03,   8.81398E-03
C:/temp/dataset/6/28_12.odb,Step-1,Increment      1: Step Time =    1.000,"PART-1-1",           615,           -5.,       16.4583,            0.,NA,NA,"",   663.948E-03,  -662.518E-03,  -43.5519E-03,   10.4886E-06
C:/temp/dataset/6/28_12.odb,Step-1,Increment      1: Step Time =    1.000,"PART-1-1",           616,      -7.23328,       16.4840,            0.,NA,NA,"",   664.859E-03,  -662.619E-03,  -54.5285E-03,   14.8905E-06
C:/temp/dataset/6/28_12.odb,Step-1,Increment      1: Step Time =    1.000,"PART-1-1",           617,      -6.08867,       15.3700,            0.,NA,NA,"",   658.989E-03,  -657.174E-03,  -48.8770E-03,   14.8613E-06
C:/temp/dataset/6/28_12.odb,Step-1,Increment      1: Step Time =    1.000,"PART-1-1",           618,      -13.1522,       16.1892,            0.,NA,NA,"",   666.310E-03,  -661.046E-03,  -83.5912E-03,   15.1779E-06
C:/temp/dataset/6/28_12.odb,Step-1,Increment      1: Step Time =    1.000,"PART-1-1",           619,      -14.0864,       17.4486,            0.,NA,NA,"",   673.035E-03,  -667.231E-03,  -88.1942E-03,   4.81152E-06
C:/temp/dataset/6/28_12.odb,Step-1,Increment      1: Step Time =    1.000,"PART-1-1",           620,          -15.,         16.25,            0.,NA,NA,"",   667.787E-03,  -661.327E-03,  -92.6628E-03,   11.4441E-06
C:/temp/dataset/6/28_12.odb,Step-1,Increment      1: Step Time =    1.000,"PART-1-1",           621,           -5.,       24.7917,            0.,NA,NA,"",   704.778E-03,  -703.424E-03,  -43.6587E-03,   313.614E-09
C:/temp/dataset/6/28_12.odb,Step-1,Increment      1: Step Time =    1.000,"PART-1-1",           622,      -6.14442,       25.7689,            0.,NA,NA,"",   709.923E-03,  -708.210E-03,  -49.2909E-03,   145.445E-09
C:/temp/dataset/6/28_12.odb,Step-1,Increment      1: Step Time =    1.000,"PART-1-1",           623,           -5.,        26.875,            0.,NA,NA,"",   714.992E-03,  -713.656E-03,  -43.6834E-03,   126.818E-09
C:/temp/dataset/6/28_12.odb,Step-1,Increment      1: Step Time =    1.000,"PART-1-1",           624,      -7.36924,       26.7689,            0.,NA,NA,"",   715.249E-03,  -713.107E-03,  -55.3183E-03,   146.277E-09
C:/temp/dataset/6/28_12.odb,Step-1,Increment      1: Step Time =    1.000,"PART-1-1",           625,      -13.1175,       20.9132,            0.,NA,NA,"",   689.348E-03,  -684.274E-03,  -83.4806E-03,   1.13073E-06
C:/temp/dataset/6/28_12.odb,Step-1,Increment      1: Step Time =    1.000,"PART-1-1",           626,      -14.0212,       22.2867,            0.,NA,NA,"",   696.584E-03,  -691.011E-03,  -87.9365E-03,   252.248E-09
C:/temp/dataset/6/28_12.odb,Step-1,Increment      1: Step Time =    1.000,"PART-1-1",           627,          -15.,         21.25,            0.,NA,NA,"",   692.146E-03,  -685.906E-03,  -92.7327E-03,   284.050E-09
C:/temp/dataset/6/28_12.odb,Step-1,Increment      1: Step Time =    1.000,"PART-1-1",           628,      -14.0963,       19.8765,            0.,NA,NA,"",   684.881E-03,  -679.168E-03,  -88.2760E-03,   890.951E-09
C:/temp/dataset/6/28_12.odb,Step-1,Increment      1: Step Time =    1.000,"PART-1-1",           629,         -1.25,           -5.,            0.,NA,NA,"",   556.980E-03,  -556.034E-03,  -32.4523E-03,   5.91967E-03
C:/temp/dataset/6/28_12.odb,Step-1,Increment      1: Step Time =    1.000,"PART-1-1",           630,      -1.77292,      -3.03732,            0.,NA,NA,"",   560.155E-03,  -559.003E-03,  -35.9184E-03,   3.89278E-03
C:/temp/dataset/6/28_12.odb,Step-1,Increment      1: Step Time =    1.000,"PART-1-1",           631,      -12.1053,      -2.30059,            0.,NA,NA,"",   590.029E-03,  -584.332E-03,  -81.7948E-03,   4.58181E-03
C:/temp/dataset/6/28_12.odb,Step-1,Increment      1: Step Time =    1.000,"PART-1-1",           632,      -10.7648,      -1.40855,            0.,NA,NA,"",   591.911E-03,  -588.126E-03,  -66.8330E-03,   4.59644E-03
C:/temp/dataset/6/28_12.odb,Step-1,Increment      1: Step Time =    1.000,"PART-1-1",           633,      -11.5438,  -354.672E-03,            0.,NA,NA,"",   596.377E-03,  -591.709E-03,  -74.4787E-03,   3.84158E-03
C:/temp/dataset/6/28_12.odb,Step-1,Increment      1: Step Time =    1.000,"PART-1-1",           634,          3.75,           -5.,            0.,NA,NA,"",   521.149E-03,  -520.196E-03,  -31.5097E-03,   14.3968E-03
C:/temp/dataset/6/28_12.odb,Step-1,Increment      1: Step Time =    1.000,"PART-1-1",           635,       4.52066,      -3.83856,            0.,NA,NA,"",   523.988E-03,  -522.665E-03,  -37.2079E-03,   11.3747E-03
C:/temp/dataset/6/28_12.odb,Step-1,Increment      1: Step Time =    1.000,"PART-1-1",           636,       2.94662,      -2.72704,            0.,NA,NA,"",   542.064E-03,  -540.716E-03,  -38.1935E-03,   5.86141E-03
C:/temp/dataset/6/28_12.odb,Step-1,Increment      1: Step Time =    1.000,"PART-1-1",           637,       1.50395,       2.56821,            0.,NA,NA,"",   585.544E-03,  -584.213E-03,  -39.4638E-03,   2.91412E-03
C:/temp/dataset/6/28_12.odb,Step-1,Increment      1: Step Time =    1.000,"PART-1-1",           638,          1.25,            5.,            0.,NA,NA,"",   596.635E-03,  -595.433E-03,  -37.8659E-03,   2.94035E-03
C:/temp/dataset/6/28_12.odb,Step-1,Increment      1: Step Time =    1.000,"PART-1-1",           639,          6.25,            5.,            0.,NA,NA,"",   616.314E-03,  -616.287E-03,  -5.76876E-03,   4.86826E-03
C:/temp/dataset/6/28_12.odb,Step-1,Increment      1: Step Time =    1.000,"PART-1-1",           640,  -213.968E-03,      -26.0734,            0.,NA,NA,"",   33.9405E-03,  -33.8355E-03,   2.66733E-03,   7.06560E-03
C:/temp/dataset/6/28_12.odb,Step-1,Increment      1: Step Time =    1.000,"PART-1-1",           641,       1.14210,      -23.8512,            0.,NA,NA,"",   50.1017E-03,  -50.0657E-03,  -1.89761E-03,   6.93395E-03
C:/temp/dataset/6/28_12.odb,Step-1,Increment      1: Step Time =    1.000,"PART-1-1",           642,  -234.527E-03,      -23.9674,            0.,NA,NA,"",   50.4037E-03,  -50.2919E-03,   3.35510E-03,   7.12620E-03
C:/temp/dataset/6/28_12.odb,Step-1,Increment      1: Step Time =    1.000,"PART-1-1",           643,           -5.,        14.375,            0.,NA,NA,"",   653.749E-03,  -652.301E-03,  -43.4958E-03,   32.9062E-06
C:/temp/dataset/6/28_12.odb,Step-1,Increment      1: Step Time =    1.000,"PART-1-1",           644,      -7.14364,       14.2292,            0.,NA,NA,"",   653.809E-03,  -651.570E-03,  -54.0626E-03,   33.0416E-06
C:/temp/dataset/6/28_12.odb,Step-1,Increment      1: Step Time =    1.000,"PART-1-1",           645,           -5.,       6.04167,            0.,NA,NA,"",   610.043E-03,  -608.565E-03,  -42.4341E-03,   1.33812E-03
C:/temp/dataset/6/28_12.odb,Step-1,Increment      1: Step Time =    1.000,"PART-1-1",           646,      -5.82078,       6.95384,            0.,NA,NA,"",   616.026E-03,  -614.222E-03,  -47.1145E-03,   451.115E-06
C:/temp/dataset/6/28_12.odb,Step-1,Increment      1: Step Time =    1.000,"PART-1-1",           647,      -6.45742,       5.85906,            0.,NA,NA,"",   609.567E-03,  -607.484E-03,  -50.3485E-03,   1.49646E-03
C:/temp/dataset/6/28_12.odb,Step-1,Increment      1: Step Time =    1.000,"PART-1-1",           648,      -5.63664,       4.94688,            0.,NA,NA,"",   601.870E-03,  -600.110E-03,  -45.9989E-03,   2.72162E-03
C:/temp/dataset/6/28_12.odb,Step-1,Increment      1: Step Time =    1.000,"PART-1-1",           649,           -5.,         8.125,            0.,NA,NA,"",   622.415E-03,  -620.953E-03,  -42.6360E-03,   232.207E-06
C:/temp/dataset/6/28_12.odb,Step-1,Increment      1: Step Time =    1.000,"PART-1-1",           650,      -5.96903,       9.00386,            0.,NA,NA,"",   627.446E-03,  -625.611E-03,  -47.9477E-03,   106.747E-06
C:/temp/dataset/6/28_12.odb,Step-1,Increment      1: Step Time =    1.000,"PART-1-1",           651,          -15.,         -3.75,            0.,NA,NA,"",   580.222E-03,  -568.047E-03,  -118.237E-03,   8.22013E-03
C:/temp/dataset/6/28_12.odb,Step-1,Increment      1: Step Time =    1.000,"PART-1-1",           652,      -12.7846,      -3.59401,            0.,NA,NA,"",   583.006E-03,  -575.534E-03,  -93.0452E-03,   4.94247E-03
C:/temp/dataset/6/28_12.odb,Step-1,Increment      1: Step Time =    1.000,"PART-1-1",           653,      -11.5430,      -4.20540,            0.,NA,NA,"",   578.334E-03,  -573.031E-03,  -78.1403E-03,   4.47197E-03
C:/temp/dataset/6/28_12.odb,Step-1,Increment      1: Step Time =    1.000,"PART-1-1",           654,      -10.1018,      -4.29084,            0.,NA,NA,"",   577.742E-03,  -574.844E-03,  -57.7926E-03,   5.05165E-03
C:/temp/dataset/6/28_12.odb,Step-1,Increment      1: Step Time =    1.000,"PART-1-1",           655,          -15.,        -11.25,            0.,NA,NA,"",   453.827E-03,  -417.023E-03,  -179.029E-03,   5.03141E-03
C:/temp/dataset/6/28_12.odb,Step-1,Increment      1: Step Time =    1.000,"PART-1-1",           656,      -12.2331,      -11.1785,            0.,NA,NA,"",   438.165E-03,  -424.601E-03,  -108.179E-03,   7.34854E-03
C:/temp/dataset/6/28_12.odb,Step-1,Increment      1: Step Time =    1.000,"PART-1-1",           657,       5.21391,      -1.02834,            0.,NA,NA,"",   554.586E-03,  -554.015E-03,  -25.1603E-03,   3.06864E-03
C:/temp/dataset/6/28_12.odb,Step-1,Increment      1: Step Time =    1.000,"PART-1-1",           658,       6.72319,      -1.59046,            0.,NA,NA,"",   547.069E-03,  -546.982E-03,  -9.75236E-03,   2.95968E-03
C:/temp/dataset/6/28_12.odb,Step-1,Increment      1: Step Time =    1.000,"PART-1-1",           659,       10.9187,      -16.2245,            0.,NA,NA,"",   186.857E-03,  -178.997E-03,   53.6242E-03,   5.85608E-03
C:/temp/dataset/6/28_12.odb,Step-1,Increment      1: Step Time =    1.000,"PART-1-1",           660,       11.9858,      -14.8752,            0.,NA,NA,"",   230.015E-03,  -216.535E-03,   77.5870E-03,   5.60340E-03
C:/temp/dataset/6/28_12.odb,Step-1,Increment      1: Step Time =    1.000,"PART-1-1",           661,       10.9746,      -13.7451,            0.,NA,NA,"",   253.124E-03,  -245.920E-03,   59.9629E-03,   5.75022E-03
C:/temp/dataset/6/28_12.odb,Step-1,Increment      1: Step Time =    1.000,"PART-1-1",           662,       11.9830,      -12.5543,            0.,NA,NA,"",   292.825E-03,  -280.871E-03,   82.8123E-03,   5.08804E-03
C:/temp/dataset/6/28_12.odb,Step-1,Increment      1: Step Time =    1.000,"PART-1-1",           663,           15.,      -20.1563,            0.,NA,NA,"",   149.427E-03,  -108.158E-03,   103.104E-03,   10.8297E-03
C:/temp/dataset/6/28_12.odb,Step-1,Increment      1: Step Time =    1.000,"PART-1-1",           664,       14.0841,      -19.1367,            0.,NA,NA,"",   155.734E-03,  -122.700E-03,   95.9054E-03,   8.92880E-03
C:/temp/dataset/6/28_12.odb,Step-1,Increment      1: Step Time =    1.000,"PART-1-1",           665,       13.0385,      -20.2889,            0.,NA,NA,"",   120.129E-03,  -97.3994E-03,   70.3165E-03,   7.62461E-03
C:/temp/dataset/6/28_12.odb,Step-1,Increment      1: Step Time =    1.000,"PART-1-1",           666,           15.,      -17.9688,            0.,NA,NA,"",   194.520E-03,  -150.584E-03,   123.136E-03,   9.51919E-03
C:/temp/dataset/6/28_12.odb,Step-1,Increment      1: Step Time =    1.000,"PART-1-1",           667,          1.25,          -30.,            0.,NA,NA,"",            0.,  -5.66232E-39,   595.731E-42,   5.63775E-03
C:/temp/dataset/6/28_12.odb,Step-1,Increment      1: Step Time =    1.000,"PART-1-1",           668,       3.30543,      -22.6598,            0.,NA,NA,"",   57.4260E-03,  -56.0710E-03,  -12.4011E-03,   7.38510E-03
C:/temp/dataset/6/28_12.odb,Step-1,Increment      1: Step Time =    1.000,"PART-1-1",           669,       2.86115,      -24.1329,            0.,NA,NA,"",   46.7615E-03,  -46.1009E-03,  -7.83247E-03,   7.35663E-03
C:/temp/dataset/6/28_12.odb,Step-1,Increment      1: Step Time =    1.000,"PART-1-1",           670,      -10.6801,      -21.6169,            0.,NA,NA,"",   97.4945E-03,  -89.0771E-03,  -39.6290E-03,   6.91546E-03
C:/temp/dataset/6/28_12.odb,Step-1,Increment      1: Step Time =    1.000,"PART-1-1",           671,      -11.3394,      -20.4213,            0.,NA,NA,"",   131.542E-03,  -118.283E-03,  -57.5538E-03,   7.95024E-03
C:/temp/dataset/6/28_12.odb,Step-1,Increment      1: Step Time =    1.000,"PART-1-1",           672,      -12.1593,      -22.4638,            0.,NA,NA,"",   96.9157E-03,  -78.2956E-03,  -57.1178E-03,   8.53793E-03
C:/temp/dataset/6/28_12.odb,Step-1,Increment      1: Step Time =    1.000,"PART-1-1",           673,      -9.92443,      -16.4516,            0.,NA,NA,"",   240.128E-03,  -235.107E-03,  -48.8495E-03,   10.5016E-03
C:/temp/dataset/6/28_12.odb,Step-1,Increment      1: Step Time =    1.000,"PART-1-1",           674,      -8.71114,      -17.7111,            0.,NA,NA,"",   189.961E-03,  -188.755E-03,  -21.3768E-03,   10.0668E-03
C:/temp/dataset/6/28_12.odb,Step-1,Increment      1: Step Time =    1.000,"PART-1-1",           675,      -9.25100,      -7.50767,            0.,NA,NA,"",   538.278E-03,  -536.198E-03,  -47.2807E-03,   5.71018E-03
C:/temp/dataset/6/28_12.odb,Step-1,Increment      1: Step Time =    1.000,"PART-1-1",           676,      -8.32615,      -6.25855,            0.,NA,NA,"",   562.606E-03,  -561.732E-03,  -31.3378E-03,   6.31992E-03
C:/temp/dataset/6/28_12.odb,Step-1,Increment      1: Step Time =    1.000,"PART-1-1",           677,      -7.58018,      -5.09368,            0.,NA,NA,"",   575.252E-03,  -574.818E-03,  -22.3534E-03,   8.68619E-03
C:/temp/dataset/6/28_12.odb,Step-1,Increment      1: Step Time =    1.000,"PART-1-1",           678,      -6.67379,      -3.84489,            0.,NA,NA,"",   575.598E-03,  -575.254E-03,  -19.8919E-03,   8.44694E-03
C:/temp/dataset/6/28_12.odb,Step-1,Increment      1: Step Time =    1.000,"PART-1-1",           679,      -2.40491,      -1.03021,            0.,NA,NA,"",   568.015E-03,  -566.780E-03,  -37.4301E-03,   4.78493E-03
C:/temp/dataset/6/28_12.odb,Step-1,Increment      1: Step Time =    1.000,"PART-1-1",           680,      -3.32453,      -2.14711,            0.,NA,NA,"",   565.689E-03,  -564.695E-03,  -33.5065E-03,   4.81093E-03
C:/temp/dataset/6/28_12.odb,Step-1,Increment      1: Step Time =    1.000,"PART-1-1",           681,       10.4745,      -24.8101,            0.,NA,NA,"",   35.8497E-03,  -31.6256E-03,   16.8826E-03,   4.04896E-03
C:/temp/dataset/6/28_12.odb,Step-1,Increment      1: Step Time =    1.000,"PART-1-1",           682,       8.16019,      -23.0435,            0.,NA,NA,"",   46.8916E-03,  -46.8665E-03,   1.53323E-03,   1.10638E-03
C:/temp/dataset/6/28_12.odb,Step-1,Increment      1: Step Time =    1.000,"PART-1-1",           683,       9.40124,      -23.8494,            0.,NA,NA,"",   41.0376E-03,  -39.5346E-03,   11.0047E-03,   2.33390E-03
C:/temp/dataset/6/28_12.odb,Step-1,Increment      1: Step Time =    1.000,"PART-1-1",           684,       5.67200,      -27.0943,            0.,NA,NA,"",   17.8120E-03,  -17.5871E-03,  -2.82144E-03,   4.58423E-03
C:/temp/dataset/6/28_12.odb,Step-1,Increment      1: Step Time =    1.000,"PART-1-1",           685,       4.86106,      -26.0050,            0.,NA,NA,"",   27.8647E-03,  -27.2874E-03,  -5.64258E-03,   5.54010E-03
C:/temp/dataset/6/28_12.odb,Step-1,Increment      1: Step Time =    1.000,"PART-1-1",           686,      -2.55341,      -23.8484,            0.,NA,NA,"",   53.9353E-03,  -52.3308E-03,   13.0574E-03,   8.59972E-03
C:/temp/dataset/6/28_12.odb,Step-1,Increment      1: Step Time =    1.000,"PART-1-1",           687,      -4.82130,      -23.8875,            0.,NA,NA,"",   52.1194E-03,  -49.3635E-03,   16.7236E-03,   7.88759E-03
C:/temp/dataset/6/28_12.odb,Step-1,Increment      1: Step Time =    1.000,"PART-1-1",           688,      -5.84083,      -25.1777,            0.,NA,NA,"",   36.1494E-03,  -34.6531E-03,   10.2931E-03,   5.60670E-03
C:/temp/dataset/6/28_12.odb,Step-1,Increment      1: Step Time =    1.000,"PART-1-1",           689,           15.,      -26.7188,            0.,NA,NA,"",   48.6821E-03,  -30.5683E-03,   37.8884E-03,   11.5945E-03
C:/temp/dataset/6/28_12.odb,Step-1,Increment      1: Step Time =    1.000,"PART-1-1",           690,       10.9874,      -11.4075,            0.,NA,NA,"",   318.986E-03,  -312.587E-03,   63.5710E-03,   5.52611E-03
C:/temp/dataset/6/28_12.odb,Step-1,Increment      1: Step Time =    1.000,"PART-1-1",           691,       7.29436,      -19.7763,            0.,NA,NA,"",   89.3941E-03,  -89.1218E-03,  -6.97115E-03,   5.38813E-03
C:/temp/dataset/6/28_12.odb,Step-1,Increment      1: Step Time =    1.000,"PART-1-1",           692,       7.78340,      -18.7858,            0.,NA,NA,"",   111.695E-03,  -111.691E-03,  -887.916E-06,   5.73377E-03
C:/temp/dataset/6/28_12.odb,Step-1,Increment      1: Step Time =    1.000,"PART-1-1",           693,       10.8970,      -2.99004,            0.,NA,NA,"",   524.270E-03,  -520.893E-03,   59.4136E-03,   1.79444E-03
C:/temp/dataset/6/28_12.odb,Step-1,Increment      1: Step Time =    1.000,"PART-1-1",           694,       12.0828,      -3.88727,            0.,NA,NA,"",   509.806E-03,  -503.045E-03,   82.7540E-03,   1.96740E-03
C:/temp/dataset/6/28_12.odb,Step-1,Increment      1: Step Time =    1.000,"PART-1-1",           695,           15.,       1.71875,            0.,NA,NA,"",   599.803E-03,  -587.330E-03,   121.681E-03,   1.24818E-03
C:/temp/dataset/6/28_12.odb,Step-1,Increment      1: Step Time =    1.000,"PART-1-1",           696,       4.00043,  -427.215E-03,            0.,NA,NA,"",   561.230E-03,  -560.280E-03,  -32.6263E-03,   3.37437E-03
C:/temp/dataset/6/28_12.odb,Step-1,Increment      1: Step Time =    1.000,"PART-1-1",           697,       2.09609,       1.00148,            0.,NA,NA,"",   574.519E-03,  -573.197E-03,  -38.9562E-03,   3.32928E-03
C:/temp/dataset/6/28_12.odb,Step-1,Increment      1: Step Time =    1.000,"PART-1-1",           698,       2.38138,  -554.063E-03,            0.,NA,NA,"",   562.093E-03,  -560.737E-03,  -39.0181E-03,   4.27598E-03
C:/temp/dataset/6/28_12.odb,Step-1,Increment      1: Step Time =    1.000,"PART-1-1",           699,   35.7305E-03,       2.11113,            0.,NA,NA,"",   582.491E-03,  -581.023E-03,  -41.3367E-03,   3.62260E-03
C:/temp/dataset/6/28_12.odb,Step-1,Increment      1: Step Time =    1.000,"PART-1-1",           700,           -5.,       10.2083,            0.,NA,NA,"",   633.161E-03,  -631.689E-03,  -43.1454E-03,   166.622E-06
C:/temp/dataset/6/28_12.odb,Step-1,Increment      1: Step Time =    1.000,"PART-1-1",           701,      -6.99901,       9.90050,            0.,NA,NA,"",   632.437E-03,  -630.187E-03,  -53.3021E-03,   53.4258E-06
C:/temp/dataset/6/28_12.odb,Step-1,Increment      1: Step Time =    1.000,"PART-1-1",           702,      -11.2396,       16.2208,            0.,NA,NA,"",   665.389E-03,  -661.237E-03,  -74.2184E-03,   17.6359E-06
C:/temp/dataset/6/28_12.odb,Step-1,Increment      1: Step Time =    1.000,"PART-1-1",           703,      -10.2112,       15.1096,            0.,NA,NA,"",   659.441E-03,  -655.802E-03,  -69.1776E-03,   23.8708E-06
C:/temp/dataset/6/28_12.odb,Step-1,Increment      1: Step Time =    1.000,"PART-1-1",           704,      -9.25876,       16.3324,            0.,NA,NA,"",   664.969E-03,  -661.834E-03,  -64.4935E-03,   17.6010E-06
C:/temp/dataset/6/28_12.odb,Step-1,Increment      1: Step Time =    1.000,"PART-1-1",           705,      -10.2871,       17.4437,            0.,NA,NA,"",   670.883E-03,  -667.268E-03,  -69.5485E-03,   9.25002E-06
C:/temp/dataset/6/28_12.odb,Step-1,Increment      1: Step Time =    1.000,"PART-1-1",           706,      -8.19479,       15.2434,            0.,NA,NA,"",   659.187E-03,  -656.518E-03,  -59.2564E-03,   21.3717E-06
C:/temp/dataset/6/28_12.odb,Step-1,Increment      1: Step Time =    1.000,"PART-1-1",           707,      -9.19446,       14.0222,            0.,NA,NA,"",   653.656E-03,  -650.496E-03,  -64.1923E-03,   36.8894E-06
C:/temp/dataset/6/28_12.odb,Step-1,Increment      1: Step Time =    1.000,"PART-1-1",           708,      -8.14331,       13.0080,            0.,NA,NA,"",   648.247E-03,  -645.555E-03,  -59.0126E-03,   41.2272E-06
C:/temp/dataset/6/28_12.odb,Step-1,Increment      1: Step Time =    1.000,"PART-1-1",           709,          -15.,         18.75,            0.,NA,NA,"",   679.969E-03,  -673.620E-03,  -92.7026E-03,   1.89505E-06
C:/temp/dataset/6/28_12.odb,Step-1,Increment      1: Step Time =    1.000,"PART-1-1",           710,      -13.1826,       18.5751,            0.,NA,NA,"",   677.977E-03,  -672.782E-03,  -83.7719E-03,   4.91208E-06
C:/temp/dataset/6/28_12.odb,Step-1,Increment      1: Step Time =    1.000,"PART-1-1",           711,      -11.2313,       23.3702,            0.,NA,NA,"",   700.314E-03,  -696.368E-03,  -74.2457E-03,   245.765E-09
C:/temp/dataset/6/28_12.odb,Step-1,Increment      1: Step Time =    1.000,"PART-1-1",           712,      -10.8173,       24.9058,            0.,NA,NA,"",   707.611E-03,  -703.915E-03,  -72.2306E-03,   135.874E-09
C:/temp/dataset/6/28_12.odb,Step-1,Increment      1: Step Time =    1.000,"PART-1-1",           713,      -13.5418,       24.7667,            0.,NA,NA,"",   708.391E-03,  -703.199E-03,  -85.6111E-03,   151.631E-09
C:/temp/dataset/6/28_12.odb,Step-1,Increment      1: Step Time =    1.000,"PART-1-1",           714,      -12.2278,       25.9824,            0.,NA,NA,"",   713.591E-03,  -709.185E-03,  -79.1716E-03,   147.219E-09
C:/temp/dataset/6/28_12.odb,Step-1,Increment      1: Step Time =    1.000,"PART-1-1",           715,          -15.,         26.25,            0.,NA,NA,"",   716.500E-03,  -710.466E-03,  -92.7912E-03,   173.268E-09
C:/temp/dataset/6/28_12.odb,Step-1,Increment      1: Step Time =    1.000,"PART-1-1",           716,          -15.,         23.75,            0.,NA,NA,"",   704.322E-03,  -698.187E-03,  -92.7617E-03,   387.112E-09
C:/temp/dataset/6/28_12.odb,Step-1,Increment      1: Step Time =    1.000,"PART-1-1",           717,      -12.5630,       23.3034,            0.,NA,NA,"",   700.696E-03,  -696.023E-03,  -80.7858E-03,   119.322E-09
C:/temp/dataset/6/28_12.odb,Step-1,Increment      1: Step Time =    1.000,"PART-1-1",           718,      -11.1827,       13.8735,            0.,NA,NA,"",   653.889E-03,  -649.694E-03,  -73.9494E-03,   36.5758E-06
C:/temp/dataset/6/28_12.odb,Step-1,Increment      1: Step Time =    1.000,"PART-1-1",           719,      -10.1659,       12.7861,            0.,NA,NA,"",   648.070E-03,  -644.387E-03,  -68.9932E-03,   45.9080E-06
C:/temp/dataset/6/28_12.odb,Step-1,Increment      1: Step Time =    1.000,"PART-1-1",           720,      -11.4858,       20.4947,            0.,NA,NA,"",   686.400E-03,  -682.239E-03,  -75.4614E-03,   2.04655E-06
C:/temp/dataset/6/28_12.odb,Step-1,Increment      1: Step Time =    1.000,"PART-1-1",           721,      -10.4732,       19.7487,            0.,NA,NA,"",   682.238E-03,  -678.588E-03,  -70.4807E-03,   2.78151E-06
C:/temp/dataset/6/28_12.odb,Step-1,Increment      1: Step Time =    1.000,"PART-1-1",           722,      -10.9778,       21.7959,            0.,NA,NA,"",   692.494E-03,  -688.638E-03,  -72.9816E-03,   729.743E-09
C:/temp/dataset/6/28_12.odb,Step-1,Increment      1: Step Time =    1.000,"PART-1-1",           723,      -9.13796,       11.7463,            0.,NA,NA,"",   642.508E-03,  -639.316E-03,  -63.9663E-03,   51.0307E-06
C:/temp/dataset/6/28_12.odb,Step-1,Increment      1: Step Time =    1.000,"PART-1-1",           724,      -11.1090,       11.4975,            0.,NA,NA,"",   642.262E-03,  -638.027E-03,  -73.6329E-03,   45.3316E-06
C:/temp/dataset/6/28_12.odb,Step-1,Increment      1: Step Time =    1.000,"PART-1-1",           725,      -7.95801,       5.48811,            0.,NA,NA,"",   609.868E-03,  -607.195E-03,  -57.0390E-03,   1.48884E-03
C:/temp/dataset/6/28_12.odb,Step-1,Increment      1: Step Time =    1.000,"PART-1-1",           726,      -9.27172,       5.51676,            0.,NA,NA,"",   612.100E-03,  -608.785E-03,  -63.6180E-03,   1.12383E-03
C:/temp/dataset/6/28_12.odb,Step-1,Increment      1: Step Time =    1.000,"PART-1-1",           727,      -9.10783,       4.19071,            0.,NA,NA,"",   606.031E-03,  -602.899E-03,  -61.5318E-03,   1.93909E-03
C:/temp/dataset/6/28_12.odb,Step-1,Increment      1: Step Time =    1.000,"PART-1-1",           728,      -7.79412,       4.16207,            0.,NA,NA,"",   603.105E-03,  -600.616E-03,  -54.7438E-03,   2.22696E-03
C:/temp/dataset/6/28_12.odb,Step-1,Increment      1: Step Time =    1.000,"PART-1-1",           729,      -10.3652,   710.465E-03,            0.,NA,NA,"",   597.221E-03,  -593.654E-03,  -65.1731E-03,   3.73927E-03
C:/temp/dataset/6/28_12.odb,Step-1,Increment      1: Step Time =    1.000,"PART-1-1",           730,      -11.5756,       2.14983,            0.,NA,NA,"",   603.421E-03,  -598.765E-03,  -74.8143E-03,   2.43079E-03
C:/temp/dataset/6/28_12.odb,Step-1,Increment      1: Step Time =    1.000,"PART-1-1",           731,      -10.9514,      -7.70102,            0.,NA,NA,"",   530.559E-03,  -524.941E-03,  -77.0022E-03,   4.69823E-03
C:/temp/dataset/6/28_12.odb,Step-1,Increment      1: Step Time =    1.000,"PART-1-1",           732,      -11.1587,      -15.1039,            0.,NA,NA,"",   296.058E-03,  -285.312E-03,  -79.0412E-03,   9.61258E-03
C:/temp/dataset/6/28_12.odb,Step-1,Increment      1: Step Time =    1.000,"PART-1-1",           733,      -11.0422,      -12.5823,            0.,NA,NA,"",   385.975E-03,  -377.159E-03,  -82.0228E-03,   9.38326E-03
C:/temp/dataset/6/28_12.odb,Step-1,Increment      1: Step Time =    1.000,"PART-1-1",           734,      -9.98828,      -19.2456,            0.,NA,NA,"",   149.742E-03,  -144.424E-03,  -39.5522E-03,   8.71575E-03
C:/temp/dataset/6/28_12.odb,Step-1,Increment      1: Step Time =    1.000,"PART-1-1",           735,      -11.2222,      -17.6929,            0.,NA,NA,"",   208.062E-03,  -195.767E-03,  -70.4631E-03,   9.32832E-03
C:/temp/dataset/6/28_12.odb,Step-1,Increment      1: Step Time =    1.000,"PART-1-1",           736,      -9.72809,       26.4627,            0.,NA,NA,"",   714.713E-03,  -711.575E-03,  -66.8999E-03,   121.134E-09
C:/temp/dataset/6/28_12.odb,Step-1,Increment      1: Step Time =    1.000,"PART-1-1",           737,      -8.07960,       10.7858,            0.,NA,NA,"",   637.312E-03,  -634.599E-03,  -58.7350E-03,   52.9167E-06
C:/temp/dataset/6/28_12.odb,Step-1,Increment      1: Step Time =    1.000,"PART-1-1",           738,      -11.3320,       18.4953,            0.,NA,NA,"",   676.551E-03,  -672.417E-03,  -74.6857E-03,   6.61006E-06
C:/temp/dataset/6/28_12.odb,Step-1,Increment      1: Step Time =    1.000,"PART-1-1",           739,      -10.4893,       6.32554,            0.,NA,NA,"",   617.303E-03,  -613.294E-03,  -70.2394E-03,   775.359E-06
C:/temp/dataset/6/28_12.odb,Step-1,Increment      1: Step Time =    1.000,"PART-1-1",           740,      -11.8356,       7.66802,            0.,NA,NA,"",   624.499E-03,  -619.720E-03,  -77.1156E-03,   196.294E-06
C:/temp/dataset/6/28_12.odb,Step-1,Increment      1: Step Time =    1.000,"PART-1-1",           741,      -11.4125,       4.87054,            0.,NA,NA,"",   612.316E-03,  -607.760E-03,  -74.5592E-03,   1.07177E-03
C:/temp/dataset/6/28_12.odb,Step-1,Increment      1: Step Time =    1.000,"PART-1-1",           742,       10.1911,      -5.79504,            0.,NA,NA,"",   467.855E-03,  -465.239E-03,   49.4101E-03,   3.77136E-03
C:/temp/dataset/6/28_12.odb,Step-1,Increment      1: Step Time =    1.000,"PART-1-1",           743,       9.10708,      -6.74300,            0.,NA,NA,"",   443.860E-03,  -442.901E-03,   29.1676E-03,   5.14427E-03
C:/temp/dataset/6/28_12.odb,Step-1,Increment      1: Step Time =    1.000,"PART-1-1",           744,       11.1638,      -4.94873,            0.,NA,NA,"",   487.358E-03,  -482.748E-03,   66.8756E-03,   2.31540E-03
C:/temp/dataset/6/28_12.odb,Step-1,Increment      1: Step Time =    1.000,"PART-1-1",           745,       10.4293,      -4.08570,            0.,NA,NA,"",   504.192E-03,  -501.491E-03,   52.1220E-03,   2.25540E-03
C:/temp/dataset/6/28_12.odb,Step-1,Increment      1: Step Time =    1.000,"PART-1-1",           746,       9.97038,      -14.8971,            0.,NA,NA,"",   216.169E-03,  -212.698E-03,   38.5819E-03,   5.55082E-03
C:/temp/dataset/6/28_12.odb,Step-1,Increment      1: Step Time =    1.000,"PART-1-1",           747,       9.96577,      -12.5508,            0.,NA,NA,"",   281.738E-03,  -278.696E-03,   41.2838E-03,   5.50299E-03
C:/temp/dataset/6/28_12.odb,Step-1,Increment      1: Step Time =    1.000,"PART-1-1",           748,       8.96159,      -13.7029,            0.,NA,NA,"",   245.760E-03,  -244.956E-03,   19.8575E-03,   5.35865E-03
C:/temp/dataset/6/28_12.odb,Step-1,Increment      1: Step Time =    1.000,"PART-1-1",           749,       6.92617,      -22.4012,            0.,NA,NA,"",   54.1573E-03,  -53.4466E-03,  -8.74498E-03,   2.68836E-03
C:/temp/dataset/6/28_12.odb,Step-1,Increment      1: Step Time =    1.000,"PART-1-1",           750,       5.94981,      -23.5281,            0.,NA,NA,"",   45.8035E-03,  -44.5080E-03,  -10.8166E-03,   4.85793E-03
C:/temp/dataset/6/28_12.odb,Step-1,Increment      1: Step Time =    1.000,"PART-1-1",           751,       7.18383,      -24.1705,            0.,NA,NA,"",   37.2927E-03,  -37.0747E-03,  -4.02596E-03,   2.86366E-03
C:/temp/dataset/6/28_12.odb,Step-1,Increment      1: Step Time =    1.000,"PART-1-1",           752,       11.0968,      -20.2176,            0.,NA,NA,"",   101.288E-03,  -92.0490E-03,   42.2644E-03,   5.54116E-03
C:/temp/dataset/6/28_12.odb,Step-1,Increment      1: Step Time =    1.000,"PART-1-1",           753,       6.43355,      -20.8801,            0.,NA,NA,"",   70.9335E-03,  -69.1124E-03,  -15.9701E-03,   4.67220E-03
C:/temp/dataset/6/28_12.odb,Step-1,Increment      1: Step Time =    1.000,"PART-1-1",           754,       8.96045,      -11.3546,            0.,NA,NA,"",   313.069E-03,  -312.315E-03,   21.7168E-03,   5.46496E-03
C:/temp/dataset/6/28_12.odb,Step-1,Increment      1: Step Time =    1.000,"PART-1-1",           755,       8.17216,      -2.03287,            0.,NA,NA,"",   539.950E-03,  -539.829E-03,   11.4444E-03,   2.59885E-03
C:/temp/dataset/6/28_12.odb,Step-1,Increment      1: Step Time =    1.000,"PART-1-1",           756,       9.68046,      -2.49017,            0.,NA,NA,"",   532.250E-03,  -530.959E-03,   37.0466E-03,   2.33882E-03
C:/temp/dataset/6/28_12.odb,Step-1,Increment      1: Step Time =    1.000,"PART-1-1",           757,      -5.24373,       2.94722,            0.,NA,NA,"",   591.885E-03,  -590.345E-03,  -42.6612E-03,   2.18487E-03
C:/temp/dataset/6/28_12.odb,Step-1,Increment      1: Step Time =    1.000,"PART-1-1",           758,      -6.20341,       3.93450,            0.,NA,NA,"",   598.208E-03,  -596.350E-03,  -47.1151E-03,   2.53606E-03
C:/temp/dataset/6/28_12.odb,Step-1,Increment      1: Step Time =    1.000,"PART-1-1",           759,       7.87036,      -17.0650,            0.,NA,NA,"",   153.362E-03,  -153.361E-03,  -562.709E-06,   5.49633E-03
C:/temp/dataset/6/28_12.odb,Step-1,Increment      1: Step Time =    1.000,"PART-1-1",           760,      -8.77165,      -4.61616,            0.,NA,NA,"",   576.014E-03,  -574.701E-03,  -38.8826E-03,   6.28226E-03
C:/temp/dataset/6/28_12.odb,Step-1,Increment      1: Step Time =    1.000,"PART-1-1",           761,       8.90402,      -15.9271,            0.,NA,NA,"",   184.691E-03,  -183.835E-03,   17.7664E-03,   5.54612E-03
C:/temp/dataset/6/28_12.odb,Step-1,Increment      1: Step Time =    1.000,"PART-1-1",           762,       7.94609,      -14.8939,            0.,NA,NA,"",   211.230E-03,  -211.228E-03,  -914.472E-06,   4.51670E-03
C:/temp/dataset/6/28_12.odb,Step-1,Increment      1: Step Time =    1.000,"PART-1-1",           763,      -12.3095,       21.7291,            0.,NA,NA,"",   692.871E-03,  -688.293E-03,  -79.5215E-03,   587.060E-09
C:/temp/dataset/6/28_12.odb,Step-1,Increment      1: Step Time =    1.000,"PART-1-1",           764,      -12.2938,       19.6789,            0.,NA,NA,"",   682.854E-03,  -678.219E-03,  -79.4204E-03,   2.42975E-06
C:/temp/dataset/6/28_12.odb,Step-1,Increment      1: Step Time =    1.000,"PART-1-1",           765,       3.72209,      -1.78065,            0.,NA,NA,"",   548.863E-03,  -547.730E-03,  -35.2436E-03,   5.03410E-03
C:/temp/dataset/6/28_12.odb,Step-1,Increment      1: Step Time =    1.000,"PART-1-1",           766,       6.45852,      -3.38063,            0.,NA,NA,"",   523.940E-03,  -523.688E-03,  -16.2469E-03,   4.59190E-03
C:/temp/dataset/6/28_12.odb,Step-1,Increment      1: Step Time =    1.000,"PART-1-1",           767,       4.93556,      -2.38177,            0.,NA,NA,"",   539.912E-03,  -539.051E-03,  -30.4886E-03,   4.76961E-03
C:/temp/dataset/6/28_12.odb,Step-1,Increment      1: Step Time =    1.000,"PART-1-1",           768,      -2.94024,   945.156E-03,            0.,NA,NA,"",   578.738E-03,  -577.409E-03,  -39.1880E-03,   4.20945E-03
C:/temp/dataset/6/28_12.odb,Step-1,Increment      1: Step Time =    1.000,"PART-1-1",           769,      -1.69279,      -25.0756,            0.,NA,NA,"",   42.7447E-03,  -42.0140E-03,   7.86962E-03,   7.97624E-03
C:/temp/dataset/6/28_12.odb,Step-1,Increment      1: Step Time =    1.000,"PART-1-1",           770,      -6.93923,      -23.9860,            0.,NA,NA,"",   46.0649E-03,  -45.2632E-03,   8.55693E-03,   3.83404E-03
C:/temp/dataset/6/28_12.odb,Step-1,Increment      1: Step Time =    1.000,"PART-1-1",           771,      -5.91970,      -22.6959,            0.,NA,NA,"",   64.5309E-03,  -61.6691E-03,   19.0043E-03,   6.57553E-03
C:/temp/dataset/6/28_12.odb,Step-1,Increment      1: Step Time =    1.000,"PART-1-1",           772,      -12.2208,       17.3915,            0.,NA,NA,"",   671.642E-03,  -666.976E-03,  -79.0378E-03,   8.31909E-06
C:/temp/dataset/6/28_12.odb,Step-1,Increment      1: Step Time =    1.000,"PART-1-1",           773,      -12.0398,       10.1961,            0.,NA,NA,"",   636.493E-03,  -631.677E-03,  -78.1507E-03,   42.0937E-06
C:/temp/dataset/6/28_12.odb,Step-1,Increment      1: Step Time =    1.000,"PART-1-1",           774,      -10.8637,      -2.91198,            0.,NA,NA,"",   586.149E-03,  -582.224E-03,  -67.7105E-03,   4.94493E-03
C:/temp/dataset/6/28_12.odb,Step-1,Increment      1: Step Time =    1.000,"PART-1-1",           775,      -9.61620,      -11.5179,            0.,NA,NA,"",   419.481E-03,  -416.016E-03,  -53.7987E-03,   10.1313E-03
C:/temp/dataset/6/28_12.odb,Step-1,Increment      1: Step Time =    1.000,"PART-1-1",           776,      -11.8201,      -24.5932,            0.,NA,NA,"",   57.2270E-03,  -43.9680E-03,  -36.6297E-03,   8.07781E-03
C:/temp/dataset/6/28_12.odb,Step-1,Increment      1: Step Time =    1.000,"PART-1-1",           777,      -11.0718,      -23.4296,            0.,NA,NA,"",   67.8283E-03,  -58.1080E-03,  -34.9878E-03,   6.53518E-03
C:/temp/dataset/6/28_12.odb,Step-1,Increment      1: Step Time =    1.000,"PART-1-1",           778,       4.75405,      -23.0816,            0.,NA,NA,"",   52.4569E-03,  -50.4478E-03,  -14.3789E-03,   6.46935E-03
C:/temp/dataset/6/28_12.odb,Step-1,Increment      1: Step Time =    1.000,"PART-1-1",           779,       5.55198,      -21.9930,            0.,NA,NA,"",   60.8277E-03,  -58.2268E-03,  -17.5969E-03,   6.11687E-03
C:/temp/dataset/6/28_12.odb,Step-1,Increment      1: Step Time =    1.000,"PART-1-1",           780,       7.01336,      -26.0950,            0.,NA,NA,"",   22.2418E-03,  -22.1477E-03,  -2.04387E-03,   3.57649E-03
C:/temp/dataset/6/28_12.odb,Step-1,Increment      1: Step Time =    1.000,"PART-1-1",           781,       4.10189,      -23.9882,            0.,NA,NA,"",   46.1415E-03,  -44.8025E-03,  -11.0349E-03,   6.88072E-03
C:/temp/dataset/6/28_12.odb,Step-1,Increment      1: Step Time =    1.000,"PART-1-1",           782,       4.14804,      -25.2051,            0.,NA,NA,"",   35.9297E-03,  -35.1206E-03,  -7.58190E-03,   6.41809E-03
C:/temp/dataset/6/28_12.odb,Step-1,Increment      1: Step Time =    1.000,"PART-1-1",           783,      -12.1264,       12.6156,            0.,NA,NA,"",   648.261E-03,  -643.483E-03,  -78.5571E-03,   42.2182E-06
C:/temp/dataset/6/28_12.odb,Step-1,Increment      1: Step Time =    1.000,"PART-1-1",           784,      -12.1709,       15.0185,            0.,NA,NA,"",   660.019E-03,  -655.301E-03,  -78.7761E-03,   22.0293E-06
C:/temp/dataset/6/28_12.odb,Step-1,Increment      1: Step Time =    1.000,"PART-1-1",           785,      -10.3060,       3.43341,            0.,NA,NA,"",   605.453E-03,  -601.674E-03,  -67.5398E-03,   2.15605E-03
C:/temp/dataset/6/28_12.odb,Step-1,Increment      1: Step Time =    1.000,"PART-1-1",           786,      -9.35047,  -311.861E-03,            0.,NA,NA,"",   591.919E-03,  -589.314E-03,  -55.4653E-03,   4.40150E-03
C:/temp/dataset/6/28_12.odb,Step-1,Increment      1: Step Time =    1.000,"PART-1-1",           787,      -9.47746,      -1.56252,            0.,NA,NA,"",   588.758E-03,  -586.304E-03,  -53.7034E-03,   5.38216E-03
C:/temp/dataset/6/28_12.odb,Step-1,Increment      1: Step Time =    1.000,"PART-1-1",           788,      -7.56677,      -1.93629,            0.,NA,NA,"",   581.688E-03,  -580.543E-03,  -36.4671E-03,   5.95084E-03
C:/temp/dataset/6/28_12.odb,Step-1,Increment      1: Step Time =    1.000,"PART-1-1",           789,      -9.57637,      -3.06595,            0.,NA,NA,"",   583.894E-03,  -581.591E-03,  -51.8020E-03,   5.37788E-03
C:/temp/dataset/6/28_12.odb,Step-1,Increment      1: Step Time =    1.000,"PART-1-1",           790,      -8.24618,      -3.39128,            0.,NA,NA,"",   580.498E-03,  -579.401E-03,  -35.6778E-03,   7.22117E-03
C:/temp/dataset/6/28_12.odb,Step-1,Increment      1: Step Time =    1.000,"PART-1-1",           791,       7.98922,      -7.69035,            0.,NA,NA,"",   417.033E-03,  -416.980E-03,   6.66077E-03,   6.35801E-03
C:/temp/dataset/6/28_12.odb,Step-1,Increment      1: Step Time =    1.000,"PART-1-1",           792,       7.96586,      -10.1263,            0.,NA,NA,"",   346.978E-03,  -346.973E-03,   1.85302E-03,   5.03396E-03
C:/temp/dataset/6/28_12.odb,Step-1,Increment      1: Step Time =    1.000,"PART-1-1",           793,       7.95460,      -12.5381,            0.,NA,NA,"",   277.392E-03,  -277.391E-03,  -766.477E-06,   4.32320E-03
C:/temp/dataset/6/28_12.odb,Step-1,Increment      1: Step Time =    1.000,"PART-1-1",           794,      -6.90534,       4.84567,            0.,NA,NA,"",   604.522E-03,  -602.329E-03,  -51.4416E-03,   2.13495E-03
C:/temp/dataset/6/28_12.odb,Step-1,Increment      1: Step Time =    1.000,"PART-1-1",           795,      -7.09219,       3.25090,            0.,NA,NA,"",   597.417E-03,  -595.329E-03,  -49.9040E-03,   2.52325E-03
C:/temp/dataset/6/28_12.odb,Step-1,Increment      1: Step Time =    1.000,"PART-1-1",           796,      -5.99438,      -2.38990,            0.,NA,NA,"",   574.045E-03,  -573.399E-03,  -27.2278E-03,   7.42211E-03
C:/temp/dataset/6/28_12.odb,Step-1,Increment      1: Step Time =    1.000,"PART-1-1",           797,      -8.16339,       2.56404,            0.,NA,NA,"",   597.556E-03,  -595.118E-03,  -53.9189E-03,   3.01280E-03
C:/temp/dataset/6/28_12.odb,Step-1,Increment      1: Step Time =    1.000,"PART-1-1",           798,      -6.16245,       1.98671,            0.,NA,NA,"",   590.016E-03,  -588.383E-03,  -43.8615E-03,   2.88449E-03
C:/temp/dataset/6/28_12.odb,Step-1,Increment      1: Step Time =    1.000,"PART-1-1",           799,      -9.36160,       1.80674,            0.,NA,NA,"",   598.086E-03,  -595.105E-03,  -59.6397E-03,   3.15227E-03
C:/temp/dataset/6/28_12.odb,Step-1,Increment      1: Step Time =    1.000,"PART-1-1",           800,      -4.18828,       1.89018,            0.,NA,NA,"",   585.410E-03,  -584.035E-03,  -40.0933E-03,   3.29665E-03
C:/temp/dataset/6/28_12.odb,Step-1,Increment      1: Step Time =    1.000,"PART-1-1",           801,      -2.02478,       2.01876,            0.,NA,NA,"",   583.167E-03,  -581.741E-03,  -40.7571E-03,   3.89354E-03
C:/temp/dataset/6/28_12.odb,Step-1,Increment      1: Step Time =    1.000,"PART-1-1",           802,       5.29765,      -24.4346,            0.,NA,NA,"",   39.6460E-03,  -38.4847E-03,  -9.52557E-03,   5.50934E-03
C:/temp/dataset/6/28_12.odb,Step-1,Increment      1: Step Time =    1.000,"PART-1-1",           803,       8.18651,      -25.0309,            0.,NA,NA,"",   28.9379E-03,  -28.8790E-03,   1.84570E-03,   2.01418E-03
C:/temp/dataset/6/28_12.odb,Step-1,Increment      1: Step Time =    1.000,"PART-1-1",           804,       6.01068,      -25.2345,            0.,NA,NA,"",   31.1818E-03,  -30.5728E-03,  -6.13271E-03,   4.63738E-03
