ODB Name,Step,Frame,Part Instance Name,    êﬂì_ÉâÉxÉã,X,Y,Z,Section Name,Material Name,Section Point,   U-Magnitude,          U-U1,          U-U2,       S-Mises
C:/temp/dataset/6/29_16.odb,Step-1,Increment      1: Step Time =    1.000,"PART-1-1",             1,            5.,           -5.,            0.,NA,NA,"",   450.114E-03,  -448.051E-03,  -43.0450E-03,   16.4427E-03
C:/temp/dataset/6/29_16.odb,Step-1,Increment      1: Step Time =    1.000,"PART-1-1",             2,            0.,           -5.,            0.,NA,NA,"",   493.542E-03,  -491.583E-03,  -43.9395E-03,   5.97363E-03
C:/temp/dataset/6/29_16.odb,Step-1,Increment      1: Step Time =    1.000,"PART-1-1",             3,            5.,      -10.0250,            0.,NA,NA,"",   320.280E-03,  -313.241E-03,  -66.7753E-03,   1.71901E-03
C:/temp/dataset/6/29_16.odb,Step-1,Increment      1: Step Time =    1.000,"PART-1-1",             4,            5.,      -15.0500,            0.,NA,NA,"",   203.508E-03,  -193.592E-03,  -62.7511E-03,   2.85800E-03
C:/temp/dataset/6/29_16.odb,Step-1,Increment      1: Step Time =    1.000,"PART-1-1",             5,            5.,          -20.,            0.,NA,NA,"",   86.1415E-03,  -81.4372E-03,  -28.0774E-03,   15.2588E-03
C:/temp/dataset/6/29_16.odb,Step-1,Increment      1: Step Time =    1.000,"PART-1-1",             6,            0.,          -20.,            0.,NA,NA,"",   75.5374E-03,  -75.5340E-03,   714.879E-06,   3.58932E-03
C:/temp/dataset/6/29_16.odb,Step-1,Increment      1: Step Time =    1.000,"PART-1-1",             7,           -5.,          -20.,            0.,NA,NA,"",   141.265E-03,  -134.498E-03,   43.1988E-03,   30.5246E-03
C:/temp/dataset/6/29_16.odb,Step-1,Increment      1: Step Time =    1.000,"PART-1-1",             8,           -5.,      -14.9750,            0.,NA,NA,"",   397.133E-03,  -390.108E-03,   74.3697E-03,   10.1096E-03
C:/temp/dataset/6/29_16.odb,Step-1,Increment      1: Step Time =    1.000,"PART-1-1",             9,           -5.,      -9.95000,            0.,NA,NA,"",   515.329E-03,  -515.206E-03,   11.2416E-03,   14.9501E-03
C:/temp/dataset/6/29_16.odb,Step-1,Increment      1: Step Time =    1.000,"PART-1-1",            10,           -5.,           -5.,            0.,NA,NA,"",   516.227E-03,  -515.260E-03,  -31.5794E-03,   7.69429E-03
C:/temp/dataset/6/29_16.odb,Step-1,Increment      1: Step Time =    1.000,"PART-1-1",            11,           15.,          -30.,            0.,NA,NA,"",            0.,  -4.93320E-39,   8.68375E-39,   16.8547E-03
C:/temp/dataset/6/29_16.odb,Step-1,Increment      1: Step Time =    1.000,"PART-1-1",            12,          -15.,          -30.,            0.,NA,NA,"",            0.,  -7.84804E-39,  -13.8197E-39,   26.3699E-03
C:/temp/dataset/6/29_16.odb,Step-1,Increment      1: Step Time =    1.000,"PART-1-1",            13,           15.,        -21.25,            0.,NA,NA,"",   120.119E-03,  -89.3762E-03,   80.2522E-03,   9.11155E-03
C:/temp/dataset/6/29_16.odb,Step-1,Increment      1: Step Time =    1.000,"PART-1-1",            14,           15.,         -12.5,            0.,NA,NA,"",   291.595E-03,  -260.535E-03,   130.954E-03,   2.69803E-03
C:/temp/dataset/6/29_16.odb,Step-1,Increment      1: Step Time =    1.000,"PART-1-1",            15,           15.,         -3.75,            0.,NA,NA,"",   463.823E-03,  -448.733E-03,   117.347E-03,   3.86829E-03
C:/temp/dataset/6/29_16.odb,Step-1,Increment      1: Step Time =    1.000,"PART-1-1",            16,           15.,            5.,            0.,NA,NA,"",   578.925E-03,  -569.775E-03,   102.524E-03,   132.382E-06
C:/temp/dataset/6/29_16.odb,Step-1,Increment      1: Step Time =    1.000,"PART-1-1",            17,           10.,            5.,            0.,NA,NA,"",   567.158E-03,  -566.236E-03,   32.3330E-03,   2.20027E-03
C:/temp/dataset/6/29_16.odb,Step-1,Increment      1: Step Time =    1.000,"PART-1-1",            18,            5.,            5.,            0.,NA,NA,"",   549.405E-03,  -548.795E-03,  -25.8883E-03,   4.74920E-03
C:/temp/dataset/6/29_16.odb,Step-1,Increment      1: Step Time =    1.000,"PART-1-1",            19,            0.,            5.,            0.,NA,NA,"",   532.776E-03,  -530.398E-03,  -50.2762E-03,   2.69289E-03
C:/temp/dataset/6/29_16.odb,Step-1,Increment      1: Step Time =    1.000,"PART-1-1",            20,           -5.,            5.,            0.,NA,NA,"",   530.043E-03,  -527.380E-03,  -53.0645E-03,   1.11727E-03
C:/temp/dataset/6/29_16.odb,Step-1,Increment      1: Step Time =    1.000,"PART-1-1",            21,           -5.,         11.25,            0.,NA,NA,"",   540.595E-03,  -537.969E-03,  -53.2127E-03,   44.5426E-06
C:/temp/dataset/6/29_16.odb,Step-1,Increment      1: Step Time =    1.000,"PART-1-1",            22,           -5.,          17.5,            0.,NA,NA,"",   548.704E-03,  -546.109E-03,  -53.3019E-03,   1.41779E-06
C:/temp/dataset/6/29_16.odb,Step-1,Increment      1: Step Time =    1.000,"PART-1-1",            23,           -5.,         23.75,            0.,NA,NA,"",   556.802E-03,  -554.244E-03,  -53.3071E-03,   187.523E-09
C:/temp/dataset/6/29_16.odb,Step-1,Increment      1: Step Time =    1.000,"PART-1-1",            24,           -5.,           30.,            0.,NA,NA,"",   564.906E-03,  -562.385E-03,  -53.3121E-03,   4.32063E-09
C:/temp/dataset/6/29_16.odb,Step-1,Increment      1: Step Time =    1.000,"PART-1-1",            25,          -10.,           30.,            0.,NA,NA,"",   565.554E-03,  -562.381E-03,  -59.8249E-03,   50.1151E-09
C:/temp/dataset/6/29_16.odb,Step-1,Increment      1: Step Time =    1.000,"PART-1-1",            26,          -15.,           30.,            0.,NA,NA,"",   566.276E-03,  -562.377E-03,  -66.3381E-03,   5.59696E-09
C:/temp/dataset/6/29_16.odb,Step-1,Increment      1: Step Time =    1.000,"PART-1-1",            27,          -15.,          22.5,            0.,NA,NA,"",   556.574E-03,  -552.607E-03,  -66.3323E-03,   260.584E-09
C:/temp/dataset/6/29_16.odb,Step-1,Increment      1: Step Time =    1.000,"PART-1-1",            28,          -15.,           15.,            0.,NA,NA,"",   546.859E-03,  -542.823E-03,  -66.3178E-03,   7.09634E-06
C:/temp/dataset/6/29_16.odb,Step-1,Increment      1: Step Time =    1.000,"PART-1-1",            29,          -15.,           7.5,            0.,NA,NA,"",   537.405E-03,  -533.334E-03,  -66.0196E-03,   85.7450E-06
C:/temp/dataset/6/29_16.odb,Step-1,Increment      1: Step Time =    1.000,"PART-1-1",            30,          -15.,            0.,            0.,NA,NA,"",   532.410E-03,  -528.043E-03,  -68.0475E-03,   1.44272E-03
C:/temp/dataset/6/29_16.odb,Step-1,Increment      1: Step Time =    1.000,"PART-1-1",            31,          -15.,          -7.5,            0.,NA,NA,"",   520.197E-03,  -510.102E-03,  -101.983E-03,   9.75605E-03
C:/temp/dataset/6/29_16.odb,Step-1,Increment      1: Step Time =    1.000,"PART-1-1",            32,          -15.,          -15.,            0.,NA,NA,"",   396.361E-03,  -358.280E-03,  -169.522E-03,   4.71948E-03
C:/temp/dataset/6/29_16.odb,Step-1,Increment      1: Step Time =    1.000,"PART-1-1",            33,          -15.,         -22.5,            0.,NA,NA,"",   174.144E-03,  -124.482E-03,  -121.779E-03,   14.9820E-03
C:/temp/dataset/6/29_16.odb,Step-1,Increment      1: Step Time =    1.000,"PART-1-1",            34,           2.5,           -5.,            0.,NA,NA,"",   478.432E-03,  -476.671E-03,  -41.0212E-03,   8.25470E-03
C:/temp/dataset/6/29_16.odb,Step-1,Increment      1: Step Time =    1.000,"PART-1-1",            35,            5.,      -7.51250,            0.,NA,NA,"",   381.411E-03,  -376.388E-03,  -61.6968E-03,   6.16948E-03
C:/temp/dataset/6/29_16.odb,Step-1,Increment      1: Step Time =    1.000,"PART-1-1",            36,            5.,      -12.5375,            0.,NA,NA,"",   261.239E-03,  -252.371E-03,  -67.4864E-03,   535.363E-06
C:/temp/dataset/6/29_16.odb,Step-1,Increment      1: Step Time =    1.000,"PART-1-1",            37,            5.,      -17.5250,            0.,NA,NA,"",   148.092E-03,  -138.199E-03,  -53.2184E-03,   6.26816E-03
C:/temp/dataset/6/29_16.odb,Step-1,Increment      1: Step Time =    1.000,"PART-1-1",            38,           2.5,          -20.,            0.,NA,NA,"",   70.6695E-03,  -69.9883E-03,  -9.78884E-03,   3.38528E-03
C:/temp/dataset/6/29_16.odb,Step-1,Increment      1: Step Time =    1.000,"PART-1-1",            39,          -2.5,          -20.,            0.,NA,NA,"",   88.3142E-03,  -87.2861E-03,   13.4365E-03,   12.4666E-03
C:/temp/dataset/6/29_16.odb,Step-1,Increment      1: Step Time =    1.000,"PART-1-1",            40,           -5.,      -17.4875,            0.,NA,NA,"",   273.541E-03,  -262.674E-03,   76.3370E-03,   8.73252E-03
C:/temp/dataset/6/29_16.odb,Step-1,Increment      1: Step Time =    1.000,"PART-1-1",            41,           -5.,      -12.4625,            0.,NA,NA,"",   493.033E-03,  -490.899E-03,   45.8255E-03,   21.1806E-03
C:/temp/dataset/6/29_16.odb,Step-1,Increment      1: Step Time =    1.000,"PART-1-1",            42,           -5.,      -7.47500,            0.,NA,NA,"",   512.379E-03,  -512.315E-03,  -8.11957E-03,   10.0042E-03
C:/temp/dataset/6/29_16.odb,Step-1,Increment      1: Step Time =    1.000,"PART-1-1",            43,          -2.5,           -5.,            0.,NA,NA,"",   506.414E-03,  -504.577E-03,  -43.0984E-03,   5.37954E-03
C:/temp/dataset/6/29_16.odb,Step-1,Increment      1: Step Time =    1.000,"PART-1-1",            44,          12.5,          -30.,            0.,NA,NA,"",            0.,  -5.66873E-39,   11.7406E-39,   5.39144E-03
C:/temp/dataset/6/29_16.odb,Step-1,Increment      1: Step Time =    1.000,"PART-1-1",            45,           10.,          -30.,            0.,NA,NA,"",            0.,  -581.526E-42,   4.03859E-39,   3.69067E-03
C:/temp/dataset/6/29_16.odb,Step-1,Increment      1: Step Time =    1.000,"PART-1-1",            46,           7.5,          -30.,            0.,NA,NA,"",            0.,  -2.46309E-39,   497.761E-42,   3.40616E-03
C:/temp/dataset/6/29_16.odb,Step-1,Increment      1: Step Time =    1.000,"PART-1-1",            47,            5.,          -30.,            0.,NA,NA,"",            0.,  -5.46413E-39,   2.21712E-39,   5.13248E-03
C:/temp/dataset/6/29_16.odb,Step-1,Increment      1: Step Time =    1.000,"PART-1-1",            48,           2.5,          -30.,            0.,NA,NA,"",            0.,  -7.27742E-39,   3.75535E-39,   6.78382E-03
C:/temp/dataset/6/29_16.odb,Step-1,Increment      1: Step Time =    1.000,"PART-1-1",            49,            0.,          -30.,            0.,NA,NA,"",            0.,  -5.96134E-39,  -1.25597E-39,   7.60543E-03
C:/temp/dataset/6/29_16.odb,Step-1,Increment      1: Step Time =    1.000,"PART-1-1",            50,          -2.5,          -30.,            0.,NA,NA,"",            0.,  -7.70390E-39,   8.10536E-39,   7.12863E-03
C:/temp/dataset/6/29_16.odb,Step-1,Increment      1: Step Time =    1.000,"PART-1-1",            51,           -5.,          -30.,            0.,NA,NA,"",            0.,  -5.39717E-39,   6.54646E-39,   5.23954E-03
C:/temp/dataset/6/29_16.odb,Step-1,Increment      1: Step Time =    1.000,"PART-1-1",            52,          -7.5,          -30.,            0.,NA,NA,"",            0.,  -2.09272E-39,   1.57866E-39,   2.65827E-03
C:/temp/dataset/6/29_16.odb,Step-1,Increment      1: Step Time =    1.000,"PART-1-1",            53,          -10.,          -30.,            0.,NA,NA,"",            0.,  -3.44615E-39,  -8.02992E-39,   4.26701E-03
C:/temp/dataset/6/29_16.odb,Step-1,Increment      1: Step Time =    1.000,"PART-1-1",            54,         -12.5,          -30.,            0.,NA,NA,"",            0.,  -4.69832E-39,  -15.9822E-39,   8.50341E-03
C:/temp/dataset/6/29_16.odb,Step-1,Increment      1: Step Time =    1.000,"PART-1-1",            55,           15.,      -23.4375,            0.,NA,NA,"",   88.4100E-03,  -62.7399E-03,   62.2899E-03,   9.27786E-03
C:/temp/dataset/6/29_16.odb,Step-1,Increment      1: Step Time =    1.000,"PART-1-1",            56,           15.,       -25.625,            0.,NA,NA,"",   60.4142E-03,  -41.1932E-03,   44.1927E-03,   9.30885E-03
C:/temp/dataset/6/29_16.odb,Step-1,Increment      1: Step Time =    1.000,"PART-1-1",            57,           15.,      -27.8125,            0.,NA,NA,"",   34.0449E-03,  -22.6463E-03,   25.4204E-03,   11.4372E-03
C:/temp/dataset/6/29_16.odb,Step-1,Increment      1: Step Time =    1.000,"PART-1-1",            58,           15.,      -14.6875,            0.,NA,NA,"",   243.985E-03,  -210.162E-03,   123.937E-03,   5.01600E-03
C:/temp/dataset/6/29_16.odb,Step-1,Increment      1: Step Time =    1.000,"PART-1-1",            59,           15.,       -16.875,            0.,NA,NA,"",   198.509E-03,  -163.553E-03,   112.499E-03,   7.04903E-03
C:/temp/dataset/6/29_16.odb,Step-1,Increment      1: Step Time =    1.000,"PART-1-1",            60,           15.,      -19.0625,            0.,NA,NA,"",   156.845E-03,  -122.884E-03,   97.4676E-03,   8.48386E-03
C:/temp/dataset/6/29_16.odb,Step-1,Increment      1: Step Time =    1.000,"PART-1-1",            61,           15.,       -5.9375,            0.,NA,NA,"",   427.302E-03,  -408.550E-03,   125.196E-03,   3.42795E-03
C:/temp/dataset/6/29_16.odb,Step-1,Increment      1: Step Time =    1.000,"PART-1-1",            62,           15.,        -8.125,            0.,NA,NA,"",   385.370E-03,  -362.384E-03,   131.103E-03,   1.87758E-03
C:/temp/dataset/6/29_16.odb,Step-1,Increment      1: Step Time =    1.000,"PART-1-1",            63,           15.,      -10.3125,            0.,NA,NA,"",   339.428E-03,  -312.161E-03,   133.292E-03,   344.211E-06
C:/temp/dataset/6/29_16.odb,Step-1,Increment      1: Step Time =    1.000,"PART-1-1",            64,           15.,        2.8125,            0.,NA,NA,"",   550.256E-03,  -540.570E-03,   102.791E-03,   378.403E-06
C:/temp/dataset/6/29_16.odb,Step-1,Increment      1: Step Time =    1.000,"PART-1-1",            65,           15.,      625.E-03,            0.,NA,NA,"",   522.999E-03,  -512.381E-03,   104.854E-03,   1.70989E-03
C:/temp/dataset/6/29_16.odb,Step-1,Increment      1: Step Time =    1.000,"PART-1-1",            66,           15.,       -1.5625,            0.,NA,NA,"",   495.099E-03,  -482.744E-03,   109.915E-03,   3.14297E-03
C:/temp/dataset/6/29_16.odb,Step-1,Increment      1: Step Time =    1.000,"PART-1-1",            67,          12.5,            5.,            0.,NA,NA,"",   573.414E-03,  -569.378E-03,   67.9081E-03,   492.813E-06
C:/temp/dataset/6/29_16.odb,Step-1,Increment      1: Step Time =    1.000,"PART-1-1",            68,           7.5,            5.,            0.,NA,NA,"",   559.000E-03,  -559.000E-03,  -326.639E-06,   3.95837E-03
C:/temp/dataset/6/29_16.odb,Step-1,Increment      1: Step Time =    1.000,"PART-1-1",            69,           2.5,            5.,            0.,NA,NA,"",   540.004E-03,  -538.350E-03,  -42.2267E-03,   4.14500E-03
C:/temp/dataset/6/29_16.odb,Step-1,Increment      1: Step Time =    1.000,"PART-1-1",            70,          -2.5,            5.,            0.,NA,NA,"",   529.141E-03,  -526.505E-03,  -52.7525E-03,   753.629E-06
C:/temp/dataset/6/29_16.odb,Step-1,Increment      1: Step Time =    1.000,"PART-1-1",            71,           -5.,       9.16667,            0.,NA,NA,"",   537.776E-03,  -535.150E-03,  -53.0875E-03,   99.4076E-06
C:/temp/dataset/6/29_16.odb,Step-1,Increment      1: Step Time =    1.000,"PART-1-1",            72,           -5.,       7.08333,            0.,NA,NA,"",   534.572E-03,  -531.957E-03,  -52.8101E-03,   316.574E-06
C:/temp/dataset/6/29_16.odb,Step-1,Increment      1: Step Time =    1.000,"PART-1-1",            73,           -5.,       15.4167,            0.,NA,NA,"",   546.010E-03,  -543.403E-03,  -53.2945E-03,   5.98529E-06
C:/temp/dataset/6/29_16.odb,Step-1,Increment      1: Step Time =    1.000,"PART-1-1",            74,           -5.,       13.3333,            0.,NA,NA,"",   543.313E-03,  -540.695E-03,  -53.2718E-03,   19.1515E-06
C:/temp/dataset/6/29_16.odb,Step-1,Increment      1: Step Time =    1.000,"PART-1-1",            75,           -5.,       21.6667,            0.,NA,NA,"",   554.101E-03,  -551.531E-03,  -53.3058E-03,   305.010E-09
C:/temp/dataset/6/29_16.odb,Step-1,Increment      1: Step Time =    1.000,"PART-1-1",            76,           -5.,       19.5833,            0.,NA,NA,"",   551.402E-03,  -548.819E-03,  -53.3044E-03,   184.780E-09
C:/temp/dataset/6/29_16.odb,Step-1,Increment      1: Step Time =    1.000,"PART-1-1",            77,           -5.,       27.9167,            0.,NA,NA,"",   562.205E-03,  -559.671E-03,  -53.3103E-03,   20.0940E-09
C:/temp/dataset/6/29_16.odb,Step-1,Increment      1: Step Time =    1.000,"PART-1-1",            78,           -5.,       25.8333,            0.,NA,NA,"",   559.503E-03,  -556.958E-03,  -53.3087E-03,   83.3688E-09
C:/temp/dataset/6/29_16.odb,Step-1,Increment      1: Step Time =    1.000,"PART-1-1",            79,          -7.5,           30.,            0.,NA,NA,"",   565.221E-03,  -562.383E-03,  -56.5685E-03,   23.2628E-09
C:/temp/dataset/6/29_16.odb,Step-1,Increment      1: Step Time =    1.000,"PART-1-1",            80,         -12.5,           30.,            0.,NA,NA,"",   565.906E-03,  -562.379E-03,  -63.0815E-03,   22.2501E-09
C:/temp/dataset/6/29_16.odb,Step-1,Increment      1: Step Time =    1.000,"PART-1-1",            81,          -15.,           25.,            0.,NA,NA,"",   559.808E-03,  -555.864E-03,  -66.3340E-03,   122.514E-09
C:/temp/dataset/6/29_16.odb,Step-1,Increment      1: Step Time =    1.000,"PART-1-1",            82,          -15.,          27.5,            0.,NA,NA,"",   563.042E-03,  -559.120E-03,  -66.3360E-03,   28.2657E-09
C:/temp/dataset/6/29_16.odb,Step-1,Increment      1: Step Time =    1.000,"PART-1-1",            83,          -15.,          17.5,            0.,NA,NA,"",   550.101E-03,  -546.088E-03,  -66.3279E-03,   1.09572E-06
C:/temp/dataset/6/29_16.odb,Step-1,Increment      1: Step Time =    1.000,"PART-1-1",            84,          -15.,           20.,            0.,NA,NA,"",   553.339E-03,  -549.349E-03,  -66.3307E-03,   218.718E-09
C:/temp/dataset/6/29_16.odb,Step-1,Increment      1: Step Time =    1.000,"PART-1-1",            85,          -15.,           10.,            0.,NA,NA,"",   540.420E-03,  -536.351E-03,  -66.1915E-03,   59.8417E-06
C:/temp/dataset/6/29_16.odb,Step-1,Increment      1: Step Time =    1.000,"PART-1-1",            86,          -15.,          12.5,            0.,NA,NA,"",   543.619E-03,  -539.563E-03,  -66.2831E-03,   24.2242E-06
C:/temp/dataset/6/29_16.odb,Step-1,Increment      1: Step Time =    1.000,"PART-1-1",            87,          -15.,           2.5,            0.,NA,NA,"",   533.157E-03,  -529.033E-03,  -66.1901E-03,   420.041E-06
C:/temp/dataset/6/29_16.odb,Step-1,Increment      1: Step Time =    1.000,"PART-1-1",            88,          -15.,            5.,            0.,NA,NA,"",   534.862E-03,  -530.790E-03,  -65.8709E-03,   20.7557E-06
C:/temp/dataset/6/29_16.odb,Step-1,Increment      1: Step Time =    1.000,"PART-1-1",            89,          -15.,           -5.,            0.,NA,NA,"",   529.421E-03,  -522.706E-03,  -84.0524E-03,   6.35770E-03
C:/temp/dataset/6/29_16.odb,Step-1,Increment      1: Step Time =    1.000,"PART-1-1",            90,          -15.,          -2.5,            0.,NA,NA,"",   531.947E-03,  -526.885E-03,  -73.2120E-03,   3.37895E-03
C:/temp/dataset/6/29_16.odb,Step-1,Increment      1: Step Time =    1.000,"PART-1-1",            91,          -15.,         -12.5,            0.,NA,NA,"",   457.086E-03,  -430.952E-03,  -152.340E-03,   10.2396E-03
C:/temp/dataset/6/29_16.odb,Step-1,Increment      1: Step Time =    1.000,"PART-1-1",            92,          -15.,          -10.,            0.,NA,NA,"",   497.923E-03,  -481.574E-03,  -126.546E-03,   11.5261E-03
C:/temp/dataset/6/29_16.odb,Step-1,Increment      1: Step Time =    1.000,"PART-1-1",            93,          -15.,          -20.,            0.,NA,NA,"",   245.026E-03,  -192.031E-03,  -152.189E-03,   10.5747E-03
C:/temp/dataset/6/29_16.odb,Step-1,Increment      1: Step Time =    1.000,"PART-1-1",            94,          -15.,         -17.5,            0.,NA,NA,"",   322.129E-03,  -273.666E-03,  -169.924E-03,   3.48043E-03
C:/temp/dataset/6/29_16.odb,Step-1,Increment      1: Step Time =    1.000,"PART-1-1",            95,          -15.,         -27.5,            0.,NA,NA,"",   59.8873E-03,  -37.2486E-03,  -46.8937E-03,   19.1840E-03
C:/temp/dataset/6/29_16.odb,Step-1,Increment      1: Step Time =    1.000,"PART-1-1",            96,          -15.,          -25.,            0.,NA,NA,"",   113.064E-03,  -73.9119E-03,  -85.5597E-03,   16.4104E-03
C:/temp/dataset/6/29_16.odb,Step-1,Increment      1: Step Time =    1.000,"PART-1-1",            97,       13.0047,      -3.80353,            0.,NA,NA,"",   457.920E-03,  -450.256E-03,   83.4293E-03,   1.95499E-03
C:/temp/dataset/6/29_16.odb,Step-1,Increment      1: Step Time =    1.000,"PART-1-1",            98,       6.97971,      -7.55833,            0.,NA,NA,"",   376.886E-03,  -376.427E-03,  -18.6028E-03,   6.28292E-03
C:/temp/dataset/6/29_16.odb,Step-1,Increment      1: Step Time =    1.000,"PART-1-1",            99,       6.96639,      -10.0829,            0.,NA,NA,"",   314.284E-03,  -313.460E-03,  -22.7523E-03,   3.53750E-03
C:/temp/dataset/6/29_16.odb,Step-1,Increment      1: Step Time =    1.000,"PART-1-1",           100,       12.9900,      -12.5465,            0.,NA,NA,"",   271.429E-03,  -256.793E-03,   87.9248E-03,   3.71945E-03
C:/temp/dataset/6/29_16.odb,Step-1,Increment      1: Step Time =    1.000,"PART-1-1",           101,       6.90028,      -17.1420,            0.,NA,NA,"",   145.917E-03,  -144.633E-03,  -19.3122E-03,   5.66274E-03
C:/temp/dataset/6/29_16.odb,Step-1,Increment      1: Step Time =    1.000,"PART-1-1",           102,       7.03871,      -19.0570,            0.,NA,NA,"",   104.843E-03,  -104.078E-03,  -12.6468E-03,   5.34875E-03
C:/temp/dataset/6/29_16.odb,Step-1,Increment      1: Step Time =    1.000,"PART-1-1",           103,       5.31709,      -21.2647,            0.,NA,NA,"",   74.3725E-03,  -71.5618E-03,  -20.2529E-03,   7.35099E-03
C:/temp/dataset/6/29_16.odb,Step-1,Increment      1: Step Time =    1.000,"PART-1-1",           104,      -4.83361,      -22.6144,            0.,NA,NA,"",   88.9231E-03,  -85.2297E-03,   25.3619E-03,   10.7633E-03
C:/temp/dataset/6/29_16.odb,Step-1,Increment      1: Step Time =    1.000,"PART-1-1",           105,      -7.46484,      -17.6587,            0.,NA,NA,"",   255.202E-03,  -255.158E-03,  -4.78413E-03,   18.0699E-03
C:/temp/dataset/6/29_16.odb,Step-1,Increment      1: Step Time =    1.000,"PART-1-1",           106,      -12.5283,      -27.3245,            0.,NA,NA,"",   35.4891E-03,  -25.3341E-03,  -24.8527E-03,   12.1786E-03
C:/temp/dataset/6/29_16.odb,Step-1,Increment      1: Step Time =    1.000,"PART-1-1",           107,      -12.4870,      -17.6221,            0.,NA,NA,"",   284.976E-03,  -266.311E-03,  -101.439E-03,   11.3715E-03
C:/temp/dataset/6/29_16.odb,Step-1,Increment      1: Step Time =    1.000,"PART-1-1",           108,      -7.32043,      -12.6401,            0.,NA,NA,"",   469.089E-03,  -469.052E-03,  -5.90382E-03,   13.5948E-03
C:/temp/dataset/6/29_16.odb,Step-1,Increment      1: Step Time =    1.000,"PART-1-1",           109,      -7.14644,      -8.03697,            0.,NA,NA,"",   517.712E-03,  -517.513E-03,  -14.3683E-03,   8.99040E-03
C:/temp/dataset/6/29_16.odb,Step-1,Increment      1: Step Time =    1.000,"PART-1-1",           110,      -12.6601,       4.88622,            0.,NA,NA,"",   534.457E-03,  -530.692E-03,  -63.3252E-03,   327.017E-06
C:/temp/dataset/6/29_16.odb,Step-1,Increment      1: Step Time =    1.000,"PART-1-1",           111,      -13.0978,       12.5399,            0.,NA,NA,"",   543.369E-03,  -539.606E-03,  -63.8400E-03,   21.0226E-06
C:/temp/dataset/6/29_16.odb,Step-1,Increment      1: Step Time =    1.000,"PART-1-1",           112,      -6.45576,       21.8628,            0.,NA,NA,"",   554.539E-03,  -551.785E-03,  -55.2016E-03,   46.5276E-09
C:/temp/dataset/6/29_16.odb,Step-1,Increment      1: Step Time =    1.000,"PART-1-1",           113,      -7.28884,       25.7044,            0.,NA,NA,"",   559.626E-03,  -556.788E-03,  -56.2898E-03,   81.5320E-09
C:/temp/dataset/6/29_16.odb,Step-1,Increment      1: Step Time =    1.000,"PART-1-1",           114,      -9.90518,       27.6474,            0.,NA,NA,"",   562.494E-03,  -559.317E-03,  -59.6994E-03,   42.8499E-09
C:/temp/dataset/6/29_16.odb,Step-1,Increment      1: Step Time =    1.000,"PART-1-1",           115,      -3.01211,      -3.13168,            0.,NA,NA,"",   507.869E-03,  -505.727E-03,  -46.6003E-03,   3.71200E-03
C:/temp/dataset/6/29_16.odb,Step-1,Increment      1: Step Time =    1.000,"PART-1-1",           116,      -2.19169,       3.00836,            0.,NA,NA,"",   525.679E-03,  -522.983E-03,  -53.1761E-03,   2.12932E-03
C:/temp/dataset/6/29_16.odb,Step-1,Increment      1: Step Time =    1.000,"PART-1-1",           117,       1.85193,      -2.77696,            0.,NA,NA,"",   491.757E-03,  -489.517E-03,  -46.8913E-03,   6.30711E-03
C:/temp/dataset/6/29_16.odb,Step-1,Increment      1: Step Time =    1.000,"PART-1-1",           118,       2.83229,       2.22691,            0.,NA,NA,"",   524.347E-03,  -522.483E-03,  -44.1686E-03,   1.97279E-03
C:/temp/dataset/6/29_16.odb,Step-1,Increment      1: Step Time =    1.000,"PART-1-1",           119,       7.74921,       3.07964,            0.,NA,NA,"",   538.324E-03,  -538.324E-03,   239.883E-06,   2.44304E-03
C:/temp/dataset/6/29_16.odb,Step-1,Increment      1: Step Time =    1.000,"PART-1-1",           120,      -2.47342,      -22.6017,            0.,NA,NA,"",   80.2181E-03,  -78.4467E-03,   16.7647E-03,   13.5795E-03
C:/temp/dataset/6/29_16.odb,Step-1,Increment      1: Step Time =    1.000,"PART-1-1",           121,      -7.48266,       20.3798,            0.,NA,NA,"",   552.752E-03,  -549.853E-03,  -56.5377E-03,   532.807E-09
C:/temp/dataset/6/29_16.odb,Step-1,Increment      1: Step Time =    1.000,"PART-1-1",           122,      -7.10993,       13.1351,            0.,NA,NA,"",   543.341E-03,  -540.443E-03,  -56.0479E-03,   19.2811E-06
C:/temp/dataset/6/29_16.odb,Step-1,Increment      1: Step Time =    1.000,"PART-1-1",           123,      -6.64156,       6.82435,            0.,NA,NA,"",   534.590E-03,  -531.716E-03,  -55.3596E-03,   288.168E-06
C:/temp/dataset/6/29_16.odb,Step-1,Increment      1: Step Time =    1.000,"PART-1-1",           124,      -12.9641,      -2.37512,            0.,NA,NA,"",   533.533E-03,  -529.233E-03,  -67.6020E-03,   3.18941E-03
C:/temp/dataset/6/29_16.odb,Step-1,Increment      1: Step Time =    1.000,"PART-1-1",           125,      -12.1317,      -9.84573,            0.,NA,NA,"",   501.972E-03,  -495.401E-03,  -80.9518E-03,   4.77990E-03
C:/temp/dataset/6/29_16.odb,Step-1,Increment      1: Step Time =    1.000,"PART-1-1",           126,       4.04132,      -2.67712,            0.,NA,NA,"",   483.664E-03,  -481.894E-03,  -41.3370E-03,   4.69360E-03
C:/temp/dataset/6/29_16.odb,Step-1,Increment      1: Step Time =    1.000,"PART-1-1",           127,       6.95362,      -12.5367,            0.,NA,NA,"",   253.840E-03,  -252.653E-03,  -24.5141E-03,   2.79826E-03
C:/temp/dataset/6/29_16.odb,Step-1,Increment      1: Step Time =    1.000,"PART-1-1",           128,       6.92458,      -14.9216,            0.,NA,NA,"",   196.591E-03,  -195.252E-03,  -22.9000E-03,   3.36757E-03
C:/temp/dataset/6/29_16.odb,Step-1,Increment      1: Step Time =    1.000,"PART-1-1",           129,       12.9089,      -21.3671,            0.,NA,NA,"",   95.8445E-03,  -80.3373E-03,   52.2693E-03,   6.28958E-03
C:/temp/dataset/6/29_16.odb,Step-1,Increment      1: Step Time =    1.000,"PART-1-1",           130,   283.131E-03,      -22.8786,            0.,NA,NA,"",   70.1693E-03,  -70.0905E-03,   3.32410E-03,   7.96758E-03
C:/temp/dataset/6/29_16.odb,Step-1,Increment      1: Step Time =    1.000,"PART-1-1",           131,      -12.9776,      -22.4214,            0.,NA,NA,"",   139.926E-03,  -115.367E-03,  -79.1812E-03,   10.5837E-03
C:/temp/dataset/6/29_16.odb,Step-1,Increment      1: Step Time =    1.000,"PART-1-1",           132,      -7.42030,      -15.1083,            0.,NA,NA,"",   373.294E-03,  -373.178E-03,  -9.31045E-03,   17.7517E-03
C:/temp/dataset/6/29_16.odb,Step-1,Increment      1: Step Time =    1.000,"PART-1-1",           133,      -7.18486,      -10.2642,            0.,NA,NA,"",   510.016E-03,  -509.995E-03,  -4.61323E-03,   10.7318E-03
C:/temp/dataset/6/29_16.odb,Step-1,Increment      1: Step Time =    1.000,"PART-1-1",           134,      -7.33974,      -5.93881,            0.,NA,NA,"",   523.150E-03,  -522.401E-03,  -27.9921E-03,   6.12258E-03
C:/temp/dataset/6/29_16.odb,Step-1,Increment      1: Step Time =    1.000,"PART-1-1",           135,  -533.729E-03,      -2.94296,            0.,NA,NA,"",   500.167E-03,  -497.775E-03,  -48.8623E-03,   4.68836E-03
C:/temp/dataset/6/29_16.odb,Step-1,Increment      1: Step Time =    1.000,"PART-1-1",           136,       10.2172,      -28.0250,            0.,NA,NA,"",   11.2482E-03,  -10.2078E-03,   4.72488E-03,   4.41433E-03
C:/temp/dataset/6/29_16.odb,Step-1,Increment      1: Step Time =    1.000,"PART-1-1",           137,       7.82196,      -28.0777,            0.,NA,NA,"",   11.4714E-03,  -11.4418E-03,   823.639E-06,   4.02997E-03
C:/temp/dataset/6/29_16.odb,Step-1,Increment      1: Step Time =    1.000,"PART-1-1",           138,       5.43540,      -28.0544,            0.,NA,NA,"",   15.1444E-03,  -15.1141E-03,  -958.609E-06,   5.45868E-03
C:/temp/dataset/6/29_16.odb,Step-1,Increment      1: Step Time =    1.000,"PART-1-1",           139,       2.98405,      -27.8165,            0.,NA,NA,"",   21.2863E-03,  -21.2789E-03,  -563.834E-06,   6.84095E-03
C:/temp/dataset/6/29_16.odb,Step-1,Increment      1: Step Time =    1.000,"PART-1-1",           140,   324.250E-03,      -27.0908,            0.,NA,NA,"",   31.4665E-03,  -31.3400E-03,   2.81879E-03,   8.02854E-03
C:/temp/dataset/6/29_16.odb,Step-1,Increment      1: Step Time =    1.000,"PART-1-1",           141,      -2.46293,      -27.5198,            0.,NA,NA,"",   26.6001E-03,  -25.8932E-03,   6.09180E-03,   8.25996E-03
C:/temp/dataset/6/29_16.odb,Step-1,Increment      1: Step Time =    1.000,"PART-1-1",           142,      -4.88996,      -27.5861,            0.,NA,NA,"",   22.2608E-03,  -21.3499E-03,   6.30261E-03,   7.30126E-03
C:/temp/dataset/6/29_16.odb,Step-1,Increment      1: Step Time =    1.000,"PART-1-1",           143,      -7.26500,      -27.4866,            0.,NA,NA,"",   18.2987E-03,  -18.1564E-03,   2.27745E-03,   5.12093E-03
C:/temp/dataset/6/29_16.odb,Step-1,Increment      1: Step Time =    1.000,"PART-1-1",           144,      -9.86695,      -26.8928,            0.,NA,NA,"",   25.2685E-03,  -23.5123E-03,  -9.25578E-03,   5.51388E-03
C:/temp/dataset/6/29_16.odb,Step-1,Increment      1: Step Time =    1.000,"PART-1-1",           145,       12.7710,      -23.5898,            0.,NA,NA,"",   65.4808E-03,  -53.1559E-03,   38.2384E-03,   6.44036E-03
C:/temp/dataset/6/29_16.odb,Step-1,Increment      1: Step Time =    1.000,"PART-1-1",           146,       12.6989,      -25.7990,            0.,NA,NA,"",   39.8674E-03,  -31.4137E-03,   24.5476E-03,   7.08419E-03
C:/temp/dataset/6/29_16.odb,Step-1,Increment      1: Step Time =    1.000,"PART-1-1",           147,       12.6207,      -27.9366,            0.,NA,NA,"",   18.0806E-03,  -13.6951E-03,   11.8047E-03,   7.85233E-03
C:/temp/dataset/6/29_16.odb,Step-1,Increment      1: Step Time =    1.000,"PART-1-1",           148,       12.9983,      -14.8223,            0.,NA,NA,"",   219.131E-03,  -202.831E-03,   82.9322E-03,   4.53798E-03
C:/temp/dataset/6/29_16.odb,Step-1,Increment      1: Step Time =    1.000,"PART-1-1",           149,       13.0558,      -17.0719,            0.,NA,NA,"",   171.691E-03,  -153.984E-03,   75.9388E-03,   5.37521E-03
C:/temp/dataset/6/29_16.odb,Step-1,Increment      1: Step Time =    1.000,"PART-1-1",           150,       13.1682,      -19.2108,            0.,NA,NA,"",   132.616E-03,  -114.111E-03,   67.5704E-03,   6.15659E-03
C:/temp/dataset/6/29_16.odb,Step-1,Increment      1: Step Time =    1.000,"PART-1-1",           151,       13.0670,      -5.94273,            0.,NA,NA,"",   419.784E-03,  -410.357E-03,   88.4615E-03,   2.10346E-03
C:/temp/dataset/6/29_16.odb,Step-1,Increment      1: Step Time =    1.000,"PART-1-1",           152,       13.0350,      -8.09399,            0.,NA,NA,"",   374.903E-03,  -363.799E-03,   90.5664E-03,   2.54042E-03
C:/temp/dataset/6/29_16.odb,Step-1,Increment      1: Step Time =    1.000,"PART-1-1",           153,       12.9982,      -10.2981,            0.,NA,NA,"",   324.424E-03,  -311.597E-03,   90.3220E-03,   3.07787E-03
C:/temp/dataset/6/29_16.odb,Step-1,Increment      1: Step Time =    1.000,"PART-1-1",           154,       12.5107,   556.281E-03,            0.,NA,NA,"",   517.323E-03,  -512.691E-03,   69.0668E-03,   2.24929E-03
C:/temp/dataset/6/29_16.odb,Step-1,Increment      1: Step Time =    1.000,"PART-1-1",           155,       12.7702,      -1.64554,            0.,NA,NA,"",   489.663E-03,  -483.768E-03,   75.7487E-03,   2.09402E-03
C:/temp/dataset/6/29_16.odb,Step-1,Increment      1: Step Time =    1.000,"PART-1-1",           156,       10.0517,       2.85834,            0.,NA,NA,"",   540.176E-03,  -539.249E-03,   31.6331E-03,   2.32610E-03
C:/temp/dataset/6/29_16.odb,Step-1,Increment      1: Step Time =    1.000,"PART-1-1",           157,       5.39286,       2.85476,            0.,NA,NA,"",   532.131E-03,  -531.506E-03,  -25.7702E-03,   2.16878E-03
C:/temp/dataset/6/29_16.odb,Step-1,Increment      1: Step Time =    1.000,"PART-1-1",           158,   175.602E-03,       2.90951,            0.,NA,NA,"",   526.221E-03,  -523.673E-03,  -51.7209E-03,   2.27248E-03
C:/temp/dataset/6/29_16.odb,Step-1,Increment      1: Step Time =    1.000,"PART-1-1",           159,      -4.35394,       2.91920,            0.,NA,NA,"",   526.053E-03,  -523.398E-03,  -52.7890E-03,   1.57082E-03
C:/temp/dataset/6/29_16.odb,Step-1,Increment      1: Step Time =    1.000,"PART-1-1",           160,      -7.05997,       10.9599,            0.,NA,NA,"",   540.512E-03,  -537.606E-03,  -55.9813E-03,   30.9335E-06
C:/temp/dataset/6/29_16.odb,Step-1,Increment      1: Step Time =    1.000,"PART-1-1",           161,      -6.93805,       8.84105,            0.,NA,NA,"",   537.647E-03,  -534.742E-03,  -55.8208E-03,   37.2158E-06
C:/temp/dataset/6/29_16.odb,Step-1,Increment      1: Step Time =    1.000,"PART-1-1",           162,      -7.28921,       17.6445,            0.,NA,NA,"",   549.187E-03,  -546.295E-03,  -56.2838E-03,   2.97603E-06
C:/temp/dataset/6/29_16.odb,Step-1,Increment      1: Step Time =    1.000,"PART-1-1",           163,      -7.17735,       15.3234,            0.,NA,NA,"",   546.174E-03,  -543.282E-03,  -56.1366E-03,   8.95288E-06
C:/temp/dataset/6/29_16.odb,Step-1,Increment      1: Step Time =    1.000,"PART-1-1",           164,      -6.93557,       23.5874,            0.,NA,NA,"",   556.836E-03,  -554.031E-03,  -55.8279E-03,   67.7820E-09
C:/temp/dataset/6/29_16.odb,Step-1,Increment      1: Step Time =    1.000,"PART-1-1",           165,      -13.1925,       19.7530,            0.,NA,NA,"",   552.743E-03,  -549.028E-03,  -63.9750E-03,   657.396E-09
C:/temp/dataset/6/29_16.odb,Step-1,Increment      1: Step Time =    1.000,"PART-1-1",           166,      -7.44963,       27.8335,            0.,NA,NA,"",   562.406E-03,  -559.561E-03,  -56.5010E-03,   53.2008E-09
C:/temp/dataset/6/29_16.odb,Step-1,Increment      1: Step Time =    1.000,"PART-1-1",           167,      -13.0424,       22.0734,            0.,NA,NA,"",   555.725E-03,  -552.053E-03,  -63.7814E-03,   56.7794E-09
C:/temp/dataset/6/29_16.odb,Step-1,Increment      1: Step Time =    1.000,"PART-1-1",           168,      -13.1316,       14.9813,            0.,NA,NA,"",   546.544E-03,  -542.797E-03,  -63.8898E-03,   9.45589E-06
C:/temp/dataset/6/29_16.odb,Step-1,Increment      1: Step Time =    1.000,"PART-1-1",           169,      -13.1727,       17.3972,            0.,NA,NA,"",   549.687E-03,  -545.955E-03,  -63.9468E-03,   2.98260E-06
C:/temp/dataset/6/29_16.odb,Step-1,Increment      1: Step Time =    1.000,"PART-1-1",           170,      -12.8574,       7.53984,            0.,NA,NA,"",   537.110E-03,  -533.340E-03,  -63.5247E-03,   39.2057E-06
C:/temp/dataset/6/29_16.odb,Step-1,Increment      1: Step Time =    1.000,"PART-1-1",           171,      -13.0166,       10.0884,            0.,NA,NA,"",   540.212E-03,  -536.440E-03,  -63.7281E-03,   29.7545E-06
C:/temp/dataset/6/29_16.odb,Step-1,Increment      1: Step Time =    1.000,"PART-1-1",           172,      -12.8045,  -118.323E-03,            0.,NA,NA,"",   533.009E-03,  -529.054E-03,  -64.8118E-03,   1.97163E-03
C:/temp/dataset/6/29_16.odb,Step-1,Increment      1: Step Time =    1.000,"PART-1-1",           173,      -12.7039,       2.28772,            0.,NA,NA,"",   533.040E-03,  -529.226E-03,  -63.6524E-03,   963.777E-06
C:/temp/dataset/6/29_16.odb,Step-1,Increment      1: Step Time =    1.000,"PART-1-1",           174,      -12.8488,      -7.31355,            0.,NA,NA,"",   524.572E-03,  -518.395E-03,  -80.2677E-03,   5.63982E-03
C:/temp/dataset/6/29_16.odb,Step-1,Increment      1: Step Time =    1.000,"PART-1-1",           175,      -12.6051,      -4.81291,            0.,NA,NA,"",   532.518E-03,  -527.867E-03,  -70.2230E-03,   4.61341E-03
C:/temp/dataset/6/29_16.odb,Step-1,Increment      1: Step Time =    1.000,"PART-1-1",           176,      -12.4260,      -15.0682,            0.,NA,NA,"",   375.417E-03,  -360.820E-03,  -103.668E-03,   10.2272E-03
C:/temp/dataset/6/29_16.odb,Step-1,Increment      1: Step Time =    1.000,"PART-1-1",           177,      -12.3344,      -12.5112,            0.,NA,NA,"",   451.190E-03,  -440.962E-03,  -95.5258E-03,   6.91493E-03
C:/temp/dataset/6/29_16.odb,Step-1,Increment      1: Step Time =    1.000,"PART-1-1",           178,      -12.6598,      -20.1148,            0.,NA,NA,"",   201.374E-03,  -179.357E-03,  -91.5553E-03,   10.5332E-03
C:/temp/dataset/6/29_16.odb,Step-1,Increment      1: Step Time =    1.000,"PART-1-1",           179,      -8.70618,       22.9331,            0.,NA,NA,"",   556.223E-03,  -553.177E-03,  -58.1334E-03,   93.0785E-09
C:/temp/dataset/6/29_16.odb,Step-1,Increment      1: Step Time =    1.000,"PART-1-1",           180,      -9.21222,       15.1634,            0.,NA,NA,"",   546.235E-03,  -543.061E-03,  -58.8006E-03,   10.7850E-06
C:/temp/dataset/6/29_16.odb,Step-1,Increment      1: Step Time =    1.000,"PART-1-1",           181,      -9.55138,       19.8926,            0.,NA,NA,"",   552.401E-03,  -549.216E-03,  -59.2324E-03,   973.869E-09
C:/temp/dataset/6/29_16.odb,Step-1,Increment      1: Step Time =    1.000,"PART-1-1",           182,      -8.92203,       8.32966,            0.,NA,NA,"",   537.286E-03,  -534.091E-03,  -58.5050E-03,   56.0134E-06
C:/temp/dataset/6/29_16.odb,Step-1,Increment      1: Step Time =    1.000,"PART-1-1",           183,      -9.17670,       12.8809,            0.,NA,NA,"",   543.280E-03,  -540.091E-03,  -58.7785E-03,   22.3246E-06
C:/temp/dataset/6/29_16.odb,Step-1,Increment      1: Step Time =    1.000,"PART-1-1",           184,      -9.09923,       10.6117,            0.,NA,NA,"",   540.329E-03,  -537.129E-03,  -58.7185E-03,   34.1096E-06
C:/temp/dataset/6/29_16.odb,Step-1,Increment      1: Step Time =    1.000,"PART-1-1",           185,      -9.30530,       17.5014,            0.,NA,NA,"",   549.272E-03,  -546.103E-03,  -58.9132E-03,   3.80276E-06
C:/temp/dataset/6/29_16.odb,Step-1,Increment      1: Step Time =    1.000,"PART-1-1",           186,      -8.37864,       6.17865,            0.,NA,NA,"",   534.158E-03,  -531.043E-03,  -57.6019E-03,   376.089E-06
C:/temp/dataset/6/29_16.odb,Step-1,Increment      1: Step Time =    1.000,"PART-1-1",           187,       10.9988,      -10.2527,            0.,NA,NA,"",   316.127E-03,  -311.726E-03,   52.5673E-03,   4.48212E-03
C:/temp/dataset/6/29_16.odb,Step-1,Increment      1: Step Time =    1.000,"PART-1-1",           188,       10.8643,      -17.5211,            0.,NA,NA,"",   145.639E-03,  -140.056E-03,   39.9396E-03,   4.78914E-03
C:/temp/dataset/6/29_16.odb,Step-1,Increment      1: Step Time =    1.000,"PART-1-1",           189,       11.0508,      -8.01555,            0.,NA,NA,"",   369.980E-03,  -366.015E-03,   54.0176E-03,   3.84271E-03
C:/temp/dataset/6/29_16.odb,Step-1,Increment      1: Step Time =    1.000,"PART-1-1",           190,       10.6332,      -2.00908,            0.,NA,NA,"",   482.312E-03,  -480.516E-03,   41.5795E-03,   2.02612E-03
C:/temp/dataset/6/29_16.odb,Step-1,Increment      1: Step Time =    1.000,"PART-1-1",           191,       11.1668,      -5.92645,            0.,NA,NA,"",   415.982E-03,  -412.352E-03,   54.8420E-03,   2.66781E-03
C:/temp/dataset/6/29_16.odb,Step-1,Increment      1: Step Time =    1.000,"PART-1-1",           192,       10.9732,      -14.9280,            0.,NA,NA,"",   202.799E-03,  -197.273E-03,   47.0177E-03,   4.79394E-03
C:/temp/dataset/6/29_16.odb,Step-1,Increment      1: Step Time =    1.000,"PART-1-1",           193,       10.5476,      -23.6927,            0.,NA,NA,"",   50.6737E-03,  -47.4381E-03,   17.8171E-03,   3.46210E-03
C:/temp/dataset/6/29_16.odb,Step-1,Increment      1: Step Time =    1.000,"PART-1-1",           194,       10.5707,      -21.1850,            0.,NA,NA,"",   80.9632E-03,  -76.8610E-03,   25.4446E-03,   3.94523E-03
C:/temp/dataset/6/29_16.odb,Step-1,Increment      1: Step Time =    1.000,"PART-1-1",           195,       10.9760,      -12.5622,            0.,NA,NA,"",   259.286E-03,  -254.367E-03,   50.2635E-03,   4.70529E-03
C:/temp/dataset/6/29_16.odb,Step-1,Increment      1: Step Time =    1.000,"PART-1-1",           196,       11.6229,      -19.2502,            0.,NA,NA,"",   118.310E-03,  -109.286E-03,   45.3203E-03,   4.97397E-03
C:/temp/dataset/6/29_16.odb,Step-1,Increment      1: Step Time =    1.000,"PART-1-1",           197,       11.1609,      -3.97100,            0.,NA,NA,"",   452.482E-03,  -449.428E-03,   52.4835E-03,   1.71460E-03
C:/temp/dataset/6/29_16.odb,Step-1,Increment      1: Step Time =    1.000,"PART-1-1",           198,      -9.55101,       25.2781,            0.,NA,NA,"",   559.376E-03,  -556.231E-03,  -59.2359E-03,   76.0587E-09
C:/temp/dataset/6/29_16.odb,Step-1,Increment      1: Step Time =    1.000,"PART-1-1",           199,      -6.13353,       2.97524,            0.,NA,NA,"",   527.570E-03,  -524.857E-03,  -53.4330E-03,   1.16272E-03
C:/temp/dataset/6/29_16.odb,Step-1,Increment      1: Step Time =    1.000,"PART-1-1",           200,       8.52809,      -18.5145,            0.,NA,NA,"",   116.335E-03,  -116.171E-03,   6.17334E-03,   4.45125E-03
C:/temp/dataset/6/29_16.odb,Step-1,Increment      1: Step Time =    1.000,"PART-1-1",           201,      -9.31256,      -6.57829,            0.,NA,NA,"",   526.351E-03,  -524.757E-03,  -40.9301E-03,   5.58589E-03
C:/temp/dataset/6/29_16.odb,Step-1,Increment      1: Step Time =    1.000,"PART-1-1",           202,      -7.82061,      -4.24854,            0.,NA,NA,"",   524.963E-03,  -523.623E-03,  -37.4858E-03,   6.07972E-03
C:/temp/dataset/6/29_16.odb,Step-1,Increment      1: Step Time =    1.000,"PART-1-1",           203,       7.55002,      -20.4955,            0.,NA,NA,"",   81.1438E-03,  -80.9290E-03,  -5.90034E-03,   3.33504E-03
C:/temp/dataset/6/29_16.odb,Step-1,Increment      1: Step Time =    1.000,"PART-1-1",           204,      -9.18944,      -8.43706,            0.,NA,NA,"",   518.473E-03,  -517.208E-03,  -36.2036E-03,   5.62307E-03
C:/temp/dataset/6/29_16.odb,Step-1,Increment      1: Step Time =    1.000,"PART-1-1",           205,      -12.3720,       27.4312,            0.,NA,NA,"",   562.562E-03,  -559.033E-03,  -62.9125E-03,   60.7988E-09
C:/temp/dataset/6/29_16.odb,Step-1,Increment      1: Step Time =    1.000,"PART-1-1",           206,      -10.3791,       22.2070,            0.,NA,NA,"",   555.513E-03,  -552.229E-03,  -60.3119E-03,   169.898E-09
C:/temp/dataset/6/29_16.odb,Step-1,Increment      1: Step Time =    1.000,"PART-1-1",           207,       3.40286,  -884.176E-03,            0.,NA,NA,"",   500.513E-03,  -498.605E-03,  -43.6607E-03,   3.05399E-03
C:/temp/dataset/6/29_16.odb,Step-1,Increment      1: Step Time =    1.000,"PART-1-1",           208,       7.88020,       1.44192,            0.,NA,NA,"",   521.569E-03,  -521.569E-03,   601.363E-06,   2.19434E-03
C:/temp/dataset/6/29_16.odb,Step-1,Increment      1: Step Time =    1.000,"PART-1-1",           209,      -1.17287,  -897.893E-03,            0.,NA,NA,"",   509.394E-03,  -506.787E-03,  -51.4739E-03,   3.56593E-03
C:/temp/dataset/6/29_16.odb,Step-1,Increment      1: Step Time =    1.000,"PART-1-1",           210,       10.4014,      -25.9274,            0.,NA,NA,"",   28.5038E-03,  -26.4514E-03,   10.6204E-03,   3.76880E-03
C:/temp/dataset/6/29_16.odb,Step-1,Increment      1: Step Time =    1.000,"PART-1-1",           211,       2.00108,      -24.8239,            0.,NA,NA,"",   51.1074E-03,  -51.0587E-03,  -2.23067E-03,   8.23757E-03
C:/temp/dataset/6/29_16.odb,Step-1,Increment      1: Step Time =    1.000,"PART-1-1",           212,      -4.80900,      -25.1606,            0.,NA,NA,"",   51.9815E-03,  -49.6411E-03,   15.4219E-03,   8.67638E-03
C:/temp/dataset/6/29_16.odb,Step-1,Increment      1: Step Time =    1.000,"PART-1-1",           213,      -11.5765,       21.3848,            0.,NA,NA,"",   554.619E-03,  -551.157E-03,  -61.8710E-03,   294.006E-09
C:/temp/dataset/6/29_16.odb,Step-1,Increment      1: Step Time =    1.000,"PART-1-1",           214,      -11.0630,       10.3038,            0.,NA,NA,"",   540.204E-03,  -536.718E-03,  -61.2699E-03,   29.8928E-06
C:/temp/dataset/6/29_16.odb,Step-1,Increment      1: Step Time =    1.000,"PART-1-1",           215,      -10.2832,  -591.021E-03,            0.,NA,NA,"",   530.918E-03,  -527.871E-03,  -56.7919E-03,   2.77762E-03
C:/temp/dataset/6/29_16.odb,Step-1,Increment      1: Step Time =    1.000,"PART-1-1",           216,      -11.1869,      -5.64306,            0.,NA,NA,"",   530.627E-03,  -527.258E-03,  -59.7011E-03,   4.70539E-03
C:/temp/dataset/6/29_16.odb,Step-1,Increment      1: Step Time =    1.000,"PART-1-1",           217,      -9.48237,      -10.3825,            0.,NA,NA,"",   499.255E-03,  -497.610E-03,  -40.4992E-03,   5.49462E-03
C:/temp/dataset/6/29_16.odb,Step-1,Increment      1: Step Time =    1.000,"PART-1-1",           218,      -10.0191,      -20.7277,            0.,NA,NA,"",   153.299E-03,  -148.183E-03,  -39.2747E-03,   11.6964E-03
C:/temp/dataset/6/29_16.odb,Step-1,Increment      1: Step Time =    1.000,"PART-1-1",           219,      -12.8377,      -24.8331,            0.,NA,NA,"",   82.8472E-03,  -63.7495E-03,  -52.9118E-03,   11.6678E-03
C:/temp/dataset/6/29_16.odb,Step-1,Increment      1: Step Time =    1.000,"PART-1-1",           220,  -752.185E-03,      -25.0561,            0.,NA,NA,"",   53.5725E-03,  -53.0099E-03,   7.74370E-03,   9.09152E-03
C:/temp/dataset/6/29_16.odb,Step-1,Increment      1: Step Time =    1.000,"PART-1-1",           221,      -11.3411,      -22.5061,            0.,NA,NA,"",   116.829E-03,  -105.755E-03,  -49.6487E-03,   9.23342E-03
C:/temp/dataset/6/29_16.odb,Step-1,Increment      1: Step Time =    1.000,"PART-1-1",           222,       5.90860,      -26.1342,            0.,NA,NA,"",   30.1443E-03,  -29.9251E-03,  -3.62905E-03,   5.57409E-03
C:/temp/dataset/6/29_16.odb,Step-1,Increment      1: Step Time =    1.000,"PART-1-1",           223,       3.81352,      -25.8758,            0.,NA,NA,"",   37.7121E-03,  -37.4827E-03,  -4.15305E-03,   7.18449E-03
C:/temp/dataset/6/29_16.odb,Step-1,Increment      1: Step Time =    1.000,"PART-1-1",           224,      -6.87266,      -25.1947,            0.,NA,NA,"",   46.6797E-03,  -45.9589E-03,   8.17133E-03,   5.86926E-03
C:/temp/dataset/6/29_16.odb,Step-1,Increment      1: Step Time =    1.000,"PART-1-1",           225,       9.77381,   336.875E-03,            0.,NA,NA,"",   511.094E-03,  -510.377E-03,   27.0642E-03,   2.54749E-03
C:/temp/dataset/6/29_16.odb,Step-1,Increment      1: Step Time =    1.000,"PART-1-1",           226,       4.59800,   29.7464E-03,            0.,NA,NA,"",   507.362E-03,  -506.107E-03,  -35.6624E-03,   1.74629E-03
C:/temp/dataset/6/29_16.odb,Step-1,Increment      1: Step Time =    1.000,"PART-1-1",           227,      -11.1551,       12.6912,            0.,NA,NA,"",   543.293E-03,  -539.817E-03,  -61.3524E-03,   23.0338E-06
C:/temp/dataset/6/29_16.odb,Step-1,Increment      1: Step Time =    1.000,"PART-1-1",           228,      -11.2689,       17.3859,            0.,NA,NA,"",   549.394E-03,  -545.945E-03,  -61.4704E-03,   3.94566E-06
C:/temp/dataset/6/29_16.odb,Step-1,Increment      1: Step Time =    1.000,"PART-1-1",           229,      -11.2102,       15.0558,            0.,NA,NA,"",   546.365E-03,  -542.904E-03,  -61.4015E-03,   10.7263E-06
C:/temp/dataset/6/29_16.odb,Step-1,Increment      1: Step Time =    1.000,"PART-1-1",           230,      -10.8139,       7.79620,            0.,NA,NA,"",   537.022E-03,  -533.550E-03,  -60.9674E-03,   69.4587E-06
C:/temp/dataset/6/29_16.odb,Step-1,Increment      1: Step Time =    1.000,"PART-1-1",           231,      -10.1648,       4.85487,            0.,NA,NA,"",   533.493E-03,  -530.136E-03,  -59.7545E-03,   525.386E-06
C:/temp/dataset/6/29_16.odb,Step-1,Increment      1: Step Time =    1.000,"PART-1-1",           232,      -10.4473,       2.01195,            0.,NA,NA,"",   531.622E-03,  -528.318E-03,  -59.1795E-03,   1.40301E-03
C:/temp/dataset/6/29_16.odb,Step-1,Increment      1: Step Time =    1.000,"PART-1-1",           233,      -10.4810,      -3.59789,            0.,NA,NA,"",   531.637E-03,  -528.817E-03,  -54.6856E-03,   4.46347E-03
C:/temp/dataset/6/29_16.odb,Step-1,Increment      1: Step Time =    1.000,"PART-1-1",           234,      -9.89141,      -15.1395,            0.,NA,NA,"",   367.402E-03,  -362.968E-03,  -56.9099E-03,   15.0337E-03
C:/temp/dataset/6/29_16.odb,Step-1,Increment      1: Step Time =    1.000,"PART-1-1",           235,      -9.95744,      -17.7636,            0.,NA,NA,"",   260.547E-03,  -255.068E-03,  -53.1501E-03,   16.8792E-03
C:/temp/dataset/6/29_16.odb,Step-1,Increment      1: Step Time =    1.000,"PART-1-1",           236,      -3.63694,      -1.16253,            0.,NA,NA,"",   513.642E-03,  -511.330E-03,  -48.6773E-03,   4.11187E-03
C:/temp/dataset/6/29_16.odb,Step-1,Increment      1: Step Time =    1.000,"PART-1-1",           237,      -7.00580,      -22.7773,            0.,NA,NA,"",   84.8979E-03,  -84.1760E-03,   11.0481E-03,   5.15847E-03
C:/temp/dataset/6/29_16.odb,Step-1,Increment      1: Step Time =    1.000,"PART-1-1",           238,       7.08723,      -4.67483,            0.,NA,NA,"",   445.498E-03,  -445.318E-03,  -12.6621E-03,   5.34156E-03
C:/temp/dataset/6/29_16.odb,Step-1,Increment      1: Step Time =    1.000,"PART-1-1",           239,       8.96532,      -10.1697,            0.,NA,NA,"",   313.327E-03,  -312.932E-03,   15.7411E-03,   4.47769E-03
C:/temp/dataset/6/29_16.odb,Step-1,Increment      1: Step Time =    1.000,"PART-1-1",           240,       8.99874,      -7.82238,            0.,NA,NA,"",   371.853E-03,  -371.403E-03,   18.2830E-03,   4.93526E-03
C:/temp/dataset/6/29_16.odb,Step-1,Increment      1: Step Time =    1.000,"PART-1-1",           241,       8.96760,      -14.8663,            0.,NA,NA,"",   197.209E-03,  -196.749E-03,   13.4625E-03,   4.39554E-03
C:/temp/dataset/6/29_16.odb,Step-1,Increment      1: Step Time =    1.000,"PART-1-1",           242,      -12.0836,       24.5335,            0.,NA,NA,"",   558.769E-03,  -555.259E-03,  -62.5343E-03,   89.4841E-09
C:/temp/dataset/6/29_16.odb,Step-1,Increment      1: Step Time =    1.000,"PART-1-1",           243,       9.21542,      -5.66363,            0.,NA,NA,"",   421.099E-03,  -420.532E-03,   21.8534E-03,   3.68504E-03
C:/temp/dataset/6/29_16.odb,Step-1,Increment      1: Step Time =    1.000,"PART-1-1",           244,       8.72776,      -2.97127,            0.,NA,NA,"",   469.643E-03,  -469.494E-03,   11.8377E-03,   2.43525E-03
C:/temp/dataset/6/29_16.odb,Step-1,Increment      1: Step Time =    1.000,"PART-1-1",           245,       9.39471,      -19.4524,            0.,NA,NA,"",   101.906E-03,  -100.667E-03,   15.8411E-03,   4.10297E-03
C:/temp/dataset/6/29_16.odb,Step-1,Increment      1: Step Time =    1.000,"PART-1-1",           246,       8.06548,      -22.0810,            0.,NA,NA,"",   62.3735E-03,  -62.3657E-03,  -986.678E-06,   1.14586E-03
C:/temp/dataset/6/29_16.odb,Step-1,Increment      1: Step Time =    1.000,"PART-1-1",           247,      -7.53738,       4.79758,            0.,NA,NA,"",   531.677E-03,  -528.713E-03,  -56.0615E-03,   726.732E-06
C:/temp/dataset/6/29_16.odb,Step-1,Increment      1: Step Time =    1.000,"PART-1-1",           248,      -10.8025,      -24.3532,            0.,NA,NA,"",   70.6039E-03,  -64.0654E-03,  -29.6739E-03,   7.54125E-03
C:/temp/dataset/6/29_16.odb,Step-1,Increment      1: Step Time =    1.000,"PART-1-1",           249,       5.82981,      -2.08643,            0.,NA,NA,"",   485.943E-03,  -485.175E-03,  -27.3108E-03,   3.27441E-03
C:/temp/dataset/6/29_16.odb,Step-1,Increment      1: Step Time =    1.000,"PART-1-1",           250,      -8.67175,      -2.53401,            0.,NA,NA,"",   527.490E-03,  -525.386E-03,  -47.0736E-03,   4.59327E-03
C:/temp/dataset/6/29_16.odb,Step-1,Increment      1: Step Time =    1.000,"PART-1-1",           251,       5.78686,      -22.7214,            0.,NA,NA,"",   60.4385E-03,  -59.0026E-03,  -13.0962E-03,   5.52618E-03
C:/temp/dataset/6/29_16.odb,Step-1,Increment      1: Step Time =    1.000,"PART-1-1",           252,      -8.27594,       1.60152,            0.,NA,NA,"",   528.553E-03,  -525.733E-03,  -54.5278E-03,   1.82942E-03
C:/temp/dataset/6/29_16.odb,Step-1,Increment      1: Step Time =    1.000,"PART-1-1",           253,       8.25490,      -24.0061,            0.,NA,NA,"",   43.7104E-03,  -43.6975E-03,   1.06319E-03,   2.25660E-03
C:/temp/dataset/6/29_16.odb,Step-1,Increment      1: Step Time =    1.000,"PART-1-1",           254,      -9.04303,      -23.2600,            0.,NA,NA,"",   80.6488E-03,  -79.6851E-03,  -12.4302E-03,   6.15336E-03
C:/temp/dataset/6/29_16.odb,Step-1,Increment      1: Step Time =    1.000,"PART-1-1",           255,       7.61656,      -1.09448,            0.,NA,NA,"",   494.855E-03,  -494.833E-03,  -4.65777E-03,   2.31456E-03
C:/temp/dataset/6/29_16.odb,Step-1,Increment      1: Step Time =    1.000,"PART-1-1",           256,      -4.02262,   861.151E-03,            0.,NA,NA,"",   520.280E-03,  -517.742E-03,  -51.3288E-03,   2.89946E-03
C:/temp/dataset/6/29_16.odb,Step-1,Increment      1: Step Time =    1.000,"PART-1-1",           257,  -104.141E-03,       1.31276,            0.,NA,NA,"",   518.559E-03,  -515.909E-03,  -52.3602E-03,   2.79204E-03
C:/temp/dataset/6/29_16.odb,Step-1,Increment      1: Step Time =    1.000,"PART-1-1",           258,       3.72123,      -23.4419,            0.,NA,NA,"",   59.2161E-03,  -58.3434E-03,  -10.1290E-03,   8.09213E-03
C:/temp/dataset/6/29_16.odb,Step-1,Increment      1: Step Time =    1.000,"PART-1-1",           259,      -10.7950,      -8.39617,            0.,NA,NA,"",   518.184E-03,  -514.979E-03,  -57.5521E-03,   4.40983E-03
C:/temp/dataset/6/29_16.odb,Step-1,Increment      1: Step Time =    1.000,"PART-1-1",           260,      -1.85786,       1.02916,            0.,NA,NA,"",   518.470E-03,  -515.783E-03,  -52.7156E-03,   3.04539E-03
C:/temp/dataset/6/29_16.odb,Step-1,Increment      1: Step Time =    1.000,"PART-1-1",           261,      -6.46179,      -1.33856,            0.,NA,NA,"",   521.002E-03,  -518.969E-03,  -45.9744E-03,   4.18523E-03
C:/temp/dataset/6/29_16.odb,Step-1,Increment      1: Step Time =    1.000,"PART-1-1",           262,      -11.1078,      -7.00587,            0.,NA,NA,"",   526.435E-03,  -523.011E-03,  -59.9497E-03,   4.73520E-03
C:/temp/dataset/6/29_16.odb,Step-1,Increment      1: Step Time =    1.000,"PART-1-1",           263,      -5.52697,      -3.44125,            0.,NA,NA,"",   515.703E-03,  -514.299E-03,  -38.0334E-03,   6.69562E-03
C:/temp/dataset/6/29_16.odb,Step-1,Increment      1: Step Time =    1.000,"PART-1-1",           264,      -9.72268,      -4.98378,            0.,NA,NA,"",   529.682E-03,  -527.543E-03,  -47.5536E-03,   5.03759E-03
C:/temp/dataset/6/29_16.odb,Step-1,Increment      1: Step Time =    1.000,"PART-1-1",           265,      -6.27329,       4.89376,            0.,NA,NA,"",   530.880E-03,  -528.070E-03,  -54.5430E-03,   830.665E-06
C:/temp/dataset/6/29_16.odb,Step-1,Increment      1: Step Time =    1.000,"PART-1-1",           266,       12.4963,       2.80040,            0.,NA,NA,"",   544.506E-03,  -540.274E-03,   67.7552E-03,   1.61713E-03
C:/temp/dataset/6/29_16.odb,Step-1,Increment      1: Step Time =    1.000,"PART-1-1",           267,      -7.37176,      -20.2559,            0.,NA,NA,"",   147.702E-03,  -147.684E-03,   2.34452E-03,   13.4518E-03
C:/temp/dataset/6/29_16.odb,Step-1,Increment      1: Step Time =    1.000,"PART-1-1",           268,       2.88963,      -21.8777,            0.,NA,NA,"",   70.3723E-03,  -69.7564E-03,  -9.29059E-03,   7.28713E-03
C:/temp/dataset/6/29_16.odb,Step-1,Increment      1: Step Time =    1.000,"PART-1-1",           269,      -8.05085,       3.52655,            0.,NA,NA,"",   530.380E-03,  -527.415E-03,  -56.0127E-03,   1.07352E-03
C:/temp/dataset/6/29_16.odb,Step-1,Increment      1: Step Time =    1.000,"PART-1-1",           270,       8.95558,      -12.5395,            0.,NA,NA,"",   253.858E-03,  -253.476E-03,   13.9189E-03,   4.39451E-03
C:/temp/dataset/6/29_16.odb,Step-1,Increment      1: Step Time =    1.000,"PART-1-1",           271,       1.35989,  -223.950E-03,            0.,NA,NA,"",   508.445E-03,  -505.956E-03,  -50.2456E-03,   3.28923E-03
C:/temp/dataset/6/29_16.odb,Step-1,Increment      1: Step Time =    1.000,"PART-1-1",           272,      -9.75004,      -12.6533,            0.,NA,NA,"",   451.767E-03,  -448.976E-03,  -50.1345E-03,   9.78821E-03
C:/temp/dataset/6/29_16.odb,Step-1,Increment      1: Step Time =    1.000,"PART-1-1",           273,      -8.51206,      -25.1011,            0.,NA,NA,"",   47.1411E-03,  -47.0151E-03,  -3.44441E-03,   4.40769E-03
C:/temp/dataset/6/29_16.odb,Step-1,Increment      1: Step Time =    1.000,"PART-1-1",           274,      -6.19138,   998.181E-03,            0.,NA,NA,"",   524.144E-03,  -521.632E-03,  -51.2580E-03,   2.29246E-03
C:/temp/dataset/6/29_16.odb,Step-1,Increment      1: Step Time =    1.000,"PART-1-1",           275,      -2.63339,      -25.0950,            0.,NA,NA,"",   54.6568E-03,  -52.8040E-03,   14.1106E-03,   10.4426E-03
C:/temp/dataset/6/29_16.odb,Step-1,Increment      1: Step Time =    1.000,"PART-1-1",           276,       8.11811,      -26.0558,            0.,NA,NA,"",   26.3556E-03,  -26.3312E-03,   1.13370E-03,   3.55973E-03
C:/temp/dataset/6/29_16.odb,Step-1,Increment      1: Step Time =    1.000,"PART-1-1",           277,       6.33403,   764.508E-03,            0.,NA,NA,"",   513.986E-03,  -513.648E-03,  -18.6460E-03,   1.54739E-03
C:/temp/dataset/6/29_16.odb,Step-1,Increment      1: Step Time =    1.000,"PART-1-1",           278,       8.84044,      -16.9880,            0.,NA,NA,"",   148.476E-03,  -148.068E-03,   10.9997E-03,   4.86183E-03
C:/temp/dataset/6/29_16.odb,Step-1,Increment      1: Step Time =    1.000,"PART-1-1",           279,      -11.3950,       19.6047,            0.,NA,NA,"",   552.287E-03,  -548.837E-03,  -61.6337E-03,   1.12840E-06
C:/temp/dataset/6/29_16.odb,Step-1,Increment      1: Step Time =    1.000,"PART-1-1",           280,      -11.2464,      -2.22607,            0.,NA,NA,"",   532.568E-03,  -529.210E-03,  -59.7080E-03,   3.46306E-03
C:/temp/dataset/6/29_16.odb,Step-1,Increment      1: Step Time =    1.000,"PART-1-1",           281,      -8.41776,  -32.7016E-03,            0.,NA,NA,"",   527.515E-03,  -524.918E-03,  -52.2792E-03,   2.81648E-03
C:/temp/dataset/6/29_16.odb,Step-1,Increment      1: Step Time =    1.000,"PART-1-1",           282,       4.48255,      -24.5345,            0.,NA,NA,"",   48.0278E-03,  -47.3450E-03,  -8.06955E-03,   7.11668E-03
C:/temp/dataset/6/29_16.odb,Step-1,Increment      1: Step Time =    1.000,"PART-1-1",           283,       6.11275,      -24.3348,            0.,NA,NA,"",   45.1561E-03,  -44.5452E-03,  -7.40267E-03,   5.17980E-03
C:/temp/dataset/6/29_16.odb,Step-1,Increment      1: Step Time =    1.000,"PART-1-1",           284,       9.69767,      -4.20039,            0.,NA,NA,"",   448.469E-03,  -447.560E-03,   28.5366E-03,   2.42447E-03
C:/temp/dataset/6/29_16.odb,Step-1,Increment      1: Step Time =    1.000,"PART-1-1",           285,       13.8851,      -1.60402,            0.,NA,NA,"",   492.334E-03,  -483.410E-03,   93.3098E-03,   2.44540E-03
C:/temp/dataset/6/29_16.odb,Step-1,Increment      1: Step Time =    1.000,"PART-1-1",           286,           15.,   -468.75E-03,            0.,NA,NA,"",   509.320E-03,  -497.946E-03,   107.037E-03,   2.43139E-03
C:/temp/dataset/6/29_16.odb,Step-1,Increment      1: Step Time =    1.000,"PART-1-1",           287,       13.7553,   590.641E-03,            0.,NA,NA,"",   520.104E-03,  -512.655E-03,   87.7061E-03,   1.71857E-03
C:/temp/dataset/6/29_16.odb,Step-1,Increment      1: Step Time =    1.000,"PART-1-1",           288,       12.6405,  -544.629E-03,            0.,NA,NA,"",   503.882E-03,  -498.680E-03,   72.2201E-03,   2.12913E-03
C:/temp/dataset/6/29_16.odb,Step-1,Increment      1: Step Time =    1.000,"PART-1-1",           289,       6.57104,       2.96720,            0.,NA,NA,"",   535.059E-03,  -534.882E-03,  -13.7671E-03,   2.24343E-03
C:/temp/dataset/6/29_16.odb,Step-1,Increment      1: Step Time =    1.000,"PART-1-1",           290,       5.86345,       1.80964,            0.,NA,NA,"",   523.417E-03,  -522.935E-03,  -22.4536E-03,   1.68330E-03
C:/temp/dataset/6/29_16.odb,Step-1,Increment      1: Step Time =    1.000,"PART-1-1",           291,       7.10711,       1.10321,            0.,NA,NA,"",   517.585E-03,  -517.498E-03,  -9.45793E-03,   1.80598E-03
C:/temp/dataset/6/29_16.odb,Step-1,Increment      1: Step Time =    1.000,"PART-1-1",           292,       7.81470,       2.26078,            0.,NA,NA,"",   529.883E-03,  -529.883E-03,   373.182E-06,   2.23267E-03
C:/temp/dataset/6/29_16.odb,Step-1,Increment      1: Step Time =    1.000,"PART-1-1",           293,       6.97305,      -8.82061,            0.,NA,NA,"",   346.091E-03,  -345.463E-03,  -20.8472E-03,   4.23920E-03
C:/temp/dataset/6/29_16.odb,Step-1,Increment      1: Step Time =    1.000,"PART-1-1",           294,       5.98985,      -7.53541,            0.,NA,NA,"",   379.043E-03,  -377.163E-03,  -37.7093E-03,   4.80146E-03
C:/temp/dataset/6/29_16.odb,Step-1,Increment      1: Step Time =    1.000,"PART-1-1",           295,            5.,      -8.76875,            0.,NA,NA,"",   349.542E-03,  -343.432E-03,  -65.0679E-03,   3.15580E-03
C:/temp/dataset/6/29_16.odb,Step-1,Increment      1: Step Time =    1.000,"PART-1-1",           296,       5.98320,      -10.0539,            0.,NA,NA,"",   316.335E-03,  -313.243E-03,  -44.1210E-03,   2.26272E-03
C:/temp/dataset/6/29_16.odb,Step-1,Increment      1: Step Time =    1.000,"PART-1-1",           297,       12.0429,      -8.05477,            0.,NA,NA,"",   371.916E-03,  -364.899E-03,   71.9024E-03,   3.15980E-03
C:/temp/dataset/6/29_16.odb,Step-1,Increment      1: Step Time =    1.000,"PART-1-1",           298,       11.0248,      -9.13413,            0.,NA,NA,"",   343.511E-03,  -339.314E-03,   53.5344E-03,   4.13614E-03
C:/temp/dataset/6/29_16.odb,Step-1,Increment      1: Step Time =    1.000,"PART-1-1",           299,       11.9985,      -10.2754,            0.,NA,NA,"",   319.656E-03,  -311.662E-03,   71.0444E-03,   3.76723E-03
C:/temp/dataset/6/29_16.odb,Step-1,Increment      1: Step Time =    1.000,"PART-1-1",           300,       13.0166,      -9.19606,            0.,NA,NA,"",   350.041E-03,  -338.073E-03,   90.7471E-03,   2.73615E-03
C:/temp/dataset/6/29_16.odb,Step-1,Increment      1: Step Time =    1.000,"PART-1-1",           301,       13.9992,      -14.7549,            0.,NA,NA,"",   230.399E-03,  -206.337E-03,   102.512E-03,   4.52024E-03
C:/temp/dataset/6/29_16.odb,Step-1,Increment      1: Step Time =    1.000,"PART-1-1",           302,       13.0271,      -15.9471,            0.,NA,NA,"",   194.786E-03,  -177.691E-03,   79.7977E-03,   4.92413E-03
C:/temp/dataset/6/29_16.odb,Step-1,Increment      1: Step Time =    1.000,"PART-1-1",           303,       14.0279,      -16.9735,            0.,NA,NA,"",   184.042E-03,  -158.556E-03,   93.4418E-03,   6.06198E-03
C:/temp/dataset/6/29_16.odb,Step-1,Increment      1: Step Time =    1.000,"PART-1-1",           304,           15.,      -15.7813,            0.,NA,NA,"",   220.861E-03,  -186.234E-03,   118.728E-03,   6.02999E-03
C:/temp/dataset/6/29_16.odb,Step-1,Increment      1: Step Time =    1.000,"PART-1-1",           305,       6.96949,      -18.0995,            0.,NA,NA,"",   123.781E-03,  -122.874E-03,  -14.9548E-03,   4.93281E-03
C:/temp/dataset/6/29_16.odb,Step-1,Increment      1: Step Time =    1.000,"PART-1-1",           306,       5.95014,      -17.3335,            0.,NA,NA,"",   144.776E-03,  -140.682E-03,  -34.1887E-03,   4.68132E-03
C:/temp/dataset/6/29_16.odb,Step-1,Increment      1: Step Time =    1.000,"PART-1-1",           307,            5.,      -18.7625,            0.,NA,NA,"",   120.385E-03,  -112.381E-03,  -43.1626E-03,   10.9001E-03
C:/temp/dataset/6/29_16.odb,Step-1,Increment      1: Step Time =    1.000,"PART-1-1",           308,       6.01935,      -19.5285,            0.,NA,NA,"",   94.9516E-03,  -92.2087E-03,  -22.6576E-03,   8.84833E-03
C:/temp/dataset/6/29_16.odb,Step-1,Increment      1: Step Time =    1.000,"PART-1-1",           309,       7.66098,      -29.0388,            0.,NA,NA,"",   5.35010E-03,  -5.32072E-03,   559.941E-06,   3.67791E-03
C:/temp/dataset/6/29_16.odb,Step-1,Increment      1: Step Time =    1.000,"PART-1-1",           310,       6.62868,      -28.0660,            0.,NA,NA,"",   13.1320E-03,  -13.1274E-03,  -346.807E-06,   4.70096E-03
C:/temp/dataset/6/29_16.odb,Step-1,Increment      1: Step Time =    1.000,"PART-1-1",           311,       5.21770,      -29.0272,            0.,NA,NA,"",   7.63391E-03,  -7.63213E-03,  -164.529E-06,   5.18422E-03
C:/temp/dataset/6/29_16.odb,Step-1,Increment      1: Step Time =    1.000,"PART-1-1",           312,          6.25,          -30.,            0.,NA,NA,"",            0.,  -4.02022E-39,   1.06467E-39,   4.24431E-03
C:/temp/dataset/6/29_16.odb,Step-1,Increment      1: Step Time =    1.000,"PART-1-1",           313,   162.125E-03,      -28.5454,            0.,NA,NA,"",   16.2652E-03,  -16.1782E-03,   1.68027E-03,   7.76195E-03
C:/temp/dataset/6/29_16.odb,Step-1,Increment      1: Step Time =    1.000,"PART-1-1",           314,      -1.06934,      -27.3053,            0.,NA,NA,"",   29.6800E-03,  -29.2572E-03,   4.99206E-03,   7.99620E-03
C:/temp/dataset/6/29_16.odb,Step-1,Increment      1: Step Time =    1.000,"PART-1-1",           315,      -2.48147,      -28.7599,            0.,NA,NA,"",   13.1535E-03,  -12.8692E-03,   2.71986E-03,   7.64298E-03
C:/temp/dataset/6/29_16.odb,Step-1,Increment      1: Step Time =    1.000,"PART-1-1",           316,         -1.25,          -30.,            0.,NA,NA,"",            0.,  -6.87202E-39,   3.93046E-39,   7.36180E-03
C:/temp/dataset/6/29_16.odb,Step-1,Increment      1: Step Time =    1.000,"PART-1-1",           317,          -15.,        -21.25,            0.,NA,NA,"",   208.445E-03,  -156.044E-03,  -138.201E-03,   12.8689E-03
C:/temp/dataset/6/29_16.odb,Step-1,Increment      1: Step Time =    1.000,"PART-1-1",           318,      -13.9888,      -22.4607,            0.,NA,NA,"",   155.299E-03,  -119.378E-03,  -99.3305E-03,   12.5248E-03
C:/temp/dataset/6/29_16.odb,Step-1,Increment      1: Step Time =    1.000,"PART-1-1",           319,      -12.8187,      -21.2681,            0.,NA,NA,"",   168.761E-03,  -145.148E-03,  -86.0952E-03,   10.1955E-03
C:/temp/dataset/6/29_16.odb,Step-1,Increment      1: Step Time =    1.000,"PART-1-1",           320,      -13.8299,      -20.0574,            0.,NA,NA,"",   220.474E-03,  -185.550E-03,  -119.081E-03,   9.68839E-03
C:/temp/dataset/6/29_16.odb,Step-1,Increment      1: Step Time =    1.000,"PART-1-1",           321,      -12.5142,      -28.6623,            0.,NA,NA,"",   14.0532E-03,  -8.75085E-03,  -10.9961E-03,   10.5906E-03
C:/temp/dataset/6/29_16.odb,Step-1,Increment      1: Step Time =    1.000,"PART-1-1",           322,        -11.25,          -30.,            0.,NA,NA,"",            0.,  -1.38156E-39,  -13.0352E-39,   6.88079E-03
C:/temp/dataset/6/29_16.odb,Step-1,Increment      1: Step Time =    1.000,"PART-1-1",           323,      -9.93348,      -28.4464,            0.,NA,NA,"",   9.25818E-03,  -7.94850E-03,  -4.74713E-03,   4.71477E-03
C:/temp/dataset/6/29_16.odb,Step-1,Increment      1: Step Time =    1.000,"PART-1-1",           324,      -11.1976,      -27.1087,            0.,NA,NA,"",   28.5125E-03,  -23.2069E-03,  -16.5650E-03,   8.40149E-03
C:/temp/dataset/6/29_16.odb,Step-1,Increment      1: Step Time =    1.000,"PART-1-1",           325,      -7.37036,      -13.8742,            0.,NA,NA,"",   425.895E-03,  -425.817E-03,  -8.16775E-03,   14.9033E-03
C:/temp/dataset/6/29_16.odb,Step-1,Increment      1: Step Time =    1.000,"PART-1-1",           326,      -6.21015,      -15.0417,            0.,NA,NA,"",   382.699E-03,  -382.020E-03,   22.7754E-03,   13.2226E-03
C:/temp/dataset/6/29_16.odb,Step-1,Increment      1: Step Time =    1.000,"PART-1-1",           327,           -5.,      -13.7188,            0.,NA,NA,"",   457.218E-03,  -453.081E-03,   61.3694E-03,   15.9142E-03
C:/temp/dataset/6/29_16.odb,Step-1,Increment      1: Step Time =    1.000,"PART-1-1",           328,      -6.16021,      -12.5513,            0.,NA,NA,"",   481.610E-03,  -481.243E-03,   18.7858E-03,   15.0948E-03
C:/temp/dataset/6/29_16.odb,Step-1,Increment      1: Step Time =    1.000,"PART-1-1",           329,      -9.33590,      -9.40979,            0.,NA,NA,"",   510.993E-03,  -509.609E-03,  -37.5902E-03,   4.89398E-03
C:/temp/dataset/6/29_16.odb,Step-1,Increment      1: Step Time =    1.000,"PART-1-1",           330,      -8.33361,      -10.3234,            0.,NA,NA,"",   504.427E-03,  -503.947E-03,  -21.9993E-03,   7.12663E-03
C:/temp/dataset/6/29_16.odb,Step-1,Increment      1: Step Time =    1.000,"PART-1-1",           331,      -7.16565,      -9.15059,            0.,NA,NA,"",   515.781E-03,  -515.715E-03,  -8.26278E-03,   9.39065E-03
C:/temp/dataset/6/29_16.odb,Step-1,Increment      1: Step Time =    1.000,"PART-1-1",           332,      -8.16794,      -8.23701,            0.,NA,NA,"",   519.194E-03,  -518.642E-03,  -23.9291E-03,   6.94526E-03
C:/temp/dataset/6/29_16.odb,Step-1,Increment      1: Step Time =    1.000,"PART-1-1",           333,      -11.1473,      -6.32447,            0.,NA,NA,"",   528.884E-03,  -525.498E-03,  -59.7547E-03,   4.68116E-03
C:/temp/dataset/6/29_16.odb,Step-1,Increment      1: Step Time =    1.000,"PART-1-1",           334,      -10.2102,      -6.79208,            0.,NA,NA,"",   526.752E-03,  -524.382E-03,  -49.9100E-03,   4.82736E-03
C:/temp/dataset/6/29_16.odb,Step-1,Increment      1: Step Time =    1.000,"PART-1-1",           335,      -9.51762,      -5.78103,            0.,NA,NA,"",   528.305E-03,  -526.433E-03,  -44.4313E-03,   5.24696E-03
C:/temp/dataset/6/29_16.odb,Step-1,Increment      1: Step Time =    1.000,"PART-1-1",           336,      -10.4548,      -5.31342,            0.,NA,NA,"",   530.447E-03,  -527.777E-03,  -53.1612E-03,   4.71127E-03
C:/temp/dataset/6/29_16.odb,Step-1,Increment      1: Step Time =    1.000,"PART-1-1",           337,      -5.04937,      -1.25055,            0.,NA,NA,"",   516.998E-03,  -514.895E-03,  -46.5874E-03,   3.93264E-03
C:/temp/dataset/6/29_16.odb,Step-1,Increment      1: Step Time =    1.000,"PART-1-1",           338,      -3.82978,  -150.691E-03,            0.,NA,NA,"",   516.932E-03,  -514.496E-03,  -50.1322E-03,   3.45702E-03
C:/temp/dataset/6/29_16.odb,Step-1,Increment      1: Step Time =    1.000,"PART-1-1",           339,      -5.10700,   929.666E-03,            0.,NA,NA,"",   522.145E-03,  -519.646E-03,  -51.0240E-03,   2.50529E-03
C:/temp/dataset/6/29_16.odb,Step-1,Increment      1: Step Time =    1.000,"PART-1-1",           340,      -6.32658,  -170.190E-03,            0.,NA,NA,"",   522.396E-03,  -520.085E-03,  -49.0832E-03,   3.16478E-03
C:/temp/dataset/6/29_16.odb,Step-1,Increment      1: Step Time =    1.000,"PART-1-1",           341,          -15.,          3.75,            0.,NA,NA,"",   533.880E-03,  -529.796E-03,  -65.9096E-03,   212.557E-06
C:/temp/dataset/6/29_16.odb,Step-1,Increment      1: Step Time =    1.000,"PART-1-1",           342,      -13.8520,       2.39386,            0.,NA,NA,"",   533.191E-03,  -529.184E-03,  -65.2509E-03,   582.576E-06
C:/temp/dataset/6/29_16.odb,Step-1,Increment      1: Step Time =    1.000,"PART-1-1",           343,      -12.6820,       3.58697,            0.,NA,NA,"",   533.577E-03,  -529.795E-03,  -63.4199E-03,   643.525E-06
C:/temp/dataset/6/29_16.odb,Step-1,Increment      1: Step Time =    1.000,"PART-1-1",           344,      -13.8301,       4.94311,            0.,NA,NA,"",   534.684E-03,  -530.754E-03,  -64.7053E-03,   158.369E-06
C:/temp/dataset/6/29_16.odb,Step-1,Increment      1: Step Time =    1.000,"PART-1-1",           345,          -15.,         11.25,            0.,NA,NA,"",   542.010E-03,  -537.946E-03,  -66.2461E-03,   40.2442E-06
C:/temp/dataset/6/29_16.odb,Step-1,Increment      1: Step Time =    1.000,"PART-1-1",           346,      -14.0083,       10.0442,            0.,NA,NA,"",   540.308E-03,  -536.389E-03,  -64.9535E-03,   35.7879E-06
C:/temp/dataset/6/29_16.odb,Step-1,Increment      1: Step Time =    1.000,"PART-1-1",           347,      -13.0572,       11.3141,            0.,NA,NA,"",   541.779E-03,  -538.012E-03,  -63.7830E-03,   23.3397E-06
C:/temp/dataset/6/29_16.odb,Step-1,Increment      1: Step Time =    1.000,"PART-1-1",           348,      -14.0489,       12.5200,            0.,NA,NA,"",   543.489E-03,  -539.582E-03,  -65.0560E-03,   18.4410E-06
C:/temp/dataset/6/29_16.odb,Step-1,Increment      1: Step Time =    1.000,"PART-1-1",           349,           -5.,       22.7083,            0.,NA,NA,"",   555.451E-03,  -552.887E-03,  -53.3064E-03,   230.319E-09
C:/temp/dataset/6/29_16.odb,Step-1,Increment      1: Step Time =    1.000,"PART-1-1",           350,      -5.96779,       23.6687,            0.,NA,NA,"",   556.818E-03,  -554.137E-03,  -54.5675E-03,   102.880E-09
C:/temp/dataset/6/29_16.odb,Step-1,Increment      1: Step Time =    1.000,"PART-1-1",           351,      -6.69567,       22.7251,            0.,NA,NA,"",   555.688E-03,  -552.908E-03,  -55.5147E-03,   40.2706E-09
C:/temp/dataset/6/29_16.odb,Step-1,Increment      1: Step Time =    1.000,"PART-1-1",           352,      -5.72788,       21.7648,            0.,NA,NA,"",   554.319E-03,  -551.658E-03,  -54.2537E-03,   141.500E-09
C:/temp/dataset/6/29_16.odb,Step-1,Increment      1: Step Time =    1.000,"PART-1-1",           353,      -9.95259,       28.8237,            0.,NA,NA,"",   564.024E-03,  -560.849E-03,  -59.7622E-03,   42.4991E-09
C:/temp/dataset/6/29_16.odb,Step-1,Increment      1: Step Time =    1.000,"PART-1-1",           354,      -8.67740,       27.7404,            0.,NA,NA,"",   562.448E-03,  -559.439E-03,  -58.1002E-03,   40.9990E-09
C:/temp/dataset/6/29_16.odb,Step-1,Increment      1: Step Time =    1.000,"PART-1-1",           355,      -7.47481,       28.9167,            0.,NA,NA,"",   563.814E-03,  -560.972E-03,  -56.5348E-03,   34.0500E-09
C:/temp/dataset/6/29_16.odb,Step-1,Increment      1: Step Time =    1.000,"PART-1-1",           356,         -8.75,           30.,            0.,NA,NA,"",   565.385E-03,  -562.382E-03,  -58.1967E-03,   38.7466E-09
C:/temp/dataset/6/29_16.odb,Step-1,Increment      1: Step Time =    1.000,"PART-1-1",           357,      -12.4360,       28.7156,            0.,NA,NA,"",   564.234E-03,  -560.706E-03,  -62.9970E-03,   36.2894E-09
C:/temp/dataset/6/29_16.odb,Step-1,Increment      1: Step Time =    1.000,"PART-1-1",           358,        -13.75,           30.,            0.,NA,NA,"",   566.089E-03,  -562.378E-03,  -64.7098E-03,   8.31743E-09
C:/temp/dataset/6/29_16.odb,Step-1,Increment      1: Step Time =    1.000,"PART-1-1",           359,          -15.,         28.75,            0.,NA,NA,"",   564.659E-03,  -560.749E-03,  -66.3370E-03,   11.0673E-09
C:/temp/dataset/6/29_16.odb,Step-1,Increment      1: Step Time =    1.000,"PART-1-1",           360,      -13.6860,       27.4656,            0.,NA,NA,"",   562.799E-03,  -559.077E-03,  -64.6243E-03,   37.7592E-09
C:/temp/dataset/6/29_16.odb,Step-1,Increment      1: Step Time =    1.000,"PART-1-1",           361,         -3.75,           -5.,            0.,NA,NA,"",   511.677E-03,  -510.020E-03,  -41.1500E-03,   4.49939E-03
C:/temp/dataset/6/29_16.odb,Step-1,Increment      1: Step Time =    1.000,"PART-1-1",           362,      -2.75606,      -4.06584,            0.,NA,NA,"",   506.808E-03,  -504.797E-03,  -45.1060E-03,   4.01058E-03
C:/temp/dataset/6/29_16.odb,Step-1,Increment      1: Step Time =    1.000,"PART-1-1",           363,      -4.26954,      -3.28646,            0.,NA,NA,"",   511.075E-03,  -509.344E-03,  -42.0307E-03,   4.79151E-03
C:/temp/dataset/6/29_16.odb,Step-1,Increment      1: Step Time =    1.000,"PART-1-1",           364,      -5.26349,      -4.22062,            0.,NA,NA,"",   514.538E-03,  -513.393E-03,  -34.3137E-03,   6.64699E-03
C:/temp/dataset/6/29_16.odb,Step-1,Increment      1: Step Time =    1.000,"PART-1-1",           365,   659.099E-03,      -2.85996,            0.,NA,NA,"",   495.957E-03,  -493.581E-03,  -48.4857E-03,   5.08960E-03
C:/temp/dataset/6/29_16.odb,Step-1,Increment      1: Step Time =    1.000,"PART-1-1",           366,  -266.865E-03,      -3.97148,            0.,NA,NA,"",   496.664E-03,  -494.478E-03,  -46.5414E-03,   5.25685E-03
C:/temp/dataset/6/29_16.odb,Step-1,Increment      1: Step Time =    1.000,"PART-1-1",           367,          1.25,           -5.,            0.,NA,NA,"",   486.644E-03,  -484.808E-03,  -42.2338E-03,   7.11759E-03
C:/temp/dataset/6/29_16.odb,Step-1,Increment      1: Step Time =    1.000,"PART-1-1",           368,       2.17596,      -3.88848,            0.,NA,NA,"",   483.309E-03,  -481.220E-03,  -44.8947E-03,   6.50946E-03
C:/temp/dataset/6/29_16.odb,Step-1,Increment      1: Step Time =    1.000,"PART-1-1",           369,   93.5104E-03,  -560.922E-03,            0.,NA,NA,"",   508.634E-03,  -506.015E-03,  -51.5410E-03,   3.51020E-03
C:/temp/dataset/6/29_16.odb,Step-1,Increment      1: Step Time =    1.000,"PART-1-1",           370,   627.873E-03,   544.404E-03,            0.,NA,NA,"",   513.942E-03,  -511.360E-03,  -51.4517E-03,   2.99964E-03
C:/temp/dataset/6/29_16.odb,Step-1,Increment      1: Step Time =    1.000,"PART-1-1",           371,  -981.002E-03,       1.17096,            0.,NA,NA,"",   518.380E-03,  -515.681E-03,  -52.8289E-03,   2.87760E-03
C:/temp/dataset/6/29_16.odb,Step-1,Increment      1: Step Time =    1.000,"PART-1-1",           372,      -1.51537,   65.6335E-03,            0.,NA,NA,"",   514.076E-03,  -511.418E-03,  -52.2059E-03,   3.30705E-03
C:/temp/dataset/6/29_16.odb,Step-1,Increment      1: Step Time =    1.000,"PART-1-1",           373,       4.11258,       2.54084,            0.,NA,NA,"",   527.833E-03,  -526.576E-03,  -36.4070E-03,   1.80485E-03
C:/temp/dataset/6/29_16.odb,Step-1,Increment      1: Step Time =    1.000,"PART-1-1",           374,       3.71515,       1.12833,            0.,NA,NA,"",   516.598E-03,  -515.013E-03,  -40.4327E-03,   1.65801E-03
C:/temp/dataset/6/29_16.odb,Step-1,Increment      1: Step Time =    1.000,"PART-1-1",           375,       5.46602,   397.127E-03,            0.,NA,NA,"",   510.498E-03,  -509.736E-03,  -27.8703E-03,   1.36161E-03
C:/temp/dataset/6/29_16.odb,Step-1,Increment      1: Step Time =    1.000,"PART-1-1",           376,       8.69518,  -378.803E-03,            0.,NA,NA,"",   502.531E-03,  -502.412E-03,   10.9294E-03,   2.29695E-03
C:/temp/dataset/6/29_16.odb,Step-1,Increment      1: Step Time =    1.000,"PART-1-1",           377,       8.82700,   889.396E-03,            0.,NA,NA,"",   516.510E-03,  -516.341E-03,   13.2034E-03,   2.27245E-03
C:/temp/dataset/6/29_16.odb,Step-1,Increment      1: Step Time =    1.000,"PART-1-1",           378,       6.97530,  -164.986E-03,            0.,NA,NA,"",   504.915E-03,  -504.768E-03,  -12.1882E-03,   1.80235E-03
C:/temp/dataset/6/29_16.odb,Step-1,Increment      1: Step Time =    1.000,"PART-1-1",           379,      -3.65351,      -22.6081,            0.,NA,NA,"",   87.7067E-03,  -83.9828E-03,   25.2852E-03,   11.3708E-03
C:/temp/dataset/6/29_16.odb,Step-1,Increment      1: Step Time =    1.000,"PART-1-1",           380,      -2.48671,      -21.3009,            0.,NA,NA,"",   92.8257E-03,  -91.0576E-03,   18.0311E-03,   9.63912E-03
C:/temp/dataset/6/29_16.odb,Step-1,Increment      1: Step Time =    1.000,"PART-1-1",           381,         -3.75,          -20.,            0.,NA,NA,"",   109.963E-03,  -107.716E-03,   22.1138E-03,   21.5344E-03
C:/temp/dataset/6/29_16.odb,Step-1,Increment      1: Step Time =    1.000,"PART-1-1",           382,      -4.91680,      -21.3072,            0.,NA,NA,"",   111.555E-03,  -105.806E-03,   35.3504E-03,   17.0736E-03
C:/temp/dataset/6/29_16.odb,Step-1,Increment      1: Step Time =    1.000,"PART-1-1",           383,       12.8399,      -22.4784,            0.,NA,NA,"",   79.9990E-03,  -65.9531E-03,   45.2773E-03,   6.36533E-03
C:/temp/dataset/6/29_16.odb,Step-1,Increment      1: Step Time =    1.000,"PART-1-1",           384,       11.7398,      -21.2760,            0.,NA,NA,"",   87.3447E-03,  -78.3579E-03,   38.5893E-03,   5.05070E-03
C:/temp/dataset/6/29_16.odb,Step-1,Increment      1: Step Time =    1.000,"PART-1-1",           385,       10.5591,      -22.4389,            0.,NA,NA,"",   64.7244E-03,  -61.0390E-03,   21.5290E-03,   3.64099E-03
C:/temp/dataset/6/29_16.odb,Step-1,Increment      1: Step Time =    1.000,"PART-1-1",           386,       11.6593,      -23.6412,            0.,NA,NA,"",   56.9210E-03,  -49.8260E-03,   27.5203E-03,   4.90562E-03
C:/temp/dataset/6/29_16.odb,Step-1,Increment      1: Step Time =    1.000,"PART-1-1",           387,          8.75,            5.,            0.,NA,NA,"",   563.294E-03,  -563.085E-03,   15.3390E-03,   3.08613E-03
C:/temp/dataset/6/29_16.odb,Step-1,Increment      1: Step Time =    1.000,"PART-1-1",           388,       7.62461,       4.03982,            0.,NA,NA,"",   548.348E-03,  -548.348E-03,  -250.499E-06,   3.03528E-03
C:/temp/dataset/6/29_16.odb,Step-1,Increment      1: Step Time =    1.000,"PART-1-1",           389,       8.90047,       2.96899,            0.,NA,NA,"",   539.237E-03,  -539.017E-03,   15.3792E-03,   2.32563E-03
C:/temp/dataset/6/29_16.odb,Step-1,Increment      1: Step Time =    1.000,"PART-1-1",           390,       10.0259,       3.92917,            0.,NA,NA,"",   553.023E-03,  -552.105E-03,   31.8557E-03,   1.98439E-03
C:/temp/dataset/6/29_16.odb,Step-1,Increment      1: Step Time =    1.000,"PART-1-1",           391,      -6.96921,       21.1213,            0.,NA,NA,"",   553.645E-03,  -550.819E-03,  -55.8696E-03,   289.682E-09
C:/temp/dataset/6/29_16.odb,Step-1,Increment      1: Step Time =    1.000,"PART-1-1",           392,      -6.24133,       19.9816,            0.,NA,NA,"",   552.075E-03,  -549.336E-03,  -54.9208E-03,   317.924E-09
C:/temp/dataset/6/29_16.odb,Step-1,Increment      1: Step Time =    1.000,"PART-1-1",           393,           -5.,        20.625,            0.,NA,NA,"",   552.751E-03,  -550.175E-03,  -53.3052E-03,   173.523E-09
C:/temp/dataset/6/29_16.odb,Step-1,Increment      1: Step Time =    1.000,"PART-1-1",           394,      -12.9370,       8.81410,            0.,NA,NA,"",   538.616E-03,  -534.845E-03,  -63.6231E-03,   14.9002E-06
C:/temp/dataset/6/29_16.odb,Step-1,Increment      1: Step Time =    1.000,"PART-1-1",           395,          -15.,          8.75,            0.,NA,NA,"",   538.877E-03,  -534.806E-03,  -66.1087E-03,   69.7449E-06
C:/temp/dataset/6/29_16.odb,Step-1,Increment      1: Step Time =    1.000,"PART-1-1",           396,      -13.9287,       7.51992,            0.,NA,NA,"",   537.252E-03,  -533.331E-03,  -64.7863E-03,   40.6229E-06
C:/temp/dataset/6/29_16.odb,Step-1,Increment      1: Step Time =    1.000,"PART-1-1",           397,          -15.,          1.25,            0.,NA,NA,"",   532.678E-03,  -528.469E-03,  -66.8316E-03,   929.341E-06
C:/temp/dataset/6/29_16.odb,Step-1,Increment      1: Step Time =    1.000,"PART-1-1",           398,      -13.9023,  -59.1614E-03,            0.,NA,NA,"",   532.915E-03,  -528.680E-03,  -67.0459E-03,   1.46157E-03
C:/temp/dataset/6/29_16.odb,Step-1,Increment      1: Step Time =    1.000,"PART-1-1",           399,      -12.7542,       1.08470,            0.,NA,NA,"",   532.877E-03,  -529.011E-03,  -64.0718E-03,   1.46218E-03
C:/temp/dataset/6/29_16.odb,Step-1,Increment      1: Step Time =    1.000,"PART-1-1",           400,          -15.,         -1.25,            0.,NA,NA,"",   532.264E-03,  -527.629E-03,  -70.0880E-03,   2.41587E-03
C:/temp/dataset/6/29_16.odb,Step-1,Increment      1: Step Time =    1.000,"PART-1-1",           401,      -13.9820,      -2.43756,            0.,NA,NA,"",   533.077E-03,  -528.296E-03,  -71.2332E-03,   2.94574E-03
C:/temp/dataset/6/29_16.odb,Step-1,Increment      1: Step Time =    1.000,"PART-1-1",           402,      -12.8843,      -1.24672,            0.,NA,NA,"",   533.274E-03,  -529.180E-03,  -65.9512E-03,   2.55654E-03
C:/temp/dataset/6/29_16.odb,Step-1,Increment      1: Step Time =    1.000,"PART-1-1",           403,      -12.3802,      -13.7897,            0.,NA,NA,"",   415.999E-03,  -403.677E-03,  -100.498E-03,   8.22868E-03
C:/temp/dataset/6/29_16.odb,Step-1,Increment      1: Step Time =    1.000,"PART-1-1",           404,      -13.6672,      -12.5056,            0.,NA,NA,"",   453.114E-03,  -436.407E-03,  -121.908E-03,   7.73031E-03
C:/temp/dataset/6/29_16.odb,Step-1,Increment      1: Step Time =    1.000,"PART-1-1",           405,          -15.,        -13.75,            0.,NA,NA,"",   428.969E-03,  -397.003E-03,  -162.488E-03,   7.53322E-03
C:/temp/dataset/6/29_16.odb,Step-1,Increment      1: Step Time =    1.000,"PART-1-1",           406,      -13.7130,      -15.0341,            0.,NA,NA,"",   383.681E-03,  -359.957E-03,  -132.823E-03,   6.21560E-03
C:/temp/dataset/6/29_16.odb,Step-1,Increment      1: Step Time =    1.000,"PART-1-1",           407,       9.21271,      -3.58583,            0.,NA,NA,"",   459.485E-03,  -459.047E-03,   20.0745E-03,   2.28275E-03
C:/temp/dataset/6/29_16.odb,Step-1,Increment      1: Step Time =    1.000,"PART-1-1",           408,       7.90749,      -3.82305,            0.,NA,NA,"",   457.954E-03,  -457.954E-03,  -301.969E-06,   3.45662E-03
C:/temp/dataset/6/29_16.odb,Step-1,Increment      1: Step Time =    1.000,"PART-1-1",           409,       8.15132,      -5.16923,            0.,NA,NA,"",   432.676E-03,  -432.656E-03,   4.13869E-03,   4.27824E-03
C:/temp/dataset/6/29_16.odb,Step-1,Increment      1: Step Time =    1.000,"PART-1-1",           410,       9.45655,      -4.93201,            0.,NA,NA,"",   435.426E-03,  -434.692E-03,   25.2698E-03,   2.74135E-03
C:/temp/dataset/6/29_16.odb,Step-1,Increment      1: Step Time =    1.000,"PART-1-1",           411,       6.91243,      -16.0318,            0.,NA,NA,"",   170.679E-03,  -169.342E-03,  -21.3167E-03,   4.14394E-03
C:/temp/dataset/6/29_16.odb,Step-1,Increment      1: Step Time =    1.000,"PART-1-1",           412,       5.96229,      -14.9858,            0.,NA,NA,"",   198.862E-03,  -194.340E-03,  -42.1700E-03,   2.64342E-03
C:/temp/dataset/6/29_16.odb,Step-1,Increment      1: Step Time =    1.000,"PART-1-1",           413,            5.,      -16.2875,            0.,NA,NA,"",   176.272E-03,  -166.135E-03,  -58.9156E-03,   4.50154E-03
C:/temp/dataset/6/29_16.odb,Step-1,Increment      1: Step Time =    1.000,"PART-1-1",           414,       6.93910,      -13.7291,            0.,NA,NA,"",   224.942E-03,  -223.646E-03,  -24.1175E-03,   2.89768E-03
C:/temp/dataset/6/29_16.odb,Step-1,Increment      1: Step Time =    1.000,"PART-1-1",           415,       5.97681,      -12.5371,            0.,NA,NA,"",   256.452E-03,  -252.466E-03,  -45.0438E-03,   1.43480E-03
C:/temp/dataset/6/29_16.odb,Step-1,Increment      1: Step Time =    1.000,"PART-1-1",           416,            5.,      -13.7937,            0.,NA,NA,"",   232.141E-03,  -222.630E-03,  -65.7675E-03,   1.73603E-03
C:/temp/dataset/6/29_16.odb,Step-1,Increment      1: Step Time =    1.000,"PART-1-1",           417,         -1.25,          -20.,            0.,NA,NA,"",   79.4494E-03,  -79.3091E-03,   4.71881E-03,   7.25859E-03
C:/temp/dataset/6/29_16.odb,Step-1,Increment      1: Step Time =    1.000,"PART-1-1",           418,      -1.09514,      -22.7401,            0.,NA,NA,"",   74.7171E-03,  -74.0055E-03,   10.2871E-03,   9.81562E-03
C:/temp/dataset/6/29_16.odb,Step-1,Increment      1: Step Time =    1.000,"PART-1-1",           419,   141.566E-03,      -21.4393,            0.,NA,NA,"",   75.4616E-03,  -75.4360E-03,   1.96581E-03,   4.95916E-03
C:/temp/dataset/6/29_16.odb,Step-1,Increment      1: Step Time =    1.000,"PART-1-1",           420,      -7.69236,      -25.1479,            0.,NA,NA,"",   46.2093E-03,  -46.1156E-03,   2.94011E-03,   4.69904E-03
C:/temp/dataset/6/29_16.odb,Step-1,Increment      1: Step Time =    1.000,"PART-1-1",           421,      -9.18951,      -25.9970,            0.,NA,NA,"",   35.2826E-03,  -34.5210E-03,  -7.29151E-03,   4.67150E-03
C:/temp/dataset/6/29_16.odb,Step-1,Increment      1: Step Time =    1.000,"PART-1-1",           422,      -8.56598,      -27.1897,            0.,NA,NA,"",   20.0932E-03,  -19.9770E-03,  -2.15757E-03,   4.57855E-03
C:/temp/dataset/6/29_16.odb,Step-1,Increment      1: Step Time =    1.000,"PART-1-1",           423,      -7.06883,      -26.3407,            0.,NA,NA,"",   31.4131E-03,  -31.0388E-03,   4.83438E-03,   5.46897E-03
C:/temp/dataset/6/29_16.odb,Step-1,Increment      1: Step Time =    1.000,"PART-1-1",           424,      -9.82073,      -13.8964,            0.,NA,NA,"",   413.194E-03,  -409.605E-03,  -54.3423E-03,   12.1013E-03
C:/temp/dataset/6/29_16.odb,Step-1,Increment      1: Step Time =    1.000,"PART-1-1",           425,      -8.65586,      -15.1239,            0.,NA,NA,"",   369.381E-03,  -367.757E-03,  -34.5969E-03,   15.7273E-03
C:/temp/dataset/6/29_16.odb,Step-1,Increment      1: Step Time =    1.000,"PART-1-1",           426,      -8.53523,      -12.6467,            0.,NA,NA,"",   458.654E-03,  -457.743E-03,  -28.8968E-03,   11.2391E-03
C:/temp/dataset/6/29_16.odb,Step-1,Increment      1: Step Time =    1.000,"PART-1-1",           427,      -6.09243,      -10.1071,            0.,NA,NA,"",   514.743E-03,  -514.639E-03,   10.3328E-03,   12.5260E-03
C:/temp/dataset/6/29_16.odb,Step-1,Increment      1: Step Time =    1.000,"PART-1-1",           428,           -5.,      -8.71250,            0.,NA,NA,"",   508.178E-03,  -508.177E-03,   1.07814E-03,   10.7593E-03
C:/temp/dataset/6/29_16.odb,Step-1,Increment      1: Step Time =    1.000,"PART-1-1",           429,      -6.07322,      -7.75598,            0.,NA,NA,"",   515.346E-03,  -515.233E-03,  -10.7728E-03,   9.07915E-03
C:/temp/dataset/6/29_16.odb,Step-1,Increment      1: Step Time =    1.000,"PART-1-1",           430,      -12.7270,      -6.06323,            0.,NA,NA,"",   529.869E-03,  -524.587E-03,  -74.6275E-03,   5.04951E-03
C:/temp/dataset/6/29_16.odb,Step-1,Increment      1: Step Time =    1.000,"PART-1-1",           431,      -13.8025,      -4.90646,            0.,NA,NA,"",   531.648E-03,  -525.844E-03,  -78.3408E-03,   4.92617E-03
C:/temp/dataset/6/29_16.odb,Step-1,Increment      1: Step Time =    1.000,"PART-1-1",           432,          -15.,         -6.25,            0.,NA,NA,"",   525.991E-03,  -517.864E-03,  -92.1059E-03,   7.99819E-03
C:/temp/dataset/6/29_16.odb,Step-1,Increment      1: Step Time =    1.000,"PART-1-1",           433,      -13.9244,      -7.40677,            0.,NA,NA,"",   523.046E-03,  -514.878E-03,  -92.0737E-03,   7.28783E-03
C:/temp/dataset/6/29_16.odb,Step-1,Increment      1: Step Time =    1.000,"PART-1-1",           434,       1.60591,      -1.50045,            0.,NA,NA,"",   499.961E-03,  -497.548E-03,  -49.0655E-03,   4.46151E-03
C:/temp/dataset/6/29_16.odb,Step-1,Increment      1: Step Time =    1.000,"PART-1-1",           435,  -853.298E-03,      -1.92043,            0.,NA,NA,"",   504.753E-03,  -502.226E-03,  -50.4482E-03,   3.95816E-03
C:/temp/dataset/6/29_16.odb,Step-1,Increment      1: Step Time =    1.000,"PART-1-1",           436,         13.75,          -30.,            0.,NA,NA,"",            0.,  -1.10870E-39,   15.3203E-39,   10.7729E-03
C:/temp/dataset/6/29_16.odb,Step-1,Increment      1: Step Time =    1.000,"PART-1-1",           437,           15.,      -28.9063,            0.,NA,NA,"",   18.6313E-03,  -13.3011E-03,   13.0464E-03,   12.9366E-03
C:/temp/dataset/6/29_16.odb,Step-1,Increment      1: Step Time =    1.000,"PART-1-1",           438,       13.8103,      -27.8746,            0.,NA,NA,"",   23.5541E-03,  -16.8518E-03,   16.4564E-03,   9.24183E-03
C:/temp/dataset/6/29_16.odb,Step-1,Increment      1: Step Time =    1.000,"PART-1-1",           439,       12.5603,      -28.9683,            0.,NA,NA,"",   7.41647E-03,  -5.23771E-03,   5.25075E-03,   6.77875E-03
C:/temp/dataset/6/29_16.odb,Step-1,Increment      1: Step Time =    1.000,"PART-1-1",           440,       12.6598,      -26.8678,            0.,NA,NA,"",   28.4904E-03,  -22.0355E-03,   18.0594E-03,   7.19783E-03
C:/temp/dataset/6/29_16.odb,Step-1,Increment      1: Step Time =    1.000,"PART-1-1",           441,       11.5501,      -25.8632,            0.,NA,NA,"",   33.1094E-03,  -28.3279E-03,   17.1396E-03,   5.28214E-03
C:/temp/dataset/6/29_16.odb,Step-1,Increment      1: Step Time =    1.000,"PART-1-1",           442,       10.3093,      -26.9762,            0.,NA,NA,"",   19.4513E-03,  -17.9256E-03,   7.55139E-03,   4.16254E-03
C:/temp/dataset/6/29_16.odb,Step-1,Increment      1: Step Time =    1.000,"PART-1-1",           443,       11.4189,      -27.9808,            0.,NA,NA,"",   13.5008E-03,  -11.2168E-03,   7.51364E-03,   5.79774E-03
C:/temp/dataset/6/29_16.odb,Step-1,Increment      1: Step Time =    1.000,"PART-1-1",           444,       10.1086,      -29.0125,            0.,NA,NA,"",   4.90299E-03,  -4.30830E-03,   2.34048E-03,   3.94284E-03
C:/temp/dataset/6/29_16.odb,Step-1,Increment      1: Step Time =    1.000,"PART-1-1",           445,       9.01957,      -28.0513,            0.,NA,NA,"",   10.7592E-03,  -10.4664E-03,   2.49306E-03,   3.92399E-03
C:/temp/dataset/6/29_16.odb,Step-1,Increment      1: Step Time =    1.000,"PART-1-1",           446,          8.75,          -30.,            0.,NA,NA,"",            0.,  -2.48260E-39,   3.67448E-39,   3.36734E-03
C:/temp/dataset/6/29_16.odb,Step-1,Increment      1: Step Time =    1.000,"PART-1-1",           447,       4.20973,      -27.9354,            0.,NA,NA,"",   18.2629E-03,  -18.2296E-03,  -1.10201E-03,   6.14582E-03
C:/temp/dataset/6/29_16.odb,Step-1,Increment      1: Step Time =    1.000,"PART-1-1",           448,       2.74203,      -28.9082,            0.,NA,NA,"",   11.0310E-03,  -11.0299E-03,   154.847E-06,   6.71972E-03
C:/temp/dataset/6/29_16.odb,Step-1,Increment      1: Step Time =    1.000,"PART-1-1",           449,          3.75,          -30.,            0.,NA,NA,"",            0.,  -5.85587E-39,   725.479E-42,   5.97441E-03
C:/temp/dataset/6/29_16.odb,Step-1,Increment      1: Step Time =    1.000,"PART-1-1",           450,       1.16266,      -25.9573,            0.,NA,NA,"",   41.9779E-03,  -41.9605E-03,   1.20668E-03,   8.12479E-03
C:/temp/dataset/6/29_16.odb,Step-1,Increment      1: Step Time =    1.000,"PART-1-1",           451,       1.65415,      -27.4536,            0.,NA,NA,"",   26.5870E-03,  -26.5803E-03,   598.849E-06,   7.34453E-03
C:/temp/dataset/6/29_16.odb,Step-1,Increment      1: Step Time =    1.000,"PART-1-1",           452,       3.39879,      -26.8461,            0.,NA,NA,"",   29.6638E-03,  -29.5909E-03,  -2.07906E-03,   7.01076E-03
C:/temp/dataset/6/29_16.odb,Step-1,Increment      1: Step Time =    1.000,"PART-1-1",           453,       2.90730,      -25.3498,            0.,NA,NA,"",   44.4768E-03,  -44.3185E-03,  -3.74892E-03,   7.66532E-03
C:/temp/dataset/6/29_16.odb,Step-1,Increment      1: Step Time =    1.000,"PART-1-1",           454,      -3.67645,      -27.5530,            0.,NA,NA,"",   24.8930E-03,  -23.9498E-03,   6.78709E-03,   7.78046E-03
C:/temp/dataset/6/29_16.odb,Step-1,Increment      1: Step Time =    1.000,"PART-1-1",           455,      -2.54816,      -26.3074,            0.,NA,NA,"",   40.4074E-03,  -39.1592E-03,   9.96598E-03,   9.07846E-03
C:/temp/dataset/6/29_16.odb,Step-1,Increment      1: Step Time =    1.000,"PART-1-1",           456,      -3.72120,      -25.1278,            0.,NA,NA,"",   53.4315E-03,  -51.1500E-03,   15.4470E-03,   9.50927E-03
C:/temp/dataset/6/29_16.odb,Step-1,Increment      1: Step Time =    1.000,"PART-1-1",           457,      -4.84948,      -26.3734,            0.,NA,NA,"",   36.2617E-03,  -34.6371E-03,   10.7322E-03,   8.04114E-03
C:/temp/dataset/6/29_16.odb,Step-1,Increment      1: Step Time =    1.000,"PART-1-1",           458,      -4.94498,      -28.7931,            0.,NA,NA,"",   10.1195E-03,  -9.77882E-03,   2.60365E-03,   6.21804E-03
C:/temp/dataset/6/29_16.odb,Step-1,Increment      1: Step Time =    1.000,"PART-1-1",           459,         -3.75,          -30.,            0.,NA,NA,"",            0.,  -5.53637E-39,   4.57265E-39,   6.19641E-03
C:/temp/dataset/6/29_16.odb,Step-1,Increment      1: Step Time =    1.000,"PART-1-1",           460,      -6.07748,      -27.5364,            0.,NA,NA,"",   20.1851E-03,  -19.5713E-03,   4.94007E-03,   6.15010E-03
C:/temp/dataset/6/29_16.odb,Step-1,Increment      1: Step Time =    1.000,"PART-1-1",           461,      -7.38250,      -28.7433,            0.,NA,NA,"",   7.21261E-03,  -7.19088E-03,   559.471E-06,   3.86266E-03
C:/temp/dataset/6/29_16.odb,Step-1,Increment      1: Step Time =    1.000,"PART-1-1",           462,         -6.25,          -30.,            0.,NA,NA,"",            0.,  -3.45500E-39,   2.18558E-39,   3.86375E-03
C:/temp/dataset/6/29_16.odb,Step-1,Increment      1: Step Time =    1.000,"PART-1-1",           463,      -8.77755,      -24.1806,            0.,NA,NA,"",   62.5163E-03,  -62.1062E-03,  -7.14834E-03,   4.93607E-03
C:/temp/dataset/6/29_16.odb,Step-1,Increment      1: Step Time =    1.000,"PART-1-1",           464,      -9.92276,      -23.8066,            0.,NA,NA,"",   74.9155E-03,  -71.7273E-03,  -21.6225E-03,   6.65219E-03
C:/temp/dataset/6/29_16.odb,Step-1,Increment      1: Step Time =    1.000,"PART-1-1",           465,      -10.3347,      -25.6230,            0.,NA,NA,"",   45.2694E-03,  -41.5470E-03,  -17.9768E-03,   6.45575E-03
C:/temp/dataset/6/29_16.odb,Step-1,Increment      1: Step Time =    1.000,"PART-1-1",           466,       13.9544,      -21.3085,            0.,NA,NA,"",   107.238E-03,  -84.5620E-03,   65.9482E-03,   7.67218E-03
C:/temp/dataset/6/29_16.odb,Step-1,Increment      1: Step Time =    1.000,"PART-1-1",           467,       13.8855,      -23.5136,            0.,NA,NA,"",   76.2018E-03,  -57.5455E-03,   49.9523E-03,   7.85696E-03
C:/temp/dataset/6/29_16.odb,Step-1,Increment      1: Step Time =    1.000,"PART-1-1",           468,           15.,      -22.3438,            0.,NA,NA,"",   103.703E-03,  -75.2745E-03,   71.3308E-03,   9.20159E-03
C:/temp/dataset/6/29_16.odb,Step-1,Increment      1: Step Time =    1.000,"PART-1-1",           469,       12.7349,      -24.6944,            0.,NA,NA,"",   52.3507E-03,  -41.8174E-03,   31.4945E-03,   6.69424E-03
C:/temp/dataset/6/29_16.odb,Step-1,Increment      1: Step Time =    1.000,"PART-1-1",           470,       13.8494,      -25.7120,            0.,NA,NA,"",   49.5274E-03,  -36.0731E-03,   33.9365E-03,   8.19863E-03
C:/temp/dataset/6/29_16.odb,Step-1,Increment      1: Step Time =    1.000,"PART-1-1",           471,           15.,      -24.5313,            0.,NA,NA,"",   74.0454E-03,  -51.4331E-03,   53.2668E-03,   9.29086E-03
C:/temp/dataset/6/29_16.odb,Step-1,Increment      1: Step Time =    1.000,"PART-1-1",           472,         11.25,          -30.,            0.,NA,NA,"",            0.,  -2.05217E-39,   8.52744E-39,   4.77794E-03
C:/temp/dataset/6/29_16.odb,Step-1,Increment      1: Step Time =    1.000,"PART-1-1",           473,       13.9950,      -12.5232,            0.,NA,NA,"",   280.424E-03,  -258.586E-03,   108.493E-03,   2.89487E-03
C:/temp/dataset/6/29_16.odb,Step-1,Increment      1: Step Time =    1.000,"PART-1-1",           474,       12.9942,      -13.6844,            0.,NA,NA,"",   244.953E-03,  -229.438E-03,   85.7904E-03,   4.08879E-03
C:/temp/dataset/6/29_16.odb,Step-1,Increment      1: Step Time =    1.000,"PART-1-1",           475,           15.,      -13.5938,            0.,NA,NA,"",   267.637E-03,  -235.031E-03,   128.022E-03,   3.85440E-03
C:/temp/dataset/6/29_16.odb,Step-1,Increment      1: Step Time =    1.000,"PART-1-1",           476,       9.85236,      -17.2546,            0.,NA,NA,"",   146.001E-03,  -143.724E-03,   25.6826E-03,   4.57073E-03
C:/temp/dataset/6/29_16.odb,Step-1,Increment      1: Step Time =    1.000,"PART-1-1",           477,       8.68427,      -17.7513,            0.,NA,NA,"",   131.960E-03,  -131.695E-03,   8.36760E-03,   4.61320E-03
C:/temp/dataset/6/29_16.odb,Step-1,Increment      1: Step Time =    1.000,"PART-1-1",           478,       8.96140,      -18.9835,            0.,NA,NA,"",   108.750E-03,  -108.166E-03,   11.2590E-03,   4.24470E-03
C:/temp/dataset/6/29_16.odb,Step-1,Increment      1: Step Time =    1.000,"PART-1-1",           479,       10.1295,      -18.4868,            0.,NA,NA,"",   122.660E-03,  -119.575E-03,   27.3368E-03,   4.38821E-03
C:/temp/dataset/6/29_16.odb,Step-1,Increment      1: Step Time =    1.000,"PART-1-1",           480,       11.2436,      -18.3856,            0.,NA,NA,"",   131.148E-03,  -123.892E-03,   43.0171E-03,   4.76200E-03
C:/temp/dataset/6/29_16.odb,Step-1,Increment      1: Step Time =    1.000,"PART-1-1",           481,       12.3956,      -19.2305,            0.,NA,NA,"",   124.968E-03,  -111.615E-03,   56.2049E-03,   5.51215E-03
C:/temp/dataset/6/29_16.odb,Step-1,Increment      1: Step Time =    1.000,"PART-1-1",           482,       13.1120,      -18.1414,            0.,NA,NA,"",   151.420E-03,  -133.167E-03,   72.0738E-03,   5.73818E-03
C:/temp/dataset/6/29_16.odb,Step-1,Increment      1: Step Time =    1.000,"PART-1-1",           483,       11.9600,      -17.2965,            0.,NA,NA,"",   157.648E-03,  -146.875E-03,   57.2744E-03,   4.94792E-03
C:/temp/dataset/6/29_16.odb,Step-1,Increment      1: Step Time =    1.000,"PART-1-1",           484,       14.0024,      -3.77677,            0.,NA,NA,"",   460.724E-03,  -449.649E-03,   100.412E-03,   2.87566E-03
C:/temp/dataset/6/29_16.odb,Step-1,Increment      1: Step Time =    1.000,"PART-1-1",           485,       13.0359,      -4.87313,            0.,NA,NA,"",   439.673E-03,  -431.178E-03,   86.0088E-03,   1.89914E-03
C:/temp/dataset/6/29_16.odb,Step-1,Increment      1: Step Time =    1.000,"PART-1-1",           486,       14.0335,      -5.94012,            0.,NA,NA,"",   423.192E-03,  -409.594E-03,   106.412E-03,   2.57752E-03
C:/temp/dataset/6/29_16.odb,Step-1,Increment      1: Step Time =    1.000,"PART-1-1",           487,           15.,      -4.84375,            0.,NA,NA,"",   446.272E-03,  -429.454E-03,   121.359E-03,   3.65903E-03
C:/temp/dataset/6/29_16.odb,Step-1,Increment      1: Step Time =    1.000,"PART-1-1",           488,       13.0510,      -7.01836,            0.,NA,NA,"",   398.033E-03,  -387.785E-03,   89.7381E-03,   2.21985E-03
C:/temp/dataset/6/29_16.odb,Step-1,Increment      1: Step Time =    1.000,"PART-1-1",           489,       14.0175,      -8.10950,            0.,NA,NA,"",   379.501E-03,  -363.187E-03,   110.073E-03,   1.77305E-03
C:/temp/dataset/6/29_16.odb,Step-1,Increment      1: Step Time =    1.000,"PART-1-1",           490,           15.,      -7.03125,            0.,NA,NA,"",   406.950E-03,  -386.126E-03,   128.509E-03,   2.65225E-03
C:/temp/dataset/6/29_16.odb,Step-1,Increment      1: Step Time =    1.000,"PART-1-1",           491,         13.75,            5.,            0.,NA,NA,"",   576.091E-03,  -569.723E-03,   85.4156E-03,   177.605E-06
C:/temp/dataset/6/29_16.odb,Step-1,Increment      1: Step Time =    1.000,"PART-1-1",           492,       12.4982,       3.90020,            0.,NA,NA,"",   558.470E-03,  -554.345E-03,   67.7537E-03,   926.606E-06
C:/temp/dataset/6/29_16.odb,Step-1,Increment      1: Step Time =    1.000,"PART-1-1",           493,       13.7482,       2.80645,            0.,NA,NA,"",   547.316E-03,  -540.550E-03,   85.7919E-03,   884.046E-06
C:/temp/dataset/6/29_16.odb,Step-1,Increment      1: Step Time =    1.000,"PART-1-1",           494,           15.,       3.90625,            0.,NA,NA,"",   564.437E-03,  -555.039E-03,   102.571E-03,   155.607E-06
C:/temp/dataset/6/29_16.odb,Step-1,Increment      1: Step Time =    1.000,"PART-1-1",           495,         11.25,            5.,            0.,NA,NA,"",   570.456E-03,  -568.258E-03,   50.0375E-03,   1.35229E-03
C:/temp/dataset/6/29_16.odb,Step-1,Increment      1: Step Time =    1.000,"PART-1-1",           496,       11.2740,       2.82937,            0.,NA,NA,"",   542.263E-03,  -539.985E-03,   49.6528E-03,   1.94664E-03
C:/temp/dataset/6/29_16.odb,Step-1,Increment      1: Step Time =    1.000,"PART-1-1",           497,       11.1422,   446.578E-03,            0.,NA,NA,"",   513.845E-03,  -511.597E-03,   48.0132E-03,   2.33666E-03
C:/temp/dataset/6/29_16.odb,Step-1,Increment      1: Step Time =    1.000,"PART-1-1",           498,       10.2035,  -836.101E-03,            0.,NA,NA,"",   497.450E-03,  -496.289E-03,   33.9599E-03,   2.17213E-03
C:/temp/dataset/6/29_16.odb,Step-1,Increment      1: Step Time =    1.000,"PART-1-1",           499,       11.7017,      -1.82731,            0.,NA,NA,"",   485.638E-03,  -482.072E-03,   58.7480E-03,   1.99790E-03
C:/temp/dataset/6/29_16.odb,Step-1,Increment      1: Step Time =    1.000,"PART-1-1",           500,       12.5035,       1.67834,            0.,NA,NA,"",   530.854E-03,  -526.450E-03,   68.2408E-03,   1.90173E-03
C:/temp/dataset/6/29_16.odb,Step-1,Increment      1: Step Time =    1.000,"PART-1-1",           501,       9.91277,       1.59761,            0.,NA,NA,"",   525.519E-03,  -524.707E-03,   29.2141E-03,   2.34261E-03
C:/temp/dataset/6/29_16.odb,Step-1,Increment      1: Step Time =    1.000,"PART-1-1",           502,       5.19643,       3.92738,            0.,NA,NA,"",   540.936E-03,  -540.305E-03,  -26.1165E-03,   3.40636E-03
C:/temp/dataset/6/29_16.odb,Step-1,Increment      1: Step Time =    1.000,"PART-1-1",           503,          3.75,            5.,            0.,NA,NA,"",   544.509E-03,  -543.369E-03,  -35.2172E-03,   4.46776E-03
C:/temp/dataset/6/29_16.odb,Step-1,Increment      1: Step Time =    1.000,"PART-1-1",           504,       2.66615,       3.61346,            0.,NA,NA,"",   533.040E-03,  -531.258E-03,  -43.5492E-03,   2.77349E-03
C:/temp/dataset/6/29_16.odb,Step-1,Increment      1: Step Time =    1.000,"PART-1-1",           505,      -1.00804,       2.95894,            0.,NA,NA,"",   525.803E-03,  -523.139E-03,  -52.8639E-03,   2.12669E-03
C:/temp/dataset/6/29_16.odb,Step-1,Increment      1: Step Time =    1.000,"PART-1-1",           506,   87.8012E-03,       3.95476,            0.,NA,NA,"",   530.253E-03,  -527.777E-03,  -51.1814E-03,   2.12011E-03
C:/temp/dataset/6/29_16.odb,Step-1,Increment      1: Step Time =    1.000,"PART-1-1",           507,         -1.25,            5.,            0.,NA,NA,"",   530.479E-03,  -527.920E-03,  -52.0422E-03,   1.71636E-03
C:/temp/dataset/6/29_16.odb,Step-1,Increment      1: Step Time =    1.000,"PART-1-1",           508,      -2.34584,       4.00418,            0.,NA,NA,"",   528.182E-03,  -525.516E-03,  -53.0063E-03,   1.17363E-03
C:/temp/dataset/6/29_16.odb,Step-1,Increment      1: Step Time =    1.000,"PART-1-1",           509,      -3.27281,       2.96378,            0.,NA,NA,"",   525.747E-03,  -523.076E-03,  -52.9317E-03,   1.82740E-03
C:/temp/dataset/6/29_16.odb,Step-1,Increment      1: Step Time =    1.000,"PART-1-1",           510,         -3.75,            5.,            0.,NA,NA,"",   529.097E-03,  -526.428E-03,  -53.0787E-03,   442.764E-06
C:/temp/dataset/6/29_16.odb,Step-1,Increment      1: Step Time =    1.000,"PART-1-1",           511,      -4.67697,       3.95960,            0.,NA,NA,"",   528.246E-03,  -525.590E-03,  -52.9099E-03,   1.14909E-03
C:/temp/dataset/6/29_16.odb,Step-1,Increment      1: Step Time =    1.000,"PART-1-1",           512,      -7.93004,       8.58536,            0.,NA,NA,"",   537.461E-03,  -534.411E-03,  -57.1799E-03,   39.1094E-06
C:/temp/dataset/6/29_16.odb,Step-1,Increment      1: Step Time =    1.000,"PART-1-1",           513,      -8.65034,       7.25415,            0.,NA,NA,"",   535.781E-03,  -532.620E-03,  -58.1071E-03,   200.101E-06
C:/temp/dataset/6/29_16.odb,Step-1,Increment      1: Step Time =    1.000,"PART-1-1",           514,      -7.51010,       6.50150,            0.,NA,NA,"",   534.298E-03,  -531.301E-03,  -56.5107E-03,   278.552E-06
C:/temp/dataset/6/29_16.odb,Step-1,Increment      1: Step Time =    1.000,"PART-1-1",           515,      -6.78981,       7.83270,            0.,NA,NA,"",   536.162E-03,  -533.272E-03,  -55.5932E-03,   100.228E-06
C:/temp/dataset/6/29_16.odb,Step-1,Increment      1: Step Time =    1.000,"PART-1-1",           516,      -7.08495,       12.0475,            0.,NA,NA,"",   541.932E-03,  -539.029E-03,  -56.0143E-03,   24.2959E-06
C:/temp/dataset/6/29_16.odb,Step-1,Increment      1: Step Time =    1.000,"PART-1-1",           517,      -6.02998,       11.1050,            0.,NA,NA,"",   540.555E-03,  -537.791E-03,  -54.5877E-03,   29.4907E-06
C:/temp/dataset/6/29_16.odb,Step-1,Increment      1: Step Time =    1.000,"PART-1-1",           518,           -5.,       12.2917,            0.,NA,NA,"",   541.960E-03,  -539.338E-03,  -53.2485E-03,   31.9147E-06
C:/temp/dataset/6/29_16.odb,Step-1,Increment      1: Step Time =    1.000,"PART-1-1",           519,      -6.05497,       13.2342,            0.,NA,NA,"",   543.328E-03,  -540.573E-03,  -54.6533E-03,   14.8992E-06
C:/temp/dataset/6/29_16.odb,Step-1,Increment      1: Step Time =    1.000,"PART-1-1",           520,      -9.96524,       21.0498,            0.,NA,NA,"",   553.957E-03,  -550.723E-03,  -59.7720E-03,   570.350E-09
C:/temp/dataset/6/29_16.odb,Step-1,Increment      1: Step Time =    1.000,"PART-1-1",           521,      -8.51702,       20.1362,            0.,NA,NA,"",   552.575E-03,  -549.535E-03,  -57.8850E-03,   693.665E-09
C:/temp/dataset/6/29_16.odb,Step-1,Increment      1: Step Time =    1.000,"PART-1-1",           522,      -8.09442,       21.6565,            0.,NA,NA,"",   554.487E-03,  -551.515E-03,  -57.3355E-03,   291.746E-09
C:/temp/dataset/6/29_16.odb,Step-1,Increment      1: Step Time =    1.000,"PART-1-1",           523,      -9.54264,       22.5701,            0.,NA,NA,"",   555.867E-03,  -552.703E-03,  -59.2226E-03,   127.902E-09
C:/temp/dataset/6/29_16.odb,Step-1,Increment      1: Step Time =    1.000,"PART-1-1",           524,      -7.38593,       19.0122,            0.,NA,NA,"",   550.969E-03,  -548.074E-03,  -56.4107E-03,   1.73496E-06
C:/temp/dataset/6/29_16.odb,Step-1,Increment      1: Step Time =    1.000,"PART-1-1",           525,      -6.14460,       17.5723,            0.,NA,NA,"",   548.944E-03,  -546.203E-03,  -54.7918E-03,   1.78362E-06
C:/temp/dataset/6/29_16.odb,Step-1,Increment      1: Step Time =    1.000,"PART-1-1",           526,           -5.,       18.5417,            0.,NA,NA,"",   550.053E-03,  -547.464E-03,  -53.3036E-03,   730.203E-09
C:/temp/dataset/6/29_16.odb,Step-1,Increment      1: Step Time =    1.000,"PART-1-1",           527,      -9.12859,       24.1056,            0.,NA,NA,"",   557.799E-03,  -554.704E-03,  -58.6846E-03,   69.4115E-09
C:/temp/dataset/6/29_16.odb,Step-1,Increment      1: Step Time =    1.000,"PART-1-1",           528,      -7.82088,       23.2603,            0.,NA,NA,"",   556.528E-03,  -553.604E-03,  -56.9806E-03,   65.9550E-09
C:/temp/dataset/6/29_16.odb,Step-1,Increment      1: Step Time =    1.000,"PART-1-1",           529,      -7.11221,       24.6459,            0.,NA,NA,"",   558.231E-03,  -555.409E-03,  -56.0588E-03,   74.5790E-09
C:/temp/dataset/6/29_16.odb,Step-1,Increment      1: Step Time =    1.000,"PART-1-1",           530,      -8.41993,       25.4912,            0.,NA,NA,"",   559.499E-03,  -556.509E-03,  -57.7628E-03,   65.0130E-09
C:/temp/dataset/6/29_16.odb,Step-1,Increment      1: Step Time =    1.000,"PART-1-1",           531,           -5.,       28.9583,            0.,NA,NA,"",   563.556E-03,  -561.028E-03,  -53.3112E-03,   8.36653E-09
C:/temp/dataset/6/29_16.odb,Step-1,Increment      1: Step Time =    1.000,"PART-1-1",           532,         -6.25,           30.,            0.,NA,NA,"",   565.061E-03,  -562.384E-03,  -54.9403E-03,   8.44349E-09
C:/temp/dataset/6/29_16.odb,Step-1,Increment      1: Step Time =    1.000,"PART-1-1",           533,      -6.22481,       27.8751,            0.,NA,NA,"",   562.303E-03,  -559.616E-03,  -54.9057E-03,   31.2756E-09
C:/temp/dataset/6/29_16.odb,Step-1,Increment      1: Step Time =    1.000,"PART-1-1",           534,      -11.1386,       27.5393,            0.,NA,NA,"",   562.525E-03,  -559.175E-03,  -61.3059E-03,   43.3662E-09
C:/temp/dataset/6/29_16.odb,Step-1,Increment      1: Step Time =    1.000,"PART-1-1",           535,        -11.25,           30.,            0.,NA,NA,"",   565.728E-03,  -562.380E-03,  -61.4532E-03,   38.4488E-09
C:/temp/dataset/6/29_16.odb,Step-1,Increment      1: Step Time =    1.000,"PART-1-1",           536,      -13.1147,       13.7606,            0.,NA,NA,"",   544.955E-03,  -541.200E-03,  -63.8653E-03,   14.6438E-06
C:/temp/dataset/6/29_16.odb,Step-1,Increment      1: Step Time =    1.000,"PART-1-1",           537,      -14.0658,       14.9906,            0.,NA,NA,"",   546.699E-03,  -542.809E-03,  -65.1012E-03,   6.64848E-06
C:/temp/dataset/6/29_16.odb,Step-1,Increment      1: Step Time =    1.000,"PART-1-1",           538,          -15.,         13.75,            0.,NA,NA,"",   545.238E-03,  -541.191E-03,  -66.3052E-03,   15.4425E-06
C:/temp/dataset/6/29_16.odb,Step-1,Increment      1: Step Time =    1.000,"PART-1-1",           539,      -9.42834,       18.6970,            0.,NA,NA,"",   550.836E-03,  -547.659E-03,  -59.0722E-03,   2.36283E-06
C:/temp/dataset/6/29_16.odb,Step-1,Increment      1: Step Time =    1.000,"PART-1-1",           540,      -8.29725,       17.5730,            0.,NA,NA,"",   549.228E-03,  -546.200E-03,  -57.5985E-03,   3.08012E-06
C:/temp/dataset/6/29_16.odb,Step-1,Increment      1: Step Time =    1.000,"PART-1-1",           541,      -12.7588,       6.21303,            0.,NA,NA,"",   535.666E-03,  -531.900E-03,  -63.4059E-03,   176.005E-06
C:/temp/dataset/6/29_16.odb,Step-1,Increment      1: Step Time =    1.000,"PART-1-1",           542,          -15.,          6.25,            0.,NA,NA,"",   536.048E-03,  -531.980E-03,  -65.9131E-03,   41.5391E-06
C:/temp/dataset/6/29_16.odb,Step-1,Increment      1: Step Time =    1.000,"PART-1-1",           543,      -9.01063,       9.47069,            0.,NA,NA,"",   538.826E-03,  -535.627E-03,  -58.6238E-03,   32.1302E-06
C:/temp/dataset/6/29_16.odb,Step-1,Increment      1: Step Time =    1.000,"PART-1-1",           544,      -10.0811,       10.4578,            0.,NA,NA,"",   540.263E-03,  -536.920E-03,  -60.0072E-03,   28.5096E-06
C:/temp/dataset/6/29_16.odb,Step-1,Increment      1: Step Time =    1.000,"PART-1-1",           545,      -10.9384,       9.05000,            0.,NA,NA,"",   538.592E-03,  -535.111E-03,  -61.1306E-03,   33.4001E-06
C:/temp/dataset/6/29_16.odb,Step-1,Increment      1: Step Time =    1.000,"PART-1-1",           546,      -9.86794,       8.06293,            0.,NA,NA,"",   537.150E-03,  -533.817E-03,  -59.7482E-03,   64.6196E-06
C:/temp/dataset/6/29_16.odb,Step-1,Increment      1: Step Time =    1.000,"PART-1-1",           547,      -7.23366,       1.29985,            0.,NA,NA,"",   526.472E-03,  -523.837E-03,  -52.6053E-03,   1.95378E-03
C:/temp/dataset/6/29_16.odb,Step-1,Increment      1: Step Time =    1.000,"PART-1-1",           548,      -8.34685,   784.410E-03,            0.,NA,NA,"",   527.946E-03,  -525.227E-03,  -53.5104E-03,   2.31134E-03
C:/temp/dataset/6/29_16.odb,Step-1,Increment      1: Step Time =    1.000,"PART-1-1",           549,      -7.43977,  -685.632E-03,            0.,NA,NA,"",   524.636E-03,  -522.351E-03,  -48.9123E-03,   3.37533E-03
C:/temp/dataset/6/29_16.odb,Step-1,Increment      1: Step Time =    1.000,"PART-1-1",           550,      -12.4903,      -8.57964,            0.,NA,NA,"",   515.729E-03,  -509.318E-03,  -81.0670E-03,   5.07316E-03
C:/temp/dataset/6/29_16.odb,Step-1,Increment      1: Step Time =    1.000,"PART-1-1",           551,          -15.,         -8.75,            0.,NA,NA,"",   511.230E-03,  -498.375E-03,  -113.922E-03,   10.6279E-03
C:/temp/dataset/6/29_16.odb,Step-1,Increment      1: Step Time =    1.000,"PART-1-1",           552,      -13.5658,      -9.92286,            0.,NA,NA,"",   500.147E-03,  -489.252E-03,  -103.825E-03,   7.92584E-03
C:/temp/dataset/6/29_16.odb,Step-1,Increment      1: Step Time =    1.000,"PART-1-1",           553,      -11.9783,      -7.15971,            0.,NA,NA,"",   525.622E-03,  -520.930E-03,  -70.0731E-03,   4.90080E-03
C:/temp/dataset/6/29_16.odb,Step-1,Increment      1: Step Time =    1.000,"PART-1-1",           554,      -11.8960,      -5.22799,            0.,NA,NA,"",   531.804E-03,  -527.753E-03,  -65.5169E-03,   4.51043E-03
C:/temp/dataset/6/29_16.odb,Step-1,Increment      1: Step Time =    1.000,"PART-1-1",           555,      -12.4565,      -16.3452,            0.,NA,NA,"",   330.763E-03,  -314.038E-03,  -103.848E-03,   10.6420E-03
C:/temp/dataset/6/29_16.odb,Step-1,Increment      1: Step Time =    1.000,"PART-1-1",           556,          -15.,        -16.25,            0.,NA,NA,"",   360.286E-03,  -316.621E-03,  -171.922E-03,   897.948E-06
C:/temp/dataset/6/29_16.odb,Step-1,Increment      1: Step Time =    1.000,"PART-1-1",           557,      -13.7435,      -17.5611,            0.,NA,NA,"",   300.535E-03,  -270.232E-03,  -131.515E-03,   6.69727E-03
C:/temp/dataset/6/29_16.odb,Step-1,Increment      1: Step Time =    1.000,"PART-1-1",           558,      -9.99221,      -8.41662,            0.,NA,NA,"",   518.389E-03,  -516.274E-03,  -46.7723E-03,   4.67346E-03
C:/temp/dataset/6/29_16.odb,Step-1,Increment      1: Step Time =    1.000,"PART-1-1",           559,      -11.4633,      -9.12095,            0.,NA,NA,"",   511.045E-03,  -506.439E-03,  -68.4576E-03,   4.14380E-03
C:/temp/dataset/6/29_16.odb,Step-1,Increment      1: Step Time =    1.000,"PART-1-1",           560,      -10.8070,      -10.1141,            0.,NA,NA,"",   499.831E-03,  -496.086E-03,  -61.0660E-03,   4.56717E-03
C:/temp/dataset/6/29_16.odb,Step-1,Increment      1: Step Time =    1.000,"PART-1-1",           561,      -13.9189,      -24.9166,            0.,NA,NA,"",   97.0109E-03,  -68.4337E-03,  -68.7601E-03,   13.9468E-03
C:/temp/dataset/6/29_16.odb,Step-1,Increment      1: Step Time =    1.000,"PART-1-1",           562,      -12.9076,      -23.6273,            0.,NA,NA,"",   109.726E-03,  -87.4703E-03,  -66.2478E-03,   11.0133E-03
C:/temp/dataset/6/29_16.odb,Step-1,Increment      1: Step Time =    1.000,"PART-1-1",           563,          -15.,        -23.75,            0.,NA,NA,"",   142.458E-03,  -97.2646E-03,  -104.086E-03,   15.6950E-03
C:/temp/dataset/6/29_16.odb,Step-1,Increment      1: Step Time =    1.000,"PART-1-1",           564,          -15.,        -28.75,            0.,NA,NA,"",   32.8731E-03,  -22.4188E-03,  -24.0424E-03,   20.7770E-03
C:/temp/dataset/6/29_16.odb,Step-1,Increment      1: Step Time =    1.000,"PART-1-1",           565,        -13.75,          -30.,            0.,NA,NA,"",            0.,  -127.658E-42,  -24.7456E-39,   16.7972E-03
C:/temp/dataset/6/29_16.odb,Step-1,Increment      1: Step Time =    1.000,"PART-1-1",           566,      -13.7642,      -27.4123,            0.,NA,NA,"",   44.6033E-03,  -29.2966E-03,  -33.6328E-03,   15.2446E-03
C:/temp/dataset/6/29_16.odb,Step-1,Increment      1: Step Time =    1.000,"PART-1-1",           567,            5.,      -6.25625,            0.,NA,NA,"",   410.969E-03,  -407.464E-03,  -53.5633E-03,   9.48602E-03
C:/temp/dataset/6/29_16.odb,Step-1,Increment      1: Step Time =    1.000,"PART-1-1",           568,       7.03347,      -6.11658,            0.,NA,NA,"",   414.613E-03,  -414.381E-03,  -13.8761E-03,   5.18482E-03
C:/temp/dataset/6/29_16.odb,Step-1,Increment      1: Step Time =    1.000,"PART-1-1",           569,       6.04361,      -4.83741,            0.,NA,NA,"",   448.474E-03,  -447.585E-03,  -28.2184E-03,   9.06323E-03
C:/temp/dataset/6/29_16.odb,Step-1,Increment      1: Step Time =    1.000,"PART-1-1",           570,           15.,      -2.65625,            0.,NA,NA,"",   480.043E-03,  -466.447E-03,   113.441E-03,   3.51545E-03
C:/temp/dataset/6/29_16.odb,Step-1,Increment      1: Step Time =    1.000,"PART-1-1",           571,       12.8875,      -2.72454,            0.,NA,NA,"",   474.499E-03,  -467.799E-03,   79.4558E-03,   1.90215E-03
C:/temp/dataset/6/29_16.odb,Step-1,Increment      1: Step Time =    1.000,"PART-1-1",           572,       10.0248,      -7.91896,            0.,NA,NA,"",   370.459E-03,  -368.703E-03,   36.0295E-03,   4.30530E-03
C:/temp/dataset/6/29_16.odb,Step-1,Increment      1: Step Time =    1.000,"PART-1-1",           573,       8.98203,      -8.99604,            0.,NA,NA,"",   342.598E-03,  -342.176E-03,   17.0028E-03,   4.72013E-03
C:/temp/dataset/6/29_16.odb,Step-1,Increment      1: Step Time =    1.000,"PART-1-1",           574,       9.98204,      -10.2112,            0.,NA,NA,"",   314.243E-03,  -312.374E-03,   34.2180E-03,   4.49829E-03
C:/temp/dataset/6/29_16.odb,Step-1,Increment      1: Step Time =    1.000,"PART-1-1",           575,            5.,      -11.2813,            0.,NA,NA,"",   290.561E-03,  -282.561E-03,  -67.7148E-03,   609.377E-06
C:/temp/dataset/6/29_16.odb,Step-1,Increment      1: Step Time =    1.000,"PART-1-1",           576,       6.96001,      -11.3098,            0.,NA,NA,"",   284.011E-03,  -282.988E-03,  -24.0818E-03,   2.89654E-03
C:/temp/dataset/6/29_16.odb,Step-1,Increment      1: Step Time =    1.000,"PART-1-1",           577,       12.1169,      -5.93459,            0.,NA,NA,"",   417.446E-03,  -411.294E-03,   71.3999E-03,   2.30250E-03
C:/temp/dataset/6/29_16.odb,Step-1,Increment      1: Step Time =    1.000,"PART-1-1",           578,       11.1088,      -6.97100,            0.,NA,NA,"",   393.771E-03,  -389.959E-03,   54.6632E-03,   3.21427E-03
C:/temp/dataset/6/29_16.odb,Step-1,Increment      1: Step Time =    1.000,"PART-1-1",           579,           15.,      -11.4063,            0.,NA,NA,"",   315.614E-03,  -286.359E-03,   132.706E-03,   1.51237E-03
C:/temp/dataset/6/29_16.odb,Step-1,Increment      1: Step Time =    1.000,"PART-1-1",           580,       13.9991,      -10.3053,            0.,NA,NA,"",   331.022E-03,  -311.896E-03,   110.888E-03,   1.65951E-03
C:/temp/dataset/6/29_16.odb,Step-1,Increment      1: Step Time =    1.000,"PART-1-1",           581,       12.9941,      -11.4223,            0.,NA,NA,"",   297.937E-03,  -284.187E-03,   89.4636E-03,   3.34578E-03
C:/temp/dataset/6/29_16.odb,Step-1,Increment      1: Step Time =    1.000,"PART-1-1",           582,           15.,      -9.21875,            0.,NA,NA,"",   362.774E-03,  -337.624E-03,   132.721E-03,   787.156E-06
C:/temp/dataset/6/29_16.odb,Step-1,Increment      1: Step Time =    1.000,"PART-1-1",           583,       9.25975,      -25.9916,            0.,NA,NA,"",   26.3771E-03,  -25.8324E-03,   5.33311E-03,   3.24832E-03
C:/temp/dataset/6/29_16.odb,Step-1,Increment      1: Step Time =    1.000,"PART-1-1",           584,       7.97004,      -27.0667,            0.,NA,NA,"",   18.5833E-03,  -18.5590E-03,   951.080E-06,   3.78845E-03
C:/temp/dataset/6/29_16.odb,Step-1,Increment      1: Step Time =    1.000,"PART-1-1",           585,       9.98268,      -20.3187,            0.,NA,NA,"",   90.5230E-03,  -88.0338E-03,   21.0825E-03,   3.84635E-03
C:/temp/dataset/6/29_16.odb,Step-1,Increment      1: Step Time =    1.000,"PART-1-1",           586,       8.47236,      -19.9740,            0.,NA,NA,"",   90.3747E-03,  -90.2767E-03,   4.20810E-03,   3.55612E-03
C:/temp/dataset/6/29_16.odb,Step-1,Increment      1: Step Time =    1.000,"PART-1-1",           587,       7.80775,      -21.2882,            0.,NA,NA,"",   71.1517E-03,  -71.0718E-03,  -3.37121E-03,   2.16715E-03
C:/temp/dataset/6/29_16.odb,Step-1,Increment      1: Step Time =    1.000,"PART-1-1",           588,       9.31806,      -21.6330,            0.,NA,NA,"",   69.6372E-03,  -68.7530E-03,   11.0615E-03,   2.31884E-03
C:/temp/dataset/6/29_16.odb,Step-1,Increment      1: Step Time =    1.000,"PART-1-1",           589,          3.75,          -20.,            0.,NA,NA,"",   74.9014E-03,  -73.5525E-03,  -14.1513E-03,   6.78648E-03
C:/temp/dataset/6/29_16.odb,Step-1,Increment      1: Step Time =    1.000,"PART-1-1",           590,       2.69482,      -20.9389,            0.,NA,NA,"",   73.4784E-03,  -72.7943E-03,  -10.0035E-03,   2.97775E-03
C:/temp/dataset/6/29_16.odb,Step-1,Increment      1: Step Time =    1.000,"PART-1-1",           591,       4.10336,      -21.5712,            0.,NA,NA,"",   73.3723E-03,  -71.3469E-03,  -17.1207E-03,   7.18546E-03
C:/temp/dataset/6/29_16.odb,Step-1,Increment      1: Step Time =    1.000,"PART-1-1",           592,       5.15854,      -20.6323,            0.,NA,NA,"",   80.8753E-03,  -76.8806E-03,  -25.1037E-03,   9.42326E-03
C:/temp/dataset/6/29_16.odb,Step-1,Increment      1: Step Time =    1.000,"PART-1-1",           593,          1.25,          -20.,            0.,NA,NA,"",   71.8324E-03,  -71.7404E-03,  -3.63439E-03,   1.75966E-03
C:/temp/dataset/6/29_16.odb,Step-1,Increment      1: Step Time =    1.000,"PART-1-1",           594,       1.58638,      -22.3782,            0.,NA,NA,"",   69.4090E-03,  -69.3222E-03,  -3.47043E-03,   6.68973E-03
C:/temp/dataset/6/29_16.odb,Step-1,Increment      1: Step Time =    1.000,"PART-1-1",           595,      -7.18878,      -21.5166,            0.,NA,NA,"",   110.954E-03,  -110.591E-03,   8.96599E-03,   9.10365E-03
C:/temp/dataset/6/29_16.odb,Step-1,Increment      1: Step Time =    1.000,"PART-1-1",           596,      -8.69544,      -20.4918,            0.,NA,NA,"",   149.806E-03,  -148.672E-03,  -18.3963E-03,   12.3641E-03
C:/temp/dataset/6/29_16.odb,Step-1,Increment      1: Step Time =    1.000,"PART-1-1",           597,      -9.53108,      -21.9939,            0.,NA,NA,"",   113.261E-03,  -110.523E-03,  -24.7547E-03,   8.86578E-03
C:/temp/dataset/6/29_16.odb,Step-1,Increment      1: Step Time =    1.000,"PART-1-1",           598,      -8.02442,      -23.0186,            0.,NA,NA,"",   81.7185E-03,  -81.7173E-03,  -446.781E-06,   5.36840E-03
C:/temp/dataset/6/29_16.odb,Step-1,Increment      1: Step Time =    1.000,"PART-1-1",           599,           -5.,      -18.7437,            0.,NA,NA,"",   214.410E-03,  -205.023E-03,   62.7492E-03,   18.4902E-03
C:/temp/dataset/6/29_16.odb,Step-1,Increment      1: Step Time =    1.000,"PART-1-1",           600,      -6.23242,      -17.5731,            0.,NA,NA,"",   257.406E-03,  -256.012E-03,   26.7488E-03,   8.37496E-03
C:/temp/dataset/6/29_16.odb,Step-1,Increment      1: Step Time =    1.000,"PART-1-1",           601,      -7.41830,      -18.9573,            0.,NA,NA,"",   194.824E-03,  -194.803E-03,  -2.83959E-03,   14.9976E-03
C:/temp/dataset/6/29_16.odb,Step-1,Increment      1: Step Time =    1.000,"PART-1-1",           602,      -6.18588,      -20.1280,            0.,NA,NA,"",   141.566E-03,  -139.634E-03,   23.3087E-03,   17.6340E-03
C:/temp/dataset/6/29_16.odb,Step-1,Increment      1: Step Time =    1.000,"PART-1-1",           603,           -5.,      -16.2312,            0.,NA,NA,"",   331.823E-03,  -322.301E-03,   78.9225E-03,   2.07766E-03
C:/temp/dataset/6/29_16.odb,Step-1,Increment      1: Step Time =    1.000,"PART-1-1",           604,      -7.44257,      -16.3835,            0.,NA,NA,"",   313.761E-03,  -313.666E-03,  -7.71897E-03,   16.5497E-03
C:/temp/dataset/6/29_16.odb,Step-1,Increment      1: Step Time =    1.000,"PART-1-1",           605,      -12.6830,      -26.0788,            0.,NA,NA,"",   57.2127E-03,  -42.4686E-03,  -38.3368E-03,   11.4925E-03
C:/temp/dataset/6/29_16.odb,Step-1,Increment      1: Step Time =    1.000,"PART-1-1",           606,          -15.,        -26.25,            0.,NA,NA,"",   86.5725E-03,  -54.8968E-03,  -66.9413E-03,   17.5173E-03
C:/temp/dataset/6/29_16.odb,Step-1,Increment      1: Step Time =    1.000,"PART-1-1",           607,         -8.75,          -30.,            0.,NA,NA,"",            0.,  -1.81837E-39,  -3.79383E-39,   2.83772E-03
C:/temp/dataset/6/29_16.odb,Step-1,Increment      1: Step Time =    1.000,"PART-1-1",           608,          -15.,        -18.75,            0.,NA,NA,"",   283.200E-03,  -231.610E-03,  -162.970E-03,   7.06249E-03
C:/temp/dataset/6/29_16.odb,Step-1,Increment      1: Step Time =    1.000,"PART-1-1",           609,      -12.5734,      -18.8685,            0.,NA,NA,"",   241.805E-03,  -221.215E-03,  -97.6402E-03,   10.7124E-03
C:/temp/dataset/6/29_16.odb,Step-1,Increment      1: Step Time =    1.000,"PART-1-1",           610,           -5.,      -11.2063,            0.,NA,NA,"",   516.741E-03,  -515.962E-03,   28.3563E-03,   18.3993E-03
C:/temp/dataset/6/29_16.odb,Step-1,Increment      1: Step Time =    1.000,"PART-1-1",           611,      -7.25264,      -11.4522,            0.,NA,NA,"",   495.067E-03,  -495.051E-03,  -4.00504E-03,   10.4036E-03
C:/temp/dataset/6/29_16.odb,Step-1,Increment      1: Step Time =    1.000,"PART-1-1",           612,           -5.,      -6.23750,            0.,NA,NA,"",   515.413E-03,  -515.035E-03,  -19.7431E-03,   9.75275E-03
C:/temp/dataset/6/29_16.odb,Step-1,Increment      1: Step Time =    1.000,"PART-1-1",           613,      -6.16987,      -5.46941,            0.,NA,NA,"",   520.494E-03,  -519.854E-03,  -25.8200E-03,   6.64520E-03
C:/temp/dataset/6/29_16.odb,Step-1,Increment      1: Step Time =    1.000,"PART-1-1",           614,      -7.24309,      -6.98789,            0.,NA,NA,"",   521.056E-03,  -520.595E-03,  -21.9247E-03,   6.77709E-03
C:/temp/dataset/6/29_16.odb,Step-1,Increment      1: Step Time =    1.000,"PART-1-1",           615,           -5.,       16.4583,            0.,NA,NA,"",   547.357E-03,  -544.756E-03,  -53.2994E-03,   3.75950E-06
C:/temp/dataset/6/29_16.odb,Step-1,Increment      1: Step Time =    1.000,"PART-1-1",           616,      -7.23328,       16.4840,            0.,NA,NA,"",   547.680E-03,  -544.788E-03,  -56.2103E-03,   5.90231E-06
C:/temp/dataset/6/29_16.odb,Step-1,Increment      1: Step Time =    1.000,"PART-1-1",           617,      -6.08867,       15.3700,            0.,NA,NA,"",   546.091E-03,  -543.343E-03,  -54.7126E-03,   5.80286E-06
C:/temp/dataset/6/29_16.odb,Step-1,Increment      1: Step Time =    1.000,"PART-1-1",           618,      -13.1522,       16.1892,            0.,NA,NA,"",   548.116E-03,  -544.377E-03,  -63.9185E-03,   6.07046E-06
C:/temp/dataset/6/29_16.odb,Step-1,Increment      1: Step Time =    1.000,"PART-1-1",           619,      -14.0864,       17.4486,            0.,NA,NA,"",   549.892E-03,  -546.021E-03,  -65.1365E-03,   1.71507E-06
C:/temp/dataset/6/29_16.odb,Step-1,Increment      1: Step Time =    1.000,"PART-1-1",           620,          -15.,         16.25,            0.,NA,NA,"",   548.481E-03,  -544.456E-03,  -66.3247E-03,   4.11388E-06
C:/temp/dataset/6/29_16.odb,Step-1,Increment      1: Step Time =    1.000,"PART-1-1",           621,           -5.,       24.7917,            0.,NA,NA,"",   558.152E-03,  -555.601E-03,  -53.3079E-03,   135.872E-09
C:/temp/dataset/6/29_16.odb,Step-1,Increment      1: Step Time =    1.000,"PART-1-1",           622,      -6.14442,       25.7689,            0.,NA,NA,"",   559.563E-03,  -556.873E-03,  -54.7992E-03,   63.5602E-09
C:/temp/dataset/6/29_16.odb,Step-1,Increment      1: Step Time =    1.000,"PART-1-1",           623,           -5.,        26.875,            0.,NA,NA,"",   560.854E-03,  -558.315E-03,  -53.3095E-03,   51.9696E-09
C:/temp/dataset/6/29_16.odb,Step-1,Increment      1: Step Time =    1.000,"PART-1-1",           624,      -7.36924,       26.7689,            0.,NA,NA,"",   561.016E-03,  -558.174E-03,  -56.3954E-03,   65.3013E-09
C:/temp/dataset/6/29_16.odb,Step-1,Increment      1: Step Time =    1.000,"PART-1-1",           625,      -13.1175,       20.9132,            0.,NA,NA,"",   554.234E-03,  -550.541E-03,  -63.8782E-03,   359.893E-09
C:/temp/dataset/6/29_16.odb,Step-1,Increment      1: Step Time =    1.000,"PART-1-1",           626,      -14.0212,       22.2867,            0.,NA,NA,"",   556.148E-03,  -552.330E-03,  -65.0569E-03,   122.482E-09
C:/temp/dataset/6/29_16.odb,Step-1,Increment      1: Step Time =    1.000,"PART-1-1",           627,          -15.,         21.25,            0.,NA,NA,"",   554.956E-03,  -550.978E-03,  -66.3316E-03,   199.568E-09
C:/temp/dataset/6/29_16.odb,Step-1,Increment      1: Step Time =    1.000,"PART-1-1",           628,      -14.0963,       19.8765,            0.,NA,NA,"",   553.040E-03,  -549.189E-03,  -65.1527E-03,   283.367E-09
C:/temp/dataset/6/29_16.odb,Step-1,Increment      1: Step Time =    1.000,"PART-1-1",           629,         -1.25,           -5.,            0.,NA,NA,"",   500.205E-03,  -498.233E-03,  -44.3780E-03,   5.72203E-03
C:/temp/dataset/6/29_16.odb,Step-1,Increment      1: Step Time =    1.000,"PART-1-1",           630,      -1.77292,      -3.03732,            0.,NA,NA,"",   504.338E-03,  -502.028E-03,  -48.2216E-03,   4.00114E-03
C:/temp/dataset/6/29_16.odb,Step-1,Increment      1: Step Time =    1.000,"PART-1-1",           631,      -12.1053,      -2.30059,            0.,NA,NA,"",   533.296E-03,  -529.458E-03,  -63.8637E-03,   3.14907E-03
C:/temp/dataset/6/29_16.odb,Step-1,Increment      1: Step Time =    1.000,"PART-1-1",           632,      -10.7648,      -1.40855,            0.,NA,NA,"",   531.762E-03,  -528.598E-03,  -57.9246E-03,   3.07769E-03
C:/temp/dataset/6/29_16.odb,Step-1,Increment      1: Step Time =    1.000,"PART-1-1",           633,      -11.5438,  -354.672E-03,            0.,NA,NA,"",   532.412E-03,  -528.886E-03,  -61.1762E-03,   2.21173E-03
C:/temp/dataset/6/29_16.odb,Step-1,Increment      1: Step Time =    1.000,"PART-1-1",           634,          3.75,           -5.,            0.,NA,NA,"",   466.201E-03,  -464.607E-03,  -38.5290E-03,   12.4829E-03
C:/temp/dataset/6/29_16.odb,Step-1,Increment      1: Step Time =    1.000,"PART-1-1",           635,       4.52066,      -3.83856,            0.,NA,NA,"",   469.799E-03,  -467.890E-03,  -42.3031E-03,   9.38593E-03
C:/temp/dataset/6/29_16.odb,Step-1,Increment      1: Step Time =    1.000,"PART-1-1",           636,       2.94662,      -2.72704,            0.,NA,NA,"",   486.655E-03,  -484.500E-03,  -45.7453E-03,   4.85818E-03
C:/temp/dataset/6/29_16.odb,Step-1,Increment      1: Step Time =    1.000,"PART-1-1",           637,       1.50395,       2.56821,            0.,NA,NA,"",   525.517E-03,  -523.230E-03,  -48.9752E-03,   2.13335E-03
C:/temp/dataset/6/29_16.odb,Step-1,Increment      1: Step Time =    1.000,"PART-1-1",           638,          1.25,            5.,            0.,NA,NA,"",   536.060E-03,  -533.981E-03,  -47.1661E-03,   3.42148E-03
C:/temp/dataset/6/29_16.odb,Step-1,Increment      1: Step Time =    1.000,"PART-1-1",           639,          6.25,            5.,            0.,NA,NA,"",   554.267E-03,  -554.085E-03,  -14.1894E-03,   4.35714E-03
C:/temp/dataset/6/29_16.odb,Step-1,Increment      1: Step Time =    1.000,"PART-1-1",           640,  -213.968E-03,      -26.0734,            0.,NA,NA,"",   42.4516E-03,  -42.1569E-03,   4.99329E-03,   8.63149E-03
C:/temp/dataset/6/29_16.odb,Step-1,Increment      1: Step Time =    1.000,"PART-1-1",           641,       1.14210,      -23.8512,            0.,NA,NA,"",   60.9369E-03,  -60.9361E-03,   321.761E-06,   8.11023E-03
C:/temp/dataset/6/29_16.odb,Step-1,Increment      1: Step Time =    1.000,"PART-1-1",           642,  -234.527E-03,      -23.9674,            0.,NA,NA,"",   62.7501E-03,  -62.4669E-03,   5.95493E-03,   8.62829E-03
C:/temp/dataset/6/29_16.odb,Step-1,Increment      1: Step Time =    1.000,"PART-1-1",           643,           -5.,        14.375,            0.,NA,NA,"",   544.662E-03,  -542.049E-03,  -53.2864E-03,   12.6156E-06
C:/temp/dataset/6/29_16.odb,Step-1,Increment      1: Step Time =    1.000,"PART-1-1",           644,      -7.14364,       14.2292,            0.,NA,NA,"",   544.758E-03,  -541.862E-03,  -56.0922E-03,   14.0043E-06
C:/temp/dataset/6/29_16.odb,Step-1,Increment      1: Step Time =    1.000,"PART-1-1",           645,           -5.,       6.04167,            0.,NA,NA,"",   532.789E-03,  -530.162E-03,  -52.8396E-03,   423.345E-06
C:/temp/dataset/6/29_16.odb,Step-1,Increment      1: Step Time =    1.000,"PART-1-1",           646,      -5.82078,       6.95384,            0.,NA,NA,"",   534.565E-03,  -531.812E-03,  -54.1856E-03,   134.436E-06
C:/temp/dataset/6/29_16.odb,Step-1,Increment      1: Step Time =    1.000,"PART-1-1",           647,      -6.45742,       5.85906,            0.,NA,NA,"",   532.740E-03,  -529.887E-03,  -55.0641E-03,   517.503E-06
C:/temp/dataset/6/29_16.odb,Step-1,Increment      1: Step Time =    1.000,"PART-1-1",           648,      -5.63664,       4.94688,            0.,NA,NA,"",   530.396E-03,  -527.655E-03,  -53.8483E-03,   823.812E-06
C:/temp/dataset/6/29_16.odb,Step-1,Increment      1: Step Time =    1.000,"PART-1-1",           649,           -5.,         8.125,            0.,NA,NA,"",   536.301E-03,  -533.679E-03,  -52.9592E-03,   105.066E-06
C:/temp/dataset/6/29_16.odb,Step-1,Increment      1: Step Time =    1.000,"PART-1-1",           650,      -5.96903,       9.00386,            0.,NA,NA,"",   537.723E-03,  -534.961E-03,  -54.4371E-03,   46.6182E-06
C:/temp/dataset/6/29_16.odb,Step-1,Increment      1: Step Time =    1.000,"PART-1-1",           651,          -15.,         -3.75,            0.,NA,NA,"",   531.202E-03,  -525.475E-03,  -77.7926E-03,   4.85357E-03
C:/temp/dataset/6/29_16.odb,Step-1,Increment      1: Step Time =    1.000,"PART-1-1",           652,      -12.7846,      -3.59401,            0.,NA,NA,"",   533.430E-03,  -528.964E-03,  -68.8821E-03,   3.90679E-03
C:/temp/dataset/6/29_16.odb,Step-1,Increment      1: Step Time =    1.000,"PART-1-1",           653,      -11.5430,      -4.20540,            0.,NA,NA,"",   532.680E-03,  -529.083E-03,  -61.7993E-03,   4.12049E-03
C:/temp/dataset/6/29_16.odb,Step-1,Increment      1: Step Time =    1.000,"PART-1-1",           654,      -10.1018,      -4.29084,            0.,NA,NA,"",   530.800E-03,  -528.309E-03,  -51.3617E-03,   4.77412E-03
C:/temp/dataset/6/29_16.odb,Step-1,Increment      1: Step Time =    1.000,"PART-1-1",           655,          -15.,        -11.25,            0.,NA,NA,"",   480.129E-03,  -459.304E-03,  -139.872E-03,   10.9773E-03
C:/temp/dataset/6/29_16.odb,Step-1,Increment      1: Step Time =    1.000,"PART-1-1",           656,      -12.2331,      -11.1785,            0.,NA,NA,"",   480.282E-03,  -472.108E-03,  -88.2313E-03,   5.07326E-03
C:/temp/dataset/6/29_16.odb,Step-1,Increment      1: Step Time =    1.000,"PART-1-1",           657,       5.21391,      -1.02834,            0.,NA,NA,"",   497.363E-03,  -496.339E-03,  -31.8935E-03,   2.32659E-03
C:/temp/dataset/6/29_16.odb,Step-1,Increment      1: Step Time =    1.000,"PART-1-1",           658,       6.72319,      -1.59046,            0.,NA,NA,"",   489.996E-03,  -489.713E-03,  -16.6434E-03,   2.50044E-03
C:/temp/dataset/6/29_16.odb,Step-1,Increment      1: Step Time =    1.000,"PART-1-1",           659,       10.9187,      -16.2245,            0.,NA,NA,"",   173.256E-03,  -167.643E-03,   43.7440E-03,   4.76560E-03
C:/temp/dataset/6/29_16.odb,Step-1,Increment      1: Step Time =    1.000,"PART-1-1",           660,       11.9858,      -14.8752,            0.,NA,NA,"",   210.072E-03,  -199.920E-03,   64.5169E-03,   4.55846E-03
C:/temp/dataset/6/29_16.odb,Step-1,Increment      1: Step Time =    1.000,"PART-1-1",           661,       10.9746,      -13.7451,            0.,NA,NA,"",   230.632E-03,  -225.405E-03,   48.8213E-03,   4.70804E-03
C:/temp/dataset/6/29_16.odb,Step-1,Increment      1: Step Time =    1.000,"PART-1-1",           662,       11.9830,      -12.5543,            0.,NA,NA,"",   264.574E-03,  -255.506E-03,   68.6736E-03,   4.16596E-03
C:/temp/dataset/6/29_16.odb,Step-1,Increment      1: Step Time =    1.000,"PART-1-1",           663,           15.,      -20.1563,            0.,NA,NA,"",   137.823E-03,  -105.212E-03,   89.0260E-03,   8.80447E-03
C:/temp/dataset/6/29_16.odb,Step-1,Increment      1: Step Time =    1.000,"PART-1-1",           664,       14.0841,      -19.1367,            0.,NA,NA,"",   143.941E-03,  -118.276E-03,   82.0349E-03,   7.26607E-03
C:/temp/dataset/6/29_16.odb,Step-1,Increment      1: Step Time =    1.000,"PART-1-1",           665,       13.0385,      -20.2889,            0.,NA,NA,"",   113.423E-03,  -96.3073E-03,   59.9144E-03,   6.22618E-03
C:/temp/dataset/6/29_16.odb,Step-1,Increment      1: Step Time =    1.000,"PART-1-1",           666,           15.,      -17.9688,            0.,NA,NA,"",   177.102E-03,  -142.360E-03,   105.351E-03,   7.77191E-03
C:/temp/dataset/6/29_16.odb,Step-1,Increment      1: Step Time =    1.000,"PART-1-1",           667,          1.25,          -30.,            0.,NA,NA,"",            0.,  -7.08597E-39,   2.14683E-39,   7.15709E-03
C:/temp/dataset/6/29_16.odb,Step-1,Increment      1: Step Time =    1.000,"PART-1-1",           668,       3.30543,      -22.6598,            0.,NA,NA,"",   66.1590E-03,  -65.2998E-03,  -10.6277E-03,   7.44034E-03
C:/temp/dataset/6/29_16.odb,Step-1,Increment      1: Step Time =    1.000,"PART-1-1",           669,       2.86115,      -24.1329,            0.,NA,NA,"",   55.4098E-03,  -55.0988E-03,  -5.86234E-03,   8.00181E-03
C:/temp/dataset/6/29_16.odb,Step-1,Increment      1: Step Time =    1.000,"PART-1-1",           670,      -10.6801,      -21.6169,            0.,NA,NA,"",   133.514E-03,  -125.809E-03,  -44.6996E-03,   10.2192E-03
C:/temp/dataset/6/29_16.odb,Step-1,Increment      1: Step Time =    1.000,"PART-1-1",           671,      -11.3394,      -20.4213,            0.,NA,NA,"",   176.094E-03,  -164.129E-03,  -63.8007E-03,   11.1302E-03
C:/temp/dataset/6/29_16.odb,Step-1,Increment      1: Step Time =    1.000,"PART-1-1",           672,      -12.1593,      -22.4638,            0.,NA,NA,"",   127.479E-03,  -110.425E-03,  -63.6958E-03,   9.86751E-03
C:/temp/dataset/6/29_16.odb,Step-1,Increment      1: Step Time =    1.000,"PART-1-1",           673,      -9.92443,      -16.4516,            0.,NA,NA,"",   315.014E-03,  -309.944E-03,  -56.2914E-03,   15.7458E-03
C:/temp/dataset/6/29_16.odb,Step-1,Increment      1: Step Time =    1.000,"PART-1-1",           674,      -8.71114,      -17.7111,            0.,NA,NA,"",   256.521E-03,  -254.598E-03,  -31.3489E-03,   16.7742E-03
C:/temp/dataset/6/29_16.odb,Step-1,Increment      1: Step Time =    1.000,"PART-1-1",           675,      -9.25100,      -7.50767,            0.,NA,NA,"",   523.173E-03,  -521.766E-03,  -38.3450E-03,   5.42877E-03
C:/temp/dataset/6/29_16.odb,Step-1,Increment      1: Step Time =    1.000,"PART-1-1",           676,      -8.32615,      -6.25855,            0.,NA,NA,"",   525.076E-03,  -524.034E-03,  -33.0666E-03,   5.52337E-03
C:/temp/dataset/6/29_16.odb,Step-1,Increment      1: Step Time =    1.000,"PART-1-1",           677,      -7.58018,      -5.09368,            0.,NA,NA,"",   524.589E-03,  -523.547E-03,  -33.0603E-03,   6.22266E-03
C:/temp/dataset/6/29_16.odb,Step-1,Increment      1: Step Time =    1.000,"PART-1-1",           678,      -6.67379,      -3.84489,            0.,NA,NA,"",   520.674E-03,  -519.436E-03,  -35.8813E-03,   6.21192E-03
C:/temp/dataset/6/29_16.odb,Step-1,Increment      1: Step Time =    1.000,"PART-1-1",           679,      -2.40491,      -1.03021,            0.,NA,NA,"",   511.372E-03,  -508.873E-03,  -50.4983E-03,   3.73390E-03
C:/temp/dataset/6/29_16.odb,Step-1,Increment      1: Step Time =    1.000,"PART-1-1",           680,      -3.32453,      -2.14711,            0.,NA,NA,"",   510.284E-03,  -508.075E-03,  -47.4280E-03,   3.98850E-03
C:/temp/dataset/6/29_16.odb,Step-1,Increment      1: Step Time =    1.000,"PART-1-1",           681,       10.4745,      -24.8101,            0.,NA,NA,"",   39.0526E-03,  -36.4293E-03,   14.0718E-03,   3.58536E-03
C:/temp/dataset/6/29_16.odb,Step-1,Increment      1: Step Time =    1.000,"PART-1-1",           682,       8.16019,      -23.0435,            0.,NA,NA,"",   52.7460E-03,  -52.7460E-03,   72.9829E-06,   1.56685E-03
C:/temp/dataset/6/29_16.odb,Step-1,Increment      1: Step Time =    1.000,"PART-1-1",           683,       9.40124,      -23.8494,            0.,NA,NA,"",   45.7230E-03,  -44.9089E-03,   8.58975E-03,   2.20013E-03
C:/temp/dataset/6/29_16.odb,Step-1,Increment      1: Step Time =    1.000,"PART-1-1",           684,       5.67200,      -27.0943,            0.,NA,NA,"",   22.6225E-03,  -22.5215E-03,  -2.13554E-03,   5.49943E-03
C:/temp/dataset/6/29_16.odb,Step-1,Increment      1: Step Time =    1.000,"PART-1-1",           685,       4.86106,      -26.0050,            0.,NA,NA,"",   33.9693E-03,  -33.6730E-03,  -4.47757E-03,   6.37476E-03
C:/temp/dataset/6/29_16.odb,Step-1,Increment      1: Step Time =    1.000,"PART-1-1",           686,      -2.55341,      -23.8484,            0.,NA,NA,"",   69.3285E-03,  -67.3145E-03,   16.5894E-03,   10.8549E-03
C:/temp/dataset/6/29_16.odb,Step-1,Increment      1: Step Time =    1.000,"PART-1-1",           687,      -4.82130,      -23.8875,            0.,NA,NA,"",   69.1373E-03,  -66.1675E-03,   20.0458E-03,   9.75876E-03
C:/temp/dataset/6/29_16.odb,Step-1,Increment      1: Step Time =    1.000,"PART-1-1",           688,      -5.84083,      -25.1777,            0.,NA,NA,"",   49.3794E-03,  -47.7211E-03,   12.6894E-03,   7.22404E-03
C:/temp/dataset/6/29_16.odb,Step-1,Increment      1: Step Time =    1.000,"PART-1-1",           689,           15.,      -26.7188,            0.,NA,NA,"",   47.6903E-03,  -32.1245E-03,   35.2474E-03,   10.1735E-03
C:/temp/dataset/6/29_16.odb,Step-1,Increment      1: Step Time =    1.000,"PART-1-1",           690,       10.9874,      -11.4075,            0.,NA,NA,"",   287.723E-03,  -283.062E-03,   51.5782E-03,   4.55000E-03
C:/temp/dataset/6/29_16.odb,Step-1,Increment      1: Step Time =    1.000,"PART-1-1",           691,       7.29436,      -19.7763,            0.,NA,NA,"",   91.3286E-03,  -90.9161E-03,  -8.67011E-03,   4.35279E-03
C:/temp/dataset/6/29_16.odb,Step-1,Increment      1: Step Time =    1.000,"PART-1-1",           692,       7.78340,      -18.7858,            0.,NA,NA,"",   110.161E-03,  -110.102E-03,  -3.60990E-03,   4.75844E-03
C:/temp/dataset/6/29_16.odb,Step-1,Increment      1: Step Time =    1.000,"PART-1-1",           693,       10.8970,      -2.99004,            0.,NA,NA,"",   468.149E-03,  -465.793E-03,   46.9083E-03,   1.64133E-03
C:/temp/dataset/6/29_16.odb,Step-1,Increment      1: Step Time =    1.000,"PART-1-1",           694,       12.0828,      -3.88727,            0.,NA,NA,"",   454.880E-03,  -449.784E-03,   67.8988E-03,   1.76551E-03
C:/temp/dataset/6/29_16.odb,Step-1,Increment      1: Step Time =    1.000,"PART-1-1",           695,           15.,       1.71875,            0.,NA,NA,"",   536.538E-03,  -526.458E-03,   103.514E-03,   1.04755E-03
C:/temp/dataset/6/29_16.odb,Step-1,Increment      1: Step Time =    1.000,"PART-1-1",           696,       4.00043,  -427.215E-03,            0.,NA,NA,"",   503.734E-03,  -502.142E-03,  -40.0136E-03,   2.36493E-03
C:/temp/dataset/6/29_16.odb,Step-1,Increment      1: Step Time =    1.000,"PART-1-1",           697,       2.09609,       1.00148,            0.,NA,NA,"",   515.868E-03,  -513.632E-03,  -47.9786E-03,   2.22257E-03
C:/temp/dataset/6/29_16.odb,Step-1,Increment      1: Step Time =    1.000,"PART-1-1",           698,       2.38138,  -554.063E-03,            0.,NA,NA,"",   504.870E-03,  -502.623E-03,  -47.5732E-03,   3.09527E-03
C:/temp/dataset/6/29_16.odb,Step-1,Increment      1: Step Time =    1.000,"PART-1-1",           699,   35.7305E-03,       2.11113,            0.,NA,NA,"",   522.504E-03,  -519.896E-03,  -52.1403E-03,   2.43288E-03
C:/temp/dataset/6/29_16.odb,Step-1,Increment      1: Step Time =    1.000,"PART-1-1",           700,           -5.,       10.2083,            0.,NA,NA,"",   539.206E-03,  -536.579E-03,  -53.1623E-03,   69.2600E-06
C:/temp/dataset/6/29_16.odb,Step-1,Increment      1: Step Time =    1.000,"PART-1-1",           701,      -6.99901,       9.90050,            0.,NA,NA,"",   539.101E-03,  -536.195E-03,  -55.8991E-03,   26.1303E-06
C:/temp/dataset/6/29_16.odb,Step-1,Increment      1: Step Time =    1.000,"PART-1-1",           702,      -11.2396,       16.2208,            0.,NA,NA,"",   547.880E-03,  -544.425E-03,  -61.4346E-03,   7.16492E-06
C:/temp/dataset/6/29_16.odb,Step-1,Increment      1: Step Time =    1.000,"PART-1-1",           703,      -10.2112,       15.1096,            0.,NA,NA,"",   546.299E-03,  -542.982E-03,  -60.1034E-03,   9.82811E-06
C:/temp/dataset/6/29_16.odb,Step-1,Increment      1: Step Time =    1.000,"PART-1-1",           704,      -9.25876,       16.3324,            0.,NA,NA,"",   547.753E-03,  -544.582E-03,  -58.8554E-03,   7.13756E-06
C:/temp/dataset/6/29_16.odb,Step-1,Increment      1: Step Time =    1.000,"PART-1-1",           705,      -10.2871,       17.4437,            0.,NA,NA,"",   549.332E-03,  -546.024E-03,  -60.1923E-03,   3.57202E-06
C:/temp/dataset/6/29_16.odb,Step-1,Increment      1: Step Time =    1.000,"PART-1-1",           706,      -8.19479,       15.2434,            0.,NA,NA,"",   546.205E-03,  -543.173E-03,  -57.4694E-03,   8.76340E-06
C:/temp/dataset/6/29_16.odb,Step-1,Increment      1: Step Time =    1.000,"PART-1-1",           707,      -9.19446,       14.0222,            0.,NA,NA,"",   544.758E-03,  -541.577E-03,  -58.7870E-03,   15.9691E-06
C:/temp/dataset/6/29_16.odb,Step-1,Increment      1: Step Time =    1.000,"PART-1-1",           708,      -8.14331,       13.0080,            0.,NA,NA,"",   543.313E-03,  -540.270E-03,  -57.4154E-03,   18.1276E-06
C:/temp/dataset/6/29_16.odb,Step-1,Increment      1: Step Time =    1.000,"PART-1-1",           709,          -15.,         18.75,            0.,NA,NA,"",   551.720E-03,  -547.719E-03,  -66.3298E-03,   514.698E-09
C:/temp/dataset/6/29_16.odb,Step-1,Increment      1: Step Time =    1.000,"PART-1-1",           710,      -13.1826,       18.5751,            0.,NA,NA,"",   551.216E-03,  -547.492E-03,  -63.9610E-03,   1.81378E-06
C:/temp/dataset/6/29_16.odb,Step-1,Increment      1: Step Time =    1.000,"PART-1-1",           711,      -11.2313,       23.3702,            0.,NA,NA,"",   557.140E-03,  -553.744E-03,  -61.4231E-03,   81.8840E-09
C:/temp/dataset/6/29_16.odb,Step-1,Increment      1: Step Time =    1.000,"PART-1-1",           712,      -10.8173,       24.9058,            0.,NA,NA,"",   559.070E-03,  -555.745E-03,  -60.8851E-03,   67.3482E-09
C:/temp/dataset/6/29_16.odb,Step-1,Increment      1: Step Time =    1.000,"PART-1-1",           713,      -13.5418,       24.7667,            0.,NA,NA,"",   559.285E-03,  -555.561E-03,  -64.4342E-03,   70.4306E-09
C:/temp/dataset/6/29_16.odb,Step-1,Increment      1: Step Time =    1.000,"PART-1-1",           714,      -12.2278,       25.9824,            0.,NA,NA,"",   560.665E-03,  -557.146E-03,  -62.7234E-03,   70.6099E-09
C:/temp/dataset/6/29_16.odb,Step-1,Increment      1: Step Time =    1.000,"PART-1-1",           715,          -15.,         26.25,            0.,NA,NA,"",   561.425E-03,  -557.492E-03,  -66.3350E-03,   73.3629E-09
C:/temp/dataset/6/29_16.odb,Step-1,Increment      1: Step Time =    1.000,"PART-1-1",           716,          -15.,         23.75,            0.,NA,NA,"",   558.191E-03,  -554.235E-03,  -66.3331E-03,   178.864E-09
C:/temp/dataset/6/29_16.odb,Step-1,Increment      1: Step Time =    1.000,"PART-1-1",           717,      -12.5630,       23.3034,            0.,NA,NA,"",   557.247E-03,  -553.656E-03,  -63.1578E-03,   47.8867E-09
C:/temp/dataset/6/29_16.odb,Step-1,Increment      1: Step Time =    1.000,"PART-1-1",           718,      -11.1827,       13.8735,            0.,NA,NA,"",   544.828E-03,  -541.360E-03,  -61.3745E-03,   16.1793E-06
C:/temp/dataset/6/29_16.odb,Step-1,Increment      1: Step Time =    1.000,"PART-1-1",           719,      -10.1659,       12.7861,            0.,NA,NA,"",   543.286E-03,  -539.954E-03,  -60.0708E-03,   20.4840E-06
C:/temp/dataset/6/29_16.odb,Step-1,Increment      1: Step Time =    1.000,"PART-1-1",           720,      -11.4858,       20.4947,            0.,NA,NA,"",   553.453E-03,  -549.997E-03,  -61.7522E-03,   715.714E-09
C:/temp/dataset/6/29_16.odb,Step-1,Increment      1: Step Time =    1.000,"PART-1-1",           721,      -10.4732,       19.7487,            0.,NA,NA,"",   552.343E-03,  -549.027E-03,  -60.4331E-03,   993.369E-09
C:/temp/dataset/6/29_16.odb,Step-1,Increment      1: Step Time =    1.000,"PART-1-1",           722,      -10.9778,       21.7959,            0.,NA,NA,"",   555.065E-03,  -551.693E-03,  -61.0915E-03,   230.172E-09
C:/temp/dataset/6/29_16.odb,Step-1,Increment      1: Step Time =    1.000,"PART-1-1",           723,      -9.13796,       11.7463,            0.,NA,NA,"",   541.809E-03,  -538.615E-03,  -58.7466E-03,   25.1045E-06
C:/temp/dataset/6/29_16.odb,Step-1,Increment      1: Step Time =    1.000,"PART-1-1",           724,      -11.1090,       11.4975,            0.,NA,NA,"",   541.743E-03,  -538.263E-03,  -61.3105E-03,   23.1726E-06
C:/temp/dataset/6/29_16.odb,Step-1,Increment      1: Step Time =    1.000,"PART-1-1",           725,      -7.95801,       5.48811,            0.,NA,NA,"",   532.959E-03,  -529.918E-03,  -56.8556E-03,   546.079E-06
C:/temp/dataset/6/29_16.odb,Step-1,Increment      1: Step Time =    1.000,"PART-1-1",           726,      -9.27172,       5.51676,            0.,NA,NA,"",   533.737E-03,  -530.505E-03,  -58.6496E-03,   420.182E-06
C:/temp/dataset/6/29_16.odb,Step-1,Increment      1: Step Time =    1.000,"PART-1-1",           727,      -9.10783,       4.19071,            0.,NA,NA,"",   532.098E-03,  -528.933E-03,  -57.9487E-03,   768.364E-06
C:/temp/dataset/6/29_16.odb,Step-1,Increment      1: Step Time =    1.000,"PART-1-1",           728,      -7.79412,       4.16207,            0.,NA,NA,"",   530.957E-03,  -527.987E-03,  -56.0768E-03,   886.706E-06
C:/temp/dataset/6/29_16.odb,Step-1,Increment      1: Step Time =    1.000,"PART-1-1",           729,      -10.3652,   710.465E-03,            0.,NA,NA,"",   531.126E-03,  -527.931E-03,  -58.1699E-03,   2.06507E-03
C:/temp/dataset/6/29_16.odb,Step-1,Increment      1: Step Time =    1.000,"PART-1-1",           730,      -11.5756,       2.14983,            0.,NA,NA,"",   532.529E-03,  -528.960E-03,  -61.5455E-03,   1.11080E-03
C:/temp/dataset/6/29_16.odb,Step-1,Increment      1: Step Time =    1.000,"PART-1-1",           731,      -10.9514,      -7.70102,            0.,NA,NA,"",   522.768E-03,  -519.454E-03,  -58.7715E-03,   4.54490E-03
C:/temp/dataset/6/29_16.odb,Step-1,Increment      1: Step Time =    1.000,"PART-1-1",           732,      -11.1587,      -15.1039,            0.,NA,NA,"",   370.093E-03,  -361.523E-03,  -79.1843E-03,   12.5410E-03
C:/temp/dataset/6/29_16.odb,Step-1,Increment      1: Step Time =    1.000,"PART-1-1",           733,      -11.0422,      -12.5823,            0.,NA,NA,"",   450.001E-03,  -444.139E-03,  -72.4013E-03,   8.13052E-03
C:/temp/dataset/6/29_16.odb,Step-1,Increment      1: Step Time =    1.000,"PART-1-1",           734,      -9.98828,      -19.2456,            0.,NA,NA,"",   203.686E-03,  -198.284E-03,  -46.5980E-03,   14.1175E-03
C:/temp/dataset/6/29_16.odb,Step-1,Increment      1: Step Time =    1.000,"PART-1-1",           735,      -11.2222,      -17.6929,            0.,NA,NA,"",   272.112E-03,  -261.270E-03,  -76.0460E-03,   13.8477E-03
C:/temp/dataset/6/29_16.odb,Step-1,Increment      1: Step Time =    1.000,"PART-1-1",           736,      -9.72809,       26.4627,            0.,NA,NA,"",   560.935E-03,  -557.774E-03,  -59.4677E-03,   58.5325E-09
C:/temp/dataset/6/29_16.odb,Step-1,Increment      1: Step Time =    1.000,"PART-1-1",           737,      -8.07960,       10.7858,            0.,NA,NA,"",   540.420E-03,  -537.368E-03,  -57.3581E-03,   26.8173E-06
C:/temp/dataset/6/29_16.odb,Step-1,Increment      1: Step Time =    1.000,"PART-1-1",           738,      -11.3320,       18.4953,            0.,NA,NA,"",   550.841E-03,  -547.391E-03,  -61.5515E-03,   2.51875E-06
C:/temp/dataset/6/29_16.odb,Step-1,Increment      1: Step Time =    1.000,"PART-1-1",           739,      -10.4893,       6.32554,            0.,NA,NA,"",   535.199E-03,  -531.773E-03,  -60.4643E-03,   284.561E-06
C:/temp/dataset/6/29_16.odb,Step-1,Increment      1: Step Time =    1.000,"PART-1-1",           740,      -11.8356,       7.66802,            0.,NA,NA,"",   537.068E-03,  -533.446E-03,  -62.2624E-03,   55.6578E-06
C:/temp/dataset/6/29_16.odb,Step-1,Increment      1: Step Time =    1.000,"PART-1-1",           741,      -11.4125,       4.87054,            0.,NA,NA,"",   534.072E-03,  -530.508E-03,  -61.5914E-03,   399.591E-06
C:/temp/dataset/6/29_16.odb,Step-1,Increment      1: Step Time =    1.000,"PART-1-1",           742,       10.1911,      -5.79504,            0.,NA,NA,"",   418.007E-03,  -416.260E-03,   38.1769E-03,   3.18446E-03
C:/temp/dataset/6/29_16.odb,Step-1,Increment      1: Step Time =    1.000,"PART-1-1",           743,       9.10708,      -6.74300,            0.,NA,NA,"",   397.195E-03,  -396.679E-03,   20.2355E-03,   4.27356E-03
C:/temp/dataset/6/29_16.odb,Step-1,Increment      1: Step Time =    1.000,"PART-1-1",           744,       11.1638,      -4.94873,            0.,NA,NA,"",   435.057E-03,  -431.727E-03,   53.7264E-03,   2.01443E-03
C:/temp/dataset/6/29_16.odb,Step-1,Increment      1: Step Time =    1.000,"PART-1-1",           745,       10.4293,      -4.08570,            0.,NA,NA,"",   450.238E-03,  -448.419E-03,   40.4340E-03,   2.00220E-03
C:/temp/dataset/6/29_16.odb,Step-1,Increment      1: Step Time =    1.000,"PART-1-1",           746,       9.97038,      -14.8971,            0.,NA,NA,"",   199.143E-03,  -196.830E-03,   30.2609E-03,   4.55789E-03
C:/temp/dataset/6/29_16.odb,Step-1,Increment      1: Step Time =    1.000,"PART-1-1",           747,       9.96577,      -12.5508,            0.,NA,NA,"",   255.877E-03,  -253.845E-03,   32.1864E-03,   4.52163E-03
C:/temp/dataset/6/29_16.odb,Step-1,Increment      1: Step Time =    1.000,"PART-1-1",           748,       8.96159,      -13.7029,            0.,NA,NA,"",   225.213E-03,  -224.802E-03,   13.6125E-03,   4.42938E-03
C:/temp/dataset/6/29_16.odb,Step-1,Increment      1: Step Time =    1.000,"PART-1-1",           749,       6.92617,      -22.4012,            0.,NA,NA,"",   60.4735E-03,  -59.8044E-03,  -8.97134E-03,   3.07168E-03
C:/temp/dataset/6/29_16.odb,Step-1,Increment      1: Step Time =    1.000,"PART-1-1",           750,       5.94981,      -23.5281,            0.,NA,NA,"",   52.7507E-03,  -51.7916E-03,  -10.0136E-03,   5.31830E-03
C:/temp/dataset/6/29_16.odb,Step-1,Increment      1: Step Time =    1.000,"PART-1-1",           751,       7.18383,      -24.1705,            0.,NA,NA,"",   43.8635E-03,  -43.6636E-03,  -4.18325E-03,   3.64590E-03
C:/temp/dataset/6/29_16.odb,Step-1,Increment      1: Step Time =    1.000,"PART-1-1",           752,       11.0968,      -20.2176,            0.,NA,NA,"",   98.5170E-03,  -92.1365E-03,   34.8779E-03,   4.46973E-03
C:/temp/dataset/6/29_16.odb,Step-1,Increment      1: Step Time =    1.000,"PART-1-1",           753,       6.43355,      -20.8801,            0.,NA,NA,"",   76.0027E-03,  -74.3179E-03,  -15.9139E-03,   4.15275E-03
C:/temp/dataset/6/29_16.odb,Step-1,Increment      1: Step Time =    1.000,"PART-1-1",           754,       8.96045,      -11.3546,            0.,NA,NA,"",   283.452E-03,  -283.069E-03,   14.7304E-03,   4.48604E-03
C:/temp/dataset/6/29_16.odb,Step-1,Increment      1: Step Time =    1.000,"PART-1-1",           755,       8.17216,      -2.03287,            0.,NA,NA,"",   483.029E-03,  -483.018E-03,   3.20551E-03,   2.34070E-03
C:/temp/dataset/6/29_16.odb,Step-1,Increment      1: Step Time =    1.000,"PART-1-1",           756,       9.68046,      -2.49017,            0.,NA,NA,"",   475.640E-03,  -474.893E-03,   26.6528E-03,   2.11890E-03
C:/temp/dataset/6/29_16.odb,Step-1,Increment      1: Step Time =    1.000,"PART-1-1",           757,      -5.24373,       2.94722,            0.,NA,NA,"",   526.696E-03,  -524.034E-03,  -52.8798E-03,   1.26552E-03
C:/temp/dataset/6/29_16.odb,Step-1,Increment      1: Step Time =    1.000,"PART-1-1",           758,      -6.20341,       3.93450,            0.,NA,NA,"",   529.178E-03,  -526.409E-03,  -54.0568E-03,   1.00234E-03
C:/temp/dataset/6/29_16.odb,Step-1,Increment      1: Step Time =    1.000,"PART-1-1",           759,       7.87036,      -17.0650,            0.,NA,NA,"",   145.935E-03,  -145.889E-03,  -3.63466E-03,   4.67602E-03
C:/temp/dataset/6/29_16.odb,Step-1,Increment      1: Step Time =    1.000,"PART-1-1",           760,      -8.77165,      -4.61616,            0.,NA,NA,"",   527.781E-03,  -526.141E-03,  -41.5741E-03,   5.29677E-03
C:/temp/dataset/6/29_16.odb,Step-1,Increment      1: Step Time =    1.000,"PART-1-1",           761,       8.90402,      -15.9271,            0.,NA,NA,"",   172.472E-03,  -172.040E-03,   12.1934E-03,   4.60356E-03
C:/temp/dataset/6/29_16.odb,Step-1,Increment      1: Step Time =    1.000,"PART-1-1",           762,       7.94609,      -14.8939,            0.,NA,NA,"",   195.845E-03,  -195.797E-03,  -4.30924E-03,   3.81631E-03
C:/temp/dataset/6/29_16.odb,Step-1,Increment      1: Step Time =    1.000,"PART-1-1",           763,      -12.3095,       21.7291,            0.,NA,NA,"",   555.171E-03,  -551.605E-03,  -62.8262E-03,   174.103E-09
C:/temp/dataset/6/29_16.odb,Step-1,Increment      1: Step Time =    1.000,"PART-1-1",           764,      -12.2938,       19.6789,            0.,NA,NA,"",   552.514E-03,  -548.933E-03,  -62.8042E-03,   852.196E-09
C:/temp/dataset/6/29_16.odb,Step-1,Increment      1: Step Time =    1.000,"PART-1-1",           765,       3.72209,      -1.78065,            0.,NA,NA,"",   492.647E-03,  -490.819E-03,  -42.3956E-03,   3.89151E-03
C:/temp/dataset/6/29_16.odb,Step-1,Increment      1: Step Time =    1.000,"PART-1-1",           766,       6.45852,      -3.38063,            0.,NA,NA,"",   469.036E-03,  -468.524E-03,  -21.8996E-03,   3.87406E-03
C:/temp/dataset/6/29_16.odb,Step-1,Increment      1: Step Time =    1.000,"PART-1-1",           767,       4.93556,      -2.38177,            0.,NA,NA,"",   484.187E-03,  -482.811E-03,  -36.4698E-03,   3.76748E-03
C:/temp/dataset/6/29_16.odb,Step-1,Increment      1: Step Time =    1.000,"PART-1-1",           768,      -2.94024,   945.156E-03,            0.,NA,NA,"",   519.192E-03,  -516.569E-03,  -52.1187E-03,   2.93633E-03
C:/temp/dataset/6/29_16.odb,Step-1,Increment      1: Step Time =    1.000,"PART-1-1",           769,      -1.69279,      -25.0756,            0.,NA,NA,"",   54.3644E-03,  -53.2659E-03,   10.8735E-03,   9.83842E-03
C:/temp/dataset/6/29_16.odb,Step-1,Increment      1: Step Time =    1.000,"PART-1-1",           770,      -6.93923,      -23.9860,            0.,NA,NA,"",   64.3376E-03,  -63.5581E-03,   9.98505E-03,   5.44288E-03
C:/temp/dataset/6/29_16.odb,Step-1,Increment      1: Step Time =    1.000,"PART-1-1",           771,      -5.91970,      -22.6959,            0.,NA,NA,"",   87.0385E-03,  -84.3241E-03,   21.5675E-03,   8.26255E-03
C:/temp/dataset/6/29_16.odb,Step-1,Increment      1: Step Time =    1.000,"PART-1-1",           772,      -12.2208,       17.3915,            0.,NA,NA,"",   549.539E-03,  -545.949E-03,  -62.7085E-03,   3.19454E-06
C:/temp/dataset/6/29_16.odb,Step-1,Increment      1: Step Time =    1.000,"PART-1-1",           773,      -12.0398,       10.1961,            0.,NA,NA,"",   540.206E-03,  -536.577E-03,  -62.5085E-03,   23.6668E-06
C:/temp/dataset/6/29_16.odb,Step-1,Increment      1: Step Time =    1.000,"PART-1-1",           774,      -10.8637,      -2.91198,            0.,NA,NA,"",   532.185E-03,  -529.068E-03,  -57.5139E-03,   3.91785E-03
C:/temp/dataset/6/29_16.odb,Step-1,Increment      1: Step Time =    1.000,"PART-1-1",           775,      -9.61620,      -11.5179,            0.,NA,NA,"",   479.379E-03,  -477.270E-03,  -44.9094E-03,   6.65445E-03
C:/temp/dataset/6/29_16.odb,Step-1,Increment      1: Step Time =    1.000,"PART-1-1",           776,      -11.8201,      -24.5932,            0.,NA,NA,"",   75.6820E-03,  -63.4894E-03,  -41.1930E-03,   9.45144E-03
C:/temp/dataset/6/29_16.odb,Step-1,Increment      1: Step Time =    1.000,"PART-1-1",           777,      -11.0718,      -23.4296,            0.,NA,NA,"",   92.3210E-03,  -83.6161E-03,  -39.1346E-03,   8.40393E-03
C:/temp/dataset/6/29_16.odb,Step-1,Increment      1: Step Time =    1.000,"PART-1-1",           778,       4.75405,      -23.0816,            0.,NA,NA,"",   59.8671E-03,  -58.4749E-03,  -12.8358E-03,   6.78982E-03
C:/temp/dataset/6/29_16.odb,Step-1,Increment      1: Step Time =    1.000,"PART-1-1",           779,       5.55198,      -21.9930,            0.,NA,NA,"",   67.3984E-03,  -65.3584E-03,  -16.4565E-03,   6.06568E-03
C:/temp/dataset/6/29_16.odb,Step-1,Increment      1: Step Time =    1.000,"PART-1-1",           780,       7.01336,      -26.0950,            0.,NA,NA,"",   27.8810E-03,  -27.8185E-03,  -1.86517E-03,   4.50387E-03
C:/temp/dataset/6/29_16.odb,Step-1,Increment      1: Step Time =    1.000,"PART-1-1",           781,       4.10189,      -23.9882,            0.,NA,NA,"",   53.8350E-03,  -53.0233E-03,  -9.31345E-03,   7.38391E-03
C:/temp/dataset/6/29_16.odb,Step-1,Increment      1: Step Time =    1.000,"PART-1-1",           782,       4.14804,      -25.2051,            0.,NA,NA,"",   42.9363E-03,  -42.5114E-03,  -6.02553E-03,   7.12899E-03
C:/temp/dataset/6/29_16.odb,Step-1,Increment      1: Step Time =    1.000,"PART-1-1",           783,      -12.1264,       12.6156,            0.,NA,NA,"",   543.327E-03,  -539.709E-03,  -62.5986E-03,   19.2012E-06
C:/temp/dataset/6/29_16.odb,Step-1,Increment      1: Step Time =    1.000,"PART-1-1",           784,      -12.1709,       15.0185,            0.,NA,NA,"",   546.452E-03,  -542.849E-03,  -62.6462E-03,   9.06625E-06
C:/temp/dataset/6/29_16.odb,Step-1,Increment      1: Step Time =    1.000,"PART-1-1",           785,      -10.3060,       3.43341,            0.,NA,NA,"",   532.337E-03,  -528.996E-03,  -59.5451E-03,   951.117E-06
C:/temp/dataset/6/29_16.odb,Step-1,Increment      1: Step Time =    1.000,"PART-1-1",           786,      -9.35047,  -311.861E-03,            0.,NA,NA,"",   529.332E-03,  -526.547E-03,  -54.2300E-03,   2.67318E-03
C:/temp/dataset/6/29_16.odb,Step-1,Increment      1: Step Time =    1.000,"PART-1-1",           787,      -9.47746,      -1.56252,            0.,NA,NA,"",   529.469E-03,  -526.857E-03,  -52.5314E-03,   3.63298E-03
C:/temp/dataset/6/29_16.odb,Step-1,Increment      1: Step Time =    1.000,"PART-1-1",           788,      -7.56677,      -1.93629,            0.,NA,NA,"",   524.095E-03,  -522.112E-03,  -45.5453E-03,   4.23489E-03
C:/temp/dataset/6/29_16.odb,Step-1,Increment      1: Step Time =    1.000,"PART-1-1",           789,      -9.57637,      -3.06595,            0.,NA,NA,"",   529.819E-03,  -527.441E-03,  -50.1439E-03,   4.29634E-03
C:/temp/dataset/6/29_16.odb,Step-1,Increment      1: Step Time =    1.000,"PART-1-1",           790,      -8.24618,      -3.39128,            0.,NA,NA,"",   526.244E-03,  -524.511E-03,  -42.6754E-03,   5.30446E-03
C:/temp/dataset/6/29_16.odb,Step-1,Increment      1: Step Time =    1.000,"PART-1-1",           791,       7.98922,      -7.69035,            0.,NA,NA,"",   374.143E-03,  -374.142E-03,   401.457E-06,   5.15638E-03
C:/temp/dataset/6/29_16.odb,Step-1,Increment      1: Step Time =    1.000,"PART-1-1",           792,       7.96586,      -10.1263,            0.,NA,NA,"",   313.284E-03,  -313.269E-03,  -3.07282E-03,   4.06171E-03
C:/temp/dataset/6/29_16.odb,Step-1,Increment      1: Step Time =    1.000,"PART-1-1",           793,       7.95460,      -12.5381,            0.,NA,NA,"",   253.031E-03,  -252.987E-03,  -4.70619E-03,   3.55512E-03
C:/temp/dataset/6/29_16.odb,Step-1,Increment      1: Step Time =    1.000,"PART-1-1",           794,      -6.90534,       4.84567,            0.,NA,NA,"",   531.270E-03,  -528.385E-03,  -55.2946E-03,   753.785E-06
C:/temp/dataset/6/29_16.odb,Step-1,Increment      1: Step Time =    1.000,"PART-1-1",           795,      -7.09219,       3.25090,            0.,NA,NA,"",   528.989E-03,  -526.166E-03,  -54.5811E-03,   1.09455E-03
C:/temp/dataset/6/29_16.odb,Step-1,Increment      1: Step Time =    1.000,"PART-1-1",           796,      -5.99438,      -2.38990,            0.,NA,NA,"",   518.199E-03,  -516.482E-03,  -42.1528E-03,   5.29178E-03
C:/temp/dataset/6/29_16.odb,Step-1,Increment      1: Step Time =    1.000,"PART-1-1",           797,      -8.16339,       2.56404,            0.,NA,NA,"",   529.394E-03,  -526.487E-03,  -55.3987E-03,   1.43355E-03
C:/temp/dataset/6/29_16.odb,Step-1,Increment      1: Step Time =    1.000,"PART-1-1",           798,      -6.16245,       1.98671,            0.,NA,NA,"",   525.865E-03,  -523.230E-03,  -52.5755E-03,   1.72345E-03
C:/temp/dataset/6/29_16.odb,Step-1,Increment      1: Step Time =    1.000,"PART-1-1",           799,      -9.36160,       1.80674,            0.,NA,NA,"",   530.285E-03,  -527.236E-03,  -56.7854E-03,   1.54906E-03
C:/temp/dataset/6/29_16.odb,Step-1,Increment      1: Step Time =    1.000,"PART-1-1",           800,      -4.18828,       1.89018,            0.,NA,NA,"",   523.390E-03,  -520.775E-03,  -52.2539E-03,   2.22247E-03
C:/temp/dataset/6/29_16.odb,Step-1,Increment      1: Step Time =    1.000,"PART-1-1",           801,      -2.02478,       2.01876,            0.,NA,NA,"",   522.388E-03,  -519.686E-03,  -53.0579E-03,   2.51787E-03
C:/temp/dataset/6/29_16.odb,Step-1,Increment      1: Step Time =    1.000,"PART-1-1",           802,       5.29765,      -24.4346,            0.,NA,NA,"",   46.6289E-03,  -45.8758E-03,  -8.34650E-03,   6.13958E-03
C:/temp/dataset/6/29_16.odb,Step-1,Increment      1: Step Time =    1.000,"PART-1-1",           803,       8.18651,      -25.0309,            0.,NA,NA,"",   34.7858E-03,  -34.7696E-03,   1.06002E-03,   2.88999E-03
C:/temp/dataset/6/29_16.odb,Step-1,Increment      1: Step Time =    1.000,"PART-1-1",           804,       6.01068,      -25.2345,            0.,NA,NA,"",   37.6171E-03,  -37.2281E-03,  -5.39619E-03,   5.36927E-03
