ODB Name,Step,Frame,Part Instance Name,    êﬂì_ÉâÉxÉã,X,Y,Z,Section Name,Material Name,Section Point,   U-Magnitude,          U-U1,          U-U2,       S-Mises
C:/temp/dataset/6/31_2.odb,Step-1,Increment      1: Step Time =    1.000,"PART-1-1",             1,            5.,           -5.,            0.,NA,NA,"",   2.11075E-03,   2.08538E-03,  -326.280E-06,   138.491E-06
C:/temp/dataset/6/31_2.odb,Step-1,Increment      1: Step Time =    1.000,"PART-1-1",             2,            0.,           -5.,            0.,NA,NA,"",   2.54300E-03,   2.38350E-03,  -886.452E-06,   32.1224E-06
C:/temp/dataset/6/31_2.odb,Step-1,Increment      1: Step Time =    1.000,"PART-1-1",             3,            5.,      -10.0250,            0.,NA,NA,"",   1.51597E-03,   1.51441E-03,  -68.8410E-06,   23.8365E-06
C:/temp/dataset/6/31_2.odb,Step-1,Increment      1: Step Time =    1.000,"PART-1-1",             4,            5.,      -15.0500,            0.,NA,NA,"",   1.02282E-03,   1.02209E-03,  -38.7657E-06,   11.1451E-06
C:/temp/dataset/6/31_2.odb,Step-1,Increment      1: Step Time =    1.000,"PART-1-1",             5,            5.,          -20.,            0.,NA,NA,"",   447.979E-06,   290.481E-06,  -341.037E-06,   349.227E-06
C:/temp/dataset/6/31_2.odb,Step-1,Increment      1: Step Time =    1.000,"PART-1-1",             6,            0.,          -20.,            0.,NA,NA,"",   6.78327E-03,  -1.37804E-03,  -6.64181E-03,   1.09688E-03
C:/temp/dataset/6/31_2.odb,Step-1,Increment      1: Step Time =    1.000,"PART-1-1",             7,           -5.,          -20.,            0.,NA,NA,"",   5.51238E-03,   144.868E-06,  -5.51047E-03,   1.24630E-03
C:/temp/dataset/6/31_2.odb,Step-1,Increment      1: Step Time =    1.000,"PART-1-1",             8,           -5.,      -14.9750,            0.,NA,NA,"",   3.38434E-03,   1.54184E-03,  -3.01272E-03,   201.440E-06
C:/temp/dataset/6/31_2.odb,Step-1,Increment      1: Step Time =    1.000,"PART-1-1",             9,           -5.,      -9.95000,            0.,NA,NA,"",   3.15102E-03,   2.25272E-03,  -2.20322E-03,   148.600E-06
C:/temp/dataset/6/31_2.odb,Step-1,Increment      1: Step Time =    1.000,"PART-1-1",            10,           -5.,           -5.,            0.,NA,NA,"",   2.90582E-03,   2.46170E-03,  -1.54396E-03,   119.100E-06
C:/temp/dataset/6/31_2.odb,Step-1,Increment      1: Step Time =    1.000,"PART-1-1",            11,           15.,          -30.,            0.,NA,NA,"",            0.,   68.2306E-42,  -109.720E-42,   218.463E-06
C:/temp/dataset/6/31_2.odb,Step-1,Increment      1: Step Time =    1.000,"PART-1-1",            12,          -15.,          -30.,            0.,NA,NA,"",            0.,  -165.427E-42,  -244.923E-42,   481.922E-06
C:/temp/dataset/6/31_2.odb,Step-1,Increment      1: Step Time =    1.000,"PART-1-1",            13,           15.,        -21.25,            0.,NA,NA,"",   894.825E-06,   835.932E-06,  -319.266E-06,   33.9864E-06
C:/temp/dataset/6/31_2.odb,Step-1,Increment      1: Step Time =    1.000,"PART-1-1",            14,           15.,         -12.5,            0.,NA,NA,"",   1.49112E-03,   1.33327E-03,  -667.701E-06,   20.8890E-06
C:/temp/dataset/6/31_2.odb,Step-1,Increment      1: Step Time =    1.000,"PART-1-1",            15,           15.,         -3.75,            0.,NA,NA,"",   2.04358E-03,   1.96442E-03,  -563.279E-06,   32.0721E-06
C:/temp/dataset/6/31_2.odb,Step-1,Increment      1: Step Time =    1.000,"PART-1-1",            16,           15.,            5.,            0.,NA,NA,"",   2.05889E-03,   2.00955E-03,  -448.036E-06,   1.06428E-06
C:/temp/dataset/6/31_2.odb,Step-1,Increment      1: Step Time =    1.000,"PART-1-1",            17,           10.,            5.,            0.,NA,NA,"",   2.02825E-03,   1.98435E-03,  -419.712E-06,   17.7126E-06
C:/temp/dataset/6/31_2.odb,Step-1,Increment      1: Step Time =    1.000,"PART-1-1",            18,            5.,            5.,            0.,NA,NA,"",   1.92101E-03,   1.85558E-03,  -497.106E-06,   32.9211E-06
C:/temp/dataset/6/31_2.odb,Step-1,Increment      1: Step Time =    1.000,"PART-1-1",            19,            0.,            5.,            0.,NA,NA,"",   1.94662E-03,   1.75896E-03,  -833.880E-06,   4.21188E-06
C:/temp/dataset/6/31_2.odb,Step-1,Increment      1: Step Time =    1.000,"PART-1-1",            20,           -5.,            5.,            0.,NA,NA,"",   2.23887E-03,   1.85006E-03,  -1.26089E-03,   34.2031E-06
C:/temp/dataset/6/31_2.odb,Step-1,Increment      1: Step Time =    1.000,"PART-1-1",            21,           -5.,         11.25,            0.,NA,NA,"",   2.04444E-03,   1.61345E-03,  -1.25559E-03,   928.892E-09
C:/temp/dataset/6/31_2.odb,Step-1,Increment      1: Step Time =    1.000,"PART-1-1",            22,           -5.,          17.5,            0.,NA,NA,"",   1.81777E-03,   1.31611E-03,  -1.25384E-03,   31.1853E-09
C:/temp/dataset/6/31_2.odb,Step-1,Increment      1: Step Time =    1.000,"PART-1-1",            23,           -5.,         23.75,            0.,NA,NA,"",   1.61547E-03,   1.01863E-03,  -1.25385E-03,   3.81705E-09
C:/temp/dataset/6/31_2.odb,Step-1,Increment      1: Step Time =    1.000,"PART-1-1",            24,           -5.,           30.,            0.,NA,NA,"",   1.44651E-03,   721.270E-06,  -1.25386E-03,   90.0926E-12
C:/temp/dataset/6/31_2.odb,Step-1,Increment      1: Step Time =    1.000,"PART-1-1",            25,          -10.,           30.,            0.,NA,NA,"",   1.65697E-03,   721.278E-06,  -1.49175E-03,   1.04426E-09
C:/temp/dataset/6/31_2.odb,Step-1,Increment      1: Step Time =    1.000,"PART-1-1",            26,          -15.,           30.,            0.,NA,NA,"",   1.87399E-03,   721.286E-06,  -1.72963E-03,   115.090E-12
C:/temp/dataset/6/31_2.odb,Step-1,Increment      1: Step Time =    1.000,"PART-1-1",            27,          -15.,          22.5,            0.,NA,NA,"",   2.03810E-03,   1.07810E-03,  -1.72960E-03,   5.24141E-09
C:/temp/dataset/6/31_2.odb,Step-1,Increment      1: Step Time =    1.000,"PART-1-1",            28,          -15.,           15.,            0.,NA,NA,"",   2.24729E-03,   1.43463E-03,  -1.72978E-03,   150.764E-09
C:/temp/dataset/6/31_2.odb,Step-1,Increment      1: Step Time =    1.000,"PART-1-1",            29,          -15.,           7.5,            0.,NA,NA,"",   2.49854E-03,   1.79743E-03,  -1.73549E-03,   1.50338E-06
C:/temp/dataset/6/31_2.odb,Step-1,Increment      1: Step Time =    1.000,"PART-1-1",            30,          -15.,            0.,            0.,NA,NA,"",   2.79780E-03,   2.22637E-03,  -1.69439E-03,   24.7411E-06
C:/temp/dataset/6/31_2.odb,Step-1,Increment      1: Step Time =    1.000,"PART-1-1",            31,          -15.,          -7.5,            0.,NA,NA,"",   2.74523E-03,   2.43582E-03,  -1.26612E-03,   105.505E-06
C:/temp/dataset/6/31_2.odb,Step-1,Increment      1: Step Time =    1.000,"PART-1-1",            32,          -15.,          -15.,            0.,NA,NA,"",   1.45895E-03,   1.41849E-03,  -341.199E-06,   149.336E-06
C:/temp/dataset/6/31_2.odb,Step-1,Increment      1: Step Time =    1.000,"PART-1-1",            33,          -15.,         -22.5,            0.,NA,NA,"",   1.05603E-03,  -1.05595E-03,   12.4199E-06,   90.6187E-06
C:/temp/dataset/6/31_2.odb,Step-1,Increment      1: Step Time =    1.000,"PART-1-1",            34,           2.5,           -5.,            0.,NA,NA,"",   2.38229E-03,   2.29487E-03,  -639.425E-06,   56.0600E-06
C:/temp/dataset/6/31_2.odb,Step-1,Increment      1: Step Time =    1.000,"PART-1-1",            35,            5.,      -7.51250,            0.,NA,NA,"",   1.77667E-03,   1.77123E-03,  -138.882E-06,   59.4801E-06
C:/temp/dataset/6/31_2.odb,Step-1,Increment      1: Step Time =    1.000,"PART-1-1",            36,            5.,      -12.5375,            0.,NA,NA,"",   1.26838E-03,   1.26795E-03,  -32.9303E-06,   6.57202E-06
C:/temp/dataset/6/31_2.odb,Step-1,Increment      1: Step Time =    1.000,"PART-1-1",            37,            5.,      -17.5250,            0.,NA,NA,"",   767.622E-06,   763.389E-06,  -80.4992E-06,   72.7486E-06
C:/temp/dataset/6/31_2.odb,Step-1,Increment      1: Step Time =    1.000,"PART-1-1",            38,           2.5,          -20.,            0.,NA,NA,"",   2.06108E-03,  -521.691E-06,  -1.99396E-03,   507.675E-06
C:/temp/dataset/6/31_2.odb,Step-1,Increment      1: Step Time =    1.000,"PART-1-1",            39,          -2.5,          -20.,            0.,NA,NA,"",   10.0116E-03,  -281.749E-06,  -10.0076E-03,   2.24719E-03
C:/temp/dataset/6/31_2.odb,Step-1,Increment      1: Step Time =    1.000,"PART-1-1",            40,           -5.,      -17.4875,            0.,NA,NA,"",   3.64326E-03,   1.06036E-03,  -3.48553E-03,   433.854E-06
C:/temp/dataset/6/31_2.odb,Step-1,Increment      1: Step Time =    1.000,"PART-1-1",            41,           -5.,      -12.4625,            0.,NA,NA,"",   3.22935E-03,   1.96344E-03,  -2.56391E-03,   177.957E-06
C:/temp/dataset/6/31_2.odb,Step-1,Increment      1: Step Time =    1.000,"PART-1-1",            42,           -5.,      -7.47500,            0.,NA,NA,"",   3.06232E-03,   2.40839E-03,  -1.89142E-03,   138.023E-06
C:/temp/dataset/6/31_2.odb,Step-1,Increment      1: Step Time =    1.000,"PART-1-1",            43,          -2.5,           -5.,            0.,NA,NA,"",   2.70997E-03,   2.45110E-03,  -1.15588E-03,   36.2705E-06
C:/temp/dataset/6/31_2.odb,Step-1,Increment      1: Step Time =    1.000,"PART-1-1",            44,          12.5,          -30.,            0.,NA,NA,"",            0.,   106.332E-42,  -82.9569E-42,   110.506E-06
C:/temp/dataset/6/31_2.odb,Step-1,Increment      1: Step Time =    1.000,"PART-1-1",            45,           10.,          -30.,            0.,NA,NA,"",            0.,   94.3102E-42,  -41.4420E-42,   166.320E-06
C:/temp/dataset/6/31_2.odb,Step-1,Increment      1: Step Time =    1.000,"PART-1-1",            46,           7.5,          -30.,            0.,NA,NA,"",            0.,   135.978E-42,  -91.0592E-42,   245.246E-06
C:/temp/dataset/6/31_2.odb,Step-1,Increment      1: Step Time =    1.000,"PART-1-1",            47,            5.,          -30.,            0.,NA,NA,"",            0.,   270.952E-42,  -350.092E-42,   366.314E-06
C:/temp/dataset/6/31_2.odb,Step-1,Increment      1: Step Time =    1.000,"PART-1-1",            48,           2.5,          -30.,            0.,NA,NA,"",            0.,   321.329E-42,  -603.164E-42,   502.223E-06
C:/temp/dataset/6/31_2.odb,Step-1,Increment      1: Step Time =    1.000,"PART-1-1",            49,            0.,          -30.,            0.,NA,NA,"",            0.,   41.2458E-42,  -681.988E-42,   597.599E-06
C:/temp/dataset/6/31_2.odb,Step-1,Increment      1: Step Time =    1.000,"PART-1-1",            50,          -2.5,          -30.,            0.,NA,NA,"",            0.,   140.383E-42,  -914.867E-42,   625.565E-06
C:/temp/dataset/6/31_2.odb,Step-1,Increment      1: Step Time =    1.000,"PART-1-1",            51,           -5.,          -30.,            0.,NA,NA,"",            0.,  -55.1873E-42,  -767.407E-42,   613.841E-06
C:/temp/dataset/6/31_2.odb,Step-1,Increment      1: Step Time =    1.000,"PART-1-1",            52,          -7.5,          -30.,            0.,NA,NA,"",            0.,  -177.393E-42,  -503.034E-42,   535.639E-06
C:/temp/dataset/6/31_2.odb,Step-1,Increment      1: Step Time =    1.000,"PART-1-1",            53,          -10.,          -30.,            0.,NA,NA,"",            0.,  -335.416E-42,  -438.877E-42,   441.764E-06
C:/temp/dataset/6/31_2.odb,Step-1,Increment      1: Step Time =    1.000,"PART-1-1",            54,         -12.5,          -30.,            0.,NA,NA,"",            0.,  -271.275E-42,  -98.3151E-42,   316.827E-06
C:/temp/dataset/6/31_2.odb,Step-1,Increment      1: Step Time =    1.000,"PART-1-1",            55,           15.,      -23.4375,            0.,NA,NA,"",   835.832E-06,   788.450E-06,  -277.421E-06,   11.1058E-06
C:/temp/dataset/6/31_2.odb,Step-1,Increment      1: Step Time =    1.000,"PART-1-1",            56,           15.,       -25.625,            0.,NA,NA,"",   720.011E-06,   665.986E-06,  -273.639E-06,   5.16992E-06
C:/temp/dataset/6/31_2.odb,Step-1,Increment      1: Step Time =    1.000,"PART-1-1",            57,           15.,      -27.8125,            0.,NA,NA,"",   477.574E-06,   407.830E-06,  -248.500E-06,   63.0639E-06
C:/temp/dataset/6/31_2.odb,Step-1,Increment      1: Step Time =    1.000,"PART-1-1",            58,           15.,      -14.6875,            0.,NA,NA,"",   1.29460E-03,   1.14308E-03,  -607.746E-06,   39.6250E-06
C:/temp/dataset/6/31_2.odb,Step-1,Increment      1: Step Time =    1.000,"PART-1-1",            59,           15.,       -16.875,            0.,NA,NA,"",   1.11383E-03,   987.667E-06,  -514.908E-06,   52.7934E-06
C:/temp/dataset/6/31_2.odb,Step-1,Increment      1: Step Time =    1.000,"PART-1-1",            60,           15.,      -19.0625,            0.,NA,NA,"",   976.080E-06,   886.828E-06,  -407.760E-06,   52.3789E-06
C:/temp/dataset/6/31_2.odb,Step-1,Increment      1: Step Time =    1.000,"PART-1-1",            61,           15.,       -5.9375,            0.,NA,NA,"",   1.96978E-03,   1.86772E-03,  -625.828E-06,   29.0717E-06
C:/temp/dataset/6/31_2.odb,Step-1,Increment      1: Step Time =    1.000,"PART-1-1",            62,           15.,        -8.125,            0.,NA,NA,"",   1.84591E-03,   1.71896E-03,  -672.715E-06,   16.8741E-06
C:/temp/dataset/6/31_2.odb,Step-1,Increment      1: Step Time =    1.000,"PART-1-1",            63,           15.,      -10.3125,            0.,NA,NA,"",   1.68105E-03,   1.53335E-03,  -689.047E-06,   1.58239E-06
C:/temp/dataset/6/31_2.odb,Step-1,Increment      1: Step Time =    1.000,"PART-1-1",            64,           15.,        2.8125,            0.,NA,NA,"",   2.05825E-03,   2.00874E-03,  -448.746E-06,   3.21739E-06
C:/temp/dataset/6/31_2.odb,Step-1,Increment      1: Step Time =    1.000,"PART-1-1",            65,           15.,      625.E-03,            0.,NA,NA,"",   2.06807E-03,   2.01525E-03,  -464.422E-06,   14.0942E-06
C:/temp/dataset/6/31_2.odb,Step-1,Increment      1: Step Time =    1.000,"PART-1-1",            66,           15.,       -1.5625,            0.,NA,NA,"",   2.07083E-03,   2.00849E-03,  -504.280E-06,   25.8193E-06
C:/temp/dataset/6/31_2.odb,Step-1,Increment      1: Step Time =    1.000,"PART-1-1",            67,          12.5,            5.,            0.,NA,NA,"",   2.05513E-03,   2.00810E-03,  -437.132E-06,   4.15927E-06
C:/temp/dataset/6/31_2.odb,Step-1,Increment      1: Step Time =    1.000,"PART-1-1",            68,           7.5,            5.,            0.,NA,NA,"",   1.97627E-03,   1.92923E-03,  -428.623E-06,   30.2563E-06
C:/temp/dataset/6/31_2.odb,Step-1,Increment      1: Step Time =    1.000,"PART-1-1",            69,           2.5,            5.,            0.,NA,NA,"",   1.90048E-03,   1.79036E-03,  -637.529E-06,   22.2346E-06
C:/temp/dataset/6/31_2.odb,Step-1,Increment      1: Step Time =    1.000,"PART-1-1",            70,          -2.5,            5.,            0.,NA,NA,"",   2.06355E-03,   1.77412E-03,  -1.05391E-03,   18.7165E-06
C:/temp/dataset/6/31_2.odb,Step-1,Increment      1: Step Time =    1.000,"PART-1-1",            71,           -5.,       9.16667,            0.,NA,NA,"",   2.12322E-03,   1.71018E-03,  -1.25831E-03,   2.22025E-06
C:/temp/dataset/6/31_2.odb,Step-1,Increment      1: Step Time =    1.000,"PART-1-1",            72,           -5.,       7.08333,            0.,NA,NA,"",   2.19845E-03,   1.79852E-03,  -1.26432E-03,   8.81543E-06
C:/temp/dataset/6/31_2.odb,Step-1,Increment      1: Step Time =    1.000,"PART-1-1",            73,           -5.,       15.4167,            0.,NA,NA,"",   1.89095E-03,   1.41538E-03,  -1.25396E-03,   126.829E-09
C:/temp/dataset/6/31_2.odb,Step-1,Increment      1: Step Time =    1.000,"PART-1-1",            74,           -5.,       13.3333,            0.,NA,NA,"",   1.96662E-03,   1.51461E-03,  -1.25441E-03,   402.844E-09
C:/temp/dataset/6/31_2.odb,Step-1,Increment      1: Step Time =    1.000,"PART-1-1",            75,           -5.,       21.6667,            0.,NA,NA,"",   1.67973E-03,   1.11776E-03,  -1.25383E-03,   6.11301E-09
C:/temp/dataset/6/31_2.odb,Step-1,Increment      1: Step Time =    1.000,"PART-1-1",            76,           -5.,       19.5833,            0.,NA,NA,"",   1.74727E-03,   1.21691E-03,  -1.25382E-03,   3.64103E-09
C:/temp/dataset/6/31_2.odb,Step-1,Increment      1: Step Time =    1.000,"PART-1-1",            77,           -5.,       27.9167,            0.,NA,NA,"",   1.49840E-03,   820.389E-06,  -1.25386E-03,   419.841E-12
C:/temp/dataset/6/31_2.odb,Step-1,Increment      1: Step Time =    1.000,"PART-1-1",            78,           -5.,       25.8333,            0.,NA,NA,"",   1.55488E-03,   919.508E-06,  -1.25385E-03,   1.72293E-09
C:/temp/dataset/6/31_2.odb,Step-1,Increment      1: Step Time =    1.000,"PART-1-1",            79,          -7.5,           30.,            0.,NA,NA,"",   1.55075E-03,   721.273E-06,  -1.37280E-03,   486.429E-12
C:/temp/dataset/6/31_2.odb,Step-1,Increment      1: Step Time =    1.000,"PART-1-1",            80,         -12.5,           30.,            0.,NA,NA,"",   1.76481E-03,   721.283E-06,  -1.61069E-03,   464.687E-12
C:/temp/dataset/6/31_2.odb,Step-1,Increment      1: Step Time =    1.000,"PART-1-1",            81,          -15.,           25.,            0.,NA,NA,"",   1.97777E-03,   959.167E-06,  -1.72962E-03,   2.50989E-09
C:/temp/dataset/6/31_2.odb,Step-1,Increment      1: Step Time =    1.000,"PART-1-1",            82,          -15.,          27.5,            0.,NA,NA,"",   1.92291E-03,   840.227E-06,  -1.72962E-03,   593.104E-12
C:/temp/dataset/6/31_2.odb,Step-1,Increment      1: Step Time =    1.000,"PART-1-1",            83,          -15.,          17.5,            0.,NA,NA,"",   2.17325E-03,   1.31586E-03,  -1.72961E-03,   24.5730E-09
C:/temp/dataset/6/31_2.odb,Step-1,Increment      1: Step Time =    1.000,"PART-1-1",            84,          -15.,           20.,            0.,NA,NA,"",   2.10341E-03,   1.19701E-03,  -1.72959E-03,   3.94461E-09
C:/temp/dataset/6/31_2.odb,Step-1,Increment      1: Step Time =    1.000,"PART-1-1",            85,          -15.,           10.,            0.,NA,NA,"",   2.40859E-03,   1.67348E-03,  -1.73227E-03,   1.19303E-06
C:/temp/dataset/6/31_2.odb,Step-1,Increment      1: Step Time =    1.000,"PART-1-1",            86,          -15.,          12.5,            0.,NA,NA,"",   2.32549E-03,   1.55352E-03,  -1.73045E-03,   501.446E-09
C:/temp/dataset/6/31_2.odb,Step-1,Increment      1: Step Time =    1.000,"PART-1-1",            87,          -15.,           2.5,            0.,NA,NA,"",   2.70133E-03,   2.07522E-03,  -1.72934E-03,   8.76254E-06
C:/temp/dataset/6/31_2.odb,Step-1,Increment      1: Step Time =    1.000,"PART-1-1",            88,          -15.,            5.,            0.,NA,NA,"",   2.59706E-03,   1.93024E-03,  -1.73750E-03,   851.618E-09
C:/temp/dataset/6/31_2.odb,Step-1,Increment      1: Step Time =    1.000,"PART-1-1",            89,          -15.,           -5.,            0.,NA,NA,"",   2.85595E-03,   2.44760E-03,  -1.47164E-03,   77.3637E-06
C:/temp/dataset/6/31_2.odb,Step-1,Increment      1: Step Time =    1.000,"PART-1-1",            90,          -15.,          -2.5,            0.,NA,NA,"",   2.86146E-03,   2.36295E-03,  -1.61381E-03,   48.6321E-06
C:/temp/dataset/6/31_2.odb,Step-1,Increment      1: Step Time =    1.000,"PART-1-1",            91,          -15.,         -12.5,            0.,NA,NA,"",   2.07450E-03,   1.95851E-03,  -683.950E-06,   149.598E-06
C:/temp/dataset/6/31_2.odb,Step-1,Increment      1: Step Time =    1.000,"PART-1-1",            92,          -15.,          -10.,            0.,NA,NA,"",   2.49391E-03,   2.28488E-03,  -999.450E-06,   129.744E-06
C:/temp/dataset/6/31_2.odb,Step-1,Increment      1: Step Time =    1.000,"PART-1-1",            93,          -15.,          -20.,            0.,NA,NA,"",   286.069E-06,  -264.400E-06,   109.216E-06,   16.0628E-06
C:/temp/dataset/6/31_2.odb,Step-1,Increment      1: Step Time =    1.000,"PART-1-1",            94,          -15.,         -17.5,            0.,NA,NA,"",   648.279E-06,   647.268E-06,  -36.1890E-06,   106.743E-06
C:/temp/dataset/6/31_2.odb,Step-1,Increment      1: Step Time =    1.000,"PART-1-1",            95,          -15.,         -27.5,            0.,NA,NA,"",   1.13419E-03,  -1.03642E-03,  -460.670E-06,   44.5023E-06
C:/temp/dataset/6/31_2.odb,Step-1,Increment      1: Step Time =    1.000,"PART-1-1",            96,          -15.,          -25.,            0.,NA,NA,"",   1.41000E-03,  -1.38714E-03,  -252.871E-06,   130.173E-06
C:/temp/dataset/6/31_2.odb,Step-1,Increment      1: Step Time =    1.000,"PART-1-1",            97,       13.0047,      -3.80353,            0.,NA,NA,"",   2.04658E-03,   1.98480E-03,  -499.088E-06,   15.3217E-06
C:/temp/dataset/6/31_2.odb,Step-1,Increment      1: Step Time =    1.000,"PART-1-1",            98,       6.97971,      -7.55833,            0.,NA,NA,"",   1.80206E-03,   1.77960E-03,  -283.650E-06,   55.9791E-06
C:/temp/dataset/6/31_2.odb,Step-1,Increment      1: Step Time =    1.000,"PART-1-1",            99,       6.96639,      -10.0829,            0.,NA,NA,"",   1.54290E-03,   1.52572E-03,  -229.608E-06,   33.0083E-06
C:/temp/dataset/6/31_2.odb,Step-1,Increment      1: Step Time =    1.000,"PART-1-1",           100,       12.9900,      -12.5465,            0.,NA,NA,"",   1.41008E-03,   1.31155E-03,  -517.835E-06,   30.4460E-06
C:/temp/dataset/6/31_2.odb,Step-1,Increment      1: Step Time =    1.000,"PART-1-1",           101,       6.90028,      -17.1420,            0.,NA,NA,"",   833.700E-06,   810.548E-06,  -195.110E-06,   68.7240E-06
C:/temp/dataset/6/31_2.odb,Step-1,Increment      1: Step Time =    1.000,"PART-1-1",           102,       7.03871,      -19.0570,            0.,NA,NA,"",   651.672E-06,   618.621E-06,  -204.901E-06,   95.1580E-06
C:/temp/dataset/6/31_2.odb,Step-1,Increment      1: Step Time =    1.000,"PART-1-1",           103,       5.31709,      -21.2647,            0.,NA,NA,"",   604.625E-06,   539.025E-06,  -273.903E-06,   83.4928E-06
C:/temp/dataset/6/31_2.odb,Step-1,Increment      1: Step Time =    1.000,"PART-1-1",           104,      -4.83361,      -22.6144,            0.,NA,NA,"",   5.00935E-03,  -1.39278E-03,  -4.81184E-03,   1.22331E-03
C:/temp/dataset/6/31_2.odb,Step-1,Increment      1: Step Time =    1.000,"PART-1-1",           105,      -7.46484,      -17.6587,            0.,NA,NA,"",   2.64379E-03,   1.06036E-03,  -2.42183E-03,   304.314E-06
C:/temp/dataset/6/31_2.odb,Step-1,Increment      1: Step Time =    1.000,"PART-1-1",           106,      -12.5283,      -27.3245,            0.,NA,NA,"",   1.13483E-03,  -1.10476E-03,  -259.519E-06,   271.535E-06
C:/temp/dataset/6/31_2.odb,Step-1,Increment      1: Step Time =    1.000,"PART-1-1",           107,      -12.4870,      -17.6221,            0.,NA,NA,"",   1.04623E-03,   715.235E-06,  -763.573E-06,   117.967E-06
C:/temp/dataset/6/31_2.odb,Step-1,Increment      1: Step Time =    1.000,"PART-1-1",           108,      -7.32043,      -12.6401,            0.,NA,NA,"",   3.01305E-03,   2.07767E-03,  -2.18215E-03,   103.776E-06
C:/temp/dataset/6/31_2.odb,Step-1,Increment      1: Step Time =    1.000,"PART-1-1",           109,      -7.14644,      -8.03697,            0.,NA,NA,"",   3.08863E-03,   2.48311E-03,  -1.83679E-03,   85.0762E-06
C:/temp/dataset/6/31_2.odb,Step-1,Increment      1: Step Time =    1.000,"PART-1-1",           110,      -12.6601,       4.88622,            0.,NA,NA,"",   2.52351E-03,   1.93691E-03,  -1.61755E-03,   6.68556E-06
C:/temp/dataset/6/31_2.odb,Step-1,Increment      1: Step Time =    1.000,"PART-1-1",           111,      -13.0978,       12.5399,            0.,NA,NA,"",   2.25696E-03,   1.55140E-03,  -1.63922E-03,   420.024E-09
C:/temp/dataset/6/31_2.odb,Step-1,Increment      1: Step Time =    1.000,"PART-1-1",           112,      -6.45576,       21.8628,            0.,NA,NA,"",   1.72604E-03,   1.10842E-03,  -1.32311E-03,   1.07782E-09
C:/temp/dataset/6/31_2.odb,Step-1,Increment      1: Step Time =    1.000,"PART-1-1",           113,      -7.28884,       25.7044,            0.,NA,NA,"",   1.64740E-03,   925.645E-06,  -1.36275E-03,   1.64507E-09
C:/temp/dataset/6/31_2.odb,Step-1,Increment      1: Step Time =    1.000,"PART-1-1",           114,      -9.90518,       27.6474,            0.,NA,NA,"",   1.70473E-03,   833.208E-06,  -1.48723E-03,   871.475E-12
C:/temp/dataset/6/31_2.odb,Step-1,Increment      1: Step Time =    1.000,"PART-1-1",           115,      -3.01211,      -3.13168,            0.,NA,NA,"",   2.56536E-03,   2.27529E-03,  -1.18495E-03,   38.6292E-06
C:/temp/dataset/6/31_2.odb,Step-1,Increment      1: Step Time =    1.000,"PART-1-1",           116,      -2.19169,       3.00836,            0.,NA,NA,"",   2.17564E-03,   1.91241E-03,  -1.03735E-03,   27.3284E-06
C:/temp/dataset/6/31_2.odb,Step-1,Increment      1: Step Time =    1.000,"PART-1-1",           117,       1.85193,      -2.77696,            0.,NA,NA,"",   2.26171E-03,   2.15881E-03,  -674.412E-06,   50.3115E-06
C:/temp/dataset/6/31_2.odb,Step-1,Increment      1: Step Time =    1.000,"PART-1-1",           118,       2.83229,       2.22691,            0.,NA,NA,"",   2.03142E-03,   1.94245E-03,  -594.611E-06,   21.8966E-06
C:/temp/dataset/6/31_2.odb,Step-1,Increment      1: Step Time =    1.000,"PART-1-1",           119,       7.74921,       3.07964,            0.,NA,NA,"",   2.01073E-03,   1.96931E-03,  -406.007E-06,   17.2010E-06
C:/temp/dataset/6/31_2.odb,Step-1,Increment      1: Step Time =    1.000,"PART-1-1",           120,      -2.47342,      -22.6017,            0.,NA,NA,"",   6.67450E-03,  -208.299E-06,  -6.67124E-03,   1.78056E-03
C:/temp/dataset/6/31_2.odb,Step-1,Increment      1: Step Time =    1.000,"PART-1-1",           121,      -7.48266,       20.3798,            0.,NA,NA,"",   1.80896E-03,   1.17900E-03,  -1.37197E-03,   11.6268E-09
C:/temp/dataset/6/31_2.odb,Step-1,Increment      1: Step Time =    1.000,"PART-1-1",           122,      -7.10993,       13.1351,            0.,NA,NA,"",   2.03888E-03,   1.52421E-03,  -1.35419E-03,   394.077E-09
C:/temp/dataset/6/31_2.odb,Step-1,Increment      1: Step Time =    1.000,"PART-1-1",           123,      -6.64156,       6.82435,            0.,NA,NA,"",   2.25094E-03,   1.81375E-03,  -1.33305E-03,   6.90933E-06
C:/temp/dataset/6/31_2.odb,Step-1,Increment      1: Step Time =    1.000,"PART-1-1",           124,      -12.9641,      -2.37512,            0.,NA,NA,"",   2.85641E-03,   2.39094E-03,  -1.56286E-03,   40.4011E-06
C:/temp/dataset/6/31_2.odb,Step-1,Increment      1: Step Time =    1.000,"PART-1-1",           125,      -12.1317,      -9.84573,            0.,NA,NA,"",   2.75884E-03,   2.41337E-03,  -1.33673E-03,   56.8820E-06
C:/temp/dataset/6/31_2.odb,Step-1,Increment      1: Step Time =    1.000,"PART-1-1",           126,       4.04132,      -2.67712,            0.,NA,NA,"",   2.15236E-03,   2.10009E-03,  -471.469E-06,   43.8253E-06
C:/temp/dataset/6/31_2.odb,Step-1,Increment      1: Step Time =    1.000,"PART-1-1",           127,       6.95362,      -12.5367,            0.,NA,NA,"",   1.28934E-03,   1.27468E-03,  -193.896E-06,   23.6989E-06
C:/temp/dataset/6/31_2.odb,Step-1,Increment      1: Step Time =    1.000,"PART-1-1",           128,       6.92458,      -14.9216,            0.,NA,NA,"",   1.04918E-03,   1.03167E-03,  -190.919E-06,   28.4272E-06
C:/temp/dataset/6/31_2.odb,Step-1,Increment      1: Step Time =    1.000,"PART-1-1",           129,       12.9089,      -21.3671,            0.,NA,NA,"",   836.185E-06,   800.394E-06,  -242.025E-06,   44.7783E-06
C:/temp/dataset/6/31_2.odb,Step-1,Increment      1: Step Time =    1.000,"PART-1-1",           130,   283.131E-03,      -22.8786,            0.,NA,NA,"",   4.30724E-03,   1.08847E-03,  -4.16744E-03,   1.18698E-03
C:/temp/dataset/6/31_2.odb,Step-1,Increment      1: Step Time =    1.000,"PART-1-1",           131,      -12.9776,      -22.4214,            0.,NA,NA,"",   1.14377E-03,  -1.07151E-03,  -400.079E-06,   74.3576E-06
C:/temp/dataset/6/31_2.odb,Step-1,Increment      1: Step Time =    1.000,"PART-1-1",           132,      -7.42030,      -15.1083,            0.,NA,NA,"",   2.93206E-03,   1.67029E-03,  -2.40980E-03,   157.460E-06
C:/temp/dataset/6/31_2.odb,Step-1,Increment      1: Step Time =    1.000,"PART-1-1",           133,      -7.18486,      -10.2642,            0.,NA,NA,"",   3.08596E-03,   2.34484E-03,  -2.00621E-03,   98.9991E-06
C:/temp/dataset/6/31_2.odb,Step-1,Increment      1: Step Time =    1.000,"PART-1-1",           134,      -7.33974,      -5.93881,            0.,NA,NA,"",   3.03643E-03,   2.52097E-03,  -1.69253E-03,   60.9258E-06
C:/temp/dataset/6/31_2.odb,Step-1,Increment      1: Step Time =    1.000,"PART-1-1",           135,  -533.729E-03,      -2.94296,            0.,NA,NA,"",   2.40163E-03,   2.22066E-03,  -914.610E-06,   32.0238E-06
C:/temp/dataset/6/31_2.odb,Step-1,Increment      1: Step Time =    1.000,"PART-1-1",           136,       10.2172,      -28.0250,            0.,NA,NA,"",   414.536E-06,   411.919E-06,  -46.5040E-06,   133.591E-06
C:/temp/dataset/6/31_2.odb,Step-1,Increment      1: Step Time =    1.000,"PART-1-1",           137,       7.82196,      -28.0777,            0.,NA,NA,"",   540.244E-06,   533.988E-06,  -81.9753E-06,   186.792E-06
C:/temp/dataset/6/31_2.odb,Step-1,Increment      1: Step Time =    1.000,"PART-1-1",           138,       5.43540,      -28.0544,            0.,NA,NA,"",   732.540E-06,   701.517E-06,  -210.921E-06,   277.498E-06
C:/temp/dataset/6/31_2.odb,Step-1,Increment      1: Step Time =    1.000,"PART-1-1",           139,       2.98405,      -27.8165,            0.,NA,NA,"",   1.02665E-03,   864.688E-06,  -553.469E-06,   429.838E-06
C:/temp/dataset/6/31_2.odb,Step-1,Increment      1: Step Time =    1.000,"PART-1-1",           140,   324.250E-03,      -27.0908,            0.,NA,NA,"",   1.63450E-03,   777.748E-06,  -1.43760E-03,   721.375E-06
C:/temp/dataset/6/31_2.odb,Step-1,Increment      1: Step Time =    1.000,"PART-1-1",           141,      -2.46293,      -27.5198,            0.,NA,NA,"",   1.53458E-03,  -20.5039E-06,  -1.53445E-03,   849.838E-06
C:/temp/dataset/6/31_2.odb,Step-1,Increment      1: Step Time =    1.000,"PART-1-1",           142,      -4.88996,      -27.5861,            0.,NA,NA,"",   1.43919E-03,  -671.228E-06,  -1.27308E-03,   733.467E-06
C:/temp/dataset/6/31_2.odb,Step-1,Increment      1: Step Time =    1.000,"PART-1-1",           143,      -7.26500,      -27.4866,            0.,NA,NA,"",   1.36062E-03,  -1.03219E-03,  -886.484E-06,   540.927E-06
C:/temp/dataset/6/31_2.odb,Step-1,Increment      1: Step Time =    1.000,"PART-1-1",           144,      -9.86695,      -26.8928,            0.,NA,NA,"",   1.36599E-03,  -1.24698E-03,  -557.659E-06,   341.735E-06
C:/temp/dataset/6/31_2.odb,Step-1,Increment      1: Step Time =    1.000,"PART-1-1",           145,       12.7710,      -23.5898,            0.,NA,NA,"",   787.245E-06,   767.803E-06,  -173.877E-06,   33.8999E-06
C:/temp/dataset/6/31_2.odb,Step-1,Increment      1: Step Time =    1.000,"PART-1-1",           146,       12.6989,      -25.7990,            0.,NA,NA,"",   654.002E-06,   643.020E-06,  -119.348E-06,   46.2120E-06
C:/temp/dataset/6/31_2.odb,Step-1,Increment      1: Step Time =    1.000,"PART-1-1",           147,       12.6207,      -27.9366,            0.,NA,NA,"",   378.023E-06,   370.186E-06,  -76.5719E-06,   116.106E-06
C:/temp/dataset/6/31_2.odb,Step-1,Increment      1: Step Time =    1.000,"PART-1-1",           148,       12.9983,      -14.8223,            0.,NA,NA,"",   1.19708E-03,   1.10043E-03,  -471.239E-06,   35.8533E-06
C:/temp/dataset/6/31_2.odb,Step-1,Increment      1: Step Time =    1.000,"PART-1-1",           149,       13.0558,      -17.0719,            0.,NA,NA,"",   1.01907E-03,   934.956E-06,  -405.408E-06,   39.2135E-06
C:/temp/dataset/6/31_2.odb,Step-1,Increment      1: Step Time =    1.000,"PART-1-1",           150,       13.1682,      -19.2108,            0.,NA,NA,"",   904.577E-06,   841.899E-06,  -330.856E-06,   43.1514E-06
C:/temp/dataset/6/31_2.odb,Step-1,Increment      1: Step Time =    1.000,"PART-1-1",           151,       13.0670,      -5.94273,            0.,NA,NA,"",   1.95910E-03,   1.88618E-03,  -529.507E-06,   16.4474E-06
C:/temp/dataset/6/31_2.odb,Step-1,Increment      1: Step Time =    1.000,"PART-1-1",           152,       13.0350,      -8.09399,            0.,NA,NA,"",   1.81523E-03,   1.73135E-03,  -545.409E-06,   20.3400E-06
C:/temp/dataset/6/31_2.odb,Step-1,Increment      1: Step Time =    1.000,"PART-1-1",           153,       12.9982,      -10.2981,            0.,NA,NA,"",   1.62480E-03,   1.53174E-03,  -541.988E-06,   25.2211E-06
C:/temp/dataset/6/31_2.odb,Step-1,Increment      1: Step Time =    1.000,"PART-1-1",           154,       12.5107,   556.281E-03,            0.,NA,NA,"",   2.07460E-03,   2.02704E-03,  -441.705E-06,   17.8256E-06
C:/temp/dataset/6/31_2.odb,Step-1,Increment      1: Step Time =    1.000,"PART-1-1",           155,       12.7702,      -1.64554,            0.,NA,NA,"",   2.08016E-03,   2.02749E-03,  -465.127E-06,   16.5220E-06
C:/temp/dataset/6/31_2.odb,Step-1,Increment      1: Step Time =    1.000,"PART-1-1",           156,       10.0517,       2.85834,            0.,NA,NA,"",   2.03856E-03,   1.99749E-03,  -407.122E-06,   17.6041E-06
C:/temp/dataset/6/31_2.odb,Step-1,Increment      1: Step Time =    1.000,"PART-1-1",           157,       5.39286,       2.85476,            0.,NA,NA,"",   1.99630E-03,   1.94311E-03,  -457.759E-06,   14.9057E-06
C:/temp/dataset/6/31_2.odb,Step-1,Increment      1: Step Time =    1.000,"PART-1-1",           158,   175.602E-03,       2.90951,            0.,NA,NA,"",   2.07128E-03,   1.90334E-03,  -816.996E-06,   24.4433E-06
C:/temp/dataset/6/31_2.odb,Step-1,Increment      1: Step Time =    1.000,"PART-1-1",           159,      -4.35394,       2.91920,            0.,NA,NA,"",   2.30115E-03,   1.94817E-03,  -1.22473E-03,   18.4420E-06
C:/temp/dataset/6/31_2.odb,Step-1,Increment      1: Step Time =    1.000,"PART-1-1",           160,      -7.05997,       10.9599,            0.,NA,NA,"",   2.11573E-03,   1.62759E-03,  -1.35177E-03,   639.741E-09
C:/temp/dataset/6/31_2.odb,Step-1,Increment      1: Step Time =    1.000,"PART-1-1",           161,      -6.93805,       8.84105,            0.,NA,NA,"",   2.18882E-03,   1.72613E-03,  -1.34588E-03,   962.694E-09
C:/temp/dataset/6/31_2.odb,Step-1,Increment      1: Step Time =    1.000,"PART-1-1",           162,      -7.28921,       17.6445,            0.,NA,NA,"",   1.88976E-03,   1.30924E-03,  -1.36275E-03,   62.5748E-09
C:/temp/dataset/6/31_2.odb,Step-1,Increment      1: Step Time =    1.000,"PART-1-1",           163,      -7.17735,       15.3234,            0.,NA,NA,"",   1.96433E-03,   1.41987E-03,  -1.35742E-03,   186.606E-09
C:/temp/dataset/6/31_2.odb,Step-1,Increment      1: Step Time =    1.000,"PART-1-1",           164,      -6.93557,       23.5874,            0.,NA,NA,"",   1.69263E-03,   1.02637E-03,  -1.34594E-03,   1.27851E-09
C:/temp/dataset/6/31_2.odb,Step-1,Increment      1: Step Time =    1.000,"PART-1-1",           165,      -13.1925,       19.7530,            0.,NA,NA,"",   2.04024E-03,   1.20875E-03,  -1.64362E-03,   14.2977E-09
C:/temp/dataset/6/31_2.odb,Step-1,Increment      1: Step Time =    1.000,"PART-1-1",           166,      -7.44963,       27.8335,            0.,NA,NA,"",   1.59924E-03,   824.349E-06,  -1.37040E-03,   1.09766E-09
C:/temp/dataset/6/31_2.odb,Step-1,Increment      1: Step Time =    1.000,"PART-1-1",           167,      -13.0424,       22.0734,            0.,NA,NA,"",   1.97092E-03,   1.09839E-03,  -1.63648E-03,   1.29233E-09
C:/temp/dataset/6/31_2.odb,Step-1,Increment      1: Step Time =    1.000,"PART-1-1",           168,      -13.1316,       14.9813,            0.,NA,NA,"",   2.18005E-03,   1.43546E-03,  -1.64075E-03,   195.207E-09
C:/temp/dataset/6/31_2.odb,Step-1,Increment      1: Step Time =    1.000,"PART-1-1",           169,      -13.1727,       17.3972,            0.,NA,NA,"",   2.10778E-03,   1.32073E-03,  -1.64268E-03,   62.9260E-09
C:/temp/dataset/6/31_2.odb,Step-1,Increment      1: Step Time =    1.000,"PART-1-1",           170,      -12.8574,       7.53984,            0.,NA,NA,"",   2.42288E-03,   1.79455E-03,  -1.62787E-03,   1.02646E-06
C:/temp/dataset/6/31_2.odb,Step-1,Increment      1: Step Time =    1.000,"PART-1-1",           171,      -13.0166,       10.0884,            0.,NA,NA,"",   2.33649E-03,   1.66867E-03,  -1.63546E-03,   534.619E-09
C:/temp/dataset/6/31_2.odb,Step-1,Increment      1: Step Time =    1.000,"PART-1-1",           172,      -12.8045,  -118.323E-03,            0.,NA,NA,"",   2.76184E-03,   2.25220E-03,  -1.59854E-03,   28.6253E-06
C:/temp/dataset/6/31_2.odb,Step-1,Increment      1: Step Time =    1.000,"PART-1-1",           173,      -12.7039,       2.28772,            0.,NA,NA,"",   2.64423E-03,   2.09463E-03,  -1.61385E-03,   16.6631E-06
C:/temp/dataset/6/31_2.odb,Step-1,Increment      1: Step Time =    1.000,"PART-1-1",           174,      -12.8488,      -7.31355,            0.,NA,NA,"",   2.87315E-03,   2.51737E-03,  -1.38487E-03,   62.2306E-06
C:/temp/dataset/6/31_2.odb,Step-1,Increment      1: Step Time =    1.000,"PART-1-1",           175,      -12.6051,      -4.81291,            0.,NA,NA,"",   2.91716E-03,   2.50423E-03,  -1.49622E-03,   50.8408E-06
C:/temp/dataset/6/31_2.odb,Step-1,Increment      1: Step Time =    1.000,"PART-1-1",           176,      -12.4260,      -15.0682,            0.,NA,NA,"",   1.82155E-03,   1.53532E-03,  -980.207E-06,   83.4385E-06
C:/temp/dataset/6/31_2.odb,Step-1,Increment      1: Step Time =    1.000,"PART-1-1",           177,      -12.3344,      -12.5112,            0.,NA,NA,"",   2.39220E-03,   2.08631E-03,  -1.17043E-03,   68.1497E-06
C:/temp/dataset/6/31_2.odb,Step-1,Increment      1: Step Time =    1.000,"PART-1-1",           178,      -12.6598,      -20.1148,            0.,NA,NA,"",   611.533E-06,  -269.741E-06,  -548.829E-06,   133.844E-06
C:/temp/dataset/6/31_2.odb,Step-1,Increment      1: Step Time =    1.000,"PART-1-1",           179,      -8.70618,       22.9331,            0.,NA,NA,"",   1.77869E-03,   1.05750E-03,  -1.43019E-03,   1.97099E-09
C:/temp/dataset/6/31_2.odb,Step-1,Increment      1: Step Time =    1.000,"PART-1-1",           180,      -9.21222,       15.1634,            0.,NA,NA,"",   2.03742E-03,   1.42727E-03,  -1.45395E-03,   223.442E-09
C:/temp/dataset/6/31_2.odb,Step-1,Increment      1: Step Time =    1.000,"PART-1-1",           181,      -9.55138,       19.8926,            0.,NA,NA,"",   1.89927E-03,   1.20216E-03,  -1.47038E-03,   20.8708E-09
C:/temp/dataset/6/31_2.odb,Step-1,Increment      1: Step Time =    1.000,"PART-1-1",           182,      -8.92203,       8.32966,            0.,NA,NA,"",   2.26577E-03,   1.75069E-03,  -1.43833E-03,   1.21965E-06
C:/temp/dataset/6/31_2.odb,Step-1,Increment      1: Step Time =    1.000,"PART-1-1",           183,      -9.17670,       12.8809,            0.,NA,NA,"",   2.11341E-03,   1.53591E-03,  -1.45171E-03,   460.880E-09
C:/temp/dataset/6/31_2.odb,Step-1,Increment      1: Step Time =    1.000,"PART-1-1",           184,      -9.09923,       10.6117,            0.,NA,NA,"",   2.18997E-03,   1.64368E-03,  -1.44717E-03,   694.226E-09
C:/temp/dataset/6/31_2.odb,Step-1,Increment      1: Step Time =    1.000,"PART-1-1",           185,      -9.30530,       17.5014,            0.,NA,NA,"",   1.96450E-03,   1.31596E-03,  -1.45860E-03,   80.0288E-09
C:/temp/dataset/6/31_2.odb,Step-1,Increment      1: Step Time =    1.000,"PART-1-1",           186,      -8.37864,       6.17865,            0.,NA,NA,"",   2.32863E-03,   1.84814E-03,  -1.41666E-03,   8.48570E-06
C:/temp/dataset/6/31_2.odb,Step-1,Increment      1: Step Time =    1.000,"PART-1-1",           187,       10.9988,      -10.2527,            0.,NA,NA,"",   1.59148E-03,   1.53037E-03,  -436.781E-06,   36.8121E-06
C:/temp/dataset/6/31_2.odb,Step-1,Increment      1: Step Time =    1.000,"PART-1-1",           188,       10.8643,      -17.5211,            0.,NA,NA,"",   909.296E-06,   857.520E-06,  -302.454E-06,   44.2385E-06
C:/temp/dataset/6/31_2.odb,Step-1,Increment      1: Step Time =    1.000,"PART-1-1",           189,       11.0508,      -8.01555,            0.,NA,NA,"",   1.80106E-03,   1.74339E-03,  -452.132E-06,   30.9336E-06
C:/temp/dataset/6/31_2.odb,Step-1,Increment      1: Step Time =    1.000,"PART-1-1",           190,       10.6332,      -2.00908,            0.,NA,NA,"",   2.08215E-03,   2.04023E-03,  -415.717E-06,   14.9927E-06
C:/temp/dataset/6/31_2.odb,Step-1,Increment      1: Step Time =    1.000,"PART-1-1",           191,       11.1668,      -5.92645,            0.,NA,NA,"",   1.95581E-03,   1.90229E-03,  -454.383E-06,   20.5024E-06
C:/temp/dataset/6/31_2.odb,Step-1,Increment      1: Step Time =    1.000,"PART-1-1",           192,       10.9732,      -14.9280,            0.,NA,NA,"",   1.12737E-03,   1.06395E-03,  -372.792E-06,   40.0410E-06
C:/temp/dataset/6/31_2.odb,Step-1,Increment      1: Step Time =    1.000,"PART-1-1",           193,       10.5476,      -23.6927,            0.,NA,NA,"",   775.780E-06,   771.860E-06,  -77.8910E-06,   38.4602E-06
C:/temp/dataset/6/31_2.odb,Step-1,Increment      1: Step Time =    1.000,"PART-1-1",           194,       10.5707,      -21.1850,            0.,NA,NA,"",   764.909E-06,   750.490E-06,  -147.818E-06,   57.3305E-06
C:/temp/dataset/6/31_2.odb,Step-1,Increment      1: Step Time =    1.000,"PART-1-1",           195,       10.9760,      -12.5622,            0.,NA,NA,"",   1.35835E-03,   1.29480E-03,  -410.603E-06,   39.1724E-06
C:/temp/dataset/6/31_2.odb,Step-1,Increment      1: Step Time =    1.000,"PART-1-1",           196,       11.6229,      -19.2502,            0.,NA,NA,"",   845.650E-06,   802.721E-06,  -266.015E-06,   47.9357E-06
C:/temp/dataset/6/31_2.odb,Step-1,Increment      1: Step Time =    1.000,"PART-1-1",           197,       11.1609,      -3.97100,            0.,NA,NA,"",   2.04511E-03,   1.99674E-03,  -442.124E-06,   12.2420E-06
C:/temp/dataset/6/31_2.odb,Step-1,Increment      1: Step Time =    1.000,"PART-1-1",           198,      -9.55101,       25.2781,            0.,NA,NA,"",   1.74837E-03,   945.930E-06,  -1.47038E-03,   1.50608E-09
C:/temp/dataset/6/31_2.odb,Step-1,Increment      1: Step Time =    1.000,"PART-1-1",           199,      -6.13353,       2.97524,            0.,NA,NA,"",   2.38632E-03,   1.97484E-03,  -1.33959E-03,   22.1923E-06
C:/temp/dataset/6/31_2.odb,Step-1,Increment      1: Step Time =    1.000,"PART-1-1",           200,       8.52809,      -18.5145,            0.,NA,NA,"",   748.073E-06,   714.593E-06,  -221.292E-06,   61.3027E-06
C:/temp/dataset/6/31_2.odb,Step-1,Increment      1: Step Time =    1.000,"PART-1-1",           201,      -9.31256,      -6.57829,            0.,NA,NA,"",   3.03046E-03,   2.55439E-03,  -1.63058E-03,   45.9399E-06
C:/temp/dataset/6/31_2.odb,Step-1,Increment      1: Step Time =    1.000,"PART-1-1",           202,      -7.82061,      -4.24854,            0.,NA,NA,"",   2.95357E-03,   2.47272E-03,  -1.61531E-03,   59.9330E-06
C:/temp/dataset/6/31_2.odb,Step-1,Increment      1: Step Time =    1.000,"PART-1-1",           203,       7.55002,      -20.4955,            0.,NA,NA,"",   621.765E-06,   606.758E-06,  -135.785E-06,   103.762E-06
C:/temp/dataset/6/31_2.odb,Step-1,Increment      1: Step Time =    1.000,"PART-1-1",           204,      -9.18944,      -8.43706,            0.,NA,NA,"",   3.02579E-03,   2.51511E-03,  -1.68215E-03,   45.0800E-06
C:/temp/dataset/6/31_2.odb,Step-1,Increment      1: Step Time =    1.000,"PART-1-1",           205,      -12.3720,       27.4312,            0.,NA,NA,"",   1.81279E-03,   843.495E-06,  -1.60459E-03,   1.25302E-09
C:/temp/dataset/6/31_2.odb,Step-1,Increment      1: Step Time =    1.000,"PART-1-1",           206,      -10.3791,       22.2070,            0.,NA,NA,"",   1.86333E-03,   1.09204E-03,  -1.50978E-03,   3.72860E-09
C:/temp/dataset/6/31_2.odb,Step-1,Increment      1: Step Time =    1.000,"PART-1-1",           207,       3.40286,  -884.176E-03,            0.,NA,NA,"",   2.12016E-03,   2.05221E-03,  -532.454E-06,   32.3975E-06
C:/temp/dataset/6/31_2.odb,Step-1,Increment      1: Step Time =    1.000,"PART-1-1",           208,       7.88020,       1.44192,            0.,NA,NA,"",   2.04479E-03,   2.00666E-03,  -393.048E-06,   15.0772E-06
C:/temp/dataset/6/31_2.odb,Step-1,Increment      1: Step Time =    1.000,"PART-1-1",           209,      -1.17287,  -897.893E-03,            0.,NA,NA,"",   2.31668E-03,   2.10583E-03,  -965.642E-06,   36.1221E-06
C:/temp/dataset/6/31_2.odb,Step-1,Increment      1: Step Time =    1.000,"PART-1-1",           210,       10.4014,      -25.9274,            0.,NA,NA,"",   682.852E-06,   680.592E-06,  -55.5125E-06,   69.9525E-06
C:/temp/dataset/6/31_2.odb,Step-1,Increment      1: Step Time =    1.000,"PART-1-1",           211,       2.00108,      -24.8239,            0.,NA,NA,"",   2.23082E-03,   1.35153E-03,  -1.77480E-03,   576.225E-06
C:/temp/dataset/6/31_2.odb,Step-1,Increment      1: Step Time =    1.000,"PART-1-1",           212,      -4.80900,      -25.1606,            0.,NA,NA,"",   3.10962E-03,  -1.09680E-03,  -2.90977E-03,   934.964E-06
C:/temp/dataset/6/31_2.odb,Step-1,Increment      1: Step Time =    1.000,"PART-1-1",           213,      -11.5765,       21.3848,            0.,NA,NA,"",   1.93240E-03,   1.13115E-03,  -1.56674E-03,   6.46313E-09
C:/temp/dataset/6/31_2.odb,Step-1,Increment      1: Step Time =    1.000,"PART-1-1",           214,      -11.0630,       10.3038,            0.,NA,NA,"",   2.26359E-03,   1.65827E-03,  -1.54077E-03,   602.746E-09
C:/temp/dataset/6/31_2.odb,Step-1,Increment      1: Step Time =    1.000,"PART-1-1",           215,      -10.2832,  -591.021E-03,            0.,NA,NA,"",   2.75343E-03,   2.27812E-03,  -1.54647E-03,   37.0914E-06
C:/temp/dataset/6/31_2.odb,Step-1,Increment      1: Step Time =    1.000,"PART-1-1",           216,      -11.1869,      -5.64306,            0.,NA,NA,"",   2.96540E-03,   2.54157E-03,  -1.52775E-03,   45.5939E-06
C:/temp/dataset/6/31_2.odb,Step-1,Increment      1: Step Time =    1.000,"PART-1-1",           217,      -9.48237,      -10.3825,            0.,NA,NA,"",   2.93121E-03,   2.38958E-03,  -1.69761E-03,   45.6502E-06
C:/temp/dataset/6/31_2.odb,Step-1,Increment      1: Step Time =    1.000,"PART-1-1",           218,      -10.0191,      -20.7277,            0.,NA,NA,"",   1.27668E-03,  -451.484E-06,  -1.19418E-03,   142.285E-06
C:/temp/dataset/6/31_2.odb,Step-1,Increment      1: Step Time =    1.000,"PART-1-1",           219,      -12.8377,      -24.8331,            0.,NA,NA,"",   1.48182E-03,  -1.43830E-03,  -356.508E-06,   77.9019E-06
C:/temp/dataset/6/31_2.odb,Step-1,Increment      1: Step Time =    1.000,"PART-1-1",           220,  -752.185E-03,      -25.0561,            0.,NA,NA,"",   3.30253E-03,   699.587E-06,  -3.22758E-03,   1.06735E-03
C:/temp/dataset/6/31_2.odb,Step-1,Increment      1: Step Time =    1.000,"PART-1-1",           221,      -11.3411,      -22.5061,            0.,NA,NA,"",   1.31739E-03,  -1.10311E-03,  -720.190E-06,   95.4869E-06
C:/temp/dataset/6/31_2.odb,Step-1,Increment      1: Step Time =    1.000,"PART-1-1",           222,       5.90860,      -26.1342,            0.,NA,NA,"",   1.04047E-03,   1.00834E-03,  -256.589E-06,   206.248E-06
C:/temp/dataset/6/31_2.odb,Step-1,Increment      1: Step Time =    1.000,"PART-1-1",           223,       3.81352,      -25.8758,            0.,NA,NA,"",   1.41803E-03,   1.21608E-03,  -729.352E-06,   337.260E-06
C:/temp/dataset/6/31_2.odb,Step-1,Increment      1: Step Time =    1.000,"PART-1-1",           224,      -6.87266,      -25.1947,            0.,NA,NA,"",   2.38837E-03,  -1.46615E-03,  -1.88539E-03,   608.224E-06
C:/temp/dataset/6/31_2.odb,Step-1,Increment      1: Step Time =    1.000,"PART-1-1",           225,       9.77381,   336.875E-03,            0.,NA,NA,"",   2.07103E-03,   2.03261E-03,  -397.071E-06,   18.8996E-06
C:/temp/dataset/6/31_2.odb,Step-1,Increment      1: Step Time =    1.000,"PART-1-1",           226,       4.59800,   29.7464E-03,            0.,NA,NA,"",   2.07758E-03,   2.02504E-03,  -464.302E-06,   21.7093E-06
C:/temp/dataset/6/31_2.odb,Step-1,Increment      1: Step Time =    1.000,"PART-1-1",           227,      -11.1551,       12.6912,            0.,NA,NA,"",   2.18521E-03,   1.54444E-03,  -1.54591E-03,   463.892E-09
C:/temp/dataset/6/31_2.odb,Step-1,Increment      1: Step Time =    1.000,"PART-1-1",           228,      -11.2689,       17.3859,            0.,NA,NA,"",   2.03831E-03,   1.32133E-03,  -1.55203E-03,   82.7896E-09
C:/temp/dataset/6/31_2.odb,Step-1,Increment      1: Step Time =    1.000,"PART-1-1",           229,      -11.2102,       15.0558,            0.,NA,NA,"",   2.10959E-03,   1.43208E-03,  -1.54904E-03,   222.492E-09
C:/temp/dataset/6/31_2.odb,Step-1,Increment      1: Step Time =    1.000,"PART-1-1",           230,      -10.8139,       7.79620,            0.,NA,NA,"",   2.34607E-03,   1.77965E-03,  -1.52868E-03,   1.60824E-06
C:/temp/dataset/6/31_2.odb,Step-1,Increment      1: Step Time =    1.000,"PART-1-1",           231,      -10.1648,       4.85487,            0.,NA,NA,"",   2.44692E-03,   1.92900E-03,  -1.50545E-03,   10.7917E-06
C:/temp/dataset/6/31_2.odb,Step-1,Increment      1: Step Time =    1.000,"PART-1-1",           232,      -10.4473,       2.01195,            0.,NA,NA,"",   2.60244E-03,   2.10338E-03,  -1.53249E-03,   23.8189E-06
C:/temp/dataset/6/31_2.odb,Step-1,Increment      1: Step Time =    1.000,"PART-1-1",           233,      -10.4810,      -3.59789,            0.,NA,NA,"",   2.92116E-03,   2.46860E-03,  -1.56179E-03,   46.6139E-06
C:/temp/dataset/6/31_2.odb,Step-1,Increment      1: Step Time =    1.000,"PART-1-1",           234,      -9.89141,      -15.1395,            0.,NA,NA,"",   2.32235E-03,   1.63991E-03,  -1.64438E-03,   54.2195E-06
C:/temp/dataset/6/31_2.odb,Step-1,Increment      1: Step Time =    1.000,"PART-1-1",           235,      -9.95744,      -17.7636,            0.,NA,NA,"",   1.70956E-03,   860.706E-06,  -1.47708E-03,   140.969E-06
C:/temp/dataset/6/31_2.odb,Step-1,Increment      1: Step Time =    1.000,"PART-1-1",           236,      -3.63694,      -1.16253,            0.,NA,NA,"",   2.48519E-03,   2.16145E-03,  -1.22651E-03,   44.3044E-06
C:/temp/dataset/6/31_2.odb,Step-1,Increment      1: Step Time =    1.000,"PART-1-1",           237,      -7.00580,      -22.7773,            0.,NA,NA,"",   2.88121E-03,  -1.45941E-03,  -2.48425E-03,   478.562E-06
C:/temp/dataset/6/31_2.odb,Step-1,Increment      1: Step Time =    1.000,"PART-1-1",           238,       7.08723,      -4.67483,            0.,NA,NA,"",   2.06254E-03,   2.03375E-03,  -343.445E-06,   41.7273E-06
C:/temp/dataset/6/31_2.odb,Step-1,Increment      1: Step Time =    1.000,"PART-1-1",           239,       8.96532,      -10.1697,            0.,NA,NA,"",   1.56967E-03,   1.53197E-03,  -341.950E-06,   37.3877E-06
C:/temp/dataset/6/31_2.odb,Step-1,Increment      1: Step Time =    1.000,"PART-1-1",           240,       8.99874,      -7.82238,            0.,NA,NA,"",   1.80676E-03,   1.76773E-03,  -373.481E-06,   40.8298E-06
C:/temp/dataset/6/31_2.odb,Step-1,Increment      1: Step Time =    1.000,"PART-1-1",           241,       8.96760,      -14.8663,            0.,NA,NA,"",   1.08466E-03,   1.04446E-03,  -292.542E-06,   37.5160E-06
C:/temp/dataset/6/31_2.odb,Step-1,Increment      1: Step Time =    1.000,"PART-1-1",           242,      -12.0836,       24.5335,            0.,NA,NA,"",   1.86921E-03,   981.359E-06,  -1.59087E-03,   1.76391E-09
C:/temp/dataset/6/31_2.odb,Step-1,Increment      1: Step Time =    1.000,"PART-1-1",           243,       9.21542,      -5.66363,            0.,NA,NA,"",   1.98020E-03,   1.94109E-03,  -391.578E-06,   29.2141E-06
C:/temp/dataset/6/31_2.odb,Step-1,Increment      1: Step Time =    1.000,"PART-1-1",           244,       8.72776,      -2.97127,            0.,NA,NA,"",   2.08532E-03,   2.05122E-03,  -375.566E-06,   17.8306E-06
C:/temp/dataset/6/31_2.odb,Step-1,Increment      1: Step Time =    1.000,"PART-1-1",           245,       9.39471,      -19.4524,            0.,NA,NA,"",   738.217E-06,   713.297E-06,  -190.188E-06,   60.8203E-06
C:/temp/dataset/6/31_2.odb,Step-1,Increment      1: Step Time =    1.000,"PART-1-1",           246,       8.06548,      -22.0810,            0.,NA,NA,"",   731.928E-06,   728.800E-06,  -67.5935E-06,   67.9827E-06
C:/temp/dataset/6/31_2.odb,Step-1,Increment      1: Step Time =    1.000,"PART-1-1",           247,      -7.53738,       4.79758,            0.,NA,NA,"",   2.35536E-03,   1.90429E-03,  -1.38614E-03,   16.0603E-06
C:/temp/dataset/6/31_2.odb,Step-1,Increment      1: Step Time =    1.000,"PART-1-1",           248,      -10.8025,      -24.3532,            0.,NA,NA,"",   1.61011E-03,  -1.44868E-03,  -702.714E-06,   160.015E-06
C:/temp/dataset/6/31_2.odb,Step-1,Increment      1: Step Time =    1.000,"PART-1-1",           249,       5.82981,      -2.08643,            0.,NA,NA,"",   2.10937E-03,   2.07426E-03,  -383.273E-06,   30.2770E-06
C:/temp/dataset/6/31_2.odb,Step-1,Increment      1: Step Time =    1.000,"PART-1-1",           250,      -8.67175,      -2.53401,            0.,NA,NA,"",   2.85282E-03,   2.38713E-03,  -1.56211E-03,   51.3425E-06
C:/temp/dataset/6/31_2.odb,Step-1,Increment      1: Step Time =    1.000,"PART-1-1",           251,       5.78686,      -22.7214,            0.,NA,NA,"",   891.585E-06,   859.805E-06,  -235.923E-06,   78.6143E-06
C:/temp/dataset/6/31_2.odb,Step-1,Increment      1: Step Time =    1.000,"PART-1-1",           252,      -8.27594,       1.60152,            0.,NA,NA,"",   2.55867E-03,   2.10002E-03,  -1.46176E-03,   29.0971E-06
C:/temp/dataset/6/31_2.odb,Step-1,Increment      1: Step Time =    1.000,"PART-1-1",           253,       8.25490,      -24.0061,            0.,NA,NA,"",   845.453E-06,   843.869E-06,  -51.7215E-06,   67.3313E-06
C:/temp/dataset/6/31_2.odb,Step-1,Increment      1: Step Time =    1.000,"PART-1-1",           254,      -9.04303,      -23.2600,            0.,NA,NA,"",   1.90562E-03,  -1.37084E-03,  -1.32371E-03,   204.354E-06
C:/temp/dataset/6/31_2.odb,Step-1,Increment      1: Step Time =    1.000,"PART-1-1",           255,       7.61656,      -1.09448,            0.,NA,NA,"",   2.08893E-03,   2.05550E-03,  -372.198E-06,   17.3684E-06
C:/temp/dataset/6/31_2.odb,Step-1,Increment      1: Step Time =    1.000,"PART-1-1",           256,      -4.02262,   861.151E-03,            0.,NA,NA,"",   2.39392E-03,   2.05783E-03,  -1.22319E-03,   30.2022E-06
C:/temp/dataset/6/31_2.odb,Step-1,Increment      1: Step Time =    1.000,"PART-1-1",           257,  -104.141E-03,       1.31276,            0.,NA,NA,"",   2.15924E-03,   1.98663E-03,  -845.948E-06,   33.2327E-06
C:/temp/dataset/6/31_2.odb,Step-1,Increment      1: Step Time =    1.000,"PART-1-1",           258,       3.72123,      -23.4419,            0.,NA,NA,"",   1.53507E-03,   1.20810E-03,  -947.069E-06,   293.721E-06
C:/temp/dataset/6/31_2.odb,Step-1,Increment      1: Step Time =    1.000,"PART-1-1",           259,      -10.7950,      -8.39617,            0.,NA,NA,"",   2.94392E-03,   2.51881E-03,  -1.52389E-03,   40.2129E-06
C:/temp/dataset/6/31_2.odb,Step-1,Increment      1: Step Time =    1.000,"PART-1-1",           260,      -1.85786,       1.02916,            0.,NA,NA,"",   2.26018E-03,   2.01734E-03,  -1.01919E-03,   34.4687E-06
C:/temp/dataset/6/31_2.odb,Step-1,Increment      1: Step Time =    1.000,"PART-1-1",           261,      -6.46179,      -1.33856,            0.,NA,NA,"",   2.67909E-03,   2.24779E-03,  -1.45773E-03,   45.9980E-06
C:/temp/dataset/6/31_2.odb,Step-1,Increment      1: Step Time =    1.000,"PART-1-1",           262,      -11.1078,      -7.00587,            0.,NA,NA,"",   2.96629E-03,   2.55074E-03,  -1.51414E-03,   44.1321E-06
C:/temp/dataset/6/31_2.odb,Step-1,Increment      1: Step Time =    1.000,"PART-1-1",           263,      -5.52697,      -3.44125,            0.,NA,NA,"",   2.78843E-03,   2.35426E-03,  -1.49426E-03,   76.2398E-06
C:/temp/dataset/6/31_2.odb,Step-1,Increment      1: Step Time =    1.000,"PART-1-1",           264,      -9.72268,      -4.98378,            0.,NA,NA,"",   2.98556E-03,   2.52722E-03,  -1.58957E-03,   46.7690E-06
C:/temp/dataset/6/31_2.odb,Step-1,Increment      1: Step Time =    1.000,"PART-1-1",           265,      -6.27329,       4.89376,            0.,NA,NA,"",   2.29961E-03,   1.88039E-03,  -1.32376E-03,   21.7359E-06
C:/temp/dataset/6/31_2.odb,Step-1,Increment      1: Step Time =    1.000,"PART-1-1",           266,       12.4963,       2.80040,            0.,NA,NA,"",   2.05615E-03,   2.00969E-03,  -434.604E-06,   12.9959E-06
C:/temp/dataset/6/31_2.odb,Step-1,Increment      1: Step Time =    1.000,"PART-1-1",           267,      -7.37176,      -20.2559,            0.,NA,NA,"",   2.44572E-03,  -189.732E-06,  -2.43835E-03,   282.314E-06
C:/temp/dataset/6/31_2.odb,Step-1,Increment      1: Step Time =    1.000,"PART-1-1",           268,       2.88963,      -21.8777,            0.,NA,NA,"",   1.63380E-03,   809.196E-06,  -1.41933E-03,   298.133E-06
C:/temp/dataset/6/31_2.odb,Step-1,Increment      1: Step Time =    1.000,"PART-1-1",           269,      -8.05085,       3.52655,            0.,NA,NA,"",   2.43795E-03,   1.97839E-03,  -1.42463E-03,   21.5476E-06
C:/temp/dataset/6/31_2.odb,Step-1,Increment      1: Step Time =    1.000,"PART-1-1",           270,       8.95558,      -12.5395,            0.,NA,NA,"",   1.32155E-03,   1.28399E-03,  -312.842E-06,   36.5565E-06
C:/temp/dataset/6/31_2.odb,Step-1,Increment      1: Step Time =    1.000,"PART-1-1",           271,       1.35989,  -223.950E-03,            0.,NA,NA,"",   2.16329E-03,   2.04428E-03,  -707.630E-06,   36.1552E-06
C:/temp/dataset/6/31_2.odb,Step-1,Increment      1: Step Time =    1.000,"PART-1-1",           272,      -9.75004,      -12.6533,            0.,NA,NA,"",   2.70324E-03,   2.11454E-03,  -1.68411E-03,   44.0157E-06
C:/temp/dataset/6/31_2.odb,Step-1,Increment      1: Step Time =    1.000,"PART-1-1",           273,      -8.51206,      -25.1011,            0.,NA,NA,"",   1.96674E-03,  -1.52390E-03,  -1.24330E-03,   383.615E-06
C:/temp/dataset/6/31_2.odb,Step-1,Increment      1: Step Time =    1.000,"PART-1-1",           274,      -6.19138,   998.181E-03,            0.,NA,NA,"",   2.50654E-03,   2.09482E-03,  -1.37640E-03,   28.0933E-06
C:/temp/dataset/6/31_2.odb,Step-1,Increment      1: Step Time =    1.000,"PART-1-1",           275,      -2.63339,      -25.0950,            0.,NA,NA,"",   3.55982E-03,  -191.677E-06,  -3.55466E-03,   1.09159E-03
C:/temp/dataset/6/31_2.odb,Step-1,Increment      1: Step Time =    1.000,"PART-1-1",           276,       8.11811,      -26.0558,            0.,NA,NA,"",   813.267E-06,   809.551E-06,  -77.6571E-06,   124.310E-06
C:/temp/dataset/6/31_2.odb,Step-1,Increment      1: Step Time =    1.000,"PART-1-1",           277,       6.33403,   764.508E-03,            0.,NA,NA,"",   2.05388E-03,   2.01290E-03,  -408.267E-06,   12.1313E-06
C:/temp/dataset/6/31_2.odb,Step-1,Increment      1: Step Time =    1.000,"PART-1-1",           278,       8.84044,      -16.9880,            0.,NA,NA,"",   880.680E-06,   840.949E-06,  -261.535E-06,   54.7207E-06
C:/temp/dataset/6/31_2.odb,Step-1,Increment      1: Step Time =    1.000,"PART-1-1",           279,      -11.3950,       19.6047,            0.,NA,NA,"",   1.97633E-03,   1.21582E-03,  -1.55810E-03,   24.1581E-09
C:/temp/dataset/6/31_2.odb,Step-1,Increment      1: Step Time =    1.000,"PART-1-1",           280,      -11.2464,      -2.22607,            0.,NA,NA,"",   2.85334E-03,   2.39099E-03,  -1.55715E-03,   41.5594E-06
C:/temp/dataset/6/31_2.odb,Step-1,Increment      1: Step Time =    1.000,"PART-1-1",           281,      -8.41776,  -32.7016E-03,            0.,NA,NA,"",   2.67061E-03,   2.21146E-03,  -1.49721E-03,   37.5683E-06
C:/temp/dataset/6/31_2.odb,Step-1,Increment      1: Step Time =    1.000,"PART-1-1",           282,       4.48255,      -24.5345,            0.,NA,NA,"",   1.35496E-03,   1.21044E-03,  -608.895E-06,   246.519E-06
C:/temp/dataset/6/31_2.odb,Step-1,Increment      1: Step Time =    1.000,"PART-1-1",           283,       6.11275,      -24.3348,            0.,NA,NA,"",   1.04344E-03,   1.01959E-03,  -221.834E-06,   137.678E-06
C:/temp/dataset/6/31_2.odb,Step-1,Increment      1: Step Time =    1.000,"PART-1-1",           284,       9.69767,      -4.20039,            0.,NA,NA,"",   2.04525E-03,   2.00541E-03,  -401.702E-06,   18.0003E-06
C:/temp/dataset/6/31_2.odb,Step-1,Increment      1: Step Time =    1.000,"PART-1-1",           285,       13.8851,      -1.60402,            0.,NA,NA,"",   2.07762E-03,   2.01934E-03,  -488.647E-06,   19.6603E-06
C:/temp/dataset/6/31_2.odb,Step-1,Increment      1: Step Time =    1.000,"PART-1-1",           286,           15.,   -468.75E-03,            0.,NA,NA,"",   2.07192E-03,   2.01519E-03,  -481.544E-06,   20.0013E-06
C:/temp/dataset/6/31_2.odb,Step-1,Increment      1: Step Time =    1.000,"PART-1-1",           287,       13.7553,   590.641E-03,            0.,NA,NA,"",   2.07359E-03,   2.02215E-03,  -458.999E-06,   13.7543E-06
C:/temp/dataset/6/31_2.odb,Step-1,Increment      1: Step Time =    1.000,"PART-1-1",           288,       12.6405,  -544.629E-03,            0.,NA,NA,"",   2.08075E-03,   2.03107E-03,  -451.968E-06,   16.8351E-06
C:/temp/dataset/6/31_2.odb,Step-1,Increment      1: Step Time =    1.000,"PART-1-1",           289,       6.57104,       2.96720,            0.,NA,NA,"",   2.00101E-03,   1.95570E-03,  -423.390E-06,   15.0301E-06
C:/temp/dataset/6/31_2.odb,Step-1,Increment      1: Step Time =    1.000,"PART-1-1",           290,       5.86345,       1.80964,            0.,NA,NA,"",   2.02746E-03,   1.98096E-03,  -431.737E-06,   12.5739E-06
C:/temp/dataset/6/31_2.odb,Step-1,Increment      1: Step Time =    1.000,"PART-1-1",           291,       7.10711,       1.10321,            0.,NA,NA,"",   2.04812E-03,   2.00930E-03,  -396.887E-06,   12.3009E-06
C:/temp/dataset/6/31_2.odb,Step-1,Increment      1: Step Time =    1.000,"PART-1-1",           292,       7.81470,       2.26078,            0.,NA,NA,"",   2.02754E-03,   1.98781E-03,  -399.406E-06,   15.5838E-06
C:/temp/dataset/6/31_2.odb,Step-1,Increment      1: Step Time =    1.000,"PART-1-1",           293,       6.97305,      -8.82061,            0.,NA,NA,"",   1.67745E-03,   1.65788E-03,  -255.522E-06,   38.9845E-06
C:/temp/dataset/6/31_2.odb,Step-1,Increment      1: Step Time =    1.000,"PART-1-1",           294,       5.98985,      -7.53541,            0.,NA,NA,"",   1.79678E-03,   1.78170E-03,  -232.306E-06,   46.8421E-06
C:/temp/dataset/6/31_2.odb,Step-1,Increment      1: Step Time =    1.000,"PART-1-1",           295,            5.,      -8.76875,            0.,NA,NA,"",   1.63512E-03,   1.63225E-03,  -96.7856E-06,   35.9689E-06
C:/temp/dataset/6/31_2.odb,Step-1,Increment      1: Step Time =    1.000,"PART-1-1",           296,       5.98320,      -10.0539,            0.,NA,NA,"",   1.52726E-03,   1.51947E-03,  -154.020E-06,   25.8342E-06
C:/temp/dataset/6/31_2.odb,Step-1,Increment      1: Step Time =    1.000,"PART-1-1",           297,       12.0429,      -8.05477,            0.,NA,NA,"",   1.80683E-03,   1.73752E-03,  -495.621E-06,   25.2950E-06
C:/temp/dataset/6/31_2.odb,Step-1,Increment      1: Step Time =    1.000,"PART-1-1",           298,       11.0248,      -9.13413,            0.,NA,NA,"",   1.70079E-03,   1.64113E-03,  -446.531E-06,   33.6562E-06
C:/temp/dataset/6/31_2.odb,Step-1,Increment      1: Step Time =    1.000,"PART-1-1",           299,       11.9985,      -10.2754,            0.,NA,NA,"",   1.60663E-03,   1.53130E-03,  -486.206E-06,   30.9259E-06
C:/temp/dataset/6/31_2.odb,Step-1,Increment      1: Step Time =    1.000,"PART-1-1",           300,       13.0166,      -9.19606,            0.,NA,NA,"",   1.72397E-03,   1.63515E-03,  -546.215E-06,   22.1899E-06
C:/temp/dataset/6/31_2.odb,Step-1,Increment      1: Step Time =    1.000,"PART-1-1",           301,       13.9992,      -14.7549,            0.,NA,NA,"",   1.24099E-03,   1.12091E-03,  -532.567E-06,   35.9021E-06
C:/temp/dataset/6/31_2.odb,Step-1,Increment      1: Step Time =    1.000,"PART-1-1",           302,       13.0271,      -15.9471,            0.,NA,NA,"",   1.10242E-03,   1.01061E-03,  -440.451E-06,   36.8752E-06
C:/temp/dataset/6/31_2.odb,Step-1,Increment      1: Step Time =    1.000,"PART-1-1",           303,       14.0279,      -16.9735,            0.,NA,NA,"",   1.06335E-03,   960.387E-06,  -456.478E-06,   45.3380E-06
C:/temp/dataset/6/31_2.odb,Step-1,Increment      1: Step Time =    1.000,"PART-1-1",           304,           15.,      -15.7813,            0.,NA,NA,"",   1.20042E-03,   1.05940E-03,  -564.511E-06,   46.1785E-06
C:/temp/dataset/6/31_2.odb,Step-1,Increment      1: Step Time =    1.000,"PART-1-1",           305,       6.96949,      -18.0995,            0.,NA,NA,"",   722.491E-06,   687.135E-06,  -223.245E-06,   63.3023E-06
C:/temp/dataset/6/31_2.odb,Step-1,Increment      1: Step Time =    1.000,"PART-1-1",           306,       5.95014,      -17.3335,            0.,NA,NA,"",   791.839E-06,   773.334E-06,  -170.187E-06,   39.2624E-06
C:/temp/dataset/6/31_2.odb,Step-1,Increment      1: Step Time =    1.000,"PART-1-1",           307,            5.,      -18.7625,            0.,NA,NA,"",   651.077E-06,   628.741E-06,  -169.076E-06,   138.422E-06
C:/temp/dataset/6/31_2.odb,Step-1,Increment      1: Step Time =    1.000,"PART-1-1",           308,       6.01935,      -19.5285,            0.,NA,NA,"",   531.269E-06,   472.327E-06,  -243.218E-06,   173.576E-06
C:/temp/dataset/6/31_2.odb,Step-1,Increment      1: Step Time =    1.000,"PART-1-1",           309,       7.66098,      -29.0388,            0.,NA,NA,"",   307.416E-06,   302.185E-06,  -56.4706E-06,   211.704E-06
C:/temp/dataset/6/31_2.odb,Step-1,Increment      1: Step Time =    1.000,"PART-1-1",           310,       6.62868,      -28.0660,            0.,NA,NA,"",   632.310E-06,   618.788E-06,  -130.065E-06,   229.381E-06
C:/temp/dataset/6/31_2.odb,Step-1,Increment      1: Step Time =    1.000,"PART-1-1",           311,       5.21770,      -29.0272,            0.,NA,NA,"",   428.831E-06,   409.437E-06,  -127.504E-06,   316.817E-06
C:/temp/dataset/6/31_2.odb,Step-1,Increment      1: Step Time =    1.000,"PART-1-1",           312,          6.25,          -30.,            0.,NA,NA,"",            0.,   260.200E-42,  -278.680E-42,   305.239E-06
C:/temp/dataset/6/31_2.odb,Step-1,Increment      1: Step Time =    1.000,"PART-1-1",           313,   162.125E-03,      -28.5454,            0.,NA,NA,"",   811.940E-06,   454.282E-06,  -672.960E-06,   646.634E-06
C:/temp/dataset/6/31_2.odb,Step-1,Increment      1: Step Time =    1.000,"PART-1-1",           314,      -1.06934,      -27.3053,            0.,NA,NA,"",   1.62602E-03,   403.439E-06,  -1.57517E-03,   773.319E-06
C:/temp/dataset/6/31_2.odb,Step-1,Increment      1: Step Time =    1.000,"PART-1-1",           315,      -2.48147,      -28.7599,            0.,NA,NA,"",   680.675E-06,  -12.9112E-06,  -680.552E-06,   727.100E-06
C:/temp/dataset/6/31_2.odb,Step-1,Increment      1: Step Time =    1.000,"PART-1-1",           316,         -1.25,          -30.,            0.,NA,NA,"",            0.,   107.215E-42,  -1.12487E-39,   608.188E-06
C:/temp/dataset/6/31_2.odb,Step-1,Increment      1: Step Time =    1.000,"PART-1-1",           317,          -15.,        -21.25,            0.,NA,NA,"",   701.803E-06,  -696.344E-06,   87.3692E-06,   41.2787E-06
C:/temp/dataset/6/31_2.odb,Step-1,Increment      1: Step Time =    1.000,"PART-1-1",           318,      -13.9888,      -22.4607,            0.,NA,NA,"",   1.09206E-03,  -1.07185E-03,  -209.144E-06,   51.1431E-06
C:/temp/dataset/6/31_2.odb,Step-1,Increment      1: Step Time =    1.000,"PART-1-1",           319,      -12.8187,      -21.2681,            0.,NA,NA,"",   844.302E-06,  -706.018E-06,  -463.017E-06,   102.560E-06
C:/temp/dataset/6/31_2.odb,Step-1,Increment      1: Step Time =    1.000,"PART-1-1",           320,      -13.8299,      -20.0574,            0.,NA,NA,"",   377.419E-06,  -274.671E-06,  -258.845E-06,   75.4046E-06
C:/temp/dataset/6/31_2.odb,Step-1,Increment      1: Step Time =    1.000,"PART-1-1",           321,      -12.5142,      -28.6623,            0.,NA,NA,"",   612.228E-06,  -599.369E-06,  -124.823E-06,   301.033E-06
C:/temp/dataset/6/31_2.odb,Step-1,Increment      1: Step Time =    1.000,"PART-1-1",           322,        -11.25,          -30.,            0.,NA,NA,"",            0.,  -340.473E-42,  -363.138E-42,   386.647E-06
C:/temp/dataset/6/31_2.odb,Step-1,Increment      1: Step Time =    1.000,"PART-1-1",           323,      -9.93348,      -28.4464,            0.,NA,NA,"",   809.050E-06,  -756.616E-06,  -286.522E-06,   387.814E-06
C:/temp/dataset/6/31_2.odb,Step-1,Increment      1: Step Time =    1.000,"PART-1-1",           324,      -11.1976,      -27.1087,            0.,NA,NA,"",   1.23042E-03,  -1.17828E-03,  -354.366E-06,   289.641E-06
C:/temp/dataset/6/31_2.odb,Step-1,Increment      1: Step Time =    1.000,"PART-1-1",           325,      -7.37036,      -13.8742,            0.,NA,NA,"",   2.97144E-03,   1.88886E-03,  -2.29384E-03,   115.678E-06
C:/temp/dataset/6/31_2.odb,Step-1,Increment      1: Step Time =    1.000,"PART-1-1",           326,      -6.21015,      -15.0417,            0.,NA,NA,"",   3.14258E-03,   1.60390E-03,  -2.70247E-03,   171.667E-06
C:/temp/dataset/6/31_2.odb,Step-1,Increment      1: Step Time =    1.000,"PART-1-1",           327,           -5.,      -13.7188,            0.,NA,NA,"",   3.29932E-03,   1.77433E-03,  -2.78159E-03,   190.630E-06
C:/temp/dataset/6/31_2.odb,Step-1,Increment      1: Step Time =    1.000,"PART-1-1",           328,      -6.16021,      -12.5513,            0.,NA,NA,"",   3.14620E-03,   2.03662E-03,  -2.39808E-03,   139.381E-06
C:/temp/dataset/6/31_2.odb,Step-1,Increment      1: Step Time =    1.000,"PART-1-1",           329,      -9.33590,      -9.40979,            0.,NA,NA,"",   2.98911E-03,   2.46290E-03,  -1.69378E-03,   45.9292E-06
C:/temp/dataset/6/31_2.odb,Step-1,Increment      1: Step Time =    1.000,"PART-1-1",           330,      -8.33361,      -10.3234,            0.,NA,NA,"",   3.01580E-03,   2.37569E-03,  -1.85772E-03,   67.7279E-06
C:/temp/dataset/6/31_2.odb,Step-1,Increment      1: Step Time =    1.000,"PART-1-1",           331,      -7.16565,      -9.15059,            0.,NA,NA,"",   3.09431E-03,   2.42820E-03,  -1.91797E-03,   90.6258E-06
C:/temp/dataset/6/31_2.odb,Step-1,Increment      1: Step Time =    1.000,"PART-1-1",           332,      -8.16794,      -8.23701,            0.,NA,NA,"",   3.06660E-03,   2.50564E-03,  -1.76799E-03,   63.6921E-06
C:/temp/dataset/6/31_2.odb,Step-1,Increment      1: Step Time =    1.000,"PART-1-1",           333,      -11.1473,      -6.32447,            0.,NA,NA,"",   2.96965E-03,   2.55075E-03,  -1.52069E-03,   44.5528E-06
C:/temp/dataset/6/31_2.odb,Step-1,Increment      1: Step Time =    1.000,"PART-1-1",           334,      -10.2102,      -6.79208,            0.,NA,NA,"",   3.00364E-03,   2.55639E-03,  -1.57694E-03,   40.6516E-06
C:/temp/dataset/6/31_2.odb,Step-1,Increment      1: Step Time =    1.000,"PART-1-1",           335,      -9.51762,      -5.78103,            0.,NA,NA,"",   3.01129E-03,   2.54633E-03,  -1.60750E-03,   45.5764E-06
C:/temp/dataset/6/31_2.odb,Step-1,Increment      1: Step Time =    1.000,"PART-1-1",           336,      -10.4548,      -5.31342,            0.,NA,NA,"",   2.98007E-03,   2.53746E-03,  -1.56273E-03,   44.2406E-06
C:/temp/dataset/6/31_2.odb,Step-1,Increment      1: Step Time =    1.000,"PART-1-1",           337,      -5.04937,      -1.25055,            0.,NA,NA,"",   2.58729E-03,   2.20196E-03,  -1.35848E-03,   40.4241E-06
C:/temp/dataset/6/31_2.odb,Step-1,Increment      1: Step Time =    1.000,"PART-1-1",           338,      -3.82978,  -150.691E-03,            0.,NA,NA,"",   2.43847E-03,   2.10907E-03,  -1.22392E-03,   36.2929E-06
C:/temp/dataset/6/31_2.odb,Step-1,Increment      1: Step Time =    1.000,"PART-1-1",           339,      -5.10700,   929.666E-03,            0.,NA,NA,"",   2.45253E-03,   2.07551E-03,  -1.30658E-03,   26.9630E-06
C:/temp/dataset/6/31_2.odb,Step-1,Increment      1: Step Time =    1.000,"PART-1-1",           340,      -6.32658,  -170.190E-03,            0.,NA,NA,"",   2.58949E-03,   2.17040E-03,  -1.41239E-03,   36.1725E-06
C:/temp/dataset/6/31_2.odb,Step-1,Increment      1: Step Time =    1.000,"PART-1-1",           341,          -15.,          3.75,            0.,NA,NA,"",   2.64904E-03,   2.00120E-03,  -1.73568E-03,   4.72316E-06
C:/temp/dataset/6/31_2.odb,Step-1,Increment      1: Step Time =    1.000,"PART-1-1",           342,      -13.8520,       2.39386,            0.,NA,NA,"",   2.66945E-03,   2.08580E-03,  -1.66595E-03,   10.8135E-06
C:/temp/dataset/6/31_2.odb,Step-1,Increment      1: Step Time =    1.000,"PART-1-1",           343,      -12.6820,       3.58697,            0.,NA,NA,"",   2.58249E-03,   2.01357E-03,  -1.61703E-03,   11.6044E-06
C:/temp/dataset/6/31_2.odb,Step-1,Increment      1: Step Time =    1.000,"PART-1-1",           344,      -13.8301,       4.94311,            0.,NA,NA,"",   2.55865E-03,   1.93390E-03,  -1.67534E-03,   3.42997E-06
C:/temp/dataset/6/31_2.odb,Step-1,Increment      1: Step Time =    1.000,"PART-1-1",           345,          -15.,         11.25,            0.,NA,NA,"",   2.36635E-03,   1.61326E-03,  -1.73119E-03,   812.036E-09
C:/temp/dataset/6/31_2.odb,Step-1,Increment      1: Step Time =    1.000,"PART-1-1",           346,      -14.0083,       10.0442,            0.,NA,NA,"",   2.37231E-03,   1.67096E-03,  -1.68397E-03,   703.733E-09
C:/temp/dataset/6/31_2.odb,Step-1,Increment      1: Step Time =    1.000,"PART-1-1",           347,      -13.0572,       11.3141,            0.,NA,NA,"",   2.29617E-03,   1.60981E-03,  -1.63736E-03,   446.574E-09
C:/temp/dataset/6/31_2.odb,Step-1,Increment      1: Step Time =    1.000,"PART-1-1",           348,      -14.0489,       12.5200,            0.,NA,NA,"",   2.29107E-03,   1.55241E-03,  -1.68494E-03,   376.874E-09
C:/temp/dataset/6/31_2.odb,Step-1,Increment      1: Step Time =    1.000,"PART-1-1",           349,           -5.,       22.7083,            0.,NA,NA,"",   1.64716E-03,   1.06819E-03,  -1.25384E-03,   4.62863E-09
C:/temp/dataset/6/31_2.odb,Step-1,Increment      1: Step Time =    1.000,"PART-1-1",           350,      -5.96779,       23.6687,            0.,NA,NA,"",   1.65385E-03,   1.02250E-03,  -1.29989E-03,   2.06382E-09
C:/temp/dataset/6/31_2.odb,Step-1,Increment      1: Step Time =    1.000,"PART-1-1",           351,      -6.69567,       22.7251,            0.,NA,NA,"",   1.70888E-03,   1.06739E-03,  -1.33453E-03,   716.678E-12
C:/temp/dataset/6/31_2.odb,Step-1,Increment      1: Step Time =    1.000,"PART-1-1",           352,      -5.72788,       21.7648,            0.,NA,NA,"",   1.70268E-03,   1.11309E-03,  -1.28847E-03,   2.74393E-09
C:/temp/dataset/6/31_2.odb,Step-1,Increment      1: Step Time =    1.000,"PART-1-1",           353,      -9.95259,       28.8237,            0.,NA,NA,"",   1.68008E-03,   777.243E-06,  -1.48949E-03,   873.397E-12
C:/temp/dataset/6/31_2.odb,Step-1,Increment      1: Step Time =    1.000,"PART-1-1",           354,      -8.67740,       27.7404,            0.,NA,NA,"",   1.65179E-03,   828.779E-06,  -1.42882E-03,   839.327E-12
C:/temp/dataset/6/31_2.odb,Step-1,Increment      1: Step Time =    1.000,"PART-1-1",           355,      -7.47481,       28.9167,            0.,NA,NA,"",   1.57434E-03,   772.812E-06,  -1.37160E-03,   704.079E-12
C:/temp/dataset/6/31_2.odb,Step-1,Increment      1: Step Time =    1.000,"PART-1-1",           356,         -8.75,           30.,            0.,NA,NA,"",   1.60364E-03,   721.276E-06,  -1.43227E-03,   807.690E-12
C:/temp/dataset/6/31_2.odb,Step-1,Increment      1: Step Time =    1.000,"PART-1-1",           357,      -12.4360,       28.7156,            0.,NA,NA,"",   1.78791E-03,   782.389E-06,  -1.60764E-03,   749.596E-12
C:/temp/dataset/6/31_2.odb,Step-1,Increment      1: Step Time =    1.000,"PART-1-1",           358,        -13.75,           30.,            0.,NA,NA,"",   1.81925E-03,   721.285E-06,  -1.67016E-03,   174.140E-12
C:/temp/dataset/6/31_2.odb,Step-1,Increment      1: Step Time =    1.000,"PART-1-1",           359,          -15.,         28.75,            0.,NA,NA,"",   1.89768E-03,   780.756E-06,  -1.72962E-03,   230.899E-12
C:/temp/dataset/6/31_2.odb,Step-1,Increment      1: Step Time =    1.000,"PART-1-1",           360,      -13.6860,       27.4656,            0.,NA,NA,"",   1.86761E-03,   841.861E-06,  -1.66711E-03,   781.152E-12
C:/temp/dataset/6/31_2.odb,Step-1,Increment      1: Step Time =    1.000,"PART-1-1",           361,         -3.75,           -5.,            0.,NA,NA,"",   2.78047E-03,   2.45873E-03,  -1.29834E-03,   32.9667E-06
C:/temp/dataset/6/31_2.odb,Step-1,Increment      1: Step Time =    1.000,"PART-1-1",           362,      -2.75606,      -4.06584,            0.,NA,NA,"",   2.62743E-03,   2.35172E-03,  -1.17165E-03,   20.7061E-06
C:/temp/dataset/6/31_2.odb,Step-1,Increment      1: Step Time =    1.000,"PART-1-1",           363,      -4.26954,      -3.28646,            0.,NA,NA,"",   2.67296E-03,   2.30293E-03,  -1.35691E-03,   50.7347E-06
C:/temp/dataset/6/31_2.odb,Step-1,Increment      1: Step Time =    1.000,"PART-1-1",           364,      -5.26349,      -4.22062,            0.,NA,NA,"",   2.84173E-03,   2.39598E-03,  -1.52799E-03,   81.7451E-06
C:/temp/dataset/6/31_2.odb,Step-1,Increment      1: Step Time =    1.000,"PART-1-1",           365,   659.099E-03,      -2.85996,            0.,NA,NA,"",   2.32898E-03,   2.19041E-03,  -791.383E-06,   37.3751E-06
C:/temp/dataset/6/31_2.odb,Step-1,Increment      1: Step Time =    1.000,"PART-1-1",           366,  -266.865E-03,      -3.97148,            0.,NA,NA,"",   2.46822E-03,   2.29849E-03,  -899.460E-06,   29.2999E-06
C:/temp/dataset/6/31_2.odb,Step-1,Increment      1: Step Time =    1.000,"PART-1-1",           367,          1.25,           -5.,            0.,NA,NA,"",   2.46802E-03,   2.34576E-03,  -767.150E-06,   43.8011E-06
C:/temp/dataset/6/31_2.odb,Step-1,Increment      1: Step Time =    1.000,"PART-1-1",           368,       2.17596,      -3.88848,            0.,NA,NA,"",   2.30160E-03,   2.20802E-03,  -649.618E-06,   44.1081E-06
C:/temp/dataset/6/31_2.odb,Step-1,Increment      1: Step Time =    1.000,"PART-1-1",           369,   93.5104E-03,  -560.922E-03,            0.,NA,NA,"",   2.23441E-03,   2.07325E-03,  -833.197E-06,   36.8161E-06
C:/temp/dataset/6/31_2.odb,Step-1,Increment      1: Step Time =    1.000,"PART-1-1",           370,   627.873E-03,   544.404E-03,            0.,NA,NA,"",   2.16157E-03,   2.01701E-03,  -777.225E-06,   34.4280E-06
C:/temp/dataset/6/31_2.odb,Step-1,Increment      1: Step Time =    1.000,"PART-1-1",           371,  -981.002E-03,       1.17096,            0.,NA,NA,"",   2.20705E-03,   2.00061E-03,  -931.990E-06,   33.3893E-06
C:/temp/dataset/6/31_2.odb,Step-1,Increment      1: Step Time =    1.000,"PART-1-1",           372,      -1.51537,   65.6335E-03,            0.,NA,NA,"",   2.28811E-03,   2.06139E-03,  -993.028E-06,   35.8663E-06
C:/temp/dataset/6/31_2.odb,Step-1,Increment      1: Step Time =    1.000,"PART-1-1",           373,       4.11258,       2.54084,            0.,NA,NA,"",   2.00677E-03,   1.93960E-03,  -514.827E-06,   15.8578E-06
C:/temp/dataset/6/31_2.odb,Step-1,Increment      1: Step Time =    1.000,"PART-1-1",           374,       3.71515,       1.12833,            0.,NA,NA,"",   2.05637E-03,   1.98774E-03,  -526.848E-06,   20.8163E-06
C:/temp/dataset/6/31_2.odb,Step-1,Increment      1: Step Time =    1.000,"PART-1-1",           375,       5.46602,   397.127E-03,            0.,NA,NA,"",   2.06369E-03,   2.01833E-03,  -430.295E-06,   14.9525E-06
C:/temp/dataset/6/31_2.odb,Step-1,Increment      1: Step Time =    1.000,"PART-1-1",           376,       8.69518,  -378.803E-03,            0.,NA,NA,"",   2.07877E-03,   2.04330E-03,  -382.379E-06,   16.5764E-06
C:/temp/dataset/6/31_2.odb,Step-1,Increment      1: Step Time =    1.000,"PART-1-1",           377,       8.82700,   889.396E-03,            0.,NA,NA,"",   2.05957E-03,   2.02239E-03,  -389.539E-06,   16.0229E-06
C:/temp/dataset/6/31_2.odb,Step-1,Increment      1: Step Time =    1.000,"PART-1-1",           378,       6.97530,  -164.986E-03,            0.,NA,NA,"",   2.07398E-03,   2.03772E-03,  -386.102E-06,   13.9127E-06
C:/temp/dataset/6/31_2.odb,Step-1,Increment      1: Step Time =    1.000,"PART-1-1",           379,      -3.65351,      -22.6081,            0.,NA,NA,"",   5.95373E-03,  -995.371E-06,  -5.86994E-03,   1.46590E-03
C:/temp/dataset/6/31_2.odb,Step-1,Increment      1: Step Time =    1.000,"PART-1-1",           380,      -2.48671,      -21.3009,            0.,NA,NA,"",   8.36187E-03,  -448.347E-06,  -8.34984E-03,   1.86517E-03
C:/temp/dataset/6/31_2.odb,Step-1,Increment      1: Step Time =    1.000,"PART-1-1",           381,         -3.75,          -20.,            0.,NA,NA,"",   9.26579E-03,   28.3524E-06,  -9.26575E-03,   1.47951E-03
C:/temp/dataset/6/31_2.odb,Step-1,Increment      1: Step Time =    1.000,"PART-1-1",           382,      -4.91680,      -21.3072,            0.,NA,NA,"",   5.49602E-03,  -1.34151E-03,  -5.32978E-03,   1.21137E-03
C:/temp/dataset/6/31_2.odb,Step-1,Increment      1: Step Time =    1.000,"PART-1-1",           383,       12.8399,      -22.4784,            0.,NA,NA,"",   815.939E-06,   789.417E-06,  -206.341E-06,   39.3250E-06
C:/temp/dataset/6/31_2.odb,Step-1,Increment      1: Step Time =    1.000,"PART-1-1",           384,       11.7398,      -21.2760,            0.,NA,NA,"",   802.306E-06,   778.781E-06,  -192.861E-06,   50.1683E-06
C:/temp/dataset/6/31_2.odb,Step-1,Increment      1: Step Time =    1.000,"PART-1-1",           385,       10.5591,      -22.4389,            0.,NA,NA,"",   772.072E-06,   764.850E-06,  -105.358E-06,   43.9392E-06
C:/temp/dataset/6/31_2.odb,Step-1,Increment      1: Step Time =    1.000,"PART-1-1",           386,       11.6593,      -23.6412,            0.,NA,NA,"",   773.577E-06,   764.150E-06,  -120.401E-06,   33.5435E-06
C:/temp/dataset/6/31_2.odb,Step-1,Increment      1: Step Time =    1.000,"PART-1-1",           387,          8.75,            5.,            0.,NA,NA,"",   2.00433E-03,   1.96016E-03,  -418.438E-06,   24.0298E-06
C:/temp/dataset/6/31_2.odb,Step-1,Increment      1: Step Time =    1.000,"PART-1-1",           388,       7.62461,       4.03982,            0.,NA,NA,"",   1.99153E-03,   1.94764E-03,  -415.785E-06,   22.7176E-06
C:/temp/dataset/6/31_2.odb,Step-1,Increment      1: Step Time =    1.000,"PART-1-1",           389,       8.90047,       2.96899,            0.,NA,NA,"",   2.02529E-03,   1.98508E-03,  -401.606E-06,   16.8269E-06
C:/temp/dataset/6/31_2.odb,Step-1,Increment      1: Step Time =    1.000,"PART-1-1",           390,       10.0259,       3.92917,            0.,NA,NA,"",   2.02857E-03,   1.98622E-03,  -412.366E-06,   15.5419E-06
C:/temp/dataset/6/31_2.odb,Step-1,Increment      1: Step Time =    1.000,"PART-1-1",           391,      -6.96921,       21.1213,            0.,NA,NA,"",   1.76747E-03,   1.14371E-03,  -1.34754E-03,   6.43697E-09
C:/temp/dataset/6/31_2.odb,Step-1,Increment      1: Step Time =    1.000,"PART-1-1",           392,      -6.24133,       19.9816,            0.,NA,NA,"",   1.77731E-03,   1.19796E-03,  -1.31290E-03,   6.99495E-09
C:/temp/dataset/6/31_2.odb,Step-1,Increment      1: Step Time =    1.000,"PART-1-1",           393,           -5.,        20.625,            0.,NA,NA,"",   1.71311E-03,   1.16733E-03,  -1.25383E-03,   3.17510E-09
C:/temp/dataset/6/31_2.odb,Step-1,Increment      1: Step Time =    1.000,"PART-1-1",           394,      -12.9370,       8.81410,            0.,NA,NA,"",   2.37865E-03,   1.73074E-03,  -1.63172E-03,   369.674E-09
C:/temp/dataset/6/31_2.odb,Step-1,Increment      1: Step Time =    1.000,"PART-1-1",           395,          -15.,          8.75,            0.,NA,NA,"",   2.45264E-03,   1.73470E-03,  -1.73386E-03,   1.30308E-06
C:/temp/dataset/6/31_2.odb,Step-1,Increment      1: Step Time =    1.000,"PART-1-1",           396,      -13.9287,       7.51992,            0.,NA,NA,"",   2.46012E-03,   1.79592E-03,  -1.68133E-03,   806.223E-09
C:/temp/dataset/6/31_2.odb,Step-1,Increment      1: Step Time =    1.000,"PART-1-1",           397,          -15.,          1.25,            0.,NA,NA,"",   2.75173E-03,   2.15090E-03,  -1.71628E-03,   16.6989E-06
C:/temp/dataset/6/31_2.odb,Step-1,Increment      1: Step Time =    1.000,"PART-1-1",           398,      -13.9023,  -59.1614E-03,            0.,NA,NA,"",   2.77576E-03,   2.24104E-03,  -1.63786E-03,   23.3949E-06
C:/temp/dataset/6/31_2.odb,Step-1,Increment      1: Step Time =    1.000,"PART-1-1",           399,      -12.7542,       1.08470,            0.,NA,NA,"",   2.70372E-03,   2.17303E-03,  -1.60874E-03,   22.5778E-06
C:/temp/dataset/6/31_2.odb,Step-1,Increment      1: Step Time =    1.000,"PART-1-1",           400,          -15.,         -1.25,            0.,NA,NA,"",   2.83583E-03,   2.29868E-03,  -1.66072E-03,   36.7502E-06
C:/temp/dataset/6/31_2.odb,Step-1,Increment      1: Step Time =    1.000,"PART-1-1",           401,      -13.9820,      -2.43756,            0.,NA,NA,"",   2.85602E-03,   2.37974E-03,  -1.57913E-03,   41.0927E-06
C:/temp/dataset/6/31_2.odb,Step-1,Increment      1: Step Time =    1.000,"PART-1-1",           402,      -12.8843,      -1.24672,            0.,NA,NA,"",   2.81267E-03,   2.32413E-03,  -1.58414E-03,   34.2130E-06
C:/temp/dataset/6/31_2.odb,Step-1,Increment      1: Step Time =    1.000,"PART-1-1",           403,      -12.3802,      -13.7897,            0.,NA,NA,"",   2.13911E-03,   1.84591E-03,  -1.08092E-03,   74.4909E-06
C:/temp/dataset/6/31_2.odb,Step-1,Increment      1: Step Time =    1.000,"PART-1-1",           404,      -13.6672,      -12.5056,            0.,NA,NA,"",   2.23213E-03,   2.03397E-03,  -919.442E-06,   106.513E-06
C:/temp/dataset/6/31_2.odb,Step-1,Increment      1: Step Time =    1.000,"PART-1-1",           405,          -15.,        -13.75,            0.,NA,NA,"",   1.79078E-03,   1.71623E-03,  -511.330E-06,   148.907E-06
C:/temp/dataset/6/31_2.odb,Step-1,Increment      1: Step Time =    1.000,"PART-1-1",           406,      -13.7130,      -15.0341,            0.,NA,NA,"",   1.62547E-03,   1.48346E-03,  -664.435E-06,   113.576E-06
C:/temp/dataset/6/31_2.odb,Step-1,Increment      1: Step Time =    1.000,"PART-1-1",           407,       9.21271,      -3.58583,            0.,NA,NA,"",   2.06928E-03,   2.03269E-03,  -387.418E-06,   16.6423E-06
C:/temp/dataset/6/31_2.odb,Step-1,Increment      1: Step Time =    1.000,"PART-1-1",           408,       7.90749,      -3.82305,            0.,NA,NA,"",   2.07833E-03,   2.04675E-03,  -360.927E-06,   26.6642E-06
C:/temp/dataset/6/31_2.odb,Step-1,Increment      1: Step Time =    1.000,"PART-1-1",           409,       8.15132,      -5.16923,            0.,NA,NA,"",   2.01885E-03,   1.98601E-03,  -362.664E-06,   34.0230E-06
C:/temp/dataset/6/31_2.odb,Step-1,Increment      1: Step Time =    1.000,"PART-1-1",           410,       9.45655,      -4.93201,            0.,NA,NA,"",   2.01815E-03,   1.97863E-03,  -397.440E-06,   20.9312E-06
C:/temp/dataset/6/31_2.odb,Step-1,Increment      1: Step Time =    1.000,"PART-1-1",           411,       6.91243,      -16.0318,            0.,NA,NA,"",   936.769E-06,   916.634E-06,  -193.176E-06,   39.6352E-06
C:/temp/dataset/6/31_2.odb,Step-1,Increment      1: Step Time =    1.000,"PART-1-1",           412,       5.96229,      -14.9858,            0.,NA,NA,"",   1.03549E-03,   1.02862E-03,  -119.096E-06,   14.4098E-06
C:/temp/dataset/6/31_2.odb,Step-1,Increment      1: Step Time =    1.000,"PART-1-1",           413,            5.,      -16.2875,            0.,NA,NA,"",   909.638E-06,   908.340E-06,  -48.5760E-06,   29.5215E-06
C:/temp/dataset/6/31_2.odb,Step-1,Increment      1: Step Time =    1.000,"PART-1-1",           414,       6.93910,      -13.7291,            0.,NA,NA,"",   1.16762E-03,   1.15229E-03,  -188.579E-06,   23.0112E-06
C:/temp/dataset/6/31_2.odb,Step-1,Increment      1: Step Time =    1.000,"PART-1-1",           415,       5.97681,      -12.5371,            0.,NA,NA,"",   1.27646E-03,   1.27068E-03,  -121.408E-06,   13.3751E-06
C:/temp/dataset/6/31_2.odb,Step-1,Increment      1: Step Time =    1.000,"PART-1-1",           416,            5.,      -13.7937,            0.,NA,NA,"",   1.14588E-03,   1.14545E-03,  -31.5538E-06,   4.09798E-06
C:/temp/dataset/6/31_2.odb,Step-1,Increment      1: Step Time =    1.000,"PART-1-1",           417,         -1.25,          -20.,            0.,NA,NA,"",   9.74095E-03,  -887.379E-06,  -9.70045E-03,   1.70005E-03
C:/temp/dataset/6/31_2.odb,Step-1,Increment      1: Step Time =    1.000,"PART-1-1",           418,      -1.09514,      -22.7401,            0.,NA,NA,"",   5.73918E-03,   612.260E-06,  -5.70643E-03,   1.42441E-03
C:/temp/dataset/6/31_2.odb,Step-1,Increment      1: Step Time =    1.000,"PART-1-1",           419,   141.566E-03,      -21.4393,            0.,NA,NA,"",   5.42150E-03,   857.314E-06,  -5.35329E-03,   1.21615E-03
C:/temp/dataset/6/31_2.odb,Step-1,Increment      1: Step Time =    1.000,"PART-1-1",           420,      -7.69236,      -25.1479,            0.,NA,NA,"",   2.16714E-03,  -1.51975E-03,  -1.54495E-03,   487.213E-06
C:/temp/dataset/6/31_2.odb,Step-1,Increment      1: Step Time =    1.000,"PART-1-1",           421,      -9.18951,      -25.9970,            0.,NA,NA,"",   1.66301E-03,  -1.42463E-03,  -857.927E-06,   362.731E-06
C:/temp/dataset/6/31_2.odb,Step-1,Increment      1: Step Time =    1.000,"PART-1-1",           422,      -8.56598,      -27.1897,            0.,NA,NA,"",   1.38005E-03,  -1.17385E-03,  -725.686E-06,   432.740E-06
C:/temp/dataset/6/31_2.odb,Step-1,Increment      1: Step Time =    1.000,"PART-1-1",           423,      -7.06883,      -26.3407,            0.,NA,NA,"",   1.89004E-03,  -1.30139E-03,  -1.37064E-03,   567.873E-06
C:/temp/dataset/6/31_2.odb,Step-1,Increment      1: Step Time =    1.000,"PART-1-1",           424,      -9.82073,      -13.8964,            0.,NA,NA,"",   2.53776E-03,   1.90301E-03,  -1.67893E-03,   41.7597E-06
C:/temp/dataset/6/31_2.odb,Step-1,Increment      1: Step Time =    1.000,"PART-1-1",           425,      -8.65586,      -15.1239,            0.,NA,NA,"",   2.60822E-03,   1.67402E-03,  -2.00011E-03,   84.5375E-06
C:/temp/dataset/6/31_2.odb,Step-1,Increment      1: Step Time =    1.000,"PART-1-1",           426,      -8.53523,      -12.6467,            0.,NA,NA,"",   2.87007E-03,   2.11062E-03,  -1.94489E-03,   65.1750E-06
C:/temp/dataset/6/31_2.odb,Step-1,Increment      1: Step Time =    1.000,"PART-1-1",           427,      -6.09243,      -10.1071,            0.,NA,NA,"",   3.12863E-03,   2.30388E-03,  -2.11672E-03,   123.408E-06
C:/temp/dataset/6/31_2.odb,Step-1,Increment      1: Step Time =    1.000,"PART-1-1",           428,           -5.,      -8.71250,            0.,NA,NA,"",   3.10917E-03,   2.34247E-03,  -2.04445E-03,   143.609E-06
C:/temp/dataset/6/31_2.odb,Step-1,Increment      1: Step Time =    1.000,"PART-1-1",           429,      -6.07322,      -7.75598,            0.,NA,NA,"",   3.08517E-03,   2.45555E-03,  -1.86777E-03,   109.787E-06
C:/temp/dataset/6/31_2.odb,Step-1,Increment      1: Step Time =    1.000,"PART-1-1",           430,      -12.7270,      -6.06323,            0.,NA,NA,"",   2.91066E-03,   2.52576E-03,  -1.44653E-03,   56.0035E-06
C:/temp/dataset/6/31_2.odb,Step-1,Increment      1: Step Time =    1.000,"PART-1-1",           431,      -13.8025,      -4.90646,            0.,NA,NA,"",   2.88576E-03,   2.48177E-03,  -1.47256E-03,   59.7488E-06
C:/temp/dataset/6/31_2.odb,Step-1,Increment      1: Step Time =    1.000,"PART-1-1",           432,          -15.,         -6.25,            0.,NA,NA,"",   2.81601E-03,   2.45647E-03,  -1.37683E-03,   91.3120E-06
C:/temp/dataset/6/31_2.odb,Step-1,Increment      1: Step Time =    1.000,"PART-1-1",           433,      -13.9244,      -7.40677,            0.,NA,NA,"",   2.81056E-03,   2.48282E-03,  -1.31713E-03,   81.1777E-06
C:/temp/dataset/6/31_2.odb,Step-1,Increment      1: Step Time =    1.000,"PART-1-1",           434,       1.60591,      -1.50045,            0.,NA,NA,"",   2.20723E-03,   2.09725E-03,  -688.045E-06,   40.1437E-06
C:/temp/dataset/6/31_2.odb,Step-1,Increment      1: Step Time =    1.000,"PART-1-1",           435,  -853.298E-03,      -1.92043,            0.,NA,NA,"",   2.35575E-03,   2.16063E-03,  -938.755E-06,   33.7329E-06
C:/temp/dataset/6/31_2.odb,Step-1,Increment      1: Step Time =    1.000,"PART-1-1",           436,         13.75,          -30.,            0.,NA,NA,"",            0.,   56.7498E-42,  -140.130E-42,   151.790E-06
C:/temp/dataset/6/31_2.odb,Step-1,Increment      1: Step Time =    1.000,"PART-1-1",           437,           15.,      -28.9063,            0.,NA,NA,"",   264.902E-06,   221.668E-06,  -145.039E-06,   128.307E-06
C:/temp/dataset/6/31_2.odb,Step-1,Increment      1: Step Time =    1.000,"PART-1-1",           438,       13.8103,      -27.8746,            0.,NA,NA,"",   387.072E-06,   371.691E-06,  -108.027E-06,   75.4552E-06
C:/temp/dataset/6/31_2.odb,Step-1,Increment      1: Step Time =    1.000,"PART-1-1",           439,       12.5603,      -28.9683,            0.,NA,NA,"",   184.192E-06,   180.552E-06,  -36.4390E-06,   116.490E-06
C:/temp/dataset/6/31_2.odb,Step-1,Increment      1: Step Time =    1.000,"PART-1-1",           440,       12.6598,      -26.8678,            0.,NA,NA,"",   531.832E-06,   522.844E-06,  -97.3607E-06,   76.9308E-06
C:/temp/dataset/6/31_2.odb,Step-1,Increment      1: Step Time =    1.000,"PART-1-1",           441,       11.5501,      -25.8632,            0.,NA,NA,"",   655.749E-06,   650.813E-06,  -80.3076E-06,   55.9149E-06
C:/temp/dataset/6/31_2.odb,Step-1,Increment      1: Step Time =    1.000,"PART-1-1",           442,       10.3093,      -26.9762,            0.,NA,NA,"",   573.658E-06,   571.246E-06,  -52.5444E-06,   100.940E-06
C:/temp/dataset/6/31_2.odb,Step-1,Increment      1: Step Time =    1.000,"PART-1-1",           443,       11.4189,      -27.9808,            0.,NA,NA,"",   383.619E-06,   380.586E-06,  -48.1494E-06,   116.697E-06
C:/temp/dataset/6/31_2.odb,Step-1,Increment      1: Step Time =    1.000,"PART-1-1",           444,       10.1086,      -29.0125,            0.,NA,NA,"",   226.358E-06,   223.968E-06,  -32.8052E-06,   146.652E-06
C:/temp/dataset/6/31_2.odb,Step-1,Increment      1: Step Time =    1.000,"PART-1-1",           445,       9.01957,      -28.0513,            0.,NA,NA,"",   469.256E-06,   465.928E-06,  -55.7840E-06,   158.434E-06
C:/temp/dataset/6/31_2.odb,Step-1,Increment      1: Step Time =    1.000,"PART-1-1",           446,          8.75,          -30.,            0.,NA,NA,"",            0.,   180.826E-42,  -144.226E-42,   205.362E-06
C:/temp/dataset/6/31_2.odb,Step-1,Increment      1: Step Time =    1.000,"PART-1-1",           447,       4.20973,      -27.9354,            0.,NA,NA,"",   878.051E-06,   805.724E-06,  -348.972E-06,   343.646E-06
C:/temp/dataset/6/31_2.odb,Step-1,Increment      1: Step Time =    1.000,"PART-1-1",           448,       2.74203,      -28.9082,            0.,NA,NA,"",   589.301E-06,   505.657E-06,  -302.634E-06,   462.180E-06
C:/temp/dataset/6/31_2.odb,Step-1,Increment      1: Step Time =    1.000,"PART-1-1",           449,          3.75,          -30.,            0.,NA,NA,"",            0.,   336.159E-42,  -536.899E-42,   433.930E-06
C:/temp/dataset/6/31_2.odb,Step-1,Increment      1: Step Time =    1.000,"PART-1-1",           450,       1.16266,      -25.9573,            0.,NA,NA,"",   2.08430E-03,   1.12869E-03,  -1.75224E-03,   634.764E-06
C:/temp/dataset/6/31_2.odb,Step-1,Increment      1: Step Time =    1.000,"PART-1-1",           451,       1.65415,      -27.4536,            0.,NA,NA,"",   1.30598E-03,   906.149E-06,  -940.465E-06,   561.975E-06
C:/temp/dataset/6/31_2.odb,Step-1,Increment      1: Step Time =    1.000,"PART-1-1",           452,       3.39879,      -26.8461,            0.,NA,NA,"",   1.28630E-03,   1.09177E-03,  -680.160E-06,   385.315E-06
C:/temp/dataset/6/31_2.odb,Step-1,Increment      1: Step Time =    1.000,"PART-1-1",           453,       2.90730,      -25.3498,            0.,NA,NA,"",   1.74239E-03,   1.30888E-03,  -1.15012E-03,   452.870E-06
C:/temp/dataset/6/31_2.odb,Step-1,Increment      1: Step Time =    1.000,"PART-1-1",           454,      -3.67645,      -27.5530,            0.,NA,NA,"",   1.49354E-03,  -380.106E-06,  -1.44436E-03,   786.936E-06
C:/temp/dataset/6/31_2.odb,Step-1,Increment      1: Step Time =    1.000,"PART-1-1",           455,      -2.54816,      -26.3074,            0.,NA,NA,"",   2.47981E-03,  -89.2573E-06,  -2.47820E-03,   967.986E-06
C:/temp/dataset/6/31_2.odb,Step-1,Increment      1: Step Time =    1.000,"PART-1-1",           456,      -3.72120,      -25.1278,            0.,NA,NA,"",   3.43529E-03,  -678.494E-06,  -3.36762E-03,   996.370E-06
C:/temp/dataset/6/31_2.odb,Step-1,Increment      1: Step Time =    1.000,"PART-1-1",           457,      -4.84948,      -26.3734,            0.,NA,NA,"",   2.23830E-03,  -899.528E-06,  -2.04960E-03,   828.878E-06
C:/temp/dataset/6/31_2.odb,Step-1,Increment      1: Step Time =    1.000,"PART-1-1",           458,      -4.94498,      -28.7931,            0.,NA,NA,"",   701.858E-06,  -391.929E-06,  -582.233E-06,   664.133E-06
C:/temp/dataset/6/31_2.odb,Step-1,Increment      1: Step Time =    1.000,"PART-1-1",           459,         -3.75,          -30.,            0.,NA,NA,"",            0.,  -127.798E-42,  -1.15001E-39,   607.960E-06
C:/temp/dataset/6/31_2.odb,Step-1,Increment      1: Step Time =    1.000,"PART-1-1",           460,      -6.07748,      -27.5364,            0.,NA,NA,"",   1.41074E-03,  -892.651E-06,  -1.09241E-03,   626.921E-06
C:/temp/dataset/6/31_2.odb,Step-1,Increment      1: Step Time =    1.000,"PART-1-1",           461,      -7.38250,      -28.7433,            0.,NA,NA,"",   738.318E-06,  -609.851E-06,  -416.168E-06,   532.966E-06
C:/temp/dataset/6/31_2.odb,Step-1,Increment      1: Step Time =    1.000,"PART-1-1",           462,         -6.25,          -30.,            0.,NA,NA,"",            0.,  -318.795E-42,  -920.517E-42,   566.415E-06
C:/temp/dataset/6/31_2.odb,Step-1,Increment      1: Step Time =    1.000,"PART-1-1",           463,      -8.77755,      -24.1806,            0.,NA,NA,"",   1.99791E-03,  -1.51104E-03,  -1.30706E-03,   293.158E-06
C:/temp/dataset/6/31_2.odb,Step-1,Increment      1: Step Time =    1.000,"PART-1-1",           464,      -9.92276,      -23.8066,            0.,NA,NA,"",   1.72387E-03,  -1.42108E-03,  -975.841E-06,   185.002E-06
C:/temp/dataset/6/31_2.odb,Step-1,Increment      1: Step Time =    1.000,"PART-1-1",           465,      -10.3347,      -25.6230,            0.,NA,NA,"",   1.59509E-03,  -1.44965E-03,  -665.456E-06,   253.318E-06
C:/temp/dataset/6/31_2.odb,Step-1,Increment      1: Step Time =    1.000,"PART-1-1",           466,       13.9544,      -21.3085,            0.,NA,NA,"",   868.037E-06,   818.707E-06,  -288.456E-06,   37.8481E-06
C:/temp/dataset/6/31_2.odb,Step-1,Increment      1: Step Time =    1.000,"PART-1-1",           467,       13.8855,      -23.5136,            0.,NA,NA,"",   811.713E-06,   778.059E-06,  -231.304E-06,   22.6140E-06
C:/temp/dataset/6/31_2.odb,Step-1,Increment      1: Step Time =    1.000,"PART-1-1",           468,           15.,      -22.3438,            0.,NA,NA,"",   867.130E-06,   816.101E-06,  -293.075E-06,   22.5891E-06
C:/temp/dataset/6/31_2.odb,Step-1,Increment      1: Step Time =    1.000,"PART-1-1",           469,       12.7349,      -24.6944,            0.,NA,NA,"",   738.266E-06,   723.423E-06,  -147.296E-06,   30.4989E-06
C:/temp/dataset/6/31_2.odb,Step-1,Increment      1: Step Time =    1.000,"PART-1-1",           470,       13.8494,      -25.7120,            0.,NA,NA,"",   683.680E-06,   656.761E-06,  -189.954E-06,   22.6696E-06
C:/temp/dataset/6/31_2.odb,Step-1,Increment      1: Step Time =    1.000,"PART-1-1",           471,           15.,      -24.5313,            0.,NA,NA,"",   790.083E-06,   740.973E-06,  -274.208E-06,   6.14885E-06
C:/temp/dataset/6/31_2.odb,Step-1,Increment      1: Step Time =    1.000,"PART-1-1",           472,         11.25,          -30.,            0.,NA,NA,"",            0.,   127.946E-42,  -101.441E-42,   141.740E-06
C:/temp/dataset/6/31_2.odb,Step-1,Increment      1: Step Time =    1.000,"PART-1-1",           473,       13.9950,      -12.5232,            0.,NA,NA,"",   1.44574E-03,   1.32208E-03,  -585.039E-06,   23.2111E-06
C:/temp/dataset/6/31_2.odb,Step-1,Increment      1: Step Time =    1.000,"PART-1-1",           474,       12.9942,      -13.6844,            0.,NA,NA,"",   1.30151E-03,   1.20276E-03,  -497.294E-06,   32.6505E-06
C:/temp/dataset/6/31_2.odb,Step-1,Increment      1: Step Time =    1.000,"PART-1-1",           475,           15.,      -13.5938,            0.,NA,NA,"",   1.39229E-03,   1.23528E-03,  -642.300E-06,   30.2227E-06
C:/temp/dataset/6/31_2.odb,Step-1,Increment      1: Step Time =    1.000,"PART-1-1",           476,       9.85236,      -17.2546,            0.,NA,NA,"",   891.622E-06,   846.082E-06,  -281.311E-06,   45.7135E-06
C:/temp/dataset/6/31_2.odb,Step-1,Increment      1: Step Time =    1.000,"PART-1-1",           477,       8.68427,      -17.7513,            0.,NA,NA,"",   810.895E-06,   774.673E-06,  -239.652E-06,   56.8713E-06
C:/temp/dataset/6/31_2.odb,Step-1,Increment      1: Step Time =    1.000,"PART-1-1",           478,       8.96140,      -18.9835,            0.,NA,NA,"",   740.125E-06,   710.912E-06,  -205.886E-06,   59.2831E-06
C:/temp/dataset/6/31_2.odb,Step-1,Increment      1: Step Time =    1.000,"PART-1-1",           479,       10.1295,      -18.4868,            0.,NA,NA,"",   817.852E-06,   779.407E-06,  -247.803E-06,   51.3010E-06
C:/temp/dataset/6/31_2.odb,Step-1,Increment      1: Step Time =    1.000,"PART-1-1",           480,       11.2436,      -18.3856,            0.,NA,NA,"",   869.373E-06,   821.164E-06,  -285.480E-06,   43.6771E-06
C:/temp/dataset/6/31_2.odb,Step-1,Increment      1: Step Time =    1.000,"PART-1-1",           481,       12.3956,      -19.2305,            0.,NA,NA,"",   875.894E-06,   823.686E-06,  -297.879E-06,   45.3431E-06
C:/temp/dataset/6/31_2.odb,Step-1,Increment      1: Step Time =    1.000,"PART-1-1",           482,       13.1120,      -18.1414,            0.,NA,NA,"",   954.619E-06,   880.358E-06,  -369.143E-06,   40.3403E-06
C:/temp/dataset/6/31_2.odb,Step-1,Increment      1: Step Time =    1.000,"PART-1-1",           483,       11.9600,      -17.2965,            0.,NA,NA,"",   964.197E-06,   898.302E-06,  -350.329E-06,   40.9596E-06
C:/temp/dataset/6/31_2.odb,Step-1,Increment      1: Step Time =    1.000,"PART-1-1",           484,       14.0024,      -3.77677,            0.,NA,NA,"",   2.04624E-03,   1.97599E-03,  -531.570E-06,   23.3979E-06
C:/temp/dataset/6/31_2.odb,Step-1,Increment      1: Step Time =    1.000,"PART-1-1",           485,       13.0359,      -4.87313,            0.,NA,NA,"",   2.00999E-03,   1.94293E-03,  -514.871E-06,   14.7994E-06
C:/temp/dataset/6/31_2.odb,Step-1,Increment      1: Step Time =    1.000,"PART-1-1",           486,       14.0335,      -5.94012,            0.,NA,NA,"",   1.96420E-03,   1.87831E-03,  -574.495E-06,   21.2808E-06
C:/temp/dataset/6/31_2.odb,Step-1,Increment      1: Step Time =    1.000,"PART-1-1",           487,           15.,      -4.84375,            0.,NA,NA,"",   2.01305E-03,   1.92303E-03,  -595.253E-06,   30.6543E-06
C:/temp/dataset/6/31_2.odb,Step-1,Increment      1: Step Time =    1.000,"PART-1-1",           488,       13.0510,      -7.01836,            0.,NA,NA,"",   1.89346E-03,   1.81501E-03,  -539.364E-06,   17.5211E-06
C:/temp/dataset/6/31_2.odb,Step-1,Increment      1: Step Time =    1.000,"PART-1-1",           489,       14.0175,      -8.10950,            0.,NA,NA,"",   1.82852E-03,   1.72624E-03,  -602.972E-06,   14.8086E-06
C:/temp/dataset/6/31_2.odb,Step-1,Increment      1: Step Time =    1.000,"PART-1-1",           490,           15.,      -7.03125,            0.,NA,NA,"",   1.91375E-03,   1.79918E-03,  -652.216E-06,   22.9728E-06
C:/temp/dataset/6/31_2.odb,Step-1,Increment      1: Step Time =    1.000,"PART-1-1",           491,         13.75,            5.,            0.,NA,NA,"",   2.05852E-03,   2.01003E-03,  -444.173E-06,   1.50141E-06
C:/temp/dataset/6/31_2.odb,Step-1,Increment      1: Step Time =    1.000,"PART-1-1",           492,       12.4982,       3.90020,            0.,NA,NA,"",   2.05174E-03,   2.00506E-03,  -435.191E-06,   7.54319E-06
C:/temp/dataset/6/31_2.odb,Step-1,Increment      1: Step Time =    1.000,"PART-1-1",           493,       13.7482,       2.80645,            0.,NA,NA,"",   2.05905E-03,   2.01021E-03,  -445.827E-06,   7.16410E-06
C:/temp/dataset/6/31_2.odb,Step-1,Increment      1: Step Time =    1.000,"PART-1-1",           494,           15.,       3.90625,            0.,NA,NA,"",   2.05737E-03,   2.00808E-03,  -447.642E-06,   1.31216E-06
C:/temp/dataset/6/31_2.odb,Step-1,Increment      1: Step Time =    1.000,"PART-1-1",           495,         11.25,            5.,            0.,NA,NA,"",   2.04496E-03,   1.99979E-03,  -427.452E-06,   10.9908E-06
C:/temp/dataset/6/31_2.odb,Step-1,Increment      1: Step Time =    1.000,"PART-1-1",           496,       11.2740,       2.82937,            0.,NA,NA,"",   2.04884E-03,   2.00530E-03,  -420.148E-06,   15.0850E-06
C:/temp/dataset/6/31_2.odb,Step-1,Increment      1: Step Time =    1.000,"PART-1-1",           497,       11.1422,   446.578E-03,            0.,NA,NA,"",   2.07329E-03,   2.03062E-03,  -418.482E-06,   17.7783E-06
C:/temp/dataset/6/31_2.odb,Step-1,Increment      1: Step Time =    1.000,"PART-1-1",           498,       10.2035,  -836.101E-03,            0.,NA,NA,"",   2.08262E-03,   2.04316E-03,  -403.494E-06,   16.1938E-06
C:/temp/dataset/6/31_2.odb,Step-1,Increment      1: Step Time =    1.000,"PART-1-1",           499,       11.7017,      -1.82731,            0.,NA,NA,"",   2.08086E-03,   2.03358E-03,  -441.051E-06,   15.1300E-06
C:/temp/dataset/6/31_2.odb,Step-1,Increment      1: Step Time =    1.000,"PART-1-1",           500,       12.5035,       1.67834,            0.,NA,NA,"",   2.06500E-03,   2.01826E-03,  -436.856E-06,   15.1538E-06
C:/temp/dataset/6/31_2.odb,Step-1,Increment      1: Step Time =    1.000,"PART-1-1",           501,       9.91277,       1.59761,            0.,NA,NA,"",   2.05423E-03,   2.01462E-03,  -401.458E-06,   17.5718E-06
C:/temp/dataset/6/31_2.odb,Step-1,Increment      1: Step Time =    1.000,"PART-1-1",           502,       5.19643,       3.92738,            0.,NA,NA,"",   1.96079E-03,   1.90224E-03,  -475.574E-06,   23.3252E-06
C:/temp/dataset/6/31_2.odb,Step-1,Increment      1: Step Time =    1.000,"PART-1-1",           503,          3.75,            5.,            0.,NA,NA,"",   1.90355E-03,   1.81970E-03,  -558.745E-06,   27.7658E-06
C:/temp/dataset/6/31_2.odb,Step-1,Increment      1: Step Time =    1.000,"PART-1-1",           504,       2.66615,       3.61346,            0.,NA,NA,"",   1.97434E-03,   1.87622E-03,  -614.665E-06,   17.8025E-06
C:/temp/dataset/6/31_2.odb,Step-1,Increment      1: Step Time =    1.000,"PART-1-1",           505,      -1.00804,       2.95894,            0.,NA,NA,"",   2.11928E-03,   1.90560E-03,  -927.384E-06,   24.7475E-06
C:/temp/dataset/6/31_2.odb,Step-1,Increment      1: Step Time =    1.000,"PART-1-1",           506,   87.8012E-03,       3.95476,            0.,NA,NA,"",   2.01546E-03,   1.83893E-03,  -824.872E-06,   12.9561E-06
C:/temp/dataset/6/31_2.odb,Step-1,Increment      1: Step Time =    1.000,"PART-1-1",           507,         -1.25,            5.,            0.,NA,NA,"",   1.99669E-03,   1.76039E-03,  -942.231E-06,   7.36142E-06
C:/temp/dataset/6/31_2.odb,Step-1,Increment      1: Step Time =    1.000,"PART-1-1",           508,      -2.34584,       4.00418,            0.,NA,NA,"",   2.12762E-03,   1.85213E-03,  -1.04707E-03,   19.2260E-06
C:/temp/dataset/6/31_2.odb,Step-1,Increment      1: Step Time =    1.000,"PART-1-1",           509,      -3.27281,       2.96378,            0.,NA,NA,"",   2.24047E-03,   1.93055E-03,  -1.13697E-03,   22.1463E-06
C:/temp/dataset/6/31_2.odb,Step-1,Increment      1: Step Time =    1.000,"PART-1-1",           510,         -3.75,            5.,            0.,NA,NA,"",   2.14564E-03,   1.80591E-03,  -1.15863E-03,   31.1467E-06
C:/temp/dataset/6/31_2.odb,Step-1,Increment      1: Step Time =    1.000,"PART-1-1",           511,      -4.67697,       3.95960,            0.,NA,NA,"",   2.26605E-03,   1.89381E-03,  -1.24439E-03,   24.7685E-06
C:/temp/dataset/6/31_2.odb,Step-1,Increment      1: Step Time =    1.000,"PART-1-1",           512,      -7.93004,       8.58536,            0.,NA,NA,"",   2.22682E-03,   1.73835E-03,  -1.39172E-03,   922.006E-09
C:/temp/dataset/6/31_2.odb,Step-1,Increment      1: Step Time =    1.000,"PART-1-1",           513,      -8.65034,       7.25415,            0.,NA,NA,"",   2.29694E-03,   1.80044E-03,  -1.42630E-03,   4.50266E-06
C:/temp/dataset/6/31_2.odb,Step-1,Increment      1: Step Time =    1.000,"PART-1-1",           514,      -7.51010,       6.50150,            0.,NA,NA,"",   2.28759E-03,   1.82896E-03,  -1.37403E-03,   6.25891E-06
C:/temp/dataset/6/31_2.odb,Step-1,Increment      1: Step Time =    1.000,"PART-1-1",           515,      -6.78981,       7.83270,            0.,NA,NA,"",   2.22026E-03,   1.77072E-03,  -1.33944E-03,   2.18172E-06
C:/temp/dataset/6/31_2.odb,Step-1,Increment      1: Step Time =    1.000,"PART-1-1",           516,      -7.08495,       12.0475,            0.,NA,NA,"",   2.07710E-03,   1.57600E-03,  -1.35299E-03,   507.055E-09
C:/temp/dataset/6/31_2.odb,Step-1,Increment      1: Step Time =    1.000,"PART-1-1",           517,      -6.02998,       11.1050,            0.,NA,NA,"",   2.08001E-03,   1.62060E-03,  -1.30389E-03,   602.691E-09
C:/temp/dataset/6/31_2.odb,Step-1,Increment      1: Step Time =    1.000,"PART-1-1",           518,           -5.,       12.2917,            0.,NA,NA,"",   2.00531E-03,   1.56416E-03,  -1.25487E-03,   669.145E-09
C:/temp/dataset/6/31_2.odb,Step-1,Increment      1: Step Time =    1.000,"PART-1-1",           519,      -6.05497,       13.2342,            0.,NA,NA,"",   2.00259E-03,   1.51948E-03,  -1.30443E-03,   310.862E-09
C:/temp/dataset/6/31_2.odb,Step-1,Increment      1: Step Time =    1.000,"PART-1-1",           520,      -9.96524,       21.0498,            0.,NA,NA,"",   1.88047E-03,   1.14710E-03,  -1.49008E-03,   12.2904E-09
C:/temp/dataset/6/31_2.odb,Step-1,Increment      1: Step Time =    1.000,"PART-1-1",           521,      -8.51702,       20.1362,            0.,NA,NA,"",   1.85398E-03,   1.19058E-03,  -1.42118E-03,   14.9156E-09
C:/temp/dataset/6/31_2.odb,Step-1,Increment      1: Step Time =    1.000,"PART-1-1",           522,      -8.09442,       21.6565,            0.,NA,NA,"",   1.79262E-03,   1.11824E-03,  -1.40108E-03,   6.40572E-09
C:/temp/dataset/6/31_2.odb,Step-1,Increment      1: Step Time =    1.000,"PART-1-1",           523,      -9.54264,       22.5701,            0.,NA,NA,"",   1.82098E-03,   1.07477E-03,  -1.46998E-03,   2.76379E-09
C:/temp/dataset/6/31_2.odb,Step-1,Increment      1: Step Time =    1.000,"PART-1-1",           524,      -7.38593,       19.0122,            0.,NA,NA,"",   1.84864E-03,   1.24410E-03,  -1.36736E-03,   36.7406E-09
C:/temp/dataset/6/31_2.odb,Step-1,Increment      1: Step Time =    1.000,"PART-1-1",           525,      -6.14460,       17.5723,            0.,NA,NA,"",   1.85333E-03,   1.31268E-03,  -1.30832E-03,   37.8948E-09
C:/temp/dataset/6/31_2.odb,Step-1,Increment      1: Step Time =    1.000,"PART-1-1",           526,           -5.,       18.5417,            0.,NA,NA,"",   1.78217E-03,   1.26651E-03,  -1.25382E-03,   16.4060E-09
C:/temp/dataset/6/31_2.odb,Step-1,Increment      1: Step Time =    1.000,"PART-1-1",           527,      -9.12859,       24.1056,            0.,NA,NA,"",   1.76260E-03,   1.00171E-03,  -1.45028E-03,   1.40961E-09
C:/temp/dataset/6/31_2.odb,Step-1,Increment      1: Step Time =    1.000,"PART-1-1",           528,      -7.82088,       23.2603,            0.,NA,NA,"",   1.73561E-03,   1.04193E-03,  -1.38806E-03,   1.33016E-09
C:/temp/dataset/6/31_2.odb,Step-1,Increment      1: Step Time =    1.000,"PART-1-1",           529,      -7.11221,       24.6459,            0.,NA,NA,"",   1.66938E-03,   976.005E-06,  -1.35435E-03,   1.45351E-09
C:/temp/dataset/6/31_2.odb,Step-1,Increment      1: Step Time =    1.000,"PART-1-1",           530,      -8.41993,       25.4912,            0.,NA,NA,"",   1.69775E-03,   935.787E-06,  -1.41657E-03,   1.29778E-09
C:/temp/dataset/6/31_2.odb,Step-1,Increment      1: Step Time =    1.000,"PART-1-1",           531,           -5.,       28.9583,            0.,NA,NA,"",   1.47185E-03,   770.830E-06,  -1.25386E-03,   174.494E-12
C:/temp/dataset/6/31_2.odb,Step-1,Increment      1: Step Time =    1.000,"PART-1-1",           532,         -6.25,           30.,            0.,NA,NA,"",   1.49836E-03,   721.272E-06,  -1.31333E-03,   176.622E-12
C:/temp/dataset/6/31_2.odb,Step-1,Increment      1: Step Time =    1.000,"PART-1-1",           533,      -6.22481,       27.8751,            0.,NA,NA,"",   1.54854E-03,   822.369E-06,  -1.31213E-03,   647.774E-12
C:/temp/dataset/6/31_2.odb,Step-1,Increment      1: Step Time =    1.000,"PART-1-1",           534,      -11.1386,       27.5393,            0.,NA,NA,"",   1.75860E-03,   838.352E-06,  -1.54591E-03,   885.858E-12
C:/temp/dataset/6/31_2.odb,Step-1,Increment      1: Step Time =    1.000,"PART-1-1",           535,        -11.25,           30.,            0.,NA,NA,"",   1.71071E-03,   721.281E-06,  -1.55122E-03,   802.584E-12
C:/temp/dataset/6/31_2.odb,Step-1,Increment      1: Step Time =    1.000,"PART-1-1",           536,      -13.1147,       13.7606,            0.,NA,NA,"",   2.21805E-03,   1.49340E-03,  -1.63998E-03,   297.311E-09
C:/temp/dataset/6/31_2.odb,Step-1,Increment      1: Step Time =    1.000,"PART-1-1",           537,      -14.0658,       14.9906,            0.,NA,NA,"",   2.21350E-03,   1.43503E-03,  -1.68532E-03,   139.206E-09
C:/temp/dataset/6/31_2.odb,Step-1,Increment      1: Step Time =    1.000,"PART-1-1",           538,          -15.,         13.75,            0.,NA,NA,"",   2.28585E-03,   1.49403E-03,  -1.73001E-03,   320.924E-09
C:/temp/dataset/6/31_2.odb,Step-1,Increment      1: Step Time =    1.000,"PART-1-1",           539,      -9.42834,       18.6970,            0.,NA,NA,"",   1.93132E-03,   1.25906E-03,  -1.46450E-03,   49.8453E-09
C:/temp/dataset/6/31_2.odb,Step-1,Increment      1: Step Time =    1.000,"PART-1-1",           540,      -8.29725,       17.5730,            0.,NA,NA,"",   1.92690E-03,   1.31261E-03,  -1.41067E-03,   64.8375E-09
C:/temp/dataset/6/31_2.odb,Step-1,Increment      1: Step Time =    1.000,"PART-1-1",           541,      -12.7588,       6.21303,            0.,NA,NA,"",   2.47136E-03,   1.86364E-03,  -1.62310E-03,   3.69044E-06
C:/temp/dataset/6/31_2.odb,Step-1,Increment      1: Step Time =    1.000,"PART-1-1",           542,          -15.,          6.25,            0.,NA,NA,"",   2.54684E-03,   1.86236E-03,  -1.73723E-03,   456.460E-09
C:/temp/dataset/6/31_2.odb,Step-1,Increment      1: Step Time =    1.000,"PART-1-1",           543,      -9.01063,       9.47069,            0.,NA,NA,"",   2.22771E-03,   1.69761E-03,  -1.44250E-03,   693.455E-09
C:/temp/dataset/6/31_2.odb,Step-1,Increment      1: Step Time =    1.000,"PART-1-1",           544,      -10.0811,       10.4578,            0.,NA,NA,"",   2.22634E-03,   1.65090E-03,  -1.49369E-03,   565.000E-09
C:/temp/dataset/6/31_2.odb,Step-1,Increment      1: Step Time =    1.000,"PART-1-1",           545,      -10.9384,       9.05000,            0.,NA,NA,"",   2.30380E-03,   1.71842E-03,  -1.53444E-03,   745.922E-09
C:/temp/dataset/6/31_2.odb,Step-1,Increment      1: Step Time =    1.000,"PART-1-1",           546,      -9.86794,       8.06293,            0.,NA,NA,"",   2.30555E-03,   1.76505E-03,  -1.48329E-03,   1.44612E-06
C:/temp/dataset/6/31_2.odb,Step-1,Increment      1: Step Time =    1.000,"PART-1-1",           547,      -7.23366,       1.29985,            0.,NA,NA,"",   2.53600E-03,   2.09852E-03,  -1.42391E-03,   27.6977E-06
C:/temp/dataset/6/31_2.odb,Step-1,Increment      1: Step Time =    1.000,"PART-1-1",           548,      -8.34685,   784.410E-03,            0.,NA,NA,"",   2.61355E-03,   2.15480E-03,  -1.47900E-03,   33.0236E-06
C:/temp/dataset/6/31_2.odb,Step-1,Increment      1: Step Time =    1.000,"PART-1-1",           549,      -7.43977,  -685.632E-03,            0.,NA,NA,"",   2.67919E-03,   2.23299E-03,  -1.48048E-03,   40.0045E-06
C:/temp/dataset/6/31_2.odb,Step-1,Increment      1: Step Time =    1.000,"PART-1-1",           550,      -12.4903,      -8.57964,            0.,NA,NA,"",   2.82945E-03,   2.48489E-03,  -1.35320E-03,   59.6160E-06
C:/temp/dataset/6/31_2.odb,Step-1,Increment      1: Step Time =    1.000,"PART-1-1",           551,          -15.,         -8.75,            0.,NA,NA,"",   2.63876E-03,   2.38006E-03,  -1.13946E-03,   117.483E-06
C:/temp/dataset/6/31_2.odb,Step-1,Increment      1: Step Time =    1.000,"PART-1-1",           552,      -13.5658,      -9.92286,            0.,NA,NA,"",   2.63025E-03,   2.36198E-03,  -1.15727E-03,   90.0097E-06
C:/temp/dataset/6/31_2.odb,Step-1,Increment      1: Step Time =    1.000,"PART-1-1",           553,      -11.9783,      -7.15971,            0.,NA,NA,"",   2.92173E-03,   2.53705E-03,  -1.44909E-03,   50.5154E-06
C:/temp/dataset/6/31_2.odb,Step-1,Increment      1: Step Time =    1.000,"PART-1-1",           554,      -11.8960,      -5.22799,            0.,NA,NA,"",   2.94017E-03,   2.52533E-03,  -1.50574E-03,   46.7147E-06
C:/temp/dataset/6/31_2.odb,Step-1,Increment      1: Step Time =    1.000,"PART-1-1",           555,      -12.4565,      -16.3452,            0.,NA,NA,"",   1.45614E-03,   1.16383E-03,  -875.131E-06,   97.4733E-06
C:/temp/dataset/6/31_2.odb,Step-1,Increment      1: Step Time =    1.000,"PART-1-1",           556,          -15.,        -16.25,            0.,NA,NA,"",   1.07221E-03,   1.05773E-03,  -175.616E-06,   128.712E-06
C:/temp/dataset/6/31_2.odb,Step-1,Increment      1: Step Time =    1.000,"PART-1-1",           557,      -13.7435,      -17.5611,            0.,NA,NA,"",   803.221E-06,   680.652E-06,  -426.469E-06,   104.078E-06
C:/temp/dataset/6/31_2.odb,Step-1,Increment      1: Step Time =    1.000,"PART-1-1",           558,      -9.99221,      -8.41662,            0.,NA,NA,"",   2.98775E-03,   2.52030E-03,  -1.60459E-03,   38.2093E-06
C:/temp/dataset/6/31_2.odb,Step-1,Increment      1: Step Time =    1.000,"PART-1-1",           559,      -11.4633,      -9.12095,            0.,NA,NA,"",   2.86461E-03,   2.47537E-03,  -1.44170E-03,   44.5311E-06
C:/temp/dataset/6/31_2.odb,Step-1,Increment      1: Step Time =    1.000,"PART-1-1",           560,      -10.8070,      -10.1141,            0.,NA,NA,"",   2.84335E-03,   2.41163E-03,  -1.50621E-03,   37.0556E-06
C:/temp/dataset/6/31_2.odb,Step-1,Increment      1: Step Time =    1.000,"PART-1-1",           561,      -13.9189,      -24.9166,            0.,NA,NA,"",   1.46226E-03,  -1.43380E-03,  -287.103E-06,   40.5809E-06
C:/temp/dataset/6/31_2.odb,Step-1,Increment      1: Step Time =    1.000,"PART-1-1",           562,      -12.9076,      -23.6273,            0.,NA,NA,"",   1.38644E-03,  -1.33136E-03,  -386.902E-06,   42.6333E-06
C:/temp/dataset/6/31_2.odb,Step-1,Increment      1: Step Time =    1.000,"PART-1-1",           563,          -15.,        -23.75,            0.,NA,NA,"",   1.30263E-03,  -1.29783E-03,  -111.658E-06,   109.206E-06
C:/temp/dataset/6/31_2.odb,Step-1,Increment      1: Step Time =    1.000,"PART-1-1",           564,          -15.,        -28.75,            0.,NA,NA,"",   674.703E-06,  -596.429E-06,  -315.430E-06,   230.310E-06
C:/temp/dataset/6/31_2.odb,Step-1,Increment      1: Step Time =    1.000,"PART-1-1",           565,        -13.75,          -30.,            0.,NA,NA,"",            0.,  -154.705E-42,  -291.436E-42,   372.597E-06
C:/temp/dataset/6/31_2.odb,Step-1,Increment      1: Step Time =    1.000,"PART-1-1",           566,      -13.7642,      -27.4123,            0.,NA,NA,"",   1.07518E-03,  -1.05146E-03,  -224.603E-06,   143.658E-06
C:/temp/dataset/6/31_2.odb,Step-1,Increment      1: Step Time =    1.000,"PART-1-1",           567,            5.,      -6.25625,            0.,NA,NA,"",   1.90488E-03,   1.89192E-03,  -221.822E-06,   87.5542E-06
C:/temp/dataset/6/31_2.odb,Step-1,Increment      1: Step Time =    1.000,"PART-1-1",           568,       7.03347,      -6.11658,            0.,NA,NA,"",   1.96488E-03,   1.93713E-03,  -329.028E-06,   44.0004E-06
C:/temp/dataset/6/31_2.odb,Step-1,Increment      1: Step Time =    1.000,"PART-1-1",           569,       6.04361,      -4.83741,            0.,NA,NA,"",   2.09377E-03,   2.06764E-03,  -329.702E-06,   76.3661E-06
C:/temp/dataset/6/31_2.odb,Step-1,Increment      1: Step Time =    1.000,"PART-1-1",           570,           15.,      -2.65625,            0.,NA,NA,"",   2.06231E-03,   1.99245E-03,  -532.237E-06,   29.0125E-06
C:/temp/dataset/6/31_2.odb,Step-1,Increment      1: Step Time =    1.000,"PART-1-1",           571,       12.8875,      -2.72454,            0.,NA,NA,"",   2.06944E-03,   2.01275E-03,  -481.057E-06,   14.9566E-06
C:/temp/dataset/6/31_2.odb,Step-1,Increment      1: Step Time =    1.000,"PART-1-1",           572,       10.0248,      -7.91896,            0.,NA,NA,"",   1.80335E-03,   1.75573E-03,  -411.675E-06,   35.1105E-06
C:/temp/dataset/6/31_2.odb,Step-1,Increment      1: Step Time =    1.000,"PART-1-1",           573,       8.98203,      -8.99604,            0.,NA,NA,"",   1.68898E-03,   1.65067E-03,  -357.703E-06,   39.4172E-06
C:/temp/dataset/6/31_2.odb,Step-1,Increment      1: Step Time =    1.000,"PART-1-1",           574,       9.98204,      -10.2112,            0.,NA,NA,"",   1.58068E-03,   1.53183E-03,  -389.921E-06,   37.2197E-06
C:/temp/dataset/6/31_2.odb,Step-1,Increment      1: Step Time =    1.000,"PART-1-1",           575,            5.,      -11.2813,            0.,NA,NA,"",   1.39139E-03,   1.39062E-03,  -46.2200E-06,   15.1448E-06
C:/temp/dataset/6/31_2.odb,Step-1,Increment      1: Step Time =    1.000,"PART-1-1",           576,       6.96001,      -11.3098,            0.,NA,NA,"",   1.41609E-03,   1.40071E-03,  -208.163E-06,   26.3418E-06
C:/temp/dataset/6/31_2.odb,Step-1,Increment      1: Step Time =    1.000,"PART-1-1",           577,       12.1169,      -5.93459,            0.,NA,NA,"",   1.95627E-03,   1.89394E-03,  -489.898E-06,   17.6225E-06
C:/temp/dataset/6/31_2.odb,Step-1,Increment      1: Step Time =    1.000,"PART-1-1",           578,       11.1088,      -6.97100,            0.,NA,NA,"",   1.88546E-03,   1.82966E-03,  -455.311E-06,   25.4316E-06
C:/temp/dataset/6/31_2.odb,Step-1,Increment      1: Step Time =    1.000,"PART-1-1",           579,           15.,      -11.4063,            0.,NA,NA,"",   1.58812E-03,   1.43364E-03,  -683.232E-06,   10.9829E-06
C:/temp/dataset/6/31_2.odb,Step-1,Increment      1: Step Time =    1.000,"PART-1-1",           580,       13.9991,      -10.3053,            0.,NA,NA,"",   1.64919E-03,   1.53302E-03,  -608.002E-06,   13.4116E-06
C:/temp/dataset/6/31_2.odb,Step-1,Increment      1: Step Time =    1.000,"PART-1-1",           581,       12.9941,      -11.4223,            0.,NA,NA,"",   1.51844E-03,   1.42196E-03,  -532.636E-06,   27.4114E-06
C:/temp/dataset/6/31_2.odb,Step-1,Increment      1: Step Time =    1.000,"PART-1-1",           582,           15.,      -9.21875,            0.,NA,NA,"",   1.76770E-03,   1.62949E-03,  -685.218E-06,   7.97809E-06
C:/temp/dataset/6/31_2.odb,Step-1,Increment      1: Step Time =    1.000,"PART-1-1",           583,       9.25975,      -25.9916,            0.,NA,NA,"",   735.205E-06,   733.365E-06,  -51.9731E-06,   97.4583E-06
C:/temp/dataset/6/31_2.odb,Step-1,Increment      1: Step Time =    1.000,"PART-1-1",           584,       7.97004,      -27.0667,            0.,NA,NA,"",   711.302E-06,   706.044E-06,  -86.3234E-06,   152.088E-06
C:/temp/dataset/6/31_2.odb,Step-1,Increment      1: Step Time =    1.000,"PART-1-1",           585,       9.98268,      -20.3187,            0.,NA,NA,"",   746.586E-06,   727.926E-06,  -165.875E-06,   56.2784E-06
C:/temp/dataset/6/31_2.odb,Step-1,Increment      1: Step Time =    1.000,"PART-1-1",           586,       8.47236,      -19.9740,            0.,NA,NA,"",   677.768E-06,   659.487E-06,  -156.355E-06,   76.6989E-06
C:/temp/dataset/6/31_2.odb,Step-1,Increment      1: Step Time =    1.000,"PART-1-1",           587,       7.80775,      -21.2882,            0.,NA,NA,"",   665.718E-06,   659.081E-06,  -93.7723E-06,   71.4511E-06
C:/temp/dataset/6/31_2.odb,Step-1,Increment      1: Step Time =    1.000,"PART-1-1",           588,       9.31806,      -21.6330,            0.,NA,NA,"",   732.661E-06,   726.676E-06,  -93.4551E-06,   58.6006E-06
C:/temp/dataset/6/31_2.odb,Step-1,Increment      1: Step Time =    1.000,"PART-1-1",           589,          3.75,          -20.,            0.,NA,NA,"",   1.01528E-03,  -141.837E-06,  -1.00532E-03,   378.359E-06
C:/temp/dataset/6/31_2.odb,Step-1,Increment      1: Step Time =    1.000,"PART-1-1",           590,       2.69482,      -20.9389,            0.,NA,NA,"",   1.67330E-03,   179.153E-06,  -1.66368E-03,   220.805E-06
C:/temp/dataset/6/31_2.odb,Step-1,Increment      1: Step Time =    1.000,"PART-1-1",           591,       4.10336,      -21.5712,            0.,NA,NA,"",   953.006E-06,   646.804E-06,  -699.903E-06,   45.9320E-06
C:/temp/dataset/6/31_2.odb,Step-1,Increment      1: Step Time =    1.000,"PART-1-1",           592,       5.15854,      -20.6323,            0.,NA,NA,"",   492.204E-06,   401.440E-06,  -284.799E-06,   191.243E-06
C:/temp/dataset/6/31_2.odb,Step-1,Increment      1: Step Time =    1.000,"PART-1-1",           593,          1.25,          -20.,            0.,NA,NA,"",   3.50952E-03,  -1.13179E-03,  -3.32201E-03,   250.077E-06
C:/temp/dataset/6/31_2.odb,Step-1,Increment      1: Step Time =    1.000,"PART-1-1",           594,       1.58638,      -22.3782,            0.,NA,NA,"",   3.05715E-03,   1.15411E-03,  -2.83094E-03,   672.608E-06
C:/temp/dataset/6/31_2.odb,Step-1,Increment      1: Step Time =    1.000,"PART-1-1",           595,      -7.18878,      -21.5166,            0.,NA,NA,"",   2.63745E-03,  -912.255E-06,  -2.47466E-03,   207.650E-06
C:/temp/dataset/6/31_2.odb,Step-1,Increment      1: Step Time =    1.000,"PART-1-1",           596,      -8.69544,      -20.4918,            0.,NA,NA,"",   1.70938E-03,  -338.656E-06,  -1.67550E-03,   126.022E-06
C:/temp/dataset/6/31_2.odb,Step-1,Increment      1: Step Time =    1.000,"PART-1-1",           597,      -9.53108,      -21.9939,            0.,NA,NA,"",   1.59140E-03,  -977.894E-06,  -1.25550E-03,   128.692E-06
C:/temp/dataset/6/31_2.odb,Step-1,Increment      1: Step Time =    1.000,"PART-1-1",           598,      -8.02442,      -23.0186,            0.,NA,NA,"",   2.28751E-03,  -1.39884E-03,  -1.80996E-03,   309.861E-06
C:/temp/dataset/6/31_2.odb,Step-1,Increment      1: Step Time =    1.000,"PART-1-1",           599,           -5.,      -18.7437,            0.,NA,NA,"",   4.46548E-03,   786.285E-06,  -4.39571E-03,   818.967E-06
C:/temp/dataset/6/31_2.odb,Step-1,Increment      1: Step Time =    1.000,"PART-1-1",           600,      -6.23242,      -17.5731,            0.,NA,NA,"",   3.44645E-03,   1.18842E-03,  -3.23506E-03,   243.711E-06
C:/temp/dataset/6/31_2.odb,Step-1,Increment      1: Step Time =    1.000,"PART-1-1",           601,      -7.41830,      -18.9573,            0.,NA,NA,"",   2.57751E-03,   618.069E-06,  -2.50231E-03,   197.005E-06
C:/temp/dataset/6/31_2.odb,Step-1,Increment      1: Step Time =    1.000,"PART-1-1",           602,      -6.18588,      -20.1280,            0.,NA,NA,"",   3.34373E-03,   33.7002E-06,  -3.34356E-03,   322.489E-06
C:/temp/dataset/6/31_2.odb,Step-1,Increment      1: Step Time =    1.000,"PART-1-1",           603,           -5.,      -16.2312,            0.,NA,NA,"",   3.42028E-03,   1.23218E-03,  -3.19062E-03,   300.307E-06
C:/temp/dataset/6/31_2.odb,Step-1,Increment      1: Step Time =    1.000,"PART-1-1",           604,      -7.44257,      -16.3835,            0.,NA,NA,"",   2.84525E-03,   1.43058E-03,  -2.45945E-03,   179.932E-06
C:/temp/dataset/6/31_2.odb,Step-1,Increment      1: Step Time =    1.000,"PART-1-1",           605,      -12.6830,      -26.0788,            0.,NA,NA,"",   1.39529E-03,  -1.35899E-03,  -316.189E-06,   166.644E-06
C:/temp/dataset/6/31_2.odb,Step-1,Increment      1: Step Time =    1.000,"PART-1-1",           606,          -15.,        -26.25,            0.,NA,NA,"",   1.38005E-03,  -1.32119E-03,  -398.742E-06,   67.3283E-06
C:/temp/dataset/6/31_2.odb,Step-1,Increment      1: Step Time =    1.000,"PART-1-1",           607,         -8.75,          -30.,            0.,NA,NA,"",            0.,  -363.308E-42,  -608.351E-42,   483.375E-06
C:/temp/dataset/6/31_2.odb,Step-1,Increment      1: Step Time =    1.000,"PART-1-1",           608,          -15.,        -18.75,            0.,NA,NA,"",   205.681E-06,   195.722E-06,   63.2266E-06,   60.7225E-06
C:/temp/dataset/6/31_2.odb,Step-1,Increment      1: Step Time =    1.000,"PART-1-1",           609,      -12.5734,      -18.8685,            0.,NA,NA,"",   692.939E-06,   231.348E-06,  -653.179E-06,   123.685E-06
C:/temp/dataset/6/31_2.odb,Step-1,Increment      1: Step Time =    1.000,"PART-1-1",           610,           -5.,      -11.2063,            0.,NA,NA,"",   3.18624E-03,   2.12406E-03,  -2.37497E-03,   163.719E-06
C:/temp/dataset/6/31_2.odb,Step-1,Increment      1: Step Time =    1.000,"PART-1-1",           611,      -7.25264,      -11.4522,            0.,NA,NA,"",   3.05777E-03,   2.22709E-03,  -2.09523E-03,   101.090E-06
C:/temp/dataset/6/31_2.odb,Step-1,Increment      1: Step Time =    1.000,"PART-1-1",           612,           -5.,      -6.23750,            0.,NA,NA,"",   2.98512E-03,   2.43842E-03,  -1.72192E-03,   148.096E-06
C:/temp/dataset/6/31_2.odb,Step-1,Increment      1: Step Time =    1.000,"PART-1-1",           613,      -6.16987,      -5.46941,            0.,NA,NA,"",   3.00573E-03,   2.50023E-03,  -1.66831E-03,   83.1632E-06
C:/temp/dataset/6/31_2.odb,Step-1,Increment      1: Step Time =    1.000,"PART-1-1",           614,      -7.24309,      -6.98789,            0.,NA,NA,"",   3.07044E-03,   2.52070E-03,  -1.75319E-03,   68.5229E-06
C:/temp/dataset/6/31_2.odb,Step-1,Increment      1: Step Time =    1.000,"PART-1-1",           615,           -5.,       16.4583,            0.,NA,NA,"",   1.85403E-03,   1.36574E-03,  -1.25387E-03,   80.1653E-09
C:/temp/dataset/6/31_2.odb,Step-1,Increment      1: Step Time =    1.000,"PART-1-1",           616,      -7.23328,       16.4840,            0.,NA,NA,"",   1.92660E-03,   1.36453E-03,  -1.36008E-03,   123.728E-09
C:/temp/dataset/6/31_2.odb,Step-1,Increment      1: Step Time =    1.000,"PART-1-1",           617,      -6.08867,       15.3700,            0.,NA,NA,"",   1.92736E-03,   1.41764E-03,  -1.30575E-03,   121.544E-09
C:/temp/dataset/6/31_2.odb,Step-1,Increment      1: Step Time =    1.000,"PART-1-1",           618,      -13.1522,       16.1892,            0.,NA,NA,"",   2.14346E-03,   1.37811E-03,  -1.64172E-03,   126.158E-09
C:/temp/dataset/6/31_2.odb,Step-1,Increment      1: Step Time =    1.000,"PART-1-1",           619,      -14.0864,       17.4486,            0.,NA,NA,"",   2.14034E-03,   1.31829E-03,  -1.68616E-03,   36.7238E-09
C:/temp/dataset/6/31_2.odb,Step-1,Increment      1: Step Time =    1.000,"PART-1-1",           620,          -15.,         16.25,            0.,NA,NA,"",   2.20975E-03,   1.37525E-03,  -1.72965E-03,   87.8745E-09
C:/temp/dataset/6/31_2.odb,Step-1,Increment      1: Step Time =    1.000,"PART-1-1",           621,           -5.,       24.7917,            0.,NA,NA,"",   1.58469E-03,   969.068E-06,  -1.25385E-03,   2.78187E-09
C:/temp/dataset/6/31_2.odb,Step-1,Increment      1: Step Time =    1.000,"PART-1-1",           622,      -6.14442,       25.7689,            0.,NA,NA,"",   1.60087E-03,   922.576E-06,  -1.30830E-03,   1.29799E-09
C:/temp/dataset/6/31_2.odb,Step-1,Increment      1: Step Time =    1.000,"PART-1-1",           623,           -5.,        26.875,            0.,NA,NA,"",   1.52609E-03,   869.948E-06,  -1.25386E-03,   1.07619E-09
C:/temp/dataset/6/31_2.odb,Step-1,Increment      1: Step Time =    1.000,"PART-1-1",           624,      -7.36924,       26.7689,            0.,NA,NA,"",   1.62270E-03,   874.997E-06,  -1.36658E-03,   1.32834E-09
C:/temp/dataset/6/31_2.odb,Step-1,Increment      1: Step Time =    1.000,"PART-1-1",           625,      -13.1175,       20.9132,            0.,NA,NA,"",   2.00512E-03,   1.15358E-03,  -1.64005E-03,   7.93440E-09
C:/temp/dataset/6/31_2.odb,Step-1,Increment      1: Step Time =    1.000,"PART-1-1",           626,      -14.0212,       22.2867,            0.,NA,NA,"",   2.00422E-03,   1.08825E-03,  -1.68304E-03,   2.43457E-09
C:/temp/dataset/6/31_2.odb,Step-1,Increment      1: Step Time =    1.000,"PART-1-1",           627,          -15.,         21.25,            0.,NA,NA,"",   2.07016E-03,   1.13756E-03,  -1.72960E-03,   3.73942E-09
C:/temp/dataset/6/31_2.odb,Step-1,Increment      1: Step Time =    1.000,"PART-1-1",           628,      -14.0963,       19.8765,            0.,NA,NA,"",   2.07161E-03,   1.20288E-03,  -1.68661E-03,   6.21130E-09
C:/temp/dataset/6/31_2.odb,Step-1,Increment      1: Step Time =    1.000,"PART-1-1",           629,         -1.25,           -5.,            0.,NA,NA,"",   2.62204E-03,   2.41945E-03,  -1.01060E-03,   27.3638E-06
C:/temp/dataset/6/31_2.odb,Step-1,Increment      1: Step Time =    1.000,"PART-1-1",           630,      -1.77292,      -3.03732,            0.,NA,NA,"",   2.48378E-03,   2.25131E-03,  -1.04917E-03,   28.4328E-06
C:/temp/dataset/6/31_2.odb,Step-1,Increment      1: Step Time =    1.000,"PART-1-1",           631,      -12.1053,      -2.30059,            0.,NA,NA,"",   2.85537E-03,   2.39329E-03,  -1.55733E-03,   38.9558E-06
C:/temp/dataset/6/31_2.odb,Step-1,Increment      1: Step Time =    1.000,"PART-1-1",           632,      -10.7648,      -1.40855,            0.,NA,NA,"",   2.80783E-03,   2.33717E-03,  -1.55613E-03,   38.6420E-06
C:/temp/dataset/6/31_2.odb,Step-1,Increment      1: Step Time =    1.000,"PART-1-1",           633,      -11.5438,  -354.672E-03,            0.,NA,NA,"",   2.75795E-03,   2.26947E-03,  -1.56710E-03,   31.0263E-06
C:/temp/dataset/6/31_2.odb,Step-1,Increment      1: Step Time =    1.000,"PART-1-1",           634,          3.75,           -5.,            0.,NA,NA,"",   2.26981E-03,   2.20998E-03,  -517.737E-06,   93.3736E-06
C:/temp/dataset/6/31_2.odb,Step-1,Increment      1: Step Time =    1.000,"PART-1-1",           635,       4.52066,      -3.83856,            0.,NA,NA,"",   2.14861E-03,   2.11109E-03,  -399.761E-06,   79.1561E-06
C:/temp/dataset/6/31_2.odb,Step-1,Increment      1: Step Time =    1.000,"PART-1-1",           636,       2.94662,      -2.72704,            0.,NA,NA,"",   2.19264E-03,   2.11984E-03,  -560.288E-06,   41.3793E-06
C:/temp/dataset/6/31_2.odb,Step-1,Increment      1: Step Time =    1.000,"PART-1-1",           637,       1.50395,       2.56821,            0.,NA,NA,"",   2.04564E-03,   1.92216E-03,  -699.973E-06,   22.9264E-06
C:/temp/dataset/6/31_2.odb,Step-1,Increment      1: Step Time =    1.000,"PART-1-1",           638,          1.25,            5.,            0.,NA,NA,"",   1.91446E-03,   1.76967E-03,  -730.346E-06,   13.1960E-06
C:/temp/dataset/6/31_2.odb,Step-1,Increment      1: Step Time =    1.000,"PART-1-1",           639,          6.25,            5.,            0.,NA,NA,"",   1.94663E-03,   1.89294E-03,  -454.050E-06,   31.6163E-06
C:/temp/dataset/6/31_2.odb,Step-1,Increment      1: Step Time =    1.000,"PART-1-1",           640,  -213.968E-03,      -26.0734,            0.,NA,NA,"",   2.37883E-03,   795.231E-06,  -2.24197E-03,   881.563E-06
C:/temp/dataset/6/31_2.odb,Step-1,Increment      1: Step Time =    1.000,"PART-1-1",           641,       1.14210,      -23.8512,            0.,NA,NA,"",   3.04908E-03,   1.30495E-03,  -2.75572E-03,   796.123E-06
C:/temp/dataset/6/31_2.odb,Step-1,Increment      1: Step Time =    1.000,"PART-1-1",           642,  -234.527E-03,      -23.9674,            0.,NA,NA,"",   3.99317E-03,   980.497E-06,  -3.87092E-03,   1.04404E-03
C:/temp/dataset/6/31_2.odb,Step-1,Increment      1: Step Time =    1.000,"PART-1-1",           643,           -5.,        14.375,            0.,NA,NA,"",   1.92848E-03,   1.46501E-03,  -1.25411E-03,   267.455E-09
C:/temp/dataset/6/31_2.odb,Step-1,Increment      1: Step Time =    1.000,"PART-1-1",           644,      -7.14364,       14.2292,            0.,NA,NA,"",   2.00128E-03,   1.47204E-03,  -1.35580E-03,   288.769E-09
C:/temp/dataset/6/31_2.odb,Step-1,Increment      1: Step Time =    1.000,"PART-1-1",           645,           -5.,       6.04167,            0.,NA,NA,"",   2.23131E-03,   1.83875E-03,  -1.26403E-03,   10.4530E-06
C:/temp/dataset/6/31_2.odb,Step-1,Increment      1: Step Time =    1.000,"PART-1-1",           646,      -5.82078,       6.95384,            0.,NA,NA,"",   2.22280E-03,   1.80547E-03,  -1.29658E-03,   3.95631E-06
C:/temp/dataset/6/31_2.odb,Step-1,Increment      1: Step Time =    1.000,"PART-1-1",           647,      -6.45742,       5.85906,            0.,NA,NA,"",   2.27263E-03,   1.84616E-03,  -1.32534E-03,   12.2070E-06
C:/temp/dataset/6/31_2.odb,Step-1,Increment      1: Step Time =    1.000,"PART-1-1",           648,      -5.63664,       4.94688,            0.,NA,NA,"",   2.26727E-03,   1.86415E-03,  -1.29052E-03,   23.8649E-06
C:/temp/dataset/6/31_2.odb,Step-1,Increment      1: Step Time =    1.000,"PART-1-1",           649,           -5.,         8.125,            0.,NA,NA,"",   2.16301E-03,   1.75742E-03,  -1.26098E-03,   2.34916E-06
C:/temp/dataset/6/31_2.odb,Step-1,Increment      1: Step Time =    1.000,"PART-1-1",           650,      -5.96903,       9.00386,            0.,NA,NA,"",   2.15629E-03,   1.71853E-03,  -1.30239E-03,   1.04380E-06
C:/temp/dataset/6/31_2.odb,Step-1,Increment      1: Step Time =    1.000,"PART-1-1",           651,          -15.,         -3.75,            0.,NA,NA,"",   2.86993E-03,   2.41483E-03,  -1.55084E-03,   63.0561E-06
C:/temp/dataset/6/31_2.odb,Step-1,Increment      1: Step Time =    1.000,"PART-1-1",           652,      -12.7846,      -3.59401,            0.,NA,NA,"",   2.89267E-03,   2.45494E-03,  -1.52998E-03,   45.7885E-06
C:/temp/dataset/6/31_2.odb,Step-1,Increment      1: Step Time =    1.000,"PART-1-1",           653,      -11.5430,      -4.20540,            0.,NA,NA,"",   2.92880E-03,   2.49422E-03,  -1.53517E-03,   44.5088E-06
C:/temp/dataset/6/31_2.odb,Step-1,Increment      1: Step Time =    1.000,"PART-1-1",           654,      -10.1018,      -4.29084,            0.,NA,NA,"",   2.95437E-03,   2.50089E-03,  -1.57284E-03,   47.2474E-06
C:/temp/dataset/6/31_2.odb,Step-1,Increment      1: Step Time =    1.000,"PART-1-1",           655,          -15.,        -11.25,            0.,NA,NA,"",   2.30703E-03,   2.14601E-03,  -846.779E-06,   139.052E-06
C:/temp/dataset/6/31_2.odb,Step-1,Increment      1: Step Time =    1.000,"PART-1-1",           656,      -12.2331,      -11.1785,            0.,NA,NA,"",   2.60329E-03,   2.27790E-03,  -1.26027E-03,   61.2773E-06
C:/temp/dataset/6/31_2.odb,Step-1,Increment      1: Step Time =    1.000,"PART-1-1",           657,       5.21391,      -1.02834,            0.,NA,NA,"",   2.09664E-03,   2.05385E-03,  -421.442E-06,   23.9694E-06
C:/temp/dataset/6/31_2.odb,Step-1,Increment      1: Step Time =    1.000,"PART-1-1",           658,       6.72319,      -1.59046,            0.,NA,NA,"",   2.09648E-03,   2.06323E-03,  -371.941E-06,   21.3332E-06
C:/temp/dataset/6/31_2.odb,Step-1,Increment      1: Step Time =    1.000,"PART-1-1",           659,       10.9187,      -16.2245,            0.,NA,NA,"",   1.00996E-03,   950.154E-06,  -342.389E-06,   40.5783E-06
C:/temp/dataset/6/31_2.odb,Step-1,Increment      1: Step Time =    1.000,"PART-1-1",           660,       11.9858,      -14.8752,            0.,NA,NA,"",   1.16004E-03,   1.08188E-03,  -418.593E-06,   37.1002E-06
C:/temp/dataset/6/31_2.odb,Step-1,Increment      1: Step Time =    1.000,"PART-1-1",           661,       10.9746,      -13.7451,            0.,NA,NA,"",   1.23983E-03,   1.17564E-03,  -393.745E-06,   38.9578E-06
C:/temp/dataset/6/31_2.odb,Step-1,Increment      1: Step Time =    1.000,"PART-1-1",           662,       11.9830,      -12.5543,            0.,NA,NA,"",   1.38210E-03,   1.30294E-03,  -461.050E-06,   34.4454E-06
C:/temp/dataset/6/31_2.odb,Step-1,Increment      1: Step Time =    1.000,"PART-1-1",           663,           15.,      -20.1563,            0.,NA,NA,"",   929.018E-06,   856.827E-06,  -359.059E-06,   43.5309E-06
C:/temp/dataset/6/31_2.odb,Step-1,Increment      1: Step Time =    1.000,"PART-1-1",           664,       14.0841,      -19.1367,            0.,NA,NA,"",   940.341E-06,   863.948E-06,  -371.260E-06,   47.0378E-06
C:/temp/dataset/6/31_2.odb,Step-1,Increment      1: Step Time =    1.000,"PART-1-1",           665,       13.0385,      -20.2889,            0.,NA,NA,"",   864.564E-06,   816.120E-06,  -285.340E-06,   43.2446E-06
C:/temp/dataset/6/31_2.odb,Step-1,Increment      1: Step Time =    1.000,"PART-1-1",           666,           15.,      -17.9688,            0.,NA,NA,"",   1.03790E-03,   929.776E-06,  -461.249E-06,   52.6820E-06
C:/temp/dataset/6/31_2.odb,Step-1,Increment      1: Step Time =    1.000,"PART-1-1",           667,          1.25,          -30.,            0.,NA,NA,"",            0.,   305.601E-42,  -875.719E-42,   530.221E-06
C:/temp/dataset/6/31_2.odb,Step-1,Increment      1: Step Time =    1.000,"PART-1-1",           668,       3.30543,      -22.6598,            0.,NA,NA,"",   1.58141E-03,   1.06833E-03,  -1.16599E-03,   293.051E-06
C:/temp/dataset/6/31_2.odb,Step-1,Increment      1: Step Time =    1.000,"PART-1-1",           669,       2.86115,      -24.1329,            0.,NA,NA,"",   1.92359E-03,   1.33192E-03,  -1.38787E-03,   420.297E-06
C:/temp/dataset/6/31_2.odb,Step-1,Increment      1: Step Time =    1.000,"PART-1-1",           670,      -10.6801,      -21.6169,            0.,NA,NA,"",   1.24909E-03,  -823.136E-06,  -939.509E-06,   115.484E-06
C:/temp/dataset/6/31_2.odb,Step-1,Increment      1: Step Time =    1.000,"PART-1-1",           671,      -11.3394,      -20.4213,            0.,NA,NA,"",   920.877E-06,  -352.960E-06,  -850.549E-06,   130.962E-06
C:/temp/dataset/6/31_2.odb,Step-1,Increment      1: Step Time =    1.000,"PART-1-1",           672,      -12.1593,      -22.4638,            0.,NA,NA,"",   1.21858E-03,  -1.08593E-03,  -552.898E-06,   77.7562E-06
C:/temp/dataset/6/31_2.odb,Step-1,Increment      1: Step Time =    1.000,"PART-1-1",           673,      -9.92443,      -16.4516,            0.,NA,NA,"",   2.02799E-03,   1.27683E-03,  -1.57558E-03,   81.4732E-06
C:/temp/dataset/6/31_2.odb,Step-1,Increment      1: Step Time =    1.000,"PART-1-1",           674,      -8.71114,      -17.7111,            0.,NA,NA,"",   2.15957E-03,   967.741E-06,  -1.93061E-03,   120.056E-06
C:/temp/dataset/6/31_2.odb,Step-1,Increment      1: Step Time =    1.000,"PART-1-1",           675,      -9.25100,      -7.50767,            0.,NA,NA,"",   3.03529E-03,   2.54420E-03,  -1.65531E-03,   44.6156E-06
C:/temp/dataset/6/31_2.odb,Step-1,Increment      1: Step Time =    1.000,"PART-1-1",           676,      -8.32615,      -6.25855,            0.,NA,NA,"",   3.04334E-03,   2.54144E-03,  -1.67421E-03,   49.1982E-06
C:/temp/dataset/6/31_2.odb,Step-1,Increment      1: Step Time =    1.000,"PART-1-1",           677,      -7.58018,      -5.09368,            0.,NA,NA,"",   3.00311E-03,   2.51084E-03,  -1.64753E-03,   60.7545E-06
C:/temp/dataset/6/31_2.odb,Step-1,Increment      1: Step Time =    1.000,"PART-1-1",           678,      -6.67379,      -3.84489,            0.,NA,NA,"",   2.89348E-03,   2.42302E-03,  -1.58151E-03,   65.8176E-06
C:/temp/dataset/6/31_2.odb,Step-1,Increment      1: Step Time =    1.000,"PART-1-1",           679,      -2.40491,      -1.03021,            0.,NA,NA,"",   2.39610E-03,   2.13103E-03,  -1.09545E-03,   38.5954E-06
C:/temp/dataset/6/31_2.odb,Step-1,Increment      1: Step Time =    1.000,"PART-1-1",           680,      -3.32453,      -2.14711,            0.,NA,NA,"",   2.52154E-03,   2.21118E-03,  -1.21195E-03,   40.6121E-06
C:/temp/dataset/6/31_2.odb,Step-1,Increment      1: Step Time =    1.000,"PART-1-1",           681,       10.4745,      -24.8101,            0.,NA,NA,"",   749.578E-06,   747.018E-06,  -61.8915E-06,   43.0629E-06
C:/temp/dataset/6/31_2.odb,Step-1,Increment      1: Step Time =    1.000,"PART-1-1",           682,       8.16019,      -23.0435,            0.,NA,NA,"",   799.801E-06,   798.168E-06,  -51.0918E-06,   49.7203E-06
C:/temp/dataset/6/31_2.odb,Step-1,Increment      1: Step Time =    1.000,"PART-1-1",           683,       9.40124,      -23.8494,            0.,NA,NA,"",   795.969E-06,   794.496E-06,  -48.3996E-06,   47.8818E-06
C:/temp/dataset/6/31_2.odb,Step-1,Increment      1: Step Time =    1.000,"PART-1-1",           684,       5.67200,      -27.0943,            0.,NA,NA,"",   934.213E-06,   899.542E-06,  -252.147E-06,   239.502E-06
C:/temp/dataset/6/31_2.odb,Step-1,Increment      1: Step Time =    1.000,"PART-1-1",           685,       4.86106,      -26.0050,            0.,NA,NA,"",   1.20603E-03,   1.12216E-03,  -441.892E-06,   268.654E-06
C:/temp/dataset/6/31_2.odb,Step-1,Increment      1: Step Time =    1.000,"PART-1-1",           686,      -2.55341,      -23.8484,            0.,NA,NA,"",   4.94419E-03,  -231.662E-06,  -4.93876E-03,   1.39331E-03
C:/temp/dataset/6/31_2.odb,Step-1,Increment      1: Step Time =    1.000,"PART-1-1",           687,      -4.82130,      -23.8875,            0.,NA,NA,"",   4.08181E-03,  -1.27851E-03,  -3.87642E-03,   1.01102E-03
C:/temp/dataset/6/31_2.odb,Step-1,Increment      1: Step Time =    1.000,"PART-1-1",           688,      -5.84083,      -25.1777,            0.,NA,NA,"",   2.76568E-03,  -1.35065E-03,  -2.41345E-03,   752.044E-06
C:/temp/dataset/6/31_2.odb,Step-1,Increment      1: Step Time =    1.000,"PART-1-1",           689,           15.,      -26.7188,            0.,NA,NA,"",   626.339E-06,   562.822E-06,  -274.831E-06,   30.1548E-06
C:/temp/dataset/6/31_2.odb,Step-1,Increment      1: Step Time =    1.000,"PART-1-1",           690,       10.9874,      -11.4075,            0.,NA,NA,"",   1.47579E-03,   1.41324E-03,  -425.119E-06,   37.4977E-06
C:/temp/dataset/6/31_2.odb,Step-1,Increment      1: Step Time =    1.000,"PART-1-1",           691,       7.29436,      -19.7763,            0.,NA,NA,"",   608.418E-06,   580.909E-06,  -180.878E-06,   87.7343E-06
C:/temp/dataset/6/31_2.odb,Step-1,Increment      1: Step Time =    1.000,"PART-1-1",           692,       7.78340,      -18.7858,            0.,NA,NA,"",   701.167E-06,   670.545E-06,  -204.951E-06,   72.6086E-06
C:/temp/dataset/6/31_2.odb,Step-1,Increment      1: Step Time =    1.000,"PART-1-1",           693,       10.8970,      -2.99004,            0.,NA,NA,"",   2.06995E-03,   2.02526E-03,  -427.844E-06,   11.7727E-06
C:/temp/dataset/6/31_2.odb,Step-1,Increment      1: Step Time =    1.000,"PART-1-1",           694,       12.0828,      -3.88727,            0.,NA,NA,"",   2.04526E-03,   1.99049E-03,  -470.166E-06,   13.0639E-06
C:/temp/dataset/6/31_2.odb,Step-1,Increment      1: Step Time =    1.000,"PART-1-1",           695,           15.,       1.71875,            0.,NA,NA,"",   2.06263E-03,   2.01203E-03,  -454.064E-06,   8.69287E-06
C:/temp/dataset/6/31_2.odb,Step-1,Increment      1: Step Time =    1.000,"PART-1-1",           696,       4.00043,  -427.215E-03,            0.,NA,NA,"",   2.09653E-03,   2.03713E-03,  -495.532E-06,   27.3678E-06
C:/temp/dataset/6/31_2.odb,Step-1,Increment      1: Step Time =    1.000,"PART-1-1",           697,       2.09609,       1.00148,            0.,NA,NA,"",   2.09312E-03,   1.99098E-03,  -645.875E-06,   27.4433E-06
C:/temp/dataset/6/31_2.odb,Step-1,Increment      1: Step Time =    1.000,"PART-1-1",           698,       2.38138,  -554.063E-03,            0.,NA,NA,"",   2.14075E-03,   2.05016E-03,  -616.142E-06,   33.8239E-06
C:/temp/dataset/6/31_2.odb,Step-1,Increment      1: Step Time =    1.000,"PART-1-1",           699,   35.7305E-03,       2.11113,            0.,NA,NA,"",   2.11671E-03,   1.94677E-03,  -830.992E-06,   28.8975E-06
C:/temp/dataset/6/31_2.odb,Step-1,Increment      1: Step Time =    1.000,"PART-1-1",           700,           -5.,       10.2083,            0.,NA,NA,"",   2.08384E-03,   1.66228E-03,  -1.25666E-03,   1.50398E-06
C:/temp/dataset/6/31_2.odb,Step-1,Increment      1: Step Time =    1.000,"PART-1-1",           701,      -6.99901,       9.90050,            0.,NA,NA,"",   2.15238E-03,   1.67727E-03,  -1.34889E-03,   561.611E-09
C:/temp/dataset/6/31_2.odb,Step-1,Increment      1: Step Time =    1.000,"PART-1-1",           702,      -11.2396,       16.2208,            0.,NA,NA,"",   2.07354E-03,   1.37671E-03,  -1.55056E-03,   148.611E-09
C:/temp/dataset/6/31_2.odb,Step-1,Increment      1: Step Time =    1.000,"PART-1-1",           703,      -10.2112,       15.1096,            0.,NA,NA,"",   2.07323E-03,   1.42967E-03,  -1.50144E-03,   203.465E-09
C:/temp/dataset/6/31_2.odb,Step-1,Increment      1: Step Time =    1.000,"PART-1-1",           704,      -9.25876,       16.3324,            0.,NA,NA,"",   2.00054E-03,   1.37161E-03,  -1.45630E-03,   148.101E-09
C:/temp/dataset/6/31_2.odb,Step-1,Increment      1: Step Time =    1.000,"PART-1-1",           705,      -10.2871,       17.4437,            0.,NA,NA,"",   2.00119E-03,   1.31865E-03,  -1.50530E-03,   75.0536E-09
C:/temp/dataset/6/31_2.odb,Step-1,Increment      1: Step Time =    1.000,"PART-1-1",           706,      -8.19479,       15.2434,            0.,NA,NA,"",   2.00063E-03,   1.42360E-03,  -1.40566E-03,   181.326E-09
C:/temp/dataset/6/31_2.odb,Step-1,Increment      1: Step Time =    1.000,"PART-1-1",           707,      -9.19446,       14.0222,            0.,NA,NA,"",   2.07510E-03,   1.48161E-03,  -1.45288E-03,   328.591E-09
C:/temp/dataset/6/31_2.odb,Step-1,Increment      1: Step Time =    1.000,"PART-1-1",           708,      -8.14331,       13.0080,            0.,NA,NA,"",   2.07592E-03,   1.53013E-03,  -1.40290E-03,   372.816E-09
C:/temp/dataset/6/31_2.odb,Step-1,Increment      1: Step Time =    1.000,"PART-1-1",           709,          -15.,         18.75,            0.,NA,NA,"",   2.13778E-03,   1.25644E-03,  -1.72959E-03,   11.9010E-09
C:/temp/dataset/6/31_2.odb,Step-1,Increment      1: Step Time =    1.000,"PART-1-1",           710,      -13.1826,       18.5751,            0.,NA,NA,"",   2.07353E-03,   1.26475E-03,  -1.64315E-03,   38.5038E-09
C:/temp/dataset/6/31_2.odb,Step-1,Increment      1: Step Time =    1.000,"PART-1-1",           711,      -11.2313,       23.3702,            0.,NA,NA,"",   1.86501E-03,   1.03670E-03,  -1.55032E-03,   1.74931E-09
C:/temp/dataset/6/31_2.odb,Step-1,Increment      1: Step Time =    1.000,"PART-1-1",           712,      -10.8173,       24.9058,            0.,NA,NA,"",   1.80871E-03,   963.645E-06,  -1.53063E-03,   1.33546E-09
C:/temp/dataset/6/31_2.odb,Step-1,Increment      1: Step Time =    1.000,"PART-1-1",           713,      -13.5418,       24.7667,            0.,NA,NA,"",   1.92297E-03,   970.263E-06,  -1.66024E-03,   1.41864E-09
C:/temp/dataset/6/31_2.odb,Step-1,Increment      1: Step Time =    1.000,"PART-1-1",           714,      -12.2278,       25.9824,            0.,NA,NA,"",   1.83991E-03,   912.428E-06,  -1.59773E-03,   1.41522E-09
C:/temp/dataset/6/31_2.odb,Step-1,Increment      1: Step Time =    1.000,"PART-1-1",           715,          -15.,         26.25,            0.,NA,NA,"",   1.94963E-03,   899.697E-06,  -1.72962E-03,   1.50795E-09
C:/temp/dataset/6/31_2.odb,Step-1,Increment      1: Step Time =    1.000,"PART-1-1",           716,          -15.,         23.75,            0.,NA,NA,"",   2.00728E-03,   1.01863E-03,  -1.72961E-03,   3.60892E-09
C:/temp/dataset/6/31_2.odb,Step-1,Increment      1: Step Time =    1.000,"PART-1-1",           717,      -12.5630,       23.3034,            0.,NA,NA,"",   1.91971E-03,   1.03988E-03,  -1.61368E-03,   930.260E-12
C:/temp/dataset/6/31_2.odb,Step-1,Increment      1: Step Time =    1.000,"PART-1-1",           718,      -11.1827,       13.8735,            0.,NA,NA,"",   2.14702E-03,   1.48825E-03,  -1.54752E-03,   327.504E-09
C:/temp/dataset/6/31_2.odb,Step-1,Increment      1: Step Time =    1.000,"PART-1-1",           719,      -10.1659,       12.7861,            0.,NA,NA,"",   2.14901E-03,   1.54018E-03,  -1.49870E-03,   417.261E-09
C:/temp/dataset/6/31_2.odb,Step-1,Increment      1: Step Time =    1.000,"PART-1-1",           720,      -11.4858,       20.4947,            0.,NA,NA,"",   1.95403E-03,   1.17349E-03,  -1.56242E-03,   15.3923E-09
C:/temp/dataset/6/31_2.odb,Step-1,Increment      1: Step Time =    1.000,"PART-1-1",           721,      -10.4732,       19.7487,            0.,NA,NA,"",   1.93767E-03,   1.20899E-03,  -1.51424E-03,   21.2444E-09
C:/temp/dataset/6/31_2.odb,Step-1,Increment      1: Step Time =    1.000,"PART-1-1",           722,      -10.9778,       21.7959,            0.,NA,NA,"",   1.89787E-03,   1.11160E-03,  -1.53826E-03,   5.07378E-09
C:/temp/dataset/6/31_2.odb,Step-1,Increment      1: Step Time =    1.000,"PART-1-1",           723,      -9.13796,       11.7463,            0.,NA,NA,"",   2.15145E-03,   1.58990E-03,  -1.44947E-03,   498.990E-09
C:/temp/dataset/6/31_2.odb,Step-1,Increment      1: Step Time =    1.000,"PART-1-1",           724,      -11.1090,       11.4975,            0.,NA,NA,"",   2.22393E-03,   1.60124E-03,  -1.54334E-03,   452.411E-09
C:/temp/dataset/6/31_2.odb,Step-1,Increment      1: Step Time =    1.000,"PART-1-1",           725,      -7.95801,       5.48811,            0.,NA,NA,"",   2.34183E-03,   1.87664E-03,  -1.40085E-03,   12.0557E-06
C:/temp/dataset/6/31_2.odb,Step-1,Increment      1: Step Time =    1.000,"PART-1-1",           726,      -9.27172,       5.51676,            0.,NA,NA,"",   2.38696E-03,   1.88701E-03,  -1.46178E-03,   8.73359E-06
C:/temp/dataset/6/31_2.odb,Step-1,Increment      1: Step Time =    1.000,"PART-1-1",           727,      -9.10783,       4.19071,            0.,NA,NA,"",   2.44279E-03,   1.95581E-03,  -1.46357E-03,   15.8024E-06
C:/temp/dataset/6/31_2.odb,Step-1,Increment      1: Step Time =    1.000,"PART-1-1",           728,      -7.79412,       4.16207,            0.,NA,NA,"",   2.39509E-03,   1.93969E-03,  -1.40502E-03,   18.5256E-06
C:/temp/dataset/6/31_2.odb,Step-1,Increment      1: Step Time =    1.000,"PART-1-1",           729,      -10.3652,   710.465E-03,            0.,NA,NA,"",   2.67618E-03,   2.18968E-03,  -1.53858E-03,   30.2117E-06
C:/temp/dataset/6/31_2.odb,Step-1,Increment      1: Step Time =    1.000,"PART-1-1",           730,      -11.5756,       2.14983,            0.,NA,NA,"",   2.62382E-03,   2.10161E-03,  -1.57088E-03,   19.1838E-06
C:/temp/dataset/6/31_2.odb,Step-1,Increment      1: Step Time =    1.000,"PART-1-1",           731,      -10.9514,      -7.70102,            0.,NA,NA,"",   2.95853E-03,   2.54010E-03,  -1.51684E-03,   42.0862E-06
C:/temp/dataset/6/31_2.odb,Step-1,Increment      1: Step Time =    1.000,"PART-1-1",           732,      -11.1587,      -15.1039,            0.,NA,NA,"",   2.05402E-03,   1.59128E-03,  -1.29878E-03,   64.6645E-06
C:/temp/dataset/6/31_2.odb,Step-1,Increment      1: Step Time =    1.000,"PART-1-1",           733,      -11.0422,      -12.5823,            0.,NA,NA,"",   2.54573E-03,   2.11067E-03,  -1.42330E-03,   39.6979E-06
C:/temp/dataset/6/31_2.odb,Step-1,Increment      1: Step Time =    1.000,"PART-1-1",           734,      -9.98828,      -19.2456,            0.,NA,NA,"",   1.33121E-03,   210.529E-06,  -1.31446E-03,   145.309E-06
C:/temp/dataset/6/31_2.odb,Step-1,Increment      1: Step Time =    1.000,"PART-1-1",           735,      -11.2222,      -17.6929,            0.,NA,NA,"",   1.34574E-03,   773.385E-06,  -1.10131E-03,   124.092E-06
C:/temp/dataset/6/31_2.odb,Step-1,Increment      1: Step Time =    1.000,"PART-1-1",           736,      -9.72809,       26.4627,            0.,NA,NA,"",   1.72575E-03,   889.569E-06,  -1.47881E-03,   1.17065E-09
C:/temp/dataset/6/31_2.odb,Step-1,Increment      1: Step Time =    1.000,"PART-1-1",           737,      -8.07960,       10.7858,            0.,NA,NA,"",   2.15250E-03,   1.63562E-03,  -1.39928E-03,   536.440E-09
C:/temp/dataset/6/31_2.odb,Step-1,Increment      1: Step Time =    1.000,"PART-1-1",           738,      -11.3320,       18.4953,            0.,NA,NA,"",   2.00688E-03,   1.26858E-03,  -1.55507E-03,   52.9970E-09
C:/temp/dataset/6/31_2.odb,Step-1,Increment      1: Step Time =    1.000,"PART-1-1",           739,      -10.4893,       6.32554,            0.,NA,NA,"",   2.39320E-03,   1.85252E-03,  -1.51512E-03,   5.88815E-06
C:/temp/dataset/6/31_2.odb,Step-1,Increment      1: Step Time =    1.000,"PART-1-1",           740,      -11.8356,       7.66802,            0.,NA,NA,"",   2.38413E-03,   1.78717E-03,  -1.57801E-03,   1.31345E-06
C:/temp/dataset/6/31_2.odb,Step-1,Increment      1: Step Time =    1.000,"PART-1-1",           741,      -11.4125,       4.87054,            0.,NA,NA,"",   2.48575E-03,   1.93483E-03,  -1.56057E-03,   8.21806E-06
C:/temp/dataset/6/31_2.odb,Step-1,Increment      1: Step Time =    1.000,"PART-1-1",           742,       10.1911,      -5.79504,            0.,NA,NA,"",   1.96613E-03,   1.92045E-03,  -421.334E-06,   24.9386E-06
C:/temp/dataset/6/31_2.odb,Step-1,Increment      1: Step Time =    1.000,"PART-1-1",           743,       9.10708,      -6.74300,            0.,NA,NA,"",   1.89997E-03,   1.86075E-03,  -384.045E-06,   34.7215E-06
C:/temp/dataset/6/31_2.odb,Step-1,Increment      1: Step Time =    1.000,"PART-1-1",           744,       11.1638,      -4.94873,            0.,NA,NA,"",   2.00743E-03,   1.95661E-03,  -448.844E-06,   14.9169E-06
C:/temp/dataset/6/31_2.odb,Step-1,Increment      1: Step Time =    1.000,"PART-1-1",           745,       10.4293,      -4.08570,            0.,NA,NA,"",   2.04448E-03,   2.00061E-03,  -421.265E-06,   14.4377E-06
C:/temp/dataset/6/31_2.odb,Step-1,Increment      1: Step Time =    1.000,"PART-1-1",           746,       9.97038,      -14.8971,            0.,NA,NA,"",   1.10434E-03,   1.05301E-03,  -332.755E-06,   39.1699E-06
C:/temp/dataset/6/31_2.odb,Step-1,Increment      1: Step Time =    1.000,"PART-1-1",           747,       9.96577,      -12.5508,            0.,NA,NA,"",   1.33906E-03,   1.28892E-03,  -362.985E-06,   37.5758E-06
C:/temp/dataset/6/31_2.odb,Step-1,Increment      1: Step Time =    1.000,"PART-1-1",           748,       8.96159,      -13.7029,            0.,NA,NA,"",   1.20214E-03,   1.16343E-03,  -302.617E-06,   37.6888E-06
C:/temp/dataset/6/31_2.odb,Step-1,Increment      1: Step Time =    1.000,"PART-1-1",           749,       6.92617,      -22.4012,            0.,NA,NA,"",   769.242E-06,   763.171E-06,  -96.4506E-06,   52.3315E-06
C:/temp/dataset/6/31_2.odb,Step-1,Increment      1: Step Time =    1.000,"PART-1-1",           750,       5.94981,      -23.5281,            0.,NA,NA,"",   997.602E-06,   970.248E-06,  -232.010E-06,   98.6762E-06
C:/temp/dataset/6/31_2.odb,Step-1,Increment      1: Step Time =    1.000,"PART-1-1",           751,       7.18383,      -24.1705,            0.,NA,NA,"",   925.003E-06,   919.377E-06,  -101.869E-06,   96.3363E-06
C:/temp/dataset/6/31_2.odb,Step-1,Increment      1: Step Time =    1.000,"PART-1-1",           752,       11.0968,      -20.2176,            0.,NA,NA,"",   794.350E-06,   766.939E-06,  -206.876E-06,   50.5950E-06
C:/temp/dataset/6/31_2.odb,Step-1,Increment      1: Step Time =    1.000,"PART-1-1",           753,       6.43355,      -20.8801,            0.,NA,NA,"",   560.717E-06,   538.461E-06,  -156.409E-06,   83.6886E-06
C:/temp/dataset/6/31_2.odb,Step-1,Increment      1: Step Time =    1.000,"PART-1-1",           754,       8.96045,      -11.3546,            0.,NA,NA,"",   1.44529E-03,   1.40790E-03,  -326.612E-06,   37.5143E-06
C:/temp/dataset/6/31_2.odb,Step-1,Increment      1: Step Time =    1.000,"PART-1-1",           755,       8.17216,      -2.03287,            0.,NA,NA,"",   2.09301E-03,   2.05994E-03,  -370.552E-06,   17.3275E-06
C:/temp/dataset/6/31_2.odb,Step-1,Increment      1: Step Time =    1.000,"PART-1-1",           756,       9.68046,      -2.49017,            0.,NA,NA,"",   2.08298E-03,   2.04513E-03,  -395.296E-06,   15.4336E-06
C:/temp/dataset/6/31_2.odb,Step-1,Increment      1: Step Time =    1.000,"PART-1-1",           757,      -5.24373,       2.94722,            0.,NA,NA,"",   2.34599E-03,   1.96063E-03,  -1.28825E-03,   18.8680E-06
C:/temp/dataset/6/31_2.odb,Step-1,Increment      1: Step Time =    1.000,"PART-1-1",           758,      -6.20341,       3.93450,            0.,NA,NA,"",   2.33906E-03,   1.92329E-03,  -1.33123E-03,   22.5702E-06
C:/temp/dataset/6/31_2.odb,Step-1,Increment      1: Step Time =    1.000,"PART-1-1",           759,       7.87036,      -17.0650,            0.,NA,NA,"",   852.827E-06,   819.587E-06,  -235.777E-06,   51.6007E-06
C:/temp/dataset/6/31_2.odb,Step-1,Increment      1: Step Time =    1.000,"PART-1-1",           760,      -8.77165,      -4.61616,            0.,NA,NA,"",   2.97928E-03,   2.50527E-03,  -1.61237E-03,   50.4049E-06
C:/temp/dataset/6/31_2.odb,Step-1,Increment      1: Step Time =    1.000,"PART-1-1",           761,       8.90402,      -15.9271,            0.,NA,NA,"",   982.986E-06,   942.782E-06,  -278.250E-06,   44.5568E-06
C:/temp/dataset/6/31_2.odb,Step-1,Increment      1: Step Time =    1.000,"PART-1-1",           762,       7.94609,      -14.8939,            0.,NA,NA,"",   1.06502E-03,   1.03663E-03,  -244.236E-06,   33.5124E-06
C:/temp/dataset/6/31_2.odb,Step-1,Increment      1: Step Time =    1.000,"PART-1-1",           763,      -12.3095,       21.7291,            0.,NA,NA,"",   1.95138E-03,   1.11477E-03,  -1.60161E-03,   3.89935E-09
C:/temp/dataset/6/31_2.odb,Step-1,Increment      1: Step Time =    1.000,"PART-1-1",           764,      -12.2938,       19.6789,            0.,NA,NA,"",   2.00808E-03,   1.21228E-03,  -1.60086E-03,   18.3145E-09
C:/temp/dataset/6/31_2.odb,Step-1,Increment      1: Step Time =    1.000,"PART-1-1",           765,       3.72209,      -1.78065,            0.,NA,NA,"",   2.13964E-03,   2.07959E-03,  -503.371E-06,   37.7174E-06
C:/temp/dataset/6/31_2.odb,Step-1,Increment      1: Step Time =    1.000,"PART-1-1",           766,       6.45852,      -3.38063,            0.,NA,NA,"",   2.10887E-03,   2.08013E-03,  -346.938E-06,   31.4924E-06
C:/temp/dataset/6/31_2.odb,Step-1,Increment      1: Step Time =    1.000,"PART-1-1",           767,       4.93556,      -2.38177,            0.,NA,NA,"",   2.12152E-03,   2.08169E-03,  -409.186E-06,   35.2752E-06
C:/temp/dataset/6/31_2.odb,Step-1,Increment      1: Step Time =    1.000,"PART-1-1",           768,      -2.94024,   945.156E-03,            0.,NA,NA,"",   2.32541E-03,   2.03536E-03,  -1.12465E-03,   31.5902E-06
C:/temp/dataset/6/31_2.odb,Step-1,Increment      1: Step Time =    1.000,"PART-1-1",           769,      -1.69279,      -25.0756,            0.,NA,NA,"",   3.53134E-03,   266.044E-06,  -3.52131E-03,   1.06047E-03
C:/temp/dataset/6/31_2.odb,Step-1,Increment      1: Step Time =    1.000,"PART-1-1",           770,      -6.93923,      -23.9860,            0.,NA,NA,"",   2.75674E-03,  -1.56458E-03,  -2.26974E-03,   539.953E-06
C:/temp/dataset/6/31_2.odb,Step-1,Increment      1: Step Time =    1.000,"PART-1-1",           771,      -5.91970,      -22.6959,            0.,NA,NA,"",   3.85243E-03,  -1.49826E-03,  -3.54915E-03,   837.336E-06
C:/temp/dataset/6/31_2.odb,Step-1,Increment      1: Step Time =    1.000,"PART-1-1",           772,      -12.2208,       17.3915,            0.,NA,NA,"",   2.07284E-03,   1.32102E-03,  -1.59736E-03,   67.1080E-09
C:/temp/dataset/6/31_2.odb,Step-1,Increment      1: Step Time =    1.000,"PART-1-1",           773,      -12.0398,       10.1961,            0.,NA,NA,"",   2.29968E-03,   1.66343E-03,  -1.58793E-03,   446.764E-09
C:/temp/dataset/6/31_2.odb,Step-1,Increment      1: Step Time =    1.000,"PART-1-1",           774,      -10.8637,      -2.91198,            0.,NA,NA,"",   2.88699E-03,   2.43162E-03,  -1.55627E-03,   43.7065E-06
C:/temp/dataset/6/31_2.odb,Step-1,Increment      1: Step Time =    1.000,"PART-1-1",           775,      -9.61620,      -11.5179,            0.,NA,NA,"",   2.83479E-03,   2.27069E-03,  -1.69705E-03,   43.2544E-06
C:/temp/dataset/6/31_2.odb,Step-1,Increment      1: Step Time =    1.000,"PART-1-1",           776,      -11.8201,      -24.5932,            0.,NA,NA,"",   1.52555E-03,  -1.44063E-03,  -501.897E-06,   119.587E-06
C:/temp/dataset/6/31_2.odb,Step-1,Increment      1: Step Time =    1.000,"PART-1-1",           777,      -11.0718,      -23.4296,            0.,NA,NA,"",   1.50544E-03,  -1.32210E-03,  -720.003E-06,   111.391E-06
C:/temp/dataset/6/31_2.odb,Step-1,Increment      1: Step Time =    1.000,"PART-1-1",           778,       4.75405,      -23.0816,            0.,NA,NA,"",   1.13325E-03,   1.01495E-03,  -504.125E-06,   158.747E-06
C:/temp/dataset/6/31_2.odb,Step-1,Increment      1: Step Time =    1.000,"PART-1-1",           779,       5.55198,      -21.9930,            0.,NA,NA,"",   760.396E-06,   717.847E-06,  -250.794E-06,   55.8795E-06
C:/temp/dataset/6/31_2.odb,Step-1,Increment      1: Step Time =    1.000,"PART-1-1",           780,       7.01336,      -26.0950,            0.,NA,NA,"",   913.792E-06,   903.262E-06,  -138.326E-06,   164.405E-06
C:/temp/dataset/6/31_2.odb,Step-1,Increment      1: Step Time =    1.000,"PART-1-1",           781,       4.10189,      -23.9882,            0.,NA,NA,"",   1.44135E-03,   1.21992E-03,  -767.654E-06,   269.300E-06
C:/temp/dataset/6/31_2.odb,Step-1,Increment      1: Step Time =    1.000,"PART-1-1",           782,       4.14804,      -25.2051,            0.,NA,NA,"",   1.41847E-03,   1.23951E-03,  -689.692E-06,   289.509E-06
C:/temp/dataset/6/31_2.odb,Step-1,Increment      1: Step Time =    1.000,"PART-1-1",           783,      -12.1264,       12.6156,            0.,NA,NA,"",   2.22081E-03,   1.54786E-03,  -1.59252E-03,   384.861E-09
C:/temp/dataset/6/31_2.odb,Step-1,Increment      1: Step Time =    1.000,"PART-1-1",           784,      -12.1709,       15.0185,            0.,NA,NA,"",   2.14459E-03,   1.43374E-03,  -1.59488E-03,   187.235E-09
C:/temp/dataset/6/31_2.odb,Step-1,Increment      1: Step Time =    1.000,"PART-1-1",           785,      -10.3060,       3.43341,            0.,NA,NA,"",   2.52113E-03,   2.01230E-03,  -1.51880E-03,   17.0308E-06
C:/temp/dataset/6/31_2.odb,Step-1,Increment      1: Step Time =    1.000,"PART-1-1",           786,      -9.35047,  -311.861E-03,            0.,NA,NA,"",   2.71611E-03,   2.24726E-03,  -1.52547E-03,   36.1428E-06
C:/temp/dataset/6/31_2.odb,Step-1,Increment      1: Step Time =    1.000,"PART-1-1",           787,      -9.47746,      -1.56252,            0.,NA,NA,"",   2.80115E-03,   2.33507E-03,  -1.54722E-03,   43.5004E-06
C:/temp/dataset/6/31_2.odb,Step-1,Increment      1: Step Time =    1.000,"PART-1-1",           788,      -7.56677,      -1.93629,            0.,NA,NA,"",   2.77571E-03,   2.31980E-03,  -1.52417E-03,   47.1733E-06
C:/temp/dataset/6/31_2.odb,Step-1,Increment      1: Step Time =    1.000,"PART-1-1",           789,      -9.57637,      -3.06595,            0.,NA,NA,"",   2.89550E-03,   2.43304E-03,  -1.56978E-03,   46.5366E-06
C:/temp/dataset/6/31_2.odb,Step-1,Increment      1: Step Time =    1.000,"PART-1-1",           790,      -8.24618,      -3.39128,            0.,NA,NA,"",   2.90333E-03,   2.43296E-03,  -1.58430E-03,   54.9565E-06
C:/temp/dataset/6/31_2.odb,Step-1,Increment      1: Step Time =    1.000,"PART-1-1",           791,       7.98922,      -7.69035,            0.,NA,NA,"",   1.80662E-03,   1.77568E-03,  -332.958E-06,   44.5369E-06
C:/temp/dataset/6/31_2.odb,Step-1,Increment      1: Step Time =    1.000,"PART-1-1",           792,       7.96586,      -10.1263,            0.,NA,NA,"",   1.55687E-03,   1.52979E-03,  -289.119E-06,   35.2859E-06
C:/temp/dataset/6/31_2.odb,Step-1,Increment      1: Step Time =    1.000,"PART-1-1",           793,       7.95460,      -12.5381,            0.,NA,NA,"",   1.30468E-03,   1.27873E-03,  -258.916E-06,   29.7672E-06
C:/temp/dataset/6/31_2.odb,Step-1,Increment      1: Step Time =    1.000,"PART-1-1",           794,      -6.90534,       4.84567,            0.,NA,NA,"",   2.32807E-03,   1.89286E-03,  -1.35535E-03,   18.1076E-06
C:/temp/dataset/6/31_2.odb,Step-1,Increment      1: Step Time =    1.000,"PART-1-1",           795,      -7.09219,       3.25090,            0.,NA,NA,"",   2.41358E-03,   1.97708E-03,  -1.38438E-03,   22.1420E-06
C:/temp/dataset/6/31_2.odb,Step-1,Increment      1: Step Time =    1.000,"PART-1-1",           796,      -5.99438,      -2.38990,            0.,NA,NA,"",   2.73274E-03,   2.30143E-03,  -1.47354E-03,   58.1316E-06
C:/temp/dataset/6/31_2.odb,Step-1,Increment      1: Step Time =    1.000,"PART-1-1",           797,      -8.16339,       2.56404,            0.,NA,NA,"",   2.49621E-03,   2.03723E-03,  -1.44248E-03,   25.0587E-06
C:/temp/dataset/6/31_2.odb,Step-1,Increment      1: Step Time =    1.000,"PART-1-1",           798,      -6.16245,       1.98671,            0.,NA,NA,"",   2.44421E-03,   2.03368E-03,  -1.35585E-03,   24.5788E-06
C:/temp/dataset/6/31_2.odb,Step-1,Increment      1: Step Time =    1.000,"PART-1-1",           799,      -9.36160,       1.80674,            0.,NA,NA,"",   2.58293E-03,   2.10424E-03,  -1.49790E-03,   25.7720E-06
C:/temp/dataset/6/31_2.odb,Step-1,Increment      1: Step Time =    1.000,"PART-1-1",           800,      -4.18828,       1.89018,            0.,NA,NA,"",   2.34712E-03,   2.00385E-03,  -1.22211E-03,   24.6037E-06
C:/temp/dataset/6/31_2.odb,Step-1,Increment      1: Step Time =    1.000,"PART-1-1",           801,      -2.02478,       2.01876,            0.,NA,NA,"",   2.21995E-03,   1.96746E-03,  -1.02825E-03,   30.2049E-06
C:/temp/dataset/6/31_2.odb,Step-1,Increment      1: Step Time =    1.000,"PART-1-1",           802,       5.29765,      -24.4346,            0.,NA,NA,"",   1.17838E-03,   1.11483E-03,  -381.759E-06,   185.361E-06
C:/temp/dataset/6/31_2.odb,Step-1,Increment      1: Step Time =    1.000,"PART-1-1",           803,       8.18651,      -25.0309,            0.,NA,NA,"",   856.805E-06,   854.480E-06,  -63.0708E-06,   88.8980E-06
C:/temp/dataset/6/31_2.odb,Step-1,Increment      1: Step Time =    1.000,"PART-1-1",           804,       6.01068,      -25.2345,            0.,NA,NA,"",   1.07751E-03,   1.04855E-03,  -248.137E-06,   168.448E-06
