ODB Name,Step,Frame,Part Instance Name,    êﬂì_ÉâÉxÉã,X,Y,Z,Section Name,Material Name,Section Point,   U-Magnitude,          U-U1,          U-U2,       S-Mises
C:/temp/dataset/6/32_8.odb,Step-1,Increment      1: Step Time =    1.000,"PART-1-1",             1,            5.,           -5.,            0.,NA,NA,"",   11.1627E-03,  -9.31305E-03,  -6.15405E-03,   456.887E-06
C:/temp/dataset/6/32_8.odb,Step-1,Increment      1: Step Time =    1.000,"PART-1-1",             2,            0.,           -5.,            0.,NA,NA,"",   9.71700E-03,  -9.04860E-03,  -3.54161E-03,   141.022E-06
C:/temp/dataset/6/32_8.odb,Step-1,Increment      1: Step Time =    1.000,"PART-1-1",             3,            5.,      -10.0250,            0.,NA,NA,"",   12.1794E-03,  -8.50151E-03,  -8.72141E-03,   578.158E-06
C:/temp/dataset/6/32_8.odb,Step-1,Increment      1: Step Time =    1.000,"PART-1-1",             4,            5.,      -15.0500,            0.,NA,NA,"",   13.1898E-03,  -5.68804E-03,  -11.9003E-03,   822.208E-06
C:/temp/dataset/6/32_8.odb,Step-1,Increment      1: Step Time =    1.000,"PART-1-1",             5,            5.,          -20.,            0.,NA,NA,"",   21.8486E-03,  -705.575E-06,  -21.8372E-03,   4.85546E-03
C:/temp/dataset/6/32_8.odb,Step-1,Increment      1: Step Time =    1.000,"PART-1-1",             6,            0.,          -20.,            0.,NA,NA,"",   26.8934E-03,   5.45042E-03,  -26.3353E-03,   4.74249E-03
C:/temp/dataset/6/32_8.odb,Step-1,Increment      1: Step Time =    1.000,"PART-1-1",             7,           -5.,          -20.,            0.,NA,NA,"",   1.77685E-03,  -1.17692E-03,  -1.33119E-03,   1.16400E-03
C:/temp/dataset/6/32_8.odb,Step-1,Increment      1: Step Time =    1.000,"PART-1-1",             8,           -5.,      -14.9750,            0.,NA,NA,"",   3.93158E-03,  -3.92472E-03,  -232.151E-06,   52.8849E-06
C:/temp/dataset/6/32_8.odb,Step-1,Increment      1: Step Time =    1.000,"PART-1-1",             9,           -5.,      -9.95000,            0.,NA,NA,"",   5.79071E-03,  -5.77937E-03,  -362.297E-06,   92.8339E-06
C:/temp/dataset/6/32_8.odb,Step-1,Increment      1: Step Time =    1.000,"PART-1-1",            10,           -5.,           -5.,            0.,NA,NA,"",   8.06411E-03,  -7.94332E-03,  -1.39051E-03,   543.398E-06
C:/temp/dataset/6/32_8.odb,Step-1,Increment      1: Step Time =    1.000,"PART-1-1",            11,           15.,          -30.,            0.,NA,NA,"",            0.,   626.497E-42,  -959.989E-42,   1.95469E-03
C:/temp/dataset/6/32_8.odb,Step-1,Increment      1: Step Time =    1.000,"PART-1-1",            12,          -15.,          -30.,            0.,NA,NA,"",            0.,  -287.387E-42,  -444.074E-42,   857.288E-06
C:/temp/dataset/6/32_8.odb,Step-1,Increment      1: Step Time =    1.000,"PART-1-1",            13,           15.,        -21.25,            0.,NA,NA,"",   2.93734E-03,   2.92528E-03,   265.878E-06,   172.790E-06
C:/temp/dataset/6/32_8.odb,Step-1,Increment      1: Step Time =    1.000,"PART-1-1",            14,           15.,         -12.5,            0.,NA,NA,"",   7.88845E-03,  -7.38519E-03,  -2.77247E-03,   579.561E-06
C:/temp/dataset/6/32_8.odb,Step-1,Increment      1: Step Time =    1.000,"PART-1-1",            15,           15.,         -3.75,            0.,NA,NA,"",   11.0122E-03,  -9.15164E-03,  -6.12512E-03,   239.001E-06
C:/temp/dataset/6/32_8.odb,Step-1,Increment      1: Step Time =    1.000,"PART-1-1",            16,           15.,            5.,            0.,NA,NA,"",   10.0340E-03,  -7.43262E-03,  -6.74070E-03,   4.68178E-06
C:/temp/dataset/6/32_8.odb,Step-1,Increment      1: Step Time =    1.000,"PART-1-1",            17,           10.,            5.,            0.,NA,NA,"",   9.46346E-03,  -7.34355E-03,  -5.96904E-03,   69.8899E-06
C:/temp/dataset/6/32_8.odb,Step-1,Increment      1: Step Time =    1.000,"PART-1-1",            18,            5.,            5.,            0.,NA,NA,"",   8.44732E-03,  -6.84241E-03,  -4.95366E-03,   118.424E-06
C:/temp/dataset/6/32_8.odb,Step-1,Increment      1: Step Time =    1.000,"PART-1-1",            19,            0.,            5.,            0.,NA,NA,"",   7.36240E-03,  -6.57363E-03,  -3.31546E-03,   17.2039E-06
C:/temp/dataset/6/32_8.odb,Step-1,Increment      1: Step Time =    1.000,"PART-1-1",            20,           -5.,            5.,            0.,NA,NA,"",   7.29545E-03,  -7.03610E-03,  -1.92790E-03,   144.745E-06
C:/temp/dataset/6/32_8.odb,Step-1,Increment      1: Step Time =    1.000,"PART-1-1",            21,           -5.,         11.25,            0.,NA,NA,"",   7.28283E-03,  -7.02701E-03,  -1.91328E-03,   2.66767E-06
C:/temp/dataset/6/32_8.odb,Step-1,Increment      1: Step Time =    1.000,"PART-1-1",            22,           -5.,          17.5,            0.,NA,NA,"",   7.06434E-03,  -6.79866E-03,  -1.91913E-03,   154.858E-09
C:/temp/dataset/6/32_8.odb,Step-1,Increment      1: Step Time =    1.000,"PART-1-1",            23,           -5.,         23.75,            0.,NA,NA,"",   6.84273E-03,  -6.56806E-03,  -1.91926E-03,   9.21736E-09
C:/temp/dataset/6/32_8.odb,Step-1,Increment      1: Step Time =    1.000,"PART-1-1",            24,           -5.,           30.,            0.,NA,NA,"",   6.62204E-03,  -6.33782E-03,  -1.91925E-03,   263.164E-12
C:/temp/dataset/6/32_8.odb,Step-1,Increment      1: Step Time =    1.000,"PART-1-1",            25,          -10.,           30.,            0.,NA,NA,"",   6.57103E-03,  -6.33782E-03,  -1.73506E-03,   3.34368E-09
C:/temp/dataset/6/32_8.odb,Step-1,Increment      1: Step Time =    1.000,"PART-1-1",            26,          -15.,           30.,            0.,NA,NA,"",   6.52483E-03,  -6.33783E-03,  -1.55090E-03,   304.894E-12
C:/temp/dataset/6/32_8.odb,Step-1,Increment      1: Step Time =    1.000,"PART-1-1",            27,          -15.,          22.5,            0.,NA,NA,"",   6.79344E-03,  -6.61404E-03,  -1.55093E-03,   10.6057E-09
C:/temp/dataset/6/32_8.odb,Step-1,Increment      1: Step Time =    1.000,"PART-1-1",            28,          -15.,           15.,            0.,NA,NA,"",   7.06184E-03,  -6.88962E-03,  -1.55007E-03,   575.684E-09
C:/temp/dataset/6/32_8.odb,Step-1,Increment      1: Step Time =    1.000,"PART-1-1",            29,          -15.,           7.5,            0.,NA,NA,"",   7.35254E-03,  -7.19012E-03,  -1.53686E-03,   1.25072E-06
C:/temp/dataset/6/32_8.odb,Step-1,Increment      1: Step Time =    1.000,"PART-1-1",            30,          -15.,            0.,            0.,NA,NA,"",   7.77143E-03,  -7.57339E-03,  -1.74321E-03,   86.8019E-06
C:/temp/dataset/6/32_8.odb,Step-1,Increment      1: Step Time =    1.000,"PART-1-1",            31,          -15.,          -7.5,            0.,NA,NA,"",   7.16395E-03,  -6.70418E-03,  -2.52510E-03,   84.3537E-06
C:/temp/dataset/6/32_8.odb,Step-1,Increment      1: Step Time =    1.000,"PART-1-1",            32,          -15.,          -15.,            0.,NA,NA,"",   4.84336E-03,  -4.28097E-03,  -2.26528E-03,   163.537E-06
C:/temp/dataset/6/32_8.odb,Step-1,Increment      1: Step Time =    1.000,"PART-1-1",            33,          -15.,         -22.5,            0.,NA,NA,"",   3.38604E-03,  -3.20689E-03,  -1.08677E-03,   69.7182E-06
C:/temp/dataset/6/32_8.odb,Step-1,Increment      1: Step Time =    1.000,"PART-1-1",            34,           2.5,           -5.,            0.,NA,NA,"",   10.3622E-03,  -9.29640E-03,  -4.57723E-03,   115.935E-06
C:/temp/dataset/6/32_8.odb,Step-1,Increment      1: Step Time =    1.000,"PART-1-1",            35,            5.,      -7.51250,            0.,NA,NA,"",   11.8090E-03,  -9.13116E-03,  -7.48830E-03,   551.139E-06
C:/temp/dataset/6/32_8.odb,Step-1,Increment      1: Step Time =    1.000,"PART-1-1",            36,            5.,      -12.5375,            0.,NA,NA,"",   12.5155E-03,  -7.37036E-03,  -10.1151E-03,   680.307E-06
C:/temp/dataset/6/32_8.odb,Step-1,Increment      1: Step Time =    1.000,"PART-1-1",            37,            5.,      -17.5250,            0.,NA,NA,"",   14.2639E-03,  -3.91500E-03,  -13.7161E-03,   1.43780E-03
C:/temp/dataset/6/32_8.odb,Step-1,Increment      1: Step Time =    1.000,"PART-1-1",            38,           2.5,          -20.,            0.,NA,NA,"",   39.6298E-03,   708.072E-06,  -39.6234E-03,   9.25510E-03
C:/temp/dataset/6/32_8.odb,Step-1,Increment      1: Step Time =    1.000,"PART-1-1",            39,          -2.5,          -20.,            0.,NA,NA,"",   8.23170E-03,   2.16651E-03,  -7.94148E-03,   1.77837E-03
C:/temp/dataset/6/32_8.odb,Step-1,Increment      1: Step Time =    1.000,"PART-1-1",            40,           -5.,      -17.4875,            0.,NA,NA,"",   2.94417E-03,  -2.91871E-03,  -386.354E-06,   344.965E-06
C:/temp/dataset/6/32_8.odb,Step-1,Increment      1: Step Time =    1.000,"PART-1-1",            41,           -5.,      -12.4625,            0.,NA,NA,"",   4.86240E-03,  -4.85744E-03,  -219.569E-06,   25.6434E-06
C:/temp/dataset/6/32_8.odb,Step-1,Increment      1: Step Time =    1.000,"PART-1-1",            42,           -5.,      -7.47500,            0.,NA,NA,"",   6.73919E-03,  -6.70887E-03,  -638.601E-06,   203.784E-06
C:/temp/dataset/6/32_8.odb,Step-1,Increment      1: Step Time =    1.000,"PART-1-1",            43,          -2.5,           -5.,            0.,NA,NA,"",   9.07539E-03,  -8.70720E-03,  -2.55879E-03,   261.528E-06
C:/temp/dataset/6/32_8.odb,Step-1,Increment      1: Step Time =    1.000,"PART-1-1",            44,          12.5,          -30.,            0.,NA,NA,"",            0.,   1.14733E-39,  -922.503E-42,   1.24505E-03
C:/temp/dataset/6/32_8.odb,Step-1,Increment      1: Step Time =    1.000,"PART-1-1",            45,           10.,          -30.,            0.,NA,NA,"",            0.,   822.482E-42,  -995.037E-42,   1.77055E-03
C:/temp/dataset/6/32_8.odb,Step-1,Increment      1: Step Time =    1.000,"PART-1-1",            46,           7.5,          -30.,            0.,NA,NA,"",            0.,   728.926E-42,  -1.90781E-39,   2.16196E-03
C:/temp/dataset/6/32_8.odb,Step-1,Increment      1: Step Time =    1.000,"PART-1-1",            47,            5.,          -30.,            0.,NA,NA,"",            0.,   1.17867E-39,  -3.60258E-39,   2.47193E-03
C:/temp/dataset/6/32_8.odb,Step-1,Increment      1: Step Time =    1.000,"PART-1-1",            48,           2.5,          -30.,            0.,NA,NA,"",            0.,   525.876E-42,  -3.94589E-39,   2.52065E-03
C:/temp/dataset/6/32_8.odb,Step-1,Increment      1: Step Time =    1.000,"PART-1-1",            49,            0.,          -30.,            0.,NA,NA,"",            0.,  -1.31606E-39,  -3.29888E-39,   2.34087E-03
C:/temp/dataset/6/32_8.odb,Step-1,Increment      1: Step Time =    1.000,"PART-1-1",            50,          -2.5,          -30.,            0.,NA,NA,"",            0.,  -651.941E-42,  -1.78035E-39,   1.99132E-03
C:/temp/dataset/6/32_8.odb,Step-1,Increment      1: Step Time =    1.000,"PART-1-1",            51,           -5.,          -30.,            0.,NA,NA,"",            0.,  -716.163E-42,  -854.508E-42,   1.45980E-03
C:/temp/dataset/6/32_8.odb,Step-1,Increment      1: Step Time =    1.000,"PART-1-1",            52,          -7.5,          -30.,            0.,NA,NA,"",            0.,  -544.765E-42,  -347.766E-42,   993.288E-06
C:/temp/dataset/6/32_8.odb,Step-1,Increment      1: Step Time =    1.000,"PART-1-1",            53,          -10.,          -30.,            0.,NA,NA,"",            0.,  -504.222E-42,  -482.386E-42,   678.812E-06
C:/temp/dataset/6/32_8.odb,Step-1,Increment      1: Step Time =    1.000,"PART-1-1",            54,         -12.5,          -30.,            0.,NA,NA,"",            0.,  -440.989E-42,  -133.531E-42,   456.976E-06
C:/temp/dataset/6/32_8.odb,Step-1,Increment      1: Step Time =    1.000,"PART-1-1",            55,           15.,      -23.4375,            0.,NA,NA,"",   5.08832E-03,   5.07344E-03,  -388.783E-06,   434.669E-06
C:/temp/dataset/6/32_8.odb,Step-1,Increment      1: Step Time =    1.000,"PART-1-1",            56,           15.,       -25.625,            0.,NA,NA,"",   5.67179E-03,   5.51531E-03,  -1.32310E-03,   433.774E-06
C:/temp/dataset/6/32_8.odb,Step-1,Increment      1: Step Time =    1.000,"PART-1-1",            57,           15.,      -27.8125,            0.,NA,NA,"",   4.23960E-03,   3.80298E-03,  -1.87392E-03,   263.996E-06
C:/temp/dataset/6/32_8.odb,Step-1,Increment      1: Step Time =    1.000,"PART-1-1",            58,           15.,      -14.6875,            0.,NA,NA,"",   5.82465E-03,  -5.59990E-03,  -1.60238E-03,   590.241E-06
C:/temp/dataset/6/32_8.odb,Step-1,Increment      1: Step Time =    1.000,"PART-1-1",            59,           15.,       -16.875,            0.,NA,NA,"",   3.16560E-03,  -3.12492E-03,  -505.810E-06,   485.593E-06
C:/temp/dataset/6/32_8.odb,Step-1,Increment      1: Step Time =    1.000,"PART-1-1",            60,           15.,      -19.0625,            0.,NA,NA,"",   244.965E-06,  -101.735E-06,   222.840E-06,   213.189E-06
C:/temp/dataset/6/32_8.odb,Step-1,Increment      1: Step Time =    1.000,"PART-1-1",            61,           15.,       -5.9375,            0.,NA,NA,"",   10.8468E-03,  -9.31589E-03,  -5.55587E-03,   340.006E-06
C:/temp/dataset/6/32_8.odb,Step-1,Increment      1: Step Time =    1.000,"PART-1-1",            62,           15.,        -8.125,            0.,NA,NA,"",   10.3244E-03,  -9.14445E-03,  -4.79298E-03,   433.629E-06
C:/temp/dataset/6/32_8.odb,Step-1,Increment      1: Step Time =    1.000,"PART-1-1",            63,           15.,      -10.3125,            0.,NA,NA,"",   9.36448E-03,  -8.53346E-03,  -3.85661E-03,   516.165E-06
C:/temp/dataset/6/32_8.odb,Step-1,Increment      1: Step Time =    1.000,"PART-1-1",            64,           15.,        2.8125,            0.,NA,NA,"",   10.3367E-03,  -7.83592E-03,  -6.74131E-03,   10.1699E-06
C:/temp/dataset/6/32_8.odb,Step-1,Increment      1: Step Time =    1.000,"PART-1-1",            65,           15.,      625.E-03,            0.,NA,NA,"",   10.6566E-03,  -8.29959E-03,  -6.68430E-03,   61.1785E-06
C:/temp/dataset/6/32_8.odb,Step-1,Increment      1: Step Time =    1.000,"PART-1-1",            66,           15.,       -1.5625,            0.,NA,NA,"",   10.9146E-03,  -8.77179E-03,  -6.49498E-03,   141.860E-06
C:/temp/dataset/6/32_8.odb,Step-1,Increment      1: Step Time =    1.000,"PART-1-1",            67,          12.5,            5.,            0.,NA,NA,"",   9.75904E-03,  -7.43181E-03,  -6.32513E-03,   12.9870E-06
C:/temp/dataset/6/32_8.odb,Step-1,Increment      1: Step Time =    1.000,"PART-1-1",            68,           7.5,            5.,            0.,NA,NA,"",   9.03079E-03,  -7.12291E-03,  -5.55152E-03,   119.720E-06
C:/temp/dataset/6/32_8.odb,Step-1,Increment      1: Step Time =    1.000,"PART-1-1",            69,           2.5,            5.,            0.,NA,NA,"",   7.83265E-03,  -6.62929E-03,  -4.17168E-03,   61.9871E-06
C:/temp/dataset/6/32_8.odb,Step-1,Increment      1: Step Time =    1.000,"PART-1-1",            70,          -2.5,            5.,            0.,NA,NA,"",   7.15977E-03,  -6.69826E-03,  -2.52895E-03,   98.1585E-06
C:/temp/dataset/6/32_8.odb,Step-1,Increment      1: Step Time =    1.000,"PART-1-1",            71,           -5.,       9.16667,            0.,NA,NA,"",   7.34501E-03,  -7.09344E-03,  -1.90585E-03,   6.50406E-06
C:/temp/dataset/6/32_8.odb,Step-1,Increment      1: Step Time =    1.000,"PART-1-1",            72,           -5.,       7.08333,            0.,NA,NA,"",   7.37632E-03,  -7.12993E-03,  -1.89058E-03,   32.4239E-06
C:/temp/dataset/6/32_8.odb,Step-1,Increment      1: Step Time =    1.000,"PART-1-1",            73,           -5.,       15.4167,            0.,NA,NA,"",   7.13838E-03,  -6.87571E-03,  -1.91861E-03,   489.449E-09
C:/temp/dataset/6/32_8.odb,Step-1,Increment      1: Step Time =    1.000,"PART-1-1",            74,           -5.,       13.3333,            0.,NA,NA,"",   7.21176E-03,  -6.95231E-03,  -1.91700E-03,   1.35750E-06
C:/temp/dataset/6/32_8.odb,Step-1,Increment      1: Step Time =    1.000,"PART-1-1",            75,           -5.,       21.6667,            0.,NA,NA,"",   6.91647E-03,  -6.64485E-03,  -1.91928E-03,   11.1509E-09
C:/temp/dataset/6/32_8.odb,Step-1,Increment      1: Step Time =    1.000,"PART-1-1",            76,           -5.,       19.5833,            0.,NA,NA,"",   6.99034E-03,  -6.72170E-03,  -1.91927E-03,   24.4497E-09
C:/temp/dataset/6/32_8.odb,Step-1,Increment      1: Step Time =    1.000,"PART-1-1",            77,           -5.,       27.9167,            0.,NA,NA,"",   6.69553E-03,  -6.41456E-03,  -1.91925E-03,   1.39554E-09
C:/temp/dataset/6/32_8.odb,Step-1,Increment      1: Step Time =    1.000,"PART-1-1",            78,           -5.,       25.8333,            0.,NA,NA,"",   6.76909E-03,  -6.49130E-03,  -1.91925E-03,   5.02006E-09
C:/temp/dataset/6/32_8.odb,Step-1,Increment      1: Step Time =    1.000,"PART-1-1",            79,          -7.5,           30.,            0.,NA,NA,"",   6.59594E-03,  -6.33782E-03,  -1.82715E-03,   1.62319E-09
C:/temp/dataset/6/32_8.odb,Step-1,Increment      1: Step Time =    1.000,"PART-1-1",            80,         -12.5,           30.,            0.,NA,NA,"",   6.54732E-03,  -6.33783E-03,  -1.64298E-03,   1.53404E-09
C:/temp/dataset/6/32_8.odb,Step-1,Increment      1: Step Time =    1.000,"PART-1-1",            81,          -15.,           25.,            0.,NA,NA,"",   6.70385E-03,  -6.52198E-03,  -1.55091E-03,   6.58173E-09
C:/temp/dataset/6/32_8.odb,Step-1,Increment      1: Step Time =    1.000,"PART-1-1",            82,          -15.,          27.5,            0.,NA,NA,"",   6.61430E-03,  -6.42991E-03,  -1.55090E-03,   2.04003E-09
C:/temp/dataset/6/32_8.odb,Step-1,Increment      1: Step Time =    1.000,"PART-1-1",            83,          -15.,          17.5,            0.,NA,NA,"",   6.97249E-03,  -6.79784E-03,  -1.55079E-03,   134.990E-09
C:/temp/dataset/6/32_8.odb,Step-1,Increment      1: Step Time =    1.000,"PART-1-1",            84,          -15.,           20.,            0.,NA,NA,"",   6.88302E-03,  -6.70601E-03,  -1.55093E-03,   11.6527E-09
C:/temp/dataset/6/32_8.odb,Step-1,Increment      1: Step Time =    1.000,"PART-1-1",            85,          -15.,           10.,            0.,NA,NA,"",   7.24570E-03,  -7.07956E-03,  -1.54268E-03,   2.99926E-06
C:/temp/dataset/6/32_8.odb,Step-1,Increment      1: Step Time =    1.000,"PART-1-1",            86,          -15.,          12.5,            0.,NA,NA,"",   7.15181E-03,  -6.98232E-03,  -1.54777E-03,   1.59849E-06
C:/temp/dataset/6/32_8.odb,Step-1,Increment      1: Step Time =    1.000,"PART-1-1",            87,          -15.,           2.5,            0.,NA,NA,"",   7.63870E-03,  -7.46932E-03,  -1.59970E-03,   42.7846E-06
C:/temp/dataset/6/32_8.odb,Step-1,Increment      1: Step Time =    1.000,"PART-1-1",            88,          -15.,            5.,            0.,NA,NA,"",   7.48440E-03,  -7.32326E-03,  -1.54471E-03,   12.1152E-06
C:/temp/dataset/6/32_8.odb,Step-1,Increment      1: Step Time =    1.000,"PART-1-1",            89,          -15.,           -5.,            0.,NA,NA,"",   7.60609E-03,  -7.25704E-03,  -2.27772E-03,   124.652E-06
C:/temp/dataset/6/32_8.odb,Step-1,Increment      1: Step Time =    1.000,"PART-1-1",            90,          -15.,          -2.5,            0.,NA,NA,"",   7.79346E-03,  -7.53660E-03,  -1.98438E-03,   124.558E-06
C:/temp/dataset/6/32_8.odb,Step-1,Increment      1: Step Time =    1.000,"PART-1-1",            91,          -15.,         -12.5,            0.,NA,NA,"",   5.68462E-03,  -5.08269E-03,  -2.54583E-03,   83.0797E-06
C:/temp/dataset/6/32_8.odb,Step-1,Increment      1: Step Time =    1.000,"PART-1-1",            92,          -15.,          -10.,            0.,NA,NA,"",   6.49236E-03,  -5.93695E-03,  -2.62743E-03,   11.3610E-06
C:/temp/dataset/6/32_8.odb,Step-1,Increment      1: Step Time =    1.000,"PART-1-1",            93,          -15.,          -20.,            0.,NA,NA,"",   3.62736E-03,  -3.35830E-03,  -1.37097E-03,   172.982E-06
C:/temp/dataset/6/32_8.odb,Step-1,Increment      1: Step Time =    1.000,"PART-1-1",            94,          -15.,         -17.5,            0.,NA,NA,"",   4.10827E-03,  -3.67798E-03,  -1.83041E-03,   208.240E-06
C:/temp/dataset/6/32_8.odb,Step-1,Increment      1: Step Time =    1.000,"PART-1-1",            95,          -15.,         -27.5,            0.,NA,NA,"",   2.05985E-03,  -1.79406E-03,  -1.01210E-03,   189.729E-06
C:/temp/dataset/6/32_8.odb,Step-1,Increment      1: Step Time =    1.000,"PART-1-1",            96,          -15.,          -25.,            0.,NA,NA,"",   3.01252E-03,  -2.82266E-03,  -1.05255E-03,   31.0797E-06
C:/temp/dataset/6/32_8.odb,Step-1,Increment      1: Step Time =    1.000,"PART-1-1",            97,       13.0047,      -3.80353,            0.,NA,NA,"",   11.1038E-03,  -9.32776E-03,  -6.02390E-03,   186.978E-06
C:/temp/dataset/6/32_8.odb,Step-1,Increment      1: Step Time =    1.000,"PART-1-1",            98,       6.97971,      -7.55833,            0.,NA,NA,"",   11.8680E-03,  -9.46527E-03,  -7.15953E-03,   325.486E-06
C:/temp/dataset/6/32_8.odb,Step-1,Increment      1: Step Time =    1.000,"PART-1-1",            99,       6.96639,      -10.0829,            0.,NA,NA,"",   11.9386E-03,  -8.90488E-03,  -7.95190E-03,   401.275E-06
C:/temp/dataset/6/32_8.odb,Step-1,Increment      1: Step Time =    1.000,"PART-1-1",           100,       12.9900,      -12.5465,            0.,NA,NA,"",   8.81545E-03,  -7.76798E-03,  -4.16782E-03,   330.083E-06
C:/temp/dataset/6/32_8.odb,Step-1,Increment      1: Step Time =    1.000,"PART-1-1",           101,       6.90028,      -17.1420,            0.,NA,NA,"",   11.5563E-03,  -4.49539E-03,  -10.6461E-03,   1.20492E-03
C:/temp/dataset/6/32_8.odb,Step-1,Increment      1: Step Time =    1.000,"PART-1-1",           102,       7.03871,      -19.0570,            0.,NA,NA,"",   10.9170E-03,  -2.03663E-03,  -10.7254E-03,   1.23005E-03
C:/temp/dataset/6/32_8.odb,Step-1,Increment      1: Step Time =    1.000,"PART-1-1",           103,       5.31709,      -21.2647,            0.,NA,NA,"",   19.4515E-03,   4.78220E-03,  -18.8545E-03,   4.32316E-03
C:/temp/dataset/6/32_8.odb,Step-1,Increment      1: Step Time =    1.000,"PART-1-1",           104,      -4.83361,      -22.6144,            0.,NA,NA,"",   4.08017E-03,  -3.61212E-03,  -1.89746E-03,   512.943E-06
C:/temp/dataset/6/32_8.odb,Step-1,Increment      1: Step Time =    1.000,"PART-1-1",           105,      -7.46484,      -17.6587,            0.,NA,NA,"",   3.08155E-03,  -2.95518E-03,  -873.421E-06,   337.935E-06
C:/temp/dataset/6/32_8.odb,Step-1,Increment      1: Step Time =    1.000,"PART-1-1",           106,      -12.5283,      -27.3245,            0.,NA,NA,"",   1.89798E-03,  -1.86661E-03,  -343.628E-06,   398.209E-06
C:/temp/dataset/6/32_8.odb,Step-1,Increment      1: Step Time =    1.000,"PART-1-1",           107,      -12.4870,      -17.6221,            0.,NA,NA,"",   3.71212E-03,  -3.44452E-03,  -1.38388E-03,   152.980E-06
C:/temp/dataset/6/32_8.odb,Step-1,Increment      1: Step Time =    1.000,"PART-1-1",           108,      -7.32043,      -12.6401,            0.,NA,NA,"",   4.90508E-03,  -4.82133E-03,  -902.564E-06,   103.867E-06
C:/temp/dataset/6/32_8.odb,Step-1,Increment      1: Step Time =    1.000,"PART-1-1",           109,      -7.14644,      -8.03697,            0.,NA,NA,"",   6.68248E-03,  -6.58366E-03,  -1.14496E-03,   198.231E-06
C:/temp/dataset/6/32_8.odb,Step-1,Increment      1: Step Time =    1.000,"PART-1-1",           110,      -12.6601,       4.88622,            0.,NA,NA,"",   7.51693E-03,  -7.33616E-03,  -1.63860E-03,   27.0298E-06
C:/temp/dataset/6/32_8.odb,Step-1,Increment      1: Step Time =    1.000,"PART-1-1",           111,      -13.0978,       12.5399,            0.,NA,NA,"",   7.16576E-03,  -6.98011E-03,  -1.62058E-03,   1.00031E-06
C:/temp/dataset/6/32_8.odb,Step-1,Increment      1: Step Time =    1.000,"PART-1-1",           112,      -6.45576,       21.8628,            0.,NA,NA,"",   6.89481E-03,  -6.63761E-03,  -1.86562E-03,   12.3167E-09
C:/temp/dataset/6/32_8.odb,Step-1,Increment      1: Step Time =    1.000,"PART-1-1",           113,      -7.28884,       25.7044,            0.,NA,NA,"",   6.75023E-03,  -6.49605E-03,  -1.83493E-03,   3.50350E-09
C:/temp/dataset/6/32_8.odb,Step-1,Increment      1: Step Time =    1.000,"PART-1-1",           114,      -9.90518,       27.6474,            0.,NA,NA,"",   6.65556E-03,  -6.42448E-03,  -1.73855E-03,   2.08294E-09
C:/temp/dataset/6/32_8.odb,Step-1,Increment      1: Step Time =    1.000,"PART-1-1",           115,      -3.01211,      -3.13168,            0.,NA,NA,"",   8.41082E-03,  -8.09320E-03,  -2.28954E-03,   239.540E-06
C:/temp/dataset/6/32_8.odb,Step-1,Increment      1: Step Time =    1.000,"PART-1-1",           116,      -2.19169,       3.00836,            0.,NA,NA,"",   7.58937E-03,  -7.13942E-03,  -2.57433E-03,   89.1898E-06
C:/temp/dataset/6/32_8.odb,Step-1,Increment      1: Step Time =    1.000,"PART-1-1",           117,       1.85193,      -2.77696,            0.,NA,NA,"",   9.44782E-03,  -8.46699E-03,  -4.19183E-03,   128.880E-06
C:/temp/dataset/6/32_8.odb,Step-1,Increment      1: Step Time =    1.000,"PART-1-1",           118,       2.83229,       2.22691,            0.,NA,NA,"",   8.59067E-03,  -7.39582E-03,  -4.37052E-03,   113.490E-06
C:/temp/dataset/6/32_8.odb,Step-1,Increment      1: Step Time =    1.000,"PART-1-1",           119,       7.74921,       3.07964,            0.,NA,NA,"",   9.46005E-03,  -7.55828E-03,  -5.68902E-03,   90.5505E-06
C:/temp/dataset/6/32_8.odb,Step-1,Increment      1: Step Time =    1.000,"PART-1-1",           120,      -2.47342,      -22.6017,            0.,NA,NA,"",   8.39406E-03,  -4.57334E-03,  -7.03881E-03,   1.93680E-03
C:/temp/dataset/6/32_8.odb,Step-1,Increment      1: Step Time =    1.000,"PART-1-1",           121,      -7.48266,       20.3798,            0.,NA,NA,"",   6.93741E-03,  -6.69230E-03,  -1.82779E-03,   55.1329E-09
C:/temp/dataset/6/32_8.odb,Step-1,Increment      1: Step Time =    1.000,"PART-1-1",           122,      -7.10993,       13.1351,            0.,NA,NA,"",   7.19964E-03,  -6.96011E-03,  -1.84166E-03,   1.01237E-06
C:/temp/dataset/6/32_8.odb,Step-1,Increment      1: Step Time =    1.000,"PART-1-1",           123,      -6.64156,       6.82435,            0.,NA,NA,"",   7.38691E-03,  -7.14982E-03,  -1.85649E-03,   32.0398E-06
C:/temp/dataset/6/32_8.odb,Step-1,Increment      1: Step Time =    1.000,"PART-1-1",           124,      -12.9641,      -2.37512,            0.,NA,NA,"",   7.84508E-03,  -7.62871E-03,  -1.82978E-03,   63.1930E-06
C:/temp/dataset/6/32_8.odb,Step-1,Increment      1: Step Time =    1.000,"PART-1-1",           125,      -12.1317,      -9.84573,            0.,NA,NA,"",   6.28212E-03,  -5.98247E-03,  -1.91704E-03,   122.766E-06
C:/temp/dataset/6/32_8.odb,Step-1,Increment      1: Step Time =    1.000,"PART-1-1",           126,       4.04132,      -2.67712,            0.,NA,NA,"",   10.0131E-03,  -8.57237E-03,  -5.17464E-03,   195.155E-06
C:/temp/dataset/6/32_8.odb,Step-1,Increment      1: Step Time =    1.000,"PART-1-1",           127,       6.95362,      -12.5367,            0.,NA,NA,"",   11.8225E-03,  -7.84299E-03,  -8.84636E-03,   452.100E-06
C:/temp/dataset/6/32_8.odb,Step-1,Increment      1: Step Time =    1.000,"PART-1-1",           128,       6.92458,      -14.9216,            0.,NA,NA,"",   11.7536E-03,  -6.32203E-03,  -9.90855E-03,   597.519E-06
C:/temp/dataset/6/32_8.odb,Step-1,Increment      1: Step Time =    1.000,"PART-1-1",           129,       12.9089,      -21.3671,            0.,NA,NA,"",   3.57547E-03,   3.09649E-03,  -1.78767E-03,   408.868E-06
C:/temp/dataset/6/32_8.odb,Step-1,Increment      1: Step Time =    1.000,"PART-1-1",           130,   283.131E-03,      -22.8786,            0.,NA,NA,"",   19.7087E-03,  -3.74730E-03,  -19.3492E-03,   5.40180E-03
C:/temp/dataset/6/32_8.odb,Step-1,Increment      1: Step Time =    1.000,"PART-1-1",           131,      -12.9776,      -22.4214,            0.,NA,NA,"",   3.23501E-03,  -3.13119E-03,  -812.976E-06,   162.342E-06
C:/temp/dataset/6/32_8.odb,Step-1,Increment      1: Step Time =    1.000,"PART-1-1",           132,      -7.42030,      -15.1083,            0.,NA,NA,"",   3.97532E-03,  -3.86683E-03,  -922.410E-06,   147.377E-06
C:/temp/dataset/6/32_8.odb,Step-1,Increment      1: Step Time =    1.000,"PART-1-1",           133,      -7.18486,      -10.2642,            0.,NA,NA,"",   5.82540E-03,  -5.73977E-03,  -995.153E-06,   127.117E-06
C:/temp/dataset/6/32_8.odb,Step-1,Increment      1: Step Time =    1.000,"PART-1-1",           134,      -7.33974,      -5.93881,            0.,NA,NA,"",   7.47431E-03,  -7.34761E-03,  -1.37039E-03,   173.168E-06
C:/temp/dataset/6/32_8.odb,Step-1,Increment      1: Step Time =    1.000,"PART-1-1",           135,  -533.729E-03,      -2.94296,            0.,NA,NA,"",   8.91226E-03,  -8.30986E-03,  -3.22097E-03,   141.369E-06
C:/temp/dataset/6/32_8.odb,Step-1,Increment      1: Step Time =    1.000,"PART-1-1",           136,       10.2172,      -28.0250,            0.,NA,NA,"",   3.85411E-03,   3.62546E-03,  -1.30775E-03,   1.45655E-03
C:/temp/dataset/6/32_8.odb,Step-1,Increment      1: Step Time =    1.000,"PART-1-1",           137,       7.82196,      -28.0777,            0.,NA,NA,"",   4.21996E-03,   3.51191E-03,  -2.33978E-03,   1.98272E-03
C:/temp/dataset/6/32_8.odb,Step-1,Increment      1: Step Time =    1.000,"PART-1-1",           138,       5.43540,      -28.0544,            0.,NA,NA,"",   4.54134E-03,   2.65658E-03,  -3.68325E-03,   2.69100E-03
C:/temp/dataset/6/32_8.odb,Step-1,Increment      1: Step Time =    1.000,"PART-1-1",           139,       2.98405,      -27.8165,            0.,NA,NA,"",   5.23554E-03,   660.666E-06,  -5.19369E-03,   3.28147E-03
C:/temp/dataset/6/32_8.odb,Step-1,Increment      1: Step Time =    1.000,"PART-1-1",           140,   324.250E-03,      -27.0908,            0.,NA,NA,"",   6.85999E-03,  -2.50544E-03,  -6.38609E-03,   3.12319E-03
C:/temp/dataset/6/32_8.odb,Step-1,Increment      1: Step Time =    1.000,"PART-1-1",           141,      -2.46293,      -27.5198,            0.,NA,NA,"",   4.73080E-03,  -3.72706E-03,  -2.91368E-03,   1.90333E-03
C:/temp/dataset/6/32_8.odb,Step-1,Increment      1: Step Time =    1.000,"PART-1-1",           142,      -4.88996,      -27.5861,            0.,NA,NA,"",   3.63614E-03,  -3.42036E-03,  -1.23398E-03,   1.18721E-03
C:/temp/dataset/6/32_8.odb,Step-1,Increment      1: Step Time =    1.000,"PART-1-1",           143,      -7.26500,      -27.4866,            0.,NA,NA,"",   2.80692E-03,  -2.76997E-03,  -453.961E-06,   764.374E-06
C:/temp/dataset/6/32_8.odb,Step-1,Increment      1: Step Time =    1.000,"PART-1-1",           144,      -9.86695,      -26.8928,            0.,NA,NA,"",   2.41935E-03,  -2.41065E-03,  -204.946E-06,   445.742E-06
C:/temp/dataset/6/32_8.odb,Step-1,Increment      1: Step Time =    1.000,"PART-1-1",           145,       12.7710,      -23.5898,            0.,NA,NA,"",   5.61082E-03,   5.36032E-03,  -1.65779E-03,   191.895E-06
C:/temp/dataset/6/32_8.odb,Step-1,Increment      1: Step Time =    1.000,"PART-1-1",           146,       12.6989,      -25.7990,            0.,NA,NA,"",   5.75061E-03,   5.60012E-03,  -1.30697E-03,   568.156E-06
C:/temp/dataset/6/32_8.odb,Step-1,Increment      1: Step Time =    1.000,"PART-1-1",           147,       12.6207,      -27.9366,            0.,NA,NA,"",   3.70814E-03,   3.61098E-03,  -843.316E-06,   1.22882E-03
C:/temp/dataset/6/32_8.odb,Step-1,Increment      1: Step Time =    1.000,"PART-1-1",           148,       12.9983,      -14.8223,            0.,NA,NA,"",   6.84598E-03,  -5.90722E-03,  -3.46008E-03,   361.321E-06
C:/temp/dataset/6/32_8.odb,Step-1,Increment      1: Step Time =    1.000,"PART-1-1",           149,       13.0558,      -17.0719,            0.,NA,NA,"",   4.19925E-03,  -3.24440E-03,  -2.66600E-03,   408.292E-06
C:/temp/dataset/6/32_8.odb,Step-1,Increment      1: Step Time =    1.000,"PART-1-1",           150,       13.1682,      -19.2108,            0.,NA,NA,"",   1.93658E-03,  -80.5767E-06,  -1.93490E-03,   446.612E-06
C:/temp/dataset/6/32_8.odb,Step-1,Increment      1: Step Time =    1.000,"PART-1-1",           151,       13.0670,      -5.94273,            0.,NA,NA,"",   11.1209E-03,  -9.54884E-03,  -5.70042E-03,   229.044E-06
C:/temp/dataset/6/32_8.odb,Step-1,Increment      1: Step Time =    1.000,"PART-1-1",           152,       13.0350,      -8.09399,            0.,NA,NA,"",   10.8252E-03,  -9.44811E-03,  -5.28375E-03,   265.535E-06
C:/temp/dataset/6/32_8.odb,Step-1,Increment      1: Step Time =    1.000,"PART-1-1",           153,       12.9982,      -10.2981,            0.,NA,NA,"",   10.1009E-03,  -8.89948E-03,  -4.77789E-03,   298.128E-06
C:/temp/dataset/6/32_8.odb,Step-1,Increment      1: Step Time =    1.000,"PART-1-1",           154,       12.5107,   556.281E-03,            0.,NA,NA,"",   10.4723E-03,  -8.36270E-03,  -6.30351E-03,   108.271E-06
C:/temp/dataset/6/32_8.odb,Step-1,Increment      1: Step Time =    1.000,"PART-1-1",           155,       12.7702,      -1.64554,            0.,NA,NA,"",   10.8577E-03,  -8.89693E-03,  -6.22365E-03,   146.841E-06
C:/temp/dataset/6/32_8.odb,Step-1,Increment      1: Step Time =    1.000,"PART-1-1",           156,       10.0517,       2.85834,            0.,NA,NA,"",   9.82634E-03,  -7.75407E-03,  -6.03585E-03,   88.2071E-06
C:/temp/dataset/6/32_8.odb,Step-1,Increment      1: Step Time =    1.000,"PART-1-1",           157,       5.39286,       2.85476,            0.,NA,NA,"",   9.04376E-03,  -7.42374E-03,  -5.16505E-03,   90.0670E-06
C:/temp/dataset/6/32_8.odb,Step-1,Increment      1: Step Time =    1.000,"PART-1-1",           158,   175.602E-03,       2.90951,            0.,NA,NA,"",   7.90542E-03,  -7.14815E-03,  -3.37634E-03,   95.8473E-06
C:/temp/dataset/6/32_8.odb,Step-1,Increment      1: Step Time =    1.000,"PART-1-1",           159,      -4.35394,       2.91920,            0.,NA,NA,"",   7.50154E-03,  -7.22483E-03,  -2.01863E-03,   40.6037E-06
C:/temp/dataset/6/32_8.odb,Step-1,Increment      1: Step Time =    1.000,"PART-1-1",           160,      -7.05997,       10.9599,            0.,NA,NA,"",   7.27588E-03,  -7.03844E-03,  -1.84358E-03,   1.20647E-06
C:/temp/dataset/6/32_8.odb,Step-1,Increment      1: Step Time =    1.000,"PART-1-1",           161,      -6.93805,       8.84105,            0.,NA,NA,"",   7.34266E-03,  -7.10608E-03,  -1.84886E-03,   5.01836E-06
C:/temp/dataset/6/32_8.odb,Step-1,Increment      1: Step Time =    1.000,"PART-1-1",           162,      -7.28921,       17.6445,            0.,NA,NA,"",   7.03681E-03,  -6.79335E-03,  -1.83495E-03,   226.318E-09
C:/temp/dataset/6/32_8.odb,Step-1,Increment      1: Step Time =    1.000,"PART-1-1",           163,      -7.17735,       15.3234,            0.,NA,NA,"",   7.12092E-03,  -6.87933E-03,  -1.83910E-03,   580.997E-09
C:/temp/dataset/6/32_8.odb,Step-1,Increment      1: Step Time =    1.000,"PART-1-1",           164,      -6.93557,       23.5874,            0.,NA,NA,"",   6.82883E-03,  -6.57404E-03,  -1.84794E-03,   2.99130E-09
C:/temp/dataset/6/32_8.odb,Step-1,Increment      1: Step Time =    1.000,"PART-1-1",           165,      -13.1925,       19.7530,            0.,NA,NA,"",   6.90714E-03,  -6.71508E-03,  -1.61746E-03,   65.9819E-09
C:/temp/dataset/6/32_8.odb,Step-1,Increment      1: Step Time =    1.000,"PART-1-1",           166,      -7.44963,       27.8335,            0.,NA,NA,"",   6.67317E-03,  -6.41762E-03,  -1.82901E-03,   3.15044E-09
C:/temp/dataset/6/32_8.odb,Step-1,Increment      1: Step Time =    1.000,"PART-1-1",           167,      -13.0424,       22.0734,            0.,NA,NA,"",   6.82551E-03,  -6.62974E-03,  -1.62300E-03,   12.1713E-09
C:/temp/dataset/6/32_8.odb,Step-1,Increment      1: Step Time =    1.000,"PART-1-1",           168,      -13.1316,       14.9813,            0.,NA,NA,"",   7.07785E-03,  -6.89006E-03,  -1.61957E-03,   598.007E-09
C:/temp/dataset/6/32_8.odb,Step-1,Increment      1: Step Time =    1.000,"PART-1-1",           169,      -13.1727,       17.3972,            0.,NA,NA,"",   6.99139E-03,  -6.80155E-03,  -1.61816E-03,   228.862E-09
C:/temp/dataset/6/32_8.odb,Step-1,Increment      1: Step Time =    1.000,"PART-1-1",           170,      -12.8574,       7.53984,            0.,NA,NA,"",   7.36916E-03,  -7.18683E-03,  -1.62911E-03,   7.10925E-06
C:/temp/dataset/6/32_8.odb,Step-1,Increment      1: Step Time =    1.000,"PART-1-1",           171,      -13.0166,       10.0884,            0.,NA,NA,"",   7.25835E-03,  -7.07450E-03,  -1.62329E-03,   603.033E-09
C:/temp/dataset/6/32_8.odb,Step-1,Increment      1: Step Time =    1.000,"PART-1-1",           172,      -12.8045,  -118.323E-03,            0.,NA,NA,"",   7.83055E-03,  -7.63907E-03,  -1.72106E-03,   62.2554E-06
C:/temp/dataset/6/32_8.odb,Step-1,Increment      1: Step Time =    1.000,"PART-1-1",           173,      -12.7039,       2.28772,            0.,NA,NA,"",   7.69265E-03,  -7.51164E-03,  -1.65895E-03,   50.4815E-06
C:/temp/dataset/6/32_8.odb,Step-1,Increment      1: Step Time =    1.000,"PART-1-1",           174,      -12.8488,      -7.31355,            0.,NA,NA,"",   7.11215E-03,  -6.81165E-03,  -2.04551E-03,   78.4394E-06
C:/temp/dataset/6/32_8.odb,Step-1,Increment      1: Step Time =    1.000,"PART-1-1",           175,      -12.6051,      -4.81291,            0.,NA,NA,"",   7.63365E-03,  -7.38912E-03,  -1.91664E-03,   57.6062E-06
C:/temp/dataset/6/32_8.odb,Step-1,Increment      1: Step Time =    1.000,"PART-1-1",           176,      -12.4260,      -15.0682,            0.,NA,NA,"",   4.43188E-03,  -4.10369E-03,  -1.67371E-03,   145.556E-06
C:/temp/dataset/6/32_8.odb,Step-1,Increment      1: Step Time =    1.000,"PART-1-1",           177,      -12.3344,      -12.5112,            0.,NA,NA,"",   5.32552E-03,  -4.99233E-03,  -1.85413E-03,   137.785E-06
C:/temp/dataset/6/32_8.odb,Step-1,Increment      1: Step Time =    1.000,"PART-1-1",           178,      -12.6598,      -20.1148,            0.,NA,NA,"",   3.33586E-03,  -3.16797E-03,  -1.04494E-03,   181.326E-06
C:/temp/dataset/6/32_8.odb,Step-1,Increment      1: Step Time =    1.000,"PART-1-1",           179,      -8.70618,       22.9331,            0.,NA,NA,"",   6.83473E-03,  -6.59814E-03,  -1.78271E-03,   11.3264E-09
C:/temp/dataset/6/32_8.odb,Step-1,Increment      1: Step Time =    1.000,"PART-1-1",           180,      -9.21222,       15.1634,            0.,NA,NA,"",   7.10731E-03,  -6.88463E-03,  -1.76513E-03,   665.341E-09
C:/temp/dataset/6/32_8.odb,Step-1,Increment      1: Step Time =    1.000,"PART-1-1",           181,      -9.55138,       19.8926,            0.,NA,NA,"",   6.93502E-03,  -6.71015E-03,  -1.75166E-03,   86.6442E-09
C:/temp/dataset/6/32_8.odb,Step-1,Increment      1: Step Time =    1.000,"PART-1-1",           182,      -8.92203,       8.32966,            0.,NA,NA,"",   7.34640E-03,  -7.12835E-03,  -1.77657E-03,   6.62296E-06
C:/temp/dataset/6/32_8.odb,Step-1,Increment      1: Step Time =    1.000,"PART-1-1",           183,      -9.17670,       12.8809,            0.,NA,NA,"",   7.18936E-03,  -6.96859E-03,  -1.76794E-03,   1.14178E-06
C:/temp/dataset/6/32_8.odb,Step-1,Increment      1: Step Time =    1.000,"PART-1-1",           184,      -9.09923,       10.6117,            0.,NA,NA,"",   7.27022E-03,  -7.05090E-03,  -1.77225E-03,   1.59294E-06
C:/temp/dataset/6/32_8.odb,Step-1,Increment      1: Step Time =    1.000,"PART-1-1",           185,      -9.30530,       17.5014,            0.,NA,NA,"",   7.02272E-03,  -6.79834E-03,  -1.76099E-03,   277.441E-09
C:/temp/dataset/6/32_8.odb,Step-1,Increment      1: Step Time =    1.000,"PART-1-1",           186,      -8.37864,       6.17865,            0.,NA,NA,"",   7.40700E-03,  -7.19094E-03,  -1.77596E-03,   35.0847E-06
C:/temp/dataset/6/32_8.odb,Step-1,Increment      1: Step Time =    1.000,"PART-1-1",           187,       10.9988,      -10.2527,            0.,NA,NA,"",   10.8115E-03,  -9.08758E-03,  -5.85699E-03,   154.212E-06
C:/temp/dataset/6/32_8.odb,Step-1,Increment      1: Step Time =    1.000,"PART-1-1",           188,       10.8643,      -17.5211,            0.,NA,NA,"",   5.75674E-03,  -3.11271E-03,  -4.84263E-03,   455.062E-06
C:/temp/dataset/6/32_8.odb,Step-1,Increment      1: Step Time =    1.000,"PART-1-1",           189,       11.0508,      -8.01555,            0.,NA,NA,"",   11.3014E-03,  -9.60168E-03,  -5.96070E-03,   167.188E-06
C:/temp/dataset/6/32_8.odb,Step-1,Increment      1: Step Time =    1.000,"PART-1-1",           190,       10.6332,      -2.00908,            0.,NA,NA,"",   10.9145E-03,  -8.99898E-03,  -6.17616E-03,   168.641E-06
C:/temp/dataset/6/32_8.odb,Step-1,Increment      1: Step Time =    1.000,"PART-1-1",           191,       11.1668,      -5.92645,            0.,NA,NA,"",   11.3971E-03,  -9.66310E-03,  -6.04297E-03,   181.335E-06
C:/temp/dataset/6/32_8.odb,Step-1,Increment      1: Step Time =    1.000,"PART-1-1",           192,       10.9732,      -14.9280,            0.,NA,NA,"",   8.17135E-03,  -6.14689E-03,  -5.38393E-03,   231.647E-06
C:/temp/dataset/6/32_8.odb,Step-1,Increment      1: Step Time =    1.000,"PART-1-1",           193,       10.5476,      -23.6927,            0.,NA,NA,"",   6.48123E-03,   5.59690E-03,  -3.26818E-03,   541.930E-06
C:/temp/dataset/6/32_8.odb,Step-1,Increment      1: Step Time =    1.000,"PART-1-1",           194,       10.5707,      -21.1850,            0.,NA,NA,"",   4.81261E-03,   2.74129E-03,  -3.95557E-03,   535.427E-06
C:/temp/dataset/6/32_8.odb,Step-1,Increment      1: Step Time =    1.000,"PART-1-1",           195,       10.9760,      -12.5622,            0.,NA,NA,"",   9.81309E-03,  -7.99080E-03,  -5.69596E-03,   161.155E-06
C:/temp/dataset/6/32_8.odb,Step-1,Increment      1: Step Time =    1.000,"PART-1-1",           196,       11.6229,      -19.2502,            0.,NA,NA,"",   3.46939E-03,  -264.812E-06,  -3.45927E-03,   576.037E-06
C:/temp/dataset/6/32_8.odb,Step-1,Increment      1: Step Time =    1.000,"PART-1-1",           197,       11.1609,      -3.97100,            0.,NA,NA,"",   11.2437E-03,  -9.42677E-03,  -6.12844E-03,   182.232E-06
C:/temp/dataset/6/32_8.odb,Step-1,Increment      1: Step Time =    1.000,"PART-1-1",           198,      -9.55101,       25.2781,            0.,NA,NA,"",   6.74322E-03,  -6.51175E-03,  -1.75159E-03,   2.67628E-09
C:/temp/dataset/6/32_8.odb,Step-1,Increment      1: Step Time =    1.000,"PART-1-1",           199,      -6.13353,       2.97524,            0.,NA,NA,"",   7.49870E-03,  -7.28452E-03,  -1.77941E-03,   62.0896E-06
C:/temp/dataset/6/32_8.odb,Step-1,Increment      1: Step Time =    1.000,"PART-1-1",           200,       8.52809,      -18.5145,            0.,NA,NA,"",   8.14740E-03,  -2.40948E-03,  -7.78296E-03,   501.940E-06
C:/temp/dataset/6/32_8.odb,Step-1,Increment      1: Step Time =    1.000,"PART-1-1",           201,      -9.31256,      -6.57829,            0.,NA,NA,"",   7.27670E-03,  -7.10709E-03,  -1.56197E-03,   128.952E-06
C:/temp/dataset/6/32_8.odb,Step-1,Increment      1: Step Time =    1.000,"PART-1-1",           202,      -7.82061,      -4.24854,            0.,NA,NA,"",   7.84204E-03,  -7.70675E-03,  -1.45038E-03,   123.353E-06
C:/temp/dataset/6/32_8.odb,Step-1,Increment      1: Step Time =    1.000,"PART-1-1",           203,       7.55002,      -20.4955,            0.,NA,NA,"",   9.05107E-03,   1.46668E-03,  -8.93145E-03,   746.131E-06
C:/temp/dataset/6/32_8.odb,Step-1,Increment      1: Step Time =    1.000,"PART-1-1",           204,      -9.18944,      -8.43706,            0.,NA,NA,"",   6.65518E-03,  -6.48767E-03,  -1.48377E-03,   156.670E-06
C:/temp/dataset/6/32_8.odb,Step-1,Increment      1: Step Time =    1.000,"PART-1-1",           205,      -12.3720,       27.4312,            0.,NA,NA,"",   6.64012E-03,  -6.43244E-03,  -1.64769E-03,   3.55262E-09
C:/temp/dataset/6/32_8.odb,Step-1,Increment      1: Step Time =    1.000,"PART-1-1",           206,      -10.3791,       22.2070,            0.,NA,NA,"",   6.84478E-03,  -6.62486E-03,  -1.72110E-03,   20.2418E-09
C:/temp/dataset/6/32_8.odb,Step-1,Increment      1: Step Time =    1.000,"PART-1-1",           207,       3.40286,  -884.176E-03,            0.,NA,NA,"",   9.39094E-03,  -8.09555E-03,  -4.75941E-03,   155.061E-06
C:/temp/dataset/6/32_8.odb,Step-1,Increment      1: Step Time =    1.000,"PART-1-1",           208,       7.88020,       1.44192,            0.,NA,NA,"",   9.84539E-03,  -7.95947E-03,  -5.79470E-03,   107.463E-06
C:/temp/dataset/6/32_8.odb,Step-1,Increment      1: Step Time =    1.000,"PART-1-1",           209,      -1.17287,  -897.893E-03,            0.,NA,NA,"",   8.34755E-03,  -7.82518E-03,  -2.90657E-03,   143.768E-06
C:/temp/dataset/6/32_8.odb,Step-1,Increment      1: Step Time =    1.000,"PART-1-1",           210,       10.4014,      -25.9274,            0.,NA,NA,"",   6.17602E-03,   5.67849E-03,  -2.42856E-03,   1.05384E-03
C:/temp/dataset/6/32_8.odb,Step-1,Increment      1: Step Time =    1.000,"PART-1-1",           211,       2.00108,      -24.8239,            0.,NA,NA,"",   15.1853E-03,  -440.097E-06,  -15.1789E-03,   4.81595E-03
C:/temp/dataset/6/32_8.odb,Step-1,Increment      1: Step Time =    1.000,"PART-1-1",           212,      -4.80900,      -25.1606,            0.,NA,NA,"",   5.10945E-03,  -4.70954E-03,  -1.98158E-03,   969.263E-06
C:/temp/dataset/6/32_8.odb,Step-1,Increment      1: Step Time =    1.000,"PART-1-1",           213,      -11.5765,       21.3848,            0.,NA,NA,"",   6.86315E-03,  -6.65511E-03,  -1.67700E-03,   32.7195E-09
C:/temp/dataset/6/32_8.odb,Step-1,Increment      1: Step Time =    1.000,"PART-1-1",           214,      -11.0630,       10.3038,            0.,NA,NA,"",   7.26599E-03,  -7.06451E-03,  -1.69924E-03,   1.59025E-06
C:/temp/dataset/6/32_8.odb,Step-1,Increment      1: Step Time =    1.000,"PART-1-1",           215,      -10.2832,  -591.021E-03,            0.,NA,NA,"",   7.85724E-03,  -7.69046E-03,  -1.61029E-03,   62.6316E-06
C:/temp/dataset/6/32_8.odb,Step-1,Increment      1: Step Time =    1.000,"PART-1-1",           216,      -11.1869,      -5.64306,            0.,NA,NA,"",   7.48916E-03,  -7.27745E-03,  -1.76815E-03,   73.6143E-06
C:/temp/dataset/6/32_8.odb,Step-1,Increment      1: Step Time =    1.000,"PART-1-1",           217,      -9.48237,      -10.3825,            0.,NA,NA,"",   5.92860E-03,  -5.74990E-03,  -1.44466E-03,   150.055E-06
C:/temp/dataset/6/32_8.odb,Step-1,Increment      1: Step Time =    1.000,"PART-1-1",           218,      -10.0191,      -20.7277,            0.,NA,NA,"",   2.92010E-03,  -2.86110E-03,  -584.030E-06,   234.551E-06
C:/temp/dataset/6/32_8.odb,Step-1,Increment      1: Step Time =    1.000,"PART-1-1",           219,      -12.8377,      -24.8331,            0.,NA,NA,"",   2.90355E-03,  -2.84860E-03,  -562.255E-06,   120.766E-06
C:/temp/dataset/6/32_8.odb,Step-1,Increment      1: Step Time =    1.000,"PART-1-1",           220,  -752.185E-03,      -25.0561,            0.,NA,NA,"",   10.8144E-03,  -4.69783E-03,  -9.74067E-03,   3.08224E-03
C:/temp/dataset/6/32_8.odb,Step-1,Increment      1: Step Time =    1.000,"PART-1-1",           221,      -11.3411,      -22.5061,            0.,NA,NA,"",   3.09994E-03,  -3.05607E-03,  -519.635E-06,   180.166E-06
C:/temp/dataset/6/32_8.odb,Step-1,Increment      1: Step Time =    1.000,"PART-1-1",           222,       5.90860,      -26.1342,            0.,NA,NA,"",   8.79360E-03,   4.78586E-03,  -7.37719E-03,   2.84506E-03
C:/temp/dataset/6/32_8.odb,Step-1,Increment      1: Step Time =    1.000,"PART-1-1",           223,       3.81352,      -25.8758,            0.,NA,NA,"",   11.0700E-03,   2.61683E-03,  -10.7563E-03,   3.88145E-03
C:/temp/dataset/6/32_8.odb,Step-1,Increment      1: Step Time =    1.000,"PART-1-1",           224,      -6.87266,      -25.1947,            0.,NA,NA,"",   3.89033E-03,  -3.84665E-03,  -581.296E-06,   558.529E-06
C:/temp/dataset/6/32_8.odb,Step-1,Increment      1: Step Time =    1.000,"PART-1-1",           225,       9.77381,   336.875E-03,            0.,NA,NA,"",   10.3389E-03,  -8.36141E-03,  -6.08111E-03,   134.116E-06
C:/temp/dataset/6/32_8.odb,Step-1,Increment      1: Step Time =    1.000,"PART-1-1",           226,       4.59800,   29.7464E-03,            0.,NA,NA,"",   9.50176E-03,  -8.00401E-03,  -5.12047E-03,   137.748E-06
C:/temp/dataset/6/32_8.odb,Step-1,Increment      1: Step Time =    1.000,"PART-1-1",           227,      -11.1551,       12.6912,            0.,NA,NA,"",   7.17774E-03,  -6.97479E-03,  -1.69477E-03,   1.08436E-06
C:/temp/dataset/6/32_8.odb,Step-1,Increment      1: Step Time =    1.000,"PART-1-1",           228,      -11.2689,       17.3859,            0.,NA,NA,"",   7.00864E-03,  -6.80218E-03,  -1.68862E-03,   284.603E-09
C:/temp/dataset/6/32_8.odb,Step-1,Increment      1: Step Time =    1.000,"PART-1-1",           229,      -11.2102,       15.0558,            0.,NA,NA,"",   7.09239E-03,  -6.88776E-03,  -1.69142E-03,   660.782E-09
C:/temp/dataset/6/32_8.odb,Step-1,Increment      1: Step Time =    1.000,"PART-1-1",           230,      -10.8139,       7.79620,            0.,NA,NA,"",   7.36543E-03,  -7.16552E-03,  -1.70436E-03,   9.00397E-06
C:/temp/dataset/6/32_8.odb,Step-1,Increment      1: Step Time =    1.000,"PART-1-1",           231,      -10.1648,       4.85487,            0.,NA,NA,"",   7.49983E-03,  -7.30669E-03,  -1.69107E-03,   40.1685E-06
C:/temp/dataset/6/32_8.odb,Step-1,Increment      1: Step Time =    1.000,"PART-1-1",           232,      -10.4473,       2.01195,            0.,NA,NA,"",   7.69835E-03,  -7.52191E-03,  -1.63875E-03,   65.1399E-06
C:/temp/dataset/6/32_8.odb,Step-1,Increment      1: Step Time =    1.000,"PART-1-1",           233,      -10.4810,      -3.59789,            0.,NA,NA,"",   7.80704E-03,  -7.62991E-03,  -1.65360E-03,   48.5101E-06
C:/temp/dataset/6/32_8.odb,Step-1,Increment      1: Step Time =    1.000,"PART-1-1",           234,      -9.89141,      -15.1395,            0.,NA,NA,"",   4.13407E-03,  -3.92693E-03,  -1.29219E-03,   156.676E-06
C:/temp/dataset/6/32_8.odb,Step-1,Increment      1: Step Time =    1.000,"PART-1-1",           235,      -9.95744,      -17.7636,            0.,NA,NA,"",   3.29391E-03,  -3.11969E-03,  -1.05705E-03,   224.408E-06
C:/temp/dataset/6/32_8.odb,Step-1,Increment      1: Step Time =    1.000,"PART-1-1",           236,      -3.63694,      -1.16253,            0.,NA,NA,"",   8.03405E-03,  -7.76446E-03,  -2.06374E-03,   135.755E-06
C:/temp/dataset/6/32_8.odb,Step-1,Increment      1: Step Time =    1.000,"PART-1-1",           237,      -7.00580,      -22.7773,            0.,NA,NA,"",   3.23504E-03,  -3.21001E-03,  -401.623E-06,   285.793E-06
C:/temp/dataset/6/32_8.odb,Step-1,Increment      1: Step Time =    1.000,"PART-1-1",           238,       7.08723,      -4.67483,            0.,NA,NA,"",   11.4227E-03,  -9.41336E-03,  -6.47052E-03,   241.486E-06
C:/temp/dataset/6/32_8.odb,Step-1,Increment      1: Step Time =    1.000,"PART-1-1",           239,       8.96532,      -10.1697,            0.,NA,NA,"",   11.4691E-03,  -9.10596E-03,  -6.97301E-03,   209.785E-06
C:/temp/dataset/6/32_8.odb,Step-1,Increment      1: Step Time =    1.000,"PART-1-1",           240,       8.99874,      -7.82238,            0.,NA,NA,"",   11.6985E-03,  -9.62255E-03,  -6.65301E-03,   181.286E-06
C:/temp/dataset/6/32_8.odb,Step-1,Increment      1: Step Time =    1.000,"PART-1-1",           241,       8.96760,      -14.8663,            0.,NA,NA,"",   9.93385E-03,  -6.47420E-03,  -7.53432E-03,   215.557E-06
C:/temp/dataset/6/32_8.odb,Step-1,Increment      1: Step Time =    1.000,"PART-1-1",           242,      -12.0836,       24.5335,            0.,NA,NA,"",   6.74617E-03,  -6.53917E-03,  -1.65831E-03,   3.03595E-09
C:/temp/dataset/6/32_8.odb,Step-1,Increment      1: Step Time =    1.000,"PART-1-1",           243,       9.21542,      -5.66363,            0.,NA,NA,"",   11.5932E-03,  -9.65623E-03,  -6.41557E-03,   186.228E-06
C:/temp/dataset/6/32_8.odb,Step-1,Increment      1: Step Time =    1.000,"PART-1-1",           244,       8.72776,      -2.97127,            0.,NA,NA,"",   11.0851E-03,  -9.15993E-03,  -6.24293E-03,   196.583E-06
C:/temp/dataset/6/32_8.odb,Step-1,Increment      1: Step Time =    1.000,"PART-1-1",           245,       9.39471,      -19.4524,            0.,NA,NA,"",   6.03053E-03,  -487.124E-06,  -6.01083E-03,   605.915E-06
C:/temp/dataset/6/32_8.odb,Step-1,Increment      1: Step Time =    1.000,"PART-1-1",           246,       8.06548,      -22.0810,            0.,NA,NA,"",   8.63123E-03,   4.44699E-03,  -7.39746E-03,   841.488E-06
C:/temp/dataset/6/32_8.odb,Step-1,Increment      1: Step Time =    1.000,"PART-1-1",           247,      -7.53738,       4.79758,            0.,NA,NA,"",   7.43117E-03,  -7.21624E-03,  -1.77433E-03,   57.5369E-06
C:/temp/dataset/6/32_8.odb,Step-1,Increment      1: Step Time =    1.000,"PART-1-1",           248,      -10.8025,      -24.3532,            0.,NA,NA,"",   3.01405E-03,  -3.00036E-03,  -286.932E-06,   143.600E-06
C:/temp/dataset/6/32_8.odb,Step-1,Increment      1: Step Time =    1.000,"PART-1-1",           249,       5.82981,      -2.08643,            0.,NA,NA,"",   10.3702E-03,  -8.62148E-03,  -5.76300E-03,   225.443E-06
C:/temp/dataset/6/32_8.odb,Step-1,Increment      1: Step Time =    1.000,"PART-1-1",           250,      -8.67175,      -2.53401,            0.,NA,NA,"",   7.91074E-03,  -7.76521E-03,  -1.51040E-03,   70.3279E-06
C:/temp/dataset/6/32_8.odb,Step-1,Increment      1: Step Time =    1.000,"PART-1-1",           251,       5.78686,      -22.7214,            0.,NA,NA,"",   15.6947E-03,   6.10982E-03,  -14.4566E-03,   3.26506E-03
C:/temp/dataset/6/32_8.odb,Step-1,Increment      1: Step Time =    1.000,"PART-1-1",           252,      -8.27594,       1.60152,            0.,NA,NA,"",   7.68402E-03,  -7.51058E-03,  -1.62335E-03,   72.0332E-06
C:/temp/dataset/6/32_8.odb,Step-1,Increment      1: Step Time =    1.000,"PART-1-1",           253,       8.25490,      -24.0061,            0.,NA,NA,"",   8.68110E-03,   6.10085E-03,  -6.17585E-03,   1.44945E-03
C:/temp/dataset/6/32_8.odb,Step-1,Increment      1: Step Time =    1.000,"PART-1-1",           254,      -9.04303,      -23.2600,            0.,NA,NA,"",   3.13487E-03,  -3.12898E-03,  -192.118E-06,   199.418E-06
C:/temp/dataset/6/32_8.odb,Step-1,Increment      1: Step Time =    1.000,"PART-1-1",           255,       7.61656,      -1.09448,            0.,NA,NA,"",   10.4577E-03,  -8.58616E-03,  -5.97007E-03,   166.930E-06
C:/temp/dataset/6/32_8.odb,Step-1,Increment      1: Step Time =    1.000,"PART-1-1",           256,      -4.02262,   861.151E-03,            0.,NA,NA,"",   7.77471E-03,  -7.50258E-03,  -2.03895E-03,   69.8392E-06
C:/temp/dataset/6/32_8.odb,Step-1,Increment      1: Step Time =    1.000,"PART-1-1",           257,  -104.141E-03,       1.31276,            0.,NA,NA,"",   8.16120E-03,  -7.47057E-03,  -3.28568E-03,   129.515E-06
C:/temp/dataset/6/32_8.odb,Step-1,Increment      1: Step Time =    1.000,"PART-1-1",           258,       3.72123,      -23.4419,            0.,NA,NA,"",   20.3564E-03,   3.70672E-03,  -20.0161E-03,   5.19735E-03
C:/temp/dataset/6/32_8.odb,Step-1,Increment      1: Step Time =    1.000,"PART-1-1",           259,      -10.7950,      -8.39617,            0.,NA,NA,"",   6.71882E-03,  -6.49564E-03,  -1.71734E-03,   129.206E-06
C:/temp/dataset/6/32_8.odb,Step-1,Increment      1: Step Time =    1.000,"PART-1-1",           260,      -1.85786,       1.02916,            0.,NA,NA,"",   7.94598E-03,  -7.48746E-03,  -2.66018E-03,   117.795E-06
C:/temp/dataset/6/32_8.odb,Step-1,Increment      1: Step Time =    1.000,"PART-1-1",           261,      -6.46179,      -1.33856,            0.,NA,NA,"",   7.91031E-03,  -7.75554E-03,  -1.55714E-03,   80.6500E-06
C:/temp/dataset/6/32_8.odb,Step-1,Increment      1: Step Time =    1.000,"PART-1-1",           262,      -11.1078,      -7.00587,            0.,NA,NA,"",   7.15766E-03,  -6.93424E-03,  -1.77436E-03,   104.030E-06
C:/temp/dataset/6/32_8.odb,Step-1,Increment      1: Step Time =    1.000,"PART-1-1",           263,      -5.52697,      -3.44125,            0.,NA,NA,"",   8.04619E-03,  -7.90662E-03,  -1.49213E-03,   166.427E-06
C:/temp/dataset/6/32_8.odb,Step-1,Increment      1: Step Time =    1.000,"PART-1-1",           264,      -9.72268,      -4.98378,            0.,NA,NA,"",   7.64656E-03,  -7.47657E-03,  -1.60336E-03,   86.6569E-06
C:/temp/dataset/6/32_8.odb,Step-1,Increment      1: Step Time =    1.000,"PART-1-1",           265,      -6.27329,       4.89376,            0.,NA,NA,"",   7.37515E-03,  -7.14092E-03,  -1.84396E-03,   82.9442E-06
C:/temp/dataset/6/32_8.odb,Step-1,Increment      1: Step Time =    1.000,"PART-1-1",           266,       12.4963,       2.80040,            0.,NA,NA,"",   10.0774E-03,  -7.83845E-03,  -6.33353E-03,   59.1156E-06
C:/temp/dataset/6/32_8.odb,Step-1,Increment      1: Step Time =    1.000,"PART-1-1",           267,      -7.37176,      -20.2559,            0.,NA,NA,"",   2.41469E-03,  -2.32936E-03,  -636.275E-06,   435.848E-06
C:/temp/dataset/6/32_8.odb,Step-1,Increment      1: Step Time =    1.000,"PART-1-1",           268,       2.88963,      -21.8777,            0.,NA,NA,"",   30.5695E-03,   2.26548E-03,  -30.4854E-03,   7.90122E-03
C:/temp/dataset/6/32_8.odb,Step-1,Increment      1: Step Time =    1.000,"PART-1-1",           269,      -8.05085,       3.52655,            0.,NA,NA,"",   7.52012E-03,  -7.32486E-03,  -1.70255E-03,   69.3779E-06
C:/temp/dataset/6/32_8.odb,Step-1,Increment      1: Step Time =    1.000,"PART-1-1",           270,       8.95558,      -12.5395,            0.,NA,NA,"",   10.8715E-03,  -8.05618E-03,  -7.29979E-03,   224.478E-06
C:/temp/dataset/6/32_8.odb,Step-1,Increment      1: Step Time =    1.000,"PART-1-1",           271,       1.35989,  -223.950E-03,            0.,NA,NA,"",   8.74561E-03,  -7.82845E-03,  -3.89886E-03,   150.980E-06
C:/temp/dataset/6/32_8.odb,Step-1,Increment      1: Step Time =    1.000,"PART-1-1",           272,      -9.75004,      -12.6533,            0.,NA,NA,"",   5.05881E-03,  -4.86552E-03,  -1.38501E-03,   154.617E-06
C:/temp/dataset/6/32_8.odb,Step-1,Increment      1: Step Time =    1.000,"PART-1-1",           273,      -8.51206,      -25.1011,            0.,NA,NA,"",   3.32553E-03,  -3.31778E-03,  -226.910E-06,   342.966E-06
C:/temp/dataset/6/32_8.odb,Step-1,Increment      1: Step Time =    1.000,"PART-1-1",           274,      -6.19138,   998.181E-03,            0.,NA,NA,"",   7.70849E-03,  -7.51937E-03,  -1.69699E-03,   51.1768E-06
C:/temp/dataset/6/32_8.odb,Step-1,Increment      1: Step Time =    1.000,"PART-1-1",           275,      -2.63339,      -25.0950,            0.,NA,NA,"",   7.57283E-03,  -5.33924E-03,  -5.37032E-03,   1.97739E-03
C:/temp/dataset/6/32_8.odb,Step-1,Increment      1: Step Time =    1.000,"PART-1-1",           276,       8.11811,      -26.0558,            0.,NA,NA,"",   7.24350E-03,   5.65900E-03,  -4.52150E-03,   1.83077E-03
C:/temp/dataset/6/32_8.odb,Step-1,Increment      1: Step Time =    1.000,"PART-1-1",           277,       6.33403,   764.508E-03,            0.,NA,NA,"",   9.72771E-03,  -7.99468E-03,  -5.54196E-03,   115.200E-06
C:/temp/dataset/6/32_8.odb,Step-1,Increment      1: Step Time =    1.000,"PART-1-1",           278,       8.84044,      -16.9880,            0.,NA,NA,"",   8.81814E-03,  -4.45725E-03,  -7.60871E-03,   494.269E-06
C:/temp/dataset/6/32_8.odb,Step-1,Increment      1: Step Time =    1.000,"PART-1-1",           279,      -11.3950,       19.6047,            0.,NA,NA,"",   6.92832E-03,  -6.72061E-03,  -1.68374E-03,   97.8582E-09
C:/temp/dataset/6/32_8.odb,Step-1,Increment      1: Step Time =    1.000,"PART-1-1",           280,      -11.2464,      -2.22607,            0.,NA,NA,"",   7.86796E-03,  -7.68454E-03,  -1.68898E-03,   49.0246E-06
C:/temp/dataset/6/32_8.odb,Step-1,Increment      1: Step Time =    1.000,"PART-1-1",           281,      -8.41776,  -32.7016E-03,            0.,NA,NA,"",   7.81686E-03,  -7.65868E-03,  -1.56458E-03,   69.6265E-06
C:/temp/dataset/6/32_8.odb,Step-1,Increment      1: Step Time =    1.000,"PART-1-1",           282,       4.48255,      -24.5345,            0.,NA,NA,"",   14.8217E-03,   4.37884E-03,  -14.1601E-03,   3.96238E-03
C:/temp/dataset/6/32_8.odb,Step-1,Increment      1: Step Time =    1.000,"PART-1-1",           283,       6.11275,      -24.3348,            0.,NA,NA,"",   12.1913E-03,   6.02816E-03,  -10.5967E-03,   2.86713E-03
C:/temp/dataset/6/32_8.odb,Step-1,Increment      1: Step Time =    1.000,"PART-1-1",           284,       9.69767,      -4.20039,            0.,NA,NA,"",   11.3512E-03,  -9.46084E-03,  -6.27241E-03,   189.980E-06
C:/temp/dataset/6/32_8.odb,Step-1,Increment      1: Step Time =    1.000,"PART-1-1",           285,       13.8851,      -1.60402,            0.,NA,NA,"",   10.8672E-03,  -8.84391E-03,  -6.31520E-03,   127.780E-06
C:/temp/dataset/6/32_8.odb,Step-1,Increment      1: Step Time =    1.000,"PART-1-1",           286,           15.,   -468.75E-03,            0.,NA,NA,"",   10.7989E-03,  -8.54032E-03,  -6.60898E-03,   101.707E-06
C:/temp/dataset/6/32_8.odb,Step-1,Increment      1: Step Time =    1.000,"PART-1-1",           287,       13.7553,   590.641E-03,            0.,NA,NA,"",   10.5450E-03,  -8.33747E-03,  -6.45620E-03,   72.4642E-06
C:/temp/dataset/6/32_8.odb,Step-1,Increment      1: Step Time =    1.000,"PART-1-1",           288,       12.6405,  -544.629E-03,            0.,NA,NA,"",   10.6736E-03,  -8.63385E-03,  -6.27558E-03,   126.593E-06
C:/temp/dataset/6/32_8.odb,Step-1,Increment      1: Step Time =    1.000,"PART-1-1",           289,       6.57104,       2.96720,            0.,NA,NA,"",   9.26678E-03,  -7.49148E-03,  -5.45444E-03,   85.7587E-06
C:/temp/dataset/6/32_8.odb,Step-1,Increment      1: Step Time =    1.000,"PART-1-1",           290,       5.86345,       1.80964,            0.,NA,NA,"",   9.38360E-03,  -7.70893E-03,  -5.35018E-03,   100.493E-06
C:/temp/dataset/6/32_8.odb,Step-1,Increment      1: Step Time =    1.000,"PART-1-1",           291,       7.10711,       1.10321,            0.,NA,NA,"",   9.79726E-03,  -7.98108E-03,  -5.68230E-03,   106.606E-06
C:/temp/dataset/6/32_8.odb,Step-1,Increment      1: Step Time =    1.000,"PART-1-1",           292,       7.81470,       2.26078,            0.,NA,NA,"",   9.64774E-03,  -7.75524E-03,  -5.73891E-03,   97.9366E-06
C:/temp/dataset/6/32_8.odb,Step-1,Increment      1: Step Time =    1.000,"PART-1-1",           293,       6.97305,      -8.82061,            0.,NA,NA,"",   11.9362E-03,  -9.25927E-03,  -7.53247E-03,   360.167E-06
C:/temp/dataset/6/32_8.odb,Step-1,Increment      1: Step Time =    1.000,"PART-1-1",           294,       5.98985,      -7.53541,            0.,NA,NA,"",   11.8566E-03,  -9.33702E-03,  -7.30741E-03,   432.431E-06
C:/temp/dataset/6/32_8.odb,Step-1,Increment      1: Step Time =    1.000,"PART-1-1",           295,            5.,      -8.76875,            0.,NA,NA,"",   12.0000E-03,  -8.85902E-03,  -8.09428E-03,   560.152E-06
C:/temp/dataset/6/32_8.odb,Step-1,Increment      1: Step Time =    1.000,"PART-1-1",           296,       5.98320,      -10.0539,            0.,NA,NA,"",   12.0837E-03,  -8.71901E-03,  -8.36635E-03,   489.812E-06
C:/temp/dataset/6/32_8.odb,Step-1,Increment      1: Step Time =    1.000,"PART-1-1",           297,       12.0429,      -8.05477,            0.,NA,NA,"",   11.0717E-03,  -9.54401E-03,  -5.61192E-03,   200.792E-06
C:/temp/dataset/6/32_8.odb,Step-1,Increment      1: Step Time =    1.000,"PART-1-1",           298,       11.0248,      -9.13413,            0.,NA,NA,"",   11.1105E-03,  -9.40875E-03,  -5.90920E-03,   160.204E-06
C:/temp/dataset/6/32_8.odb,Step-1,Increment      1: Step Time =    1.000,"PART-1-1",           299,       11.9985,      -10.2754,            0.,NA,NA,"",   10.4621E-03,  -9.01631E-03,  -5.30672E-03,   210.574E-06
C:/temp/dataset/6/32_8.odb,Step-1,Increment      1: Step Time =    1.000,"PART-1-1",           300,       13.0166,      -9.19606,            0.,NA,NA,"",   10.5218E-03,  -9.23607E-03,  -5.04022E-03,   281.419E-06
C:/temp/dataset/6/32_8.odb,Step-1,Increment      1: Step Time =    1.000,"PART-1-1",           301,       13.9992,      -14.7549,            0.,NA,NA,"",   6.30528E-03,  -5.77420E-03,  -2.53281E-03,   471.857E-06
C:/temp/dataset/6/32_8.odb,Step-1,Increment      1: Step Time =    1.000,"PART-1-1",           302,       13.0271,      -15.9471,            0.,NA,NA,"",   5.58292E-03,  -4.67157E-03,  -3.05702E-03,   375.257E-06
C:/temp/dataset/6/32_8.odb,Step-1,Increment      1: Step Time =    1.000,"PART-1-1",           303,       14.0279,      -16.9735,            0.,NA,NA,"",   3.58836E-03,  -3.19269E-03,  -1.63800E-03,   427.118E-06
C:/temp/dataset/6/32_8.odb,Step-1,Increment      1: Step Time =    1.000,"PART-1-1",           304,           15.,      -15.7813,            0.,NA,NA,"",   4.56687E-03,  -4.44941E-03,  -1.02911E-03,   538.709E-06
C:/temp/dataset/6/32_8.odb,Step-1,Increment      1: Step Time =    1.000,"PART-1-1",           305,       6.96949,      -18.0995,            0.,NA,NA,"",   11.7055E-03,  -3.63900E-03,  -11.1255E-03,   894.741E-06
C:/temp/dataset/6/32_8.odb,Step-1,Increment      1: Step Time =    1.000,"PART-1-1",           306,       5.95014,      -17.3335,            0.,NA,NA,"",   13.6289E-03,  -4.37269E-03,  -12.9084E-03,   917.562E-06
C:/temp/dataset/6/32_8.odb,Step-1,Increment      1: Step Time =    1.000,"PART-1-1",           307,            5.,      -18.7625,            0.,NA,NA,"",   17.1210E-03,  -2.48270E-03,  -16.9401E-03,   3.37048E-03
C:/temp/dataset/6/32_8.odb,Step-1,Increment      1: Step Time =    1.000,"PART-1-1",           308,       6.01935,      -19.5285,            0.,NA,NA,"",   14.1592E-03,  -2.06619E-03,  -14.0076E-03,   1.80329E-03
C:/temp/dataset/6/32_8.odb,Step-1,Increment      1: Step Time =    1.000,"PART-1-1",           309,       7.66098,      -29.0388,            0.,NA,NA,"",   2.30256E-03,   1.97476E-03,  -1.18410E-03,   2.06392E-03
C:/temp/dataset/6/32_8.odb,Step-1,Increment      1: Step Time =    1.000,"PART-1-1",           310,       6.62868,      -28.0660,            0.,NA,NA,"",   4.42264E-03,   3.23246E-03,  -3.01844E-03,   2.29966E-03
C:/temp/dataset/6/32_8.odb,Step-1,Increment      1: Step Time =    1.000,"PART-1-1",           311,       5.21770,      -29.0272,            0.,NA,NA,"",   2.27713E-03,   1.42143E-03,  -1.77900E-03,   2.55604E-03
C:/temp/dataset/6/32_8.odb,Step-1,Increment      1: Step Time =    1.000,"PART-1-1",           312,          6.25,          -30.,            0.,NA,NA,"",            0.,   1.26639E-39,  -3.66567E-39,   2.28319E-03
C:/temp/dataset/6/32_8.odb,Step-1,Increment      1: Step Time =    1.000,"PART-1-1",           313,   162.125E-03,      -28.5454,            0.,NA,NA,"",   3.24370E-03,  -1.62553E-03,  -2.80700E-03,   2.67097E-03
C:/temp/dataset/6/32_8.odb,Step-1,Increment      1: Step Time =    1.000,"PART-1-1",           314,      -1.06934,      -27.3053,            0.,NA,NA,"",   5.74926E-03,  -3.48129E-03,  -4.57544E-03,   2.44955E-03
C:/temp/dataset/6/32_8.odb,Step-1,Increment      1: Step Time =    1.000,"PART-1-1",           315,      -2.48147,      -28.7599,            0.,NA,NA,"",   2.65628E-03,  -2.22641E-03,  -1.44875E-03,   1.92296E-03
C:/temp/dataset/6/32_8.odb,Step-1,Increment      1: Step Time =    1.000,"PART-1-1",           316,         -1.25,          -30.,            0.,NA,NA,"",            0.,  -1.17791E-39,  -3.48496E-39,   2.11066E-03
C:/temp/dataset/6/32_8.odb,Step-1,Increment      1: Step Time =    1.000,"PART-1-1",           317,          -15.,        -21.25,            0.,NA,NA,"",   3.49362E-03,  -3.28025E-03,  -1.20221E-03,   124.291E-06
C:/temp/dataset/6/32_8.odb,Step-1,Increment      1: Step Time =    1.000,"PART-1-1",           318,      -13.9888,      -22.4607,            0.,NA,NA,"",   3.31862E-03,  -3.17113E-03,  -978.361E-06,   113.733E-06
C:/temp/dataset/6/32_8.odb,Step-1,Increment      1: Step Time =    1.000,"PART-1-1",           319,      -12.8187,      -21.2681,            0.,NA,NA,"",   3.27491E-03,  -3.14325E-03,  -919.247E-06,   168.924E-06
C:/temp/dataset/6/32_8.odb,Step-1,Increment      1: Step Time =    1.000,"PART-1-1",           320,      -13.8299,      -20.0574,            0.,NA,NA,"",   3.49292E-03,  -3.26691E-03,  -1.23604E-03,   171.956E-06
C:/temp/dataset/6/32_8.odb,Step-1,Increment      1: Step Time =    1.000,"PART-1-1",           321,      -12.5142,      -28.6623,            0.,NA,NA,"",   949.860E-06,  -935.783E-06,  -162.924E-06,   443.231E-06
C:/temp/dataset/6/32_8.odb,Step-1,Increment      1: Step Time =    1.000,"PART-1-1",           322,        -11.25,          -30.,            0.,NA,NA,"",            0.,  -498.319E-42,  -400.232E-42,   588.606E-06
C:/temp/dataset/6/32_8.odb,Step-1,Increment      1: Step Time =    1.000,"PART-1-1",           323,      -9.93348,      -28.4464,            0.,NA,NA,"",   1.39383E-03,  -1.38267E-03,  -176.021E-06,   546.506E-06
C:/temp/dataset/6/32_8.odb,Step-1,Increment      1: Step Time =    1.000,"PART-1-1",           324,      -11.1976,      -27.1087,            0.,NA,NA,"",   2.08955E-03,  -2.07744E-03,  -224.615E-06,   387.609E-06
C:/temp/dataset/6/32_8.odb,Step-1,Increment      1: Step Time =    1.000,"PART-1-1",           325,      -7.37036,      -13.8742,            0.,NA,NA,"",   4.43371E-03,  -4.34169E-03,  -898.624E-06,   109.072E-06
C:/temp/dataset/6/32_8.odb,Step-1,Increment      1: Step Time =    1.000,"PART-1-1",           326,      -6.21015,      -15.0417,            0.,NA,NA,"",   3.95724E-03,  -3.91013E-03,  -608.792E-06,   67.3134E-06
C:/temp/dataset/6/32_8.odb,Step-1,Increment      1: Step Time =    1.000,"PART-1-1",           327,           -5.,      -13.7188,            0.,NA,NA,"",   4.39863E-03,  -4.39357E-03,  -210.975E-06,   19.0749E-06
C:/temp/dataset/6/32_8.odb,Step-1,Increment      1: Step Time =    1.000,"PART-1-1",           328,      -6.16021,      -12.5513,            0.,NA,NA,"",   4.87300E-03,  -4.83565E-03,  -602.187E-06,   58.0496E-06
C:/temp/dataset/6/32_8.odb,Step-1,Increment      1: Step Time =    1.000,"PART-1-1",           329,      -9.33590,      -9.40979,            0.,NA,NA,"",   6.29296E-03,  -6.12061E-03,  -1.46270E-03,   155.523E-06
C:/temp/dataset/6/32_8.odb,Step-1,Increment      1: Step Time =    1.000,"PART-1-1",           330,      -8.33361,      -10.3234,            0.,NA,NA,"",   5.87864E-03,  -5.74798E-03,  -1.23253E-03,   138.500E-06
C:/temp/dataset/6/32_8.odb,Step-1,Increment      1: Step Time =    1.000,"PART-1-1",           331,      -7.16565,      -9.15059,            0.,NA,NA,"",   6.26273E-03,  -6.17141E-03,  -1.06560E-03,   147.437E-06
C:/temp/dataset/6/32_8.odb,Step-1,Increment      1: Step Time =    1.000,"PART-1-1",           332,      -8.16794,      -8.23701,            0.,NA,NA,"",   6.67956E-03,  -6.54477E-03,  -1.33510E-03,   164.452E-06
C:/temp/dataset/6/32_8.odb,Step-1,Increment      1: Step Time =    1.000,"PART-1-1",           333,      -11.1473,      -6.32447,            0.,NA,NA,"",   7.33590E-03,  -7.11821E-03,  -1.77384E-03,   87.9460E-06
C:/temp/dataset/6/32_8.odb,Step-1,Increment      1: Step Time =    1.000,"PART-1-1",           334,      -10.2102,      -6.79208,            0.,NA,NA,"",   7.21269E-03,  -7.01910E-03,  -1.65986E-03,   115.982E-06
C:/temp/dataset/6/32_8.odb,Step-1,Increment      1: Step Time =    1.000,"PART-1-1",           335,      -9.51762,      -5.78103,            0.,NA,NA,"",   7.47798E-03,  -7.30753E-03,  -1.58751E-03,   104.800E-06
C:/temp/dataset/6/32_8.odb,Step-1,Increment      1: Step Time =    1.000,"PART-1-1",           336,      -10.4548,      -5.31342,            0.,NA,NA,"",   7.56423E-03,  -7.37476E-03,  -1.68242E-03,   79.9007E-06
C:/temp/dataset/6/32_8.odb,Step-1,Increment      1: Step Time =    1.000,"PART-1-1",           337,      -5.04937,      -1.25055,            0.,NA,NA,"",   7.95037E-03,  -7.75789E-03,  -1.73881E-03,   87.6147E-06
C:/temp/dataset/6/32_8.odb,Step-1,Increment      1: Step Time =    1.000,"PART-1-1",           338,      -3.82978,  -150.691E-03,            0.,NA,NA,"",   7.90391E-03,  -7.63299E-03,  -2.05165E-03,   97.9480E-06
C:/temp/dataset/6/32_8.odb,Step-1,Increment      1: Step Time =    1.000,"PART-1-1",           339,      -5.10700,   929.666E-03,            0.,NA,NA,"",   7.72678E-03,  -7.50593E-03,  -1.83419E-03,   47.3260E-06
C:/temp/dataset/6/32_8.odb,Step-1,Increment      1: Step Time =    1.000,"PART-1-1",           340,      -6.32658,  -170.190E-03,            0.,NA,NA,"",   7.82089E-03,  -7.64875E-03,  -1.63186E-03,   62.1626E-06
C:/temp/dataset/6/32_8.odb,Step-1,Increment      1: Step Time =    1.000,"PART-1-1",           341,          -15.,          3.75,            0.,NA,NA,"",   7.56006E-03,  -7.39657E-03,  -1.56374E-03,   27.1284E-06
C:/temp/dataset/6/32_8.odb,Step-1,Increment      1: Step Time =    1.000,"PART-1-1",           342,      -13.8520,       2.39386,            0.,NA,NA,"",   7.67300E-03,  -7.49422E-03,  -1.64666E-03,   39.7392E-06
C:/temp/dataset/6/32_8.odb,Step-1,Increment      1: Step Time =    1.000,"PART-1-1",           343,      -12.6820,       3.58697,            0.,NA,NA,"",   7.60347E-03,  -7.42347E-03,  -1.64467E-03,   38.3893E-06
C:/temp/dataset/6/32_8.odb,Step-1,Increment      1: Step Time =    1.000,"PART-1-1",           344,      -13.8301,       4.94311,            0.,NA,NA,"",   7.50452E-03,  -7.33184E-03,  -1.60061E-03,   16.3310E-06
C:/temp/dataset/6/32_8.odb,Step-1,Increment      1: Step Time =    1.000,"PART-1-1",           345,          -15.,         11.25,            0.,NA,NA,"",   7.19785E-03,  -7.02997E-03,  -1.54552E-03,   2.17936E-06
C:/temp/dataset/6/32_8.odb,Step-1,Increment      1: Step Time =    1.000,"PART-1-1",           346,      -14.0083,       10.0442,            0.,NA,NA,"",   7.25169E-03,  -7.07679E-03,  -1.58306E-03,   1.52879E-06
C:/temp/dataset/6/32_8.odb,Step-1,Increment      1: Step Time =    1.000,"PART-1-1",           347,      -13.0572,       11.3141,            0.,NA,NA,"",   7.21114E-03,  -7.02638E-03,  -1.62188E-03,   618.314E-09
C:/temp/dataset/6/32_8.odb,Step-1,Increment      1: Step Time =    1.000,"PART-1-1",           348,      -14.0489,       12.5200,            0.,NA,NA,"",   7.15849E-03,  -6.98106E-03,  -1.58393E-03,   1.07424E-06
C:/temp/dataset/6/32_8.odb,Step-1,Increment      1: Step Time =    1.000,"PART-1-1",           349,           -5.,       22.7083,            0.,NA,NA,"",   6.87959E-03,  -6.60645E-03,  -1.91927E-03,   8.97481E-09
C:/temp/dataset/6/32_8.odb,Step-1,Increment      1: Step Time =    1.000,"PART-1-1",           350,      -5.96779,       23.6687,            0.,NA,NA,"",   6.83569E-03,  -6.57105E-03,  -1.88360E-03,   4.15212E-09
C:/temp/dataset/6/32_8.odb,Step-1,Increment      1: Step Time =    1.000,"PART-1-1",           351,      -6.69567,       22.7251,            0.,NA,NA,"",   6.86182E-03,  -6.60582E-03,  -1.85678E-03,   6.61750E-09
C:/temp/dataset/6/32_8.odb,Step-1,Increment      1: Step Time =    1.000,"PART-1-1",           352,      -5.72788,       21.7648,            0.,NA,NA,"",   6.90559E-03,  -6.64123E-03,  -1.89245E-03,   5.28197E-09
C:/temp/dataset/6/32_8.odb,Step-1,Increment      1: Step Time =    1.000,"PART-1-1",           353,      -9.95259,       28.8237,            0.,NA,NA,"",   6.61329E-03,  -6.38115E-03,  -1.73681E-03,   2.38848E-09
C:/temp/dataset/6/32_8.odb,Step-1,Increment      1: Step Time =    1.000,"PART-1-1",           354,      -8.67740,       27.7404,            0.,NA,NA,"",   6.66421E-03,  -6.42105E-03,  -1.78378E-03,   2.18784E-09
C:/temp/dataset/6/32_8.odb,Step-1,Increment      1: Step Time =    1.000,"PART-1-1",           355,      -7.47481,       28.9167,            0.,NA,NA,"",   6.63455E-03,  -6.37772E-03,  -1.82808E-03,   2.07343E-09
C:/temp/dataset/6/32_8.odb,Step-1,Increment      1: Step Time =    1.000,"PART-1-1",           356,         -8.75,           30.,            0.,NA,NA,"",   6.58333E-03,  -6.33782E-03,  -1.78111E-03,   2.60255E-09
C:/temp/dataset/6/32_8.odb,Step-1,Increment      1: Step Time =    1.000,"PART-1-1",           357,      -12.4360,       28.7156,            0.,NA,NA,"",   6.59371E-03,  -6.38513E-03,  -1.64534E-03,   2.18080E-09
C:/temp/dataset/6/32_8.odb,Step-1,Increment      1: Step Time =    1.000,"PART-1-1",           358,        -13.75,           30.,            0.,NA,NA,"",   6.53592E-03,  -6.33783E-03,  -1.59694E-03,   593.041E-12
C:/temp/dataset/6/32_8.odb,Step-1,Increment      1: Step Time =    1.000,"PART-1-1",           359,          -15.,         28.75,            0.,NA,NA,"",   6.56955E-03,  -6.38387E-03,  -1.55090E-03,   749.124E-12
C:/temp/dataset/6/32_8.odb,Step-1,Increment      1: Step Time =    1.000,"PART-1-1",           360,      -13.6860,       27.4656,            0.,NA,NA,"",   6.62705E-03,  -6.43117E-03,  -1.59930E-03,   2.31443E-09
C:/temp/dataset/6/32_8.odb,Step-1,Increment      1: Step Time =    1.000,"PART-1-1",           361,         -3.75,           -5.,            0.,NA,NA,"",   8.61893E-03,  -8.36012E-03,  -2.09628E-03,   368.901E-06
C:/temp/dataset/6/32_8.odb,Step-1,Increment      1: Step Time =    1.000,"PART-1-1",           362,      -2.75606,      -4.06584,            0.,NA,NA,"",   8.65515E-03,  -8.31632E-03,  -2.39799E-03,   205.990E-06
C:/temp/dataset/6/32_8.odb,Step-1,Increment      1: Step Time =    1.000,"PART-1-1",           363,      -4.26954,      -3.28646,            0.,NA,NA,"",   8.15615E-03,  -7.96003E-03,  -1.77782E-03,   184.701E-06
C:/temp/dataset/6/32_8.odb,Step-1,Increment      1: Step Time =    1.000,"PART-1-1",           364,      -5.26349,      -4.22062,            0.,NA,NA,"",   8.05462E-03,  -7.93136E-03,  -1.40370E-03,   309.412E-06
C:/temp/dataset/6/32_8.odb,Step-1,Increment      1: Step Time =    1.000,"PART-1-1",           365,   659.099E-03,      -2.85996,            0.,NA,NA,"",   9.17624E-03,  -8.39763E-03,  -3.69908E-03,   128.257E-06
C:/temp/dataset/6/32_8.odb,Step-1,Increment      1: Step Time =    1.000,"PART-1-1",           366,  -266.865E-03,      -3.97148,            0.,NA,NA,"",   9.29351E-03,  -8.65758E-03,  -3.37871E-03,   131.192E-06
C:/temp/dataset/6/32_8.odb,Step-1,Increment      1: Step Time =    1.000,"PART-1-1",           367,          1.25,           -5.,            0.,NA,NA,"",   10.0385E-03,  -9.19331E-03,  -4.03181E-03,   102.537E-06
C:/temp/dataset/6/32_8.odb,Step-1,Increment      1: Step Time =    1.000,"PART-1-1",           368,       2.17596,      -3.88848,            0.,NA,NA,"",   9.85859E-03,  -8.82276E-03,  -4.39895E-03,   80.8025E-06
C:/temp/dataset/6/32_8.odb,Step-1,Increment      1: Step Time =    1.000,"PART-1-1",           369,   93.5104E-03,  -560.922E-03,            0.,NA,NA,"",   8.53406E-03,  -7.83022E-03,  -3.39380E-03,   146.594E-06
C:/temp/dataset/6/32_8.odb,Step-1,Increment      1: Step Time =    1.000,"PART-1-1",           370,   627.873E-03,   544.404E-03,            0.,NA,NA,"",   8.43854E-03,  -7.64120E-03,  -3.58064E-03,   137.647E-06
C:/temp/dataset/6/32_8.odb,Step-1,Increment      1: Step Time =    1.000,"PART-1-1",           371,  -981.002E-03,       1.17096,            0.,NA,NA,"",   8.04217E-03,  -7.47606E-03,  -2.96396E-03,   121.227E-06
C:/temp/dataset/6/32_8.odb,Step-1,Increment      1: Step Time =    1.000,"PART-1-1",           372,      -1.51537,   65.6335E-03,            0.,NA,NA,"",   8.13677E-03,  -7.64924E-03,  -2.77418E-03,   130.867E-06
C:/temp/dataset/6/32_8.odb,Step-1,Increment      1: Step Time =    1.000,"PART-1-1",           373,       4.11258,       2.54084,            0.,NA,NA,"",   8.82252E-03,  -7.40433E-03,  -4.79716E-03,   95.8150E-06
C:/temp/dataset/6/32_8.odb,Step-1,Increment      1: Step Time =    1.000,"PART-1-1",           374,       3.71515,       1.12833,            0.,NA,NA,"",   9.03456E-03,  -7.69198E-03,  -4.73884E-03,   121.650E-06
C:/temp/dataset/6/32_8.odb,Step-1,Increment      1: Step Time =    1.000,"PART-1-1",           375,       5.46602,   397.127E-03,            0.,NA,NA,"",   9.62580E-03,  -8.00075E-03,  -5.35200E-03,   121.505E-06
C:/temp/dataset/6/32_8.odb,Step-1,Increment      1: Step Time =    1.000,"PART-1-1",           376,       8.69518,  -378.803E-03,            0.,NA,NA,"",   10.4091E-03,  -8.48713E-03,  -6.02639E-03,   142.416E-06
C:/temp/dataset/6/32_8.odb,Step-1,Increment      1: Step Time =    1.000,"PART-1-1",           377,       8.82700,   889.396E-03,            0.,NA,NA,"",   10.1106E-03,  -8.16543E-03,  -5.96238E-03,   114.887E-06
C:/temp/dataset/6/32_8.odb,Step-1,Increment      1: Step Time =    1.000,"PART-1-1",           378,       6.97530,  -164.986E-03,            0.,NA,NA,"",   10.0936E-03,  -8.28296E-03,  -5.76836E-03,   137.467E-06
C:/temp/dataset/6/32_8.odb,Step-1,Increment      1: Step Time =    1.000,"PART-1-1",           379,      -3.65351,      -22.6081,            0.,NA,NA,"",   5.60798E-03,  -4.07611E-03,  -3.85160E-03,   897.830E-06
C:/temp/dataset/6/32_8.odb,Step-1,Increment      1: Step Time =    1.000,"PART-1-1",           380,      -2.48671,      -21.3009,            0.,NA,NA,"",   7.49542E-03,  -1.75465E-03,  -7.28715E-03,   724.184E-06
C:/temp/dataset/6/32_8.odb,Step-1,Increment      1: Step Time =    1.000,"PART-1-1",           381,         -3.75,          -20.,            0.,NA,NA,"",   4.04938E-03,   500.945E-06,  -4.01828E-03,   1.34636E-03
C:/temp/dataset/6/32_8.odb,Step-1,Increment      1: Step Time =    1.000,"PART-1-1",           382,      -4.91680,      -21.3072,            0.,NA,NA,"",   2.61217E-03,  -2.15097E-03,  -1.48215E-03,   363.218E-06
C:/temp/dataset/6/32_8.odb,Step-1,Increment      1: Step Time =    1.000,"PART-1-1",           383,       12.8399,      -22.4784,            0.,NA,NA,"",   4.75453E-03,   4.42938E-03,  -1.72806E-03,   279.401E-06
C:/temp/dataset/6/32_8.odb,Step-1,Increment      1: Step Time =    1.000,"PART-1-1",           384,       11.7398,      -21.2760,            0.,NA,NA,"",   4.05311E-03,   2.92333E-03,  -2.80747E-03,   450.770E-06
C:/temp/dataset/6/32_8.odb,Step-1,Increment      1: Step Time =    1.000,"PART-1-1",           385,       10.5591,      -22.4389,            0.,NA,NA,"",   5.72764E-03,   4.45064E-03,  -3.60523E-03,   432.995E-06
C:/temp/dataset/6/32_8.odb,Step-1,Increment      1: Step Time =    1.000,"PART-1-1",           386,       11.6593,      -23.6412,            0.,NA,NA,"",   5.92721E-03,   5.44488E-03,  -2.34202E-03,   343.552E-06
C:/temp/dataset/6/32_8.odb,Step-1,Increment      1: Step Time =    1.000,"PART-1-1",           387,          8.75,            5.,            0.,NA,NA,"",   9.26760E-03,  -7.24648E-03,  -5.77729E-03,   95.0819E-06
C:/temp/dataset/6/32_8.odb,Step-1,Increment      1: Step Time =    1.000,"PART-1-1",           388,       7.62461,       4.03982,            0.,NA,NA,"",   9.24086E-03,  -7.33323E-03,  -5.62291E-03,   102.161E-06
C:/temp/dataset/6/32_8.odb,Step-1,Increment      1: Step Time =    1.000,"PART-1-1",           389,       8.90047,       2.96899,            0.,NA,NA,"",   9.65913E-03,  -7.66411E-03,  -5.87879E-03,   86.4903E-06
C:/temp/dataset/6/32_8.odb,Step-1,Increment      1: Step Time =    1.000,"PART-1-1",           390,       10.0259,       3.92917,            0.,NA,NA,"",   9.62765E-03,  -7.52613E-03,  -6.00409E-03,   71.8850E-06
C:/temp/dataset/6/32_8.odb,Step-1,Increment      1: Step Time =    1.000,"PART-1-1",           391,      -6.96921,       21.1213,            0.,NA,NA,"",   6.91606E-03,  -6.66495E-03,  -1.84670E-03,   33.5544E-09
C:/temp/dataset/6/32_8.odb,Step-1,Increment      1: Step Time =    1.000,"PART-1-1",           392,      -6.24133,       19.9816,            0.,NA,NA,"",   6.96376E-03,  -6.70701E-03,  -1.87351E-03,   35.8720E-09
C:/temp/dataset/6/32_8.odb,Step-1,Increment      1: Step Time =    1.000,"PART-1-1",           393,           -5.,        20.625,            0.,NA,NA,"",   6.95339E-03,  -6.68326E-03,  -1.91929E-03,   8.50880E-09
C:/temp/dataset/6/32_8.odb,Step-1,Increment      1: Step Time =    1.000,"PART-1-1",           394,      -12.9370,       8.81410,            0.,NA,NA,"",   7.31101E-03,  -7.12789E-03,  -1.62604E-03,   3.43817E-06
C:/temp/dataset/6/32_8.odb,Step-1,Increment      1: Step Time =    1.000,"PART-1-1",           395,          -15.,          8.75,            0.,NA,NA,"",   7.29657E-03,  -7.13242E-03,  -1.53902E-03,   1.99446E-06
C:/temp/dataset/6/32_8.odb,Step-1,Increment      1: Step Time =    1.000,"PART-1-1",           396,      -13.9287,       7.51992,            0.,NA,NA,"",   7.36150E-03,  -7.18878E-03,  -1.58526E-03,   3.42843E-06
C:/temp/dataset/6/32_8.odb,Step-1,Increment      1: Step Time =    1.000,"PART-1-1",           397,          -15.,          1.25,            0.,NA,NA,"",   7.71259E-03,  -7.53192E-03,  -1.65959E-03,   64.5939E-06
C:/temp/dataset/6/32_8.odb,Step-1,Increment      1: Step Time =    1.000,"PART-1-1",           398,      -13.9023,  -59.1614E-03,            0.,NA,NA,"",   7.81000E-03,  -7.61159E-03,  -1.74923E-03,   67.8505E-06
C:/temp/dataset/6/32_8.odb,Step-1,Increment      1: Step Time =    1.000,"PART-1-1",           399,      -12.7542,       1.08470,            0.,NA,NA,"",   7.77114E-03,  -7.58644E-03,  -1.68419E-03,   55.9384E-06
C:/temp/dataset/6/32_8.odb,Step-1,Increment      1: Step Time =    1.000,"PART-1-1",           400,          -15.,         -1.25,            0.,NA,NA,"",   7.80304E-03,  -7.57965E-03,  -1.85374E-03,   105.577E-06
C:/temp/dataset/6/32_8.odb,Step-1,Increment      1: Step Time =    1.000,"PART-1-1",           401,      -13.9820,      -2.43756,            0.,NA,NA,"",   7.82656E-03,  -7.58915E-03,  -1.91306E-03,   91.3187E-06
C:/temp/dataset/6/32_8.odb,Step-1,Increment      1: Step Time =    1.000,"PART-1-1",           402,      -12.8843,      -1.24672,            0.,NA,NA,"",   7.85744E-03,  -7.65549E-03,  -1.76997E-03,   60.8621E-06
C:/temp/dataset/6/32_8.odb,Step-1,Increment      1: Step Time =    1.000,"PART-1-1",           403,      -12.3802,      -13.7897,            0.,NA,NA,"",   4.86323E-03,  -4.52670E-03,  -1.77762E-03,   138.590E-06
C:/temp/dataset/6/32_8.odb,Step-1,Increment      1: Step Time =    1.000,"PART-1-1",           404,      -13.6672,      -12.5056,            0.,NA,NA,"",   5.47531E-03,  -5.03482E-03,  -2.15165E-03,   97.2149E-06
C:/temp/dataset/6/32_8.odb,Step-1,Increment      1: Step Time =    1.000,"PART-1-1",           405,          -15.,        -13.75,            0.,NA,NA,"",   5.26045E-03,  -4.66728E-03,  -2.42669E-03,   122.529E-06
C:/temp/dataset/6/32_8.odb,Step-1,Increment      1: Step Time =    1.000,"PART-1-1",           406,      -13.7130,      -15.0341,            0.,NA,NA,"",   4.61112E-03,  -4.18677E-03,  -1.93220E-03,   143.589E-06
C:/temp/dataset/6/32_8.odb,Step-1,Increment      1: Step Time =    1.000,"PART-1-1",           407,       9.21271,      -3.58583,            0.,NA,NA,"",   11.2398E-03,  -9.32547E-03,  -6.27452E-03,   190.163E-06
C:/temp/dataset/6/32_8.odb,Step-1,Increment      1: Step Time =    1.000,"PART-1-1",           408,       7.90749,      -3.82305,            0.,NA,NA,"",   11.2541E-03,  -9.29949E-03,  -6.33824E-03,   211.735E-06
C:/temp/dataset/6/32_8.odb,Step-1,Increment      1: Step Time =    1.000,"PART-1-1",           409,       8.15132,      -5.16923,            0.,NA,NA,"",   11.5645E-03,  -9.55928E-03,  -6.50836E-03,   197.196E-06
C:/temp/dataset/6/32_8.odb,Step-1,Increment      1: Step Time =    1.000,"PART-1-1",           410,       9.45655,      -4.93201,            0.,NA,NA,"",   11.4807E-03,  -9.57637E-03,  -6.33250E-03,   190.615E-06
C:/temp/dataset/6/32_8.odb,Step-1,Increment      1: Step Time =    1.000,"PART-1-1",           411,       6.91243,      -16.0318,            0.,NA,NA,"",   11.7038E-03,  -5.53374E-03,  -10.3129E-03,   747.418E-06
C:/temp/dataset/6/32_8.odb,Step-1,Increment      1: Step Time =    1.000,"PART-1-1",           412,       5.96229,      -14.9858,            0.,NA,NA,"",   12.4119E-03,  -6.02614E-03,  -10.8508E-03,   708.877E-06
C:/temp/dataset/6/32_8.odb,Step-1,Increment      1: Step Time =    1.000,"PART-1-1",           413,            5.,      -16.2875,            0.,NA,NA,"",   13.4512E-03,  -4.55630E-03,  -12.6561E-03,   1.07935E-03
C:/temp/dataset/6/32_8.odb,Step-1,Increment      1: Step Time =    1.000,"PART-1-1",           414,       6.93910,      -13.7291,            0.,NA,NA,"",   11.7758E-03,  -7.14386E-03,  -9.36132E-03,   488.102E-06
C:/temp/dataset/6/32_8.odb,Step-1,Increment      1: Step Time =    1.000,"PART-1-1",           415,       5.97681,      -12.5371,            0.,NA,NA,"",   12.2325E-03,  -7.64492E-03,  -9.54936E-03,   558.031E-06
C:/temp/dataset/6/32_8.odb,Step-1,Increment      1: Step Time =    1.000,"PART-1-1",           416,            5.,      -13.7937,            0.,NA,NA,"",   12.8020E-03,  -6.61277E-03,  -10.9619E-03,   762.235E-06
C:/temp/dataset/6/32_8.odb,Step-1,Increment      1: Step Time =    1.000,"PART-1-1",           417,         -1.25,          -20.,            0.,NA,NA,"",   13.9559E-03,   4.21407E-03,  -13.3045E-03,   960.637E-06
C:/temp/dataset/6/32_8.odb,Step-1,Increment      1: Step Time =    1.000,"PART-1-1",           418,      -1.09514,      -22.7401,            0.,NA,NA,"",   14.1586E-03,  -4.98395E-03,  -13.2524E-03,   3.40820E-03
C:/temp/dataset/6/32_8.odb,Step-1,Increment      1: Step Time =    1.000,"PART-1-1",           419,   141.566E-03,      -21.4393,            0.,NA,NA,"",   23.7484E-03,  -3.22777E-03,  -23.5280E-03,   5.33922E-03
C:/temp/dataset/6/32_8.odb,Step-1,Increment      1: Step Time =    1.000,"PART-1-1",           420,      -7.69236,      -25.1479,            0.,NA,NA,"",   3.56325E-03,  -3.54735E-03,  -336.292E-06,   442.550E-06
C:/temp/dataset/6/32_8.odb,Step-1,Increment      1: Step Time =    1.000,"PART-1-1",           421,      -9.18951,      -25.9970,            0.,NA,NA,"",   2.94844E-03,  -2.94117E-03,  -206.896E-06,   376.873E-06
C:/temp/dataset/6/32_8.odb,Step-1,Increment      1: Step Time =    1.000,"PART-1-1",           422,      -8.56598,      -27.1897,            0.,NA,NA,"",   2.58672E-03,  -2.57241E-03,  -271.673E-06,   600.894E-06
C:/temp/dataset/6/32_8.odb,Step-1,Increment      1: Step Time =    1.000,"PART-1-1",           423,      -7.06883,      -26.3407,            0.,NA,NA,"",   3.53501E-03,  -3.49407E-03,  -536.445E-06,   643.091E-06
C:/temp/dataset/6/32_8.odb,Step-1,Increment      1: Step Time =    1.000,"PART-1-1",           424,      -9.82073,      -13.8964,            0.,NA,NA,"",   4.58892E-03,  -4.38720E-03,  -1.34562E-03,   157.635E-06
C:/temp/dataset/6/32_8.odb,Step-1,Increment      1: Step Time =    1.000,"PART-1-1",           425,      -8.65586,      -15.1239,            0.,NA,NA,"",   4.04303E-03,  -3.88768E-03,  -1.10998E-03,   153.015E-06
C:/temp/dataset/6/32_8.odb,Step-1,Increment      1: Step Time =    1.000,"PART-1-1",           426,      -8.53523,      -12.6467,            0.,NA,NA,"",   4.97950E-03,  -4.83987E-03,  -1.17091E-03,   128.584E-06
C:/temp/dataset/6/32_8.odb,Step-1,Increment      1: Step Time =    1.000,"PART-1-1",           427,      -6.09243,      -10.1071,            0.,NA,NA,"",   5.80225E-03,  -5.75944E-03,  -703.520E-06,   99.1822E-06
C:/temp/dataset/6/32_8.odb,Step-1,Increment      1: Step Time =    1.000,"PART-1-1",           428,           -5.,      -8.71250,            0.,NA,NA,"",   6.23906E-03,  -6.22120E-03,  -471.744E-06,   143.374E-06
C:/temp/dataset/6/32_8.odb,Step-1,Increment      1: Step Time =    1.000,"PART-1-1",           429,      -6.07322,      -7.75598,            0.,NA,NA,"",   6.74530E-03,  -6.67484E-03,  -972.434E-06,   160.773E-06
C:/temp/dataset/6/32_8.odb,Step-1,Increment      1: Step Time =    1.000,"PART-1-1",           430,      -12.7270,      -6.06323,            0.,NA,NA,"",   7.40766E-03,  -7.13649E-03,  -1.98595E-03,   64.1615E-06
C:/temp/dataset/6/32_8.odb,Step-1,Increment      1: Step Time =    1.000,"PART-1-1",           431,      -13.8025,      -4.90646,            0.,NA,NA,"",   7.62017E-03,  -7.32988E-03,  -2.08325E-03,   87.2328E-06
C:/temp/dataset/6/32_8.odb,Step-1,Increment      1: Step Time =    1.000,"PART-1-1",           432,          -15.,         -6.25,            0.,NA,NA,"",   7.41689E-03,  -7.01368E-03,  -2.41216E-03,   104.862E-06
C:/temp/dataset/6/32_8.odb,Step-1,Increment      1: Step Time =    1.000,"PART-1-1",           433,      -13.9244,      -7.40677,            0.,NA,NA,"",   7.13003E-03,  -6.76320E-03,  -2.25753E-03,   66.6831E-06
C:/temp/dataset/6/32_8.odb,Step-1,Increment      1: Step Time =    1.000,"PART-1-1",           434,       1.60591,      -1.50045,            0.,NA,NA,"",   9.06719E-03,  -8.11592E-03,  -4.04300E-03,   138.415E-06
C:/temp/dataset/6/32_8.odb,Step-1,Increment      1: Step Time =    1.000,"PART-1-1",           435,  -853.298E-03,      -1.92043,            0.,NA,NA,"",   8.61083E-03,  -8.04964E-03,  -3.05774E-03,   142.631E-06
C:/temp/dataset/6/32_8.odb,Step-1,Increment      1: Step Time =    1.000,"PART-1-1",           436,         13.75,          -30.,            0.,NA,NA,"",            0.,   689.355E-42,  -1.21388E-39,   1.49320E-03
C:/temp/dataset/6/32_8.odb,Step-1,Increment      1: Step Time =    1.000,"PART-1-1",           437,           15.,      -28.9063,            0.,NA,NA,"",   2.42135E-03,   2.11383E-03,  -1.18097E-03,   1.01760E-03
C:/temp/dataset/6/32_8.odb,Step-1,Increment      1: Step Time =    1.000,"PART-1-1",           438,       13.8103,      -27.8746,            0.,NA,NA,"",   3.69132E-03,   3.60548E-03,  -791.419E-06,   702.025E-06
C:/temp/dataset/6/32_8.odb,Step-1,Increment      1: Step Time =    1.000,"PART-1-1",           439,       12.5603,      -28.9683,            0.,NA,NA,"",   1.92584E-03,   1.88247E-03,  -406.440E-06,   1.25989E-03
C:/temp/dataset/6/32_8.odb,Step-1,Increment      1: Step Time =    1.000,"PART-1-1",           440,       12.6598,      -26.8678,            0.,NA,NA,"",   4.96879E-03,   4.84837E-03,  -1.08725E-03,   874.872E-06
C:/temp/dataset/6/32_8.odb,Step-1,Increment      1: Step Time =    1.000,"PART-1-1",           441,       11.5501,      -25.8632,            0.,NA,NA,"",   5.89898E-03,   5.62819E-03,  -1.76676E-03,   817.205E-06
C:/temp/dataset/6/32_8.odb,Step-1,Increment      1: Step Time =    1.000,"PART-1-1",           442,       10.3093,      -26.9762,            0.,NA,NA,"",   5.26868E-03,   4.91014E-03,  -1.91039E-03,   1.27549E-03
C:/temp/dataset/6/32_8.odb,Step-1,Increment      1: Step Time =    1.000,"PART-1-1",           443,       11.4189,      -27.9808,            0.,NA,NA,"",   3.73712E-03,   3.61578E-03,  -944.565E-06,   1.26634E-03
C:/temp/dataset/6/32_8.odb,Step-1,Increment      1: Step Time =    1.000,"PART-1-1",           444,       10.1086,      -29.0125,            0.,NA,NA,"",   2.16292E-03,   2.04553E-03,  -702.888E-06,   1.59105E-03
C:/temp/dataset/6/32_8.odb,Step-1,Increment      1: Step Time =    1.000,"PART-1-1",           445,       9.01957,      -28.0513,            0.,NA,NA,"",   4.05949E-03,   3.64806E-03,  -1.78076E-03,   1.68263E-03
C:/temp/dataset/6/32_8.odb,Step-1,Increment      1: Step Time =    1.000,"PART-1-1",           446,          8.75,          -30.,            0.,NA,NA,"",            0.,   1.46204E-39,  -2.41802E-39,   1.95042E-03
C:/temp/dataset/6/32_8.odb,Step-1,Increment      1: Step Time =    1.000,"PART-1-1",           447,       4.20973,      -27.9354,            0.,NA,NA,"",   4.91732E-03,   1.83800E-03,  -4.56090E-03,   2.95270E-03
C:/temp/dataset/6/32_8.odb,Step-1,Increment      1: Step Time =    1.000,"PART-1-1",           448,       2.74203,      -28.9082,            0.,NA,NA,"",   2.36009E-03,   216.953E-06,  -2.35009E-03,   2.84534E-03
C:/temp/dataset/6/32_8.odb,Step-1,Increment      1: Step Time =    1.000,"PART-1-1",           449,          3.75,          -30.,            0.,NA,NA,"",            0.,   515.063E-42,  -4.57371E-39,   2.43808E-03
C:/temp/dataset/6/32_8.odb,Step-1,Increment      1: Step Time =    1.000,"PART-1-1",           450,       1.16266,      -25.9573,            0.,NA,NA,"",   10.6144E-03,  -1.87183E-03,  -10.4480E-03,   3.88027E-03
C:/temp/dataset/6/32_8.odb,Step-1,Increment      1: Step Time =    1.000,"PART-1-1",           451,       1.65415,      -27.4536,            0.,NA,NA,"",   6.19622E-03,  -863.910E-06,  -6.13570E-03,   3.16627E-03
C:/temp/dataset/6/32_8.odb,Step-1,Increment      1: Step Time =    1.000,"PART-1-1",           452,       3.39879,      -26.8461,            0.,NA,NA,"",   8.11849E-03,   1.53120E-03,  -7.97279E-03,   3.55669E-03
C:/temp/dataset/6/32_8.odb,Step-1,Increment      1: Step Time =    1.000,"PART-1-1",           453,       2.90730,      -25.3498,            0.,NA,NA,"",   13.3504E-03,   1.27689E-03,  -13.2892E-03,   4.23874E-03
C:/temp/dataset/6/32_8.odb,Step-1,Increment      1: Step Time =    1.000,"PART-1-1",           454,      -3.67645,      -27.5530,            0.,NA,NA,"",   4.20148E-03,  -3.70802E-03,  -1.97561E-03,   1.49055E-03
C:/temp/dataset/6/32_8.odb,Step-1,Increment      1: Step Time =    1.000,"PART-1-1",           455,      -2.54816,      -26.3074,            0.,NA,NA,"",   6.39645E-03,  -4.76711E-03,  -4.26488E-03,   1.90977E-03
C:/temp/dataset/6/32_8.odb,Step-1,Increment      1: Step Time =    1.000,"PART-1-1",           456,      -3.72120,      -25.1278,            0.,NA,NA,"",   6.14005E-03,  -5.12700E-03,  -3.37847E-03,   1.42284E-03
C:/temp/dataset/6/32_8.odb,Step-1,Increment      1: Step Time =    1.000,"PART-1-1",           457,      -4.84948,      -26.3734,            0.,NA,NA,"",   4.64540E-03,  -4.32950E-03,  -1.68378E-03,   1.06793E-03
C:/temp/dataset/6/32_8.odb,Step-1,Increment      1: Step Time =    1.000,"PART-1-1",           458,      -4.94498,      -28.7931,            0.,NA,NA,"",   2.12703E-03,  -2.01558E-03,  -679.489E-06,   1.30318E-03
C:/temp/dataset/6/32_8.odb,Step-1,Increment      1: Step Time =    1.000,"PART-1-1",           459,         -3.75,          -30.,            0.,NA,NA,"",            0.,  -1.31970E-39,  -2.12601E-39,   1.71254E-03
C:/temp/dataset/6/32_8.odb,Step-1,Increment      1: Step Time =    1.000,"PART-1-1",           460,      -6.07748,      -27.5364,            0.,NA,NA,"",   3.21164E-03,  -3.11983E-03,  -762.444E-06,   956.156E-06
C:/temp/dataset/6/32_8.odb,Step-1,Increment      1: Step Time =    1.000,"PART-1-1",           461,      -7.38250,      -28.7433,            0.,NA,NA,"",   1.62198E-03,  -1.59314E-03,  -304.468E-06,   851.919E-06
C:/temp/dataset/6/32_8.odb,Step-1,Increment      1: Step Time =    1.000,"PART-1-1",           462,         -6.25,          -30.,            0.,NA,NA,"",            0.,  -1.03834E-39,  -1.11426E-39,   1.22171E-03
C:/temp/dataset/6/32_8.odb,Step-1,Increment      1: Step Time =    1.000,"PART-1-1",           463,      -8.77755,      -24.1806,            0.,NA,NA,"",   3.27484E-03,  -3.26976E-03,  -182.388E-06,   232.687E-06
C:/temp/dataset/6/32_8.odb,Step-1,Increment      1: Step Time =    1.000,"PART-1-1",           464,      -9.92276,      -23.8066,            0.,NA,NA,"",   3.11232E-03,  -3.10403E-03,  -227.020E-06,   163.142E-06
C:/temp/dataset/6/32_8.odb,Step-1,Increment      1: Step Time =    1.000,"PART-1-1",           465,      -10.3347,      -25.6230,            0.,NA,NA,"",   2.83164E-03,  -2.82324E-03,  -217.966E-06,   265.431E-06
C:/temp/dataset/6/32_8.odb,Step-1,Increment      1: Step Time =    1.000,"PART-1-1",           466,       13.9544,      -21.3085,            0.,NA,NA,"",   3.16444E-03,   3.03837E-03,  -884.288E-06,   217.210E-06
C:/temp/dataset/6/32_8.odb,Step-1,Increment      1: Step Time =    1.000,"PART-1-1",           467,       13.8855,      -23.5136,            0.,NA,NA,"",   5.36406E-03,   5.25955E-03,  -1.05367E-03,   156.950E-06
C:/temp/dataset/6/32_8.odb,Step-1,Increment      1: Step Time =    1.000,"PART-1-1",           468,           15.,      -22.3438,            0.,NA,NA,"",   4.16391E-03,   4.16391E-03,  -1.72562E-06,   301.431E-06
C:/temp/dataset/6/32_8.odb,Step-1,Increment      1: Step Time =    1.000,"PART-1-1",           469,       12.7349,      -24.6944,            0.,NA,NA,"",   5.97305E-03,   5.77597E-03,  -1.52167E-03,   300.556E-06
C:/temp/dataset/6/32_8.odb,Step-1,Increment      1: Step Time =    1.000,"PART-1-1",           470,       13.8494,      -25.7120,            0.,NA,NA,"",   5.77280E-03,   5.64311E-03,  -1.21677E-03,   215.456E-06
C:/temp/dataset/6/32_8.odb,Step-1,Increment      1: Step Time =    1.000,"PART-1-1",           471,           15.,      -24.5313,            0.,NA,NA,"",   5.60775E-03,   5.54117E-03,  -861.575E-06,   431.775E-06
C:/temp/dataset/6/32_8.odb,Step-1,Increment      1: Step Time =    1.000,"PART-1-1",           472,         11.25,          -30.,            0.,NA,NA,"",            0.,   1.35533E-39,  -1.44494E-39,   1.53345E-03
C:/temp/dataset/6/32_8.odb,Step-1,Increment      1: Step Time =    1.000,"PART-1-1",           473,       13.9950,      -12.5232,            0.,NA,NA,"",   8.34921E-03,  -7.60329E-03,  -3.44953E-03,   451.438E-06
C:/temp/dataset/6/32_8.odb,Step-1,Increment      1: Step Time =    1.000,"PART-1-1",           474,       12.9942,      -13.6844,            0.,NA,NA,"",   7.91621E-03,  -6.93330E-03,  -3.82043E-03,   339.689E-06
C:/temp/dataset/6/32_8.odb,Step-1,Increment      1: Step Time =    1.000,"PART-1-1",           475,           15.,      -13.5938,            0.,NA,NA,"",   6.93542E-03,  -6.58065E-03,  -2.18978E-03,   585.790E-06
C:/temp/dataset/6/32_8.odb,Step-1,Increment      1: Step Time =    1.000,"PART-1-1",           476,       9.85236,      -17.2546,            0.,NA,NA,"",   7.24379E-03,  -3.80514E-03,  -6.16388E-03,   399.188E-06
C:/temp/dataset/6/32_8.odb,Step-1,Increment      1: Step Time =    1.000,"PART-1-1",           477,       8.68427,      -17.7513,            0.,NA,NA,"",   8.40966E-03,  -3.53319E-03,  -7.63145E-03,   467.498E-06
C:/temp/dataset/6/32_8.odb,Step-1,Increment      1: Step Time =    1.000,"PART-1-1",           478,       8.96140,      -18.9835,            0.,NA,NA,"",   7.00594E-03,  -1.42661E-03,  -6.85915E-03,   496.076E-06
C:/temp/dataset/6/32_8.odb,Step-1,Increment      1: Step Time =    1.000,"PART-1-1",           479,       10.1295,      -18.4868,            0.,NA,NA,"",   5.72787E-03,  -1.90686E-03,  -5.40114E-03,   511.086E-06
C:/temp/dataset/6/32_8.odb,Step-1,Increment      1: Step Time =    1.000,"PART-1-1",           480,       11.2436,      -18.3856,            0.,NA,NA,"",   4.49832E-03,  -1.74299E-03,  -4.14692E-03,   502.550E-06
C:/temp/dataset/6/32_8.odb,Step-1,Increment      1: Step Time =    1.000,"PART-1-1",           481,       12.3956,      -19.2305,            0.,NA,NA,"",   2.71399E-03,  -156.735E-06,  -2.70946E-03,   505.982E-06
C:/temp/dataset/6/32_8.odb,Step-1,Increment      1: Step Time =    1.000,"PART-1-1",           482,       13.1120,      -18.1414,            0.,NA,NA,"",   2.84827E-03,  -1.70816E-03,  -2.27922E-03,   420.113E-06
C:/temp/dataset/6/32_8.odb,Step-1,Increment      1: Step Time =    1.000,"PART-1-1",           483,       11.9600,      -17.2965,            0.,NA,NA,"",   4.89069E-03,  -3.15663E-03,  -3.73558E-03,   426.380E-06
C:/temp/dataset/6/32_8.odb,Step-1,Increment      1: Step Time =    1.000,"PART-1-1",           484,       14.0024,      -3.77677,            0.,NA,NA,"",   11.0451E-03,  -9.25123E-03,  -6.03396E-03,   199.386E-06
C:/temp/dataset/6/32_8.odb,Step-1,Increment      1: Step Time =    1.000,"PART-1-1",           485,       13.0359,      -4.87313,            0.,NA,NA,"",   11.1474E-03,  -9.47257E-03,  -5.87672E-03,   207.240E-06
C:/temp/dataset/6/32_8.odb,Step-1,Increment      1: Step Time =    1.000,"PART-1-1",           486,       14.0335,      -5.94012,            0.,NA,NA,"",   10.9784E-03,  -9.44770E-03,  -5.59157E-03,   274.566E-06
C:/temp/dataset/6/32_8.odb,Step-1,Increment      1: Step Time =    1.000,"PART-1-1",           487,           15.,      -4.84375,            0.,NA,NA,"",   10.9684E-03,  -9.26851E-03,  -5.86510E-03,   289.635E-06
C:/temp/dataset/6/32_8.odb,Step-1,Increment      1: Step Time =    1.000,"PART-1-1",           488,       13.0510,      -7.01836,            0.,NA,NA,"",   11.0186E-03,  -9.54618E-03,  -5.50274E-03,   246.928E-06
C:/temp/dataset/6/32_8.odb,Step-1,Increment      1: Step Time =    1.000,"PART-1-1",           489,       14.0175,      -8.10950,            0.,NA,NA,"",   10.5768E-03,  -9.31700E-03,  -5.00627E-03,   342.190E-06
C:/temp/dataset/6/32_8.odb,Step-1,Increment      1: Step Time =    1.000,"PART-1-1",           490,           15.,      -7.03125,            0.,NA,NA,"",   10.6353E-03,  -9.27897E-03,  -5.19724E-03,   386.761E-06
C:/temp/dataset/6/32_8.odb,Step-1,Increment      1: Step Time =    1.000,"PART-1-1",           491,         13.75,            5.,            0.,NA,NA,"",   9.89310E-03,  -7.43609E-03,  -6.52518E-03,   4.68160E-06
C:/temp/dataset/6/32_8.odb,Step-1,Increment      1: Step Time =    1.000,"PART-1-1",           492,       12.4982,       3.90020,            0.,NA,NA,"",   9.90513E-03,  -7.61715E-03,  -6.33172E-03,   32.4915E-06
C:/temp/dataset/6/32_8.odb,Step-1,Increment      1: Step Time =    1.000,"PART-1-1",           493,       13.7482,       2.80645,            0.,NA,NA,"",   10.1967E-03,  -7.84199E-03,  -6.51743E-03,   30.0475E-06
C:/temp/dataset/6/32_8.odb,Step-1,Increment      1: Step Time =    1.000,"PART-1-1",           494,           15.,       3.90625,            0.,NA,NA,"",   10.1826E-03,  -7.62940E-03,  -6.74363E-03,   4.56297E-06
C:/temp/dataset/6/32_8.odb,Step-1,Increment      1: Step Time =    1.000,"PART-1-1",           495,         11.25,            5.,            0.,NA,NA,"",   9.62090E-03,  -7.40264E-03,  -6.14512E-03,   41.2239E-06
C:/temp/dataset/6/32_8.odb,Step-1,Increment      1: Step Time =    1.000,"PART-1-1",           496,       11.2740,       2.82937,            0.,NA,NA,"",   9.95771E-03,  -7.80612E-03,  -6.18227E-03,   72.9028E-06
C:/temp/dataset/6/32_8.odb,Step-1,Increment      1: Step Time =    1.000,"PART-1-1",           497,       11.1422,   446.578E-03,            0.,NA,NA,"",   10.4151E-03,  -8.37942E-03,  -6.18541E-03,   115.854E-06
C:/temp/dataset/6/32_8.odb,Step-1,Increment      1: Step Time =    1.000,"PART-1-1",           498,       10.2035,  -836.101E-03,            0.,NA,NA,"",   10.6420E-03,  -8.68789E-03,  -6.14591E-03,   150.599E-06
C:/temp/dataset/6/32_8.odb,Step-1,Increment      1: Step Time =    1.000,"PART-1-1",           499,       11.7017,      -1.82731,            0.,NA,NA,"",   10.8854E-03,  -8.96059E-03,  -6.18058E-03,   150.343E-06
C:/temp/dataset/6/32_8.odb,Step-1,Increment      1: Step Time =    1.000,"PART-1-1",           500,       12.5035,       1.67834,            0.,NA,NA,"",   10.2704E-03,  -8.09096E-03,  -6.32591E-03,   82.5212E-06
C:/temp/dataset/6/32_8.odb,Step-1,Increment      1: Step Time =    1.000,"PART-1-1",           501,       9.91277,       1.59761,            0.,NA,NA,"",   10.0692E-03,  -8.04616E-03,  -6.05385E-03,   108.945E-06
C:/temp/dataset/6/32_8.odb,Step-1,Increment      1: Step Time =    1.000,"PART-1-1",           502,       5.19643,       3.92738,            0.,NA,NA,"",   8.75602E-03,  -7.14513E-03,  -5.06112E-03,   101.604E-06
C:/temp/dataset/6/32_8.odb,Step-1,Increment      1: Step Time =    1.000,"PART-1-1",           503,          3.75,            5.,            0.,NA,NA,"",   8.13177E-03,  -6.71906E-03,  -4.58039E-03,   90.8512E-06
C:/temp/dataset/6/32_8.odb,Step-1,Increment      1: Step Time =    1.000,"PART-1-1",           504,       2.66615,       3.61346,            0.,NA,NA,"",   8.24119E-03,  -7.05068E-03,  -4.26675E-03,   80.2863E-06
C:/temp/dataset/6/32_8.odb,Step-1,Increment      1: Step Time =    1.000,"PART-1-1",           505,      -1.00804,       2.95894,            0.,NA,NA,"",   7.72248E-03,  -7.13445E-03,  -2.95574E-03,   87.4852E-06
C:/temp/dataset/6/32_8.odb,Step-1,Increment      1: Step Time =    1.000,"PART-1-1",           506,   87.8012E-03,       3.95476,            0.,NA,NA,"",   7.65679E-03,  -6.88871E-03,  -3.34247E-03,   50.3241E-06
C:/temp/dataset/6/32_8.odb,Step-1,Increment      1: Step Time =    1.000,"PART-1-1",           507,         -1.25,            5.,            0.,NA,NA,"",   7.22505E-03,  -6.61350E-03,  -2.90911E-03,   57.1451E-06
C:/temp/dataset/6/32_8.odb,Step-1,Increment      1: Step Time =    1.000,"PART-1-1",           508,      -2.34584,       4.00418,            0.,NA,NA,"",   7.39740E-03,  -6.94744E-03,  -2.54057E-03,   72.6124E-06
C:/temp/dataset/6/32_8.odb,Step-1,Increment      1: Step Time =    1.000,"PART-1-1",           509,      -3.27281,       2.96378,            0.,NA,NA,"",   7.53283E-03,  -7.18588E-03,  -2.25980E-03,   62.5413E-06
C:/temp/dataset/6/32_8.odb,Step-1,Increment      1: Step Time =    1.000,"PART-1-1",           510,         -3.75,            5.,            0.,NA,NA,"",   7.19497E-03,  -6.84645E-03,  -2.21218E-03,   139.504E-06
C:/temp/dataset/6/32_8.odb,Step-1,Increment      1: Step Time =    1.000,"PART-1-1",           511,      -4.67697,       3.95960,            0.,NA,NA,"",   7.36514E-03,  -7.09865E-03,  -1.96329E-03,   85.2954E-06
C:/temp/dataset/6/32_8.odb,Step-1,Increment      1: Step Time =    1.000,"PART-1-1",           512,      -7.93004,       8.58536,            0.,NA,NA,"",   7.34409E-03,  -7.11660E-03,  -1.81377E-03,   5.65941E-06
C:/temp/dataset/6/32_8.odb,Step-1,Increment      1: Step Time =    1.000,"PART-1-1",           513,      -8.65034,       7.25415,            0.,NA,NA,"",   7.38051E-03,  -7.16245E-03,  -1.78080E-03,   19.8640E-06
C:/temp/dataset/6/32_8.odb,Step-1,Increment      1: Step Time =    1.000,"PART-1-1",           514,      -7.51010,       6.50150,            0.,NA,NA,"",   7.38974E-03,  -7.16237E-03,  -1.81899E-03,   26.9265E-06
C:/temp/dataset/6/32_8.odb,Step-1,Increment      1: Step Time =    1.000,"PART-1-1",           515,      -6.78981,       7.83270,            0.,NA,NA,"",   7.36656E-03,  -7.12981E-03,  -1.85255E-03,   12.1612E-06
C:/temp/dataset/6/32_8.odb,Step-1,Increment      1: Step Time =    1.000,"PART-1-1",           516,      -7.08495,       12.0475,            0.,NA,NA,"",   7.23820E-03,  -6.99975E-03,  -1.84255E-03,   1.04573E-06
C:/temp/dataset/6/32_8.odb,Step-1,Increment      1: Step Time =    1.000,"PART-1-1",           517,      -6.02998,       11.1050,            0.,NA,NA,"",   7.27927E-03,  -7.03282E-03,  -1.87811E-03,   1.44663E-06
C:/temp/dataset/6/32_8.odb,Step-1,Increment      1: Step Time =    1.000,"PART-1-1",           518,           -5.,       12.2917,            0.,NA,NA,"",   7.24788E-03,  -6.99020E-03,  -1.91546E-03,   2.00110E-06
C:/temp/dataset/6/32_8.odb,Step-1,Increment      1: Step Time =    1.000,"PART-1-1",           519,      -6.05497,       13.2342,            0.,NA,NA,"",   7.20575E-03,  -6.95646E-03,  -1.87898E-03,   927.337E-09
C:/temp/dataset/6/32_8.odb,Step-1,Increment      1: Step Time =    1.000,"PART-1-1",           520,      -9.96524,       21.0498,            0.,NA,NA,"",   6.88988E-03,  -6.66750E-03,  -1.73636E-03,   53.3757E-09
C:/temp/dataset/6/32_8.odb,Step-1,Increment      1: Step Time =    1.000,"PART-1-1",           521,      -8.51702,       20.1362,            0.,NA,NA,"",   6.93612E-03,  -6.70124E-03,  -1.78972E-03,   64.5340E-09
C:/temp/dataset/6/32_8.odb,Step-1,Increment      1: Step Time =    1.000,"PART-1-1",           522,      -8.09442,       21.6565,            0.,NA,NA,"",   6.88605E-03,  -6.64520E-03,  -1.80525E-03,   31.9329E-09
C:/temp/dataset/6/32_8.odb,Step-1,Increment      1: Step Time =    1.000,"PART-1-1",           523,      -9.54264,       22.5701,            0.,NA,NA,"",   6.83968E-03,  -6.61151E-03,  -1.75190E-03,   14.9135E-09
C:/temp/dataset/6/32_8.odb,Step-1,Increment      1: Step Time =    1.000,"PART-1-1",           524,      -7.38593,       19.0122,            0.,NA,NA,"",   6.98707E-03,  -6.74279E-03,  -1.83137E-03,   139.076E-09
C:/temp/dataset/6/32_8.odb,Step-1,Increment      1: Step Time =    1.000,"PART-1-1",           525,      -6.14460,       17.5723,            0.,NA,NA,"",   7.05048E-03,  -6.79605E-03,  -1.87697E-03,   148.770E-09
C:/temp/dataset/6/32_8.odb,Step-1,Increment      1: Step Time =    1.000,"PART-1-1",           526,           -5.,       18.5417,            0.,NA,NA,"",   7.02733E-03,  -6.76017E-03,  -1.91924E-03,   91.1286E-09
C:/temp/dataset/6/32_8.odb,Step-1,Increment      1: Step Time =    1.000,"PART-1-1",           527,      -9.12859,       24.1056,            0.,NA,NA,"",   6.78897E-03,  -6.55494E-03,  -1.76715E-03,   6.33039E-09
C:/temp/dataset/6/32_8.odb,Step-1,Increment      1: Step Time =    1.000,"PART-1-1",           528,      -7.82088,       23.2603,            0.,NA,NA,"",   6.83169E-03,  -6.58610E-03,  -1.81532E-03,   6.65224E-09
C:/temp/dataset/6/32_8.odb,Step-1,Increment      1: Step Time =    1.000,"PART-1-1",           529,      -7.11221,       24.6459,            0.,NA,NA,"",   6.78953E-03,  -6.53504E-03,  -1.84143E-03,   1.61778E-09
C:/temp/dataset/6/32_8.odb,Step-1,Increment      1: Step Time =    1.000,"PART-1-1",           530,      -8.41993,       25.4912,            0.,NA,NA,"",   6.74659E-03,  -6.50390E-03,  -1.79326E-03,   2.49493E-09
C:/temp/dataset/6/32_8.odb,Step-1,Increment      1: Step Time =    1.000,"PART-1-1",           531,           -5.,       28.9583,            0.,NA,NA,"",   6.65878E-03,  -6.37619E-03,  -1.91925E-03,   569.452E-12
C:/temp/dataset/6/32_8.odb,Step-1,Increment      1: Step Time =    1.000,"PART-1-1",           532,         -6.25,           30.,            0.,NA,NA,"",   6.60884E-03,  -6.33782E-03,  -1.87320E-03,   596.504E-12
C:/temp/dataset/6/32_8.odb,Step-1,Increment      1: Step Time =    1.000,"PART-1-1",           533,      -6.22481,       27.8751,            0.,NA,NA,"",   6.68420E-03,  -6.41609E-03,  -1.87413E-03,   1.94559E-09
C:/temp/dataset/6/32_8.odb,Step-1,Increment      1: Step Time =    1.000,"PART-1-1",           534,      -11.1386,       27.5393,            0.,NA,NA,"",   6.64769E-03,  -6.42846E-03,  -1.69312E-03,   2.24602E-09
C:/temp/dataset/6/32_8.odb,Step-1,Increment      1: Step Time =    1.000,"PART-1-1",           535,        -11.25,           30.,            0.,NA,NA,"",   6.55903E-03,  -6.33782E-03,  -1.68902E-03,   2.61978E-09
C:/temp/dataset/6/32_8.odb,Step-1,Increment      1: Step Time =    1.000,"PART-1-1",           536,      -13.1147,       13.7606,            0.,NA,NA,"",   7.12160E-03,  -6.93488E-03,  -1.62009E-03,   767.207E-09
C:/temp/dataset/6/32_8.odb,Step-1,Increment      1: Step Time =    1.000,"PART-1-1",           537,      -14.0658,       14.9906,            0.,NA,NA,"",   7.06967E-03,  -6.88978E-03,  -1.58466E-03,   472.004E-09
C:/temp/dataset/6/32_8.odb,Step-1,Increment      1: Step Time =    1.000,"PART-1-1",           538,          -15.,         13.75,            0.,NA,NA,"",   7.10664E-03,  -6.93573E-03,  -1.54919E-03,   1.05630E-06
C:/temp/dataset/6/32_8.odb,Step-1,Increment      1: Step Time =    1.000,"PART-1-1",           539,      -9.42834,       18.6970,            0.,NA,NA,"",   6.97884E-03,  -6.75424E-03,  -1.75628E-03,   178.773E-09
C:/temp/dataset/6/32_8.odb,Step-1,Increment      1: Step Time =    1.000,"PART-1-1",           540,      -8.29725,       17.5730,            0.,NA,NA,"",   7.02971E-03,  -6.79589E-03,  -1.79798E-03,   227.204E-09
C:/temp/dataset/6/32_8.odb,Step-1,Increment      1: Step Time =    1.000,"PART-1-1",           541,      -12.7588,       6.21303,            0.,NA,NA,"",   7.43798E-03,  -7.25656E-03,  -1.63273E-03,   16.5593E-06
C:/temp/dataset/6/32_8.odb,Step-1,Increment      1: Step Time =    1.000,"PART-1-1",           542,          -15.,          6.25,            0.,NA,NA,"",   7.41451E-03,  -7.25348E-03,  -1.53687E-03,   5.29668E-06
C:/temp/dataset/6/32_8.odb,Step-1,Increment      1: Step Time =    1.000,"PART-1-1",           543,      -9.01063,       9.47069,            0.,NA,NA,"",   7.31007E-03,  -7.09112E-03,  -1.77570E-03,   3.77460E-06
C:/temp/dataset/6/32_8.odb,Step-1,Increment      1: Step Time =    1.000,"PART-1-1",           544,      -10.0811,       10.4578,            0.,NA,NA,"",   7.26792E-03,  -7.05744E-03,  -1.73643E-03,   1.22918E-06
C:/temp/dataset/6/32_8.odb,Step-1,Increment      1: Step Time =    1.000,"PART-1-1",           545,      -10.9384,       9.05000,            0.,NA,NA,"",   7.31409E-03,  -7.11297E-03,  -1.70339E-03,   4.69545E-06
C:/temp/dataset/6/32_8.odb,Step-1,Increment      1: Step Time =    1.000,"PART-1-1",           546,      -9.86794,       8.06293,            0.,NA,NA,"",   7.35517E-03,  -7.14631E-03,  -1.74032E-03,   7.76632E-06
C:/temp/dataset/6/32_8.odb,Step-1,Increment      1: Step Time =    1.000,"PART-1-1",           547,      -7.23366,       1.29985,            0.,NA,NA,"",   7.68859E-03,  -7.51179E-03,  -1.63935E-03,   60.0338E-06
C:/temp/dataset/6/32_8.odb,Step-1,Increment      1: Step Time =    1.000,"PART-1-1",           548,      -8.34685,   784.410E-03,            0.,NA,NA,"",   7.75303E-03,  -7.58789E-03,  -1.59165E-03,   69.0412E-06
C:/temp/dataset/6/32_8.odb,Step-1,Increment      1: Step Time =    1.000,"PART-1-1",           549,      -7.43977,  -685.632E-03,            0.,NA,NA,"",   7.85825E-03,  -7.70423E-03,  -1.54824E-03,   67.2186E-06
C:/temp/dataset/6/32_8.odb,Step-1,Increment      1: Step Time =    1.000,"PART-1-1",           550,      -12.4903,      -8.57964,            0.,NA,NA,"",   6.72739E-03,  -6.42452E-03,  -1.99581E-03,   98.0874E-06
C:/temp/dataset/6/32_8.odb,Step-1,Increment      1: Step Time =    1.000,"PART-1-1",           551,          -15.,         -8.75,            0.,NA,NA,"",   6.85120E-03,  -6.33930E-03,  -2.59850E-03,   45.4161E-06
C:/temp/dataset/6/32_8.odb,Step-1,Increment      1: Step Time =    1.000,"PART-1-1",           552,      -13.5658,      -9.92286,            0.,NA,NA,"",   6.36299E-03,  -5.96291E-03,  -2.22065E-03,   66.5457E-06
C:/temp/dataset/6/32_8.odb,Step-1,Increment      1: Step Time =    1.000,"PART-1-1",           553,      -11.9783,      -7.15971,            0.,NA,NA,"",   7.12858E-03,  -6.87101E-03,  -1.89890E-03,   91.1454E-06
C:/temp/dataset/6/32_8.odb,Step-1,Increment      1: Step Time =    1.000,"PART-1-1",           554,      -11.8960,      -5.22799,            0.,NA,NA,"",   7.56600E-03,  -7.33788E-03,  -1.84388E-03,   61.2684E-06
C:/temp/dataset/6/32_8.odb,Step-1,Increment      1: Step Time =    1.000,"PART-1-1",           555,      -12.4565,      -16.3452,            0.,NA,NA,"",   4.03453E-03,  -3.72824E-03,  -1.54196E-03,   142.965E-06
C:/temp/dataset/6/32_8.odb,Step-1,Increment      1: Step Time =    1.000,"PART-1-1",           556,          -15.,        -16.25,            0.,NA,NA,"",   4.45263E-03,  -3.94800E-03,  -2.05894E-03,   186.653E-06
C:/temp/dataset/6/32_8.odb,Step-1,Increment      1: Step Time =    1.000,"PART-1-1",           557,      -13.7435,      -17.5611,            0.,NA,NA,"",   3.89953E-03,  -3.55900E-03,  -1.59370E-03,   176.864E-06
C:/temp/dataset/6/32_8.odb,Step-1,Increment      1: Step Time =    1.000,"PART-1-1",           558,      -9.99221,      -8.41662,            0.,NA,NA,"",   6.68791E-03,  -6.49330E-03,  -1.60162E-03,   140.029E-06
C:/temp/dataset/6/32_8.odb,Step-1,Increment      1: Step Time =    1.000,"PART-1-1",           559,      -11.4633,      -9.12095,            0.,NA,NA,"",   6.49936E-03,  -6.24141E-03,  -1.81288E-03,   124.227E-06
C:/temp/dataset/6/32_8.odb,Step-1,Increment      1: Step Time =    1.000,"PART-1-1",           560,      -10.8070,      -10.1141,            0.,NA,NA,"",   6.10666E-03,  -5.87218E-03,  -1.67595E-03,   137.070E-06
C:/temp/dataset/6/32_8.odb,Step-1,Increment      1: Step Time =    1.000,"PART-1-1",           561,      -13.9189,      -24.9166,            0.,NA,NA,"",   2.96207E-03,  -2.85079E-03,  -804.270E-06,   51.1083E-06
C:/temp/dataset/6/32_8.odb,Step-1,Increment      1: Step Time =    1.000,"PART-1-1",           562,      -12.9076,      -23.6273,            0.,NA,NA,"",   3.12253E-03,  -3.04682E-03,  -683.434E-06,   122.488E-06
C:/temp/dataset/6/32_8.odb,Step-1,Increment      1: Step Time =    1.000,"PART-1-1",           563,          -15.,        -23.75,            0.,NA,NA,"",   3.25114E-03,  -3.07666E-03,  -1.05077E-03,   25.3260E-06
C:/temp/dataset/6/32_8.odb,Step-1,Increment      1: Step Time =    1.000,"PART-1-1",           564,          -15.,        -28.75,            0.,NA,NA,"",   1.17758E-03,  -997.770E-06,  -625.418E-06,   470.300E-06
C:/temp/dataset/6/32_8.odb,Step-1,Increment      1: Step Time =    1.000,"PART-1-1",           565,        -13.75,          -30.,            0.,NA,NA,"",            0.,  -190.219E-42,  -531.641E-42,   600.404E-06
C:/temp/dataset/6/32_8.odb,Step-1,Increment      1: Step Time =    1.000,"PART-1-1",           566,      -13.7642,      -27.4123,            0.,NA,NA,"",   1.83404E-03,  -1.76810E-03,  -487.399E-06,   243.313E-06
C:/temp/dataset/6/32_8.odb,Step-1,Increment      1: Step Time =    1.000,"PART-1-1",           567,            5.,      -6.25625,            0.,NA,NA,"",   11.4966E-03,  -9.25851E-03,  -6.81553E-03,   560.388E-06
C:/temp/dataset/6/32_8.odb,Step-1,Increment      1: Step Time =    1.000,"PART-1-1",           568,       7.03347,      -6.11658,            0.,NA,NA,"",   11.7197E-03,  -9.57525E-03,  -6.75761E-03,   256.247E-06
C:/temp/dataset/6/32_8.odb,Step-1,Increment      1: Step Time =    1.000,"PART-1-1",           569,       6.04361,      -4.83741,            0.,NA,NA,"",   11.3765E-03,  -9.38776E-03,  -6.42614E-03,   328.659E-06
C:/temp/dataset/6/32_8.odb,Step-1,Increment      1: Step Time =    1.000,"PART-1-1",           570,           15.,      -2.65625,            0.,NA,NA,"",   10.9896E-03,  -8.98084E-03,  -6.33364E-03,   190.414E-06
C:/temp/dataset/6/32_8.odb,Step-1,Increment      1: Step Time =    1.000,"PART-1-1",           571,       12.8875,      -2.72454,            0.,NA,NA,"",   11.0042E-03,  -9.13197E-03,  -6.14009E-03,   165.364E-06
C:/temp/dataset/6/32_8.odb,Step-1,Increment      1: Step Time =    1.000,"PART-1-1",           572,       10.0248,      -7.91896,            0.,NA,NA,"",   11.5220E-03,  -9.63213E-03,  -6.32289E-03,   148.783E-06
C:/temp/dataset/6/32_8.odb,Step-1,Increment      1: Step Time =    1.000,"PART-1-1",           573,       8.98203,      -8.99604,            0.,NA,NA,"",   11.6234E-03,  -9.42211E-03,  -6.80633E-03,   197.680E-06
C:/temp/dataset/6/32_8.odb,Step-1,Increment      1: Step Time =    1.000,"PART-1-1",           574,       9.98204,      -10.2112,            0.,NA,NA,"",   11.1549E-03,  -9.12234E-03,  -6.41979E-03,   146.924E-06
C:/temp/dataset/6/32_8.odb,Step-1,Increment      1: Step Time =    1.000,"PART-1-1",           575,            5.,      -11.2813,            0.,NA,NA,"",   12.3304E-03,  -7.99334E-03,  -9.38861E-03,   630.211E-06
C:/temp/dataset/6/32_8.odb,Step-1,Increment      1: Step Time =    1.000,"PART-1-1",           576,       6.96001,      -11.3098,            0.,NA,NA,"",   11.8990E-03,  -8.44052E-03,  -8.38715E-03,   426.430E-06
C:/temp/dataset/6/32_8.odb,Step-1,Increment      1: Step Time =    1.000,"PART-1-1",           577,       12.1169,      -5.93459,            0.,NA,NA,"",   11.2620E-03,  -9.61916E-03,  -5.85707E-03,   193.869E-06
C:/temp/dataset/6/32_8.odb,Step-1,Increment      1: Step Time =    1.000,"PART-1-1",           578,       11.1088,      -6.97100,            0.,NA,NA,"",   11.3876E-03,  -9.67907E-03,  -5.99950E-03,   173.179E-06
C:/temp/dataset/6/32_8.odb,Step-1,Increment      1: Step Time =    1.000,"PART-1-1",           579,           15.,      -11.4063,            0.,NA,NA,"",   8.69626E-03,  -8.03362E-03,  -3.32955E-03,   547.554E-06
C:/temp/dataset/6/32_8.odb,Step-1,Increment      1: Step Time =    1.000,"PART-1-1",           580,       13.9991,      -10.3053,            0.,NA,NA,"",   9.73726E-03,  -8.74196E-03,  -4.28863E-03,   401.926E-06
C:/temp/dataset/6/32_8.odb,Step-1,Increment      1: Step Time =    1.000,"PART-1-1",           581,       12.9941,      -11.4223,            0.,NA,NA,"",   9.53224E-03,  -8.41237E-03,  -4.48282E-03,   312.260E-06
C:/temp/dataset/6/32_8.odb,Step-1,Increment      1: Step Time =    1.000,"PART-1-1",           582,           15.,      -9.21875,            0.,NA,NA,"",   9.90389E-03,  -8.90000E-03,  -4.34477E-03,   474.579E-06
C:/temp/dataset/6/32_8.odb,Step-1,Increment      1: Step Time =    1.000,"PART-1-1",           583,       9.25975,      -25.9916,            0.,NA,NA,"",   6.63575E-03,   5.72712E-03,  -3.35160E-03,   1.43012E-03
C:/temp/dataset/6/32_8.odb,Step-1,Increment      1: Step Time =    1.000,"PART-1-1",           584,       7.97004,      -27.0667,            0.,NA,NA,"",   5.92341E-03,   4.77833E-03,  -3.50064E-03,   1.90285E-03
C:/temp/dataset/6/32_8.odb,Step-1,Increment      1: Step Time =    1.000,"PART-1-1",           585,       9.98268,      -20.3187,            0.,NA,NA,"",   5.02879E-03,   1.22657E-03,  -4.87692E-03,   562.530E-06
C:/temp/dataset/6/32_8.odb,Step-1,Increment      1: Step Time =    1.000,"PART-1-1",           586,       8.47236,      -19.9740,            0.,NA,NA,"",   7.22107E-03,   281.465E-06,  -7.21558E-03,   575.597E-06
C:/temp/dataset/6/32_8.odb,Step-1,Increment      1: Step Time =    1.000,"PART-1-1",           587,       7.80775,      -21.2882,            0.,NA,NA,"",   8.80298E-03,   3.18654E-03,  -8.20600E-03,   463.705E-06
C:/temp/dataset/6/32_8.odb,Step-1,Increment      1: Step Time =    1.000,"PART-1-1",           588,       9.31806,      -21.6330,            0.,NA,NA,"",   6.38794E-03,   3.49033E-03,  -5.35008E-03,   482.582E-06
C:/temp/dataset/6/32_8.odb,Step-1,Increment      1: Step Time =    1.000,"PART-1-1",           589,          3.75,          -20.,            0.,NA,NA,"",   37.5550E-03,  -341.759E-06,  -37.5535E-03,   6.12160E-03
C:/temp/dataset/6/32_8.odb,Step-1,Increment      1: Step Time =    1.000,"PART-1-1",           590,       2.69482,      -20.9389,            0.,NA,NA,"",   35.4406E-03,   1.97656E-03,  -35.3854E-03,   7.76672E-03
C:/temp/dataset/6/32_8.odb,Step-1,Increment      1: Step Time =    1.000,"PART-1-1",           591,       4.10336,      -21.5712,            0.,NA,NA,"",   26.6299E-03,   4.81063E-03,  -26.1918E-03,   5.70203E-03
C:/temp/dataset/6/32_8.odb,Step-1,Increment      1: Step Time =    1.000,"PART-1-1",           592,       5.15854,      -20.6323,            0.,NA,NA,"",   20.1055E-03,   3.37669E-03,  -19.8199E-03,   4.10836E-03
C:/temp/dataset/6/32_8.odb,Step-1,Increment      1: Step Time =    1.000,"PART-1-1",           593,          1.25,          -20.,            0.,NA,NA,"",   38.9489E-03,   3.92695E-03,  -38.7504E-03,   6.57121E-03
C:/temp/dataset/6/32_8.odb,Step-1,Increment      1: Step Time =    1.000,"PART-1-1",           594,       1.58638,      -22.3782,            0.,NA,NA,"",   26.0778E-03,  -1.22774E-03,  -26.0489E-03,   6.48239E-03
C:/temp/dataset/6/32_8.odb,Step-1,Increment      1: Step Time =    1.000,"PART-1-1",           595,      -7.18878,      -21.5166,            0.,NA,NA,"",   2.64156E-03,  -2.60736E-03,  -423.725E-06,   241.061E-06
C:/temp/dataset/6/32_8.odb,Step-1,Increment      1: Step Time =    1.000,"PART-1-1",           596,      -8.69544,      -20.4918,            0.,NA,NA,"",   2.71160E-03,  -2.66117E-03,  -520.509E-06,   301.040E-06
C:/temp/dataset/6/32_8.odb,Step-1,Increment      1: Step Time =    1.000,"PART-1-1",           597,      -9.53108,      -21.9939,            0.,NA,NA,"",   2.97127E-03,  -2.95072E-03,  -348.859E-06,   193.421E-06
C:/temp/dataset/6/32_8.odb,Step-1,Increment      1: Step Time =    1.000,"PART-1-1",           598,      -8.02442,      -23.0186,            0.,NA,NA,"",   3.18278E-03,  -3.17464E-03,  -227.429E-06,   218.069E-06
C:/temp/dataset/6/32_8.odb,Step-1,Increment      1: Step Time =    1.000,"PART-1-1",           599,           -5.,      -18.7437,            0.,NA,NA,"",   2.52241E-03,  -2.37778E-03,  -841.853E-06,   579.592E-06
C:/temp/dataset/6/32_8.odb,Step-1,Increment      1: Step Time =    1.000,"PART-1-1",           600,      -6.23242,      -17.5731,            0.,NA,NA,"",   2.94835E-03,  -2.82803E-03,  -833.682E-06,   192.366E-06
C:/temp/dataset/6/32_8.odb,Step-1,Increment      1: Step Time =    1.000,"PART-1-1",           601,      -7.41830,      -18.9573,            0.,NA,NA,"",   2.52955E-03,  -2.37887E-03,  -860.002E-06,   291.346E-06
C:/temp/dataset/6/32_8.odb,Step-1,Increment      1: Step Time =    1.000,"PART-1-1",           602,      -6.18588,      -20.1280,            0.,NA,NA,"",   1.97252E-03,  -1.76421E-03,  -882.278E-06,   600.254E-06
C:/temp/dataset/6/32_8.odb,Step-1,Increment      1: Step Time =    1.000,"PART-1-1",           603,           -5.,      -16.2312,            0.,NA,NA,"",   3.51842E-03,  -3.50881E-03,  -259.951E-06,   127.791E-06
C:/temp/dataset/6/32_8.odb,Step-1,Increment      1: Step Time =    1.000,"PART-1-1",           604,      -7.44257,      -16.3835,            0.,NA,NA,"",   3.48623E-03,  -3.36350E-03,  -916.877E-06,   191.686E-06
C:/temp/dataset/6/32_8.odb,Step-1,Increment      1: Step Time =    1.000,"PART-1-1",           605,      -12.6830,      -26.0788,            0.,NA,NA,"",   2.49055E-03,  -2.45025E-03,  -446.233E-06,   223.151E-06
C:/temp/dataset/6/32_8.odb,Step-1,Increment      1: Step Time =    1.000,"PART-1-1",           606,          -15.,        -26.25,            0.,NA,NA,"",   2.66863E-03,  -2.43606E-03,  -1.08959E-03,   76.7650E-06
C:/temp/dataset/6/32_8.odb,Step-1,Increment      1: Step Time =    1.000,"PART-1-1",           607,         -8.75,          -30.,            0.,NA,NA,"",            0.,  -742.443E-42,  -583.061E-42,   830.665E-06
C:/temp/dataset/6/32_8.odb,Step-1,Increment      1: Step Time =    1.000,"PART-1-1",           608,          -15.,        -18.75,            0.,NA,NA,"",   3.83034E-03,  -3.48431E-03,  -1.59094E-03,   192.008E-06
C:/temp/dataset/6/32_8.odb,Step-1,Increment      1: Step Time =    1.000,"PART-1-1",           609,      -12.5734,      -18.8685,            0.,NA,NA,"",   3.48230E-03,  -3.26189E-03,  -1.21922E-03,   160.991E-06
C:/temp/dataset/6/32_8.odb,Step-1,Increment      1: Step Time =    1.000,"PART-1-1",           610,           -5.,      -11.2063,            0.,NA,NA,"",   5.32468E-03,  -5.31778E-03,  -271.022E-06,   60.3090E-06
C:/temp/dataset/6/32_8.odb,Step-1,Increment      1: Step Time =    1.000,"PART-1-1",           611,      -7.25264,      -11.4522,            0.,NA,NA,"",   5.36430E-03,  -5.28175E-03,  -937.464E-06,   111.359E-06
C:/temp/dataset/6/32_8.odb,Step-1,Increment      1: Step Time =    1.000,"PART-1-1",           612,           -5.,      -6.23750,            0.,NA,NA,"",   7.24175E-03,  -7.18036E-03,  -940.934E-06,   342.120E-06
C:/temp/dataset/6/32_8.odb,Step-1,Increment      1: Step Time =    1.000,"PART-1-1",           613,      -6.16987,      -5.46941,            0.,NA,NA,"",   7.74459E-03,  -7.63144E-03,  -1.31902E-03,   304.129E-06
C:/temp/dataset/6/32_8.odb,Step-1,Increment      1: Step Time =    1.000,"PART-1-1",           614,      -7.24309,      -6.98789,            0.,NA,NA,"",   7.13865E-03,  -7.01979E-03,  -1.29726E-03,   163.999E-06
C:/temp/dataset/6/32_8.odb,Step-1,Increment      1: Step Time =    1.000,"PART-1-1",           615,           -5.,       16.4583,            0.,NA,NA,"",   7.10137E-03,  -6.83719E-03,  -1.91896E-03,   323.193E-09
C:/temp/dataset/6/32_8.odb,Step-1,Increment      1: Step Time =    1.000,"PART-1-1",           616,      -7.23328,       16.4840,            0.,NA,NA,"",   7.07884E-03,  -6.83632E-03,  -1.83702E-03,   398.468E-09
C:/temp/dataset/6/32_8.odb,Step-1,Increment      1: Step Time =    1.000,"PART-1-1",           617,      -6.08867,       15.3700,            0.,NA,NA,"",   7.12956E-03,  -6.87759E-03,  -1.87866E-03,   407.765E-09
C:/temp/dataset/6/32_8.odb,Step-1,Increment      1: Step Time =    1.000,"PART-1-1",           618,      -13.1522,       16.1892,            0.,NA,NA,"",   7.03462E-03,  -6.84581E-03,  -1.61887E-03,   400.851E-09
C:/temp/dataset/6/32_8.odb,Step-1,Increment      1: Step Time =    1.000,"PART-1-1",           619,      -14.0864,       17.4486,            0.,NA,NA,"",   6.98184E-03,  -6.79968E-03,  -1.58441E-03,   149.550E-09
C:/temp/dataset/6/32_8.odb,Step-1,Increment      1: Step Time =    1.000,"PART-1-1",           620,          -15.,         16.25,            0.,NA,NA,"",   7.01717E-03,  -6.84372E-03,  -1.55056E-03,   350.587E-09
C:/temp/dataset/6/32_8.odb,Step-1,Increment      1: Step Time =    1.000,"PART-1-1",           621,           -5.,       24.7917,            0.,NA,NA,"",   6.80590E-03,  -6.52968E-03,  -1.91926E-03,   7.17936E-09
C:/temp/dataset/6/32_8.odb,Step-1,Increment      1: Step Time =    1.000,"PART-1-1",           622,      -6.14442,       25.7689,            0.,NA,NA,"",   6.75953E-03,  -6.49368E-03,  -1.87709E-03,   3.28850E-09
C:/temp/dataset/6/32_8.odb,Step-1,Increment      1: Step Time =    1.000,"PART-1-1",           623,           -5.,        26.875,            0.,NA,NA,"",   6.73230E-03,  -6.45293E-03,  -1.91925E-03,   3.21733E-09
C:/temp/dataset/6/32_8.odb,Step-1,Increment      1: Step Time =    1.000,"PART-1-1",           624,      -7.36924,       26.7689,            0.,NA,NA,"",   6.71169E-03,  -6.45684E-03,  -1.83197E-03,   3.15346E-09
C:/temp/dataset/6/32_8.odb,Step-1,Increment      1: Step Time =    1.000,"PART-1-1",           625,      -13.1175,       20.9132,            0.,NA,NA,"",   6.86633E-03,  -6.67243E-03,  -1.62023E-03,   39.6560E-09
C:/temp/dataset/6/32_8.odb,Step-1,Increment      1: Step Time =    1.000,"PART-1-1",           626,      -14.0212,       22.2867,            0.,NA,NA,"",   6.80940E-03,  -6.62189E-03,  -1.58696E-03,   6.26252E-09
C:/temp/dataset/6/32_8.odb,Step-1,Increment      1: Step Time =    1.000,"PART-1-1",           627,          -15.,         21.25,            0.,NA,NA,"",   6.83824E-03,  -6.66004E-03,  -1.55094E-03,   2.61957E-09
C:/temp/dataset/6/32_8.odb,Step-1,Increment      1: Step Time =    1.000,"PART-1-1",           628,      -14.0963,       19.8765,            0.,NA,NA,"",   6.89500E-03,  -6.71054E-03,  -1.58418E-03,   33.2074E-09
C:/temp/dataset/6/32_8.odb,Step-1,Increment      1: Step Time =    1.000,"PART-1-1",           629,         -1.25,           -5.,            0.,NA,NA,"",   9.41178E-03,  -8.89453E-03,  -3.07718E-03,   174.250E-06
C:/temp/dataset/6/32_8.odb,Step-1,Increment      1: Step Time =    1.000,"PART-1-1",           630,      -1.77292,      -3.03732,            0.,NA,NA,"",   8.65646E-03,  -8.21385E-03,  -2.73255E-03,   171.143E-06
C:/temp/dataset/6/32_8.odb,Step-1,Increment      1: Step Time =    1.000,"PART-1-1",           631,      -12.1053,      -2.30059,            0.,NA,NA,"",   7.85665E-03,  -7.65727E-03,  -1.75872E-03,   53.2559E-06
C:/temp/dataset/6/32_8.odb,Step-1,Increment      1: Step Time =    1.000,"PART-1-1",           632,      -10.7648,      -1.40855,            0.,NA,NA,"",   7.87727E-03,  -7.70454E-03,  -1.64057E-03,   51.4583E-06
C:/temp/dataset/6/32_8.odb,Step-1,Increment      1: Step Time =    1.000,"PART-1-1",           633,      -11.5438,  -354.672E-03,            0.,NA,NA,"",   7.84754E-03,  -7.66746E-03,  -1.67147E-03,   58.6585E-06
C:/temp/dataset/6/32_8.odb,Step-1,Increment      1: Step Time =    1.000,"PART-1-1",           634,          3.75,           -5.,            0.,NA,NA,"",   10.6892E-03,  -9.35616E-03,  -5.16929E-03,   114.448E-06
C:/temp/dataset/6/32_8.odb,Step-1,Increment      1: Step Time =    1.000,"PART-1-1",           635,       4.52066,      -3.83856,            0.,NA,NA,"",   10.5115E-03,  -8.89236E-03,  -5.60519E-03,   265.893E-06
C:/temp/dataset/6/32_8.odb,Step-1,Increment      1: Step Time =    1.000,"PART-1-1",           636,       2.94662,      -2.72704,            0.,NA,NA,"",   9.71490E-03,  -8.49705E-03,  -4.70950E-03,   142.601E-06
C:/temp/dataset/6/32_8.odb,Step-1,Increment      1: Step Time =    1.000,"PART-1-1",           637,       1.50395,       2.56821,            0.,NA,NA,"",   8.22757E-03,  -7.25945E-03,  -3.87211E-03,   102.967E-06
C:/temp/dataset/6/32_8.odb,Step-1,Increment      1: Step Time =    1.000,"PART-1-1",           638,          1.25,            5.,            0.,NA,NA,"",   7.57089E-03,  -6.58010E-03,  -3.74442E-03,   23.8770E-06
C:/temp/dataset/6/32_8.odb,Step-1,Increment      1: Step Time =    1.000,"PART-1-1",           639,          6.25,            5.,            0.,NA,NA,"",   8.75223E-03,  -6.98143E-03,  -5.27837E-03,   119.515E-06
C:/temp/dataset/6/32_8.odb,Step-1,Increment      1: Step Time =    1.000,"PART-1-1",           640,  -213.968E-03,      -26.0734,            0.,NA,NA,"",   9.10035E-03,  -3.67022E-03,  -8.32742E-03,   3.09461E-03
C:/temp/dataset/6/32_8.odb,Step-1,Increment      1: Step Time =    1.000,"PART-1-1",           641,       1.14210,      -23.8512,            0.,NA,NA,"",   18.4259E-03,  -2.30168E-03,  -18.2816E-03,   4.76344E-03
C:/temp/dataset/6/32_8.odb,Step-1,Increment      1: Step Time =    1.000,"PART-1-1",           642,  -234.527E-03,      -23.9674,            0.,NA,NA,"",   14.5517E-03,  -4.49915E-03,  -13.8387E-03,   3.92920E-03
C:/temp/dataset/6/32_8.odb,Step-1,Increment      1: Step Time =    1.000,"PART-1-1",           643,           -5.,        14.375,            0.,NA,NA,"",   7.17523E-03,  -6.91412E-03,  -1.91802E-03,   926.169E-09
C:/temp/dataset/6/32_8.odb,Step-1,Increment      1: Step Time =    1.000,"PART-1-1",           644,      -7.14364,       14.2292,            0.,NA,NA,"",   7.16036E-03,  -6.91981E-03,  -1.84036E-03,   789.523E-09
C:/temp/dataset/6/32_8.odb,Step-1,Increment      1: Step Time =    1.000,"PART-1-1",           645,           -5.,       6.04167,            0.,NA,NA,"",   7.38621E-03,  -7.13702E-03,  -1.90234E-03,   49.3091E-06
C:/temp/dataset/6/32_8.odb,Step-1,Increment      1: Step Time =    1.000,"PART-1-1",           646,      -5.82078,       6.95384,            0.,NA,NA,"",   7.38049E-03,  -7.13596E-03,  -1.88406E-03,   16.6358E-06
C:/temp/dataset/6/32_8.odb,Step-1,Increment      1: Step Time =    1.000,"PART-1-1",           647,      -6.45742,       5.85906,            0.,NA,NA,"",   7.37610E-03,  -7.13721E-03,  -1.86200E-03,   48.5677E-06
C:/temp/dataset/6/32_8.odb,Step-1,Increment      1: Step Time =    1.000,"PART-1-1",           648,      -5.63664,       4.94688,            0.,NA,NA,"",   7.33244E-03,  -7.08457E-03,  -1.89038E-03,   95.3153E-06
C:/temp/dataset/6/32_8.odb,Step-1,Increment      1: Step Time =    1.000,"PART-1-1",           649,           -5.,         8.125,            0.,NA,NA,"",   7.37216E-03,  -7.12352E-03,  -1.89848E-03,   4.71069E-06
C:/temp/dataset/6/32_8.odb,Step-1,Increment      1: Step Time =    1.000,"PART-1-1",           650,      -5.96903,       9.00386,            0.,NA,NA,"",   7.34492E-03,  -7.10104E-03,  -1.87701E-03,   2.65066E-06
C:/temp/dataset/6/32_8.odb,Step-1,Increment      1: Step Time =    1.000,"PART-1-1",           651,          -15.,         -3.75,            0.,NA,NA,"",   7.73183E-03,  -7.43213E-03,  -2.13183E-03,   125.253E-06
C:/temp/dataset/6/32_8.odb,Step-1,Increment      1: Step Time =    1.000,"PART-1-1",           652,      -12.7846,      -3.59401,            0.,NA,NA,"",   7.77509E-03,  -7.54486E-03,  -1.87804E-03,   54.6443E-06
C:/temp/dataset/6/32_8.odb,Step-1,Increment      1: Step Time =    1.000,"PART-1-1",           653,      -11.5430,      -4.20540,            0.,NA,NA,"",   7.72300E-03,  -7.51706E-03,  -1.77157E-03,   48.0528E-06
C:/temp/dataset/6/32_8.odb,Step-1,Increment      1: Step Time =    1.000,"PART-1-1",           654,      -10.1018,      -4.29084,            0.,NA,NA,"",   7.74013E-03,  -7.56630E-03,  -1.63114E-03,   62.4203E-06
C:/temp/dataset/6/32_8.odb,Step-1,Increment      1: Step Time =    1.000,"PART-1-1",           655,          -15.,        -11.25,            0.,NA,NA,"",   6.10014E-03,  -5.51313E-03,  -2.61095E-03,   38.6377E-06
C:/temp/dataset/6/32_8.odb,Step-1,Increment      1: Step Time =    1.000,"PART-1-1",           656,      -12.2331,      -11.1785,            0.,NA,NA,"",   5.80861E-03,  -5.49018E-03,  -1.89683E-03,   128.358E-06
C:/temp/dataset/6/32_8.odb,Step-1,Increment      1: Step Time =    1.000,"PART-1-1",           657,       5.21391,      -1.02834,            0.,NA,NA,"",   9.91854E-03,  -8.30171E-03,  -5.42761E-03,   167.194E-06
C:/temp/dataset/6/32_8.odb,Step-1,Increment      1: Step Time =    1.000,"PART-1-1",           658,       6.72319,      -1.59046,            0.,NA,NA,"",   10.4371E-03,  -8.61281E-03,  -5.89508E-03,   184.115E-06
C:/temp/dataset/6/32_8.odb,Step-1,Increment      1: Step Time =    1.000,"PART-1-1",           659,       10.9187,      -16.2245,            0.,NA,NA,"",   7.04746E-03,  -4.79564E-03,  -5.16416E-03,   325.879E-06
C:/temp/dataset/6/32_8.odb,Step-1,Increment      1: Step Time =    1.000,"PART-1-1",           660,       11.9858,      -14.8752,            0.,NA,NA,"",   7.46737E-03,  -6.03271E-03,  -4.40092E-03,   286.969E-06
C:/temp/dataset/6/32_8.odb,Step-1,Increment      1: Step Time =    1.000,"PART-1-1",           661,       10.9746,      -13.7451,            0.,NA,NA,"",   9.08490E-03,  -7.17820E-03,  -5.56857E-03,   184.533E-06
C:/temp/dataset/6/32_8.odb,Step-1,Increment      1: Step Time =    1.000,"PART-1-1",           662,       11.9830,      -12.5543,            0.,NA,NA,"",   9.30743E-03,  -7.90081E-03,  -4.91990E-03,   231.976E-06
C:/temp/dataset/6/32_8.odb,Step-1,Increment      1: Step Time =    1.000,"PART-1-1",           663,           15.,      -20.1563,            0.,NA,NA,"",   1.49893E-03,   1.46117E-03,   334.298E-06,   42.2201E-06
C:/temp/dataset/6/32_8.odb,Step-1,Increment      1: Step Time =    1.000,"PART-1-1",           664,       14.0841,      -19.1367,            0.,NA,NA,"",   961.128E-06,  -84.8759E-06,  -957.373E-06,   305.694E-06
C:/temp/dataset/6/32_8.odb,Step-1,Increment      1: Step Time =    1.000,"PART-1-1",           665,       13.0385,      -20.2889,            0.,NA,NA,"",   2.42267E-03,   1.56529E-03,  -1.84911E-03,   430.817E-06
C:/temp/dataset/6/32_8.odb,Step-1,Increment      1: Step Time =    1.000,"PART-1-1",           666,           15.,      -17.9688,            0.,NA,NA,"",   1.66171E-03,  -1.65994E-03,  -76.7436E-06,   350.764E-06
C:/temp/dataset/6/32_8.odb,Step-1,Increment      1: Step Time =    1.000,"PART-1-1",           667,          1.25,          -30.,            0.,NA,NA,"",            0.,  -472.846E-42,  -4.50104E-39,   2.41954E-03
C:/temp/dataset/6/32_8.odb,Step-1,Increment      1: Step Time =    1.000,"PART-1-1",           668,       3.30543,      -22.6598,            0.,NA,NA,"",   24.9537E-03,   3.27264E-03,  -24.7382E-03,   6.39044E-03
C:/temp/dataset/6/32_8.odb,Step-1,Increment      1: Step Time =    1.000,"PART-1-1",           669,       2.86115,      -24.1329,            0.,NA,NA,"",   18.3127E-03,   1.60713E-03,  -18.2421E-03,   4.87875E-03
C:/temp/dataset/6/32_8.odb,Step-1,Increment      1: Step Time =    1.000,"PART-1-1",           670,      -10.6801,      -21.6169,            0.,NA,NA,"",   3.03834E-03,  -2.99226E-03,  -527.130E-06,   201.762E-06
C:/temp/dataset/6/32_8.odb,Step-1,Increment      1: Step Time =    1.000,"PART-1-1",           671,      -11.3394,      -20.4213,            0.,NA,NA,"",   3.12865E-03,  -3.02458E-03,  -800.229E-06,   202.863E-06
C:/temp/dataset/6/32_8.odb,Step-1,Increment      1: Step Time =    1.000,"PART-1-1",           672,      -12.1593,      -22.4638,            0.,NA,NA,"",   3.15837E-03,  -3.08813E-03,  -662.373E-06,   166.819E-06
C:/temp/dataset/6/32_8.odb,Step-1,Increment      1: Step Time =    1.000,"PART-1-1",           673,      -9.92443,      -16.4516,            0.,NA,NA,"",   3.70119E-03,  -3.50348E-03,  -1.19351E-03,   178.364E-06
C:/temp/dataset/6/32_8.odb,Step-1,Increment      1: Step Time =    1.000,"PART-1-1",           674,      -8.71114,      -17.7111,            0.,NA,NA,"",   3.16369E-03,  -3.00684E-03,  -983.791E-06,   223.615E-06
C:/temp/dataset/6/32_8.odb,Step-1,Increment      1: Step Time =    1.000,"PART-1-1",           675,      -9.25100,      -7.50767,            0.,NA,NA,"",   6.97842E-03,  -6.81024E-03,  -1.52280E-03,   142.549E-06
C:/temp/dataset/6/32_8.odb,Step-1,Increment      1: Step Time =    1.000,"PART-1-1",           676,      -8.32615,      -6.25855,            0.,NA,NA,"",   7.36741E-03,  -7.22257E-03,  -1.45367E-03,   151.398E-06
C:/temp/dataset/6/32_8.odb,Step-1,Increment      1: Step Time =    1.000,"PART-1-1",           677,      -7.58018,      -5.09368,            0.,NA,NA,"",   7.72518E-03,  -7.59149E-03,  -1.43098E-03,   146.031E-06
C:/temp/dataset/6/32_8.odb,Step-1,Increment      1: Step Time =    1.000,"PART-1-1",           678,      -6.67379,      -3.84489,            0.,NA,NA,"",   7.97159E-03,  -7.84604E-03,  -1.40921E-03,   136.209E-06
C:/temp/dataset/6/32_8.odb,Step-1,Increment      1: Step Time =    1.000,"PART-1-1",           679,      -2.40491,      -1.03021,            0.,NA,NA,"",   8.16829E-03,  -7.78705E-03,  -2.46635E-03,   140.945E-06
C:/temp/dataset/6/32_8.odb,Step-1,Increment      1: Step Time =    1.000,"PART-1-1",           680,      -3.32453,      -2.14711,            0.,NA,NA,"",   8.18481E-03,  -7.89865E-03,  -2.14533E-03,   171.475E-06
C:/temp/dataset/6/32_8.odb,Step-1,Increment      1: Step Time =    1.000,"PART-1-1",           681,       10.4745,      -24.8101,            0.,NA,NA,"",   6.60678E-03,   5.93716E-03,  -2.89820E-03,   797.878E-06
C:/temp/dataset/6/32_8.odb,Step-1,Increment      1: Step Time =    1.000,"PART-1-1",           682,       8.16019,      -23.0435,            0.,NA,NA,"",   8.91666E-03,   5.62788E-03,  -6.91620E-03,   1.08539E-03
C:/temp/dataset/6/32_8.odb,Step-1,Increment      1: Step Time =    1.000,"PART-1-1",           683,       9.40124,      -23.8494,            0.,NA,NA,"",   7.36975E-03,   5.84842E-03,  -4.48434E-03,   958.834E-06
C:/temp/dataset/6/32_8.odb,Step-1,Increment      1: Step Time =    1.000,"PART-1-1",           684,       5.67200,      -27.0943,            0.,NA,NA,"",   6.75261E-03,   3.78696E-03,  -5.59077E-03,   2.76056E-03
C:/temp/dataset/6/32_8.odb,Step-1,Increment      1: Step Time =    1.000,"PART-1-1",           685,       4.86106,      -26.0050,            0.,NA,NA,"",   9.97278E-03,   3.92503E-03,  -9.16790E-03,   3.29760E-03
C:/temp/dataset/6/32_8.odb,Step-1,Increment      1: Step Time =    1.000,"PART-1-1",           686,      -2.55341,      -23.8484,            0.,NA,NA,"",   8.42679E-03,  -5.40990E-03,  -6.46095E-03,   1.93754E-03
C:/temp/dataset/6/32_8.odb,Step-1,Increment      1: Step Time =    1.000,"PART-1-1",           687,      -4.82130,      -23.8875,            0.,NA,NA,"",   4.90419E-03,  -4.46949E-03,  -2.01861E-03,   706.774E-06
C:/temp/dataset/6/32_8.odb,Step-1,Increment      1: Step Time =    1.000,"PART-1-1",           688,      -5.84083,      -25.1777,            0.,NA,NA,"",   4.40702E-03,  -4.26610E-03,  -1.10551E-03,   745.711E-06
C:/temp/dataset/6/32_8.odb,Step-1,Increment      1: Step Time =    1.000,"PART-1-1",           689,           15.,      -26.7188,            0.,NA,NA,"",   5.30536E-03,   5.00734E-03,  -1.75312E-03,   162.117E-06
C:/temp/dataset/6/32_8.odb,Step-1,Increment      1: Step Time =    1.000,"PART-1-1",           690,       10.9874,      -11.4075,            0.,NA,NA,"",   10.3805E-03,  -8.61880E-03,  -5.78536E-03,   154.615E-06
C:/temp/dataset/6/32_8.odb,Step-1,Increment      1: Step Time =    1.000,"PART-1-1",           691,       7.29436,      -19.7763,            0.,NA,NA,"",   9.94350E-03,  -671.294E-06,  -9.92081E-03,   628.512E-06
C:/temp/dataset/6/32_8.odb,Step-1,Increment      1: Step Time =    1.000,"PART-1-1",           692,       7.78340,      -18.7858,            0.,NA,NA,"",   9.29602E-03,  -2.18043E-03,  -9.03669E-03,   673.674E-06
C:/temp/dataset/6/32_8.odb,Step-1,Increment      1: Step Time =    1.000,"PART-1-1",           693,       10.8970,      -2.99004,            0.,NA,NA,"",   11.1027E-03,  -9.23174E-03,  -6.16802E-03,   174.056E-06
C:/temp/dataset/6/32_8.odb,Step-1,Increment      1: Step Time =    1.000,"PART-1-1",           694,       12.0828,      -3.88727,            0.,NA,NA,"",   11.1726E-03,  -9.38742E-03,  -6.05834E-03,   175.994E-06
C:/temp/dataset/6/32_8.odb,Step-1,Increment      1: Step Time =    1.000,"PART-1-1",           695,           15.,       1.71875,            0.,NA,NA,"",   10.4981E-03,  -8.06134E-03,  -6.72495E-03,   35.4872E-06
C:/temp/dataset/6/32_8.odb,Step-1,Increment      1: Step Time =    1.000,"PART-1-1",           696,       4.00043,  -427.215E-03,            0.,NA,NA,"",   9.44843E-03,  -8.04834E-03,  -4.94945E-03,   147.189E-06
C:/temp/dataset/6/32_8.odb,Step-1,Increment      1: Step Time =    1.000,"PART-1-1",           697,       2.09609,       1.00148,            0.,NA,NA,"",   8.67195E-03,  -7.61871E-03,  -4.14222E-03,   129.796E-06
C:/temp/dataset/6/32_8.odb,Step-1,Increment      1: Step Time =    1.000,"PART-1-1",           698,       2.38138,  -554.063E-03,            0.,NA,NA,"",   9.05793E-03,  -7.95772E-03,  -4.32675E-03,   152.463E-06
C:/temp/dataset/6/32_8.odb,Step-1,Increment      1: Step Time =    1.000,"PART-1-1",           699,   35.7305E-03,       2.11113,            0.,NA,NA,"",   8.04080E-03,  -7.31872E-03,  -3.33029E-03,   112.840E-06
C:/temp/dataset/6/32_8.odb,Step-1,Increment      1: Step Time =    1.000,"PART-1-1",           700,           -5.,       10.2083,            0.,NA,NA,"",   7.31573E-03,  -7.06193E-03,  -1.91027E-03,   4.04787E-06
C:/temp/dataset/6/32_8.odb,Step-1,Increment      1: Step Time =    1.000,"PART-1-1",           701,      -6.99901,       9.90050,            0.,NA,NA,"",   7.31068E-03,  -7.07380E-03,  -1.84592E-03,   1.48944E-06
C:/temp/dataset/6/32_8.odb,Step-1,Increment      1: Step Time =    1.000,"PART-1-1",           702,      -11.2396,       16.2208,            0.,NA,NA,"",   7.05049E-03,  -6.84497E-03,  -1.68994E-03,   454.557E-09
C:/temp/dataset/6/32_8.odb,Step-1,Increment      1: Step Time =    1.000,"PART-1-1",           703,      -10.2112,       15.1096,            0.,NA,NA,"",   7.09978E-03,  -6.88618E-03,  -1.72845E-03,   602.149E-09
C:/temp/dataset/6/32_8.odb,Step-1,Increment      1: Step Time =    1.000,"PART-1-1",           704,      -9.25876,       16.3324,            0.,NA,NA,"",   7.06499E-03,  -6.84149E-03,  -1.76298E-03,   455.181E-09
C:/temp/dataset/6/32_8.odb,Step-1,Increment      1: Step Time =    1.000,"PART-1-1",           705,      -10.2871,       17.4437,            0.,NA,NA,"",   7.01560E-03,  -6.80026E-03,  -1.72485E-03,   258.066E-09
C:/temp/dataset/6/32_8.odb,Step-1,Increment      1: Step Time =    1.000,"PART-1-1",           706,      -8.19479,       15.2434,            0.,NA,NA,"",   7.11411E-03,  -6.88205E-03,  -1.80219E-03,   542.794E-09
C:/temp/dataset/6/32_8.odb,Step-1,Increment      1: Step Time =    1.000,"PART-1-1",           707,      -9.19446,       14.0222,            0.,NA,NA,"",   7.14841E-03,  -6.92672E-03,  -1.76643E-03,   849.940E-09
C:/temp/dataset/6/32_8.odb,Step-1,Increment      1: Step Time =    1.000,"PART-1-1",           708,      -8.14331,       13.0080,            0.,NA,NA,"",   7.19461E-03,  -6.96452E-03,  -1.80496E-03,   917.835E-09
C:/temp/dataset/6/32_8.odb,Step-1,Increment      1: Step Time =    1.000,"PART-1-1",           709,          -15.,         18.75,            0.,NA,NA,"",   6.92777E-03,  -6.75194E-03,  -1.55090E-03,   75.5889E-09
C:/temp/dataset/6/32_8.odb,Step-1,Increment      1: Step Time =    1.000,"PART-1-1",           710,      -13.1826,       18.5751,            0.,NA,NA,"",   6.94929E-03,  -6.75835E-03,  -1.61782E-03,   145.497E-09
C:/temp/dataset/6/32_8.odb,Step-1,Increment      1: Step Time =    1.000,"PART-1-1",           711,      -11.2313,       23.3702,            0.,NA,NA,"",   6.79544E-03,  -6.58201E-03,  -1.68970E-03,   9.78036E-09
C:/temp/dataset/6/32_8.odb,Step-1,Increment      1: Step Time =    1.000,"PART-1-1",           712,      -10.8173,       24.9058,            0.,NA,NA,"",   6.74452E-03,  -6.52546E-03,  -1.70495E-03,   2.91843E-09
C:/temp/dataset/6/32_8.odb,Step-1,Increment      1: Step Time =    1.000,"PART-1-1",           713,      -13.5418,       24.7667,            0.,NA,NA,"",   6.72482E-03,  -6.53058E-03,  -1.60461E-03,   3.13521E-09
C:/temp/dataset/6/32_8.odb,Step-1,Increment      1: Step Time =    1.000,"PART-1-1",           714,      -12.2278,       25.9824,            0.,NA,NA,"",   6.69314E-03,  -6.48581E-03,  -1.65300E-03,   2.73506E-09
C:/temp/dataset/6/32_8.odb,Step-1,Increment      1: Step Time =    1.000,"PART-1-1",           715,          -15.,         26.25,            0.,NA,NA,"",   6.65907E-03,  -6.47595E-03,  -1.55091E-03,   4.15053E-09
C:/temp/dataset/6/32_8.odb,Step-1,Increment      1: Step Time =    1.000,"PART-1-1",           716,          -15.,         23.75,            0.,NA,NA,"",   6.74864E-03,  -6.56802E-03,  -1.55092E-03,   7.69572E-09
C:/temp/dataset/6/32_8.odb,Step-1,Increment      1: Step Time =    1.000,"PART-1-1",           717,      -12.5630,       23.3034,            0.,NA,NA,"",   6.78579E-03,  -6.58447E-03,  -1.64065E-03,   6.34896E-09
C:/temp/dataset/6/32_8.odb,Step-1,Increment      1: Step Time =    1.000,"PART-1-1",           718,      -11.1827,       13.8735,            0.,NA,NA,"",   7.13495E-03,  -6.93118E-03,  -1.69302E-03,   810.510E-09
C:/temp/dataset/6/32_8.odb,Step-1,Increment      1: Step Time =    1.000,"PART-1-1",           719,      -10.1659,       12.7861,            0.,NA,NA,"",   7.18352E-03,  -6.97168E-03,  -1.73166E-03,   1.00167E-06
C:/temp/dataset/6/32_8.odb,Step-1,Increment      1: Step Time =    1.000,"PART-1-1",           720,      -11.4858,       20.4947,            0.,NA,NA,"",   6.89573E-03,  -6.68786E-03,  -1.68036E-03,   65.1002E-09
C:/temp/dataset/6/32_8.odb,Step-1,Increment      1: Step Time =    1.000,"PART-1-1",           721,      -10.4732,       19.7487,            0.,NA,NA,"",   6.93159E-03,  -6.71538E-03,  -1.71771E-03,   86.3972E-09
C:/temp/dataset/6/32_8.odb,Step-1,Increment      1: Step Time =    1.000,"PART-1-1",           722,      -10.9778,       21.7959,            0.,NA,NA,"",   6.85392E-03,  -6.63999E-03,  -1.69905E-03,   26.4595E-09
C:/temp/dataset/6/32_8.odb,Step-1,Increment      1: Step Time =    1.000,"PART-1-1",           723,      -9.13796,       11.7463,            0.,NA,NA,"",   7.23023E-03,  -7.01017E-03,  -1.77021E-03,   992.256E-09
C:/temp/dataset/6/32_8.odb,Step-1,Increment      1: Step Time =    1.000,"PART-1-1",           724,      -11.1090,       11.4975,            0.,NA,NA,"",   7.22144E-03,  -7.01916E-03,  -1.69722E-03,   863.509E-09
C:/temp/dataset/6/32_8.odb,Step-1,Increment      1: Step Time =    1.000,"PART-1-1",           725,      -7.95801,       5.48811,            0.,NA,NA,"",   7.41892E-03,  -7.20318E-03,  -1.77612E-03,   45.3657E-06
C:/temp/dataset/6/32_8.odb,Step-1,Increment      1: Step Time =    1.000,"PART-1-1",           726,      -9.27172,       5.51676,            0.,NA,NA,"",   7.44821E-03,  -7.24471E-03,  -1.72917E-03,   33.3398E-06
C:/temp/dataset/6/32_8.odb,Step-1,Increment      1: Step Time =    1.000,"PART-1-1",           727,      -9.10783,       4.19071,            0.,NA,NA,"",   7.51316E-03,  -7.31861E-03,  -1.69866E-03,   53.9191E-06
C:/temp/dataset/6/32_8.odb,Step-1,Increment      1: Step Time =    1.000,"PART-1-1",           728,      -7.79412,       4.16207,            0.,NA,NA,"",   7.47116E-03,  -7.26598E-03,  -1.73888E-03,   62.1057E-06
C:/temp/dataset/6/32_8.odb,Step-1,Increment      1: Step Time =    1.000,"PART-1-1",           729,      -10.3652,   710.465E-03,            0.,NA,NA,"",   7.78755E-03,  -7.61683E-03,  -1.62166E-03,   62.8156E-06
C:/temp/dataset/6/32_8.odb,Step-1,Increment      1: Step Time =    1.000,"PART-1-1",           730,      -11.5756,       2.14983,            0.,NA,NA,"",   7.70175E-03,  -7.52226E-03,  -1.65305E-03,   54.3778E-06
C:/temp/dataset/6/32_8.odb,Step-1,Increment      1: Step Time =    1.000,"PART-1-1",           731,      -10.9514,      -7.70102,            0.,NA,NA,"",   6.95027E-03,  -6.72592E-03,  -1.75163E-03,   115.118E-06
C:/temp/dataset/6/32_8.odb,Step-1,Increment      1: Step Time =    1.000,"PART-1-1",           732,      -11.1587,      -15.1039,            0.,NA,NA,"",   4.27086E-03,  -4.01083E-03,  -1.46748E-03,   151.348E-06
C:/temp/dataset/6/32_8.odb,Step-1,Increment      1: Step Time =    1.000,"PART-1-1",           733,      -11.0422,      -12.5823,            0.,NA,NA,"",   5.18442E-03,  -4.92711E-03,  -1.61302E-03,   143.916E-06
C:/temp/dataset/6/32_8.odb,Step-1,Increment      1: Step Time =    1.000,"PART-1-1",           734,      -9.98828,      -19.2456,            0.,NA,NA,"",   3.01955E-03,  -2.90647E-03,  -818.614E-06,   210.211E-06
C:/temp/dataset/6/32_8.odb,Step-1,Increment      1: Step Time =    1.000,"PART-1-1",           735,      -11.2222,      -17.6929,            0.,NA,NA,"",   3.51113E-03,  -3.30005E-03,  -1.19903E-03,   177.304E-06
C:/temp/dataset/6/32_8.odb,Step-1,Increment      1: Step Time =    1.000,"PART-1-1",           736,      -9.72809,       26.4627,            0.,NA,NA,"",   6.69939E-03,  -6.46812E-03,  -1.74507E-03,   2.23748E-09
C:/temp/dataset/6/32_8.odb,Step-1,Increment      1: Step Time =    1.000,"PART-1-1",           737,      -8.07960,       10.7858,            0.,NA,NA,"",   7.27282E-03,  -7.04434E-03,  -1.80864E-03,   958.867E-09
C:/temp/dataset/6/32_8.odb,Step-1,Increment      1: Step Time =    1.000,"PART-1-1",           738,      -11.3320,       18.4953,            0.,NA,NA,"",   6.96848E-03,  -6.76141E-03,  -1.68614E-03,   187.999E-09
C:/temp/dataset/6/32_8.odb,Step-1,Increment      1: Step Time =    1.000,"PART-1-1",           739,      -10.4893,       6.32554,            0.,NA,NA,"",   7.42803E-03,  -7.22979E-03,  -1.70462E-03,   23.4308E-06
C:/temp/dataset/6/32_8.odb,Step-1,Increment      1: Step Time =    1.000,"PART-1-1",           740,      -11.8356,       7.66802,            0.,NA,NA,"",   7.36806E-03,  -7.17699E-03,  -1.66710E-03,   7.61701E-06
C:/temp/dataset/6/32_8.odb,Step-1,Increment      1: Step Time =    1.000,"PART-1-1",           741,      -11.4125,       4.87054,            0.,NA,NA,"",   7.51508E-03,  -7.32808E-03,  -1.66602E-03,   31.1866E-06
C:/temp/dataset/6/32_8.odb,Step-1,Increment      1: Step Time =    1.000,"PART-1-1",           742,       10.1911,      -5.79504,            0.,NA,NA,"",   11.5109E-03,  -9.67285E-03,  -6.23986E-03,   169.105E-06
C:/temp/dataset/6/32_8.odb,Step-1,Increment      1: Step Time =    1.000,"PART-1-1",           743,       9.10708,      -6.74300,            0.,NA,NA,"",   11.6785E-03,  -9.68688E-03,  -6.52319E-03,   177.954E-06
C:/temp/dataset/6/32_8.odb,Step-1,Increment      1: Step Time =    1.000,"PART-1-1",           744,       11.1638,      -4.94873,            0.,NA,NA,"",   11.3473E-03,  -9.57441E-03,  -6.09031E-03,   181.300E-06
C:/temp/dataset/6/32_8.odb,Step-1,Increment      1: Step Time =    1.000,"PART-1-1",           745,       10.4293,      -4.08570,            0.,NA,NA,"",   11.3008E-03,  -9.45009E-03,  -6.19708E-03,   179.992E-06
C:/temp/dataset/6/32_8.odb,Step-1,Increment      1: Step Time =    1.000,"PART-1-1",           746,       9.97038,      -14.8971,            0.,NA,NA,"",   9.03129E-03,  -6.33985E-03,  -6.43199E-03,   177.454E-06
C:/temp/dataset/6/32_8.odb,Step-1,Increment      1: Step Time =    1.000,"PART-1-1",           747,       9.96577,      -12.5508,            0.,NA,NA,"",   10.3487E-03,  -8.05247E-03,  -6.50032E-03,   143.007E-06
C:/temp/dataset/6/32_8.odb,Step-1,Increment      1: Step Time =    1.000,"PART-1-1",           748,       8.96159,      -13.7029,            0.,NA,NA,"",   10.4502E-03,  -7.33424E-03,  -7.44415E-03,   216.002E-06
C:/temp/dataset/6/32_8.odb,Step-1,Increment      1: Step Time =    1.000,"PART-1-1",           749,       6.92617,      -22.4012,            0.,NA,NA,"",   11.8472E-03,   5.54398E-03,  -10.4700E-03,   1.82066E-03
C:/temp/dataset/6/32_8.odb,Step-1,Increment      1: Step Time =    1.000,"PART-1-1",           750,       5.94981,      -23.5281,            0.,NA,NA,"",   13.9495E-03,   6.13146E-03,  -12.5297E-03,   3.04302E-03
C:/temp/dataset/6/32_8.odb,Step-1,Increment      1: Step Time =    1.000,"PART-1-1",           751,       7.18383,      -24.1705,            0.,NA,NA,"",   10.3618E-03,   6.25639E-03,  -8.25979E-03,   2.08960E-03
C:/temp/dataset/6/32_8.odb,Step-1,Increment      1: Step Time =    1.000,"PART-1-1",           752,       11.0968,      -20.2176,            0.,NA,NA,"",   3.89721E-03,   1.22217E-03,  -3.70062E-03,   538.468E-06
C:/temp/dataset/6/32_8.odb,Step-1,Increment      1: Step Time =    1.000,"PART-1-1",           753,       6.43355,      -20.8801,            0.,NA,NA,"",   12.8655E-03,   2.78168E-03,  -12.5611E-03,   1.63299E-03
C:/temp/dataset/6/32_8.odb,Step-1,Increment      1: Step Time =    1.000,"PART-1-1",           754,       8.96045,      -11.3546,            0.,NA,NA,"",   11.2144E-03,  -8.64816E-03,  -7.13942E-03,   215.913E-06
C:/temp/dataset/6/32_8.odb,Step-1,Increment      1: Step Time =    1.000,"PART-1-1",           755,       8.17216,      -2.03287,            0.,NA,NA,"",   10.7894E-03,  -8.88054E-03,  -6.12764E-03,   178.510E-06
C:/temp/dataset/6/32_8.odb,Step-1,Increment      1: Step Time =    1.000,"PART-1-1",           756,       9.68046,      -2.49017,            0.,NA,NA,"",   11.0026E-03,  -9.09122E-03,  -6.19736E-03,   177.153E-06
C:/temp/dataset/6/32_8.odb,Step-1,Increment      1: Step Time =    1.000,"PART-1-1",           757,      -5.24373,       2.94722,            0.,NA,NA,"",   7.48855E-03,  -7.25161E-03,  -1.86882E-03,   42.3476E-06
C:/temp/dataset/6/32_8.odb,Step-1,Increment      1: Step Time =    1.000,"PART-1-1",           758,      -6.20341,       3.93450,            0.,NA,NA,"",   7.41668E-03,  -7.19253E-03,  -1.80960E-03,   72.8251E-06
C:/temp/dataset/6/32_8.odb,Step-1,Increment      1: Step Time =    1.000,"PART-1-1",           759,       7.87036,      -17.0650,            0.,NA,NA,"",   10.1890E-03,  -4.57596E-03,  -9.10363E-03,   563.118E-06
C:/temp/dataset/6/32_8.odb,Step-1,Increment      1: Step Time =    1.000,"PART-1-1",           760,      -8.77165,      -4.61616,            0.,NA,NA,"",   7.73946E-03,  -7.58964E-03,  -1.51543E-03,   99.1911E-06
C:/temp/dataset/6/32_8.odb,Step-1,Increment      1: Step Time =    1.000,"PART-1-1",           761,       8.90402,      -15.9271,            0.,NA,NA,"",   9.40797E-03,  -5.51377E-03,  -7.62288E-03,   307.814E-06
C:/temp/dataset/6/32_8.odb,Step-1,Increment      1: Step Time =    1.000,"PART-1-1",           762,       7.94609,      -14.8939,            0.,NA,NA,"",   10.8158E-03,  -6.44208E-03,  -8.68800E-03,   382.708E-06
C:/temp/dataset/6/32_8.odb,Step-1,Increment      1: Step Time =    1.000,"PART-1-1",           763,      -12.3095,       21.7291,            0.,NA,NA,"",   6.84429E-03,  -6.64242E-03,  -1.64999E-03,   22.3727E-09
C:/temp/dataset/6/32_8.odb,Step-1,Increment      1: Step Time =    1.000,"PART-1-1",           764,      -12.2938,       19.6789,            0.,NA,NA,"",   6.91764E-03,  -6.71783E-03,  -1.65059E-03,   76.8594E-09
C:/temp/dataset/6/32_8.odb,Step-1,Increment      1: Step Time =    1.000,"PART-1-1",           765,       3.72209,      -1.78065,            0.,NA,NA,"",   9.69286E-03,  -8.32987E-03,  -4.95630E-03,   165.622E-06
C:/temp/dataset/6/32_8.odb,Step-1,Increment      1: Step Time =    1.000,"PART-1-1",           766,       6.45852,      -3.38063,            0.,NA,NA,"",   10.9507E-03,  -9.05076E-03,  -6.16463E-03,   235.741E-06
C:/temp/dataset/6/32_8.odb,Step-1,Increment      1: Step Time =    1.000,"PART-1-1",           767,       4.93556,      -2.38177,            0.,NA,NA,"",   10.2034E-03,  -8.58057E-03,  -5.52111E-03,   203.601E-06
C:/temp/dataset/6/32_8.odb,Step-1,Increment      1: Step Time =    1.000,"PART-1-1",           768,      -2.94024,   945.156E-03,            0.,NA,NA,"",   7.83987E-03,  -7.48863E-03,  -2.32033E-03,   93.8237E-06
C:/temp/dataset/6/32_8.odb,Step-1,Increment      1: Step Time =    1.000,"PART-1-1",           769,      -1.69279,      -25.0756,            0.,NA,NA,"",   9.08713E-03,  -5.17562E-03,  -7.46920E-03,   2.49874E-03
C:/temp/dataset/6/32_8.odb,Step-1,Increment      1: Step Time =    1.000,"PART-1-1",           770,      -6.93923,      -23.9860,            0.,NA,NA,"",   3.70910E-03,  -3.67795E-03,  -479.690E-06,   343.712E-06
C:/temp/dataset/6/32_8.odb,Step-1,Increment      1: Step Time =    1.000,"PART-1-1",           771,      -5.91970,      -22.6959,            0.,NA,NA,"",   3.46669E-03,  -3.36327E-03,  -840.450E-06,   301.521E-06
C:/temp/dataset/6/32_8.odb,Step-1,Increment      1: Step Time =    1.000,"PART-1-1",           772,      -12.2208,       17.3915,            0.,NA,NA,"",   6.99990E-03,  -6.80183E-03,  -1.65339E-03,   233.661E-09
C:/temp/dataset/6/32_8.odb,Step-1,Increment      1: Step Time =    1.000,"PART-1-1",           773,      -12.0398,       10.1961,            0.,NA,NA,"",   7.26224E-03,  -7.06956E-03,  -1.66176E-03,   970.082E-09
C:/temp/dataset/6/32_8.odb,Step-1,Increment      1: Step Time =    1.000,"PART-1-1",           774,      -10.8637,      -2.91198,            0.,NA,NA,"",   7.84902E-03,  -7.66875E-03,  -1.67253E-03,   42.9013E-06
C:/temp/dataset/6/32_8.odb,Step-1,Increment      1: Step Time =    1.000,"PART-1-1",           775,      -9.61620,      -11.5179,            0.,NA,NA,"",   5.49259E-03,  -5.30727E-03,  -1.41472E-03,   153.345E-06
C:/temp/dataset/6/32_8.odb,Step-1,Increment      1: Step Time =    1.000,"PART-1-1",           776,      -11.8201,      -24.5932,            0.,NA,NA,"",   2.94465E-03,  -2.91495E-03,  -417.173E-06,   120.005E-06
C:/temp/dataset/6/32_8.odb,Step-1,Increment      1: Step Time =    1.000,"PART-1-1",           777,      -11.0718,      -23.4296,            0.,NA,NA,"",   3.08121E-03,  -3.05696E-03,  -385.791E-06,   139.186E-06
C:/temp/dataset/6/32_8.odb,Step-1,Increment      1: Step Time =    1.000,"PART-1-1",           778,       4.75405,      -23.0816,            0.,NA,NA,"",   18.6572E-03,   5.43503E-03,  -17.8480E-03,   4.23063E-03
C:/temp/dataset/6/32_8.odb,Step-1,Increment      1: Step Time =    1.000,"PART-1-1",           779,       5.55198,      -21.9930,            0.,NA,NA,"",   17.5476E-03,   5.72580E-03,  -16.5871E-03,   3.54004E-03
C:/temp/dataset/6/32_8.odb,Step-1,Increment      1: Step Time =    1.000,"PART-1-1",           780,       7.01336,      -26.0950,            0.,NA,NA,"",   8.00087E-03,   5.39737E-03,  -5.90613E-03,   2.30133E-03
C:/temp/dataset/6/32_8.odb,Step-1,Increment      1: Step Time =    1.000,"PART-1-1",           781,       4.10189,      -23.9882,            0.,NA,NA,"",   17.3229E-03,   4.14471E-03,  -16.8198E-03,   4.56235E-03
C:/temp/dataset/6/32_8.odb,Step-1,Increment      1: Step Time =    1.000,"PART-1-1",           782,       4.14804,      -25.2051,            0.,NA,NA,"",   13.0340E-03,   3.52409E-03,  -12.5486E-03,   3.92116E-03
C:/temp/dataset/6/32_8.odb,Step-1,Increment      1: Step Time =    1.000,"PART-1-1",           783,      -12.1264,       12.6156,            0.,NA,NA,"",   7.17158E-03,  -6.97733E-03,  -1.65785E-03,   882.042E-09
C:/temp/dataset/6/32_8.odb,Step-1,Increment      1: Step Time =    1.000,"PART-1-1",           784,      -12.1709,       15.0185,            0.,NA,NA,"",   7.08497E-03,  -6.88883E-03,  -1.65555E-03,   554.992E-09
C:/temp/dataset/6/32_8.odb,Step-1,Increment      1: Step Time =    1.000,"PART-1-1",           785,      -10.3060,       3.43341,            0.,NA,NA,"",   7.59287E-03,  -7.40872E-03,  -1.66210E-03,   51.5826E-06
C:/temp/dataset/6/32_8.odb,Step-1,Increment      1: Step Time =    1.000,"PART-1-1",           786,      -9.35047,  -311.861E-03,            0.,NA,NA,"",   7.84044E-03,  -7.68007E-03,  -1.57769E-03,   65.4169E-06
C:/temp/dataset/6/32_8.odb,Step-1,Increment      1: Step Time =    1.000,"PART-1-1",           787,      -9.47746,      -1.56252,            0.,NA,NA,"",   7.89037E-03,  -7.73340E-03,  -1.56603E-03,   60.6892E-06
C:/temp/dataset/6/32_8.odb,Step-1,Increment      1: Step Time =    1.000,"PART-1-1",           788,      -7.56677,      -1.93629,            0.,NA,NA,"",   7.92276E-03,  -7.78059E-03,  -1.49413E-03,   69.4707E-06
C:/temp/dataset/6/32_8.odb,Step-1,Increment      1: Step Time =    1.000,"PART-1-1",           789,      -9.57637,      -3.06595,            0.,NA,NA,"",   7.86940E-03,  -7.71081E-03,  -1.57191E-03,   55.1133E-06
C:/temp/dataset/6/32_8.odb,Step-1,Increment      1: Step Time =    1.000,"PART-1-1",           790,      -8.24618,      -3.39128,            0.,NA,NA,"",   7.89943E-03,  -7.75948E-03,  -1.48039E-03,   87.5489E-06
C:/temp/dataset/6/32_8.odb,Step-1,Increment      1: Step Time =    1.000,"PART-1-1",           791,       7.98922,      -7.69035,            0.,NA,NA,"",   11.8152E-03,  -9.56417E-03,  -6.93720E-03,   244.424E-06
C:/temp/dataset/6/32_8.odb,Step-1,Increment      1: Step Time =    1.000,"PART-1-1",           792,       7.96586,      -10.1263,            0.,NA,NA,"",   11.7282E-03,  -9.03119E-03,  -7.48260E-03,   294.049E-06
C:/temp/dataset/6/32_8.odb,Step-1,Increment      1: Step Time =    1.000,"PART-1-1",           793,       7.95460,      -12.5381,            0.,NA,NA,"",   11.3806E-03,  -7.99043E-03,  -8.10381E-03,   324.321E-06
C:/temp/dataset/6/32_8.odb,Step-1,Increment      1: Step Time =    1.000,"PART-1-1",           794,      -6.90534,       4.84567,            0.,NA,NA,"",   7.40540E-03,  -7.18176E-03,  -1.80619E-03,   66.8572E-06
C:/temp/dataset/6/32_8.odb,Step-1,Increment      1: Step Time =    1.000,"PART-1-1",           795,      -7.09219,       3.25090,            0.,NA,NA,"",   7.50425E-03,  -7.30240E-03,  -1.72878E-03,   66.5775E-06
C:/temp/dataset/6/32_8.odb,Step-1,Increment      1: Step Time =    1.000,"PART-1-1",           796,      -5.99438,      -2.38990,            0.,NA,NA,"",   7.99028E-03,  -7.84230E-03,  -1.53066E-03,   114.173E-06
C:/temp/dataset/6/32_8.odb,Step-1,Increment      1: Step Time =    1.000,"PART-1-1",           797,      -8.16339,       2.56404,            0.,NA,NA,"",   7.59819E-03,  -7.41445E-03,  -1.66082E-03,   68.9593E-06
C:/temp/dataset/6/32_8.odb,Step-1,Increment      1: Step Time =    1.000,"PART-1-1",           798,      -6.16245,       1.98671,            0.,NA,NA,"",   7.60266E-03,  -7.40067E-03,  -1.74083E-03,   51.9892E-06
C:/temp/dataset/6/32_8.odb,Step-1,Increment      1: Step Time =    1.000,"PART-1-1",           799,      -9.36160,       1.80674,            0.,NA,NA,"",   7.69227E-03,  -7.51870E-03,  -1.62490E-03,   67.1136E-06
C:/temp/dataset/6/32_8.odb,Step-1,Increment      1: Step Time =    1.000,"PART-1-1",           800,      -4.18828,       1.89018,            0.,NA,NA,"",   7.63960E-03,  -7.36459E-03,  -2.03134E-03,   53.9011E-06
C:/temp/dataset/6/32_8.odb,Step-1,Increment      1: Step Time =    1.000,"PART-1-1",           801,      -2.02478,       2.01876,            0.,NA,NA,"",   7.77306E-03,  -7.32067E-03,  -2.61309E-03,   97.2051E-06
C:/temp/dataset/6/32_8.odb,Step-1,Increment      1: Step Time =    1.000,"PART-1-1",           802,       5.29765,      -24.4346,            0.,NA,NA,"",   13.6025E-03,   5.39461E-03,  -12.4871E-03,   3.44720E-03
C:/temp/dataset/6/32_8.odb,Step-1,Increment      1: Step Time =    1.000,"PART-1-1",           803,       8.18651,      -25.0309,            0.,NA,NA,"",   8.23241E-03,   6.14936E-03,  -5.47338E-03,   1.61520E-03
C:/temp/dataset/6/32_8.odb,Step-1,Increment      1: Step Time =    1.000,"PART-1-1",           804,       6.01068,      -25.2345,            0.,NA,NA,"",   10.6237E-03,   5.48932E-03,  -9.09564E-03,   2.83769E-03
