ODB Name,Step,Frame,Part Instance Name,    êﬂì_ÉâÉxÉã,X,Y,Z,Section Name,Material Name,Section Point,   U-Magnitude,          U-U1,          U-U2,       S-Mises
C:/temp/dataset/6/6_18.odb,Step-1,Increment      1: Step Time =    1.000,"PART-1-1",             1,            5.,           -5.,            0.,NA,NA,"",   172.475E-03,   47.6528E-03,  -165.762E-03,   15.0948E-03
C:/temp/dataset/6/6_18.odb,Step-1,Increment      1: Step Time =    1.000,"PART-1-1",             2,            0.,           -5.,            0.,NA,NA,"",   204.996E-03,  -5.48450E-03,  -204.923E-03,   11.9596E-03
C:/temp/dataset/6/6_18.odb,Step-1,Increment      1: Step Time =    1.000,"PART-1-1",             3,            5.,      -10.0250,            0.,NA,NA,"",   117.709E-03,   59.1749E-03,  -101.753E-03,   10.6526E-03
C:/temp/dataset/6/6_18.odb,Step-1,Increment      1: Step Time =    1.000,"PART-1-1",             4,            5.,      -15.0500,            0.,NA,NA,"",   74.7338E-03,   46.3770E-03,  -58.6030E-03,   8.35318E-03
C:/temp/dataset/6/6_18.odb,Step-1,Increment      1: Step Time =    1.000,"PART-1-1",             5,            5.,          -20.,            0.,NA,NA,"",   30.9845E-03,   19.9073E-03,  -23.7432E-03,   5.91054E-03
C:/temp/dataset/6/6_18.odb,Step-1,Increment      1: Step Time =    1.000,"PART-1-1",             6,            0.,          -20.,            0.,NA,NA,"",   4.34394E-03,   2.40892E-03,  -3.61481E-03,   3.19889E-03
C:/temp/dataset/6/6_18.odb,Step-1,Increment      1: Step Time =    1.000,"PART-1-1",             7,           -5.,          -20.,            0.,NA,NA,"",   19.1884E-03,  -13.5110E-03,  -13.6253E-03,   3.91716E-03
C:/temp/dataset/6/6_18.odb,Step-1,Increment      1: Step Time =    1.000,"PART-1-1",             8,           -5.,      -14.9750,            0.,NA,NA,"",   50.8244E-03,  -34.8318E-03,  -37.0117E-03,   5.94596E-03
C:/temp/dataset/6/6_18.odb,Step-1,Increment      1: Step Time =    1.000,"PART-1-1",             9,           -5.,      -9.95000,            0.,NA,NA,"",   80.6569E-03,  -41.9739E-03,  -68.8748E-03,   8.06159E-03
C:/temp/dataset/6/6_18.odb,Step-1,Increment      1: Step Time =    1.000,"PART-1-1",            10,           -5.,           -5.,            0.,NA,NA,"",   124.526E-03,  -34.8502E-03,  -119.550E-03,   13.1868E-03
C:/temp/dataset/6/6_18.odb,Step-1,Increment      1: Step Time =    1.000,"PART-1-1",            11,           15.,          -30.,            0.,NA,NA,"",            0.,   3.42523E-39,  -5.97265E-39,   11.6578E-03
C:/temp/dataset/6/6_18.odb,Step-1,Increment      1: Step Time =    1.000,"PART-1-1",            12,          -15.,          -30.,            0.,NA,NA,"",            0.,  -2.19280E-39,  -3.79024E-39,   7.20947E-03
C:/temp/dataset/6/6_18.odb,Step-1,Increment      1: Step Time =    1.000,"PART-1-1",            13,           15.,        -21.25,            0.,NA,NA,"",   70.2565E-03,   41.3984E-03,  -56.7640E-03,   5.89961E-03
C:/temp/dataset/6/6_18.odb,Step-1,Increment      1: Step Time =    1.000,"PART-1-1",            14,           15.,         -12.5,            0.,NA,NA,"",   117.702E-03,   79.4269E-03,  -86.8632E-03,   1.67173E-03
C:/temp/dataset/6/6_18.odb,Step-1,Increment      1: Step Time =    1.000,"PART-1-1",            15,           15.,         -3.75,            0.,NA,NA,"",   110.642E-03,   65.4480E-03,  -89.2085E-03,   426.588E-06
C:/temp/dataset/6/6_18.odb,Step-1,Increment      1: Step Time =    1.000,"PART-1-1",            16,           15.,            5.,            0.,NA,NA,"",   86.2612E-03,  -9.90934E-03,  -85.6901E-03,   58.6248E-06
C:/temp/dataset/6/6_18.odb,Step-1,Increment      1: Step Time =    1.000,"PART-1-1",            17,           10.,            5.,            0.,NA,NA,"",   139.225E-03,  -11.9961E-03,  -138.707E-03,   926.496E-06
C:/temp/dataset/6/6_18.odb,Step-1,Increment      1: Step Time =    1.000,"PART-1-1",            18,            5.,            5.,            0.,NA,NA,"",   236.372E-03,  -9.98195E-03,  -236.161E-03,   10.9047E-03
C:/temp/dataset/6/6_18.odb,Step-1,Increment      1: Step Time =    1.000,"PART-1-1",            19,            0.,            5.,            0.,NA,NA,"",   248.320E-03,   46.3966E-03,  -243.948E-03,   12.9812E-03
C:/temp/dataset/6/6_18.odb,Step-1,Increment      1: Step Time =    1.000,"PART-1-1",            20,           -5.,            5.,            0.,NA,NA,"",   155.335E-03,   60.1749E-03,  -143.206E-03,   1.48864E-03
C:/temp/dataset/6/6_18.odb,Step-1,Increment      1: Step Time =    1.000,"PART-1-1",            21,           -5.,         11.25,            0.,NA,NA,"",   194.453E-03,   133.770E-03,  -141.130E-03,   22.4473E-06
C:/temp/dataset/6/6_18.odb,Step-1,Increment      1: Step Time =    1.000,"PART-1-1",            22,           -5.,          17.5,            0.,NA,NA,"",   250.982E-03,   207.239E-03,  -141.577E-03,   3.26484E-06
C:/temp/dataset/6/6_18.odb,Step-1,Increment      1: Step Time =    1.000,"PART-1-1",            23,           -5.,         23.75,            0.,NA,NA,"",   314.683E-03,   280.815E-03,  -142.016E-03,   172.266E-09
C:/temp/dataset/6/6_18.odb,Step-1,Increment      1: Step Time =    1.000,"PART-1-1",            24,           -5.,           30.,            0.,NA,NA,"",   381.950E-03,   354.393E-03,  -142.450E-03,   1.10655E-09
C:/temp/dataset/6/6_18.odb,Step-1,Increment      1: Step Time =    1.000,"PART-1-1",            25,          -10.,           30.,            0.,NA,NA,"",   364.454E-03,   354.739E-03,  -83.5875E-03,   5.84916E-09
C:/temp/dataset/6/6_18.odb,Step-1,Increment      1: Step Time =    1.000,"PART-1-1",            26,          -15.,           30.,            0.,NA,NA,"",   355.946E-03,   355.086E-03,  -24.7257E-03,   5.21573E-09
C:/temp/dataset/6/6_18.odb,Step-1,Increment      1: Step Time =    1.000,"PART-1-1",            27,          -15.,          22.5,            0.,NA,NA,"",   267.890E-03,   266.794E-03,  -24.2056E-03,   350.860E-09
C:/temp/dataset/6/6_18.odb,Step-1,Increment      1: Step Time =    1.000,"PART-1-1",            28,          -15.,           15.,            0.,NA,NA,"",   180.050E-03,   178.487E-03,  -23.6698E-03,   5.49315E-06
C:/temp/dataset/6/6_18.odb,Step-1,Increment      1: Step Time =    1.000,"PART-1-1",            29,          -15.,           7.5,            0.,NA,NA,"",   92.8836E-03,   89.8905E-03,  -23.3893E-03,   173.854E-06
C:/temp/dataset/6/6_18.odb,Step-1,Increment      1: Step Time =    1.000,"PART-1-1",            30,          -15.,            0.,            0.,NA,NA,"",   28.0141E-03,   4.87933E-03,  -27.5859E-03,   1.40521E-03
C:/temp/dataset/6/6_18.odb,Step-1,Increment      1: Step Time =    1.000,"PART-1-1",            31,          -15.,          -7.5,            0.,NA,NA,"",   65.2006E-03,  -50.1284E-03,  -41.6925E-03,   2.29711E-03
C:/temp/dataset/6/6_18.odb,Step-1,Increment      1: Step Time =    1.000,"PART-1-1",            32,          -15.,          -15.,            0.,NA,NA,"",   69.0006E-03,  -49.5100E-03,  -48.0607E-03,   756.279E-06
C:/temp/dataset/6/6_18.odb,Step-1,Increment      1: Step Time =    1.000,"PART-1-1",            33,          -15.,         -22.5,            0.,NA,NA,"",   39.1765E-03,  -23.5346E-03,  -31.3197E-03,   3.91271E-03
C:/temp/dataset/6/6_18.odb,Step-1,Increment      1: Step Time =    1.000,"PART-1-1",            34,           2.5,           -5.,            0.,NA,NA,"",   208.522E-03,   23.4909E-03,  -207.194E-03,   13.3180E-03
C:/temp/dataset/6/6_18.odb,Step-1,Increment      1: Step Time =    1.000,"PART-1-1",            35,            5.,      -7.51250,            0.,NA,NA,"",   140.150E-03,   58.5469E-03,  -127.335E-03,   13.1459E-03
C:/temp/dataset/6/6_18.odb,Step-1,Increment      1: Step Time =    1.000,"PART-1-1",            36,            5.,      -12.5375,            0.,NA,NA,"",   95.9860E-03,   54.8725E-03,  -78.7548E-03,   9.51128E-03
C:/temp/dataset/6/6_18.odb,Step-1,Increment      1: Step Time =    1.000,"PART-1-1",            37,            5.,      -17.5250,            0.,NA,NA,"",   54.2063E-03,   35.1228E-03,  -41.2882E-03,   7.47239E-03
C:/temp/dataset/6/6_18.odb,Step-1,Increment      1: Step Time =    1.000,"PART-1-1",            38,           2.5,          -20.,            0.,NA,NA,"",   12.9481E-03,   10.3701E-03,  -7.75328E-03,   4.05776E-03
C:/temp/dataset/6/6_18.odb,Step-1,Increment      1: Step Time =    1.000,"PART-1-1",            39,          -2.5,          -20.,            0.,NA,NA,"",   6.66568E-03,  -4.80485E-03,  -4.62003E-03,   3.29502E-03
C:/temp/dataset/6/6_18.odb,Step-1,Increment      1: Step Time =    1.000,"PART-1-1",            40,           -5.,      -17.4875,            0.,NA,NA,"",   36.0444E-03,  -26.2353E-03,  -24.7165E-03,   4.99359E-03
C:/temp/dataset/6/6_18.odb,Step-1,Increment      1: Step Time =    1.000,"PART-1-1",            41,           -5.,      -12.4625,            0.,NA,NA,"",   65.5206E-03,  -40.3332E-03,  -51.6351E-03,   7.02498E-03
C:/temp/dataset/6/6_18.odb,Step-1,Increment      1: Step Time =    1.000,"PART-1-1",            42,           -5.,      -7.47500,            0.,NA,NA,"",   96.4631E-03,  -39.9164E-03,  -87.8169E-03,   9.99203E-03
C:/temp/dataset/6/6_18.odb,Step-1,Increment      1: Step Time =    1.000,"PART-1-1",            43,          -2.5,           -5.,            0.,NA,NA,"",   177.967E-03,  -28.4189E-03,  -175.684E-03,   7.84544E-03
C:/temp/dataset/6/6_18.odb,Step-1,Increment      1: Step Time =    1.000,"PART-1-1",            44,          12.5,          -30.,            0.,NA,NA,"",            0.,   4.14170E-39,  -10.2839E-39,   4.73437E-03
C:/temp/dataset/6/6_18.odb,Step-1,Increment      1: Step Time =    1.000,"PART-1-1",            45,           10.,          -30.,            0.,NA,NA,"",            0.,  -1.41954E-39,  -6.88683E-39,   3.99889E-03
C:/temp/dataset/6/6_18.odb,Step-1,Increment      1: Step Time =    1.000,"PART-1-1",            46,           7.5,          -30.,            0.,NA,NA,"",            0.,  -1.56672E-39,  -5.37470E-39,   2.89385E-03
C:/temp/dataset/6/6_18.odb,Step-1,Increment      1: Step Time =    1.000,"PART-1-1",            47,            5.,          -30.,            0.,NA,NA,"",            0.,  -260.557E-42,  -3.43163E-39,   1.99578E-03
C:/temp/dataset/6/6_18.odb,Step-1,Increment      1: Step Time =    1.000,"PART-1-1",            48,           2.5,          -30.,            0.,NA,NA,"",            0.,  -302.319E-42,  -1.61626E-39,   1.18128E-03
C:/temp/dataset/6/6_18.odb,Step-1,Increment      1: Step Time =    1.000,"PART-1-1",            49,            0.,          -30.,            0.,NA,NA,"",            0.,  -617.226E-42,  -962.466E-42,   542.429E-06
C:/temp/dataset/6/6_18.odb,Step-1,Increment      1: Step Time =    1.000,"PART-1-1",            50,          -2.5,          -30.,            0.,NA,NA,"",            0.,   434.715E-42,  -1.03189E-39,   522.695E-06
C:/temp/dataset/6/6_18.odb,Step-1,Increment      1: Step Time =    1.000,"PART-1-1",            51,           -5.,          -30.,            0.,NA,NA,"",            0.,   885.468E-42,  -2.05545E-39,   1.02449E-03
C:/temp/dataset/6/6_18.odb,Step-1,Increment      1: Step Time =    1.000,"PART-1-1",            52,          -7.5,          -30.,            0.,NA,NA,"",            0.,   1.06596E-39,  -3.39156E-39,   1.63498E-03
C:/temp/dataset/6/6_18.odb,Step-1,Increment      1: Step Time =    1.000,"PART-1-1",            53,          -10.,          -30.,            0.,NA,NA,"",            0.,  -1.52080E-39,  -4.51196E-39,   2.37663E-03
C:/temp/dataset/6/6_18.odb,Step-1,Increment      1: Step Time =    1.000,"PART-1-1",            54,         -12.5,          -30.,            0.,NA,NA,"",            0.,  -1.14201E-39,  -5.50010E-39,   2.96218E-03
C:/temp/dataset/6/6_18.odb,Step-1,Increment      1: Step Time =    1.000,"PART-1-1",            55,           15.,      -23.4375,            0.,NA,NA,"",   54.4056E-03,   31.4515E-03,  -44.3933E-03,   6.58768E-03
C:/temp/dataset/6/6_18.odb,Step-1,Increment      1: Step Time =    1.000,"PART-1-1",            56,           15.,       -25.625,            0.,NA,NA,"",   38.4814E-03,   22.6703E-03,  -31.0946E-03,   6.82026E-03
C:/temp/dataset/6/6_18.odb,Step-1,Increment      1: Step Time =    1.000,"PART-1-1",            57,           15.,      -27.8125,            0.,NA,NA,"",   22.4902E-03,   14.1309E-03,  -17.4965E-03,   8.01810E-03
C:/temp/dataset/6/6_18.odb,Step-1,Increment      1: Step Time =    1.000,"PART-1-1",            58,           15.,      -14.6875,            0.,NA,NA,"",   109.898E-03,   72.5189E-03,  -82.5742E-03,   2.71618E-03
C:/temp/dataset/6/6_18.odb,Step-1,Increment      1: Step Time =    1.000,"PART-1-1",            59,           15.,       -16.875,            0.,NA,NA,"",   98.8921E-03,   63.0963E-03,  -76.1479E-03,   3.82803E-03
C:/temp/dataset/6/6_18.odb,Step-1,Increment      1: Step Time =    1.000,"PART-1-1",            60,           15.,      -19.0625,            0.,NA,NA,"",   85.4003E-03,   52.3057E-03,  -67.5080E-03,   4.94501E-03
C:/temp/dataset/6/6_18.odb,Step-1,Increment      1: Step Time =    1.000,"PART-1-1",            61,           15.,       -5.9375,            0.,NA,NA,"",   117.587E-03,   75.8821E-03,  -89.8260E-03,   244.942E-06
C:/temp/dataset/6/6_18.odb,Step-1,Increment      1: Step Time =    1.000,"PART-1-1",            62,           15.,        -8.125,            0.,NA,NA,"",   121.593E-03,   81.7442E-03,  -90.0151E-03,   109.600E-06
C:/temp/dataset/6/6_18.odb,Step-1,Increment      1: Step Time =    1.000,"PART-1-1",            63,           15.,      -10.3125,            0.,NA,NA,"",   121.710E-03,   82.7838E-03,  -89.2192E-03,   769.512E-06
C:/temp/dataset/6/6_18.odb,Step-1,Increment      1: Step Time =    1.000,"PART-1-1",            64,           15.,        2.8125,            0.,NA,NA,"",   86.7301E-03,   12.2474E-03,  -85.8610E-03,   392.891E-06
C:/temp/dataset/6/6_18.odb,Step-1,Increment      1: Step Time =    1.000,"PART-1-1",            65,           15.,      625.E-03,            0.,NA,NA,"",   93.0989E-03,   33.1403E-03,  -87.0008E-03,   706.581E-06
C:/temp/dataset/6/6_18.odb,Step-1,Increment      1: Step Time =    1.000,"PART-1-1",            66,           15.,       -1.5625,            0.,NA,NA,"",   101.967E-03,   51.0520E-03,  -88.2667E-03,   628.164E-06
C:/temp/dataset/6/6_18.odb,Step-1,Increment      1: Step Time =    1.000,"PART-1-1",            67,          12.5,            5.,            0.,NA,NA,"",   111.270E-03,  -10.1241E-03,  -110.809E-03,   478.624E-06
C:/temp/dataset/6/6_18.odb,Step-1,Increment      1: Step Time =    1.000,"PART-1-1",            68,           7.5,            5.,            0.,NA,NA,"",   174.856E-03,  -12.1077E-03,  -174.436E-03,   2.66920E-03
C:/temp/dataset/6/6_18.odb,Step-1,Increment      1: Step Time =    1.000,"PART-1-1",            69,           2.5,            5.,            0.,NA,NA,"",   279.172E-03,   16.3221E-03,  -278.695E-03,   21.3849E-03
C:/temp/dataset/6/6_18.odb,Step-1,Increment      1: Step Time =    1.000,"PART-1-1",            70,          -2.5,            5.,            0.,NA,NA,"",   192.641E-03,   55.4488E-03,  -184.489E-03,   4.36956E-03
C:/temp/dataset/6/6_18.odb,Step-1,Increment      1: Step Time =    1.000,"PART-1-1",            71,           -5.,       9.16667,            0.,NA,NA,"",   178.527E-03,   109.381E-03,  -141.095E-03,   98.2291E-06
C:/temp/dataset/6/6_18.odb,Step-1,Increment      1: Step Time =    1.000,"PART-1-1",            72,           -5.,       7.08333,            0.,NA,NA,"",   164.896E-03,   85.0989E-03,  -141.240E-03,   447.621E-06
C:/temp/dataset/6/6_18.odb,Step-1,Increment      1: Step Time =    1.000,"PART-1-1",            73,           -5.,       15.4167,            0.,NA,NA,"",   231.059E-03,   182.723E-03,  -141.424E-03,   4.98961E-06
C:/temp/dataset/6/6_18.odb,Step-1,Increment      1: Step Time =    1.000,"PART-1-1",            74,           -5.,       13.3333,            0.,NA,NA,"",   212.115E-03,   158.225E-03,  -141.271E-03,   4.71872E-06
C:/temp/dataset/6/6_18.odb,Step-1,Increment      1: Step Time =    1.000,"PART-1-1",            75,           -5.,       21.6667,            0.,NA,NA,"",   292.936E-03,   256.289E-03,  -141.871E-03,   504.701E-09
C:/temp/dataset/6/6_18.odb,Step-1,Increment      1: Step Time =    1.000,"PART-1-1",            76,           -5.,       19.5833,            0.,NA,NA,"",   271.662E-03,   231.763E-03,  -141.725E-03,   1.41787E-06
C:/temp/dataset/6/6_18.odb,Step-1,Increment      1: Step Time =    1.000,"PART-1-1",            77,           -5.,       27.9167,            0.,NA,NA,"",   359.253E-03,   329.867E-03,  -142.305E-03,   4.94853E-09
C:/temp/dataset/6/6_18.odb,Step-1,Increment      1: Step Time =    1.000,"PART-1-1",            78,           -5.,       25.8333,            0.,NA,NA,"",   336.813E-03,   305.341E-03,  -142.161E-03,   26.7821E-09
C:/temp/dataset/6/6_18.odb,Step-1,Increment      1: Step Time =    1.000,"PART-1-1",            79,          -7.5,           30.,            0.,NA,NA,"",   372.143E-03,   354.566E-03,  -113.019E-03,   5.45092E-09
C:/temp/dataset/6/6_18.odb,Step-1,Increment      1: Step Time =    1.000,"PART-1-1",            80,         -12.5,           30.,            0.,NA,NA,"",   359.021E-03,   354.913E-03,  -54.1566E-03,   7.70817E-09
C:/temp/dataset/6/6_18.odb,Step-1,Increment      1: Step Time =    1.000,"PART-1-1",            81,          -15.,           25.,            0.,NA,NA,"",   297.226E-03,   296.224E-03,  -24.3792E-03,   82.2700E-09
C:/temp/dataset/6/6_18.odb,Step-1,Increment      1: Step Time =    1.000,"PART-1-1",            82,          -15.,          27.5,            0.,NA,NA,"",   326.579E-03,   325.655E-03,  -24.5525E-03,   13.3577E-09
C:/temp/dataset/6/6_18.odb,Step-1,Increment      1: Step Time =    1.000,"PART-1-1",            83,          -15.,          17.5,            0.,NA,NA,"",   209.294E-03,   207.930E-03,  -23.8529E-03,   3.24964E-06
C:/temp/dataset/6/6_18.odb,Step-1,Increment      1: Step Time =    1.000,"PART-1-1",            84,          -15.,           20.,            0.,NA,NA,"",   238.577E-03,   237.363E-03,  -24.0308E-03,   1.23304E-06
C:/temp/dataset/6/6_18.odb,Step-1,Increment      1: Step Time =    1.000,"PART-1-1",            85,          -15.,           10.,            0.,NA,NA,"",   121.737E-03,   119.477E-03,  -23.3479E-03,   40.2485E-06
C:/temp/dataset/6/6_18.odb,Step-1,Increment      1: Step Time =    1.000,"PART-1-1",            86,          -15.,          12.5,            0.,NA,NA,"",   150.853E-03,   149.013E-03,  -23.4875E-03,   2.61495E-06
C:/temp/dataset/6/6_18.odb,Step-1,Increment      1: Step Time =    1.000,"PART-1-1",            87,          -15.,           2.5,            0.,NA,NA,"",   40.5649E-03,   31.7935E-03,  -25.1931E-03,   883.511E-06
C:/temp/dataset/6/6_18.odb,Step-1,Increment      1: Step Time =    1.000,"PART-1-1",            88,          -15.,            5.,            0.,NA,NA,"",   65.0107E-03,   60.4613E-03,  -23.8919E-03,   459.264E-06
C:/temp/dataset/6/6_18.odb,Step-1,Increment      1: Step Time =    1.000,"PART-1-1",            89,          -15.,           -5.,            0.,NA,NA,"",   52.4073E-03,  -37.8090E-03,  -36.2906E-03,   2.39388E-03
C:/temp/dataset/6/6_18.odb,Step-1,Increment      1: Step Time =    1.000,"PART-1-1",            90,          -15.,          -2.5,            0.,NA,NA,"",   36.5738E-03,  -18.9394E-03,  -31.2880E-03,   2.00917E-03
C:/temp/dataset/6/6_18.odb,Step-1,Increment      1: Step Time =    1.000,"PART-1-1",            91,          -15.,         -12.5,            0.,NA,NA,"",   73.0283E-03,  -54.7094E-03,  -48.3736E-03,   466.512E-06
C:/temp/dataset/6/6_18.odb,Step-1,Increment      1: Step Time =    1.000,"PART-1-1",            92,          -15.,          -10.,            0.,NA,NA,"",   72.0584E-03,  -55.4075E-03,  -46.0697E-03,   1.51346E-03
C:/temp/dataset/6/6_18.odb,Step-1,Increment      1: Step Time =    1.000,"PART-1-1",            93,          -15.,          -20.,            0.,NA,NA,"",   50.8252E-03,  -32.2752E-03,  -39.2621E-03,   3.07588E-03
C:/temp/dataset/6/6_18.odb,Step-1,Increment      1: Step Time =    1.000,"PART-1-1",            94,          -15.,         -17.5,            0.,NA,NA,"",   61.1895E-03,  -41.4641E-03,  -44.9987E-03,   1.97499E-03
C:/temp/dataset/6/6_18.odb,Step-1,Increment      1: Step Time =    1.000,"PART-1-1",            95,          -15.,         -27.5,            0.,NA,NA,"",   15.5419E-03,  -9.59742E-03,  -12.2246E-03,   4.88903E-03
C:/temp/dataset/6/6_18.odb,Step-1,Increment      1: Step Time =    1.000,"PART-1-1",            96,          -15.,          -25.,            0.,NA,NA,"",   27.2893E-03,  -16.0973E-03,  -22.0360E-03,   4.23328E-03
C:/temp/dataset/6/6_18.odb,Step-1,Increment      1: Step Time =    1.000,"PART-1-1",            97,       13.0047,      -3.80353,            0.,NA,NA,"",   120.309E-03,   65.2920E-03,  -101.051E-03,   1.52972E-03
C:/temp/dataset/6/6_18.odb,Step-1,Increment      1: Step Time =    1.000,"PART-1-1",            98,       6.97971,      -7.55833,            0.,NA,NA,"",   137.640E-03,   67.7994E-03,  -119.783E-03,   9.28072E-03
C:/temp/dataset/6/6_18.odb,Step-1,Increment      1: Step Time =    1.000,"PART-1-1",            99,       6.96639,      -10.0829,            0.,NA,NA,"",   121.136E-03,   67.6754E-03,  -100.469E-03,   8.87954E-03
C:/temp/dataset/6/6_18.odb,Step-1,Increment      1: Step Time =    1.000,"PART-1-1",           100,       12.9900,      -12.5465,            0.,NA,NA,"",   113.729E-03,   77.0977E-03,  -83.6072E-03,   3.49357E-03
C:/temp/dataset/6/6_18.odb,Step-1,Increment      1: Step Time =    1.000,"PART-1-1",           101,       6.90028,      -17.1420,            0.,NA,NA,"",   67.4182E-03,   42.9610E-03,  -51.9573E-03,   6.63885E-03
C:/temp/dataset/6/6_18.odb,Step-1,Increment      1: Step Time =    1.000,"PART-1-1",           102,       7.03871,      -19.0570,            0.,NA,NA,"",   52.7423E-03,   32.2926E-03,  -41.7005E-03,   6.00265E-03
C:/temp/dataset/6/6_18.odb,Step-1,Increment      1: Step Time =    1.000,"PART-1-1",           103,       5.31709,      -21.2647,            0.,NA,NA,"",   24.2221E-03,   12.5751E-03,  -20.7021E-03,   5.29649E-03
C:/temp/dataset/6/6_18.odb,Step-1,Increment      1: Step Time =    1.000,"PART-1-1",           104,      -4.83361,      -22.6144,            0.,NA,NA,"",   8.49729E-03,  -4.34692E-03,  -7.30125E-03,   2.15351E-03
C:/temp/dataset/6/6_18.odb,Step-1,Increment      1: Step Time =    1.000,"PART-1-1",           105,      -7.46484,      -17.6587,            0.,NA,NA,"",   43.8484E-03,  -30.5605E-03,  -31.4441E-03,   4.12173E-03
C:/temp/dataset/6/6_18.odb,Step-1,Increment      1: Step Time =    1.000,"PART-1-1",           106,      -12.5283,      -27.3245,            0.,NA,NA,"",   10.2755E-03,  -5.90161E-03,  -8.41166E-03,   4.10498E-03
C:/temp/dataset/6/6_18.odb,Step-1,Increment      1: Step Time =    1.000,"PART-1-1",           107,      -12.4870,      -17.6221,            0.,NA,NA,"",   54.3585E-03,  -38.3963E-03,  -38.4782E-03,   3.06338E-03
C:/temp/dataset/6/6_18.odb,Step-1,Increment      1: Step Time =    1.000,"PART-1-1",           108,      -7.32043,      -12.6401,            0.,NA,NA,"",   69.6195E-03,  -46.4072E-03,  -51.8966E-03,   5.43508E-03
C:/temp/dataset/6/6_18.odb,Step-1,Increment      1: Step Time =    1.000,"PART-1-1",           109,      -7.14644,      -8.03697,            0.,NA,NA,"",   89.4478E-03,  -47.3804E-03,  -75.8683E-03,   7.19059E-03
C:/temp/dataset/6/6_18.odb,Step-1,Increment      1: Step Time =    1.000,"PART-1-1",           110,      -12.6601,       4.88622,            0.,NA,NA,"",   77.5028E-03,   58.7251E-03,  -50.5771E-03,   373.018E-06
C:/temp/dataset/6/6_18.odb,Step-1,Increment      1: Step Time =    1.000,"PART-1-1",           111,      -13.0978,       12.5399,            0.,NA,NA,"",   156.248E-03,   149.351E-03,  -45.9089E-03,   18.3583E-06
C:/temp/dataset/6/6_18.odb,Step-1,Increment      1: Step Time =    1.000,"PART-1-1",           112,      -6.45576,       21.8628,            0.,NA,NA,"",   287.206E-03,   258.699E-03,  -124.747E-03,   592.937E-09
C:/temp/dataset/6/6_18.odb,Step-1,Increment      1: Step Time =    1.000,"PART-1-1",           113,      -7.28884,       25.7044,            0.,NA,NA,"",   325.081E-03,   303.982E-03,  -115.207E-03,   107.871E-09
C:/temp/dataset/6/6_18.odb,Step-1,Increment      1: Step Time =    1.000,"PART-1-1",           114,      -9.90518,       27.6474,            0.,NA,NA,"",   337.787E-03,   327.037E-03,  -84.5408E-03,   43.2677E-09
C:/temp/dataset/6/6_18.odb,Step-1,Increment      1: Step Time =    1.000,"PART-1-1",           115,      -3.01211,      -3.13168,            0.,NA,NA,"",   173.286E-03,  -8.33588E-03,  -173.085E-03,   8.54210E-03
C:/temp/dataset/6/6_18.odb,Step-1,Increment      1: Step Time =    1.000,"PART-1-1",           116,      -2.19169,       3.00836,            0.,NA,NA,"",   194.238E-03,   25.9392E-03,  -192.498E-03,   8.32778E-03
C:/temp/dataset/6/6_18.odb,Step-1,Increment      1: Step Time =    1.000,"PART-1-1",           117,       1.85193,      -2.77696,            0.,NA,NA,"",   220.439E-03,   13.2778E-03,  -220.038E-03,   5.42173E-03
C:/temp/dataset/6/6_18.odb,Step-1,Increment      1: Step Time =    1.000,"PART-1-1",           118,       2.83229,       2.22691,            0.,NA,NA,"",   252.838E-03,   19.3656E-03,  -252.095E-03,   14.1953E-03
C:/temp/dataset/6/6_18.odb,Step-1,Increment      1: Step Time =    1.000,"PART-1-1",           119,       7.74921,       3.07964,            0.,NA,NA,"",   170.720E-03,   13.5355E-03,  -170.183E-03,   4.92574E-03
C:/temp/dataset/6/6_18.odb,Step-1,Increment      1: Step Time =    1.000,"PART-1-1",           120,      -2.47342,      -22.6017,            0.,NA,NA,"",   2.54964E-03,  -1.57991E-03,  -2.00115E-03,   962.268E-06
C:/temp/dataset/6/6_18.odb,Step-1,Increment      1: Step Time =    1.000,"PART-1-1",           121,      -7.48266,       20.3798,            0.,NA,NA,"",   266.270E-03,   241.311E-03,  -112.556E-03,   1.08919E-06
C:/temp/dataset/6/6_18.odb,Step-1,Increment      1: Step Time =    1.000,"PART-1-1",           122,      -7.10993,       13.1351,            0.,NA,NA,"",   194.698E-03,   156.039E-03,  -116.444E-03,   14.6420E-06
C:/temp/dataset/6/6_18.odb,Step-1,Increment      1: Step Time =    1.000,"PART-1-1",           123,      -6.64156,       6.82435,            0.,NA,NA,"",   146.734E-03,   82.2329E-03,  -121.526E-03,   552.536E-06
C:/temp/dataset/6/6_18.odb,Step-1,Increment      1: Step Time =    1.000,"PART-1-1",           124,      -12.9641,      -2.37512,            0.,NA,NA,"",   51.7869E-03,  -18.9957E-03,  -48.1773E-03,   590.331E-06
C:/temp/dataset/6/6_18.odb,Step-1,Increment      1: Step Time =    1.000,"PART-1-1",           125,      -12.1317,      -9.84573,            0.,NA,NA,"",   75.7544E-03,  -55.6350E-03,  -51.4147E-03,   1.83421E-03
C:/temp/dataset/6/6_18.odb,Step-1,Increment      1: Step Time =    1.000,"PART-1-1",           126,       4.04132,      -2.67712,            0.,NA,NA,"",   204.720E-03,   24.9265E-03,  -203.197E-03,   11.4609E-03
C:/temp/dataset/6/6_18.odb,Step-1,Increment      1: Step Time =    1.000,"PART-1-1",           127,       6.95362,      -12.5367,            0.,NA,NA,"",   103.198E-03,   62.5237E-03,  -82.1014E-03,   8.01597E-03
C:/temp/dataset/6/6_18.odb,Step-1,Increment      1: Step Time =    1.000,"PART-1-1",           128,       6.92458,      -14.9216,            0.,NA,NA,"",   84.9304E-03,   53.6923E-03,  -65.8051E-03,   7.38685E-03
C:/temp/dataset/6/6_18.odb,Step-1,Increment      1: Step Time =    1.000,"PART-1-1",           129,       12.9089,      -21.3671,            0.,NA,NA,"",   59.2614E-03,   35.3189E-03,  -47.5867E-03,   5.84054E-03
C:/temp/dataset/6/6_18.odb,Step-1,Increment      1: Step Time =    1.000,"PART-1-1",           130,   283.131E-03,      -22.8786,            0.,NA,NA,"",   1.39803E-03,   901.981E-06,  -1.06813E-03,   889.214E-06
C:/temp/dataset/6/6_18.odb,Step-1,Increment      1: Step Time =    1.000,"PART-1-1",           131,      -12.9776,      -22.4214,            0.,NA,NA,"",   33.0366E-03,  -20.3761E-03,  -26.0044E-03,   3.66486E-03
C:/temp/dataset/6/6_18.odb,Step-1,Increment      1: Step Time =    1.000,"PART-1-1",           132,      -7.42030,      -15.1083,            0.,NA,NA,"",   57.4474E-03,  -40.1704E-03,  -41.0675E-03,   4.80813E-03
C:/temp/dataset/6/6_18.odb,Step-1,Increment      1: Step Time =    1.000,"PART-1-1",           133,      -7.18486,      -10.2642,            0.,NA,NA,"",   80.5563E-03,  -48.7918E-03,  -64.0990E-03,   6.23334E-03
C:/temp/dataset/6/6_18.odb,Step-1,Increment      1: Step Time =    1.000,"PART-1-1",           134,      -7.33974,      -5.93881,            0.,NA,NA,"",   95.6330E-03,  -41.9840E-03,  -85.9245E-03,   4.87728E-03
C:/temp/dataset/6/6_18.odb,Step-1,Increment      1: Step Time =    1.000,"PART-1-1",           135,  -533.729E-03,      -2.94296,            0.,NA,NA,"",   208.646E-03,   1.18238E-03,  -208.643E-03,   6.29455E-03
C:/temp/dataset/6/6_18.odb,Step-1,Increment      1: Step Time =    1.000,"PART-1-1",           136,       10.2172,      -28.0250,            0.,NA,NA,"",   7.63517E-03,   2.72166E-03,  -7.13360E-03,   4.73781E-03
C:/temp/dataset/6/6_18.odb,Step-1,Increment      1: Step Time =    1.000,"PART-1-1",           137,       7.82196,      -28.0777,            0.,NA,NA,"",   5.06993E-03,   284.457E-06,  -5.06195E-03,   3.37405E-03
C:/temp/dataset/6/6_18.odb,Step-1,Increment      1: Step Time =    1.000,"PART-1-1",           138,       5.43540,      -28.0544,            0.,NA,NA,"",   3.40648E-03,  -1.10208E-03,  -3.22328E-03,   2.13129E-03
C:/temp/dataset/6/6_18.odb,Step-1,Increment      1: Step Time =    1.000,"PART-1-1",           139,       2.98405,      -27.8165,            0.,NA,NA,"",   2.17482E-03,  -1.40691E-03,  -1.65845E-03,   1.07744E-03
C:/temp/dataset/6/6_18.odb,Step-1,Increment      1: Step Time =    1.000,"PART-1-1",           140,   324.250E-03,      -27.0908,            0.,NA,NA,"",   926.917E-06,  -773.971E-06,  -510.042E-06,   564.279E-06
C:/temp/dataset/6/6_18.odb,Step-1,Increment      1: Step Time =    1.000,"PART-1-1",           141,      -2.46293,      -27.5198,            0.,NA,NA,"",   643.038E-06,   113.780E-06,  -632.892E-06,   494.648E-06
C:/temp/dataset/6/6_18.odb,Step-1,Increment      1: Step Time =    1.000,"PART-1-1",           142,      -4.88996,      -27.5861,            0.,NA,NA,"",   1.81295E-03,   319.776E-06,  -1.78452E-03,   950.760E-06
C:/temp/dataset/6/6_18.odb,Step-1,Increment      1: Step Time =    1.000,"PART-1-1",           143,      -7.26500,      -27.4866,            0.,NA,NA,"",   3.53459E-03,  -477.437E-06,  -3.50220E-03,   1.80805E-03
C:/temp/dataset/6/6_18.odb,Step-1,Increment      1: Step Time =    1.000,"PART-1-1",           144,      -9.86695,      -26.8928,            0.,NA,NA,"",   7.53897E-03,  -3.25531E-03,  -6.79993E-03,   2.95749E-03
C:/temp/dataset/6/6_18.odb,Step-1,Increment      1: Step Time =    1.000,"PART-1-1",           145,       12.7710,      -23.5898,            0.,NA,NA,"",   42.8338E-03,   24.3641E-03,  -35.2296E-03,   6.18710E-03
C:/temp/dataset/6/6_18.odb,Step-1,Increment      1: Step Time =    1.000,"PART-1-1",           146,       12.6989,      -25.7990,            0.,NA,NA,"",   27.0297E-03,   15.1545E-03,  -22.3818E-03,   6.60117E-03
C:/temp/dataset/6/6_18.odb,Step-1,Increment      1: Step Time =    1.000,"PART-1-1",           147,       12.6207,      -27.9366,            0.,NA,NA,"",   12.7295E-03,   7.26286E-03,  -10.4543E-03,   6.66315E-03
C:/temp/dataset/6/6_18.odb,Step-1,Increment      1: Step Time =    1.000,"PART-1-1",           148,       12.9983,      -14.8223,            0.,NA,NA,"",   102.915E-03,   69.0189E-03,  -76.3411E-03,   4.12450E-03
C:/temp/dataset/6/6_18.odb,Step-1,Increment      1: Step Time =    1.000,"PART-1-1",           149,       13.0558,      -17.0719,            0.,NA,NA,"",   89.6969E-03,   58.4831E-03,  -68.0093E-03,   4.73781E-03
C:/temp/dataset/6/6_18.odb,Step-1,Increment      1: Step Time =    1.000,"PART-1-1",           150,       13.1682,      -19.2108,            0.,NA,NA,"",   75.7446E-03,   47.3765E-03,  -59.0991E-03,   5.29812E-03
C:/temp/dataset/6/6_18.odb,Step-1,Increment      1: Step Time =    1.000,"PART-1-1",           151,       13.0670,      -5.94273,            0.,NA,NA,"",   123.310E-03,   75.2956E-03,  -97.6521E-03,   1.75803E-03
C:/temp/dataset/6/6_18.odb,Step-1,Increment      1: Step Time =    1.000,"PART-1-1",           152,       13.0350,      -8.09399,            0.,NA,NA,"",   124.025E-03,   80.7594E-03,  -94.1276E-03,   2.22576E-03
C:/temp/dataset/6/6_18.odb,Step-1,Increment      1: Step Time =    1.000,"PART-1-1",           153,       12.9982,      -10.2981,            0.,NA,NA,"",   120.929E-03,   81.2862E-03,  -89.5341E-03,   2.85282E-03
C:/temp/dataset/6/6_18.odb,Step-1,Increment      1: Step Time =    1.000,"PART-1-1",           154,       12.5107,   556.281E-03,            0.,NA,NA,"",   114.827E-03,   34.0143E-03,  -109.673E-03,   765.983E-06
C:/temp/dataset/6/6_18.odb,Step-1,Increment      1: Step Time =    1.000,"PART-1-1",           155,       12.7702,      -1.64554,            0.,NA,NA,"",   117.261E-03,   51.4019E-03,  -105.394E-03,   1.32811E-03
C:/temp/dataset/6/6_18.odb,Step-1,Increment      1: Step Time =    1.000,"PART-1-1",           156,       10.0517,       2.85834,            0.,NA,NA,"",   138.170E-03,   12.8894E-03,  -137.567E-03,   1.59700E-03
C:/temp/dataset/6/6_18.odb,Step-1,Increment      1: Step Time =    1.000,"PART-1-1",           157,       5.39286,       2.85476,            0.,NA,NA,"",   218.950E-03,   20.8915E-03,  -217.951E-03,   14.1904E-03
C:/temp/dataset/6/6_18.odb,Step-1,Increment      1: Step Time =    1.000,"PART-1-1",           158,   175.602E-03,       2.90951,            0.,NA,NA,"",   240.889E-03,   16.8726E-03,  -240.298E-03,   13.7699E-03
C:/temp/dataset/6/6_18.odb,Step-1,Increment      1: Step Time =    1.000,"PART-1-1",           159,      -4.35394,       2.91920,            0.,NA,NA,"",   158.741E-03,   32.5979E-03,  -155.358E-03,   4.48149E-03
C:/temp/dataset/6/6_18.odb,Step-1,Increment      1: Step Time =    1.000,"PART-1-1",           160,      -7.05997,       10.9599,            0.,NA,NA,"",   175.196E-03,   130.516E-03,  -116.873E-03,   59.2307E-06
C:/temp/dataset/6/6_18.odb,Step-1,Increment      1: Step Time =    1.000,"PART-1-1",           161,      -6.93805,       8.84105,            0.,NA,NA,"",   158.584E-03,   105.745E-03,  -118.182E-03,   185.214E-06
C:/temp/dataset/6/6_18.odb,Step-1,Increment      1: Step Time =    1.000,"PART-1-1",           162,      -7.28921,       17.6445,            0.,NA,NA,"",   238.464E-03,   209.098E-03,  -114.645E-03,   1.70638E-06
C:/temp/dataset/6/6_18.odb,Step-1,Increment      1: Step Time =    1.000,"PART-1-1",           163,      -7.17735,       15.3234,            0.,NA,NA,"",   215.526E-03,   181.774E-03,  -115.800E-03,   1.64965E-06
C:/temp/dataset/6/6_18.odb,Step-1,Increment      1: Step Time =    1.000,"PART-1-1",           164,      -6.93557,       23.5874,            0.,NA,NA,"",   303.436E-03,   279.035E-03,  -119.219E-03,   301.795E-09
C:/temp/dataset/6/6_18.odb,Step-1,Increment      1: Step Time =    1.000,"PART-1-1",           165,      -13.1925,       19.7530,            0.,NA,NA,"",   238.668E-03,   234.331E-03,  -45.2932E-03,   1.19476E-06
C:/temp/dataset/6/6_18.odb,Step-1,Increment      1: Step Time =    1.000,"PART-1-1",           166,      -7.44963,       27.8335,            0.,NA,NA,"",   348.070E-03,   329.058E-03,  -113.461E-03,   22.6434E-09
C:/temp/dataset/6/6_18.odb,Step-1,Increment      1: Step Time =    1.000,"PART-1-1",           167,      -13.0424,       22.0734,            0.,NA,NA,"",   265.864E-03,   261.636E-03,  -47.2214E-03,   545.177E-09
C:/temp/dataset/6/6_18.odb,Step-1,Increment      1: Step Time =    1.000,"PART-1-1",           168,      -13.1316,       14.9813,            0.,NA,NA,"",   183.902E-03,   178.139E-03,  -45.6789E-03,   1.78400E-06
C:/temp/dataset/6/6_18.odb,Step-1,Increment      1: Step Time =    1.000,"PART-1-1",           169,      -13.1727,       17.3972,            0.,NA,NA,"",   211.516E-03,   206.594E-03,  -45.3628E-03,   1.69801E-06
C:/temp/dataset/6/6_18.odb,Step-1,Increment      1: Step Time =    1.000,"PART-1-1",           170,      -12.8574,       7.53984,            0.,NA,NA,"",   102.312E-03,   90.1328E-03,  -48.4130E-03,   204.376E-06
C:/temp/dataset/6/6_18.odb,Step-1,Increment      1: Step Time =    1.000,"PART-1-1",           171,      -13.0166,       10.0884,            0.,NA,NA,"",   129.110E-03,   120.368E-03,  -46.7000E-03,   75.2550E-06
C:/temp/dataset/6/6_18.odb,Step-1,Increment      1: Step Time =    1.000,"PART-1-1",           172,      -12.8045,  -118.323E-03,            0.,NA,NA,"",   49.3337E-03,   2.77266E-03,  -49.2558E-03,   562.121E-06
C:/temp/dataset/6/6_18.odb,Step-1,Increment      1: Step Time =    1.000,"PART-1-1",           173,      -12.7039,       2.28772,            0.,NA,NA,"",   57.8002E-03,   28.7729E-03,  -50.1296E-03,   471.701E-06
C:/temp/dataset/6/6_18.odb,Step-1,Increment      1: Step Time =    1.000,"PART-1-1",           174,      -12.8488,      -7.31355,            0.,NA,NA,"",   71.2278E-03,  -50.6508E-03,  -50.0789E-03,   615.997E-06
C:/temp/dataset/6/6_18.odb,Step-1,Increment      1: Step Time =    1.000,"PART-1-1",           175,      -12.6051,      -4.81291,            0.,NA,NA,"",   63.8307E-03,  -38.0623E-03,  -51.2407E-03,   214.316E-06
C:/temp/dataset/6/6_18.odb,Step-1,Increment      1: Step Time =    1.000,"PART-1-1",           176,      -12.4260,      -15.0682,            0.,NA,NA,"",   64.7234E-03,  -47.6890E-03,  -43.7593E-03,   2.64406E-03
C:/temp/dataset/6/6_18.odb,Step-1,Increment      1: Step Time =    1.000,"PART-1-1",           177,      -12.3344,      -12.5112,            0.,NA,NA,"",   72.2094E-03,  -54.0477E-03,  -47.8857E-03,   2.25947E-03
C:/temp/dataset/6/6_18.odb,Step-1,Increment      1: Step Time =    1.000,"PART-1-1",           178,      -12.6598,      -20.1148,            0.,NA,NA,"",   43.0882E-03,  -28.5172E-03,  -32.3011E-03,   3.40331E-03
C:/temp/dataset/6/6_18.odb,Step-1,Increment      1: Step Time =    1.000,"PART-1-1",           179,      -8.70618,       22.9331,            0.,NA,NA,"",   288.716E-03,   271.455E-03,  -98.3297E-03,   466.213E-09
C:/temp/dataset/6/6_18.odb,Step-1,Increment      1: Step Time =    1.000,"PART-1-1",           180,      -9.21222,       15.1634,            0.,NA,NA,"",   202.098E-03,   180.026E-03,  -91.8388E-03,   4.31194E-06
C:/temp/dataset/6/6_18.odb,Step-1,Increment      1: Step Time =    1.000,"PART-1-1",           181,      -9.55138,       19.8926,            0.,NA,NA,"",   251.671E-03,   235.720E-03,  -88.1710E-03,   1.28886E-06
C:/temp/dataset/6/6_18.odb,Step-1,Increment      1: Step Time =    1.000,"PART-1-1",           182,      -8.92203,       8.32966,            0.,NA,NA,"",   137.330E-03,   99.6688E-03,  -94.4755E-03,   225.644E-06
C:/temp/dataset/6/6_18.odb,Step-1,Increment      1: Step Time =    1.000,"PART-1-1",           183,      -9.17670,       12.8809,            0.,NA,NA,"",   178.717E-03,   153.167E-03,  -92.0851E-03,   23.1446E-06
C:/temp/dataset/6/6_18.odb,Step-1,Increment      1: Step Time =    1.000,"PART-1-1",           184,      -9.09923,       10.6117,            0.,NA,NA,"",   156.853E-03,   126.480E-03,  -92.7669E-03,   84.6215E-06
C:/temp/dataset/6/6_18.odb,Step-1,Increment      1: Step Time =    1.000,"PART-1-1",           185,      -9.30530,       17.5014,            0.,NA,NA,"",   226.587E-03,   207.553E-03,  -90.9048E-03,   1.74241E-06
C:/temp/dataset/6/6_18.odb,Step-1,Increment      1: Step Time =    1.000,"PART-1-1",           186,      -8.37864,       6.17865,            0.,NA,NA,"",   124.878E-03,   74.4173E-03,  -100.283E-03,   439.413E-06
C:/temp/dataset/6/6_18.odb,Step-1,Increment      1: Step Time =    1.000,"PART-1-1",           187,       10.9988,      -10.2527,            0.,NA,NA,"",   120.969E-03,   78.3583E-03,  -92.1606E-03,   4.70294E-03
C:/temp/dataset/6/6_18.odb,Step-1,Increment      1: Step Time =    1.000,"PART-1-1",           188,       10.8643,      -17.5211,            0.,NA,NA,"",   79.2014E-03,   51.2401E-03,  -60.3930E-03,   5.66189E-03
C:/temp/dataset/6/6_18.odb,Step-1,Increment      1: Step Time =    1.000,"PART-1-1",           189,       11.0508,      -8.01555,            0.,NA,NA,"",   127.210E-03,   78.2217E-03,  -100.318E-03,   4.11559E-03
C:/temp/dataset/6/6_18.odb,Step-1,Increment      1: Step Time =    1.000,"PART-1-1",           190,       10.6332,      -2.00908,            0.,NA,NA,"",   133.689E-03,   51.7529E-03,  -123.265E-03,   3.92714E-03
C:/temp/dataset/6/6_18.odb,Step-1,Increment      1: Step Time =    1.000,"PART-1-1",           191,       11.1668,      -5.92645,            0.,NA,NA,"",   129.423E-03,   73.1620E-03,  -106.760E-03,   3.61281E-03
C:/temp/dataset/6/6_18.odb,Step-1,Increment      1: Step Time =    1.000,"PART-1-1",           192,       10.9732,      -14.9280,            0.,NA,NA,"",   97.0754E-03,   64.5763E-03,  -72.4813E-03,   5.35864E-03
C:/temp/dataset/6/6_18.odb,Step-1,Increment      1: Step Time =    1.000,"PART-1-1",           193,       10.5476,      -23.6927,            0.,NA,NA,"",   33.4243E-03,   17.6571E-03,  -28.3798E-03,   5.95737E-03
C:/temp/dataset/6/6_18.odb,Step-1,Increment      1: Step Time =    1.000,"PART-1-1",           194,       10.5707,      -21.1850,            0.,NA,NA,"",   51.1099E-03,   29.8745E-03,  -41.4697E-03,   6.06903E-03
C:/temp/dataset/6/6_18.odb,Step-1,Increment      1: Step Time =    1.000,"PART-1-1",           195,       10.9760,      -12.5622,            0.,NA,NA,"",   110.725E-03,   73.5466E-03,  -82.7700E-03,   5.10119E-03
C:/temp/dataset/6/6_18.odb,Step-1,Increment      1: Step Time =    1.000,"PART-1-1",           196,       11.6229,      -19.2502,            0.,NA,NA,"",   69.3802E-03,   43.4231E-03,  -54.1115E-03,   5.67089E-03
C:/temp/dataset/6/6_18.odb,Step-1,Increment      1: Step Time =    1.000,"PART-1-1",           197,       11.1609,      -3.97100,            0.,NA,NA,"",   129.864E-03,   64.1995E-03,  -112.885E-03,   3.53164E-03
C:/temp/dataset/6/6_18.odb,Step-1,Increment      1: Step Time =    1.000,"PART-1-1",           198,      -9.55101,       25.2781,            0.,NA,NA,"",   311.951E-03,   299.120E-03,  -88.5462E-03,   173.632E-09
C:/temp/dataset/6/6_18.odb,Step-1,Increment      1: Step Time =    1.000,"PART-1-1",           199,      -6.13353,       2.97524,            0.,NA,NA,"",   133.164E-03,   35.9353E-03,  -128.224E-03,   2.21775E-03
C:/temp/dataset/6/6_18.odb,Step-1,Increment      1: Step Time =    1.000,"PART-1-1",           200,       8.52809,      -18.5145,            0.,NA,NA,"",   63.4866E-03,   39.6270E-03,  -49.6009E-03,   6.13928E-03
C:/temp/dataset/6/6_18.odb,Step-1,Increment      1: Step Time =    1.000,"PART-1-1",           201,      -9.31256,      -6.57829,            0.,NA,NA,"",   84.2209E-03,  -46.9248E-03,  -69.9373E-03,   3.36872E-03
C:/temp/dataset/6/6_18.odb,Step-1,Increment      1: Step Time =    1.000,"PART-1-1",           202,      -7.82061,      -4.24854,            0.,NA,NA,"",   93.9126E-03,  -31.5774E-03,  -88.4446E-03,   4.17352E-03
C:/temp/dataset/6/6_18.odb,Step-1,Increment      1: Step Time =    1.000,"PART-1-1",           203,       7.55002,      -20.4955,            0.,NA,NA,"",   43.7900E-03,   24.6809E-03,  -36.1721E-03,   6.40497E-03
C:/temp/dataset/6/6_18.odb,Step-1,Increment      1: Step Time =    1.000,"PART-1-1",           204,      -9.18944,      -8.43706,            0.,NA,NA,"",   83.2811E-03,  -51.9342E-03,  -65.1043E-03,   4.04233E-03
C:/temp/dataset/6/6_18.odb,Step-1,Increment      1: Step Time =    1.000,"PART-1-1",           205,      -12.3720,       27.4312,            0.,NA,NA,"",   329.371E-03,   324.663E-03,  -55.4858E-03,   30.5297E-09
C:/temp/dataset/6/6_18.odb,Step-1,Increment      1: Step Time =    1.000,"PART-1-1",           206,      -10.3791,       22.2070,            0.,NA,NA,"",   274.512E-03,   263.024E-03,  -78.5855E-03,   609.836E-09
C:/temp/dataset/6/6_18.odb,Step-1,Increment      1: Step Time =    1.000,"PART-1-1",           207,       3.40286,  -884.176E-03,            0.,NA,NA,"",   221.551E-03,   20.1608E-03,  -220.632E-03,   9.97765E-03
C:/temp/dataset/6/6_18.odb,Step-1,Increment      1: Step Time =    1.000,"PART-1-1",           208,       7.88020,       1.44192,            0.,NA,NA,"",   169.601E-03,   26.9444E-03,  -167.447E-03,   6.90497E-03
C:/temp/dataset/6/6_18.odb,Step-1,Increment      1: Step Time =    1.000,"PART-1-1",           209,      -1.17287,  -897.893E-03,            0.,NA,NA,"",   206.288E-03,   5.89137E-03,  -206.204E-03,   8.00059E-03
C:/temp/dataset/6/6_18.odb,Step-1,Increment      1: Step Time =    1.000,"PART-1-1",           210,       10.4014,      -25.9274,            0.,NA,NA,"",   18.9414E-03,   8.85192E-03,  -16.7458E-03,   5.48081E-03
C:/temp/dataset/6/6_18.odb,Step-1,Increment      1: Step Time =    1.000,"PART-1-1",           211,       2.00108,      -24.8239,            0.,NA,NA,"",   2.35124E-03,  -127.833E-06,  -2.34776E-03,   536.402E-06
C:/temp/dataset/6/6_18.odb,Step-1,Increment      1: Step Time =    1.000,"PART-1-1",           212,      -4.80900,      -25.1606,            0.,NA,NA,"",   4.06187E-03,  -1.06875E-03,  -3.91874E-03,   1.23877E-03
C:/temp/dataset/6/6_18.odb,Step-1,Increment      1: Step Time =    1.000,"PART-1-1",           213,      -11.5765,       21.3848,            0.,NA,NA,"",   261.490E-03,   253.428E-03,  -64.4324E-03,   779.700E-09
C:/temp/dataset/6/6_18.odb,Step-1,Increment      1: Step Time =    1.000,"PART-1-1",           214,      -11.0630,       10.3038,            0.,NA,NA,"",   141.215E-03,   122.855E-03,  -69.6294E-03,   86.1472E-06
C:/temp/dataset/6/6_18.odb,Step-1,Increment      1: Step Time =    1.000,"PART-1-1",           215,      -10.2832,  -591.021E-03,            0.,NA,NA,"",   73.5430E-03,  -1.42724E-03,  -73.5292E-03,   1.38757E-03
C:/temp/dataset/6/6_18.odb,Step-1,Increment      1: Step Time =    1.000,"PART-1-1",           216,      -11.1869,      -5.64306,            0.,NA,NA,"",   73.7083E-03,  -43.0741E-03,  -59.8125E-03,   1.31360E-03
C:/temp/dataset/6/6_18.odb,Step-1,Increment      1: Step Time =    1.000,"PART-1-1",           217,      -9.48237,      -10.3825,            0.,NA,NA,"",   78.6150E-03,  -53.3402E-03,  -57.7507E-03,   4.08355E-03
C:/temp/dataset/6/6_18.odb,Step-1,Increment      1: Step Time =    1.000,"PART-1-1",           218,      -10.0191,      -20.7277,            0.,NA,NA,"",   33.5322E-03,  -21.5628E-03,  -25.6798E-03,   3.96930E-03
C:/temp/dataset/6/6_18.odb,Step-1,Increment      1: Step Time =    1.000,"PART-1-1",           219,      -12.8377,      -24.8331,            0.,NA,NA,"",   21.5487E-03,  -12.6226E-03,  -17.4647E-03,   3.99511E-03
C:/temp/dataset/6/6_18.odb,Step-1,Increment      1: Step Time =    1.000,"PART-1-1",           220,  -752.185E-03,      -25.0561,            0.,NA,NA,"",   493.025E-06,  -293.283E-06,  -396.307E-06,   170.619E-06
C:/temp/dataset/6/6_18.odb,Step-1,Increment      1: Step Time =    1.000,"PART-1-1",           221,      -11.3411,      -22.5061,            0.,NA,NA,"",   28.2095E-03,  -17.2338E-03,  -22.3332E-03,   3.73149E-03
C:/temp/dataset/6/6_18.odb,Step-1,Increment      1: Step Time =    1.000,"PART-1-1",           222,       5.90860,      -26.1342,            0.,NA,NA,"",   7.93125E-03,   698.884E-06,  -7.90040E-03,   2.77081E-03
C:/temp/dataset/6/6_18.odb,Step-1,Increment      1: Step Time =    1.000,"PART-1-1",           223,       3.81352,      -25.8758,            0.,NA,NA,"",   4.52841E-03,  -555.410E-06,  -4.49422E-03,   1.48019E-03
C:/temp/dataset/6/6_18.odb,Step-1,Increment      1: Step Time =    1.000,"PART-1-1",           224,      -6.87266,      -25.1947,            0.,NA,NA,"",   7.63650E-03,  -2.78291E-03,  -7.11136E-03,   2.17434E-03
C:/temp/dataset/6/6_18.odb,Step-1,Increment      1: Step Time =    1.000,"PART-1-1",           225,       9.77381,   336.875E-03,            0.,NA,NA,"",   143.104E-03,   34.9368E-03,  -138.774E-03,   3.87390E-03
C:/temp/dataset/6/6_18.odb,Step-1,Increment      1: Step Time =    1.000,"PART-1-1",           226,       4.59800,   29.7464E-03,            0.,NA,NA,"",   215.749E-03,   25.5759E-03,  -214.228E-03,   12.0334E-03
C:/temp/dataset/6/6_18.odb,Step-1,Increment      1: Step Time =    1.000,"PART-1-1",           227,      -11.1551,       12.6912,            0.,NA,NA,"",   165.951E-03,   151.027E-03,  -68.7799E-03,   24.9573E-06
C:/temp/dataset/6/6_18.odb,Step-1,Increment      1: Step Time =    1.000,"PART-1-1",           228,      -11.2689,       17.3859,            0.,NA,NA,"",   217.177E-03,   206.330E-03,  -67.7797E-03,   1.63871E-06
C:/temp/dataset/6/6_18.odb,Step-1,Increment      1: Step Time =    1.000,"PART-1-1",           229,      -11.2102,       15.0558,            0.,NA,NA,"",   191.487E-03,   178.888E-03,  -68.3095E-03,   4.29820E-06
C:/temp/dataset/6/6_18.odb,Step-1,Increment      1: Step Time =    1.000,"PART-1-1",           230,      -10.8139,       7.79620,            0.,NA,NA,"",   117.856E-03,   93.1983E-03,  -72.1396E-03,   239.440E-06
C:/temp/dataset/6/6_18.odb,Step-1,Increment      1: Step Time =    1.000,"PART-1-1",           231,      -10.1648,       4.85487,            0.,NA,NA,"",   98.1155E-03,   58.4690E-03,  -78.7911E-03,   432.624E-06
C:/temp/dataset/6/6_18.odb,Step-1,Increment      1: Step Time =    1.000,"PART-1-1",           232,      -10.4473,       2.01195,            0.,NA,NA,"",   78.6298E-03,   25.8680E-03,  -74.2529E-03,   627.252E-06
C:/temp/dataset/6/6_18.odb,Step-1,Increment      1: Step Time =    1.000,"PART-1-1",           233,      -10.4810,      -3.59789,            0.,NA,NA,"",   73.3401E-03,  -28.9636E-03,  -67.3786E-03,   1.68376E-03
C:/temp/dataset/6/6_18.odb,Step-1,Increment      1: Step Time =    1.000,"PART-1-1",           234,      -9.89141,      -15.1395,            0.,NA,NA,"",   61.4742E-03,  -44.4125E-03,  -42.5042E-03,   3.88460E-03
C:/temp/dataset/6/6_18.odb,Step-1,Increment      1: Step Time =    1.000,"PART-1-1",           235,      -9.95744,      -17.7636,            0.,NA,NA,"",   48.8205E-03,  -34.2805E-03,  -34.7605E-03,   3.93547E-03
C:/temp/dataset/6/6_18.odb,Step-1,Increment      1: Step Time =    1.000,"PART-1-1",           236,      -3.63694,      -1.16253,            0.,NA,NA,"",   165.350E-03,   2.44546E-03,  -165.332E-03,   9.28555E-03
C:/temp/dataset/6/6_18.odb,Step-1,Increment      1: Step Time =    1.000,"PART-1-1",           237,      -7.00580,      -22.7773,            0.,NA,NA,"",   15.3145E-03,  -7.83124E-03,  -13.1607E-03,   3.38544E-03
C:/temp/dataset/6/6_18.odb,Step-1,Increment      1: Step Time =    1.000,"PART-1-1",           238,       7.08723,      -4.67483,            0.,NA,NA,"",   152.336E-03,   55.9484E-03,  -141.690E-03,   8.88934E-03
C:/temp/dataset/6/6_18.odb,Step-1,Increment      1: Step Time =    1.000,"PART-1-1",           239,       8.96532,      -10.1697,            0.,NA,NA,"",   121.447E-03,   73.9799E-03,  -96.3140E-03,   6.57234E-03
C:/temp/dataset/6/6_18.odb,Step-1,Increment      1: Step Time =    1.000,"PART-1-1",           240,       8.99874,      -7.82238,            0.,NA,NA,"",   131.993E-03,   74.1423E-03,  -109.201E-03,   6.16148E-03
C:/temp/dataset/6/6_18.odb,Step-1,Increment      1: Step Time =    1.000,"PART-1-1",           241,       8.96760,      -14.8663,            0.,NA,NA,"",   92.2230E-03,   59.9813E-03,  -70.0523E-03,   6.36380E-03
C:/temp/dataset/6/6_18.odb,Step-1,Increment      1: Step Time =    1.000,"PART-1-1",           242,      -12.0836,       24.5335,            0.,NA,NA,"",   296.397E-03,   290.530E-03,  -58.6802E-03,   219.199E-09
C:/temp/dataset/6/6_18.odb,Step-1,Increment      1: Step Time =    1.000,"PART-1-1",           243,       9.21542,      -5.66363,            0.,NA,NA,"",   137.389E-03,   68.4946E-03,  -119.098E-03,   5.65455E-03
C:/temp/dataset/6/6_18.odb,Step-1,Increment      1: Step Time =    1.000,"PART-1-1",           244,       8.72776,      -2.97127,            0.,NA,NA,"",   147.393E-03,   52.6610E-03,  -137.665E-03,   7.09369E-03
C:/temp/dataset/6/6_18.odb,Step-1,Increment      1: Step Time =    1.000,"PART-1-1",           245,       9.39471,      -19.4524,            0.,NA,NA,"",   59.5991E-03,   36.4188E-03,  -47.1776E-03,   6.05476E-03
C:/temp/dataset/6/6_18.odb,Step-1,Increment      1: Step Time =    1.000,"PART-1-1",           246,       8.06548,      -22.0810,            0.,NA,NA,"",   34.5464E-03,   17.7298E-03,  -29.6497E-03,   5.95908E-03
C:/temp/dataset/6/6_18.odb,Step-1,Increment      1: Step Time =    1.000,"PART-1-1",           247,      -7.53738,       4.79758,            0.,NA,NA,"",   124.352E-03,   58.0580E-03,  -109.966E-03,   390.093E-06
C:/temp/dataset/6/6_18.odb,Step-1,Increment      1: Step Time =    1.000,"PART-1-1",           248,      -10.8025,      -24.3532,            0.,NA,NA,"",   18.6272E-03,  -10.4438E-03,  -15.4239E-03,   3.60255E-03
C:/temp/dataset/6/6_18.odb,Step-1,Increment      1: Step Time =    1.000,"PART-1-1",           249,       5.82981,      -2.08643,            0.,NA,NA,"",   183.937E-03,   33.5034E-03,  -180.860E-03,   13.2568E-03
C:/temp/dataset/6/6_18.odb,Step-1,Increment      1: Step Time =    1.000,"PART-1-1",           250,      -8.67175,      -2.53401,            0.,NA,NA,"",   87.7313E-03,  -18.3103E-03,  -85.7993E-03,   3.32944E-03
C:/temp/dataset/6/6_18.odb,Step-1,Increment      1: Step Time =    1.000,"PART-1-1",           251,       5.78686,      -22.7214,            0.,NA,NA,"",   19.5057E-03,   8.17760E-03,  -17.7088E-03,   4.31238E-03
C:/temp/dataset/6/6_18.odb,Step-1,Increment      1: Step Time =    1.000,"PART-1-1",           252,      -8.27594,       1.60152,            0.,NA,NA,"",   101.518E-03,   22.0646E-03,  -99.0908E-03,   1.61012E-03
C:/temp/dataset/6/6_18.odb,Step-1,Increment      1: Step Time =    1.000,"PART-1-1",           253,       8.25490,      -24.0061,            0.,NA,NA,"",   23.3222E-03,   10.2243E-03,  -20.9616E-03,   5.11122E-03
C:/temp/dataset/6/6_18.odb,Step-1,Increment      1: Step Time =    1.000,"PART-1-1",           254,      -9.04303,      -23.2600,            0.,NA,NA,"",   18.9974E-03,  -10.4643E-03,  -15.8556E-03,   3.57919E-03
C:/temp/dataset/6/6_18.odb,Step-1,Increment      1: Step Time =    1.000,"PART-1-1",           255,       7.61656,      -1.09448,            0.,NA,NA,"",   166.616E-03,   39.2573E-03,  -161.925E-03,   8.95465E-03
C:/temp/dataset/6/6_18.odb,Step-1,Increment      1: Step Time =    1.000,"PART-1-1",           256,      -4.02262,   861.151E-03,            0.,NA,NA,"",   162.218E-03,   14.0705E-03,  -161.607E-03,   7.12978E-03
C:/temp/dataset/6/6_18.odb,Step-1,Increment      1: Step Time =    1.000,"PART-1-1",           257,  -104.141E-03,       1.31276,            0.,NA,NA,"",   228.125E-03,   11.4513E-03,  -227.838E-03,   9.36612E-03
C:/temp/dataset/6/6_18.odb,Step-1,Increment      1: Step Time =    1.000,"PART-1-1",           258,       3.72123,      -23.4419,            0.,NA,NA,"",   7.91475E-03,   2.76155E-03,  -7.41736E-03,   1.86753E-03
C:/temp/dataset/6/6_18.odb,Step-1,Increment      1: Step Time =    1.000,"PART-1-1",           259,      -10.7950,      -8.39617,            0.,NA,NA,"",   78.7212E-03,  -53.1649E-03,  -58.0561E-03,   2.52707E-03
C:/temp/dataset/6/6_18.odb,Step-1,Increment      1: Step Time =    1.000,"PART-1-1",           260,      -1.85786,       1.02916,            0.,NA,NA,"",   199.890E-03,   12.0344E-03,  -199.527E-03,   9.31719E-03
C:/temp/dataset/6/6_18.odb,Step-1,Increment      1: Step Time =    1.000,"PART-1-1",           261,      -6.46179,      -1.33856,            0.,NA,NA,"",   117.337E-03,  -3.41117E-03,  -117.287E-03,   5.84513E-03
C:/temp/dataset/6/6_18.odb,Step-1,Increment      1: Step Time =    1.000,"PART-1-1",           262,      -11.1078,      -7.00587,            0.,NA,NA,"",   76.7408E-03,  -49.4178E-03,  -58.7114E-03,   1.71040E-03
C:/temp/dataset/6/6_18.odb,Step-1,Increment      1: Step Time =    1.000,"PART-1-1",           263,      -5.52697,      -3.44125,            0.,NA,NA,"",   123.011E-03,  -18.4246E-03,  -121.623E-03,   9.82059E-03
C:/temp/dataset/6/6_18.odb,Step-1,Increment      1: Step Time =    1.000,"PART-1-1",           264,      -9.72268,      -4.98378,            0.,NA,NA,"",   80.6600E-03,  -38.7447E-03,  -70.7452E-03,   2.35058E-03
C:/temp/dataset/6/6_18.odb,Step-1,Increment      1: Step Time =    1.000,"PART-1-1",           265,      -6.27329,       4.89376,            0.,NA,NA,"",   139.129E-03,   59.1165E-03,  -125.945E-03,   331.327E-06
C:/temp/dataset/6/6_18.odb,Step-1,Increment      1: Step Time =    1.000,"PART-1-1",           266,       12.4963,       2.80040,            0.,NA,NA,"",   111.204E-03,   12.7858E-03,  -110.466E-03,   328.477E-06
C:/temp/dataset/6/6_18.odb,Step-1,Increment      1: Step Time =    1.000,"PART-1-1",           267,      -7.37176,      -20.2559,            0.,NA,NA,"",   28.6229E-03,  -18.0672E-03,  -22.2002E-03,   4.40548E-03
C:/temp/dataset/6/6_18.odb,Step-1,Increment      1: Step Time =    1.000,"PART-1-1",           268,       2.88963,      -21.8777,            0.,NA,NA,"",   8.22120E-03,   5.44148E-03,  -6.16267E-03,   1.25192E-03
C:/temp/dataset/6/6_18.odb,Step-1,Increment      1: Step Time =    1.000,"PART-1-1",           269,      -8.05085,       3.52655,            0.,NA,NA,"",   111.843E-03,   43.1860E-03,  -103.168E-03,   663.452E-06
C:/temp/dataset/6/6_18.odb,Step-1,Increment      1: Step Time =    1.000,"PART-1-1",           270,       8.95558,      -12.5395,            0.,NA,NA,"",   107.739E-03,   68.7869E-03,  -82.9217E-03,   6.59141E-03
C:/temp/dataset/6/6_18.odb,Step-1,Increment      1: Step Time =    1.000,"PART-1-1",           271,       1.35989,  -223.950E-03,            0.,NA,NA,"",   231.878E-03,   12.5471E-03,  -231.538E-03,   6.81062E-03
C:/temp/dataset/6/6_18.odb,Step-1,Increment      1: Step Time =    1.000,"PART-1-1",           272,      -9.75004,      -12.6533,            0.,NA,NA,"",   71.4577E-03,  -51.0081E-03,  -50.0437E-03,   3.98861E-03
C:/temp/dataset/6/6_18.odb,Step-1,Increment      1: Step Time =    1.000,"PART-1-1",           273,      -8.51206,      -25.1011,            0.,NA,NA,"",   11.0094E-03,  -5.01016E-03,  -9.80337E-03,   2.89527E-03
C:/temp/dataset/6/6_18.odb,Step-1,Increment      1: Step Time =    1.000,"PART-1-1",           274,      -6.19138,   998.181E-03,            0.,NA,NA,"",   127.681E-03,   16.3340E-03,  -126.632E-03,   4.01879E-03
C:/temp/dataset/6/6_18.odb,Step-1,Increment      1: Step Time =    1.000,"PART-1-1",           275,      -2.63339,      -25.0950,            0.,NA,NA,"",   1.31773E-03,  -354.949E-06,  -1.26902E-03,   485.310E-06
C:/temp/dataset/6/6_18.odb,Step-1,Increment      1: Step Time =    1.000,"PART-1-1",           276,       8.11811,      -26.0558,            0.,NA,NA,"",   12.8183E-03,   3.97309E-03,  -12.1870E-03,   4.20565E-03
C:/temp/dataset/6/6_18.odb,Step-1,Increment      1: Step Time =    1.000,"PART-1-1",           277,       6.33403,   764.508E-03,            0.,NA,NA,"",   193.582E-03,   29.6372E-03,  -191.300E-03,   10.7503E-03
C:/temp/dataset/6/6_18.odb,Step-1,Increment      1: Step Time =    1.000,"PART-1-1",           278,       8.84044,      -16.9880,            0.,NA,NA,"",   76.3460E-03,   49.1278E-03,  -58.4395E-03,   6.12290E-03
C:/temp/dataset/6/6_18.odb,Step-1,Increment      1: Step Time =    1.000,"PART-1-1",           279,      -11.3950,       19.6047,            0.,NA,NA,"",   241.769E-03,   232.459E-03,  -66.4463E-03,   1.29829E-06
C:/temp/dataset/6/6_18.odb,Step-1,Increment      1: Step Time =    1.000,"PART-1-1",           280,      -11.2464,      -2.22607,            0.,NA,NA,"",   65.0717E-03,  -17.5489E-03,  -62.6607E-03,   1.05360E-03
C:/temp/dataset/6/6_18.odb,Step-1,Increment      1: Step Time =    1.000,"PART-1-1",           281,      -8.41776,  -32.7016E-03,            0.,NA,NA,"",   95.1183E-03,   5.54161E-03,  -94.9567E-03,   2.42247E-03
C:/temp/dataset/6/6_18.odb,Step-1,Increment      1: Step Time =    1.000,"PART-1-1",           282,       4.48255,      -24.5345,            0.,NA,NA,"",   8.21001E-03,   1.61162E-03,  -8.05027E-03,   2.26352E-03
C:/temp/dataset/6/6_18.odb,Step-1,Increment      1: Step Time =    1.000,"PART-1-1",           283,       6.11275,      -24.3348,            0.,NA,NA,"",   14.1501E-03,   4.35615E-03,  -13.4629E-03,   3.60265E-03
C:/temp/dataset/6/6_18.odb,Step-1,Increment      1: Step Time =    1.000,"PART-1-1",           284,       9.69767,      -4.20039,            0.,NA,NA,"",   137.717E-03,   62.4150E-03,  -122.761E-03,   5.34281E-03
C:/temp/dataset/6/6_18.odb,Step-1,Increment      1: Step Time =    1.000,"PART-1-1",           285,       13.8851,      -1.60402,            0.,NA,NA,"",   109.504E-03,   51.4709E-03,  -96.6538E-03,   416.679E-06
C:/temp/dataset/6/6_18.odb,Step-1,Increment      1: Step Time =    1.000,"PART-1-1",           286,           15.,   -468.75E-03,            0.,NA,NA,"",   97.4140E-03,   42.5290E-03,  -87.6400E-03,   686.296E-06
C:/temp/dataset/6/6_18.odb,Step-1,Increment      1: Step Time =    1.000,"PART-1-1",           287,       13.7553,   590.641E-03,            0.,NA,NA,"",   103.745E-03,   33.7225E-03,  -98.1115E-03,   186.015E-06
C:/temp/dataset/6/6_18.odb,Step-1,Increment      1: Step Time =    1.000,"PART-1-1",           288,       12.6405,  -544.629E-03,            0.,NA,NA,"",   115.960E-03,   43.1472E-03,  -107.634E-03,   1.07155E-03
C:/temp/dataset/6/6_18.odb,Step-1,Increment      1: Step Time =    1.000,"PART-1-1",           289,       6.57104,       2.96720,            0.,NA,NA,"",   193.970E-03,   17.7331E-03,  -193.158E-03,   9.26363E-03
C:/temp/dataset/6/6_18.odb,Step-1,Increment      1: Step Time =    1.000,"PART-1-1",           290,       5.86345,       1.80964,            0.,NA,NA,"",   205.642E-03,   25.7249E-03,  -204.026E-03,   11.4336E-03
C:/temp/dataset/6/6_18.odb,Step-1,Increment      1: Step Time =    1.000,"PART-1-1",           291,       7.10711,       1.10321,            0.,NA,NA,"",   181.776E-03,   29.0086E-03,  -179.446E-03,   8.52381E-03
C:/temp/dataset/6/6_18.odb,Step-1,Increment      1: Step Time =    1.000,"PART-1-1",           292,       7.81470,       2.26078,            0.,NA,NA,"",   170.780E-03,   21.2406E-03,  -169.454E-03,   5.74261E-03
C:/temp/dataset/6/6_18.odb,Step-1,Increment      1: Step Time =    1.000,"PART-1-1",           293,       6.97305,      -8.82061,            0.,NA,NA,"",   129.774E-03,   68.6142E-03,  -110.151E-03,   9.07667E-03
C:/temp/dataset/6/6_18.odb,Step-1,Increment      1: Step Time =    1.000,"PART-1-1",           294,       5.98985,      -7.53541,            0.,NA,NA,"",   140.823E-03,   63.9620E-03,  -125.459E-03,   10.9520E-03
C:/temp/dataset/6/6_18.odb,Step-1,Increment      1: Step Time =    1.000,"PART-1-1",           295,            5.,      -8.76875,            0.,NA,NA,"",   128.313E-03,   59.2091E-03,  -113.835E-03,   11.8407E-03
C:/temp/dataset/6/6_18.odb,Step-1,Increment      1: Step Time =    1.000,"PART-1-1",           296,       5.98320,      -10.0539,            0.,NA,NA,"",   119.615E-03,   63.5864E-03,  -101.314E-03,   9.78068E-03
C:/temp/dataset/6/6_18.odb,Step-1,Increment      1: Step Time =    1.000,"PART-1-1",           297,       12.0429,      -8.05477,            0.,NA,NA,"",   125.504E-03,   79.6570E-03,  -96.9843E-03,   3.17224E-03
C:/temp/dataset/6/6_18.odb,Step-1,Increment      1: Step Time =    1.000,"PART-1-1",           298,       11.0248,      -9.13413,            0.,NA,NA,"",   124.607E-03,   78.9823E-03,  -96.3783E-03,   4.39888E-03
C:/temp/dataset/6/6_18.odb,Step-1,Increment      1: Step Time =    1.000,"PART-1-1",           299,       11.9985,      -10.2754,            0.,NA,NA,"",   120.882E-03,   79.9947E-03,  -90.6272E-03,   3.77538E-03
C:/temp/dataset/6/6_18.odb,Step-1,Increment      1: Step Time =    1.000,"PART-1-1",           300,       13.0166,      -9.19606,            0.,NA,NA,"",   122.977E-03,   81.6407E-03,  -91.9681E-03,   2.53859E-03
C:/temp/dataset/6/6_18.odb,Step-1,Increment      1: Step Time =    1.000,"PART-1-1",           301,       13.9992,      -14.7549,            0.,NA,NA,"",   106.196E-03,   70.9056E-03,  -79.0565E-03,   3.37765E-03
C:/temp/dataset/6/6_18.odb,Step-1,Increment      1: Step Time =    1.000,"PART-1-1",           302,       13.0271,      -15.9471,            0.,NA,NA,"",   96.5812E-03,   63.9964E-03,  -72.3353E-03,   4.42925E-03
C:/temp/dataset/6/6_18.odb,Step-1,Increment      1: Step Time =    1.000,"PART-1-1",           303,       14.0279,      -16.9735,            0.,NA,NA,"",   94.0424E-03,   60.8765E-03,  -71.6801E-03,   4.23768E-03
C:/temp/dataset/6/6_18.odb,Step-1,Increment      1: Step Time =    1.000,"PART-1-1",           304,           15.,      -15.7813,            0.,NA,NA,"",   104.750E-03,   68.0538E-03,  -79.6326E-03,   3.27193E-03
C:/temp/dataset/6/6_18.odb,Step-1,Increment      1: Step Time =    1.000,"PART-1-1",           305,       6.96949,      -18.0995,            0.,NA,NA,"",   60.0136E-03,   37.8318E-03,  -46.5874E-03,   6.12461E-03
C:/temp/dataset/6/6_18.odb,Step-1,Increment      1: Step Time =    1.000,"PART-1-1",           306,       5.95014,      -17.3335,            0.,NA,NA,"",   60.9779E-03,   39.1148E-03,  -46.7797E-03,   6.97833E-03
C:/temp/dataset/6/6_18.odb,Step-1,Increment      1: Step Time =    1.000,"PART-1-1",           307,            5.,      -18.7625,            0.,NA,NA,"",   43.1401E-03,   28.4122E-03,  -32.4626E-03,   7.49187E-03
C:/temp/dataset/6/6_18.odb,Step-1,Increment      1: Step Time =    1.000,"PART-1-1",           308,       6.01935,      -19.5285,            0.,NA,NA,"",   43.5706E-03,   26.5622E-03,  -34.5376E-03,   6.07713E-03
C:/temp/dataset/6/6_18.odb,Step-1,Increment      1: Step Time =    1.000,"PART-1-1",           309,       7.66098,      -29.0388,            0.,NA,NA,"",   2.34788E-03,  -331.150E-06,  -2.32441E-03,   3.09297E-03
C:/temp/dataset/6/6_18.odb,Step-1,Increment      1: Step Time =    1.000,"PART-1-1",           310,       6.62868,      -28.0660,            0.,NA,NA,"",   4.18229E-03,  -547.777E-06,  -4.14627E-03,   2.73901E-03
C:/temp/dataset/6/6_18.odb,Step-1,Increment      1: Step Time =    1.000,"PART-1-1",           311,       5.21770,      -29.0272,            0.,NA,NA,"",   1.75631E-03,  -962.049E-06,  -1.46938E-03,   2.03248E-03
C:/temp/dataset/6/6_18.odb,Step-1,Increment      1: Step Time =    1.000,"PART-1-1",           312,          6.25,          -30.,            0.,NA,NA,"",            0.,  -759.851E-42,  -4.46717E-39,   2.42938E-03
C:/temp/dataset/6/6_18.odb,Step-1,Increment      1: Step Time =    1.000,"PART-1-1",           313,   162.125E-03,      -28.5454,            0.,NA,NA,"",   680.382E-06,  -570.638E-06,  -370.530E-06,   501.145E-06
C:/temp/dataset/6/6_18.odb,Step-1,Increment      1: Step Time =    1.000,"PART-1-1",           314,      -1.06934,      -27.3053,            0.,NA,NA,"",   465.246E-06,  -287.651E-06,  -365.665E-06,   497.469E-06
C:/temp/dataset/6/6_18.odb,Step-1,Increment      1: Step Time =    1.000,"PART-1-1",           315,      -2.48147,      -28.7599,            0.,NA,NA,"",   440.465E-06,   195.052E-06,  -394.924E-06,   484.368E-06
C:/temp/dataset/6/6_18.odb,Step-1,Increment      1: Step Time =    1.000,"PART-1-1",           316,         -1.25,          -30.,            0.,NA,NA,"",            0.,  -2.36960E-42,  -916.851E-42,   468.660E-06
C:/temp/dataset/6/6_18.odb,Step-1,Increment      1: Step Time =    1.000,"PART-1-1",           317,          -15.,        -21.25,            0.,NA,NA,"",   45.0896E-03,  -27.7633E-03,  -35.5285E-03,   3.50198E-03
C:/temp/dataset/6/6_18.odb,Step-1,Increment      1: Step Time =    1.000,"PART-1-1",           318,      -13.9888,      -22.4607,            0.,NA,NA,"",   35.8864E-03,  -21.9162E-03,  -28.4168E-03,   3.75817E-03
C:/temp/dataset/6/6_18.odb,Step-1,Increment      1: Step Time =    1.000,"PART-1-1",           319,      -12.8187,      -21.2681,            0.,NA,NA,"",   38.0127E-03,  -24.2767E-03,  -29.2507E-03,   3.51864E-03
C:/temp/dataset/6/6_18.odb,Step-1,Increment      1: Step Time =    1.000,"PART-1-1",           320,      -13.8299,      -20.0574,            0.,NA,NA,"",   46.6349E-03,  -30.4332E-03,  -35.3360E-03,   3.17782E-03
C:/temp/dataset/6/6_18.odb,Step-1,Increment      1: Step Time =    1.000,"PART-1-1",           321,      -12.5142,      -28.6623,            0.,NA,NA,"",   4.42817E-03,  -2.38304E-03,  -3.73227E-03,   3.58367E-03
C:/temp/dataset/6/6_18.odb,Step-1,Increment      1: Step Time =    1.000,"PART-1-1",           322,        -11.25,          -30.,            0.,NA,NA,"",            0.,  -451.674E-42,  -5.35768E-39,   2.78296E-03
C:/temp/dataset/6/6_18.odb,Step-1,Increment      1: Step Time =    1.000,"PART-1-1",           323,      -9.93348,      -28.4464,            0.,NA,NA,"",   3.31947E-03,  -1.05618E-03,  -3.14696E-03,   2.56954E-03
C:/temp/dataset/6/6_18.odb,Step-1,Increment      1: Step Time =    1.000,"PART-1-1",           324,      -11.1976,      -27.1087,            0.,NA,NA,"",   8.70447E-03,  -4.44828E-03,  -7.48201E-03,   3.50361E-03
C:/temp/dataset/6/6_18.odb,Step-1,Increment      1: Step Time =    1.000,"PART-1-1",           325,      -7.37036,      -13.8742,            0.,NA,NA,"",   63.6601E-03,  -43.7058E-03,  -46.2862E-03,   5.12107E-03
C:/temp/dataset/6/6_18.odb,Step-1,Increment      1: Step Time =    1.000,"PART-1-1",           326,      -6.21015,      -15.0417,            0.,NA,NA,"",   54.6432E-03,  -37.6909E-03,  -39.5636E-03,   5.32212E-03
C:/temp/dataset/6/6_18.odb,Step-1,Increment      1: Step Time =    1.000,"PART-1-1",           327,           -5.,      -13.7188,            0.,NA,NA,"",   58.1642E-03,  -38.0153E-03,  -44.0217E-03,   6.48960E-03
C:/temp/dataset/6/6_18.odb,Step-1,Increment      1: Step Time =    1.000,"PART-1-1",           328,      -6.16021,      -12.5513,            0.,NA,NA,"",   68.0989E-03,  -43.6449E-03,  -52.2741E-03,   6.17218E-03
C:/temp/dataset/6/6_18.odb,Step-1,Increment      1: Step Time =    1.000,"PART-1-1",           329,      -9.33590,      -9.40979,            0.,NA,NA,"",   81.0468E-03,  -52.9813E-03,  -61.3316E-03,   4.18693E-03
C:/temp/dataset/6/6_18.odb,Step-1,Increment      1: Step Time =    1.000,"PART-1-1",           330,      -8.33361,      -10.3234,            0.,NA,NA,"",   79.7250E-03,  -51.3581E-03,  -60.9789E-03,   5.09740E-03
C:/temp/dataset/6/6_18.odb,Step-1,Increment      1: Step Time =    1.000,"PART-1-1",           331,      -7.16565,      -9.15059,            0.,NA,NA,"",   85.2629E-03,  -48.7301E-03,  -69.9652E-03,   6.46963E-03
C:/temp/dataset/6/6_18.odb,Step-1,Increment      1: Step Time =    1.000,"PART-1-1",           332,      -8.16794,      -8.23701,            0.,NA,NA,"",   86.4841E-03,  -50.0193E-03,  -70.5518E-03,   5.53641E-03
C:/temp/dataset/6/6_18.odb,Step-1,Increment      1: Step Time =    1.000,"PART-1-1",           333,      -11.1473,      -6.32447,            0.,NA,NA,"",   75.3975E-03,  -46.5566E-03,  -59.3066E-03,   1.52502E-03
C:/temp/dataset/6/6_18.odb,Step-1,Increment      1: Step Time =    1.000,"PART-1-1",           334,      -10.2102,      -6.79208,            0.,NA,NA,"",   80.1652E-03,  -48.2963E-03,  -63.9838E-03,   2.58507E-03
C:/temp/dataset/6/6_18.odb,Step-1,Increment      1: Step Time =    1.000,"PART-1-1",           335,      -9.51762,      -5.78103,            0.,NA,NA,"",   82.6676E-03,  -43.1842E-03,  -70.4916E-03,   2.75614E-03
C:/temp/dataset/6/6_18.odb,Step-1,Increment      1: Step Time =    1.000,"PART-1-1",           336,      -10.4548,      -5.31342,            0.,NA,NA,"",   76.8777E-03,  -41.0108E-03,  -65.0254E-03,   1.84115E-03
C:/temp/dataset/6/6_18.odb,Step-1,Increment      1: Step Time =    1.000,"PART-1-1",           337,      -5.04937,      -1.25055,            0.,NA,NA,"",   140.178E-03,  -227.669E-06,  -140.177E-03,   7.43398E-03
C:/temp/dataset/6/6_18.odb,Step-1,Increment      1: Step Time =    1.000,"PART-1-1",           338,      -3.82978,  -150.691E-03,            0.,NA,NA,"",   164.054E-03,   7.79023E-03,  -163.869E-03,   8.01196E-03
C:/temp/dataset/6/6_18.odb,Step-1,Increment      1: Step Time =    1.000,"PART-1-1",           339,      -5.10700,   929.666E-03,            0.,NA,NA,"",   144.269E-03,   15.4581E-03,  -143.438E-03,   5.56186E-03
C:/temp/dataset/6/6_18.odb,Step-1,Increment      1: Step Time =    1.000,"PART-1-1",           340,      -6.32658,  -170.190E-03,            0.,NA,NA,"",   122.849E-03,   6.30059E-03,  -122.687E-03,   4.81211E-03
C:/temp/dataset/6/6_18.odb,Step-1,Increment      1: Step Time =    1.000,"PART-1-1",           341,          -15.,          3.75,            0.,NA,NA,"",   52.0689E-03,   45.9856E-03,  -24.4233E-03,   667.806E-06
C:/temp/dataset/6/6_18.odb,Step-1,Increment      1: Step Time =    1.000,"PART-1-1",           342,      -13.8520,       2.39386,            0.,NA,NA,"",   48.4025E-03,   30.1795E-03,  -37.8418E-03,   560.229E-06
C:/temp/dataset/6/6_18.odb,Step-1,Increment      1: Step Time =    1.000,"PART-1-1",           343,      -12.6820,       3.58697,            0.,NA,NA,"",   66.5763E-03,   43.5809E-03,  -50.3300E-03,   425.039E-06
C:/temp/dataset/6/6_18.odb,Step-1,Increment      1: Step Time =    1.000,"PART-1-1",           344,      -13.8301,       4.94311,            0.,NA,NA,"",   70.2881E-03,   59.5348E-03,  -37.3633E-03,   332.596E-06
C:/temp/dataset/6/6_18.odb,Step-1,Increment      1: Step Time =    1.000,"PART-1-1",           345,          -15.,         11.25,            0.,NA,NA,"",   136.279E-03,   134.254E-03,  -23.4048E-03,   20.3869E-06
C:/temp/dataset/6/6_18.odb,Step-1,Increment      1: Step Time =    1.000,"PART-1-1",           346,      -14.0083,       10.0442,            0.,NA,NA,"",   124.932E-03,   119.916E-03,  -35.0457E-03,   47.2135E-06
C:/temp/dataset/6/6_18.odb,Step-1,Increment      1: Step Time =    1.000,"PART-1-1",           347,      -13.0572,       11.3141,            0.,NA,NA,"",   142.599E-03,   134.873E-03,  -46.3031E-03,   46.1169E-06
C:/temp/dataset/6/6_18.odb,Step-1,Increment      1: Step Time =    1.000,"PART-1-1",           348,      -14.0489,       12.5200,            0.,NA,NA,"",   153.165E-03,   149.182E-03,  -34.7037E-03,   8.87523E-06
C:/temp/dataset/6/6_18.odb,Step-1,Increment      1: Step Time =    1.000,"PART-1-1",           349,           -5.,       22.7083,            0.,NA,NA,"",   303.757E-03,   268.552E-03,  -141.944E-03,   329.621E-09
C:/temp/dataset/6/6_18.odb,Step-1,Increment      1: Step Time =    1.000,"PART-1-1",           350,      -5.96779,       23.6687,            0.,NA,NA,"",   308.899E-03,   279.925E-03,  -130.617E-03,   181.834E-09
C:/temp/dataset/6/6_18.odb,Step-1,Increment      1: Step Time =    1.000,"PART-1-1",           351,      -6.69567,       22.7251,            0.,NA,NA,"",   295.244E-03,   268.867E-03,  -121.983E-03,   429.709E-09
C:/temp/dataset/6/6_18.odb,Step-1,Increment      1: Step Time =    1.000,"PART-1-1",           352,      -5.72788,       21.7648,            0.,NA,NA,"",   289.956E-03,   257.494E-03,  -133.309E-03,   467.159E-09
C:/temp/dataset/6/6_18.odb,Step-1,Increment      1: Step Time =    1.000,"PART-1-1",           353,      -9.95259,       28.8237,            0.,NA,NA,"",   351.100E-03,   340.888E-03,  -84.0642E-03,   22.5747E-09
C:/temp/dataset/6/6_18.odb,Step-1,Increment      1: Step Time =    1.000,"PART-1-1",           354,      -8.67740,       27.7404,            0.,NA,NA,"",   342.660E-03,   328.047E-03,  -99.0011E-03,   30.6534E-09
C:/temp/dataset/6/6_18.odb,Step-1,Increment      1: Step Time =    1.000,"PART-1-1",           355,      -7.47481,       28.9167,            0.,NA,NA,"",   360.081E-03,   341.812E-03,  -113.240E-03,   9.88650E-09
C:/temp/dataset/6/6_18.odb,Step-1,Increment      1: Step Time =    1.000,"PART-1-1",           356,         -8.75,           30.,            0.,NA,NA,"",   368.025E-03,   354.653E-03,  -98.3030E-03,   2.81493E-09
C:/temp/dataset/6/6_18.odb,Step-1,Increment      1: Step Time =    1.000,"PART-1-1",           357,      -12.4360,       28.7156,            0.,NA,NA,"",   344.182E-03,   339.788E-03,  -54.8212E-03,   11.9953E-09
C:/temp/dataset/6/6_18.odb,Step-1,Increment      1: Step Time =    1.000,"PART-1-1",           358,        -13.75,           30.,            0.,NA,NA,"",   357.184E-03,   354.999E-03,  -39.4412E-03,   4.31939E-09
C:/temp/dataset/6/6_18.odb,Step-1,Increment      1: Step Time =    1.000,"PART-1-1",           359,          -15.,         28.75,            0.,NA,NA,"",   341.261E-03,   340.370E-03,  -24.6391E-03,   1.49621E-09
C:/temp/dataset/6/6_18.odb,Step-1,Increment      1: Step Time =    1.000,"PART-1-1",           360,      -13.6860,       27.4656,            0.,NA,NA,"",   327.613E-03,   325.159E-03,  -40.0191E-03,   11.3585E-09
C:/temp/dataset/6/6_18.odb,Step-1,Increment      1: Step Time =    1.000,"PART-1-1",           361,         -3.75,           -5.,            0.,NA,NA,"",   157.846E-03,  -33.3524E-03,  -154.282E-03,   5.11108E-03
C:/temp/dataset/6/6_18.odb,Step-1,Increment      1: Step Time =    1.000,"PART-1-1",           362,      -2.75606,      -4.06584,            0.,NA,NA,"",   175.445E-03,  -16.2972E-03,  -174.686E-03,   5.65447E-03
C:/temp/dataset/6/6_18.odb,Step-1,Increment      1: Step Time =    1.000,"PART-1-1",           363,      -4.26954,      -3.28646,            0.,NA,NA,"",   146.717E-03,  -12.2992E-03,  -146.200E-03,   9.09364E-03
C:/temp/dataset/6/6_18.odb,Step-1,Increment      1: Step Time =    1.000,"PART-1-1",           364,      -5.26349,      -4.22062,            0.,NA,NA,"",   122.198E-03,  -24.7513E-03,  -119.665E-03,   10.0359E-03
C:/temp/dataset/6/6_18.odb,Step-1,Increment      1: Step Time =    1.000,"PART-1-1",           365,   659.099E-03,      -2.85996,            0.,NA,NA,"",   217.796E-03,   7.04300E-03,  -217.682E-03,   5.49013E-03
C:/temp/dataset/6/6_18.odb,Step-1,Increment      1: Step Time =    1.000,"PART-1-1",           366,  -266.865E-03,      -3.97148,            0.,NA,NA,"",   207.899E-03,  -1.91158E-03,  -207.890E-03,   8.45174E-03
C:/temp/dataset/6/6_18.odb,Step-1,Increment      1: Step Time =    1.000,"PART-1-1",           367,          1.25,           -5.,            0.,NA,NA,"",   210.326E-03,   8.99828E-03,  -210.133E-03,   12.3226E-03
C:/temp/dataset/6/6_18.odb,Step-1,Increment      1: Step Time =    1.000,"PART-1-1",           368,       2.17596,      -3.88848,            0.,NA,NA,"",   214.662E-03,   16.3939E-03,  -214.035E-03,   8.92027E-03
C:/temp/dataset/6/6_18.odb,Step-1,Increment      1: Step Time =    1.000,"PART-1-1",           369,   93.5104E-03,  -560.922E-03,            0.,NA,NA,"",   222.193E-03,   8.75107E-03,  -222.021E-03,   6.47853E-03
C:/temp/dataset/6/6_18.odb,Step-1,Increment      1: Step Time =    1.000,"PART-1-1",           370,   627.873E-03,   544.404E-03,            0.,NA,NA,"",   231.937E-03,   11.2641E-03,  -231.664E-03,   7.82879E-03
C:/temp/dataset/6/6_18.odb,Step-1,Increment      1: Step Time =    1.000,"PART-1-1",           371,  -981.002E-03,       1.17096,            0.,NA,NA,"",   214.638E-03,   11.4525E-03,  -214.333E-03,   9.02857E-03
C:/temp/dataset/6/6_18.odb,Step-1,Increment      1: Step Time =    1.000,"PART-1-1",           372,      -1.51537,   65.6335E-03,            0.,NA,NA,"",   203.582E-03,   8.26321E-03,  -203.415E-03,   8.52703E-03
C:/temp/dataset/6/6_18.odb,Step-1,Increment      1: Step Time =    1.000,"PART-1-1",           373,       4.11258,       2.54084,            0.,NA,NA,"",   241.101E-03,   22.1302E-03,  -240.083E-03,   13.3822E-03
C:/temp/dataset/6/6_18.odb,Step-1,Increment      1: Step Time =    1.000,"PART-1-1",           374,       3.71515,       1.12833,            0.,NA,NA,"",   234.539E-03,   22.4822E-03,  -233.459E-03,   12.3181E-03
C:/temp/dataset/6/6_18.odb,Step-1,Increment      1: Step Time =    1.000,"PART-1-1",           375,       5.46602,   397.127E-03,            0.,NA,NA,"",   205.412E-03,   28.2444E-03,  -203.461E-03,   11.6182E-03
C:/temp/dataset/6/6_18.odb,Step-1,Increment      1: Step Time =    1.000,"PART-1-1",           376,       8.69518,  -378.803E-03,            0.,NA,NA,"",   155.296E-03,   38.3870E-03,  -150.477E-03,   6.31642E-03
C:/temp/dataset/6/6_18.odb,Step-1,Increment      1: Step Time =    1.000,"PART-1-1",           377,       8.82700,   889.396E-03,            0.,NA,NA,"",   155.230E-03,   30.6431E-03,  -152.175E-03,   5.31752E-03
C:/temp/dataset/6/6_18.odb,Step-1,Increment      1: Step Time =    1.000,"PART-1-1",           378,       6.97530,  -164.986E-03,            0.,NA,NA,"",   179.560E-03,   33.7090E-03,  -176.367E-03,   9.77500E-03
C:/temp/dataset/6/6_18.odb,Step-1,Increment      1: Step Time =    1.000,"PART-1-1",           379,      -3.65351,      -22.6081,            0.,NA,NA,"",   5.16176E-03,  -2.82392E-03,  -4.32080E-03,   1.32618E-03
C:/temp/dataset/6/6_18.odb,Step-1,Increment      1: Step Time =    1.000,"PART-1-1",           380,      -2.48671,      -21.3009,            0.,NA,NA,"",   4.39715E-03,  -3.18723E-03,  -3.02927E-03,   2.03281E-03
C:/temp/dataset/6/6_18.odb,Step-1,Increment      1: Step Time =    1.000,"PART-1-1",           381,         -3.75,          -20.,            0.,NA,NA,"",   11.5342E-03,  -9.09684E-03,  -7.09115E-03,   3.40695E-03
C:/temp/dataset/6/6_18.odb,Step-1,Increment      1: Step Time =    1.000,"PART-1-1",           382,      -4.91680,      -21.3072,            0.,NA,NA,"",   12.3110E-03,  -7.20552E-03,  -9.98206E-03,   2.89897E-03
C:/temp/dataset/6/6_18.odb,Step-1,Increment      1: Step Time =    1.000,"PART-1-1",           383,       12.8399,      -22.4784,            0.,NA,NA,"",   51.0124E-03,   29.6539E-03,  -41.5079E-03,   6.01454E-03
C:/temp/dataset/6/6_18.odb,Step-1,Increment      1: Step Time =    1.000,"PART-1-1",           384,       11.7398,      -21.2760,            0.,NA,NA,"",   55.0625E-03,   32.6536E-03,  -44.3352E-03,   5.93494E-03
C:/temp/dataset/6/6_18.odb,Step-1,Increment      1: Step Time =    1.000,"PART-1-1",           385,       10.5591,      -22.4389,            0.,NA,NA,"",   42.0641E-03,   23.4282E-03,  -34.9357E-03,   5.99946E-03
C:/temp/dataset/6/6_18.odb,Step-1,Increment      1: Step Time =    1.000,"PART-1-1",           386,       11.6593,      -23.6412,            0.,NA,NA,"",   37.9387E-03,   20.9971E-03,  -31.5985E-03,   6.06005E-03
C:/temp/dataset/6/6_18.odb,Step-1,Increment      1: Step Time =    1.000,"PART-1-1",           387,          8.75,            5.,            0.,NA,NA,"",   155.535E-03,  -12.4185E-03,  -155.038E-03,   371.700E-06
C:/temp/dataset/6/6_18.odb,Step-1,Increment      1: Step Time =    1.000,"PART-1-1",           388,       7.62461,       4.03982,            0.,NA,NA,"",   172.364E-03,   1.40279E-03,  -172.358E-03,   2.52986E-03
C:/temp/dataset/6/6_18.odb,Step-1,Increment      1: Step Time =    1.000,"PART-1-1",           389,       8.90047,       2.96899,            0.,NA,NA,"",   153.431E-03,   12.8215E-03,  -152.894E-03,   2.76545E-03
C:/temp/dataset/6/6_18.odb,Step-1,Increment      1: Step Time =    1.000,"PART-1-1",           390,       10.0259,       3.92917,            0.,NA,NA,"",   138.011E-03,   1.12745E-03,  -138.007E-03,   471.565E-06
C:/temp/dataset/6/6_18.odb,Step-1,Increment      1: Step Time =    1.000,"PART-1-1",           391,      -6.96921,       21.1213,            0.,NA,NA,"",   276.732E-03,   250.005E-03,  -118.652E-03,   761.048E-09
C:/temp/dataset/6/6_18.odb,Step-1,Increment      1: Step Time =    1.000,"PART-1-1",           392,      -6.24133,       19.9816,            0.,NA,NA,"",   268.541E-03,   236.537E-03,  -127.141E-03,   922.426E-09
C:/temp/dataset/6/6_18.odb,Step-1,Increment      1: Step Time =    1.000,"PART-1-1",           393,           -5.,        20.625,            0.,NA,NA,"",   282.233E-03,   244.026E-03,  -141.798E-03,   970.065E-09
C:/temp/dataset/6/6_18.odb,Step-1,Increment      1: Step Time =    1.000,"PART-1-1",           394,      -12.9370,       8.81410,            0.,NA,NA,"",   115.504E-03,   105.261E-03,  -47.5538E-03,   136.018E-06
C:/temp/dataset/6/6_18.odb,Step-1,Increment      1: Step Time =    1.000,"PART-1-1",           395,          -15.,          8.75,            0.,NA,NA,"",   107.253E-03,   104.685E-03,  -23.3290E-03,   106.607E-06
C:/temp/dataset/6/6_18.odb,Step-1,Increment      1: Step Time =    1.000,"PART-1-1",           396,      -13.9287,       7.51992,            0.,NA,NA,"",   96.9073E-03,   89.9877E-03,  -35.9618E-03,   154.255E-06
C:/temp/dataset/6/6_18.odb,Step-1,Increment      1: Step Time =    1.000,"PART-1-1",           397,          -15.,          1.25,            0.,NA,NA,"",   31.8466E-03,   18.0403E-03,  -26.2441E-03,   1.14471E-03
C:/temp/dataset/6/6_18.odb,Step-1,Increment      1: Step Time =    1.000,"PART-1-1",           398,      -13.9023,  -59.1614E-03,            0.,NA,NA,"",   38.7823E-03,   3.66813E-03,  -38.6084E-03,   844.184E-06
C:/temp/dataset/6/6_18.odb,Step-1,Increment      1: Step Time =    1.000,"PART-1-1",           399,      -12.7542,       1.08470,            0.,NA,NA,"",   52.0139E-03,   15.4973E-03,  -49.6516E-03,   513.006E-06
C:/temp/dataset/6/6_18.odb,Step-1,Increment      1: Step Time =    1.000,"PART-1-1",           400,          -15.,         -1.25,            0.,NA,NA,"",   30.2209E-03,  -7.53169E-03,  -29.2674E-03,   1.70611E-03
C:/temp/dataset/6/6_18.odb,Step-1,Increment      1: Step Time =    1.000,"PART-1-1",           401,      -13.9820,      -2.43756,            0.,NA,NA,"",   44.2053E-03,  -19.1594E-03,  -39.8375E-03,   1.19469E-03
C:/temp/dataset/6/6_18.odb,Step-1,Increment      1: Step Time =    1.000,"PART-1-1",           402,      -12.8843,      -1.24672,            0.,NA,NA,"",   49.3933E-03,  -8.50254E-03,  -48.6560E-03,   562.923E-06
C:/temp/dataset/6/6_18.odb,Step-1,Increment      1: Step Time =    1.000,"PART-1-1",           403,      -12.3802,      -13.7897,            0.,NA,NA,"",   68.9022E-03,  -51.3427E-03,  -45.9505E-03,   2.44363E-03
C:/temp/dataset/6/6_18.odb,Step-1,Increment      1: Step Time =    1.000,"PART-1-1",           404,      -13.6672,      -12.5056,            0.,NA,NA,"",   72.4087E-03,  -54.6715E-03,  -47.4767E-03,   1.03474E-03
C:/temp/dataset/6/6_18.odb,Step-1,Increment      1: Step Time =    1.000,"PART-1-1",           405,          -15.,        -13.75,            0.,NA,NA,"",   71.5600E-03,  -52.5689E-03,  -48.5526E-03,   180.859E-06
C:/temp/dataset/6/6_18.odb,Step-1,Increment      1: Step Time =    1.000,"PART-1-1",           406,      -13.7130,      -15.0341,            0.,NA,NA,"",   66.5653E-03,  -48.7911E-03,  -45.2810E-03,   1.65871E-03
C:/temp/dataset/6/6_18.odb,Step-1,Increment      1: Step Time =    1.000,"PART-1-1",           407,       9.21271,      -3.58583,            0.,NA,NA,"",   141.988E-03,   57.6715E-03,  -129.748E-03,   6.14090E-03
C:/temp/dataset/6/6_18.odb,Step-1,Increment      1: Step Time =    1.000,"PART-1-1",           408,       7.90749,      -3.82305,            0.,NA,NA,"",   150.500E-03,   54.2839E-03,  -140.369E-03,   8.25223E-03
C:/temp/dataset/6/6_18.odb,Step-1,Increment      1: Step Time =    1.000,"PART-1-1",           409,       8.15132,      -5.16923,            0.,NA,NA,"",   143.724E-03,   63.0406E-03,  -129.160E-03,   7.09446E-03
C:/temp/dataset/6/6_18.odb,Step-1,Increment      1: Step Time =    1.000,"PART-1-1",           410,       9.45655,      -4.93201,            0.,NA,NA,"",   137.718E-03,   65.6412E-03,  -121.068E-03,   5.45543E-03
C:/temp/dataset/6/6_18.odb,Step-1,Increment      1: Step Time =    1.000,"PART-1-1",           411,       6.91243,      -16.0318,            0.,NA,NA,"",   76.2233E-03,   48.6082E-03,  -58.7132E-03,   7.03284E-03
C:/temp/dataset/6/6_18.odb,Step-1,Increment      1: Step Time =    1.000,"PART-1-1",           412,       5.96229,      -14.9858,            0.,NA,NA,"",   80.2502E-03,   50.1442E-03,  -62.6551E-03,   7.85881E-03
C:/temp/dataset/6/6_18.odb,Step-1,Increment      1: Step Time =    1.000,"PART-1-1",           413,            5.,      -16.2875,            0.,NA,NA,"",   64.3989E-03,   40.9696E-03,  -49.6861E-03,   7.87796E-03
C:/temp/dataset/6/6_18.odb,Step-1,Increment      1: Step Time =    1.000,"PART-1-1",           414,       6.93910,      -13.7291,            0.,NA,NA,"",   94.1740E-03,   58.5113E-03,  -73.7914E-03,   7.70073E-03
C:/temp/dataset/6/6_18.odb,Step-1,Increment      1: Step Time =    1.000,"PART-1-1",           415,       5.97681,      -12.5371,            0.,NA,NA,"",   100.077E-03,   58.9092E-03,  -80.9015E-03,   8.73103E-03
C:/temp/dataset/6/6_18.odb,Step-1,Increment      1: Step Time =    1.000,"PART-1-1",           416,            5.,      -13.7937,            0.,NA,NA,"",   85.3318E-03,   51.0773E-03,  -68.3566E-03,   8.93585E-03
C:/temp/dataset/6/6_18.odb,Step-1,Increment      1: Step Time =    1.000,"PART-1-1",           417,         -1.25,          -20.,            0.,NA,NA,"",   3.71818E-03,  -1.20526E-03,  -3.51741E-03,   3.21819E-03
C:/temp/dataset/6/6_18.odb,Step-1,Increment      1: Step Time =    1.000,"PART-1-1",           418,      -1.09514,      -22.7401,            0.,NA,NA,"",   952.236E-06,  -245.475E-06,  -920.052E-06,   971.629E-06
C:/temp/dataset/6/6_18.odb,Step-1,Increment      1: Step Time =    1.000,"PART-1-1",           419,   141.566E-03,      -21.4393,            0.,NA,NA,"",   2.67420E-03,   1.81719E-03,  -1.96193E-03,   2.07420E-03
C:/temp/dataset/6/6_18.odb,Step-1,Increment      1: Step Time =    1.000,"PART-1-1",           420,      -7.69236,      -25.1479,            0.,NA,NA,"",   9.29829E-03,  -3.82281E-03,  -8.47610E-03,   2.53618E-03
C:/temp/dataset/6/6_18.odb,Step-1,Increment      1: Step Time =    1.000,"PART-1-1",           421,      -9.18951,      -25.9970,            0.,NA,NA,"",   9.37066E-03,  -4.13970E-03,  -8.40668E-03,   2.91142E-03
C:/temp/dataset/6/6_18.odb,Step-1,Increment      1: Step Time =    1.000,"PART-1-1",           422,      -8.56598,      -27.1897,            0.,NA,NA,"",   5.27855E-03,  -1.61967E-03,  -5.02392E-03,   2.35694E-03
C:/temp/dataset/6/6_18.odb,Step-1,Increment      1: Step Time =    1.000,"PART-1-1",           423,      -7.06883,      -26.3407,            0.,NA,NA,"",   5.44539E-03,  -1.45217E-03,  -5.24819E-03,   1.97511E-03
C:/temp/dataset/6/6_18.odb,Step-1,Increment      1: Step Time =    1.000,"PART-1-1",           424,      -9.82073,      -13.8964,            0.,NA,NA,"",   66.7365E-03,  -48.1438E-03,  -46.2162E-03,   3.93608E-03
C:/temp/dataset/6/6_18.odb,Step-1,Increment      1: Step Time =    1.000,"PART-1-1",           425,      -8.65586,      -15.1239,            0.,NA,NA,"",   59.7526E-03,  -42.4717E-03,  -42.0300E-03,   4.30252E-03
C:/temp/dataset/6/6_18.odb,Step-1,Increment      1: Step Time =    1.000,"PART-1-1",           426,      -8.53523,      -12.6467,            0.,NA,NA,"",   70.8844E-03,  -48.9775E-03,  -51.2425E-03,   4.66226E-03
C:/temp/dataset/6/6_18.odb,Step-1,Increment      1: Step Time =    1.000,"PART-1-1",           427,      -6.09243,      -10.1071,            0.,NA,NA,"",   80.7830E-03,  -45.6137E-03,  -66.6729E-03,   7.13948E-03
C:/temp/dataset/6/6_18.odb,Step-1,Increment      1: Step Time =    1.000,"PART-1-1",           428,           -5.,      -8.71250,            0.,NA,NA,"",   87.8973E-03,  -40.9155E-03,  -77.7937E-03,   9.01385E-03
C:/temp/dataset/6/6_18.odb,Step-1,Increment      1: Step Time =    1.000,"PART-1-1",           429,      -6.07322,      -7.75598,            0.,NA,NA,"",   94.5515E-03,  -44.4241E-03,  -83.4655E-03,   8.14951E-03
C:/temp/dataset/6/6_18.odb,Step-1,Increment      1: Step Time =    1.000,"PART-1-1",           430,      -12.7270,      -6.06323,            0.,NA,NA,"",   67.9167E-03,  -45.2884E-03,  -50.6127E-03,   304.581E-06
C:/temp/dataset/6/6_18.odb,Step-1,Increment      1: Step Time =    1.000,"PART-1-1",           431,      -13.8025,      -4.90646,            0.,NA,NA,"",   58.0258E-03,  -38.2144E-03,  -43.6652E-03,   1.21981E-03
C:/temp/dataset/6/6_18.odb,Step-1,Increment      1: Step Time =    1.000,"PART-1-1",           432,          -15.,         -6.25,            0.,NA,NA,"",   59.4454E-03,  -44.8542E-03,  -39.0109E-03,   2.34729E-03
C:/temp/dataset/6/6_18.odb,Step-1,Increment      1: Step Time =    1.000,"PART-1-1",           433,      -13.9244,      -7.40677,            0.,NA,NA,"",   68.1248E-03,  -50.6323E-03,  -45.5781E-03,   1.17513E-03
C:/temp/dataset/6/6_18.odb,Step-1,Increment      1: Step Time =    1.000,"PART-1-1",           434,       1.60591,      -1.50045,            0.,NA,NA,"",   225.745E-03,   12.3240E-03,  -225.408E-03,   5.67934E-03
C:/temp/dataset/6/6_18.odb,Step-1,Increment      1: Step Time =    1.000,"PART-1-1",           435,  -853.298E-03,      -1.92043,            0.,NA,NA,"",   208.073E-03,   3.64606E-03,  -208.041E-03,   6.74515E-03
C:/temp/dataset/6/6_18.odb,Step-1,Increment      1: Step Time =    1.000,"PART-1-1",           436,         13.75,          -30.,            0.,NA,NA,"",            0.,   892.211E-42,  -11.6423E-39,   7.90144E-03
C:/temp/dataset/6/6_18.odb,Step-1,Increment      1: Step Time =    1.000,"PART-1-1",           437,           15.,      -28.9063,            0.,NA,NA,"",   12.6474E-03,   8.94675E-03,  -8.93942E-03,   8.91910E-03
C:/temp/dataset/6/6_18.odb,Step-1,Increment      1: Step Time =    1.000,"PART-1-1",           438,       13.8103,      -27.8746,            0.,NA,NA,"",   16.1171E-03,   9.98881E-03,  -12.6485E-03,   7.15497E-03
C:/temp/dataset/6/6_18.odb,Step-1,Increment      1: Step Time =    1.000,"PART-1-1",           439,       12.5603,      -28.9683,            0.,NA,NA,"",   5.46170E-03,   2.86059E-03,  -4.65266E-03,   5.75525E-03
C:/temp/dataset/6/6_18.odb,Step-1,Increment      1: Step Time =    1.000,"PART-1-1",           440,       12.6598,      -26.8678,            0.,NA,NA,"",   19.6819E-03,   11.0373E-03,  -16.2958E-03,   6.48198E-03
C:/temp/dataset/6/6_18.odb,Step-1,Increment      1: Step Time =    1.000,"PART-1-1",           441,       11.5501,      -25.8632,            0.,NA,NA,"",   22.7608E-03,   11.8590E-03,  -19.4272E-03,   6.02099E-03
C:/temp/dataset/6/6_18.odb,Step-1,Increment      1: Step Time =    1.000,"PART-1-1",           442,       10.3093,      -26.9762,            0.,NA,NA,"",   12.9711E-03,   5.53618E-03,  -11.7303E-03,   5.15216E-03
C:/temp/dataset/6/6_18.odb,Step-1,Increment      1: Step Time =    1.000,"PART-1-1",           443,       11.4189,      -27.9808,            0.,NA,NA,"",   9.58512E-03,   4.65178E-03,  -8.38066E-03,   5.62516E-03
C:/temp/dataset/6/6_18.odb,Step-1,Increment      1: Step Time =    1.000,"PART-1-1",           444,       10.1086,      -29.0125,            0.,NA,NA,"",   3.45665E-03,   908.147E-06,  -3.33523E-03,   4.23793E-03
C:/temp/dataset/6/6_18.odb,Step-1,Increment      1: Step Time =    1.000,"PART-1-1",           445,       9.01957,      -28.0513,            0.,NA,NA,"",   6.21531E-03,   1.35658E-03,  -6.06545E-03,   4.02963E-03
C:/temp/dataset/6/6_18.odb,Step-1,Increment      1: Step Time =    1.000,"PART-1-1",           446,          8.75,          -30.,            0.,NA,NA,"",            0.,  -210.989E-42,  -6.54252E-39,   3.43312E-03
C:/temp/dataset/6/6_18.odb,Step-1,Increment      1: Step Time =    1.000,"PART-1-1",           447,       4.20973,      -27.9354,            0.,NA,NA,"",   2.80486E-03,  -1.39450E-03,  -2.43364E-03,   1.57620E-03
C:/temp/dataset/6/6_18.odb,Step-1,Increment      1: Step Time =    1.000,"PART-1-1",           448,       2.74203,      -28.9082,            0.,NA,NA,"",   1.29410E-03,  -1.03130E-03,  -781.729E-06,   1.11508E-03
C:/temp/dataset/6/6_18.odb,Step-1,Increment      1: Step Time =    1.000,"PART-1-1",           449,          3.75,          -30.,            0.,NA,NA,"",            0.,  -879.119E-42,  -2.56853E-39,   1.57874E-03
C:/temp/dataset/6/6_18.odb,Step-1,Increment      1: Step Time =    1.000,"PART-1-1",           450,       1.16266,      -25.9573,            0.,NA,NA,"",   1.33628E-03,  -797.623E-06,  -1.07213E-03,   464.821E-06
C:/temp/dataset/6/6_18.odb,Step-1,Increment      1: Step Time =    1.000,"PART-1-1",           451,       1.65415,      -27.4536,            0.,NA,NA,"",   1.57143E-03,  -1.20001E-03,  -1.01457E-03,   742.280E-06
C:/temp/dataset/6/6_18.odb,Step-1,Increment      1: Step Time =    1.000,"PART-1-1",           452,       3.39879,      -26.8461,            0.,NA,NA,"",   3.10890E-03,  -1.26876E-03,  -2.83822E-03,   1.24763E-03
C:/temp/dataset/6/6_18.odb,Step-1,Increment      1: Step Time =    1.000,"PART-1-1",           453,       2.90730,      -25.3498,            0.,NA,NA,"",   3.44282E-03,  -380.125E-06,  -3.42177E-03,   1.00428E-03
C:/temp/dataset/6/6_18.odb,Step-1,Increment      1: Step Time =    1.000,"PART-1-1",           454,      -3.67645,      -27.5530,            0.,NA,NA,"",   1.17560E-03,   329.079E-06,  -1.12860E-03,   664.604E-06
C:/temp/dataset/6/6_18.odb,Step-1,Increment      1: Step Time =    1.000,"PART-1-1",           455,      -2.54816,      -26.3074,            0.,NA,NA,"",   896.741E-06,  -39.6777E-06,  -895.863E-06,   424.136E-06
C:/temp/dataset/6/6_18.odb,Step-1,Increment      1: Step Time =    1.000,"PART-1-1",           456,      -3.72120,      -25.1278,            0.,NA,NA,"",   2.49507E-03,  -582.876E-06,  -2.42603E-03,   821.900E-06
C:/temp/dataset/6/6_18.odb,Step-1,Increment      1: Step Time =    1.000,"PART-1-1",           457,      -4.84948,      -26.3734,            0.,NA,NA,"",   2.78219E-03,  -196.063E-06,  -2.77527E-03,   1.06307E-03
C:/temp/dataset/6/6_18.odb,Step-1,Increment      1: Step Time =    1.000,"PART-1-1",           458,      -4.94498,      -28.7931,            0.,NA,NA,"",   996.470E-06,   449.381E-06,  -889.387E-06,   978.692E-06
C:/temp/dataset/6/6_18.odb,Step-1,Increment      1: Step Time =    1.000,"PART-1-1",           459,         -3.75,          -30.,            0.,NA,NA,"",            0.,   337.951E-42,  -1.38403E-39,   771.323E-06
C:/temp/dataset/6/6_18.odb,Step-1,Increment      1: Step Time =    1.000,"PART-1-1",           460,      -6.07748,      -27.5364,            0.,NA,NA,"",   2.60155E-03,   56.9492E-06,  -2.60093E-03,   1.36768E-03
C:/temp/dataset/6/6_18.odb,Step-1,Increment      1: Step Time =    1.000,"PART-1-1",           461,      -7.38250,      -28.7433,            0.,NA,NA,"",   1.67341E-03,   142.139E-06,  -1.66736E-03,   1.69112E-03
C:/temp/dataset/6/6_18.odb,Step-1,Increment      1: Step Time =    1.000,"PART-1-1",           462,         -6.25,          -30.,            0.,NA,NA,"",            0.,   394.122E-42,  -2.47525E-39,   1.32630E-03
C:/temp/dataset/6/6_18.odb,Step-1,Increment      1: Step Time =    1.000,"PART-1-1",           463,      -8.77755,      -24.1806,            0.,NA,NA,"",   14.7456E-03,  -7.48730E-03,  -12.7033E-03,   3.19919E-03
C:/temp/dataset/6/6_18.odb,Step-1,Increment      1: Step Time =    1.000,"PART-1-1",           464,      -9.92276,      -23.8066,            0.,NA,NA,"",   18.8686E-03,  -10.4722E-03,  -15.6958E-03,   3.58291E-03
C:/temp/dataset/6/6_18.odb,Step-1,Increment      1: Step Time =    1.000,"PART-1-1",           465,      -10.3347,      -25.6230,            0.,NA,NA,"",   12.6554E-03,  -6.48180E-03,  -10.8695E-03,   3.31305E-03
C:/temp/dataset/6/6_18.odb,Step-1,Increment      1: Step Time =    1.000,"PART-1-1",           466,       13.9544,      -21.3085,            0.,NA,NA,"",   64.4633E-03,   38.3697E-03,  -51.8004E-03,   5.83608E-03
C:/temp/dataset/6/6_18.odb,Step-1,Increment      1: Step Time =    1.000,"PART-1-1",           467,       13.8855,      -23.5136,            0.,NA,NA,"",   48.3241E-03,   27.8507E-03,  -39.4912E-03,   6.36871E-03
C:/temp/dataset/6/6_18.odb,Step-1,Increment      1: Step Time =    1.000,"PART-1-1",           468,           15.,      -22.3438,            0.,NA,NA,"",   62.3712E-03,   36.2625E-03,  -50.7464E-03,   6.24899E-03
C:/temp/dataset/6/6_18.odb,Step-1,Increment      1: Step Time =    1.000,"PART-1-1",           469,       12.7349,      -24.6944,            0.,NA,NA,"",   34.9196E-03,   19.6093E-03,  -28.8938E-03,   6.36409E-03
C:/temp/dataset/6/6_18.odb,Step-1,Increment      1: Step Time =    1.000,"PART-1-1",           470,       13.8494,      -25.7120,            0.,NA,NA,"",   32.6179E-03,   18.9645E-03,  -26.5381E-03,   6.71569E-03
C:/temp/dataset/6/6_18.odb,Step-1,Increment      1: Step Time =    1.000,"PART-1-1",           471,           15.,      -24.5313,            0.,NA,NA,"",   46.4090E-03,   26.9161E-03,  -37.8064E-03,   6.71222E-03
C:/temp/dataset/6/6_18.odb,Step-1,Increment      1: Step Time =    1.000,"PART-1-1",           472,         11.25,          -30.,            0.,NA,NA,"",            0.,   781.905E-42,  -8.86332E-39,   4.53450E-03
C:/temp/dataset/6/6_18.odb,Step-1,Increment      1: Step Time =    1.000,"PART-1-1",           473,       13.9950,      -12.5232,            0.,NA,NA,"",   115.549E-03,   78.4380E-03,  -84.8472E-03,   2.55274E-03
C:/temp/dataset/6/6_18.odb,Step-1,Increment      1: Step Time =    1.000,"PART-1-1",           474,       12.9942,      -13.6844,            0.,NA,NA,"",   108.719E-03,   73.4705E-03,  -80.1365E-03,   3.81111E-03
C:/temp/dataset/6/6_18.odb,Step-1,Increment      1: Step Time =    1.000,"PART-1-1",           475,           15.,      -13.5938,            0.,NA,NA,"",   114.242E-03,   76.3583E-03,  -84.9748E-03,   2.19238E-03
C:/temp/dataset/6/6_18.odb,Step-1,Increment      1: Step Time =    1.000,"PART-1-1",           476,       9.85236,      -17.2546,            0.,NA,NA,"",   77.7947E-03,   50.2448E-03,  -59.3925E-03,   5.89225E-03
C:/temp/dataset/6/6_18.odb,Step-1,Increment      1: Step Time =    1.000,"PART-1-1",           477,       8.68427,      -17.7513,            0.,NA,NA,"",   70.0154E-03,   44.4873E-03,  -54.0650E-03,   6.13186E-03
C:/temp/dataset/6/6_18.odb,Step-1,Increment      1: Step Time =    1.000,"PART-1-1",           478,       8.96140,      -18.9835,            0.,NA,NA,"",   61.5419E-03,   37.9913E-03,  -48.4156E-03,   6.09221E-03
C:/temp/dataset/6/6_18.odb,Step-1,Increment      1: Step Time =    1.000,"PART-1-1",           479,       10.1295,      -18.4868,            0.,NA,NA,"",   69.6188E-03,   43.9933E-03,  -53.9570E-03,   5.86962E-03
C:/temp/dataset/6/6_18.odb,Step-1,Increment      1: Step Time =    1.000,"PART-1-1",           480,       11.2436,      -18.3856,            0.,NA,NA,"",   74.2621E-03,   47.3457E-03,  -57.2123E-03,   5.65545E-03
C:/temp/dataset/6/6_18.odb,Step-1,Increment      1: Step Time =    1.000,"PART-1-1",           481,       12.3956,      -19.2305,            0.,NA,NA,"",   72.4625E-03,   45.4259E-03,  -56.4562E-03,   5.47866E-03
C:/temp/dataset/6/6_18.odb,Step-1,Increment      1: Step Time =    1.000,"PART-1-1",           482,       13.1120,      -18.1414,            0.,NA,NA,"",   82.8557E-03,   52.9919E-03,  -63.6941E-03,   5.01152E-03
C:/temp/dataset/6/6_18.odb,Step-1,Increment      1: Step Time =    1.000,"PART-1-1",           483,       11.9600,      -17.2965,            0.,NA,NA,"",   84.3953E-03,   54.9729E-03,  -64.0355E-03,   5.19484E-03
C:/temp/dataset/6/6_18.odb,Step-1,Increment      1: Step Time =    1.000,"PART-1-1",           484,       14.0024,      -3.77677,            0.,NA,NA,"",   115.442E-03,   65.5851E-03,  -95.0028E-03,   560.156E-06
C:/temp/dataset/6/6_18.odb,Step-1,Increment      1: Step Time =    1.000,"PART-1-1",           485,       13.0359,      -4.87313,            0.,NA,NA,"",   122.040E-03,   70.8117E-03,  -99.3957E-03,   1.63250E-03
C:/temp/dataset/6/6_18.odb,Step-1,Increment      1: Step Time =    1.000,"PART-1-1",           486,       14.0335,      -5.94012,            0.,NA,NA,"",   120.439E-03,   75.7913E-03,  -93.6012E-03,   761.525E-06
C:/temp/dataset/6/6_18.odb,Step-1,Increment      1: Step Time =    1.000,"PART-1-1",           487,           15.,      -4.84375,            0.,NA,NA,"",   114.407E-03,   71.1903E-03,  -89.5598E-03,   328.310E-06
C:/temp/dataset/6/6_18.odb,Step-1,Increment      1: Step Time =    1.000,"PART-1-1",           488,       13.0510,      -7.01836,            0.,NA,NA,"",   124.085E-03,   78.6317E-03,  -95.9900E-03,   1.98230E-03
C:/temp/dataset/6/6_18.odb,Step-1,Increment      1: Step Time =    1.000,"PART-1-1",           489,       14.0175,      -8.10950,            0.,NA,NA,"",   122.744E-03,   81.4553E-03,  -91.8216E-03,   1.17248E-03
C:/temp/dataset/6/6_18.odb,Step-1,Increment      1: Step Time =    1.000,"PART-1-1",           490,           15.,      -7.03125,            0.,NA,NA,"",   120.036E-03,   79.4176E-03,  -90.0089E-03,   70.8107E-06
C:/temp/dataset/6/6_18.odb,Step-1,Increment      1: Step Time =    1.000,"PART-1-1",           491,         13.75,            5.,            0.,NA,NA,"",   98.7482E-03,  -9.89479E-03,  -98.2512E-03,   195.872E-06
C:/temp/dataset/6/6_18.odb,Step-1,Increment      1: Step Time =    1.000,"PART-1-1",           492,       12.4982,       3.90020,            0.,NA,NA,"",   110.616E-03,   1.23973E-03,  -110.609E-03,   334.028E-06
C:/temp/dataset/6/6_18.odb,Step-1,Increment      1: Step Time =    1.000,"PART-1-1",           493,       13.7482,       2.80645,            0.,NA,NA,"",   98.9712E-03,   12.5287E-03,  -98.1750E-03,   285.732E-06
C:/temp/dataset/6/6_18.odb,Step-1,Increment      1: Step Time =    1.000,"PART-1-1",           494,           15.,       3.90625,            0.,NA,NA,"",   85.7063E-03,   1.18171E-03,  -85.6981E-03,   169.688E-06
C:/temp/dataset/6/6_18.odb,Step-1,Increment      1: Step Time =    1.000,"PART-1-1",           495,         11.25,            5.,            0.,NA,NA,"",   124.460E-03,  -10.9725E-03,  -123.975E-03,   708.357E-06
C:/temp/dataset/6/6_18.odb,Step-1,Increment      1: Step Time =    1.000,"PART-1-1",           496,       11.2740,       2.82937,            0.,NA,NA,"",   123.978E-03,   12.6112E-03,  -123.335E-03,   707.048E-06
C:/temp/dataset/6/6_18.odb,Step-1,Increment      1: Step Time =    1.000,"PART-1-1",           497,       11.1422,   446.578E-03,            0.,NA,NA,"",   128.071E-03,   34.6644E-03,  -123.290E-03,   2.25251E-03
C:/temp/dataset/6/6_18.odb,Step-1,Increment      1: Step Time =    1.000,"PART-1-1",           498,       10.2035,  -836.101E-03,            0.,NA,NA,"",   138.066E-03,   43.4959E-03,  -131.035E-03,   3.83786E-03
C:/temp/dataset/6/6_18.odb,Step-1,Increment      1: Step Time =    1.000,"PART-1-1",           499,       11.7017,      -1.82731,            0.,NA,NA,"",   125.381E-03,   51.9506E-03,  -114.112E-03,   2.59010E-03
C:/temp/dataset/6/6_18.odb,Step-1,Increment      1: Step Time =    1.000,"PART-1-1",           500,       12.5035,       1.67834,            0.,NA,NA,"",   112.718E-03,   23.7625E-03,  -110.185E-03,   396.791E-06
C:/temp/dataset/6/6_18.odb,Step-1,Increment      1: Step Time =    1.000,"PART-1-1",           501,       9.91277,       1.59761,            0.,NA,NA,"",   140.949E-03,   24.9724E-03,  -138.719E-03,   2.60505E-03
C:/temp/dataset/6/6_18.odb,Step-1,Increment      1: Step Time =    1.000,"PART-1-1",           502,       5.19643,       3.92738,            0.,NA,NA,"",   226.777E-03,   13.7547E-03,  -226.359E-03,   12.4134E-03
C:/temp/dataset/6/6_18.odb,Step-1,Increment      1: Step Time =    1.000,"PART-1-1",           503,          3.75,            5.,            0.,NA,NA,"",   270.742E-03,   2.92319E-03,  -270.726E-03,   17.0905E-03
C:/temp/dataset/6/6_18.odb,Step-1,Increment      1: Step Time =    1.000,"PART-1-1",           504,       2.66615,       3.61346,            0.,NA,NA,"",   267.502E-03,   17.9139E-03,  -266.901E-03,   15.8980E-03
C:/temp/dataset/6/6_18.odb,Step-1,Increment      1: Step Time =    1.000,"PART-1-1",           505,      -1.00804,       2.95894,            0.,NA,NA,"",   218.070E-03,   20.3304E-03,  -217.121E-03,   10.8515E-03
C:/temp/dataset/6/6_18.odb,Step-1,Increment      1: Step Time =    1.000,"PART-1-1",           506,   87.8012E-03,       3.95476,            0.,NA,NA,"",   244.342E-03,   23.3578E-03,  -243.223E-03,   13.0992E-03
C:/temp/dataset/6/6_18.odb,Step-1,Increment      1: Step Time =    1.000,"PART-1-1",           507,         -1.25,            5.,            0.,NA,NA,"",   213.401E-03,   52.4557E-03,  -206.853E-03,   5.83439E-03
C:/temp/dataset/6/6_18.odb,Step-1,Increment      1: Step Time =    1.000,"PART-1-1",           508,      -2.34584,       4.00418,            0.,NA,NA,"",   192.370E-03,   39.7729E-03,  -188.213E-03,   5.36102E-03
C:/temp/dataset/6/6_18.odb,Step-1,Increment      1: Step Time =    1.000,"PART-1-1",           509,      -3.27281,       2.96378,            0.,NA,NA,"",   175.964E-03,   29.9155E-03,  -173.403E-03,   5.72421E-03
C:/temp/dataset/6/6_18.odb,Step-1,Increment      1: Step Time =    1.000,"PART-1-1",           510,         -3.75,            5.,            0.,NA,NA,"",   173.464E-03,   58.4426E-03,  -163.323E-03,   1.97445E-03
C:/temp/dataset/6/6_18.odb,Step-1,Increment      1: Step Time =    1.000,"PART-1-1",           511,      -4.67697,       3.95960,            0.,NA,NA,"",   155.879E-03,   45.2876E-03,  -149.155E-03,   2.65315E-03
C:/temp/dataset/6/6_18.odb,Step-1,Increment      1: Step Time =    1.000,"PART-1-1",           512,      -7.93004,       8.58536,            0.,NA,NA,"",   147.844E-03,   102.742E-03,  -106.311E-03,   190.894E-06
C:/temp/dataset/6/6_18.odb,Step-1,Increment      1: Step Time =    1.000,"PART-1-1",           513,      -8.65034,       7.25415,            0.,NA,NA,"",   130.644E-03,   87.0549E-03,  -97.4124E-03,   323.963E-06
C:/temp/dataset/6/6_18.odb,Step-1,Increment      1: Step Time =    1.000,"PART-1-1",           514,      -7.51010,       6.50150,            0.,NA,NA,"",   135.773E-03,   78.3692E-03,  -110.872E-03,   382.172E-06
C:/temp/dataset/6/6_18.odb,Step-1,Increment      1: Step Time =    1.000,"PART-1-1",           515,      -6.78981,       7.83270,            0.,NA,NA,"",   152.324E-03,   94.0110E-03,  -119.852E-03,   340.586E-06
C:/temp/dataset/6/6_18.odb,Step-1,Increment      1: Step Time =    1.000,"PART-1-1",           516,      -7.08495,       12.0475,            0.,NA,NA,"",   184.756E-03,   143.267E-03,  -116.659E-03,   38.1470E-06
C:/temp/dataset/6/6_18.odb,Step-1,Increment      1: Step Time =    1.000,"PART-1-1",           517,      -6.02998,       11.1050,            0.,NA,NA,"",   184.694E-03,   132.152E-03,  -129.027E-03,   33.4017E-06
C:/temp/dataset/6/6_18.odb,Step-1,Increment      1: Step Time =    1.000,"PART-1-1",           518,           -5.,       12.2917,            0.,NA,NA,"",   203.097E-03,   145.989E-03,  -141.193E-03,   10.7488E-06
C:/temp/dataset/6/6_18.odb,Step-1,Increment      1: Step Time =    1.000,"PART-1-1",           519,      -6.05497,       13.2342,            0.,NA,NA,"",   203.213E-03,   157.132E-03,  -128.860E-03,   5.77435E-06
C:/temp/dataset/6/6_18.odb,Step-1,Increment      1: Step Time =    1.000,"PART-1-1",           520,      -9.96524,       21.0498,            0.,NA,NA,"",   262.942E-03,   249.372E-03,  -83.3781E-03,   900.908E-09
C:/temp/dataset/6/6_18.odb,Step-1,Increment      1: Step Time =    1.000,"PART-1-1",           521,      -8.51702,       20.1362,            0.,NA,NA,"",   258.771E-03,   238.515E-03,  -100.364E-03,   1.05487E-06
C:/temp/dataset/6/6_18.odb,Step-1,Increment      1: Step Time =    1.000,"PART-1-1",           522,      -8.09442,       21.6565,            0.,NA,NA,"",   277.219E-03,   256.383E-03,  -105.443E-03,   712.292E-09
C:/temp/dataset/6/6_18.odb,Step-1,Increment      1: Step Time =    1.000,"PART-1-1",           523,      -9.54264,       22.5701,            0.,NA,NA,"",   281.499E-03,   267.239E-03,  -88.4576E-03,   506.988E-09
C:/temp/dataset/6/6_18.odb,Step-1,Increment      1: Step Time =    1.000,"PART-1-1",           524,      -7.38593,       19.0122,            0.,NA,NA,"",   252.234E-03,   225.204E-03,  -113.601E-03,   1.33368E-06
C:/temp/dataset/6/6_18.odb,Step-1,Increment      1: Step Time =    1.000,"PART-1-1",           525,      -6.14460,       17.5723,            0.,NA,NA,"",   244.430E-03,   208.168E-03,  -128.110E-03,   1.80599E-06
C:/temp/dataset/6/6_18.odb,Step-1,Increment      1: Step Time =    1.000,"PART-1-1",           526,           -5.,       18.5417,            0.,NA,NA,"",   261.239E-03,   219.501E-03,  -141.651E-03,   2.25880E-06
C:/temp/dataset/6/6_18.odb,Step-1,Increment      1: Step Time =    1.000,"PART-1-1",           527,      -9.12859,       24.1056,            0.,NA,NA,"",   300.199E-03,   285.288E-03,  -93.4379E-03,   304.452E-09
C:/temp/dataset/6/6_18.odb,Step-1,Increment      1: Step Time =    1.000,"PART-1-1",           528,      -7.82088,       23.2603,            0.,NA,NA,"",   295.959E-03,   275.245E-03,  -108.774E-03,   348.208E-09
C:/temp/dataset/6/6_18.odb,Step-1,Increment      1: Step Time =    1.000,"PART-1-1",           529,      -7.11221,       24.6459,            0.,NA,NA,"",   314.191E-03,   291.508E-03,  -117.213E-03,   197.838E-09
C:/temp/dataset/6/6_18.odb,Step-1,Increment      1: Step Time =    1.000,"PART-1-1",           530,      -8.41993,       25.4912,            0.,NA,NA,"",   318.295E-03,   301.551E-03,  -101.876E-03,   122.803E-09
C:/temp/dataset/6/6_18.odb,Step-1,Increment      1: Step Time =    1.000,"PART-1-1",           531,           -5.,       28.9583,            0.,NA,NA,"",   370.573E-03,   342.130E-03,  -142.377E-03,   1.85051E-09
C:/temp/dataset/6/6_18.odb,Step-1,Increment      1: Step Time =    1.000,"PART-1-1",           532,         -6.25,           30.,            0.,NA,NA,"",   376.791E-03,   354.480E-03,  -127.734E-03,   3.17215E-09
C:/temp/dataset/6/6_18.odb,Step-1,Increment      1: Step Time =    1.000,"PART-1-1",           533,      -6.22481,       27.8751,            0.,NA,NA,"",   353.411E-03,   329.462E-03,  -127.883E-03,   8.15181E-09
C:/temp/dataset/6/6_18.odb,Step-1,Increment      1: Step Time =    1.000,"PART-1-1",           534,      -11.1386,       27.5393,            0.,NA,NA,"",   333.287E-03,   325.850E-03,  -70.0133E-03,   36.0842E-09
C:/temp/dataset/6/6_18.odb,Step-1,Increment      1: Step Time =    1.000,"PART-1-1",           535,        -11.25,           30.,            0.,NA,NA,"",   361.448E-03,   354.826E-03,  -68.8721E-03,   3.91161E-09
C:/temp/dataset/6/6_18.odb,Step-1,Increment      1: Step Time =    1.000,"PART-1-1",           536,      -13.1147,       13.7606,            0.,NA,NA,"",   170.034E-03,   163.752E-03,  -45.7933E-03,   9.97797E-06
C:/temp/dataset/6/6_18.odb,Step-1,Increment      1: Step Time =    1.000,"PART-1-1",           537,      -14.0658,       14.9906,            0.,NA,NA,"",   181.653E-03,   178.313E-03,  -34.6748E-03,   2.61379E-06
C:/temp/dataset/6/6_18.odb,Step-1,Increment      1: Step Time =    1.000,"PART-1-1",           538,          -15.,         13.75,            0.,NA,NA,"",   165.444E-03,   163.755E-03,  -23.5765E-03,   2.40055E-06
C:/temp/dataset/6/6_18.odb,Step-1,Increment      1: Step Time =    1.000,"PART-1-1",           539,      -9.42834,       18.6970,            0.,NA,NA,"",   239.039E-03,   221.636E-03,  -89.5379E-03,   1.37892E-06
C:/temp/dataset/6/6_18.odb,Step-1,Increment      1: Step Time =    1.000,"PART-1-1",           540,      -8.29725,       17.5730,            0.,NA,NA,"",   232.297E-03,   208.325E-03,  -102.775E-03,   1.42451E-06
C:/temp/dataset/6/6_18.odb,Step-1,Increment      1: Step Time =    1.000,"PART-1-1",           541,      -12.7588,       6.21303,            0.,NA,NA,"",   89.3466E-03,   74.3826E-03,  -49.4979E-03,   290.231E-06
C:/temp/dataset/6/6_18.odb,Step-1,Increment      1: Step Time =    1.000,"PART-1-1",           542,          -15.,          6.25,            0.,NA,NA,"",   78.7380E-03,   75.1312E-03,  -23.5578E-03,   315.235E-06
C:/temp/dataset/6/6_18.odb,Step-1,Increment      1: Step Time =    1.000,"PART-1-1",           543,      -9.01063,       9.47069,            0.,NA,NA,"",   146.822E-03,   113.075E-03,  -93.6527E-03,   150.594E-06
C:/temp/dataset/6/6_18.odb,Step-1,Increment      1: Step Time =    1.000,"PART-1-1",           544,      -10.0811,       10.4578,            0.,NA,NA,"",   148.773E-03,   124.668E-03,  -81.1860E-03,   77.8696E-06
C:/temp/dataset/6/6_18.odb,Step-1,Increment      1: Step Time =    1.000,"PART-1-1",           545,      -10.9384,       9.05000,            0.,NA,NA,"",   129.233E-03,   108.035E-03,  -70.9184E-03,   160.073E-06
C:/temp/dataset/6/6_18.odb,Step-1,Increment      1: Step Time =    1.000,"PART-1-1",           546,      -9.86794,       8.06293,            0.,NA,NA,"",   127.409E-03,   96.4385E-03,  -83.2625E-03,   212.951E-06
C:/temp/dataset/6/6_18.odb,Step-1,Increment      1: Step Time =    1.000,"PART-1-1",           547,      -7.23366,       1.29985,            0.,NA,NA,"",   113.814E-03,   19.1638E-03,  -112.189E-03,   2.73169E-03
C:/temp/dataset/6/6_18.odb,Step-1,Increment      1: Step Time =    1.000,"PART-1-1",           548,      -8.34685,   784.410E-03,            0.,NA,NA,"",   98.1169E-03,   13.6614E-03,  -97.1612E-03,   2.03446E-03
C:/temp/dataset/6/6_18.odb,Step-1,Increment      1: Step Time =    1.000,"PART-1-1",           549,      -7.43977,  -685.632E-03,            0.,NA,NA,"",   105.771E-03,   483.379E-06,  -105.770E-03,   4.05498E-03
C:/temp/dataset/6/6_18.odb,Step-1,Increment      1: Step Time =    1.000,"PART-1-1",           550,      -12.4903,      -8.57964,            0.,NA,NA,"",   74.5173E-03,  -54.1266E-03,  -51.2166E-03,   1.19049E-03
C:/temp/dataset/6/6_18.odb,Step-1,Increment      1: Step Time =    1.000,"PART-1-1",           551,          -15.,         -8.75,            0.,NA,NA,"",   69.4124E-03,  -53.5934E-03,  -44.1116E-03,   1.90570E-03
C:/temp/dataset/6/6_18.odb,Step-1,Increment      1: Step Time =    1.000,"PART-1-1",           552,      -13.5658,      -9.92286,            0.,NA,NA,"",   73.7087E-03,  -55.9043E-03,  -48.0384E-03,   791.995E-06
C:/temp/dataset/6/6_18.odb,Step-1,Increment      1: Step Time =    1.000,"PART-1-1",           553,      -11.9783,      -7.15971,            0.,NA,NA,"",   73.7699E-03,  -50.0904E-03,  -54.1567E-03,   1.07166E-03
C:/temp/dataset/6/6_18.odb,Step-1,Increment      1: Step Time =    1.000,"PART-1-1",           554,      -11.8960,      -5.22799,            0.,NA,NA,"",   68.9962E-03,  -40.7258E-03,  -55.6945E-03,   637.277E-06
C:/temp/dataset/6/6_18.odb,Step-1,Increment      1: Step Time =    1.000,"PART-1-1",           555,      -12.4565,      -16.3452,            0.,NA,NA,"",   59.8117E-03,  -43.2904E-03,  -41.2721E-03,   2.84463E-03
C:/temp/dataset/6/6_18.odb,Step-1,Increment      1: Step Time =    1.000,"PART-1-1",           556,          -15.,        -16.25,            0.,NA,NA,"",   65.4888E-03,  -45.7370E-03,  -46.8713E-03,   1.36323E-03
C:/temp/dataset/6/6_18.odb,Step-1,Increment      1: Step Time =    1.000,"PART-1-1",           557,      -13.7435,      -17.5611,            0.,NA,NA,"",   57.4083E-03,  -40.0362E-03,  -41.1439E-03,   2.44029E-03
C:/temp/dataset/6/6_18.odb,Step-1,Increment      1: Step Time =    1.000,"PART-1-1",           558,      -9.99221,      -8.41662,            0.,NA,NA,"",   80.9796E-03,  -52.6521E-03,  -61.5261E-03,   3.23285E-03
C:/temp/dataset/6/6_18.odb,Step-1,Increment      1: Step Time =    1.000,"PART-1-1",           559,      -11.4633,      -9.12095,            0.,NA,NA,"",   77.0852E-03,  -54.6771E-03,  -54.3372E-03,   2.14717E-03
C:/temp/dataset/6/6_18.odb,Step-1,Increment      1: Step Time =    1.000,"PART-1-1",           560,      -10.8070,      -10.1141,            0.,NA,NA,"",   77.4827E-03,  -54.8925E-03,  -54.6844E-03,   2.90483E-03
C:/temp/dataset/6/6_18.odb,Step-1,Increment      1: Step Time =    1.000,"PART-1-1",           561,      -13.9189,      -24.9166,            0.,NA,NA,"",   24.3534E-03,  -14.3871E-03,  -19.6494E-03,   4.10505E-03
C:/temp/dataset/6/6_18.odb,Step-1,Increment      1: Step Time =    1.000,"PART-1-1",           562,      -12.9076,      -23.6273,            0.,NA,NA,"",   27.2268E-03,  -16.2932E-03,  -21.8136E-03,   3.80368E-03
C:/temp/dataset/6/6_18.odb,Step-1,Increment      1: Step Time =    1.000,"PART-1-1",           563,          -15.,        -23.75,            0.,NA,NA,"",   33.2153E-03,  -19.6554E-03,  -26.7753E-03,   4.08126E-03
C:/temp/dataset/6/6_18.odb,Step-1,Increment      1: Step Time =    1.000,"PART-1-1",           564,          -15.,        -28.75,            0.,NA,NA,"",   8.89676E-03,  -6.22894E-03,  -6.35238E-03,   5.46638E-03
C:/temp/dataset/6/6_18.odb,Step-1,Increment      1: Step Time =    1.000,"PART-1-1",           565,        -13.75,          -30.,            0.,NA,NA,"",            0.,  -363.991E-42,  -7.15484E-39,   4.91063E-03
C:/temp/dataset/6/6_18.odb,Step-1,Increment      1: Step Time =    1.000,"PART-1-1",           566,      -13.7642,      -27.4123,            0.,NA,NA,"",   12.1803E-03,  -7.38553E-03,  -9.68576E-03,   4.40809E-03
C:/temp/dataset/6/6_18.odb,Step-1,Increment      1: Step Time =    1.000,"PART-1-1",           567,            5.,      -6.25625,            0.,NA,NA,"",   155.704E-03,   56.0259E-03,  -145.275E-03,   15.7084E-03
C:/temp/dataset/6/6_18.odb,Step-1,Increment      1: Step Time =    1.000,"PART-1-1",           568,       7.03347,      -6.11658,            0.,NA,NA,"",   146.109E-03,   64.2979E-03,  -131.201E-03,   8.11475E-03
C:/temp/dataset/6/6_18.odb,Step-1,Increment      1: Step Time =    1.000,"PART-1-1",           569,       6.04361,      -4.83741,            0.,NA,NA,"",   159.604E-03,   52.5475E-03,  -150.705E-03,   12.5674E-03
C:/temp/dataset/6/6_18.odb,Step-1,Increment      1: Step Time =    1.000,"PART-1-1",           570,           15.,      -2.65625,            0.,NA,NA,"",   106.426E-03,   58.6979E-03,  -88.7753E-03,   513.209E-06
C:/temp/dataset/6/6_18.odb,Step-1,Increment      1: Step Time =    1.000,"PART-1-1",           571,       12.8875,      -2.72454,            0.,NA,NA,"",   118.808E-03,   58.7854E-03,  -103.245E-03,   1.42149E-03
C:/temp/dataset/6/6_18.odb,Step-1,Increment      1: Step Time =    1.000,"PART-1-1",           572,       10.0248,      -7.91896,            0.,NA,NA,"",   129.416E-03,   76.3680E-03,  -104.482E-03,   5.13154E-03
C:/temp/dataset/6/6_18.odb,Step-1,Increment      1: Step Time =    1.000,"PART-1-1",           573,       8.98203,      -8.99604,            0.,NA,NA,"",   127.119E-03,   74.7315E-03,  -102.832E-03,   6.47005E-03
C:/temp/dataset/6/6_18.odb,Step-1,Increment      1: Step Time =    1.000,"PART-1-1",           574,       9.98204,      -10.2112,            0.,NA,NA,"",   121.243E-03,   76.3862E-03,  -94.1544E-03,   5.62838E-03
C:/temp/dataset/6/6_18.odb,Step-1,Increment      1: Step Time =    1.000,"PART-1-1",           575,            5.,      -11.2813,            0.,NA,NA,"",   106.811E-03,   57.6524E-03,  -89.9151E-03,   10.1166E-03
C:/temp/dataset/6/6_18.odb,Step-1,Increment      1: Step Time =    1.000,"PART-1-1",           576,       6.96001,      -11.3098,            0.,NA,NA,"",   112.272E-03,   65.6463E-03,  -91.0805E-03,   8.39650E-03
C:/temp/dataset/6/6_18.odb,Step-1,Increment      1: Step Time =    1.000,"PART-1-1",           577,       12.1169,      -5.93459,            0.,NA,NA,"",   126.267E-03,   74.4051E-03,  -102.015E-03,   2.68782E-03
C:/temp/dataset/6/6_18.odb,Step-1,Increment      1: Step Time =    1.000,"PART-1-1",           578,       11.1088,      -6.97100,            0.,NA,NA,"",   128.728E-03,   76.3187E-03,  -103.665E-03,   3.86673E-03
C:/temp/dataset/6/6_18.odb,Step-1,Increment      1: Step Time =    1.000,"PART-1-1",           579,           15.,      -11.4063,            0.,NA,NA,"",   120.212E-03,   81.6124E-03,  -88.2628E-03,   1.21956E-03
C:/temp/dataset/6/6_18.odb,Step-1,Increment      1: Step Time =    1.000,"PART-1-1",           580,       13.9991,      -10.3053,            0.,NA,NA,"",   121.198E-03,   82.2342E-03,  -89.0308E-03,   1.79985E-03
C:/temp/dataset/6/6_18.odb,Step-1,Increment      1: Step Time =    1.000,"PART-1-1",           581,       12.9941,      -11.4223,            0.,NA,NA,"",   117.805E-03,   79.7311E-03,  -86.7232E-03,   3.17761E-03
C:/temp/dataset/6/6_18.odb,Step-1,Increment      1: Step Time =    1.000,"PART-1-1",           582,           15.,      -9.21875,            0.,NA,NA,"",   122.172E-03,   82.8583E-03,  -89.7799E-03,   436.773E-06
C:/temp/dataset/6/6_18.odb,Step-1,Increment      1: Step Time =    1.000,"PART-1-1",           583,       9.25975,      -25.9916,            0.,NA,NA,"",   15.7229E-03,   6.22957E-03,  -14.4361E-03,   4.84132E-03
C:/temp/dataset/6/6_18.odb,Step-1,Increment      1: Step Time =    1.000,"PART-1-1",           584,       7.97004,      -27.0667,            0.,NA,NA,"",   8.54604E-03,   1.71612E-03,  -8.37196E-03,   3.76911E-03
C:/temp/dataset/6/6_18.odb,Step-1,Increment      1: Step Time =    1.000,"PART-1-1",           585,       9.98268,      -20.3187,            0.,NA,NA,"",   55.3003E-03,   33.0190E-03,  -44.3607E-03,   6.06344E-03
C:/temp/dataset/6/6_18.odb,Step-1,Increment      1: Step Time =    1.000,"PART-1-1",           586,       8.47236,      -19.9740,            0.,NA,NA,"",   51.9659E-03,   30.7127E-03,  -41.9188E-03,   6.11212E-03
C:/temp/dataset/6/6_18.odb,Step-1,Increment      1: Step Time =    1.000,"PART-1-1",           587,       7.80775,      -21.2882,            0.,NA,NA,"",   38.9619E-03,   20.9543E-03,  -32.8473E-03,   6.20140E-03
C:/temp/dataset/6/6_18.odb,Step-1,Increment      1: Step Time =    1.000,"PART-1-1",           588,       9.31806,      -21.6330,            0.,NA,NA,"",   42.9359E-03,   23.8357E-03,  -35.7121E-03,   5.97241E-03
C:/temp/dataset/6/6_18.odb,Step-1,Increment      1: Step Time =    1.000,"PART-1-1",           589,          3.75,          -20.,            0.,NA,NA,"",   19.1821E-03,   14.9757E-03,  -11.9868E-03,   3.82588E-03
C:/temp/dataset/6/6_18.odb,Step-1,Increment      1: Step Time =    1.000,"PART-1-1",           590,       2.69482,      -20.9389,            0.,NA,NA,"",   10.4835E-03,   8.08823E-03,  -6.66958E-03,   2.49387E-03
C:/temp/dataset/6/6_18.odb,Step-1,Increment      1: Step Time =    1.000,"PART-1-1",           591,       4.10336,      -21.5712,            0.,NA,NA,"",   14.7719E-03,   8.24426E-03,  -12.2573E-03,   2.75292E-03
C:/temp/dataset/6/6_18.odb,Step-1,Increment      1: Step Time =    1.000,"PART-1-1",           592,       5.15854,      -20.6323,            0.,NA,NA,"",   27.1522E-03,   15.2512E-03,  -22.4643E-03,   5.28491E-03
C:/temp/dataset/6/6_18.odb,Step-1,Increment      1: Step Time =    1.000,"PART-1-1",           593,          1.25,          -20.,            0.,NA,NA,"",   7.81018E-03,   6.17108E-03,  -4.78714E-03,   3.55615E-03
C:/temp/dataset/6/6_18.odb,Step-1,Increment      1: Step Time =    1.000,"PART-1-1",           594,       1.58638,      -22.3782,            0.,NA,NA,"",   3.94681E-03,   2.76554E-03,  -2.81586E-03,   1.12564E-03
C:/temp/dataset/6/6_18.odb,Step-1,Increment      1: Step Time =    1.000,"PART-1-1",           595,      -7.18878,      -21.5166,            0.,NA,NA,"",   21.3831E-03,  -12.3640E-03,  -17.4462E-03,   3.99933E-03
C:/temp/dataset/6/6_18.odb,Step-1,Increment      1: Step Time =    1.000,"PART-1-1",           596,      -8.69544,      -20.4918,            0.,NA,NA,"",   31.3357E-03,  -19.9211E-03,  -24.1883E-03,   4.12296E-03
C:/temp/dataset/6/6_18.odb,Step-1,Increment      1: Step Time =    1.000,"PART-1-1",           597,      -9.53108,      -21.9939,            0.,NA,NA,"",   26.0120E-03,  -15.6687E-03,  -20.7632E-03,   3.79436E-03
C:/temp/dataset/6/6_18.odb,Step-1,Increment      1: Step Time =    1.000,"PART-1-1",           598,      -8.02442,      -23.0186,            0.,NA,NA,"",   17.3313E-03,  -9.21056E-03,  -14.6812E-03,   3.43832E-03
C:/temp/dataset/6/6_18.odb,Step-1,Increment      1: Step Time =    1.000,"PART-1-1",           599,           -5.,      -18.7437,            0.,NA,NA,"",   28.3269E-03,  -21.0404E-03,  -18.9662E-03,   4.56838E-03
C:/temp/dataset/6/6_18.odb,Step-1,Increment      1: Step Time =    1.000,"PART-1-1",           600,      -6.23242,      -17.5731,            0.,NA,NA,"",   40.3447E-03,  -28.5572E-03,  -28.4988E-03,   4.41734E-03
C:/temp/dataset/6/6_18.odb,Step-1,Increment      1: Step Time =    1.000,"PART-1-1",           601,      -7.41830,      -18.9573,            0.,NA,NA,"",   36.2030E-03,  -24.3305E-03,  -26.8082E-03,   4.11660E-03
C:/temp/dataset/6/6_18.odb,Step-1,Increment      1: Step Time =    1.000,"PART-1-1",           602,      -6.18588,      -20.1280,            0.,NA,NA,"",   24.9898E-03,  -15.7980E-03,  -19.3627E-03,   4.15081E-03
C:/temp/dataset/6/6_18.odb,Step-1,Increment      1: Step Time =    1.000,"PART-1-1",           603,           -5.,      -16.2312,            0.,NA,NA,"",   43.4809E-03,  -30.8879E-03,  -30.6027E-03,   5.47499E-03
C:/temp/dataset/6/6_18.odb,Step-1,Increment      1: Step Time =    1.000,"PART-1-1",           604,      -7.44257,      -16.3835,            0.,NA,NA,"",   50.7327E-03,  -35.6950E-03,  -36.0510E-03,   4.47531E-03
C:/temp/dataset/6/6_18.odb,Step-1,Increment      1: Step Time =    1.000,"PART-1-1",           605,      -12.6830,      -26.0788,            0.,NA,NA,"",   15.6980E-03,  -9.02644E-03,  -12.8433E-03,   3.94588E-03
C:/temp/dataset/6/6_18.odb,Step-1,Increment      1: Step Time =    1.000,"PART-1-1",           606,          -15.,        -26.25,            0.,NA,NA,"",   21.6540E-03,  -13.0164E-03,  -17.3052E-03,   4.49656E-03
C:/temp/dataset/6/6_18.odb,Step-1,Increment      1: Step Time =    1.000,"PART-1-1",           607,         -8.75,          -30.,            0.,NA,NA,"",            0.,   121.055E-42,  -3.81308E-39,   1.98938E-03
C:/temp/dataset/6/6_18.odb,Step-1,Increment      1: Step Time =    1.000,"PART-1-1",           608,          -15.,        -18.75,            0.,NA,NA,"",   56.2385E-03,  -36.9030E-03,  -42.4374E-03,   2.52587E-03
C:/temp/dataset/6/6_18.odb,Step-1,Increment      1: Step Time =    1.000,"PART-1-1",           609,      -12.5734,      -18.8685,            0.,NA,NA,"",   48.8025E-03,  -33.4554E-03,  -35.5305E-03,   3.22607E-03
C:/temp/dataset/6/6_18.odb,Step-1,Increment      1: Step Time =    1.000,"PART-1-1",           610,           -5.,      -11.2063,            0.,NA,NA,"",   73.0168E-03,  -41.6941E-03,  -59.9421E-03,   7.57704E-03
C:/temp/dataset/6/6_18.odb,Step-1,Increment      1: Step Time =    1.000,"PART-1-1",           611,      -7.25264,      -11.4522,            0.,NA,NA,"",   75.1733E-03,  -48.0883E-03,  -57.7801E-03,   5.78188E-03
C:/temp/dataset/6/6_18.odb,Step-1,Increment      1: Step Time =    1.000,"PART-1-1",           612,           -5.,      -6.23750,            0.,NA,NA,"",   108.515E-03,  -36.8296E-03,  -102.074E-03,   13.3416E-03
C:/temp/dataset/6/6_18.odb,Step-1,Increment      1: Step Time =    1.000,"PART-1-1",           613,      -6.16987,      -5.46941,            0.,NA,NA,"",   106.443E-03,  -39.5620E-03,  -98.8184E-03,   8.57501E-03
C:/temp/dataset/6/6_18.odb,Step-1,Increment      1: Step Time =    1.000,"PART-1-1",           614,      -7.24309,      -6.98789,            0.,NA,NA,"",   93.9578E-03,  -46.1004E-03,  -81.8707E-03,   5.58762E-03
C:/temp/dataset/6/6_18.odb,Step-1,Increment      1: Step Time =    1.000,"PART-1-1",           615,           -5.,       16.4583,            0.,NA,NA,"",   240.914E-03,   194.980E-03,  -141.501E-03,   3.93632E-06
C:/temp/dataset/6/6_18.odb,Step-1,Increment      1: Step Time =    1.000,"PART-1-1",           616,      -7.23328,       16.4840,            0.,NA,NA,"",   226.871E-03,   195.434E-03,  -115.222E-03,   843.577E-09
C:/temp/dataset/6/6_18.odb,Step-1,Increment      1: Step Time =    1.000,"PART-1-1",           617,      -6.08867,       15.3700,            0.,NA,NA,"",   223.060E-03,   182.248E-03,  -128.613E-03,   2.23436E-06
C:/temp/dataset/6/6_18.odb,Step-1,Increment      1: Step Time =    1.000,"PART-1-1",           618,      -13.1522,       16.1892,            0.,NA,NA,"",   197.681E-03,   192.369E-03,  -45.5207E-03,   690.373E-09
C:/temp/dataset/6/6_18.odb,Step-1,Increment      1: Step Time =    1.000,"PART-1-1",           619,      -14.0864,       17.4486,            0.,NA,NA,"",   210.132E-03,   207.262E-03,  -34.6073E-03,   2.05351E-06
C:/temp/dataset/6/6_18.odb,Step-1,Increment      1: Step Time =    1.000,"PART-1-1",           620,          -15.,         16.25,            0.,NA,NA,"",   194.666E-03,   193.211E-03,  -23.7617E-03,   4.05232E-06
C:/temp/dataset/6/6_18.odb,Step-1,Increment      1: Step Time =    1.000,"PART-1-1",           621,           -5.,       24.7917,            0.,NA,NA,"",   325.705E-03,   293.078E-03,  -142.089E-03,   96.8445E-09
C:/temp/dataset/6/6_18.odb,Step-1,Increment      1: Step Time =    1.000,"PART-1-1",           622,      -6.14442,       25.7689,            0.,NA,NA,"",   330.724E-03,   304.661E-03,  -128.684E-03,   54.0285E-09
C:/temp/dataset/6/6_18.odb,Step-1,Increment      1: Step Time =    1.000,"PART-1-1",           623,           -5.,        26.875,            0.,NA,NA,"",   347.998E-03,   317.604E-03,  -142.233E-03,   12.6299E-09
C:/temp/dataset/6/6_18.odb,Step-1,Increment      1: Step Time =    1.000,"PART-1-1",           624,      -7.36924,       26.7689,            0.,NA,NA,"",   336.537E-03,   316.520E-03,  -114.334E-03,   64.2672E-09
C:/temp/dataset/6/6_18.odb,Step-1,Increment      1: Step Time =    1.000,"PART-1-1",           625,      -13.1175,       20.9132,            0.,NA,NA,"",   252.261E-03,   247.984E-03,  -46.2574E-03,   833.389E-09
C:/temp/dataset/6/6_18.odb,Step-1,Increment      1: Step Time =    1.000,"PART-1-1",           626,      -14.0212,       22.2867,            0.,NA,NA,"",   266.618E-03,   264.215E-03,  -35.7133E-03,   354.605E-09
C:/temp/dataset/6/6_18.odb,Step-1,Increment      1: Step Time =    1.000,"PART-1-1",           627,          -15.,         21.25,            0.,NA,NA,"",   253.230E-03,   252.079E-03,  -24.1185E-03,   778.404E-09
C:/temp/dataset/6/6_18.odb,Step-1,Increment      1: Step Time =    1.000,"PART-1-1",           628,      -14.0963,       19.8765,            0.,NA,NA,"",   238.381E-03,   235.847E-03,  -34.6617E-03,   985.799E-09
C:/temp/dataset/6/6_18.odb,Step-1,Increment      1: Step Time =    1.000,"PART-1-1",           629,         -1.25,           -5.,            0.,NA,NA,"",   194.853E-03,  -18.0620E-03,  -194.014E-03,   9.66578E-03
C:/temp/dataset/6/6_18.odb,Step-1,Increment      1: Step Time =    1.000,"PART-1-1",           630,      -1.77292,      -3.03732,            0.,NA,NA,"",   193.071E-03,  -4.12390E-03,  -193.027E-03,   6.63806E-03
C:/temp/dataset/6/6_18.odb,Step-1,Increment      1: Step Time =    1.000,"PART-1-1",           631,      -12.1053,      -2.30059,            0.,NA,NA,"",   58.3023E-03,  -18.3741E-03,  -55.3313E-03,   534.054E-06
C:/temp/dataset/6/6_18.odb,Step-1,Increment      1: Step Time =    1.000,"PART-1-1",           632,      -10.7648,      -1.40855,            0.,NA,NA,"",   68.5231E-03,  -9.69328E-03,  -67.8341E-03,   1.19591E-03
C:/temp/dataset/6/6_18.odb,Step-1,Increment      1: Step Time =    1.000,"PART-1-1",           633,      -11.5438,  -354.672E-03,            0.,NA,NA,"",   61.3146E-03,   422.787E-06,  -61.3132E-03,   672.270E-06
C:/temp/dataset/6/6_18.odb,Step-1,Increment      1: Step Time =    1.000,"PART-1-1",           634,          3.75,           -5.,            0.,NA,NA,"",   199.512E-03,   37.7716E-03,  -195.904E-03,   10.4421E-03
C:/temp/dataset/6/6_18.odb,Step-1,Increment      1: Step Time =    1.000,"PART-1-1",           635,       4.52066,      -3.83856,            0.,NA,NA,"",   189.537E-03,   30.6586E-03,  -187.041E-03,   12.2781E-03
C:/temp/dataset/6/6_18.odb,Step-1,Increment      1: Step Time =    1.000,"PART-1-1",           636,       2.94662,      -2.72704,            0.,NA,NA,"",   214.670E-03,   18.5248E-03,  -213.869E-03,   7.52177E-03
C:/temp/dataset/6/6_18.odb,Step-1,Increment      1: Step Time =    1.000,"PART-1-1",           637,       1.50395,       2.56821,            0.,NA,NA,"",   254.007E-03,   16.0631E-03,  -253.498E-03,   11.8285E-03
C:/temp/dataset/6/6_18.odb,Step-1,Increment      1: Step Time =    1.000,"PART-1-1",           638,          1.25,            5.,            0.,NA,NA,"",   277.007E-03,   31.3083E-03,  -275.232E-03,   17.8896E-03
C:/temp/dataset/6/6_18.odb,Step-1,Increment      1: Step Time =    1.000,"PART-1-1",           639,          6.25,            5.,            0.,NA,NA,"",   197.410E-03,  -13.1365E-03,  -196.973E-03,   2.70931E-03
C:/temp/dataset/6/6_18.odb,Step-1,Increment      1: Step Time =    1.000,"PART-1-1",           640,  -213.968E-03,      -26.0734,            0.,NA,NA,"",   669.961E-06,  -522.920E-06,  -418.811E-06,   333.126E-06
C:/temp/dataset/6/6_18.odb,Step-1,Increment      1: Step Time =    1.000,"PART-1-1",           641,       1.14210,      -23.8512,            0.,NA,NA,"",   1.60791E-03,   566.370E-06,  -1.50486E-03,   480.692E-06
C:/temp/dataset/6/6_18.odb,Step-1,Increment      1: Step Time =    1.000,"PART-1-1",           642,  -234.527E-03,      -23.9674,            0.,NA,NA,"",   567.063E-06,   12.2904E-06,  -566.930E-06,   352.912E-06
C:/temp/dataset/6/6_18.odb,Step-1,Increment      1: Step Time =    1.000,"PART-1-1",           643,           -5.,        14.375,            0.,NA,NA,"",   221.448E-03,   170.471E-03,  -141.347E-03,   4.04822E-06
C:/temp/dataset/6/6_18.odb,Step-1,Increment      1: Step Time =    1.000,"PART-1-1",           644,      -7.14364,       14.2292,            0.,NA,NA,"",   204.968E-03,   168.901E-03,  -116.122E-03,   7.94021E-06
C:/temp/dataset/6/6_18.odb,Step-1,Increment      1: Step Time =    1.000,"PART-1-1",           645,           -5.,       6.04167,            0.,NA,NA,"",   159.579E-03,   72.8802E-03,  -141.964E-03,   1.08828E-03
C:/temp/dataset/6/6_18.odb,Step-1,Increment      1: Step Time =    1.000,"PART-1-1",           646,      -5.82078,       6.95384,            0.,NA,NA,"",   156.028E-03,   83.7533E-03,  -131.644E-03,   305.944E-06
C:/temp/dataset/6/6_18.odb,Step-1,Increment      1: Step Time =    1.000,"PART-1-1",           647,      -6.45742,       5.85906,            0.,NA,NA,"",   142.612E-03,   70.8950E-03,  -123.742E-03,   404.345E-06
C:/temp/dataset/6/6_18.odb,Step-1,Increment      1: Step Time =    1.000,"PART-1-1",           648,      -5.63664,       4.94688,            0.,NA,NA,"",   146.982E-03,   59.7467E-03,  -134.291E-03,   894.714E-06
C:/temp/dataset/6/6_18.odb,Step-1,Increment      1: Step Time =    1.000,"PART-1-1",           649,           -5.,         8.125,            0.,NA,NA,"",   171.321E-03,   97.1807E-03,  -141.092E-03,   260.239E-06
C:/temp/dataset/6/6_18.odb,Step-1,Increment      1: Step Time =    1.000,"PART-1-1",           650,      -5.96903,       9.00386,            0.,NA,NA,"",   168.474E-03,   107.568E-03,  -129.663E-03,   109.687E-06
C:/temp/dataset/6/6_18.odb,Step-1,Increment      1: Step Time =    1.000,"PART-1-1",           651,          -15.,         -3.75,            0.,NA,NA,"",   44.5293E-03,  -29.1244E-03,  -33.6843E-03,   2.20340E-03
C:/temp/dataset/6/6_18.odb,Step-1,Increment      1: Step Time =    1.000,"PART-1-1",           652,      -12.7846,      -3.59401,            0.,NA,NA,"",   57.8065E-03,  -29.2285E-03,  -49.8727E-03,   382.265E-06
C:/temp/dataset/6/6_18.odb,Step-1,Increment      1: Step Time =    1.000,"PART-1-1",           653,      -11.5430,      -4.20540,            0.,NA,NA,"",   67.7798E-03,  -33.8832E-03,  -58.7029E-03,   806.987E-06
C:/temp/dataset/6/6_18.odb,Step-1,Increment      1: Step Time =    1.000,"PART-1-1",           654,      -10.1018,      -4.29084,            0.,NA,NA,"",   77.1425E-03,  -34.0823E-03,  -69.2052E-03,   1.98637E-03
C:/temp/dataset/6/6_18.odb,Step-1,Increment      1: Step Time =    1.000,"PART-1-1",           655,          -15.,        -11.25,            0.,NA,NA,"",   73.2354E-03,  -55.7284E-03,  -47.5160E-03,   991.265E-06
C:/temp/dataset/6/6_18.odb,Step-1,Increment      1: Step Time =    1.000,"PART-1-1",           656,      -12.2331,      -11.1785,            0.,NA,NA,"",   74.5906E-03,  -55.5995E-03,  -49.7238E-03,   2.04773E-03
C:/temp/dataset/6/6_18.odb,Step-1,Increment      1: Step Time =    1.000,"PART-1-1",           657,       5.21391,      -1.02834,            0.,NA,NA,"",   200.004E-03,   28.8633E-03,  -197.911E-03,   12.3536E-03
C:/temp/dataset/6/6_18.odb,Step-1,Increment      1: Step Time =    1.000,"PART-1-1",           658,       6.72319,      -1.59046,            0.,NA,NA,"",   175.398E-03,   37.2445E-03,  -171.398E-03,   11.0002E-03
C:/temp/dataset/6/6_18.odb,Step-1,Increment      1: Step Time =    1.000,"PART-1-1",           659,       10.9187,      -16.2245,            0.,NA,NA,"",   88.4220E-03,   58.2404E-03,  -66.5320E-03,   5.50316E-03
C:/temp/dataset/6/6_18.odb,Step-1,Increment      1: Step Time =    1.000,"PART-1-1",           660,       11.9858,      -14.8752,            0.,NA,NA,"",   99.9493E-03,   66.9206E-03,  -74.2395E-03,   4.74431E-03
C:/temp/dataset/6/6_18.odb,Step-1,Increment      1: Step Time =    1.000,"PART-1-1",           661,       10.9746,      -13.7451,            0.,NA,NA,"",   104.243E-03,   69.5014E-03,  -77.6934E-03,   5.22944E-03
C:/temp/dataset/6/6_18.odb,Step-1,Increment      1: Step Time =    1.000,"PART-1-1",           662,       11.9830,      -12.5543,            0.,NA,NA,"",   112.181E-03,   75.4795E-03,  -82.9904E-03,   4.29483E-03
C:/temp/dataset/6/6_18.odb,Step-1,Increment      1: Step Time =    1.000,"PART-1-1",           663,           15.,      -20.1563,            0.,NA,NA,"",   77.9684E-03,   46.7923E-03,  -62.3663E-03,   5.42215E-03
C:/temp/dataset/6/6_18.odb,Step-1,Increment      1: Step Time =    1.000,"PART-1-1",           664,       14.0841,      -19.1367,            0.,NA,NA,"",   80.3013E-03,   49.8749E-03,  -62.9348E-03,   5.08537E-03
C:/temp/dataset/6/6_18.odb,Step-1,Increment      1: Step Time =    1.000,"PART-1-1",           665,       13.0385,      -20.2889,            0.,NA,NA,"",   67.5547E-03,   41.2766E-03,  -53.4779E-03,   5.57166E-03
C:/temp/dataset/6/6_18.odb,Step-1,Increment      1: Step Time =    1.000,"PART-1-1",           666,           15.,      -17.9688,            0.,NA,NA,"",   92.4039E-03,   57.7937E-03,  -72.0997E-03,   4.38731E-03
C:/temp/dataset/6/6_18.odb,Step-1,Increment      1: Step Time =    1.000,"PART-1-1",           667,          1.25,          -30.,            0.,NA,NA,"",            0.,  -583.422E-42,  -1.29094E-39,   856.031E-06
C:/temp/dataset/6/6_18.odb,Step-1,Increment      1: Step Time =    1.000,"PART-1-1",           668,       3.30543,      -22.6598,            0.,NA,NA,"",   8.01955E-03,   3.93238E-03,  -6.98924E-03,   1.53208E-03
C:/temp/dataset/6/6_18.odb,Step-1,Increment      1: Step Time =    1.000,"PART-1-1",           669,       2.86115,      -24.1329,            0.,NA,NA,"",   4.42800E-03,   964.445E-06,  -4.32169E-03,   1.13287E-03
C:/temp/dataset/6/6_18.odb,Step-1,Increment      1: Step Time =    1.000,"PART-1-1",           670,      -10.6801,      -21.6169,            0.,NA,NA,"",   30.7454E-03,  -19.2690E-03,  -23.9580E-03,   3.81965E-03
C:/temp/dataset/6/6_18.odb,Step-1,Increment      1: Step Time =    1.000,"PART-1-1",           671,      -11.3394,      -20.4213,            0.,NA,NA,"",   38.2985E-03,  -25.1790E-03,  -28.8582E-03,   3.68147E-03
C:/temp/dataset/6/6_18.odb,Step-1,Increment      1: Step Time =    1.000,"PART-1-1",           672,      -12.1593,      -22.4638,            0.,NA,NA,"",   30.5358E-03,  -18.8154E-03,  -24.0503E-03,   3.70376E-03
C:/temp/dataset/6/6_18.odb,Step-1,Increment      1: Step Time =    1.000,"PART-1-1",           673,      -9.92443,      -16.4516,            0.,NA,NA,"",   55.3538E-03,  -39.6397E-03,  -38.6359E-03,   3.90121E-03
C:/temp/dataset/6/6_18.odb,Step-1,Increment      1: Step Time =    1.000,"PART-1-1",           674,      -8.71114,      -17.7111,            0.,NA,NA,"",   46.5476E-03,  -32.4679E-03,  -33.3544E-03,   4.06779E-03
C:/temp/dataset/6/6_18.odb,Step-1,Increment      1: Step Time =    1.000,"PART-1-1",           675,      -9.25100,      -7.50767,            0.,NA,NA,"",   83.9841E-03,  -49.9481E-03,  -67.5167E-03,   3.67876E-03
C:/temp/dataset/6/6_18.odb,Step-1,Increment      1: Step Time =    1.000,"PART-1-1",           676,      -8.32615,      -6.25855,            0.,NA,NA,"",   89.1837E-03,  -44.5725E-03,  -77.2465E-03,   4.30139E-03
C:/temp/dataset/6/6_18.odb,Step-1,Increment      1: Step Time =    1.000,"PART-1-1",           677,      -7.58018,      -5.09368,            0.,NA,NA,"",   95.5533E-03,  -38.1532E-03,  -87.6057E-03,   4.73314E-03
C:/temp/dataset/6/6_18.odb,Step-1,Increment      1: Step Time =    1.000,"PART-1-1",           678,      -6.67379,      -3.84489,            0.,NA,NA,"",   105.864E-03,  -26.1802E-03,  -102.576E-03,   6.83942E-03
C:/temp/dataset/6/6_18.odb,Step-1,Increment      1: Step Time =    1.000,"PART-1-1",           679,      -2.40491,      -1.03021,            0.,NA,NA,"",   187.330E-03,   4.21333E-03,  -187.283E-03,   8.62399E-03
C:/temp/dataset/6/6_18.odb,Step-1,Increment      1: Step Time =    1.000,"PART-1-1",           680,      -3.32453,      -2.14711,            0.,NA,NA,"",   168.925E-03,  -2.27537E-03,  -168.910E-03,   8.90138E-03
C:/temp/dataset/6/6_18.odb,Step-1,Increment      1: Step Time =    1.000,"PART-1-1",           681,       10.4745,      -24.8101,            0.,NA,NA,"",   25.9162E-03,   12.9657E-03,  -22.4397E-03,   5.71241E-03
C:/temp/dataset/6/6_18.odb,Step-1,Increment      1: Step Time =    1.000,"PART-1-1",           682,       8.16019,      -23.0435,            0.,NA,NA,"",   28.6020E-03,   13.6287E-03,  -25.1462E-03,   5.53657E-03
C:/temp/dataset/6/6_18.odb,Step-1,Increment      1: Step Time =    1.000,"PART-1-1",           683,       9.40124,      -23.8494,            0.,NA,NA,"",   28.2648E-03,   13.8341E-03,  -24.6478E-03,   5.54306E-03
C:/temp/dataset/6/6_18.odb,Step-1,Increment      1: Step Time =    1.000,"PART-1-1",           684,       5.67200,      -27.0943,            0.,NA,NA,"",   5.35946E-03,  -538.579E-06,  -5.33233E-03,   2.42867E-03
C:/temp/dataset/6/6_18.odb,Step-1,Increment      1: Step Time =    1.000,"PART-1-1",           685,       4.86106,      -26.0050,            0.,NA,NA,"",   6.20085E-03,  -85.7245E-06,  -6.20026E-03,   2.10678E-03
C:/temp/dataset/6/6_18.odb,Step-1,Increment      1: Step Time =    1.000,"PART-1-1",           686,      -2.55341,      -23.8484,            0.,NA,NA,"",   1.80054E-03,  -837.846E-06,  -1.59373E-03,   693.830E-06
C:/temp/dataset/6/6_18.odb,Step-1,Increment      1: Step Time =    1.000,"PART-1-1",           687,      -4.82130,      -23.8875,            0.,NA,NA,"",   5.94540E-03,  -2.39369E-03,  -5.44224E-03,   1.61219E-03
C:/temp/dataset/6/6_18.odb,Step-1,Increment      1: Step Time =    1.000,"PART-1-1",           688,      -5.84083,      -25.1777,            0.,NA,NA,"",   5.78559E-03,  -1.78911E-03,  -5.50201E-03,   1.69120E-03
C:/temp/dataset/6/6_18.odb,Step-1,Increment      1: Step Time =    1.000,"PART-1-1",           689,           15.,      -26.7188,            0.,NA,NA,"",   30.9173E-03,   18.8047E-03,  -24.5411E-03,   7.28731E-03
C:/temp/dataset/6/6_18.odb,Step-1,Increment      1: Step Time =    1.000,"PART-1-1",           690,       10.9874,      -11.4075,            0.,NA,NA,"",   116.295E-03,   76.5285E-03,  -87.5662E-03,   4.89641E-03
C:/temp/dataset/6/6_18.odb,Step-1,Increment      1: Step Time =    1.000,"PART-1-1",           691,       7.29436,      -19.7763,            0.,NA,NA,"",   48.2815E-03,   28.5784E-03,  -38.9151E-03,   6.30194E-03
C:/temp/dataset/6/6_18.odb,Step-1,Increment      1: Step Time =    1.000,"PART-1-1",           692,       7.78340,      -18.7858,            0.,NA,NA,"",   58.3123E-03,   35.9651E-03,  -45.9003E-03,   6.04144E-03
C:/temp/dataset/6/6_18.odb,Step-1,Increment      1: Step Time =    1.000,"PART-1-1",           693,       10.8970,      -2.99004,            0.,NA,NA,"",   131.491E-03,   58.1696E-03,  -117.924E-03,   3.68976E-03
C:/temp/dataset/6/6_18.odb,Step-1,Increment      1: Step Time =    1.000,"PART-1-1",           694,       12.0828,      -3.88727,            0.,NA,NA,"",   125.037E-03,   64.9593E-03,  -106.839E-03,   2.51969E-03
C:/temp/dataset/6/6_18.odb,Step-1,Increment      1: Step Time =    1.000,"PART-1-1",           695,           15.,       1.71875,            0.,NA,NA,"",   89.3744E-03,   23.0188E-03,  -86.3592E-03,   569.637E-06
C:/temp/dataset/6/6_18.odb,Step-1,Increment      1: Step Time =    1.000,"PART-1-1",           696,       4.00043,  -427.215E-03,            0.,NA,NA,"",   219.687E-03,   23.0802E-03,  -218.471E-03,   10.8385E-03
C:/temp/dataset/6/6_18.odb,Step-1,Increment      1: Step Time =    1.000,"PART-1-1",           697,       2.09609,       1.00148,            0.,NA,NA,"",   242.106E-03,   16.0078E-03,  -241.576E-03,   9.90408E-03
C:/temp/dataset/6/6_18.odb,Step-1,Increment      1: Step Time =    1.000,"PART-1-1",           698,       2.38138,  -554.063E-03,            0.,NA,NA,"",   230.131E-03,   16.0979E-03,  -229.567E-03,   7.53535E-03
C:/temp/dataset/6/6_18.odb,Step-1,Increment      1: Step Time =    1.000,"PART-1-1",           699,   35.7305E-03,       2.11113,            0.,NA,NA,"",   233.935E-03,   13.8244E-03,  -233.527E-03,   10.5968E-03
C:/temp/dataset/6/6_18.odb,Step-1,Increment      1: Step Time =    1.000,"PART-1-1",           700,           -5.,       10.2083,            0.,NA,NA,"",   186.245E-03,   121.573E-03,  -141.093E-03,   62.4978E-06
C:/temp/dataset/6/6_18.odb,Step-1,Increment      1: Step Time =    1.000,"PART-1-1",           701,      -6.99901,       9.90050,            0.,NA,NA,"",   166.621E-03,   118.113E-03,  -117.524E-03,   111.110E-06
C:/temp/dataset/6/6_18.odb,Step-1,Increment      1: Step Time =    1.000,"PART-1-1",           702,      -11.2396,       16.2208,            0.,NA,NA,"",   204.276E-03,   192.610E-03,  -68.0453E-03,   2.16757E-06
C:/temp/dataset/6/6_18.odb,Step-1,Increment      1: Step Time =    1.000,"PART-1-1",           703,      -10.2112,       15.1096,            0.,NA,NA,"",   196.512E-03,   179.457E-03,  -80.0750E-03,   4.03216E-06
C:/temp/dataset/6/6_18.odb,Step-1,Increment      1: Step Time =    1.000,"PART-1-1",           704,      -9.25876,       16.3324,            0.,NA,NA,"",   214.250E-03,   193.789E-03,  -91.3726E-03,   2.22519E-06
C:/temp/dataset/6/6_18.odb,Step-1,Increment      1: Step Time =    1.000,"PART-1-1",           705,      -10.2871,       17.4437,            0.,NA,NA,"",   221.630E-03,   206.941E-03,  -79.3428E-03,   1.54375E-06
C:/temp/dataset/6/6_18.odb,Step-1,Increment      1: Step Time =    1.000,"PART-1-1",           706,      -8.19479,       15.2434,            0.,NA,NA,"",   208.576E-03,   180.900E-03,  -103.821E-03,   2.79903E-06
C:/temp/dataset/6/6_18.odb,Step-1,Increment      1: Step Time =    1.000,"PART-1-1",           707,      -9.19446,       14.0222,            0.,NA,NA,"",   190.293E-03,   166.595E-03,  -91.9659E-03,   13.5280E-06
C:/temp/dataset/6/6_18.odb,Step-1,Increment      1: Step Time =    1.000,"PART-1-1",           708,      -8.14331,       13.0080,            0.,NA,NA,"",   186.479E-03,   154.607E-03,  -104.265E-03,   17.8723E-06
C:/temp/dataset/6/6_18.odb,Step-1,Increment      1: Step Time =    1.000,"PART-1-1",           709,          -15.,         18.75,            0.,NA,NA,"",   223.931E-03,   222.647E-03,  -23.9423E-03,   2.14746E-06
C:/temp/dataset/6/6_18.odb,Step-1,Increment      1: Step Time =    1.000,"PART-1-1",           710,      -13.1826,       18.5751,            0.,NA,NA,"",   225.075E-03,   220.463E-03,  -45.3280E-03,   1.32633E-06
C:/temp/dataset/6/6_18.odb,Step-1,Increment      1: Step Time =    1.000,"PART-1-1",           711,      -11.2313,       23.3702,            0.,NA,NA,"",   285.160E-03,   276.777E-03,  -68.6327E-03,   381.316E-09
C:/temp/dataset/6/6_18.odb,Step-1,Increment      1: Step Time =    1.000,"PART-1-1",           712,      -10.8173,       24.9058,            0.,NA,NA,"",   303.876E-03,   294.825E-03,  -73.6132E-03,   172.359E-09
C:/temp/dataset/6/6_18.odb,Step-1,Increment      1: Step Time =    1.000,"PART-1-1",           713,      -13.5418,       24.7667,            0.,NA,NA,"",   296.302E-03,   293.377E-03,  -41.5296E-03,   110.775E-09
C:/temp/dataset/6/6_18.odb,Step-1,Increment      1: Step Time =    1.000,"PART-1-1",           714,      -12.2278,       25.9824,            0.,NA,NA,"",   312.849E-03,   307.597E-03,  -57.0830E-03,   115.116E-09
C:/temp/dataset/6/6_18.odb,Step-1,Increment      1: Step Time =    1.000,"PART-1-1",           715,          -15.,         26.25,            0.,NA,NA,"",   311.901E-03,   310.940E-03,  -24.4659E-03,   39.1251E-09
C:/temp/dataset/6/6_18.odb,Step-1,Increment      1: Step Time =    1.000,"PART-1-1",           716,          -15.,         23.75,            0.,NA,NA,"",   282.555E-03,   281.509E-03,  -24.2925E-03,   217.721E-09
C:/temp/dataset/6/6_18.odb,Step-1,Increment      1: Step Time =    1.000,"PART-1-1",           717,      -12.5630,       23.3034,            0.,NA,NA,"",   281.115E-03,   276.083E-03,  -52.9509E-03,   369.530E-09
C:/temp/dataset/6/6_18.odb,Step-1,Increment      1: Step Time =    1.000,"PART-1-1",           718,      -11.1827,       13.8735,            0.,NA,NA,"",   178.636E-03,   164.961E-03,  -68.5487E-03,   14.4658E-06
C:/temp/dataset/6/6_18.odb,Step-1,Increment      1: Step Time =    1.000,"PART-1-1",           719,      -10.1659,       12.7861,            0.,NA,NA,"",   172.054E-03,   152.097E-03,  -80.4305E-03,   22.4849E-06
C:/temp/dataset/6/6_18.odb,Step-1,Increment      1: Step Time =    1.000,"PART-1-1",           720,      -11.4858,       20.4947,            0.,NA,NA,"",   251.603E-03,   242.944E-03,  -65.4392E-03,   985.960E-09
C:/temp/dataset/6/6_18.odb,Step-1,Increment      1: Step Time =    1.000,"PART-1-1",           721,      -10.4732,       19.7487,            0.,NA,NA,"",   246.525E-03,   234.090E-03,  -77.3090E-03,   1.18962E-06
C:/temp/dataset/6/6_18.odb,Step-1,Increment      1: Step Time =    1.000,"PART-1-1",           722,      -10.9778,       21.7959,            0.,NA,NA,"",   267.944E-03,   258.226E-03,  -71.5090E-03,   674.719E-09
C:/temp/dataset/6/6_18.odb,Step-1,Increment      1: Step Time =    1.000,"PART-1-1",           723,      -9.13796,       11.7463,            0.,NA,NA,"",   167.615E-03,   139.821E-03,  -92.4385E-03,   53.2588E-06
C:/temp/dataset/6/6_18.odb,Step-1,Increment      1: Step Time =    1.000,"PART-1-1",           724,      -11.1090,       11.4975,            0.,NA,NA,"",   153.446E-03,   136.947E-03,  -69.2168E-03,   54.9016E-06
C:/temp/dataset/6/6_18.odb,Step-1,Increment      1: Step Time =    1.000,"PART-1-1",           725,      -7.95801,       5.48811,            0.,NA,NA,"",   124.222E-03,   66.2775E-03,  -105.064E-03,   389.096E-06
C:/temp/dataset/6/6_18.odb,Step-1,Increment      1: Step Time =    1.000,"PART-1-1",           726,      -9.27172,       5.51676,            0.,NA,NA,"",   111.398E-03,   66.4243E-03,  -89.4282E-03,   412.620E-06
C:/temp/dataset/6/6_18.odb,Step-1,Increment      1: Step Time =    1.000,"PART-1-1",           727,      -9.10783,       4.19071,            0.,NA,NA,"",   104.055E-03,   50.8436E-03,  -90.7873E-03,   425.323E-06
C:/temp/dataset/6/6_18.odb,Step-1,Increment      1: Step Time =    1.000,"PART-1-1",           728,      -7.79412,       4.16207,            0.,NA,NA,"",   117.989E-03,   50.5550E-03,  -106.610E-03,   534.080E-06
C:/temp/dataset/6/6_18.odb,Step-1,Increment      1: Step Time =    1.000,"PART-1-1",           729,      -10.3652,   710.465E-03,            0.,NA,NA,"",   75.0747E-03,   11.8725E-03,  -74.1300E-03,   996.047E-06
C:/temp/dataset/6/6_18.odb,Step-1,Increment      1: Step Time =    1.000,"PART-1-1",           730,      -11.5756,       2.14983,            0.,NA,NA,"",   67.8037E-03,   27.2362E-03,  -62.0929E-03,   378.682E-06
C:/temp/dataset/6/6_18.odb,Step-1,Increment      1: Step Time =    1.000,"PART-1-1",           731,      -10.9514,      -7.70102,            0.,NA,NA,"",   78.0538E-03,  -51.6182E-03,  -58.5488E-03,   2.10664E-03
C:/temp/dataset/6/6_18.odb,Step-1,Increment      1: Step Time =    1.000,"PART-1-1",           732,      -11.1587,      -15.1039,            0.,NA,NA,"",   63.1245E-03,  -46.2230E-03,  -42.9900E-03,   3.26101E-03
C:/temp/dataset/6/6_18.odb,Step-1,Increment      1: Step Time =    1.000,"PART-1-1",           733,      -11.0422,      -12.5823,            0.,NA,NA,"",   71.9508E-03,  -52.7993E-03,  -48.8789E-03,   3.09455E-03
C:/temp/dataset/6/6_18.odb,Step-1,Increment      1: Step Time =    1.000,"PART-1-1",           734,      -9.98828,      -19.2456,            0.,NA,NA,"",   41.1536E-03,  -27.8498E-03,  -30.2987E-03,   3.94969E-03
C:/temp/dataset/6/6_18.odb,Step-1,Increment      1: Step Time =    1.000,"PART-1-1",           735,      -11.2222,      -17.6929,            0.,NA,NA,"",   51.5793E-03,  -36.4629E-03,  -36.4813E-03,   3.50184E-03
C:/temp/dataset/6/6_18.odb,Step-1,Increment      1: Step Time =    1.000,"PART-1-1",           736,      -9.72809,       26.4627,            0.,NA,NA,"",   324.820E-03,   313.078E-03,  -86.5435E-03,   101.522E-09
C:/temp/dataset/6/6_18.odb,Step-1,Increment      1: Step Time =    1.000,"PART-1-1",           737,      -8.07960,       10.7858,            0.,NA,NA,"",   165.843E-03,   128.512E-03,  -104.826E-03,   63.2011E-06
C:/temp/dataset/6/6_18.odb,Step-1,Increment      1: Step Time =    1.000,"PART-1-1",           738,      -11.3320,       18.4953,            0.,NA,NA,"",   229.430E-03,   219.395E-03,  -67.1129E-03,   1.31595E-06
C:/temp/dataset/6/6_18.odb,Step-1,Increment      1: Step Time =    1.000,"PART-1-1",           739,      -10.4893,       6.32554,            0.,NA,NA,"",   107.022E-03,   75.8054E-03,  -75.5459E-03,   330.743E-06
C:/temp/dataset/6/6_18.odb,Step-1,Increment      1: Step Time =    1.000,"PART-1-1",           740,      -11.8356,       7.66802,            0.,NA,NA,"",   109.674E-03,   91.6340E-03,  -60.2618E-03,   199.128E-06
C:/temp/dataset/6/6_18.odb,Step-1,Increment      1: Step Time =    1.000,"PART-1-1",           741,      -11.4125,       4.87054,            0.,NA,NA,"",   87.1843E-03,   58.5387E-03,  -64.6091E-03,   337.388E-06
C:/temp/dataset/6/6_18.odb,Step-1,Increment      1: Step Time =    1.000,"PART-1-1",           742,       10.1911,      -5.79504,            0.,NA,NA,"",   133.132E-03,   71.0548E-03,  -112.585E-03,   4.66856E-03
C:/temp/dataset/6/6_18.odb,Step-1,Increment      1: Step Time =    1.000,"PART-1-1",           743,       9.10708,      -6.74300,            0.,NA,NA,"",   134.991E-03,   71.9632E-03,  -114.210E-03,   5.83333E-03
C:/temp/dataset/6/6_18.odb,Step-1,Increment      1: Step Time =    1.000,"PART-1-1",           744,       11.1638,      -4.94873,            0.,NA,NA,"",   129.775E-03,   69.0907E-03,  -109.855E-03,   3.56971E-03
C:/temp/dataset/6/6_18.odb,Step-1,Increment      1: Step Time =    1.000,"PART-1-1",           745,       10.4293,      -4.08570,            0.,NA,NA,"",   133.768E-03,   63.4692E-03,  -117.752E-03,   4.44576E-03
C:/temp/dataset/6/6_18.odb,Step-1,Increment      1: Step Time =    1.000,"PART-1-1",           746,       9.97038,      -14.8971,            0.,NA,NA,"",   94.7294E-03,   62.4017E-03,  -71.2719E-03,   5.84921E-03
C:/temp/dataset/6/6_18.odb,Step-1,Increment      1: Step Time =    1.000,"PART-1-1",           747,       9.96577,      -12.5508,            0.,NA,NA,"",   109.329E-03,   71.3435E-03,  -82.8435E-03,   5.83754E-03
C:/temp/dataset/6/6_18.odb,Step-1,Increment      1: Step Time =    1.000,"PART-1-1",           748,       8.96159,      -13.7029,            0.,NA,NA,"",   100.195E-03,   64.7903E-03,  -76.4287E-03,   6.47186E-03
C:/temp/dataset/6/6_18.odb,Step-1,Increment      1: Step Time =    1.000,"PART-1-1",           749,       6.92617,      -22.4012,            0.,NA,NA,"",   27.0243E-03,   12.6265E-03,  -23.8932E-03,   5.17918E-03
C:/temp/dataset/6/6_18.odb,Step-1,Increment      1: Step Time =    1.000,"PART-1-1",           750,       5.94981,      -23.5281,            0.,NA,NA,"",   16.7209E-03,   6.14417E-03,  -15.5512E-03,   3.93761E-03
C:/temp/dataset/6/6_18.odb,Step-1,Increment      1: Step Time =    1.000,"PART-1-1",           751,       7.18383,      -24.1705,            0.,NA,NA,"",   18.6178E-03,   7.05304E-03,  -17.2301E-03,   4.35731E-03
C:/temp/dataset/6/6_18.odb,Step-1,Increment      1: Step Time =    1.000,"PART-1-1",           752,       11.0968,      -20.2176,            0.,NA,NA,"",   60.2800E-03,   36.6449E-03,  -47.8626E-03,   5.87331E-03
C:/temp/dataset/6/6_18.odb,Step-1,Increment      1: Step Time =    1.000,"PART-1-1",           753,       6.43355,      -20.8801,            0.,NA,NA,"",   34.6545E-03,   18.5913E-03,  -29.2455E-03,   5.99747E-03
C:/temp/dataset/6/6_18.odb,Step-1,Increment      1: Step Time =    1.000,"PART-1-1",           754,       8.96045,      -11.3546,            0.,NA,NA,"",   114.931E-03,   71.9375E-03,  -89.6331E-03,   6.58724E-03
C:/temp/dataset/6/6_18.odb,Step-1,Increment      1: Step Time =    1.000,"PART-1-1",           755,       8.17216,      -2.03287,            0.,NA,NA,"",   156.123E-03,   45.5878E-03,  -149.319E-03,   7.92160E-03
C:/temp/dataset/6/6_18.odb,Step-1,Increment      1: Step Time =    1.000,"PART-1-1",           756,       9.68046,      -2.49017,            0.,NA,NA,"",   140.853E-03,   52.6880E-03,  -130.627E-03,   5.47321E-03
C:/temp/dataset/6/6_18.odb,Step-1,Increment      1: Step Time =    1.000,"PART-1-1",           757,      -5.24373,       2.94722,            0.,NA,NA,"",   145.489E-03,   34.5667E-03,  -141.323E-03,   3.39059E-03
C:/temp/dataset/6/6_18.odb,Step-1,Increment      1: Step Time =    1.000,"PART-1-1",           758,      -6.20341,       3.93450,            0.,NA,NA,"",   135.541E-03,   47.2747E-03,  -127.029E-03,   1.17947E-03
C:/temp/dataset/6/6_18.odb,Step-1,Increment      1: Step Time =    1.000,"PART-1-1",           759,       7.87036,      -17.0650,            0.,NA,NA,"",   72.1533E-03,   46.1209E-03,  -55.4884E-03,   6.42704E-03
C:/temp/dataset/6/6_18.odb,Step-1,Increment      1: Step Time =    1.000,"PART-1-1",           760,      -8.77165,      -4.61616,            0.,NA,NA,"",   86.5122E-03,  -35.5449E-03,  -78.8728E-03,   3.18020E-03
C:/temp/dataset/6/6_18.odb,Step-1,Increment      1: Step Time =    1.000,"PART-1-1",           761,       8.90402,      -15.9271,            0.,NA,NA,"",   84.4121E-03,   54.7977E-03,  -64.2076E-03,   6.26268E-03
C:/temp/dataset/6/6_18.odb,Step-1,Increment      1: Step Time =    1.000,"PART-1-1",           762,       7.94609,      -14.8939,            0.,NA,NA,"",   88.8628E-03,   56.9750E-03,  -68.1942E-03,   6.84133E-03
C:/temp/dataset/6/6_18.odb,Step-1,Increment      1: Step Time =    1.000,"PART-1-1",           763,      -12.3095,       21.7291,            0.,NA,NA,"",   263.514E-03,   257.532E-03,  -55.8268E-03,   618.192E-09
C:/temp/dataset/6/6_18.odb,Step-1,Increment      1: Step Time =    1.000,"PART-1-1",           764,      -12.2938,       19.6789,            0.,NA,NA,"",   239.989E-03,   233.395E-03,  -55.8698E-03,   1.10066E-06
C:/temp/dataset/6/6_18.odb,Step-1,Increment      1: Step Time =    1.000,"PART-1-1",           765,       3.72209,      -1.78065,            0.,NA,NA,"",   213.303E-03,   21.8685E-03,  -212.179E-03,   10.0469E-03
C:/temp/dataset/6/6_18.odb,Step-1,Increment      1: Step Time =    1.000,"PART-1-1",           766,       6.45852,      -3.38063,            0.,NA,NA,"",   165.940E-03,   43.8792E-03,  -160.033E-03,   11.5555E-03
C:/temp/dataset/6/6_18.odb,Step-1,Increment      1: Step Time =    1.000,"PART-1-1",           767,       4.93556,      -2.38177,            0.,NA,NA,"",   194.322E-03,   29.1006E-03,  -192.130E-03,   12.7722E-03
C:/temp/dataset/6/6_18.odb,Step-1,Increment      1: Step Time =    1.000,"PART-1-1",           768,      -2.94024,   945.156E-03,            0.,NA,NA,"",   180.878E-03,   13.1469E-03,  -180.400E-03,   8.22560E-03
C:/temp/dataset/6/6_18.odb,Step-1,Increment      1: Step Time =    1.000,"PART-1-1",           769,      -1.69279,      -25.0756,            0.,NA,NA,"",   691.354E-06,  -294.092E-06,  -625.684E-06,   285.146E-06
C:/temp/dataset/6/6_18.odb,Step-1,Increment      1: Step Time =    1.000,"PART-1-1",           770,      -6.93923,      -23.9860,            0.,NA,NA,"",   11.0070E-03,  -4.92759E-03,  -9.84235E-03,   2.71020E-03
C:/temp/dataset/6/6_18.odb,Step-1,Increment      1: Step Time =    1.000,"PART-1-1",           771,      -5.91970,      -22.6959,            0.,NA,NA,"",   11.8735E-03,  -5.95704E-03,  -10.2710E-03,   2.84242E-03
C:/temp/dataset/6/6_18.odb,Step-1,Increment      1: Step Time =    1.000,"PART-1-1",           772,      -12.2208,       17.3915,            0.,NA,NA,"",   214.072E-03,   206.462E-03,  -56.5716E-03,   1.32578E-06
C:/temp/dataset/6/6_18.odb,Step-1,Increment      1: Step Time =    1.000,"PART-1-1",           773,      -12.0398,       10.1961,            0.,NA,NA,"",   134.796E-03,   121.602E-03,  -58.1626E-03,   74.2084E-06
C:/temp/dataset/6/6_18.odb,Step-1,Increment      1: Step Time =    1.000,"PART-1-1",           774,      -10.8637,      -2.91198,            0.,NA,NA,"",   69.2768E-03,  -23.4481E-03,  -65.1879E-03,   1.34028E-03
C:/temp/dataset/6/6_18.odb,Step-1,Increment      1: Step Time =    1.000,"PART-1-1",           775,      -9.61620,      -11.5179,            0.,NA,NA,"",   75.2766E-03,  -52.6451E-03,  -53.8058E-03,   4.04496E-03
C:/temp/dataset/6/6_18.odb,Step-1,Increment      1: Step Time =    1.000,"PART-1-1",           776,      -11.8201,      -24.5932,            0.,NA,NA,"",   20.0527E-03,  -11.5272E-03,  -16.4084E-03,   3.78871E-03
C:/temp/dataset/6/6_18.odb,Step-1,Increment      1: Step Time =    1.000,"PART-1-1",           777,      -11.0718,      -23.4296,            0.,NA,NA,"",   23.2874E-03,  -13.6866E-03,  -18.8409E-03,   3.66927E-03
C:/temp/dataset/6/6_18.odb,Step-1,Increment      1: Step Time =    1.000,"PART-1-1",           778,       4.75405,      -23.0816,            0.,NA,NA,"",   13.1222E-03,   4.98354E-03,  -12.1390E-03,   2.98943E-03
C:/temp/dataset/6/6_18.odb,Step-1,Increment      1: Step Time =    1.000,"PART-1-1",           779,       5.55198,      -21.9930,            0.,NA,NA,"",   21.7798E-03,   10.1305E-03,  -19.2803E-03,   4.66390E-03
C:/temp/dataset/6/6_18.odb,Step-1,Increment      1: Step Time =    1.000,"PART-1-1",           780,       7.01336,      -26.0950,            0.,NA,NA,"",   10.2722E-03,   2.13505E-03,  -10.0478E-03,   3.47874E-03
C:/temp/dataset/6/6_18.odb,Step-1,Increment      1: Step Time =    1.000,"PART-1-1",           781,       4.10189,      -23.9882,            0.,NA,NA,"",   8.18822E-03,   2.12897E-03,  -7.90661E-03,   2.02982E-03
C:/temp/dataset/6/6_18.odb,Step-1,Increment      1: Step Time =    1.000,"PART-1-1",           782,       4.14804,      -25.2051,            0.,NA,NA,"",   6.08911E-03,   334.865E-06,  -6.07990E-03,   1.85109E-03
C:/temp/dataset/6/6_18.odb,Step-1,Increment      1: Step Time =    1.000,"PART-1-1",           783,      -12.1264,       12.6156,            0.,NA,NA,"",   160.762E-03,   150.186E-03,  -57.3460E-03,   20.3279E-06
C:/temp/dataset/6/6_18.odb,Step-1,Increment      1: Step Time =    1.000,"PART-1-1",           784,      -12.1709,       15.0185,            0.,NA,NA,"",   187.391E-03,   178.513E-03,  -56.9953E-03,   2.92818E-06
C:/temp/dataset/6/6_18.odb,Step-1,Increment      1: Step Time =    1.000,"PART-1-1",           785,      -10.3060,       3.43341,            0.,NA,NA,"",   87.3223E-03,   41.9319E-03,  -76.5957E-03,   519.142E-06
C:/temp/dataset/6/6_18.odb,Step-1,Increment      1: Step Time =    1.000,"PART-1-1",           786,      -9.35047,  -311.861E-03,            0.,NA,NA,"",   83.8486E-03,   2.00371E-03,  -83.8247E-03,   1.84016E-03
C:/temp/dataset/6/6_18.odb,Step-1,Increment      1: Step Time =    1.000,"PART-1-1",           787,      -9.47746,      -1.56252,            0.,NA,NA,"",   80.7684E-03,  -10.2251E-03,  -80.1185E-03,   2.33816E-03
C:/temp/dataset/6/6_18.odb,Step-1,Increment      1: Step Time =    1.000,"PART-1-1",           788,      -7.56677,      -1.93629,            0.,NA,NA,"",   100.851E-03,  -10.7988E-03,  -100.271E-03,   4.38935E-03
C:/temp/dataset/6/6_18.odb,Step-1,Increment      1: Step Time =    1.000,"PART-1-1",           789,      -9.57637,      -3.06595,            0.,NA,NA,"",   79.6500E-03,  -23.9311E-03,  -75.9699E-03,   2.39823E-03
C:/temp/dataset/6/6_18.odb,Step-1,Increment      1: Step Time =    1.000,"PART-1-1",           790,      -8.24618,      -3.39128,            0.,NA,NA,"",   90.9829E-03,  -25.1803E-03,  -87.4291E-03,   3.90148E-03
C:/temp/dataset/6/6_18.odb,Step-1,Increment      1: Step Time =    1.000,"PART-1-1",           791,       7.98922,      -7.69035,            0.,NA,NA,"",   134.773E-03,   71.2190E-03,  -114.419E-03,   7.63677E-03
C:/temp/dataset/6/6_18.odb,Step-1,Increment      1: Step Time =    1.000,"PART-1-1",           792,       7.96586,      -10.1263,            0.,NA,NA,"",   121.466E-03,   71.1247E-03,  -98.4642E-03,   7.68051E-03
C:/temp/dataset/6/6_18.odb,Step-1,Increment      1: Step Time =    1.000,"PART-1-1",           793,       7.95460,      -12.5381,            0.,NA,NA,"",   105.766E-03,   65.8543E-03,  -82.7633E-03,   7.28129E-03
C:/temp/dataset/6/6_18.odb,Step-1,Increment      1: Step Time =    1.000,"PART-1-1",           794,      -6.90534,       4.84567,            0.,NA,NA,"",   131.651E-03,   58.6121E-03,  -117.884E-03,   333.291E-06
C:/temp/dataset/6/6_18.odb,Step-1,Increment      1: Step Time =    1.000,"PART-1-1",           795,      -7.09219,       3.25090,            0.,NA,NA,"",   121.910E-03,   39.8091E-03,  -115.227E-03,   1.29430E-03
C:/temp/dataset/6/6_18.odb,Step-1,Increment      1: Step Time =    1.000,"PART-1-1",           796,      -5.99438,      -2.38990,            0.,NA,NA,"",   120.489E-03,  -10.9059E-03,  -119.994E-03,   7.45437E-03
C:/temp/dataset/6/6_18.odb,Step-1,Increment      1: Step Time =    1.000,"PART-1-1",           797,      -8.16339,       2.56404,            0.,NA,NA,"",   106.304E-03,   32.3555E-03,  -101.261E-03,   1.09712E-03
C:/temp/dataset/6/6_18.odb,Step-1,Increment      1: Step Time =    1.000,"PART-1-1",           798,      -6.16245,       1.98671,            0.,NA,NA,"",   130.336E-03,   25.6963E-03,  -127.778E-03,   3.05272E-03
C:/temp/dataset/6/6_18.odb,Step-1,Increment      1: Step Time =    1.000,"PART-1-1",           799,      -9.36160,       1.80674,            0.,NA,NA,"",   89.5731E-03,   23.9201E-03,  -86.3202E-03,   1.02165E-03
C:/temp/dataset/6/6_18.odb,Step-1,Increment      1: Step Time =    1.000,"PART-1-1",           800,      -4.18828,       1.89018,            0.,NA,NA,"",   160.261E-03,   22.2082E-03,  -158.715E-03,   5.59700E-03
C:/temp/dataset/6/6_18.odb,Step-1,Increment      1: Step Time =    1.000,"PART-1-1",           801,      -2.02478,       2.01876,            0.,NA,NA,"",   197.730E-03,   17.3929E-03,  -196.963E-03,   8.67188E-03
C:/temp/dataset/6/6_18.odb,Step-1,Increment      1: Step Time =    1.000,"PART-1-1",           802,       5.29765,      -24.4346,            0.,NA,NA,"",   11.0455E-03,   2.80618E-03,  -10.6831E-03,   2.87530E-03
C:/temp/dataset/6/6_18.odb,Step-1,Increment      1: Step Time =    1.000,"PART-1-1",           803,       8.18651,      -25.0309,            0.,NA,NA,"",   17.6858E-03,   6.73861E-03,  -16.3518E-03,   4.64484E-03
C:/temp/dataset/6/6_18.odb,Step-1,Increment      1: Step Time =    1.000,"PART-1-1",           804,       6.01068,      -25.2345,            0.,NA,NA,"",   10.7327E-03,   2.28790E-03,  -10.4860E-03,   3.18191E-03
