ODB Name,Step,Frame,Part Instance Name,    êﬂì_ÉâÉxÉã,X,Y,Z,Section Name,Material Name,Section Point,   U-Magnitude,          U-U1,          U-U2,       S-Mises
C:/temp/dataset/6/7_20.odb,Step-1,Increment      1: Step Time =    1.000,"PART-1-1",             1,            5.,           -5.,            0.,NA,NA,"",   201.186E-03,   77.9183E-03,  -185.484E-03,   11.7322E-03
C:/temp/dataset/6/7_20.odb,Step-1,Increment      1: Step Time =    1.000,"PART-1-1",             2,            0.,           -5.,            0.,NA,NA,"",   163.634E-03,   42.7122E-03,  -157.961E-03,   4.33128E-03
C:/temp/dataset/6/7_20.odb,Step-1,Increment      1: Step Time =    1.000,"PART-1-1",             3,            5.,      -10.0250,            0.,NA,NA,"",   147.879E-03,   72.4481E-03,  -128.916E-03,   10.8469E-03
C:/temp/dataset/6/7_20.odb,Step-1,Increment      1: Step Time =    1.000,"PART-1-1",             4,            5.,      -15.0500,            0.,NA,NA,"",   96.2458E-03,   49.8732E-03,  -82.3160E-03,   9.71271E-03
C:/temp/dataset/6/7_20.odb,Step-1,Increment      1: Step Time =    1.000,"PART-1-1",             5,            5.,          -20.,            0.,NA,NA,"",   43.3651E-03,   23.3226E-03,  -36.5593E-03,   8.61044E-03
C:/temp/dataset/6/7_20.odb,Step-1,Increment      1: Step Time =    1.000,"PART-1-1",             6,            0.,          -20.,            0.,NA,NA,"",   8.80316E-03,   7.74327E-03,  -4.18777E-03,   2.66727E-03
C:/temp/dataset/6/7_20.odb,Step-1,Increment      1: Step Time =    1.000,"PART-1-1",             7,           -5.,          -20.,            0.,NA,NA,"",   9.57093E-03,  -1.74107E-03,  -9.41123E-03,   3.03207E-03
C:/temp/dataset/6/7_20.odb,Step-1,Increment      1: Step Time =    1.000,"PART-1-1",             8,           -5.,      -14.9750,            0.,NA,NA,"",   26.9922E-03,   953.557E-06,  -26.9754E-03,   3.92768E-03
C:/temp/dataset/6/7_20.odb,Step-1,Increment      1: Step Time =    1.000,"PART-1-1",             9,           -5.,      -9.95000,            0.,NA,NA,"",   49.2197E-03,   15.3230E-03,  -46.7738E-03,   4.73082E-03
C:/temp/dataset/6/7_20.odb,Step-1,Increment      1: Step Time =    1.000,"PART-1-1",            10,           -5.,           -5.,            0.,NA,NA,"",   84.5213E-03,   38.6245E-03,  -75.1798E-03,   7.84694E-03
C:/temp/dataset/6/7_20.odb,Step-1,Increment      1: Step Time =    1.000,"PART-1-1",            11,           15.,          -30.,            0.,NA,NA,"",            0.,   4.88001E-39,  -8.48496E-39,   16.5759E-03
C:/temp/dataset/6/7_20.odb,Step-1,Increment      1: Step Time =    1.000,"PART-1-1",            12,          -15.,          -30.,            0.,NA,NA,"",            0.,  -672.382E-42,  -1.12049E-39,   2.14225E-03
C:/temp/dataset/6/7_20.odb,Step-1,Increment      1: Step Time =    1.000,"PART-1-1",            13,           15.,        -21.25,            0.,NA,NA,"",   97.2572E-03,   52.9319E-03,  -81.5915E-03,   9.13180E-03
C:/temp/dataset/6/7_20.odb,Step-1,Increment      1: Step Time =    1.000,"PART-1-1",            14,           15.,         -12.5,            0.,NA,NA,"",   175.508E-03,   100.243E-03,  -144.064E-03,   6.93819E-03
C:/temp/dataset/6/7_20.odb,Step-1,Increment      1: Step Time =    1.000,"PART-1-1",            15,           15.,         -3.75,            0.,NA,NA,"",   233.369E-03,   129.832E-03,  -193.920E-03,   5.16607E-03
C:/temp/dataset/6/7_20.odb,Step-1,Increment      1: Step Time =    1.000,"PART-1-1",            16,           15.,            5.,            0.,NA,NA,"",   234.019E-03,   116.237E-03,  -203.111E-03,   665.239E-06
C:/temp/dataset/6/7_20.odb,Step-1,Increment      1: Step Time =    1.000,"PART-1-1",            17,           10.,            5.,            0.,NA,NA,"",   287.870E-03,   110.047E-03,  -266.005E-03,   10.3962E-03
C:/temp/dataset/6/7_20.odb,Step-1,Increment      1: Step Time =    1.000,"PART-1-1",            18,            5.,            5.,            0.,NA,NA,"",   293.332E-03,   143.907E-03,  -255.606E-03,   11.6529E-03
C:/temp/dataset/6/7_20.odb,Step-1,Increment      1: Step Time =    1.000,"PART-1-1",            19,            0.,            5.,            0.,NA,NA,"",   216.650E-03,   148.939E-03,  -157.336E-03,   1.19787E-03
C:/temp/dataset/6/7_20.odb,Step-1,Increment      1: Step Time =    1.000,"PART-1-1",            20,           -5.,            5.,            0.,NA,NA,"",   174.125E-03,   150.063E-03,  -88.3211E-03,   1.17334E-03
C:/temp/dataset/6/7_20.odb,Step-1,Increment      1: Step Time =    1.000,"PART-1-1",            21,           -5.,         11.25,            0.,NA,NA,"",   235.790E-03,   218.730E-03,  -88.0568E-03,   20.4167E-06
C:/temp/dataset/6/7_20.odb,Step-1,Increment      1: Step Time =    1.000,"PART-1-1",            22,           -5.,          17.5,            0.,NA,NA,"",   302.394E-03,   289.151E-03,  -88.5088E-03,   1.98466E-06
C:/temp/dataset/6/7_20.odb,Step-1,Increment      1: Step Time =    1.000,"PART-1-1",            23,           -5.,         23.75,            0.,NA,NA,"",   370.440E-03,   359.612E-03,  -88.9083E-03,   53.5422E-09
C:/temp/dataset/6/7_20.odb,Step-1,Increment      1: Step Time =    1.000,"PART-1-1",            24,           -5.,           30.,            0.,NA,NA,"",   439.245E-03,   430.071E-03,  -89.3053E-03,   2.29304E-09
C:/temp/dataset/6/7_20.odb,Step-1,Increment      1: Step Time =    1.000,"PART-1-1",            25,          -10.,           30.,            0.,NA,NA,"",   431.647E-03,   430.389E-03,  -32.9385E-03,   30.2634E-09
C:/temp/dataset/6/7_20.odb,Step-1,Increment      1: Step Time =    1.000,"PART-1-1",            26,          -15.,           30.,            0.,NA,NA,"",   431.343E-03,   430.706E-03,   23.4280E-03,   2.45611E-09
C:/temp/dataset/6/7_20.odb,Step-1,Increment      1: Step Time =    1.000,"PART-1-1",            27,          -15.,          22.5,            0.,NA,NA,"",   346.981E-03,   346.157E-03,   23.9044E-03,   37.0532E-09
C:/temp/dataset/6/7_20.odb,Step-1,Increment      1: Step Time =    1.000,"PART-1-1",            28,          -15.,           15.,            0.,NA,NA,"",   262.745E-03,   261.611E-03,   24.3915E-03,   6.18141E-06
C:/temp/dataset/6/7_20.odb,Step-1,Increment      1: Step Time =    1.000,"PART-1-1",            29,          -15.,           7.5,            0.,NA,NA,"",   178.539E-03,   176.787E-03,   24.9497E-03,   19.5365E-06
C:/temp/dataset/6/7_20.odb,Step-1,Increment      1: Step Time =    1.000,"PART-1-1",            30,          -15.,            0.,            0.,NA,NA,"",   94.3073E-03,   91.5504E-03,   22.6363E-03,   1.14539E-03
C:/temp/dataset/6/7_20.odb,Step-1,Increment      1: Step Time =    1.000,"PART-1-1",            31,          -15.,          -7.5,            0.,NA,NA,"",   25.3663E-03,   23.6188E-03,   9.25200E-03,   2.48574E-03
C:/temp/dataset/6/7_20.odb,Step-1,Increment      1: Step Time =    1.000,"PART-1-1",            32,          -15.,          -15.,            0.,NA,NA,"",   6.23330E-03,  -4.90519E-03,  -3.84619E-03,   1.23837E-03
C:/temp/dataset/6/7_20.odb,Step-1,Increment      1: Step Time =    1.000,"PART-1-1",            33,          -15.,         -22.5,            0.,NA,NA,"",   9.59338E-03,  -6.97643E-03,  -6.58501E-03,   402.382E-06
C:/temp/dataset/6/7_20.odb,Step-1,Increment      1: Step Time =    1.000,"PART-1-1",            34,           2.5,           -5.,            0.,NA,NA,"",   193.921E-03,   55.6337E-03,  -185.769E-03,   8.00123E-03
C:/temp/dataset/6/7_20.odb,Step-1,Increment      1: Step Time =    1.000,"PART-1-1",            35,            5.,      -7.51250,            0.,NA,NA,"",   173.685E-03,   79.7281E-03,  -154.305E-03,   12.1333E-03
C:/temp/dataset/6/7_20.odb,Step-1,Increment      1: Step Time =    1.000,"PART-1-1",            36,            5.,      -12.5375,            0.,NA,NA,"",   121.950E-03,   62.1055E-03,  -104.951E-03,   10.2699E-03
C:/temp/dataset/6/7_20.odb,Step-1,Increment      1: Step Time =    1.000,"PART-1-1",            37,            5.,      -17.5250,            0.,NA,NA,"",   71.7015E-03,   37.1090E-03,  -61.3517E-03,   9.53814E-03
C:/temp/dataset/6/7_20.odb,Step-1,Increment      1: Step Time =    1.000,"PART-1-1",            38,           2.5,          -20.,            0.,NA,NA,"",   19.1368E-03,   15.2417E-03,  -11.5719E-03,   4.43435E-03
C:/temp/dataset/6/7_20.odb,Step-1,Increment      1: Step Time =    1.000,"PART-1-1",            39,          -2.5,          -20.,            0.,NA,NA,"",   4.06381E-03,   2.22949E-03,  -3.39764E-03,   2.03845E-03
C:/temp/dataset/6/7_20.odb,Step-1,Increment      1: Step Time =    1.000,"PART-1-1",            40,           -5.,      -17.4875,            0.,NA,NA,"",   18.6741E-03,  -1.89105E-03,  -18.5781E-03,   3.73282E-03
C:/temp/dataset/6/7_20.odb,Step-1,Increment      1: Step Time =    1.000,"PART-1-1",            41,           -5.,      -12.4625,            0.,NA,NA,"",   36.9521E-03,   6.57131E-03,  -36.3631E-03,   4.37789E-03
C:/temp/dataset/6/7_20.odb,Step-1,Increment      1: Step Time =    1.000,"PART-1-1",            42,           -5.,      -7.47500,            0.,NA,NA,"",   63.5737E-03,   26.7180E-03,  -57.6868E-03,   5.63706E-03
C:/temp/dataset/6/7_20.odb,Step-1,Increment      1: Step Time =    1.000,"PART-1-1",            43,          -2.5,           -5.,            0.,NA,NA,"",   126.450E-03,   36.0807E-03,  -121.193E-03,   2.28443E-03
C:/temp/dataset/6/7_20.odb,Step-1,Increment      1: Step Time =    1.000,"PART-1-1",            44,          12.5,          -30.,            0.,NA,NA,"",            0.,   7.96010E-39,  -19.1081E-39,   6.93856E-03
C:/temp/dataset/6/7_20.odb,Step-1,Increment      1: Step Time =    1.000,"PART-1-1",            45,           10.,          -30.,            0.,NA,NA,"",            0.,  -3.33193E-39,  -12.9440E-39,   6.08119E-03
C:/temp/dataset/6/7_20.odb,Step-1,Increment      1: Step Time =    1.000,"PART-1-1",            46,           7.5,          -30.,            0.,NA,NA,"",            0.,  -3.53893E-39,  -10.6703E-39,   4.63178E-03
C:/temp/dataset/6/7_20.odb,Step-1,Increment      1: Step Time =    1.000,"PART-1-1",            47,            5.,          -30.,            0.,NA,NA,"",            0.,  -221.080E-42,  -7.39839E-39,   3.40912E-03
C:/temp/dataset/6/7_20.odb,Step-1,Increment      1: Step Time =    1.000,"PART-1-1",            48,           2.5,          -30.,            0.,NA,NA,"",            0.,  -640.016E-42,  -3.87114E-39,   2.23482E-03
C:/temp/dataset/6/7_20.odb,Step-1,Increment      1: Step Time =    1.000,"PART-1-1",            49,            0.,          -30.,            0.,NA,NA,"",            0.,  -1.92724E-39,  -2.73731E-39,   1.27184E-03
C:/temp/dataset/6/7_20.odb,Step-1,Increment      1: Step Time =    1.000,"PART-1-1",            50,          -2.5,          -30.,            0.,NA,NA,"",            0.,   19.4879E-42,  -1.11770E-39,   677.310E-06
C:/temp/dataset/6/7_20.odb,Step-1,Increment      1: Step Time =    1.000,"PART-1-1",            51,           -5.,          -30.,            0.,NA,NA,"",            0.,   297.364E-42,  -1.34425E-39,   586.155E-06
C:/temp/dataset/6/7_20.odb,Step-1,Increment      1: Step Time =    1.000,"PART-1-1",            52,          -7.5,          -30.,            0.,NA,NA,"",            0.,   320.345E-42,  -1.66984E-39,   701.337E-06
C:/temp/dataset/6/7_20.odb,Step-1,Increment      1: Step Time =    1.000,"PART-1-1",            53,          -10.,          -30.,            0.,NA,NA,"",            0.,  -1.08677E-39,  -2.12446E-39,   840.381E-06
C:/temp/dataset/6/7_20.odb,Step-1,Increment      1: Step Time =    1.000,"PART-1-1",            54,         -12.5,          -30.,            0.,NA,NA,"",            0.,  -708.819E-42,  -1.63055E-39,   878.373E-06
C:/temp/dataset/6/7_20.odb,Step-1,Increment      1: Step Time =    1.000,"PART-1-1",            55,           15.,      -23.4375,            0.,NA,NA,"",   75.5138E-03,   41.5076E-03,  -63.0829E-03,   9.64117E-03
C:/temp/dataset/6/7_20.odb,Step-1,Increment      1: Step Time =    1.000,"PART-1-1",            56,           15.,       -25.625,            0.,NA,NA,"",   53.7631E-03,   30.9705E-03,  -43.9465E-03,   9.71461E-03
C:/temp/dataset/6/7_20.odb,Step-1,Increment      1: Step Time =    1.000,"PART-1-1",            57,           15.,      -27.8125,            0.,NA,NA,"",   31.7505E-03,   19.8996E-03,  -24.7406E-03,   11.3124E-03
C:/temp/dataset/6/7_20.odb,Step-1,Increment      1: Step Time =    1.000,"PART-1-1",            58,           15.,      -14.6875,            0.,NA,NA,"",   157.886E-03,   89.5560E-03,  -130.030E-03,   7.34820E-03
C:/temp/dataset/6/7_20.odb,Step-1,Increment      1: Step Time =    1.000,"PART-1-1",            59,           15.,       -16.875,            0.,NA,NA,"",   138.871E-03,   77.7308E-03,  -115.078E-03,   7.87161E-03
C:/temp/dataset/6/7_20.odb,Step-1,Increment      1: Step Time =    1.000,"PART-1-1",            60,           15.,      -19.0625,            0.,NA,NA,"",   118.565E-03,   65.2736E-03,  -98.9797E-03,   8.50709E-03
C:/temp/dataset/6/7_20.odb,Step-1,Increment      1: Step Time =    1.000,"PART-1-1",            61,           15.,       -5.9375,            0.,NA,NA,"",   220.683E-03,   123.857E-03,  -182.649E-03,   6.09865E-03
C:/temp/dataset/6/7_20.odb,Step-1,Increment      1: Step Time =    1.000,"PART-1-1",            62,           15.,        -8.125,            0.,NA,NA,"",   206.725E-03,   117.251E-03,  -170.257E-03,   6.43124E-03
C:/temp/dataset/6/7_20.odb,Step-1,Increment      1: Step Time =    1.000,"PART-1-1",            63,           15.,      -10.3125,            0.,NA,NA,"",   191.739E-03,   109.490E-03,  -157.403E-03,   6.64395E-03
C:/temp/dataset/6/7_20.odb,Step-1,Increment      1: Step Time =    1.000,"PART-1-1",            64,           15.,        2.8125,            0.,NA,NA,"",   241.980E-03,   129.957E-03,  -204.121E-03,   967.655E-06
C:/temp/dataset/6/7_20.odb,Step-1,Increment      1: Step Time =    1.000,"PART-1-1",            65,           15.,      625.E-03,            0.,NA,NA,"",   246.915E-03,   136.579E-03,  -205.701E-03,   318.331E-06
C:/temp/dataset/6/7_20.odb,Step-1,Increment      1: Step Time =    1.000,"PART-1-1",            66,           15.,       -1.5625,            0.,NA,NA,"",   243.209E-03,   134.947E-03,  -202.336E-03,   3.04595E-03
C:/temp/dataset/6/7_20.odb,Step-1,Increment      1: Step Time =    1.000,"PART-1-1",            67,          12.5,            5.,            0.,NA,NA,"",   249.127E-03,   115.168E-03,  -220.909E-03,   3.32760E-03
C:/temp/dataset/6/7_20.odb,Step-1,Increment      1: Step Time =    1.000,"PART-1-1",            68,           7.5,            5.,            0.,NA,NA,"",   323.552E-03,   124.779E-03,  -298.524E-03,   21.8996E-03
C:/temp/dataset/6/7_20.odb,Step-1,Increment      1: Step Time =    1.000,"PART-1-1",            69,           2.5,            5.,            0.,NA,NA,"",   243.487E-03,   145.524E-03,  -195.215E-03,   3.74869E-03
C:/temp/dataset/6/7_20.odb,Step-1,Increment      1: Step Time =    1.000,"PART-1-1",            70,          -2.5,            5.,            0.,NA,NA,"",   194.433E-03,   151.084E-03,  -122.385E-03,   358.815E-06
C:/temp/dataset/6/7_20.odb,Step-1,Increment      1: Step Time =    1.000,"PART-1-1",            71,           -5.,       9.16667,            0.,NA,NA,"",   214.217E-03,   195.360E-03,  -87.8818E-03,   44.6043E-06
C:/temp/dataset/6/7_20.odb,Step-1,Increment      1: Step Time =    1.000,"PART-1-1",            72,           -5.,       7.08333,            0.,NA,NA,"",   193.296E-03,   172.266E-03,  -87.6799E-03,   279.707E-06
C:/temp/dataset/6/7_20.odb,Step-1,Increment      1: Step Time =    1.000,"PART-1-1",            73,           -5.,       15.4167,            0.,NA,NA,"",   279.976E-03,   265.664E-03,  -88.3702E-03,   5.31975E-06
C:/temp/dataset/6/7_20.odb,Step-1,Increment      1: Step Time =    1.000,"PART-1-1",            74,           -5.,       13.3333,            0.,NA,NA,"",   257.752E-03,   242.184E-03,  -88.2219E-03,   12.9527E-06
C:/temp/dataset/6/7_20.odb,Step-1,Increment      1: Step Time =    1.000,"PART-1-1",            75,           -5.,       21.6667,            0.,NA,NA,"",   347.652E-03,   336.126E-03,  -88.7760E-03,   43.7779E-09
C:/temp/dataset/6/7_20.odb,Step-1,Increment      1: Step Time =    1.000,"PART-1-1",            76,           -5.,       19.5833,            0.,NA,NA,"",   324.962E-03,   312.639E-03,  -88.6432E-03,   467.386E-09
C:/temp/dataset/6/7_20.odb,Step-1,Increment      1: Step Time =    1.000,"PART-1-1",            77,           -5.,       27.9167,            0.,NA,NA,"",   416.249E-03,   406.585E-03,  -89.1729E-03,   13.1461E-09
C:/temp/dataset/6/7_20.odb,Step-1,Increment      1: Step Time =    1.000,"PART-1-1",            78,           -5.,       25.8333,            0.,NA,NA,"",   393.310E-03,   383.099E-03,  -89.0406E-03,   40.2944E-09
C:/temp/dataset/6/7_20.odb,Step-1,Increment      1: Step Time =    1.000,"PART-1-1",            79,          -7.5,           30.,            0.,NA,NA,"",   434.550E-03,   430.230E-03,  -61.1219E-03,   15.3379E-09
C:/temp/dataset/6/7_20.odb,Step-1,Increment      1: Step Time =    1.000,"PART-1-1",            80,         -12.5,           30.,            0.,NA,NA,"",   430.574E-03,   430.548E-03,  -4.75523E-03,   14.4041E-09
C:/temp/dataset/6/7_20.odb,Step-1,Increment      1: Step Time =    1.000,"PART-1-1",            81,          -15.,           25.,            0.,NA,NA,"",   375.092E-03,   374.340E-03,   23.7457E-03,   44.7442E-09
C:/temp/dataset/6/7_20.odb,Step-1,Increment      1: Step Time =    1.000,"PART-1-1",            82,          -15.,          27.5,            0.,NA,NA,"",   403.214E-03,   402.523E-03,   23.5869E-03,   19.9868E-09
C:/temp/dataset/6/7_20.odb,Step-1,Increment      1: Step Time =    1.000,"PART-1-1",            83,          -15.,          17.5,            0.,NA,NA,"",   290.804E-03,   289.793E-03,   24.2244E-03,   1.80490E-06
C:/temp/dataset/6/7_20.odb,Step-1,Increment      1: Step Time =    1.000,"PART-1-1",            84,          -15.,           20.,            0.,NA,NA,"",   318.884E-03,   317.975E-03,   24.0635E-03,   316.053E-09
C:/temp/dataset/6/7_20.odb,Step-1,Increment      1: Step Time =    1.000,"PART-1-1",            85,          -15.,           10.,            0.,NA,NA,"",   206.656E-03,   205.166E-03,   24.7724E-03,   20.3451E-06
C:/temp/dataset/6/7_20.odb,Step-1,Increment      1: Step Time =    1.000,"PART-1-1",            86,          -15.,          12.5,            0.,NA,NA,"",   234.704E-03,   233.414E-03,   24.5729E-03,   14.5864E-06
C:/temp/dataset/6/7_20.odb,Step-1,Increment      1: Step Time =    1.000,"PART-1-1",            87,          -15.,           2.5,            0.,NA,NA,"",   122.054E-03,   119.603E-03,   24.3351E-03,   560.017E-06
C:/temp/dataset/6/7_20.odb,Step-1,Increment      1: Step Time =    1.000,"PART-1-1",            88,          -15.,            5.,            0.,NA,NA,"",   150.299E-03,   148.217E-03,   24.9294E-03,   187.375E-06
C:/temp/dataset/6/7_20.odb,Step-1,Increment      1: Step Time =    1.000,"PART-1-1",            89,          -15.,           -5.,            0.,NA,NA,"",   44.6544E-03,   42.1567E-03,   14.7252E-03,   2.34373E-03
C:/temp/dataset/6/7_20.odb,Step-1,Increment      1: Step Time =    1.000,"PART-1-1",            90,          -15.,          -2.5,            0.,NA,NA,"",   68.0449E-03,   65.2104E-03,   19.4347E-03,   1.83992E-03
C:/temp/dataset/6/7_20.odb,Step-1,Increment      1: Step Time =    1.000,"PART-1-1",            91,          -15.,         -12.5,            0.,NA,NA,"",   852.308E-06,   703.150E-06,  -481.673E-06,   1.75341E-03
C:/temp/dataset/6/7_20.odb,Step-1,Increment      1: Step Time =    1.000,"PART-1-1",            92,          -15.,          -10.,            0.,NA,NA,"",   10.7453E-03,   9.98378E-03,   3.97312E-03,   2.18784E-03
C:/temp/dataset/6/7_20.odb,Step-1,Increment      1: Step Time =    1.000,"PART-1-1",            93,          -15.,          -20.,            0.,NA,NA,"",   10.5404E-03,  -7.94427E-03,  -6.92741E-03,   122.765E-06
C:/temp/dataset/6/7_20.odb,Step-1,Increment      1: Step Time =    1.000,"PART-1-1",            94,          -15.,         -17.5,            0.,NA,NA,"",   9.64879E-03,  -7.53782E-03,  -6.02333E-03,   685.612E-06
C:/temp/dataset/6/7_20.odb,Step-1,Increment      1: Step Time =    1.000,"PART-1-1",            95,          -15.,         -27.5,            0.,NA,NA,"",   4.66181E-03,  -3.29606E-03,  -3.29673E-03,   1.13843E-03
C:/temp/dataset/6/7_20.odb,Step-1,Increment      1: Step Time =    1.000,"PART-1-1",            96,          -15.,          -25.,            0.,NA,NA,"",   7.49981E-03,  -5.34737E-03,  -5.25859E-03,   728.618E-06
C:/temp/dataset/6/7_20.odb,Step-1,Increment      1: Step Time =    1.000,"PART-1-1",            97,       13.0047,      -3.80353,            0.,NA,NA,"",   227.843E-03,   124.359E-03,  -190.912E-03,   6.67356E-03
C:/temp/dataset/6/7_20.odb,Step-1,Increment      1: Step Time =    1.000,"PART-1-1",            98,       6.97971,      -7.55833,            0.,NA,NA,"",   180.537E-03,   89.6756E-03,  -156.690E-03,   9.61996E-03
C:/temp/dataset/6/7_20.odb,Step-1,Increment      1: Step Time =    1.000,"PART-1-1",            99,       6.96639,      -10.0829,            0.,NA,NA,"",   157.305E-03,   81.4738E-03,  -134.562E-03,   9.87646E-03
C:/temp/dataset/6/7_20.odb,Step-1,Increment      1: Step Time =    1.000,"PART-1-1",           100,       12.9900,      -12.5465,            0.,NA,NA,"",   164.321E-03,   93.4840E-03,  -135.137E-03,   7.56262E-03
C:/temp/dataset/6/7_20.odb,Step-1,Increment      1: Step Time =    1.000,"PART-1-1",           101,       6.90028,      -17.1420,            0.,NA,NA,"",   88.1370E-03,   46.6375E-03,  -74.7868E-03,   8.98818E-03
C:/temp/dataset/6/7_20.odb,Step-1,Increment      1: Step Time =    1.000,"PART-1-1",           102,       7.03871,      -19.0570,            0.,NA,NA,"",   70.5679E-03,   35.9522E-03,  -60.7229E-03,   7.83105E-03
C:/temp/dataset/6/7_20.odb,Step-1,Increment      1: Step Time =    1.000,"PART-1-1",           103,       5.31709,      -21.2647,            0.,NA,NA,"",   35.1629E-03,   14.3962E-03,  -32.0808E-03,   7.42786E-03
C:/temp/dataset/6/7_20.odb,Step-1,Increment      1: Step Time =    1.000,"PART-1-1",           104,      -4.83361,      -22.6144,            0.,NA,NA,"",   4.54875E-03,   409.602E-06,  -4.53027E-03,   1.83343E-03
C:/temp/dataset/6/7_20.odb,Step-1,Increment      1: Step Time =    1.000,"PART-1-1",           105,      -7.46484,      -17.6587,            0.,NA,NA,"",   16.9565E-03,  -5.09749E-03,  -16.1721E-03,   2.26639E-03
C:/temp/dataset/6/7_20.odb,Step-1,Increment      1: Step Time =    1.000,"PART-1-1",           106,      -12.5283,      -27.3245,            0.,NA,NA,"",   3.34096E-03,  -2.49717E-03,  -2.21950E-03,   1.16230E-03
C:/temp/dataset/6/7_20.odb,Step-1,Increment      1: Step Time =    1.000,"PART-1-1",           107,      -12.4870,      -17.6221,            0.,NA,NA,"",   11.6714E-03,  -7.80509E-03,  -8.67768E-03,   815.149E-06
C:/temp/dataset/6/7_20.odb,Step-1,Increment      1: Step Time =    1.000,"PART-1-1",           108,      -7.32043,      -12.6401,            0.,NA,NA,"",   28.4204E-03,   2.28900E-03,  -28.3280E-03,   3.01106E-03
C:/temp/dataset/6/7_20.odb,Step-1,Increment      1: Step Time =    1.000,"PART-1-1",           109,      -7.14644,      -8.03697,            0.,NA,NA,"",   46.8594E-03,   20.3043E-03,  -42.2320E-03,   3.91047E-03
C:/temp/dataset/6/7_20.odb,Step-1,Increment      1: Step Time =    1.000,"PART-1-1",           110,      -12.6601,       4.88622,            0.,NA,NA,"",   146.672E-03,   146.666E-03,  -1.37467E-03,   318.590E-06
C:/temp/dataset/6/7_20.odb,Step-1,Increment      1: Step Time =    1.000,"PART-1-1",           111,      -13.0978,       12.5399,            0.,NA,NA,"",   233.770E-03,   233.750E-03,   3.09630E-03,   6.04205E-06
C:/temp/dataset/6/7_20.odb,Step-1,Increment      1: Step Time =    1.000,"PART-1-1",           112,      -6.45576,       21.8628,            0.,NA,NA,"",   346.083E-03,   338.430E-03,  -72.3769E-03,   218.261E-09
C:/temp/dataset/6/7_20.odb,Step-1,Increment      1: Step Time =    1.000,"PART-1-1",           113,      -7.28884,       25.7044,            0.,NA,NA,"",   386.991E-03,   381.791E-03,  -63.2294E-03,   17.5178E-09
C:/temp/dataset/6/7_20.odb,Step-1,Increment      1: Step Time =    1.000,"PART-1-1",           114,      -9.90518,       27.6474,            0.,NA,NA,"",   405.278E-03,   403.861E-03,  -33.8579E-03,   12.4631E-09
C:/temp/dataset/6/7_20.odb,Step-1,Increment      1: Step Time =    1.000,"PART-1-1",           115,      -3.01211,      -3.13168,            0.,NA,NA,"",   130.079E-03,   61.2076E-03,  -114.779E-03,   4.13006E-03
C:/temp/dataset/6/7_20.odb,Step-1,Increment      1: Step Time =    1.000,"PART-1-1",           116,      -2.19169,       3.00836,            0.,NA,NA,"",   178.563E-03,   125.341E-03,  -127.178E-03,   1.81835E-03
C:/temp/dataset/6/7_20.odb,Step-1,Increment      1: Step Time =    1.000,"PART-1-1",           117,       1.85193,      -2.77696,            0.,NA,NA,"",   197.009E-03,   69.0182E-03,  -184.524E-03,   3.51676E-03
C:/temp/dataset/6/7_20.odb,Step-1,Increment      1: Step Time =    1.000,"PART-1-1",           118,       2.83229,       2.22691,            0.,NA,NA,"",   227.922E-03,   106.197E-03,  -201.670E-03,   5.86169E-03
C:/temp/dataset/6/7_20.odb,Step-1,Increment      1: Step Time =    1.000,"PART-1-1",           119,       7.74921,       3.07964,            0.,NA,NA,"",   301.766E-03,   121.330E-03,  -276.299E-03,   18.9033E-03
C:/temp/dataset/6/7_20.odb,Step-1,Increment      1: Step Time =    1.000,"PART-1-1",           120,      -2.47342,      -22.6017,            0.,NA,NA,"",   2.52973E-03,   1.90597E-03,  -1.66337E-03,   1.14265E-03
C:/temp/dataset/6/7_20.odb,Step-1,Increment      1: Step Time =    1.000,"PART-1-1",           121,      -7.48266,       20.3798,            0.,NA,NA,"",   327.452E-03,   321.776E-03,  -60.7062E-03,   690.479E-09
C:/temp/dataset/6/7_20.odb,Step-1,Increment      1: Step Time =    1.000,"PART-1-1",           122,      -7.10993,       13.1351,            0.,NA,NA,"",   248.579E-03,   240.079E-03,  -64.4491E-03,   6.70967E-06
C:/temp/dataset/6/7_20.odb,Step-1,Increment      1: Step Time =    1.000,"PART-1-1",           123,      -6.64156,       6.82435,            0.,NA,NA,"",   183.019E-03,   169.388E-03,  -69.3070E-03,   365.629E-06
C:/temp/dataset/6/7_20.odb,Step-1,Increment      1: Step Time =    1.000,"PART-1-1",           124,      -12.9641,      -2.37512,            0.,NA,NA,"",   65.1838E-03,   65.1836E-03,   158.696E-06,   1.01228E-03
C:/temp/dataset/6/7_20.odb,Step-1,Increment      1: Step Time =    1.000,"PART-1-1",           125,      -12.1317,      -9.84573,            0.,NA,NA,"",   13.5692E-03,   9.05865E-03,  -10.1027E-03,   612.915E-06
C:/temp/dataset/6/7_20.odb,Step-1,Increment      1: Step Time =    1.000,"PART-1-1",           126,       4.04132,      -2.67712,            0.,NA,NA,"",   215.178E-03,   75.3152E-03,  -201.567E-03,   4.79329E-03
C:/temp/dataset/6/7_20.odb,Step-1,Increment      1: Step Time =    1.000,"PART-1-1",           127,       6.95362,      -12.5367,            0.,NA,NA,"",   133.462E-03,   70.8108E-03,  -113.128E-03,   9.52533E-03
C:/temp/dataset/6/7_20.odb,Step-1,Increment      1: Step Time =    1.000,"PART-1-1",           128,       6.92458,      -14.9216,            0.,NA,NA,"",   109.874E-03,   58.7503E-03,  -92.8477E-03,   9.30201E-03
C:/temp/dataset/6/7_20.odb,Step-1,Increment      1: Step Time =    1.000,"PART-1-1",           129,       12.9089,      -21.3671,            0.,NA,NA,"",   82.7073E-03,   43.7940E-03,  -70.1611E-03,   8.88222E-03
C:/temp/dataset/6/7_20.odb,Step-1,Increment      1: Step Time =    1.000,"PART-1-1",           130,   283.131E-03,      -22.8786,            0.,NA,NA,"",   3.64625E-03,   2.67306E-03,  -2.47991E-03,   565.731E-06
C:/temp/dataset/6/7_20.odb,Step-1,Increment      1: Step Time =    1.000,"PART-1-1",           131,      -12.9776,      -22.4214,            0.,NA,NA,"",   9.00992E-03,  -6.52137E-03,  -6.21694E-03,   861.321E-06
C:/temp/dataset/6/7_20.odb,Step-1,Increment      1: Step Time =    1.000,"PART-1-1",           132,      -7.42030,      -15.1083,            0.,NA,NA,"",   21.9755E-03,  -2.82767E-03,  -21.7929E-03,   2.73511E-03
C:/temp/dataset/6/7_20.odb,Step-1,Increment      1: Step Time =    1.000,"PART-1-1",           133,      -7.18486,      -10.2642,            0.,NA,NA,"",   37.0734E-03,   10.1756E-03,  -35.6496E-03,   3.42000E-03
C:/temp/dataset/6/7_20.odb,Step-1,Increment      1: Step Time =    1.000,"PART-1-1",           134,      -7.33974,      -5.93881,            0.,NA,NA,"",   56.8956E-03,   32.4305E-03,  -46.7480E-03,   2.48156E-03
C:/temp/dataset/6/7_20.odb,Step-1,Increment      1: Step Time =    1.000,"PART-1-1",           135,  -533.729E-03,      -2.94296,            0.,NA,NA,"",   166.198E-03,   64.4495E-03,  -153.193E-03,   3.49165E-03
C:/temp/dataset/6/7_20.odb,Step-1,Increment      1: Step Time =    1.000,"PART-1-1",           136,       10.2172,      -28.0250,            0.,NA,NA,"",   11.3292E-03,   3.51902E-03,  -10.7688E-03,   7.10680E-03
C:/temp/dataset/6/7_20.odb,Step-1,Increment      1: Step Time =    1.000,"PART-1-1",           137,       7.82196,      -28.0777,            0.,NA,NA,"",   7.96289E-03,  -39.8658E-06,  -7.96279E-03,   5.30172E-03
C:/temp/dataset/6/7_20.odb,Step-1,Increment      1: Step Time =    1.000,"PART-1-1",           138,       5.43540,      -28.0544,            0.,NA,NA,"",   5.83222E-03,  -2.10966E-03,  -5.43729E-03,   3.61793E-03
C:/temp/dataset/6/7_20.odb,Step-1,Increment      1: Step Time =    1.000,"PART-1-1",           139,       2.98405,      -27.8165,            0.,NA,NA,"",   4.24602E-03,  -2.71488E-03,  -3.26468E-03,   2.07220E-03
C:/temp/dataset/6/7_20.odb,Step-1,Increment      1: Step Time =    1.000,"PART-1-1",           140,   324.250E-03,      -27.0908,            0.,NA,NA,"",   2.47497E-03,  -1.95839E-03,  -1.51335E-03,   985.107E-06
C:/temp/dataset/6/7_20.odb,Step-1,Increment      1: Step Time =    1.000,"PART-1-1",           141,      -2.46293,      -27.5198,            0.,NA,NA,"",   1.08415E-03,  -807.936E-06,  -722.923E-06,   582.458E-06
C:/temp/dataset/6/7_20.odb,Step-1,Increment      1: Step Time =    1.000,"PART-1-1",           142,      -4.88996,      -27.5861,            0.,NA,NA,"",   1.10679E-03,  -382.487E-06,  -1.03860E-03,   565.505E-06
C:/temp/dataset/6/7_20.odb,Step-1,Increment      1: Step Time =    1.000,"PART-1-1",           143,      -7.26500,      -27.4866,            0.,NA,NA,"",   1.68574E-03,  -693.071E-06,  -1.53668E-03,   819.234E-06
C:/temp/dataset/6/7_20.odb,Step-1,Increment      1: Step Time =    1.000,"PART-1-1",           144,      -9.86695,      -26.8928,            0.,NA,NA,"",   2.89694E-03,  -1.78885E-03,  -2.27865E-03,   1.06744E-03
C:/temp/dataset/6/7_20.odb,Step-1,Increment      1: Step Time =    1.000,"PART-1-1",           145,       12.7710,      -23.5898,            0.,NA,NA,"",   60.3199E-03,   31.2690E-03,  -51.5824E-03,   9.17048E-03
C:/temp/dataset/6/7_20.odb,Step-1,Increment      1: Step Time =    1.000,"PART-1-1",           146,       12.6989,      -25.7990,            0.,NA,NA,"",   38.4227E-03,   20.2469E-03,  -32.6553E-03,   9.65820E-03
C:/temp/dataset/6/7_20.odb,Step-1,Increment      1: Step Time =    1.000,"PART-1-1",           147,       12.6207,      -27.9366,            0.,NA,NA,"",   18.2781E-03,   10.1052E-03,  -15.2307E-03,   9.68956E-03
C:/temp/dataset/6/7_20.odb,Step-1,Increment      1: Step Time =    1.000,"PART-1-1",           148,       12.9983,      -14.8223,            0.,NA,NA,"",   144.902E-03,   82.0291E-03,  -119.448E-03,   7.83738E-03
C:/temp/dataset/6/7_20.odb,Step-1,Increment      1: Step Time =    1.000,"PART-1-1",           149,       13.0558,      -17.0719,            0.,NA,NA,"",   124.825E-03,   69.6217E-03,  -103.606E-03,   8.15374E-03
C:/temp/dataset/6/7_20.odb,Step-1,Increment      1: Step Time =    1.000,"PART-1-1",           150,       13.1682,      -19.2108,            0.,NA,NA,"",   105.243E-03,   57.4107E-03,  -88.2049E-03,   8.50976E-03
C:/temp/dataset/6/7_20.odb,Step-1,Increment      1: Step Time =    1.000,"PART-1-1",           151,       13.0670,      -5.94273,            0.,NA,NA,"",   213.748E-03,   118.160E-03,  -178.119E-03,   6.87916E-03
C:/temp/dataset/6/7_20.odb,Step-1,Increment      1: Step Time =    1.000,"PART-1-1",           152,       13.0350,      -8.09399,            0.,NA,NA,"",   198.692E-03,   111.368E-03,  -164.548E-03,   7.08678E-03
C:/temp/dataset/6/7_20.odb,Step-1,Increment      1: Step Time =    1.000,"PART-1-1",           153,       12.9982,      -10.2981,            0.,NA,NA,"",   182.259E-03,   103.269E-03,  -150.179E-03,   7.31158E-03
C:/temp/dataset/6/7_20.odb,Step-1,Increment      1: Step Time =    1.000,"PART-1-1",           154,       12.5107,   556.281E-03,            0.,NA,NA,"",   252.741E-03,   134.195E-03,  -214.172E-03,   6.55576E-03
C:/temp/dataset/6/7_20.odb,Step-1,Increment      1: Step Time =    1.000,"PART-1-1",           155,       12.7702,      -1.64554,            0.,NA,NA,"",   241.244E-03,   130.157E-03,  -203.120E-03,   6.82948E-03
C:/temp/dataset/6/7_20.odb,Step-1,Increment      1: Step Time =    1.000,"PART-1-1",           156,       10.0517,       2.85834,            0.,NA,NA,"",   282.669E-03,   130.804E-03,  -250.583E-03,   14.4165E-03
C:/temp/dataset/6/7_20.odb,Step-1,Increment      1: Step Time =    1.000,"PART-1-1",           157,       5.39286,       2.85476,            0.,NA,NA,"",   273.365E-03,   109.942E-03,  -250.282E-03,   13.9734E-03
C:/temp/dataset/6/7_20.odb,Step-1,Increment      1: Step Time =    1.000,"PART-1-1",           158,   175.602E-03,       2.90951,            0.,NA,NA,"",   201.418E-03,   120.755E-03,  -161.206E-03,   2.53503E-03
C:/temp/dataset/6/7_20.odb,Step-1,Increment      1: Step Time =    1.000,"PART-1-1",           159,      -4.35394,       2.91920,            0.,NA,NA,"",   158.604E-03,   125.445E-03,  -97.0500E-03,   1.26523E-03
C:/temp/dataset/6/7_20.odb,Step-1,Increment      1: Step Time =    1.000,"PART-1-1",           160,      -7.05997,       10.9599,            0.,NA,NA,"",   225.136E-03,   215.587E-03,  -64.8730E-03,   6.40783E-06
C:/temp/dataset/6/7_20.odb,Step-1,Increment      1: Step Time =    1.000,"PART-1-1",           161,      -6.93805,       8.84105,            0.,NA,NA,"",   202.896E-03,   191.819E-03,  -66.1229E-03,   70.9026E-06
C:/temp/dataset/6/7_20.odb,Step-1,Increment      1: Step Time =    1.000,"PART-1-1",           162,      -7.28921,       17.6445,            0.,NA,NA,"",   297.608E-03,   290.925E-03,  -62.7135E-03,   2.33850E-06
C:/temp/dataset/6/7_20.odb,Step-1,Increment      1: Step Time =    1.000,"PART-1-1",           163,      -7.17735,       15.3234,            0.,NA,NA,"",   272.334E-03,   264.749E-03,  -63.8272E-03,   5.08580E-06
C:/temp/dataset/6/7_20.odb,Step-1,Increment      1: Step Time =    1.000,"PART-1-1",           164,      -6.93557,       23.5874,            0.,NA,NA,"",   364.134E-03,   357.902E-03,  -67.0774E-03,   75.3999E-09
C:/temp/dataset/6/7_20.odb,Step-1,Increment      1: Step Time =    1.000,"PART-1-1",           165,      -13.1925,       19.7530,            0.,NA,NA,"",   315.098E-03,   315.076E-03,   3.70333E-03,   809.934E-09
C:/temp/dataset/6/7_20.odb,Step-1,Increment      1: Step Time =    1.000,"PART-1-1",           166,      -7.44963,       27.8335,            0.,NA,NA,"",   410.444E-03,   405.803E-03,  -61.5521E-03,   24.9641E-09
C:/temp/dataset/6/7_20.odb,Step-1,Increment      1: Step Time =    1.000,"PART-1-1",           167,      -13.0424,       22.0734,            0.,NA,NA,"",   341.229E-03,   341.224E-03,   1.86367E-03,   206.837E-09
C:/temp/dataset/6/7_20.odb,Step-1,Increment      1: Step Time =    1.000,"PART-1-1",           168,      -13.1316,       14.9813,            0.,NA,NA,"",   261.304E-03,   261.283E-03,   3.32078E-03,   5.20884E-06
C:/temp/dataset/6/7_20.odb,Step-1,Increment      1: Step Time =    1.000,"PART-1-1",           169,      -13.1727,       17.3972,            0.,NA,NA,"",   288.541E-03,   288.519E-03,   3.62998E-03,   2.36456E-06
C:/temp/dataset/6/7_20.odb,Step-1,Increment      1: Step Time =    1.000,"PART-1-1",           170,      -12.8574,       7.53984,            0.,NA,NA,"",   177.102E-03,   177.101E-03,   703.462E-06,   98.6399E-06
C:/temp/dataset/6/7_20.odb,Step-1,Increment      1: Step Time =    1.000,"PART-1-1",           171,      -13.0166,       10.0884,            0.,NA,NA,"",   206.062E-03,   206.049E-03,   2.33917E-03,   12.7014E-06
C:/temp/dataset/6/7_20.odb,Step-1,Increment      1: Step Time =    1.000,"PART-1-1",           172,      -12.8045,  -118.323E-03,            0.,NA,NA,"",   89.3546E-03,   89.3539E-03,  -366.340E-06,   855.620E-06
C:/temp/dataset/6/7_20.odb,Step-1,Increment      1: Step Time =    1.000,"PART-1-1",           173,      -12.7039,       2.28772,            0.,NA,NA,"",   116.680E-03,   116.677E-03,  -948.494E-06,   603.687E-06
C:/temp/dataset/6/7_20.odb,Step-1,Increment      1: Step Time =    1.000,"PART-1-1",           174,      -12.8488,      -7.31355,            0.,NA,NA,"",   23.5797E-03,   23.1313E-03,  -4.57661E-03,   879.738E-06
C:/temp/dataset/6/7_20.odb,Step-1,Increment      1: Step Time =    1.000,"PART-1-1",           175,      -12.6051,      -4.81291,            0.,NA,NA,"",   42.1751E-03,   41.9297E-03,  -4.54271E-03,   860.668E-06
C:/temp/dataset/6/7_20.odb,Step-1,Increment      1: Step Time =    1.000,"PART-1-1",           176,      -12.4260,      -15.0682,            0.,NA,NA,"",   10.8362E-03,  -5.67767E-03,  -9.22971E-03,   719.530E-06
C:/temp/dataset/6/7_20.odb,Step-1,Increment      1: Step Time =    1.000,"PART-1-1",           177,      -12.3344,      -12.5112,            0.,NA,NA,"",   9.52367E-03,  -447.467E-06,  -9.51316E-03,   687.229E-06
C:/temp/dataset/6/7_20.odb,Step-1,Increment      1: Step Time =    1.000,"PART-1-1",           178,      -12.6598,      -20.1148,            0.,NA,NA,"",   10.8028E-03,  -7.68870E-03,  -7.58843E-03,   874.855E-06
C:/temp/dataset/6/7_20.odb,Step-1,Increment      1: Step Time =    1.000,"PART-1-1",           179,      -8.70618,       22.9331,            0.,NA,NA,"",   353.785E-03,   350.639E-03,  -47.0752E-03,   180.207E-09
C:/temp/dataset/6/7_20.odb,Step-1,Increment      1: Step Time =    1.000,"PART-1-1",           180,      -9.21222,       15.1634,            0.,NA,NA,"",   266.236E-03,   263.078E-03,  -40.8871E-03,   5.56908E-06
C:/temp/dataset/6/7_20.odb,Step-1,Increment      1: Step Time =    1.000,"PART-1-1",           181,      -9.55138,       19.8926,            0.,NA,NA,"",   318.614E-03,   316.416E-03,  -37.3548E-03,   1.00117E-06
C:/temp/dataset/6/7_20.odb,Step-1,Increment      1: Step Time =    1.000,"PART-1-1",           182,      -8.92203,       8.32966,            0.,NA,NA,"",   191.166E-03,   186.110E-03,  -43.6741E-03,   97.7067E-06
C:/temp/dataset/6/7_20.odb,Step-1,Increment      1: Step Time =    1.000,"PART-1-1",           183,      -9.17670,       12.8809,            0.,NA,NA,"",   240.890E-03,   237.348E-03,  -41.1534E-03,   7.24219E-06
C:/temp/dataset/6/7_20.odb,Step-1,Increment      1: Step Time =    1.000,"PART-1-1",           184,      -9.09923,       10.6117,            0.,NA,NA,"",   215.880E-03,   211.778E-03,  -41.8826E-03,   19.1449E-06
C:/temp/dataset/6/7_20.odb,Step-1,Increment      1: Step Time =    1.000,"PART-1-1",           185,      -9.30530,       17.5014,            0.,NA,NA,"",   292.190E-03,   289.442E-03,  -39.9799E-03,   2.74282E-06
C:/temp/dataset/6/7_20.odb,Step-1,Increment      1: Step Time =    1.000,"PART-1-1",           186,      -8.37864,       6.17865,            0.,NA,NA,"",   169.370E-03,   162.005E-03,  -49.3998E-03,   381.441E-06
C:/temp/dataset/6/7_20.odb,Step-1,Increment      1: Step Time =    1.000,"PART-1-1",           187,       10.9988,      -10.2527,            0.,NA,NA,"",   173.552E-03,   96.6116E-03,  -144.175E-03,   7.98669E-03
C:/temp/dataset/6/7_20.odb,Step-1,Increment      1: Step Time =    1.000,"PART-1-1",           188,       10.8643,      -17.5211,            0.,NA,NA,"",   107.941E-03,   58.9785E-03,  -90.4035E-03,   8.31698E-03
C:/temp/dataset/6/7_20.odb,Step-1,Increment      1: Step Time =    1.000,"PART-1-1",           189,       11.0508,      -8.01555,            0.,NA,NA,"",   191.483E-03,   104.788E-03,  -160.266E-03,   7.93348E-03
C:/temp/dataset/6/7_20.odb,Step-1,Increment      1: Step Time =    1.000,"PART-1-1",           190,       10.6332,      -2.00908,            0.,NA,NA,"",   238.973E-03,   120.402E-03,  -206.426E-03,   10.2180E-03
C:/temp/dataset/6/7_20.odb,Step-1,Increment      1: Step Time =    1.000,"PART-1-1",           191,       11.1668,      -5.92645,            0.,NA,NA,"",   207.800E-03,   111.326E-03,  -175.463E-03,   8.14927E-03
C:/temp/dataset/6/7_20.odb,Step-1,Increment      1: Step Time =    1.000,"PART-1-1",           192,       10.9732,      -14.9280,            0.,NA,NA,"",   132.740E-03,   74.2379E-03,  -110.039E-03,   8.23774E-03
C:/temp/dataset/6/7_20.odb,Step-1,Increment      1: Step Time =    1.000,"PART-1-1",           193,       10.5476,      -23.6927,            0.,NA,NA,"",   47.5598E-03,   21.7477E-03,  -42.2962E-03,   8.65893E-03
C:/temp/dataset/6/7_20.odb,Step-1,Increment      1: Step Time =    1.000,"PART-1-1",           194,       10.5707,      -21.1850,            0.,NA,NA,"",   71.1136E-03,   35.5529E-03,  -61.5884E-03,   8.62027E-03
C:/temp/dataset/6/7_20.odb,Step-1,Increment      1: Step Time =    1.000,"PART-1-1",           195,       10.9760,      -12.5622,            0.,NA,NA,"",   153.932E-03,   86.3858E-03,  -127.407E-03,   8.13694E-03
C:/temp/dataset/6/7_20.odb,Step-1,Increment      1: Step Time =    1.000,"PART-1-1",           196,       11.6229,      -19.2502,            0.,NA,NA,"",   95.7280E-03,   51.3042E-03,  -80.8191E-03,   8.45745E-03
C:/temp/dataset/6/7_20.odb,Step-1,Increment      1: Step Time =    1.000,"PART-1-1",           197,       11.1609,      -3.97100,            0.,NA,NA,"",   223.041E-03,   116.770E-03,  -190.032E-03,   8.78008E-03
C:/temp/dataset/6/7_20.odb,Step-1,Increment      1: Step Time =    1.000,"PART-1-1",           198,      -9.55101,       25.2781,            0.,NA,NA,"",   379.008E-03,   377.128E-03,  -37.7000E-03,   30.7389E-09
C:/temp/dataset/6/7_20.odb,Step-1,Increment      1: Step Time =    1.000,"PART-1-1",           199,      -6.13353,       2.97524,            0.,NA,NA,"",   146.378E-03,   126.173E-03,  -74.2083E-03,   471.899E-06
C:/temp/dataset/6/7_20.odb,Step-1,Increment      1: Step Time =    1.000,"PART-1-1",           200,       8.52809,      -18.5145,            0.,NA,NA,"",   85.0369E-03,   44.5459E-03,  -72.4358E-03,   8.29155E-03
C:/temp/dataset/6/7_20.odb,Step-1,Increment      1: Step Time =    1.000,"PART-1-1",           201,      -9.31256,      -6.57829,            0.,NA,NA,"",   40.4907E-03,   27.3386E-03,  -29.8680E-03,   1.40414E-03
C:/temp/dataset/6/7_20.odb,Step-1,Increment      1: Step Time =    1.000,"PART-1-1",           202,      -7.82061,      -4.24854,            0.,NA,NA,"",   64.9076E-03,   46.3734E-03,  -45.4148E-03,   1.90319E-03
C:/temp/dataset/6/7_20.odb,Step-1,Increment      1: Step Time =    1.000,"PART-1-1",           203,       7.55002,      -20.4955,            0.,NA,NA,"",   60.3143E-03,   28.2180E-03,  -53.3063E-03,   8.23151E-03
C:/temp/dataset/6/7_20.odb,Step-1,Increment      1: Step Time =    1.000,"PART-1-1",           204,      -9.18944,      -8.43706,            0.,NA,NA,"",   32.6514E-03,   16.2655E-03,  -28.3117E-03,   1.82491E-03
C:/temp/dataset/6/7_20.odb,Step-1,Increment      1: Step Time =    1.000,"PART-1-1",           205,      -12.3720,       27.4312,            0.,NA,NA,"",   401.626E-03,   401.581E-03,  -6.03529E-03,   27.7808E-09
C:/temp/dataset/6/7_20.odb,Step-1,Increment      1: Step Time =    1.000,"PART-1-1",           206,      -10.3791,       22.2070,            0.,NA,NA,"",   343.716E-03,   342.560E-03,  -28.1697E-03,   285.236E-09
C:/temp/dataset/6/7_20.odb,Step-1,Increment      1: Step Time =    1.000,"PART-1-1",           207,       3.40286,  -884.176E-03,            0.,NA,NA,"",   220.011E-03,   83.1929E-03,  -203.676E-03,   4.16845E-03
C:/temp/dataset/6/7_20.odb,Step-1,Increment      1: Step Time =    1.000,"PART-1-1",           208,       7.88020,       1.44192,            0.,NA,NA,"",   277.517E-03,   116.262E-03,  -251.989E-03,   15.4717E-03
C:/temp/dataset/6/7_20.odb,Step-1,Increment      1: Step Time =    1.000,"PART-1-1",           209,      -1.17287,  -897.893E-03,            0.,NA,NA,"",   166.302E-03,   83.5789E-03,  -143.773E-03,   3.99682E-03
C:/temp/dataset/6/7_20.odb,Step-1,Increment      1: Step Time =    1.000,"PART-1-1",           210,       10.4014,      -25.9274,            0.,NA,NA,"",   27.5022E-03,   11.2215E-03,  -25.1087E-03,   8.11371E-03
C:/temp/dataset/6/7_20.odb,Step-1,Increment      1: Step Time =    1.000,"PART-1-1",           211,       2.00108,      -24.8239,            0.,NA,NA,"",   5.14249E-03,  -820.796E-06,  -5.07657E-03,   1.10501E-03
C:/temp/dataset/6/7_20.odb,Step-1,Increment      1: Step Time =    1.000,"PART-1-1",           212,      -4.80900,      -25.1606,            0.,NA,NA,"",   2.29882E-03,  -163.187E-06,  -2.29302E-03,   913.749E-06
C:/temp/dataset/6/7_20.odb,Step-1,Increment      1: Step Time =    1.000,"PART-1-1",           213,      -11.5765,       21.3848,            0.,NA,NA,"",   333.688E-03,   333.367E-03,  -14.6190E-03,   430.130E-09
C:/temp/dataset/6/7_20.odb,Step-1,Increment      1: Step Time =    1.000,"PART-1-1",           214,      -11.0630,       10.3038,            0.,NA,NA,"",   209.318E-03,   208.387E-03,  -19.7198E-03,   22.5602E-06
C:/temp/dataset/6/7_20.odb,Step-1,Increment      1: Step Time =    1.000,"PART-1-1",           215,      -10.2832,  -591.021E-03,            0.,NA,NA,"",   87.8354E-03,   84.0919E-03,  -25.3695E-03,   949.676E-06
C:/temp/dataset/6/7_20.odb,Step-1,Increment      1: Step Time =    1.000,"PART-1-1",           216,      -11.1869,      -5.64306,            0.,NA,NA,"",   38.0566E-03,   34.5476E-03,  -15.9614E-03,   321.607E-06
C:/temp/dataset/6/7_20.odb,Step-1,Increment      1: Step Time =    1.000,"PART-1-1",           217,      -9.48237,      -10.3825,            0.,NA,NA,"",   24.8405E-03,   7.37843E-03,  -23.7194E-03,   1.80132E-03
C:/temp/dataset/6/7_20.odb,Step-1,Increment      1: Step Time =    1.000,"PART-1-1",           218,      -10.0191,      -20.7277,            0.,NA,NA,"",   10.9368E-03,  -6.17358E-03,  -9.02778E-03,   1.62060E-03
C:/temp/dataset/6/7_20.odb,Step-1,Increment      1: Step Time =    1.000,"PART-1-1",           219,      -12.8377,      -24.8331,            0.,NA,NA,"",   6.42287E-03,  -4.67616E-03,  -4.40304E-03,   1.02218E-03
C:/temp/dataset/6/7_20.odb,Step-1,Increment      1: Step Time =    1.000,"PART-1-1",           220,  -752.185E-03,      -25.0561,            0.,NA,NA,"",   1.31073E-03,  -330.426E-06,  -1.26840E-03,   607.894E-06
C:/temp/dataset/6/7_20.odb,Step-1,Increment      1: Step Time =    1.000,"PART-1-1",           221,      -11.3411,      -22.5061,            0.,NA,NA,"",   8.67031E-03,  -5.73833E-03,  -6.49967E-03,   1.24489E-03
C:/temp/dataset/6/7_20.odb,Step-1,Increment      1: Step Time =    1.000,"PART-1-1",           222,       5.90860,      -26.1342,            0.,NA,NA,"",   12.8918E-03,  -118.881E-06,  -12.8913E-03,   4.43781E-03
C:/temp/dataset/6/7_20.odb,Step-1,Increment      1: Step Time =    1.000,"PART-1-1",           223,       3.81352,      -25.8758,            0.,NA,NA,"",   8.31709E-03,  -1.80247E-03,  -8.11943E-03,   2.61958E-03
C:/temp/dataset/6/7_20.odb,Step-1,Increment      1: Step Time =    1.000,"PART-1-1",           224,      -6.87266,      -25.1947,            0.,NA,NA,"",   3.55413E-03,  -1.10305E-03,  -3.37863E-03,   1.14288E-03
C:/temp/dataset/6/7_20.odb,Step-1,Increment      1: Step Time =    1.000,"PART-1-1",           225,       9.77381,   336.875E-03,            0.,NA,NA,"",   262.344E-03,   124.194E-03,  -231.085E-03,   12.9710E-03
C:/temp/dataset/6/7_20.odb,Step-1,Increment      1: Step Time =    1.000,"PART-1-1",           226,       4.59800,   29.7464E-03,            0.,NA,NA,"",   237.202E-03,   91.1356E-03,  -218.995E-03,   7.67335E-03
C:/temp/dataset/6/7_20.odb,Step-1,Increment      1: Step Time =    1.000,"PART-1-1",           227,      -11.1551,       12.6912,            0.,NA,NA,"",   236.087E-03,   235.335E-03,  -18.8356E-03,   6.64067E-06
C:/temp/dataset/6/7_20.odb,Step-1,Increment      1: Step Time =    1.000,"PART-1-1",           228,      -11.2689,       17.3859,            0.,NA,NA,"",   288.820E-03,   288.269E-03,  -17.8356E-03,   2.79798E-06
C:/temp/dataset/6/7_20.odb,Step-1,Increment      1: Step Time =    1.000,"PART-1-1",           229,      -11.2102,       15.0558,            0.,NA,NA,"",   262.640E-03,   261.998E-03,  -18.3551E-03,   5.48464E-06
C:/temp/dataset/6/7_20.odb,Step-1,Increment      1: Step Time =    1.000,"PART-1-1",           230,      -10.8139,       7.79620,            0.,NA,NA,"",   181.378E-03,   180.004E-03,  -22.2881E-03,   119.955E-06
C:/temp/dataset/6/7_20.odb,Step-1,Increment      1: Step Time =    1.000,"PART-1-1",           231,      -10.1648,       4.85487,            0.,NA,NA,"",   149.344E-03,   146.516E-03,  -28.9270E-03,   441.107E-06
C:/temp/dataset/6/7_20.odb,Step-1,Increment      1: Step Time =    1.000,"PART-1-1",           232,      -10.4473,       2.01195,            0.,NA,NA,"",   116.336E-03,   113.647E-03,  -24.8667E-03,   738.996E-06
C:/temp/dataset/6/7_20.odb,Step-1,Increment      1: Step Time =    1.000,"PART-1-1",           233,      -10.4810,      -3.59789,            0.,NA,NA,"",   56.9012E-03,   52.4172E-03,  -22.1401E-03,   790.685E-06
C:/temp/dataset/6/7_20.odb,Step-1,Increment      1: Step Time =    1.000,"PART-1-1",           234,      -9.89141,      -15.1395,            0.,NA,NA,"",   16.4725E-03,  -5.02510E-03,  -15.6873E-03,   1.59228E-03
C:/temp/dataset/6/7_20.odb,Step-1,Increment      1: Step Time =    1.000,"PART-1-1",           235,      -9.95744,      -17.7636,            0.,NA,NA,"",   14.3155E-03,  -7.01782E-03,  -12.4774E-03,   1.54263E-03
C:/temp/dataset/6/7_20.odb,Step-1,Increment      1: Step Time =    1.000,"PART-1-1",           236,      -3.63694,      -1.16253,            0.,NA,NA,"",   133.648E-03,   81.7154E-03,  -105.756E-03,   3.76900E-03
C:/temp/dataset/6/7_20.odb,Step-1,Increment      1: Step Time =    1.000,"PART-1-1",           237,      -7.00580,      -22.7773,            0.,NA,NA,"",   6.84714E-03,  -1.87265E-03,  -6.58609E-03,   1.95385E-03
C:/temp/dataset/6/7_20.odb,Step-1,Increment      1: Step Time =    1.000,"PART-1-1",           238,       7.08723,      -4.67483,            0.,NA,NA,"",   205.007E-03,   91.6976E-03,  -183.356E-03,   11.7210E-03
C:/temp/dataset/6/7_20.odb,Step-1,Increment      1: Step Time =    1.000,"PART-1-1",           239,       8.96532,      -10.1697,            0.,NA,NA,"",   165.343E-03,   89.3621E-03,  -139.114E-03,   8.76055E-03
C:/temp/dataset/6/7_20.odb,Step-1,Increment      1: Step Time =    1.000,"PART-1-1",           240,       8.99874,      -7.82238,            0.,NA,NA,"",   185.386E-03,   97.4305E-03,  -157.719E-03,   8.75948E-03
C:/temp/dataset/6/7_20.odb,Step-1,Increment      1: Step Time =    1.000,"PART-1-1",           241,       8.96760,      -14.8663,            0.,NA,NA,"",   122.314E-03,   67.1539E-03,  -102.231E-03,   8.68277E-03
C:/temp/dataset/6/7_20.odb,Step-1,Increment      1: Step Time =    1.000,"PART-1-1",           242,      -12.0836,       24.5335,            0.,NA,NA,"",   369.008E-03,   368.895E-03,  -9.10233E-03,   38.9020E-09
C:/temp/dataset/6/7_20.odb,Step-1,Increment      1: Step Time =    1.000,"PART-1-1",           243,       9.21542,      -5.66363,            0.,NA,NA,"",   203.606E-03,   103.151E-03,  -175.542E-03,   9.51146E-03
C:/temp/dataset/6/7_20.odb,Step-1,Increment      1: Step Time =    1.000,"PART-1-1",           244,       8.72776,      -2.97127,            0.,NA,NA,"",   226.806E-03,   105.516E-03,  -200.767E-03,   12.0362E-03
C:/temp/dataset/6/7_20.odb,Step-1,Increment      1: Step Time =    1.000,"PART-1-1",           245,       9.39471,      -19.4524,            0.,NA,NA,"",   81.1566E-03,   41.7890E-03,  -69.5707E-03,   8.25869E-03
C:/temp/dataset/6/7_20.odb,Step-1,Increment      1: Step Time =    1.000,"PART-1-1",           246,       8.06548,      -22.0810,            0.,NA,NA,"",   48.9151E-03,   20.5626E-03,  -44.3832E-03,   8.18383E-03
C:/temp/dataset/6/7_20.odb,Step-1,Increment      1: Step Time =    1.000,"PART-1-1",           247,      -7.53738,       4.79758,            0.,NA,NA,"",   157.876E-03,   146.642E-03,  -58.4902E-03,   538.748E-06
C:/temp/dataset/6/7_20.odb,Step-1,Increment      1: Step Time =    1.000,"PART-1-1",           248,      -10.8025,      -24.3532,            0.,NA,NA,"",   6.24762E-03,  -4.04193E-03,  -4.76398E-03,   1.25273E-03
C:/temp/dataset/6/7_20.odb,Step-1,Increment      1: Step Time =    1.000,"PART-1-1",           249,       5.82981,      -2.08643,            0.,NA,NA,"",   226.735E-03,   86.5419E-03,  -209.570E-03,   11.3195E-03
C:/temp/dataset/6/7_20.odb,Step-1,Increment      1: Step Time =    1.000,"PART-1-1",           250,      -8.67175,      -2.53401,            0.,NA,NA,"",   74.7536E-03,   63.4168E-03,  -39.5778E-03,   1.52489E-03
C:/temp/dataset/6/7_20.odb,Step-1,Increment      1: Step Time =    1.000,"PART-1-1",           251,       5.78686,      -22.7214,            0.,NA,NA,"",   29.1152E-03,   8.94484E-03,  -27.7071E-03,   6.16983E-03
C:/temp/dataset/6/7_20.odb,Step-1,Increment      1: Step Time =    1.000,"PART-1-1",           252,      -8.27594,       1.60152,            0.,NA,NA,"",   119.834E-03,   109.693E-03,  -48.2435E-03,   835.582E-06
C:/temp/dataset/6/7_20.odb,Step-1,Increment      1: Step Time =    1.000,"PART-1-1",           253,       8.25490,      -24.0061,            0.,NA,NA,"",   34.0179E-03,   11.8759E-03,  -31.8776E-03,   7.42170E-03
C:/temp/dataset/6/7_20.odb,Step-1,Increment      1: Step Time =    1.000,"PART-1-1",           254,      -9.04303,      -23.2600,            0.,NA,NA,"",   7.15178E-03,  -3.60204E-03,  -6.17845E-03,   1.57984E-03
C:/temp/dataset/6/7_20.odb,Step-1,Increment      1: Step Time =    1.000,"PART-1-1",           255,       7.61656,      -1.09448,            0.,NA,NA,"",   244.652E-03,   103.606E-03,  -221.631E-03,   13.4445E-03
C:/temp/dataset/6/7_20.odb,Step-1,Increment      1: Step Time =    1.000,"PART-1-1",           256,      -4.02262,   861.151E-03,            0.,NA,NA,"",   144.149E-03,   102.533E-03,  -101.321E-03,   2.35392E-03
C:/temp/dataset/6/7_20.odb,Step-1,Increment      1: Step Time =    1.000,"PART-1-1",           257,  -104.141E-03,       1.31276,            0.,NA,NA,"",   189.364E-03,   103.606E-03,  -158.508E-03,   3.61994E-03
C:/temp/dataset/6/7_20.odb,Step-1,Increment      1: Step Time =    1.000,"PART-1-1",           258,       3.72123,      -23.4419,            0.,NA,NA,"",   13.1546E-03,   2.62357E-03,  -12.8903E-03,   2.90207E-03
C:/temp/dataset/6/7_20.odb,Step-1,Increment      1: Step Time =    1.000,"PART-1-1",           259,      -10.7950,      -8.39617,            0.,NA,NA,"",   24.2490E-03,   16.1637E-03,  -18.0763E-03,   798.269E-06
C:/temp/dataset/6/7_20.odb,Step-1,Increment      1: Step Time =    1.000,"PART-1-1",           260,      -1.85786,       1.02916,            0.,NA,NA,"",   168.095E-03,   102.929E-03,  -132.897E-03,   3.13327E-03
C:/temp/dataset/6/7_20.odb,Step-1,Increment      1: Step Time =    1.000,"PART-1-1",           261,      -6.46179,      -1.33856,            0.,NA,NA,"",   102.214E-03,   78.0686E-03,  -65.9771E-03,   2.23298E-03
C:/temp/dataset/6/7_20.odb,Step-1,Increment      1: Step Time =    1.000,"PART-1-1",           262,      -11.1078,      -7.00587,            0.,NA,NA,"",   29.5583E-03,   24.5707E-03,  -16.4309E-03,   404.099E-06
C:/temp/dataset/6/7_20.odb,Step-1,Increment      1: Step Time =    1.000,"PART-1-1",           263,      -5.52697,      -3.44125,            0.,NA,NA,"",   92.2989E-03,   56.2872E-03,  -73.1494E-03,   4.31065E-03
C:/temp/dataset/6/7_20.odb,Step-1,Increment      1: Step Time =    1.000,"PART-1-1",           264,      -9.72268,      -4.98378,            0.,NA,NA,"",   48.4549E-03,   39.6204E-03,  -27.8945E-03,   886.248E-06
C:/temp/dataset/6/7_20.odb,Step-1,Increment      1: Step Time =    1.000,"PART-1-1",           265,      -6.27329,       4.89376,            0.,NA,NA,"",   165.313E-03,   148.233E-03,  -73.1800E-03,   658.630E-06
C:/temp/dataset/6/7_20.odb,Step-1,Increment      1: Step Time =    1.000,"PART-1-1",           266,       12.4963,       2.80040,            0.,NA,NA,"",   255.413E-03,   131.225E-03,  -219.125E-03,   3.32740E-03
C:/temp/dataset/6/7_20.odb,Step-1,Increment      1: Step Time =    1.000,"PART-1-1",           267,      -7.37176,      -20.2559,            0.,NA,NA,"",   11.8948E-03,  -4.18270E-03,  -11.1352E-03,   2.24478E-03
C:/temp/dataset/6/7_20.odb,Step-1,Increment      1: Step Time =    1.000,"PART-1-1",           268,       2.88963,      -21.8777,            0.,NA,NA,"",   12.6252E-03,   7.02828E-03,  -10.4880E-03,   1.28709E-03
C:/temp/dataset/6/7_20.odb,Step-1,Increment      1: Step Time =    1.000,"PART-1-1",           269,      -8.05085,       3.52655,            0.,NA,NA,"",   141.791E-03,   131.915E-03,  -51.9910E-03,   661.075E-06
C:/temp/dataset/6/7_20.odb,Step-1,Increment      1: Step Time =    1.000,"PART-1-1",           270,       8.95558,      -12.5395,            0.,NA,NA,"",   143.987E-03,   78.9389E-03,  -120.420E-03,   8.80213E-03
C:/temp/dataset/6/7_20.odb,Step-1,Increment      1: Step Time =    1.000,"PART-1-1",           271,       1.35989,  -223.950E-03,            0.,NA,NA,"",   200.095E-03,   87.1846E-03,  -180.102E-03,   3.90084E-03
C:/temp/dataset/6/7_20.odb,Step-1,Increment      1: Step Time =    1.000,"PART-1-1",           272,      -9.75004,      -12.6533,            0.,NA,NA,"",   19.3100E-03,  -98.1565E-06,  -19.3098E-03,   1.70322E-03
C:/temp/dataset/6/7_20.odb,Step-1,Increment      1: Step Time =    1.000,"PART-1-1",           273,      -8.51206,      -25.1011,            0.,NA,NA,"",   4.45999E-03,  -2.13759E-03,  -3.91436E-03,   1.27019E-03
C:/temp/dataset/6/7_20.odb,Step-1,Increment      1: Step Time =    1.000,"PART-1-1",           274,      -6.19138,   998.181E-03,            0.,NA,NA,"",   126.487E-03,   103.747E-03,  -72.3566E-03,   1.25566E-03
C:/temp/dataset/6/7_20.odb,Step-1,Increment      1: Step Time =    1.000,"PART-1-1",           275,      -2.63339,      -25.0950,            0.,NA,NA,"",   1.20040E-03,   62.4894E-06,  -1.19877E-03,   773.853E-06
C:/temp/dataset/6/7_20.odb,Step-1,Increment      1: Step Time =    1.000,"PART-1-1",           276,       8.11811,      -26.0558,            0.,NA,NA,"",   19.3509E-03,   4.38616E-03,  -18.8473E-03,   6.37674E-03
C:/temp/dataset/6/7_20.odb,Step-1,Increment      1: Step Time =    1.000,"PART-1-1",           277,       6.33403,   764.508E-03,            0.,NA,NA,"",   260.426E-03,   102.697E-03,  -239.323E-03,   12.7883E-03
C:/temp/dataset/6/7_20.odb,Step-1,Increment      1: Step Time =    1.000,"PART-1-1",           278,       8.84044,      -16.9880,            0.,NA,NA,"",   101.464E-03,   54.8395E-03,  -85.3673E-03,   8.34905E-03
C:/temp/dataset/6/7_20.odb,Step-1,Increment      1: Step Time =    1.000,"PART-1-1",           279,      -11.3950,       19.6047,            0.,NA,NA,"",   313.726E-03,   313.289E-03,  -16.5522E-03,   1.10492E-06
C:/temp/dataset/6/7_20.odb,Step-1,Increment      1: Step Time =    1.000,"PART-1-1",           280,      -11.2464,      -2.22607,            0.,NA,NA,"",   68.1316E-03,   66.3214E-03,  -15.6011E-03,   868.559E-06
C:/temp/dataset/6/7_20.odb,Step-1,Increment      1: Step Time =    1.000,"PART-1-1",           281,      -8.41776,  -32.7016E-03,            0.,NA,NA,"",   101.683E-03,   91.0795E-03,  -45.2091E-03,   1.11532E-03
C:/temp/dataset/6/7_20.odb,Step-1,Increment      1: Step Time =    1.000,"PART-1-1",           282,       4.48255,      -24.5345,            0.,NA,NA,"",   13.6850E-03,   922.026E-06,  -13.6539E-03,   3.57537E-03
C:/temp/dataset/6/7_20.odb,Step-1,Increment      1: Step Time =    1.000,"PART-1-1",           283,       6.11275,      -24.3348,            0.,NA,NA,"",   21.8100E-03,   4.32036E-03,  -21.3778E-03,   5.41089E-03
C:/temp/dataset/6/7_20.odb,Step-1,Increment      1: Step Time =    1.000,"PART-1-1",           284,       9.69767,      -4.20039,            0.,NA,NA,"",   217.584E-03,   108.658E-03,  -188.511E-03,   10.1275E-03
C:/temp/dataset/6/7_20.odb,Step-1,Increment      1: Step Time =    1.000,"PART-1-1",           285,       13.8851,      -1.60402,            0.,NA,NA,"",   241.491E-03,   132.974E-03,  -201.584E-03,   4.77854E-03
C:/temp/dataset/6/7_20.odb,Step-1,Increment      1: Step Time =    1.000,"PART-1-1",           286,           15.,   -468.75E-03,            0.,NA,NA,"",   245.992E-03,   136.449E-03,  -204.679E-03,   1.67491E-03
C:/temp/dataset/6/7_20.odb,Step-1,Increment      1: Step Time =    1.000,"PART-1-1",           287,       13.7553,   590.641E-03,            0.,NA,NA,"",   248.767E-03,   135.963E-03,  -208.325E-03,   3.33961E-03
C:/temp/dataset/6/7_20.odb,Step-1,Increment      1: Step Time =    1.000,"PART-1-1",           288,       12.6405,  -544.629E-03,            0.,NA,NA,"",   247.507E-03,   132.705E-03,  -208.924E-03,   6.57548E-03
C:/temp/dataset/6/7_20.odb,Step-1,Increment      1: Step Time =    1.000,"PART-1-1",           289,       6.57104,       2.96720,            0.,NA,NA,"",   291.090E-03,   114.748E-03,  -267.519E-03,   15.8329E-03
C:/temp/dataset/6/7_20.odb,Step-1,Increment      1: Step Time =    1.000,"PART-1-1",           290,       5.86345,       1.80964,            0.,NA,NA,"",   268.250E-03,   105.195E-03,  -246.763E-03,   12.1495E-03
C:/temp/dataset/6/7_20.odb,Step-1,Increment      1: Step Time =    1.000,"PART-1-1",           291,       7.10711,       1.10321,            0.,NA,NA,"",   269.977E-03,   109.323E-03,  -246.852E-03,   14.1886E-03
C:/temp/dataset/6/7_20.odb,Step-1,Increment      1: Step Time =    1.000,"PART-1-1",           292,       7.81470,       2.26078,            0.,NA,NA,"",   288.960E-03,   118.938E-03,  -263.347E-03,   16.8269E-03
C:/temp/dataset/6/7_20.odb,Step-1,Increment      1: Step Time =    1.000,"PART-1-1",           293,       6.97305,      -8.82061,            0.,NA,NA,"",   169.147E-03,   86.0060E-03,  -145.649E-03,   9.88671E-03
C:/temp/dataset/6/7_20.odb,Step-1,Increment      1: Step Time =    1.000,"PART-1-1",           294,       5.98985,      -7.53541,            0.,NA,NA,"",   177.971E-03,   85.0954E-03,  -156.308E-03,   10.7838E-03
C:/temp/dataset/6/7_20.odb,Step-1,Increment      1: Step Time =    1.000,"PART-1-1",           295,            5.,      -8.76875,            0.,NA,NA,"",   160.672E-03,   76.5914E-03,  -141.242E-03,   11.4600E-03
C:/temp/dataset/6/7_20.odb,Step-1,Increment      1: Step Time =    1.000,"PART-1-1",           296,       5.98320,      -10.0539,            0.,NA,NA,"",   152.683E-03,   77.0406E-03,  -131.822E-03,   10.3827E-03
C:/temp/dataset/6/7_20.odb,Step-1,Increment      1: Step Time =    1.000,"PART-1-1",           297,       12.0429,      -8.05477,            0.,NA,NA,"",   195.024E-03,   108.184E-03,  -162.266E-03,   7.51129E-03
C:/temp/dataset/6/7_20.odb,Step-1,Increment      1: Step Time =    1.000,"PART-1-1",           298,       11.0248,      -9.13413,            0.,NA,NA,"",   182.656E-03,   100.927E-03,  -152.239E-03,   7.94877E-03
C:/temp/dataset/6/7_20.odb,Step-1,Increment      1: Step Time =    1.000,"PART-1-1",           299,       11.9985,      -10.2754,            0.,NA,NA,"",   177.847E-03,   100.009E-03,  -147.064E-03,   7.64745E-03
C:/temp/dataset/6/7_20.odb,Step-1,Increment      1: Step Time =    1.000,"PART-1-1",           300,       13.0166,      -9.19606,            0.,NA,NA,"",   190.624E-03,   107.495E-03,  -157.424E-03,   7.19744E-03
C:/temp/dataset/6/7_20.odb,Step-1,Increment      1: Step Time =    1.000,"PART-1-1",           301,       13.9992,      -14.7549,            0.,NA,NA,"",   151.277E-03,   85.8441E-03,  -124.562E-03,   7.58965E-03
C:/temp/dataset/6/7_20.odb,Step-1,Increment      1: Step Time =    1.000,"PART-1-1",           302,       13.0271,      -15.9471,            0.,NA,NA,"",   134.997E-03,   75.9476E-03,  -111.608E-03,   7.99487E-03
C:/temp/dataset/6/7_20.odb,Step-1,Increment      1: Step Time =    1.000,"PART-1-1",           303,       14.0279,      -16.9735,            0.,NA,NA,"",   131.688E-03,   73.7042E-03,  -109.130E-03,   8.00671E-03
C:/temp/dataset/6/7_20.odb,Step-1,Increment      1: Step Time =    1.000,"PART-1-1",           304,           15.,      -15.7813,            0.,NA,NA,"",   148.548E-03,   83.7612E-03,  -122.681E-03,   7.60954E-03
C:/temp/dataset/6/7_20.odb,Step-1,Increment      1: Step Time =    1.000,"PART-1-1",           305,       6.96949,      -18.0995,            0.,NA,NA,"",   79.1625E-03,   41.6170E-03,  -67.3404E-03,   8.15858E-03
C:/temp/dataset/6/7_20.odb,Step-1,Increment      1: Step Time =    1.000,"PART-1-1",           306,       5.95014,      -17.3335,            0.,NA,NA,"",   79.6368E-03,   42.0055E-03,  -67.6577E-03,   9.16469E-03
C:/temp/dataset/6/7_20.odb,Step-1,Increment      1: Step Time =    1.000,"PART-1-1",           307,            5.,      -18.7625,            0.,NA,NA,"",   57.9820E-03,   30.2699E-03,  -49.4535E-03,   10.5943E-03
C:/temp/dataset/6/7_20.odb,Step-1,Increment      1: Step Time =    1.000,"PART-1-1",           308,       6.01935,      -19.5285,            0.,NA,NA,"",   59.0245E-03,   30.0823E-03,  -50.7833E-03,   8.43032E-03
C:/temp/dataset/6/7_20.odb,Step-1,Increment      1: Step Time =    1.000,"PART-1-1",           309,       7.66098,      -29.0388,            0.,NA,NA,"",   3.74361E-03,  -661.872E-06,  -3.68463E-03,   4.91400E-03
C:/temp/dataset/6/7_20.odb,Step-1,Increment      1: Step Time =    1.000,"PART-1-1",           310,       6.62868,      -28.0660,            0.,NA,NA,"",   6.83641E-03,  -1.27099E-03,  -6.71722E-03,   4.43985E-03
C:/temp/dataset/6/7_20.odb,Step-1,Increment      1: Step Time =    1.000,"PART-1-1",           311,       5.21770,      -29.0272,            0.,NA,NA,"",   3.00051E-03,  -1.64592E-03,  -2.50878E-03,   3.47276E-03
C:/temp/dataset/6/7_20.odb,Step-1,Increment      1: Step Time =    1.000,"PART-1-1",           312,          6.25,          -30.,            0.,NA,NA,"",            0.,  -1.22026E-39,  -7.35360E-39,   3.99964E-03
C:/temp/dataset/6/7_20.odb,Step-1,Increment      1: Step Time =    1.000,"PART-1-1",           313,   162.125E-03,      -28.5454,            0.,NA,NA,"",   1.75808E-03,  -1.51932E-03,  -884.604E-06,   1.05935E-03
C:/temp/dataset/6/7_20.odb,Step-1,Increment      1: Step Time =    1.000,"PART-1-1",           314,      -1.06934,      -27.3053,            0.,NA,NA,"",   1.59119E-03,  -1.32131E-03,  -886.589E-06,   765.965E-06
C:/temp/dataset/6/7_20.odb,Step-1,Increment      1: Step Time =    1.000,"PART-1-1",           315,      -2.48147,      -28.7599,            0.,NA,NA,"",   718.751E-06,  -557.098E-06,  -454.142E-06,   573.506E-06
C:/temp/dataset/6/7_20.odb,Step-1,Increment      1: Step Time =    1.000,"PART-1-1",           316,         -1.25,          -30.,            0.,NA,NA,"",            0.,  -541.145E-42,  -1.42621E-39,   967.547E-06
C:/temp/dataset/6/7_20.odb,Step-1,Increment      1: Step Time =    1.000,"PART-1-1",           317,          -15.,        -21.25,            0.,NA,NA,"",   10.2493E-03,  -7.57734E-03,  -6.90157E-03,   148.989E-06
C:/temp/dataset/6/7_20.odb,Step-1,Increment      1: Step Time =    1.000,"PART-1-1",           318,      -13.9888,      -22.4607,            0.,NA,NA,"",   9.20927E-03,  -6.78148E-03,  -6.23074E-03,   604.720E-06
C:/temp/dataset/6/7_20.odb,Step-1,Increment      1: Step Time =    1.000,"PART-1-1",           319,      -12.8187,      -21.2681,            0.,NA,NA,"",   9.97363E-03,  -7.18347E-03,  -6.91889E-03,   859.874E-06
C:/temp/dataset/6/7_20.odb,Step-1,Increment      1: Step Time =    1.000,"PART-1-1",           320,      -13.8299,      -20.0574,            0.,NA,NA,"",   10.5771E-03,  -7.90605E-03,  -7.02630E-03,   422.549E-06
C:/temp/dataset/6/7_20.odb,Step-1,Increment      1: Step Time =    1.000,"PART-1-1",           321,      -12.5142,      -28.6623,            0.,NA,NA,"",   1.51035E-03,  -1.13971E-03,  -991.071E-06,   1.03962E-03
C:/temp/dataset/6/7_20.odb,Step-1,Increment      1: Step Time =    1.000,"PART-1-1",           322,        -11.25,          -30.,            0.,NA,NA,"",            0.,  -402.153E-42,  -1.58175E-39,   900.060E-06
C:/temp/dataset/6/7_20.odb,Step-1,Increment      1: Step Time =    1.000,"PART-1-1",           323,      -9.93348,      -28.4464,            0.,NA,NA,"",   1.34355E-03,  -857.663E-06,  -1.03418E-03,   920.653E-06
C:/temp/dataset/6/7_20.odb,Step-1,Increment      1: Step Time =    1.000,"PART-1-1",           324,      -11.1976,      -27.1087,            0.,NA,NA,"",   3.06684E-03,  -2.15744E-03,  -2.17967E-03,   1.10072E-03
C:/temp/dataset/6/7_20.odb,Step-1,Increment      1: Step Time =    1.000,"PART-1-1",           325,      -7.37036,      -13.8742,            0.,NA,NA,"",   24.9739E-03,  -637.155E-06,  -24.9658E-03,   2.86977E-03
C:/temp/dataset/6/7_20.odb,Step-1,Increment      1: Step Time =    1.000,"PART-1-1",           326,      -6.21015,      -15.0417,            0.,NA,NA,"",   24.6163E-03,  -1.09286E-03,  -24.5920E-03,   3.32796E-03
C:/temp/dataset/6/7_20.odb,Step-1,Increment      1: Step Time =    1.000,"PART-1-1",           327,           -5.,      -13.7188,            0.,NA,NA,"",   31.7236E-03,   3.38193E-03,  -31.5428E-03,   4.15491E-03
C:/temp/dataset/6/7_20.odb,Step-1,Increment      1: Step Time =    1.000,"PART-1-1",           328,      -6.16021,      -12.5513,            0.,NA,NA,"",   32.7899E-03,   4.21445E-03,  -32.5180E-03,   3.67628E-03
C:/temp/dataset/6/7_20.odb,Step-1,Increment      1: Step Time =    1.000,"PART-1-1",           329,      -9.33590,      -9.40979,            0.,NA,NA,"",   28.4033E-03,   11.5778E-03,  -25.9365E-03,   1.89066E-03
C:/temp/dataset/6/7_20.odb,Step-1,Increment      1: Step Time =    1.000,"PART-1-1",           330,      -8.33361,      -10.3234,            0.,NA,NA,"",   30.8864E-03,   8.57060E-03,  -29.6735E-03,   2.57433E-03
C:/temp/dataset/6/7_20.odb,Step-1,Increment      1: Step Time =    1.000,"PART-1-1",           331,      -7.16565,      -9.15059,            0.,NA,NA,"",   41.6756E-03,   14.8047E-03,  -38.9574E-03,   3.48314E-03
C:/temp/dataset/6/7_20.odb,Step-1,Increment      1: Step Time =    1.000,"PART-1-1",           332,      -8.16794,      -8.23701,            0.,NA,NA,"",   39.6417E-03,   18.0516E-03,  -35.2932E-03,   2.82400E-03
C:/temp/dataset/6/7_20.odb,Step-1,Increment      1: Step Time =    1.000,"PART-1-1",           333,      -11.1473,      -6.32447,            0.,NA,NA,"",   33.5315E-03,   29.3449E-03,  -16.2246E-03,   318.888E-06
C:/temp/dataset/6/7_20.odb,Step-1,Increment      1: Step Time =    1.000,"PART-1-1",           334,      -10.2102,      -6.79208,            0.,NA,NA,"",   34.5896E-03,   25.8792E-03,  -22.9501E-03,   891.266E-06
C:/temp/dataset/6/7_20.odb,Step-1,Increment      1: Step Time =    1.000,"PART-1-1",           335,      -9.51762,      -5.78103,            0.,NA,NA,"",   44.0885E-03,   33.2248E-03,  -28.9811E-03,   1.04345E-03
C:/temp/dataset/6/7_20.odb,Step-1,Increment      1: Step Time =    1.000,"PART-1-1",           336,      -10.4548,      -5.31342,            0.,NA,NA,"",   42.9632E-03,   37.0291E-03,  -21.7873E-03,   560.661E-06
C:/temp/dataset/6/7_20.odb,Step-1,Increment      1: Step Time =    1.000,"PART-1-1",           337,      -5.04937,      -1.25055,            0.,NA,NA,"",   116.714E-03,   80.0980E-03,  -84.8904E-03,   2.78500E-03
C:/temp/dataset/6/7_20.odb,Step-1,Increment      1: Step Time =    1.000,"PART-1-1",           338,      -3.82978,  -150.691E-03,            0.,NA,NA,"",   138.573E-03,   91.9835E-03,  -103.641E-03,   2.98998E-03
C:/temp/dataset/6/7_20.odb,Step-1,Increment      1: Step Time =    1.000,"PART-1-1",           339,      -5.10700,   929.666E-03,            0.,NA,NA,"",   134.675E-03,   103.284E-03,  -86.4286E-03,   1.73620E-03
C:/temp/dataset/6/7_20.odb,Step-1,Increment      1: Step Time =    1.000,"PART-1-1",           340,      -6.32658,  -170.190E-03,            0.,NA,NA,"",   114.354E-03,   90.8424E-03,  -69.4592E-03,   1.71698E-03
C:/temp/dataset/6/7_20.odb,Step-1,Increment      1: Step Time =    1.000,"PART-1-1",           341,          -15.,          3.75,            0.,NA,NA,"",   136.161E-03,   133.895E-03,   24.7362E-03,   370.318E-06
C:/temp/dataset/6/7_20.odb,Step-1,Increment      1: Step Time =    1.000,"PART-1-1",           342,      -13.8520,       2.39386,            0.,NA,NA,"",   118.636E-03,   118.079E-03,   11.4818E-03,   484.808E-06
C:/temp/dataset/6/7_20.odb,Step-1,Increment      1: Step Time =    1.000,"PART-1-1",           343,      -12.6820,       3.58697,            0.,NA,NA,"",   131.667E-03,   131.662E-03,  -1.11793E-03,   459.124E-06
C:/temp/dataset/6/7_20.odb,Step-1,Increment      1: Step Time =    1.000,"PART-1-1",           344,      -13.8301,       4.94311,            0.,NA,NA,"",   147.871E-03,   147.410E-03,   11.6708E-03,   205.350E-06
C:/temp/dataset/6/7_20.odb,Step-1,Increment      1: Step Time =    1.000,"PART-1-1",           345,          -15.,         11.25,            0.,NA,NA,"",   220.684E-03,   219.301E-03,   24.6721E-03,   16.2005E-06
C:/temp/dataset/6/7_20.odb,Step-1,Increment      1: Step Time =    1.000,"PART-1-1",           346,      -14.0083,       10.0442,            0.,NA,NA,"",   206.055E-03,   205.609E-03,   13.5513E-03,   10.0360E-06
C:/temp/dataset/6/7_20.odb,Step-1,Increment      1: Step Time =    1.000,"PART-1-1",           347,      -13.0572,       11.3141,            0.,NA,NA,"",   219.927E-03,   219.910E-03,   2.71850E-03,   4.43423E-06
C:/temp/dataset/6/7_20.odb,Step-1,Increment      1: Step Time =    1.000,"PART-1-1",           348,      -14.0489,       12.5200,            0.,NA,NA,"",   233.993E-03,   233.583E-03,   13.8358E-03,   8.68047E-06
C:/temp/dataset/6/7_20.odb,Step-1,Increment      1: Step Time =    1.000,"PART-1-1",           349,           -5.,       22.7083,            0.,NA,NA,"",   359.035E-03,   347.869E-03,  -88.8422E-03,   20.9500E-09
C:/temp/dataset/6/7_20.odb,Step-1,Increment      1: Step Time =    1.000,"PART-1-1",           350,      -5.96779,       23.6687,            0.,NA,NA,"",   367.137E-03,   358.757E-03,  -77.9928E-03,   31.6889E-09
C:/temp/dataset/6/7_20.odb,Step-1,Increment      1: Step Time =    1.000,"PART-1-1",           351,      -6.69567,       22.7251,            0.,NA,NA,"",   355.080E-03,   348.166E-03,  -69.7271E-03,   136.861E-09
C:/temp/dataset/6/7_20.odb,Step-1,Increment      1: Step Time =    1.000,"PART-1-1",           352,      -5.72788,       21.7648,            0.,NA,NA,"",   346.769E-03,   337.278E-03,  -80.5764E-03,   107.366E-09
C:/temp/dataset/6/7_20.odb,Step-1,Increment      1: Step Time =    1.000,"PART-1-1",           353,      -9.95259,       28.8237,            0.,NA,NA,"",   418.460E-03,   417.125E-03,  -33.3982E-03,   17.3949E-09
C:/temp/dataset/6/7_20.odb,Step-1,Increment      1: Step Time =    1.000,"PART-1-1",           354,      -8.67740,       27.7404,            0.,NA,NA,"",   407.633E-03,   404.832E-03,  -47.7050E-03,   15.0443E-09
C:/temp/dataset/6/7_20.odb,Step-1,Increment      1: Step Time =    1.000,"PART-1-1",           355,      -7.47481,       28.9167,            0.,NA,NA,"",   422.493E-03,   418.016E-03,  -61.3370E-03,   16.8988E-09
C:/temp/dataset/6/7_20.odb,Step-1,Increment      1: Step Time =    1.000,"PART-1-1",           356,         -8.75,           30.,            0.,NA,NA,"",   432.872E-03,   430.309E-03,  -47.0302E-03,   23.6949E-09
C:/temp/dataset/6/7_20.odb,Step-1,Increment      1: Step Time =    1.000,"PART-1-1",           357,      -12.4360,       28.7156,            0.,NA,NA,"",   416.099E-03,   416.064E-03,  -5.39526E-03,   17.4872E-09
C:/temp/dataset/6/7_20.odb,Step-1,Increment      1: Step Time =    1.000,"PART-1-1",           358,        -13.75,           30.,            0.,NA,NA,"",   430.728E-03,   430.627E-03,   9.33639E-03,   5.75641E-09
C:/temp/dataset/6/7_20.odb,Step-1,Increment      1: Step Time =    1.000,"PART-1-1",           359,          -15.,         28.75,            0.,NA,NA,"",   417.277E-03,   416.615E-03,   23.5075E-03,   6.84850E-09
C:/temp/dataset/6/7_20.odb,Step-1,Increment      1: Step Time =    1.000,"PART-1-1",           360,      -13.6860,       27.4656,            0.,NA,NA,"",   402.148E-03,   402.052E-03,   8.77578E-03,   19.0769E-09
C:/temp/dataset/6/7_20.odb,Step-1,Increment      1: Step Time =    1.000,"PART-1-1",           361,         -3.75,           -5.,            0.,NA,NA,"",   107.634E-03,   36.5805E-03,  -101.227E-03,   2.78118E-03
C:/temp/dataset/6/7_20.odb,Step-1,Increment      1: Step Time =    1.000,"PART-1-1",           362,      -2.75606,      -4.06584,            0.,NA,NA,"",   128.072E-03,   49.9724E-03,  -117.920E-03,   1.86139E-03
C:/temp/dataset/6/7_20.odb,Step-1,Increment      1: Step Time =    1.000,"PART-1-1",           363,      -4.26954,      -3.28646,            0.,NA,NA,"",   110.083E-03,   59.4307E-03,  -92.6622E-03,   3.99760E-03
C:/temp/dataset/6/7_20.odb,Step-1,Increment      1: Step Time =    1.000,"PART-1-1",           364,      -5.26349,      -4.22062,            0.,NA,NA,"",   87.9134E-03,   48.1041E-03,  -73.5850E-03,   5.08270E-03
C:/temp/dataset/6/7_20.odb,Step-1,Increment      1: Step Time =    1.000,"PART-1-1",           365,   659.099E-03,      -2.85996,            0.,NA,NA,"",   182.461E-03,   66.5014E-03,  -169.910E-03,   3.54374E-03
C:/temp/dataset/6/7_20.odb,Step-1,Increment      1: Step Time =    1.000,"PART-1-1",           366,  -266.865E-03,      -3.97148,            0.,NA,NA,"",   165.299E-03,   54.1218E-03,  -156.188E-03,   3.17065E-03
C:/temp/dataset/6/7_20.odb,Step-1,Increment      1: Step Time =    1.000,"PART-1-1",           367,          1.25,           -5.,            0.,NA,NA,"",   180.022E-03,   48.4235E-03,  -173.388E-03,   5.76417E-03
C:/temp/dataset/6/7_20.odb,Step-1,Increment      1: Step Time =    1.000,"PART-1-1",           368,       2.17596,      -3.88848,            0.,NA,NA,"",   195.987E-03,   62.6606E-03,  -185.700E-03,   5.12503E-03
C:/temp/dataset/6/7_20.odb,Step-1,Increment      1: Step Time =    1.000,"PART-1-1",           369,   93.5104E-03,  -560.922E-03,            0.,NA,NA,"",   183.621E-03,   85.6163E-03,  -162.439E-03,   3.96938E-03
C:/temp/dataset/6/7_20.odb,Step-1,Increment      1: Step Time =    1.000,"PART-1-1",           370,   627.873E-03,   544.404E-03,            0.,NA,NA,"",   194.367E-03,   94.7510E-03,  -169.708E-03,   3.55954E-03
C:/temp/dataset/6/7_20.odb,Step-1,Increment      1: Step Time =    1.000,"PART-1-1",           371,  -981.002E-03,       1.17096,            0.,NA,NA,"",   178.631E-03,   103.403E-03,  -145.661E-03,   3.31229E-03
C:/temp/dataset/6/7_20.odb,Step-1,Increment      1: Step Time =    1.000,"PART-1-1",           372,      -1.51537,   65.6335E-03,            0.,NA,NA,"",   166.633E-03,   92.9800E-03,  -138.280E-03,   3.56363E-03
C:/temp/dataset/6/7_20.odb,Step-1,Increment      1: Step Time =    1.000,"PART-1-1",           373,       4.11258,       2.54084,            0.,NA,NA,"",   249.480E-03,   106.803E-03,  -225.463E-03,   9.10834E-03
C:/temp/dataset/6/7_20.odb,Step-1,Increment      1: Step Time =    1.000,"PART-1-1",           374,       3.71515,       1.12833,            0.,NA,NA,"",   234.485E-03,   96.0512E-03,  -213.910E-03,   5.66124E-03
C:/temp/dataset/6/7_20.odb,Step-1,Increment      1: Step Time =    1.000,"PART-1-1",           375,       5.46602,   397.127E-03,            0.,NA,NA,"",   249.065E-03,   96.2682E-03,  -229.709E-03,   9.89590E-03
C:/temp/dataset/6/7_20.odb,Step-1,Increment      1: Step Time =    1.000,"PART-1-1",           376,       8.69518,  -378.803E-03,            0.,NA,NA,"",   255.363E-03,   114.450E-03,  -228.280E-03,   13.1126E-03
C:/temp/dataset/6/7_20.odb,Step-1,Increment      1: Step Time =    1.000,"PART-1-1",           377,       8.82700,   889.396E-03,            0.,NA,NA,"",   270.468E-03,   120.577E-03,  -242.104E-03,   14.2441E-03
C:/temp/dataset/6/7_20.odb,Step-1,Increment      1: Step Time =    1.000,"PART-1-1",           378,       6.97530,  -164.986E-03,            0.,NA,NA,"",   253.255E-03,   102.802E-03,  -231.452E-03,   12.9081E-03
C:/temp/dataset/6/7_20.odb,Step-1,Increment      1: Step Time =    1.000,"PART-1-1",           379,      -3.65351,      -22.6081,            0.,NA,NA,"",   3.35605E-03,   1.35454E-03,  -3.07055E-03,   1.37295E-03
C:/temp/dataset/6/7_20.odb,Step-1,Increment      1: Step Time =    1.000,"PART-1-1",           380,      -2.48671,      -21.3009,            0.,NA,NA,"",   3.52869E-03,   2.56167E-03,  -2.42683E-03,   1.24016E-03
C:/temp/dataset/6/7_20.odb,Step-1,Increment      1: Step Time =    1.000,"PART-1-1",           381,         -3.75,          -20.,            0.,NA,NA,"",   4.79526E-03,   77.5860E-06,  -4.79463E-03,   1.78398E-03
C:/temp/dataset/6/7_20.odb,Step-1,Increment      1: Step Time =    1.000,"PART-1-1",           382,      -4.91680,      -21.3072,            0.,NA,NA,"",   6.67531E-03,   289.369E-06,  -6.66904E-03,   2.25150E-03
C:/temp/dataset/6/7_20.odb,Step-1,Increment      1: Step Time =    1.000,"PART-1-1",           383,       12.8399,      -22.4784,            0.,NA,NA,"",   71.4876E-03,   37.3736E-03,  -60.9401E-03,   9.02837E-03
C:/temp/dataset/6/7_20.odb,Step-1,Increment      1: Step Time =    1.000,"PART-1-1",           384,       11.7398,      -21.2760,            0.,NA,NA,"",   76.7961E-03,   39.6489E-03,  -65.7694E-03,   8.74206E-03
C:/temp/dataset/6/7_20.odb,Step-1,Increment      1: Step Time =    1.000,"PART-1-1",           385,       10.5591,      -22.4389,            0.,NA,NA,"",   59.1941E-03,   28.3599E-03,  -51.9582E-03,   8.63092E-03
C:/temp/dataset/6/7_20.odb,Step-1,Increment      1: Step Time =    1.000,"PART-1-1",           386,       11.6593,      -23.6412,            0.,NA,NA,"",   53.6855E-03,   26.4364E-03,  -46.7252E-03,   8.90481E-03
C:/temp/dataset/6/7_20.odb,Step-1,Increment      1: Step Time =    1.000,"PART-1-1",           387,          8.75,            5.,            0.,NA,NA,"",   317.616E-03,   116.381E-03,  -295.526E-03,   16.8884E-03
C:/temp/dataset/6/7_20.odb,Step-1,Increment      1: Step Time =    1.000,"PART-1-1",           388,       7.62461,       4.03982,            0.,NA,NA,"",   313.668E-03,   123.005E-03,  -288.543E-03,   18.4695E-03
C:/temp/dataset/6/7_20.odb,Step-1,Increment      1: Step Time =    1.000,"PART-1-1",           389,       8.90047,       2.96899,            0.,NA,NA,"",   294.957E-03,   126.953E-03,  -266.238E-03,   16.3148E-03
C:/temp/dataset/6/7_20.odb,Step-1,Increment      1: Step Time =    1.000,"PART-1-1",           390,       10.0259,       3.92917,            0.,NA,NA,"",   288.772E-03,   128.501E-03,  -258.606E-03,   12.6670E-03
C:/temp/dataset/6/7_20.odb,Step-1,Increment      1: Step Time =    1.000,"PART-1-1",           391,      -6.96921,       21.1213,            0.,NA,NA,"",   336.743E-03,   330.103E-03,  -66.5414E-03,   439.347E-09
C:/temp/dataset/6/7_20.odb,Step-1,Increment      1: Step Time =    1.000,"PART-1-1",           392,      -6.24133,       19.9816,            0.,NA,NA,"",   325.878E-03,   317.207E-03,  -74.6744E-03,   480.814E-09
C:/temp/dataset/6/7_20.odb,Step-1,Increment      1: Step Time =    1.000,"PART-1-1",           393,           -5.,        20.625,            0.,NA,NA,"",   336.293E-03,   324.382E-03,  -88.7097E-03,   248.660E-09
C:/temp/dataset/6/7_20.odb,Step-1,Increment      1: Step Time =    1.000,"PART-1-1",           394,      -12.9370,       8.81410,            0.,NA,NA,"",   191.609E-03,   191.603E-03,   1.52312E-03,   54.3435E-06
C:/temp/dataset/6/7_20.odb,Step-1,Increment      1: Step Time =    1.000,"PART-1-1",           395,          -15.,          8.75,            0.,NA,NA,"",   192.612E-03,   190.999E-03,   24.8744E-03,   3.47901E-06
C:/temp/dataset/6/7_20.odb,Step-1,Increment      1: Step Time =    1.000,"PART-1-1",           396,      -13.9287,       7.51992,            0.,NA,NA,"",   177.399E-03,   176.937E-03,   12.7953E-03,   51.9963E-06
C:/temp/dataset/6/7_20.odb,Step-1,Increment      1: Step Time =    1.000,"PART-1-1",           397,          -15.,          1.25,            0.,NA,NA,"",   108.066E-03,   105.447E-03,   23.6467E-03,   850.892E-06
C:/temp/dataset/6/7_20.odb,Step-1,Increment      1: Step Time =    1.000,"PART-1-1",           398,      -13.9023,  -59.1614E-03,            0.,NA,NA,"",   91.0084E-03,   90.3560E-03,   10.8777E-03,   880.235E-06
C:/temp/dataset/6/7_20.odb,Step-1,Increment      1: Step Time =    1.000,"PART-1-1",           399,      -12.7542,       1.08470,            0.,NA,NA,"",   102.897E-03,   102.896E-03,  -581.304E-06,   726.135E-06
C:/temp/dataset/6/7_20.odb,Step-1,Increment      1: Step Time =    1.000,"PART-1-1",           400,          -15.,         -1.25,            0.,NA,NA,"",   80.9020E-03,   78.0673E-03,   21.2281E-03,   1.49236E-03
C:/temp/dataset/6/7_20.odb,Step-1,Increment      1: Step Time =    1.000,"PART-1-1",           401,      -13.9820,      -2.43756,            0.,NA,NA,"",   65.7779E-03,   65.0723E-03,   9.60911E-03,   1.34047E-03
C:/temp/dataset/6/7_20.odb,Step-1,Increment      1: Step Time =    1.000,"PART-1-1",           402,      -12.8843,      -1.24672,            0.,NA,NA,"",   77.0208E-03,   77.0208E-03,  -9.63406E-06,   919.587E-06
C:/temp/dataset/6/7_20.odb,Step-1,Increment      1: Step Time =    1.000,"PART-1-1",           403,      -12.3802,      -13.7897,            0.,NA,NA,"",   10.0330E-03,  -3.49704E-03,  -9.40378E-03,   696.791E-06
C:/temp/dataset/6/7_20.odb,Step-1,Increment      1: Step Time =    1.000,"PART-1-1",           404,      -13.6672,      -12.5056,            0.,NA,NA,"",   4.72949E-03,  -117.320E-06,  -4.72803E-03,   984.695E-06
C:/temp/dataset/6/7_20.odb,Step-1,Increment      1: Step Time =    1.000,"PART-1-1",           405,          -15.,        -13.75,            0.,NA,NA,"",   3.41203E-03,  -2.51358E-03,  -2.30735E-03,   1.49303E-03
C:/temp/dataset/6/7_20.odb,Step-1,Increment      1: Step Time =    1.000,"PART-1-1",           406,      -13.7130,      -15.0341,            0.,NA,NA,"",   8.33376E-03,  -5.48005E-03,  -6.27858E-03,   688.821E-06
C:/temp/dataset/6/7_20.odb,Step-1,Increment      1: Step Time =    1.000,"PART-1-1",           407,       9.21271,      -3.58583,            0.,NA,NA,"",   221.934E-03,   107.227E-03,  -194.312E-03,   11.0720E-03
C:/temp/dataset/6/7_20.odb,Step-1,Increment      1: Step Time =    1.000,"PART-1-1",           408,       7.90749,      -3.82305,            0.,NA,NA,"",   215.742E-03,   98.0265E-03,  -192.186E-03,   11.8957E-03
C:/temp/dataset/6/7_20.odb,Step-1,Increment      1: Step Time =    1.000,"PART-1-1",           409,       8.15132,      -5.16923,            0.,NA,NA,"",   204.182E-03,   98.0990E-03,  -179.072E-03,   10.3368E-03
C:/temp/dataset/6/7_20.odb,Step-1,Increment      1: Step Time =    1.000,"PART-1-1",           410,       9.45655,      -4.93201,            0.,NA,NA,"",   210.534E-03,   105.773E-03,  -182.035E-03,   9.80801E-03
C:/temp/dataset/6/7_20.odb,Step-1,Increment      1: Step Time =    1.000,"PART-1-1",           411,       6.91243,      -16.0318,            0.,NA,NA,"",   98.9892E-03,   52.8368E-03,  -83.7086E-03,   9.10091E-03
C:/temp/dataset/6/7_20.odb,Step-1,Increment      1: Step Time =    1.000,"PART-1-1",           412,       5.96229,      -14.9858,            0.,NA,NA,"",   103.288E-03,   54.3416E-03,  -87.8378E-03,   9.53204E-03
C:/temp/dataset/6/7_20.odb,Step-1,Increment      1: Step Time =    1.000,"PART-1-1",           413,            5.,      -16.2875,            0.,NA,NA,"",   83.8468E-03,   43.3172E-03,  -71.7908E-03,   9.62440E-03
C:/temp/dataset/6/7_20.odb,Step-1,Increment      1: Step Time =    1.000,"PART-1-1",           414,       6.93910,      -13.7291,            0.,NA,NA,"",   121.698E-03,   64.9386E-03,  -102.925E-03,   9.40027E-03
C:/temp/dataset/6/7_20.odb,Step-1,Increment      1: Step Time =    1.000,"PART-1-1",           415,       5.97681,      -12.5371,            0.,NA,NA,"",   127.924E-03,   66.5673E-03,  -109.240E-03,   9.89184E-03
C:/temp/dataset/6/7_20.odb,Step-1,Increment      1: Step Time =    1.000,"PART-1-1",           416,            5.,      -13.7937,            0.,NA,NA,"",   109.064E-03,   56.1788E-03,  -93.4823E-03,   10.0023E-03
C:/temp/dataset/6/7_20.odb,Step-1,Increment      1: Step Time =    1.000,"PART-1-1",           417,         -1.25,          -20.,            0.,NA,NA,"",   5.68494E-03,   4.77968E-03,  -3.07786E-03,   2.33932E-03
C:/temp/dataset/6/7_20.odb,Step-1,Increment      1: Step Time =    1.000,"PART-1-1",           418,      -1.09514,      -22.7401,            0.,NA,NA,"",   2.80898E-03,   2.40406E-03,  -1.45289E-03,   813.002E-06
C:/temp/dataset/6/7_20.odb,Step-1,Increment      1: Step Time =    1.000,"PART-1-1",           419,   141.566E-03,      -21.4393,            0.,NA,NA,"",   6.22831E-03,   5.48020E-03,  -2.95960E-03,   1.51147E-03
C:/temp/dataset/6/7_20.odb,Step-1,Increment      1: Step Time =    1.000,"PART-1-1",           420,      -7.69236,      -25.1479,            0.,NA,NA,"",   4.03125E-03,  -1.59678E-03,  -3.70153E-03,   1.18937E-03
C:/temp/dataset/6/7_20.odb,Step-1,Increment      1: Step Time =    1.000,"PART-1-1",           421,      -9.18951,      -25.9970,            0.,NA,NA,"",   3.68389E-03,  -2.04386E-03,  -3.06491E-03,   1.15550E-03
C:/temp/dataset/6/7_20.odb,Step-1,Increment      1: Step Time =    1.000,"PART-1-1",           422,      -8.56598,      -27.1897,            0.,NA,NA,"",   2.25811E-03,  -1.17159E-03,  -1.93040E-03,   931.545E-06
C:/temp/dataset/6/7_20.odb,Step-1,Increment      1: Step Time =    1.000,"PART-1-1",           423,      -7.06883,      -26.3407,            0.,NA,NA,"",   2.56337E-03,  -934.703E-06,  -2.38688E-03,   963.056E-06
C:/temp/dataset/6/7_20.odb,Step-1,Increment      1: Step Time =    1.000,"PART-1-1",           424,      -9.82073,      -13.8964,            0.,NA,NA,"",   17.6856E-03,  -2.95095E-03,  -17.4377E-03,   1.64569E-03
C:/temp/dataset/6/7_20.odb,Step-1,Increment      1: Step Time =    1.000,"PART-1-1",           425,      -8.65586,      -15.1239,            0.,NA,NA,"",   19.3001E-03,  -4.10776E-03,  -18.8579E-03,   2.11273E-03
C:/temp/dataset/6/7_20.odb,Step-1,Increment      1: Step Time =    1.000,"PART-1-1",           426,      -8.53523,      -12.6467,            0.,NA,NA,"",   23.9476E-03,   879.248E-06,  -23.9314E-03,   2.32546E-03
C:/temp/dataset/6/7_20.odb,Step-1,Increment      1: Step Time =    1.000,"PART-1-1",           427,      -6.09243,      -10.1071,            0.,NA,NA,"",   43.1004E-03,   12.6075E-03,  -41.2152E-03,   4.08477E-03
C:/temp/dataset/6/7_20.odb,Step-1,Increment      1: Step Time =    1.000,"PART-1-1",           428,           -5.,      -8.71250,            0.,NA,NA,"",   56.0448E-03,   20.9943E-03,  -51.9640E-03,   5.18629E-03
C:/temp/dataset/6/7_20.odb,Step-1,Increment      1: Step Time =    1.000,"PART-1-1",           429,      -6.07322,      -7.75598,            0.,NA,NA,"",   55.7636E-03,   23.0071E-03,  -50.7961E-03,   4.51961E-03
C:/temp/dataset/6/7_20.odb,Step-1,Increment      1: Step Time =    1.000,"PART-1-1",           430,      -12.7270,      -6.06323,            0.,NA,NA,"",   32.1981E-03,   31.8839E-03,  -4.48761E-03,   835.951E-06
C:/temp/dataset/6/7_20.odb,Step-1,Increment      1: Step Time =    1.000,"PART-1-1",           431,      -13.8025,      -4.90646,            0.,NA,NA,"",   42.1558E-03,   41.8539E-03,   5.03583E-03,   1.55697E-03
C:/temp/dataset/6/7_20.odb,Step-1,Increment      1: Step Time =    1.000,"PART-1-1",           432,          -15.,         -6.25,            0.,NA,NA,"",   34.4458E-03,   32.2738E-03,   12.0380E-03,   2.41626E-03
C:/temp/dataset/6/7_20.odb,Step-1,Increment      1: Step Time =    1.000,"PART-1-1",           433,      -13.9244,      -7.40677,            0.,NA,NA,"",   23.3299E-03,   23.2003E-03,   2.45499E-03,   1.66356E-03
C:/temp/dataset/6/7_20.odb,Step-1,Increment      1: Step Time =    1.000,"PART-1-1",           434,       1.60591,      -1.50045,            0.,NA,NA,"",   198.608E-03,   77.5956E-03,  -182.823E-03,   3.25383E-03
C:/temp/dataset/6/7_20.odb,Step-1,Increment      1: Step Time =    1.000,"PART-1-1",           435,  -853.298E-03,      -1.92043,            0.,NA,NA,"",   166.168E-03,   74.0236E-03,  -148.770E-03,   3.67148E-03
C:/temp/dataset/6/7_20.odb,Step-1,Increment      1: Step Time =    1.000,"PART-1-1",           436,         13.75,          -30.,            0.,NA,NA,"",            0.,   1.35444E-39,  -16.6920E-39,   11.3345E-03
C:/temp/dataset/6/7_20.odb,Step-1,Increment      1: Step Time =    1.000,"PART-1-1",           437,           15.,      -28.9063,            0.,NA,NA,"",   17.9533E-03,   12.7360E-03,  -12.6537E-03,   12.6227E-03
C:/temp/dataset/6/7_20.odb,Step-1,Increment      1: Step Time =    1.000,"PART-1-1",           438,       13.8103,      -27.8746,            0.,NA,NA,"",   22.9177E-03,   14.0308E-03,  -18.1206E-03,   10.2461E-03
C:/temp/dataset/6/7_20.odb,Step-1,Increment      1: Step Time =    1.000,"PART-1-1",           439,       12.5603,      -28.9683,            0.,NA,NA,"",   7.90521E-03,   4.05903E-03,  -6.78355E-03,   8.39090E-03
C:/temp/dataset/6/7_20.odb,Step-1,Increment      1: Step Time =    1.000,"PART-1-1",           440,       12.6598,      -26.8678,            0.,NA,NA,"",   28.1176E-03,   15.0427E-03,  -23.7554E-03,   9.46002E-03
C:/temp/dataset/6/7_20.odb,Step-1,Increment      1: Step Time =    1.000,"PART-1-1",           441,       11.5501,      -25.8632,            0.,NA,NA,"",   32.6597E-03,   15.5125E-03,  -28.7406E-03,   8.85305E-03
C:/temp/dataset/6/7_20.odb,Step-1,Increment      1: Step Time =    1.000,"PART-1-1",           442,       10.3093,      -26.9762,            0.,NA,NA,"",   19.0241E-03,   7.10708E-03,  -17.6467E-03,   7.67210E-03
C:/temp/dataset/6/7_20.odb,Step-1,Increment      1: Step Time =    1.000,"PART-1-1",           443,       11.4189,      -27.9808,            0.,NA,NA,"",   13.9517E-03,   6.32653E-03,  -12.4349E-03,   8.28866E-03
C:/temp/dataset/6/7_20.odb,Step-1,Increment      1: Step Time =    1.000,"PART-1-1",           444,       10.1086,      -29.0125,            0.,NA,NA,"",   5.18534E-03,   1.18134E-03,  -5.04897E-03,   6.41208E-03
C:/temp/dataset/6/7_20.odb,Step-1,Increment      1: Step Time =    1.000,"PART-1-1",           445,       9.01957,      -28.0513,            0.,NA,NA,"",   9.45498E-03,   1.52619E-03,  -9.33099E-03,   6.16478E-03
C:/temp/dataset/6/7_20.odb,Step-1,Increment      1: Step Time =    1.000,"PART-1-1",           446,          8.75,          -30.,            0.,NA,NA,"",            0.,  -366.725E-42,  -10.1578E-39,   5.33531E-03
C:/temp/dataset/6/7_20.odb,Step-1,Increment      1: Step Time =    1.000,"PART-1-1",           447,       4.20973,      -27.9354,            0.,NA,NA,"",   5.08110E-03,  -2.60859E-03,  -4.36037E-03,   2.81618E-03
C:/temp/dataset/6/7_20.odb,Step-1,Increment      1: Step Time =    1.000,"PART-1-1",           448,       2.74203,      -28.9082,            0.,NA,NA,"",   2.43893E-03,  -1.88758E-03,  -1.54448E-03,   2.13258E-03
C:/temp/dataset/6/7_20.odb,Step-1,Increment      1: Step Time =    1.000,"PART-1-1",           449,          3.75,          -30.,            0.,NA,NA,"",            0.,  -1.47615E-39,  -4.63479E-39,   2.80767E-03
C:/temp/dataset/6/7_20.odb,Step-1,Increment      1: Step Time =    1.000,"PART-1-1",           450,       1.16266,      -25.9573,            0.,NA,NA,"",   3.36370E-03,  -1.84914E-03,  -2.80983E-03,   1.03275E-03
C:/temp/dataset/6/7_20.odb,Step-1,Increment      1: Step Time =    1.000,"PART-1-1",           451,       1.65415,      -27.4536,            0.,NA,NA,"",   3.45280E-03,  -2.51767E-03,  -2.36287E-03,   1.45417E-03
C:/temp/dataset/6/7_20.odb,Step-1,Increment      1: Step Time =    1.000,"PART-1-1",           452,       3.39879,      -26.8461,            0.,NA,NA,"",   5.99472E-03,  -2.67049E-03,  -5.36704E-03,   2.31416E-03
C:/temp/dataset/6/7_20.odb,Step-1,Increment      1: Step Time =    1.000,"PART-1-1",           453,       2.90730,      -25.3498,            0.,NA,NA,"",   6.82525E-03,  -1.46850E-03,  -6.66540E-03,   1.84172E-03
C:/temp/dataset/6/7_20.odb,Step-1,Increment      1: Step Time =    1.000,"PART-1-1",           454,      -3.67645,      -27.5530,            0.,NA,NA,"",   964.785E-06,  -486.483E-06,  -833.153E-06,   534.835E-06
C:/temp/dataset/6/7_20.odb,Step-1,Increment      1: Step Time =    1.000,"PART-1-1",           455,      -2.54816,      -26.3074,            0.,NA,NA,"",   1.08502E-03,  -551.587E-06,  -934.361E-06,   573.915E-06
C:/temp/dataset/6/7_20.odb,Step-1,Increment      1: Step Time =    1.000,"PART-1-1",           456,      -3.72120,      -25.1278,            0.,NA,NA,"",   1.64630E-03,   41.1891E-06,  -1.64578E-03,   795.540E-06
C:/temp/dataset/6/7_20.odb,Step-1,Increment      1: Step Time =    1.000,"PART-1-1",           457,      -4.84948,      -26.3734,            0.,NA,NA,"",   1.64733E-03,  -363.502E-06,  -1.60672E-03,   699.554E-06
C:/temp/dataset/6/7_20.odb,Step-1,Increment      1: Step Time =    1.000,"PART-1-1",           458,      -4.94498,      -28.7931,            0.,NA,NA,"",   567.612E-06,  -216.040E-06,  -524.891E-06,   567.978E-06
C:/temp/dataset/6/7_20.odb,Step-1,Increment      1: Step Time =    1.000,"PART-1-1",           459,         -3.75,          -30.,            0.,NA,NA,"",            0.,  -183.403E-42,  -1.10106E-39,   620.275E-06
C:/temp/dataset/6/7_20.odb,Step-1,Increment      1: Step Time =    1.000,"PART-1-1",           460,      -6.07748,      -27.5364,            0.,NA,NA,"",   1.37612E-03,  -458.280E-06,  -1.29756E-03,   681.238E-06
C:/temp/dataset/6/7_20.odb,Step-1,Increment      1: Step Time =    1.000,"PART-1-1",           461,      -7.38250,      -28.7433,            0.,NA,NA,"",   785.900E-06,  -331.098E-06,  -712.751E-06,   751.338E-06
C:/temp/dataset/6/7_20.odb,Step-1,Increment      1: Step Time =    1.000,"PART-1-1",           462,         -6.25,          -30.,            0.,NA,NA,"",            0.,  -92.4030E-42,  -1.22182E-39,   644.748E-06
C:/temp/dataset/6/7_20.odb,Step-1,Increment      1: Step Time =    1.000,"PART-1-1",           463,      -8.77755,      -24.1806,            0.,NA,NA,"",   5.75675E-03,  -2.81255E-03,  -5.02292E-03,   1.40987E-03
C:/temp/dataset/6/7_20.odb,Step-1,Increment      1: Step Time =    1.000,"PART-1-1",           464,      -9.92276,      -23.8066,            0.,NA,NA,"",   6.67330E-03,  -3.88325E-03,  -5.42708E-03,   1.40860E-03
C:/temp/dataset/6/7_20.odb,Step-1,Increment      1: Step Time =    1.000,"PART-1-1",           465,      -10.3347,      -25.6230,            0.,NA,NA,"",   4.52612E-03,  -2.87006E-03,  -3.49979E-03,   1.16951E-03
C:/temp/dataset/6/7_20.odb,Step-1,Increment      1: Step Time =    1.000,"PART-1-1",           466,       13.9544,      -21.3085,            0.,NA,NA,"",   89.7510E-03,   48.3502E-03,  -75.6141E-03,   8.99171E-03
C:/temp/dataset/6/7_20.odb,Step-1,Increment      1: Step Time =    1.000,"PART-1-1",           467,       13.8855,      -23.5136,            0.,NA,NA,"",   67.6339E-03,   36.3062E-03,  -57.0632E-03,   9.39558E-03
C:/temp/dataset/6/7_20.odb,Step-1,Increment      1: Step Time =    1.000,"PART-1-1",           468,           15.,      -22.3438,            0.,NA,NA,"",   86.4103E-03,   47.0736E-03,  -72.4624E-03,   9.39342E-03
C:/temp/dataset/6/7_20.odb,Step-1,Increment      1: Step Time =    1.000,"PART-1-1",           469,       12.7349,      -24.6944,            0.,NA,NA,"",   49.4028E-03,   25.6673E-03,  -42.2117E-03,   9.37583E-03
C:/temp/dataset/6/7_20.odb,Step-1,Increment      1: Step Time =    1.000,"PART-1-1",           470,       13.8494,      -25.7120,            0.,NA,NA,"",   45.9861E-03,   25.7083E-03,  -38.1287E-03,   9.70802E-03
C:/temp/dataset/6/7_20.odb,Step-1,Increment      1: Step Time =    1.000,"PART-1-1",           471,           15.,      -24.5313,            0.,NA,NA,"",   64.5969E-03,   36.1405E-03,  -53.5408E-03,   9.68818E-03
C:/temp/dataset/6/7_20.odb,Step-1,Increment      1: Step Time =    1.000,"PART-1-1",           472,         11.25,          -30.,            0.,NA,NA,"",            0.,   1.13027E-39,  -13.1739E-39,   6.74616E-03
C:/temp/dataset/6/7_20.odb,Step-1,Increment      1: Step Time =    1.000,"PART-1-1",           473,       13.9950,      -12.5232,            0.,NA,NA,"",   169.829E-03,   96.9305E-03,  -139.450E-03,   7.25030E-03
C:/temp/dataset/6/7_20.odb,Step-1,Increment      1: Step Time =    1.000,"PART-1-1",           474,       12.9942,      -13.6844,            0.,NA,NA,"",   154.774E-03,   87.9398E-03,  -127.364E-03,   7.70209E-03
C:/temp/dataset/6/7_20.odb,Step-1,Increment      1: Step Time =    1.000,"PART-1-1",           475,           15.,      -13.5938,            0.,NA,NA,"",   166.876E-03,   95.0688E-03,  -137.148E-03,   7.14130E-03
C:/temp/dataset/6/7_20.odb,Step-1,Increment      1: Step Time =    1.000,"PART-1-1",           476,       9.85236,      -17.2546,            0.,NA,NA,"",   104.737E-03,   56.9233E-03,  -87.9179E-03,   8.34080E-03
C:/temp/dataset/6/7_20.odb,Step-1,Increment      1: Step Time =    1.000,"PART-1-1",           477,       8.68427,      -17.7513,            0.,NA,NA,"",   93.3286E-03,   49.7705E-03,  -78.9501E-03,   8.31117E-03
C:/temp/dataset/6/7_20.odb,Step-1,Increment      1: Step Time =    1.000,"PART-1-1",           478,       8.96140,      -18.9835,            0.,NA,NA,"",   83.1286E-03,   43.1330E-03,  -71.0627E-03,   8.26346E-03
C:/temp/dataset/6/7_20.odb,Step-1,Increment      1: Step Time =    1.000,"PART-1-1",           479,       10.1295,      -18.4868,            0.,NA,NA,"",   94.5769E-03,   50.4662E-03,  -79.9871E-03,   8.30001E-03
C:/temp/dataset/6/7_20.odb,Step-1,Increment      1: Step Time =    1.000,"PART-1-1",           480,       11.2436,      -18.3856,            0.,NA,NA,"",   101.854E-03,   55.1604E-03,  -85.6240E-03,   8.38096E-03
C:/temp/dataset/6/7_20.odb,Step-1,Increment      1: Step Time =    1.000,"PART-1-1",           481,       12.3956,      -19.2305,            0.,NA,NA,"",   100.404E-03,   54.3471E-03,  -84.4235E-03,   8.48298E-03
C:/temp/dataset/6/7_20.odb,Step-1,Increment      1: Step Time =    1.000,"PART-1-1",           482,       13.1120,      -18.1414,            0.,NA,NA,"",   115.116E-03,   63.5439E-03,  -95.9887E-03,   8.32782E-03
C:/temp/dataset/6/7_20.odb,Step-1,Increment      1: Step Time =    1.000,"PART-1-1",           483,       11.9600,      -17.2965,            0.,NA,NA,"",   116.302E-03,   64.3086E-03,  -96.9045E-03,   8.23168E-03
C:/temp/dataset/6/7_20.odb,Step-1,Increment      1: Step Time =    1.000,"PART-1-1",           484,       14.0024,      -3.77677,            0.,NA,NA,"",   230.261E-03,   127.298E-03,  -191.874E-03,   5.83690E-03
C:/temp/dataset/6/7_20.odb,Step-1,Increment      1: Step Time =    1.000,"PART-1-1",           485,       13.0359,      -4.87313,            0.,NA,NA,"",   220.865E-03,   121.249E-03,  -184.608E-03,   6.74849E-03
C:/temp/dataset/6/7_20.odb,Step-1,Increment      1: Step Time =    1.000,"PART-1-1",           486,       14.0335,      -5.94012,            0.,NA,NA,"",   217.075E-03,   121.118E-03,  -180.145E-03,   6.46365E-03
C:/temp/dataset/6/7_20.odb,Step-1,Increment      1: Step Time =    1.000,"PART-1-1",           487,           15.,      -4.84375,            0.,NA,NA,"",   227.258E-03,   126.900E-03,  -188.527E-03,   5.63361E-03
C:/temp/dataset/6/7_20.odb,Step-1,Increment      1: Step Time =    1.000,"PART-1-1",           488,       13.0510,      -7.01836,            0.,NA,NA,"",   206.317E-03,   114.846E-03,  -171.398E-03,   6.97647E-03
C:/temp/dataset/6/7_20.odb,Step-1,Increment      1: Step Time =    1.000,"PART-1-1",           489,       14.0175,      -8.10950,            0.,NA,NA,"",   202.642E-03,   114.387E-03,  -167.271E-03,   6.75301E-03
C:/temp/dataset/6/7_20.odb,Step-1,Increment      1: Step Time =    1.000,"PART-1-1",           490,           15.,      -7.03125,            0.,NA,NA,"",   213.840E-03,   120.663E-03,  -176.545E-03,   6.26013E-03
C:/temp/dataset/6/7_20.odb,Step-1,Increment      1: Step Time =    1.000,"PART-1-1",           491,         13.75,            5.,            0.,NA,NA,"",   241.032E-03,   116.031E-03,  -211.265E-03,   564.347E-06
C:/temp/dataset/6/7_20.odb,Step-1,Increment      1: Step Time =    1.000,"PART-1-1",           492,       12.4982,       3.90020,            0.,NA,NA,"",   252.378E-03,   123.532E-03,  -220.078E-03,   1.55691E-03
C:/temp/dataset/6/7_20.odb,Step-1,Increment      1: Step Time =    1.000,"PART-1-1",           493,       13.7482,       2.80645,            0.,NA,NA,"",   247.906E-03,   130.462E-03,  -210.801E-03,   806.909E-06
C:/temp/dataset/6/7_20.odb,Step-1,Increment      1: Step Time =    1.000,"PART-1-1",           494,           15.,       3.90625,            0.,NA,NA,"",   238.027E-03,   123.569E-03,  -203.440E-03,   716.928E-06
C:/temp/dataset/6/7_20.odb,Step-1,Increment      1: Step Time =    1.000,"PART-1-1",           495,         11.25,            5.,            0.,NA,NA,"",   258.937E-03,   111.518E-03,  -233.692E-03,   1.07160E-03
C:/temp/dataset/6/7_20.odb,Step-1,Increment      1: Step Time =    1.000,"PART-1-1",           496,       11.2740,       2.82937,            0.,NA,NA,"",   268.205E-03,   131.992E-03,  -233.479E-03,   8.30462E-03
C:/temp/dataset/6/7_20.odb,Step-1,Increment      1: Step Time =    1.000,"PART-1-1",           497,       11.1422,   446.578E-03,            0.,NA,NA,"",   258.270E-03,   130.649E-03,  -222.787E-03,   9.54915E-03
C:/temp/dataset/6/7_20.odb,Step-1,Increment      1: Step Time =    1.000,"PART-1-1",           498,       10.2035,  -836.101E-03,            0.,NA,NA,"",   249.873E-03,   122.192E-03,  -217.958E-03,   11.4372E-03
C:/temp/dataset/6/7_20.odb,Step-1,Increment      1: Step Time =    1.000,"PART-1-1",           499,       11.7017,      -1.82731,            0.,NA,NA,"",   240.362E-03,   125.864E-03,  -204.774E-03,   8.50989E-03
C:/temp/dataset/6/7_20.odb,Step-1,Increment      1: Step Time =    1.000,"PART-1-1",           500,       12.5035,       1.67834,            0.,NA,NA,"",   255.760E-03,   134.273E-03,  -217.678E-03,   4.79200E-03
C:/temp/dataset/6/7_20.odb,Step-1,Increment      1: Step Time =    1.000,"PART-1-1",           501,       9.91277,       1.59761,            0.,NA,NA,"",   274.037E-03,   129.016E-03,  -241.766E-03,   12.7748E-03
C:/temp/dataset/6/7_20.odb,Step-1,Increment      1: Step Time =    1.000,"PART-1-1",           502,       5.19643,       3.92738,            0.,NA,NA,"",   281.278E-03,   118.612E-03,  -255.046E-03,   12.8826E-03
C:/temp/dataset/6/7_20.odb,Step-1,Increment      1: Step Time =    1.000,"PART-1-1",           503,          3.75,            5.,            0.,NA,NA,"",   260.688E-03,   145.195E-03,  -216.510E-03,   3.45736E-03
C:/temp/dataset/6/7_20.odb,Step-1,Increment      1: Step Time =    1.000,"PART-1-1",           504,       2.66615,       3.61346,            0.,NA,NA,"",   234.265E-03,   124.318E-03,  -198.557E-03,   3.62275E-03
C:/temp/dataset/6/7_20.odb,Step-1,Increment      1: Step Time =    1.000,"PART-1-1",           505,      -1.00804,       2.95894,            0.,NA,NA,"",   189.697E-03,   123.382E-03,  -144.089E-03,   2.08203E-03
C:/temp/dataset/6/7_20.odb,Step-1,Increment      1: Step Time =    1.000,"PART-1-1",           506,   87.8012E-03,       3.95476,            0.,NA,NA,"",   208.310E-03,   134.464E-03,  -159.100E-03,   1.77965E-03
C:/temp/dataset/6/7_20.odb,Step-1,Increment      1: Step Time =    1.000,"PART-1-1",           507,         -1.25,            5.,            0.,NA,NA,"",   205.239E-03,   150.249E-03,  -139.815E-03,   781.965E-06
C:/temp/dataset/6/7_20.odb,Step-1,Increment      1: Step Time =    1.000,"PART-1-1",           508,      -2.34584,       4.00418,            0.,NA,NA,"",   185.725E-03,   137.657E-03,  -124.676E-03,   968.123E-06
C:/temp/dataset/6/7_20.odb,Step-1,Increment      1: Step Time =    1.000,"PART-1-1",           509,      -3.27281,       2.96378,            0.,NA,NA,"",   168.113E-03,   125.499E-03,  -111.857E-03,   1.53767E-03
C:/temp/dataset/6/7_20.odb,Step-1,Increment      1: Step Time =    1.000,"PART-1-1",           510,         -3.75,            5.,            0.,NA,NA,"",   184.059E-03,   150.958E-03,  -105.306E-03,   546.116E-06
C:/temp/dataset/6/7_20.odb,Step-1,Increment      1: Step Time =    1.000,"PART-1-1",           511,      -4.67697,       3.95960,            0.,NA,NA,"",   165.948E-03,   137.728E-03,  -92.5733E-03,   888.275E-06
C:/temp/dataset/6/7_20.odb,Step-1,Increment      1: Step Time =    1.000,"PART-1-1",           512,      -7.93004,       8.58536,            0.,NA,NA,"",   196.792E-03,   188.978E-03,  -54.9045E-03,   82.6338E-06
C:/temp/dataset/6/7_20.odb,Step-1,Increment      1: Step Time =    1.000,"PART-1-1",           513,      -8.65034,       7.25415,            0.,NA,NA,"",   180.159E-03,   174.033E-03,  -46.5818E-03,   230.572E-06
C:/temp/dataset/6/7_20.odb,Step-1,Increment      1: Step Time =    1.000,"PART-1-1",           514,      -7.51010,       6.50150,            0.,NA,NA,"",   176.082E-03,   165.771E-03,  -59.3700E-03,   302.963E-06
C:/temp/dataset/6/7_20.odb,Step-1,Increment      1: Step Time =    1.000,"PART-1-1",           515,      -6.78981,       7.83270,            0.,NA,NA,"",   192.866E-03,   180.588E-03,  -67.7140E-03,   170.032E-06
C:/temp/dataset/6/7_20.odb,Step-1,Increment      1: Step Time =    1.000,"PART-1-1",           516,      -7.08495,       12.0475,            0.,NA,NA,"",   236.825E-03,   227.827E-03,  -64.6607E-03,   3.71090E-06
C:/temp/dataset/6/7_20.odb,Step-1,Increment      1: Step Time =    1.000,"PART-1-1",           517,      -6.02998,       11.1050,            0.,NA,NA,"",   230.229E-03,   217.159E-03,  -76.4671E-03,   9.34006E-06
C:/temp/dataset/6/7_20.odb,Step-1,Increment      1: Step Time =    1.000,"PART-1-1",           518,           -5.,       12.2917,            0.,NA,NA,"",   246.731E-03,   230.451E-03,  -88.1407E-03,   16.2628E-06
C:/temp/dataset/6/7_20.odb,Step-1,Increment      1: Step Time =    1.000,"PART-1-1",           519,      -6.05497,       13.2342,            0.,NA,NA,"",   252.923E-03,   241.129E-03,  -76.3328E-03,   7.65663E-06
C:/temp/dataset/6/7_20.odb,Step-1,Increment      1: Step Time =    1.000,"PART-1-1",           520,      -9.96524,       21.0498,            0.,NA,NA,"",   331.113E-03,   329.488E-03,  -32.7621E-03,   636.465E-09
C:/temp/dataset/6/7_20.odb,Step-1,Increment      1: Step Time =    1.000,"PART-1-1",           521,      -8.51702,       20.1362,            0.,NA,NA,"",   322.841E-03,   319.096E-03,  -49.0305E-03,   766.645E-09
C:/temp/dataset/6/7_20.odb,Step-1,Increment      1: Step Time =    1.000,"PART-1-1",           522,      -8.09442,       21.6565,            0.,NA,NA,"",   340.499E-03,   336.208E-03,  -53.8907E-03,   413.246E-09
C:/temp/dataset/6/7_20.odb,Step-1,Increment      1: Step Time =    1.000,"PART-1-1",           523,      -9.54264,       22.5701,            0.,NA,NA,"",   348.635E-03,   346.599E-03,  -37.6225E-03,   218.262E-09
C:/temp/dataset/6/7_20.odb,Step-1,Increment      1: Step Time =    1.000,"PART-1-1",           524,      -7.38593,       19.0122,            0.,NA,NA,"",   312.504E-03,   306.351E-03,  -61.7098E-03,   1.48932E-06
C:/temp/dataset/6/7_20.odb,Step-1,Increment      1: Step Time =    1.000,"PART-1-1",           525,      -6.14460,       17.5723,            0.,NA,NA,"",   299.731E-03,   290.038E-03,  -75.6105E-03,   1.64824E-06
C:/temp/dataset/6/7_20.odb,Step-1,Increment      1: Step Time =    1.000,"PART-1-1",           526,           -5.,       18.5417,            0.,NA,NA,"",   313.661E-03,   300.895E-03,  -88.5764E-03,   1.22900E-06
C:/temp/dataset/6/7_20.odb,Step-1,Increment      1: Step Time =    1.000,"PART-1-1",           527,      -9.12859,       24.1056,            0.,NA,NA,"",   366.344E-03,   363.884E-03,  -42.3876E-03,   104.287E-09
C:/temp/dataset/6/7_20.odb,Step-1,Increment      1: Step Time =    1.000,"PART-1-1",           528,      -7.82088,       23.2603,            0.,NA,NA,"",   358.839E-03,   354.271E-03,  -57.0763E-03,   116.405E-09
C:/temp/dataset/6/7_20.odb,Step-1,Increment      1: Step Time =    1.000,"PART-1-1",           529,      -7.11221,       24.6459,            0.,NA,NA,"",   375.541E-03,   369.846E-03,  -65.1534E-03,   30.9000E-09
C:/temp/dataset/6/7_20.odb,Step-1,Increment      1: Step Time =    1.000,"PART-1-1",           530,      -8.41993,       25.4912,            0.,NA,NA,"",   382.800E-03,   379.459E-03,  -50.4647E-03,   20.7981E-09
C:/temp/dataset/6/7_20.odb,Step-1,Increment      1: Step Time =    1.000,"PART-1-1",           531,           -5.,       28.9583,            0.,NA,NA,"",   427.741E-03,   418.328E-03,  -89.2391E-03,   5.24201E-09
C:/temp/dataset/6/7_20.odb,Step-1,Increment      1: Step Time =    1.000,"PART-1-1",           532,         -6.25,           30.,            0.,NA,NA,"",   436.677E-03,   430.151E-03,  -75.2136E-03,   5.69800E-09
C:/temp/dataset/6/7_20.odb,Step-1,Increment      1: Step Time =    1.000,"PART-1-1",           533,      -6.22481,       27.8751,            0.,NA,NA,"",   413.126E-03,   406.194E-03,  -75.3625E-03,   16.3180E-09
C:/temp/dataset/6/7_20.odb,Step-1,Increment      1: Step Time =    1.000,"PART-1-1",           534,      -11.1386,       27.5393,            0.,NA,NA,"",   403.215E-03,   402.721E-03,  -19.9466E-03,   14.8585E-09
C:/temp/dataset/6/7_20.odb,Step-1,Increment      1: Step Time =    1.000,"PART-1-1",           535,        -11.25,           30.,            0.,NA,NA,"",   430.881E-03,   430.468E-03,  -18.8469E-03,   24.1884E-09
C:/temp/dataset/6/7_20.odb,Step-1,Increment      1: Step Time =    1.000,"PART-1-1",           536,      -13.1147,       13.7606,            0.,NA,NA,"",   247.540E-03,   247.520E-03,   3.20851E-03,   5.20496E-06
C:/temp/dataset/6/7_20.odb,Step-1,Increment      1: Step Time =    1.000,"PART-1-1",           537,      -14.0658,       14.9906,            0.,NA,NA,"",   261.815E-03,   261.448E-03,   13.8575E-03,   4.58487E-06
C:/temp/dataset/6/7_20.odb,Step-1,Increment      1: Step Time =    1.000,"PART-1-1",           538,          -15.,         13.75,            0.,NA,NA,"",   248.723E-03,   247.516E-03,   24.4801E-03,   9.97454E-06
C:/temp/dataset/6/7_20.odb,Step-1,Increment      1: Step Time =    1.000,"PART-1-1",           539,      -9.42834,       18.6970,            0.,NA,NA,"",   305.387E-03,   302.929E-03,  -38.6670E-03,   1.82756E-06
C:/temp/dataset/6/7_20.odb,Step-1,Increment      1: Step Time =    1.000,"PART-1-1",           540,      -8.29725,       17.5730,            0.,NA,NA,"",   294.691E-03,   290.183E-03,  -51.3469E-03,   2.26838E-06
C:/temp/dataset/6/7_20.odb,Step-1,Increment      1: Step Time =    1.000,"PART-1-1",           541,      -12.7588,       6.21303,            0.,NA,NA,"",   161.925E-03,   161.924E-03,  -326.911E-06,   204.890E-06
C:/temp/dataset/6/7_20.odb,Step-1,Increment      1: Step Time =    1.000,"PART-1-1",           542,          -15.,          6.25,            0.,NA,NA,"",   164.437E-03,   162.527E-03,   24.9896E-03,   101.168E-06
C:/temp/dataset/6/7_20.odb,Step-1,Increment      1: Step Time =    1.000,"PART-1-1",           543,      -9.01063,       9.47069,            0.,NA,NA,"",   203.483E-03,   198.932E-03,  -42.7958E-03,   58.8339E-06
C:/temp/dataset/6/7_20.odb,Step-1,Increment      1: Step Time =    1.000,"PART-1-1",           544,      -10.0811,       10.4578,            0.,NA,NA,"",   212.332E-03,   210.085E-03,  -30.8050E-03,   17.8803E-06
C:/temp/dataset/6/7_20.odb,Step-1,Increment      1: Step Time =    1.000,"PART-1-1",           545,      -10.9384,       9.05000,            0.,NA,NA,"",   195.349E-03,   194.214E-03,  -21.0243E-03,   69.1226E-06
C:/temp/dataset/6/7_20.odb,Step-1,Increment      1: Step Time =    1.000,"PART-1-1",           546,      -9.86794,       8.06293,            0.,NA,NA,"",   186.008E-03,   183.062E-03,  -32.9719E-03,   104.821E-06
C:/temp/dataset/6/7_20.odb,Step-1,Increment      1: Step Time =    1.000,"PART-1-1",           547,      -7.23366,       1.29985,            0.,NA,NA,"",   122.404E-03,   106.718E-03,  -59.9488E-03,   886.683E-06
C:/temp/dataset/6/7_20.odb,Step-1,Increment      1: Step Time =    1.000,"PART-1-1",           548,      -8.34685,   784.410E-03,            0.,NA,NA,"",   110.712E-03,   100.353E-03,  -46.7577E-03,   978.738E-06
C:/temp/dataset/6/7_20.odb,Step-1,Increment      1: Step Time =    1.000,"PART-1-1",           549,      -7.43977,  -685.632E-03,            0.,NA,NA,"",   100.943E-03,   84.4019E-03,  -55.3694E-03,   1.56330E-03
C:/temp/dataset/6/7_20.odb,Step-1,Increment      1: Step Time =    1.000,"PART-1-1",           550,      -12.4903,      -8.57964,            0.,NA,NA,"",   17.2124E-03,   15.4213E-03,  -7.64534E-03,   647.923E-06
C:/temp/dataset/6/7_20.odb,Step-1,Increment      1: Step Time =    1.000,"PART-1-1",           551,          -15.,         -8.75,            0.,NA,NA,"",   17.4840E-03,   16.2198E-03,   6.52765E-03,   2.33562E-03
C:/temp/dataset/6/7_20.odb,Step-1,Increment      1: Step Time =    1.000,"PART-1-1",           552,      -13.5658,      -9.92286,            0.,NA,NA,"",   9.62864E-03,   9.22606E-03,  -2.75511E-03,   1.22882E-03
C:/temp/dataset/6/7_20.odb,Step-1,Increment      1: Step Time =    1.000,"PART-1-1",           553,      -11.9783,      -7.15971,            0.,NA,NA,"",   25.9739E-03,   23.8062E-03,  -10.3880E-03,   489.403E-06
C:/temp/dataset/6/7_20.odb,Step-1,Increment      1: Step Time =    1.000,"PART-1-1",           554,      -11.8960,      -5.22799,            0.,NA,NA,"",   39.5288E-03,   38.1393E-03,  -10.3884E-03,   501.488E-06
C:/temp/dataset/6/7_20.odb,Step-1,Increment      1: Step Time =    1.000,"PART-1-1",           555,      -12.4565,      -16.3452,            0.,NA,NA,"",   11.4606E-03,  -7.08906E-03,  -9.00497E-03,   759.540E-06
C:/temp/dataset/6/7_20.odb,Step-1,Increment      1: Step Time =    1.000,"PART-1-1",           556,          -15.,        -16.25,            0.,NA,NA,"",   8.29274E-03,  -6.54660E-03,  -5.09033E-03,   963.105E-06
C:/temp/dataset/6/7_20.odb,Step-1,Increment      1: Step Time =    1.000,"PART-1-1",           557,      -13.7435,      -17.5611,            0.,NA,NA,"",   10.5501E-03,  -7.81115E-03,  -7.09157E-03,   445.667E-06
C:/temp/dataset/6/7_20.odb,Step-1,Increment      1: Step Time =    1.000,"PART-1-1",           558,      -9.99221,      -8.41662,            0.,NA,NA,"",   28.2332E-03,   16.1359E-03,  -23.1678E-03,   1.26507E-03
C:/temp/dataset/6/7_20.odb,Step-1,Increment      1: Step Time =    1.000,"PART-1-1",           559,      -11.4633,      -9.12095,            0.,NA,NA,"",   18.5579E-03,   12.4054E-03,  -13.8023E-03,   603.100E-06
C:/temp/dataset/6/7_20.odb,Step-1,Increment      1: Step Time =    1.000,"PART-1-1",           560,      -10.8070,      -10.1141,            0.,NA,NA,"",   18.8032E-03,   7.92242E-03,  -17.0527E-03,   988.463E-06
C:/temp/dataset/6/7_20.odb,Step-1,Increment      1: Step Time =    1.000,"PART-1-1",           561,      -13.9189,      -24.9166,            0.,NA,NA,"",   6.91369E-03,  -5.06013E-03,  -4.71108E-03,   856.837E-06
C:/temp/dataset/6/7_20.odb,Step-1,Increment      1: Step Time =    1.000,"PART-1-1",           562,      -12.9076,      -23.6273,            0.,NA,NA,"",   7.78650E-03,  -5.63349E-03,  -5.37526E-03,   926.168E-06
C:/temp/dataset/6/7_20.odb,Step-1,Increment      1: Step Time =    1.000,"PART-1-1",           563,          -15.,        -23.75,            0.,NA,NA,"",   8.65384E-03,  -6.22058E-03,  -6.01609E-03,   569.297E-06
C:/temp/dataset/6/7_20.odb,Step-1,Increment      1: Step Time =    1.000,"PART-1-1",           564,          -15.,        -28.75,            0.,NA,NA,"",   2.71623E-03,  -2.03962E-03,  -1.79384E-03,   1.46982E-03
C:/temp/dataset/6/7_20.odb,Step-1,Increment      1: Step Time =    1.000,"PART-1-1",           565,        -13.75,          -30.,            0.,NA,NA,"",            0.,  -230.570E-42,  -1.94082E-39,   1.46318E-03
C:/temp/dataset/6/7_20.odb,Step-1,Increment      1: Step Time =    1.000,"PART-1-1",           566,      -13.7642,      -27.4123,            0.,NA,NA,"",   3.72773E-03,  -2.80536E-03,  -2.45478E-03,   1.09456E-03
C:/temp/dataset/6/7_20.odb,Step-1,Increment      1: Step Time =    1.000,"PART-1-1",           567,            5.,      -6.25625,            0.,NA,NA,"",   188.371E-03,   82.1304E-03,  -169.524E-03,   12.8113E-03
C:/temp/dataset/6/7_20.odb,Step-1,Increment      1: Step Time =    1.000,"PART-1-1",           568,       7.03347,      -6.11658,            0.,NA,NA,"",   192.830E-03,   91.5784E-03,  -169.696E-03,   9.82811E-03
C:/temp/dataset/6/7_20.odb,Step-1,Increment      1: Step Time =    1.000,"PART-1-1",           569,       6.04361,      -4.83741,            0.,NA,NA,"",   200.661E-03,   84.7219E-03,  -181.899E-03,   12.0995E-03
C:/temp/dataset/6/7_20.odb,Step-1,Increment      1: Step Time =    1.000,"PART-1-1",           570,           15.,      -2.65625,            0.,NA,NA,"",   238.834E-03,   132.582E-03,  -198.655E-03,   4.13868E-03
C:/temp/dataset/6/7_20.odb,Step-1,Increment      1: Step Time =    1.000,"PART-1-1",           571,       12.8875,      -2.72454,            0.,NA,NA,"",   234.632E-03,   127.303E-03,  -197.095E-03,   6.66408E-03
C:/temp/dataset/6/7_20.odb,Step-1,Increment      1: Step Time =    1.000,"PART-1-1",           572,       10.0248,      -7.91896,            0.,NA,NA,"",   188.350E-03,   101.209E-03,  -158.847E-03,   8.35551E-03
C:/temp/dataset/6/7_20.odb,Step-1,Increment      1: Step Time =    1.000,"PART-1-1",           573,       8.98203,      -8.99604,            0.,NA,NA,"",   175.526E-03,   93.7406E-03,  -148.399E-03,   8.79385E-03
C:/temp/dataset/6/7_20.odb,Step-1,Increment      1: Step Time =    1.000,"PART-1-1",           574,       9.98204,      -10.2112,            0.,NA,NA,"",   169.430E-03,   93.0730E-03,  -141.577E-03,   8.37377E-03
C:/temp/dataset/6/7_20.odb,Step-1,Increment      1: Step Time =    1.000,"PART-1-1",           575,            5.,      -11.2813,            0.,NA,NA,"",   134.920E-03,   67.6053E-03,  -116.760E-03,   10.5775E-03
C:/temp/dataset/6/7_20.odb,Step-1,Increment      1: Step Time =    1.000,"PART-1-1",           576,       6.96001,      -11.3098,            0.,NA,NA,"",   145.434E-03,   76.3876E-03,  -123.757E-03,   9.68952E-03
C:/temp/dataset/6/7_20.odb,Step-1,Increment      1: Step Time =    1.000,"PART-1-1",           577,       12.1169,      -5.93459,            0.,NA,NA,"",   210.745E-03,   114.935E-03,  -176.644E-03,   7.52186E-03
C:/temp/dataset/6/7_20.odb,Step-1,Increment      1: Step Time =    1.000,"PART-1-1",           578,       11.1088,      -6.97100,            0.,NA,NA,"",   199.675E-03,   108.158E-03,  -167.845E-03,   8.04184E-03
C:/temp/dataset/6/7_20.odb,Step-1,Increment      1: Step Time =    1.000,"PART-1-1",           579,           15.,      -11.4063,            0.,NA,NA,"",   183.795E-03,   105.060E-03,  -150.808E-03,   6.78809E-03
C:/temp/dataset/6/7_20.odb,Step-1,Increment      1: Step Time =    1.000,"PART-1-1",           580,       13.9991,      -10.3053,            0.,NA,NA,"",   186.934E-03,   106.452E-03,  -153.663E-03,   6.97767E-03
C:/temp/dataset/6/7_20.odb,Step-1,Increment      1: Step Time =    1.000,"PART-1-1",           581,       12.9941,      -11.4223,            0.,NA,NA,"",   173.460E-03,   98.5833E-03,  -142.722E-03,   7.43806E-03
C:/temp/dataset/6/7_20.odb,Step-1,Increment      1: Step Time =    1.000,"PART-1-1",           582,           15.,      -9.21875,            0.,NA,NA,"",   199.380E-03,   113.548E-03,  -163.889E-03,   6.53157E-03
C:/temp/dataset/6/7_20.odb,Step-1,Increment      1: Step Time =    1.000,"PART-1-1",           583,       9.25975,      -25.9916,            0.,NA,NA,"",   23.2070E-03,   7.52707E-03,  -21.9524E-03,   7.23601E-03
C:/temp/dataset/6/7_20.odb,Step-1,Increment      1: Step Time =    1.000,"PART-1-1",           584,       7.97004,      -27.0667,            0.,NA,NA,"",   13.1673E-03,   1.64338E-03,  -13.0643E-03,   5.81358E-03
C:/temp/dataset/6/7_20.odb,Step-1,Increment      1: Step Time =    1.000,"PART-1-1",           585,       9.98268,      -20.3187,            0.,NA,NA,"",   76.1895E-03,   38.5474E-03,  -65.7185E-03,   8.43986E-03
C:/temp/dataset/6/7_20.odb,Step-1,Increment      1: Step Time =    1.000,"PART-1-1",           586,       8.47236,      -19.9740,            0.,NA,NA,"",   70.9052E-03,   35.1105E-03,  -61.6020E-03,   8.13390E-03
C:/temp/dataset/6/7_20.odb,Step-1,Increment      1: Step Time =    1.000,"PART-1-1",           587,       7.80775,      -21.2882,            0.,NA,NA,"",   54.4751E-03,   24.1614E-03,  -48.8238E-03,   8.27832E-03
C:/temp/dataset/6/7_20.odb,Step-1,Increment      1: Step Time =    1.000,"PART-1-1",           588,       9.31806,      -21.6330,            0.,NA,NA,"",   60.0214E-03,   28.0151E-03,  -53.0822E-03,   8.34505E-03
C:/temp/dataset/6/7_20.odb,Step-1,Increment      1: Step Time =    1.000,"PART-1-1",           589,          3.75,          -20.,            0.,NA,NA,"",   26.6345E-03,   19.3629E-03,  -18.2886E-03,   3.38634E-03
C:/temp/dataset/6/7_20.odb,Step-1,Increment      1: Step Time =    1.000,"PART-1-1",           590,       2.69482,      -20.9389,            0.,NA,NA,"",   15.4408E-03,   11.0678E-03,  -10.7667E-03,   2.17913E-03
C:/temp/dataset/6/7_20.odb,Step-1,Increment      1: Step Time =    1.000,"PART-1-1",           591,       4.10336,      -21.5712,            0.,NA,NA,"",   22.0705E-03,   9.52486E-03,  -19.9094E-03,   3.78994E-03
C:/temp/dataset/6/7_20.odb,Step-1,Increment      1: Step Time =    1.000,"PART-1-1",           592,       5.15854,      -20.6323,            0.,NA,NA,"",   38.9893E-03,   17.6063E-03,  -34.7877E-03,   7.29325E-03
C:/temp/dataset/6/7_20.odb,Step-1,Increment      1: Step Time =    1.000,"PART-1-1",           593,          1.25,          -20.,            0.,NA,NA,"",   12.8680E-03,   11.1087E-03,  -6.49467E-03,   3.22344E-03
C:/temp/dataset/6/7_20.odb,Step-1,Increment      1: Step Time =    1.000,"PART-1-1",           594,       1.58638,      -22.3782,            0.,NA,NA,"",   6.98841E-03,   4.46553E-03,  -5.37559E-03,   496.249E-06
C:/temp/dataset/6/7_20.odb,Step-1,Increment      1: Step Time =    1.000,"PART-1-1",           595,      -7.18878,      -21.5166,            0.,NA,NA,"",   9.31204E-03,  -2.98119E-03,  -8.82194E-03,   2.17115E-03
C:/temp/dataset/6/7_20.odb,Step-1,Increment      1: Step Time =    1.000,"PART-1-1",           596,      -8.69544,      -20.4918,            0.,NA,NA,"",   11.5283E-03,  -5.28367E-03,  -10.2462E-03,   1.87753E-03
C:/temp/dataset/6/7_20.odb,Step-1,Increment      1: Step Time =    1.000,"PART-1-1",           597,      -9.53108,      -21.9939,            0.,NA,NA,"",   9.15873E-03,  -4.91749E-03,  -7.72661E-03,   1.60642E-03
C:/temp/dataset/6/7_20.odb,Step-1,Increment      1: Step Time =    1.000,"PART-1-1",           598,      -8.02442,      -23.0186,            0.,NA,NA,"",   7.09624E-03,  -2.83100E-03,  -6.50708E-03,   1.72177E-03
C:/temp/dataset/6/7_20.odb,Step-1,Increment      1: Step Time =    1.000,"PART-1-1",           599,           -5.,      -18.7437,            0.,NA,NA,"",   14.1725E-03,  -2.40299E-03,  -13.9673E-03,   3.73986E-03
C:/temp/dataset/6/7_20.odb,Step-1,Increment      1: Step Time =    1.000,"PART-1-1",           600,      -6.23242,      -17.5731,            0.,NA,NA,"",   17.6715E-03,  -3.78363E-03,  -17.2617E-03,   2.95169E-03
C:/temp/dataset/6/7_20.odb,Step-1,Increment      1: Step Time =    1.000,"PART-1-1",           601,      -7.41830,      -18.9573,            0.,NA,NA,"",   14.4682E-03,  -5.08124E-03,  -13.5466E-03,   2.11345E-03
C:/temp/dataset/6/7_20.odb,Step-1,Increment      1: Step Time =    1.000,"PART-1-1",           602,      -6.18588,      -20.1280,            0.,NA,NA,"",   11.7330E-03,  -3.09118E-03,  -11.3184E-03,   2.58953E-03
C:/temp/dataset/6/7_20.odb,Step-1,Increment      1: Step Time =    1.000,"PART-1-1",           603,           -5.,      -16.2312,            0.,NA,NA,"",   22.7261E-03,  -707.002E-06,  -22.7151E-03,   3.81299E-03
C:/temp/dataset/6/7_20.odb,Step-1,Increment      1: Step Time =    1.000,"PART-1-1",           604,      -7.44257,      -16.3835,            0.,NA,NA,"",   19.3423E-03,  -4.35517E-03,  -18.8456E-03,   2.51466E-03
C:/temp/dataset/6/7_20.odb,Step-1,Increment      1: Step Time =    1.000,"PART-1-1",           605,      -12.6830,      -26.0788,            0.,NA,NA,"",   4.88644E-03,  -3.58840E-03,  -3.31673E-03,   1.06174E-03
C:/temp/dataset/6/7_20.odb,Step-1,Increment      1: Step Time =    1.000,"PART-1-1",           606,          -15.,        -26.25,            0.,NA,NA,"",   6.25080E-03,  -4.44856E-03,  -4.39121E-03,   912.615E-06
C:/temp/dataset/6/7_20.odb,Step-1,Increment      1: Step Time =    1.000,"PART-1-1",           607,         -8.75,          -30.,            0.,NA,NA,"",            0.,  -223.197E-42,  -1.39731E-39,   771.477E-06
C:/temp/dataset/6/7_20.odb,Step-1,Increment      1: Step Time =    1.000,"PART-1-1",           608,          -15.,        -18.75,            0.,NA,NA,"",   10.3661E-03,  -7.96507E-03,  -6.63426E-03,   402.766E-06
C:/temp/dataset/6/7_20.odb,Step-1,Increment      1: Step Time =    1.000,"PART-1-1",           609,      -12.5734,      -18.8685,            0.,NA,NA,"",   11.4125E-03,  -7.96478E-03,  -8.17353E-03,   837.814E-06
C:/temp/dataset/6/7_20.odb,Step-1,Increment      1: Step Time =    1.000,"PART-1-1",           610,           -5.,      -11.2063,            0.,NA,NA,"",   42.7747E-03,   10.5412E-03,  -41.4555E-03,   4.57401E-03
C:/temp/dataset/6/7_20.odb,Step-1,Increment      1: Step Time =    1.000,"PART-1-1",           611,      -7.25264,      -11.4522,            0.,NA,NA,"",   32.4037E-03,   5.85097E-03,  -31.8710E-03,   3.18523E-03
C:/temp/dataset/6/7_20.odb,Step-1,Increment      1: Step Time =    1.000,"PART-1-1",           612,           -5.,      -6.23750,            0.,NA,NA,"",   73.6458E-03,   33.5910E-03,  -65.5389E-03,   7.46073E-03
C:/temp/dataset/6/7_20.odb,Step-1,Increment      1: Step Time =    1.000,"PART-1-1",           613,      -6.16987,      -5.46941,            0.,NA,NA,"",   68.5804E-03,   35.1815E-03,  -58.8688E-03,   4.74655E-03
C:/temp/dataset/6/7_20.odb,Step-1,Increment      1: Step Time =    1.000,"PART-1-1",           614,      -7.24309,      -6.98789,            0.,NA,NA,"",   51.7964E-03,   25.4202E-03,  -45.1296E-03,   2.92016E-03
C:/temp/dataset/6/7_20.odb,Step-1,Increment      1: Step Time =    1.000,"PART-1-1",           615,           -5.,       16.4583,            0.,NA,NA,"",   291.164E-03,   277.407E-03,  -88.4403E-03,   3.62880E-06
C:/temp/dataset/6/7_20.odb,Step-1,Increment      1: Step Time =    1.000,"PART-1-1",           616,      -7.23328,       16.4840,            0.,NA,NA,"",   284.950E-03,   277.837E-03,  -63.2704E-03,   3.61061E-06
C:/temp/dataset/6/7_20.odb,Step-1,Increment      1: Step Time =    1.000,"PART-1-1",           617,      -6.08867,       15.3700,            0.,NA,NA,"",   275.907E-03,   265.205E-03,  -76.0972E-03,   3.91790E-06
C:/temp/dataset/6/7_20.odb,Step-1,Increment      1: Step Time =    1.000,"PART-1-1",           618,      -13.1522,       16.1892,            0.,NA,NA,"",   274.923E-03,   274.901E-03,   3.47533E-03,   3.62141E-06
C:/temp/dataset/6/7_20.odb,Step-1,Increment      1: Step Time =    1.000,"PART-1-1",           619,      -14.0864,       17.4486,            0.,NA,NA,"",   289.491E-03,   289.156E-03,   13.9279E-03,   1.69889E-06
C:/temp/dataset/6/7_20.odb,Step-1,Increment      1: Step Time =    1.000,"PART-1-1",           620,          -15.,         16.25,            0.,NA,NA,"",   276.772E-03,   275.702E-03,   24.3067E-03,   3.89413E-06
C:/temp/dataset/6/7_20.odb,Step-1,Increment      1: Step Time =    1.000,"PART-1-1",           621,           -5.,       24.7917,            0.,NA,NA,"",   381.866E-03,   371.356E-03,  -88.9745E-03,   47.1676E-09
C:/temp/dataset/6/7_20.odb,Step-1,Increment      1: Step Time =    1.000,"PART-1-1",           622,      -6.14442,       25.7689,            0.,NA,NA,"",   389.949E-03,   382.445E-03,  -76.1350E-03,   21.6687E-09
C:/temp/dataset/6/7_20.odb,Step-1,Increment      1: Step Time =    1.000,"PART-1-1",           623,           -5.,        26.875,            0.,NA,NA,"",   404.772E-03,   394.842E-03,  -89.1068E-03,   26.7468E-09
C:/temp/dataset/6/7_20.odb,Step-1,Increment      1: Step Time =    1.000,"PART-1-1",           624,      -7.36924,       26.7689,            0.,NA,NA,"",   398.709E-03,   393.797E-03,  -62.3907E-03,   17.8897E-09
C:/temp/dataset/6/7_20.odb,Step-1,Increment      1: Step Time =    1.000,"PART-1-1",           625,      -13.1175,       20.9132,            0.,NA,NA,"",   328.161E-03,   328.150E-03,   2.78346E-03,   507.810E-09
C:/temp/dataset/6/7_20.odb,Step-1,Increment      1: Step Time =    1.000,"PART-1-1",           626,      -14.0212,       22.2867,            0.,NA,NA,"",   343.932E-03,   343.690E-03,   12.8841E-03,   94.0669E-09
C:/temp/dataset/6/7_20.odb,Step-1,Increment      1: Step Time =    1.000,"PART-1-1",           627,          -15.,         21.25,            0.,NA,NA,"",   332.931E-03,   332.066E-03,   23.9838E-03,   159.868E-09
C:/temp/dataset/6/7_20.odb,Step-1,Increment      1: Step Time =    1.000,"PART-1-1",           628,      -14.0963,       19.8765,            0.,NA,NA,"",   316.830E-03,   316.525E-03,   13.8836E-03,   465.250E-09
C:/temp/dataset/6/7_20.odb,Step-1,Increment      1: Step Time =    1.000,"PART-1-1",           629,         -1.25,           -5.,            0.,NA,NA,"",   146.076E-03,   38.6043E-03,  -140.883E-03,   2.78436E-03
C:/temp/dataset/6/7_20.odb,Step-1,Increment      1: Step Time =    1.000,"PART-1-1",           630,      -1.77292,      -3.03732,            0.,NA,NA,"",   148.165E-03,   62.5994E-03,  -134.292E-03,   3.36675E-03
C:/temp/dataset/6/7_20.odb,Step-1,Increment      1: Step Time =    1.000,"PART-1-1",           631,      -12.1053,      -2.30059,            0.,NA,NA,"",   66.1433E-03,   65.6900E-03,  -7.73087E-03,   838.052E-06
C:/temp/dataset/6/7_20.odb,Step-1,Increment      1: Step Time =    1.000,"PART-1-1",           632,      -10.7648,      -1.40855,            0.,NA,NA,"",   77.7273E-03,   75.0281E-03,  -20.3057E-03,   870.803E-06
C:/temp/dataset/6/7_20.odb,Step-1,Increment      1: Step Time =    1.000,"PART-1-1",           633,      -11.5438,  -354.672E-03,            0.,NA,NA,"",   87.5431E-03,   86.5802E-03,  -12.9489E-03,   790.444E-06
C:/temp/dataset/6/7_20.odb,Step-1,Increment      1: Step Time =    1.000,"PART-1-1",           634,          3.75,           -5.,            0.,NA,NA,"",   204.154E-03,   66.6910E-03,  -192.954E-03,   8.69315E-03
C:/temp/dataset/6/7_20.odb,Step-1,Increment      1: Step Time =    1.000,"PART-1-1",           635,       4.52066,      -3.83856,            0.,NA,NA,"",   209.288E-03,   71.9955E-03,  -196.515E-03,   7.65635E-03
C:/temp/dataset/6/7_20.odb,Step-1,Increment      1: Step Time =    1.000,"PART-1-1",           636,       2.94662,      -2.72704,            0.,NA,NA,"",   207.140E-03,   71.5703E-03,  -194.383E-03,   2.74274E-03
C:/temp/dataset/6/7_20.odb,Step-1,Increment      1: Step Time =    1.000,"PART-1-1",           637,       1.50395,       2.56821,            0.,NA,NA,"",   213.760E-03,   113.588E-03,  -181.083E-03,   3.54835E-03
C:/temp/dataset/6/7_20.odb,Step-1,Increment      1: Step Time =    1.000,"PART-1-1",           638,          1.25,            5.,            0.,NA,NA,"",   229.143E-03,   147.568E-03,  -175.300E-03,   1.58622E-03
C:/temp/dataset/6/7_20.odb,Step-1,Increment      1: Step Time =    1.000,"PART-1-1",           639,          6.25,            5.,            0.,NA,NA,"",   320.817E-03,   135.176E-03,  -290.949E-03,   17.2335E-03
C:/temp/dataset/6/7_20.odb,Step-1,Increment      1: Step Time =    1.000,"PART-1-1",           640,  -213.968E-03,      -26.0734,            0.,NA,NA,"",   1.97030E-03,  -1.33388E-03,  -1.45011E-03,   720.856E-06
C:/temp/dataset/6/7_20.odb,Step-1,Increment      1: Step Time =    1.000,"PART-1-1",           641,       1.14210,      -23.8512,            0.,NA,NA,"",   3.73763E-03,   908.218E-06,  -3.62560E-03,   538.663E-06
C:/temp/dataset/6/7_20.odb,Step-1,Increment      1: Step Time =    1.000,"PART-1-1",           642,  -234.527E-03,      -23.9674,            0.,NA,NA,"",   1.91534E-03,   804.179E-06,  -1.73833E-03,   453.195E-06
C:/temp/dataset/6/7_20.odb,Step-1,Increment      1: Step Time =    1.000,"PART-1-1",           643,           -5.,        14.375,            0.,NA,NA,"",   268.837E-03,   253.922E-03,  -88.2978E-03,   9.00564E-06
C:/temp/dataset/6/7_20.odb,Step-1,Increment      1: Step Time =    1.000,"PART-1-1",           644,      -7.14364,       14.2292,            0.,NA,NA,"",   260.433E-03,   252.412E-03,  -64.1379E-03,   5.74085E-06
C:/temp/dataset/6/7_20.odb,Step-1,Increment      1: Step Time =    1.000,"PART-1-1",           645,           -5.,       6.04167,            0.,NA,NA,"",   183.252E-03,   160.809E-03,  -87.8735E-03,   587.478E-06
C:/temp/dataset/6/7_20.odb,Step-1,Increment      1: Step Time =    1.000,"PART-1-1",           646,      -5.82078,       6.95384,            0.,NA,NA,"",   188.100E-03,   170.874E-03,  -78.6345E-03,   151.390E-06
C:/temp/dataset/6/7_20.odb,Step-1,Increment      1: Step Time =    1.000,"PART-1-1",           647,      -6.45742,       5.85906,            0.,NA,NA,"",   174.182E-03,   158.904E-03,  -71.3356E-03,   478.867E-06
C:/temp/dataset/6/7_20.odb,Step-1,Increment      1: Step Time =    1.000,"PART-1-1",           648,      -5.63664,       4.94688,            0.,NA,NA,"",   169.646E-03,   149.207E-03,  -80.7294E-03,   741.667E-06
C:/temp/dataset/6/7_20.odb,Step-1,Increment      1: Step Time =    1.000,"PART-1-1",           649,           -5.,         8.125,            0.,NA,NA,"",   203.594E-03,   183.706E-03,  -87.7651E-03,   40.0254E-06
C:/temp/dataset/6/7_20.odb,Step-1,Increment      1: Step Time =    1.000,"PART-1-1",           650,      -5.96903,       9.00386,            0.,NA,NA,"",   208.334E-03,   193.580E-03,  -77.0035E-03,   25.3848E-06
C:/temp/dataset/6/7_20.odb,Step-1,Increment      1: Step Time =    1.000,"PART-1-1",           651,          -15.,         -3.75,            0.,NA,NA,"",   55.8858E-03,   53.1666E-03,   17.2200E-03,   2.09679E-03
C:/temp/dataset/6/7_20.odb,Step-1,Increment      1: Step Time =    1.000,"PART-1-1",           652,      -12.7846,      -3.59401,            0.,NA,NA,"",   53.1270E-03,   53.0793E-03,  -2.24988E-03,   933.805E-06
C:/temp/dataset/6/7_20.odb,Step-1,Increment      1: Step Time =    1.000,"PART-1-1",           653,      -11.5430,      -4.20540,            0.,NA,NA,"",   48.7020E-03,   46.9283E-03,  -13.0236E-03,   580.634E-06
C:/temp/dataset/6/7_20.odb,Step-1,Increment      1: Step Time =    1.000,"PART-1-1",           654,      -10.1018,      -4.29084,            0.,NA,NA,"",   52.2718E-03,   45.8484E-03,  -25.1051E-03,   807.970E-06
C:/temp/dataset/6/7_20.odb,Step-1,Increment      1: Step Time =    1.000,"PART-1-1",           655,          -15.,        -11.25,            0.,NA,NA,"",   5.10242E-03,   4.83617E-03,   1.62668E-03,   1.97118E-03
C:/temp/dataset/6/7_20.odb,Step-1,Increment      1: Step Time =    1.000,"PART-1-1",           656,      -12.2331,      -11.1785,            0.,NA,NA,"",   10.4867E-03,   3.73230E-03,  -9.80002E-03,   646.093E-06
C:/temp/dataset/6/7_20.odb,Step-1,Increment      1: Step Time =    1.000,"PART-1-1",           657,       5.21391,      -1.02834,            0.,NA,NA,"",   233.640E-03,   87.9839E-03,  -216.440E-03,   8.58747E-03
C:/temp/dataset/6/7_20.odb,Step-1,Increment      1: Step Time =    1.000,"PART-1-1",           658,       6.72319,      -1.59046,            0.,NA,NA,"",   235.672E-03,   95.0256E-03,  -215.665E-03,   12.2953E-03
C:/temp/dataset/6/7_20.odb,Step-1,Increment      1: Step Time =    1.000,"PART-1-1",           659,       10.9187,      -16.2245,            0.,NA,NA,"",   120.452E-03,   66.7967E-03,  -100.234E-03,   8.26856E-03
C:/temp/dataset/6/7_20.odb,Step-1,Increment      1: Step Time =    1.000,"PART-1-1",           660,       11.9858,      -14.8752,            0.,NA,NA,"",   138.776E-03,   78.1691E-03,  -114.666E-03,   8.03929E-03
C:/temp/dataset/6/7_20.odb,Step-1,Increment      1: Step Time =    1.000,"PART-1-1",           661,       10.9746,      -13.7451,            0.,NA,NA,"",   143.468E-03,   80.5141E-03,  -118.746E-03,   8.18898E-03
C:/temp/dataset/6/7_20.odb,Step-1,Increment      1: Step Time =    1.000,"PART-1-1",           662,       11.9830,      -12.5543,            0.,NA,NA,"",   159.078E-03,   89.9913E-03,  -131.176E-03,   7.84721E-03
C:/temp/dataset/6/7_20.odb,Step-1,Increment      1: Step Time =    1.000,"PART-1-1",           663,           15.,      -20.1563,            0.,NA,NA,"",   107.999E-03,   59.0350E-03,  -90.4358E-03,   8.81955E-03
C:/temp/dataset/6/7_20.odb,Step-1,Increment      1: Step Time =    1.000,"PART-1-1",           664,       14.0841,      -19.1367,            0.,NA,NA,"",   111.710E-03,   61.3414E-03,  -93.3610E-03,   8.50102E-03
C:/temp/dataset/6/7_20.odb,Step-1,Increment      1: Step Time =    1.000,"PART-1-1",           665,       13.0385,      -20.2889,            0.,NA,NA,"",   94.0004E-03,   50.5356E-03,  -79.2605E-03,   8.69593E-03
C:/temp/dataset/6/7_20.odb,Step-1,Increment      1: Step Time =    1.000,"PART-1-1",           666,           15.,      -17.9688,            0.,NA,NA,"",   128.864E-03,   71.5394E-03,  -107.182E-03,   8.18912E-03
C:/temp/dataset/6/7_20.odb,Step-1,Increment      1: Step Time =    1.000,"PART-1-1",           667,          1.25,          -30.,            0.,NA,NA,"",            0.,  -1.15016E-39,  -2.55226E-39,   1.74520E-03
C:/temp/dataset/6/7_20.odb,Step-1,Increment      1: Step Time =    1.000,"PART-1-1",           668,       3.30543,      -22.6598,            0.,NA,NA,"",   12.9273E-03,   4.45480E-03,  -12.1355E-03,   2.04708E-03
C:/temp/dataset/6/7_20.odb,Step-1,Increment      1: Step Time =    1.000,"PART-1-1",           669,       2.86115,      -24.1329,            0.,NA,NA,"",   8.19191E-03,   503.987E-06,  -8.17639E-03,   1.88093E-03
C:/temp/dataset/6/7_20.odb,Step-1,Increment      1: Step Time =    1.000,"PART-1-1",           670,      -10.6801,      -21.6169,            0.,NA,NA,"",   9.69880E-03,  -5.98725E-03,  -7.63017E-03,   1.41567E-03
C:/temp/dataset/6/7_20.odb,Step-1,Increment      1: Step Time =    1.000,"PART-1-1",           671,      -11.3394,      -20.4213,            0.,NA,NA,"",   10.9417E-03,  -7.08585E-03,  -8.33733E-03,   1.22668E-03
C:/temp/dataset/6/7_20.odb,Step-1,Increment      1: Step Time =    1.000,"PART-1-1",           672,      -12.1593,      -22.4638,            0.,NA,NA,"",   8.81640E-03,  -6.16468E-03,  -6.30283E-03,   1.05867E-03
C:/temp/dataset/6/7_20.odb,Step-1,Increment      1: Step Time =    1.000,"PART-1-1",           673,      -9.92443,      -16.4516,            0.,NA,NA,"",   15.4313E-03,  -6.37494E-03,  -14.0530E-03,   1.57035E-03
C:/temp/dataset/6/7_20.odb,Step-1,Increment      1: Step Time =    1.000,"PART-1-1",           674,      -8.71114,      -17.7111,            0.,NA,NA,"",   15.6909E-03,  -6.18764E-03,  -14.4194E-03,   1.90210E-03
C:/temp/dataset/6/7_20.odb,Step-1,Increment      1: Step Time =    1.000,"PART-1-1",           675,      -9.25100,      -7.50767,            0.,NA,NA,"",   36.1601E-03,   21.4629E-03,  -29.1014E-03,   1.58812E-03
C:/temp/dataset/6/7_20.odb,Step-1,Increment      1: Step Time =    1.000,"PART-1-1",           676,      -8.32615,      -6.25855,            0.,NA,NA,"",   48.2159E-03,   29.8320E-03,  -37.8791E-03,   2.00551E-03
C:/temp/dataset/6/7_20.odb,Step-1,Increment      1: Step Time =    1.000,"PART-1-1",           677,      -7.58018,      -5.09368,            0.,NA,NA,"",   60.2710E-03,   38.4787E-03,  -46.3895E-03,   2.24274E-03
C:/temp/dataset/6/7_20.odb,Step-1,Increment      1: Step Time =    1.000,"PART-1-1",           678,      -6.67379,      -3.84489,            0.,NA,NA,"",   76.9153E-03,   50.6600E-03,  -57.8751E-03,   2.99881E-03
C:/temp/dataset/6/7_20.odb,Step-1,Increment      1: Step Time =    1.000,"PART-1-1",           679,      -2.40491,      -1.03021,            0.,NA,NA,"",   149.972E-03,   82.9517E-03,  -124.942E-03,   3.82627E-03
C:/temp/dataset/6/7_20.odb,Step-1,Increment      1: Step Time =    1.000,"PART-1-1",           680,      -3.32453,      -2.14711,            0.,NA,NA,"",   131.366E-03,   71.8837E-03,  -109.954E-03,   3.89235E-03
C:/temp/dataset/6/7_20.odb,Step-1,Increment      1: Step Time =    1.000,"PART-1-1",           681,       10.4745,      -24.8101,            0.,NA,NA,"",   37.2529E-03,   16.2105E-03,  -33.5410E-03,   8.38014E-03
C:/temp/dataset/6/7_20.odb,Step-1,Increment      1: Step Time =    1.000,"PART-1-1",           682,       8.16019,      -23.0435,            0.,NA,NA,"",   41.1458E-03,   15.8346E-03,  -37.9769E-03,   7.81647E-03
C:/temp/dataset/6/7_20.odb,Step-1,Increment      1: Step Time =    1.000,"PART-1-1",           683,       9.40124,      -23.8494,            0.,NA,NA,"",   40.6170E-03,   16.6241E-03,  -37.0591E-03,   8.03985E-03
C:/temp/dataset/6/7_20.odb,Step-1,Increment      1: Step Time =    1.000,"PART-1-1",           684,       5.67200,      -27.0943,            0.,NA,NA,"",   8.99430E-03,  -1.57382E-03,  -8.85553E-03,   4.00567E-03
C:/temp/dataset/6/7_20.odb,Step-1,Increment      1: Step Time =    1.000,"PART-1-1",           685,       4.86106,      -26.0050,            0.,NA,NA,"",   10.6162E-03,  -1.20418E-03,  -10.5477E-03,   3.50353E-03
C:/temp/dataset/6/7_20.odb,Step-1,Increment      1: Step Time =    1.000,"PART-1-1",           686,      -2.55341,      -23.8484,            0.,NA,NA,"",   1.73032E-03,   980.162E-06,  -1.42593E-03,   912.174E-06
C:/temp/dataset/6/7_20.odb,Step-1,Increment      1: Step Time =    1.000,"PART-1-1",           687,      -4.82130,      -23.8875,            0.,NA,NA,"",   3.24148E-03,   151.078E-06,  -3.23796E-03,   1.29168E-03
C:/temp/dataset/6/7_20.odb,Step-1,Increment      1: Step Time =    1.000,"PART-1-1",           688,      -5.84083,      -25.1777,            0.,NA,NA,"",   2.93046E-03,  -548.216E-06,  -2.87873E-03,   994.882E-06
C:/temp/dataset/6/7_20.odb,Step-1,Increment      1: Step Time =    1.000,"PART-1-1",           689,           15.,      -26.7188,            0.,NA,NA,"",   43.4109E-03,   26.1283E-03,  -34.6673E-03,   10.3256E-03
C:/temp/dataset/6/7_20.odb,Step-1,Increment      1: Step Time =    1.000,"PART-1-1",           690,       10.9874,      -11.4075,            0.,NA,NA,"",   163.899E-03,   91.7286E-03,  -135.826E-03,   8.06408E-03
C:/temp/dataset/6/7_20.odb,Step-1,Increment      1: Step Time =    1.000,"PART-1-1",           691,       7.29436,      -19.7763,            0.,NA,NA,"",   65.5216E-03,   32.4055E-03,  -56.9470E-03,   8.17058E-03
C:/temp/dataset/6/7_20.odb,Step-1,Increment      1: Step Time =    1.000,"PART-1-1",           692,       7.78340,      -18.7858,            0.,NA,NA,"",   77.9605E-03,   40.1861E-03,  -66.8051E-03,   8.07745E-03
C:/temp/dataset/6/7_20.odb,Step-1,Increment      1: Step Time =    1.000,"PART-1-1",           693,       10.8970,      -2.99004,            0.,NA,NA,"",   230.620E-03,   118.462E-03,  -197.869E-03,   9.46147E-03
C:/temp/dataset/6/7_20.odb,Step-1,Increment      1: Step Time =    1.000,"PART-1-1",           694,       12.0828,      -3.88727,            0.,NA,NA,"",   225.478E-03,   120.884E-03,  -190.335E-03,   7.74751E-03
C:/temp/dataset/6/7_20.odb,Step-1,Increment      1: Step Time =    1.000,"PART-1-1",           695,           15.,       1.71875,            0.,NA,NA,"",   245.286E-03,   134.578E-03,  -205.071E-03,   559.692E-06
C:/temp/dataset/6/7_20.odb,Step-1,Increment      1: Step Time =    1.000,"PART-1-1",           696,       4.00043,  -427.215E-03,            0.,NA,NA,"",   228.076E-03,   87.0529E-03,  -210.809E-03,   5.76343E-03
C:/temp/dataset/6/7_20.odb,Step-1,Increment      1: Step Time =    1.000,"PART-1-1",           697,       2.09609,       1.00148,            0.,NA,NA,"",   213.577E-03,   96.5682E-03,  -190.499E-03,   4.57230E-03
C:/temp/dataset/6/7_20.odb,Step-1,Increment      1: Step Time =    1.000,"PART-1-1",           698,       2.38138,  -554.063E-03,            0.,NA,NA,"",   210.634E-03,   84.4221E-03,  -192.975E-03,   3.78761E-03
C:/temp/dataset/6/7_20.odb,Step-1,Increment      1: Step Time =    1.000,"PART-1-1",           699,   35.7305E-03,       2.11113,            0.,NA,NA,"",   195.080E-03,   111.621E-03,  -159.991E-03,   3.00790E-03
C:/temp/dataset/6/7_20.odb,Step-1,Increment      1: Step Time =    1.000,"PART-1-1",           700,           -5.,       10.2083,            0.,NA,NA,"",   224.945E-03,   207.030E-03,  -87.9711E-03,   25.0111E-06
C:/temp/dataset/6/7_20.odb,Step-1,Increment      1: Step Time =    1.000,"PART-1-1",           701,      -6.99901,       9.90050,            0.,NA,NA,"",   213.956E-03,   203.685E-03,  -65.4949E-03,   26.8357E-06
C:/temp/dataset/6/7_20.odb,Step-1,Increment      1: Step Time =    1.000,"PART-1-1",           702,      -11.2396,       16.2208,            0.,NA,NA,"",   275.728E-03,   275.134E-03,  -18.0948E-03,   3.93377E-06
C:/temp/dataset/6/7_20.odb,Step-1,Increment      1: Step Time =    1.000,"PART-1-1",           703,      -10.2112,       15.1096,            0.,NA,NA,"",   264.204E-03,   262.538E-03,  -29.6228E-03,   5.00423E-06
C:/temp/dataset/6/7_20.odb,Step-1,Increment      1: Step Time =    1.000,"PART-1-1",           704,      -9.25876,       16.3324,            0.,NA,NA,"",   279.203E-03,   276.260E-03,  -40.4329E-03,   3.96782E-06
C:/temp/dataset/6/7_20.odb,Step-1,Increment      1: Step Time =    1.000,"PART-1-1",           705,      -10.2871,       17.4437,            0.,NA,NA,"",   290.299E-03,   288.856E-03,  -28.9083E-03,   2.53388E-06
C:/temp/dataset/6/7_20.odb,Step-1,Increment      1: Step Time =    1.000,"PART-1-1",           706,      -8.19479,       15.2434,            0.,NA,NA,"",   269.056E-03,   263.913E-03,  -52.3581E-03,   4.56926E-06
C:/temp/dataset/6/7_20.odb,Step-1,Increment      1: Step Time =    1.000,"PART-1-1",           707,      -9.19446,       14.0222,            0.,NA,NA,"",   253.552E-03,   250.212E-03,  -41.0200E-03,   5.77638E-06
C:/temp/dataset/6/7_20.odb,Step-1,Increment      1: Step Time =    1.000,"PART-1-1",           708,      -8.14331,       13.0080,            0.,NA,NA,"",   244.483E-03,   238.713E-03,  -52.8028E-03,   5.63452E-06
C:/temp/dataset/6/7_20.odb,Step-1,Increment      1: Step Time =    1.000,"PART-1-1",           709,          -15.,         18.75,            0.,NA,NA,"",   304.842E-03,   303.884E-03,   24.1435E-03,   1.07099E-06
C:/temp/dataset/6/7_20.odb,Step-1,Increment      1: Step Time =    1.000,"PART-1-1",           710,      -13.1826,       18.5751,            0.,NA,NA,"",   301.819E-03,   301.797E-03,   3.66659E-03,   1.54879E-06
C:/temp/dataset/6/7_20.odb,Step-1,Increment      1: Step Time =    1.000,"PART-1-1",           711,      -11.2313,       23.3702,            0.,NA,NA,"",   356.216E-03,   355.728E-03,  -18.6360E-03,   151.172E-09
C:/temp/dataset/6/7_20.odb,Step-1,Increment      1: Step Time =    1.000,"PART-1-1",           712,      -10.8173,       24.9058,            0.,NA,NA,"",   373.745E-03,   373.012E-03,  -23.4012E-03,   40.6441E-09
C:/temp/dataset/6/7_20.odb,Step-1,Increment      1: Step Time =    1.000,"PART-1-1",           713,      -13.5418,       24.7667,            0.,NA,NA,"",   371.690E-03,   371.618E-03,   7.32168E-03,   23.7185E-09
C:/temp/dataset/6/7_20.odb,Step-1,Increment      1: Step Time =    1.000,"PART-1-1",           714,      -12.2278,       25.9824,            0.,NA,NA,"",   385.312E-03,   385.238E-03,  -7.56881E-03,   15.7184E-09
C:/temp/dataset/6/7_20.odb,Step-1,Increment      1: Step Time =    1.000,"PART-1-1",           715,          -15.,         26.25,            0.,NA,NA,"",   389.152E-03,   388.432E-03,   23.6663E-03,   30.7201E-09
C:/temp/dataset/6/7_20.odb,Step-1,Increment      1: Step Time =    1.000,"PART-1-1",           716,          -15.,         23.75,            0.,NA,NA,"",   361.035E-03,   360.248E-03,   23.8250E-03,   30.7858E-09
C:/temp/dataset/6/7_20.odb,Step-1,Increment      1: Step Time =    1.000,"PART-1-1",           717,      -12.5630,       23.3034,            0.,NA,NA,"",   355.078E-03,   355.059E-03,  -3.61934E-03,   121.193E-09
C:/temp/dataset/6/7_20.odb,Step-1,Increment      1: Step Time =    1.000,"PART-1-1",           718,      -11.1827,       13.8735,            0.,NA,NA,"",   249.362E-03,   248.668E-03,  -18.5953E-03,   5.29167E-06
C:/temp/dataset/6/7_20.odb,Step-1,Increment      1: Step Time =    1.000,"PART-1-1",           719,      -10.1659,       12.7861,            0.,NA,NA,"",   238.238E-03,   236.342E-03,  -29.9969E-03,   6.38234E-06
C:/temp/dataset/6/7_20.odb,Step-1,Increment      1: Step Time =    1.000,"PART-1-1",           720,      -11.4858,       20.4947,            0.,NA,NA,"",   323.703E-03,   323.328E-03,  -15.5854E-03,   758.630E-09
C:/temp/dataset/6/7_20.odb,Step-1,Increment      1: Step Time =    1.000,"PART-1-1",           721,      -10.4732,       19.7487,            0.,NA,NA,"",   316.004E-03,   314.852E-03,  -26.9536E-03,   981.713E-09
C:/temp/dataset/6/7_20.odb,Step-1,Increment      1: Step Time =    1.000,"PART-1-1",           722,      -10.9778,       21.7959,            0.,NA,NA,"",   338.640E-03,   337.963E-03,  -21.3944E-03,   355.048E-09
C:/temp/dataset/6/7_20.odb,Step-1,Increment      1: Step Time =    1.000,"PART-1-1",           723,      -9.13796,       11.7463,            0.,NA,NA,"",   228.366E-03,   224.559E-03,  -41.5212E-03,   10.3102E-06
C:/temp/dataset/6/7_20.odb,Step-1,Increment      1: Step Time =    1.000,"PART-1-1",           724,      -11.1090,       11.4975,            0.,NA,NA,"",   222.703E-03,   221.867E-03,  -19.2819E-03,   11.2993E-06
C:/temp/dataset/6/7_20.odb,Step-1,Increment      1: Step Time =    1.000,"PART-1-1",           725,      -7.95801,       5.48811,            0.,NA,NA,"",   163.483E-03,   154.327E-03,  -53.9417E-03,   457.385E-06
C:/temp/dataset/6/7_20.odb,Step-1,Increment      1: Step Time =    1.000,"PART-1-1",           726,      -9.27172,       5.51676,            0.,NA,NA,"",   159.178E-03,   154.299E-03,  -39.1067E-03,   372.398E-06
C:/temp/dataset/6/7_20.odb,Step-1,Increment      1: Step Time =    1.000,"PART-1-1",           727,      -9.10783,       4.19071,            0.,NA,NA,"",   144.927E-03,   139.172E-03,  -40.4357E-03,   531.705E-06
C:/temp/dataset/6/7_20.odb,Step-1,Increment      1: Step Time =    1.000,"PART-1-1",           728,      -7.79412,       4.16207,            0.,NA,NA,"",   149.868E-03,   139.308E-03,  -55.2624E-03,   589.894E-06
C:/temp/dataset/6/7_20.odb,Step-1,Increment      1: Step Time =    1.000,"PART-1-1",           729,      -10.3652,   710.465E-03,            0.,NA,NA,"",   101.907E-03,   98.7473E-03,  -25.1810E-03,   835.802E-06
C:/temp/dataset/6/7_20.odb,Step-1,Increment      1: Step Time =    1.000,"PART-1-1",           730,      -11.5756,       2.14983,            0.,NA,NA,"",   115.797E-03,   115.073E-03,  -12.9313E-03,   610.627E-06
C:/temp/dataset/6/7_20.odb,Step-1,Increment      1: Step Time =    1.000,"PART-1-1",           731,      -10.9514,      -7.70102,            0.,NA,NA,"",   26.5925E-03,   20.1442E-03,  -17.3600E-03,   562.802E-06
C:/temp/dataset/6/7_20.odb,Step-1,Increment      1: Step Time =    1.000,"PART-1-1",           732,      -11.1587,      -15.1039,            0.,NA,NA,"",   13.5927E-03,  -5.52617E-03,  -12.4187E-03,   1.06086E-03
C:/temp/dataset/6/7_20.odb,Step-1,Increment      1: Step Time =    1.000,"PART-1-1",           733,      -11.0422,      -12.5823,            0.,NA,NA,"",   14.4158E-03,  -500.656E-06,  -14.4071E-03,   1.03193E-03
C:/temp/dataset/6/7_20.odb,Step-1,Increment      1: Step Time =    1.000,"PART-1-1",           734,      -9.98828,      -19.2456,            0.,NA,NA,"",   12.7870E-03,  -6.87205E-03,  -10.7834E-03,   1.57547E-03
C:/temp/dataset/6/7_20.odb,Step-1,Increment      1: Step Time =    1.000,"PART-1-1",           735,      -11.2222,      -17.6929,            0.,NA,NA,"",   12.9698E-03,  -7.54010E-03,  -10.5529E-03,   1.14581E-03
C:/temp/dataset/6/7_20.odb,Step-1,Increment      1: Step Time =    1.000,"PART-1-1",           736,      -9.72809,       26.4627,            0.,NA,NA,"",   392.130E-03,   390.495E-03,  -35.7790E-03,   14.8356E-09
C:/temp/dataset/6/7_20.odb,Step-1,Increment      1: Step Time =    1.000,"PART-1-1",           737,      -8.07960,       10.7858,            0.,NA,NA,"",   220.255E-03,   213.688E-03,  -53.3851E-03,   11.3565E-06
C:/temp/dataset/6/7_20.odb,Step-1,Increment      1: Step Time =    1.000,"PART-1-1",           738,      -11.3320,       18.4953,            0.,NA,NA,"",   301.270E-03,   300.779E-03,  -17.1936E-03,   1.90471E-06
C:/temp/dataset/6/7_20.odb,Step-1,Increment      1: Step Time =    1.000,"PART-1-1",           739,      -10.4893,       6.32554,            0.,NA,NA,"",   165.312E-03,   163.304E-03,  -25.6902E-03,   271.517E-06
C:/temp/dataset/6/7_20.odb,Step-1,Increment      1: Step Time =    1.000,"PART-1-1",           740,      -11.8356,       7.66802,            0.,NA,NA,"",   178.865E-03,   178.539E-03,  -10.7940E-03,   102.218E-06
C:/temp/dataset/6/7_20.odb,Step-1,Increment      1: Step Time =    1.000,"PART-1-1",           741,      -11.4125,       4.87054,            0.,NA,NA,"",   147.298E-03,   146.517E-03,  -15.1479E-03,   345.831E-06
C:/temp/dataset/6/7_20.odb,Step-1,Increment      1: Step Time =    1.000,"PART-1-1",           742,       10.1911,      -5.79504,            0.,NA,NA,"",   205.733E-03,   107.493E-03,  -175.418E-03,   8.84056E-03
C:/temp/dataset/6/7_20.odb,Step-1,Increment      1: Step Time =    1.000,"PART-1-1",           743,       9.10708,      -6.74300,            0.,NA,NA,"",   194.433E-03,   100.451E-03,  -166.475E-03,   9.07237E-03
C:/temp/dataset/6/7_20.odb,Step-1,Increment      1: Step Time =    1.000,"PART-1-1",           744,       11.1638,      -4.94873,            0.,NA,NA,"",   215.310E-03,   113.995E-03,  -182.657E-03,   8.45597E-03
C:/temp/dataset/6/7_20.odb,Step-1,Increment      1: Step Time =    1.000,"PART-1-1",           745,       10.4293,      -4.08570,            0.,NA,NA,"",   220.428E-03,   112.883E-03,  -189.330E-03,   9.47311E-03
C:/temp/dataset/6/7_20.odb,Step-1,Increment      1: Step Time =    1.000,"PART-1-1",           746,       9.97038,      -14.8971,            0.,NA,NA,"",   127.558E-03,   70.7462E-03,  -106.142E-03,   8.45010E-03
C:/temp/dataset/6/7_20.odb,Step-1,Increment      1: Step Time =    1.000,"PART-1-1",           747,       9.96577,      -12.5508,            0.,NA,NA,"",   148.974E-03,   82.7371E-03,  -123.886E-03,   8.46936E-03
C:/temp/dataset/6/7_20.odb,Step-1,Increment      1: Step Time =    1.000,"PART-1-1",           748,       8.96159,      -13.7029,            0.,NA,NA,"",   133.217E-03,   73.2159E-03,  -111.293E-03,   8.73888E-03
C:/temp/dataset/6/7_20.odb,Step-1,Increment      1: Step Time =    1.000,"PART-1-1",           749,       6.92617,      -22.4012,            0.,NA,NA,"",   39.0783E-03,   14.3395E-03,  -36.3523E-03,   7.24355E-03
C:/temp/dataset/6/7_20.odb,Step-1,Increment      1: Step Time =    1.000,"PART-1-1",           750,       5.94981,      -23.5281,            0.,NA,NA,"",   25.3662E-03,   6.47962E-03,  -24.5247E-03,   5.76103E-03
C:/temp/dataset/6/7_20.odb,Step-1,Increment      1: Step Time =    1.000,"PART-1-1",           751,       7.18383,      -24.1705,            0.,NA,NA,"",   27.7682E-03,   7.76479E-03,  -26.6605E-03,   6.42659E-03
C:/temp/dataset/6/7_20.odb,Step-1,Increment      1: Step Time =    1.000,"PART-1-1",           752,       11.0968,      -20.2176,            0.,NA,NA,"",   83.3835E-03,   43.4250E-03,  -71.1834E-03,   8.54194E-03
C:/temp/dataset/6/7_20.odb,Step-1,Increment      1: Step Time =    1.000,"PART-1-1",           753,       6.43355,      -20.8801,            0.,NA,NA,"",   48.7160E-03,   21.3652E-03,  -43.7811E-03,   8.04640E-03
C:/temp/dataset/6/7_20.odb,Step-1,Increment      1: Step Time =    1.000,"PART-1-1",           754,       8.96045,      -11.3546,            0.,NA,NA,"",   154.816E-03,   84.4107E-03,  -129.780E-03,   8.78269E-03
C:/temp/dataset/6/7_20.odb,Step-1,Increment      1: Step Time =    1.000,"PART-1-1",           755,       8.17216,      -2.03287,            0.,NA,NA,"",   235.429E-03,   104.419E-03,  -211.006E-03,   12.7239E-03
C:/temp/dataset/6/7_20.odb,Step-1,Increment      1: Step Time =    1.000,"PART-1-1",           756,       9.68046,      -2.49017,            0.,NA,NA,"",   233.521E-03,   113.294E-03,  -204.197E-03,   11.1001E-03
C:/temp/dataset/6/7_20.odb,Step-1,Increment      1: Step Time =    1.000,"PART-1-1",           757,      -5.24373,       2.94722,            0.,NA,NA,"",   152.092E-03,   125.916E-03,  -85.3068E-03,   794.326E-06
C:/temp/dataset/6/7_20.odb,Step-1,Increment      1: Step Time =    1.000,"PART-1-1",           758,      -6.20341,       3.93450,            0.,NA,NA,"",   155.807E-03,   137.281E-03,  -73.6860E-03,   537.298E-06
C:/temp/dataset/6/7_20.odb,Step-1,Increment      1: Step Time =    1.000,"PART-1-1",           759,       7.87036,      -17.0650,            0.,NA,NA,"",   94.9344E-03,   50.8138E-03,  -80.1903E-03,   8.73696E-03
C:/temp/dataset/6/7_20.odb,Step-1,Increment      1: Step Time =    1.000,"PART-1-1",           760,      -8.77165,      -4.61616,            0.,NA,NA,"",   56.1183E-03,   42.8325E-03,  -36.2579E-03,   1.34151E-03
C:/temp/dataset/6/7_20.odb,Step-1,Increment      1: Step Time =    1.000,"PART-1-1",           761,       8.90402,      -15.9271,            0.,NA,NA,"",   111.891E-03,   61.0766E-03,  -93.7510E-03,   8.57153E-03
C:/temp/dataset/6/7_20.odb,Step-1,Increment      1: Step Time =    1.000,"PART-1-1",           762,       7.94609,      -14.8939,            0.,NA,NA,"",   116.241E-03,   63.0174E-03,  -97.6771E-03,   8.96391E-03
C:/temp/dataset/6/7_20.odb,Step-1,Increment      1: Step Time =    1.000,"PART-1-1",           763,      -12.3095,       21.7291,            0.,NA,NA,"",   337.356E-03,   337.296E-03,  -6.37760E-03,   311.127E-09
C:/temp/dataset/6/7_20.odb,Step-1,Increment      1: Step Time =    1.000,"PART-1-1",           764,      -12.2938,       19.6789,            0.,NA,NA,"",   314.248E-03,   314.182E-03,  -6.42436E-03,   887.993E-09
C:/temp/dataset/6/7_20.odb,Step-1,Increment      1: Step Time =    1.000,"PART-1-1",           765,       3.72209,      -1.78065,            0.,NA,NA,"",   217.889E-03,   78.6571E-03,  -203.196E-03,   4.26726E-03
C:/temp/dataset/6/7_20.odb,Step-1,Increment      1: Step Time =    1.000,"PART-1-1",           766,       6.45852,      -3.38063,            0.,NA,NA,"",   215.648E-03,   87.8277E-03,  -196.953E-03,   12.2806E-03
C:/temp/dataset/6/7_20.odb,Step-1,Increment      1: Step Time =    1.000,"PART-1-1",           767,       4.93556,      -2.38177,            0.,NA,NA,"",   221.044E-03,   80.2322E-03,  -205.969E-03,   8.23974E-03
C:/temp/dataset/6/7_20.odb,Step-1,Increment      1: Step Time =    1.000,"PART-1-1",           768,      -2.94024,   945.156E-03,            0.,NA,NA,"",   155.817E-03,   102.987E-03,  -116.930E-03,   2.75191E-03
C:/temp/dataset/6/7_20.odb,Step-1,Increment      1: Step Time =    1.000,"PART-1-1",           769,      -1.69279,      -25.0756,            0.,NA,NA,"",   1.03481E-03,  -94.6580E-06,  -1.03047E-03,   663.399E-06
C:/temp/dataset/6/7_20.odb,Step-1,Increment      1: Step Time =    1.000,"PART-1-1",           770,      -6.93923,      -23.9860,            0.,NA,NA,"",   4.99012E-03,  -1.39867E-03,  -4.79010E-03,   1.50471E-03
C:/temp/dataset/6/7_20.odb,Step-1,Increment      1: Step Time =    1.000,"PART-1-1",           771,      -5.91970,      -22.6959,            0.,NA,NA,"",   5.82283E-03,  -703.445E-06,  -5.78018E-03,   1.91624E-03
C:/temp/dataset/6/7_20.odb,Step-1,Increment      1: Step Time =    1.000,"PART-1-1",           772,      -12.2208,       17.3915,            0.,NA,NA,"",   288.482E-03,   288.394E-03,  -7.10289E-03,   2.32058E-06
C:/temp/dataset/6/7_20.odb,Step-1,Increment      1: Step Time =    1.000,"PART-1-1",           773,      -12.0398,       10.1961,            0.,NA,NA,"",   207.398E-03,   207.216E-03,  -8.69469E-03,   17.1361E-06
C:/temp/dataset/6/7_20.odb,Step-1,Increment      1: Step Time =    1.000,"PART-1-1",           774,      -10.8637,      -2.91198,            0.,NA,NA,"",   62.1949E-03,   59.2335E-03,  -18.9630E-03,   801.610E-06
C:/temp/dataset/6/7_20.odb,Step-1,Increment      1: Step Time =    1.000,"PART-1-1",           775,      -9.61620,      -11.5179,            0.,NA,NA,"",   21.6862E-03,   3.27478E-03,  -21.4375E-03,   1.75769E-03
C:/temp/dataset/6/7_20.odb,Step-1,Increment      1: Step Time =    1.000,"PART-1-1",           776,      -11.8201,      -24.5932,            0.,NA,NA,"",   6.31111E-03,  -4.40443E-03,  -4.52008E-03,   1.13704E-03
C:/temp/dataset/6/7_20.odb,Step-1,Increment      1: Step Time =    1.000,"PART-1-1",           777,      -11.0718,      -23.4296,            0.,NA,NA,"",   7.48653E-03,  -4.89850E-03,  -5.66153E-03,   1.24684E-03
C:/temp/dataset/6/7_20.odb,Step-1,Increment      1: Step Time =    1.000,"PART-1-1",           778,       4.75405,      -23.0816,            0.,NA,NA,"",   20.4382E-03,   5.17258E-03,  -19.7728E-03,   4.39416E-03
C:/temp/dataset/6/7_20.odb,Step-1,Increment      1: Step Time =    1.000,"PART-1-1",           779,       5.55198,      -21.9930,            0.,NA,NA,"",   32.0879E-03,   11.3687E-03,  -30.0065E-03,   6.56827E-03
C:/temp/dataset/6/7_20.odb,Step-1,Increment      1: Step Time =    1.000,"PART-1-1",           780,       7.01336,      -26.0950,            0.,NA,NA,"",   16.0003E-03,   1.84516E-03,  -15.8935E-03,   5.39237E-03
C:/temp/dataset/6/7_20.odb,Step-1,Increment      1: Step Time =    1.000,"PART-1-1",           781,       4.10189,      -23.9882,            0.,NA,NA,"",   13.6520E-03,   1.65648E-03,  -13.5511E-03,   3.17519E-03
C:/temp/dataset/6/7_20.odb,Step-1,Increment      1: Step Time =    1.000,"PART-1-1",           782,       4.14804,      -25.2051,            0.,NA,NA,"",   10.6565E-03,  -691.932E-06,  -10.6341E-03,   3.07246E-03
C:/temp/dataset/6/7_20.odb,Step-1,Increment      1: Step Time =    1.000,"PART-1-1",           783,      -12.1264,       12.6156,            0.,NA,NA,"",   234.675E-03,   234.543E-03,  -7.87158E-03,   5.03663E-06
C:/temp/dataset/6/7_20.odb,Step-1,Increment      1: Step Time =    1.000,"PART-1-1",           784,      -12.1709,       15.0185,            0.,NA,NA,"",   261.749E-03,   261.641E-03,  -7.51787E-03,   4.61391E-06
C:/temp/dataset/6/7_20.odb,Step-1,Increment      1: Step Time =    1.000,"PART-1-1",           785,      -10.3060,       3.43341,            0.,NA,NA,"",   132.859E-03,   130.105E-03,  -26.9112E-03,   587.629E-06
C:/temp/dataset/6/7_20.odb,Step-1,Increment      1: Step Time =    1.000,"PART-1-1",           786,      -9.35047,  -311.861E-03,            0.,NA,NA,"",   94.2758E-03,   87.5077E-03,  -35.0760E-03,   973.364E-06
C:/temp/dataset/6/7_20.odb,Step-1,Increment      1: Step Time =    1.000,"PART-1-1",           787,      -9.47746,      -1.56252,            0.,NA,NA,"",   80.5500E-03,   73.6056E-03,  -32.7189E-03,   1.18331E-03
C:/temp/dataset/6/7_20.odb,Step-1,Increment      1: Step Time =    1.000,"PART-1-1",           788,      -7.56677,      -1.93629,            0.,NA,NA,"",   87.7193E-03,   70.6289E-03,  -52.0215E-03,   1.74361E-03
C:/temp/dataset/6/7_20.odb,Step-1,Increment      1: Step Time =    1.000,"PART-1-1",           789,      -9.57637,      -3.06595,            0.,NA,NA,"",   65.2754E-03,   57.6952E-03,  -30.5310E-03,   1.06826E-03
C:/temp/dataset/6/7_20.odb,Step-1,Increment      1: Step Time =    1.000,"PART-1-1",           790,      -8.24618,      -3.39128,            0.,NA,NA,"",   69.3261E-03,   54.6668E-03,  -42.6339E-03,   1.72238E-03
C:/temp/dataset/6/7_20.odb,Step-1,Increment      1: Step Time =    1.000,"PART-1-1",           791,       7.98922,      -7.69035,            0.,NA,NA,"",   182.840E-03,   93.5863E-03,  -157.074E-03,   9.22954E-03
C:/temp/dataset/6/7_20.odb,Step-1,Increment      1: Step Time =    1.000,"PART-1-1",           792,       7.96586,      -10.1263,            0.,NA,NA,"",   161.375E-03,   85.5575E-03,  -136.828E-03,   9.29256E-03
C:/temp/dataset/6/7_20.odb,Step-1,Increment      1: Step Time =    1.000,"PART-1-1",           793,       7.95460,      -12.5381,            0.,NA,NA,"",   138.840E-03,   74.9716E-03,  -116.858E-03,   9.16079E-03
C:/temp/dataset/6/7_20.odb,Step-1,Increment      1: Step Time =    1.000,"PART-1-1",           794,      -6.90534,       4.84567,            0.,NA,NA,"",   161.444E-03,   147.427E-03,  -65.8000E-03,   575.447E-06
C:/temp/dataset/6/7_20.odb,Step-1,Increment      1: Step Time =    1.000,"PART-1-1",           795,      -7.09219,       3.25090,            0.,NA,NA,"",   143.611E-03,   129.108E-03,  -62.8906E-03,   516.968E-06
C:/temp/dataset/6/7_20.odb,Step-1,Increment      1: Step Time =    1.000,"PART-1-1",           796,      -5.99438,      -2.38990,            0.,NA,NA,"",   96.8249E-03,   67.1400E-03,  -69.7659E-03,   3.10582E-03
C:/temp/dataset/6/7_20.odb,Step-1,Increment      1: Step Time =    1.000,"PART-1-1",           797,      -8.16339,       2.56404,            0.,NA,NA,"",   130.785E-03,   120.785E-03,  -50.1574E-03,   727.617E-06
C:/temp/dataset/6/7_20.odb,Step-1,Increment      1: Step Time =    1.000,"PART-1-1",           798,      -6.16245,       1.98671,            0.,NA,NA,"",   136.332E-03,   114.876E-03,  -73.4157E-03,   870.031E-06
C:/temp/dataset/6/7_20.odb,Step-1,Increment      1: Step Time =    1.000,"PART-1-1",           799,      -9.36160,       1.80674,            0.,NA,NA,"",   117.399E-03,   111.608E-03,  -36.4166E-03,   733.440E-06
C:/temp/dataset/6/7_20.odb,Step-1,Increment      1: Step Time =    1.000,"PART-1-1",           800,      -4.18828,       1.89018,            0.,NA,NA,"",   150.963E-03,   113.741E-03,  -99.2615E-03,   1.79725E-03
C:/temp/dataset/6/7_20.odb,Step-1,Increment      1: Step Time =    1.000,"PART-1-1",           801,      -2.02478,       2.01876,            0.,NA,NA,"",   172.716E-03,   113.748E-03,  -129.969E-03,   2.41116E-03
C:/temp/dataset/6/7_20.odb,Step-1,Increment      1: Step Time =    1.000,"PART-1-1",           802,       5.29765,      -24.4346,            0.,NA,NA,"",   17.5988E-03,   2.36944E-03,  -17.4386E-03,   4.41739E-03
C:/temp/dataset/6/7_20.odb,Step-1,Increment      1: Step Time =    1.000,"PART-1-1",           803,       8.18651,      -25.0309,            0.,NA,NA,"",   26.2461E-03,   7.70612E-03,  -25.0893E-03,   6.88259E-03
C:/temp/dataset/6/7_20.odb,Step-1,Increment      1: Step Time =    1.000,"PART-1-1",           804,       6.01068,      -25.2345,            0.,NA,NA,"",   16.9835E-03,   1.79895E-03,  -16.8880E-03,   4.92574E-03
