ODB Name,Step,Frame,Part Instance Name,    êﬂì_ÉâÉxÉã,X,Y,Z,Section Name,Material Name,Section Point,   U-Magnitude,          U-U1,          U-U2,       S-Mises
C:/temp/dataset/6/8_20.odb,Step-1,Increment      1: Step Time =    1.000,"PART-1-1",             1,            5.,           -5.,            0.,NA,NA,"",   199.385E-03,   134.437E-03,  -147.245E-03,   5.33200E-03
C:/temp/dataset/6/8_20.odb,Step-1,Increment      1: Step Time =    1.000,"PART-1-1",             2,            0.,           -5.,            0.,NA,NA,"",   170.300E-03,   145.679E-03,  -88.2031E-03,   2.17322E-03
C:/temp/dataset/6/8_20.odb,Step-1,Increment      1: Step Time =    1.000,"PART-1-1",             3,            5.,      -10.0250,            0.,NA,NA,"",   141.620E-03,   71.4953E-03,  -122.249E-03,   5.88071E-03
C:/temp/dataset/6/8_20.odb,Step-1,Increment      1: Step Time =    1.000,"PART-1-1",             4,            5.,      -15.0500,            0.,NA,NA,"",   97.5123E-03,   35.6728E-03,  -90.7530E-03,   7.88321E-03
C:/temp/dataset/6/8_20.odb,Step-1,Increment      1: Step Time =    1.000,"PART-1-1",             5,            5.,          -20.,            0.,NA,NA,"",   48.3748E-03,   18.1838E-03,  -44.8271E-03,   11.0373E-03
C:/temp/dataset/6/8_20.odb,Step-1,Increment      1: Step Time =    1.000,"PART-1-1",             6,            0.,          -20.,            0.,NA,NA,"",   11.2598E-03,   10.3313E-03,  -4.47742E-03,   1.34065E-03
C:/temp/dataset/6/8_20.odb,Step-1,Increment      1: Step Time =    1.000,"PART-1-1",             7,           -5.,          -20.,            0.,NA,NA,"",   14.7360E-03,   12.1705E-03,  -8.30846E-03,   4.96450E-03
C:/temp/dataset/6/8_20.odb,Step-1,Increment      1: Step Time =    1.000,"PART-1-1",             8,           -5.,      -14.9750,            0.,NA,NA,"",   56.7178E-03,   51.5828E-03,  -23.5823E-03,   2.09721E-03
C:/temp/dataset/6/8_20.odb,Step-1,Increment      1: Step Time =    1.000,"PART-1-1",             9,           -5.,      -9.95000,            0.,NA,NA,"",   103.823E-03,   99.1079E-03,  -30.9321E-03,   1.00108E-03
C:/temp/dataset/6/8_20.odb,Step-1,Increment      1: Step Time =    1.000,"PART-1-1",            10,           -5.,           -5.,            0.,NA,NA,"",   156.321E-03,   152.925E-03,  -32.4090E-03,   580.640E-06
C:/temp/dataset/6/8_20.odb,Step-1,Increment      1: Step Time =    1.000,"PART-1-1",            11,           15.,          -30.,            0.,NA,NA,"",            0.,   5.53300E-39,  -9.59302E-39,   18.7692E-03
C:/temp/dataset/6/8_20.odb,Step-1,Increment      1: Step Time =    1.000,"PART-1-1",            12,          -15.,          -30.,            0.,NA,NA,"",            0.,   1.01743E-39,   1.88386E-39,   3.56174E-03
C:/temp/dataset/6/8_20.odb,Step-1,Increment      1: Step Time =    1.000,"PART-1-1",            13,           15.,        -21.25,            0.,NA,NA,"",   108.101E-03,   51.5103E-03,  -95.0400E-03,   11.6729E-03
C:/temp/dataset/6/8_20.odb,Step-1,Increment      1: Step Time =    1.000,"PART-1-1",            14,           15.,         -12.5,            0.,NA,NA,"",   218.028E-03,   98.8739E-03,  -194.319E-03,   14.0385E-03
C:/temp/dataset/6/8_20.odb,Step-1,Increment      1: Step Time =    1.000,"PART-1-1",            15,           15.,         -3.75,            0.,NA,NA,"",   371.097E-03,   189.364E-03,  -319.146E-03,   18.1482E-03
C:/temp/dataset/6/8_20.odb,Step-1,Increment      1: Step Time =    1.000,"PART-1-1",            16,           15.,            5.,            0.,NA,NA,"",   615.279E-03,   380.914E-03,  -483.190E-03,   19.9653E-03
C:/temp/dataset/6/8_20.odb,Step-1,Increment      1: Step Time =    1.000,"PART-1-1",            17,           10.,            5.,            0.,NA,NA,"",   470.754E-03,   350.704E-03,  -314.032E-03,   13.3424E-03
C:/temp/dataset/6/8_20.odb,Step-1,Increment      1: Step Time =    1.000,"PART-1-1",            18,            5.,            5.,            0.,NA,NA,"",   349.552E-03,   308.343E-03,  -164.654E-03,   7.43743E-03
C:/temp/dataset/6/8_20.odb,Step-1,Increment      1: Step Time =    1.000,"PART-1-1",            19,            0.,            5.,            0.,NA,NA,"",   297.804E-03,   283.871E-03,  -90.0241E-03,   3.81229E-03
C:/temp/dataset/6/8_20.odb,Step-1,Increment      1: Step Time =    1.000,"PART-1-1",            20,           -5.,            5.,            0.,NA,NA,"",   273.740E-03,   271.753E-03,  -32.9240E-03,   1.43250E-03
C:/temp/dataset/6/8_20.odb,Step-1,Increment      1: Step Time =    1.000,"PART-1-1",            21,           -5.,         11.25,            0.,NA,NA,"",   338.361E-03,   336.628E-03,  -34.2042E-03,   36.2188E-06
C:/temp/dataset/6/8_20.odb,Step-1,Increment      1: Step Time =    1.000,"PART-1-1",            22,           -5.,          17.5,            0.,NA,NA,"",   405.246E-03,   403.765E-03,  -34.6185E-03,   325.473E-09
C:/temp/dataset/6/8_20.odb,Step-1,Increment      1: Step Time =    1.000,"PART-1-1",            23,           -5.,         23.75,            0.,NA,NA,"",   472.175E-03,   470.878E-03,  -34.9771E-03,   172.683E-09
C:/temp/dataset/6/8_20.odb,Step-1,Increment      1: Step Time =    1.000,"PART-1-1",            24,           -5.,           30.,            0.,NA,NA,"",   539.145E-03,   537.986E-03,  -35.3371E-03,   3.18409E-09
C:/temp/dataset/6/8_20.odb,Step-1,Increment      1: Step Time =    1.000,"PART-1-1",            25,          -10.,           30.,            0.,NA,NA,"",   538.587E-03,   538.274E-03,   18.3493E-03,   34.1539E-09
C:/temp/dataset/6/8_20.odb,Step-1,Increment      1: Step Time =    1.000,"PART-1-1",            26,          -15.,           30.,            0.,NA,NA,"",   543.358E-03,   538.562E-03,   72.0355E-03,   4.84381E-09
C:/temp/dataset/6/8_20.odb,Step-1,Increment      1: Step Time =    1.000,"PART-1-1",            27,          -15.,          22.5,            0.,NA,NA,"",   463.730E-03,   458.033E-03,   72.4673E-03,   269.303E-09
C:/temp/dataset/6/8_20.odb,Step-1,Increment      1: Step Time =    1.000,"PART-1-1",            28,          -15.,           15.,            0.,NA,NA,"",   384.491E-03,   377.517E-03,   72.9010E-03,   3.45134E-06
C:/temp/dataset/6/8_20.odb,Step-1,Increment      1: Step Time =    1.000,"PART-1-1",            29,          -15.,           7.5,            0.,NA,NA,"",   305.862E-03,   296.878E-03,   73.5861E-03,   94.2819E-06
C:/temp/dataset/6/8_20.odb,Step-1,Increment      1: Step Time =    1.000,"PART-1-1",            30,          -15.,            0.,            0.,NA,NA,"",   225.840E-03,   213.351E-03,   74.0632E-03,   331.695E-06
C:/temp/dataset/6/8_20.odb,Step-1,Increment      1: Step Time =    1.000,"PART-1-1",            31,          -15.,          -7.5,            0.,NA,NA,"",   145.134E-03,   128.323E-03,   67.8035E-03,   1.74683E-03
C:/temp/dataset/6/8_20.odb,Step-1,Increment      1: Step Time =    1.000,"PART-1-1",            32,          -15.,          -15.,            0.,NA,NA,"",   74.6245E-03,   54.9479E-03,   50.4930E-03,   3.51006E-03
C:/temp/dataset/6/8_20.odb,Step-1,Increment      1: Step Time =    1.000,"PART-1-1",            33,          -15.,         -22.5,            0.,NA,NA,"",   26.4977E-03,   12.3201E-03,   23.4593E-03,   4.07496E-03
C:/temp/dataset/6/8_20.odb,Step-1,Increment      1: Step Time =    1.000,"PART-1-1",            34,           2.5,           -5.,            0.,NA,NA,"",   184.696E-03,   140.324E-03,  -120.091E-03,   2.60818E-03
C:/temp/dataset/6/8_20.odb,Step-1,Increment      1: Step Time =    1.000,"PART-1-1",            35,            5.,      -7.51250,            0.,NA,NA,"",   166.407E-03,   98.0237E-03,  -134.472E-03,   5.36181E-03
C:/temp/dataset/6/8_20.odb,Step-1,Increment      1: Step Time =    1.000,"PART-1-1",            36,            5.,      -12.5375,            0.,NA,NA,"",   119.261E-03,   51.2861E-03,  -107.670E-03,   6.95801E-03
C:/temp/dataset/6/8_20.odb,Step-1,Increment      1: Step Time =    1.000,"PART-1-1",            37,            5.,      -17.5250,            0.,NA,NA,"",   76.3298E-03,   24.4704E-03,  -72.3011E-03,   9.24745E-03
C:/temp/dataset/6/8_20.odb,Step-1,Increment      1: Step Time =    1.000,"PART-1-1",            38,           2.5,          -20.,            0.,NA,NA,"",   20.6083E-03,   15.1921E-03,  -13.9248E-03,   4.04781E-03
C:/temp/dataset/6/8_20.odb,Step-1,Increment      1: Step Time =    1.000,"PART-1-1",            39,          -2.5,          -20.,            0.,NA,NA,"",   8.80545E-03,   8.29784E-03,  -2.94649E-03,   915.795E-06
C:/temp/dataset/6/8_20.odb,Step-1,Increment      1: Step Time =    1.000,"PART-1-1",            40,           -5.,      -17.4875,            0.,NA,NA,"",   36.2941E-03,   31.3769E-03,  -18.2415E-03,   3.30346E-03
C:/temp/dataset/6/8_20.odb,Step-1,Increment      1: Step Time =    1.000,"PART-1-1",            41,           -5.,      -12.4625,            0.,NA,NA,"",   79.2501E-03,   74.1740E-03,  -27.9069E-03,   1.59990E-03
C:/temp/dataset/6/8_20.odb,Step-1,Increment      1: Step Time =    1.000,"PART-1-1",            42,           -5.,      -7.47500,            0.,NA,NA,"",   129.751E-03,   125.569E-03,  -32.6777E-03,   382.280E-06
C:/temp/dataset/6/8_20.odb,Step-1,Increment      1: Step Time =    1.000,"PART-1-1",            43,          -2.5,           -5.,            0.,NA,NA,"",   161.381E-03,   150.260E-03,  -58.8706E-03,   1.64008E-03
C:/temp/dataset/6/8_20.odb,Step-1,Increment      1: Step Time =    1.000,"PART-1-1",            44,          12.5,          -30.,            0.,NA,NA,"",            0.,   9.23332E-39,  -22.6227E-39,   8.20006E-03
C:/temp/dataset/6/8_20.odb,Step-1,Increment      1: Step Time =    1.000,"PART-1-1",            45,           10.,          -30.,            0.,NA,NA,"",            0.,  -4.30475E-39,  -16.0956E-39,   7.45600E-03
C:/temp/dataset/6/8_20.odb,Step-1,Increment      1: Step Time =    1.000,"PART-1-1",            46,           7.5,          -30.,            0.,NA,NA,"",            0.,  -4.67974E-39,  -13.7328E-39,   5.96980E-03
C:/temp/dataset/6/8_20.odb,Step-1,Increment      1: Step Time =    1.000,"PART-1-1",            47,            5.,          -30.,            0.,NA,NA,"",            0.,  -299.549E-42,  -10.0592E-39,   4.64827E-03
C:/temp/dataset/6/8_20.odb,Step-1,Increment      1: Step Time =    1.000,"PART-1-1",            48,           2.5,          -30.,            0.,NA,NA,"",            0.,  -887.909E-42,  -5.90369E-39,   3.28181E-03
C:/temp/dataset/6/8_20.odb,Step-1,Increment      1: Step Time =    1.000,"PART-1-1",            49,            0.,          -30.,            0.,NA,NA,"",            0.,  -3.06585E-39,  -4.58679E-39,   2.12382E-03
C:/temp/dataset/6/8_20.odb,Step-1,Increment      1: Step Time =    1.000,"PART-1-1",            50,          -2.5,          -30.,            0.,NA,NA,"",            0.,  -399.509E-42,  -1.58880E-39,   1.31868E-03
C:/temp/dataset/6/8_20.odb,Step-1,Increment      1: Step Time =    1.000,"PART-1-1",            51,           -5.,          -30.,            0.,NA,NA,"",            0.,  -637.233E-42,  -610.017E-42,   920.098E-06
C:/temp/dataset/6/8_20.odb,Step-1,Increment      1: Step Time =    1.000,"PART-1-1",            52,          -7.5,          -30.,            0.,NA,NA,"",            0.,  -1.13360E-39,   801.313E-42,   849.932E-06
C:/temp/dataset/6/8_20.odb,Step-1,Increment      1: Step Time =    1.000,"PART-1-1",            53,          -10.,          -30.,            0.,NA,NA,"",            0.,  -149.273E-42,   1.40256E-39,   1.19445E-03
C:/temp/dataset/6/8_20.odb,Step-1,Increment      1: Step Time =    1.000,"PART-1-1",            54,         -12.5,          -30.,            0.,NA,NA,"",            0.,  -461.498E-42,   4.47524E-39,   1.73690E-03
C:/temp/dataset/6/8_20.odb,Step-1,Increment      1: Step Time =    1.000,"PART-1-1",            55,           15.,      -23.4375,            0.,NA,NA,"",   83.6221E-03,   42.1150E-03,  -72.2425E-03,   11.5690E-03
C:/temp/dataset/6/8_20.odb,Step-1,Increment      1: Step Time =    1.000,"PART-1-1",            56,           15.,       -25.625,            0.,NA,NA,"",   59.6852E-03,   32.9149E-03,  -49.7889E-03,   11.2328E-03
C:/temp/dataset/6/8_20.odb,Step-1,Increment      1: Step Time =    1.000,"PART-1-1",            57,           15.,      -27.8125,            0.,NA,NA,"",   35.5726E-03,   22.0680E-03,  -27.9000E-03,   12.7979E-03
C:/temp/dataset/6/8_20.odb,Step-1,Increment      1: Step Time =    1.000,"PART-1-1",            58,           15.,      -14.6875,            0.,NA,NA,"",   187.686E-03,   84.6896E-03,  -167.492E-03,   13.2238E-03
C:/temp/dataset/6/8_20.odb,Step-1,Increment      1: Step Time =    1.000,"PART-1-1",            59,           15.,       -16.875,            0.,NA,NA,"",   159.650E-03,   72.5224E-03,  -142.228E-03,   12.4889E-03
C:/temp/dataset/6/8_20.odb,Step-1,Increment      1: Step Time =    1.000,"PART-1-1",            60,           15.,      -19.0625,            0.,NA,NA,"",   133.326E-03,   61.6205E-03,  -118.231E-03,   11.9626E-03
C:/temp/dataset/6/8_20.odb,Step-1,Increment      1: Step Time =    1.000,"PART-1-1",            61,           15.,       -5.9375,            0.,NA,NA,"",   326.929E-03,   160.540E-03,  -284.797E-03,   16.7322E-03
C:/temp/dataset/6/8_20.odb,Step-1,Increment      1: Step Time =    1.000,"PART-1-1",            62,           15.,        -8.125,            0.,NA,NA,"",   287.237E-03,   136.249E-03,  -252.866E-03,   15.7030E-03
C:/temp/dataset/6/8_20.odb,Step-1,Increment      1: Step Time =    1.000,"PART-1-1",            63,           15.,      -10.3125,            0.,NA,NA,"",   251.097E-03,   115.855E-03,  -222.772E-03,   14.8549E-03
C:/temp/dataset/6/8_20.odb,Step-1,Increment      1: Step Time =    1.000,"PART-1-1",            64,           15.,        2.8125,            0.,NA,NA,"",   546.269E-03,   320.733E-03,  -442.199E-03,   21.2385E-03
C:/temp/dataset/6/8_20.odb,Step-1,Increment      1: Step Time =    1.000,"PART-1-1",            65,           15.,      625.E-03,            0.,NA,NA,"",   479.566E-03,   266.986E-03,  -398.375E-03,   21.8280E-03
C:/temp/dataset/6/8_20.odb,Step-1,Increment      1: Step Time =    1.000,"PART-1-1",            66,           15.,       -1.5625,            0.,NA,NA,"",   421.335E-03,   224.034E-03,  -356.836E-03,   20.0587E-03
C:/temp/dataset/6/8_20.odb,Step-1,Increment      1: Step Time =    1.000,"PART-1-1",            67,          12.5,            5.,            0.,NA,NA,"",   547.633E-03,   360.773E-03,  -412.000E-03,   20.4299E-03
C:/temp/dataset/6/8_20.odb,Step-1,Increment      1: Step Time =    1.000,"PART-1-1",            68,           7.5,            5.,            0.,NA,NA,"",   393.711E-03,   326.745E-03,  -219.650E-03,   10.6539E-03
C:/temp/dataset/6/8_20.odb,Step-1,Increment      1: Step Time =    1.000,"PART-1-1",            69,           2.5,            5.,            0.,NA,NA,"",   318.975E-03,   294.047E-03,  -123.619E-03,   5.45925E-03
C:/temp/dataset/6/8_20.odb,Step-1,Increment      1: Step Time =    1.000,"PART-1-1",            70,          -2.5,            5.,            0.,NA,NA,"",   283.391E-03,   276.886E-03,  -60.3698E-03,   2.66083E-03
C:/temp/dataset/6/8_20.odb,Step-1,Increment      1: Step Time =    1.000,"PART-1-1",            71,           -5.,       9.16667,            0.,NA,NA,"",   316.133E-03,   314.303E-03,  -33.9605E-03,   99.8467E-06
C:/temp/dataset/6/8_20.odb,Step-1,Increment      1: Step Time =    1.000,"PART-1-1",            72,           -5.,       7.08333,            0.,NA,NA,"",   294.160E-03,   292.240E-03,  -33.5562E-03,   397.244E-06
C:/temp/dataset/6/8_20.odb,Step-1,Increment      1: Step Time =    1.000,"PART-1-1",            73,           -5.,       15.4167,            0.,NA,NA,"",   382.945E-03,   381.389E-03,  -34.4967E-03,   2.78432E-06
C:/temp/dataset/6/8_20.odb,Step-1,Increment      1: Step Time =    1.000,"PART-1-1",            74,           -5.,       13.3333,            0.,NA,NA,"",   360.649E-03,   359.008E-03,  -34.3640E-03,   12.1956E-06
C:/temp/dataset/6/8_20.odb,Step-1,Increment      1: Step Time =    1.000,"PART-1-1",            75,           -5.,       21.6667,            0.,NA,NA,"",   449.861E-03,   448.508E-03,  -34.8574E-03,   339.066E-09
C:/temp/dataset/6/8_20.odb,Step-1,Increment      1: Step Time =    1.000,"PART-1-1",            76,           -5.,       19.5833,            0.,NA,NA,"",   427.551E-03,   426.138E-03,  -34.7381E-03,   435.445E-09
C:/temp/dataset/6/8_20.odb,Step-1,Increment      1: Step Time =    1.000,"PART-1-1",            77,           -5.,       27.9167,            0.,NA,NA,"",   516.818E-03,   515.616E-03,  -35.2170E-03,   12.9821E-09
C:/temp/dataset/6/8_20.odb,Step-1,Increment      1: Step Time =    1.000,"PART-1-1",            78,           -5.,       25.8333,            0.,NA,NA,"",   494.494E-03,   493.247E-03,  -35.0970E-03,   64.1105E-09
C:/temp/dataset/6/8_20.odb,Step-1,Increment      1: Step Time =    1.000,"PART-1-1",            79,          -7.5,           30.,            0.,NA,NA,"",   538.197E-03,   538.130E-03,  -8.49392E-03,   14.9447E-09
C:/temp/dataset/6/8_20.odb,Step-1,Increment      1: Step Time =    1.000,"PART-1-1",            80,         -12.5,           30.,            0.,NA,NA,"",   540.311E-03,   538.418E-03,   45.1924E-03,   14.7093E-09
C:/temp/dataset/6/8_20.odb,Step-1,Increment      1: Step Time =    1.000,"PART-1-1",            81,          -15.,           25.,            0.,NA,NA,"",   490.240E-03,   484.876E-03,   72.3236E-03,   105.116E-09
C:/temp/dataset/6/8_20.odb,Step-1,Increment      1: Step Time =    1.000,"PART-1-1",            82,          -15.,          27.5,            0.,NA,NA,"",   516.784E-03,   511.719E-03,   72.1796E-03,   17.4185E-09
C:/temp/dataset/6/8_20.odb,Step-1,Increment      1: Step Time =    1.000,"PART-1-1",            83,          -15.,          17.5,            0.,NA,NA,"",   410.844E-03,   404.351E-03,   72.7540E-03,   248.618E-09
C:/temp/dataset/6/8_20.odb,Step-1,Increment      1: Step Time =    1.000,"PART-1-1",            84,          -15.,           20.,            0.,NA,NA,"",   437.261E-03,   431.191E-03,   72.6107E-03,   467.364E-09
C:/temp/dataset/6/8_20.odb,Step-1,Increment      1: Step Time =    1.000,"PART-1-1",            85,          -15.,           10.,            0.,NA,NA,"",   332.027E-03,   323.840E-03,   73.2781E-03,   49.7499E-06
C:/temp/dataset/6/8_20.odb,Step-1,Increment      1: Step Time =    1.000,"PART-1-1",            86,          -15.,          12.5,            0.,NA,NA,"",   358.218E-03,   350.687E-03,   73.0649E-03,   16.2435E-06
C:/temp/dataset/6/8_20.odb,Step-1,Increment      1: Step Time =    1.000,"PART-1-1",            87,          -15.,           2.5,            0.,NA,NA,"",   252.908E-03,   241.760E-03,   74.2627E-03,   33.8163E-06
C:/temp/dataset/6/8_20.odb,Step-1,Increment      1: Step Time =    1.000,"PART-1-1",            88,          -15.,            5.,            0.,NA,NA,"",   279.562E-03,   269.596E-03,   73.9775E-03,   96.6849E-06
C:/temp/dataset/6/8_20.odb,Step-1,Increment      1: Step Time =    1.000,"PART-1-1",            89,          -15.,           -5.,            0.,NA,NA,"",   171.525E-03,   156.152E-03,   70.9753E-03,   1.22964E-03
C:/temp/dataset/6/8_20.odb,Step-1,Increment      1: Step Time =    1.000,"PART-1-1",            90,          -15.,          -2.5,            0.,NA,NA,"",   198.580E-03,   184.661E-03,   73.0382E-03,   745.285E-06
C:/temp/dataset/6/8_20.odb,Step-1,Increment      1: Step Time =    1.000,"PART-1-1",            91,          -15.,         -12.5,            0.,NA,NA,"",   96.1910E-03,   77.0178E-03,   57.6278E-03,   2.92267E-03
C:/temp/dataset/6/8_20.odb,Step-1,Increment      1: Step Time =    1.000,"PART-1-1",            92,          -15.,          -10.,            0.,NA,NA,"",   119.848E-03,   101.727E-03,   63.3646E-03,   2.31349E-03
C:/temp/dataset/6/8_20.odb,Step-1,Increment      1: Step Time =    1.000,"PART-1-1",            93,          -15.,          -20.,            0.,NA,NA,"",   39.5669E-03,   22.1049E-03,   32.8163E-03,   4.19739E-03
C:/temp/dataset/6/8_20.odb,Step-1,Increment      1: Step Time =    1.000,"PART-1-1",            94,          -15.,         -17.5,            0.,NA,NA,"",   55.6369E-03,   36.3926E-03,   42.0838E-03,   3.98932E-03
C:/temp/dataset/6/8_20.odb,Step-1,Increment      1: Step Time =    1.000,"PART-1-1",            95,          -15.,         -27.5,            0.,NA,NA,"",   7.82232E-03,   3.41751E-03,   7.03628E-03,   3.36502E-03
C:/temp/dataset/6/8_20.odb,Step-1,Increment      1: Step Time =    1.000,"PART-1-1",            96,          -15.,          -25.,            0.,NA,NA,"",   16.0985E-03,   6.46612E-03,   14.7429E-03,   3.66438E-03
C:/temp/dataset/6/8_20.odb,Step-1,Increment      1: Step Time =    1.000,"PART-1-1",            97,       13.0047,      -3.80353,            0.,NA,NA,"",   334.842E-03,   173.937E-03,  -286.121E-03,   15.1395E-03
C:/temp/dataset/6/8_20.odb,Step-1,Increment      1: Step Time =    1.000,"PART-1-1",            98,       6.97971,      -7.55833,            0.,NA,NA,"",   188.600E-03,   102.127E-03,  -158.556E-03,   7.41099E-03
C:/temp/dataset/6/8_20.odb,Step-1,Increment      1: Step Time =    1.000,"PART-1-1",            99,       6.96639,      -10.0829,            0.,NA,NA,"",   160.864E-03,   76.9197E-03,  -141.282E-03,   8.02395E-03
C:/temp/dataset/6/8_20.odb,Step-1,Increment      1: Step Time =    1.000,"PART-1-1",           100,       12.9900,      -12.5465,            0.,NA,NA,"",   197.717E-03,   86.4644E-03,  -177.808E-03,   12.7197E-03
C:/temp/dataset/6/8_20.odb,Step-1,Increment      1: Step Time =    1.000,"PART-1-1",           101,       6.90028,      -17.1420,            0.,NA,NA,"",   92.0671E-03,   33.1793E-03,  -85.8807E-03,   9.89344E-03
C:/temp/dataset/6/8_20.odb,Step-1,Increment      1: Step Time =    1.000,"PART-1-1",           102,       7.03871,      -19.0570,            0.,NA,NA,"",   75.5368E-03,   26.4169E-03,  -70.7669E-03,   8.54868E-03
C:/temp/dataset/6/8_20.odb,Step-1,Increment      1: Step Time =    1.000,"PART-1-1",           103,       5.31709,      -21.2647,            0.,NA,NA,"",   40.8175E-03,   9.99682E-03,  -39.5744E-03,   8.59042E-03
C:/temp/dataset/6/8_20.odb,Step-1,Increment      1: Step Time =    1.000,"PART-1-1",           104,      -4.83361,      -22.6144,            0.,NA,NA,"",   6.57492E-03,   5.45751E-03,  -3.66677E-03,   2.02562E-03
C:/temp/dataset/6/8_20.odb,Step-1,Increment      1: Step Time =    1.000,"PART-1-1",           105,      -7.46484,      -17.6587,            0.,NA,NA,"",   28.8666E-03,   28.7785E-03,  -2.25282E-03,   1.85779E-03
C:/temp/dataset/6/8_20.odb,Step-1,Increment      1: Step Time =    1.000,"PART-1-1",           106,      -12.5283,      -27.3245,            0.,NA,NA,"",   4.98974E-03,   711.957E-06,   4.93868E-03,   2.42396E-03
C:/temp/dataset/6/8_20.odb,Step-1,Increment      1: Step Time =    1.000,"PART-1-1",           107,      -12.4870,      -17.6221,            0.,NA,NA,"",   41.2817E-03,   31.9328E-03,   26.1625E-03,   2.40074E-03
C:/temp/dataset/6/8_20.odb,Step-1,Increment      1: Step Time =    1.000,"PART-1-1",           108,      -7.32043,      -12.6401,            0.,NA,NA,"",   71.7687E-03,   71.4287E-03,  -6.97703E-03,   964.746E-06
C:/temp/dataset/6/8_20.odb,Step-1,Increment      1: Step Time =    1.000,"PART-1-1",           109,      -7.14644,      -8.03697,            0.,NA,NA,"",   119.655E-03,   119.213E-03,  -10.2708E-03,   808.129E-06
C:/temp/dataset/6/8_20.odb,Step-1,Increment      1: Step Time =    1.000,"PART-1-1",           110,      -12.6601,       4.88622,            0.,NA,NA,"",   272.583E-03,   268.258E-03,   48.3631E-03,   111.331E-06
C:/temp/dataset/6/8_20.odb,Step-1,Increment      1: Step Time =    1.000,"PART-1-1",           111,      -13.0978,       12.5399,            0.,NA,NA,"",   354.935E-03,   351.013E-03,   52.6205E-03,   18.6639E-06
C:/temp/dataset/6/8_20.odb,Step-1,Increment      1: Step Time =    1.000,"PART-1-1",           112,      -6.45576,       21.8628,            0.,NA,NA,"",   451.109E-03,   450.699E-03,  -19.2373E-03,   149.245E-09
C:/temp/dataset/6/8_20.odb,Step-1,Increment      1: Step Time =    1.000,"PART-1-1",           113,      -7.28884,       25.7044,            0.,NA,NA,"",   492.107E-03,   491.995E-03,  -10.5135E-03,   83.0900E-09
C:/temp/dataset/6/8_20.odb,Step-1,Increment      1: Step Time =    1.000,"PART-1-1",           114,      -9.90518,       27.6474,            0.,NA,NA,"",   513.305E-03,   513.008E-03,   17.4668E-03,   40.1004E-09
C:/temp/dataset/6/8_20.odb,Step-1,Increment      1: Step Time =    1.000,"PART-1-1",           115,      -3.01211,      -3.13168,            0.,NA,NA,"",   180.561E-03,   172.827E-03,  -52.2772E-03,   1.29470E-03
C:/temp/dataset/6/8_20.odb,Step-1,Increment      1: Step Time =    1.000,"PART-1-1",           116,      -2.19169,       3.00836,            0.,NA,NA,"",   260.762E-03,   253.339E-03,  -61.7754E-03,   2.11014E-03
C:/temp/dataset/6/8_20.odb,Step-1,Increment      1: Step Time =    1.000,"PART-1-1",           117,       1.85193,      -2.77696,            0.,NA,NA,"",   203.834E-03,   171.559E-03,  -110.071E-03,   2.18777E-03
C:/temp/dataset/6/8_20.odb,Step-1,Increment      1: Step Time =    1.000,"PART-1-1",           118,       2.83229,       2.22691,            0.,NA,NA,"",   278.986E-03,   250.169E-03,  -123.486E-03,   2.73474E-03
C:/temp/dataset/6/8_20.odb,Step-1,Increment      1: Step Time =    1.000,"PART-1-1",           119,       7.74921,       3.07964,            0.,NA,NA,"",   353.636E-03,   277.902E-03,  -218.699E-03,   2.61722E-03
C:/temp/dataset/6/8_20.odb,Step-1,Increment      1: Step Time =    1.000,"PART-1-1",           120,      -2.47342,      -22.6017,            0.,NA,NA,"",   5.53493E-03,   4.88510E-03,  -2.60215E-03,   2.35898E-03
C:/temp/dataset/6/8_20.odb,Step-1,Increment      1: Step Time =    1.000,"PART-1-1",           121,      -7.48266,       20.3798,            0.,NA,NA,"",   434.909E-03,   434.834E-03,  -8.12534E-03,   154.848E-09
C:/temp/dataset/6/8_20.odb,Step-1,Increment      1: Step Time =    1.000,"PART-1-1",           122,      -7.10993,       13.1351,            0.,NA,NA,"",   357.186E-03,   356.994E-03,  -11.7106E-03,   16.8808E-06
C:/temp/dataset/6/8_20.odb,Step-1,Increment      1: Step Time =    1.000,"PART-1-1",           123,      -6.64156,       6.82435,            0.,NA,NA,"",   289.872E-03,   289.411E-03,  -16.3455E-03,   162.428E-06
C:/temp/dataset/6/8_20.odb,Step-1,Increment      1: Step Time =    1.000,"PART-1-1",           124,      -12.9641,      -2.37512,            0.,NA,NA,"",   192.106E-03,   185.346E-03,   50.5131E-03,   836.249E-06
C:/temp/dataset/6/8_20.odb,Step-1,Increment      1: Step Time =    1.000,"PART-1-1",           125,      -12.1317,      -9.84573,            0.,NA,NA,"",   107.039E-03,   100.876E-03,   35.7963E-03,   1.56978E-03
C:/temp/dataset/6/8_20.odb,Step-1,Increment      1: Step Time =    1.000,"PART-1-1",           126,       4.04132,      -2.67712,            0.,NA,NA,"",   219.195E-03,   169.368E-03,  -139.144E-03,   1.95894E-03
C:/temp/dataset/6/8_20.odb,Step-1,Increment      1: Step Time =    1.000,"PART-1-1",           127,       6.95362,      -12.5367,            0.,NA,NA,"",   136.059E-03,   57.9834E-03,  -123.085E-03,   8.49607E-03
C:/temp/dataset/6/8_20.odb,Step-1,Increment      1: Step Time =    1.000,"PART-1-1",           128,       6.92458,      -14.9216,            0.,NA,NA,"",   112.863E-03,   43.6168E-03,  -104.094E-03,   9.14244E-03
C:/temp/dataset/6/8_20.odb,Step-1,Increment      1: Step Time =    1.000,"PART-1-1",           129,       12.9089,      -21.3671,            0.,NA,NA,"",   93.1142E-03,   40.2153E-03,  -83.9820E-03,   11.1900E-03
C:/temp/dataset/6/8_20.odb,Step-1,Increment      1: Step Time =    1.000,"PART-1-1",           130,   283.131E-03,      -22.8786,            0.,NA,NA,"",   5.21660E-03,   2.85681E-03,  -4.36481E-03,   1.24203E-03
C:/temp/dataset/6/8_20.odb,Step-1,Increment      1: Step Time =    1.000,"PART-1-1",           131,      -12.9776,      -22.4214,            0.,NA,NA,"",   19.5479E-03,   9.42225E-03,   17.1272E-03,   2.79970E-03
C:/temp/dataset/6/8_20.odb,Step-1,Increment      1: Step Time =    1.000,"PART-1-1",           132,      -7.42030,      -15.1083,            0.,NA,NA,"",   49.1473E-03,   48.9536E-03,  -4.35878E-03,   1.31202E-03
C:/temp/dataset/6/8_20.odb,Step-1,Increment      1: Step Time =    1.000,"PART-1-1",           133,      -7.18486,      -10.2642,            0.,NA,NA,"",   95.7268E-03,   95.2732E-03,  -9.30787E-03,   821.702E-06
C:/temp/dataset/6/8_20.odb,Step-1,Increment      1: Step Time =    1.000,"PART-1-1",           134,      -7.33974,      -5.93881,            0.,NA,NA,"",   142.982E-03,   142.736E-03,  -8.38415E-03,   822.623E-06
C:/temp/dataset/6/8_20.odb,Step-1,Increment      1: Step Time =    1.000,"PART-1-1",           135,  -533.729E-03,      -2.94296,            0.,NA,NA,"",   190.405E-03,   172.648E-03,  -80.2901E-03,   1.55828E-03
C:/temp/dataset/6/8_20.odb,Step-1,Increment      1: Step Time =    1.000,"PART-1-1",           136,       10.2172,      -28.0250,            0.,NA,NA,"",   13.4968E-03,   3.12816E-03,  -13.1293E-03,   8.59758E-03
C:/temp/dataset/6/8_20.odb,Step-1,Increment      1: Step Time =    1.000,"PART-1-1",           137,       7.82196,      -28.0777,            0.,NA,NA,"",   10.0960E-03,  -1.02691E-03,  -10.0437E-03,   6.69186E-03
C:/temp/dataset/6/8_20.odb,Step-1,Increment      1: Step Time =    1.000,"PART-1-1",           138,       5.43540,      -28.0544,            0.,NA,NA,"",   8.00189E-03,  -3.41769E-03,  -7.23531E-03,   4.86810E-03
C:/temp/dataset/6/8_20.odb,Step-1,Increment      1: Step Time =    1.000,"PART-1-1",           139,       2.98405,      -27.8165,            0.,NA,NA,"",   6.39218E-03,  -4.17279E-03,  -4.84230E-03,   3.09250E-03
C:/temp/dataset/6/8_20.odb,Step-1,Increment      1: Step Time =    1.000,"PART-1-1",           140,   324.250E-03,      -27.0908,            0.,NA,NA,"",   4.44512E-03,  -3.34425E-03,  -2.92833E-03,   1.62204E-03
C:/temp/dataset/6/8_20.odb,Step-1,Increment      1: Step Time =    1.000,"PART-1-1",           141,      -2.46293,      -27.5198,            0.,NA,NA,"",   2.37134E-03,  -1.91309E-03,  -1.40119E-03,   891.329E-06
C:/temp/dataset/6/8_20.odb,Step-1,Increment      1: Step Time =    1.000,"PART-1-1",           142,      -4.88996,      -27.5861,            0.,NA,NA,"",   1.68280E-03,  -1.44077E-03,  -869.469E-06,   508.040E-06
C:/temp/dataset/6/8_20.odb,Step-1,Increment      1: Step Time =    1.000,"PART-1-1",           143,      -7.26500,      -27.4866,            0.,NA,NA,"",   1.45488E-03,  -1.45203E-03,   90.9618E-06,   276.027E-06
C:/temp/dataset/6/8_20.odb,Step-1,Increment      1: Step Time =    1.000,"PART-1-1",           144,      -9.86695,      -26.8928,            0.,NA,NA,"",   2.65196E-03,  -866.158E-06,   2.50652E-03,   1.08093E-03
C:/temp/dataset/6/8_20.odb,Step-1,Increment      1: Step Time =    1.000,"PART-1-1",           145,       12.7710,      -23.5898,            0.,NA,NA,"",   68.1521E-03,   30.0672E-03,  -61.1611E-03,   11.1215E-03
C:/temp/dataset/6/8_20.odb,Step-1,Increment      1: Step Time =    1.000,"PART-1-1",           146,       12.6989,      -25.7990,            0.,NA,NA,"",   43.6587E-03,   20.5584E-03,  -38.5153E-03,   11.4535E-03
C:/temp/dataset/6/8_20.odb,Step-1,Increment      1: Step Time =    1.000,"PART-1-1",           147,       12.6207,      -27.9366,            0.,NA,NA,"",   20.9295E-03,   10.8368E-03,  -17.9055E-03,   11.3499E-03
C:/temp/dataset/6/8_20.odb,Step-1,Increment      1: Step Time =    1.000,"PART-1-1",           148,       12.9983,      -14.8223,            0.,NA,NA,"",   168.792E-03,   72.4672E-03,  -152.444E-03,   12.2039E-03
C:/temp/dataset/6/8_20.odb,Step-1,Increment      1: Step Time =    1.000,"PART-1-1",           149,       13.0558,      -17.0719,            0.,NA,NA,"",   142.401E-03,   60.9291E-03,  -128.707E-03,   11.7426E-03
C:/temp/dataset/6/8_20.odb,Step-1,Increment      1: Step Time =    1.000,"PART-1-1",           150,       13.1682,      -19.2108,            0.,NA,NA,"",   118.804E-03,   51.2764E-03,  -107.168E-03,   11.4193E-03
C:/temp/dataset/6/8_20.odb,Step-1,Increment      1: Step Time =    1.000,"PART-1-1",           151,       13.0670,      -5.94273,            0.,NA,NA,"",   297.680E-03,   147.074E-03,  -258.810E-03,   14.4283E-03
C:/temp/dataset/6/8_20.odb,Step-1,Increment      1: Step Time =    1.000,"PART-1-1",           152,       13.0350,      -8.09399,            0.,NA,NA,"",   262.155E-03,   123.598E-03,  -231.190E-03,   13.7857E-03
C:/temp/dataset/6/8_20.odb,Step-1,Increment      1: Step Time =    1.000,"PART-1-1",           153,       12.9982,      -10.2981,            0.,NA,NA,"",   228.744E-03,   103.356E-03,  -204.062E-03,   13.2348E-03
C:/temp/dataset/6/8_20.odb,Step-1,Increment      1: Step Time =    1.000,"PART-1-1",           154,       12.5107,   556.281E-03,            0.,NA,NA,"",   416.610E-03,   244.334E-03,  -337.438E-03,   16.7995E-03
C:/temp/dataset/6/8_20.odb,Step-1,Increment      1: Step Time =    1.000,"PART-1-1",           155,       12.7702,      -1.64554,            0.,NA,NA,"",   372.869E-03,   205.101E-03,  -311.392E-03,   15.7385E-03
C:/temp/dataset/6/8_20.odb,Step-1,Increment      1: Step Time =    1.000,"PART-1-1",           156,       10.0517,       2.85834,            0.,NA,NA,"",   405.518E-03,   279.822E-03,  -293.504E-03,   14.1547E-03
C:/temp/dataset/6/8_20.odb,Step-1,Increment      1: Step Time =    1.000,"PART-1-1",           157,       5.39286,       2.85476,            0.,NA,NA,"",   314.839E-03,   267.375E-03,  -166.236E-03,   3.25218E-03
C:/temp/dataset/6/8_20.odb,Step-1,Increment      1: Step Time =    1.000,"PART-1-1",           158,   175.602E-03,       2.90951,            0.,NA,NA,"",   271.102E-03,   256.032E-03,  -89.1271E-03,   2.76392E-03
C:/temp/dataset/6/8_20.odb,Step-1,Increment      1: Step Time =    1.000,"PART-1-1",           159,      -4.35394,       2.91920,            0.,NA,NA,"",   252.462E-03,   249.513E-03,  -38.4748E-03,   1.63287E-03
C:/temp/dataset/6/8_20.odb,Step-1,Increment      1: Step Time =    1.000,"PART-1-1",           160,      -7.05997,       10.9599,            0.,NA,NA,"",   333.836E-03,   333.616E-03,  -12.1260E-03,   37.4495E-06
C:/temp/dataset/6/8_20.odb,Step-1,Increment      1: Step Time =    1.000,"PART-1-1",           161,      -6.93805,       8.84105,            0.,NA,NA,"",   311.167E-03,   310.882E-03,  -13.3129E-03,   54.3611E-06
C:/temp/dataset/6/8_20.odb,Step-1,Increment      1: Step Time =    1.000,"PART-1-1",           162,      -7.28921,       17.6445,            0.,NA,NA,"",   405.574E-03,   405.449E-03,  -10.0450E-03,   1.62261E-06
C:/temp/dataset/6/8_20.odb,Step-1,Increment      1: Step Time =    1.000,"PART-1-1",           163,      -7.17735,       15.3234,            0.,NA,NA,"",   380.674E-03,   380.511E-03,  -11.1127E-03,   6.39445E-06
C:/temp/dataset/6/8_20.odb,Step-1,Increment      1: Step Time =    1.000,"PART-1-1",           164,      -6.93557,       23.5874,            0.,NA,NA,"",   469.458E-03,   469.243E-03,  -14.1847E-03,   121.110E-09
C:/temp/dataset/6/8_20.odb,Step-1,Increment      1: Step Time =    1.000,"PART-1-1",           165,      -13.1925,       19.7530,            0.,NA,NA,"",   431.727E-03,   428.434E-03,   53.2190E-03,   172.063E-09
C:/temp/dataset/6/8_20.odb,Step-1,Increment      1: Step Time =    1.000,"PART-1-1",           166,      -7.44963,       27.8335,            0.,NA,NA,"",   514.942E-03,   514.865E-03,  -8.90986E-03,   41.7474E-09
C:/temp/dataset/6/8_20.odb,Step-1,Increment      1: Step Time =    1.000,"PART-1-1",           167,      -13.0424,       22.0734,            0.,NA,NA,"",   456.252E-03,   453.339E-03,   51.4737E-03,   135.204E-09
C:/temp/dataset/6/8_20.odb,Step-1,Increment      1: Step Time =    1.000,"PART-1-1",           168,      -13.1316,       14.9813,            0.,NA,NA,"",   380.893E-03,   377.210E-03,   52.8404E-03,   6.72896E-06
C:/temp/dataset/6/8_20.odb,Step-1,Increment      1: Step Time =    1.000,"PART-1-1",           169,      -13.1727,       17.3972,            0.,NA,NA,"",   406.629E-03,   403.142E-03,   53.1421E-03,   1.61865E-06
C:/temp/dataset/6/8_20.odb,Step-1,Increment      1: Step Time =    1.000,"PART-1-1",           170,      -12.8574,       7.53984,            0.,NA,NA,"",   301.468E-03,   297.235E-03,   50.3407E-03,   31.3643E-06
C:/temp/dataset/6/8_20.odb,Step-1,Increment      1: Step Time =    1.000,"PART-1-1",           171,      -13.0166,       10.0884,            0.,NA,NA,"",   328.819E-03,   324.697E-03,   51.8969E-03,   37.1316E-06
C:/temp/dataset/6/8_20.odb,Step-1,Increment      1: Step Time =    1.000,"PART-1-1",           172,      -12.8045,  -118.323E-03,            0.,NA,NA,"",   217.264E-03,   211.522E-03,   49.6176E-03,   609.898E-06
C:/temp/dataset/6/8_20.odb,Step-1,Increment      1: Step Time =    1.000,"PART-1-1",           173,      -12.7039,       2.28772,            0.,NA,NA,"",   244.097E-03,   239.154E-03,   48.8742E-03,   358.494E-06
C:/temp/dataset/6/8_20.odb,Step-1,Increment      1: Step Time =    1.000,"PART-1-1",           174,      -12.8488,      -7.31355,            0.,NA,NA,"",   136.634E-03,   128.830E-03,   45.5178E-03,   1.39610E-03
C:/temp/dataset/6/8_20.odb,Step-1,Increment      1: Step Time =    1.000,"PART-1-1",           175,      -12.6051,      -4.81291,            0.,NA,NA,"",   163.389E-03,   157.012E-03,   45.2012E-03,   1.10294E-03
C:/temp/dataset/6/8_20.odb,Step-1,Increment      1: Step Time =    1.000,"PART-1-1",           176,      -12.4260,      -15.0682,            0.,NA,NA,"",   59.6412E-03,   51.1174E-03,   30.7261E-03,   2.16358E-03
C:/temp/dataset/6/8_20.odb,Step-1,Increment      1: Step Time =    1.000,"PART-1-1",           177,      -12.3344,      -12.5112,            0.,NA,NA,"",   81.5623E-03,   74.0633E-03,   34.1619E-03,   1.87868E-03
C:/temp/dataset/6/8_20.odb,Step-1,Increment      1: Step Time =    1.000,"PART-1-1",           178,      -12.6598,      -20.1148,            0.,NA,NA,"",   27.9609E-03,   17.9111E-03,   21.4710E-03,   2.62453E-03
C:/temp/dataset/6/8_20.odb,Step-1,Increment      1: Step Time =    1.000,"PART-1-1",           179,      -8.70618,       22.9331,            0.,NA,NA,"",   462.346E-03,   462.321E-03,   4.86482E-03,   131.227E-09
C:/temp/dataset/6/8_20.odb,Step-1,Increment      1: Step Time =    1.000,"PART-1-1",           180,      -9.21222,       15.1634,            0.,NA,NA,"",   379.071E-03,   378.919E-03,   10.7376E-03,   8.17904E-06
C:/temp/dataset/6/8_20.odb,Step-1,Increment      1: Step Time =    1.000,"PART-1-1",           181,      -9.55138,       19.8926,            0.,NA,NA,"",   429.954E-03,   429.722E-03,   14.1153E-03,   420.329E-09
C:/temp/dataset/6/8_20.odb,Step-1,Increment      1: Step Time =    1.000,"PART-1-1",           182,      -8.92203,       8.32966,            0.,NA,NA,"",   305.656E-03,   305.555E-03,   7.86831E-03,   60.0559E-06
C:/temp/dataset/6/8_20.odb,Step-1,Increment      1: Step Time =    1.000,"PART-1-1",           183,      -9.17670,       12.8809,            0.,NA,NA,"",   354.559E-03,   354.404E-03,   10.4659E-03,   21.2218E-06
C:/temp/dataset/6/8_20.odb,Step-1,Increment      1: Step Time =    1.000,"PART-1-1",           184,      -9.09923,       10.6117,            0.,NA,NA,"",   330.175E-03,   330.032E-03,   9.71639E-03,   43.3835E-06
C:/temp/dataset/6/8_20.odb,Step-1,Increment      1: Step Time =    1.000,"PART-1-1",           185,      -9.30530,       17.5014,            0.,NA,NA,"",   404.198E-03,   404.032E-03,   11.6094E-03,   2.31990E-06
C:/temp/dataset/6/8_20.odb,Step-1,Increment      1: Step Time =    1.000,"PART-1-1",           186,      -8.37864,       6.17865,            0.,NA,NA,"",   282.561E-03,   282.553E-03,   2.17128E-03,   191.655E-06
C:/temp/dataset/6/8_20.odb,Step-1,Increment      1: Step Time =    1.000,"PART-1-1",           187,       10.9988,      -10.2527,            0.,NA,NA,"",   205.592E-03,   92.7372E-03,  -183.488E-03,   11.5832E-03
C:/temp/dataset/6/8_20.odb,Step-1,Increment      1: Step Time =    1.000,"PART-1-1",           188,       10.8643,      -17.5211,            0.,NA,NA,"",   119.868E-03,   48.0096E-03,  -109.834E-03,   10.6632E-03
C:/temp/dataset/6/8_20.odb,Step-1,Increment      1: Step Time =    1.000,"PART-1-1",           189,       11.0508,      -8.01555,            0.,NA,NA,"",   236.296E-03,   113.373E-03,  -207.322E-03,   11.6771E-03
C:/temp/dataset/6/8_20.odb,Step-1,Increment      1: Step Time =    1.000,"PART-1-1",           190,       10.6332,      -2.00908,            0.,NA,NA,"",   321.306E-03,   187.309E-03,  -261.061E-03,   11.5100E-03
C:/temp/dataset/6/8_20.odb,Step-1,Increment      1: Step Time =    1.000,"PART-1-1",           191,       11.1668,      -5.92645,            0.,NA,NA,"",   268.238E-03,   136.663E-03,  -230.814E-03,   11.8365E-03
C:/temp/dataset/6/8_20.odb,Step-1,Increment      1: Step Time =    1.000,"PART-1-1",           192,       10.9732,      -14.9280,            0.,NA,NA,"",   149.054E-03,   61.4002E-03,  -135.820E-03,   11.1513E-03
C:/temp/dataset/6/8_20.odb,Step-1,Increment      1: Step Time =    1.000,"PART-1-1",           193,       10.5476,      -23.6927,            0.,NA,NA,"",   54.4390E-03,   19.1296E-03,  -50.9673E-03,   10.2720E-03
C:/temp/dataset/6/8_20.odb,Step-1,Increment      1: Step Time =    1.000,"PART-1-1",           194,       10.5707,      -21.1850,            0.,NA,NA,"",   79.8779E-03,   29.9823E-03,  -74.0374E-03,   10.2205E-03
C:/temp/dataset/6/8_20.odb,Step-1,Increment      1: Step Time =    1.000,"PART-1-1",           195,       10.9760,      -12.5622,            0.,NA,NA,"",   176.581E-03,   75.5418E-03,  -159.606E-03,   11.4176E-03
C:/temp/dataset/6/8_20.odb,Step-1,Increment      1: Step Time =    1.000,"PART-1-1",           196,       11.6229,      -19.2502,            0.,NA,NA,"",   107.263E-03,   43.5224E-03,  -98.0366E-03,   10.7540E-03
C:/temp/dataset/6/8_20.odb,Step-1,Increment      1: Step Time =    1.000,"PART-1-1",           197,       11.1609,      -3.97100,            0.,NA,NA,"",   298.606E-03,   161.223E-03,  -251.342E-03,   12.0409E-03
C:/temp/dataset/6/8_20.odb,Step-1,Increment      1: Step Time =    1.000,"PART-1-1",           198,      -9.55101,       25.2781,            0.,NA,NA,"",   487.743E-03,   487.547E-03,   13.8007E-03,   94.3265E-09
C:/temp/dataset/6/8_20.odb,Step-1,Increment      1: Step Time =    1.000,"PART-1-1",           199,      -6.13353,       2.97524,            0.,NA,NA,"",   249.493E-03,   248.671E-03,  -20.2361E-03,   1.34292E-03
C:/temp/dataset/6/8_20.odb,Step-1,Increment      1: Step Time =    1.000,"PART-1-1",           200,       8.52809,      -18.5145,            0.,NA,NA,"",   91.6463E-03,   33.9325E-03,  -85.1330E-03,   9.53274E-03
C:/temp/dataset/6/8_20.odb,Step-1,Increment      1: Step Time =    1.000,"PART-1-1",           201,      -9.31256,      -6.57829,            0.,NA,NA,"",   136.191E-03,   135.737E-03,   11.1033E-03,   1.07667E-03
C:/temp/dataset/6/8_20.odb,Step-1,Increment      1: Step Time =    1.000,"PART-1-1",           202,      -7.82061,      -4.24854,            0.,NA,NA,"",   162.165E-03,   162.133E-03,  -3.22363E-03,   954.234E-06
C:/temp/dataset/6/8_20.odb,Step-1,Increment      1: Step Time =    1.000,"PART-1-1",           203,       7.55002,      -20.4955,            0.,NA,NA,"",   66.5985E-03,   21.4922E-03,  -63.0353E-03,   8.65120E-03
C:/temp/dataset/6/8_20.odb,Step-1,Increment      1: Step Time =    1.000,"PART-1-1",           204,      -9.18944,      -8.43706,            0.,NA,NA,"",   115.341E-03,   114.959E-03,   9.37656E-03,   1.07355E-03
C:/temp/dataset/6/8_20.odb,Step-1,Increment      1: Step Time =    1.000,"PART-1-1",           205,      -12.3720,       27.4312,            0.,NA,NA,"",   512.718E-03,   510.829E-03,   43.9658E-03,   48.5107E-09
C:/temp/dataset/6/8_20.odb,Step-1,Increment      1: Step Time =    1.000,"PART-1-1",           206,      -10.3791,       22.2070,            0.,NA,NA,"",   455.195E-03,   454.620E-03,   22.8695E-03,   137.964E-09
C:/temp/dataset/6/8_20.odb,Step-1,Increment      1: Step Time =    1.000,"PART-1-1",           207,       3.40286,  -884.176E-03,            0.,NA,NA,"",   236.965E-03,   197.962E-03,  -130.243E-03,   1.45331E-03
C:/temp/dataset/6/8_20.odb,Step-1,Increment      1: Step Time =    1.000,"PART-1-1",           208,       7.88020,       1.44192,            0.,NA,NA,"",   325.476E-03,   241.392E-03,  -218.321E-03,   4.86336E-03
C:/temp/dataset/6/8_20.odb,Step-1,Increment      1: Step Time =    1.000,"PART-1-1",           209,      -1.17287,  -897.893E-03,            0.,NA,NA,"",   213.287E-03,   200.760E-03,  -72.0206E-03,   1.55047E-03
C:/temp/dataset/6/8_20.odb,Step-1,Increment      1: Step Time =    1.000,"PART-1-1",           210,       10.4014,      -25.9274,            0.,NA,NA,"",   32.0652E-03,   10.1398E-03,  -30.4197E-03,   9.72569E-03
C:/temp/dataset/6/8_20.odb,Step-1,Increment      1: Step Time =    1.000,"PART-1-1",           211,       2.00108,      -24.8239,            0.,NA,NA,"",   8.32530E-03,  -2.69017E-03,  -7.87868E-03,   1.92118E-03
C:/temp/dataset/6/8_20.odb,Step-1,Increment      1: Step Time =    1.000,"PART-1-1",           212,      -4.80900,      -25.1606,            0.,NA,NA,"",   1.97784E-03,   432.832E-06,  -1.92990E-03,   977.836E-06
C:/temp/dataset/6/8_20.odb,Step-1,Increment      1: Step Time =    1.000,"PART-1-1",           213,      -11.5765,       21.3848,            0.,NA,NA,"",   447.294E-03,   445.861E-03,   35.7735E-03,   128.278E-09
C:/temp/dataset/6/8_20.odb,Step-1,Increment      1: Step Time =    1.000,"PART-1-1",           214,      -11.0630,       10.3038,            0.,NA,NA,"",   328.329E-03,   326.879E-03,   30.8266E-03,   40.1373E-06
C:/temp/dataset/6/8_20.odb,Step-1,Increment      1: Step Time =    1.000,"PART-1-1",           215,      -10.2832,  -591.021E-03,            0.,NA,NA,"",   206.893E-03,   205.630E-03,   22.8211E-03,   968.082E-06
C:/temp/dataset/6/8_20.odb,Step-1,Increment      1: Step Time =    1.000,"PART-1-1",           216,      -11.1869,      -5.64306,            0.,NA,NA,"",   149.973E-03,   146.922E-03,   30.0983E-03,   1.15396E-03
C:/temp/dataset/6/8_20.odb,Step-1,Increment      1: Step Time =    1.000,"PART-1-1",           217,      -9.48237,      -10.3825,            0.,NA,NA,"",   94.8292E-03,   94.1269E-03,   11.5201E-03,   1.12507E-03
C:/temp/dataset/6/8_20.odb,Step-1,Increment      1: Step Time =    1.000,"PART-1-1",           218,      -10.0191,      -20.7277,            0.,NA,NA,"",   15.3175E-03,   12.3790E-03,   9.02138E-03,   1.24496E-03
C:/temp/dataset/6/8_20.odb,Step-1,Increment      1: Step Time =    1.000,"PART-1-1",           219,      -12.8377,      -24.8331,            0.,NA,NA,"",   11.4951E-03,   3.70964E-03,   10.8800E-03,   2.65966E-03
C:/temp/dataset/6/8_20.odb,Step-1,Increment      1: Step Time =    1.000,"PART-1-1",           220,  -752.185E-03,      -25.0561,            0.,NA,NA,"",   3.11918E-03,  -923.964E-06,  -2.97919E-03,   1.26882E-03
C:/temp/dataset/6/8_20.odb,Step-1,Increment      1: Step Time =    1.000,"PART-1-1",           221,      -11.3411,      -22.5061,            0.,NA,NA,"",   13.5766E-03,   7.31720E-03,   11.4361E-03,   1.90027E-03
C:/temp/dataset/6/8_20.odb,Step-1,Increment      1: Step Time =    1.000,"PART-1-1",           222,       5.90860,      -26.1342,            0.,NA,NA,"",   16.8264E-03,  -2.33887E-03,  -16.6631E-03,   5.69763E-03
C:/temp/dataset/6/8_20.odb,Step-1,Increment      1: Step Time =    1.000,"PART-1-1",           223,       3.81352,      -25.8758,            0.,NA,NA,"",   11.9790E-03,  -4.05249E-03,  -11.2727E-03,   3.68759E-03
C:/temp/dataset/6/8_20.odb,Step-1,Increment      1: Step Time =    1.000,"PART-1-1",           224,      -6.87266,      -25.1947,            0.,NA,NA,"",   522.818E-06,   177.835E-06,  -491.644E-06,   353.634E-06
C:/temp/dataset/6/8_20.odb,Step-1,Increment      1: Step Time =    1.000,"PART-1-1",           225,       9.77381,   336.875E-03,            0.,NA,NA,"",   344.746E-03,   224.146E-03,  -261.931E-03,   10.3453E-03
C:/temp/dataset/6/8_20.odb,Step-1,Increment      1: Step Time =    1.000,"PART-1-1",           226,       4.59800,   29.7464E-03,            0.,NA,NA,"",   259.816E-03,   212.836E-03,  -149.015E-03,   1.11603E-03
C:/temp/dataset/6/8_20.odb,Step-1,Increment      1: Step Time =    1.000,"PART-1-1",           227,      -11.1551,       12.6912,            0.,NA,NA,"",   353.935E-03,   352.510E-03,   31.7215E-03,   21.6686E-06
C:/temp/dataset/6/8_20.odb,Step-1,Increment      1: Step Time =    1.000,"PART-1-1",           228,      -11.2689,       17.3859,            0.,NA,NA,"",   404.234E-03,   402.909E-03,   32.6999E-03,   2.41762E-06
C:/temp/dataset/6/8_20.odb,Step-1,Increment      1: Step Time =    1.000,"PART-1-1",           229,      -11.2102,       15.0558,            0.,NA,NA,"",   379.260E-03,   377.891E-03,   32.1975E-03,   8.18559E-06
C:/temp/dataset/6/8_20.odb,Step-1,Increment      1: Step Time =    1.000,"PART-1-1",           230,      -10.8139,       7.79620,            0.,NA,NA,"",   301.229E-03,   299.904E-03,   28.2227E-03,   45.0312E-06
C:/temp/dataset/6/8_20.odb,Step-1,Increment      1: Step Time =    1.000,"PART-1-1",           231,      -10.1648,       4.85487,            0.,NA,NA,"",   268.839E-03,   267.981E-03,   21.4517E-03,   253.414E-06
C:/temp/dataset/6/8_20.odb,Step-1,Increment      1: Step Time =    1.000,"PART-1-1",           232,      -10.4473,       2.01195,            0.,NA,NA,"",   237.263E-03,   235.973E-03,   24.7169E-03,   648.891E-06
C:/temp/dataset/6/8_20.odb,Step-1,Increment      1: Step Time =    1.000,"PART-1-1",           233,      -10.4810,      -3.59789,            0.,NA,NA,"",   172.026E-03,   170.352E-03,   23.9424E-03,   1.07320E-03
C:/temp/dataset/6/8_20.odb,Step-1,Increment      1: Step Time =    1.000,"PART-1-1",           234,      -9.89141,      -15.1395,            0.,NA,NA,"",   50.4527E-03,   48.7641E-03,   12.9436E-03,   1.21102E-03
C:/temp/dataset/6/8_20.odb,Step-1,Increment      1: Step Time =    1.000,"PART-1-1",           235,      -9.95744,      -17.7636,            0.,NA,NA,"",   30.8663E-03,   28.5947E-03,   11.6220E-03,   1.40441E-03
C:/temp/dataset/6/8_20.odb,Step-1,Increment      1: Step Time =    1.000,"PART-1-1",           236,      -3.63694,      -1.16253,            0.,NA,NA,"",   203.090E-03,   198.007E-03,  -45.1525E-03,   1.59754E-03
C:/temp/dataset/6/8_20.odb,Step-1,Increment      1: Step Time =    1.000,"PART-1-1",           237,      -7.00580,      -22.7773,            0.,NA,NA,"",   4.69022E-03,   4.52980E-03,  -1.21618E-03,   758.015E-06
C:/temp/dataset/6/8_20.odb,Step-1,Increment      1: Step Time =    1.000,"PART-1-1",           238,       7.08723,      -4.67483,            0.,NA,NA,"",   225.531E-03,   139.823E-03,  -176.957E-03,   5.44142E-03
C:/temp/dataset/6/8_20.odb,Step-1,Increment      1: Step Time =    1.000,"PART-1-1",           239,       8.96532,      -10.1697,            0.,NA,NA,"",   182.481E-03,   83.9834E-03,  -162.007E-03,   9.81670E-03
C:/temp/dataset/6/8_20.odb,Step-1,Increment      1: Step Time =    1.000,"PART-1-1",           240,       8.99874,      -7.82238,            0.,NA,NA,"",   211.300E-03,   106.376E-03,  -182.570E-03,   9.37069E-03
C:/temp/dataset/6/8_20.odb,Step-1,Increment      1: Step Time =    1.000,"PART-1-1",           241,       8.96760,      -14.8663,            0.,NA,NA,"",   131.249E-03,   52.4999E-03,  -120.291E-03,   10.1297E-03
C:/temp/dataset/6/8_20.odb,Step-1,Increment      1: Step Time =    1.000,"PART-1-1",           242,      -12.0836,       24.5335,            0.,NA,NA,"",   481.450E-03,   479.698E-03,   41.0363E-03,   114.756E-09
C:/temp/dataset/6/8_20.odb,Step-1,Increment      1: Step Time =    1.000,"PART-1-1",           243,       9.21542,      -5.66363,            0.,NA,NA,"",   242.295E-03,   131.867E-03,  -203.269E-03,   9.04775E-03
C:/temp/dataset/6/8_20.odb,Step-1,Increment      1: Step Time =    1.000,"PART-1-1",           244,       8.72776,      -2.97127,            0.,NA,NA,"",   271.594E-03,   166.704E-03,  -214.413E-03,   7.71342E-03
C:/temp/dataset/6/8_20.odb,Step-1,Increment      1: Step Time =    1.000,"PART-1-1",           245,       9.39471,      -19.4524,            0.,NA,NA,"",   89.1858E-03,   33.0653E-03,  -82.8299E-03,   9.58864E-03
C:/temp/dataset/6/8_20.odb,Step-1,Increment      1: Step Time =    1.000,"PART-1-1",           246,       8.06548,      -22.0810,            0.,NA,NA,"",   55.6804E-03,   15.7795E-03,  -53.3977E-03,   9.16080E-03
C:/temp/dataset/6/8_20.odb,Step-1,Increment      1: Step Time =    1.000,"PART-1-1",           247,      -7.53738,       4.79758,            0.,NA,NA,"",   268.046E-03,   267.967E-03,  -6.50232E-03,   515.342E-06
C:/temp/dataset/6/8_20.odb,Step-1,Increment      1: Step Time =    1.000,"PART-1-1",           248,      -10.8025,      -24.3532,            0.,NA,NA,"",   7.50174E-03,   2.55888E-03,   7.05183E-03,   1.59393E-03
C:/temp/dataset/6/8_20.odb,Step-1,Increment      1: Step Time =    1.000,"PART-1-1",           249,       5.82981,      -2.08643,            0.,NA,NA,"",   243.093E-03,   177.258E-03,  -166.354E-03,   2.82589E-03
C:/temp/dataset/6/8_20.odb,Step-1,Increment      1: Step Time =    1.000,"PART-1-1",           250,      -8.67175,      -2.53401,            0.,NA,NA,"",   182.526E-03,   182.432E-03,   5.86178E-03,   1.14124E-03
C:/temp/dataset/6/8_20.odb,Step-1,Increment      1: Step Time =    1.000,"PART-1-1",           251,       5.78686,      -22.7214,            0.,NA,NA,"",   34.8754E-03,   5.10556E-03,  -34.4997E-03,   7.27081E-03
C:/temp/dataset/6/8_20.odb,Step-1,Increment      1: Step Time =    1.000,"PART-1-1",           252,      -8.27594,       1.60152,            0.,NA,NA,"",   231.557E-03,   231.547E-03,   2.15420E-03,   1.02432E-03
C:/temp/dataset/6/8_20.odb,Step-1,Increment      1: Step Time =    1.000,"PART-1-1",           253,       8.25490,      -24.0061,            0.,NA,NA,"",   39.9374E-03,   8.77771E-03,  -38.9609E-03,   8.74920E-03
C:/temp/dataset/6/8_20.odb,Step-1,Increment      1: Step Time =    1.000,"PART-1-1",           254,      -9.04303,      -23.2600,            0.,NA,NA,"",   5.21091E-03,   3.72732E-03,   3.64151E-03,   714.261E-06
C:/temp/dataset/6/8_20.odb,Step-1,Increment      1: Step Time =    1.000,"PART-1-1",           255,       7.61656,      -1.09448,            0.,NA,NA,"",   280.606E-03,   194.190E-03,  -202.559E-03,   5.13107E-03
C:/temp/dataset/6/8_20.odb,Step-1,Increment      1: Step Time =    1.000,"PART-1-1",           256,      -4.02262,   861.151E-03,            0.,NA,NA,"",   227.794E-03,   224.048E-03,  -41.1424E-03,   1.69471E-03
C:/temp/dataset/6/8_20.odb,Step-1,Increment      1: Step Time =    1.000,"PART-1-1",           257,  -104.141E-03,       1.31276,            0.,NA,NA,"",   247.296E-03,   232.361E-03,  -84.6373E-03,   2.05413E-03
C:/temp/dataset/6/8_20.odb,Step-1,Increment      1: Step Time =    1.000,"PART-1-1",           258,       3.72123,      -23.4419,            0.,NA,NA,"",   17.3607E-03,  -189.531E-06,  -17.3597E-03,   3.93443E-03
C:/temp/dataset/6/8_20.odb,Step-1,Increment      1: Step Time =    1.000,"PART-1-1",           259,      -10.7950,      -8.39617,            0.,NA,NA,"",   118.421E-03,   115.851E-03,   24.5376E-03,   1.25191E-03
C:/temp/dataset/6/8_20.odb,Step-1,Increment      1: Step Time =    1.000,"PART-1-1",           260,      -1.85786,       1.02916,            0.,NA,NA,"",   236.221E-03,   227.279E-03,  -64.3815E-03,   1.83322E-03
C:/temp/dataset/6/8_20.odb,Step-1,Increment      1: Step Time =    1.000,"PART-1-1",           261,      -6.46179,      -1.33856,            0.,NA,NA,"",   197.002E-03,   196.331E-03,  -16.2478E-03,   1.40546E-03
C:/temp/dataset/6/8_20.odb,Step-1,Increment      1: Step Time =    1.000,"PART-1-1",           262,      -11.1078,      -7.00587,            0.,NA,NA,"",   134.475E-03,   131.425E-03,   28.4752E-03,   1.21856E-03
C:/temp/dataset/6/8_20.odb,Step-1,Increment      1: Step Time =    1.000,"PART-1-1",           263,      -5.52697,      -3.44125,            0.,NA,NA,"",   172.747E-03,   170.728E-03,  -26.3347E-03,   1.23762E-03
C:/temp/dataset/6/8_20.odb,Step-1,Increment      1: Step Time =    1.000,"PART-1-1",           264,      -9.72268,      -4.98378,            0.,NA,NA,"",   154.870E-03,   154.070E-03,   15.7159E-03,   1.08181E-03
C:/temp/dataset/6/8_20.odb,Step-1,Increment      1: Step Time =    1.000,"PART-1-1",           265,      -6.27329,       4.89376,            0.,NA,NA,"",   270.350E-03,   269.621E-03,  -19.8359E-03,   825.679E-06
C:/temp/dataset/6/8_20.odb,Step-1,Increment      1: Step Time =    1.000,"PART-1-1",           266,       12.4963,       2.80040,            0.,NA,NA,"",   477.831E-03,   297.297E-03,  -374.081E-03,   20.1858E-03
C:/temp/dataset/6/8_20.odb,Step-1,Increment      1: Step Time =    1.000,"PART-1-1",           267,      -7.37176,      -20.2559,            0.,NA,NA,"",   12.7696E-03,   12.7203E-03,  -1.12110E-03,   1.06499E-03
C:/temp/dataset/6/8_20.odb,Step-1,Increment      1: Step Time =    1.000,"PART-1-1",           268,       2.88963,      -21.8777,            0.,NA,NA,"",   14.7868E-03,   4.95011E-03,  -13.9336E-03,   2.45459E-03
C:/temp/dataset/6/8_20.odb,Step-1,Increment      1: Step Time =    1.000,"PART-1-1",           269,      -8.05085,       3.52655,            0.,NA,NA,"",   253.782E-03,   253.781E-03,  -666.850E-06,   725.317E-06
C:/temp/dataset/6/8_20.odb,Step-1,Increment      1: Step Time =    1.000,"PART-1-1",           270,       8.95558,      -12.5395,            0.,NA,NA,"",   155.765E-03,   66.1662E-03,  -141.013E-03,   10.0319E-03
C:/temp/dataset/6/8_20.odb,Step-1,Increment      1: Step Time =    1.000,"PART-1-1",           271,       1.35989,  -223.950E-03,            0.,NA,NA,"",   233.299E-03,   209.580E-03,  -102.491E-03,   1.70558E-03
C:/temp/dataset/6/8_20.odb,Step-1,Increment      1: Step Time =    1.000,"PART-1-1",           272,      -9.75004,      -12.6533,            0.,NA,NA,"",   72.5029E-03,   71.3321E-03,   12.9769E-03,   1.17106E-03
C:/temp/dataset/6/8_20.odb,Step-1,Increment      1: Step Time =    1.000,"PART-1-1",           273,      -8.51206,      -25.1011,            0.,NA,NA,"",   1.82057E-03,   385.848E-06,   1.77922E-03,   406.978E-06
C:/temp/dataset/6/8_20.odb,Step-1,Increment      1: Step Time =    1.000,"PART-1-1",           274,      -6.19138,   998.181E-03,            0.,NA,NA,"",   225.782E-03,   224.984E-03,  -18.9718E-03,   1.43869E-03
C:/temp/dataset/6/8_20.odb,Step-1,Increment      1: Step Time =    1.000,"PART-1-1",           275,      -2.63339,      -25.0950,            0.,NA,NA,"",   2.33084E-03,   137.405E-06,  -2.32679E-03,   1.34087E-03
C:/temp/dataset/6/8_20.odb,Step-1,Increment      1: Step Time =    1.000,"PART-1-1",           276,       8.11811,      -26.0558,            0.,NA,NA,"",   23.5321E-03,   2.50210E-03,  -23.3987E-03,   7.79873E-03
C:/temp/dataset/6/8_20.odb,Step-1,Increment      1: Step Time =    1.000,"PART-1-1",           277,       6.33403,   764.508E-03,            0.,NA,NA,"",   290.330E-03,   226.535E-03,  -181.586E-03,   1.68419E-03
C:/temp/dataset/6/8_20.odb,Step-1,Increment      1: Step Time =    1.000,"PART-1-1",           278,       8.84044,      -16.9880,            0.,NA,NA,"",   108.825E-03,   41.8121E-03,  -100.472E-03,   9.79859E-03
C:/temp/dataset/6/8_20.odb,Step-1,Increment      1: Step Time =    1.000,"PART-1-1",           279,      -11.3950,       19.6047,            0.,NA,NA,"",   428.084E-03,   426.738E-03,   33.9278E-03,   501.353E-09
C:/temp/dataset/6/8_20.odb,Step-1,Increment      1: Step Time =    1.000,"PART-1-1",           280,      -11.2464,      -2.22607,            0.,NA,NA,"",   189.391E-03,   186.602E-03,   32.3843E-03,   970.461E-06
C:/temp/dataset/6/8_20.odb,Step-1,Increment      1: Step Time =    1.000,"PART-1-1",           281,      -8.41776,  -32.7016E-03,            0.,NA,NA,"",   212.200E-03,   212.167E-03,   3.69893E-03,   1.16060E-03
C:/temp/dataset/6/8_20.odb,Step-1,Increment      1: Step Time =    1.000,"PART-1-1",           282,       4.48255,      -24.5345,            0.,NA,NA,"",   18.1939E-03,  -1.85485E-03,  -18.0991E-03,   4.64581E-03
C:/temp/dataset/6/8_20.odb,Step-1,Increment      1: Step Time =    1.000,"PART-1-1",           283,       6.11275,      -24.3348,            0.,NA,NA,"",   27.0237E-03,   1.26987E-03,  -26.9939E-03,   6.61080E-03
C:/temp/dataset/6/8_20.odb,Step-1,Increment      1: Step Time =    1.000,"PART-1-1",           284,       9.69767,      -4.20039,            0.,NA,NA,"",   270.058E-03,   152.230E-03,  -223.064E-03,   9.56682E-03
C:/temp/dataset/6/8_20.odb,Step-1,Increment      1: Step Time =    1.000,"PART-1-1",           285,       13.8851,      -1.60402,            0.,NA,NA,"",   397.471E-03,   213.942E-03,  -334.981E-03,   17.8337E-03
C:/temp/dataset/6/8_20.odb,Step-1,Increment      1: Step Time =    1.000,"PART-1-1",           286,           15.,   -468.75E-03,            0.,NA,NA,"",   449.409E-03,   244.299E-03,  -377.209E-03,   20.8723E-03
C:/temp/dataset/6/8_20.odb,Step-1,Increment      1: Step Time =    1.000,"PART-1-1",           287,       13.7553,   590.641E-03,            0.,NA,NA,"",   448.381E-03,   254.949E-03,  -368.845E-03,   19.1371E-03
C:/temp/dataset/6/8_20.odb,Step-1,Increment      1: Step Time =    1.000,"PART-1-1",           288,       12.6405,  -544.629E-03,            0.,NA,NA,"",   393.836E-03,   223.550E-03,  -324.241E-03,   16.2911E-03
C:/temp/dataset/6/8_20.odb,Step-1,Increment      1: Step Time =    1.000,"PART-1-1",           289,       6.57104,       2.96720,            0.,NA,NA,"",   332.593E-03,   272.663E-03,  -190.455E-03,   2.89673E-03
C:/temp/dataset/6/8_20.odb,Step-1,Increment      1: Step Time =    1.000,"PART-1-1",           290,       5.86345,       1.80964,            0.,NA,NA,"",   301.788E-03,   246.800E-03,  -173.684E-03,   1.85630E-03
C:/temp/dataset/6/8_20.odb,Step-1,Increment      1: Step Time =    1.000,"PART-1-1",           291,       7.10711,       1.10321,            0.,NA,NA,"",   306.718E-03,   233.658E-03,  -198.696E-03,   3.17559E-03
C:/temp/dataset/6/8_20.odb,Step-1,Increment      1: Step Time =    1.000,"PART-1-1",           292,       7.81470,       2.26078,            0.,NA,NA,"",   339.002E-03,   258.760E-03,  -219.010E-03,   3.68342E-03
C:/temp/dataset/6/8_20.odb,Step-1,Increment      1: Step Time =    1.000,"PART-1-1",           293,       6.97305,      -8.82061,            0.,NA,NA,"",   174.456E-03,   88.8391E-03,  -150.142E-03,   7.63225E-03
C:/temp/dataset/6/8_20.odb,Step-1,Increment      1: Step Time =    1.000,"PART-1-1",           294,       5.98985,      -7.53541,            0.,NA,NA,"",   177.532E-03,   99.9914E-03,  -146.695E-03,   6.32732E-03
C:/temp/dataset/6/8_20.odb,Step-1,Increment      1: Step Time =    1.000,"PART-1-1",           295,            5.,      -8.76875,            0.,NA,NA,"",   153.312E-03,   83.5408E-03,  -128.552E-03,   5.51670E-03
C:/temp/dataset/6/8_20.odb,Step-1,Increment      1: Step Time =    1.000,"PART-1-1",           296,       5.98320,      -10.0539,            0.,NA,NA,"",   150.779E-03,   73.9415E-03,  -131.404E-03,   6.95863E-03
C:/temp/dataset/6/8_20.odb,Step-1,Increment      1: Step Time =    1.000,"PART-1-1",           297,       12.0429,      -8.05477,            0.,NA,NA,"",   249.296E-03,   118.212E-03,  -219.486E-03,   12.7240E-03
C:/temp/dataset/6/8_20.odb,Step-1,Increment      1: Step Time =    1.000,"PART-1-1",           298,       11.0248,      -9.13413,            0.,NA,NA,"",   220.667E-03,   102.579E-03,  -195.375E-03,   11.6296E-03
C:/temp/dataset/6/8_20.odb,Step-1,Increment      1: Step Time =    1.000,"PART-1-1",           299,       11.9985,      -10.2754,            0.,NA,NA,"",   217.256E-03,   97.8425E-03,  -193.976E-03,   12.4050E-03
C:/temp/dataset/6/8_20.odb,Step-1,Increment      1: Step Time =    1.000,"PART-1-1",           300,       13.0166,      -9.19606,            0.,NA,NA,"",   245.086E-03,   113.012E-03,  -217.475E-03,   13.5101E-03
C:/temp/dataset/6/8_20.odb,Step-1,Increment      1: Step Time =    1.000,"PART-1-1",           301,       13.9992,      -14.7549,            0.,NA,NA,"",   178.433E-03,   78.4427E-03,  -160.265E-03,   12.7043E-03
C:/temp/dataset/6/8_20.odb,Step-1,Increment      1: Step Time =    1.000,"PART-1-1",           302,       13.0271,      -15.9471,            0.,NA,NA,"",   155.421E-03,   66.5039E-03,  -140.474E-03,   11.9726E-03
C:/temp/dataset/6/8_20.odb,Step-1,Increment      1: Step Time =    1.000,"PART-1-1",           303,       14.0279,      -16.9735,            0.,NA,NA,"",   151.161E-03,   66.6204E-03,  -135.689E-03,   12.1121E-03
C:/temp/dataset/6/8_20.odb,Step-1,Increment      1: Step Time =    1.000,"PART-1-1",           304,           15.,      -15.7813,            0.,NA,NA,"",   173.417E-03,   78.4079E-03,  -154.679E-03,   12.8561E-03
C:/temp/dataset/6/8_20.odb,Step-1,Increment      1: Step Time =    1.000,"PART-1-1",           305,       6.96949,      -18.0995,            0.,NA,NA,"",   83.4264E-03,   30.1607E-03,  -77.7837E-03,   8.94159E-03
C:/temp/dataset/6/8_20.odb,Step-1,Increment      1: Step Time =    1.000,"PART-1-1",           306,       5.95014,      -17.3335,            0.,NA,NA,"",   83.0032E-03,   28.9874E-03,  -77.7770E-03,   9.32927E-03
C:/temp/dataset/6/8_20.odb,Step-1,Increment      1: Step Time =    1.000,"PART-1-1",           307,            5.,      -18.7625,            0.,NA,NA,"",   63.0895E-03,   19.8717E-03,  -59.8782E-03,   11.8112E-03
C:/temp/dataset/6/8_20.odb,Step-1,Increment      1: Step Time =    1.000,"PART-1-1",           308,       6.01935,      -19.5285,            0.,NA,NA,"",   63.7232E-03,   22.5561E-03,  -59.5976E-03,   9.79480E-03
C:/temp/dataset/6/8_20.odb,Step-1,Increment      1: Step Time =    1.000,"PART-1-1",           309,       7.66098,      -29.0388,            0.,NA,NA,"",   4.83500E-03,  -1.20436E-03,  -4.68260E-03,   6.27688E-03
C:/temp/dataset/6/8_20.odb,Step-1,Increment      1: Step Time =    1.000,"PART-1-1",           310,       6.62868,      -28.0660,            0.,NA,NA,"",   9.00997E-03,  -2.45655E-03,  -8.66862E-03,   5.75495E-03
C:/temp/dataset/6/8_20.odb,Step-1,Increment      1: Step Time =    1.000,"PART-1-1",           311,       5.21770,      -29.0272,            0.,NA,NA,"",   4.12963E-03,  -2.37231E-03,  -3.38023E-03,   4.71886E-03
C:/temp/dataset/6/8_20.odb,Step-1,Increment      1: Step Time =    1.000,"PART-1-1",           312,          6.25,          -30.,            0.,NA,NA,"",            0.,  -1.68124E-39,  -9.66167E-39,   5.28763E-03
C:/temp/dataset/6/8_20.odb,Step-1,Increment      1: Step Time =    1.000,"PART-1-1",           313,   162.125E-03,      -28.5454,            0.,NA,NA,"",   2.95435E-03,  -2.47237E-03,  -1.61727E-03,   1.79359E-03
C:/temp/dataset/6/8_20.odb,Step-1,Increment      1: Step Time =    1.000,"PART-1-1",           314,      -1.06934,      -27.3053,            0.,NA,NA,"",   3.18374E-03,  -2.51486E-03,  -1.95236E-03,   1.24397E-03
C:/temp/dataset/6/8_20.odb,Step-1,Increment      1: Step Time =    1.000,"PART-1-1",           315,      -2.48147,      -28.7599,            0.,NA,NA,"",   1.60463E-03,  -1.39546E-03,  -792.167E-06,   1.03234E-03
C:/temp/dataset/6/8_20.odb,Step-1,Increment      1: Step Time =    1.000,"PART-1-1",           316,         -1.25,          -30.,            0.,NA,NA,"",            0.,  -1.08956E-39,  -2.37714E-39,   1.71374E-03
C:/temp/dataset/6/8_20.odb,Step-1,Increment      1: Step Time =    1.000,"PART-1-1",           317,          -15.,        -21.25,            0.,NA,NA,"",   32.6789E-03,   16.6643E-03,   28.1107E-03,   4.14230E-03
C:/temp/dataset/6/8_20.odb,Step-1,Increment      1: Step Time =    1.000,"PART-1-1",           318,      -13.9888,      -22.4607,            0.,NA,NA,"",   23.0465E-03,   10.7310E-03,   20.3958E-03,   3.43158E-03
C:/temp/dataset/6/8_20.odb,Step-1,Increment      1: Step Time =    1.000,"PART-1-1",           319,      -12.8187,      -21.2681,            0.,NA,NA,"",   23.4548E-03,   13.1752E-03,   19.4046E-03,   2.70201E-03
C:/temp/dataset/6/8_20.odb,Step-1,Increment      1: Step Time =    1.000,"PART-1-1",           320,      -13.8299,      -20.0574,            0.,NA,NA,"",   33.5643E-03,   19.8266E-03,   27.0826E-03,   3.40057E-03
C:/temp/dataset/6/8_20.odb,Step-1,Increment      1: Step Time =    1.000,"PART-1-1",           321,      -12.5142,      -28.6623,            0.,NA,NA,"",   2.17681E-03,  -121.636E-06,   2.17341E-03,   2.08498E-03
C:/temp/dataset/6/8_20.odb,Step-1,Increment      1: Step Time =    1.000,"PART-1-1",           322,        -11.25,          -30.,            0.,NA,NA,"",            0.,  -605.121E-42,   2.61138E-39,   1.45383E-03
C:/temp/dataset/6/8_20.odb,Step-1,Increment      1: Step Time =    1.000,"PART-1-1",           323,      -9.93348,      -28.4464,            0.,NA,NA,"",   1.64689E-03,  -1.12140E-03,   1.20610E-03,   1.08324E-03
C:/temp/dataset/6/8_20.odb,Step-1,Increment      1: Step Time =    1.000,"PART-1-1",           324,      -11.1976,      -27.1087,            0.,NA,NA,"",   3.77285E-03,  -288.260E-06,   3.76182E-03,   1.73667E-03
C:/temp/dataset/6/8_20.odb,Step-1,Increment      1: Step Time =    1.000,"PART-1-1",           325,      -7.37036,      -13.8742,            0.,NA,NA,"",   60.1470E-03,   59.8731E-03,  -5.73326E-03,   1.08956E-03
C:/temp/dataset/6/8_20.odb,Step-1,Increment      1: Step Time =    1.000,"PART-1-1",           326,      -6.21015,      -15.0417,            0.,NA,NA,"",   52.0072E-03,   50.1685E-03,  -13.7066E-03,   1.59217E-03
C:/temp/dataset/6/8_20.odb,Step-1,Increment      1: Step Time =    1.000,"PART-1-1",           327,           -5.,      -13.7188,            0.,NA,NA,"",   67.6958E-03,   62.5534E-03,  -25.8804E-03,   1.84742E-03
C:/temp/dataset/6/8_20.odb,Step-1,Increment      1: Step Time =    1.000,"PART-1-1",           328,      -6.16021,      -12.5513,            0.,NA,NA,"",   74.6473E-03,   72.6614E-03,  -17.1038E-03,   1.17095E-03
C:/temp/dataset/6/8_20.odb,Step-1,Increment      1: Step Time =    1.000,"PART-1-1",           329,      -9.33590,      -9.40979,            0.,NA,NA,"",   104.942E-03,   104.416E-03,   10.4936E-03,   1.10167E-03
C:/temp/dataset/6/8_20.odb,Step-1,Increment      1: Step Time =    1.000,"PART-1-1",           330,      -8.33361,      -10.3234,            0.,NA,NA,"",   94.6140E-03,   94.6058E-03,   1.23883E-03,   895.868E-06
C:/temp/dataset/6/8_20.odb,Step-1,Increment      1: Step Time =    1.000,"PART-1-1",           331,      -7.16565,      -9.15059,            0.,NA,NA,"",   107.537E-03,   107.085E-03,  -9.85257E-03,   800.226E-06
C:/temp/dataset/6/8_20.odb,Step-1,Increment      1: Step Time =    1.000,"PART-1-1",           332,      -8.16794,      -8.23701,            0.,NA,NA,"",   117.041E-03,   117.041E-03,  -304.260E-06,   899.899E-06
C:/temp/dataset/6/8_20.odb,Step-1,Increment      1: Step Time =    1.000,"PART-1-1",           333,      -11.1473,      -6.32447,            0.,NA,NA,"",   142.191E-03,   139.141E-03,   29.2899E-03,   1.18227E-03
C:/temp/dataset/6/8_20.odb,Step-1,Increment      1: Step Time =    1.000,"PART-1-1",           334,      -10.2102,      -6.79208,            0.,NA,NA,"",   134.999E-03,   133.539E-03,   19.8013E-03,   1.13013E-03
C:/temp/dataset/6/8_20.odb,Step-1,Increment      1: Step Time =    1.000,"PART-1-1",           335,      -9.51762,      -5.78103,            0.,NA,NA,"",   145.474E-03,   144.856E-03,   13.3884E-03,   1.07922E-03
C:/temp/dataset/6/8_20.odb,Step-1,Increment      1: Step Time =    1.000,"PART-1-1",           336,      -10.4548,      -5.31342,            0.,NA,NA,"",   152.204E-03,   150.467E-03,   22.9257E-03,   1.11634E-03
C:/temp/dataset/6/8_20.odb,Step-1,Increment      1: Step Time =    1.000,"PART-1-1",           337,      -5.04937,      -1.25055,            0.,NA,NA,"",   199.544E-03,   197.189E-03,  -30.5678E-03,   1.51401E-03
C:/temp/dataset/6/8_20.odb,Step-1,Increment      1: Step Time =    1.000,"PART-1-1",           338,      -3.82978,  -150.691E-03,            0.,NA,NA,"",   215.407E-03,   211.060E-03,  -43.0587E-03,   1.59851E-03
C:/temp/dataset/6/8_20.odb,Step-1,Increment      1: Step Time =    1.000,"PART-1-1",           339,      -5.10700,   929.666E-03,            0.,NA,NA,"",   226.503E-03,   224.508E-03,  -29.9974E-03,   1.56841E-03
C:/temp/dataset/6/8_20.odb,Step-1,Increment      1: Step Time =    1.000,"PART-1-1",           340,      -6.32658,  -170.190E-03,            0.,NA,NA,"",   211.363E-03,   210.637E-03,  -17.5097E-03,   1.40128E-03
C:/temp/dataset/6/8_20.odb,Step-1,Increment      1: Step Time =    1.000,"PART-1-1",           341,          -15.,          3.75,            0.,NA,NA,"",   266.290E-03,   255.756E-03,   74.1558E-03,   33.2934E-06
C:/temp/dataset/6/8_20.odb,Step-1,Increment      1: Step Time =    1.000,"PART-1-1",           342,      -13.8520,       2.39386,            0.,NA,NA,"",   248.188E-03,   240.460E-03,   61.4544E-03,   188.341E-06
C:/temp/dataset/6/8_20.odb,Step-1,Increment      1: Step Time =    1.000,"PART-1-1",           343,      -12.6820,       3.58697,            0.,NA,NA,"",   258.429E-03,   253.808E-03,   48.6519E-03,   231.195E-06
C:/temp/dataset/6/8_20.odb,Step-1,Increment      1: Step Time =    1.000,"PART-1-1",           344,      -13.8301,       4.94311,            0.,NA,NA,"",   275.794E-03,   268.932E-03,   61.1366E-03,   61.0759E-06
C:/temp/dataset/6/8_20.odb,Step-1,Increment      1: Step Time =    1.000,"PART-1-1",           345,          -15.,         11.25,            0.,NA,NA,"",   345.113E-03,   337.269E-03,   73.1623E-03,   32.0653E-06
C:/temp/dataset/6/8_20.odb,Step-1,Increment      1: Step Time =    1.000,"PART-1-1",           346,      -14.0083,       10.0442,            0.,NA,NA,"",   330.261E-03,   324.274E-03,   62.5968E-03,   34.7975E-06
C:/temp/dataset/6/8_20.odb,Step-1,Increment      1: Step Time =    1.000,"PART-1-1",           347,      -13.0572,       11.3141,            0.,NA,NA,"",   341.877E-03,   337.859E-03,   52.2586E-03,   27.0527E-06
C:/temp/dataset/6/8_20.odb,Step-1,Increment      1: Step Time =    1.000,"PART-1-1",           348,      -14.0489,       12.5200,            0.,NA,NA,"",   356.437E-03,   350.852E-03,   62.8478E-03,   14.2994E-06
C:/temp/dataset/6/8_20.odb,Step-1,Increment      1: Step Time =    1.000,"PART-1-1",           349,           -5.,       22.7083,            0.,NA,NA,"",   461.017E-03,   459.693E-03,  -34.9172E-03,   243.908E-09
C:/temp/dataset/6/8_20.odb,Step-1,Increment      1: Step Time =    1.000,"PART-1-1",           350,      -5.96779,       23.6687,            0.,NA,NA,"",   470.703E-03,   470.061E-03,  -24.5809E-03,   114.530E-09
C:/temp/dataset/6/8_20.odb,Step-1,Increment      1: Step Time =    1.000,"PART-1-1",           351,      -6.69567,       22.7251,            0.,NA,NA,"",   460.274E-03,   459.971E-03,  -16.7110E-03,   132.722E-09
C:/temp/dataset/6/8_20.odb,Step-1,Increment      1: Step Time =    1.000,"PART-1-1",           352,      -5.72788,       21.7648,            0.,NA,NA,"",   450.416E-03,   449.603E-03,  -27.0474E-03,   209.089E-09
C:/temp/dataset/6/8_20.odb,Step-1,Increment      1: Step Time =    1.000,"PART-1-1",           353,      -9.95259,       28.8237,            0.,NA,NA,"",   525.946E-03,   525.641E-03,   17.9080E-03,   34.9906E-09
C:/temp/dataset/6/8_20.odb,Step-1,Increment      1: Step Time =    1.000,"PART-1-1",           354,      -8.67740,       27.7404,            0.,NA,NA,"",   513.954E-03,   513.936E-03,   4.27849E-03,   35.6053E-09
C:/temp/dataset/6/8_20.odb,Step-1,Increment      1: Step Time =    1.000,"PART-1-1",           355,      -7.47481,       28.9167,            0.,NA,NA,"",   526.569E-03,   526.497E-03,  -8.70189E-03,   25.8603E-09
C:/temp/dataset/6/8_20.odb,Step-1,Increment      1: Step Time =    1.000,"PART-1-1",           356,         -8.75,           30.,            0.,NA,NA,"",   538.224E-03,   538.202E-03,   4.92768E-03,   26.1380E-09
C:/temp/dataset/6/8_20.odb,Step-1,Increment      1: Step Time =    1.000,"PART-1-1",           357,      -12.4360,       28.7156,            0.,NA,NA,"",   526.514E-03,   524.623E-03,   44.5791E-03,   27.9474E-09
C:/temp/dataset/6/8_20.odb,Step-1,Increment      1: Step Time =    1.000,"PART-1-1",           358,        -13.75,           30.,            0.,NA,NA,"",   541.671E-03,   538.490E-03,   58.6139E-03,   5.34631E-09
C:/temp/dataset/6/8_20.odb,Step-1,Increment      1: Step Time =    1.000,"PART-1-1",           359,          -15.,         28.75,            0.,NA,NA,"",   530.068E-03,   525.140E-03,   72.1076E-03,   7.44186E-09
C:/temp/dataset/6/8_20.odb,Step-1,Increment      1: Step Time =    1.000,"PART-1-1",           360,      -13.6860,       27.4656,            0.,NA,NA,"",   514.561E-03,   511.274E-03,   58.0727E-03,   28.5259E-09
C:/temp/dataset/6/8_20.odb,Step-1,Increment      1: Step Time =    1.000,"PART-1-1",           361,         -3.75,           -5.,            0.,NA,NA,"",   158.460E-03,   151.890E-03,  -45.1551E-03,   1.09595E-03
C:/temp/dataset/6/8_20.odb,Step-1,Increment      1: Step Time =    1.000,"PART-1-1",           362,      -2.75606,      -4.06584,            0.,NA,NA,"",   170.590E-03,   161.326E-03,  -55.4526E-03,   1.28652E-03
C:/temp/dataset/6/8_20.odb,Step-1,Increment      1: Step Time =    1.000,"PART-1-1",           363,      -4.26954,      -3.28646,            0.,NA,NA,"",   176.221E-03,   171.817E-03,  -39.1493E-03,   1.27849E-03
C:/temp/dataset/6/8_20.odb,Step-1,Increment      1: Step Time =    1.000,"PART-1-1",           364,      -5.26349,      -4.22062,            0.,NA,NA,"",   164.223E-03,   161.568E-03,  -29.4081E-03,   886.951E-06
C:/temp/dataset/6/8_20.odb,Step-1,Increment      1: Step Time =    1.000,"PART-1-1",           365,   659.099E-03,      -2.85996,            0.,NA,NA,"",   196.563E-03,   172.190E-03,  -94.8037E-03,   1.68756E-03
C:/temp/dataset/6/8_20.odb,Step-1,Increment      1: Step Time =    1.000,"PART-1-1",           366,  -266.865E-03,      -3.97148,            0.,NA,NA,"",   179.962E-03,   159.061E-03,  -84.1772E-03,   1.77923E-03
C:/temp/dataset/6/8_20.odb,Step-1,Increment      1: Step Time =    1.000,"PART-1-1",           367,          1.25,           -5.,            0.,NA,NA,"",   176.932E-03,   143.114E-03,  -104.035E-03,   2.36486E-03
C:/temp/dataset/6/8_20.odb,Step-1,Increment      1: Step Time =    1.000,"PART-1-1",           368,       2.17596,      -3.88848,            0.,NA,NA,"",   193.369E-03,   155.601E-03,  -114.803E-03,   2.21375E-03
C:/temp/dataset/6/8_20.odb,Step-1,Increment      1: Step Time =    1.000,"PART-1-1",           369,   93.5104E-03,  -560.922E-03,            0.,NA,NA,"",   222.689E-03,   205.057E-03,  -86.8456E-03,   1.64381E-03
C:/temp/dataset/6/8_20.odb,Step-1,Increment      1: Step Time =    1.000,"PART-1-1",           370,   627.873E-03,   544.404E-03,            0.,NA,NA,"",   240.200E-03,   221.324E-03,  -93.3368E-03,   1.76359E-03
C:/temp/dataset/6/8_20.odb,Step-1,Increment      1: Step Time =    1.000,"PART-1-1",           371,  -981.002E-03,       1.17096,            0.,NA,NA,"",   241.461E-03,   229.739E-03,  -74.3196E-03,   1.92387E-03
C:/temp/dataset/6/8_20.odb,Step-1,Increment      1: Step Time =    1.000,"PART-1-1",           372,      -1.51537,   65.6335E-03,            0.,NA,NA,"",   224.675E-03,   214.118E-03,  -68.0612E-03,   1.64569E-03
C:/temp/dataset/6/8_20.odb,Step-1,Increment      1: Step Time =    1.000,"PART-1-1",           373,       4.11258,       2.54084,            0.,NA,NA,"",   295.435E-03,   258.261E-03,  -143.467E-03,   2.94714E-03
C:/temp/dataset/6/8_20.odb,Step-1,Increment      1: Step Time =    1.000,"PART-1-1",           374,       3.71515,       1.12833,            0.,NA,NA,"",   268.847E-03,   232.055E-03,  -135.754E-03,   1.67669E-03
C:/temp/dataset/6/8_20.odb,Step-1,Increment      1: Step Time =    1.000,"PART-1-1",           375,       5.46602,   397.127E-03,            0.,NA,NA,"",   274.143E-03,   219.426E-03,  -164.337E-03,   1.14329E-03
C:/temp/dataset/6/8_20.odb,Step-1,Increment      1: Step Time =    1.000,"PART-1-1",           376,       8.69518,  -378.803E-03,            0.,NA,NA,"",   310.131E-03,   208.104E-03,  -229.944E-03,   7.59490E-03
C:/temp/dataset/6/8_20.odb,Step-1,Increment      1: Step Time =    1.000,"PART-1-1",           377,       8.82700,   889.396E-03,            0.,NA,NA,"",   334.279E-03,   231.960E-03,  -240.701E-03,   7.36610E-03
C:/temp/dataset/6/8_20.odb,Step-1,Increment      1: Step Time =    1.000,"PART-1-1",           378,       6.97530,  -164.986E-03,            0.,NA,NA,"",   284.689E-03,   209.732E-03,  -192.510E-03,   3.48549E-03
C:/temp/dataset/6/8_20.odb,Step-1,Increment      1: Step Time =    1.000,"PART-1-1",           379,      -3.65351,      -22.6081,            0.,NA,NA,"",   6.68054E-03,   5.58651E-03,  -3.66339E-03,   2.01996E-03
C:/temp/dataset/6/8_20.odb,Step-1,Increment      1: Step Time =    1.000,"PART-1-1",           380,      -2.48671,      -21.3009,            0.,NA,NA,"",   8.47177E-03,   7.90511E-03,  -3.04632E-03,   1.17789E-03
C:/temp/dataset/6/8_20.odb,Step-1,Increment      1: Step Time =    1.000,"PART-1-1",           381,         -3.75,          -20.,            0.,NA,NA,"",   10.5180E-03,   9.74303E-03,  -3.96247E-03,   2.42317E-03
C:/temp/dataset/6/8_20.odb,Step-1,Increment      1: Step Time =    1.000,"PART-1-1",           382,      -4.91680,      -21.3072,            0.,NA,NA,"",   10.5204E-03,   8.71095E-03,  -5.89899E-03,   2.93197E-03
C:/temp/dataset/6/8_20.odb,Step-1,Increment      1: Step Time =    1.000,"PART-1-1",           383,       12.8399,      -22.4784,            0.,NA,NA,"",   80.5740E-03,   35.0724E-03,  -72.5403E-03,   11.1539E-03
C:/temp/dataset/6/8_20.odb,Step-1,Increment      1: Step Time =    1.000,"PART-1-1",           384,       11.7398,      -21.2760,            0.,NA,NA,"",   86.4989E-03,   34.9262E-03,  -79.1343E-03,   10.7091E-03
C:/temp/dataset/6/8_20.odb,Step-1,Increment      1: Step Time =    1.000,"PART-1-1",           385,       10.5591,      -22.4389,            0.,NA,NA,"",   67.1162E-03,   24.4309E-03,  -62.5117E-03,   10.2334E-03
C:/temp/dataset/6/8_20.odb,Step-1,Increment      1: Step Time =    1.000,"PART-1-1",           386,       11.6593,      -23.6412,            0.,NA,NA,"",   61.0506E-03,   24.4406E-03,  -55.9449E-03,   10.6945E-03
C:/temp/dataset/6/8_20.odb,Step-1,Increment      1: Step Time =    1.000,"PART-1-1",           387,          8.75,            5.,            0.,NA,NA,"",   425.024E-03,   339.534E-03,  -255.660E-03,   9.34184E-03
C:/temp/dataset/6/8_20.odb,Step-1,Increment      1: Step Time =    1.000,"PART-1-1",           388,       7.62461,       4.03982,            0.,NA,NA,"",   373.743E-03,   303.186E-03,  -218.544E-03,   5.87502E-03
C:/temp/dataset/6/8_20.odb,Step-1,Increment      1: Step Time =    1.000,"PART-1-1",           389,       8.90047,       2.96899,            0.,NA,NA,"",   376.721E-03,   277.797E-03,  -254.454E-03,   7.47443E-03
C:/temp/dataset/6/8_20.odb,Step-1,Increment      1: Step Time =    1.000,"PART-1-1",           390,       10.0259,       3.92917,            0.,NA,NA,"",   432.246E-03,   307.803E-03,  -303.470E-03,   13.9314E-03
C:/temp/dataset/6/8_20.odb,Step-1,Increment      1: Step Time =    1.000,"PART-1-1",           391,      -6.96921,       21.1213,            0.,NA,NA,"",   442.977E-03,   442.766E-03,  -13.6813E-03,   59.7497E-09
C:/temp/dataset/6/8_20.odb,Step-1,Increment      1: Step Time =    1.000,"PART-1-1",           392,      -6.24133,       19.9816,            0.,NA,NA,"",   431.019E-03,   430.486E-03,  -21.4315E-03,   178.131E-09
C:/temp/dataset/6/8_20.odb,Step-1,Increment      1: Step Time =    1.000,"PART-1-1",           393,           -5.,        20.625,            0.,NA,NA,"",   438.705E-03,   437.323E-03,  -34.7978E-03,   369.149E-09
C:/temp/dataset/6/8_20.odb,Step-1,Increment      1: Step Time =    1.000,"PART-1-1",           394,      -12.9370,       8.81410,            0.,NA,NA,"",   315.164E-03,   310.991E-03,   51.1193E-03,   31.3477E-06
C:/temp/dataset/6/8_20.odb,Step-1,Increment      1: Step Time =    1.000,"PART-1-1",           395,          -15.,          8.75,            0.,NA,NA,"",   318.949E-03,   310.383E-03,   73.4208E-03,   70.7581E-06
C:/temp/dataset/6/8_20.odb,Step-1,Increment      1: Step Time =    1.000,"PART-1-1",           396,      -13.9287,       7.51992,            0.,NA,NA,"",   303.459E-03,   297.065E-03,   61.9684E-03,   55.6290E-06
C:/temp/dataset/6/8_20.odb,Step-1,Increment      1: Step Time =    1.000,"PART-1-1",           397,          -15.,          1.25,            0.,NA,NA,"",   239.419E-03,   227.617E-03,   74.2446E-03,   180.619E-06
C:/temp/dataset/6/8_20.odb,Step-1,Increment      1: Step Time =    1.000,"PART-1-1",           398,      -13.9023,  -59.1614E-03,            0.,NA,NA,"",   221.204E-03,   212.433E-03,   61.6719E-03,   430.568E-06
C:/temp/dataset/6/8_20.odb,Step-1,Increment      1: Step Time =    1.000,"PART-1-1",           399,      -12.7542,       1.08470,            0.,NA,NA,"",   230.730E-03,   225.401E-03,   49.3038E-03,   484.099E-06
C:/temp/dataset/6/8_20.odb,Step-1,Increment      1: Step Time =    1.000,"PART-1-1",           400,          -15.,         -1.25,            0.,NA,NA,"",   212.208E-03,   199.012E-03,   73.6651E-03,   540.203E-06
C:/temp/dataset/6/8_20.odb,Step-1,Increment      1: Step Time =    1.000,"PART-1-1",           401,      -13.9820,      -2.43756,            0.,NA,NA,"",   194.972E-03,   184.985E-03,   61.6008E-03,   747.769E-06
C:/temp/dataset/6/8_20.odb,Step-1,Increment      1: Step Time =    1.000,"PART-1-1",           402,      -12.8843,      -1.24672,            0.,NA,NA,"",   204.679E-03,   198.444E-03,   50.1345E-03,   718.946E-06
C:/temp/dataset/6/8_20.odb,Step-1,Increment      1: Step Time =    1.000,"PART-1-1",           403,      -12.3802,      -13.7897,            0.,NA,NA,"",   70.1818E-03,   62.1703E-03,   32.5627E-03,   2.01941E-03
C:/temp/dataset/6/8_20.odb,Step-1,Increment      1: Step Time =    1.000,"PART-1-1",           404,      -13.6672,      -12.5056,            0.,NA,NA,"",   88.0468E-03,   75.3497E-03,   45.5485E-03,   2.33853E-03
C:/temp/dataset/6/8_20.odb,Step-1,Increment      1: Step Time =    1.000,"PART-1-1",           405,          -15.,        -13.75,            0.,NA,NA,"",   85.1124E-03,   65.6043E-03,   54.2236E-03,   3.21283E-03
C:/temp/dataset/6/8_20.odb,Step-1,Increment      1: Step Time =    1.000,"PART-1-1",           406,      -13.7130,      -15.0341,            0.,NA,NA,"",   66.4386E-03,   52.8259E-03,   40.2929E-03,   2.79054E-03
C:/temp/dataset/6/8_20.odb,Step-1,Increment      1: Step Time =    1.000,"PART-1-1",           407,       9.21271,      -3.58583,            0.,NA,NA,"",   270.943E-03,   159.158E-03,  -219.269E-03,   8.62671E-03
C:/temp/dataset/6/8_20.odb,Step-1,Increment      1: Step Time =    1.000,"PART-1-1",           408,       7.90749,      -3.82305,            0.,NA,NA,"",   247.493E-03,   152.898E-03,  -194.615E-03,   6.56803E-03
C:/temp/dataset/6/8_20.odb,Step-1,Increment      1: Step Time =    1.000,"PART-1-1",           409,       8.15132,      -5.16923,            0.,NA,NA,"",   233.471E-03,   135.124E-03,  -190.395E-03,   7.20877E-03
C:/temp/dataset/6/8_20.odb,Step-1,Increment      1: Step Time =    1.000,"PART-1-1",           410,       9.45655,      -4.93201,            0.,NA,NA,"",   255.899E-03,   141.841E-03,  -212.991E-03,   9.28308E-03
C:/temp/dataset/6/8_20.odb,Step-1,Increment      1: Step Time =    1.000,"PART-1-1",           411,       6.91243,      -16.0318,            0.,NA,NA,"",   102.421E-03,   38.1839E-03,  -95.0373E-03,   9.36174E-03
C:/temp/dataset/6/8_20.odb,Step-1,Increment      1: Step Time =    1.000,"PART-1-1",           412,       5.96229,      -14.9858,            0.,NA,NA,"",   104.873E-03,   39.4849E-03,  -97.1560E-03,   8.52413E-03
C:/temp/dataset/6/8_20.odb,Step-1,Increment      1: Step Time =    1.000,"PART-1-1",           413,            5.,      -16.2875,            0.,NA,NA,"",   86.9807E-03,   29.2023E-03,  -81.9321E-03,   8.59860E-03
C:/temp/dataset/6/8_20.odb,Step-1,Increment      1: Step Time =    1.000,"PART-1-1",           414,       6.93910,      -13.7291,            0.,NA,NA,"",   124.391E-03,   50.3656E-03,  -113.738E-03,   8.78644E-03
C:/temp/dataset/6/8_20.odb,Step-1,Increment      1: Step Time =    1.000,"PART-1-1",           415,       5.97681,      -12.5371,            0.,NA,NA,"",   127.268E-03,   54.4996E-03,  -115.008E-03,   7.70705E-03
C:/temp/dataset/6/8_20.odb,Step-1,Increment      1: Step Time =    1.000,"PART-1-1",           416,            5.,      -13.7937,            0.,NA,NA,"",   108.366E-03,   42.9760E-03,  -99.4801E-03,   7.43641E-03
C:/temp/dataset/6/8_20.odb,Step-1,Increment      1: Step Time =    1.000,"PART-1-1",           417,         -1.25,          -20.,            0.,NA,NA,"",   9.29834E-03,   8.88160E-03,  -2.75253E-03,   594.834E-06
C:/temp/dataset/6/8_20.odb,Step-1,Increment      1: Step Time =    1.000,"PART-1-1",           418,      -1.09514,      -22.7401,            0.,NA,NA,"",   4.93962E-03,   4.01528E-03,  -2.87705E-03,   1.59858E-03
C:/temp/dataset/6/8_20.odb,Step-1,Increment      1: Step Time =    1.000,"PART-1-1",           419,   141.566E-03,      -21.4393,            0.,NA,NA,"",   8.03556E-03,   6.91540E-03,  -4.09236E-03,   615.067E-06
C:/temp/dataset/6/8_20.odb,Step-1,Increment      1: Step Time =    1.000,"PART-1-1",           420,      -7.69236,      -25.1479,            0.,NA,NA,"",   574.061E-06,   238.744E-06,   522.061E-06,   82.1710E-06
C:/temp/dataset/6/8_20.odb,Step-1,Increment      1: Step Time =    1.000,"PART-1-1",           421,      -9.18951,      -25.9970,            0.,NA,NA,"",   2.40895E-03,  -446.387E-06,   2.36723E-03,   749.258E-06
C:/temp/dataset/6/8_20.odb,Step-1,Increment      1: Step Time =    1.000,"PART-1-1",           422,      -8.56598,      -27.1897,            0.,NA,NA,"",   1.68964E-03,  -1.31676E-03,   1.05879E-03,   582.812E-06
C:/temp/dataset/6/8_20.odb,Step-1,Increment      1: Step Time =    1.000,"PART-1-1",           423,      -7.06883,      -26.3407,            0.,NA,NA,"",   958.236E-06,  -953.460E-06,  -95.5548E-06,   175.984E-06
C:/temp/dataset/6/8_20.odb,Step-1,Increment      1: Step Time =    1.000,"PART-1-1",           424,      -9.82073,      -13.8964,            0.,NA,NA,"",   61.0967E-03,   59.6921E-03,   13.0255E-03,   1.19786E-03
C:/temp/dataset/6/8_20.odb,Step-1,Increment      1: Step Time =    1.000,"PART-1-1",           425,      -8.65586,      -15.1239,            0.,NA,NA,"",   48.8526E-03,   48.6577E-03,   4.35974E-03,   1.02280E-03
C:/temp/dataset/6/8_20.odb,Step-1,Increment      1: Step Time =    1.000,"PART-1-1",           426,      -8.53523,      -12.6467,            0.,NA,NA,"",   71.2970E-03,   71.2271E-03,   3.15589E-03,   907.406E-06
C:/temp/dataset/6/8_20.odb,Step-1,Increment      1: Step Time =    1.000,"PART-1-1",           427,      -6.09243,      -10.1071,            0.,NA,NA,"",   99.1306E-03,   97.1257E-03,  -19.8362E-03,   776.654E-06
C:/temp/dataset/6/8_20.odb,Step-1,Increment      1: Step Time =    1.000,"PART-1-1",           428,           -5.,      -8.71250,            0.,NA,NA,"",   116.584E-03,   112.114E-03,  -31.9716E-03,   697.527E-06
C:/temp/dataset/6/8_20.odb,Step-1,Increment      1: Step Time =    1.000,"PART-1-1",           429,      -6.07322,      -7.75598,            0.,NA,NA,"",   124.164E-03,   122.360E-03,  -21.0937E-03,   498.936E-06
C:/temp/dataset/6/8_20.odb,Step-1,Increment      1: Step Time =    1.000,"PART-1-1",           430,      -12.7270,      -6.06323,            0.,NA,NA,"",   149.869E-03,   142.806E-03,   45.4641E-03,   1.24362E-03
C:/temp/dataset/6/8_20.odb,Step-1,Increment      1: Step Time =    1.000,"PART-1-1",           431,      -13.8025,      -4.90646,            0.,NA,NA,"",   166.875E-03,   156.525E-03,   57.8538E-03,   1.11232E-03
C:/temp/dataset/6/8_20.odb,Step-1,Increment      1: Step Time =    1.000,"PART-1-1",           432,          -15.,         -6.25,            0.,NA,NA,"",   158.221E-03,   142.121E-03,   69.5377E-03,   1.48660E-03
C:/temp/dataset/6/8_20.odb,Step-1,Increment      1: Step Time =    1.000,"PART-1-1",           433,      -13.9244,      -7.40677,            0.,NA,NA,"",   140.362E-03,   128.507E-03,   56.4572E-03,   1.52808E-03
C:/temp/dataset/6/8_20.odb,Step-1,Increment      1: Step Time =    1.000,"PART-1-1",           434,       1.60591,      -1.50045,            0.,NA,NA,"",   217.762E-03,   190.186E-03,  -106.064E-03,   1.70402E-03
C:/temp/dataset/6/8_20.odb,Step-1,Increment      1: Step Time =    1.000,"PART-1-1",           435,  -853.298E-03,      -1.92043,            0.,NA,NA,"",   201.554E-03,   186.668E-03,  -76.0216E-03,   1.44333E-03
C:/temp/dataset/6/8_20.odb,Step-1,Increment      1: Step Time =    1.000,"PART-1-1",           436,         13.75,          -30.,            0.,NA,NA,"",            0.,   1.61610E-39,  -19.1885E-39,   12.9927E-03
C:/temp/dataset/6/8_20.odb,Step-1,Increment      1: Step Time =    1.000,"PART-1-1",           437,           15.,      -28.9063,            0.,NA,NA,"",   20.2509E-03,   14.3733E-03,  -14.2656E-03,   14.2668E-03
C:/temp/dataset/6/8_20.odb,Step-1,Increment      1: Step Time =    1.000,"PART-1-1",           438,       13.8103,      -27.8746,            0.,NA,NA,"",   25.9479E-03,   15.4038E-03,  -20.8810E-03,   11.8095E-03
C:/temp/dataset/6/8_20.odb,Step-1,Increment      1: Step Time =    1.000,"PART-1-1",           439,       12.5603,      -28.9683,            0.,NA,NA,"",   9.13044E-03,   4.43413E-03,  -7.98144E-03,   9.85149E-03
C:/temp/dataset/6/8_20.odb,Step-1,Increment      1: Step Time =    1.000,"PART-1-1",           440,       12.6598,      -26.8678,            0.,NA,NA,"",   32.0723E-03,   15.6873E-03,  -27.9740E-03,   11.1608E-03
C:/temp/dataset/6/8_20.odb,Step-1,Increment      1: Step Time =    1.000,"PART-1-1",           441,       11.5501,      -25.8632,            0.,NA,NA,"",   37.5477E-03,   15.0682E-03,  -34.3915E-03,   10.5450E-03
C:/temp/dataset/6/8_20.odb,Step-1,Increment      1: Step Time =    1.000,"PART-1-1",           442,       10.3093,      -26.9762,            0.,NA,NA,"",   22.3939E-03,   6.45137E-03,  -21.4445E-03,   9.23038E-03
C:/temp/dataset/6/8_20.odb,Step-1,Increment      1: Step Time =    1.000,"PART-1-1",           443,       11.4189,      -27.9808,            0.,NA,NA,"",   16.2420E-03,   6.41972E-03,  -14.9194E-03,   9.85019E-03
C:/temp/dataset/6/8_20.odb,Step-1,Increment      1: Step Time =    1.000,"PART-1-1",           444,       10.1086,      -29.0125,            0.,NA,NA,"",   6.24827E-03,   985.344E-06,  -6.17009E-03,   7.82491E-03
C:/temp/dataset/6/8_20.odb,Step-1,Increment      1: Step Time =    1.000,"PART-1-1",           445,       9.01957,      -28.0513,            0.,NA,NA,"",   11.5877E-03,   788.789E-06,  -11.5608E-03,   7.59747E-03
C:/temp/dataset/6/8_20.odb,Step-1,Increment      1: Step Time =    1.000,"PART-1-1",           446,          8.75,          -30.,            0.,NA,NA,"",            0.,  -647.209E-42,  -12.6980E-39,   6.68426E-03
C:/temp/dataset/6/8_20.odb,Step-1,Increment      1: Step Time =    1.000,"PART-1-1",           447,       4.20973,      -27.9354,            0.,NA,NA,"",   7.27793E-03,  -4.02971E-03,  -6.06050E-03,   3.95132E-03
C:/temp/dataset/6/8_20.odb,Step-1,Increment      1: Step Time =    1.000,"PART-1-1",           448,       2.74203,      -28.9082,            0.,NA,NA,"",   3.57373E-03,  -2.71690E-03,  -2.32164E-03,   3.16705E-03
C:/temp/dataset/6/8_20.odb,Step-1,Increment      1: Step Time =    1.000,"PART-1-1",           449,          3.75,          -30.,            0.,NA,NA,"",            0.,  -2.00557E-39,  -6.57810E-39,   3.95301E-03
C:/temp/dataset/6/8_20.odb,Step-1,Increment      1: Step Time =    1.000,"PART-1-1",           450,       1.16266,      -25.9573,            0.,NA,NA,"",   5.98637E-03,  -3.44950E-03,  -4.89260E-03,   1.79463E-03
C:/temp/dataset/6/8_20.odb,Step-1,Increment      1: Step Time =    1.000,"PART-1-1",           451,       1.65415,      -27.4536,            0.,NA,NA,"",   5.58297E-03,  -4.00114E-03,  -3.89365E-03,   2.29184E-03
C:/temp/dataset/6/8_20.odb,Step-1,Increment      1: Step Time =    1.000,"PART-1-1",           452,       3.39879,      -26.8461,            0.,NA,NA,"",   8.95367E-03,  -4.55794E-03,  -7.70671E-03,   3.35736E-03
C:/temp/dataset/6/8_20.odb,Step-1,Increment      1: Step Time =    1.000,"PART-1-1",           453,       2.90730,      -25.3498,            0.,NA,NA,"",   10.3744E-03,  -3.65739E-03,  -9.70837E-03,   2.73386E-03
C:/temp/dataset/6/8_20.odb,Step-1,Increment      1: Step Time =    1.000,"PART-1-1",           454,      -3.67645,      -27.5530,            0.,NA,NA,"",   1.93855E-03,  -1.55706E-03,  -1.15480E-03,   684.429E-06
C:/temp/dataset/6/8_20.odb,Step-1,Increment      1: Step Time =    1.000,"PART-1-1",           455,      -2.54816,      -26.3074,            0.,NA,NA,"",   2.30700E-03,  -1.34104E-03,  -1.87719E-03,   947.555E-06
C:/temp/dataset/6/8_20.odb,Step-1,Increment      1: Step Time =    1.000,"PART-1-1",           456,      -3.72120,      -25.1278,            0.,NA,NA,"",   2.15904E-03,   341.488E-06,  -2.13186E-03,   1.12522E-03
C:/temp/dataset/6/8_20.odb,Step-1,Increment      1: Step Time =    1.000,"PART-1-1",           457,      -4.84948,      -26.3734,            0.,NA,NA,"",   1.64216E-03,  -921.436E-06,  -1.35928E-03,   661.500E-06
C:/temp/dataset/6/8_20.odb,Step-1,Increment      1: Step Time =    1.000,"PART-1-1",           458,      -4.94498,      -28.7931,            0.,NA,NA,"",   1.18851E-03,  -1.11095E-03,  -422.321E-06,   664.360E-06
C:/temp/dataset/6/8_20.odb,Step-1,Increment      1: Step Time =    1.000,"PART-1-1",           459,         -3.75,          -30.,            0.,NA,NA,"",            0.,  -798.178E-42,  -1.32141E-39,   1.11006E-03
C:/temp/dataset/6/8_20.odb,Step-1,Increment      1: Step Time =    1.000,"PART-1-1",           460,      -6.07748,      -27.5364,            0.,NA,NA,"",   1.51690E-03,  -1.43628E-03,  -487.932E-06,   323.390E-06
C:/temp/dataset/6/8_20.odb,Step-1,Increment      1: Step Time =    1.000,"PART-1-1",           461,      -7.38250,      -28.7433,            0.,NA,NA,"",   1.18550E-03,  -1.18122E-03,   100.631E-06,   560.444E-06
C:/temp/dataset/6/8_20.odb,Step-1,Increment      1: Step Time =    1.000,"PART-1-1",           462,         -6.25,          -30.,            0.,NA,NA,"",            0.,  -780.371E-42,  -329.368E-42,   837.714E-06
C:/temp/dataset/6/8_20.odb,Step-1,Increment      1: Step Time =    1.000,"PART-1-1",           463,      -8.77755,      -24.1806,            0.,NA,NA,"",   3.17579E-03,   1.83753E-03,   2.59020E-03,   526.923E-06
C:/temp/dataset/6/8_20.odb,Step-1,Increment      1: Step Time =    1.000,"PART-1-1",           464,      -9.92276,      -23.8066,            0.,NA,NA,"",   6.30820E-03,   3.02465E-03,   5.53578E-03,   1.14401E-03
C:/temp/dataset/6/8_20.odb,Step-1,Increment      1: Step Time =    1.000,"PART-1-1",           465,      -10.3347,      -25.6230,            0.,NA,NA,"",   4.51689E-03,   421.973E-06,   4.49714E-03,   1.35076E-03
C:/temp/dataset/6/8_20.odb,Step-1,Increment      1: Step Time =    1.000,"PART-1-1",           466,       13.9544,      -21.3085,            0.,NA,NA,"",   100.621E-03,   45.7989E-03,  -89.5938E-03,   11.4276E-03
C:/temp/dataset/6/8_20.odb,Step-1,Increment      1: Step Time =    1.000,"PART-1-1",           467,       13.8855,      -23.5136,            0.,NA,NA,"",   75.7697E-03,   35.9864E-03,  -66.6785E-03,   11.3436E-03
C:/temp/dataset/6/8_20.odb,Step-1,Increment      1: Step Time =    1.000,"PART-1-1",           468,           15.,      -22.3438,            0.,NA,NA,"",   95.7896E-03,   46.7288E-03,  -83.6186E-03,   11.6276E-03
C:/temp/dataset/6/8_20.odb,Step-1,Increment      1: Step Time =    1.000,"PART-1-1",           469,       12.7349,      -24.6944,            0.,NA,NA,"",   55.9605E-03,   25.3506E-03,  -49.8891E-03,   11.2475E-03
C:/temp/dataset/6/8_20.odb,Step-1,Increment      1: Step Time =    1.000,"PART-1-1",           470,       13.8494,      -25.7120,            0.,NA,NA,"",   51.6846E-03,   26.8743E-03,  -44.1483E-03,   11.3858E-03
C:/temp/dataset/6/8_20.odb,Step-1,Increment      1: Step Time =    1.000,"PART-1-1",           471,           15.,      -24.5313,            0.,NA,NA,"",   71.5691E-03,   37.5241E-03,  -60.9433E-03,   11.4107E-03
C:/temp/dataset/6/8_20.odb,Step-1,Increment      1: Step Time =    1.000,"PART-1-1",           472,         11.25,          -30.,            0.,NA,NA,"",            0.,   1.18164E-39,  -15.8002E-39,   8.08359E-03
C:/temp/dataset/6/8_20.odb,Step-1,Increment      1: Step Time =    1.000,"PART-1-1",           473,       13.9950,      -12.5232,            0.,NA,NA,"",   208.087E-03,   92.5058E-03,  -186.394E-03,   13.3671E-03
C:/temp/dataset/6/8_20.odb,Step-1,Increment      1: Step Time =    1.000,"PART-1-1",           474,       12.9942,      -13.6844,            0.,NA,NA,"",   182.994E-03,   79.1383E-03,  -164.997E-03,   12.4661E-03
C:/temp/dataset/6/8_20.odb,Step-1,Increment      1: Step Time =    1.000,"PART-1-1",           475,           15.,      -13.5938,            0.,NA,NA,"",   202.541E-03,   91.4821E-03,  -180.704E-03,   13.6315E-03
C:/temp/dataset/6/8_20.odb,Step-1,Increment      1: Step Time =    1.000,"PART-1-1",           476,       9.85236,      -17.2546,            0.,NA,NA,"",   114.443E-03,   44.8190E-03,  -105.302E-03,   10.2340E-03
C:/temp/dataset/6/8_20.odb,Step-1,Increment      1: Step Time =    1.000,"PART-1-1",           477,       8.68427,      -17.7513,            0.,NA,NA,"",   100.245E-03,   37.8426E-03,  -92.8274E-03,   9.63408E-03
C:/temp/dataset/6/8_20.odb,Step-1,Increment      1: Step Time =    1.000,"PART-1-1",           478,       8.96140,      -18.9835,            0.,NA,NA,"",   90.5006E-03,   33.4643E-03,  -84.0862E-03,   9.55083E-03
C:/temp/dataset/6/8_20.odb,Step-1,Increment      1: Step Time =    1.000,"PART-1-1",           479,       10.1295,      -18.4868,            0.,NA,NA,"",   104.141E-03,   40.3990E-03,  -95.9862E-03,   10.1295E-03
C:/temp/dataset/6/8_20.odb,Step-1,Increment      1: Step Time =    1.000,"PART-1-1",           480,       11.2436,      -18.3856,            0.,NA,NA,"",   113.671E-03,   45.7609E-03,  -104.053E-03,   10.7056E-03
C:/temp/dataset/6/8_20.odb,Step-1,Increment      1: Step Time =    1.000,"PART-1-1",           481,       12.3956,      -19.2305,            0.,NA,NA,"",   113.051E-03,   47.3211E-03,  -102.670E-03,   11.0856E-03
C:/temp/dataset/6/8_20.odb,Step-1,Increment      1: Step Time =    1.000,"PART-1-1",           482,       13.1120,      -18.1414,            0.,NA,NA,"",   130.513E-03,   56.0168E-03,  -117.881E-03,   11.5782E-03
C:/temp/dataset/6/8_20.odb,Step-1,Increment      1: Step Time =    1.000,"PART-1-1",           483,       11.9600,      -17.2965,            0.,NA,NA,"",   131.100E-03,   54.2721E-03,  -119.339E-03,   11.1963E-03
C:/temp/dataset/6/8_20.odb,Step-1,Increment      1: Step Time =    1.000,"PART-1-1",           484,       14.0024,      -3.77677,            0.,NA,NA,"",   353.287E-03,   181.247E-03,  -303.251E-03,   16.6218E-03
C:/temp/dataset/6/8_20.odb,Step-1,Increment      1: Step Time =    1.000,"PART-1-1",           485,       13.0359,      -4.87313,            0.,NA,NA,"",   315.822E-03,   159.942E-03,  -272.327E-03,   14.7805E-03
C:/temp/dataset/6/8_20.odb,Step-1,Increment      1: Step Time =    1.000,"PART-1-1",           486,       14.0335,      -5.94012,            0.,NA,NA,"",   312.563E-03,   153.512E-03,  -272.268E-03,   15.5669E-03
C:/temp/dataset/6/8_20.odb,Step-1,Increment      1: Step Time =    1.000,"PART-1-1",           487,           15.,      -4.84375,            0.,NA,NA,"",   348.371E-03,   174.331E-03,  -301.614E-03,   17.4349E-03
C:/temp/dataset/6/8_20.odb,Step-1,Increment      1: Step Time =    1.000,"PART-1-1",           488,       13.0510,      -7.01836,            0.,NA,NA,"",   279.517E-03,   134.851E-03,  -244.836E-03,   14.1028E-03
C:/temp/dataset/6/8_20.odb,Step-1,Increment      1: Step Time =    1.000,"PART-1-1",           489,       14.0175,      -8.10950,            0.,NA,NA,"",   274.927E-03,   129.685E-03,  -242.418E-03,   14.7344E-03
C:/temp/dataset/6/8_20.odb,Step-1,Increment      1: Step Time =    1.000,"PART-1-1",           490,           15.,      -7.03125,            0.,NA,NA,"",   306.590E-03,   147.878E-03,  -268.570E-03,   16.2177E-03
C:/temp/dataset/6/8_20.odb,Step-1,Increment      1: Step Time =    1.000,"PART-1-1",           491,         13.75,            5.,            0.,NA,NA,"",   581.253E-03,   370.249E-03,  -448.075E-03,   19.3078E-03
C:/temp/dataset/6/8_20.odb,Step-1,Increment      1: Step Time =    1.000,"PART-1-1",           492,       12.4982,       3.90020,            0.,NA,NA,"",   512.889E-03,   329.408E-03,  -393.122E-03,   20.2388E-03
C:/temp/dataset/6/8_20.odb,Step-1,Increment      1: Step Time =    1.000,"PART-1-1",           493,       13.7482,       2.80645,            0.,NA,NA,"",   512.038E-03,   308.984E-03,  -408.304E-03,   20.2220E-03
C:/temp/dataset/6/8_20.odb,Step-1,Increment      1: Step Time =    1.000,"PART-1-1",           494,           15.,       3.90625,            0.,NA,NA,"",   580.663E-03,   350.462E-03,  -462.975E-03,   20.5522E-03
C:/temp/dataset/6/8_20.odb,Step-1,Increment      1: Step Time =    1.000,"PART-1-1",           495,         11.25,            5.,            0.,NA,NA,"",   515.484E-03,   355.442E-03,  -373.343E-03,   17.9741E-03
C:/temp/dataset/6/8_20.odb,Step-1,Increment      1: Step Time =    1.000,"PART-1-1",           496,       11.2740,       2.82937,            0.,NA,NA,"",   441.678E-03,   287.405E-03,  -335.377E-03,   17.5518E-03
C:/temp/dataset/6/8_20.odb,Step-1,Increment      1: Step Time =    1.000,"PART-1-1",           497,       11.1422,   446.578E-03,            0.,NA,NA,"",   379.578E-03,   232.843E-03,  -299.772E-03,   13.6445E-03
C:/temp/dataset/6/8_20.odb,Step-1,Increment      1: Step Time =    1.000,"PART-1-1",           498,       10.2035,  -836.101E-03,            0.,NA,NA,"",   332.946E-03,   204.786E-03,  -262.519E-03,   10.8900E-03
C:/temp/dataset/6/8_20.odb,Step-1,Increment      1: Step Time =    1.000,"PART-1-1",           499,       11.7017,      -1.82731,            0.,NA,NA,"",   346.565E-03,   195.557E-03,  -286.120E-03,   13.6134E-03
C:/temp/dataset/6/8_20.odb,Step-1,Increment      1: Step Time =    1.000,"PART-1-1",           500,       12.5035,       1.67834,            0.,NA,NA,"",   445.416E-03,   269.159E-03,  -354.893E-03,   18.2591E-03
C:/temp/dataset/6/8_20.odb,Step-1,Increment      1: Step Time =    1.000,"PART-1-1",           501,       9.91277,       1.59761,            0.,NA,NA,"",   373.005E-03,   249.942E-03,  -276.878E-03,   11.6804E-03
C:/temp/dataset/6/8_20.odb,Step-1,Increment      1: Step Time =    1.000,"PART-1-1",           502,       5.19643,       3.92738,            0.,NA,NA,"",   332.298E-03,   288.473E-03,  -164.940E-03,   5.31269E-03
C:/temp/dataset/6/8_20.odb,Step-1,Increment      1: Step Time =    1.000,"PART-1-1",           503,          3.75,            5.,            0.,NA,NA,"",   332.827E-03,   300.616E-03,  -142.841E-03,   6.47790E-03
C:/temp/dataset/6/8_20.odb,Step-1,Increment      1: Step Time =    1.000,"PART-1-1",           504,       2.66615,       3.61346,            0.,NA,NA,"",   299.587E-03,   273.161E-03,  -123.026E-03,   3.88765E-03
C:/temp/dataset/6/8_20.odb,Step-1,Increment      1: Step Time =    1.000,"PART-1-1",           505,      -1.00804,       2.95894,            0.,NA,NA,"",   265.430E-03,   254.573E-03,  -75.1372E-03,   2.40942E-03
C:/temp/dataset/6/8_20.odb,Step-1,Increment      1: Step Time =    1.000,"PART-1-1",           506,   87.8012E-03,       3.95476,            0.,NA,NA,"",   284.902E-03,   270.505E-03,  -89.4192E-03,   3.19520E-03
C:/temp/dataset/6/8_20.odb,Step-1,Increment      1: Step Time =    1.000,"PART-1-1",           507,         -1.25,            5.,            0.,NA,NA,"",   289.880E-03,   280.050E-03,  -74.8466E-03,   3.24474E-03
C:/temp/dataset/6/8_20.odb,Step-1,Increment      1: Step Time =    1.000,"PART-1-1",           508,      -2.34584,       4.00418,            0.,NA,NA,"",   272.380E-03,   265.472E-03,  -60.9527E-03,   2.29127E-03
C:/temp/dataset/6/8_20.odb,Step-1,Increment      1: Step Time =    1.000,"PART-1-1",           509,      -3.27281,       2.96378,            0.,NA,NA,"",   256.158E-03,   251.250E-03,  -49.9060E-03,   1.83342E-03
C:/temp/dataset/6/8_20.odb,Step-1,Increment      1: Step Time =    1.000,"PART-1-1",           510,         -3.75,            5.,            0.,NA,NA,"",   278.026E-03,   274.113E-03,  -46.4778E-03,   2.30025E-03
C:/temp/dataset/6/8_20.odb,Step-1,Increment      1: Step Time =    1.000,"PART-1-1",           511,      -4.67697,       3.95960,            0.,NA,NA,"",   263.717E-03,   261.296E-03,  -35.6486E-03,   1.46427E-03
C:/temp/dataset/6/8_20.odb,Step-1,Increment      1: Step Time =    1.000,"PART-1-1",           512,      -7.93004,       8.58536,            0.,NA,NA,"",   308.221E-03,   308.209E-03,  -2.74017E-03,   43.5557E-06
C:/temp/dataset/6/8_20.odb,Step-1,Increment      1: Step Time =    1.000,"PART-1-1",           513,      -8.65034,       7.25415,            0.,NA,NA,"",   294.060E-03,   294.018E-03,   4.98871E-03,   89.3034E-06
C:/temp/dataset/6/8_20.odb,Step-1,Increment      1: Step Time =    1.000,"PART-1-1",           514,      -7.51010,       6.50150,            0.,NA,NA,"",   286.130E-03,   286.042E-03,  -7.12824E-03,   119.901E-06
C:/temp/dataset/6/8_20.odb,Step-1,Increment      1: Step Time =    1.000,"PART-1-1",           515,      -6.78981,       7.83270,            0.,NA,NA,"",   300.485E-03,   300.119E-03,  -14.8295E-03,   47.7965E-06
C:/temp/dataset/6/8_20.odb,Step-1,Increment      1: Step Time =    1.000,"PART-1-1",           516,      -7.08495,       12.0475,            0.,NA,NA,"",   345.510E-03,   345.305E-03,  -11.9174E-03,   27.4923E-06
C:/temp/dataset/6/8_20.odb,Step-1,Increment      1: Step Time =    1.000,"PART-1-1",           517,      -6.02998,       11.1050,            0.,NA,NA,"",   335.916E-03,   335.117E-03,  -23.1505E-03,   28.3006E-06
C:/temp/dataset/6/8_20.odb,Step-1,Increment      1: Step Time =    1.000,"PART-1-1",           518,           -5.,       12.2917,            0.,NA,NA,"",   349.502E-03,   347.816E-03,  -34.2906E-03,   24.7137E-06
C:/temp/dataset/6/8_20.odb,Step-1,Increment      1: Step Time =    1.000,"PART-1-1",           519,      -6.05497,       13.2342,            0.,NA,NA,"",   358.739E-03,   357.999E-03,  -23.0324E-03,   11.4825E-06
C:/temp/dataset/6/8_20.odb,Step-1,Increment      1: Step Time =    1.000,"PART-1-1",           520,      -9.96524,       21.0498,            0.,NA,NA,"",   442.558E-03,   442.171E-03,   18.4925E-03,   224.351E-09
C:/temp/dataset/6/8_20.odb,Step-1,Increment      1: Step Time =    1.000,"PART-1-1",           521,      -8.51702,       20.1362,            0.,NA,NA,"",   432.288E-03,   432.278E-03,   2.99509E-03,   260.323E-09
C:/temp/dataset/6/8_20.odb,Step-1,Increment      1: Step Time =    1.000,"PART-1-1",           522,      -8.09442,       21.6565,            0.,NA,NA,"",   448.580E-03,   448.577E-03,  -1.63021E-03,   100.425E-09
C:/temp/dataset/6/8_20.odb,Step-1,Increment      1: Step Time =    1.000,"PART-1-1",           523,      -9.54264,       22.5701,            0.,NA,NA,"",   458.680E-03,   458.470E-03,   13.8672E-03,   130.515E-09
C:/temp/dataset/6/8_20.odb,Step-1,Increment      1: Step Time =    1.000,"PART-1-1",           524,      -7.38593,       19.0122,            0.,NA,NA,"",   420.240E-03,   420.142E-03,  -9.08517E-03,   862.226E-09
C:/temp/dataset/6/8_20.odb,Step-1,Increment      1: Step Time =    1.000,"PART-1-1",           525,      -6.14460,       17.5723,            0.,NA,NA,"",   405.223E-03,   404.607E-03,  -22.3312E-03,   840.452E-09
C:/temp/dataset/6/8_20.odb,Step-1,Increment      1: Step Time =    1.000,"PART-1-1",           526,           -5.,       18.5417,            0.,NA,NA,"",   416.398E-03,   414.952E-03,  -34.6785E-03,   167.111E-09
C:/temp/dataset/6/8_20.odb,Step-1,Increment      1: Step Time =    1.000,"PART-1-1",           527,      -9.12859,       24.1056,            0.,NA,NA,"",   475.026E-03,   474.934E-03,   9.33276E-03,   103.554E-09
C:/temp/dataset/6/8_20.odb,Step-1,Increment      1: Step Time =    1.000,"PART-1-1",           528,      -7.82088,       23.2603,            0.,NA,NA,"",   465.805E-03,   465.782E-03,  -4.65992E-03,   114.537E-09
C:/temp/dataset/6/8_20.odb,Step-1,Increment      1: Step Time =    1.000,"PART-1-1",           529,      -7.11221,       24.6459,            0.,NA,NA,"",   480.778E-03,   480.619E-03,  -12.3491E-03,   101.646E-09
C:/temp/dataset/6/8_20.odb,Step-1,Increment      1: Step Time =    1.000,"PART-1-1",           530,      -8.41993,       25.4912,            0.,NA,NA,"",   489.774E-03,   489.771E-03,   1.64360E-03,   74.2893E-09
C:/temp/dataset/6/8_20.odb,Step-1,Increment      1: Step Time =    1.000,"PART-1-1",           531,           -5.,       28.9583,            0.,NA,NA,"",   527.981E-03,   526.801E-03,  -35.2771E-03,   5.59049E-09
C:/temp/dataset/6/8_20.odb,Step-1,Increment      1: Step Time =    1.000,"PART-1-1",           532,         -6.25,           30.,            0.,NA,NA,"",   538.504E-03,   538.058E-03,  -21.9155E-03,   5.40458E-09
C:/temp/dataset/6/8_20.odb,Step-1,Increment      1: Step Time =    1.000,"PART-1-1",           533,      -6.22481,       27.8751,            0.,NA,NA,"",   515.713E-03,   515.240E-03,  -22.0635E-03,   23.2336E-09
C:/temp/dataset/6/8_20.odb,Step-1,Increment      1: Step Time =    1.000,"PART-1-1",           534,      -11.1386,       27.5393,            0.,NA,NA,"",   512.839E-03,   511.918E-03,   30.7163E-03,   38.6649E-09
C:/temp/dataset/6/8_20.odb,Step-1,Increment      1: Step Time =    1.000,"PART-1-1",           535,        -11.25,           30.,            0.,NA,NA,"",   539.283E-03,   538.346E-03,   31.7708E-03,   25.4396E-09
C:/temp/dataset/6/8_20.odb,Step-1,Increment      1: Step Time =    1.000,"PART-1-1",           536,      -13.1147,       13.7606,            0.,NA,NA,"",   367.909E-03,   364.110E-03,   52.7300E-03,   12.4628E-06
C:/temp/dataset/6/8_20.odb,Step-1,Increment      1: Step Time =    1.000,"PART-1-1",           537,      -14.0658,       14.9906,            0.,NA,NA,"",   382.565E-03,   377.364E-03,   62.8726E-03,   4.16982E-06
C:/temp/dataset/6/8_20.odb,Step-1,Increment      1: Step Time =    1.000,"PART-1-1",           538,          -15.,         13.75,            0.,NA,NA,"",   371.344E-03,   364.102E-03,   72.9791E-03,   9.87008E-06
C:/temp/dataset/6/8_20.odb,Step-1,Increment      1: Step Time =    1.000,"PART-1-1",           539,      -9.42834,       18.6970,            0.,NA,NA,"",   417.076E-03,   416.877E-03,   12.8628E-03,   1.34925E-06
C:/temp/dataset/6/8_20.odb,Step-1,Increment      1: Step Time =    1.000,"PART-1-1",           540,      -8.29725,       17.5730,            0.,NA,NA,"",   404.741E-03,   404.740E-03,   782.275E-06,   1.82597E-06
C:/temp/dataset/6/8_20.odb,Step-1,Increment      1: Step Time =    1.000,"PART-1-1",           541,      -12.7588,       6.21303,            0.,NA,NA,"",   287.099E-03,   282.823E-03,   49.3650E-03,   40.9249E-06
C:/temp/dataset/6/8_20.odb,Step-1,Increment      1: Step Time =    1.000,"PART-1-1",           542,          -15.,          6.25,            0.,NA,NA,"",   292.745E-03,   283.294E-03,   73.7825E-03,   96.4345E-06
C:/temp/dataset/6/8_20.odb,Step-1,Increment      1: Step Time =    1.000,"PART-1-1",           543,      -9.01063,       9.47069,            0.,NA,NA,"",   317.900E-03,   317.778E-03,   8.79324E-03,   43.8644E-06
C:/temp/dataset/6/8_20.odb,Step-1,Increment      1: Step Time =    1.000,"PART-1-1",           544,      -10.0811,       10.4578,            0.,NA,NA,"",   329.082E-03,   328.458E-03,   20.2588E-03,   37.5718E-06
C:/temp/dataset/6/8_20.odb,Step-1,Increment      1: Step Time =    1.000,"PART-1-1",           545,      -10.9384,       9.05000,            0.,NA,NA,"",   314.796E-03,   313.408E-03,   29.5239E-03,   36.2675E-06
C:/temp/dataset/6/8_20.odb,Step-1,Increment      1: Step Time =    1.000,"PART-1-1",           546,      -9.86794,       8.06293,            0.,NA,NA,"",   303.269E-03,   302.733E-03,   18.0263E-03,   46.4971E-06
C:/temp/dataset/6/8_20.odb,Step-1,Increment      1: Step Time =    1.000,"PART-1-1",           547,      -7.23366,       1.29985,            0.,NA,NA,"",   228.452E-03,   228.296E-03,  -8.44752E-03,   1.23960E-03
C:/temp/dataset/6/8_20.odb,Step-1,Increment      1: Step Time =    1.000,"PART-1-1",           548,      -8.34685,   784.410E-03,            0.,NA,NA,"",   221.923E-03,   221.903E-03,   2.96952E-03,   1.07635E-03
C:/temp/dataset/6/8_20.odb,Step-1,Increment      1: Step Time =    1.000,"PART-1-1",           549,      -7.43977,  -685.632E-03,            0.,NA,NA,"",   204.445E-03,   204.349E-03,  -6.27133E-03,   1.27342E-03
C:/temp/dataset/6/8_20.odb,Step-1,Increment      1: Step Time =    1.000,"PART-1-1",           550,      -12.4903,      -8.57964,            0.,NA,NA,"",   121.661E-03,   114.684E-03,   40.6066E-03,   1.48749E-03
C:/temp/dataset/6/8_20.odb,Step-1,Increment      1: Step Time =    1.000,"PART-1-1",           551,          -15.,         -8.75,            0.,NA,NA,"",   132.323E-03,   114.833E-03,   65.7483E-03,   2.02913E-03
C:/temp/dataset/6/8_20.odb,Step-1,Increment      1: Step Time =    1.000,"PART-1-1",           552,      -13.5658,      -9.92286,            0.,NA,NA,"",   112.486E-03,   101.133E-03,   49.2459E-03,   1.87423E-03
C:/temp/dataset/6/8_20.odb,Step-1,Increment      1: Step Time =    1.000,"PART-1-1",           553,      -11.9783,      -7.15971,            0.,NA,NA,"",   135.226E-03,   130.083E-03,   36.9382E-03,   1.28898E-03
C:/temp/dataset/6/8_20.odb,Step-1,Increment      1: Step Time =    1.000,"PART-1-1",           554,      -11.8960,      -5.22799,            0.,NA,NA,"",   156.526E-03,   151.952E-03,   37.5643E-03,   1.11570E-03
C:/temp/dataset/6/8_20.odb,Step-1,Increment      1: Step Time =    1.000,"PART-1-1",           555,      -12.4565,      -16.3452,            0.,NA,NA,"",   49.9361E-03,   40.9656E-03,   28.5559E-03,   2.27649E-03
C:/temp/dataset/6/8_20.odb,Step-1,Increment      1: Step Time =    1.000,"PART-1-1",           556,          -15.,        -16.25,            0.,NA,NA,"",   64.7806E-03,   45.1848E-03,   46.4205E-03,   3.75128E-03
C:/temp/dataset/6/8_20.odb,Step-1,Increment      1: Step Time =    1.000,"PART-1-1",           557,      -13.7435,      -17.5611,            0.,NA,NA,"",   47.9644E-03,   33.9536E-03,   33.8783E-03,   3.17082E-03
C:/temp/dataset/6/8_20.odb,Step-1,Increment      1: Step Time =    1.000,"PART-1-1",           558,      -9.99221,      -8.41662,            0.,NA,NA,"",   116.607E-03,   115.366E-03,   16.9612E-03,   1.15043E-03
C:/temp/dataset/6/8_20.odb,Step-1,Increment      1: Step Time =    1.000,"PART-1-1",           559,      -11.4633,      -9.12095,            0.,NA,NA,"",   112.417E-03,   108.256E-03,   30.3019E-03,   1.38058E-03
C:/temp/dataset/6/8_20.odb,Step-1,Increment      1: Step Time =    1.000,"PART-1-1",           560,      -10.8070,      -10.1141,            0.,NA,NA,"",   100.156E-03,   97.3657E-03,   23.4783E-03,   1.28774E-03
C:/temp/dataset/6/8_20.odb,Step-1,Increment      1: Step Time =    1.000,"PART-1-1",           561,      -13.9189,      -24.9166,            0.,NA,NA,"",   13.9241E-03,   4.98541E-03,   13.0010E-03,   3.15363E-03
C:/temp/dataset/6/8_20.odb,Step-1,Increment      1: Step Time =    1.000,"PART-1-1",           562,      -12.9076,      -23.6273,            0.,NA,NA,"",   15.2283E-03,   6.13887E-03,   13.9362E-03,   2.71962E-03
C:/temp/dataset/6/8_20.odb,Step-1,Increment      1: Step Time =    1.000,"PART-1-1",           563,          -15.,        -23.75,            0.,NA,NA,"",   21.0015E-03,   8.96742E-03,   18.9907E-03,   3.87000E-03
C:/temp/dataset/6/8_20.odb,Step-1,Increment      1: Step Time =    1.000,"PART-1-1",           564,          -15.,        -28.75,            0.,NA,NA,"",   4.22496E-03,   2.49203E-03,   3.41176E-03,   3.19294E-03
C:/temp/dataset/6/8_20.odb,Step-1,Increment      1: Step Time =    1.000,"PART-1-1",           565,        -13.75,          -30.,            0.,NA,NA,"",            0.,  -199.560E-42,   4.06877E-39,   2.48240E-03
C:/temp/dataset/6/8_20.odb,Step-1,Increment      1: Step Time =    1.000,"PART-1-1",           566,      -13.7642,      -27.4123,            0.,NA,NA,"",   6.30072E-03,   1.83639E-03,   6.02717E-03,   2.88922E-03
C:/temp/dataset/6/8_20.odb,Step-1,Increment      1: Step Time =    1.000,"PART-1-1",           567,            5.,      -6.25625,            0.,NA,NA,"",   181.141E-03,   113.873E-03,  -140.872E-03,   5.48564E-03
C:/temp/dataset/6/8_20.odb,Step-1,Increment      1: Step Time =    1.000,"PART-1-1",           568,       7.03347,      -6.11658,            0.,NA,NA,"",   207.179E-03,   120.504E-03,  -168.529E-03,   6.36007E-03
C:/temp/dataset/6/8_20.odb,Step-1,Increment      1: Step Time =    1.000,"PART-1-1",           569,       6.04361,      -4.83741,            0.,NA,NA,"",   211.604E-03,   137.052E-03,  -161.223E-03,   5.00407E-03
C:/temp/dataset/6/8_20.odb,Step-1,Increment      1: Step Time =    1.000,"PART-1-1",           570,           15.,      -2.65625,            0.,NA,NA,"",   395.340E-03,   205.850E-03,  -337.520E-03,   19.0769E-03
C:/temp/dataset/6/8_20.odb,Step-1,Increment      1: Step Time =    1.000,"PART-1-1",           571,       12.8875,      -2.72454,            0.,NA,NA,"",   353.366E-03,   188.744E-03,  -298.735E-03,   15.4515E-03
C:/temp/dataset/6/8_20.odb,Step-1,Increment      1: Step Time =    1.000,"PART-1-1",           572,       10.0248,      -7.91896,            0.,NA,NA,"",   223.688E-03,   109.571E-03,  -195.014E-03,   10.5163E-03
C:/temp/dataset/6/8_20.odb,Step-1,Increment      1: Step Time =    1.000,"PART-1-1",           573,       8.98203,      -8.99604,            0.,NA,NA,"",   196.558E-03,   94.4906E-03,  -172.356E-03,   9.64049E-03
C:/temp/dataset/6/8_20.odb,Step-1,Increment      1: Step Time =    1.000,"PART-1-1",           574,       9.98204,      -10.2112,            0.,NA,NA,"",   193.979E-03,   88.1569E-03,  -172.789E-03,   10.6938E-03
C:/temp/dataset/6/8_20.odb,Step-1,Increment      1: Step Time =    1.000,"PART-1-1",           575,            5.,      -11.2813,            0.,NA,NA,"",   130.271E-03,   60.7105E-03,  -115.260E-03,   6.42010E-03
C:/temp/dataset/6/8_20.odb,Step-1,Increment      1: Step Time =    1.000,"PART-1-1",           576,       6.96001,      -11.3098,            0.,NA,NA,"",   148.254E-03,   66.8724E-03,  -132.315E-03,   8.24497E-03
C:/temp/dataset/6/8_20.odb,Step-1,Increment      1: Step Time =    1.000,"PART-1-1",           577,       12.1169,      -5.93459,            0.,NA,NA,"",   282.965E-03,   141.523E-03,  -245.032E-03,   13.1131E-03
C:/temp/dataset/6/8_20.odb,Step-1,Increment      1: Step Time =    1.000,"PART-1-1",           578,       11.1088,      -6.97100,            0.,NA,NA,"",   251.962E-03,   124.576E-03,  -219.011E-03,   11.7597E-03
C:/temp/dataset/6/8_20.odb,Step-1,Increment      1: Step Time =    1.000,"PART-1-1",           579,           15.,      -11.4063,            0.,NA,NA,"",   234.200E-03,   106.974E-03,  -208.341E-03,   14.4487E-03
C:/temp/dataset/6/8_20.odb,Step-1,Increment      1: Step Time =    1.000,"PART-1-1",           580,       13.9991,      -10.3053,            0.,NA,NA,"",   240.142E-03,   109.407E-03,  -213.772E-03,   14.0337E-03
C:/temp/dataset/6/8_20.odb,Step-1,Increment      1: Step Time =    1.000,"PART-1-1",           581,       12.9941,      -11.4223,            0.,NA,NA,"",   212.914E-03,   94.4894E-03,  -190.798E-03,   12.9812E-03
C:/temp/dataset/6/8_20.odb,Step-1,Increment      1: Step Time =    1.000,"PART-1-1",           582,           15.,      -9.21875,            0.,NA,NA,"",   268.756E-03,   125.595E-03,  -237.604E-03,   15.2815E-03
C:/temp/dataset/6/8_20.odb,Step-1,Increment      1: Step Time =    1.000,"PART-1-1",           583,       9.25975,      -25.9916,            0.,NA,NA,"",   27.5580E-03,   5.97288E-03,  -26.9029E-03,   8.74099E-03
C:/temp/dataset/6/8_20.odb,Step-1,Increment      1: Step Time =    1.000,"PART-1-1",           584,       7.97004,      -27.0667,            0.,NA,NA,"",   16.3553E-03,   210.472E-06,  -16.3540E-03,   7.21982E-03
C:/temp/dataset/6/8_20.odb,Step-1,Increment      1: Step Time =    1.000,"PART-1-1",           585,       9.98268,      -20.3187,            0.,NA,NA,"",   84.7656E-03,   31.4325E-03,  -78.7223E-03,   9.89167E-03
C:/temp/dataset/6/8_20.odb,Step-1,Increment      1: Step Time =    1.000,"PART-1-1",           586,       8.47236,      -19.9740,            0.,NA,NA,"",   77.7821E-03,   27.2323E-03,  -72.8591E-03,   9.06895E-03
C:/temp/dataset/6/8_20.odb,Step-1,Increment      1: Step Time =    1.000,"PART-1-1",           587,       7.80775,      -21.2882,            0.,NA,NA,"",   61.1570E-03,   18.5163E-03,  -58.2866E-03,   9.03469E-03
C:/temp/dataset/6/8_20.odb,Step-1,Increment      1: Step Time =    1.000,"PART-1-1",           588,       9.31806,      -21.6330,            0.,NA,NA,"",   67.5832E-03,   22.6980E-03,  -63.6576E-03,   9.62539E-03
C:/temp/dataset/6/8_20.odb,Step-1,Increment      1: Step Time =    1.000,"PART-1-1",           589,          3.75,          -20.,            0.,NA,NA,"",   28.1528E-03,   17.2058E-03,  -22.2832E-03,   2.65073E-03
C:/temp/dataset/6/8_20.odb,Step-1,Increment      1: Step Time =    1.000,"PART-1-1",           590,       2.69482,      -20.9389,            0.,NA,NA,"",   16.7729E-03,   9.54870E-03,  -13.7895E-03,   1.49673E-03
C:/temp/dataset/6/8_20.odb,Step-1,Increment      1: Step Time =    1.000,"PART-1-1",           591,       4.10336,      -21.5712,            0.,NA,NA,"",   26.2137E-03,   6.00484E-03,  -25.5166E-03,   4.79447E-03
C:/temp/dataset/6/8_20.odb,Step-1,Increment      1: Step Time =    1.000,"PART-1-1",           592,       5.15854,      -20.6323,            0.,NA,NA,"",   44.7638E-03,   12.8326E-03,  -42.8849E-03,   8.69399E-03
C:/temp/dataset/6/8_20.odb,Step-1,Increment      1: Step Time =    1.000,"PART-1-1",           593,          1.25,          -20.,            0.,NA,NA,"",   14.3486E-03,   12.3029E-03,  -7.38384E-03,   1.86857E-03
C:/temp/dataset/6/8_20.odb,Step-1,Increment      1: Step Time =    1.000,"PART-1-1",           594,       1.58638,      -22.3782,            0.,NA,NA,"",   8.63030E-03,   3.63050E-03,  -7.82954E-03,   951.524E-06
C:/temp/dataset/6/8_20.odb,Step-1,Increment      1: Step Time =    1.000,"PART-1-1",           595,      -7.18878,      -21.5166,            0.,NA,NA,"",   7.90731E-03,   7.77810E-03,  -1.42362E-03,   791.514E-06
C:/temp/dataset/6/8_20.odb,Step-1,Increment      1: Step Time =    1.000,"PART-1-1",           596,      -8.69544,      -20.4918,            0.,NA,NA,"",   13.0601E-03,   12.4819E-03,   3.84285E-03,   888.311E-06
C:/temp/dataset/6/8_20.odb,Step-1,Increment      1: Step Time =    1.000,"PART-1-1",           597,      -9.53108,      -21.9939,            0.,NA,NA,"",   9.55162E-03,   7.41766E-03,   6.01761E-03,   968.682E-06
C:/temp/dataset/6/8_20.odb,Step-1,Increment      1: Step Time =    1.000,"PART-1-1",           598,      -8.02442,      -23.0186,            0.,NA,NA,"",   4.15183E-03,   3.99754E-03,   1.12131E-03,   272.002E-06
C:/temp/dataset/6/8_20.odb,Step-1,Increment      1: Step Time =    1.000,"PART-1-1",           599,           -5.,      -18.7437,            0.,NA,NA,"",   26.0259E-03,   22.2220E-03,  -13.5473E-03,   4.27816E-03
C:/temp/dataset/6/8_20.odb,Step-1,Increment      1: Step Time =    1.000,"PART-1-1",           600,      -6.23242,      -17.5731,            0.,NA,NA,"",   30.8797E-03,   29.4973E-03,  -9.13600E-03,   2.14789E-03
C:/temp/dataset/6/8_20.odb,Step-1,Increment      1: Step Time =    1.000,"PART-1-1",           601,      -7.41830,      -18.9573,            0.,NA,NA,"",   19.5099E-03,   19.4640E-03,  -1.33702E-03,   1.21236E-03
C:/temp/dataset/6/8_20.odb,Step-1,Increment      1: Step Time =    1.000,"PART-1-1",           602,      -6.18588,      -20.1280,            0.,NA,NA,"",   13.2855E-03,   12.1247E-03,  -5.43098E-03,   2.48214E-03
C:/temp/dataset/6/8_20.odb,Step-1,Increment      1: Step Time =    1.000,"PART-1-1",           603,           -5.,      -16.2312,            0.,NA,NA,"",   46.5757E-03,   41.4785E-03,  -21.1856E-03,   2.57564E-03
C:/temp/dataset/6/8_20.odb,Step-1,Increment      1: Step Time =    1.000,"PART-1-1",           604,      -7.44257,      -16.3835,            0.,NA,NA,"",   38.4553E-03,   38.3182E-03,  -3.24432E-03,   1.42882E-03
C:/temp/dataset/6/8_20.odb,Step-1,Increment      1: Step Time =    1.000,"PART-1-1",           605,      -12.6830,      -26.0788,            0.,NA,NA,"",   7.98522E-03,   1.84786E-03,   7.76847E-03,   2.49260E-03
C:/temp/dataset/6/8_20.odb,Step-1,Increment      1: Step Time =    1.000,"PART-1-1",           606,          -15.,        -26.25,            0.,NA,NA,"",   11.8030E-03,   4.76584E-03,   10.7980E-03,   3.48572E-03
C:/temp/dataset/6/8_20.odb,Step-1,Increment      1: Step Time =    1.000,"PART-1-1",           607,         -8.75,          -30.,            0.,NA,NA,"",            0.,  -840.572E-42,   993.720E-42,   949.314E-06
C:/temp/dataset/6/8_20.odb,Step-1,Increment      1: Step Time =    1.000,"PART-1-1",           608,          -15.,        -18.75,            0.,NA,NA,"",   47.2214E-03,   28.6862E-03,   37.5095E-03,   4.09582E-03
C:/temp/dataset/6/8_20.odb,Step-1,Increment      1: Step Time =    1.000,"PART-1-1",           609,      -12.5734,      -18.8685,            0.,NA,NA,"",   34.1162E-03,   24.3132E-03,   23.9330E-03,   2.50526E-03
C:/temp/dataset/6/8_20.odb,Step-1,Increment      1: Step Time =    1.000,"PART-1-1",           610,           -5.,      -11.2063,            0.,NA,NA,"",   91.3028E-03,   86.3760E-03,  -29.5871E-03,   1.29879E-03
C:/temp/dataset/6/8_20.odb,Step-1,Increment      1: Step Time =    1.000,"PART-1-1",           611,      -7.25264,      -11.4522,            0.,NA,NA,"",   83.5069E-03,   83.1046E-03,  -8.18742E-03,   888.769E-06
C:/temp/dataset/6/8_20.odb,Step-1,Increment      1: Step Time =    1.000,"PART-1-1",           612,           -5.,      -6.23750,            0.,NA,NA,"",   143.055E-03,   139.247E-03,  -32.7876E-03,   193.351E-06
C:/temp/dataset/6/8_20.odb,Step-1,Increment      1: Step Time =    1.000,"PART-1-1",           613,      -6.16987,      -5.46941,            0.,NA,NA,"",   149.364E-03,   147.972E-03,  -20.3413E-03,   559.436E-06
C:/temp/dataset/6/8_20.odb,Step-1,Increment      1: Step Time =    1.000,"PART-1-1",           614,      -7.24309,      -6.98789,            0.,NA,NA,"",   131.217E-03,   130.883E-03,  -9.35910E-03,   814.816E-06
C:/temp/dataset/6/8_20.odb,Step-1,Increment      1: Step Time =    1.000,"PART-1-1",           615,           -5.,       16.4583,            0.,NA,NA,"",   394.096E-03,   392.577E-03,  -34.5584E-03,   1.54451E-06
C:/temp/dataset/6/8_20.odb,Step-1,Increment      1: Step Time =    1.000,"PART-1-1",           616,      -7.23328,       16.4840,            0.,NA,NA,"",   393.124E-03,   392.982E-03,  -10.5789E-03,   4.05037E-06
C:/temp/dataset/6/8_20.odb,Step-1,Increment      1: Step Time =    1.000,"PART-1-1",           617,      -6.08867,       15.3700,            0.,NA,NA,"",   381.631E-03,   380.949E-03,  -22.8024E-03,   3.72912E-06
C:/temp/dataset/6/8_20.odb,Step-1,Increment      1: Step Time =    1.000,"PART-1-1",           618,      -13.1522,       16.1892,            0.,NA,NA,"",   393.756E-03,   390.174E-03,   52.9911E-03,   4.14444E-06
C:/temp/dataset/6/8_20.odb,Step-1,Increment      1: Step Time =    1.000,"PART-1-1",           619,      -14.0864,       17.4486,            0.,NA,NA,"",   408.624E-03,   403.746E-03,   62.9485E-03,   760.988E-09
C:/temp/dataset/6/8_20.odb,Step-1,Increment      1: Step Time =    1.000,"PART-1-1",           620,          -15.,         16.25,            0.,NA,NA,"",   397.659E-03,   390.933E-03,   72.8264E-03,   1.76976E-06
C:/temp/dataset/6/8_20.odb,Step-1,Increment      1: Step Time =    1.000,"PART-1-1",           621,           -5.,       24.7917,            0.,NA,NA,"",   483.334E-03,   482.062E-03,  -35.0370E-03,   118.344E-09
C:/temp/dataset/6/8_20.odb,Step-1,Increment      1: Step Time =    1.000,"PART-1-1",           622,      -6.14442,       25.7689,            0.,NA,NA,"",   493.148E-03,   492.621E-03,  -22.8053E-03,   56.7797E-09
C:/temp/dataset/6/8_20.odb,Step-1,Increment      1: Step Time =    1.000,"PART-1-1",           623,           -5.,        26.875,            0.,NA,NA,"",   505.655E-03,   504.432E-03,  -35.1570E-03,   38.7828E-09
C:/temp/dataset/6/8_20.odb,Step-1,Increment      1: Step Time =    1.000,"PART-1-1",           624,      -7.36924,       26.7689,            0.,NA,NA,"",   503.523E-03,   503.430E-03,  -9.71169E-03,   61.1519E-09
C:/temp/dataset/6/8_20.odb,Step-1,Increment      1: Step Time =    1.000,"PART-1-1",           625,      -13.1175,       20.9132,            0.,NA,NA,"",   443.983E-03,   440.887E-03,   52.3463E-03,   66.1570E-09
C:/temp/dataset/6/8_20.odb,Step-1,Increment      1: Step Time =    1.000,"PART-1-1",           626,      -14.0212,       22.2867,            0.,NA,NA,"",   459.881E-03,   455.686E-03,   61.9705E-03,   161.532E-09
C:/temp/dataset/6/8_20.odb,Step-1,Increment      1: Step Time =    1.000,"PART-1-1",           627,          -15.,         21.25,            0.,NA,NA,"",   450.490E-03,   444.611E-03,   72.5390E-03,   338.329E-09
C:/temp/dataset/6/8_20.odb,Step-1,Increment      1: Step Time =    1.000,"PART-1-1",           628,      -14.0963,       19.8765,            0.,NA,NA,"",   434.393E-03,   429.812E-03,   62.9148E-03,   220.986E-09
C:/temp/dataset/6/8_20.odb,Step-1,Increment      1: Step Time =    1.000,"PART-1-1",           629,         -1.25,           -5.,            0.,NA,NA,"",   165.208E-03,   148.114E-03,  -73.1836E-03,   1.91792E-03
C:/temp/dataset/6/8_20.odb,Step-1,Increment      1: Step Time =    1.000,"PART-1-1",           630,      -1.77292,      -3.03732,            0.,NA,NA,"",   185.020E-03,   172.875E-03,  -65.9303E-03,   1.37190E-03
C:/temp/dataset/6/8_20.odb,Step-1,Increment      1: Step Time =    1.000,"PART-1-1",           631,      -12.1053,      -2.30059,            0.,NA,NA,"",   190.500E-03,   185.954E-03,   41.3685E-03,   887.180E-06
C:/temp/dataset/6/8_20.odb,Step-1,Increment      1: Step Time =    1.000,"PART-1-1",           632,      -10.7648,      -1.40855,            0.,NA,NA,"",   198.019E-03,   196.081E-03,   27.6335E-03,   959.705E-06
C:/temp/dataset/6/8_20.odb,Step-1,Increment      1: Step Time =    1.000,"PART-1-1",           633,      -11.5438,  -354.672E-03,            0.,NA,NA,"",   211.655E-03,   208.559E-03,   36.0673E-03,   776.870E-06
C:/temp/dataset/6/8_20.odb,Step-1,Increment      1: Step Time =    1.000,"PART-1-1",           634,          3.75,           -5.,            0.,NA,NA,"",   193.647E-03,   137.687E-03,  -136.167E-03,   2.89571E-03
C:/temp/dataset/6/8_20.odb,Step-1,Increment      1: Step Time =    1.000,"PART-1-1",           635,       4.52066,      -3.83856,            0.,NA,NA,"",   208.984E-03,   151.389E-03,  -144.068E-03,   3.06775E-03
C:/temp/dataset/6/8_20.odb,Step-1,Increment      1: Step Time =    1.000,"PART-1-1",           636,       2.94662,      -2.72704,            0.,NA,NA,"",   210.572E-03,   170.188E-03,  -124.003E-03,   1.94819E-03
C:/temp/dataset/6/8_20.odb,Step-1,Increment      1: Step Time =    1.000,"PART-1-1",           637,       1.50395,       2.56821,            0.,NA,NA,"",   274.616E-03,   253.497E-03,  -105.609E-03,   2.78418E-03
C:/temp/dataset/6/8_20.odb,Step-1,Increment      1: Step Time =    1.000,"PART-1-1",           638,          1.25,            5.,            0.,NA,NA,"",   307.393E-03,   288.479E-03,  -106.164E-03,   4.63417E-03
C:/temp/dataset/6/8_20.odb,Step-1,Increment      1: Step Time =    1.000,"PART-1-1",           639,          6.25,            5.,            0.,NA,NA,"",   369.207E-03,   316.871E-03,  -189.490E-03,   8.62340E-03
C:/temp/dataset/6/8_20.odb,Step-1,Increment      1: Step Time =    1.000,"PART-1-1",           640,  -213.968E-03,      -26.0734,            0.,NA,NA,"",   4.00662E-03,  -2.52845E-03,  -3.10805E-03,   1.33192E-03
C:/temp/dataset/6/8_20.odb,Step-1,Increment      1: Step Time =    1.000,"PART-1-1",           641,       1.14210,      -23.8512,            0.,NA,NA,"",   6.05883E-03,  -198.297E-06,  -6.05558E-03,   1.30797E-03
C:/temp/dataset/6/8_20.odb,Step-1,Increment      1: Step Time =    1.000,"PART-1-1",           642,  -234.527E-03,      -23.9674,            0.,NA,NA,"",   3.68298E-03,   615.250E-06,  -3.63123E-03,   1.24162E-03
C:/temp/dataset/6/8_20.odb,Step-1,Increment      1: Step Time =    1.000,"PART-1-1",           643,           -5.,        14.375,            0.,NA,NA,"",   371.796E-03,   370.198E-03,  -34.4328E-03,   7.78362E-06
C:/temp/dataset/6/8_20.odb,Step-1,Increment      1: Step Time =    1.000,"PART-1-1",           644,      -7.14364,       14.2292,            0.,NA,NA,"",   368.931E-03,   368.754E-03,  -11.4117E-03,   11.6479E-06
C:/temp/dataset/6/8_20.odb,Step-1,Increment      1: Step Time =    1.000,"PART-1-1",           645,           -5.,       6.04167,            0.,NA,NA,"",   283.312E-03,   281.351E-03,  -33.2797E-03,   331.616E-06
C:/temp/dataset/6/8_20.odb,Step-1,Increment      1: Step Time =    1.000,"PART-1-1",           646,      -5.82078,       6.95384,            0.,NA,NA,"",   291.896E-03,   290.827E-03,  -24.9482E-03,   185.264E-06
C:/temp/dataset/6/8_20.odb,Step-1,Increment      1: Step Time =    1.000,"PART-1-1",           647,      -6.45742,       5.85906,            0.,NA,NA,"",   280.099E-03,   279.506E-03,  -18.2064E-03,   337.085E-06
C:/temp/dataset/6/8_20.odb,Step-1,Increment      1: Step Time =    1.000,"PART-1-1",           648,      -5.63664,       4.94688,            0.,NA,NA,"",   271.976E-03,   270.679E-03,  -26.5312E-03,   996.571E-06
C:/temp/dataset/6/8_20.odb,Step-1,Increment      1: Step Time =    1.000,"PART-1-1",           649,           -5.,         8.125,            0.,NA,NA,"",   305.053E-03,   303.175E-03,  -33.7925E-03,   150.480E-06
C:/temp/dataset/6/8_20.odb,Step-1,Increment      1: Step Time =    1.000,"PART-1-1",           650,      -5.96903,       9.00386,            0.,NA,NA,"",   313.468E-03,   312.577E-03,  -23.6206E-03,   62.4530E-06
C:/temp/dataset/6/8_20.odb,Step-1,Increment      1: Step Time =    1.000,"PART-1-1",           651,          -15.,         -3.75,            0.,NA,NA,"",   184.996E-03,   170.349E-03,   72.1453E-03,   989.650E-06
C:/temp/dataset/6/8_20.odb,Step-1,Increment      1: Step Time =    1.000,"PART-1-1",           652,      -12.7846,      -3.59401,            0.,NA,NA,"",   177.727E-03,   171.149E-03,   47.9065E-03,   970.296E-06
C:/temp/dataset/6/8_20.odb,Step-1,Increment      1: Step Time =    1.000,"PART-1-1",           653,      -11.5430,      -4.20540,            0.,NA,NA,"",   167.221E-03,   163.613E-03,   34.5512E-03,   1.06530E-03
C:/temp/dataset/6/8_20.odb,Step-1,Increment      1: Step Time =    1.000,"PART-1-1",           654,      -10.1018,      -4.29084,            0.,NA,NA,"",   163.391E-03,   162.186E-03,   19.8059E-03,   1.07708E-03
C:/temp/dataset/6/8_20.odb,Step-1,Increment      1: Step Time =    1.000,"PART-1-1",           655,          -15.,        -11.25,            0.,NA,NA,"",   107.789E-03,   89.0947E-03,   60.6688E-03,   2.61522E-03
C:/temp/dataset/6/8_20.odb,Step-1,Increment      1: Step Time =    1.000,"PART-1-1",           656,      -12.2331,      -11.1785,            0.,NA,NA,"",   93.9590E-03,   87.1515E-03,   35.1127E-03,   1.71985E-03
C:/temp/dataset/6/8_20.odb,Step-1,Increment      1: Step Time =    1.000,"PART-1-1",           657,       5.21391,      -1.02834,            0.,NA,NA,"",   250.722E-03,   194.593E-03,  -158.100E-03,   1.74378E-03
C:/temp/dataset/6/8_20.odb,Step-1,Increment      1: Step Time =    1.000,"PART-1-1",           658,       6.72319,      -1.59046,            0.,NA,NA,"",   260.636E-03,   185.334E-03,  -183.255E-03,   3.90359E-03
C:/temp/dataset/6/8_20.odb,Step-1,Increment      1: Step Time =    1.000,"PART-1-1",           659,       10.9187,      -16.2245,            0.,NA,NA,"",   134.229E-03,   54.4955E-03,  -122.669E-03,   10.9008E-03
C:/temp/dataset/6/8_20.odb,Step-1,Increment      1: Step Time =    1.000,"PART-1-1",           660,       11.9858,      -14.8752,            0.,NA,NA,"",   158.986E-03,   66.7869E-03,  -144.277E-03,   11.6720E-03
C:/temp/dataset/6/8_20.odb,Step-1,Increment      1: Step Time =    1.000,"PART-1-1",           661,       10.9746,      -13.7451,            0.,NA,NA,"",   162.596E-03,   68.1228E-03,  -147.637E-03,   11.2781E-03
C:/temp/dataset/6/8_20.odb,Step-1,Increment      1: Step Time =    1.000,"PART-1-1",           662,       11.9830,      -12.5543,            0.,NA,NA,"",   187.227E-03,   80.8404E-03,  -168.875E-03,   12.0637E-03
C:/temp/dataset/6/8_20.odb,Step-1,Increment      1: Step Time =    1.000,"PART-1-1",           663,           15.,      -20.1563,            0.,NA,NA,"",   120.604E-03,   56.4755E-03,  -106.564E-03,   11.8182E-03
C:/temp/dataset/6/8_20.odb,Step-1,Increment      1: Step Time =    1.000,"PART-1-1",           664,       14.0841,      -19.1367,            0.,NA,NA,"",   126.130E-03,   56.3726E-03,  -112.831E-03,   11.6933E-03
C:/temp/dataset/6/8_20.odb,Step-1,Increment      1: Step Time =    1.000,"PART-1-1",           665,       13.0385,      -20.2889,            0.,NA,NA,"",   105.862E-03,   45.6772E-03,  -95.5008E-03,   11.2977E-03
C:/temp/dataset/6/8_20.odb,Step-1,Increment      1: Step Time =    1.000,"PART-1-1",           666,           15.,      -17.9688,            0.,NA,NA,"",   146.316E-03,   66.9534E-03,  -130.099E-03,   12.2234E-03
C:/temp/dataset/6/8_20.odb,Step-1,Increment      1: Step Time =    1.000,"PART-1-1",           667,          1.25,          -30.,            0.,NA,NA,"",            0.,  -1.64551E-39,  -4.04238E-39,   2.69381E-03
C:/temp/dataset/6/8_20.odb,Step-1,Increment      1: Step Time =    1.000,"PART-1-1",           668,       3.30543,      -22.6598,            0.,NA,NA,"",   16.4352E-03,   1.81150E-03,  -16.3351E-03,   2.95132E-03
C:/temp/dataset/6/8_20.odb,Step-1,Increment      1: Step Time =    1.000,"PART-1-1",           669,       2.86115,      -24.1329,            0.,NA,NA,"",   11.8078E-03,  -1.78069E-03,  -11.6727E-03,   2.78874E-03
C:/temp/dataset/6/8_20.odb,Step-1,Increment      1: Step Time =    1.000,"PART-1-1",           670,      -10.6801,      -21.6169,            0.,NA,NA,"",   14.1978E-03,   9.56748E-03,   10.4900E-03,   1.56798E-03
C:/temp/dataset/6/8_20.odb,Step-1,Increment      1: Step Time =    1.000,"PART-1-1",           671,      -11.3394,      -20.4213,            0.,NA,NA,"",   21.1731E-03,   14.9665E-03,   14.9768E-03,   1.92298E-03
C:/temp/dataset/6/8_20.odb,Step-1,Increment      1: Step Time =    1.000,"PART-1-1",           672,      -12.1593,      -22.4638,            0.,NA,NA,"",   16.5033E-03,   8.29900E-03,   14.2648E-03,   2.34405E-03
C:/temp/dataset/6/8_20.odb,Step-1,Increment      1: Step Time =    1.000,"PART-1-1",           673,      -9.92443,      -16.4516,            0.,NA,NA,"",   40.1499E-03,   38.1959E-03,   12.3730E-03,   1.27518E-03
C:/temp/dataset/6/8_20.odb,Step-1,Increment      1: Step Time =    1.000,"PART-1-1",           674,      -8.71114,      -17.7111,            0.,NA,NA,"",   28.8185E-03,   28.4082E-03,   4.84558E-03,   1.14038E-03
C:/temp/dataset/6/8_20.odb,Step-1,Increment      1: Step Time =    1.000,"PART-1-1",           675,      -9.25100,      -7.50767,            0.,NA,NA,"",   125.687E-03,   125.271E-03,   10.2175E-03,   1.07238E-03
C:/temp/dataset/6/8_20.odb,Step-1,Increment      1: Step Time =    1.000,"PART-1-1",           676,      -8.32615,      -6.25855,            0.,NA,NA,"",   139.207E-03,   139.200E-03,   1.45233E-03,   955.108E-06
C:/temp/dataset/6/8_20.odb,Step-1,Increment      1: Step Time =    1.000,"PART-1-1",           677,      -7.58018,      -5.09368,            0.,NA,NA,"",   152.522E-03,   152.410E-03,  -5.84914E-03,   861.965E-06
C:/temp/dataset/6/8_20.odb,Step-1,Increment      1: Step Time =    1.000,"PART-1-1",           678,      -6.67379,      -3.84489,            0.,NA,NA,"",   167.169E-03,   166.514E-03,  -14.7915E-03,   1.05947E-03
C:/temp/dataset/6/8_20.odb,Step-1,Increment      1: Step Time =    1.000,"PART-1-1",           679,      -2.40491,      -1.03021,            0.,NA,NA,"",   207.744E-03,   199.397E-03,  -58.2981E-03,   1.57257E-03
C:/temp/dataset/6/8_20.odb,Step-1,Increment      1: Step Time =    1.000,"PART-1-1",           680,      -3.32453,      -2.14711,            0.,NA,NA,"",   191.588E-03,   185.309E-03,  -48.6465E-03,   1.40838E-03
C:/temp/dataset/6/8_20.odb,Step-1,Increment      1: Step Time =    1.000,"PART-1-1",           681,       10.4745,      -24.8101,            0.,NA,NA,"",   43.0307E-03,   14.4845E-03,  -40.5196E-03,   9.99149E-03
C:/temp/dataset/6/8_20.odb,Step-1,Increment      1: Step Time =    1.000,"PART-1-1",           682,       8.16019,      -23.0435,            0.,NA,NA,"",   47.6251E-03,   11.9652E-03,  -46.0975E-03,   8.98317E-03
C:/temp/dataset/6/8_20.odb,Step-1,Increment      1: Step Time =    1.000,"PART-1-1",           683,       9.40124,      -23.8494,            0.,NA,NA,"",   46.9759E-03,   13.6830E-03,  -44.9390E-03,   9.49067E-03
C:/temp/dataset/6/8_20.odb,Step-1,Increment      1: Step Time =    1.000,"PART-1-1",           684,       5.67200,      -27.0943,            0.,NA,NA,"",   12.0962E-03,  -3.36331E-03,  -11.6192E-03,   5.26805E-03
C:/temp/dataset/6/8_20.odb,Step-1,Increment      1: Step Time =    1.000,"PART-1-1",           685,       4.86106,      -26.0050,            0.,NA,NA,"",   14.4785E-03,  -3.50308E-03,  -14.0483E-03,   4.65885E-03
C:/temp/dataset/6/8_20.odb,Step-1,Increment      1: Step Time =    1.000,"PART-1-1",           686,      -2.55341,      -23.8484,            0.,NA,NA,"",   3.55695E-03,   2.42655E-03,  -2.60073E-03,   1.70701E-03
C:/temp/dataset/6/8_20.odb,Step-1,Increment      1: Step Time =    1.000,"PART-1-1",           687,      -4.82130,      -23.8875,            0.,NA,NA,"",   3.65792E-03,   2.56539E-03,  -2.60752E-03,   1.44761E-03
C:/temp/dataset/6/8_20.odb,Step-1,Increment      1: Step Time =    1.000,"PART-1-1",           688,      -5.84083,      -25.1777,            0.,NA,NA,"",   1.40044E-03,   341.785E-06,  -1.35809E-03,   640.883E-06
C:/temp/dataset/6/8_20.odb,Step-1,Increment      1: Step Time =    1.000,"PART-1-1",           689,           15.,      -26.7188,            0.,NA,NA,"",   48.3807E-03,   28.4225E-03,  -39.1517E-03,   11.8031E-03
C:/temp/dataset/6/8_20.odb,Step-1,Increment      1: Step Time =    1.000,"PART-1-1",           690,       10.9874,      -11.4075,            0.,NA,NA,"",   190.830E-03,   83.6912E-03,  -171.498E-03,   11.4940E-03
C:/temp/dataset/6/8_20.odb,Step-1,Increment      1: Step Time =    1.000,"PART-1-1",           691,       7.29436,      -19.7763,            0.,NA,NA,"",   71.1571E-03,   24.5302E-03,  -66.7953E-03,   8.78458E-03
C:/temp/dataset/6/8_20.odb,Step-1,Increment      1: Step Time =    1.000,"PART-1-1",           692,       7.78340,      -18.7858,            0.,NA,NA,"",   83.5879E-03,   30.0064E-03,  -78.0163E-03,   9.10635E-03
C:/temp/dataset/6/8_20.odb,Step-1,Increment      1: Step Time =    1.000,"PART-1-1",           693,       10.8970,      -2.99004,            0.,NA,NA,"",   309.915E-03,   173.763E-03,  -256.619E-03,   11.7610E-03
C:/temp/dataset/6/8_20.odb,Step-1,Increment      1: Step Time =    1.000,"PART-1-1",           694,       12.0828,      -3.88727,            0.,NA,NA,"",   316.583E-03,   167.168E-03,  -268.849E-03,   13.5685E-03
C:/temp/dataset/6/8_20.odb,Step-1,Increment      1: Step Time =    1.000,"PART-1-1",           695,           15.,       1.71875,            0.,NA,NA,"",   512.125E-03,   292.425E-03,  -420.428E-03,   21.6792E-03
C:/temp/dataset/6/8_20.odb,Step-1,Increment      1: Step Time =    1.000,"PART-1-1",           696,       4.00043,  -427.215E-03,            0.,NA,NA,"",   247.987E-03,   205.170E-03,  -139.293E-03,   1.25555E-03
C:/temp/dataset/6/8_20.odb,Step-1,Increment      1: Step Time =    1.000,"PART-1-1",           697,       2.09609,       1.00148,            0.,NA,NA,"",   255.097E-03,   228.990E-03,  -112.418E-03,   1.90374E-03
C:/temp/dataset/6/8_20.odb,Step-1,Increment      1: Step Time =    1.000,"PART-1-1",           698,       2.38138,  -554.063E-03,            0.,NA,NA,"",   234.677E-03,   203.986E-03,  -116.030E-03,   1.53686E-03
C:/temp/dataset/6/8_20.odb,Step-1,Increment      1: Step Time =    1.000,"PART-1-1",           699,   35.7305E-03,       2.11113,            0.,NA,NA,"",   259.220E-03,   244.271E-03,  -86.7575E-03,   2.30503E-03
C:/temp/dataset/6/8_20.odb,Step-1,Increment      1: Step Time =    1.000,"PART-1-1",           700,           -5.,       10.2083,            0.,NA,NA,"",   327.231E-03,   325.449E-03,  -34.0982E-03,   68.0805E-06
C:/temp/dataset/6/8_20.odb,Step-1,Increment      1: Step Time =    1.000,"PART-1-1",           701,      -6.99901,       9.90050,            0.,NA,NA,"",   322.492E-03,   322.241E-03,  -12.7176E-03,   47.0614E-06
C:/temp/dataset/6/8_20.odb,Step-1,Increment      1: Step Time =    1.000,"PART-1-1",           702,      -11.2396,       16.2208,            0.,NA,NA,"",   391.746E-03,   390.400E-03,   32.4498E-03,   5.21786E-06
C:/temp/dataset/6/8_20.odb,Step-1,Increment      1: Step Time =    1.000,"PART-1-1",           703,      -10.2112,       15.1096,            0.,NA,NA,"",   379.014E-03,   378.405E-03,   21.4661E-03,   7.49967E-06
C:/temp/dataset/6/8_20.odb,Step-1,Increment      1: Step Time =    1.000,"PART-1-1",           704,      -9.25876,       16.3324,            0.,NA,NA,"",   391.635E-03,   391.475E-03,   11.1747E-03,   5.17215E-06
C:/temp/dataset/6/8_20.odb,Step-1,Increment      1: Step Time =    1.000,"PART-1-1",           705,      -10.2871,       17.4437,            0.,NA,NA,"",   404.078E-03,   403.470E-03,   22.1545E-03,   2.20296E-06
C:/temp/dataset/6/8_20.odb,Step-1,Increment      1: Step Time =    1.000,"PART-1-1",           706,      -8.19479,       15.2434,            0.,NA,NA,"",   379.714E-03,   379.714E-03,  -187.684E-06,   6.52925E-06
C:/temp/dataset/6/8_20.odb,Step-1,Increment      1: Step Time =    1.000,"PART-1-1",           707,      -9.19446,       14.0222,            0.,NA,NA,"",   366.815E-03,   366.661E-03,   10.6046E-03,   14.2897E-06
C:/temp/dataset/6/8_20.odb,Step-1,Increment      1: Step Time =    1.000,"PART-1-1",           708,      -8.14331,       13.0080,            0.,NA,NA,"",   355.697E-03,   355.696E-03,  -623.784E-06,   17.0224E-06
C:/temp/dataset/6/8_20.odb,Step-1,Increment      1: Step Time =    1.000,"PART-1-1",           709,          -15.,         18.75,            0.,NA,NA,"",   424.046E-03,   417.770E-03,   72.6821E-03,   208.453E-09
C:/temp/dataset/6/8_20.odb,Step-1,Increment      1: Step Time =    1.000,"PART-1-1",           710,      -13.1826,       18.5751,            0.,NA,NA,"",   419.175E-03,   415.787E-03,   53.1805E-03,   907.158E-09
C:/temp/dataset/6/8_20.odb,Step-1,Increment      1: Step Time =    1.000,"PART-1-1",           711,      -11.2313,       23.3702,            0.,NA,NA,"",   468.251E-03,   467.159E-03,   31.9529E-03,   106.083E-09
C:/temp/dataset/6/8_20.odb,Step-1,Increment      1: Step Time =    1.000,"PART-1-1",           712,      -10.8173,       24.9058,            0.,NA,NA,"",   484.400E-03,   483.623E-03,   27.4186E-03,   85.2834E-09
C:/temp/dataset/6/8_20.odb,Step-1,Increment      1: Step Time =    1.000,"PART-1-1",           713,      -13.5418,       24.7667,            0.,NA,NA,"",   485.606E-03,   482.287E-03,   56.6799E-03,   73.9489E-09
C:/temp/dataset/6/8_20.odb,Step-1,Increment      1: Step Time =    1.000,"PART-1-1",           714,      -12.2278,       25.9824,            0.,NA,NA,"",   497.084E-03,   495.264E-03,   42.5011E-03,   77.2277E-09
C:/temp/dataset/6/8_20.odb,Step-1,Increment      1: Step Time =    1.000,"PART-1-1",           715,          -15.,         26.25,            0.,NA,NA,"",   503.508E-03,   498.297E-03,   72.2516E-03,   60.0854E-09
C:/temp/dataset/6/8_20.odb,Step-1,Increment      1: Step Time =    1.000,"PART-1-1",           716,          -15.,         23.75,            0.,NA,NA,"",   476.980E-03,   471.454E-03,   72.3955E-03,   178.953E-09
C:/temp/dataset/6/8_20.odb,Step-1,Increment      1: Step Time =    1.000,"PART-1-1",           717,      -12.5630,       23.3034,            0.,NA,NA,"",   468.806E-03,   466.519E-03,   46.2551E-03,   114.775E-09
C:/temp/dataset/6/8_20.odb,Step-1,Increment      1: Step Time =    1.000,"PART-1-1",           718,      -11.1827,       13.8735,            0.,NA,NA,"",   366.596E-03,   365.200E-03,   31.9621E-03,   14.4768E-06
C:/temp/dataset/6/8_20.odb,Step-1,Increment      1: Step Time =    1.000,"PART-1-1",           719,      -10.1659,       12.7861,            0.,NA,NA,"",   354.086E-03,   353.457E-03,   21.0896E-03,   19.4842E-06
C:/temp/dataset/6/8_20.odb,Step-1,Increment      1: Step Time =    1.000,"PART-1-1",           720,      -11.4858,       20.4947,            0.,NA,NA,"",   437.689E-03,   436.299E-03,   34.8507E-03,   282.174E-09
C:/temp/dataset/6/8_20.odb,Step-1,Increment      1: Step Time =    1.000,"PART-1-1",           721,      -10.4732,       19.7487,            0.,NA,NA,"",   428.903E-03,   428.230E-03,   24.0216E-03,   441.667E-09
C:/temp/dataset/6/8_20.odb,Step-1,Increment      1: Step Time =    1.000,"PART-1-1",           722,      -10.9778,       21.7959,            0.,NA,NA,"",   451.194E-03,   450.240E-03,   29.3215E-03,   119.896E-09
C:/temp/dataset/6/8_20.odb,Step-1,Increment      1: Step Time =    1.000,"PART-1-1",           723,      -9.13796,       11.7463,            0.,NA,NA,"",   342.364E-03,   342.215E-03,   10.0957E-03,   29.7142E-06
C:/temp/dataset/6/8_20.odb,Step-1,Increment      1: Step Time =    1.000,"PART-1-1",           724,      -11.1090,       11.4975,            0.,NA,NA,"",   341.133E-03,   339.696E-03,   31.2774E-03,   28.5474E-06
C:/temp/dataset/6/8_20.odb,Step-1,Increment      1: Step Time =    1.000,"PART-1-1",           725,      -7.95801,       5.48811,            0.,NA,NA,"",   275.253E-03,   275.244E-03,  -2.20052E-03,   334.467E-06
C:/temp/dataset/6/8_20.odb,Step-1,Increment      1: Step Time =    1.000,"PART-1-1",           726,      -9.27172,       5.51676,            0.,NA,NA,"",   275.573E-03,   275.320E-03,   11.8061E-03,   199.634E-06
C:/temp/dataset/6/8_20.odb,Step-1,Increment      1: Step Time =    1.000,"PART-1-1",           727,      -9.10783,       4.19071,            0.,NA,NA,"",   261.034E-03,   260.831E-03,   10.2894E-03,   482.032E-06
C:/temp/dataset/6/8_20.odb,Step-1,Increment      1: Step Time =    1.000,"PART-1-1",           728,      -7.79412,       4.16207,            0.,NA,NA,"",   260.968E-03,   260.944E-03,  -3.57700E-03,   614.693E-06
C:/temp/dataset/6/8_20.odb,Step-1,Increment      1: Step Time =    1.000,"PART-1-1",           729,      -10.3652,   710.465E-03,            0.,NA,NA,"",   222.175E-03,   220.893E-03,   23.8357E-03,   801.172E-06
C:/temp/dataset/6/8_20.odb,Step-1,Increment      1: Step Time =    1.000,"PART-1-1",           730,      -11.5756,       2.14983,            0.,NA,NA,"",   240.342E-03,   237.523E-03,   36.7026E-03,   493.891E-06
C:/temp/dataset/6/8_20.odb,Step-1,Increment      1: Step Time =    1.000,"PART-1-1",           731,      -10.9514,      -7.70102,            0.,NA,NA,"",   126.404E-03,   123.596E-03,   26.4955E-03,   1.23565E-03
C:/temp/dataset/6/8_20.odb,Step-1,Increment      1: Step Time =    1.000,"PART-1-1",           732,      -11.1587,      -15.1039,            0.,NA,NA,"",   54.2799E-03,   49.7467E-03,   21.7158E-03,   1.61294E-03
C:/temp/dataset/6/8_20.odb,Step-1,Increment      1: Step Time =    1.000,"PART-1-1",           733,      -11.0422,      -12.5823,            0.,NA,NA,"",   76.2234E-03,   72.5240E-03,   23.4579E-03,   1.44224E-03
C:/temp/dataset/6/8_20.odb,Step-1,Increment      1: Step Time =    1.000,"PART-1-1",           734,      -9.98828,      -19.2456,            0.,NA,NA,"",   22.1683E-03,   19.5973E-03,   10.3623E-03,   1.29228E-03
C:/temp/dataset/6/8_20.odb,Step-1,Increment      1: Step Time =    1.000,"PART-1-1",           735,      -11.2222,      -17.6929,            0.,NA,NA,"",   35.4822E-03,   30.1301E-03,   18.7393E-03,   1.81534E-03
C:/temp/dataset/6/8_20.odb,Step-1,Increment      1: Step Time =    1.000,"PART-1-1",           736,      -9.72809,       26.4627,            0.,NA,NA,"",   500.522E-03,   500.278E-03,   15.6337E-03,   65.1771E-09
C:/temp/dataset/6/8_20.odb,Step-1,Increment      1: Step Time =    1.000,"PART-1-1",           737,      -8.07960,       10.7858,            0.,NA,NA,"",   331.823E-03,   331.821E-03,  -1.20971E-03,   34.1892E-06
C:/temp/dataset/6/8_20.odb,Step-1,Increment      1: Step Time =    1.000,"PART-1-1",           738,      -11.3320,       18.4953,            0.,NA,NA,"",   416.159E-03,   414.823E-03,   33.3142E-03,   1.45409E-06
C:/temp/dataset/6/8_20.odb,Step-1,Increment      1: Step Time =    1.000,"PART-1-1",           739,      -10.4893,       6.32554,            0.,NA,NA,"",   285.096E-03,   284.016E-03,   24.7997E-03,   118.838E-06
C:/temp/dataset/6/8_20.odb,Step-1,Increment      1: Step Time =    1.000,"PART-1-1",           740,      -11.8356,       7.66802,            0.,NA,NA,"",   301.147E-03,   298.576E-03,   39.2703E-03,   31.1707E-06
C:/temp/dataset/6/8_20.odb,Step-1,Increment      1: Step Time =    1.000,"PART-1-1",           741,      -11.4125,       4.87054,            0.,NA,NA,"",   270.334E-03,   268.077E-03,   34.8577E-03,   179.325E-06
C:/temp/dataset/6/8_20.odb,Step-1,Increment      1: Step Time =    1.000,"PART-1-1",           742,       10.1911,      -5.79504,            0.,NA,NA,"",   255.106E-03,   133.866E-03,  -217.161E-03,   10.4664E-03
C:/temp/dataset/6/8_20.odb,Step-1,Increment      1: Step Time =    1.000,"PART-1-1",           743,       9.10708,      -6.74300,            0.,NA,NA,"",   226.455E-03,   118.619E-03,  -192.902E-03,   9.17041E-03
C:/temp/dataset/6/8_20.odb,Step-1,Increment      1: Step Time =    1.000,"PART-1-1",           744,       11.1638,      -4.94873,            0.,NA,NA,"",   283.138E-03,   148.523E-03,  -241.057E-03,   11.9374E-03
C:/temp/dataset/6/8_20.odb,Step-1,Increment      1: Step Time =    1.000,"PART-1-1",           745,       10.4293,      -4.08570,            0.,NA,NA,"",   284.056E-03,   156.481E-03,  -237.069E-03,   10.7569E-03
C:/temp/dataset/6/8_20.odb,Step-1,Increment      1: Step Time =    1.000,"PART-1-1",           746,       9.97038,      -14.8971,            0.,NA,NA,"",   140.128E-03,   56.8293E-03,  -128.087E-03,   10.6364E-03
C:/temp/dataset/6/8_20.odb,Step-1,Increment      1: Step Time =    1.000,"PART-1-1",           747,       9.96577,      -12.5508,            0.,NA,NA,"",   166.108E-03,   70.6954E-03,  -150.313E-03,   10.7248E-03
C:/temp/dataset/6/8_20.odb,Step-1,Increment      1: Step Time =    1.000,"PART-1-1",           748,       8.96159,      -13.7029,            0.,NA,NA,"",   143.341E-03,   58.9174E-03,  -130.673E-03,   10.0807E-03
C:/temp/dataset/6/8_20.odb,Step-1,Increment      1: Step Time =    1.000,"PART-1-1",           749,       6.92617,      -22.4012,            0.,NA,NA,"",   45.3935E-03,   10.0266E-03,  -44.2723E-03,   8.27523E-03
C:/temp/dataset/6/8_20.odb,Step-1,Increment      1: Step Time =    1.000,"PART-1-1",           750,       5.94981,      -23.5281,            0.,NA,NA,"",   30.9132E-03,   3.03458E-03,  -30.7639E-03,   6.90781E-03
C:/temp/dataset/6/8_20.odb,Step-1,Increment      1: Step Time =    1.000,"PART-1-1",           751,       7.18383,      -24.1705,            0.,NA,NA,"",   33.3340E-03,   4.63948E-03,  -33.0096E-03,   7.69739E-03
C:/temp/dataset/6/8_20.odb,Step-1,Increment      1: Step Time =    1.000,"PART-1-1",           752,       11.0968,      -20.2176,            0.,NA,NA,"",   93.3580E-03,   36.7145E-03,  -85.8357E-03,   10.4860E-03
C:/temp/dataset/6/8_20.odb,Step-1,Increment      1: Step Time =    1.000,"PART-1-1",           753,       6.43355,      -20.8801,            0.,NA,NA,"",   54.7898E-03,   15.9519E-03,  -52.4162E-03,   8.85976E-03
C:/temp/dataset/6/8_20.odb,Step-1,Increment      1: Step Time =    1.000,"PART-1-1",           754,       8.96045,      -11.3546,            0.,NA,NA,"",   168.888E-03,   74.5244E-03,  -151.556E-03,   9.92438E-03
C:/temp/dataset/6/8_20.odb,Step-1,Increment      1: Step Time =    1.000,"PART-1-1",           755,       8.17216,      -2.03287,            0.,NA,NA,"",   275.916E-03,   179.765E-03,  -209.319E-03,   6.44302E-03
C:/temp/dataset/6/8_20.odb,Step-1,Increment      1: Step Time =    1.000,"PART-1-1",           756,       9.68046,      -2.49017,            0.,NA,NA,"",   295.299E-03,   176.411E-03,  -236.814E-03,   9.59444E-03
C:/temp/dataset/6/8_20.odb,Step-1,Increment      1: Step Time =    1.000,"PART-1-1",           757,      -5.24373,       2.94722,            0.,NA,NA,"",   250.744E-03,   249.030E-03,  -29.2722E-03,   1.51096E-03
C:/temp/dataset/6/8_20.odb,Step-1,Increment      1: Step Time =    1.000,"PART-1-1",           758,      -6.20341,       3.93450,            0.,NA,NA,"",   260.191E-03,   259.419E-03,  -20.0343E-03,   1.05968E-03
C:/temp/dataset/6/8_20.odb,Step-1,Increment      1: Step Time =    1.000,"PART-1-1",           759,       7.87036,      -17.0650,            0.,NA,NA,"",   100.203E-03,   37.5184E-03,  -92.9138E-03,   9.88828E-03
C:/temp/dataset/6/8_20.odb,Step-1,Increment      1: Step Time =    1.000,"PART-1-1",           760,      -8.77165,      -4.61616,            0.,NA,NA,"",   158.229E-03,   158.104E-03,   6.27245E-03,   1.02884E-03
C:/temp/dataset/6/8_20.odb,Step-1,Increment      1: Step Time =    1.000,"PART-1-1",           761,       8.90402,      -15.9271,            0.,NA,NA,"",   119.862E-03,   46.8609E-03,  -110.322E-03,   10.0570E-03
C:/temp/dataset/6/8_20.odb,Step-1,Increment      1: Step Time =    1.000,"PART-1-1",           762,       7.94609,      -14.8939,            0.,NA,NA,"",   121.853E-03,   47.9326E-03,  -112.029E-03,   9.61255E-03
C:/temp/dataset/6/8_20.odb,Step-1,Increment      1: Step Time =    1.000,"PART-1-1",           763,      -12.3095,       21.7291,            0.,NA,NA,"",   451.712E-03,   449.600E-03,   43.6236E-03,   93.9979E-09
C:/temp/dataset/6/8_20.odb,Step-1,Increment      1: Step Time =    1.000,"PART-1-1",           764,      -12.2938,       19.6789,            0.,NA,NA,"",   429.801E-03,   427.586E-03,   43.5735E-03,   327.424E-09
C:/temp/dataset/6/8_20.odb,Step-1,Increment      1: Step Time =    1.000,"PART-1-1",           765,       3.72209,      -1.78065,            0.,NA,NA,"",   227.707E-03,   183.535E-03,  -134.779E-03,   1.61835E-03
C:/temp/dataset/6/8_20.odb,Step-1,Increment      1: Step Time =    1.000,"PART-1-1",           766,       6.45852,      -3.38063,            0.,NA,NA,"",   233.824E-03,   157.744E-03,  -172.600E-03,   4.18761E-03
C:/temp/dataset/6/8_20.odb,Step-1,Increment      1: Step Time =    1.000,"PART-1-1",           767,       4.93556,      -2.38177,            0.,NA,NA,"",   230.104E-03,   172.918E-03,  -151.813E-03,   2.07312E-03
C:/temp/dataset/6/8_20.odb,Step-1,Increment      1: Step Time =    1.000,"PART-1-1",           768,      -2.94024,   945.156E-03,            0.,NA,NA,"",   231.657E-03,   225.612E-03,  -52.5793E-03,   1.76057E-03
C:/temp/dataset/6/8_20.odb,Step-1,Increment      1: Step Time =    1.000,"PART-1-1",           769,      -1.69279,      -25.0756,            0.,NA,NA,"",   2.47398E-03,  -323.450E-06,  -2.45274E-03,   1.29506E-03
C:/temp/dataset/6/8_20.odb,Step-1,Increment      1: Step Time =    1.000,"PART-1-1",           770,      -6.93923,      -23.9860,            0.,NA,NA,"",   2.17890E-03,   2.03632E-03,  -775.235E-06,   536.382E-06
C:/temp/dataset/6/8_20.odb,Step-1,Increment      1: Step Time =    1.000,"PART-1-1",           771,      -5.91970,      -22.6959,            0.,NA,NA,"",   5.78645E-03,   4.91734E-03,  -3.05004E-03,   1.42083E-03
C:/temp/dataset/6/8_20.odb,Step-1,Increment      1: Step Time =    1.000,"PART-1-1",           772,      -12.2208,       17.3915,            0.,NA,NA,"",   405.305E-03,   403.026E-03,   42.9212E-03,   1.89865E-06
C:/temp/dataset/6/8_20.odb,Step-1,Increment      1: Step Time =    1.000,"PART-1-1",           773,      -12.0398,       10.1961,            0.,NA,NA,"",   328.406E-03,   325.792E-03,   41.3553E-03,   33.3170E-06
C:/temp/dataset/6/8_20.odb,Step-1,Increment      1: Step Time =    1.000,"PART-1-1",           774,      -10.8637,      -2.91198,            0.,NA,NA,"",   180.673E-03,   178.468E-03,   28.1424E-03,   1.02264E-03
C:/temp/dataset/6/8_20.odb,Step-1,Increment      1: Step Time =    1.000,"PART-1-1",           775,      -9.61620,      -11.5179,            0.,NA,NA,"",   83.4053E-03,   82.4935E-03,   12.2993E-03,   1.14754E-03
C:/temp/dataset/6/8_20.odb,Step-1,Increment      1: Step Time =    1.000,"PART-1-1",           776,      -11.8201,      -24.5932,            0.,NA,NA,"",   9.57588E-03,   3.01794E-03,   9.08788E-03,   2.12157E-03
C:/temp/dataset/6/8_20.odb,Step-1,Increment      1: Step Time =    1.000,"PART-1-1",           777,      -11.0718,      -23.4296,            0.,NA,NA,"",   10.2415E-03,   4.67471E-03,   9.11239E-03,   1.75277E-03
C:/temp/dataset/6/8_20.odb,Step-1,Increment      1: Step Time =    1.000,"PART-1-1",           778,       4.75405,      -23.0816,            0.,NA,NA,"",   25.4706E-03,   1.84885E-03,  -25.4034E-03,   5.43039E-03
C:/temp/dataset/6/8_20.odb,Step-1,Increment      1: Step Time =    1.000,"PART-1-1",           779,       5.55198,      -21.9930,            0.,NA,NA,"",   37.8707E-03,   7.24996E-03,  -37.1703E-03,   7.63372E-03
C:/temp/dataset/6/8_20.odb,Step-1,Increment      1: Step Time =    1.000,"PART-1-1",           780,       7.01336,      -26.0950,            0.,NA,NA,"",   20.0742E-03,  -261.812E-06,  -20.0725E-03,   6.72614E-03
C:/temp/dataset/6/8_20.odb,Step-1,Increment      1: Step Time =    1.000,"PART-1-1",           781,       4.10189,      -23.9882,            0.,NA,NA,"",   18.1207E-03,  -1.18521E-03,  -18.0819E-03,   4.19377E-03
C:/temp/dataset/6/8_20.odb,Step-1,Increment      1: Step Time =    1.000,"PART-1-1",           782,       4.14804,      -25.2051,            0.,NA,NA,"",   14.7730E-03,  -3.21020E-03,  -14.4200E-03,   4.14379E-03
C:/temp/dataset/6/8_20.odb,Step-1,Increment      1: Step Time =    1.000,"PART-1-1",           783,      -12.1264,       12.6156,            0.,NA,NA,"",   354.283E-03,   351.764E-03,   42.1699E-03,   17.9978E-06
C:/temp/dataset/6/8_20.odb,Step-1,Increment      1: Step Time =    1.000,"PART-1-1",           784,      -12.1709,       15.0185,            0.,NA,NA,"",   379.938E-03,   377.551E-03,   42.5189E-03,   6.80995E-06
C:/temp/dataset/6/8_20.odb,Step-1,Increment      1: Step Time =    1.000,"PART-1-1",           785,      -10.3060,       3.43341,            0.,NA,NA,"",   253.210E-03,   252.152E-03,   23.1195E-03,   434.910E-06
C:/temp/dataset/6/8_20.odb,Step-1,Increment      1: Step Time =    1.000,"PART-1-1",           786,      -9.35047,  -311.861E-03,            0.,NA,NA,"",   209.274E-03,   208.855E-03,   13.2291E-03,   1.05505E-03
C:/temp/dataset/6/8_20.odb,Step-1,Increment      1: Step Time =    1.000,"PART-1-1",           787,      -9.47746,      -1.56252,            0.,NA,NA,"",   194.584E-03,   194.056E-03,   14.3174E-03,   1.05699E-03
C:/temp/dataset/6/8_20.odb,Step-1,Increment      1: Step Time =    1.000,"PART-1-1",           788,      -7.56677,      -1.93629,            0.,NA,NA,"",   189.374E-03,   189.303E-03,  -5.18971E-03,   1.25767E-03
C:/temp/dataset/6/8_20.odb,Step-1,Increment      1: Step Time =    1.000,"PART-1-1",           789,      -9.57637,      -3.06595,            0.,NA,NA,"",   176.980E-03,   176.351E-03,   14.9061E-03,   1.10307E-03
C:/temp/dataset/6/8_20.odb,Step-1,Increment      1: Step Time =    1.000,"PART-1-1",           790,      -8.24618,      -3.39128,            0.,NA,NA,"",   172.238E-03,   172.233E-03,   1.30969E-03,   1.06721E-03
C:/temp/dataset/6/8_20.odb,Step-1,Increment      1: Step Time =    1.000,"PART-1-1",           791,       7.98922,      -7.69035,            0.,NA,NA,"",   199.773E-03,   104.018E-03,  -170.556E-03,   8.39970E-03
C:/temp/dataset/6/8_20.odb,Step-1,Increment      1: Step Time =    1.000,"PART-1-1",           792,       7.96586,      -10.1263,            0.,NA,NA,"",   171.441E-03,   80.2463E-03,  -151.501E-03,   8.90030E-03
C:/temp/dataset/6/8_20.odb,Step-1,Increment      1: Step Time =    1.000,"PART-1-1",           793,       7.95460,      -12.5381,            0.,NA,NA,"",   145.676E-03,   61.9234E-03,  -131.859E-03,   9.26456E-03
C:/temp/dataset/6/8_20.odb,Step-1,Increment      1: Step Time =    1.000,"PART-1-1",           794,      -6.90534,       4.84567,            0.,NA,NA,"",   269.076E-03,   268.753E-03,  -13.1702E-03,   638.163E-06
C:/temp/dataset/6/8_20.odb,Step-1,Increment      1: Step Time =    1.000,"PART-1-1",           795,      -7.09219,       3.25090,            0.,NA,NA,"",   251.379E-03,   251.159E-03,  -10.5261E-03,   1.03006E-03
C:/temp/dataset/6/8_20.odb,Step-1,Increment      1: Step Time =    1.000,"PART-1-1",           796,      -5.99438,      -2.38990,            0.,NA,NA,"",   184.678E-03,   183.454E-03,  -21.2222E-03,   1.28044E-03
C:/temp/dataset/6/8_20.odb,Step-1,Increment      1: Step Time =    1.000,"PART-1-1",           797,      -8.16339,       2.56404,            0.,NA,NA,"",   242.795E-03,   242.794E-03,   788.284E-06,   858.078E-06
C:/temp/dataset/6/8_20.odb,Step-1,Increment      1: Step Time =    1.000,"PART-1-1",           798,      -6.16245,       1.98671,            0.,NA,NA,"",   237.773E-03,   236.970E-03,  -19.5250E-03,   1.34909E-03
C:/temp/dataset/6/8_20.odb,Step-1,Increment      1: Step Time =    1.000,"PART-1-1",           799,      -9.36160,       1.80674,            0.,NA,NA,"",   234.107E-03,   233.726E-03,   13.3582E-03,   827.917E-06
C:/temp/dataset/6/8_20.odb,Step-1,Increment      1: Step Time =    1.000,"PART-1-1",           800,      -4.18828,       1.89018,            0.,NA,NA,"",   240.321E-03,   237.015E-03,  -39.7304E-03,   1.58160E-03
C:/temp/dataset/6/8_20.odb,Step-1,Increment      1: Step Time =    1.000,"PART-1-1",           801,      -2.02478,       2.01876,            0.,NA,NA,"",   248.630E-03,   240.532E-03,  -62.9376E-03,   1.89511E-03
C:/temp/dataset/6/8_20.odb,Step-1,Increment      1: Step Time =    1.000,"PART-1-1",           802,       5.29765,      -24.4346,            0.,NA,NA,"",   22.4866E-03,  -582.323E-06,  -22.4791E-03,   5.54734E-03
C:/temp/dataset/6/8_20.odb,Step-1,Increment      1: Step Time =    1.000,"PART-1-1",           803,       8.18651,      -25.0309,            0.,NA,NA,"",   31.3639E-03,   5.26185E-03,  -30.9193E-03,   8.25698E-03
C:/temp/dataset/6/8_20.odb,Step-1,Increment      1: Step Time =    1.000,"PART-1-1",           804,       6.01068,      -25.2345,            0.,NA,NA,"",   21.5993E-03,  -826.868E-06,  -21.5835E-03,   6.16485E-03
