ODB Name,Step,Frame,Part Instance Name,    êﬂì_ÉâÉxÉã,X,Y,Z,Section Name,Material Name,Section Point,   U-Magnitude,          U-U1,          U-U2,       S-Mises
C:/temp/dataset/6/8_4.odb,Step-1,Increment      1: Step Time =    1.000,"PART-1-1",             1,            5.,           -5.,            0.,NA,NA,"",   43.4341E-03,   31.9093E-03,  -29.4672E-03,   1.21549E-03
C:/temp/dataset/6/8_4.odb,Step-1,Increment      1: Step Time =    1.000,"PART-1-1",             2,            0.,           -5.,            0.,NA,NA,"",   38.4855E-03,   34.1868E-03,  -17.6748E-03,   410.772E-06
C:/temp/dataset/6/8_4.odb,Step-1,Increment      1: Step Time =    1.000,"PART-1-1",             3,            5.,      -10.0250,            0.,NA,NA,"",   30.0654E-03,   18.0190E-03,  -24.0675E-03,   1.23482E-03
C:/temp/dataset/6/8_4.odb,Step-1,Increment      1: Step Time =    1.000,"PART-1-1",             4,            5.,      -15.0500,            0.,NA,NA,"",   20.0190E-03,   9.45710E-03,  -17.6444E-03,   1.57892E-03
C:/temp/dataset/6/8_4.odb,Step-1,Increment      1: Step Time =    1.000,"PART-1-1",             5,            5.,          -20.,            0.,NA,NA,"",   9.79047E-03,   4.47031E-03,  -8.71032E-03,   2.06142E-03
C:/temp/dataset/6/8_4.odb,Step-1,Increment      1: Step Time =    1.000,"PART-1-1",             6,            0.,          -20.,            0.,NA,NA,"",   2.75342E-03,   2.59964E-03,  -907.304E-06,   279.177E-06
C:/temp/dataset/6/8_4.odb,Step-1,Increment      1: Step Time =    1.000,"PART-1-1",             7,           -5.,          -20.,            0.,NA,NA,"",   3.67946E-03,   3.14885E-03,  -1.90346E-03,   1.13760E-03
C:/temp/dataset/6/8_4.odb,Step-1,Increment      1: Step Time =    1.000,"PART-1-1",             8,           -5.,      -14.9750,            0.,NA,NA,"",   13.3568E-03,   12.2828E-03,  -5.24763E-03,   439.492E-06
C:/temp/dataset/6/8_4.odb,Step-1,Increment      1: Step Time =    1.000,"PART-1-1",             9,           -5.,      -9.95000,            0.,NA,NA,"",   24.0330E-03,   23.0930E-03,  -6.65594E-03,   169.155E-06
C:/temp/dataset/6/8_4.odb,Step-1,Increment      1: Step Time =    1.000,"PART-1-1",            10,           -5.,           -5.,            0.,NA,NA,"",   35.8825E-03,   35.2816E-03,  -6.53881E-03,   257.992E-06
C:/temp/dataset/6/8_4.odb,Step-1,Increment      1: Step Time =    1.000,"PART-1-1",            11,           15.,          -30.,            0.,NA,NA,"",            0.,   1.16322E-39,  -2.02135E-39,   3.94571E-03
C:/temp/dataset/6/8_4.odb,Step-1,Increment      1: Step Time =    1.000,"PART-1-1",            12,          -15.,          -30.,            0.,NA,NA,"",            0.,   252.920E-42,   463.795E-42,   877.525E-06
C:/temp/dataset/6/8_4.odb,Step-1,Increment      1: Step Time =    1.000,"PART-1-1",            13,           15.,        -21.25,            0.,NA,NA,"",   23.0247E-03,   11.3215E-03,  -20.0489E-03,   2.45911E-03
C:/temp/dataset/6/8_4.odb,Step-1,Increment      1: Step Time =    1.000,"PART-1-1",            14,           15.,         -12.5,            0.,NA,NA,"",   46.5897E-03,   22.9462E-03,  -40.5472E-03,   2.83588E-03
C:/temp/dataset/6/8_4.odb,Step-1,Increment      1: Step Time =    1.000,"PART-1-1",            15,           15.,         -3.75,            0.,NA,NA,"",   78.3870E-03,   43.2779E-03,  -65.3570E-03,   3.60661E-03
C:/temp/dataset/6/8_4.odb,Step-1,Increment      1: Step Time =    1.000,"PART-1-1",            16,           15.,            5.,            0.,NA,NA,"",   128.683E-03,   83.5022E-03,  -97.9123E-03,   4.02112E-03
C:/temp/dataset/6/8_4.odb,Step-1,Increment      1: Step Time =    1.000,"PART-1-1",            17,           10.,            5.,            0.,NA,NA,"",   99.7301E-03,   76.9973E-03,  -63.3838E-03,   2.71202E-03
C:/temp/dataset/6/8_4.odb,Step-1,Increment      1: Step Time =    1.000,"PART-1-1",            18,            5.,            5.,            0.,NA,NA,"",   75.4199E-03,   67.7808E-03,  -33.0745E-03,   1.55920E-03
C:/temp/dataset/6/8_4.odb,Step-1,Increment      1: Step Time =    1.000,"PART-1-1",            19,            0.,            5.,            0.,NA,NA,"",   65.1114E-03,   62.5822E-03,  -17.9712E-03,   779.239E-06
C:/temp/dataset/6/8_4.odb,Step-1,Increment      1: Step Time =    1.000,"PART-1-1",            20,           -5.,            5.,            0.,NA,NA,"",   60.5206E-03,   60.1877E-03,  -6.33837E-03,   251.046E-06
C:/temp/dataset/6/8_4.odb,Step-1,Increment      1: Step Time =    1.000,"PART-1-1",            21,           -5.,         11.25,            0.,NA,NA,"",   74.2943E-03,   74.0047E-03,  -6.55340E-03,   6.56707E-06
C:/temp/dataset/6/8_4.odb,Step-1,Increment      1: Step Time =    1.000,"PART-1-1",            22,           -5.,          17.5,            0.,NA,NA,"",   88.4569E-03,   88.2120E-03,  -6.57861E-03,   58.9553E-09
C:/temp/dataset/6/8_4.odb,Step-1,Increment      1: Step Time =    1.000,"PART-1-1",            23,           -5.,         23.75,            0.,NA,NA,"",   102.625E-03,   102.413E-03,  -6.59434E-03,   32.4807E-09
C:/temp/dataset/6/8_4.odb,Step-1,Increment      1: Step Time =    1.000,"PART-1-1",            24,           -5.,           30.,            0.,NA,NA,"",   116.801E-03,   116.614E-03,  -6.61042E-03,   568.643E-12
C:/temp/dataset/6/8_4.odb,Step-1,Increment      1: Step Time =    1.000,"PART-1-1",            25,          -10.,           30.,            0.,NA,NA,"",   116.723E-03,   116.627E-03,   4.74994E-03,   5.89936E-09
C:/temp/dataset/6/8_4.odb,Step-1,Increment      1: Step Time =    1.000,"PART-1-1",            26,          -15.,           30.,            0.,NA,NA,"",   117.747E-03,   116.639E-03,   16.1103E-03,   907.335E-12
C:/temp/dataset/6/8_4.odb,Step-1,Increment      1: Step Time =    1.000,"PART-1-1",            27,          -15.,          22.5,            0.,NA,NA,"",   100.897E-03,   99.5989E-03,   16.1296E-03,   51.9313E-09
C:/temp/dataset/6/8_4.odb,Step-1,Increment      1: Step Time =    1.000,"PART-1-1",            28,          -15.,           15.,            0.,NA,NA,"",   84.1255E-03,   82.5610E-03,   16.1489E-03,   515.547E-09
C:/temp/dataset/6/8_4.odb,Step-1,Increment      1: Step Time =    1.000,"PART-1-1",            29,          -15.,           7.5,            0.,NA,NA,"",   67.4829E-03,   65.5057E-03,   16.2156E-03,   19.0512E-06
C:/temp/dataset/6/8_4.odb,Step-1,Increment      1: Step Time =    1.000,"PART-1-1",            30,          -15.,            0.,            0.,NA,NA,"",   50.5860E-03,   47.8846E-03,   16.3096E-03,   38.4469E-06
C:/temp/dataset/6/8_4.odb,Step-1,Increment      1: Step Time =    1.000,"PART-1-1",            31,          -15.,          -7.5,            0.,NA,NA,"",   33.2293E-03,   29.5380E-03,   15.2214E-03,   327.152E-06
C:/temp/dataset/6/8_4.odb,Step-1,Increment      1: Step Time =    1.000,"PART-1-1",            32,          -15.,          -15.,            0.,NA,NA,"",   17.4143E-03,   13.0206E-03,   11.5639E-03,   768.284E-06
C:/temp/dataset/6/8_4.odb,Step-1,Increment      1: Step Time =    1.000,"PART-1-1",            33,          -15.,         -22.5,            0.,NA,NA,"",   6.31346E-03,   3.13468E-03,   5.48029E-03,   927.915E-06
C:/temp/dataset/6/8_4.odb,Step-1,Increment      1: Step Time =    1.000,"PART-1-1",            34,           2.5,           -5.,            0.,NA,NA,"",   41.0026E-03,   33.1731E-03,  -24.0990E-03,   539.585E-06
C:/temp/dataset/6/8_4.odb,Step-1,Increment      1: Step Time =    1.000,"PART-1-1",            35,            5.,      -7.51250,            0.,NA,NA,"",   35.8544E-03,   23.9855E-03,  -26.6503E-03,   1.17120E-03
C:/temp/dataset/6/8_4.odb,Step-1,Increment      1: Step Time =    1.000,"PART-1-1",            36,            5.,      -12.5375,            0.,NA,NA,"",   24.8988E-03,   13.2865E-03,  -21.0575E-03,   1.42349E-03
C:/temp/dataset/6/8_4.odb,Step-1,Increment      1: Step Time =    1.000,"PART-1-1",            37,            5.,      -17.5250,            0.,NA,NA,"",   15.4301E-03,   6.51443E-03,  -13.9875E-03,   1.80793E-03
C:/temp/dataset/6/8_4.odb,Step-1,Increment      1: Step Time =    1.000,"PART-1-1",            38,           2.5,          -20.,            0.,NA,NA,"",   4.51988E-03,   3.61543E-03,  -2.71256E-03,   804.826E-06
C:/temp/dataset/6/8_4.odb,Step-1,Increment      1: Step Time =    1.000,"PART-1-1",            39,          -2.5,          -20.,            0.,NA,NA,"",   2.29800E-03,   2.19676E-03,  -674.594E-06,   219.934E-06
C:/temp/dataset/6/8_4.odb,Step-1,Increment      1: Step Time =    1.000,"PART-1-1",            40,           -5.,      -17.4875,            0.,NA,NA,"",   8.66414E-03,   7.62285E-03,  -4.11819E-03,   728.904E-06
C:/temp/dataset/6/8_4.odb,Step-1,Increment      1: Step Time =    1.000,"PART-1-1",            41,           -5.,      -12.4625,            0.,NA,NA,"",   18.4858E-03,   17.4451E-03,  -6.11491E-03,   313.860E-06
C:/temp/dataset/6/8_4.odb,Step-1,Increment      1: Step Time =    1.000,"PART-1-1",            42,           -5.,      -7.47500,            0.,NA,NA,"",   29.8537E-03,   29.0485E-03,  -6.88677E-03,   28.5879E-06
C:/temp/dataset/6/8_4.odb,Step-1,Increment      1: Step Time =    1.000,"PART-1-1",            43,          -2.5,           -5.,            0.,NA,NA,"",   36.9311E-03,   35.0044E-03,  -11.7728E-03,   273.611E-06
C:/temp/dataset/6/8_4.odb,Step-1,Increment      1: Step Time =    1.000,"PART-1-1",            44,          12.5,          -30.,            0.,NA,NA,"",            0.,   1.44111E-39,  -3.69229E-39,   1.71045E-03
C:/temp/dataset/6/8_4.odb,Step-1,Increment      1: Step Time =    1.000,"PART-1-1",            45,           10.,          -30.,            0.,NA,NA,"",            0.,  -574.674E-42,  -2.66451E-39,   1.52854E-03
C:/temp/dataset/6/8_4.odb,Step-1,Increment      1: Step Time =    1.000,"PART-1-1",            46,           7.5,          -30.,            0.,NA,NA,"",            0.,  -653.333E-42,  -2.21419E-39,   1.19909E-03
C:/temp/dataset/6/8_4.odb,Step-1,Increment      1: Step Time =    1.000,"PART-1-1",            47,            5.,          -30.,            0.,NA,NA,"",            0.,  -77.2438E-42,  -1.60897E-39,   910.637E-06
C:/temp/dataset/6/8_4.odb,Step-1,Increment      1: Step Time =    1.000,"PART-1-1",            48,           2.5,          -30.,            0.,NA,NA,"",            0.,  -142.104E-42,  -956.305E-42,   623.892E-06
C:/temp/dataset/6/8_4.odb,Step-1,Increment      1: Step Time =    1.000,"PART-1-1",            49,            0.,          -30.,            0.,NA,NA,"",            0.,  -414.056E-42,  -682.708E-42,   391.058E-06
C:/temp/dataset/6/8_4.odb,Step-1,Increment      1: Step Time =    1.000,"PART-1-1",            50,          -2.5,          -30.,            0.,NA,NA,"",            0.,  -45.2619E-42,  -293.024E-42,   237.011E-06
C:/temp/dataset/6/8_4.odb,Step-1,Increment      1: Step Time =    1.000,"PART-1-1",            51,           -5.,          -30.,            0.,NA,NA,"",            0.,  -85.8421E-42,  -124.155E-42,   160.736E-06
C:/temp/dataset/6/8_4.odb,Step-1,Increment      1: Step Time =    1.000,"PART-1-1",            52,          -7.5,          -30.,            0.,NA,NA,"",            0.,  -173.237E-42,   128.561E-42,   157.776E-06
C:/temp/dataset/6/8_4.odb,Step-1,Increment      1: Step Time =    1.000,"PART-1-1",            53,          -10.,          -30.,            0.,NA,NA,"",            0.,  -24.1346E-42,   307.268E-42,   261.403E-06
C:/temp/dataset/6/8_4.odb,Step-1,Increment      1: Step Time =    1.000,"PART-1-1",            54,         -12.5,          -30.,            0.,NA,NA,"",            0.,  -27.7906E-42,   820.822E-42,   402.490E-06
C:/temp/dataset/6/8_4.odb,Step-1,Increment      1: Step Time =    1.000,"PART-1-1",            55,           15.,      -23.4375,            0.,NA,NA,"",   17.7543E-03,   9.10747E-03,  -15.2403E-03,   2.44293E-03
C:/temp/dataset/6/8_4.odb,Step-1,Increment      1: Step Time =    1.000,"PART-1-1",            56,           15.,       -25.625,            0.,NA,NA,"",   12.6261E-03,   7.01424E-03,  -10.4985E-03,   2.37439E-03
C:/temp/dataset/6/8_4.odb,Step-1,Increment      1: Step Time =    1.000,"PART-1-1",            57,           15.,      -27.8125,            0.,NA,NA,"",   7.48955E-03,   4.65046E-03,  -5.87082E-03,   2.70010E-03
C:/temp/dataset/6/8_4.odb,Step-1,Increment      1: Step Time =    1.000,"PART-1-1",            58,           15.,      -14.6875,            0.,NA,NA,"",   40.1527E-03,   19.4931E-03,  -35.1036E-03,   2.70260E-03
C:/temp/dataset/6/8_4.odb,Step-1,Increment      1: Step Time =    1.000,"PART-1-1",            59,           15.,       -16.875,            0.,NA,NA,"",   34.1487E-03,   16.4751E-03,  -29.9116E-03,   2.58499E-03
C:/temp/dataset/6/8_4.odb,Step-1,Increment      1: Step Time =    1.000,"PART-1-1",            60,           15.,      -19.0625,            0.,NA,NA,"",   28.4727E-03,   13.7746E-03,  -24.9189E-03,   2.50357E-03
C:/temp/dataset/6/8_4.odb,Step-1,Increment      1: Step Time =    1.000,"PART-1-1",            61,           15.,       -5.9375,            0.,NA,NA,"",   69.2882E-03,   37.0241E-03,  -58.5668E-03,   3.31962E-03
C:/temp/dataset/6/8_4.odb,Step-1,Increment      1: Step Time =    1.000,"PART-1-1",            62,           15.,        -8.125,            0.,NA,NA,"",   61.0721E-03,   31.6251E-03,  -52.2461E-03,   3.12300E-03
C:/temp/dataset/6/8_4.odb,Step-1,Increment      1: Step Time =    1.000,"PART-1-1",            63,           15.,      -10.3125,            0.,NA,NA,"",   53.5397E-03,   26.9582E-03,  -46.2575E-03,   2.97295E-03
C:/temp/dataset/6/8_4.odb,Step-1,Increment      1: Step Time =    1.000,"PART-1-1",            64,           15.,        2.8125,            0.,NA,NA,"",   114.427E-03,   70.9472E-03,  -89.7775E-03,   4.27845E-03
C:/temp/dataset/6/8_4.odb,Step-1,Increment      1: Step Time =    1.000,"PART-1-1",            65,           15.,      625.E-03,            0.,NA,NA,"",   100.686E-03,   59.7107E-03,  -81.0700E-03,   4.38185E-03
C:/temp/dataset/6/8_4.odb,Step-1,Increment      1: Step Time =    1.000,"PART-1-1",            66,           15.,       -1.5625,            0.,NA,NA,"",   88.7133E-03,   50.6666E-03,  -72.8214E-03,   4.00420E-03
C:/temp/dataset/6/8_4.odb,Step-1,Increment      1: Step Time =    1.000,"PART-1-1",            67,          12.5,            5.,            0.,NA,NA,"",   115.081E-03,   79.3255E-03,  -83.3729E-03,   4.11906E-03
C:/temp/dataset/6/8_4.odb,Step-1,Increment      1: Step Time =    1.000,"PART-1-1",            68,           7.5,            5.,            0.,NA,NA,"",   84.2834E-03,   71.7313E-03,  -44.2529E-03,   2.20176E-03
C:/temp/dataset/6/8_4.odb,Step-1,Increment      1: Step Time =    1.000,"PART-1-1",            69,           2.5,            5.,            0.,NA,NA,"",   69.3026E-03,   64.7285E-03,  -24.7602E-03,   1.14062E-03
C:/temp/dataset/6/8_4.odb,Step-1,Increment      1: Step Time =    1.000,"PART-1-1",            70,          -2.5,            5.,            0.,NA,NA,"",   62.3149E-03,   61.1564E-03,  -11.9600E-03,   515.885E-06
C:/temp/dataset/6/8_4.odb,Step-1,Increment      1: Step Time =    1.000,"PART-1-1",            71,           -5.,       9.16667,            0.,NA,NA,"",   69.5833E-03,   69.2767E-03,  -6.52498E-03,   18.5218E-06
C:/temp/dataset/6/8_4.odb,Step-1,Increment      1: Step Time =    1.000,"PART-1-1",            72,           -5.,       7.08333,            0.,NA,NA,"",   64.9147E-03,   64.5919E-03,  -6.46564E-03,   71.7077E-06
C:/temp/dataset/6/8_4.odb,Step-1,Increment      1: Step Time =    1.000,"PART-1-1",            73,           -5.,       15.4167,            0.,NA,NA,"",   83.7354E-03,   83.4771E-03,  -6.57307E-03,   407.197E-09
C:/temp/dataset/6/8_4.odb,Step-1,Increment      1: Step Time =    1.000,"PART-1-1",            74,           -5.,       13.3333,            0.,NA,NA,"",   79.0144E-03,   78.7411E-03,  -6.56566E-03,   2.05106E-06
C:/temp/dataset/6/8_4.odb,Step-1,Increment      1: Step Time =    1.000,"PART-1-1",            75,           -5.,       21.6667,            0.,NA,NA,"",   97.9017E-03,   97.6797E-03,  -6.58905E-03,   66.2782E-09
C:/temp/dataset/6/8_4.odb,Step-1,Increment      1: Step Time =    1.000,"PART-1-1",            76,           -5.,       19.5833,            0.,NA,NA,"",   93.1789E-03,   92.9460E-03,  -6.58383E-03,   96.4864E-09
C:/temp/dataset/6/8_4.odb,Step-1,Increment      1: Step Time =    1.000,"PART-1-1",            77,           -5.,       27.9167,            0.,NA,NA,"",   112.075E-03,   111.880E-03,  -6.60505E-03,   2.20276E-09
C:/temp/dataset/6/8_4.odb,Step-1,Increment      1: Step Time =    1.000,"PART-1-1",            78,           -5.,       25.8333,            0.,NA,NA,"",   107.350E-03,   107.147E-03,  -6.59968E-03,   11.4999E-09
C:/temp/dataset/6/8_4.odb,Step-1,Increment      1: Step Time =    1.000,"PART-1-1",            79,          -7.5,           30.,            0.,NA,NA,"",   116.624E-03,   116.620E-03,  -930.241E-06,   2.52889E-09
C:/temp/dataset/6/8_4.odb,Step-1,Increment      1: Step Time =    1.000,"PART-1-1",            80,         -12.5,           30.,            0.,NA,NA,"",   117.098E-03,   116.633E-03,   10.4301E-03,   2.52049E-09
C:/temp/dataset/6/8_4.odb,Step-1,Increment      1: Step Time =    1.000,"PART-1-1",            81,          -15.,           25.,            0.,NA,NA,"",   106.507E-03,   105.279E-03,   16.1232E-03,   19.4294E-09
C:/temp/dataset/6/8_4.odb,Step-1,Increment      1: Step Time =    1.000,"PART-1-1",            82,          -15.,          27.5,            0.,NA,NA,"",   112.124E-03,   110.959E-03,   16.1167E-03,   2.91194E-09
C:/temp/dataset/6/8_4.odb,Step-1,Increment      1: Step Time =    1.000,"PART-1-1",            83,          -15.,          17.5,            0.,NA,NA,"",   89.7037E-03,   88.2394E-03,   16.1421E-03,   68.8594E-09
C:/temp/dataset/6/8_4.odb,Step-1,Increment      1: Step Time =    1.000,"PART-1-1",            84,          -15.,           20.,            0.,NA,NA,"",   95.2950E-03,   93.9189E-03,   16.1358E-03,   99.6000E-09
C:/temp/dataset/6/8_4.odb,Step-1,Increment      1: Step Time =    1.000,"PART-1-1",            85,          -15.,           10.,            0.,NA,NA,"",   73.0190E-03,   71.2044E-03,   16.1776E-03,   9.23222E-06
C:/temp/dataset/6/8_4.odb,Step-1,Increment      1: Step Time =    1.000,"PART-1-1",            86,          -15.,          12.5,            0.,NA,NA,"",   78.5635E-03,   76.8838E-03,   16.1587E-03,   2.80231E-06
C:/temp/dataset/6/8_4.odb,Step-1,Increment      1: Step Time =    1.000,"PART-1-1",            87,          -15.,           2.5,            0.,NA,NA,"",   56.3017E-03,   53.8823E-03,   16.3275E-03,   8.07830E-06
C:/temp/dataset/6/8_4.odb,Step-1,Increment      1: Step Time =    1.000,"PART-1-1",            88,          -15.,            5.,            0.,NA,NA,"",   61.9257E-03,   59.7488E-03,   16.2749E-03,   23.9975E-06
C:/temp/dataset/6/8_4.odb,Step-1,Increment      1: Step Time =    1.000,"PART-1-1",            89,          -15.,           -5.,            0.,NA,NA,"",   38.9860E-03,   35.6372E-03,   15.8081E-03,   208.668E-06
C:/temp/dataset/6/8_4.odb,Step-1,Increment      1: Step Time =    1.000,"PART-1-1",            90,          -15.,          -2.5,            0.,NA,NA,"",   44.7975E-03,   41.7829E-03,   16.1555E-03,   110.151E-06
C:/temp/dataset/6/8_4.odb,Step-1,Increment      1: Step Time =    1.000,"PART-1-1",            91,          -15.,         -12.5,            0.,NA,NA,"",   22.3119E-03,   18.0463E-03,   13.1207E-03,   620.780E-06
C:/temp/dataset/6/8_4.odb,Step-1,Increment      1: Step Time =    1.000,"PART-1-1",            92,          -15.,          -10.,            0.,NA,NA,"",   27.6250E-03,   23.6166E-03,   14.3316E-03,   468.184E-06
C:/temp/dataset/6/8_4.odb,Step-1,Increment      1: Step Time =    1.000,"PART-1-1",            93,          -15.,          -20.,            0.,NA,NA,"",   9.35097E-03,   5.44107E-03,   7.60496E-03,   947.223E-06
C:/temp/dataset/6/8_4.odb,Step-1,Increment      1: Step Time =    1.000,"PART-1-1",            94,          -15.,         -17.5,            0.,NA,NA,"",   13.0625E-03,   8.75707E-03,   9.69245E-03,   889.761E-06
C:/temp/dataset/6/8_4.odb,Step-1,Increment      1: Step Time =    1.000,"PART-1-1",            95,          -15.,         -27.5,            0.,NA,NA,"",   1.92531E-03,   907.448E-06,   1.69805E-03,   793.069E-06
C:/temp/dataset/6/8_4.odb,Step-1,Increment      1: Step Time =    1.000,"PART-1-1",            96,          -15.,          -25.,            0.,NA,NA,"",   3.88205E-03,   1.70899E-03,   3.48564E-03,   842.153E-06
C:/temp/dataset/6/8_4.odb,Step-1,Increment      1: Step Time =    1.000,"PART-1-1",            97,       13.0047,      -3.80353,            0.,NA,NA,"",   70.9115E-03,   40.1739E-03,  -58.4338E-03,   3.02862E-03
C:/temp/dataset/6/8_4.odb,Step-1,Increment      1: Step Time =    1.000,"PART-1-1",            98,       6.97971,      -7.55833,            0.,NA,NA,"",   40.4254E-03,   24.8586E-03,  -31.8788E-03,   1.53900E-03
C:/temp/dataset/6/8_4.odb,Step-1,Increment      1: Step Time =    1.000,"PART-1-1",            99,       6.96639,      -10.0829,            0.,NA,NA,"",   34.1911E-03,   19.1404E-03,  -28.3315E-03,   1.64719E-03
C:/temp/dataset/6/8_4.odb,Step-1,Increment      1: Step Time =    1.000,"PART-1-1",           100,       12.9900,      -12.5465,            0.,NA,NA,"",   42.0639E-03,   20.4306E-03,  -36.7690E-03,   2.57168E-03
C:/temp/dataset/6/8_4.odb,Step-1,Increment      1: Step Time =    1.000,"PART-1-1",           101,       6.90028,      -17.1420,            0.,NA,NA,"",   19.0607E-03,   8.35877E-03,  -17.1301E-03,   1.94928E-03
C:/temp/dataset/6/8_4.odb,Step-1,Increment      1: Step Time =    1.000,"PART-1-1",           102,       7.03871,      -19.0570,            0.,NA,NA,"",   15.5562E-03,   6.47108E-03,  -14.1464E-03,   1.70620E-03
C:/temp/dataset/6/8_4.odb,Step-1,Increment      1: Step Time =    1.000,"PART-1-1",           103,       5.31709,      -21.2647,            0.,NA,NA,"",   8.19794E-03,   2.68877E-03,  -7.74446E-03,   1.65562E-03
C:/temp/dataset/6/8_4.odb,Step-1,Increment      1: Step Time =    1.000,"PART-1-1",           104,      -4.83361,      -22.6144,            0.,NA,NA,"",   1.79330E-03,   1.57413E-03,  -859.080E-06,   465.085E-06
C:/temp/dataset/6/8_4.odb,Step-1,Increment      1: Step Time =    1.000,"PART-1-1",           105,      -7.46484,      -17.6587,            0.,NA,NA,"",   7.05594E-03,   7.04168E-03,  -448.498E-06,   432.447E-06
C:/temp/dataset/6/8_4.odb,Step-1,Increment      1: Step Time =    1.000,"PART-1-1",           106,      -12.5283,      -27.3245,            0.,NA,NA,"",   1.19315E-03,   285.245E-06,   1.15855E-03,   563.014E-06
C:/temp/dataset/6/8_4.odb,Step-1,Increment      1: Step Time =    1.000,"PART-1-1",           107,      -12.4870,      -17.6221,            0.,NA,NA,"",   9.82665E-03,   7.76064E-03,   6.02789E-03,   543.412E-06
C:/temp/dataset/6/8_4.odb,Step-1,Increment      1: Step Time =    1.000,"PART-1-1",           108,      -7.32043,      -12.6401,            0.,NA,NA,"",   16.9025E-03,   16.8450E-03,  -1.39256E-03,   216.221E-06
C:/temp/dataset/6/8_4.odb,Step-1,Increment      1: Step Time =    1.000,"PART-1-1",           109,      -7.14644,      -8.03697,            0.,NA,NA,"",   27.7097E-03,   27.6412E-03,  -1.94614E-03,   217.378E-06
C:/temp/dataset/6/8_4.odb,Step-1,Increment      1: Step Time =    1.000,"PART-1-1",           110,      -12.6601,       4.88622,            0.,NA,NA,"",   60.4748E-03,   59.4919E-03,   10.8591E-03,   13.9489E-06
C:/temp/dataset/6/8_4.odb,Step-1,Increment      1: Step Time =    1.000,"PART-1-1",           111,      -13.0978,       12.5399,            0.,NA,NA,"",   77.8752E-03,   76.9708E-03,   11.8339E-03,   3.50909E-06
C:/temp/dataset/6/8_4.odb,Step-1,Increment      1: Step Time =    1.000,"PART-1-1",           112,      -6.45576,       21.8628,            0.,NA,NA,"",   98.1841E-03,   98.1292E-03,  -3.28186E-03,   34.7550E-09
C:/temp/dataset/6/8_4.odb,Step-1,Increment      1: Step Time =    1.000,"PART-1-1",           113,      -7.28884,       25.7044,            0.,NA,NA,"",   106.869E-03,   106.860E-03,  -1.39891E-03,   15.9908E-09
C:/temp/dataset/6/8_4.odb,Step-1,Increment      1: Step Time =    1.000,"PART-1-1",           114,      -9.90518,       27.6474,            0.,NA,NA,"",   111.374E-03,   111.281E-03,   4.54058E-03,   7.57648E-09
C:/temp/dataset/6/8_4.odb,Step-1,Increment      1: Step Time =    1.000,"PART-1-1",           115,      -3.01211,      -3.13168,            0.,NA,NA,"",   40.9316E-03,   39.5769E-03,  -10.4432E-03,   299.182E-06
C:/temp/dataset/6/8_4.odb,Step-1,Increment      1: Step Time =    1.000,"PART-1-1",           116,      -2.19169,       3.00836,            0.,NA,NA,"",   57.6321E-03,   56.3089E-03,  -12.2786E-03,   443.842E-06
C:/temp/dataset/6/8_4.odb,Step-1,Increment      1: Step Time =    1.000,"PART-1-1",           117,       1.85193,      -2.77696,            0.,NA,NA,"",   45.2591E-03,   39.5145E-03,  -22.0680E-03,   454.151E-06
C:/temp/dataset/6/8_4.odb,Step-1,Increment      1: Step Time =    1.000,"PART-1-1",           118,       2.83229,       2.22691,            0.,NA,NA,"",   60.9993E-03,   55.7531E-03,  -24.7489E-03,   598.988E-06
C:/temp/dataset/6/8_4.odb,Step-1,Increment      1: Step Time =    1.000,"PART-1-1",           119,       7.74921,       3.07964,            0.,NA,NA,"",   75.8837E-03,   61.7284E-03,  -44.1356E-03,   557.408E-06
C:/temp/dataset/6/8_4.odb,Step-1,Increment      1: Step Time =    1.000,"PART-1-1",           120,      -2.47342,      -22.6017,            0.,NA,NA,"",   1.58287E-03,   1.46496E-03,  -599.459E-06,   539.637E-06
C:/temp/dataset/6/8_4.odb,Step-1,Increment      1: Step Time =    1.000,"PART-1-1",           121,      -7.48266,       20.3798,            0.,NA,NA,"",   94.7669E-03,   94.7622E-03,  -944.765E-06,   27.6002E-09
C:/temp/dataset/6/8_4.odb,Step-1,Increment      1: Step Time =    1.000,"PART-1-1",           122,      -7.10993,       13.1351,            0.,NA,NA,"",   78.3151E-03,   78.2950E-03,  -1.77311E-03,   3.13793E-06
C:/temp/dataset/6/8_4.odb,Step-1,Increment      1: Step Time =    1.000,"PART-1-1",           123,      -6.64156,       6.82435,            0.,NA,NA,"",   64.0446E-03,   63.9827E-03,  -2.81518E-03,   27.2973E-06
C:/temp/dataset/6/8_4.odb,Step-1,Increment      1: Step Time =    1.000,"PART-1-1",           124,      -12.9641,      -2.37512,            0.,NA,NA,"",   43.4826E-03,   41.9850E-03,   11.3136E-03,   151.104E-06
C:/temp/dataset/6/8_4.odb,Step-1,Increment      1: Step Time =    1.000,"PART-1-1",           125,      -12.1317,      -9.84573,            0.,NA,NA,"",   24.8776E-03,   23.4941E-03,   8.18040E-03,   350.818E-06
C:/temp/dataset/6/8_4.odb,Step-1,Increment      1: Step Time =    1.000,"PART-1-1",           126,       4.04132,      -2.67712,            0.,NA,NA,"",   48.0712E-03,   39.1341E-03,  -27.9172E-03,   414.174E-06
C:/temp/dataset/6/8_4.odb,Step-1,Increment      1: Step Time =    1.000,"PART-1-1",           127,       6.95362,      -12.5367,            0.,NA,NA,"",   28.6488E-03,   14.6545E-03,  -24.6170E-03,   1.72187E-03
C:/temp/dataset/6/8_4.odb,Step-1,Increment      1: Step Time =    1.000,"PART-1-1",           128,       6.92458,      -14.9216,            0.,NA,NA,"",   23.5539E-03,   11.0865E-03,  -20.7817E-03,   1.82948E-03
C:/temp/dataset/6/8_4.odb,Step-1,Increment      1: Step Time =    1.000,"PART-1-1",           129,       12.9089,      -21.3671,            0.,NA,NA,"",   19.6603E-03,   8.95007E-03,  -17.5049E-03,   2.32536E-03
C:/temp/dataset/6/8_4.odb,Step-1,Increment      1: Step Time =    1.000,"PART-1-1",           130,   283.131E-03,      -22.8786,            0.,NA,NA,"",   1.37464E-03,   1.06702E-03,  -866.661E-06,   277.985E-06
C:/temp/dataset/6/8_4.odb,Step-1,Increment      1: Step Time =    1.000,"PART-1-1",           131,      -12.9776,      -22.4214,            0.,NA,NA,"",   4.68674E-03,   2.47771E-03,   3.97825E-03,   639.114E-06
C:/temp/dataset/6/8_4.odb,Step-1,Increment      1: Step Time =    1.000,"PART-1-1",           132,      -7.42030,      -15.1083,            0.,NA,NA,"",   11.7338E-03,   11.7014E-03,  -871.431E-06,   296.115E-06
C:/temp/dataset/6/8_4.odb,Step-1,Increment      1: Step Time =    1.000,"PART-1-1",           133,      -7.18486,      -10.2642,            0.,NA,NA,"",   22.3289E-03,   22.2543E-03,  -1.82416E-03,   189.322E-06
C:/temp/dataset/6/8_4.odb,Step-1,Increment      1: Step Time =    1.000,"PART-1-1",           134,      -7.33974,      -5.93881,            0.,NA,NA,"",   32.9304E-03,   32.8989E-03,  -1.43957E-03,   221.652E-06
C:/temp/dataset/6/8_4.odb,Step-1,Increment      1: Step Time =    1.000,"PART-1-1",           135,  -533.729E-03,      -2.94296,            0.,NA,NA,"",   42.7837E-03,   39.6474E-03,  -16.0788E-03,   313.129E-06
C:/temp/dataset/6/8_4.odb,Step-1,Increment      1: Step Time =    1.000,"PART-1-1",           136,       10.2172,      -28.0250,            0.,NA,NA,"",   2.78721E-03,   708.258E-06,  -2.69572E-03,   1.76434E-03
C:/temp/dataset/6/8_4.odb,Step-1,Increment      1: Step Time =    1.000,"PART-1-1",           137,       7.82196,      -28.0777,            0.,NA,NA,"",   2.02932E-03,  -122.544E-06,  -2.02562E-03,   1.34490E-03
C:/temp/dataset/6/8_4.odb,Step-1,Increment      1: Step Time =    1.000,"PART-1-1",           138,       5.43540,      -28.0544,            0.,NA,NA,"",   1.54532E-03,  -576.135E-06,  -1.43390E-03,   955.119E-06
C:/temp/dataset/6/8_4.odb,Step-1,Increment      1: Step Time =    1.000,"PART-1-1",           139,       2.98405,      -27.8165,            0.,NA,NA,"",   1.16817E-03,  -683.906E-06,  -947.050E-06,   589.510E-06
C:/temp/dataset/6/8_4.odb,Step-1,Increment      1: Step Time =    1.000,"PART-1-1",           140,   324.250E-03,      -27.0908,            0.,NA,NA,"",   735.870E-06,  -454.401E-06,  -578.813E-06,   309.050E-06
C:/temp/dataset/6/8_4.odb,Step-1,Increment      1: Step Time =    1.000,"PART-1-1",           141,      -2.46293,      -27.5198,            0.,NA,NA,"",   367.998E-06,  -216.982E-06,  -297.223E-06,   179.001E-06
C:/temp/dataset/6/8_4.odb,Step-1,Increment      1: Step Time =    1.000,"PART-1-1",           142,      -4.88996,      -27.5861,            0.,NA,NA,"",   250.975E-06,  -160.345E-06,  -193.075E-06,   109.337E-06
C:/temp/dataset/6/8_4.odb,Step-1,Increment      1: Step Time =    1.000,"PART-1-1",           143,      -7.26500,      -27.4866,            0.,NA,NA,"",   191.866E-06,  -190.384E-06,   23.8068E-06,   38.2794E-06
C:/temp/dataset/6/8_4.odb,Step-1,Increment      1: Step Time =    1.000,"PART-1-1",           144,      -9.86695,      -26.8928,            0.,NA,NA,"",   584.309E-06,  -50.4340E-06,   582.128E-06,   241.321E-06
C:/temp/dataset/6/8_4.odb,Step-1,Increment      1: Step Time =    1.000,"PART-1-1",           145,       12.7710,      -23.5898,            0.,NA,NA,"",   14.3438E-03,   6.57773E-03,  -12.7467E-03,   2.31419E-03
C:/temp/dataset/6/8_4.odb,Step-1,Increment      1: Step Time =    1.000,"PART-1-1",           146,       12.6989,      -25.7990,            0.,NA,NA,"",   9.16960E-03,   4.42446E-03,  -8.03155E-03,   2.38399E-03
C:/temp/dataset/6/8_4.odb,Step-1,Increment      1: Step Time =    1.000,"PART-1-1",           147,       12.6207,      -27.9366,            0.,NA,NA,"",   4.38611E-03,   2.29889E-03,  -3.73537E-03,   2.36679E-03
C:/temp/dataset/6/8_4.odb,Step-1,Increment      1: Step Time =    1.000,"PART-1-1",           148,       12.9983,      -14.8223,            0.,NA,NA,"",   35.8888E-03,   16.9704E-03,  -31.6230E-03,   2.48548E-03
C:/temp/dataset/6/8_4.odb,Step-1,Increment      1: Step Time =    1.000,"PART-1-1",           149,       13.0558,      -17.0719,            0.,NA,NA,"",   30.2358E-03,   14.0460E-03,  -26.7752E-03,   2.41203E-03
C:/temp/dataset/6/8_4.odb,Step-1,Increment      1: Step Time =    1.000,"PART-1-1",           150,       13.1682,      -19.2108,            0.,NA,NA,"",   25.1790E-03,   11.6004E-03,  -22.3476E-03,   2.36514E-03
C:/temp/dataset/6/8_4.odb,Step-1,Increment      1: Step Time =    1.000,"PART-1-1",           151,       13.0670,      -5.94273,            0.,NA,NA,"",   63.1598E-03,   34.3355E-03,  -53.0116E-03,   2.88275E-03
C:/temp/dataset/6/8_4.odb,Step-1,Increment      1: Step Time =    1.000,"PART-1-1",           152,       13.0350,      -8.09399,            0.,NA,NA,"",   55.7091E-03,   29.1086E-03,  -47.4994E-03,   2.75955E-03
C:/temp/dataset/6/8_4.odb,Step-1,Increment      1: Step Time =    1.000,"PART-1-1",           153,       12.9982,      -10.2981,            0.,NA,NA,"",   48.6543E-03,   24.4582E-03,  -42.0600E-03,   2.66039E-03
C:/temp/dataset/6/8_4.odb,Step-1,Increment      1: Step Time =    1.000,"PART-1-1",           154,       12.5107,   556.281E-03,            0.,NA,NA,"",   87.9405E-03,   55.0645E-03,  -68.5670E-03,   3.38620E-03
C:/temp/dataset/6/8_4.odb,Step-1,Increment      1: Step Time =    1.000,"PART-1-1",           155,       12.7702,      -1.64554,            0.,NA,NA,"",   78.8335E-03,   46.8211E-03,  -63.4233E-03,   3.16067E-03
C:/temp/dataset/6/8_4.odb,Step-1,Increment      1: Step Time =    1.000,"PART-1-1",           156,       10.0517,       2.85834,            0.,NA,NA,"",   86.1371E-03,   62.3723E-03,  -59.4078E-03,   2.87989E-03
C:/temp/dataset/6/8_4.odb,Step-1,Increment      1: Step Time =    1.000,"PART-1-1",           157,       5.39286,       2.85476,            0.,NA,NA,"",   68.1644E-03,   59.4072E-03,  -33.4242E-03,   699.091E-06
C:/temp/dataset/6/8_4.odb,Step-1,Increment      1: Step Time =    1.000,"PART-1-1",           158,   175.602E-03,       2.90951,            0.,NA,NA,"",   59.6093E-03,   56.8868E-03,  -17.8089E-03,   590.802E-06
C:/temp/dataset/6/8_4.odb,Step-1,Increment      1: Step Time =    1.000,"PART-1-1",           159,      -4.35394,       2.91920,            0.,NA,NA,"",   56.0286E-03,   55.5221E-03,  -7.51648E-03,   337.578E-06
C:/temp/dataset/6/8_4.odb,Step-1,Increment      1: Step Time =    1.000,"PART-1-1",           160,      -7.05997,       10.9599,            0.,NA,NA,"",   73.3721E-03,   73.3479E-03,  -1.88190E-03,   7.35591E-06
C:/temp/dataset/6/8_4.odb,Step-1,Increment      1: Step Time =    1.000,"PART-1-1",           161,      -6.93805,       8.84105,            0.,NA,NA,"",   68.5686E-03,   68.5348E-03,  -2.15312E-03,   11.6947E-06
C:/temp/dataset/6/8_4.odb,Step-1,Increment      1: Step Time =    1.000,"PART-1-1",           162,      -7.28921,       17.6445,            0.,NA,NA,"",   88.5570E-03,   88.5463E-03,  -1.37728E-03,   258.299E-09
C:/temp/dataset/6/8_4.odb,Step-1,Increment      1: Step Time =    1.000,"PART-1-1",           163,      -7.17735,       15.3234,            0.,NA,NA,"",   83.2864E-03,   83.2706E-03,  -1.62553E-03,   1.12074E-06
C:/temp/dataset/6/8_4.odb,Step-1,Increment      1: Step Time =    1.000,"PART-1-1",           164,      -6.93557,       23.5874,            0.,NA,NA,"",   102.072E-03,   102.049E-03,  -2.19611E-03,   25.4800E-09
C:/temp/dataset/6/8_4.odb,Step-1,Increment      1: Step Time =    1.000,"PART-1-1",           165,      -13.1925,       19.7530,            0.,NA,NA,"",   94.1250E-03,   93.3531E-03,   12.0301E-03,   22.5413E-09
C:/temp/dataset/6/8_4.odb,Step-1,Increment      1: Step Time =    1.000,"PART-1-1",           166,      -7.44963,       27.8335,            0.,NA,NA,"",   111.702E-03,   111.698E-03,  -1.03909E-03,   7.53984E-09
C:/temp/dataset/6/8_4.odb,Step-1,Increment      1: Step Time =    1.000,"PART-1-1",           167,      -13.0424,       22.0734,            0.,NA,NA,"",   99.3142E-03,   98.6247E-03,   11.6831E-03,   31.4426E-09
C:/temp/dataset/6/8_4.odb,Step-1,Increment      1: Step Time =    1.000,"PART-1-1",           168,      -13.1316,       14.9813,            0.,NA,NA,"",   83.3681E-03,   82.5138E-03,   11.9040E-03,   1.18356E-06
C:/temp/dataset/6/8_4.odb,Step-1,Increment      1: Step Time =    1.000,"PART-1-1",           169,      -13.1727,       17.3972,            0.,NA,NA,"",   88.8143E-03,   88.0011E-03,   11.9911E-03,   256.050E-09
C:/temp/dataset/6/8_4.odb,Step-1,Increment      1: Step Time =    1.000,"PART-1-1",           170,      -12.8574,       7.53984,            0.,NA,NA,"",   66.5680E-03,   65.6014E-03,   11.3031E-03,   8.18710E-06
C:/temp/dataset/6/8_4.odb,Step-1,Increment      1: Step Time =    1.000,"PART-1-1",           171,      -13.0166,       10.0884,            0.,NA,NA,"",   72.3496E-03,   71.4043E-03,   11.6571E-03,   7.58042E-06
C:/temp/dataset/6/8_4.odb,Step-1,Increment      1: Step Time =    1.000,"PART-1-1",           172,      -12.8045,  -118.323E-03,            0.,NA,NA,"",   48.8234E-03,   47.5439E-03,   11.1043E-03,   104.064E-06
C:/temp/dataset/6/8_4.odb,Step-1,Increment      1: Step Time =    1.000,"PART-1-1",           173,      -12.7039,       2.28772,            0.,NA,NA,"",   54.4786E-03,   53.3671E-03,   10.9482E-03,   56.5619E-06
C:/temp/dataset/6/8_4.odb,Step-1,Increment      1: Step Time =    1.000,"PART-1-1",           174,      -12.8488,      -7.31355,            0.,NA,NA,"",   31.4491E-03,   29.7136E-03,   10.3028E-03,   290.394E-06
C:/temp/dataset/6/8_4.odb,Step-1,Increment      1: Step Time =    1.000,"PART-1-1",           175,      -12.6051,      -4.81291,            0.,NA,NA,"",   37.3167E-03,   35.8964E-03,   10.1973E-03,   218.473E-06
C:/temp/dataset/6/8_4.odb,Step-1,Increment      1: Step Time =    1.000,"PART-1-1",           176,      -12.4260,      -15.0682,            0.,NA,NA,"",   14.0814E-03,   12.1853E-03,   7.05718E-03,   487.783E-06
C:/temp/dataset/6/8_4.odb,Step-1,Increment      1: Step Time =    1.000,"PART-1-1",           177,      -12.3344,      -12.5112,            0.,NA,NA,"",   19.1045E-03,   17.4289E-03,   7.82401E-03,   421.756E-06
C:/temp/dataset/6/8_4.odb,Step-1,Increment      1: Step Time =    1.000,"PART-1-1",           178,      -12.6598,      -20.1148,            0.,NA,NA,"",   6.69450E-03,   4.49146E-03,   4.96418E-03,   596.332E-06
C:/temp/dataset/6/8_4.odb,Step-1,Increment      1: Step Time =    1.000,"PART-1-1",           179,      -8.70618,       22.9331,            0.,NA,NA,"",   100.583E-03,   100.567E-03,   1.82858E-03,   29.0996E-09
C:/temp/dataset/6/8_4.odb,Step-1,Increment      1: Step Time =    1.000,"PART-1-1",           180,      -9.21222,       15.1634,            0.,NA,NA,"",   82.9679E-03,   82.9138E-03,   2.99697E-03,   1.46379E-06
C:/temp/dataset/6/8_4.odb,Step-1,Increment      1: Step Time =    1.000,"PART-1-1",           181,      -9.55138,       19.8926,            0.,NA,NA,"",   93.7361E-03,   93.6607E-03,   3.75683E-03,   64.1812E-09
C:/temp/dataset/6/8_4.odb,Step-1,Increment      1: Step Time =    1.000,"PART-1-1",           182,      -8.92203,       8.32966,            0.,NA,NA,"",   67.4299E-03,   67.3898E-03,   2.32520E-03,   13.1048E-06
C:/temp/dataset/6/8_4.odb,Step-1,Increment      1: Step Time =    1.000,"PART-1-1",           183,      -9.17670,       12.8809,            0.,NA,NA,"",   77.7815E-03,   77.7267E-03,   2.91815E-03,   4.00517E-06
C:/temp/dataset/6/8_4.odb,Step-1,Increment      1: Step Time =    1.000,"PART-1-1",           184,      -9.09923,       10.6117,            0.,NA,NA,"",   72.6214E-03,   72.5698E-03,   2.73849E-03,   8.71598E-06
C:/temp/dataset/6/8_4.odb,Step-1,Increment      1: Step Time =    1.000,"PART-1-1",           185,      -9.30530,       17.5014,            0.,NA,NA,"",   88.2850E-03,   88.2268E-03,   3.20366E-03,   386.385E-09
C:/temp/dataset/6/8_4.odb,Step-1,Increment      1: Step Time =    1.000,"PART-1-1",           186,      -8.37864,       6.17865,            0.,NA,NA,"",   62.5306E-03,   62.5210E-03,   1.09207E-03,   28.8301E-06
C:/temp/dataset/6/8_4.odb,Step-1,Increment      1: Step Time =    1.000,"PART-1-1",           187,       10.9988,      -10.2527,            0.,NA,NA,"",   43.6863E-03,   22.3267E-03,  -37.5501E-03,   2.33376E-03
C:/temp/dataset/6/8_4.odb,Step-1,Increment      1: Step Time =    1.000,"PART-1-1",           188,       10.8643,      -17.5211,            0.,NA,NA,"",   25.2508E-03,   11.2851E-03,  -22.5887E-03,   2.17398E-03
C:/temp/dataset/6/8_4.odb,Step-1,Increment      1: Step Time =    1.000,"PART-1-1",           189,       11.0508,      -8.01555,            0.,NA,NA,"",   50.2642E-03,   27.0673E-03,  -42.3539E-03,   2.34657E-03
C:/temp/dataset/6/8_4.odb,Step-1,Increment      1: Step Time =    1.000,"PART-1-1",           190,       10.6332,      -2.00908,            0.,NA,NA,"",   68.3492E-03,   43.1140E-03,  -53.0358E-03,   2.32553E-03
C:/temp/dataset/6/8_4.odb,Step-1,Increment      1: Step Time =    1.000,"PART-1-1",           191,       11.1668,      -5.92645,            0.,NA,NA,"",   57.0591E-03,   32.2375E-03,  -47.0795E-03,   2.37464E-03
C:/temp/dataset/6/8_4.odb,Step-1,Increment      1: Step Time =    1.000,"PART-1-1",           192,       10.9732,      -14.9280,            0.,NA,NA,"",   31.5305E-03,   14.6888E-03,  -27.9001E-03,   2.25846E-03
C:/temp/dataset/6/8_4.odb,Step-1,Increment      1: Step Time =    1.000,"PART-1-1",           193,       10.5476,      -23.6927,            0.,NA,NA,"",   11.3218E-03,   4.30962E-03,  -10.4695E-03,   2.10879E-03
C:/temp/dataset/6/8_4.odb,Step-1,Increment      1: Step Time =    1.000,"PART-1-1",           194,       10.5707,      -21.1850,            0.,NA,NA,"",   16.6825E-03,   6.85300E-03,  -15.2099E-03,   2.10217E-03
C:/temp/dataset/6/8_4.odb,Step-1,Increment      1: Step Time =    1.000,"PART-1-1",           195,       10.9760,      -12.5622,            0.,NA,NA,"",   37.4506E-03,   18.2144E-03,  -32.7228E-03,   2.30520E-03
C:/temp/dataset/6/8_4.odb,Step-1,Increment      1: Step Time =    1.000,"PART-1-1",           196,       11.6229,      -19.2502,            0.,NA,NA,"",   22.5933E-03,   9.98859E-03,  -20.2654E-03,   2.21314E-03
C:/temp/dataset/6/8_4.odb,Step-1,Increment      1: Step Time =    1.000,"PART-1-1",           197,       11.1609,      -3.97100,            0.,NA,NA,"",   63.4837E-03,   37.5608E-03,  -51.1797E-03,   2.42035E-03
C:/temp/dataset/6/8_4.odb,Step-1,Increment      1: Step Time =    1.000,"PART-1-1",           198,      -9.55101,       25.2781,            0.,NA,NA,"",   105.963E-03,   105.897E-03,   3.74202E-03,   18.8862E-09
C:/temp/dataset/6/8_4.odb,Step-1,Increment      1: Step Time =    1.000,"PART-1-1",           199,      -6.13353,       2.97524,            0.,NA,NA,"",   55.4823E-03,   55.3578E-03,  -3.71421E-03,   257.559E-06
C:/temp/dataset/6/8_4.odb,Step-1,Increment      1: Step Time =    1.000,"PART-1-1",           200,       8.52809,      -18.5145,            0.,NA,NA,"",   19.0795E-03,   8.14866E-03,  -17.2519E-03,   1.92164E-03
C:/temp/dataset/6/8_4.odb,Step-1,Increment      1: Step Time =    1.000,"PART-1-1",           201,      -9.31256,      -6.57829,            0.,NA,NA,"",   31.4399E-03,   31.3166E-03,   2.78174E-03,   260.620E-06
C:/temp/dataset/6/8_4.odb,Step-1,Increment      1: Step Time =    1.000,"PART-1-1",           202,      -7.82061,      -4.24854,            0.,NA,NA,"",   37.1358E-03,   37.1346E-03,  -291.838E-06,   207.170E-06
C:/temp/dataset/6/8_4.odb,Step-1,Increment      1: Step Time =    1.000,"PART-1-1",           203,       7.55002,      -20.4955,            0.,NA,NA,"",   13.6708E-03,   5.17627E-03,  -12.6529E-03,   1.75676E-03
C:/temp/dataset/6/8_4.odb,Step-1,Increment      1: Step Time =    1.000,"PART-1-1",           204,      -9.18944,      -8.43706,            0.,NA,NA,"",   26.7955E-03,   26.6906E-03,   2.36899E-03,   272.456E-06
C:/temp/dataset/6/8_4.odb,Step-1,Increment      1: Step Time =    1.000,"PART-1-1",           205,      -12.3720,       27.4312,            0.,NA,NA,"",   111.260E-03,   110.796E-03,   10.1459E-03,   8.80751E-09
C:/temp/dataset/6/8_4.odb,Step-1,Increment      1: Step Time =    1.000,"PART-1-1",           206,      -10.3791,       22.2070,            0.,NA,NA,"",   99.0814E-03,   98.9213E-03,   5.63150E-03,   31.0564E-09
C:/temp/dataset/6/8_4.odb,Step-1,Increment      1: Step Time =    1.000,"PART-1-1",           207,       3.40286,  -884.176E-03,            0.,NA,NA,"",   52.0447E-03,   45.0118E-03,  -26.1263E-03,   321.673E-06
C:/temp/dataset/6/8_4.odb,Step-1,Increment      1: Step Time =    1.000,"PART-1-1",           208,       7.88020,       1.44192,            0.,NA,NA,"",   69.9083E-03,   54.2412E-03,  -44.1029E-03,   998.512E-06
C:/temp/dataset/6/8_4.odb,Step-1,Increment      1: Step Time =    1.000,"PART-1-1",           209,      -1.17287,  -897.893E-03,            0.,NA,NA,"",   47.6554E-03,   45.4262E-03,  -14.4047E-03,   361.628E-06
C:/temp/dataset/6/8_4.odb,Step-1,Increment      1: Step Time =    1.000,"PART-1-1",           210,       10.4014,      -25.9274,            0.,NA,NA,"",   6.64718E-03,   2.27256E-03,  -6.24663E-03,   1.99422E-03
C:/temp/dataset/6/8_4.odb,Step-1,Increment      1: Step Time =    1.000,"PART-1-1",           211,       2.00108,      -24.8239,            0.,NA,NA,"",   1.53285E-03,  -158.421E-06,  -1.52465E-03,   352.982E-06
C:/temp/dataset/6/8_4.odb,Step-1,Increment      1: Step Time =    1.000,"PART-1-1",           212,      -4.80900,      -25.1606,            0.,NA,NA,"",   586.836E-06,   377.050E-06,  -449.678E-06,   238.403E-06
C:/temp/dataset/6/8_4.odb,Step-1,Increment      1: Step Time =    1.000,"PART-1-1",           213,      -11.5765,       21.3848,            0.,NA,NA,"",   97.4151E-03,   97.0562E-03,   8.35416E-03,   28.2291E-09
C:/temp/dataset/6/8_4.odb,Step-1,Increment      1: Step Time =    1.000,"PART-1-1",           214,      -11.0630,       10.3038,            0.,NA,NA,"",   72.2441E-03,   71.8842E-03,   7.20238E-03,   8.17643E-06
C:/temp/dataset/6/8_4.odb,Step-1,Increment      1: Step Time =    1.000,"PART-1-1",           215,      -10.2832,  -591.021E-03,            0.,NA,NA,"",   46.6436E-03,   46.3351E-03,   5.35584E-03,   180.278E-06
C:/temp/dataset/6/8_4.odb,Step-1,Increment      1: Step Time =    1.000,"PART-1-1",           216,      -11.1869,      -5.64306,            0.,NA,NA,"",   34.4348E-03,   33.7325E-03,   6.91908E-03,   249.878E-06
C:/temp/dataset/6/8_4.odb,Step-1,Increment      1: Step Time =    1.000,"PART-1-1",           217,      -9.48237,      -10.3825,            0.,NA,NA,"",   22.1787E-03,   22.0013E-03,   2.79934E-03,   281.132E-06
C:/temp/dataset/6/8_4.odb,Step-1,Increment      1: Step Time =    1.000,"PART-1-1",           218,      -10.0191,      -20.7277,            0.,NA,NA,"",   3.83354E-03,   3.21091E-03,   2.09430E-03,   291.425E-06
C:/temp/dataset/6/8_4.odb,Step-1,Increment      1: Step Time =    1.000,"PART-1-1",           219,      -12.8377,      -24.8331,            0.,NA,NA,"",   2.75942E-03,   1.08118E-03,   2.53879E-03,   612.916E-06
C:/temp/dataset/6/8_4.odb,Step-1,Increment      1: Step Time =    1.000,"PART-1-1",           220,  -752.185E-03,      -25.0561,            0.,NA,NA,"",   635.433E-06,   170.522E-06,  -612.125E-06,   279.342E-06
C:/temp/dataset/6/8_4.odb,Step-1,Increment      1: Step Time =    1.000,"PART-1-1",           221,      -11.3411,      -22.5061,            0.,NA,NA,"",   3.31717E-03,   1.99477E-03,   2.65039E-03,   434.882E-06
C:/temp/dataset/6/8_4.odb,Step-1,Increment      1: Step Time =    1.000,"PART-1-1",           222,       5.90860,      -26.1342,            0.,NA,NA,"",   3.30931E-03,  -231.733E-06,  -3.30118E-03,   1.11727E-03
C:/temp/dataset/6/8_4.odb,Step-1,Increment      1: Step Time =    1.000,"PART-1-1",           223,       3.81352,      -25.8758,            0.,NA,NA,"",   2.26152E-03,  -525.341E-06,  -2.19966E-03,   700.192E-06
C:/temp/dataset/6/8_4.odb,Step-1,Increment      1: Step Time =    1.000,"PART-1-1",           224,      -6.87266,      -25.1947,            0.,NA,NA,"",   309.877E-06,   286.619E-06,  -117.783E-06,   93.8158E-06
C:/temp/dataset/6/8_4.odb,Step-1,Increment      1: Step Time =    1.000,"PART-1-1",           225,       9.77381,   336.875E-03,            0.,NA,NA,"",   73.4732E-03,   50.7999E-03,  -53.0818E-03,   2.10415E-03
C:/temp/dataset/6/8_4.odb,Step-1,Increment      1: Step Time =    1.000,"PART-1-1",           226,       4.59800,   29.7464E-03,            0.,NA,NA,"",   56.6929E-03,   48.1434E-03,  -29.9381E-03,   257.251E-06
C:/temp/dataset/6/8_4.odb,Step-1,Increment      1: Step Time =    1.000,"PART-1-1",           227,      -11.1551,       12.6912,            0.,NA,NA,"",   77.6612E-03,   77.3065E-03,   7.41408E-03,   4.11593E-06
C:/temp/dataset/6/8_4.odb,Step-1,Increment      1: Step Time =    1.000,"PART-1-1",           228,      -11.2689,       17.3859,            0.,NA,NA,"",   88.3035E-03,   87.9702E-03,   7.66542E-03,   403.528E-09
C:/temp/dataset/6/8_4.odb,Step-1,Increment      1: Step Time =    1.000,"PART-1-1",           229,      -11.2102,       15.0558,            0.,NA,NA,"",   83.0196E-03,   82.6768E-03,   7.53698E-03,   1.46618E-06
C:/temp/dataset/6/8_4.odb,Step-1,Increment      1: Step Time =    1.000,"PART-1-1",           230,      -10.8139,       7.79620,            0.,NA,NA,"",   66.5128E-03,   66.1819E-03,   6.62621E-03,   10.3813E-06
C:/temp/dataset/6/8_4.odb,Step-1,Increment      1: Step Time =    1.000,"PART-1-1",           231,      -10.1648,       4.85487,            0.,NA,NA,"",   59.6687E-03,   59.4459E-03,   5.15166E-03,   39.6649E-06
C:/temp/dataset/6/8_4.odb,Step-1,Increment      1: Step Time =    1.000,"PART-1-1",           232,      -10.4473,       2.01195,            0.,NA,NA,"",   53.0335E-03,   52.7157E-03,   5.79759E-03,   112.834E-06
C:/temp/dataset/6/8_4.odb,Step-1,Increment      1: Step Time =    1.000,"PART-1-1",           233,      -10.4810,      -3.59789,            0.,NA,NA,"",   39.2292E-03,   38.8301E-03,   5.58090E-03,   218.977E-06
C:/temp/dataset/6/8_4.odb,Step-1,Increment      1: Step Time =    1.000,"PART-1-1",           234,      -9.89141,      -15.1395,            0.,NA,NA,"",   12.0519E-03,   11.6626E-03,   3.03853E-03,   298.157E-06
C:/temp/dataset/6/8_4.odb,Step-1,Increment      1: Step Time =    1.000,"PART-1-1",           235,      -9.95744,      -17.7636,            0.,NA,NA,"",   7.50906E-03,   7.00272E-03,   2.71071E-03,   338.987E-06
C:/temp/dataset/6/8_4.odb,Step-1,Increment      1: Step Time =    1.000,"PART-1-1",           236,      -3.63694,      -1.16253,            0.,NA,NA,"",   45.6865E-03,   44.7951E-03,  -8.98057E-03,   373.041E-06
C:/temp/dataset/6/8_4.odb,Step-1,Increment      1: Step Time =    1.000,"PART-1-1",           237,      -7.00580,      -22.7773,            0.,NA,NA,"",   1.38022E-03,   1.35102E-03,  -282.409E-06,   168.145E-06
C:/temp/dataset/6/8_4.odb,Step-1,Increment      1: Step Time =    1.000,"PART-1-1",           238,       7.08723,      -4.67483,            0.,NA,NA,"",   48.6275E-03,   33.0576E-03,  -35.6627E-03,   1.12010E-03
C:/temp/dataset/6/8_4.odb,Step-1,Increment      1: Step Time =    1.000,"PART-1-1",           239,       8.96532,      -10.1697,            0.,NA,NA,"",   38.7781E-03,   20.5705E-03,  -32.8724E-03,   1.98695E-03
C:/temp/dataset/6/8_4.odb,Step-1,Increment      1: Step Time =    1.000,"PART-1-1",           240,       8.99874,      -7.82238,            0.,NA,NA,"",   45.0805E-03,   25.6917E-03,  -37.0430E-03,   1.89637E-03
C:/temp/dataset/6/8_4.odb,Step-1,Increment      1: Step Time =    1.000,"PART-1-1",           241,       8.96760,      -14.8663,            0.,NA,NA,"",   27.6230E-03,   12.8950E-03,  -24.4285E-03,   2.03880E-03
C:/temp/dataset/6/8_4.odb,Step-1,Increment      1: Step Time =    1.000,"PART-1-1",           242,      -12.0836,       24.5335,            0.,NA,NA,"",   104.644E-03,   104.212E-03,   9.49810E-03,   23.1060E-09
C:/temp/dataset/6/8_4.odb,Step-1,Increment      1: Step Time =    1.000,"PART-1-1",           243,       9.21542,      -5.66363,            0.,NA,NA,"",   51.7817E-03,   31.3083E-03,  -41.2449E-03,   1.82616E-03
C:/temp/dataset/6/8_4.odb,Step-1,Increment      1: Step Time =    1.000,"PART-1-1",           244,       8.72776,      -2.97127,            0.,NA,NA,"",   58.1975E-03,   38.7581E-03,  -43.4139E-03,   1.57170E-03
C:/temp/dataset/6/8_4.odb,Step-1,Increment      1: Step Time =    1.000,"PART-1-1",           245,       9.39471,      -19.4524,            0.,NA,NA,"",   18.5905E-03,   7.77618E-03,  -16.8861E-03,   1.95637E-03
C:/temp/dataset/6/8_4.odb,Step-1,Increment      1: Step Time =    1.000,"PART-1-1",           246,       8.06548,      -22.0810,            0.,NA,NA,"",   11.4037E-03,   3.79406E-03,  -10.7541E-03,   1.85077E-03
C:/temp/dataset/6/8_4.odb,Step-1,Increment      1: Step Time =    1.000,"PART-1-1",           247,      -7.53738,       4.79758,            0.,NA,NA,"",   59.4369E-03,   59.4319E-03,  -768.758E-06,   87.6320E-06
C:/temp/dataset/6/8_4.odb,Step-1,Increment      1: Step Time =    1.000,"PART-1-1",           248,      -10.8025,      -24.3532,            0.,NA,NA,"",   1.83718E-03,   838.317E-06,   1.63476E-03,   362.902E-06
C:/temp/dataset/6/8_4.odb,Step-1,Increment      1: Step Time =    1.000,"PART-1-1",           249,       5.82981,      -2.08643,            0.,NA,NA,"",   52.8091E-03,   40.8522E-03,  -33.4649E-03,   605.725E-06
C:/temp/dataset/6/8_4.odb,Step-1,Increment      1: Step Time =    1.000,"PART-1-1",           250,      -8.67175,      -2.53401,            0.,NA,NA,"",   41.4877E-03,   41.4535E-03,   1.68563E-03,   224.762E-06
C:/temp/dataset/6/8_4.odb,Step-1,Increment      1: Step Time =    1.000,"PART-1-1",           251,       5.78686,      -22.7214,            0.,NA,NA,"",   6.97513E-03,   1.56258E-03,  -6.79785E-03,   1.41534E-03
C:/temp/dataset/6/8_4.odb,Step-1,Increment      1: Step Time =    1.000,"PART-1-1",           252,      -8.27594,       1.60152,            0.,NA,NA,"",   51.7975E-03,   51.7882E-03,   982.658E-06,   190.551E-06
C:/temp/dataset/6/8_4.odb,Step-1,Increment      1: Step Time =    1.000,"PART-1-1",           253,       8.25490,      -24.0061,            0.,NA,NA,"",   8.15231E-03,   2.16680E-03,  -7.85908E-03,   1.76111E-03
C:/temp/dataset/6/8_4.odb,Step-1,Increment      1: Step Time =    1.000,"PART-1-1",           254,      -9.04303,      -23.2600,            0.,NA,NA,"",   1.42530E-03,   1.14974E-03,   842.359E-06,   159.342E-06
C:/temp/dataset/6/8_4.odb,Step-1,Increment      1: Step Time =    1.000,"PART-1-1",           255,       7.61656,      -1.09448,            0.,NA,NA,"",   60.4207E-03,   44.4632E-03,  -40.9107E-03,   1.05877E-03
C:/temp/dataset/6/8_4.odb,Step-1,Increment      1: Step Time =    1.000,"PART-1-1",           256,      -4.02262,   861.151E-03,            0.,NA,NA,"",   50.8697E-03,   50.2194E-03,  -8.10814E-03,   370.688E-06
C:/temp/dataset/6/8_4.odb,Step-1,Increment      1: Step Time =    1.000,"PART-1-1",           257,  -104.141E-03,       1.31276,            0.,NA,NA,"",   54.6811E-03,   51.9973E-03,  -16.9205E-03,   466.463E-06
C:/temp/dataset/6/8_4.odb,Step-1,Increment      1: Step Time =    1.000,"PART-1-1",           258,       3.72123,      -23.4419,            0.,NA,NA,"",   3.39498E-03,   443.156E-06,  -3.36593E-03,   722.889E-06
C:/temp/dataset/6/8_4.odb,Step-1,Increment      1: Step Time =    1.000,"PART-1-1",           259,      -10.7950,      -8.39617,            0.,NA,NA,"",   27.4675E-03,   26.8699E-03,   5.69836E-03,   294.576E-06
C:/temp/dataset/6/8_4.odb,Step-1,Increment      1: Step Time =    1.000,"PART-1-1",           260,      -1.85786,       1.02916,            0.,NA,NA,"",   52.5067E-03,   50.9133E-03,  -12.8370E-03,   417.990E-06
C:/temp/dataset/6/8_4.odb,Step-1,Increment      1: Step Time =    1.000,"PART-1-1",           261,      -6.46179,      -1.33856,            0.,NA,NA,"",   44.5151E-03,   44.4140E-03,  -2.99839E-03,   292.753E-06
C:/temp/dataset/6/8_4.odb,Step-1,Increment      1: Step Time =    1.000,"PART-1-1",           262,      -11.1078,      -7.00587,            0.,NA,NA,"",   31.0290E-03,   30.3261E-03,   6.56687E-03,   274.966E-06
C:/temp/dataset/6/8_4.odb,Step-1,Increment      1: Step Time =    1.000,"PART-1-1",           263,      -5.52697,      -3.44125,            0.,NA,NA,"",   39.3875E-03,   39.0435E-03,  -5.19467E-03,   286.407E-06
C:/temp/dataset/6/8_4.odb,Step-1,Increment      1: Step Time =    1.000,"PART-1-1",           264,      -9.72268,      -4.98378,            0.,NA,NA,"",   35.5338E-03,   35.3305E-03,   3.79579E-03,   240.136E-06
C:/temp/dataset/6/8_4.odb,Step-1,Increment      1: Step Time =    1.000,"PART-1-1",           265,      -6.27329,       4.89376,            0.,NA,NA,"",   59.8726E-03,   59.7654E-03,  -3.58143E-03,   142.364E-06
C:/temp/dataset/6/8_4.odb,Step-1,Increment      1: Step Time =    1.000,"PART-1-1",           266,       12.4963,       2.80040,            0.,NA,NA,"",   100.621E-03,   66.1114E-03,  -75.8538E-03,   4.07796E-03
C:/temp/dataset/6/8_4.odb,Step-1,Increment      1: Step Time =    1.000,"PART-1-1",           267,      -7.37176,      -20.2559,            0.,NA,NA,"",   3.30073E-03,   3.29250E-03,  -232.938E-06,   251.536E-06
C:/temp/dataset/6/8_4.odb,Step-1,Increment      1: Step Time =    1.000,"PART-1-1",           268,       2.88963,      -21.8777,            0.,NA,NA,"",   3.11980E-03,   1.56678E-03,  -2.69784E-03,   409.785E-06
C:/temp/dataset/6/8_4.odb,Step-1,Increment      1: Step Time =    1.000,"PART-1-1",           269,      -8.05085,       3.52655,            0.,NA,NA,"",   56.4502E-03,   56.4485E-03,   433.339E-06,   127.660E-06
C:/temp/dataset/6/8_4.odb,Step-1,Increment      1: Step Time =    1.000,"PART-1-1",           270,       8.95558,      -12.5395,            0.,NA,NA,"",   32.9423E-03,   16.3177E-03,  -28.6170E-03,   2.02484E-03
C:/temp/dataset/6/8_4.odb,Step-1,Increment      1: Step Time =    1.000,"PART-1-1",           271,       1.35989,  -223.950E-03,            0.,NA,NA,"",   51.5899E-03,   47.3309E-03,  -20.5256E-03,   393.948E-06
C:/temp/dataset/6/8_4.odb,Step-1,Increment      1: Step Time =    1.000,"PART-1-1",           272,      -9.75004,      -12.6533,            0.,NA,NA,"",   17.1083E-03,   16.8286E-03,   3.08081E-03,   291.095E-06
C:/temp/dataset/6/8_4.odb,Step-1,Increment      1: Step Time =    1.000,"PART-1-1",           273,      -8.51206,      -25.1011,            0.,NA,NA,"",   521.091E-06,   322.344E-06,   409.426E-06,   83.4890E-06
C:/temp/dataset/6/8_4.odb,Step-1,Increment      1: Step Time =    1.000,"PART-1-1",           274,      -6.19138,   998.181E-03,            0.,NA,NA,"",   50.5321E-03,   50.4107E-03,  -3.50088E-03,   290.684E-06
C:/temp/dataset/6/8_4.odb,Step-1,Increment      1: Step Time =    1.000,"PART-1-1",           275,      -2.63339,      -25.0950,            0.,NA,NA,"",   632.613E-06,   359.182E-06,  -520.757E-06,   318.101E-06
C:/temp/dataset/6/8_4.odb,Step-1,Increment      1: Step Time =    1.000,"PART-1-1",           276,       8.11811,      -26.0558,            0.,NA,NA,"",   4.77473E-03,   722.352E-06,  -4.71977E-03,   1.56783E-03
C:/temp/dataset/6/8_4.odb,Step-1,Increment      1: Step Time =    1.000,"PART-1-1",           277,       6.33403,   764.508E-03,            0.,NA,NA,"",   62.8250E-03,   51.0711E-03,  -36.5885E-03,   358.672E-06
C:/temp/dataset/6/8_4.odb,Step-1,Increment      1: Step Time =    1.000,"PART-1-1",           278,       8.84044,      -16.9880,            0.,NA,NA,"",   22.7827E-03,   10.1418E-03,  -20.4009E-03,   1.97292E-03
C:/temp/dataset/6/8_4.odb,Step-1,Increment      1: Step Time =    1.000,"PART-1-1",           279,      -11.3950,       19.6047,            0.,NA,NA,"",   93.3502E-03,   93.0114E-03,   7.94650E-03,   74.5701E-09
C:/temp/dataset/6/8_4.odb,Step-1,Increment      1: Step Time =    1.000,"PART-1-1",           280,      -11.2464,      -2.22607,            0.,NA,NA,"",   42.9316E-03,   42.2882E-03,   7.40494E-03,   184.910E-06
C:/temp/dataset/6/8_4.odb,Step-1,Increment      1: Step Time =    1.000,"PART-1-1",           281,      -8.41776,  -32.7016E-03,            0.,NA,NA,"",   47.7425E-03,   47.7256E-03,   1.27159E-03,   221.741E-06
C:/temp/dataset/6/8_4.odb,Step-1,Increment      1: Step Time =    1.000,"PART-1-1",           282,       4.48255,      -24.5345,            0.,NA,NA,"",   3.53647E-03,   13.9579E-06,  -3.53644E-03,   884.446E-06
C:/temp/dataset/6/8_4.odb,Step-1,Increment      1: Step Time =    1.000,"PART-1-1",           283,       6.11275,      -24.3348,            0.,NA,NA,"",   5.38180E-03,   638.199E-06,  -5.34383E-03,   1.29570E-03
C:/temp/dataset/6/8_4.odb,Step-1,Increment      1: Step Time =    1.000,"PART-1-1",           284,       9.69767,      -4.20039,            0.,NA,NA,"",   57.6556E-03,   35.6810E-03,  -45.2884E-03,   1.93151E-03
C:/temp/dataset/6/8_4.odb,Step-1,Increment      1: Step Time =    1.000,"PART-1-1",           285,       13.8851,      -1.60402,            0.,NA,NA,"",   83.8429E-03,   48.6271E-03,  -68.3012E-03,   3.56928E-03
C:/temp/dataset/6/8_4.odb,Step-1,Increment      1: Step Time =    1.000,"PART-1-1",           286,           15.,   -468.75E-03,            0.,NA,NA,"",   94.4831E-03,   54.9443E-03,  -76.8647E-03,   4.17828E-03
C:/temp/dataset/6/8_4.odb,Step-1,Increment      1: Step Time =    1.000,"PART-1-1",           287,       13.7553,   590.641E-03,            0.,NA,NA,"",   94.3694E-03,   57.2554E-03,  -75.0160E-03,   3.84785E-03
C:/temp/dataset/6/8_4.odb,Step-1,Increment      1: Step Time =    1.000,"PART-1-1",           288,       12.6405,  -544.629E-03,            0.,NA,NA,"",   83.2002E-03,   50.7094E-03,  -65.9608E-03,   3.27776E-03
C:/temp/dataset/6/8_4.odb,Step-1,Increment      1: Step Time =    1.000,"PART-1-1",           289,       6.57104,       2.96720,            0.,NA,NA,"",   71.6933E-03,   60.5653E-03,  -38.3637E-03,   625.538E-06
C:/temp/dataset/6/8_4.odb,Step-1,Increment      1: Step Time =    1.000,"PART-1-1",           290,       5.86345,       1.80964,            0.,NA,NA,"",   65.3479E-03,   55.2097E-03,  -34.9606E-03,   414.806E-06
C:/temp/dataset/6/8_4.odb,Step-1,Increment      1: Step Time =    1.000,"PART-1-1",           291,       7.10711,       1.10321,            0.,NA,NA,"",   66.1274E-03,   52.5899E-03,  -40.0891E-03,   657.723E-06
C:/temp/dataset/6/8_4.odb,Step-1,Increment      1: Step Time =    1.000,"PART-1-1",           292,       7.81470,       2.26078,            0.,NA,NA,"",   72.7860E-03,   57.8110E-03,  -44.2231E-03,   769.852E-06
C:/temp/dataset/6/8_4.odb,Step-1,Increment      1: Step Time =    1.000,"PART-1-1",           293,       6.97305,      -8.82061,            0.,NA,NA,"",   37.2485E-03,   21.8735E-03,  -30.1497E-03,   1.57294E-03
C:/temp/dataset/6/8_4.odb,Step-1,Increment      1: Step Time =    1.000,"PART-1-1",           294,       5.98985,      -7.53541,            0.,NA,NA,"",   38.1581E-03,   24.4149E-03,  -29.3249E-03,   1.34034E-03
C:/temp/dataset/6/8_4.odb,Step-1,Increment      1: Step Time =    1.000,"PART-1-1",           295,            5.,      -8.76875,            0.,NA,NA,"",   32.7931E-03,   20.7547E-03,  -25.3896E-03,   1.17883E-03
C:/temp/dataset/6/8_4.odb,Step-1,Increment      1: Step Time =    1.000,"PART-1-1",           296,       5.98320,      -10.0539,            0.,NA,NA,"",   32.0357E-03,   18.5269E-03,  -26.1350E-03,   1.44348E-03
C:/temp/dataset/6/8_4.odb,Step-1,Increment      1: Step Time =    1.000,"PART-1-1",           297,       12.0429,      -8.05477,            0.,NA,NA,"",   52.9919E-03,   28.0350E-03,  -44.9687E-03,   2.55183E-03
C:/temp/dataset/6/8_4.odb,Step-1,Increment      1: Step Time =    1.000,"PART-1-1",           298,       11.0248,      -9.13413,            0.,NA,NA,"",   46.9203E-03,   24.6092E-03,  -39.9488E-03,   2.34001E-03
C:/temp/dataset/6/8_4.odb,Step-1,Increment      1: Step Time =    1.000,"PART-1-1",           299,       11.9985,      -10.2754,            0.,NA,NA,"",   46.1804E-03,   23.3531E-03,  -39.8405E-03,   2.49661E-03
C:/temp/dataset/6/8_4.odb,Step-1,Increment      1: Step Time =    1.000,"PART-1-1",           300,       13.0166,      -9.19606,            0.,NA,NA,"",   52.1107E-03,   26.6963E-03,  -44.7530E-03,   2.70993E-03
C:/temp/dataset/6/8_4.odb,Step-1,Increment      1: Step Time =    1.000,"PART-1-1",           301,       13.9992,      -14.7549,            0.,NA,NA,"",   38.0473E-03,   18.2046E-03,  -33.4094E-03,   2.59290E-03
C:/temp/dataset/6/8_4.odb,Step-1,Increment      1: Step Time =    1.000,"PART-1-1",           302,       13.0271,      -15.9471,            0.,NA,NA,"",   33.0267E-03,   15.4624E-03,  -29.1835E-03,   2.44865E-03
C:/temp/dataset/6/8_4.odb,Step-1,Increment      1: Step Time =    1.000,"PART-1-1",           303,       14.0279,      -16.9735,            0.,NA,NA,"",   32.2083E-03,   15.2382E-03,  -28.3756E-03,   2.49819E-03
C:/temp/dataset/6/8_4.odb,Step-1,Increment      1: Step Time =    1.000,"PART-1-1",           304,           15.,      -15.7813,            0.,NA,NA,"",   37.1031E-03,   17.9383E-03,  -32.4786E-03,   2.64370E-03
C:/temp/dataset/6/8_4.odb,Step-1,Increment      1: Step Time =    1.000,"PART-1-1",           305,       6.96949,      -18.0995,            0.,NA,NA,"",   17.2432E-03,   7.46913E-03,  -15.5416E-03,   1.77494E-03
C:/temp/dataset/6/8_4.odb,Step-1,Increment      1: Step Time =    1.000,"PART-1-1",           306,       5.95014,      -17.3335,            0.,NA,NA,"",   17.0440E-03,   7.45908E-03,  -15.3252E-03,   1.83864E-03
C:/temp/dataset/6/8_4.odb,Step-1,Increment      1: Step Time =    1.000,"PART-1-1",           307,            5.,      -18.7625,            0.,NA,NA,"",   12.7175E-03,   5.24881E-03,  -11.5838E-03,   2.26535E-03
C:/temp/dataset/6/8_4.odb,Step-1,Increment      1: Step Time =    1.000,"PART-1-1",           308,       6.01935,      -19.5285,            0.,NA,NA,"",   13.0034E-03,   5.52186E-03,  -11.7727E-03,   1.89951E-03
C:/temp/dataset/6/8_4.odb,Step-1,Increment      1: Step Time =    1.000,"PART-1-1",           309,       7.66098,      -29.0388,            0.,NA,NA,"",   967.303E-06,  -206.220E-06,  -945.066E-06,   1.26151E-03
C:/temp/dataset/6/8_4.odb,Step-1,Increment      1: Step Time =    1.000,"PART-1-1",           310,       6.62868,      -28.0660,            0.,NA,NA,"",   1.77769E-03,  -397.668E-06,  -1.73264E-03,   1.14547E-03
C:/temp/dataset/6/8_4.odb,Step-1,Increment      1: Step Time =    1.000,"PART-1-1",           311,       5.21770,      -29.0272,            0.,NA,NA,"",   793.244E-06,  -422.919E-06,  -671.100E-06,   925.203E-06
C:/temp/dataset/6/8_4.odb,Step-1,Increment      1: Step Time =    1.000,"PART-1-1",           312,          6.25,          -30.,            0.,NA,NA,"",            0.,  -313.417E-42,  -1.93894E-39,   1.05148E-03
C:/temp/dataset/6/8_4.odb,Step-1,Increment      1: Step Time =    1.000,"PART-1-1",           313,   162.125E-03,      -28.5454,            0.,NA,NA,"",   501.246E-06,  -385.378E-06,  -320.517E-06,   330.883E-06
C:/temp/dataset/6/8_4.odb,Step-1,Increment      1: Step Time =    1.000,"PART-1-1",           314,      -1.06934,      -27.3053,            0.,NA,NA,"",   504.737E-06,  -309.369E-06,  -398.811E-06,   239.797E-06
C:/temp/dataset/6/8_4.odb,Step-1,Increment      1: Step Time =    1.000,"PART-1-1",           315,      -2.48147,      -28.7599,            0.,NA,NA,"",   255.761E-06,  -196.396E-06,  -163.837E-06,   189.733E-06
C:/temp/dataset/6/8_4.odb,Step-1,Increment      1: Step Time =    1.000,"PART-1-1",           316,         -1.25,          -30.,            0.,NA,NA,"",            0.,  -172.623E-42,  -475.264E-42,   312.732E-06
C:/temp/dataset/6/8_4.odb,Step-1,Increment      1: Step Time =    1.000,"PART-1-1",           317,          -15.,        -21.25,            0.,NA,NA,"",   7.75222E-03,   4.16463E-03,   6.53856E-03,   939.088E-06
C:/temp/dataset/6/8_4.odb,Step-1,Increment      1: Step Time =    1.000,"PART-1-1",           318,      -13.9888,      -22.4607,            0.,NA,NA,"",   5.49995E-03,   2.77401E-03,   4.74914E-03,   782.408E-06
C:/temp/dataset/6/8_4.odb,Step-1,Increment      1: Step Time =    1.000,"PART-1-1",           319,      -12.8187,      -21.2681,            0.,NA,NA,"",   5.62067E-03,   3.37354E-03,   4.49567E-03,   615.240E-06
C:/temp/dataset/6/8_4.odb,Step-1,Increment      1: Step Time =    1.000,"PART-1-1",           320,      -13.8299,      -20.0574,            0.,NA,NA,"",   7.97040E-03,   4.92574E-03,   6.26613E-03,   769.199E-06
C:/temp/dataset/6/8_4.odb,Step-1,Increment      1: Step Time =    1.000,"PART-1-1",           321,      -12.5142,      -28.6623,            0.,NA,NA,"",   511.128E-06,   27.0788E-06,   510.411E-06,   485.012E-06
C:/temp/dataset/6/8_4.odb,Step-1,Increment      1: Step Time =    1.000,"PART-1-1",           322,        -11.25,          -30.,            0.,NA,NA,"",            0.,  -113.022E-42,   618.226E-42,   333.318E-06
C:/temp/dataset/6/8_4.odb,Step-1,Increment      1: Step Time =    1.000,"PART-1-1",           323,      -9.93348,      -28.4464,            0.,NA,NA,"",   336.569E-06,  -182.802E-06,   282.599E-06,   239.118E-06
C:/temp/dataset/6/8_4.odb,Step-1,Increment      1: Step Time =    1.000,"PART-1-1",           324,      -11.1976,      -27.1087,            0.,NA,NA,"",   878.770E-06,   66.6108E-06,   876.242E-06,   399.090E-06
C:/temp/dataset/6/8_4.odb,Step-1,Increment      1: Step Time =    1.000,"PART-1-1",           325,      -7.37036,      -13.8742,            0.,NA,NA,"",   14.2528E-03,   14.2063E-03,  -1.14969E-03,   244.019E-06
C:/temp/dataset/6/8_4.odb,Step-1,Increment      1: Step Time =    1.000,"PART-1-1",           326,      -6.21015,      -15.0417,            0.,NA,NA,"",   12.3403E-03,   11.9715E-03,  -2.99419E-03,   336.322E-06
C:/temp/dataset/6/8_4.odb,Step-1,Increment      1: Step Time =    1.000,"PART-1-1",           327,           -5.,      -13.7188,            0.,NA,NA,"",   15.8614E-03,   14.7956E-03,  -5.71616E-03,   376.465E-06
C:/temp/dataset/6/8_4.odb,Step-1,Increment      1: Step Time =    1.000,"PART-1-1",           328,      -6.16021,      -12.5513,            0.,NA,NA,"",   17.5054E-03,   17.1160E-03,  -3.67161E-03,   232.896E-06
C:/temp/dataset/6/8_4.odb,Step-1,Increment      1: Step Time =    1.000,"PART-1-1",           329,      -9.33590,      -9.40979,            0.,NA,NA,"",   24.4586E-03,   24.3208E-03,   2.59266E-03,   278.133E-06
C:/temp/dataset/6/8_4.odb,Step-1,Increment      1: Step Time =    1.000,"PART-1-1",           330,      -8.33361,      -10.3234,            0.,NA,NA,"",   22.1155E-03,   22.1095E-03,   518.692E-06,   226.509E-06
C:/temp/dataset/6/8_4.odb,Step-1,Increment      1: Step Time =    1.000,"PART-1-1",           331,      -7.16565,      -9.15059,            0.,NA,NA,"",   24.9914E-03,   24.9191E-03,  -1.89973E-03,   196.818E-06
C:/temp/dataset/6/8_4.odb,Step-1,Increment      1: Step Time =    1.000,"PART-1-1",           332,      -8.16794,      -8.23701,            0.,NA,NA,"",   27.1608E-03,   27.1597E-03,   247.166E-06,   236.520E-06
C:/temp/dataset/6/8_4.odb,Step-1,Increment      1: Step Time =    1.000,"PART-1-1",           333,      -11.1473,      -6.32447,            0.,NA,NA,"",   32.7294E-03,   32.0270E-03,   6.74444E-03,   261.803E-06
C:/temp/dataset/6/8_4.odb,Step-1,Increment      1: Step Time =    1.000,"PART-1-1",           334,      -10.2102,      -6.79208,            0.,NA,NA,"",   31.1647E-03,   30.8123E-03,   4.67365E-03,   265.334E-06
C:/temp/dataset/6/8_4.odb,Step-1,Increment      1: Step Time =    1.000,"PART-1-1",           335,      -9.51762,      -5.78103,            0.,NA,NA,"",   33.4809E-03,   33.3192E-03,   3.28605E-03,   249.980E-06
C:/temp/dataset/6/8_4.odb,Step-1,Increment      1: Step Time =    1.000,"PART-1-1",           336,      -10.4548,      -5.31342,            0.,NA,NA,"",   34.9385E-03,   34.5249E-03,   5.35986E-03,   245.060E-06
C:/temp/dataset/6/8_4.odb,Step-1,Increment      1: Step Time =    1.000,"PART-1-1",           337,      -5.04937,      -1.25055,            0.,NA,NA,"",   45.0072E-03,   44.6073E-03,  -5.98670E-03,   334.302E-06
C:/temp/dataset/6/8_4.odb,Step-1,Increment      1: Step Time =    1.000,"PART-1-1",           338,      -3.82978,  -150.691E-03,            0.,NA,NA,"",   48.2727E-03,   47.5138E-03,  -8.52581E-03,   362.043E-06
C:/temp/dataset/6/8_4.odb,Step-1,Increment      1: Step Time =    1.000,"PART-1-1",           339,      -5.10700,   929.666E-03,            0.,NA,NA,"",   50.6450E-03,   50.3114E-03,  -5.80370E-03,   331.145E-06
C:/temp/dataset/6/8_4.odb,Step-1,Increment      1: Step Time =    1.000,"PART-1-1",           340,      -6.32658,  -170.190E-03,            0.,NA,NA,"",   47.5213E-03,   47.4116E-03,  -3.22708E-03,   288.395E-06
C:/temp/dataset/6/8_4.odb,Step-1,Increment      1: Step Time =    1.000,"PART-1-1",           341,          -15.,          3.75,            0.,NA,NA,"",   59.1245E-03,   56.8316E-03,   16.3058E-03,   16.0341E-06
C:/temp/dataset/6/8_4.odb,Step-1,Increment      1: Step Time =    1.000,"PART-1-1",           342,      -13.8520,       2.39386,            0.,NA,NA,"",   55.3294E-03,   53.6268E-03,   13.6203E-03,   26.7102E-06
C:/temp/dataset/6/8_4.odb,Step-1,Increment      1: Step Time =    1.000,"PART-1-1",           343,      -12.6820,       3.58697,            0.,NA,NA,"",   57.4948E-03,   56.4503E-03,   10.9093E-03,   34.5380E-06
C:/temp/dataset/6/8_4.odb,Step-1,Increment      1: Step Time =    1.000,"PART-1-1",           344,      -13.8301,       4.94311,            0.,NA,NA,"",   61.1454E-03,   59.6222E-03,   13.5631E-03,   11.6755E-06
C:/temp/dataset/6/8_4.odb,Step-1,Increment      1: Step Time =    1.000,"PART-1-1",           345,          -15.,         11.25,            0.,NA,NA,"",   75.7892E-03,   74.0450E-03,   16.1664E-03,   5.86552E-06
C:/temp/dataset/6/8_4.odb,Step-1,Increment      1: Step Time =    1.000,"PART-1-1",           346,      -14.0083,       10.0442,            0.,NA,NA,"",   72.6513E-03,   71.3054E-03,   13.9193E-03,   6.71571E-06
C:/temp/dataset/6/8_4.odb,Step-1,Increment      1: Step Time =    1.000,"PART-1-1",           347,      -13.0572,       11.3141,            0.,NA,NA,"",   75.1120E-03,   74.1880E-03,   11.7455E-03,   5.38738E-06
C:/temp/dataset/6/8_4.odb,Step-1,Increment      1: Step Time =    1.000,"PART-1-1",           348,      -14.0489,       12.5200,            0.,NA,NA,"",   78.1907E-03,   76.9276E-03,   13.9973E-03,   2.58938E-06
C:/temp/dataset/6/8_4.odb,Step-1,Increment      1: Step Time =    1.000,"PART-1-1",           349,           -5.,       22.7083,            0.,NA,NA,"",   100.263E-03,   100.046E-03,  -6.59169E-03,   47.2247E-09
C:/temp/dataset/6/8_4.odb,Step-1,Increment      1: Step Time =    1.000,"PART-1-1",           350,      -5.96779,       23.6687,            0.,NA,NA,"",   102.325E-03,   102.231E-03,  -4.39523E-03,   22.4765E-09
C:/temp/dataset/6/8_4.odb,Step-1,Increment      1: Step Time =    1.000,"PART-1-1",           351,      -6.69567,       22.7251,            0.,NA,NA,"",   100.126E-03,   100.089E-03,  -2.73898E-03,   29.4554E-09
C:/temp/dataset/6/8_4.odb,Step-1,Increment      1: Step Time =    1.000,"PART-1-1",           352,      -5.72788,       21.7648,            0.,NA,NA,"",   98.0288E-03,   97.9045E-03,  -4.93546E-03,   43.0886E-09
C:/temp/dataset/6/8_4.odb,Step-1,Increment      1: Step Time =    1.000,"PART-1-1",           353,      -9.95259,       28.8237,            0.,NA,NA,"",   114.048E-03,   113.954E-03,   4.64526E-03,   6.39726E-09
C:/temp/dataset/6/8_4.odb,Step-1,Increment      1: Step Time =    1.000,"PART-1-1",           354,      -8.67740,       27.7404,            0.,NA,NA,"",   111.503E-03,   111.489E-03,   1.75075E-03,   6.60725E-09
C:/temp/dataset/6/8_4.odb,Step-1,Increment      1: Step Time =    1.000,"PART-1-1",           355,      -7.47481,       28.9167,            0.,NA,NA,"",   114.163E-03,   114.159E-03,  -984.667E-06,   4.62237E-09
C:/temp/dataset/6/8_4.odb,Step-1,Increment      1: Step Time =    1.000,"PART-1-1",           356,         -8.75,           30.,            0.,NA,NA,"",   116.639E-03,   116.623E-03,   1.90985E-03,   4.49785E-09
C:/temp/dataset/6/8_4.odb,Step-1,Increment      1: Step Time =    1.000,"PART-1-1",           357,      -12.4360,       28.7156,            0.,NA,NA,"",   114.179E-03,   113.715E-03,   10.2880E-03,   5.01623E-09
C:/temp/dataset/6/8_4.odb,Step-1,Increment      1: Step Time =    1.000,"PART-1-1",           358,        -13.75,           30.,            0.,NA,NA,"",   117.389E-03,   116.636E-03,   13.2702E-03,   911.198E-12
C:/temp/dataset/6/8_4.odb,Step-1,Increment      1: Step Time =    1.000,"PART-1-1",           359,          -15.,         28.75,            0.,NA,NA,"",   114.935E-03,   113.799E-03,   16.1135E-03,   1.27814E-09
C:/temp/dataset/6/8_4.odb,Step-1,Increment      1: Step Time =    1.000,"PART-1-1",           360,      -13.6860,       27.4656,            0.,NA,NA,"",   111.653E-03,   110.878E-03,   13.1313E-03,   5.09310E-09
C:/temp/dataset/6/8_4.odb,Step-1,Increment      1: Step Time =    1.000,"PART-1-1",           361,         -3.75,           -5.,            0.,NA,NA,"",   36.3506E-03,   35.2158E-03,  -9.01187E-03,   155.833E-06
C:/temp/dataset/6/8_4.odb,Step-1,Increment      1: Step Time =    1.000,"PART-1-1",           362,      -2.75606,      -4.06584,            0.,NA,NA,"",   38.8343E-03,   37.2166E-03,  -11.0920E-03,   222.221E-06
C:/temp/dataset/6/8_4.odb,Step-1,Increment      1: Step Time =    1.000,"PART-1-1",           363,      -4.26954,      -3.28646,            0.,NA,NA,"",   40.0755E-03,   39.3042E-03,  -7.82488E-03,   302.135E-06
C:/temp/dataset/6/8_4.odb,Step-1,Increment      1: Step Time =    1.000,"PART-1-1",           364,      -5.26349,      -4.22062,            0.,NA,NA,"",   37.5747E-03,   37.1105E-03,  -5.88760E-03,   243.118E-06
C:/temp/dataset/6/8_4.odb,Step-1,Increment      1: Step Time =    1.000,"PART-1-1",           365,   659.099E-03,      -2.85996,            0.,NA,NA,"",   43.9212E-03,   39.6006E-03,  -18.9965E-03,   341.466E-06
C:/temp/dataset/6/8_4.odb,Step-1,Increment      1: Step Time =    1.000,"PART-1-1",           366,  -266.865E-03,      -3.97148,            0.,NA,NA,"",   40.5596E-03,   36.8883E-03,  -16.8622E-03,   334.952E-06
C:/temp/dataset/6/8_4.odb,Step-1,Increment      1: Step Time =    1.000,"PART-1-1",           367,          1.25,           -5.,            0.,NA,NA,"",   39.6494E-03,   33.7118E-03,  -20.8708E-03,   466.447E-06
C:/temp/dataset/6/8_4.odb,Step-1,Increment      1: Step Time =    1.000,"PART-1-1",           368,       2.17596,      -3.88848,            0.,NA,NA,"",   42.9431E-03,   36.2508E-03,  -23.0214E-03,   444.690E-06
C:/temp/dataset/6/8_4.odb,Step-1,Increment      1: Step Time =    1.000,"PART-1-1",           369,   93.5104E-03,  -560.922E-03,            0.,NA,NA,"",   49.5067E-03,   46.3547E-03,  -17.3826E-03,   381.344E-06
C:/temp/dataset/6/8_4.odb,Step-1,Increment      1: Step Time =    1.000,"PART-1-1",           370,   627.873E-03,   544.404E-03,            0.,NA,NA,"",   53.1261E-03,   49.7340E-03,  -18.6791E-03,   409.588E-06
C:/temp/dataset/6/8_4.odb,Step-1,Increment      1: Step Time =    1.000,"PART-1-1",           371,  -981.002E-03,       1.17096,            0.,NA,NA,"",   53.5359E-03,   51.4373E-03,  -14.8427E-03,   437.347E-06
C:/temp/dataset/6/8_4.odb,Step-1,Increment      1: Step Time =    1.000,"PART-1-1",           372,      -1.51537,   65.6335E-03,            0.,NA,NA,"",   50.0691E-03,   48.1881E-03,  -13.5950E-03,   384.599E-06
C:/temp/dataset/6/8_4.odb,Step-1,Increment      1: Step Time =    1.000,"PART-1-1",           373,       4.11258,       2.54084,            0.,NA,NA,"",   64.2806E-03,   57.4701E-03,  -28.7957E-03,   638.379E-06
C:/temp/dataset/6/8_4.odb,Step-1,Increment      1: Step Time =    1.000,"PART-1-1",           374,       3.71515,       1.12833,            0.,NA,NA,"",   58.7569E-03,   52.0607E-03,  -27.2407E-03,   385.332E-06
C:/temp/dataset/6/8_4.odb,Step-1,Increment      1: Step Time =    1.000,"PART-1-1",           375,       5.46602,   397.127E-03,            0.,NA,NA,"",   59.5698E-03,   49.5521E-03,  -33.0628E-03,   253.656E-06
C:/temp/dataset/6/8_4.odb,Step-1,Increment      1: Step Time =    1.000,"PART-1-1",           376,       8.69518,  -378.803E-03,            0.,NA,NA,"",   66.4314E-03,   47.4104E-03,  -46.5337E-03,   1.55250E-03
C:/temp/dataset/6/8_4.odb,Step-1,Increment      1: Step Time =    1.000,"PART-1-1",           377,       8.82700,   889.396E-03,            0.,NA,NA,"",   71.5129E-03,   52.3653E-03,  -48.7028E-03,   1.50555E-03
C:/temp/dataset/6/8_4.odb,Step-1,Increment      1: Step Time =    1.000,"PART-1-1",           378,       6.97530,  -164.986E-03,            0.,NA,NA,"",   61.4670E-03,   47.6445E-03,  -38.8355E-03,   723.345E-06
C:/temp/dataset/6/8_4.odb,Step-1,Increment      1: Step Time =    1.000,"PART-1-1",           379,      -3.65351,      -22.6081,            0.,NA,NA,"",   1.82637E-03,   1.61240E-03,  -857.800E-06,   464.082E-06
C:/temp/dataset/6/8_4.odb,Step-1,Increment      1: Step Time =    1.000,"PART-1-1",           380,      -2.48671,      -21.3009,            0.,NA,NA,"",   2.24957E-03,   2.13619E-03,  -705.186E-06,   271.902E-06
C:/temp/dataset/6/8_4.odb,Step-1,Increment      1: Step Time =    1.000,"PART-1-1",           381,         -3.75,          -20.,            0.,NA,NA,"",   2.72099E-03,   2.55972E-03,  -922.827E-06,   569.741E-06
C:/temp/dataset/6/8_4.odb,Step-1,Increment      1: Step Time =    1.000,"PART-1-1",           382,      -4.91680,      -21.3072,            0.,NA,NA,"",   2.69940E-03,   2.32800E-03,  -1.36645E-03,   668.550E-06
C:/temp/dataset/6/8_4.odb,Step-1,Increment      1: Step Time =    1.000,"PART-1-1",           383,       12.8399,      -22.4784,            0.,NA,NA,"",   16.9847E-03,   7.73772E-03,  -15.1198E-03,   2.31956E-03
C:/temp/dataset/6/8_4.odb,Step-1,Increment      1: Step Time =    1.000,"PART-1-1",           384,       11.7398,      -21.2760,            0.,NA,NA,"",   18.1697E-03,   7.86579E-03,  -16.3789E-03,   2.21440E-03
C:/temp/dataset/6/8_4.odb,Step-1,Increment      1: Step Time =    1.000,"PART-1-1",           385,       10.5591,      -22.4389,            0.,NA,NA,"",   13.9838E-03,   5.53868E-03,  -12.8402E-03,   2.10306E-03
C:/temp/dataset/6/8_4.odb,Step-1,Increment      1: Step Time =    1.000,"PART-1-1",           386,       11.6593,      -23.6412,            0.,NA,NA,"",   12.7803E-03,   5.40814E-03,  -11.5796E-03,   2.21097E-03
C:/temp/dataset/6/8_4.odb,Step-1,Increment      1: Step Time =    1.000,"PART-1-1",           387,          8.75,            5.,            0.,NA,NA,"",   90.5709E-03,   74.4652E-03,  -51.5560E-03,   1.94583E-03
C:/temp/dataset/6/8_4.odb,Step-1,Increment      1: Step Time =    1.000,"PART-1-1",           388,       7.62461,       4.03982,            0.,NA,NA,"",   80.1081E-03,   66.9048E-03,  -44.0574E-03,   1.23161E-03
C:/temp/dataset/6/8_4.odb,Step-1,Increment      1: Step Time =    1.000,"PART-1-1",           389,       8.90047,       2.96899,            0.,NA,NA,"",   80.4342E-03,   61.8350E-03,  -51.4402E-03,   1.53272E-03
C:/temp/dataset/6/8_4.odb,Step-1,Increment      1: Step Time =    1.000,"PART-1-1",           390,       10.0259,       3.92917,            0.,NA,NA,"",   91.7231E-03,   68.1613E-03,  -61.3772E-03,   2.82656E-03
C:/temp/dataset/6/8_4.odb,Step-1,Increment      1: Step Time =    1.000,"PART-1-1",           391,      -6.96921,       21.1213,            0.,NA,NA,"",   96.4689E-03,   96.4457E-03,  -2.11332E-03,   16.5520E-09
C:/temp/dataset/6/8_4.odb,Step-1,Increment      1: Step Time =    1.000,"PART-1-1",           392,      -6.24133,       19.9816,            0.,NA,NA,"",   93.9296E-03,   93.8541E-03,  -3.76427E-03,   39.5007E-09
C:/temp/dataset/6/8_4.odb,Step-1,Increment      1: Step Time =    1.000,"PART-1-1",           393,           -5.,        20.625,            0.,NA,NA,"",   95.5402E-03,   95.3129E-03,  -6.58644E-03,   78.5804E-09
C:/temp/dataset/6/8_4.odb,Step-1,Increment      1: Step Time =    1.000,"PART-1-1",           394,      -12.9370,       8.81410,            0.,NA,NA,"",   69.4622E-03,   68.5070E-03,   11.4802E-03,   7.43840E-06
C:/temp/dataset/6/8_4.odb,Step-1,Increment      1: Step Time =    1.000,"PART-1-1",           395,          -15.,          8.75,            0.,NA,NA,"",   70.2513E-03,   68.3593E-03,   16.1941E-03,   13.9126E-06
C:/temp/dataset/6/8_4.odb,Step-1,Increment      1: Step Time =    1.000,"PART-1-1",           396,      -13.9287,       7.51992,            0.,NA,NA,"",   66.9841E-03,   65.5553E-03,   13.7612E-03,   11.8008E-06
C:/temp/dataset/6/8_4.odb,Step-1,Increment      1: Step Time =    1.000,"PART-1-1",           397,          -15.,          1.25,            0.,NA,NA,"",   53.4554E-03,   50.8996E-03,   16.3314E-03,   15.0496E-06
C:/temp/dataset/6/8_4.odb,Step-1,Increment      1: Step Time =    1.000,"PART-1-1",           398,      -13.9023,  -59.1614E-03,            0.,NA,NA,"",   49.6375E-03,   47.7157E-03,   13.6782E-03,   66.0953E-06
C:/temp/dataset/6/8_4.odb,Step-1,Increment      1: Step Time =    1.000,"PART-1-1",           399,      -12.7542,       1.08470,            0.,NA,NA,"",   51.6645E-03,   50.4720E-03,   11.0363E-03,   80.4094E-06
C:/temp/dataset/6/8_4.odb,Step-1,Increment      1: Step Time =    1.000,"PART-1-1",           400,          -15.,         -1.25,            0.,NA,NA,"",   47.6976E-03,   44.8433E-03,   16.2525E-03,   74.6743E-06
C:/temp/dataset/6/8_4.odb,Step-1,Increment      1: Step Time =    1.000,"PART-1-1",           401,      -13.9820,      -2.43756,            0.,NA,NA,"",   44.0668E-03,   41.8828E-03,   13.7008E-03,   123.180E-06
C:/temp/dataset/6/8_4.odb,Step-1,Increment      1: Step Time =    1.000,"PART-1-1",           402,      -12.8843,      -1.24672,            0.,NA,NA,"",   46.1583E-03,   44.7736E-03,   11.2212E-03,   127.073E-06
C:/temp/dataset/6/8_4.odb,Step-1,Increment      1: Step Time =    1.000,"PART-1-1",           403,      -12.3802,      -13.7897,            0.,NA,NA,"",   16.5037E-03,   14.7173E-03,   7.46822E-03,   454.074E-06
C:/temp/dataset/6/8_4.odb,Step-1,Increment      1: Step Time =    1.000,"PART-1-1",           404,      -13.6672,      -12.5056,            0.,NA,NA,"",   20.5205E-03,   17.6985E-03,   10.3852E-03,   504.050E-06
C:/temp/dataset/6/8_4.odb,Step-1,Increment      1: Step Time =    1.000,"PART-1-1",           405,          -15.,        -13.75,            0.,NA,NA,"",   19.8022E-03,   15.4530E-03,   12.3827E-03,   693.768E-06
C:/temp/dataset/6/8_4.odb,Step-1,Increment      1: Step Time =    1.000,"PART-1-1",           406,      -13.7130,      -15.0341,            0.,NA,NA,"",   15.5864E-03,   12.5588E-03,   9.23112E-03,   615.281E-06
C:/temp/dataset/6/8_4.odb,Step-1,Increment      1: Step Time =    1.000,"PART-1-1",           407,       9.21271,      -3.58583,            0.,NA,NA,"",   57.9441E-03,   37.1650E-03,  -44.4554E-03,   1.74794E-03
C:/temp/dataset/6/8_4.odb,Step-1,Increment      1: Step Time =    1.000,"PART-1-1",           408,       7.90749,      -3.82305,            0.,NA,NA,"",   53.2033E-03,   35.8335E-03,  -39.3263E-03,   1.34476E-03
C:/temp/dataset/6/8_4.odb,Step-1,Increment      1: Step Time =    1.000,"PART-1-1",           409,       8.15132,      -5.16923,            0.,NA,NA,"",   50.0920E-03,   32.0430E-03,  -38.5026E-03,   1.46518E-03
C:/temp/dataset/6/8_4.odb,Step-1,Increment      1: Step Time =    1.000,"PART-1-1",           410,       9.45655,      -4.93201,            0.,NA,NA,"",   54.6673E-03,   33.4583E-03,  -43.2326E-03,   1.87349E-03
C:/temp/dataset/6/8_4.odb,Step-1,Increment      1: Step Time =    1.000,"PART-1-1",           411,       6.91243,      -16.0318,            0.,NA,NA,"",   21.2887E-03,   9.67550E-03,  -18.9630E-03,   1.86343E-03
C:/temp/dataset/6/8_4.odb,Step-1,Increment      1: Step Time =    1.000,"PART-1-1",           412,       5.96229,      -14.9858,            0.,NA,NA,"",   21.7335E-03,   10.2403E-03,  -19.1698E-03,   1.70727E-03
C:/temp/dataset/6/8_4.odb,Step-1,Increment      1: Step Time =    1.000,"PART-1-1",           413,            5.,      -16.2875,            0.,NA,NA,"",   17.7058E-03,   7.82042E-03,  -15.8851E-03,   1.69962E-03
C:/temp/dataset/6/8_4.odb,Step-1,Increment      1: Step Time =    1.000,"PART-1-1",           414,       6.93910,      -13.7291,            0.,NA,NA,"",   26.0732E-03,   12.7839E-03,  -22.7241E-03,   1.77001E-03
C:/temp/dataset/6/8_4.odb,Step-1,Increment      1: Step Time =    1.000,"PART-1-1",           415,       5.97681,      -12.5371,            0.,NA,NA,"",   26.7054E-03,   13.9439E-03,  -22.7760E-03,   1.56960E-03
C:/temp/dataset/6/8_4.odb,Step-1,Increment      1: Step Time =    1.000,"PART-1-1",           416,            5.,      -13.7937,            0.,NA,NA,"",   22.4340E-03,   11.2717E-03,  -19.3968E-03,   1.50389E-03
C:/temp/dataset/6/8_4.odb,Step-1,Increment      1: Step Time =    1.000,"PART-1-1",           417,         -1.25,          -20.,            0.,NA,NA,"",   2.37327E-03,   2.29901E-03,  -589.067E-06,   112.340E-06
C:/temp/dataset/6/8_4.odb,Step-1,Increment      1: Step Time =    1.000,"PART-1-1",           418,      -1.09514,      -22.7401,            0.,NA,NA,"",   1.43154E-03,   1.29282E-03,  -614.743E-06,   368.512E-06
C:/temp/dataset/6/8_4.odb,Step-1,Increment      1: Step Time =    1.000,"PART-1-1",           419,   141.566E-03,      -21.4393,            0.,NA,NA,"",   2.08504E-03,   1.91734E-03,  -819.265E-06,   149.650E-06
C:/temp/dataset/6/8_4.odb,Step-1,Increment      1: Step Time =    1.000,"PART-1-1",           420,      -7.69236,      -25.1479,            0.,NA,NA,"",   315.994E-06,   293.333E-06,   117.506E-06,   9.06256E-06
C:/temp/dataset/6/8_4.odb,Step-1,Increment      1: Step Time =    1.000,"PART-1-1",           421,      -9.18951,      -25.9970,            0.,NA,NA,"",   554.967E-06,   90.3277E-06,   547.567E-06,   164.046E-06
C:/temp/dataset/6/8_4.odb,Step-1,Increment      1: Step Time =    1.000,"PART-1-1",           422,      -8.56598,      -27.1897,            0.,NA,NA,"",   292.784E-06,  -157.714E-06,   246.675E-06,   121.078E-06
C:/temp/dataset/6/8_4.odb,Step-1,Increment      1: Step Time =    1.000,"PART-1-1",           423,      -7.06883,      -26.3407,            0.,NA,NA,"",   30.3664E-06,  -20.2516E-06,  -22.6272E-06,   43.8065E-06
C:/temp/dataset/6/8_4.odb,Step-1,Increment      1: Step Time =    1.000,"PART-1-1",           424,      -9.82073,      -13.8964,            0.,NA,NA,"",   14.4993E-03,   14.1699E-03,   3.07310E-03,   296.352E-06
C:/temp/dataset/6/8_4.odb,Step-1,Increment      1: Step Time =    1.000,"PART-1-1",           425,      -8.65586,      -15.1239,            0.,NA,NA,"",   11.6903E-03,   11.6384E-03,   1.10070E-03,   251.465E-06
C:/temp/dataset/6/8_4.odb,Step-1,Increment      1: Step Time =    1.000,"PART-1-1",           426,      -8.53523,      -12.6467,            0.,NA,NA,"",   16.8280E-03,   16.8049E-03,   882.884E-06,   225.695E-06
C:/temp/dataset/6/8_4.odb,Step-1,Increment      1: Step Time =    1.000,"PART-1-1",           427,      -6.09243,      -10.1071,            0.,NA,NA,"",   23.0409E-03,   22.6597E-03,  -4.17373E-03,   140.196E-06
C:/temp/dataset/6/8_4.odb,Step-1,Increment      1: Step Time =    1.000,"PART-1-1",           428,           -5.,      -8.71250,            0.,NA,NA,"",   26.8955E-03,   26.0176E-03,  -6.81576E-03,   89.7372E-06
C:/temp/dataset/6/8_4.odb,Step-1,Increment      1: Step Time =    1.000,"PART-1-1",           429,      -6.07322,      -7.75598,            0.,NA,NA,"",   28.6738E-03,   28.3478E-03,  -4.31120E-03,   107.169E-06
C:/temp/dataset/6/8_4.odb,Step-1,Increment      1: Step Time =    1.000,"PART-1-1",           430,      -12.7270,      -6.06323,            0.,NA,NA,"",   34.3653E-03,   32.7939E-03,   10.2727E-03,   253.162E-06
C:/temp/dataset/6/8_4.odb,Step-1,Increment      1: Step Time =    1.000,"PART-1-1",           431,      -13.8025,      -4.90646,            0.,NA,NA,"",   38.0308E-03,   35.7580E-03,   12.9501E-03,   201.649E-06
C:/temp/dataset/6/8_4.odb,Step-1,Increment      1: Step Time =    1.000,"PART-1-1",           432,          -15.,         -6.25,            0.,NA,NA,"",   36.0954E-03,   32.5750E-03,   15.5482E-03,   267.455E-06
C:/temp/dataset/6/8_4.odb,Step-1,Increment      1: Step Time =    1.000,"PART-1-1",           433,      -13.9244,      -7.40677,            0.,NA,NA,"",   32.2267E-03,   29.6139E-03,   12.7112E-03,   297.375E-06
C:/temp/dataset/6/8_4.odb,Step-1,Increment      1: Step Time =    1.000,"PART-1-1",           434,       1.60591,      -1.50045,            0.,NA,NA,"",   48.2669E-03,   43.3361E-03,  -21.2528E-03,   372.201E-06
C:/temp/dataset/6/8_4.odb,Step-1,Increment      1: Step Time =    1.000,"PART-1-1",           435,  -853.298E-03,      -1.92043,            0.,NA,NA,"",   45.1637E-03,   42.5234E-03,  -15.2158E-03,   318.997E-06
C:/temp/dataset/6/8_4.odb,Step-1,Increment      1: Step Time =    1.000,"PART-1-1",           436,         13.75,          -30.,            0.,NA,NA,"",            0.,   334.665E-42,  -4.02995E-39,   2.72581E-03
C:/temp/dataset/6/8_4.odb,Step-1,Increment      1: Step Time =    1.000,"PART-1-1",           437,           15.,      -28.9063,            0.,NA,NA,"",   4.25614E-03,   3.01825E-03,  -3.00081E-03,   3.00717E-03
C:/temp/dataset/6/8_4.odb,Step-1,Increment      1: Step Time =    1.000,"PART-1-1",           438,       13.8103,      -27.8746,            0.,NA,NA,"",   5.45956E-03,   3.25143E-03,  -4.38577E-03,   2.47900E-03
C:/temp/dataset/6/8_4.odb,Step-1,Increment      1: Step Time =    1.000,"PART-1-1",           439,       12.5603,      -28.9683,            0.,NA,NA,"",   1.91064E-03,   935.846E-06,  -1.66576E-03,   2.05533E-03
C:/temp/dataset/6/8_4.odb,Step-1,Increment      1: Step Time =    1.000,"PART-1-1",           440,       12.6598,      -26.8678,            0.,NA,NA,"",   6.72938E-03,   3.35217E-03,  -5.83503E-03,   2.32492E-03
C:/temp/dataset/6/8_4.odb,Step-1,Increment      1: Step Time =    1.000,"PART-1-1",           441,       11.5501,      -25.8632,            0.,NA,NA,"",   7.84152E-03,   3.28676E-03,  -7.11946E-03,   2.18012E-03
C:/temp/dataset/6/8_4.odb,Step-1,Increment      1: Step Time =    1.000,"PART-1-1",           442,       10.3093,      -26.9762,            0.,NA,NA,"",   4.63454E-03,   1.44679E-03,  -4.40293E-03,   1.89367E-03
C:/temp/dataset/6/8_4.odb,Step-1,Increment      1: Step Time =    1.000,"PART-1-1",           443,       11.4189,      -27.9808,            0.,NA,NA,"",   3.38517E-03,   1.38295E-03,  -3.08979E-03,   2.04045E-03
C:/temp/dataset/6/8_4.odb,Step-1,Increment      1: Step Time =    1.000,"PART-1-1",           444,       10.1086,      -29.0125,            0.,NA,NA,"",   1.28763E-03,   227.892E-06,  -1.26731E-03,   1.60499E-03
C:/temp/dataset/6/8_4.odb,Step-1,Increment      1: Step Time =    1.000,"PART-1-1",           445,       9.01957,      -28.0513,            0.,NA,NA,"",   2.36455E-03,   236.593E-06,  -2.35268E-03,   1.54521E-03
C:/temp/dataset/6/8_4.odb,Step-1,Increment      1: Step Time =    1.000,"PART-1-1",           446,          8.75,          -30.,            0.,NA,NA,"",            0.,  -118.267E-42,  -2.58939E-39,   1.35881E-03
C:/temp/dataset/6/8_4.odb,Step-1,Increment      1: Step Time =    1.000,"PART-1-1",           447,       4.20973,      -27.9354,            0.,NA,NA,"",   1.37015E-03,  -676.187E-06,  -1.19168E-03,   766.914E-06
C:/temp/dataset/6/8_4.odb,Step-1,Increment      1: Step Time =    1.000,"PART-1-1",           448,       2.74203,      -28.9082,            0.,NA,NA,"",   653.202E-06,  -467.526E-06,  -456.172E-06,   602.332E-06
C:/temp/dataset/6/8_4.odb,Step-1,Increment      1: Step Time =    1.000,"PART-1-1",           449,          3.75,          -30.,            0.,NA,NA,"",            0.,  -363.399E-42,  -1.30383E-39,   765.626E-06
C:/temp/dataset/6/8_4.odb,Step-1,Increment      1: Step Time =    1.000,"PART-1-1",           450,       1.16266,      -25.9573,            0.,NA,NA,"",   1.03217E-03,  -392.543E-06,  -954.610E-06,   335.053E-06
C:/temp/dataset/6/8_4.odb,Step-1,Increment      1: Step Time =    1.000,"PART-1-1",           451,       1.65415,      -27.4536,            0.,NA,NA,"",   977.450E-06,  -614.211E-06,  -760.365E-06,   434.741E-06
C:/temp/dataset/6/8_4.odb,Step-1,Increment      1: Step Time =    1.000,"PART-1-1",           452,       3.39879,      -26.8461,            0.,NA,NA,"",   1.65706E-03,  -695.077E-06,  -1.50423E-03,   638.848E-06
C:/temp/dataset/6/8_4.odb,Step-1,Increment      1: Step Time =    1.000,"PART-1-1",           453,       2.90730,      -25.3498,            0.,NA,NA,"",   1.92471E-03,  -396.628E-06,  -1.88340E-03,   512.155E-06
C:/temp/dataset/6/8_4.odb,Step-1,Increment      1: Step Time =    1.000,"PART-1-1",           454,      -3.67645,      -27.5530,            0.,NA,NA,"",   300.649E-06,  -163.058E-06,  -252.590E-06,   139.616E-06
C:/temp/dataset/6/8_4.odb,Step-1,Increment      1: Step Time =    1.000,"PART-1-1",           455,      -2.54816,      -26.3074,            0.,NA,NA,"",   409.963E-06,  -19.7268E-06,  -409.488E-06,   219.076E-06
C:/temp/dataset/6/8_4.odb,Step-1,Increment      1: Step Time =    1.000,"PART-1-1",           456,      -3.72120,      -25.1278,            0.,NA,NA,"",   619.825E-06,   378.975E-06,  -490.470E-06,   271.800E-06
C:/temp/dataset/6/8_4.odb,Step-1,Increment      1: Step Time =    1.000,"PART-1-1",           457,      -4.84948,      -26.3734,            0.,NA,NA,"",   311.874E-06,   20.8187E-06,  -311.179E-06,   164.855E-06
C:/temp/dataset/6/8_4.odb,Step-1,Increment      1: Step Time =    1.000,"PART-1-1",           458,      -4.94498,      -28.7931,            0.,NA,NA,"",   186.254E-06,  -163.133E-06,  -89.8790E-06,   117.726E-06
C:/temp/dataset/6/8_4.odb,Step-1,Increment      1: Step Time =    1.000,"PART-1-1",           459,         -3.75,          -30.,            0.,NA,NA,"",            0.,  -124.641E-42,  -268.557E-42,   196.750E-06
C:/temp/dataset/6/8_4.odb,Step-1,Increment      1: Step Time =    1.000,"PART-1-1",           460,      -6.07748,      -27.5364,            0.,NA,NA,"",   205.625E-06,  -174.720E-06,  -108.419E-06,   57.4815E-06
C:/temp/dataset/6/8_4.odb,Step-1,Increment      1: Step Time =    1.000,"PART-1-1",           461,      -7.38250,      -28.7433,            0.,NA,NA,"",   198.608E-06,  -196.728E-06,   27.2606E-06,   94.7906E-06
C:/temp/dataset/6/8_4.odb,Step-1,Increment      1: Step Time =    1.000,"PART-1-1",           462,         -6.25,          -30.,            0.,NA,NA,"",            0.,  -136.133E-42,  -56.9488E-42,   145.539E-06
C:/temp/dataset/6/8_4.odb,Step-1,Increment      1: Step Time =    1.000,"PART-1-1",           463,      -8.77755,      -24.1806,            0.,NA,NA,"",   910.206E-06,   686.713E-06,   597.411E-06,   112.880E-06
C:/temp/dataset/6/8_4.odb,Step-1,Increment      1: Step Time =    1.000,"PART-1-1",           464,      -9.92276,      -23.8066,            0.,NA,NA,"",   1.60572E-03,   967.883E-06,   1.28122E-03,   259.449E-06
C:/temp/dataset/6/8_4.odb,Step-1,Increment      1: Step Time =    1.000,"PART-1-1",           465,      -10.3347,      -25.6230,            0.,NA,NA,"",   1.08484E-03,   299.041E-06,   1.04281E-03,   305.456E-06
C:/temp/dataset/6/8_4.odb,Step-1,Increment      1: Step Time =    1.000,"PART-1-1",           466,       13.9544,      -21.3085,            0.,NA,NA,"",   21.3397E-03,   10.1197E-03,  -18.7876E-03,   2.39130E-03
C:/temp/dataset/6/8_4.odb,Step-1,Increment      1: Step Time =    1.000,"PART-1-1",           467,       13.8855,      -23.5136,            0.,NA,NA,"",   16.0215E-03,   7.81684E-03,  -13.9852E-03,   2.37813E-03
C:/temp/dataset/6/8_4.odb,Step-1,Increment      1: Step Time =    1.000,"PART-1-1",           468,           15.,      -22.3438,            0.,NA,NA,"",   20.3709E-03,   10.1861E-03,  -17.6413E-03,   2.45241E-03
C:/temp/dataset/6/8_4.odb,Step-1,Increment      1: Step Time =    1.000,"PART-1-1",           469,       12.7349,      -24.6944,            0.,NA,NA,"",   11.7644E-03,   5.49964E-03,  -10.3998E-03,   2.34065E-03
C:/temp/dataset/6/8_4.odb,Step-1,Increment      1: Step Time =    1.000,"PART-1-1",           470,       13.8494,      -25.7120,            0.,NA,NA,"",   10.8973E-03,   5.74303E-03,  -9.26119E-03,   2.38791E-03
C:/temp/dataset/6/8_4.odb,Step-1,Increment      1: Step Time =    1.000,"PART-1-1",           471,           15.,      -24.5313,            0.,NA,NA,"",   15.1692E-03,   8.05363E-03,  -12.8547E-03,   2.41067E-03
C:/temp/dataset/6/8_4.odb,Step-1,Increment      1: Step Time =    1.000,"PART-1-1",           472,         11.25,          -30.,            0.,NA,NA,"",            0.,   248.000E-42,  -3.27530E-39,   1.67243E-03
C:/temp/dataset/6/8_4.odb,Step-1,Increment      1: Step Time =    1.000,"PART-1-1",           473,       13.9950,      -12.5232,            0.,NA,NA,"",   44.3580E-03,   21.6571E-03,  -38.7118E-03,   2.70225E-03
C:/temp/dataset/6/8_4.odb,Step-1,Increment      1: Step Time =    1.000,"PART-1-1",           474,       12.9942,      -13.6844,            0.,NA,NA,"",   38.9243E-03,   18.6332E-03,  -34.1747E-03,   2.52941E-03
C:/temp/dataset/6/8_4.odb,Step-1,Increment      1: Step Time =    1.000,"PART-1-1",           475,           15.,      -13.5938,            0.,NA,NA,"",   43.3120E-03,   21.1578E-03,  -37.7926E-03,   2.76926E-03
C:/temp/dataset/6/8_4.odb,Step-1,Increment      1: Step Time =    1.000,"PART-1-1",           476,       9.85236,      -17.2546,            0.,NA,NA,"",   24.0361E-03,   10.6917E-03,  -21.5272E-03,   2.07467E-03
C:/temp/dataset/6/8_4.odb,Step-1,Increment      1: Step Time =    1.000,"PART-1-1",           477,       8.68427,      -17.7513,            0.,NA,NA,"",   20.9282E-03,   9.13538E-03,  -18.8291E-03,   1.94210E-03
C:/temp/dataset/6/8_4.odb,Step-1,Increment      1: Step Time =    1.000,"PART-1-1",           478,       8.96140,      -18.9835,            0.,NA,NA,"",   18.8523E-03,   7.95220E-03,  -17.0931E-03,   1.93709E-03
C:/temp/dataset/6/8_4.odb,Step-1,Increment      1: Step Time =    1.000,"PART-1-1",           479,       10.1295,      -18.4868,            0.,NA,NA,"",   21.8360E-03,   9.49529E-03,  -19.6634E-03,   2.06592E-03
C:/temp/dataset/6/8_4.odb,Step-1,Increment      1: Step Time =    1.000,"PART-1-1",           480,       11.2436,      -18.3856,            0.,NA,NA,"",   23.9420E-03,   10.6265E-03,  -21.4546E-03,   2.19312E-03
C:/temp/dataset/6/8_4.odb,Step-1,Increment      1: Step Time =    1.000,"PART-1-1",           481,       12.3956,      -19.2305,            0.,NA,NA,"",   23.8864E-03,   10.7784E-03,  -21.3164E-03,   2.28901E-03
C:/temp/dataset/6/8_4.odb,Step-1,Increment      1: Step Time =    1.000,"PART-1-1",           482,       13.1120,      -18.1414,            0.,NA,NA,"",   27.6882E-03,   12.7957E-03,  -24.5542E-03,   2.38816E-03
C:/temp/dataset/6/8_4.odb,Step-1,Increment      1: Step Time =    1.000,"PART-1-1",           483,       11.9600,      -17.2965,            0.,NA,NA,"",   27.7283E-03,   12.6258E-03,  -24.6870E-03,   2.29227E-03
C:/temp/dataset/6/8_4.odb,Step-1,Increment      1: Step Time =    1.000,"PART-1-1",           484,       14.0024,      -3.77677,            0.,NA,NA,"",   74.7084E-03,   41.6512E-03,  -62.0203E-03,   3.31340E-03
C:/temp/dataset/6/8_4.odb,Step-1,Increment      1: Step Time =    1.000,"PART-1-1",           485,       13.0359,      -4.87313,            0.,NA,NA,"",   66.9484E-03,   37.1495E-03,  -55.6956E-03,   2.95489E-03
C:/temp/dataset/6/8_4.odb,Step-1,Increment      1: Step Time =    1.000,"PART-1-1",           486,       14.0335,      -5.94012,            0.,NA,NA,"",   66.2696E-03,   35.6255E-03,  -55.8792E-03,   3.09905E-03
C:/temp/dataset/6/8_4.odb,Step-1,Increment      1: Step Time =    1.000,"PART-1-1",           487,           15.,      -4.84375,            0.,NA,NA,"",   73.7093E-03,   40.0325E-03,  -61.8907E-03,   3.46201E-03
C:/temp/dataset/6/8_4.odb,Step-1,Increment      1: Step Time =    1.000,"PART-1-1",           488,       13.0510,      -7.01836,            0.,NA,NA,"",   59.3565E-03,   31.6328E-03,  -50.2251E-03,   2.82018E-03
C:/temp/dataset/6/8_4.odb,Step-1,Increment      1: Step Time =    1.000,"PART-1-1",           489,       14.0175,      -8.10950,            0.,NA,NA,"",   58.4281E-03,   30.3230E-03,  -49.9435E-03,   2.94001E-03
C:/temp/dataset/6/8_4.odb,Step-1,Increment      1: Step Time =    1.000,"PART-1-1",           490,           15.,      -7.03125,            0.,NA,NA,"",   65.0843E-03,   34.2278E-03,  -55.3572E-03,   3.22133E-03
C:/temp/dataset/6/8_4.odb,Step-1,Increment      1: Step Time =    1.000,"PART-1-1",           491,         13.75,            5.,            0.,NA,NA,"",   121.831E-03,   81.2986E-03,  -90.7370E-03,   3.89292E-03
C:/temp/dataset/6/8_4.odb,Step-1,Increment      1: Step Time =    1.000,"PART-1-1",           492,       12.4982,       3.90020,            0.,NA,NA,"",   107.883E-03,   72.7871E-03,  -79.6284E-03,   4.08384E-03
C:/temp/dataset/6/8_4.odb,Step-1,Increment      1: Step Time =    1.000,"PART-1-1",           493,       13.7482,       2.80645,            0.,NA,NA,"",   107.525E-03,   68.5301E-03,  -82.8574E-03,   4.07830E-03
C:/temp/dataset/6/8_4.odb,Step-1,Increment      1: Step Time =    1.000,"PART-1-1",           494,           15.,       3.90625,            0.,NA,NA,"",   121.532E-03,   77.1498E-03,  -93.9033E-03,   4.13991E-03
C:/temp/dataset/6/8_4.odb,Step-1,Increment      1: Step Time =    1.000,"PART-1-1",           495,         11.25,            5.,            0.,NA,NA,"",   108.650E-03,   78.1810E-03,  -75.4490E-03,   3.63913E-03
C:/temp/dataset/6/8_4.odb,Step-1,Increment      1: Step Time =    1.000,"PART-1-1",           496,       11.2740,       2.82937,            0.,NA,NA,"",   93.3596E-03,   64.0226E-03,  -67.9494E-03,   3.55647E-03
C:/temp/dataset/6/8_4.odb,Step-1,Increment      1: Step Time =    1.000,"PART-1-1",           497,       11.1422,   446.578E-03,            0.,NA,NA,"",   80.4664E-03,   52.6590E-03,  -60.8430E-03,   2.75952E-03
C:/temp/dataset/6/8_4.odb,Step-1,Increment      1: Step Time =    1.000,"PART-1-1",           498,       10.2035,  -836.101E-03,            0.,NA,NA,"",   70.8872E-03,   46.7773E-03,  -53.2623E-03,   2.20789E-03
C:/temp/dataset/6/8_4.odb,Step-1,Increment      1: Step Time =    1.000,"PART-1-1",           499,       11.7017,      -1.82731,            0.,NA,NA,"",   73.4782E-03,   44.8401E-03,  -58.2101E-03,   2.74075E-03
C:/temp/dataset/6/8_4.odb,Step-1,Increment      1: Step Time =    1.000,"PART-1-1",           500,       12.5035,       1.67834,            0.,NA,NA,"",   93.9112E-03,   60.2467E-03,  -72.0392E-03,   3.68407E-03
C:/temp/dataset/6/8_4.odb,Step-1,Increment      1: Step Time =    1.000,"PART-1-1",           501,       9.91277,       1.59761,            0.,NA,NA,"",   79.3725E-03,   56.1667E-03,  -56.0829E-03,   2.37343E-03
C:/temp/dataset/6/8_4.odb,Step-1,Increment      1: Step Time =    1.000,"PART-1-1",           502,       5.19643,       3.92738,            0.,NA,NA,"",   71.8264E-03,   63.7225E-03,  -33.1434E-03,   1.12194E-03
C:/temp/dataset/6/8_4.odb,Step-1,Increment      1: Step Time =    1.000,"PART-1-1",           503,          3.75,            5.,            0.,NA,NA,"",   72.0685E-03,   66.1287E-03,  -28.6509E-03,   1.35622E-03
C:/temp/dataset/6/8_4.odb,Step-1,Increment      1: Step Time =    1.000,"PART-1-1",           504,       2.66615,       3.61346,            0.,NA,NA,"",   65.2978E-03,   60.4684E-03,  -24.6450E-03,   823.135E-06
C:/temp/dataset/6/8_4.odb,Step-1,Increment      1: Step Time =    1.000,"PART-1-1",           505,      -1.00804,       2.95894,            0.,NA,NA,"",   58.5220E-03,   56.5708E-03,  -14.9856E-03,   511.633E-06
C:/temp/dataset/6/8_4.odb,Step-1,Increment      1: Step Time =    1.000,"PART-1-1",           506,   87.8012E-03,       3.95476,            0.,NA,NA,"",   62.4645E-03,   59.8574E-03,  -17.8580E-03,   661.806E-06
C:/temp/dataset/6/8_4.odb,Step-1,Increment      1: Step Time =    1.000,"PART-1-1",           507,         -1.25,            5.,            0.,NA,NA,"",   63.5646E-03,   61.7939E-03,  -14.8987E-03,   649.097E-06
C:/temp/dataset/6/8_4.odb,Step-1,Increment      1: Step Time =    1.000,"PART-1-1",           508,      -2.34584,       4.00418,            0.,NA,NA,"",   60.0478E-03,   58.8166E-03,  -12.0976E-03,   456.911E-06
C:/temp/dataset/6/8_4.odb,Step-1,Increment      1: Step Time =    1.000,"PART-1-1",           509,      -3.27281,       2.96378,            0.,NA,NA,"",   56.7441E-03,   55.8800E-03,  -9.86494E-03,   384.000E-06
C:/temp/dataset/6/8_4.odb,Step-1,Increment      1: Step Time =    1.000,"PART-1-1",           510,         -3.75,            5.,            0.,NA,NA,"",   61.3043E-03,   60.6221E-03,  -9.12008E-03,   427.905E-06
C:/temp/dataset/6/8_4.odb,Step-1,Increment      1: Step Time =    1.000,"PART-1-1",           511,      -4.67697,       3.95960,            0.,NA,NA,"",   58.3924E-03,   57.9810E-03,  -6.91912E-03,   281.829E-06
C:/temp/dataset/6/8_4.odb,Step-1,Increment      1: Step Time =    1.000,"PART-1-1",           512,      -7.93004,       8.58536,            0.,NA,NA,"",   67.9602E-03,   67.9601E-03,   82.6999E-06,   9.95993E-06
C:/temp/dataset/6/8_4.odb,Step-1,Increment      1: Step Time =    1.000,"PART-1-1",           513,      -8.65034,       7.25415,            0.,NA,NA,"",   64.9713E-03,   64.9489E-03,   1.70371E-03,   13.9195E-06
C:/temp/dataset/6/8_4.odb,Step-1,Increment      1: Step Time =    1.000,"PART-1-1",           514,      -7.51010,       6.50150,            0.,NA,NA,"",   63.2675E-03,   63.2615E-03,  -869.000E-06,   16.7315E-06
C:/temp/dataset/6/8_4.odb,Step-1,Increment      1: Step Time =    1.000,"PART-1-1",           515,      -6.78981,       7.83270,            0.,NA,NA,"",   66.3002E-03,   66.2536E-03,  -2.48431E-03,   12.2865E-06
C:/temp/dataset/6/8_4.odb,Step-1,Increment      1: Step Time =    1.000,"PART-1-1",           516,      -7.08495,       12.0475,            0.,NA,NA,"",   75.8436E-03,   75.8216E-03,  -1.82734E-03,   5.32443E-06
C:/temp/dataset/6/8_4.odb,Step-1,Increment      1: Step Time =    1.000,"PART-1-1",           517,      -6.02998,       11.1050,            0.,NA,NA,"",   73.7958E-03,   73.6754E-03,  -4.21475E-03,   5.37159E-06
C:/temp/dataset/6/8_4.odb,Step-1,Increment      1: Step Time =    1.000,"PART-1-1",           518,           -5.,       12.2917,            0.,NA,NA,"",   76.6540E-03,   76.3727E-03,  -6.56076E-03,   4.41560E-06
C:/temp/dataset/6/8_4.odb,Step-1,Increment      1: Step Time =    1.000,"PART-1-1",           519,      -6.05497,       13.2342,            0.,NA,NA,"",   78.6282E-03,   78.5177E-03,  -4.16849E-03,   2.05594E-06
C:/temp/dataset/6/8_4.odb,Step-1,Increment      1: Step Time =    1.000,"PART-1-1",           520,      -9.96524,       21.0498,            0.,NA,NA,"",   96.4054E-03,   96.2910E-03,   4.69418E-03,   34.8962E-09
C:/temp/dataset/6/8_4.odb,Step-1,Increment      1: Step Time =    1.000,"PART-1-1",           521,      -8.51702,       20.1362,            0.,NA,NA,"",   94.2220E-03,   94.2115E-03,   1.40605E-03,   38.9747E-09
C:/temp/dataset/6/8_4.odb,Step-1,Increment      1: Step Time =    1.000,"PART-1-1",           522,      -8.09442,       21.6565,            0.,NA,NA,"",   97.6656E-03,   97.6645E-03,   441.921E-06,   21.5381E-09
C:/temp/dataset/6/8_4.odb,Step-1,Increment      1: Step Time =    1.000,"PART-1-1",           523,      -9.54264,       22.5701,            0.,NA,NA,"",   99.8138E-03,   99.7441E-03,   3.73005E-03,   29.0228E-09
C:/temp/dataset/6/8_4.odb,Step-1,Increment      1: Step Time =    1.000,"PART-1-1",           524,      -7.38593,       19.0122,            0.,NA,NA,"",   91.6618E-03,   91.6544E-03,  -1.16102E-03,   131.283E-09
C:/temp/dataset/6/8_4.odb,Step-1,Increment      1: Step Time =    1.000,"PART-1-1",           525,      -6.14460,       17.5723,            0.,NA,NA,"",   88.4686E-03,   88.3791E-03,  -3.97785E-03,   127.819E-09
C:/temp/dataset/6/8_4.odb,Step-1,Increment      1: Step Time =    1.000,"PART-1-1",           526,           -5.,       18.5417,            0.,NA,NA,"",   90.8178E-03,   90.5791E-03,  -6.58124E-03,   56.8613E-09
C:/temp/dataset/6/8_4.odb,Step-1,Increment      1: Step Time =    1.000,"PART-1-1",           527,      -9.12859,       24.1056,            0.,NA,NA,"",   103.269E-03,   103.232E-03,   2.78530E-03,   22.1796E-09
C:/temp/dataset/6/8_4.odb,Step-1,Increment      1: Step Time =    1.000,"PART-1-1",           528,      -7.82088,       23.2603,            0.,NA,NA,"",   101.308E-03,   101.308E-03,  -183.761E-06,   24.8211E-09
C:/temp/dataset/6/8_4.odb,Step-1,Increment      1: Step Time =    1.000,"PART-1-1",           529,      -7.11221,       24.6459,            0.,NA,NA,"",   104.470E-03,   104.454E-03,  -1.79751E-03,   20.5769E-09
C:/temp/dataset/6/8_4.odb,Step-1,Increment      1: Step Time =    1.000,"PART-1-1",           530,      -8.41993,       25.4912,            0.,NA,NA,"",   106.385E-03,   106.378E-03,   1.17156E-03,   14.6597E-09
C:/temp/dataset/6/8_4.odb,Step-1,Increment      1: Step Time =    1.000,"PART-1-1",           531,           -5.,       28.9583,            0.,NA,NA,"",   114.438E-03,   114.247E-03,  -6.60774E-03,   959.551E-12
C:/temp/dataset/6/8_4.odb,Step-1,Increment      1: Step Time =    1.000,"PART-1-1",           532,         -6.25,           30.,            0.,NA,NA,"",   116.678E-03,   116.617E-03,  -3.77033E-03,   915.304E-12
C:/temp/dataset/6/8_4.odb,Step-1,Increment      1: Step Time =    1.000,"PART-1-1",           533,      -6.22481,       27.8751,            0.,NA,NA,"",   111.854E-03,   111.789E-03,  -3.82207E-03,   4.12723E-09
C:/temp/dataset/6/8_4.odb,Step-1,Increment      1: Step Time =    1.000,"PART-1-1",           534,      -11.1386,       27.5393,            0.,NA,NA,"",   111.281E-03,   111.039E-03,   7.34322E-03,   7.22177E-09
C:/temp/dataset/6/8_4.odb,Step-1,Increment      1: Step Time =    1.000,"PART-1-1",           535,        -11.25,           30.,            0.,NA,NA,"",   116.876E-03,   116.630E-03,   7.59003E-03,   4.34754E-09
C:/temp/dataset/6/8_4.odb,Step-1,Increment      1: Step Time =    1.000,"PART-1-1",           536,      -13.1147,       13.7606,            0.,NA,NA,"",   80.6205E-03,   79.7420E-03,   11.8689E-03,   2.30830E-06
C:/temp/dataset/6/8_4.odb,Step-1,Increment      1: Step Time =    1.000,"PART-1-1",           537,      -14.0658,       14.9906,            0.,NA,NA,"",   83.7209E-03,   82.5375E-03,   14.0268E-03,   702.592E-09
C:/temp/dataset/6/8_4.odb,Step-1,Increment      1: Step Time =    1.000,"PART-1-1",           538,          -15.,         13.75,            0.,NA,NA,"",   81.3423E-03,   79.7223E-03,   16.1531E-03,   1.67340E-06
C:/temp/dataset/6/8_4.odb,Step-1,Increment      1: Step Time =    1.000,"PART-1-1",           539,      -9.42834,       18.6970,            0.,NA,NA,"",   91.0104E-03,   90.9438E-03,   3.48032E-03,   219.334E-09
C:/temp/dataset/6/8_4.odb,Step-1,Increment      1: Step Time =    1.000,"PART-1-1",           540,      -8.29725,       17.5730,            0.,NA,NA,"",   88.3912E-03,   88.3865E-03,   913.213E-06,   300.383E-09
C:/temp/dataset/6/8_4.odb,Step-1,Increment      1: Step Time =    1.000,"PART-1-1",           541,      -12.7588,       6.21303,            0.,NA,NA,"",   63.5349E-03,   62.5607E-03,   11.0836E-03,   3.71055E-06
C:/temp/dataset/6/8_4.odb,Step-1,Increment      1: Step Time =    1.000,"PART-1-1",           542,          -15.,          6.25,            0.,NA,NA,"",   64.7100E-03,   62.6379E-03,   16.2442E-03,   21.6517E-06
C:/temp/dataset/6/8_4.odb,Step-1,Increment      1: Step Time =    1.000,"PART-1-1",           543,      -9.01063,       9.47069,            0.,NA,NA,"",   70.0229E-03,   69.9771E-03,   2.53245E-03,   9.58232E-06
C:/temp/dataset/6/8_4.odb,Step-1,Increment      1: Step Time =    1.000,"PART-1-1",           544,      -10.0811,       10.4578,            0.,NA,NA,"",   72.3981E-03,   72.2274E-03,   4.96806E-03,   7.63311E-06
C:/temp/dataset/6/8_4.odb,Step-1,Increment      1: Step Time =    1.000,"PART-1-1",           545,      -10.9384,       9.05000,            0.,NA,NA,"",   69.3812E-03,   69.0358E-03,   6.91472E-03,   8.42027E-06
C:/temp/dataset/6/8_4.odb,Step-1,Increment      1: Step Time =    1.000,"PART-1-1",           546,      -9.86794,       8.06293,            0.,NA,NA,"",   66.9359E-03,   66.7864E-03,   4.47170E-03,   10.2651E-06
C:/temp/dataset/6/8_4.odb,Step-1,Increment      1: Step Time =    1.000,"PART-1-1",           547,      -7.23366,       1.29985,            0.,NA,NA,"",   51.1207E-03,   51.1048E-03,  -1.27425E-03,   241.533E-06
C:/temp/dataset/6/8_4.odb,Step-1,Increment      1: Step Time =    1.000,"PART-1-1",           548,      -8.34685,   784.410E-03,            0.,NA,NA,"",   49.7802E-03,   49.7672E-03,   1.13535E-03,   203.660E-06
C:/temp/dataset/6/8_4.odb,Step-1,Increment      1: Step Time =    1.000,"PART-1-1",           549,      -7.43977,  -685.632E-03,            0.,NA,NA,"",   46.0978E-03,   46.0897E-03,  -866.973E-06,   255.293E-06
C:/temp/dataset/6/8_4.odb,Step-1,Increment      1: Step Time =    1.000,"PART-1-1",           550,      -12.4903,      -8.57964,            0.,NA,NA,"",   28.1384E-03,   26.5793E-03,   9.23621E-03,   321.846E-06
C:/temp/dataset/6/8_4.odb,Step-1,Increment      1: Step Time =    1.000,"PART-1-1",           551,          -15.,         -8.75,            0.,NA,NA,"",   30.4000E-03,   26.5447E-03,   14.8169E-03,   397.534E-06
C:/temp/dataset/6/8_4.odb,Step-1,Increment      1: Step Time =    1.000,"PART-1-1",           552,      -13.5658,      -9.92286,            0.,NA,NA,"",   26.0404E-03,   23.5230E-03,   11.1702E-03,   390.847E-06
C:/temp/dataset/6/8_4.odb,Step-1,Increment      1: Step Time =    1.000,"PART-1-1",           553,      -11.9783,      -7.15971,            0.,NA,NA,"",   31.1688E-03,   30.0103E-03,   8.41904E-03,   278.652E-06
C:/temp/dataset/6/8_4.odb,Step-1,Increment      1: Step Time =    1.000,"PART-1-1",           554,      -11.8960,      -5.22799,            0.,NA,NA,"",   35.8455E-03,   34.8131E-03,   8.54133E-03,   231.435E-06
C:/temp/dataset/6/8_4.odb,Step-1,Increment      1: Step Time =    1.000,"PART-1-1",           555,      -12.4565,      -16.3452,            0.,NA,NA,"",   11.8387E-03,   9.84915E-03,   6.56876E-03,   514.129E-06
C:/temp/dataset/6/8_4.odb,Step-1,Increment      1: Step Time =    1.000,"PART-1-1",           556,          -15.,        -16.25,            0.,NA,NA,"",   15.1628E-03,   10.7821E-03,   10.6611E-03,   829.386E-06
C:/temp/dataset/6/8_4.odb,Step-1,Increment      1: Step Time =    1.000,"PART-1-1",           557,      -13.7435,      -17.5611,            0.,NA,NA,"",   11.3254E-03,   8.21298E-03,   7.79818E-03,   709.886E-06
C:/temp/dataset/6/8_4.odb,Step-1,Increment      1: Step Time =    1.000,"PART-1-1",           558,      -9.99221,      -8.41662,            0.,NA,NA,"",   27.0753E-03,   26.7730E-03,   4.03459E-03,   280.913E-06
C:/temp/dataset/6/8_4.odb,Step-1,Increment      1: Step Time =    1.000,"PART-1-1",           559,      -11.4633,      -9.12095,            0.,NA,NA,"",   26.1071E-03,   25.1609E-03,   6.96489E-03,   315.916E-06
C:/temp/dataset/6/8_4.odb,Step-1,Increment      1: Step Time =    1.000,"PART-1-1",           560,      -10.8070,      -10.1141,            0.,NA,NA,"",   23.3673E-03,   22.7225E-03,   5.45127E-03,   305.610E-06
C:/temp/dataset/6/8_4.odb,Step-1,Increment      1: Step Time =    1.000,"PART-1-1",           561,      -13.9189,      -24.9166,            0.,NA,NA,"",   3.34559E-03,   1.37207E-03,   3.05129E-03,   726.317E-06
C:/temp/dataset/6/8_4.odb,Step-1,Increment      1: Step Time =    1.000,"PART-1-1",           562,      -12.9076,      -23.6273,            0.,NA,NA,"",   3.65554E-03,   1.68386E-03,   3.24463E-03,   623.602E-06
C:/temp/dataset/6/8_4.odb,Step-1,Increment      1: Step Time =    1.000,"PART-1-1",           563,          -15.,        -23.75,            0.,NA,NA,"",   5.03055E-03,   2.32696E-03,   4.46000E-03,   885.140E-06
C:/temp/dataset/6/8_4.odb,Step-1,Increment      1: Step Time =    1.000,"PART-1-1",           564,          -15.,        -28.75,            0.,NA,NA,"",   1.04829E-03,   638.425E-06,   831.461E-06,   768.249E-06
C:/temp/dataset/6/8_4.odb,Step-1,Increment      1: Step Time =    1.000,"PART-1-1",           565,        -13.75,          -30.,            0.,NA,NA,"",            0.,  -36.9382E-42,   973.172E-42,   603.256E-06
C:/temp/dataset/6/8_4.odb,Step-1,Increment      1: Step Time =    1.000,"PART-1-1",           566,      -13.7642,      -27.4123,            0.,NA,NA,"",   1.52294E-03,   539.151E-06,   1.42431E-03,   676.260E-06
C:/temp/dataset/6/8_4.odb,Step-1,Increment      1: Step Time =    1.000,"PART-1-1",           567,            5.,      -6.25625,            0.,NA,NA,"",   39.2585E-03,   27.4623E-03,  -28.0544E-03,   1.22566E-03
C:/temp/dataset/6/8_4.odb,Step-1,Increment      1: Step Time =    1.000,"PART-1-1",           568,       7.03347,      -6.11658,            0.,NA,NA,"",   44.5807E-03,   28.9044E-03,  -33.9408E-03,   1.31170E-03
C:/temp/dataset/6/8_4.odb,Step-1,Increment      1: Step Time =    1.000,"PART-1-1",           569,       6.04361,      -4.83741,            0.,NA,NA,"",   45.8526E-03,   32.4743E-03,  -32.3709E-03,   1.08488E-03
C:/temp/dataset/6/8_4.odb,Step-1,Increment      1: Step Time =    1.000,"PART-1-1",           570,           15.,      -2.65625,            0.,NA,NA,"",   83.3713E-03,   46.8049E-03,  -68.9933E-03,   3.79998E-03
C:/temp/dataset/6/8_4.odb,Step-1,Increment      1: Step Time =    1.000,"PART-1-1",           571,       12.8875,      -2.72454,            0.,NA,NA,"",   74.7710E-03,   43.3480E-03,  -60.9234E-03,   3.09720E-03
C:/temp/dataset/6/8_4.odb,Step-1,Increment      1: Step Time =    1.000,"PART-1-1",           572,       10.0248,      -7.91896,            0.,NA,NA,"",   47.6409E-03,   26.3200E-03,  -39.7103E-03,   2.11986E-03
C:/temp/dataset/6/8_4.odb,Step-1,Increment      1: Step Time =    1.000,"PART-1-1",           573,       8.98203,      -8.99604,            0.,NA,NA,"",   41.8568E-03,   22.9987E-03,  -34.9722E-03,   1.95265E-03
C:/temp/dataset/6/8_4.odb,Step-1,Increment      1: Step Time =    1.000,"PART-1-1",           574,       9.98204,      -10.2112,            0.,NA,NA,"",   41.2165E-03,   21.4092E-03,  -35.2199E-03,   2.15903E-03
C:/temp/dataset/6/8_4.odb,Step-1,Increment      1: Step Time =    1.000,"PART-1-1",           575,            5.,      -11.2813,            0.,NA,NA,"",   27.4290E-03,   15.5199E-03,  -22.6159E-03,   1.32945E-03
C:/temp/dataset/6/8_4.odb,Step-1,Increment      1: Step Time =    1.000,"PART-1-1",           576,       6.96001,      -11.3098,            0.,NA,NA,"",   31.3657E-03,   16.7854E-03,  -26.4964E-03,   1.68073E-03
C:/temp/dataset/6/8_4.odb,Step-1,Increment      1: Step Time =    1.000,"PART-1-1",           577,       12.1169,      -5.93459,            0.,NA,NA,"",   60.1023E-03,   33.2193E-03,  -50.0876E-03,   2.62500E-03
C:/temp/dataset/6/8_4.odb,Step-1,Increment      1: Step Time =    1.000,"PART-1-1",           578,       11.1088,      -6.97100,            0.,NA,NA,"",   53.6035E-03,   29.5729E-03,  -44.7077E-03,   2.36127E-03
C:/temp/dataset/6/8_4.odb,Step-1,Increment      1: Step Time =    1.000,"PART-1-1",           579,           15.,      -11.4063,            0.,NA,NA,"",   49.9964E-03,   24.8761E-03,  -43.3684E-03,   2.90482E-03
C:/temp/dataset/6/8_4.odb,Step-1,Increment      1: Step Time =    1.000,"PART-1-1",           580,       13.9991,      -10.3053,            0.,NA,NA,"",   51.1308E-03,   25.6713E-03,  -44.2193E-03,   2.81525E-03
C:/temp/dataset/6/8_4.odb,Step-1,Increment      1: Step Time =    1.000,"PART-1-1",           581,       12.9941,      -11.4223,            0.,NA,NA,"",   45.2964E-03,   22.3628E-03,  -39.3913E-03,   2.61686E-03
C:/temp/dataset/6/8_4.odb,Step-1,Increment      1: Step Time =    1.000,"PART-1-1",           582,           15.,      -9.21875,            0.,NA,NA,"",   57.2275E-03,   29.2053E-03,  -49.2143E-03,   3.04849E-03
C:/temp/dataset/6/8_4.odb,Step-1,Increment      1: Step Time =    1.000,"PART-1-1",           583,       9.25975,      -25.9916,            0.,NA,NA,"",   5.65787E-03,   1.42246E-03,  -5.47613E-03,   1.77706E-03
C:/temp/dataset/6/8_4.odb,Step-1,Increment      1: Step Time =    1.000,"PART-1-1",           584,       7.97004,      -27.0667,            0.,NA,NA,"",   3.30303E-03,   188.112E-06,  -3.29767E-03,   1.45124E-03
C:/temp/dataset/6/8_4.odb,Step-1,Increment      1: Step Time =    1.000,"PART-1-1",           585,       9.98268,      -20.3187,            0.,NA,NA,"",   17.6817E-03,   7.28632E-03,  -16.1106E-03,   2.02729E-03
C:/temp/dataset/6/8_4.odb,Step-1,Increment      1: Step Time =    1.000,"PART-1-1",           586,       8.47236,      -19.9740,            0.,NA,NA,"",   16.1026E-03,   6.46348E-03,  -14.7484E-03,   1.84406E-03
C:/temp/dataset/6/8_4.odb,Step-1,Increment      1: Step Time =    1.000,"PART-1-1",           587,       7.80775,      -21.2882,            0.,NA,NA,"",   12.5348E-03,   4.45147E-03,  -11.7177E-03,   1.82775E-03
C:/temp/dataset/6/8_4.odb,Step-1,Increment      1: Step Time =    1.000,"PART-1-1",           588,       9.31806,      -21.6330,            0.,NA,NA,"",   13.9935E-03,   5.27943E-03,  -12.9594E-03,   1.96448E-03
C:/temp/dataset/6/8_4.odb,Step-1,Increment      1: Step Time =    1.000,"PART-1-1",           589,          3.75,          -20.,            0.,NA,NA,"",   5.98359E-03,   4.11125E-03,  -4.34752E-03,   522.094E-06
C:/temp/dataset/6/8_4.odb,Step-1,Increment      1: Step Time =    1.000,"PART-1-1",           590,       2.69482,      -20.9389,            0.,NA,NA,"",   3.67125E-03,   2.51912E-03,  -2.67059E-03,   300.543E-06
C:/temp/dataset/6/8_4.odb,Step-1,Increment      1: Step Time =    1.000,"PART-1-1",           591,       4.10336,      -21.5712,            0.,NA,NA,"",   5.27830E-03,   1.84367E-03,  -4.94584E-03,   891.450E-06
C:/temp/dataset/6/8_4.odb,Step-1,Increment      1: Step Time =    1.000,"PART-1-1",           592,       5.15854,      -20.6323,            0.,NA,NA,"",   8.99449E-03,   3.32935E-03,  -8.35561E-03,   1.65691E-03
C:/temp/dataset/6/8_4.odb,Step-1,Increment      1: Step Time =    1.000,"PART-1-1",           593,          1.25,          -20.,            0.,NA,NA,"",   3.34263E-03,   3.00689E-03,  -1.46006E-03,   401.864E-06
C:/temp/dataset/6/8_4.odb,Step-1,Increment      1: Step Time =    1.000,"PART-1-1",           594,       1.58638,      -22.3782,            0.,NA,NA,"",   1.96703E-03,   1.25389E-03,  -1.51558E-03,   166.887E-06
C:/temp/dataset/6/8_4.odb,Step-1,Increment      1: Step Time =    1.000,"PART-1-1",           595,      -7.18878,      -21.5166,            0.,NA,NA,"",   2.15045E-03,   2.12664E-03,  -319.106E-06,   178.049E-06
C:/temp/dataset/6/8_4.odb,Step-1,Increment      1: Step Time =    1.000,"PART-1-1",           596,      -8.69544,      -20.4918,            0.,NA,NA,"",   3.36277E-03,   3.23847E-03,   905.847E-06,   215.979E-06
C:/temp/dataset/6/8_4.odb,Step-1,Increment      1: Step Time =    1.000,"PART-1-1",           597,      -9.53108,      -21.9939,            0.,NA,NA,"",   2.46835E-03,   2.03550E-03,   1.39625E-03,   223.844E-06
C:/temp/dataset/6/8_4.odb,Step-1,Increment      1: Step Time =    1.000,"PART-1-1",           598,      -8.02442,      -23.0186,            0.,NA,NA,"",   1.24821E-03,   1.22100E-03,   259.204E-06,   53.4378E-06
C:/temp/dataset/6/8_4.odb,Step-1,Increment      1: Step Time =    1.000,"PART-1-1",           599,           -5.,      -18.7437,            0.,NA,NA,"",   6.29865E-03,   5.49579E-03,  -3.07723E-03,   963.223E-06
C:/temp/dataset/6/8_4.odb,Step-1,Increment      1: Step Time =    1.000,"PART-1-1",           600,      -6.23242,      -17.5731,            0.,NA,NA,"",   7.47868E-03,   7.19971E-03,  -2.02358E-03,   474.302E-06
C:/temp/dataset/6/8_4.odb,Step-1,Increment      1: Step Time =    1.000,"PART-1-1",           601,      -7.41830,      -18.9573,            0.,NA,NA,"",   4.88062E-03,   4.87358E-03,  -262.168E-06,   289.227E-06
C:/temp/dataset/6/8_4.odb,Step-1,Increment      1: Step Time =    1.000,"PART-1-1",           602,      -6.18588,      -20.1280,            0.,NA,NA,"",   3.37941E-03,   3.14915E-03,  -1.22607E-03,   567.829E-06
C:/temp/dataset/6/8_4.odb,Step-1,Increment      1: Step Time =    1.000,"PART-1-1",           603,           -5.,      -16.2312,            0.,NA,NA,"",   11.0322E-03,   9.95773E-03,  -4.74906E-03,   555.028E-06
C:/temp/dataset/6/8_4.odb,Step-1,Increment      1: Step Time =    1.000,"PART-1-1",           604,      -7.44257,      -16.3835,            0.,NA,NA,"",   9.27324E-03,   9.25053E-03,  -648.580E-06,   328.460E-06
C:/temp/dataset/6/8_4.odb,Step-1,Increment      1: Step Time =    1.000,"PART-1-1",           605,      -12.6830,      -26.0788,            0.,NA,NA,"",   1.91355E-03,   601.248E-06,   1.81664E-03,   575.718E-06
C:/temp/dataset/6/8_4.odb,Step-1,Increment      1: Step Time =    1.000,"PART-1-1",           606,          -15.,        -26.25,            0.,NA,NA,"",   2.87318E-03,   1.27205E-03,   2.57625E-03,   810.204E-06
C:/temp/dataset/6/8_4.odb,Step-1,Increment      1: Step Time =    1.000,"PART-1-1",           607,         -8.75,          -30.,            0.,NA,NA,"",            0.,  -159.298E-42,   242.104E-42,   193.731E-06
C:/temp/dataset/6/8_4.odb,Step-1,Increment      1: Step Time =    1.000,"PART-1-1",           608,          -15.,        -18.75,            0.,NA,NA,"",   11.1221E-03,   6.97327E-03,   8.66453E-03,   919.096E-06
C:/temp/dataset/6/8_4.odb,Step-1,Increment      1: Step Time =    1.000,"PART-1-1",           609,      -12.5734,      -18.8685,            0.,NA,NA,"",   8.14722E-03,   5.98928E-03,   5.52320E-03,   568.061E-06
C:/temp/dataset/6/8_4.odb,Step-1,Increment      1: Step Time =    1.000,"PART-1-1",           610,           -5.,      -11.2063,            0.,NA,NA,"",   21.2118E-03,   20.2148E-03,  -6.42672E-03,   240.731E-06
C:/temp/dataset/6/8_4.odb,Step-1,Increment      1: Step Time =    1.000,"PART-1-1",           611,      -7.25264,      -11.4522,            0.,NA,NA,"",   19.5670E-03,   19.4997E-03,  -1.62186E-03,   200.386E-06
C:/temp/dataset/6/8_4.odb,Step-1,Increment      1: Step Time =    1.000,"PART-1-1",           612,           -5.,      -6.23750,            0.,NA,NA,"",   32.8271E-03,   32.1177E-03,  -6.78787E-03,   154.326E-06
C:/temp/dataset/6/8_4.odb,Step-1,Increment      1: Step Time =    1.000,"PART-1-1",           613,      -6.16987,      -5.46941,            0.,NA,NA,"",   34.3492E-03,   34.1155E-03,  -4.00074E-03,   207.437E-06
C:/temp/dataset/6/8_4.odb,Step-1,Increment      1: Step Time =    1.000,"PART-1-1",           614,      -7.24309,      -6.98789,            0.,NA,NA,"",   30.3172E-03,   30.2702E-03,  -1.68587E-03,   215.757E-06
C:/temp/dataset/6/8_4.odb,Step-1,Increment      1: Step Time =    1.000,"PART-1-1",           615,           -5.,       16.4583,            0.,NA,NA,"",   86.0961E-03,   85.8446E-03,  -6.57597E-03,   208.367E-09
C:/temp/dataset/6/8_4.odb,Step-1,Increment      1: Step Time =    1.000,"PART-1-1",           616,      -7.23328,       16.4840,            0.,NA,NA,"",   85.9218E-03,   85.9087E-03,  -1.50141E-03,   699.411E-09
C:/temp/dataset/6/8_4.odb,Step-1,Increment      1: Step Time =    1.000,"PART-1-1",           617,      -6.08867,       15.3700,            0.,NA,NA,"",   83.4744E-03,   83.3737E-03,  -4.09889E-03,   633.648E-09
C:/temp/dataset/6/8_4.odb,Step-1,Increment      1: Step Time =    1.000,"PART-1-1",           618,      -13.1522,       16.1892,            0.,NA,NA,"",   86.0903E-03,   85.2572E-03,   11.9475E-03,   717.669E-09
C:/temp/dataset/6/8_4.odb,Step-1,Increment      1: Step Time =    1.000,"PART-1-1",           619,      -14.0864,       17.4486,            0.,NA,NA,"",   89.2359E-03,   88.1202E-03,   14.0667E-03,   114.503E-09
C:/temp/dataset/6/8_4.odb,Step-1,Increment      1: Step Time =    1.000,"PART-1-1",           620,          -15.,         16.25,            0.,NA,NA,"",   86.9128E-03,   85.4000E-03,   16.1453E-03,   245.147E-09
C:/temp/dataset/6/8_4.odb,Step-1,Increment      1: Step Time =    1.000,"PART-1-1",           621,           -5.,       24.7917,            0.,NA,NA,"",   104.987E-03,   104.780E-03,  -6.59701E-03,   21.9482E-09
C:/temp/dataset/6/8_4.odb,Step-1,Increment      1: Step Time =    1.000,"PART-1-1",           622,      -6.14442,       25.7689,            0.,NA,NA,"",   107.078E-03,   107.003E-03,  -3.99930E-03,   10.6123E-09
C:/temp/dataset/6/8_4.odb,Step-1,Increment      1: Step Time =    1.000,"PART-1-1",           623,           -5.,        26.875,            0.,NA,NA,"",   109.712E-03,   109.513E-03,  -6.60236E-03,   6.89571E-09
C:/temp/dataset/6/8_4.odb,Step-1,Increment      1: Step Time =    1.000,"PART-1-1",           624,      -7.36924,       26.7689,            0.,NA,NA,"",   109.285E-03,   109.279E-03,  -1.21900E-03,   11.5462E-09
C:/temp/dataset/6/8_4.odb,Step-1,Increment      1: Step Time =    1.000,"PART-1-1",           625,      -13.1175,       20.9132,            0.,NA,NA,"",   96.7183E-03,   95.9888E-03,   11.8566E-03,   13.8088E-09
C:/temp/dataset/6/8_4.odb,Step-1,Increment      1: Step Time =    1.000,"PART-1-1",           626,      -14.0212,       22.2867,            0.,NA,NA,"",   100.083E-03,   99.1118E-03,   13.9063E-03,   33.0080E-09
C:/temp/dataset/6/8_4.odb,Step-1,Increment      1: Step Time =    1.000,"PART-1-1",           627,          -15.,         21.25,            0.,NA,NA,"",   98.0946E-03,   96.7589E-03,   16.1327E-03,   70.3952E-09
C:/temp/dataset/6/8_4.odb,Step-1,Increment      1: Step Time =    1.000,"PART-1-1",           628,      -14.0963,       19.8765,            0.,NA,NA,"",   94.6891E-03,   93.6360E-03,   14.0829E-03,   49.5491E-09
C:/temp/dataset/6/8_4.odb,Step-1,Increment      1: Step Time =    1.000,"PART-1-1",           629,         -1.25,           -5.,            0.,NA,NA,"",   37.5989E-03,   34.6317E-03,  -14.6400E-03,   344.459E-06
C:/temp/dataset/6/8_4.odb,Step-1,Increment      1: Step Time =    1.000,"PART-1-1",           630,      -1.77292,      -3.03732,            0.,NA,NA,"",   41.7820E-03,   39.6437E-03,  -13.1951E-03,   283.980E-06
C:/temp/dataset/6/8_4.odb,Step-1,Increment      1: Step Time =    1.000,"PART-1-1",           631,      -12.1053,      -2.30059,            0.,NA,NA,"",   43.1564E-03,   42.1330E-03,   9.34254E-03,   165.534E-06
C:/temp/dataset/6/8_4.odb,Step-1,Increment      1: Step Time =    1.000,"PART-1-1",           632,      -10.7648,      -1.40855,            0.,NA,NA,"",   44.7677E-03,   44.3102E-03,   6.38344E-03,   181.489E-06
C:/temp/dataset/6/8_4.odb,Step-1,Increment      1: Step Time =    1.000,"PART-1-1",           633,      -11.5438,  -354.672E-03,            0.,NA,NA,"",   47.6483E-03,   46.9373E-03,   8.20078E-03,   140.340E-06
C:/temp/dataset/6/8_4.odb,Step-1,Increment      1: Step Time =    1.000,"PART-1-1",           634,          3.75,           -5.,            0.,NA,NA,"",   42.5639E-03,   32.6302E-03,  -27.3304E-03,   635.413E-06
C:/temp/dataset/6/8_4.odb,Step-1,Increment      1: Step Time =    1.000,"PART-1-1",           635,       4.52066,      -3.83856,            0.,NA,NA,"",   45.7020E-03,   35.4250E-03,  -28.8747E-03,   690.119E-06
C:/temp/dataset/6/8_4.odb,Step-1,Increment      1: Step Time =    1.000,"PART-1-1",           636,       2.94662,      -2.72704,            0.,NA,NA,"",   46.4680E-03,   39.2590E-03,  -24.8597E-03,   398.908E-06
C:/temp/dataset/6/8_4.odb,Step-1,Increment      1: Step Time =    1.000,"PART-1-1",           637,       1.50395,       2.56821,            0.,NA,NA,"",   60.2255E-03,   56.3952E-03,  -21.1350E-03,   603.171E-06
C:/temp/dataset/6/8_4.odb,Step-1,Increment      1: Step Time =    1.000,"PART-1-1",           638,          1.25,            5.,            0.,NA,NA,"",   67.0022E-03,   63.5490E-03,  -21.2325E-03,   959.618E-06
C:/temp/dataset/6/8_4.odb,Step-1,Increment      1: Step Time =    1.000,"PART-1-1",           639,          6.25,            5.,            0.,NA,NA,"",   79.3649E-03,   69.6094E-03,  -38.1225E-03,   1.80234E-03
C:/temp/dataset/6/8_4.odb,Step-1,Increment      1: Step Time =    1.000,"PART-1-1",           640,  -213.968E-03,      -26.0734,            0.,NA,NA,"",   660.494E-06,  -219.398E-06,  -622.991E-06,   271.109E-06
C:/temp/dataset/6/8_4.odb,Step-1,Increment      1: Step Time =    1.000,"PART-1-1",           641,       1.14210,      -23.8512,            0.,NA,NA,"",   1.24684E-03,   404.743E-06,  -1.17931E-03,   255.578E-06
C:/temp/dataset/6/8_4.odb,Step-1,Increment      1: Step Time =    1.000,"PART-1-1",           642,  -234.527E-03,      -23.9674,            0.,NA,NA,"",   916.780E-06,   552.025E-06,  -731.952E-06,   276.945E-06
C:/temp/dataset/6/8_4.odb,Step-1,Increment      1: Step Time =    1.000,"PART-1-1",           643,           -5.,        14.375,            0.,NA,NA,"",   81.3748E-03,   81.1092E-03,  -6.56981E-03,   1.28821E-06
C:/temp/dataset/6/8_4.odb,Step-1,Increment      1: Step Time =    1.000,"PART-1-1",           644,      -7.14364,       14.2292,            0.,NA,NA,"",   80.8010E-03,   80.7831E-03,  -1.69933E-03,   2.13316E-06
C:/temp/dataset/6/8_4.odb,Step-1,Increment      1: Step Time =    1.000,"PART-1-1",           645,           -5.,       6.04167,            0.,NA,NA,"",   62.6046E-03,   62.2752E-03,  -6.41368E-03,   63.2874E-06
C:/temp/dataset/6/8_4.odb,Step-1,Increment      1: Step Time =    1.000,"PART-1-1",           646,      -5.82078,       6.95384,            0.,NA,NA,"",   64.4534E-03,   64.2864E-03,  -4.63624E-03,   34.7985E-06
C:/temp/dataset/6/8_4.odb,Step-1,Increment      1: Step Time =    1.000,"PART-1-1",           647,      -6.45742,       5.85906,            0.,NA,NA,"",   61.9531E-03,   61.8695E-03,  -3.21818E-03,   53.4910E-06
C:/temp/dataset/6/8_4.odb,Step-1,Increment      1: Step Time =    1.000,"PART-1-1",           648,      -5.63664,       4.94688,            0.,NA,NA,"",   60.1809E-03,   59.9737E-03,  -4.98965E-03,   175.031E-06
C:/temp/dataset/6/8_4.odb,Step-1,Increment      1: Step Time =    1.000,"PART-1-1",           649,           -5.,         8.125,            0.,NA,NA,"",   67.2337E-03,   66.9186E-03,  -6.50244E-03,   29.7497E-06
C:/temp/dataset/6/8_4.odb,Step-1,Increment      1: Step Time =    1.000,"PART-1-1",           650,      -5.96903,       9.00386,            0.,NA,NA,"",   69.0391E-03,   68.9029E-03,  -4.33588E-03,   12.3116E-06
C:/temp/dataset/6/8_4.odb,Step-1,Increment      1: Step Time =    1.000,"PART-1-1",           651,          -15.,         -3.75,            0.,NA,NA,"",   41.8903E-03,   38.7101E-03,   16.0101E-03,   159.635E-06
C:/temp/dataset/6/8_4.odb,Step-1,Increment      1: Step Time =    1.000,"PART-1-1",           652,      -12.7846,      -3.59401,            0.,NA,NA,"",   40.4077E-03,   38.9467E-03,   10.7671E-03,   184.840E-06
C:/temp/dataset/6/8_4.odb,Step-1,Increment      1: Step Time =    1.000,"PART-1-1",           653,      -11.5430,      -4.20540,            0.,NA,NA,"",   38.1741E-03,   37.3520E-03,   7.87983E-03,   215.234E-06
C:/temp/dataset/6/8_4.odb,Step-1,Increment      1: Step Time =    1.000,"PART-1-1",           654,      -10.1018,      -4.29084,            0.,NA,NA,"",   37.3744E-03,   37.0797E-03,   4.68453E-03,   228.162E-06
C:/temp/dataset/6/8_4.odb,Step-1,Increment      1: Step Time =    1.000,"PART-1-1",           655,          -15.,        -11.25,            0.,NA,NA,"",   24.9249E-03,   20.7767E-03,   13.7688E-03,   543.831E-06
C:/temp/dataset/6/8_4.odb,Step-1,Increment      1: Step Time =    1.000,"PART-1-1",           656,      -12.2331,      -11.1785,            0.,NA,NA,"",   21.9231E-03,   20.3986E-03,   8.03253E-03,   385.090E-06
C:/temp/dataset/6/8_4.odb,Step-1,Increment      1: Step Time =    1.000,"PART-1-1",           657,       5.21391,      -1.02834,            0.,NA,NA,"",   54.6125E-03,   44.4096E-03,  -31.7855E-03,   379.115E-06
C:/temp/dataset/6/8_4.odb,Step-1,Increment      1: Step Time =    1.000,"PART-1-1",           658,       6.72319,      -1.59046,            0.,NA,NA,"",   56.3666E-03,   42.5754E-03,  -36.9395E-03,   815.172E-06
C:/temp/dataset/6/8_4.odb,Step-1,Increment      1: Step Time =    1.000,"PART-1-1",           659,       10.9187,      -16.2245,            0.,NA,NA,"",   28.3405E-03,   12.9353E-03,  -25.2163E-03,   2.21489E-03
C:/temp/dataset/6/8_4.odb,Step-1,Increment      1: Step Time =    1.000,"PART-1-1",           660,       11.9858,      -14.8752,            0.,NA,NA,"",   33.7156E-03,   15.7998E-03,  -29.7843E-03,   2.37128E-03
C:/temp/dataset/6/8_4.odb,Step-1,Increment      1: Step Time =    1.000,"PART-1-1",           661,       10.9746,      -13.7451,            0.,NA,NA,"",   34.4430E-03,   16.3802E-03,  -30.2986E-03,   2.28075E-03
C:/temp/dataset/6/8_4.odb,Step-1,Increment      1: Step Time =    1.000,"PART-1-1",           662,       11.9830,      -12.5543,            0.,NA,NA,"",   39.7662E-03,   19.2903E-03,  -34.7740E-03,   2.43779E-03
C:/temp/dataset/6/8_4.odb,Step-1,Increment      1: Step Time =    1.000,"PART-1-1",           663,           15.,      -20.1563,            0.,NA,NA,"",   25.7241E-03,   12.5180E-03,  -22.4729E-03,   2.48153E-03
C:/temp/dataset/6/8_4.odb,Step-1,Increment      1: Step Time =    1.000,"PART-1-1",           664,       14.0841,      -19.1367,            0.,NA,NA,"",   26.8311E-03,   12.6702E-03,  -23.6511E-03,   2.43489E-03
C:/temp/dataset/6/8_4.odb,Step-1,Increment      1: Step Time =    1.000,"PART-1-1",           665,       13.0385,      -20.2889,            0.,NA,NA,"",   22.3947E-03,   10.2492E-03,  -19.9117E-03,   2.34408E-03
C:/temp/dataset/6/8_4.odb,Step-1,Increment      1: Step Time =    1.000,"PART-1-1",           666,           15.,      -17.9688,            0.,NA,NA,"",   31.2766E-03,   15.0912E-03,  -27.3949E-03,   2.54386E-03
C:/temp/dataset/6/8_4.odb,Step-1,Increment      1: Step Time =    1.000,"PART-1-1",           667,          1.25,          -30.,            0.,NA,NA,"",            0.,  -282.509E-42,  -798.844E-42,   505.854E-06
C:/temp/dataset/6/8_4.odb,Step-1,Increment      1: Step Time =    1.000,"PART-1-1",           668,       3.30543,      -22.6598,            0.,NA,NA,"",   3.28522E-03,   904.755E-06,  -3.15818E-03,   523.390E-06
C:/temp/dataset/6/8_4.odb,Step-1,Increment      1: Step Time =    1.000,"PART-1-1",           669,       2.86115,      -24.1329,            0.,NA,NA,"",   2.25954E-03,   73.5068E-06,  -2.25834E-03,   506.733E-06
C:/temp/dataset/6/8_4.odb,Step-1,Increment      1: Step Time =    1.000,"PART-1-1",           670,      -10.6801,      -21.6169,            0.,NA,NA,"",   3.51508E-03,   2.53985E-03,   2.43001E-03,   361.546E-06
C:/temp/dataset/6/8_4.odb,Step-1,Increment      1: Step Time =    1.000,"PART-1-1",           671,      -11.3394,      -20.4213,            0.,NA,NA,"",   5.15215E-03,   3.81211E-03,   3.46590E-03,   441.333E-06
C:/temp/dataset/6/8_4.odb,Step-1,Increment      1: Step Time =    1.000,"PART-1-1",           672,      -12.1593,      -22.4638,            0.,NA,NA,"",   3.98441E-03,   2.22005E-03,   3.30861E-03,   535.848E-06
C:/temp/dataset/6/8_4.odb,Step-1,Increment      1: Step Time =    1.000,"PART-1-1",           673,      -9.92443,      -16.4516,            0.,NA,NA,"",   9.66998E-03,   9.22662E-03,   2.89447E-03,   311.698E-06
C:/temp/dataset/6/8_4.odb,Step-1,Increment      1: Step Time =    1.000,"PART-1-1",           674,      -8.71114,      -17.7111,            0.,NA,NA,"",   7.05733E-03,   6.95979E-03,   1.16927E-03,   280.297E-06
C:/temp/dataset/6/8_4.odb,Step-1,Increment      1: Step Time =    1.000,"PART-1-1",           675,      -9.25100,      -7.50767,            0.,NA,NA,"",   29.1061E-03,   28.9924E-03,   2.57065E-03,   266.427E-06
C:/temp/dataset/6/8_4.odb,Step-1,Increment      1: Step Time =    1.000,"PART-1-1",           676,      -8.32615,      -6.25855,            0.,NA,NA,"",   32.1059E-03,   32.0986E-03,   685.332E-06,   243.539E-06
C:/temp/dataset/6/8_4.odb,Step-1,Increment      1: Step Time =    1.000,"PART-1-1",           677,      -7.58018,      -5.09368,            0.,NA,NA,"",   35.0445E-03,   35.0338E-03,  -867.993E-06,   214.800E-06
C:/temp/dataset/6/8_4.odb,Step-1,Increment      1: Step Time =    1.000,"PART-1-1",           678,      -6.67379,      -3.84489,            0.,NA,NA,"",   38.2201E-03,   38.1197E-03,  -2.76780E-03,   234.407E-06
C:/temp/dataset/6/8_4.odb,Step-1,Increment      1: Step Time =    1.000,"PART-1-1",           679,      -2.40491,      -1.03021,            0.,NA,NA,"",   46.5870E-03,   45.1097E-03,  -11.6389E-03,   368.464E-06
C:/temp/dataset/6/8_4.odb,Step-1,Increment      1: Step Time =    1.000,"PART-1-1",           680,      -3.32453,      -2.14711,            0.,NA,NA,"",   43.2569E-03,   42.1533E-03,  -9.70853E-03,   332.328E-06
C:/temp/dataset/6/8_4.odb,Step-1,Increment      1: Step Time =    1.000,"PART-1-1",           681,       10.4745,      -24.8101,            0.,NA,NA,"",   8.93370E-03,   3.25126E-03,  -8.32108E-03,   2.04991E-03
C:/temp/dataset/6/8_4.odb,Step-1,Increment      1: Step Time =    1.000,"PART-1-1",           682,       8.16019,      -23.0435,            0.,NA,NA,"",   9.73503E-03,   2.91073E-03,  -9.28969E-03,   1.81107E-03
C:/temp/dataset/6/8_4.odb,Step-1,Increment      1: Step Time =    1.000,"PART-1-1",           683,       9.40124,      -23.8494,            0.,NA,NA,"",   9.68719E-03,   3.17812E-03,  -9.15103E-03,   1.93187E-03
C:/temp/dataset/6/8_4.odb,Step-1,Increment      1: Step Time =    1.000,"PART-1-1",           684,       5.67200,      -27.0943,            0.,NA,NA,"",   2.35622E-03,  -504.038E-06,  -2.30168E-03,   1.03307E-03
C:/temp/dataset/6/8_4.odb,Step-1,Increment      1: Step Time =    1.000,"PART-1-1",           685,       4.86106,      -26.0050,            0.,NA,NA,"",   2.79512E-03,  -439.555E-06,  -2.76034E-03,   902.971E-06
C:/temp/dataset/6/8_4.odb,Step-1,Increment      1: Step Time =    1.000,"PART-1-1",           686,      -2.55341,      -23.8484,            0.,NA,NA,"",   1.08159E-03,   905.535E-06,  -591.476E-06,   396.842E-06
C:/temp/dataset/6/8_4.odb,Step-1,Increment      1: Step Time =    1.000,"PART-1-1",           687,      -4.82130,      -23.8875,            0.,NA,NA,"",   1.08445E-03,   894.730E-06,  -612.774E-06,   341.699E-06
C:/temp/dataset/6/8_4.odb,Step-1,Increment      1: Step Time =    1.000,"PART-1-1",           688,      -5.84083,      -25.1777,            0.,NA,NA,"",   464.907E-06,   338.123E-06,  -319.079E-06,   162.047E-06
C:/temp/dataset/6/8_4.odb,Step-1,Increment      1: Step Time =    1.000,"PART-1-1",           689,           15.,      -26.7188,            0.,NA,NA,"",   10.2093E-03,   6.01666E-03,  -8.24796E-03,   2.49311E-03
C:/temp/dataset/6/8_4.odb,Step-1,Increment      1: Step Time =    1.000,"PART-1-1",           690,       10.9874,      -11.4075,            0.,NA,NA,"",   40.5147E-03,   20.1843E-03,  -35.1289E-03,   2.31813E-03
C:/temp/dataset/6/8_4.odb,Step-1,Increment      1: Step Time =    1.000,"PART-1-1",           691,       7.29436,      -19.7763,            0.,NA,NA,"",   14.6346E-03,   5.91801E-03,  -13.3846E-03,   1.76623E-03
C:/temp/dataset/6/8_4.odb,Step-1,Increment      1: Step Time =    1.000,"PART-1-1",           692,       7.78340,      -18.7858,            0.,NA,NA,"",   17.3132E-03,   7.27704E-03,  -15.7096E-03,   1.82644E-03
C:/temp/dataset/6/8_4.odb,Step-1,Increment      1: Step Time =    1.000,"PART-1-1",           693,       10.8970,      -2.99004,            0.,NA,NA,"",   65.9050E-03,   40.2448E-03,  -52.1902E-03,   2.36991E-03
C:/temp/dataset/6/8_4.odb,Step-1,Increment      1: Step Time =    1.000,"PART-1-1",           694,       12.0828,      -3.88727,            0.,NA,NA,"",   67.1628E-03,   38.7871E-03,  -54.8306E-03,   2.72008E-03
C:/temp/dataset/6/8_4.odb,Step-1,Increment      1: Step Time =    1.000,"PART-1-1",           695,           15.,       1.71875,            0.,NA,NA,"",   107.389E-03,   65.0381E-03,  -85.4544E-03,   4.35972E-03
C:/temp/dataset/6/8_4.odb,Step-1,Increment      1: Step Time =    1.000,"PART-1-1",           696,       4.00043,  -427.215E-03,            0.,NA,NA,"",   54.2849E-03,   46.5294E-03,  -27.9620E-03,   284.112E-06
C:/temp/dataset/6/8_4.odb,Step-1,Increment      1: Step Time =    1.000,"PART-1-1",           697,       2.09609,       1.00148,            0.,NA,NA,"",   56.0839E-03,   51.3636E-03,  -22.5206E-03,   435.614E-06
C:/temp/dataset/6/8_4.odb,Step-1,Increment      1: Step Time =    1.000,"PART-1-1",           698,       2.38138,  -554.063E-03,            0.,NA,NA,"",   51.7355E-03,   46.2143E-03,  -23.2552E-03,   351.217E-06
C:/temp/dataset/6/8_4.odb,Step-1,Increment      1: Step Time =    1.000,"PART-1-1",           699,   35.7305E-03,       2.11113,            0.,NA,NA,"",   57.1540E-03,   54.4604E-03,  -17.3392E-03,   507.806E-06
C:/temp/dataset/6/8_4.odb,Step-1,Increment      1: Step Time =    1.000,"PART-1-1",           700,           -5.,       10.2083,            0.,NA,NA,"",   71.9361E-03,   71.6380E-03,  -6.54225E-03,   12.6782E-06
C:/temp/dataset/6/8_4.odb,Step-1,Increment      1: Step Time =    1.000,"PART-1-1",           701,      -6.99901,       9.90050,            0.,NA,NA,"",   70.9689E-03,   70.9403E-03,  -2.01724E-03,   9.77056E-06
C:/temp/dataset/6/8_4.odb,Step-1,Increment      1: Step Time =    1.000,"PART-1-1",           702,      -11.2396,       16.2208,            0.,NA,NA,"",   85.6613E-03,   85.3234E-03,   7.60141E-03,   922.897E-09
C:/temp/dataset/6/8_4.odb,Step-1,Increment      1: Step Time =    1.000,"PART-1-1",           703,      -10.2112,       15.1096,            0.,NA,NA,"",   82.9626E-03,   82.7953E-03,   5.26675E-03,   1.34474E-06
C:/temp/dataset/6/8_4.odb,Step-1,Increment      1: Step Time =    1.000,"PART-1-1",           704,      -9.25876,       16.3324,            0.,NA,NA,"",   85.6265E-03,   85.5704E-03,   3.10054E-03,   913.685E-09
C:/temp/dataset/6/8_4.odb,Step-1,Increment      1: Step Time =    1.000,"PART-1-1",           705,      -10.2871,       17.4437,            0.,NA,NA,"",   88.2660E-03,   88.0985E-03,   5.43452E-03,   368.437E-09
C:/temp/dataset/6/8_4.odb,Step-1,Increment      1: Step Time =    1.000,"PART-1-1",           706,      -8.19479,       15.2434,            0.,NA,NA,"",   83.0948E-03,   83.0920E-03,   685.719E-06,   1.16270E-06
C:/temp/dataset/6/8_4.odb,Step-1,Increment      1: Step Time =    1.000,"PART-1-1",           707,      -9.19446,       14.0222,            0.,NA,NA,"",   80.3747E-03,   80.3203E-03,   2.95812E-03,   2.66606E-06
C:/temp/dataset/6/8_4.odb,Step-1,Increment      1: Step Time =    1.000,"PART-1-1",           708,      -8.14331,       13.0080,            0.,NA,NA,"",   78.0124E-03,   78.0103E-03,   572.283E-06,   3.20624E-06
C:/temp/dataset/6/8_4.odb,Step-1,Increment      1: Step Time =    1.000,"PART-1-1",           709,          -15.,         18.75,            0.,NA,NA,"",   92.4979E-03,   91.0791E-03,   16.1389E-03,   68.5557E-09
C:/temp/dataset/6/8_4.odb,Step-1,Increment      1: Step Time =    1.000,"PART-1-1",           710,      -13.1826,       18.5751,            0.,NA,NA,"",   91.4689E-03,   90.6770E-03,   12.0106E-03,   137.554E-09
C:/temp/dataset/6/8_4.odb,Step-1,Increment      1: Step Time =    1.000,"PART-1-1",           711,      -11.2313,       23.3702,            0.,NA,NA,"",   101.848E-03,   101.566E-03,   7.56479E-03,   23.5078E-09
C:/temp/dataset/6/8_4.odb,Step-1,Increment      1: Step Time =    1.000,"PART-1-1",           712,      -10.8173,       24.9058,            0.,NA,NA,"",   105.263E-03,   105.054E-03,   6.62007E-03,   17.2394E-09
C:/temp/dataset/6/8_4.odb,Step-1,Increment      1: Step Time =    1.000,"PART-1-1",           713,      -13.5418,       24.7667,            0.,NA,NA,"",   105.526E-03,   104.745E-03,   12.8106E-03,   14.3804E-09
C:/temp/dataset/6/8_4.odb,Step-1,Increment      1: Step Time =    1.000,"PART-1-1",           714,      -12.2278,       25.9824,            0.,NA,NA,"",   107.952E-03,   107.504E-03,   9.82197E-03,   15.0798E-09
C:/temp/dataset/6/8_4.odb,Step-1,Increment      1: Step Time =    1.000,"PART-1-1",           715,          -15.,         26.25,            0.,NA,NA,"",   109.314E-03,   108.119E-03,   16.1200E-03,   10.9762E-09
C:/temp/dataset/6/8_4.odb,Step-1,Increment      1: Step Time =    1.000,"PART-1-1",           716,          -15.,         23.75,            0.,NA,NA,"",   103.701E-03,   102.439E-03,   16.1264E-03,   34.2776E-09
C:/temp/dataset/6/8_4.odb,Step-1,Increment      1: Step Time =    1.000,"PART-1-1",           717,      -12.5630,       23.3034,            0.,NA,NA,"",   101.970E-03,   101.418E-03,   10.5906E-03,   25.3489E-09
C:/temp/dataset/6/8_4.odb,Step-1,Increment      1: Step Time =    1.000,"PART-1-1",           718,      -11.1827,       13.8735,            0.,NA,NA,"",   80.3401E-03,   79.9915E-03,   7.47605E-03,   2.71684E-06
C:/temp/dataset/6/8_4.odb,Step-1,Increment      1: Step Time =    1.000,"PART-1-1",           719,      -10.1659,       12.7861,            0.,NA,NA,"",   77.6885E-03,   77.5166E-03,   5.16539E-03,   3.69645E-06
C:/temp/dataset/6/8_4.odb,Step-1,Increment      1: Step Time =    1.000,"PART-1-1",           720,      -11.4858,       20.4947,            0.,NA,NA,"",   95.3827E-03,   95.0338E-03,   8.15034E-03,   40.5614E-09
C:/temp/dataset/6/8_4.odb,Step-1,Increment      1: Step Time =    1.000,"PART-1-1",           721,      -10.4732,       19.7487,            0.,NA,NA,"",   93.5193E-03,   93.3361E-03,   5.85168E-03,   66.7382E-09
C:/temp/dataset/6/8_4.odb,Step-1,Increment      1: Step Time =    1.000,"PART-1-1",           722,      -10.9778,       21.7959,            0.,NA,NA,"",   98.2380E-03,   97.9888E-03,   6.99284E-03,   27.1218E-09
C:/temp/dataset/6/8_4.odb,Step-1,Increment      1: Step Time =    1.000,"PART-1-1",           723,      -9.13796,       11.7463,            0.,NA,NA,"",   75.2010E-03,   75.1478E-03,   2.82930E-03,   5.91504E-06
C:/temp/dataset/6/8_4.odb,Step-1,Increment      1: Step Time =    1.000,"PART-1-1",           724,      -11.1090,       11.4975,            0.,NA,NA,"",   74.9528E-03,   74.5956E-03,   7.30900E-03,   5.74525E-06
C:/temp/dataset/6/8_4.odb,Step-1,Increment      1: Step Time =    1.000,"PART-1-1",           725,      -7.95801,       5.48811,            0.,NA,NA,"",   60.9734E-03,   60.9732E-03,   154.739E-06,   54.4285E-06
C:/temp/dataset/6/8_4.odb,Step-1,Increment      1: Step Time =    1.000,"PART-1-1",           726,      -9.27172,       5.51676,            0.,NA,NA,"",   61.0727E-03,   60.9929E-03,   3.11936E-03,   31.2570E-06
C:/temp/dataset/6/8_4.odb,Step-1,Increment      1: Step Time =    1.000,"PART-1-1",           727,      -9.10783,       4.19071,            0.,NA,NA,"",   58.0043E-03,   57.9380E-03,   2.77179E-03,   82.1804E-06
C:/temp/dataset/6/8_4.odb,Step-1,Increment      1: Step Time =    1.000,"PART-1-1",           728,      -7.79412,       4.16207,            0.,NA,NA,"",   57.9532E-03,   57.9530E-03,  -165.848E-06,   107.036E-06
C:/temp/dataset/6/8_4.odb,Step-1,Increment      1: Step Time =    1.000,"PART-1-1",           729,      -10.3652,   710.465E-03,            0.,NA,NA,"",   49.8620E-03,   49.5476E-03,   5.58977E-03,   145.414E-06
C:/temp/dataset/6/8_4.odb,Step-1,Increment      1: Step Time =    1.000,"PART-1-1",           730,      -11.5756,       2.14983,            0.,NA,NA,"",   53.6893E-03,   53.0353E-03,   8.35509E-03,   83.5607E-06
C:/temp/dataset/6/8_4.odb,Step-1,Increment      1: Step Time =    1.000,"PART-1-1",           731,      -10.9514,      -7.70102,            0.,NA,NA,"",   29.2434E-03,   28.5932E-03,   6.13232E-03,   284.726E-06
C:/temp/dataset/6/8_4.odb,Step-1,Increment      1: Step Time =    1.000,"PART-1-1",           732,      -11.1587,      -15.1039,            0.,NA,NA,"",   12.8988E-03,   11.8824E-03,   5.01870E-03,   376.441E-06
C:/temp/dataset/6/8_4.odb,Step-1,Increment      1: Step Time =    1.000,"PART-1-1",           733,      -11.0422,      -12.5823,            0.,NA,NA,"",   17.9336E-03,   17.0931E-03,   5.42612E-03,   339.384E-06
C:/temp/dataset/6/8_4.odb,Step-1,Increment      1: Step Time =    1.000,"PART-1-1",           734,      -9.98828,      -19.2456,            0.,NA,NA,"",   5.46650E-03,   4.90609E-03,   2.41100E-03,   308.059E-06
C:/temp/dataset/6/8_4.odb,Step-1,Increment      1: Step Time =    1.000,"PART-1-1",           735,      -11.2222,      -17.6929,            0.,NA,NA,"",   8.53486E-03,   7.35349E-03,   4.33244E-03,   420.491E-06
C:/temp/dataset/6/8_4.odb,Step-1,Increment      1: Step Time =    1.000,"PART-1-1",           736,      -9.72809,       26.4627,            0.,NA,NA,"",   108.668E-03,   108.589E-03,   4.14130E-03,   12.7829E-09
C:/temp/dataset/6/8_4.odb,Step-1,Increment      1: Step Time =    1.000,"PART-1-1",           737,      -8.07960,       10.7858,            0.,NA,NA,"",   72.9594E-03,   72.9581E-03,   427.525E-06,   6.84750E-06
C:/temp/dataset/6/8_4.odb,Step-1,Increment      1: Step Time =    1.000,"PART-1-1",           738,      -11.3320,       18.4953,            0.,NA,NA,"",   90.8268E-03,   90.4907E-03,   7.80602E-03,   237.220E-09
C:/temp/dataset/6/8_4.odb,Step-1,Increment      1: Step Time =    1.000,"PART-1-1",           739,      -10.4893,       6.32554,            0.,NA,NA,"",   63.1018E-03,   62.8269E-03,   5.88371E-03,   17.9820E-06
C:/temp/dataset/6/8_4.odb,Step-1,Increment      1: Step Time =    1.000,"PART-1-1",           740,      -11.8356,       7.66802,            0.,NA,NA,"",   66.4999E-03,   65.8932E-03,   8.96245E-03,   7.60773E-06
C:/temp/dataset/6/8_4.odb,Step-1,Increment      1: Step Time =    1.000,"PART-1-1",           741,      -11.4125,       4.87054,            0.,NA,NA,"",   59.9976E-03,   59.4624E-03,   7.99547E-03,   26.8148E-06
C:/temp/dataset/6/8_4.odb,Step-1,Increment      1: Step Time =    1.000,"PART-1-1",           742,       10.1911,      -5.79504,            0.,NA,NA,"",   54.3759E-03,   31.6939E-03,  -44.1842E-03,   2.10554E-03
C:/temp/dataset/6/8_4.odb,Step-1,Increment      1: Step Time =    1.000,"PART-1-1",           743,       9.10708,      -6.74300,            0.,NA,NA,"",   48.3651E-03,   28.4089E-03,  -39.1423E-03,   1.85191E-03
C:/temp/dataset/6/8_4.odb,Step-1,Increment      1: Step Time =    1.000,"PART-1-1",           744,       11.1638,      -4.94873,            0.,NA,NA,"",   60.2163E-03,   34.8231E-03,  -49.1259E-03,   2.39705E-03
C:/temp/dataset/6/8_4.odb,Step-1,Increment      1: Step Time =    1.000,"PART-1-1",           745,       10.4293,      -4.08570,            0.,NA,NA,"",   60.5096E-03,   36.5720E-03,  -48.2068E-03,   2.16629E-03
C:/temp/dataset/6/8_4.odb,Step-1,Increment      1: Step Time =    1.000,"PART-1-1",           746,       9.97038,      -14.8971,            0.,NA,NA,"",   29.5708E-03,   13.7664E-03,  -26.1709E-03,   2.14779E-03
C:/temp/dataset/6/8_4.odb,Step-1,Increment      1: Step Time =    1.000,"PART-1-1",           747,       9.96577,      -12.5508,            0.,NA,NA,"",   35.1819E-03,   17.2342E-03,  -30.6716E-03,   2.16510E-03
C:/temp/dataset/6/8_4.odb,Step-1,Increment      1: Step Time =    1.000,"PART-1-1",           748,       8.96159,      -13.7029,            0.,NA,NA,"",   30.2417E-03,   14.5233E-03,  -26.5261E-03,   2.03162E-03
C:/temp/dataset/6/8_4.odb,Step-1,Increment      1: Step Time =    1.000,"PART-1-1",           749,       6.92617,      -22.4012,            0.,NA,NA,"",   9.19078E-03,   2.58572E-03,  -8.81955E-03,   1.64622E-03
C:/temp/dataset/6/8_4.odb,Step-1,Increment      1: Step Time =    1.000,"PART-1-1",           750,       5.94981,      -23.5281,            0.,NA,NA,"",   6.16967E-03,   1.06788E-03,  -6.07655E-03,   1.34885E-03
C:/temp/dataset/6/8_4.odb,Step-1,Increment      1: Step Time =    1.000,"PART-1-1",           751,       7.18383,      -24.1705,            0.,NA,NA,"",   6.72807E-03,   1.32118E-03,  -6.59708E-03,   1.53176E-03
C:/temp/dataset/6/8_4.odb,Step-1,Increment      1: Step Time =    1.000,"PART-1-1",           752,       11.0968,      -20.2176,            0.,NA,NA,"",   19.5858E-03,   8.40159E-03,  -17.6923E-03,   2.15749E-03
C:/temp/dataset/6/8_4.odb,Step-1,Increment      1: Step Time =    1.000,"PART-1-1",           753,       6.43355,      -20.8801,            0.,NA,NA,"",   11.1174E-03,   3.95377E-03,  -10.3906E-03,   1.75606E-03
C:/temp/dataset/6/8_4.odb,Step-1,Increment      1: Step Time =    1.000,"PART-1-1",           754,       8.96045,      -11.3546,            0.,NA,NA,"",   35.8054E-03,   18.3371E-03,  -30.7535E-03,   2.00612E-03
C:/temp/dataset/6/8_4.odb,Step-1,Increment      1: Step Time =    1.000,"PART-1-1",           755,       8.17216,      -2.03287,            0.,NA,NA,"",   59.2653E-03,   41.4831E-03,  -42.3264E-03,   1.32083E-03
C:/temp/dataset/6/8_4.odb,Step-1,Increment      1: Step Time =    1.000,"PART-1-1",           756,       9.68046,      -2.49017,            0.,NA,NA,"",   63.0376E-03,   40.8145E-03,  -48.0408E-03,   1.94541E-03
C:/temp/dataset/6/8_4.odb,Step-1,Increment      1: Step Time =    1.000,"PART-1-1",           757,      -5.24373,       2.94722,            0.,NA,NA,"",   55.7090E-03,   55.4259E-03,  -5.60853E-03,   302.248E-06
C:/temp/dataset/6/8_4.odb,Step-1,Increment      1: Step Time =    1.000,"PART-1-1",           758,      -6.20341,       3.93450,            0.,NA,NA,"",   57.7265E-03,   57.6111E-03,  -3.64767E-03,   195.294E-06
C:/temp/dataset/6/8_4.odb,Step-1,Increment      1: Step Time =    1.000,"PART-1-1",           759,       7.87036,      -17.0650,            0.,NA,NA,"",   20.8821E-03,   9.24941E-03,  -18.7219E-03,   1.97050E-03
C:/temp/dataset/6/8_4.odb,Step-1,Increment      1: Step Time =    1.000,"PART-1-1",           760,      -8.77165,      -4.61616,            0.,NA,NA,"",   36.2750E-03,   36.2326E-03,   1.75304E-03,   227.385E-06
C:/temp/dataset/6/8_4.odb,Step-1,Increment      1: Step Time =    1.000,"PART-1-1",           761,       8.90402,      -15.9271,            0.,NA,NA,"",   25.1625E-03,   11.4576E-03,  -22.4026E-03,   2.02255E-03
C:/temp/dataset/6/8_4.odb,Step-1,Increment      1: Step Time =    1.000,"PART-1-1",           762,       7.94609,      -14.8939,            0.,NA,NA,"",   25.5525E-03,   11.9641E-03,  -22.5786E-03,   1.92960E-03
C:/temp/dataset/6/8_4.odb,Step-1,Increment      1: Step Time =    1.000,"PART-1-1",           763,      -12.3095,       21.7291,            0.,NA,NA,"",   98.3520E-03,   97.8404E-03,   10.0186E-03,   23.4632E-09
C:/temp/dataset/6/8_4.odb,Step-1,Increment      1: Step Time =    1.000,"PART-1-1",           764,      -12.2938,       19.6789,            0.,NA,NA,"",   93.7160E-03,   93.1823E-03,   9.98829E-03,   44.5922E-09
C:/temp/dataset/6/8_4.odb,Step-1,Increment      1: Step Time =    1.000,"PART-1-1",           765,       3.72209,      -1.78065,            0.,NA,NA,"",   49.9929E-03,   42.0482E-03,  -27.0414E-03,   348.019E-06
C:/temp/dataset/6/8_4.odb,Step-1,Increment      1: Step Time =    1.000,"PART-1-1",           766,       6.45852,      -3.38063,            0.,NA,NA,"",   50.6202E-03,   36.8216E-03,  -34.7357E-03,   880.246E-06
C:/temp/dataset/6/8_4.odb,Step-1,Increment      1: Step Time =    1.000,"PART-1-1",           767,       4.93556,      -2.38177,            0.,NA,NA,"",   50.2176E-03,   39.9060E-03,  -30.4847E-03,   445.889E-06
C:/temp/dataset/6/8_4.odb,Step-1,Increment      1: Step Time =    1.000,"PART-1-1",           768,      -2.94024,   945.156E-03,            0.,NA,NA,"",   51.6206E-03,   50.5529E-03,  -10.4447E-03,   394.540E-06
C:/temp/dataset/6/8_4.odb,Step-1,Increment      1: Step Time =    1.000,"PART-1-1",           769,      -1.69279,      -25.0756,            0.,NA,NA,"",   596.911E-06,   280.811E-06,  -526.733E-06,   298.262E-06
C:/temp/dataset/6/8_4.odb,Step-1,Increment      1: Step Time =    1.000,"PART-1-1",           770,      -6.93923,      -23.9860,            0.,NA,NA,"",   771.487E-06,   749.104E-06,  -184.485E-06,   125.550E-06
C:/temp/dataset/6/8_4.odb,Step-1,Increment      1: Step Time =    1.000,"PART-1-1",           771,      -5.91970,      -22.6959,            0.,NA,NA,"",   1.61004E-03,   1.44429E-03,  -711.516E-06,   325.373E-06
C:/temp/dataset/6/8_4.odb,Step-1,Increment      1: Step Time =    1.000,"PART-1-1",           772,      -12.2208,       17.3915,            0.,NA,NA,"",   88.5329E-03,   87.9857E-03,   9.82831E-03,   312.514E-09
C:/temp/dataset/6/8_4.odb,Step-1,Increment      1: Step Time =    1.000,"PART-1-1",           773,      -12.0398,       10.1961,            0.,NA,NA,"",   72.2628E-03,   71.6451E-03,   9.42862E-03,   6.87193E-06
C:/temp/dataset/6/8_4.odb,Step-1,Increment      1: Step Time =    1.000,"PART-1-1",           774,      -10.8637,      -2.91198,            0.,NA,NA,"",   41.0772E-03,   40.5614E-03,   6.48916E-03,   201.805E-06
C:/temp/dataset/6/8_4.odb,Step-1,Increment      1: Step Time =    1.000,"PART-1-1",           775,      -9.61620,      -11.5179,            0.,NA,NA,"",   19.5902E-03,   19.3668E-03,   2.94982E-03,   286.310E-06
C:/temp/dataset/6/8_4.odb,Step-1,Increment      1: Step Time =    1.000,"PART-1-1",           776,      -11.8201,      -24.5932,            0.,NA,NA,"",   2.30944E-03,   932.588E-06,   2.11277E-03,   486.846E-06
C:/temp/dataset/6/8_4.odb,Step-1,Increment      1: Step Time =    1.000,"PART-1-1",           777,      -11.0718,      -23.4296,            0.,NA,NA,"",   2.51095E-03,   1.35752E-03,   2.11235E-03,   400.465E-06
C:/temp/dataset/6/8_4.odb,Step-1,Increment      1: Step Time =    1.000,"PART-1-1",           778,       4.75405,      -23.0816,            0.,NA,NA,"",   5.03909E-03,   877.631E-06,  -4.96208E-03,   1.03596E-03
C:/temp/dataset/6/8_4.odb,Step-1,Increment      1: Step Time =    1.000,"PART-1-1",           779,       5.55198,      -21.9930,            0.,NA,NA,"",   7.58695E-03,   2.06392E-03,  -7.30082E-03,   1.47919E-03
C:/temp/dataset/6/8_4.odb,Step-1,Increment      1: Step Time =    1.000,"PART-1-1",           780,       7.01336,      -26.0950,            0.,NA,NA,"",   4.01584E-03,   173.674E-06,  -4.01208E-03,   1.33856E-03
C:/temp/dataset/6/8_4.odb,Step-1,Increment      1: Step Time =    1.000,"PART-1-1",           781,       4.10189,      -23.9882,            0.,NA,NA,"",   3.52485E-03,   197.744E-06,  -3.51930E-03,   787.351E-06
C:/temp/dataset/6/8_4.odb,Step-1,Increment      1: Step Time =    1.000,"PART-1-1",           782,       4.14804,      -25.2051,            0.,NA,NA,"",   2.83158E-03,  -307.913E-06,  -2.81479E-03,   787.275E-06
C:/temp/dataset/6/8_4.odb,Step-1,Increment      1: Step Time =    1.000,"PART-1-1",           783,      -12.1264,       12.6156,            0.,NA,NA,"",   77.7372E-03,   77.1391E-03,   9.62385E-03,   3.41860E-06
C:/temp/dataset/6/8_4.odb,Step-1,Increment      1: Step Time =    1.000,"PART-1-1",           784,      -12.1709,       15.0185,            0.,NA,NA,"",   83.1655E-03,   82.5955E-03,   9.72051E-03,   1.21590E-06
C:/temp/dataset/6/8_4.odb,Step-1,Increment      1: Step Time =    1.000,"PART-1-1",           785,      -10.3060,       3.43341,            0.,NA,NA,"",   56.3820E-03,   56.1149E-03,   5.48130E-03,   73.3400E-06
C:/temp/dataset/6/8_4.odb,Step-1,Increment      1: Step Time =    1.000,"PART-1-1",           786,      -9.35047,  -311.861E-03,            0.,NA,NA,"",   47.1393E-03,   47.0234E-03,   3.30380E-03,   199.238E-06
C:/temp/dataset/6/8_4.odb,Step-1,Increment      1: Step Time =    1.000,"PART-1-1",           787,      -9.47746,      -1.56252,            0.,NA,NA,"",   44.0423E-03,   43.9016E-03,   3.51807E-03,   203.369E-06
C:/temp/dataset/6/8_4.odb,Step-1,Increment      1: Step Time =    1.000,"PART-1-1",           788,      -7.56677,      -1.93629,            0.,NA,NA,"",   42.9295E-03,   42.9242E-03,  -669.773E-06,   254.481E-06
C:/temp/dataset/6/8_4.odb,Step-1,Increment      1: Step Time =    1.000,"PART-1-1",           789,      -9.57637,      -3.06595,            0.,NA,NA,"",   40.3019E-03,   40.1380E-03,   3.63021E-03,   221.689E-06
C:/temp/dataset/6/8_4.odb,Step-1,Increment      1: Step Time =    1.000,"PART-1-1",           790,      -8.24618,      -3.39128,            0.,NA,NA,"",   39.2979E-03,   39.2918E-03,   695.108E-06,   221.523E-06
C:/temp/dataset/6/8_4.odb,Step-1,Increment      1: Step Time =    1.000,"PART-1-1",           791,       7.98922,      -7.69035,            0.,NA,NA,"",   42.7120E-03,   25.2312E-03,  -34.4630E-03,   1.71898E-03
C:/temp/dataset/6/8_4.odb,Step-1,Increment      1: Step Time =    1.000,"PART-1-1",           792,       7.96586,      -10.1263,            0.,NA,NA,"",   36.4374E-03,   19.8162E-03,  -30.5778E-03,   1.81251E-03
C:/temp/dataset/6/8_4.odb,Step-1,Increment      1: Step Time =    1.000,"PART-1-1",           793,       7.95460,      -12.5381,            0.,NA,NA,"",   30.7526E-03,   15.4557E-03,  -26.5865E-03,   1.87363E-03
C:/temp/dataset/6/8_4.odb,Step-1,Increment      1: Step Time =    1.000,"PART-1-1",           794,      -6.90534,       4.84567,            0.,NA,NA,"",   59.6310E-03,   59.5913E-03,  -2.17640E-03,   109.425E-06
C:/temp/dataset/6/8_4.odb,Step-1,Increment      1: Step Time =    1.000,"PART-1-1",           795,      -7.09219,       3.25090,            0.,NA,NA,"",   55.9133E-03,   55.8886E-03,  -1.66015E-03,   191.480E-06
C:/temp/dataset/6/8_4.odb,Step-1,Increment      1: Step Time =    1.000,"PART-1-1",           796,      -5.99438,      -2.38990,            0.,NA,NA,"",   41.9159E-03,   41.7168E-03,  -4.08023E-03,   279.864E-06
C:/temp/dataset/6/8_4.odb,Step-1,Increment      1: Step Time =    1.000,"PART-1-1",           797,      -8.16339,       2.56404,            0.,NA,NA,"",   54.1487E-03,   54.1439E-03,   716.787E-06,   156.167E-06
C:/temp/dataset/6/8_4.odb,Step-1,Increment      1: Step Time =    1.000,"PART-1-1",           798,      -6.16245,       1.98671,            0.,NA,NA,"",   53.0347E-03,   52.9131E-03,  -3.59001E-03,   266.316E-06
C:/temp/dataset/6/8_4.odb,Step-1,Increment      1: Step Time =    1.000,"PART-1-1",           799,      -9.36160,       1.80674,            0.,NA,NA,"",   52.3546E-03,   52.2459E-03,   3.37197E-03,   150.157E-06
C:/temp/dataset/6/8_4.odb,Step-1,Increment      1: Step Time =    1.000,"PART-1-1",           800,      -4.18828,       1.89018,            0.,NA,NA,"",   53.4904E-03,   52.9194E-03,  -7.79485E-03,   338.216E-06
C:/temp/dataset/6/8_4.odb,Step-1,Increment      1: Step Time =    1.000,"PART-1-1",           801,      -2.02478,       2.01876,            0.,NA,NA,"",   55.1032E-03,   53.6597E-03,  -12.5299E-03,   415.510E-06
C:/temp/dataset/6/8_4.odb,Step-1,Increment      1: Step Time =    1.000,"PART-1-1",           802,       5.29765,      -24.4346,            0.,NA,NA,"",   4.42801E-03,   267.686E-06,  -4.41991E-03,   1.07431E-03
C:/temp/dataset/6/8_4.odb,Step-1,Increment      1: Step Time =    1.000,"PART-1-1",           803,       8.18651,      -25.0309,            0.,NA,NA,"",   6.38303E-03,   1.36284E-03,  -6.23584E-03,   1.66085E-03
C:/temp/dataset/6/8_4.odb,Step-1,Increment      1: Step Time =    1.000,"PART-1-1",           804,       6.01068,      -25.2345,            0.,NA,NA,"",   4.27617E-03,   141.830E-06,  -4.27382E-03,   1.20800E-03
