ODB Name,Step,Frame,Part Instance Name,    êﬂì_ÉâÉxÉã,X,Y,Z,Section Name,Material Name,Section Point,   U-Magnitude,          U-U1,          U-U2,       S-Mises
C:/temp/dataset/3/11_8.odb,Step-1,Increment      1: Step Time =    1.000,"PART-1-1",             1,          -15.,           20.,            0.,NA,NA,"",   831.385E-03,  -758.473E-03,  -340.469E-03,   62.5039E-12
C:/temp/dataset/3/11_8.odb,Step-1,Increment      1: Step Time =    1.000,"PART-1-1",             2,          -15.,           25.,            0.,NA,NA,"",   901.045E-03,  -834.010E-03,  -341.039E-03,   57.6448E-12
C:/temp/dataset/3/11_8.odb,Step-1,Increment      1: Step Time =    1.000,"PART-1-1",             3,           -5.,           20.,            0.,NA,NA,"",   782.869E-03,  -759.614E-03,  -189.394E-03,   54.3327E-12
C:/temp/dataset/3/11_8.odb,Step-1,Increment      1: Step Time =    1.000,"PART-1-1",             4,            5.,           20.,            0.,NA,NA,"",   761.720E-03,  -760.756E-03,  -38.3193E-03,   2.09904E-09
C:/temp/dataset/3/11_8.odb,Step-1,Increment      1: Step Time =    1.000,"PART-1-1",             5,            5.,          12.5,            0.,NA,NA,"",   648.532E-03,  -647.449E-03,  -37.4636E-03,   53.3428E-09
C:/temp/dataset/3/11_8.odb,Step-1,Increment      1: Step Time =    1.000,"PART-1-1",             6,            5.,            5.,            0.,NA,NA,"",   535.389E-03,  -534.137E-03,  -36.6038E-03,   4.69633E-06
C:/temp/dataset/3/11_8.odb,Step-1,Increment      1: Step Time =    1.000,"PART-1-1",             7,      -1.70000,            5.,            0.,NA,NA,"",   550.864E-03,  -533.361E-03,  -137.760E-03,   255.936E-09
C:/temp/dataset/3/11_8.odb,Step-1,Increment      1: Step Time =    1.000,"PART-1-1",             8,      -8.40000,            5.,            0.,NA,NA,"",   583.729E-03,  -532.597E-03,  -238.916E-03,   21.9741E-09
C:/temp/dataset/3/11_8.odb,Step-1,Increment      1: Step Time =    1.000,"PART-1-1",             9,          -15.,            5.,            0.,NA,NA,"",   630.463E-03,  -531.845E-03,  -338.562E-03,   480.481E-12
C:/temp/dataset/3/11_8.odb,Step-1,Increment      1: Step Time =    1.000,"PART-1-1",            10,          -15.,            0.,            0.,NA,NA,"",   567.889E-03,  -456.355E-03,  -337.992E-03,   5.31504E-09
C:/temp/dataset/3/11_8.odb,Step-1,Increment      1: Step Time =    1.000,"PART-1-1",            11,          -15.,           -5.,            0.,NA,NA,"",   508.834E-03,  -380.865E-03,  -337.422E-03,   497.582E-12
C:/temp/dataset/3/11_8.odb,Step-1,Increment      1: Step Time =    1.000,"PART-1-1",            12,      -8.30000,           -5.,            0.,NA,NA,"",   448.845E-03,  -381.628E-03,  -236.266E-03,   22.1639E-09
C:/temp/dataset/3/11_8.odb,Step-1,Increment      1: Step Time =    1.000,"PART-1-1",            13,      -1.60000,           -5.,            0.,NA,NA,"",   405.559E-03,  -382.392E-03,  -135.108E-03,   337.473E-09
C:/temp/dataset/3/11_8.odb,Step-1,Increment      1: Step Time =    1.000,"PART-1-1",            14,            5.,           -5.,            0.,NA,NA,"",   384.816E-03,  -383.177E-03,  -35.4846E-03,   39.9532E-06
C:/temp/dataset/3/11_8.odb,Step-1,Increment      1: Step Time =    1.000,"PART-1-1",            15,            5.,         -12.5,            0.,NA,NA,"",   271.239E-03,  -268.667E-03,  -37.2654E-03,   835.851E-06
C:/temp/dataset/3/11_8.odb,Step-1,Increment      1: Step Time =    1.000,"PART-1-1",            16,            5.,          -20.,            0.,NA,NA,"",   99.1021E-03,  -95.8899E-03,  -25.0269E-03,   21.4018E-03
C:/temp/dataset/3/11_8.odb,Step-1,Increment      1: Step Time =    1.000,"PART-1-1",            17,           -5.,          -20.,            0.,NA,NA,"",   36.2650E-03,  -36.1543E-03,   2.83089E-03,   1.70493E-03
C:/temp/dataset/3/11_8.odb,Step-1,Increment      1: Step Time =    1.000,"PART-1-1",            18,          -15.,          -20.,            0.,NA,NA,"",   33.5338E-03,  -32.1936E-03,  -9.38568E-03,   26.0313E-06
C:/temp/dataset/3/11_8.odb,Step-1,Increment      1: Step Time =    1.000,"PART-1-1",            19,          -15.,          -25.,            0.,NA,NA,"",   21.9922E-03,  -19.8870E-03,  -9.38948E-03,   321.362E-06
C:/temp/dataset/3/11_8.odb,Step-1,Increment      1: Step Time =    1.000,"PART-1-1",            20,          -15.,          -30.,            0.,NA,NA,"",            0.,  -1.77411E-39,  -2.84665E-39,   5.45823E-03
C:/temp/dataset/3/11_8.odb,Step-1,Increment      1: Step Time =    1.000,"PART-1-1",            21,           15.,          -30.,            0.,NA,NA,"",            0.,  -5.76445E-39,   9.98870E-39,   18.8561E-03
C:/temp/dataset/3/11_8.odb,Step-1,Increment      1: Step Time =    1.000,"PART-1-1",            22,           15.,         -22.5,            0.,NA,NA,"",   141.970E-03,  -113.877E-03,   84.7785E-03,   10.0425E-03
C:/temp/dataset/3/11_8.odb,Step-1,Increment      1: Step Time =    1.000,"PART-1-1",            23,           15.,          -15.,            0.,NA,NA,"",   269.855E-03,  -247.355E-03,   107.875E-03,   4.04270E-03
C:/temp/dataset/3/11_8.odb,Step-1,Increment      1: Step Time =    1.000,"PART-1-1",            24,           15.,          -7.5,            0.,NA,NA,"",   364.971E-03,  -346.141E-03,   115.718E-03,   163.193E-06
C:/temp/dataset/3/11_8.odb,Step-1,Increment      1: Step Time =    1.000,"PART-1-1",            25,           15.,            0.,            0.,NA,NA,"",   473.915E-03,  -459.737E-03,   115.056E-03,   5.66643E-06
C:/temp/dataset/3/11_8.odb,Step-1,Increment      1: Step Time =    1.000,"PART-1-1",            26,           15.,           7.5,            0.,NA,NA,"",   584.319E-03,  -573.055E-03,   114.182E-03,   327.292E-09
C:/temp/dataset/3/11_8.odb,Step-1,Increment      1: Step Time =    1.000,"PART-1-1",            27,           15.,           15.,            0.,NA,NA,"",   695.652E-03,  -686.359E-03,   113.326E-03,   26.8727E-09
C:/temp/dataset/3/11_8.odb,Step-1,Increment      1: Step Time =    1.000,"PART-1-1",            28,           15.,          22.5,            0.,NA,NA,"",   807.536E-03,  -799.665E-03,   112.470E-03,   441.287E-12
C:/temp/dataset/3/11_8.odb,Step-1,Increment      1: Step Time =    1.000,"PART-1-1",            29,           15.,           30.,            0.,NA,NA,"",   919.769E-03,  -912.971E-03,   111.614E-03,   42.9355E-12
C:/temp/dataset/3/11_8.odb,Step-1,Increment      1: Step Time =    1.000,"PART-1-1",            30,           7.5,           30.,            0.,NA,NA,"",   912.117E-03,  -912.116E-03,  -1.69190E-03,   136.331E-12
C:/temp/dataset/3/11_8.odb,Step-1,Increment      1: Step Time =    1.000,"PART-1-1",            31,            0.,           30.,            0.,NA,NA,"",   918.487E-03,  -911.260E-03,  -114.998E-03,   45.0313E-12
C:/temp/dataset/3/11_8.odb,Step-1,Increment      1: Step Time =    1.000,"PART-1-1",            32,          -7.5,           30.,            0.,NA,NA,"",   938.593E-03,  -910.404E-03,  -228.304E-03,   59.1305E-12
C:/temp/dataset/3/11_8.odb,Step-1,Increment      1: Step Time =    1.000,"PART-1-1",            33,          -15.,           30.,            0.,NA,NA,"",   971.584E-03,  -909.548E-03,  -341.610E-03,   62.3562E-12
C:/temp/dataset/3/11_8.odb,Step-1,Increment      1: Step Time =    1.000,"PART-1-1",            34,          -15.,          22.5,            0.,NA,NA,"",   866.091E-03,  -796.242E-03,  -340.754E-03,   59.0235E-12
C:/temp/dataset/3/11_8.odb,Step-1,Increment      1: Step Time =    1.000,"PART-1-1",            35,          -7.5,           20.,            0.,NA,NA,"",   792.580E-03,  -759.329E-03,  -227.163E-03,   55.1511E-12
C:/temp/dataset/3/11_8.odb,Step-1,Increment      1: Step Time =    1.000,"PART-1-1",            36,          -10.,           20.,            0.,NA,NA,"",   803.950E-03,  -759.044E-03,  -264.931E-03,   57.4727E-12
C:/temp/dataset/3/11_8.odb,Step-1,Increment      1: Step Time =    1.000,"PART-1-1",            37,         -12.5,           20.,            0.,NA,NA,"",   816.910E-03,  -758.758E-03,  -302.700E-03,   58.4535E-12
C:/temp/dataset/3/11_8.odb,Step-1,Increment      1: Step Time =    1.000,"PART-1-1",            38,           2.5,           20.,            0.,NA,NA,"",   764.267E-03,  -760.470E-03,  -76.0880E-03,   325.704E-12
C:/temp/dataset/3/11_8.odb,Step-1,Increment      1: Step Time =    1.000,"PART-1-1",            39,            0.,           20.,            0.,NA,NA,"",   768.664E-03,  -760.185E-03,  -113.857E-03,   108.724E-12
C:/temp/dataset/3/11_8.odb,Step-1,Increment      1: Step Time =    1.000,"PART-1-1",            40,          -2.5,           20.,            0.,NA,NA,"",   774.879E-03,  -759.900E-03,  -151.625E-03,   37.3981E-12
C:/temp/dataset/3/11_8.odb,Step-1,Increment      1: Step Time =    1.000,"PART-1-1",            41,            5.,           15.,            0.,NA,NA,"",   686.257E-03,  -685.218E-03,  -37.7488E-03,   29.6585E-09
C:/temp/dataset/3/11_8.odb,Step-1,Increment      1: Step Time =    1.000,"PART-1-1",            42,            5.,          17.5,            0.,NA,NA,"",   723.987E-03,  -722.987E-03,  -38.0341E-03,   9.36442E-09
C:/temp/dataset/3/11_8.odb,Step-1,Increment      1: Step Time =    1.000,"PART-1-1",            43,            5.,           7.5,            0.,NA,NA,"",   573.099E-03,  -571.910E-03,  -36.8930E-03,   919.244E-09
C:/temp/dataset/3/11_8.odb,Step-1,Increment      1: Step Time =    1.000,"PART-1-1",            44,            5.,           10.,            0.,NA,NA,"",   610.813E-03,  -609.680E-03,  -37.1783E-03,   166.834E-09
C:/temp/dataset/3/11_8.odb,Step-1,Increment      1: Step Time =    1.000,"PART-1-1",            45,   533.333E-03,            5.,            0.,NA,NA,"",   543.664E-03,  -533.616E-03,  -104.042E-03,   823.268E-09
C:/temp/dataset/3/11_8.odb,Step-1,Increment      1: Step Time =    1.000,"PART-1-1",            46,       2.76667,            5.,            0.,NA,NA,"",   538.485E-03,  -533.873E-03,  -70.3237E-03,   2.67207E-06
C:/temp/dataset/3/11_8.odb,Step-1,Increment      1: Step Time =    1.000,"PART-1-1",            47,      -6.16667,            5.,            0.,NA,NA,"",   570.996E-03,  -532.851E-03,  -205.197E-03,   27.6187E-09
C:/temp/dataset/3/11_8.odb,Step-1,Increment      1: Step Time =    1.000,"PART-1-1",            48,      -3.93333,            5.,            0.,NA,NA,"",   560.006E-03,  -533.106E-03,  -171.478E-03,   14.4624E-09
C:/temp/dataset/3/11_8.odb,Step-1,Increment      1: Step Time =    1.000,"PART-1-1",            49,      -12.8000,            5.,            0.,NA,NA,"",   613.483E-03,  -532.095E-03,  -305.347E-03,   2.37408E-09
C:/temp/dataset/3/11_8.odb,Step-1,Increment      1: Step Time =    1.000,"PART-1-1",            50,      -10.6000,            5.,            0.,NA,NA,"",   597.869E-03,  -532.346E-03,  -272.131E-03,   10.1153E-09
C:/temp/dataset/3/11_8.odb,Step-1,Increment      1: Step Time =    1.000,"PART-1-1",            51,          -15.,           2.5,            0.,NA,NA,"",   598.804E-03,  -494.100E-03,  -338.277E-03,   2.52937E-09
C:/temp/dataset/3/11_8.odb,Step-1,Increment      1: Step Time =    1.000,"PART-1-1",            52,          -15.,          -2.5,            0.,NA,NA,"",   537.848E-03,  -418.610E-03,  -337.707E-03,   2.56491E-09
C:/temp/dataset/3/11_8.odb,Step-1,Increment      1: Step Time =    1.000,"PART-1-1",            53,      -10.5333,           -5.,            0.,NA,NA,"",   467.266E-03,  -381.374E-03,  -269.985E-03,   10.8052E-09
C:/temp/dataset/3/11_8.odb,Step-1,Increment      1: Step Time =    1.000,"PART-1-1",            54,      -12.7667,           -5.,            0.,NA,NA,"",   487.327E-03,  -381.119E-03,  -303.704E-03,   2.36498E-09
C:/temp/dataset/3/11_8.odb,Step-1,Increment      1: Step Time =    1.000,"PART-1-1",            55,      -3.83333,           -5.,            0.,NA,NA,"",   417.770E-03,  -382.137E-03,  -168.828E-03,   66.3259E-09
C:/temp/dataset/3/11_8.odb,Step-1,Increment      1: Step Time =    1.000,"PART-1-1",            56,      -6.06667,           -5.,            0.,NA,NA,"",   432.273E-03,  -381.883E-03,  -202.547E-03,   32.7565E-09
C:/temp/dataset/3/11_8.odb,Step-1,Increment      1: Step Time =    1.000,"PART-1-1",            57,       2.80000,           -5.,            0.,NA,NA,"",   389.009E-03,  -382.899E-03,  -68.6768E-03,   6.45849E-06
C:/temp/dataset/3/11_8.odb,Step-1,Increment      1: Step Time =    1.000,"PART-1-1",            58,   600.000E-03,           -5.,            0.,NA,NA,"",   395.979E-03,  -382.645E-03,  -101.892E-03,   1.69147E-06
C:/temp/dataset/3/11_8.odb,Step-1,Increment      1: Step Time =    1.000,"PART-1-1",            59,            5.,          -10.,            0.,NA,NA,"",   309.804E-03,  -307.732E-03,  -35.7735E-03,   543.777E-06
C:/temp/dataset/3/11_8.odb,Step-1,Increment      1: Step Time =    1.000,"PART-1-1",            60,            5.,          -7.5,            0.,NA,NA,"",   347.351E-03,  -345.543E-03,  -35.4002E-03,   174.425E-06
C:/temp/dataset/3/11_8.odb,Step-1,Increment      1: Step Time =    1.000,"PART-1-1",            61,            5.,         -17.5,            0.,NA,NA,"",   178.175E-03,  -173.351E-03,  -41.1797E-03,   4.07643E-03
C:/temp/dataset/3/11_8.odb,Step-1,Increment      1: Step Time =    1.000,"PART-1-1",            62,            5.,          -15.,            0.,NA,NA,"",   229.382E-03,  -225.968E-03,  -39.4267E-03,   1.90804E-03
C:/temp/dataset/3/11_8.odb,Step-1,Increment      1: Step Time =    1.000,"PART-1-1",            63,          -2.5,          -20.,            0.,NA,NA,"",   41.1666E-03,  -41.1004E-03,   2.33462E-03,   2.92646E-03
C:/temp/dataset/3/11_8.odb,Step-1,Increment      1: Step Time =    1.000,"PART-1-1",            64,            0.,          -20.,            0.,NA,NA,"",   49.1911E-03,  -49.1899E-03,  -349.564E-06,   4.39004E-03
C:/temp/dataset/3/11_8.odb,Step-1,Increment      1: Step Time =    1.000,"PART-1-1",            65,           2.5,          -20.,            0.,NA,NA,"",   61.9869E-03,  -61.5954E-03,  -6.95603E-03,   10.2120E-03
C:/temp/dataset/3/11_8.odb,Step-1,Increment      1: Step Time =    1.000,"PART-1-1",            66,         -12.5,          -20.,            0.,NA,NA,"",   32.3481E-03,  -32.0666E-03,  -4.25858E-03,   90.6653E-06
C:/temp/dataset/3/11_8.odb,Step-1,Increment      1: Step Time =    1.000,"PART-1-1",            67,          -10.,          -20.,            0.,NA,NA,"",   32.1225E-03,  -32.1203E-03,  -372.962E-06,   243.197E-06
C:/temp/dataset/3/11_8.odb,Step-1,Increment      1: Step Time =    1.000,"PART-1-1",            68,          -7.5,          -20.,            0.,NA,NA,"",   33.3628E-03,  -33.3068E-03,   1.93323E-03,   891.239E-06
C:/temp/dataset/3/11_8.odb,Step-1,Increment      1: Step Time =    1.000,"PART-1-1",            69,          -15.,         -22.5,            0.,NA,NA,"",   28.4074E-03,  -26.7654E-03,  -9.51796E-03,   99.4280E-06
C:/temp/dataset/3/11_8.odb,Step-1,Increment      1: Step Time =    1.000,"PART-1-1",            70,          -15.,         -27.5,            0.,NA,NA,"",   13.3640E-03,  -11.0137E-03,  -7.56929E-03,   1.96978E-03
C:/temp/dataset/3/11_8.odb,Step-1,Increment      1: Step Time =    1.000,"PART-1-1",            71,          12.5,          -30.,            0.,NA,NA,"",            0.,  -5.98340E-39,   11.3778E-39,   5.37444E-03
C:/temp/dataset/3/11_8.odb,Step-1,Increment      1: Step Time =    1.000,"PART-1-1",            72,           10.,          -30.,            0.,NA,NA,"",            0.,  -633.929E-42,   1.94342E-39,   2.49541E-03
C:/temp/dataset/3/11_8.odb,Step-1,Increment      1: Step Time =    1.000,"PART-1-1",            73,           7.5,          -30.,            0.,NA,NA,"",            0.,  -2.68836E-39,  -2.92783E-39,   2.72893E-03
C:/temp/dataset/3/11_8.odb,Step-1,Increment      1: Step Time =    1.000,"PART-1-1",            74,            5.,          -30.,            0.,NA,NA,"",            0.,  -2.66557E-39,  -2.95746E-39,   4.39302E-03
C:/temp/dataset/3/11_8.odb,Step-1,Increment      1: Step Time =    1.000,"PART-1-1",            75,           2.5,          -30.,            0.,NA,NA,"",            0.,  -3.43446E-39,  -2.97912E-39,   5.29782E-03
C:/temp/dataset/3/11_8.odb,Step-1,Increment      1: Step Time =    1.000,"PART-1-1",            76,            0.,          -30.,            0.,NA,NA,"",            0.,  -3.78229E-39,  -1.96302E-39,   5.33122E-03
C:/temp/dataset/3/11_8.odb,Step-1,Increment      1: Step Time =    1.000,"PART-1-1",            77,          -2.5,          -30.,            0.,NA,NA,"",            0.,  -5.01564E-39,  -4.98040E-39,   4.78496E-03
C:/temp/dataset/3/11_8.odb,Step-1,Increment      1: Step Time =    1.000,"PART-1-1",            78,           -5.,          -30.,            0.,NA,NA,"",            0.,  -3.24522E-39,  -164.473E-42,   4.05407E-03
C:/temp/dataset/3/11_8.odb,Step-1,Increment      1: Step Time =    1.000,"PART-1-1",            79,          -7.5,          -30.,            0.,NA,NA,"",            0.,  -2.71149E-39,   79.6092E-42,   3.34552E-03
C:/temp/dataset/3/11_8.odb,Step-1,Increment      1: Step Time =    1.000,"PART-1-1",            80,          -10.,          -30.,            0.,NA,NA,"",            0.,  -2.89622E-39,  -2.66651E-39,   2.79589E-03
C:/temp/dataset/3/11_8.odb,Step-1,Increment      1: Step Time =    1.000,"PART-1-1",            81,         -12.5,          -30.,            0.,NA,NA,"",            0.,  -3.06683E-39,  -2.90996E-39,   2.18171E-03
C:/temp/dataset/3/11_8.odb,Step-1,Increment      1: Step Time =    1.000,"PART-1-1",            82,           15.,          -25.,            0.,NA,NA,"",   85.4600E-03,  -60.8313E-03,   60.0248E-03,   11.3168E-03
C:/temp/dataset/3/11_8.odb,Step-1,Increment      1: Step Time =    1.000,"PART-1-1",            83,           15.,         -27.5,            0.,NA,NA,"",   44.3575E-03,  -28.8280E-03,   33.7125E-03,   13.7343E-03
C:/temp/dataset/3/11_8.odb,Step-1,Increment      1: Step Time =    1.000,"PART-1-1",            84,           15.,         -17.5,            0.,NA,NA,"",   242.658E-03,  -218.286E-03,   105.992E-03,   8.64134E-03
C:/temp/dataset/3/11_8.odb,Step-1,Increment      1: Step Time =    1.000,"PART-1-1",            85,           15.,          -20.,            0.,NA,NA,"",   198.535E-03,  -172.721E-03,   97.8958E-03,   9.37542E-03
C:/temp/dataset/3/11_8.odb,Step-1,Increment      1: Step Time =    1.000,"PART-1-1",            86,           15.,          -10.,            0.,NA,NA,"",   329.275E-03,  -308.505E-03,   115.095E-03,   670.160E-06
C:/temp/dataset/3/11_8.odb,Step-1,Increment      1: Step Time =    1.000,"PART-1-1",            87,           15.,         -12.5,            0.,NA,NA,"",   295.049E-03,  -272.287E-03,   113.637E-03,   2.03393E-03
C:/temp/dataset/3/11_8.odb,Step-1,Increment      1: Step Time =    1.000,"PART-1-1",            88,           15.,          -2.5,            0.,NA,NA,"",   437.414E-03,  -421.929E-03,   115.353E-03,   2.58156E-06
C:/temp/dataset/3/11_8.odb,Step-1,Increment      1: Step Time =    1.000,"PART-1-1",            89,           15.,           -5.,            0.,NA,NA,"",   401.093E-03,  -384.072E-03,   115.604E-03,   31.6319E-06
C:/temp/dataset/3/11_8.odb,Step-1,Increment      1: Step Time =    1.000,"PART-1-1",            90,           15.,            5.,            0.,NA,NA,"",   547.389E-03,  -535.287E-03,   114.469E-03,   1.44261E-06
C:/temp/dataset/3/11_8.odb,Step-1,Increment      1: Step Time =    1.000,"PART-1-1",            91,           15.,           2.5,            0.,NA,NA,"",   510.581E-03,  -497.517E-03,   114.760E-03,   3.33062E-06
C:/temp/dataset/3/11_8.odb,Step-1,Increment      1: Step Time =    1.000,"PART-1-1",            92,           15.,          12.5,            0.,NA,NA,"",   658.466E-03,  -648.591E-03,   113.611E-03,   34.3684E-09
C:/temp/dataset/3/11_8.odb,Step-1,Increment      1: Step Time =    1.000,"PART-1-1",            93,           15.,           10.,            0.,NA,NA,"",   621.351E-03,  -610.822E-03,   113.896E-03,   21.7985E-09
C:/temp/dataset/3/11_8.odb,Step-1,Increment      1: Step Time =    1.000,"PART-1-1",            94,           15.,           20.,            0.,NA,NA,"",   770.195E-03,  -761.897E-03,   112.755E-03,   2.83304E-09
C:/temp/dataset/3/11_8.odb,Step-1,Increment      1: Step Time =    1.000,"PART-1-1",            95,           15.,          17.5,            0.,NA,NA,"",   732.898E-03,  -724.128E-03,   113.041E-03,   9.63198E-09
C:/temp/dataset/3/11_8.odb,Step-1,Increment      1: Step Time =    1.000,"PART-1-1",            96,           15.,          27.5,            0.,NA,NA,"",   882.327E-03,  -875.203E-03,   111.899E-03,   52.5752E-12
C:/temp/dataset/3/11_8.odb,Step-1,Increment      1: Step Time =    1.000,"PART-1-1",            97,           15.,           25.,            0.,NA,NA,"",   844.915E-03,  -837.434E-03,   112.185E-03,   76.1480E-12
C:/temp/dataset/3/11_8.odb,Step-1,Increment      1: Step Time =    1.000,"PART-1-1",            98,           10.,           30.,            0.,NA,NA,"",   913.114E-03,  -912.401E-03,   36.0768E-03,   111.008E-12
C:/temp/dataset/3/11_8.odb,Step-1,Increment      1: Step Time =    1.000,"PART-1-1",            99,          12.5,           30.,            0.,NA,NA,"",   915.669E-03,  -912.686E-03,   73.8455E-03,   50.7154E-12
C:/temp/dataset/3/11_8.odb,Step-1,Increment      1: Step Time =    1.000,"PART-1-1",           100,           2.5,           30.,            0.,NA,NA,"",   914.811E-03,  -911.545E-03,  -77.2293E-03,   76.0547E-12
C:/temp/dataset/3/11_8.odb,Step-1,Increment      1: Step Time =    1.000,"PART-1-1",           101,            5.,           30.,            0.,NA,NA,"",   912.684E-03,  -911.830E-03,  -39.4606E-03,   124.158E-12
C:/temp/dataset/3/11_8.odb,Step-1,Increment      1: Step Time =    1.000,"PART-1-1",           102,           -5.,           30.,            0.,NA,NA,"",   930.408E-03,  -910.689E-03,  -190.535E-03,   56.7257E-12
C:/temp/dataset/3/11_8.odb,Step-1,Increment      1: Step Time =    1.000,"PART-1-1",           103,          -2.5,           30.,            0.,NA,NA,"",   923.695E-03,  -910.974E-03,  -152.767E-03,   49.9866E-12
C:/temp/dataset/3/11_8.odb,Step-1,Increment      1: Step Time =    1.000,"PART-1-1",           104,         -12.5,           30.,            0.,NA,NA,"",   959.227E-03,  -909.833E-03,  -303.841E-03,   60.0977E-12
C:/temp/dataset/3/11_8.odb,Step-1,Increment      1: Step Time =    1.000,"PART-1-1",           105,          -10.,           30.,            0.,NA,NA,"",   948.214E-03,  -910.118E-03,  -266.073E-03,   59.8532E-12
C:/temp/dataset/3/11_8.odb,Step-1,Increment      1: Step Time =    1.000,"PART-1-1",           106,          -15.,          27.5,            0.,NA,NA,"",   936.217E-03,  -871.779E-03,  -341.325E-03,   57.8582E-12
C:/temp/dataset/3/11_8.odb,Step-1,Increment      1: Step Time =    1.000,"PART-1-1",           107,      -12.5013,       25.0052,            0.,NA,NA,"",   887.787E-03,  -834.374E-03,  -303.291E-03,   57.9001E-12
C:/temp/dataset/3/11_8.odb,Step-1,Increment      1: Step Time =    1.000,"PART-1-1",           108,      -10.0028,       27.5014,            0.,NA,NA,"",   911.974E-03,  -872.371E-03,  -265.830E-03,   57.9245E-12
C:/temp/dataset/3/11_8.odb,Step-1,Increment      1: Step Time =    1.000,"PART-1-1",           109,      -2.49865,       22.5268,            0.,NA,NA,"",   812.400E-03,  -798.074E-03,  -151.893E-03,   51.8406E-12
C:/temp/dataset/3/11_8.odb,Step-1,Increment      1: Step Time =    1.000,"PART-1-1",           110,      -2.51000,       27.5279,            0.,NA,NA,"",   886.860E-03,  -873.627E-03,  -152.636E-03,   53.4277E-12
C:/temp/dataset/3/11_8.odb,Step-1,Increment      1: Step Time =    1.000,"PART-1-1",           111,       12.3864,       22.5464,            0.,NA,NA,"",   803.389E-03,  -800.068E-03,   72.9794E-03,   1.23975E-09
C:/temp/dataset/3/11_8.odb,Step-1,Increment      1: Step Time =    1.000,"PART-1-1",           112,       7.35369,       17.5509,            0.,NA,NA,"",   724.029E-03,  -724.025E-03,  -2.48145E-03,   9.64183E-09
C:/temp/dataset/3/11_8.odb,Step-1,Increment      1: Step Time =    1.000,"PART-1-1",           113,       12.3201,       14.9467,            0.,NA,NA,"",   689.110E-03,  -685.248E-03,   72.8455E-03,   15.3884E-09
C:/temp/dataset/3/11_8.odb,Step-1,Increment      1: Step Time =    1.000,"PART-1-1",           114,       13.2599,       7.39194,            0.,NA,NA,"",   577.948E-03,  -571.224E-03,   87.9063E-03,   608.155E-09
C:/temp/dataset/3/11_8.odb,Step-1,Increment      1: Step Time =    1.000,"PART-1-1",           115,       7.60504,      -5.98204,            0.,NA,NA,"",   368.722E-03,  -368.700E-03,   4.03651E-03,   115.612E-06
C:/temp/dataset/3/11_8.odb,Step-1,Increment      1: Step Time =    1.000,"PART-1-1",           116,       7.71062,      -13.7665,            0.,NA,NA,"",   248.919E-03,  -248.819E-03,   7.05922E-03,   450.538E-06
C:/temp/dataset/3/11_8.odb,Step-1,Increment      1: Step Time =    1.000,"PART-1-1",           117,       11.7208,      -22.4938,            0.,NA,NA,"",   99.1714E-03,  -93.6818E-03,   32.5375E-03,   9.86523E-03
C:/temp/dataset/3/11_8.odb,Step-1,Increment      1: Step Time =    1.000,"PART-1-1",           118,       2.59328,       2.74806,            0.,NA,NA,"",   505.107E-03,  -499.850E-03,  -72.6853E-03,   2.29857E-06
C:/temp/dataset/3/11_8.odb,Step-1,Increment      1: Step Time =    1.000,"PART-1-1",           119,      -1.32361,      -2.98462,            0.,NA,NA,"",   433.187E-03,  -412.852E-03,  -131.165E-03,   676.827E-09
C:/temp/dataset/3/11_8.odb,Step-1,Increment      1: Step Time =    1.000,"PART-1-1",           120,      -6.00563,       3.11026,            0.,NA,NA,"",   543.492E-03,  -504.338E-03,  -202.550E-03,   25.9382E-09
C:/temp/dataset/3/11_8.odb,Step-1,Increment      1: Step Time =    1.000,"PART-1-1",           121,      -10.4102,       2.53863,            0.,NA,NA,"",   563.544E-03,  -495.206E-03,  -268.985E-03,   9.11935E-09
C:/temp/dataset/3/11_8.odb,Step-1,Increment      1: Step Time =    1.000,"PART-1-1",           122,      -12.6184,  -43.2983E-03,            0.,NA,NA,"",   546.931E-03,  -455.972E-03,  -302.031E-03,   4.70375E-09
C:/temp/dataset/3/11_8.odb,Step-1,Increment      1: Step Time =    1.000,"PART-1-1",           123,      -3.88272,       3.23189,            0.,NA,NA,"",   534.352E-03,  -506.417E-03,  -170.513E-03,   129.661E-09
C:/temp/dataset/3/11_8.odb,Step-1,Increment      1: Step Time =    1.000,"PART-1-1",           124,       2.98144,      -22.7363,            0.,NA,NA,"",   57.2244E-03,  -55.6757E-03,  -13.2232E-03,   10.1052E-03
C:/temp/dataset/3/11_8.odb,Step-1,Increment      1: Step Time =    1.000,"PART-1-1",           125,      -2.42987,      -22.6294,            0.,NA,NA,"",   38.4846E-03,  -38.4703E-03,  -1.04891E-03,   3.73343E-03
C:/temp/dataset/3/11_8.odb,Step-1,Increment      1: Step Time =    1.000,"PART-1-1",           126,      -9.97348,      -22.5672,            0.,NA,NA,"",   27.4986E-03,  -27.4864E-03,  -818.724E-06,   1.14822E-03
C:/temp/dataset/3/11_8.odb,Step-1,Increment      1: Step Time =    1.000,"PART-1-1",           127,      -12.4895,      -25.0402,            0.,NA,NA,"",   19.7605E-03,  -19.4325E-03,  -3.58568E-03,   1.40729E-03
C:/temp/dataset/3/11_8.odb,Step-1,Increment      1: Step Time =    1.000,"PART-1-1",           128,       12.8561,      -14.2595,            0.,NA,NA,"",   262.295E-03,  -248.492E-03,   83.9662E-03,   2.81670E-03
C:/temp/dataset/3/11_8.odb,Step-1,Increment      1: Step Time =    1.000,"PART-1-1",           129,       12.7281,      -7.33650,            0.,NA,NA,"",   357.743E-03,  -348.309E-03,   81.6137E-03,   203.791E-06
C:/temp/dataset/3/11_8.odb,Step-1,Increment      1: Step Time =    1.000,"PART-1-1",           130,       12.6427,  -96.8002E-03,            0.,NA,NA,"",   464.846E-03,  -458.008E-03,   79.4371E-03,   2.26538E-06
C:/temp/dataset/3/11_8.odb,Step-1,Increment      1: Step Time =    1.000,"PART-1-1",           131,       7.13014,       10.3328,            0.,NA,NA,"",   614.972E-03,  -614.951E-03,  -5.03498E-03,   207.005E-09
C:/temp/dataset/3/11_8.odb,Step-1,Increment      1: Step Time =    1.000,"PART-1-1",           132,       4.95005,       27.5805,            0.,NA,NA,"",   876.183E-03,  -875.272E-03,  -39.9390E-03,   53.8797E-12
C:/temp/dataset/3/11_8.odb,Step-1,Increment      1: Step Time =    1.000,"PART-1-1",           133,      -4.99957,       22.5148,            0.,NA,NA,"",   819.849E-03,  -797.607E-03,  -189.675E-03,   51.0784E-12
C:/temp/dataset/3/11_8.odb,Step-1,Increment      1: Step Time =    1.000,"PART-1-1",           134,      -7.50186,       22.5094,            0.,NA,NA,"",   829.058E-03,  -797.240E-03,  -227.477E-03,   54.5672E-12
C:/temp/dataset/3/11_8.odb,Step-1,Increment      1: Step Time =    1.000,"PART-1-1",           135,       4.93744,       22.5898,            0.,NA,NA,"",   800.852E-03,  -799.874E-03,  -39.5601E-03,   393.087E-12
C:/temp/dataset/3/11_8.odb,Step-1,Increment      1: Step Time =    1.000,"PART-1-1",           136,       2.47758,       22.5593,            0.,NA,NA,"",   802.806E-03,  -799.132E-03,  -76.7188E-03,   209.861E-12
C:/temp/dataset/3/11_8.odb,Step-1,Increment      1: Step Time =    1.000,"PART-1-1",           137,  -4.46696E-03,       22.5388,            0.,NA,NA,"",   806.665E-03,  -798.539E-03,  -114.214E-03,   70.0925E-12
C:/temp/dataset/3/11_8.odb,Step-1,Increment      1: Step Time =    1.000,"PART-1-1",           138,       7.20686,       12.6699,            0.,NA,NA,"",   650.282E-03,  -650.269E-03,  -4.14272E-03,   24.7936E-09
C:/temp/dataset/3/11_8.odb,Step-1,Increment      1: Step Time =    1.000,"PART-1-1",           139,       7.30679,       15.0771,            0.,NA,NA,"",   686.652E-03,  -686.646E-03,  -2.90772E-03,   15.8689E-09
C:/temp/dataset/3/11_8.odb,Step-1,Increment      1: Step Time =    1.000,"PART-1-1",           140,       7.52839,       5.66323,            0.,NA,NA,"",   544.452E-03,  -544.450E-03,   1.51287E-03,   2.10642E-06
C:/temp/dataset/3/11_8.odb,Step-1,Increment      1: Step Time =    1.000,"PART-1-1",           141,       7.20823,       7.96221,            0.,NA,NA,"",   579.157E-03,  -579.146E-03,  -3.58500E-03,   1.01921E-06
C:/temp/dataset/3/11_8.odb,Step-1,Increment      1: Step Time =    1.000,"PART-1-1",           142,      -1.77433,       3.17490,            0.,NA,NA,"",   524.463E-03,  -505.797E-03,  -138.674E-03,   422.849E-09
C:/temp/dataset/3/11_8.odb,Step-1,Increment      1: Step Time =    1.000,"PART-1-1",           143,   347.975E-03,       3.01142,            0.,NA,NA,"",   514.733E-03,  -503.571E-03,  -106.614E-03,   1.06687E-06
C:/temp/dataset/3/11_8.odb,Step-1,Increment      1: Step Time =    1.000,"PART-1-1",           144,      -8.17775,       2.85153,            0.,NA,NA,"",   552.773E-03,  -500.185E-03,  -235.315E-03,   6.61653E-09
C:/temp/dataset/3/11_8.odb,Step-1,Increment      1: Step Time =    1.000,"PART-1-1",           145,      -8.45397,      -3.03463,            0.,NA,NA,"",   475.591E-03,  -411.284E-03,  -238.814E-03,   9.50744E-09
C:/temp/dataset/3/11_8.odb,Step-1,Increment      1: Step Time =    1.000,"PART-1-1",           146,      -12.6978,       2.46856,            0.,NA,NA,"",   579.695E-03,  -493.887E-03,  -303.515E-03,   5.95849E-09
C:/temp/dataset/3/11_8.odb,Step-1,Increment      1: Step Time =    1.000,"PART-1-1",           147,      -10.5225,      -2.72745,            0.,NA,NA,"",   495.720E-03,  -415.686E-03,  -270.080E-03,   8.90753E-09
C:/temp/dataset/3/11_8.odb,Step-1,Increment      1: Step Time =    1.000,"PART-1-1",           148,      -12.7265,      -2.55241,            0.,NA,NA,"",   516.552E-03,  -418.077E-03,  -303.377E-03,   5.93542E-09
C:/temp/dataset/3/11_8.odb,Step-1,Increment      1: Step Time =    1.000,"PART-1-1",           149,      -3.80700,      -2.48494,            0.,NA,NA,"",   452.725E-03,  -420.113E-03,  -168.717E-03,   177.325E-09
C:/temp/dataset/3/11_8.odb,Step-1,Increment      1: Step Time =    1.000,"PART-1-1",           150,      -6.26959,      -2.94549,            0.,NA,NA,"",   461.347E-03,  -412.879E-03,  -205.845E-03,   20.2040E-09
C:/temp/dataset/3/11_8.odb,Step-1,Increment      1: Step Time =    1.000,"PART-1-1",           151,       2.97297,      -3.34056,            0.,NA,NA,"",   413.312E-03,  -407.967E-03,  -66.2517E-03,   4.42312E-06
C:/temp/dataset/3/11_8.odb,Step-1,Increment      1: Step Time =    1.000,"PART-1-1",           152,   836.982E-03,      -3.21922,            0.,NA,NA,"",   421.238E-03,  -409.556E-03,  -98.5162E-03,   1.45275E-06
C:/temp/dataset/3/11_8.odb,Step-1,Increment      1: Step Time =    1.000,"PART-1-1",           153,       7.27849,      -10.7647,            0.,NA,NA,"",   296.514E-03,  -296.514E-03,  -293.749E-06,   448.130E-06
C:/temp/dataset/3/11_8.odb,Step-1,Increment      1: Step Time =    1.000,"PART-1-1",           154,       7.20650,      -8.25133,            0.,NA,NA,"",   334.566E-03,  -334.561E-03,  -1.75968E-03,   258.622E-06
C:/temp/dataset/3/11_8.odb,Step-1,Increment      1: Step Time =    1.000,"PART-1-1",           155,       7.07274,      -17.3233,            0.,NA,NA,"",   180.052E-03,  -180.034E-03,  -2.52581E-03,   6.82725E-03
C:/temp/dataset/3/11_8.odb,Step-1,Increment      1: Step Time =    1.000,"PART-1-1",           156,       6.55788,      -15.2577,            0.,NA,NA,"",   222.148E-03,  -221.849E-03,  -11.5190E-03,   1.55696E-03
C:/temp/dataset/3/11_8.odb,Step-1,Increment      1: Step Time =    1.000,"PART-1-1",           157,      -7.46685,      -22.5818,            0.,NA,NA,"",   29.5584E-03,  -29.5498E-03,   715.647E-06,   1.81801E-03
C:/temp/dataset/3/11_8.odb,Step-1,Increment      1: Step Time =    1.000,"PART-1-1",           158,      -4.95694,      -22.5955,            0.,NA,NA,"",   33.1848E-03,  -33.1777E-03,   686.142E-06,   2.62182E-03
C:/temp/dataset/3/11_8.odb,Step-1,Increment      1: Step Time =    1.000,"PART-1-1",           159,   146.162E-03,      -22.6598,            0.,NA,NA,"",   46.9923E-03,  -46.6819E-03,  -5.39205E-03,   6.12073E-03
C:/temp/dataset/3/11_8.odb,Step-1,Increment      1: Step Time =    1.000,"PART-1-1",           160,      -12.4860,      -22.5306,            0.,NA,NA,"",   27.0956E-03,  -26.7665E-03,  -4.20987E-03,   440.766E-06
C:/temp/dataset/3/11_8.odb,Step-1,Increment      1: Step Time =    1.000,"PART-1-1",           161,       9.96020,      -27.7814,            0.,NA,NA,"",   12.9801E-03,  -12.6387E-03,   2.95740E-03,   4.25452E-03
C:/temp/dataset/3/11_8.odb,Step-1,Increment      1: Step Time =    1.000,"PART-1-1",           162,       7.44077,      -27.8946,            0.,NA,NA,"",   12.4313E-03,  -12.2385E-03,  -2.18119E-03,   4.21325E-03
C:/temp/dataset/3/11_8.odb,Step-1,Increment      1: Step Time =    1.000,"PART-1-1",           163,       4.93217,      -27.8625,            0.,NA,NA,"",   14.8948E-03,  -14.1464E-03,  -4.66209E-03,   5.39953E-03
C:/temp/dataset/3/11_8.odb,Step-1,Increment      1: Step Time =    1.000,"PART-1-1",           164,       2.47767,      -27.7470,            0.,NA,NA,"",   17.0271E-03,  -16.3138E-03,  -4.87672E-03,   5.73803E-03
C:/temp/dataset/3/11_8.odb,Step-1,Increment      1: Step Time =    1.000,"PART-1-1",           165,   19.5837E-03,      -27.6625,            0.,NA,NA,"",   17.0973E-03,  -16.7142E-03,  -3.59899E-03,   5.26539E-03
C:/temp/dataset/3/11_8.odb,Step-1,Increment      1: Step Time =    1.000,"PART-1-1",           166,      -2.46955,      -27.6154,            0.,NA,NA,"",   15.6794E-03,  -15.5299E-03,  -2.15945E-03,   4.48559E-03
C:/temp/dataset/3/11_8.odb,Step-1,Increment      1: Step Time =    1.000,"PART-1-1",           167,      -4.97450,      -27.5844,            0.,NA,NA,"",   13.7084E-03,  -13.6602E-03,  -1.14846E-03,   3.73166E-03
C:/temp/dataset/3/11_8.odb,Step-1,Increment      1: Step Time =    1.000,"PART-1-1",           168,      -7.48283,      -27.5594,            0.,NA,NA,"",   11.8420E-03,  -11.8204E-03,  -715.421E-06,   3.14399E-03
C:/temp/dataset/3/11_8.odb,Step-1,Increment      1: Step Time =    1.000,"PART-1-1",           169,       12.2865,      -25.1793,            0.,NA,NA,"",   53.1136E-03,  -47.0273E-03,   24.6878E-03,   6.46933E-03
C:/temp/dataset/3/11_8.odb,Step-1,Increment      1: Step Time =    1.000,"PART-1-1",           170,       11.6753,      -16.4340,            0.,NA,NA,"",   222.762E-03,  -213.672E-03,   62.9861E-03,   6.74444E-03
C:/temp/dataset/3/11_8.odb,Step-1,Increment      1: Step Time =    1.000,"PART-1-1",           171,       11.9685,      -19.5802,            0.,NA,NA,"",   165.167E-03,  -156.779E-03,   51.9647E-03,   11.2020E-03
C:/temp/dataset/3/11_8.odb,Step-1,Increment      1: Step Time =    1.000,"PART-1-1",           172,       13.3291,      -9.93034,            0.,NA,NA,"",   322.061E-03,  -309.015E-03,   90.7359E-03,   346.997E-06
C:/temp/dataset/3/11_8.odb,Step-1,Increment      1: Step Time =    1.000,"PART-1-1",           173,       13.4212,      -12.1607,            0.,NA,NA,"",   290.922E-03,  -275.969E-03,   92.0680E-03,   957.857E-06
C:/temp/dataset/3/11_8.odb,Step-1,Increment      1: Step Time =    1.000,"PART-1-1",           174,       12.9633,      -2.52247,            0.,NA,NA,"",   429.760E-03,  -421.358E-03,   84.5616E-03,   18.7037E-06
C:/temp/dataset/3/11_8.odb,Step-1,Increment      1: Step Time =    1.000,"PART-1-1",           175,       13.1247,      -4.84738,            0.,NA,NA,"",   395.890E-03,  -386.154E-03,   87.2591E-03,   58.0367E-06
C:/temp/dataset/3/11_8.odb,Step-1,Increment      1: Step Time =    1.000,"PART-1-1",           176,       13.1131,       5.12757,            0.,NA,NA,"",   543.834E-03,  -536.999E-03,   85.9462E-03,   1.43490E-06
C:/temp/dataset/3/11_8.odb,Step-1,Increment      1: Step Time =    1.000,"PART-1-1",           177,       12.1418,       2.60140,            0.,NA,NA,"",   503.832E-03,  -498.725E-03,   71.5586E-03,   1.73418E-06
C:/temp/dataset/3/11_8.odb,Step-1,Increment      1: Step Time =    1.000,"PART-1-1",           178,       12.1760,       12.1629,            0.,NA,NA,"",   647.082E-03,  -643.176E-03,   70.9861E-03,   39.7156E-09
C:/temp/dataset/3/11_8.odb,Step-1,Increment      1: Step Time =    1.000,"PART-1-1",           179,       13.0236,       9.64002,            0.,NA,NA,"",   610.972E-03,  -605.159E-03,   84.0793E-03,   205.197E-09
C:/temp/dataset/3/11_8.odb,Step-1,Increment      1: Step Time =    1.000,"PART-1-1",           180,       12.3784,       20.0377,            0.,NA,NA,"",   765.668E-03,  -762.166E-03,   73.1450E-03,   4.20057E-09
C:/temp/dataset/3/11_8.odb,Step-1,Increment      1: Step Time =    1.000,"PART-1-1",           181,       12.3660,       17.5135,            0.,NA,NA,"",   727.726E-03,  -724.031E-03,   73.2456E-03,   10.2453E-09
C:/temp/dataset/3/11_8.odb,Step-1,Increment      1: Step Time =    1.000,"PART-1-1",           182,       12.4264,       25.0333,            0.,NA,NA,"",   840.844E-03,  -837.643E-03,   73.3001E-03,   258.430E-12
C:/temp/dataset/3/11_8.odb,Step-1,Increment      1: Step Time =    1.000,"PART-1-1",           183,       7.43491,       27.5684,            0.,NA,NA,"",   875.376E-03,  -875.372E-03,  -2.39772E-03,   66.8809E-12
C:/temp/dataset/3/11_8.odb,Step-1,Increment      1: Step Time =    1.000,"PART-1-1",           184,  -17.4965E-03,       27.5503,            0.,NA,NA,"",   881.778E-03,  -874.249E-03,  -114.983E-03,   62.8253E-12
C:/temp/dataset/3/11_8.odb,Step-1,Increment      1: Step Time =    1.000,"PART-1-1",           185,       2.47067,       27.5656,            0.,NA,NA,"",   878.182E-03,  -874.764E-03,  -77.3945E-03,   76.8708E-12
C:/temp/dataset/3/11_8.odb,Step-1,Increment      1: Step Time =    1.000,"PART-1-1",           186,      -7.50286,       27.5043,            0.,NA,NA,"",   902.008E-03,  -872.700E-03,  -228.062E-03,   56.3379E-12
C:/temp/dataset/3/11_8.odb,Step-1,Increment      1: Step Time =    1.000,"PART-1-1",           187,      -5.00635,       27.5119,            0.,NA,NA,"",   893.607E-03,  -873.099E-03,  -190.347E-03,   53.7517E-12
C:/temp/dataset/3/11_8.odb,Step-1,Increment      1: Step Time =    1.000,"PART-1-1",           188,      -12.5019,       27.5019,            0.,NA,NA,"",   923.423E-03,  -872.093E-03,  -303.585E-03,   58.7907E-12
C:/temp/dataset/3/11_8.odb,Step-1,Increment      1: Step Time =    1.000,"PART-1-1",           189,      -12.5001,       22.5034,            0.,NA,NA,"",   852.255E-03,  -796.579E-03,  -302.987E-03,   58.3018E-12
C:/temp/dataset/3/11_8.odb,Step-1,Increment      1: Step Time =    1.000,"PART-1-1",           190,      -5.00429,       25.0191,            0.,NA,NA,"",   856.780E-03,  -835.440E-03,  -190.032E-03,   52.2554E-12
C:/temp/dataset/3/11_8.odb,Step-1,Increment      1: Step Time =    1.000,"PART-1-1",           191,  -15.9173E-03,       25.0642,            0.,NA,NA,"",   844.512E-03,  -836.690E-03,  -114.675E-03,   71.0826E-12
C:/temp/dataset/3/11_8.odb,Step-1,Increment      1: Step Time =    1.000,"PART-1-1",           192,       9.74355,       15.0604,            0.,NA,NA,"",   687.509E-03,  -686.672E-03,   33.9075E-03,   16.0628E-09
C:/temp/dataset/3/11_8.odb,Step-1,Increment      1: Step Time =    1.000,"PART-1-1",           193,       9.51986,       12.6989,            0.,NA,NA,"",   651.699E-03,  -650.971E-03,   30.7976E-03,   40.7604E-09
C:/temp/dataset/3/11_8.odb,Step-1,Increment      1: Step Time =    1.000,"PART-1-1",           194,       12.1898,      -11.7554,            0.,NA,NA,"",   291.647E-03,  -281.899E-03,   74.7691E-03,   381.597E-06
C:/temp/dataset/3/11_8.odb,Step-1,Increment      1: Step Time =    1.000,"PART-1-1",           195,       9.78251,      -13.4248,            0.,NA,NA,"",   259.105E-03,  -256.102E-03,   39.3340E-03,   799.528E-06
C:/temp/dataset/3/11_8.odb,Step-1,Increment      1: Step Time =    1.000,"PART-1-1",           196,       7.24032,      -19.5057,            0.,NA,NA,"",   126.948E-03,  -126.948E-03,  -115.564E-06,   11.3759E-03
C:/temp/dataset/3/11_8.odb,Step-1,Increment      1: Step Time =    1.000,"PART-1-1",           197,      -10.0066,  -139.817E-03,            0.,NA,NA,"",   525.172E-03,  -454.813E-03,  -262.586E-03,   8.02866E-09
C:/temp/dataset/3/11_8.odb,Step-1,Increment      1: Step Time =    1.000,"PART-1-1",           198,      -8.39380,      -1.43672,            0.,NA,NA,"",   496.259E-03,  -435.416E-03,  -238.088E-03,   10.0743E-09
C:/temp/dataset/3/11_8.odb,Step-1,Increment      1: Step Time =    1.000,"PART-1-1",           199,      -5.07121,  -530.035E-03,            0.,NA,NA,"",   487.227E-03,  -449.484E-03,  -188.027E-03,   110.818E-09
C:/temp/dataset/3/11_8.odb,Step-1,Increment      1: Step Time =    1.000,"PART-1-1",           200,      -12.5003,      -27.5198,            0.,NA,NA,"",   10.2932E-03,  -10.0248E-03,  -2.33514E-03,   2.65412E-03
C:/temp/dataset/3/11_8.odb,Step-1,Increment      1: Step Time =    1.000,"PART-1-1",           201,       8.97180,      -8.86122,            0.,NA,NA,"",   326.414E-03,  -325.416E-03,   25.5097E-03,   305.077E-06
C:/temp/dataset/3/11_8.odb,Step-1,Increment      1: Step Time =    1.000,"PART-1-1",           202,      -2.50561,       25.0360,            0.,NA,NA,"",   849.737E-03,  -835.980E-03,  -152.285E-03,   55.3379E-12
C:/temp/dataset/3/11_8.odb,Step-1,Increment      1: Step Time =    1.000,"PART-1-1",           203,      -7.50383,       25.0106,            0.,NA,NA,"",   865.539E-03,  -835.026E-03,  -227.792E-03,   54.8531E-12
C:/temp/dataset/3/11_8.odb,Step-1,Increment      1: Step Time =    1.000,"PART-1-1",           204,       2.46362,       25.0850,            0.,NA,NA,"",   840.841E-03,  -837.288E-03,  -77.2180E-03,   119.688E-12
C:/temp/dataset/3/11_8.odb,Step-1,Increment      1: Step Time =    1.000,"PART-1-1",           205,       9.17638,       10.5785,            0.,NA,NA,"",   619.436E-03,  -618.896E-03,   25.8505E-03,   159.976E-09
C:/temp/dataset/3/11_8.odb,Step-1,Increment      1: Step Time =    1.000,"PART-1-1",           206,       9.65111,       6.46520,            0.,NA,NA,"",   557.816E-03,  -556.810E-03,   33.4901E-03,   1.21917E-06
C:/temp/dataset/3/11_8.odb,Step-1,Increment      1: Step Time =    1.000,"PART-1-1",           207,      -1.99278,       1.34592,            0.,NA,NA,"",   498.730E-03,  -478.157E-03,  -141.763E-03,   494.220E-09
C:/temp/dataset/3/11_8.odb,Step-1,Increment      1: Step Time =    1.000,"PART-1-1",           208,      -5.69490,       1.29843,            0.,NA,NA,"",   516.346E-03,  -477.019E-03,  -197.652E-03,   62.6809E-09
C:/temp/dataset/3/11_8.odb,Step-1,Increment      1: Step Time =    1.000,"PART-1-1",           209,       1.92780,   665.778E-03,            0.,NA,NA,"",   475.542E-03,  -468.332E-03,  -82.4939E-03,   2.00704E-06
C:/temp/dataset/3/11_8.odb,Step-1,Increment      1: Step Time =    1.000,"PART-1-1",           210,       1.26043,      -1.37778,            0.,NA,NA,"",   447.043E-03,  -437.403E-03,  -92.3344E-03,   1.94109E-06
C:/temp/dataset/3/11_8.odb,Step-1,Increment      1: Step Time =    1.000,"PART-1-1",           211,       9.14691,      -16.8280,            0.,NA,NA,"",   196.474E-03,  -194.516E-03,   27.6635E-03,   5.88712E-03
C:/temp/dataset/3/11_8.odb,Step-1,Increment      1: Step Time =    1.000,"PART-1-1",           212,   79.9954E-03,      -25.2148,            0.,NA,NA,"",   33.3743E-03,  -32.8026E-03,  -6.15104E-03,   5.54021E-03
C:/temp/dataset/3/11_8.odb,Step-1,Increment      1: Step Time =    1.000,"PART-1-1",           213,      -9.97865,      -25.0679,            0.,NA,NA,"",   20.0812E-03,  -20.0520E-03,  -1.08252E-03,   2.01353E-03
C:/temp/dataset/3/11_8.odb,Step-1,Increment      1: Step Time =    1.000,"PART-1-1",           214,       12.4671,      -27.6040,            0.,NA,NA,"",   22.5154E-03,  -17.9809E-03,   13.5510E-03,   7.82200E-03
C:/temp/dataset/3/11_8.odb,Step-1,Increment      1: Step Time =    1.000,"PART-1-1",           215,       9.82463,      -25.6838,            0.,NA,NA,"",   35.0923E-03,  -34.6336E-03,   5.65551E-03,   5.06449E-03
C:/temp/dataset/3/11_8.odb,Step-1,Increment      1: Step Time =    1.000,"PART-1-1",           216,       2.56344,      -25.3828,            0.,NA,NA,"",   35.9099E-03,  -34.5119E-03,  -9.92209E-03,   6.67374E-03
C:/temp/dataset/3/11_8.odb,Step-1,Increment      1: Step Time =    1.000,"PART-1-1",           217,      -2.44121,      -25.1518,            0.,NA,NA,"",   29.0768E-03,  -28.9515E-03,  -2.69691E-03,   4.35876E-03
C:/temp/dataset/3/11_8.odb,Step-1,Increment      1: Step Time =    1.000,"PART-1-1",           218,      -4.95889,      -25.1139,            0.,NA,NA,"",   25.1654E-03,  -25.1505E-03,  -866.287E-06,   3.33969E-03
C:/temp/dataset/3/11_8.odb,Step-1,Increment      1: Step Time =    1.000,"PART-1-1",           219,       10.3279,  -771.646E-03,            0.,NA,NA,"",   449.765E-03,  -447.555E-03,   44.5401E-03,   8.67801E-06
C:/temp/dataset/3/11_8.odb,Step-1,Increment      1: Step Time =    1.000,"PART-1-1",           220,       10.4049,       4.48083,            0.,NA,NA,"",   528.845E-03,  -526.919E-03,   45.1024E-03,   1.81008E-06
C:/temp/dataset/3/11_8.odb,Step-1,Increment      1: Step Time =    1.000,"PART-1-1",           221,       9.80969,       17.5478,            0.,NA,NA,"",   725.085E-03,  -724.258E-03,   34.6228E-03,   10.8383E-09
C:/temp/dataset/3/11_8.odb,Step-1,Increment      1: Step Time =    1.000,"PART-1-1",           222,       9.88106,       25.0797,            0.,NA,NA,"",   838.778E-03,  -838.054E-03,   34.8414E-03,   380.964E-12
C:/temp/dataset/3/11_8.odb,Step-1,Increment      1: Step Time =    1.000,"PART-1-1",           223,       9.94975,       27.5346,            0.,NA,NA,"",   875.874E-03,  -875.150E-03,   35.5990E-03,   85.7122E-12
C:/temp/dataset/3/11_8.odb,Step-1,Increment      1: Step Time =    1.000,"PART-1-1",           224,       7.36779,       20.0596,            0.,NA,NA,"",   761.930E-03,  -761.926E-03,  -2.55476E-03,   3.95788E-09
C:/temp/dataset/3/11_8.odb,Step-1,Increment      1: Step Time =    1.000,"PART-1-1",           225,  -693.206E-03,      -1.01900,            0.,NA,NA,"",   459.072E-03,  -442.599E-03,  -121.872E-03,   978.580E-09
C:/temp/dataset/3/11_8.odb,Step-1,Increment      1: Step Time =    1.000,"PART-1-1",           226,      -7.47194,      -25.0831,            0.,NA,NA,"",   22.0951E-03,  -22.0924E-03,  -347.434E-06,   2.64457E-03
C:/temp/dataset/3/11_8.odb,Step-1,Increment      1: Step Time =    1.000,"PART-1-1",           227,       5.28089,       2.25097,            0.,NA,NA,"",   493.690E-03,  -492.649E-03,  -32.0472E-03,   1.14997E-06
C:/temp/dataset/3/11_8.odb,Step-1,Increment      1: Step Time =    1.000,"PART-1-1",           228,       9.26575,       8.45073,            0.,NA,NA,"",   587.403E-03,  -586.762E-03,   27.4430E-03,   639.422E-09
C:/temp/dataset/3/11_8.odb,Step-1,Increment      1: Step Time =    1.000,"PART-1-1",           229,  -81.3472E-03,       1.02952,            0.,NA,NA,"",   486.861E-03,  -473.597E-03,  -112.869E-03,   1.11631E-06
C:/temp/dataset/3/11_8.odb,Step-1,Increment      1: Step Time =    1.000,"PART-1-1",           230,      -7.67687,   831.326E-03,            0.,NA,NA,"",   521.941E-03,  -469.741E-03,  -227.523E-03,   13.0066E-09
C:/temp/dataset/3/11_8.odb,Step-1,Increment      1: Step Time =    1.000,"PART-1-1",           231,      -2.54090,  -531.417E-03,            0.,NA,NA,"",   474.050E-03,  -449.751E-03,  -149.824E-03,   417.321E-09
C:/temp/dataset/3/11_8.odb,Step-1,Increment      1: Step Time =    1.000,"PART-1-1",           232,      -3.83997,       1.55066,            0.,NA,NA,"",   510.086E-03,  -481.038E-03,  -169.675E-03,   186.587E-09
C:/temp/dataset/3/11_8.odb,Step-1,Increment      1: Step Time =    1.000,"PART-1-1",           233,      -6.84494,  -996.203E-03,            0.,NA,NA,"",   491.628E-03,  -442.244E-03,  -214.754E-03,   30.0573E-09
C:/temp/dataset/3/11_8.odb,Step-1,Increment      1: Step Time =    1.000,"PART-1-1",           234,       5.51335,      -3.03354,            0.,NA,NA,"",   413.835E-03,  -412.891E-03,  -27.9426E-03,   12.0478E-06
C:/temp/dataset/3/11_8.odb,Step-1,Increment      1: Step Time =    1.000,"PART-1-1",           235,       9.62476,      -7.14735,            0.,NA,NA,"",   352.940E-03,  -351.206E-03,   34.9482E-03,   196.698E-06
C:/temp/dataset/3/11_8.odb,Step-1,Increment      1: Step Time =    1.000,"PART-1-1",           236,       7.38903,      -25.9371,            0.,NA,NA,"",   30.0171E-03,  -29.6745E-03,  -4.52257E-03,   4.83430E-03
C:/temp/dataset/3/11_8.odb,Step-1,Increment      1: Step Time =    1.000,"PART-1-1",           237,       4.96373,      -25.7856,            0.,NA,NA,"",   32.8239E-03,  -31.3000E-03,  -9.88526E-03,   6.14933E-03
C:/temp/dataset/3/11_8.odb,Step-1,Increment      1: Step Time =    1.000,"PART-1-1",           238,       9.37191,      -21.3805,            0.,NA,NA,"",   102.030E-03,  -101.000E-03,   14.4603E-03,   9.70633E-03
C:/temp/dataset/3/11_8.odb,Step-1,Increment      1: Step Time =    1.000,"PART-1-1",           239,       9.53380,      -19.3691,            0.,NA,NA,"",   145.354E-03,  -143.214E-03,   24.8519E-03,   10.1973E-03
C:/temp/dataset/3/11_8.odb,Step-1,Increment      1: Step Time =    1.000,"PART-1-1",           240,       10.5518,      -5.76730,            0.,NA,NA,"",   375.220E-03,  -372.054E-03,   48.6402E-03,   122.445E-06
C:/temp/dataset/3/11_8.odb,Step-1,Increment      1: Step Time =    1.000,"PART-1-1",           241,       10.8494,      -2.88140,            0.,NA,NA,"",   419.041E-03,  -415.717E-03,   52.6784E-03,   31.6332E-06
C:/temp/dataset/3/11_8.odb,Step-1,Increment      1: Step Time =    1.000,"PART-1-1",           242,       9.33979,       1.27198,            0.,NA,NA,"",   479.223E-03,  -478.322E-03,   29.3739E-03,   2.42242E-06
C:/temp/dataset/3/11_8.odb,Step-1,Increment      1: Step Time =    1.000,"PART-1-1",           243,       9.83335,       20.0603,            0.,NA,NA,"",   763.008E-03,  -762.218E-03,   34.6935E-03,   4.44533E-09
C:/temp/dataset/3/11_8.odb,Step-1,Increment      1: Step Time =    1.000,"PART-1-1",           244,       7.39102,       25.1069,            0.,NA,NA,"",   838.186E-03,  -838.181E-03,  -2.77989E-03,   284.669E-12
C:/temp/dataset/3/11_8.odb,Step-1,Increment      1: Step Time =    1.000,"PART-1-1",           245,       4.93408,       25.0979,            0.,NA,NA,"",   838.714E-03,  -837.764E-03,  -39.8971E-03,   135.279E-12
C:/temp/dataset/3/11_8.odb,Step-1,Increment      1: Step Time =    1.000,"PART-1-1",           246,      -10.0026,       25.0068,            0.,NA,NA,"",   875.905E-03,  -834.684E-03,  -265.542E-03,   56.8608E-12
C:/temp/dataset/3/11_8.odb,Step-1,Increment      1: Step Time =    1.000,"PART-1-1",           247,      -10.0008,       22.5051,            0.,NA,NA,"",   839.869E-03,  -796.890E-03,  -265.230E-03,   56.7225E-12
C:/temp/dataset/3/11_8.odb,Step-1,Increment      1: Step Time =    1.000,"PART-1-1",           248,      -9.99283,      -27.5363,            0.,NA,NA,"",   10.4115E-03,  -10.3746E-03,  -875.698E-06,   2.77588E-03
C:/temp/dataset/3/11_8.odb,Step-1,Increment      1: Step Time =    1.000,"PART-1-1",           249,       3.80746,   187.829E-03,            0.,NA,NA,"",   464.484E-03,  -461.327E-03,  -54.0601E-03,   2.28262E-06
C:/temp/dataset/3/11_8.odb,Step-1,Increment      1: Step Time =    1.000,"PART-1-1",           250,       11.4886,       7.12458,            0.,NA,NA,"",   570.273E-03,  -566.982E-03,   61.1754E-03,   883.027E-09
C:/temp/dataset/3/11_8.odb,Step-1,Increment      1: Step Time =    1.000,"PART-1-1",           251,       5.25951,      -23.9756,            0.,NA,NA,"",   50.7168E-03,  -48.9126E-03,  -13.4073E-03,   6.18811E-03
C:/temp/dataset/3/11_8.odb,Step-1,Increment      1: Step Time =    1.000,"PART-1-1",           252,       9.85798,       22.5791,            0.,NA,NA,"",   801.030E-03,  -800.274E-03,   34.7782E-03,   1.40298E-09
C:/temp/dataset/3/11_8.odb,Step-1,Increment      1: Step Time =    1.000,"PART-1-1",           253,       7.38133,       22.5911,            0.,NA,NA,"",   800.176E-03,  -800.172E-03,  -2.63923E-03,   1.01862E-09
C:/temp/dataset/3/11_8.odb,Step-1,Increment      1: Step Time =    1.000,"PART-1-1",           254,       9.03817,      -10.9527,            0.,NA,NA,"",   295.089E-03,  -293.826E-03,   27.2752E-03,   440.924E-06
C:/temp/dataset/3/11_8.odb,Step-1,Increment      1: Step Time =    1.000,"PART-1-1",           255,       7.30212,      -21.2110,            0.,NA,NA,"",   91.2892E-03,  -91.2205E-03,  -3.53991E-03,   9.10140E-03
C:/temp/dataset/3/11_8.odb,Step-1,Increment      1: Step Time =    1.000,"PART-1-1",           256,       8.48263,      -3.88795,            0.,NA,NA,"",   400.680E-03,  -400.318E-03,   17.0440E-03,   47.1161E-06
C:/temp/dataset/3/11_8.odb,Step-1,Increment      1: Step Time =    1.000,"PART-1-1",           257,       8.48912,      -1.65164,            0.,NA,NA,"",   434.399E-03,  -434.072E-03,   16.8618E-03,   11.5149E-06
C:/temp/dataset/3/11_8.odb,Step-1,Increment      1: Step Time =    1.000,"PART-1-1",           258,       8.19007,       3.36514,            0.,NA,NA,"",   509.946E-03,  -509.810E-03,   11.7680E-03,   2.12096E-06
C:/temp/dataset/3/11_8.odb,Step-1,Increment      1: Step Time =    1.000,"PART-1-1",           259,       6.78208,  -317.133E-03,            0.,NA,NA,"",   454.127E-03,  -454.036E-03,  -9.08283E-03,   5.33899E-06
C:/temp/dataset/3/11_8.odb,Step-1,Increment      1: Step Time =    1.000,"PART-1-1",           260,       11.8604,      -10.2109,            0.,NA,NA,"",   312.654E-03,  -304.843E-03,   69.4471E-03,   416.014E-06
C:/temp/dataset/3/11_8.odb,Step-1,Increment      1: Step Time =    1.000,"PART-1-1",           261,       5.00218,  -627.613E-03,            0.,NA,NA,"",   450.584E-03,  -449.149E-03,  -35.9274E-03,   2.77331E-06
C:/temp/dataset/3/11_8.odb,Step-1,Increment      1: Step Time =    1.000,"PART-1-1",           262,       11.1460,      -8.45072,            0.,NA,NA,"",   336.515E-03,  -331.434E-03,   58.2546E-03,   303.701E-06
C:/temp/dataset/3/11_8.odb,Step-1,Increment      1: Step Time =    1.000,"PART-1-1",           263,       11.7180,       5.54683,            0.,NA,NA,"",   547.028E-03,  -543.173E-03,   64.8206E-03,   1.35500E-06
C:/temp/dataset/3/11_8.odb,Step-1,Increment      1: Step Time =    1.000,"PART-1-1",           264,       5.25136,      -21.5985,            0.,NA,NA,"",   77.1265E-03,  -74.8672E-03,  -18.5311E-03,   7.53414E-03
C:/temp/dataset/3/11_8.odb,Step-1,Increment      1: Step Time =    1.000,"PART-1-1",           265,       12.4723,       27.5096,            0.,NA,NA,"",   878.158E-03,  -875.059E-03,   73.7116E-03,   78.2960E-12
C:/temp/dataset/3/11_8.odb,Step-1,Increment      1: Step Time =    1.000,"PART-1-1",           266,       5.87727,      -22.7682,            0.,NA,NA,"",   65.0345E-03,  -63.5366E-03,  -13.8772E-03,   6.65404E-03
C:/temp/dataset/3/11_8.odb,Step-1,Increment      1: Step Time =    1.000,"PART-1-1",           267,       7.32369,      -22.7299,            0.,NA,NA,"",   68.2151E-03,  -67.9591E-03,  -5.90412E-03,   5.93379E-03
C:/temp/dataset/3/11_8.odb,Step-1,Increment      1: Step Time =    1.000,"PART-1-1",           268,       11.4923,      -4.55460,            0.,NA,NA,"",   395.446E-03,  -390.456E-03,   62.6224E-03,   69.9025E-06
C:/temp/dataset/3/11_8.odb,Step-1,Increment      1: Step Time =    1.000,"PART-1-1",           269,       11.2115,       8.96325,            0.,NA,NA,"",   597.432E-03,  -594.727E-03,   56.7795E-03,   414.331E-09
C:/temp/dataset/3/11_8.odb,Step-1,Increment      1: Step Time =    1.000,"PART-1-1",           270,       10.8046,       10.5255,            0.,NA,NA,"",   620.338E-03,  -618.283E-03,   50.4549E-03,   164.310E-09
C:/temp/dataset/3/11_8.odb,Step-1,Increment      1: Step Time =    1.000,"PART-1-1",           271,       7.35536,      -24.2380,            0.,NA,NA,"",   48.8966E-03,  -48.5510E-03,  -5.80359E-03,   5.23730E-03
C:/temp/dataset/3/11_8.odb,Step-1,Increment      1: Step Time =    1.000,"PART-1-1",           272,      -3.82134,   150.711E-03,            0.,NA,NA,"",   490.053E-03,  -459.904E-03,  -169.234E-03,   211.950E-09
C:/temp/dataset/3/11_8.odb,Step-1,Increment      1: Step Time =    1.000,"PART-1-1",           273,       3.09609,      -1.70207,            0.,NA,NA,"",   437.507E-03,  -432.714E-03,  -64.5825E-03,   2.99445E-06
C:/temp/dataset/3/11_8.odb,Step-1,Increment      1: Step Time =    1.000,"PART-1-1",           274,       4.56419,      -1.78689,            0.,NA,NA,"",   433.676E-03,  -431.597E-03,  -42.4092E-03,   2.99871E-06
C:/temp/dataset/3/11_8.odb,Step-1,Increment      1: Step Time =    1.000,"PART-1-1",           275,       9.44492,      -23.8624,            0.,NA,NA,"",   59.4507E-03,  -59.0395E-03,   6.98005E-03,   6.41554E-03
C:/temp/dataset/3/11_8.odb,Step-1,Increment      1: Step Time =    1.000,"PART-1-1",           276,       8.77427,      -22.6651,            0.,NA,NA,"",   75.2527E-03,  -75.0907E-03,   4.93596E-03,   7.54928E-03
C:/temp/dataset/3/11_8.odb,Step-1,Increment      1: Step Time =    1.000,"PART-1-1",           277,       10.1837,      -9.28900,            0.,NA,NA,"",   321.885E-03,  -318.848E-03,   44.1086E-03,   335.436E-06
C:/temp/dataset/3/11_8.odb,Step-1,Increment      1: Step Time =    1.000,"PART-1-1",           278,       10.4979,      -10.7612,            0.,NA,NA,"",   300.732E-03,  -296.634E-03,   49.4775E-03,   413.648E-06
C:/temp/dataset/3/11_8.odb,Step-1,Increment      1: Step Time =    1.000,"PART-1-1",           279,       11.2325,      -12.6180,            0.,NA,NA,"",   275.994E-03,  -269.119E-03,   61.2194E-03,   526.598E-06
C:/temp/dataset/3/11_8.odb,Step-1,Increment      1: Step Time =    1.000,"PART-1-1",           280,      -13.7500,       22.5017,            0.,NA,NA,"",   858.994E-03,  -796.410E-03,  -321.871E-03,   58.7190E-12
C:/temp/dataset/3/11_8.odb,Step-1,Increment      1: Step Time =    1.000,"PART-1-1",           281,          -15.,         21.25,            0.,NA,NA,"",   848.705E-03,  -777.357E-03,  -340.612E-03,   60.7773E-12
C:/temp/dataset/3/11_8.odb,Step-1,Increment      1: Step Time =    1.000,"PART-1-1",           282,        -13.75,           20.,            0.,NA,NA,"",   823.963E-03,  -758.616E-03,  -321.585E-03,   60.2771E-12
C:/temp/dataset/3/11_8.odb,Step-1,Increment      1: Step Time =    1.000,"PART-1-1",           283,      -12.5000,       21.2517,            0.,NA,NA,"",   834.555E-03,  -777.669E-03,  -302.844E-03,   58.4267E-12
C:/temp/dataset/3/11_8.odb,Step-1,Increment      1: Step Time =    1.000,"PART-1-1",           284,        -11.25,           30.,            0.,NA,NA,"",   953.549E-03,  -909.976E-03,  -284.957E-03,   59.9616E-12
C:/temp/dataset/3/11_8.odb,Step-1,Increment      1: Step Time =    1.000,"PART-1-1",           285,      -12.5009,       28.7510,            0.,NA,NA,"",   941.306E-03,  -890.963E-03,  -303.713E-03,   59.5001E-12
C:/temp/dataset/3/11_8.odb,Step-1,Increment      1: Step Time =    1.000,"PART-1-1",           286,      -11.2523,       27.5017,            0.,NA,NA,"",   917.522E-03,  -872.232E-03,  -284.707E-03,   58.3036E-12
C:/temp/dataset/3/11_8.odb,Step-1,Increment      1: Step Time =    1.000,"PART-1-1",           287,      -10.0014,       28.7507,            0.,NA,NA,"",   930.079E-03,  -891.245E-03,  -265.951E-03,   58.8657E-12
C:/temp/dataset/3/11_8.odb,Step-1,Increment      1: Step Time =    1.000,"PART-1-1",           288,      -8.75282,       27.5029,            0.,NA,NA,"",   906.808E-03,  -872.535E-03,  -246.946E-03,   57.1222E-12
C:/temp/dataset/3/11_8.odb,Step-1,Increment      1: Step Time =    1.000,"PART-1-1",           289,      -10.0027,       26.2541,            0.,NA,NA,"",   893.923E-03,  -853.527E-03,  -265.686E-03,   57.4075E-12
C:/temp/dataset/3/11_8.odb,Step-1,Increment      1: Step Time =    1.000,"PART-1-1",           290,      -8.75320,       25.0087,            0.,NA,NA,"",   870.533E-03,  -834.855E-03,  -246.667E-03,   55.8718E-12
C:/temp/dataset/3/11_8.odb,Step-1,Increment      1: Step Time =    1.000,"PART-1-1",           291,      -7.50334,       26.2575,            0.,NA,NA,"",   883.761E-03,  -853.863E-03,  -227.927E-03,   55.6070E-12
C:/temp/dataset/3/11_8.odb,Step-1,Increment      1: Step Time =    1.000,"PART-1-1",           292,  -10.1921E-03,       23.8015,            0.,NA,NA,"",   825.585E-03,  -817.615E-03,  -114.445E-03,   74.5101E-12
C:/temp/dataset/3/11_8.odb,Step-1,Increment      1: Step Time =    1.000,"PART-1-1",           293,       1.23656,       22.5490,            0.,NA,NA,"",   804.520E-03,  -798.836E-03,  -95.4664E-03,   125.276E-12
C:/temp/dataset/3/11_8.odb,Step-1,Increment      1: Step Time =    1.000,"PART-1-1",           294,       2.47060,       23.8222,            0.,NA,NA,"",   821.822E-03,  -818.210E-03,  -76.9684E-03,   110.615E-12
C:/temp/dataset/3/11_8.odb,Step-1,Increment      1: Step Time =    1.000,"PART-1-1",           295,       1.22385,       25.0746,            0.,NA,NA,"",   842.471E-03,  -836.989E-03,  -95.9466E-03,   95.1864E-12
C:/temp/dataset/3/11_8.odb,Step-1,Increment      1: Step Time =    1.000,"PART-1-1",           296,       13.7132,       25.0166,            0.,NA,NA,"",   842.658E-03,  -837.539E-03,   92.7425E-03,   118.837E-12
C:/temp/dataset/3/11_8.odb,Step-1,Increment      1: Step Time =    1.000,"PART-1-1",           297,           15.,         26.25,            0.,NA,NA,"",   863.617E-03,  -856.318E-03,   112.042E-03,   46.7539E-12
C:/temp/dataset/3/11_8.odb,Step-1,Increment      1: Step Time =    1.000,"PART-1-1",           298,       13.7362,       27.5048,            0.,NA,NA,"",   880.038E-03,  -875.131E-03,   92.8056E-03,   59.1915E-12
C:/temp/dataset/3/11_8.odb,Step-1,Increment      1: Step Time =    1.000,"PART-1-1",           299,       12.4494,       26.2714,            0.,NA,NA,"",   859.500E-03,  -856.351E-03,   73.5059E-03,   129.755E-12
C:/temp/dataset/3/11_8.odb,Step-1,Increment      1: Step Time =    1.000,"PART-1-1",           300,       6.19248,       27.5744,            0.,NA,NA,"",   875.578E-03,  -875.322E-03,  -21.1684E-03,   53.7312E-12
C:/temp/dataset/3/11_8.odb,Step-1,Increment      1: Step Time =    1.000,"PART-1-1",           301,       7.46746,       28.7842,            0.,NA,NA,"",   893.746E-03,  -893.744E-03,  -2.04481E-03,   58.2291E-12
C:/temp/dataset/3/11_8.odb,Step-1,Increment      1: Step Time =    1.000,"PART-1-1",           302,          6.25,           30.,            0.,NA,NA,"",   912.205E-03,  -911.973E-03,  -20.5762E-03,   129.913E-12
C:/temp/dataset/3/11_8.odb,Step-1,Increment      1: Step Time =    1.000,"PART-1-1",           303,       4.97503,       28.7903,            0.,NA,NA,"",   894.433E-03,  -893.551E-03,  -39.6998E-03,   68.4916E-12
C:/temp/dataset/3/11_8.odb,Step-1,Increment      1: Step Time =    1.000,"PART-1-1",           304,       11.0878,       17.5306,            0.,NA,NA,"",   726.150E-03,  -724.144E-03,   53.9342E-03,   8.81495E-09
C:/temp/dataset/3/11_8.odb,Step-1,Increment      1: Step Time =    1.000,"PART-1-1",           305,       12.3722,       18.7756,            0.,NA,NA,"",   746.695E-03,  -743.099E-03,   73.1953E-03,   6.67779E-09
C:/temp/dataset/3/11_8.odb,Step-1,Increment      1: Step Time =    1.000,"PART-1-1",           306,       11.1059,       20.0490,            0.,NA,NA,"",   764.097E-03,  -762.192E-03,   53.9192E-03,   3.71306E-09
C:/temp/dataset/3/11_8.odb,Step-1,Increment      1: Step Time =    1.000,"PART-1-1",           307,       9.82152,       18.8041,            0.,NA,NA,"",   744.046E-03,  -743.238E-03,   34.6581E-03,   7.16418E-09
C:/temp/dataset/3/11_8.odb,Step-1,Increment      1: Step Time =    1.000,"PART-1-1",           308,       9.63171,       13.8797,            0.,NA,NA,"",   669.604E-03,  -668.822E-03,   32.3526E-03,   19.4274E-09
C:/temp/dataset/3/11_8.odb,Step-1,Increment      1: Step Time =    1.000,"PART-1-1",           309,       8.52517,       15.0687,            0.,NA,NA,"",   686.834E-03,  -686.659E-03,   15.4999E-03,   12.3995E-09
C:/temp/dataset/3/11_8.odb,Step-1,Increment      1: Step Time =    1.000,"PART-1-1",           310,       7.25683,       13.8735,            0.,NA,NA,"",   668.466E-03,  -668.457E-03,  -3.52522E-03,   11.6362E-09
C:/temp/dataset/3/11_8.odb,Step-1,Increment      1: Step Time =    1.000,"PART-1-1",           311,       8.36336,       12.6844,            0.,NA,NA,"",   650.756E-03,  -650.620E-03,   13.3275E-03,   21.9131E-09
C:/temp/dataset/3/11_8.odb,Step-1,Increment      1: Step Time =    1.000,"PART-1-1",           312,       14.0118,       9.82001,            0.,NA,NA,"",   615.996E-03,  -607.991E-03,   98.9880E-03,   100.183E-09
C:/temp/dataset/3/11_8.odb,Step-1,Increment      1: Step Time =    1.000,"PART-1-1",           313,           15.,         11.25,            0.,NA,NA,"",   639.899E-03,  -629.707E-03,   113.754E-03,   12.3514E-09
C:/temp/dataset/3/11_8.odb,Step-1,Increment      1: Step Time =    1.000,"PART-1-1",           314,       13.5880,       12.3315,            0.,NA,NA,"",   652.445E-03,  -645.884E-03,   92.2987E-03,   23.3533E-09
C:/temp/dataset/3/11_8.odb,Step-1,Increment      1: Step Time =    1.000,"PART-1-1",           315,       12.5998,       10.9015,            0.,NA,NA,"",   628.964E-03,  -624.167E-03,   77.5327E-03,   117.666E-09
C:/temp/dataset/3/11_8.odb,Step-1,Increment      1: Step Time =    1.000,"PART-1-1",           316,       4.40482,  -219.892E-03,            0.,NA,NA,"",   457.456E-03,  -455.238E-03,  -44.9937E-03,   1.87583E-06
C:/temp/dataset/3/11_8.odb,Step-1,Increment      1: Step Time =    1.000,"PART-1-1",           317,       3.45177,  -757.122E-03,            0.,NA,NA,"",   450.938E-03,  -447.020E-03,  -59.3215E-03,   2.37670E-06
C:/temp/dataset/3/11_8.odb,Step-1,Increment      1: Step Time =    1.000,"PART-1-1",           318,       3.83014,      -1.74448,            0.,NA,NA,"",   435.454E-03,  -432.155E-03,  -53.4958E-03,   2.73597E-06
C:/temp/dataset/3/11_8.odb,Step-1,Increment      1: Step Time =    1.000,"PART-1-1",           319,       4.78319,      -1.20725,            0.,NA,NA,"",   442.112E-03,  -440.373E-03,  -39.1691E-03,   2.63066E-06
C:/temp/dataset/3/11_8.odb,Step-1,Increment      1: Step Time =    1.000,"PART-1-1",           320,       10.3408,      -10.0251,            0.,NA,NA,"",   311.278E-03,  -307.743E-03,   46.7764E-03,   371.341E-06
C:/temp/dataset/3/11_8.odb,Step-1,Increment      1: Step Time =    1.000,"PART-1-1",           321,       11.1792,      -10.4860,            0.,NA,NA,"",   306.560E-03,  -300.727E-03,   59.5214E-03,   371.530E-06
C:/temp/dataset/3/11_8.odb,Step-1,Increment      1: Step Time =    1.000,"PART-1-1",           322,       11.5032,      -9.33080,            0.,NA,NA,"",   324.446E-03,  -318.096E-03,   63.8736E-03,   341.552E-06
C:/temp/dataset/3/11_8.odb,Step-1,Increment      1: Step Time =    1.000,"PART-1-1",           323,       10.6649,      -8.86986,            0.,NA,NA,"",   329.144E-03,  -325.138E-03,   51.1914E-03,   311.257E-06
C:/temp/dataset/3/11_8.odb,Step-1,Increment      1: Step Time =    1.000,"PART-1-1",           324,       9.41034,      -12.1888,            0.,NA,NA,"",   276.900E-03,  -274.866E-03,   33.5012E-03,   405.738E-06
C:/temp/dataset/3/11_8.odb,Step-1,Increment      1: Step Time =    1.000,"PART-1-1",           325,       10.5075,      -13.0214,            0.,NA,NA,"",   267.494E-03,  -262.717E-03,   50.3298E-03,   645.616E-06
C:/temp/dataset/3/11_8.odb,Step-1,Increment      1: Step Time =    1.000,"PART-1-1",           326,       10.8652,      -11.6896,            0.,NA,NA,"",   288.143E-03,  -282.769E-03,   55.3885E-03,   420.878E-06
C:/temp/dataset/3/11_8.odb,Step-1,Increment      1: Step Time =    1.000,"PART-1-1",           327,       9.76802,      -10.8570,            0.,NA,NA,"",   297.735E-03,  -295.239E-03,   38.4661E-03,   405.370E-06
C:/temp/dataset/3/11_8.odb,Step-1,Increment      1: Step Time =    1.000,"PART-1-1",           328,       6.12016,      -19.7528,            0.,NA,NA,"",   112.142E-03,  -111.508E-03,  -11.9152E-03,   13.7740E-03
C:/temp/dataset/3/11_8.odb,Step-1,Increment      1: Step Time =    1.000,"PART-1-1",           329,       7.15653,      -18.4145,            0.,NA,NA,"",   151.948E-03,  -151.947E-03,   554.455E-06,   8.24394E-03
C:/temp/dataset/3/11_8.odb,Step-1,Increment      1: Step Time =    1.000,"PART-1-1",           330,       6.03637,      -17.4116,            0.,NA,NA,"",   176.837E-03,  -175.845E-03,  -18.6990E-03,   2.78601E-03
C:/temp/dataset/3/11_8.odb,Step-1,Increment      1: Step Time =    1.000,"PART-1-1",           331,            5.,        -18.75,            0.,NA,NA,"",   147.633E-03,  -143.125E-03,  -36.2021E-03,   9.30495E-03
C:/temp/dataset/3/11_8.odb,Step-1,Increment      1: Step Time =    1.000,"PART-1-1",           332,       13.3604,      -22.4969,            0.,NA,NA,"",   115.609E-03,  -103.218E-03,   52.0718E-03,   9.81148E-03
C:/temp/dataset/3/11_8.odb,Step-1,Increment      1: Step Time =    1.000,"PART-1-1",           333,           15.,        -21.25,            0.,NA,NA,"",   173.560E-03,  -146.990E-03,   92.2883E-03,   9.61062E-03
C:/temp/dataset/3/11_8.odb,Step-1,Increment      1: Step Time =    1.000,"PART-1-1",           334,       13.4842,      -19.7901,            0.,NA,NA,"",   179.998E-03,  -164.789E-03,   72.4149E-03,   9.99554E-03
C:/temp/dataset/3/11_8.odb,Step-1,Increment      1: Step Time =    1.000,"PART-1-1",           335,       11.8446,      -21.0370,            0.,NA,NA,"",   131.571E-03,  -124.738E-03,   41.8488E-03,   10.8504E-03
C:/temp/dataset/3/11_8.odb,Step-1,Increment      1: Step Time =    1.000,"PART-1-1",           336,       1.65000,            5.,            0.,NA,NA,"",   540.818E-03,  -533.744E-03,  -87.1827E-03,   1.63494E-06
C:/temp/dataset/3/11_8.odb,Step-1,Increment      1: Step Time =    1.000,"PART-1-1",           337,   440.654E-03,       4.00571,            0.,NA,NA,"",   529.182E-03,  -518.594E-03,  -105.328E-03,   766.885E-09
C:/temp/dataset/3/11_8.odb,Step-1,Increment      1: Step Time =    1.000,"PART-1-1",           338,       1.47063,       2.87974,            0.,NA,NA,"",   509.657E-03,  -501.710E-03,  -89.6499E-03,   1.58914E-06
C:/temp/dataset/3/11_8.odb,Step-1,Increment      1: Step Time =    1.000,"PART-1-1",           339,       2.67998,       3.87403,            0.,NA,NA,"",   521.785E-03,  -516.863E-03,  -71.5051E-03,   1.82566E-06
C:/temp/dataset/3/11_8.odb,Step-1,Increment      1: Step Time =    1.000,"PART-1-1",           340,      -1.46180,      -3.99231,            0.,NA,NA,"",   419.319E-03,  -397.622E-03,  -133.137E-03,   407.102E-09
C:/temp/dataset/3/11_8.odb,Step-1,Increment      1: Step Time =    1.000,"PART-1-1",           341,     -500.E-03,           -5.,            0.,NA,NA,"",   400.453E-03,  -382.518E-03,  -118.500E-03,   1.00178E-06
C:/temp/dataset/3/11_8.odb,Step-1,Increment      1: Step Time =    1.000,"PART-1-1",           342,   718.491E-03,      -4.10961,            0.,NA,NA,"",   408.579E-03,  -396.101E-03,  -100.204E-03,   1.25133E-06
C:/temp/dataset/3/11_8.odb,Step-1,Increment      1: Step Time =    1.000,"PART-1-1",           343,  -243.313E-03,      -3.10192,            0.,NA,NA,"",   426.939E-03,  -411.204E-03,  -114.841E-03,   1.04336E-06
C:/temp/dataset/3/11_8.odb,Step-1,Increment      1: Step Time =    1.000,"PART-1-1",           344,      -3.82017,      -3.74247,            0.,NA,NA,"",   435.184E-03,  -401.125E-03,  -168.772E-03,   88.1508E-09
C:/temp/dataset/3/11_8.odb,Step-1,Increment      1: Step Time =    1.000,"PART-1-1",           345,      -2.71667,           -5.,            0.,NA,NA,"",   411.364E-03,  -382.265E-03,  -151.968E-03,   193.052E-09
C:/temp/dataset/3/11_8.odb,Step-1,Increment      1: Step Time =    1.000,"PART-1-1",           346,      -2.56530,      -2.73478,            0.,NA,NA,"",   442.651E-03,  -416.482E-03,  -149.941E-03,   444.521E-09
C:/temp/dataset/3/11_8.odb,Step-1,Increment      1: Step Time =    1.000,"PART-1-1",           347,      -13.8092,  -21.6491E-03,            0.,NA,NA,"",   557.218E-03,  -456.163E-03,  -320.011E-03,   4.67825E-09
C:/temp/dataset/3/11_8.odb,Step-1,Increment      1: Step Time =    1.000,"PART-1-1",           348,      -12.6581,       1.21263,            0.,NA,NA,"",   563.232E-03,  -474.930E-03,  -302.773E-03,   4.44065E-09
C:/temp/dataset/3/11_8.odb,Step-1,Increment      1: Step Time =    1.000,"PART-1-1",           349,      -13.8489,       2.48428,            0.,NA,NA,"",   589.070E-03,  -493.993E-03,  -320.896E-03,   3.72398E-09
C:/temp/dataset/3/11_8.odb,Step-1,Increment      1: Step Time =    1.000,"PART-1-1",           350,          -15.,          1.25,            0.,NA,NA,"",   583.246E-03,  -475.227E-03,  -338.135E-03,   4.19253E-09
C:/temp/dataset/3/11_8.odb,Step-1,Increment      1: Step Time =    1.000,"PART-1-1",           351,      -8.84172,   345.754E-03,            0.,NA,NA,"",   523.213E-03,  -462.277E-03,  -245.054E-03,   8.64440E-09
C:/temp/dataset/3/11_8.odb,Step-1,Increment      1: Step Time =    1.000,"PART-1-1",           352,      -9.20019,  -788.270E-03,            0.,NA,NA,"",   510.681E-03,  -445.114E-03,  -250.337E-03,   8.46637E-09
C:/temp/dataset/3/11_8.odb,Step-1,Increment      1: Step Time =    1.000,"PART-1-1",           353,      -7.61937,      -1.21646,            0.,NA,NA,"",   493.800E-03,  -438.830E-03,  -226.421E-03,   16.8503E-09
C:/temp/dataset/3/11_8.odb,Step-1,Increment      1: Step Time =    1.000,"PART-1-1",           354,      -7.26090,  -82.4387E-03,            0.,NA,NA,"",   506.785E-03,  -455.992E-03,  -221.138E-03,   18.2573E-09
C:/temp/dataset/3/11_8.odb,Step-1,Increment      1: Step Time =    1.000,"PART-1-1",           355,      -12.7466,      -3.77621,            0.,NA,NA,"",   501.812E-03,  -399.598E-03,  -303.540E-03,   3.61487E-09
C:/temp/dataset/3/11_8.odb,Step-1,Increment      1: Step Time =    1.000,"PART-1-1",           356,      -13.8633,      -2.52621,            0.,NA,NA,"",   527.028E-03,  -418.344E-03,  -320.542E-03,   3.72193E-09
C:/temp/dataset/3/11_8.odb,Step-1,Increment      1: Step Time =    1.000,"PART-1-1",           357,          -15.,         -3.75,            0.,NA,NA,"",   523.202E-03,  -399.737E-03,  -337.565E-03,   889.873E-12
C:/temp/dataset/3/11_8.odb,Step-1,Increment      1: Step Time =    1.000,"PART-1-1",           358,      -13.8833,           -5.,            0.,NA,NA,"",   497.911E-03,  -380.992E-03,  -320.563E-03,   959.733E-12
C:/temp/dataset/3/11_8.odb,Step-1,Increment      1: Step Time =    1.000,"PART-1-1",           359,      -5.03830,      -2.71522,            0.,NA,NA,"",   456.665E-03,  -416.496E-03,  -187.281E-03,   90.6661E-09
C:/temp/dataset/3/11_8.odb,Step-1,Increment      1: Step Time =    1.000,"PART-1-1",           360,      -4.43911,      -1.50749,            0.,NA,NA,"",   469.964E-03,  -434.798E-03,  -178.372E-03,   140.652E-09
C:/temp/dataset/3/11_8.odb,Step-1,Increment      1: Step Time =    1.000,"PART-1-1",           361,      -5.95808,  -763.119E-03,            0.,NA,NA,"",   489.237E-03,  -445.864E-03,  -201.390E-03,   62.1137E-09
C:/temp/dataset/3/11_8.odb,Step-1,Increment      1: Step Time =    1.000,"PART-1-1",           362,      -6.55726,      -1.97085,            0.,NA,NA,"",   476.481E-03,  -427.561E-03,  -210.299E-03,   22.9896E-09
C:/temp/dataset/3/11_8.odb,Step-1,Increment      1: Step Time =    1.000,"PART-1-1",           363,          6.25,          -30.,            0.,NA,NA,"",            0.,  -3.00103E-39,  -3.20483E-39,   3.54954E-03
C:/temp/dataset/3/11_8.odb,Step-1,Increment      1: Step Time =    1.000,"PART-1-1",           364,       7.47038,      -28.9473,            0.,NA,NA,"",   5.23837E-03,  -5.15376E-03,  -937.692E-06,   3.47771E-03
C:/temp/dataset/3/11_8.odb,Step-1,Increment      1: Step Time =    1.000,"PART-1-1",           365,       6.18647,      -27.8786,            0.,NA,NA,"",   13.6471E-03,  -13.1209E-03,  -3.75318E-03,   4.77097E-03
C:/temp/dataset/3/11_8.odb,Step-1,Increment      1: Step Time =    1.000,"PART-1-1",           366,       4.96608,      -28.9312,            0.,NA,NA,"",   6.94679E-03,  -6.61007E-03,  -2.13654E-03,   4.88383E-03
C:/temp/dataset/3/11_8.odb,Step-1,Increment      1: Step Time =    1.000,"PART-1-1",           367,       3.70492,      -27.8047,            0.,NA,NA,"",   16.1788E-03,  -15.3733E-03,  -5.04128E-03,   5.58305E-03
C:/temp/dataset/3/11_8.odb,Step-1,Increment      1: Step Time =    1.000,"PART-1-1",           368,       2.48883,      -28.8735,            0.,NA,NA,"",   8.44356E-03,  -8.10622E-03,  -2.36284E-03,   5.50979E-03
C:/temp/dataset/3/11_8.odb,Step-1,Increment      1: Step Time =    1.000,"PART-1-1",           369,          3.75,          -30.,            0.,NA,NA,"",            0.,  -4.07127E-39,  -4.78079E-39,   4.85009E-03
C:/temp/dataset/3/11_8.odb,Step-1,Increment      1: Step Time =    1.000,"PART-1-1",           370,      -3.72203,      -27.5999,            0.,NA,NA,"",   14.7173E-03,  -14.6322E-03,  -1.58075E-03,   4.09950E-03
C:/temp/dataset/3/11_8.odb,Step-1,Increment      1: Step Time =    1.000,"PART-1-1",           371,      -4.98725,      -28.7922,            0.,NA,NA,"",   7.14452E-03,  -7.10244E-03,  -774.344E-06,   3.85446E-03
C:/temp/dataset/3/11_8.odb,Step-1,Increment      1: Step Time =    1.000,"PART-1-1",           372,         -3.75,          -30.,            0.,NA,NA,"",            0.,  -4.09176E-39,  -2.45414E-39,   4.41505E-03
C:/temp/dataset/3/11_8.odb,Step-1,Increment      1: Step Time =    1.000,"PART-1-1",           373,      -2.48478,      -28.8077,            0.,NA,NA,"",   8.18489E-03,  -8.08767E-03,  -1.25780E-03,   4.59551E-03
C:/temp/dataset/3/11_8.odb,Step-1,Increment      1: Step Time =    1.000,"PART-1-1",           374,      -13.7501,      -27.5099,            0.,NA,NA,"",   10.7478E-03,  -10.0974E-03,  -3.68201E-03,   1.88390E-03
C:/temp/dataset/3/11_8.odb,Step-1,Increment      1: Step Time =    1.000,"PART-1-1",           375,          -15.,        -28.75,            0.,NA,NA,"",   7.36795E-03,  -5.94066E-03,  -4.35836E-03,   3.35665E-03
C:/temp/dataset/3/11_8.odb,Step-1,Increment      1: Step Time =    1.000,"PART-1-1",           376,        -13.75,          -30.,            0.,NA,NA,"",            0.,  -839.973E-42,  -3.70918E-39,   3.53600E-03
C:/temp/dataset/3/11_8.odb,Step-1,Increment      1: Step Time =    1.000,"PART-1-1",           377,      -12.5001,      -28.7599,            0.,NA,NA,"",   4.68043E-03,  -4.55229E-03,  -1.08770E-03,   2.51012E-03
C:/temp/dataset/3/11_8.odb,Step-1,Increment      1: Step Time =    1.000,"PART-1-1",           378,       8.15833,      -10.8587,            0.,NA,NA,"",   295.503E-03,  -295.193E-03,   13.5392E-03,   378.456E-06
C:/temp/dataset/3/11_8.odb,Step-1,Increment      1: Step Time =    1.000,"PART-1-1",           379,       9.00498,      -9.90697,            0.,NA,NA,"",   310.742E-03,  -309.620E-03,   26.3753E-03,   342.580E-06
C:/temp/dataset/3/11_8.odb,Step-1,Increment      1: Step Time =    1.000,"PART-1-1",           380,       8.08915,      -8.55627,            0.,NA,NA,"",   330.235E-03,  -330.021E-03,   11.8762E-03,   261.182E-06
C:/temp/dataset/3/11_8.odb,Step-1,Increment      1: Step Time =    1.000,"PART-1-1",           381,       7.24249,      -9.50802,            0.,NA,NA,"",   315.655E-03,  -315.653E-03,  -1.03540E-03,   311.043E-06
C:/temp/dataset/3/11_8.odb,Step-1,Increment      1: Step Time =    1.000,"PART-1-1",           382,       13.9816,      -2.51124,            0.,NA,NA,"",   433.326E-03,  -421.642E-03,   99.9496E-03,   8.87564E-06
C:/temp/dataset/3/11_8.odb,Step-1,Increment      1: Step Time =    1.000,"PART-1-1",           383,           15.,         -1.25,            0.,NA,NA,"",   455.644E-03,  -440.839E-03,   115.206E-03,   3.08142E-06
C:/temp/dataset/3/11_8.odb,Step-1,Increment      1: Step Time =    1.000,"PART-1-1",           384,       13.8213,  -48.4001E-03,            0.,NA,NA,"",   469.064E-03,  -458.873E-03,   97.2459E-03,   2.65351E-06
C:/temp/dataset/3/11_8.odb,Step-1,Increment      1: Step Time =    1.000,"PART-1-1",           385,       12.8030,      -1.30964,            0.,NA,NA,"",   447.270E-03,  -439.689E-03,   81.9997E-03,   10.5325E-06
C:/temp/dataset/3/11_8.odb,Step-1,Increment      1: Step Time =    1.000,"PART-1-1",           386,           15.,          1.25,            0.,NA,NA,"",   492.229E-03,  -478.629E-03,   114.907E-03,   4.21055E-06
C:/temp/dataset/3/11_8.odb,Step-1,Increment      1: Step Time =    1.000,"PART-1-1",           387,       13.5709,       2.55070,            0.,NA,NA,"",   506.758E-03,  -498.121E-03,   93.1597E-03,   2.02693E-06
C:/temp/dataset/3/11_8.odb,Step-1,Increment      1: Step Time =    1.000,"PART-1-1",           388,       12.3922,       1.25230,            0.,NA,NA,"",   484.290E-03,  -478.369E-03,   75.4977E-03,   1.08129E-06
C:/temp/dataset/3/11_8.odb,Step-1,Increment      1: Step Time =    1.000,"PART-1-1",           389,      -5.00532,       26.2655,            0.,NA,NA,"",   875.185E-03,  -854.269E-03,  -190.190E-03,   52.9792E-12
C:/temp/dataset/3/11_8.odb,Step-1,Increment      1: Step Time =    1.000,"PART-1-1",           390,      -3.75495,       25.0275,            0.,NA,NA,"",   853.057E-03,  -835.710E-03,  -171.158E-03,   52.7049E-12
C:/temp/dataset/3/11_8.odb,Step-1,Increment      1: Step Time =    1.000,"PART-1-1",           391,      -2.50780,       26.2820,            0.,NA,NA,"",   868.293E-03,  -854.803E-03,  -152.460E-03,   52.6718E-12
C:/temp/dataset/3/11_8.odb,Step-1,Increment      1: Step Time =    1.000,"PART-1-1",           392,      -3.75817,       27.5199,            0.,NA,NA,"",   890.040E-03,  -873.363E-03,  -171.491E-03,   52.8851E-12
C:/temp/dataset/3/11_8.odb,Step-1,Increment      1: Step Time =    1.000,"PART-1-1",           393,      -5.00193,       23.7670,            0.,NA,NA,"",   838.304E-03,  -816.523E-03,  -189.853E-03,   52.2306E-12
C:/temp/dataset/3/11_8.odb,Step-1,Increment      1: Step Time =    1.000,"PART-1-1",           394,      -6.25406,       25.0149,            0.,NA,NA,"",   860.964E-03,  -835.233E-03,  -208.912E-03,   53.7522E-12
C:/temp/dataset/3/11_8.odb,Step-1,Increment      1: Step Time =    1.000,"PART-1-1",           395,      -7.50285,       23.7600,            0.,NA,NA,"",   847.284E-03,  -816.133E-03,  -227.635E-03,   54.6933E-12
C:/temp/dataset/3/11_8.odb,Step-1,Increment      1: Step Time =    1.000,"PART-1-1",           396,      -6.25071,       22.5121,            0.,NA,NA,"",   824.250E-03,  -797.423E-03,  -208.576E-03,   52.8085E-12
C:/temp/dataset/3/11_8.odb,Step-1,Increment      1: Step Time =    1.000,"PART-1-1",           397,      -12.5007,       23.7543,            0.,NA,NA,"",   869.997E-03,  -815.476E-03,  -303.139E-03,   58.0472E-12
C:/temp/dataset/3/11_8.odb,Step-1,Increment      1: Step Time =    1.000,"PART-1-1",           398,      -13.7507,       25.0026,            0.,NA,NA,"",   894.241E-03,  -834.192E-03,  -322.165E-03,   57.7737E-12
C:/temp/dataset/3/11_8.odb,Step-1,Increment      1: Step Time =    1.000,"PART-1-1",           399,          -15.,         23.75,            0.,NA,NA,"",   883.539E-03,  -815.126E-03,  -340.897E-03,   58.3433E-12
C:/temp/dataset/3/11_8.odb,Step-1,Increment      1: Step Time =    1.000,"PART-1-1",           400,       1.22659,       27.5580,            0.,NA,NA,"",   879.781E-03,  -874.507E-03,  -96.1886E-03,   69.5148E-12
C:/temp/dataset/3/11_8.odb,Step-1,Increment      1: Step Time =    1.000,"PART-1-1",           401,       2.48534,       28.7828,            0.,NA,NA,"",   896.495E-03,  -893.155E-03,  -77.3119E-03,   59.1730E-12
C:/temp/dataset/3/11_8.odb,Step-1,Increment      1: Step Time =    1.000,"PART-1-1",           402,          1.25,           30.,            0.,NA,NA,"",   916.456E-03,  -911.402E-03,  -96.1136E-03,   55.7486E-12
C:/temp/dataset/3/11_8.odb,Step-1,Increment      1: Step Time =    1.000,"PART-1-1",           403,  -8.74824E-03,       28.7751,            0.,NA,NA,"",   900.129E-03,  -892.754E-03,  -114.990E-03,   47.8084E-12
C:/temp/dataset/3/11_8.odb,Step-1,Increment      1: Step Time =    1.000,"PART-1-1",           404,  -16.7069E-03,       26.3073,            0.,NA,NA,"",   863.142E-03,  -855.470E-03,  -114.829E-03,   62.4128E-12
C:/temp/dataset/3/11_8.odb,Step-1,Increment      1: Step Time =    1.000,"PART-1-1",           405,       2.46714,       26.3253,            0.,NA,NA,"",   859.510E-03,  -856.026E-03,  -77.3063E-03,   86.5867E-12
C:/temp/dataset/3/11_8.odb,Step-1,Increment      1: Step Time =    1.000,"PART-1-1",           406,       3.70751,       22.5746,            0.,NA,NA,"",   801.615E-03,  -799.503E-03,  -58.1394E-03,   216.116E-12
C:/temp/dataset/3/11_8.odb,Step-1,Increment      1: Step Time =    1.000,"PART-1-1",           407,       2.48879,       21.2797,            0.,NA,NA,"",   783.535E-03,  -779.801E-03,  -76.4034E-03,   185.718E-12
C:/temp/dataset/3/11_8.odb,Step-1,Increment      1: Step Time =    1.000,"PART-1-1",           408,          3.75,           20.,            0.,NA,NA,"",   762.761E-03,  -760.613E-03,  -57.2037E-03,   563.577E-12
C:/temp/dataset/3/11_8.odb,Step-1,Increment      1: Step Time =    1.000,"PART-1-1",           409,       4.96872,       21.2949,            0.,NA,NA,"",   781.286E-03,  -780.315E-03,  -38.9397E-03,   959.826E-12
C:/temp/dataset/3/11_8.odb,Step-1,Increment      1: Step Time =    1.000,"PART-1-1",           410,       10.8479,       12.4309,            0.,NA,NA,"",   649.072E-03,  -647.073E-03,   50.8919E-03,   35.8323E-09
C:/temp/dataset/3/11_8.odb,Step-1,Increment      1: Step Time =    1.000,"PART-1-1",           411,       9.34812,       11.6387,            0.,NA,NA,"",   635.565E-03,  -634.934E-03,   28.3241E-03,   95.1920E-09
C:/temp/dataset/3/11_8.odb,Step-1,Increment      1: Step Time =    1.000,"PART-1-1",           412,       9.99050,       10.5520,            0.,NA,NA,"",   619.765E-03,  -618.590E-03,   38.1527E-03,   163.338E-09
C:/temp/dataset/3/11_8.odb,Step-1,Increment      1: Step Time =    1.000,"PART-1-1",           413,       11.4903,       11.3442,            0.,NA,NA,"",   633.646E-03,  -630.730E-03,   60.7205E-03,   102.012E-09
C:/temp/dataset/3/11_8.odb,Step-1,Increment      1: Step Time =    1.000,"PART-1-1",           414,       7.16850,       11.5014,            0.,NA,NA,"",   632.627E-03,  -632.610E-03,  -4.58886E-03,   64.1539E-09
C:/temp/dataset/3/11_8.odb,Step-1,Increment      1: Step Time =    1.000,"PART-1-1",           415,       6.10343,       12.5850,            0.,NA,NA,"",   649.192E-03,  -648.859E-03,  -20.8031E-03,   17.1790E-09
C:/temp/dataset/3/11_8.odb,Step-1,Increment      1: Step Time =    1.000,"PART-1-1",           416,            5.,         11.25,            0.,NA,NA,"",   629.672E-03,  -628.565E-03,  -37.3209E-03,   73.3399E-09
C:/temp/dataset/3/11_8.odb,Step-1,Increment      1: Step Time =    1.000,"PART-1-1",           417,       6.06507,       10.1664,            0.,NA,NA,"",   612.679E-03,  -612.316E-03,  -21.1067E-03,   76.2691E-09
C:/temp/dataset/3/11_8.odb,Step-1,Increment      1: Step Time =    1.000,"PART-1-1",           418,       14.0565,       5.06378,            0.,NA,NA,"",   545.428E-03,  -536.143E-03,   100.208E-03,   1.18393E-06
C:/temp/dataset/3/11_8.odb,Step-1,Increment      1: Step Time =    1.000,"PART-1-1",           419,       12.6274,       3.86448,            0.,NA,NA,"",   523.816E-03,  -517.862E-03,   78.7528E-03,   1.57470E-06
C:/temp/dataset/3/11_8.odb,Step-1,Increment      1: Step Time =    1.000,"PART-1-1",           420,           15.,          3.75,            0.,NA,NA,"",   528.969E-03,  -516.402E-03,   114.614E-03,   2.35992E-06
C:/temp/dataset/3/11_8.odb,Step-1,Increment      1: Step Time =    1.000,"PART-1-1",           421,       10.0280,       5.47301,            0.,NA,NA,"",   543.287E-03,  -541.864E-03,   39.2963E-03,   1.50766E-06
C:/temp/dataset/3/11_8.odb,Step-1,Increment      1: Step Time =    1.000,"PART-1-1",           422,       11.0614,       5.01383,            0.,NA,NA,"",   537.862E-03,  -535.046E-03,   54.9616E-03,   1.53888E-06
C:/temp/dataset/3/11_8.odb,Step-1,Increment      1: Step Time =    1.000,"PART-1-1",           423,       11.6033,       6.33570,            0.,NA,NA,"",   558.641E-03,  -555.078E-03,   62.9980E-03,   1.08575E-06
C:/temp/dataset/3/11_8.odb,Step-1,Increment      1: Step Time =    1.000,"PART-1-1",           424,       10.5698,       6.79489,            0.,NA,NA,"",   563.886E-03,  -561.896E-03,   47.3327E-03,   992.277E-09
C:/temp/dataset/3/11_8.odb,Step-1,Increment      1: Step Time =    1.000,"PART-1-1",           425,      -4.94418,       3.17107,            0.,NA,NA,"",   538.703E-03,  -505.378E-03,  -186.531E-03,   77.6941E-09
C:/temp/dataset/3/11_8.odb,Step-1,Increment      1: Step Time =    1.000,"PART-1-1",           426,      -3.90803,       4.11594,            0.,NA,NA,"",   547.167E-03,  -519.761E-03,  -170.995E-03,   62.6876E-09
C:/temp/dataset/3/11_8.odb,Step-1,Increment      1: Step Time =    1.000,"PART-1-1",           427,      -5.05000,            5.,            0.,NA,NA,"",   565.276E-03,  -532.979E-03,  -188.337E-03,   7.64593E-09
C:/temp/dataset/3/11_8.odb,Step-1,Increment      1: Step Time =    1.000,"PART-1-1",           428,      -6.08615,       4.05513,            0.,NA,NA,"",   557.230E-03,  -518.595E-03,  -203.873E-03,   15.6860E-09
C:/temp/dataset/3/11_8.odb,Step-1,Increment      1: Step Time =    1.000,"PART-1-1",           429,      -3.86135,       2.39128,            0.,NA,NA,"",   522.206E-03,  -493.728E-03,  -170.094E-03,   152.140E-09
C:/temp/dataset/3/11_8.odb,Step-1,Increment      1: Step Time =    1.000,"PART-1-1",           430,      -5.85027,       2.20434,            0.,NA,NA,"",   529.911E-03,  -490.679E-03,  -200.101E-03,   41.1852E-09
C:/temp/dataset/3/11_8.odb,Step-1,Increment      1: Step Time =    1.000,"PART-1-1",           431,      -4.76744,       1.42454,            0.,NA,NA,"",   513.031E-03,  -479.029E-03,  -183.664E-03,   125.237E-09
C:/temp/dataset/3/11_8.odb,Step-1,Increment      1: Step Time =    1.000,"PART-1-1",           432,      -9.29397,       2.69508,            0.,NA,NA,"",   557.925E-03,  -497.695E-03,  -252.150E-03,   7.28154E-09
C:/temp/dataset/3/11_8.odb,Step-1,Increment      1: Step Time =    1.000,"PART-1-1",           433,      -8.28887,       3.92576,            0.,NA,NA,"",   568.228E-03,  -516.391E-03,  -237.115E-03,   11.3163E-09
C:/temp/dataset/3/11_8.odb,Step-1,Increment      1: Step Time =    1.000,"PART-1-1",           434,          -9.5,            5.,            0.,NA,NA,"",   590.608E-03,  -532.471E-03,  -255.523E-03,   15.5551E-09
C:/temp/dataset/3/11_8.odb,Step-1,Increment      1: Step Time =    1.000,"PART-1-1",           435,      -10.5051,       3.76932,            0.,NA,NA,"",   580.661E-03,  -513.776E-03,  -270.558E-03,   7.05422E-09
C:/temp/dataset/3/11_8.odb,Step-1,Increment      1: Step Time =    1.000,"PART-1-1",           436,      -7.92731,       1.84143,            0.,NA,NA,"",   537.348E-03,  -484.963E-03,  -231.419E-03,   7.71938E-09
C:/temp/dataset/3/11_8.odb,Step-1,Increment      1: Step Time =    1.000,"PART-1-1",           437,      -6.68589,       1.06488,            0.,NA,NA,"",   518.924E-03,  -473.380E-03,  -212.587E-03,   35.7877E-09
C:/temp/dataset/3/11_8.odb,Step-1,Increment      1: Step Time =    1.000,"PART-1-1",           438,      -7.09169,       2.98089,            0.,NA,NA,"",   547.903E-03,  -502.262E-03,  -218.932E-03,   11.7888E-09
C:/temp/dataset/3/11_8.odb,Step-1,Increment      1: Step Time =    1.000,"PART-1-1",           439,      -13.9000,            5.,            0.,NA,NA,"",   621.809E-03,  -531.970E-03,  -321.954E-03,   981.888E-12
C:/temp/dataset/3/11_8.odb,Step-1,Increment      1: Step Time =    1.000,"PART-1-1",           440,          -15.,          3.75,            0.,NA,NA,"",   614.547E-03,  -512.972E-03,  -338.420E-03,   908.425E-12
C:/temp/dataset/3/11_8.odb,Step-1,Increment      1: Step Time =    1.000,"PART-1-1",           441,      -12.7489,       3.73428,            0.,NA,NA,"",   596.522E-03,  -512.991E-03,  -304.431E-03,   3.59832E-09
C:/temp/dataset/3/11_8.odb,Step-1,Increment      1: Step Time =    1.000,"PART-1-1",           442,      -9.48823,      -2.88104,            0.,NA,NA,"",   485.503E-03,  -413.485E-03,  -254.447E-03,   8.27096E-09
C:/temp/dataset/3/11_8.odb,Step-1,Increment      1: Step Time =    1.000,"PART-1-1",           443,      -8.42388,      -2.23568,            0.,NA,NA,"",   485.885E-03,  -423.350E-03,  -238.451E-03,   6.18677E-09
C:/temp/dataset/3/11_8.odb,Step-1,Increment      1: Step Time =    1.000,"PART-1-1",           444,      -10.2645,      -1.43363,            0.,NA,NA,"",   510.270E-03,  -435.249E-03,  -266.333E-03,   6.99893E-09
C:/temp/dataset/3/11_8.odb,Step-1,Increment      1: Step Time =    1.000,"PART-1-1",           445,      -12.6725,      -1.29786,            0.,NA,NA,"",   531.620E-03,  -437.025E-03,  -302.704E-03,   4.42819E-09
C:/temp/dataset/3/11_8.odb,Step-1,Increment      1: Step Time =    1.000,"PART-1-1",           446,          -15.,         -1.25,            0.,NA,NA,"",   552.750E-03,  -437.482E-03,  -337.850E-03,   4.20156E-09
C:/temp/dataset/3/11_8.odb,Step-1,Increment      1: Step Time =    1.000,"PART-1-1",           447,      -6.16813,      -3.97275,            0.,NA,NA,"",   446.775E-03,  -397.381E-03,  -204.196E-03,   15.7363E-09
C:/temp/dataset/3/11_8.odb,Step-1,Increment      1: Step Time =    1.000,"PART-1-1",           448,      -4.95000,           -5.,            0.,NA,NA,"",   424.749E-03,  -382.010E-03,  -185.687E-03,   23.2677E-09
C:/temp/dataset/3/11_8.odb,Step-1,Increment      1: Step Time =    1.000,"PART-1-1",           449,       1.59412,  -355.999E-03,            0.,NA,NA,"",   461.227E-03,  -452.867E-03,  -87.4142E-03,   1.77294E-06
C:/temp/dataset/3/11_8.odb,Step-1,Increment      1: Step Time =    1.000,"PART-1-1",           450,       2.17826,      -1.53992,            0.,NA,NA,"",   442.077E-03,  -435.059E-03,  -78.4582E-03,   2.40823E-06
C:/temp/dataset/3/11_8.odb,Step-1,Increment      1: Step Time =    1.000,"PART-1-1",           451,       2.86763,   426.804E-03,            0.,NA,NA,"",   469.818E-03,  -464.830E-03,  -68.2771E-03,   2.09542E-06
C:/temp/dataset/3/11_8.odb,Step-1,Increment      1: Step Time =    1.000,"PART-1-1",           452,  -387.277E-03,   5.26357E-03,            0.,NA,NA,"",   472.895E-03,  -458.098E-03,  -117.370E-03,   953.796E-09
C:/temp/dataset/3/11_8.odb,Step-1,Increment      1: Step Time =    1.000,"PART-1-1",           453,   283.611E-03,      -1.19839,            0.,NA,NA,"",   452.849E-03,  -440.002E-03,  -107.103E-03,   1.43589E-06
C:/temp/dataset/3/11_8.odb,Step-1,Increment      1: Step Time =    1.000,"PART-1-1",           454,   923.228E-03,   847.652E-03,            0.,NA,NA,"",   480.988E-03,  -470.965E-03,  -97.6815E-03,   1.47805E-06
C:/temp/dataset/3/11_8.odb,Step-1,Increment      1: Step Time =    1.000,"PART-1-1",           455,       6.35531,      -13.1332,            0.,NA,NA,"",   259.278E-03,  -258.832E-03,  -15.2105E-03,   431.298E-06
C:/temp/dataset/3/11_8.odb,Step-1,Increment      1: Step Time =    1.000,"PART-1-1",           456,       7.49455,      -12.2656,            0.,NA,NA,"",   273.310E-03,  -273.290E-03,   3.35284E-03,   220.002E-06
C:/temp/dataset/3/11_8.odb,Step-1,Increment      1: Step Time =    1.000,"PART-1-1",           457,       6.13925,      -10.3824,            0.,NA,NA,"",   302.762E-03,  -302.210E-03,  -18.2786E-03,   376.316E-06
C:/temp/dataset/3/11_8.odb,Step-1,Increment      1: Step Time =    1.000,"PART-1-1",           458,            5.,        -11.25,            0.,NA,NA,"",   290.785E-03,  -288.491E-03,  -36.4501E-03,   748.178E-06
C:/temp/dataset/3/11_8.odb,Step-1,Increment      1: Step Time =    1.000,"PART-1-1",           459,       13.3376,      -16.9670,            0.,NA,NA,"",   231.132E-03,  -215.577E-03,   83.3597E-03,   7.88926E-03
C:/temp/dataset/3/11_8.odb,Step-1,Increment      1: Step Time =    1.000,"PART-1-1",           460,       11.8219,      -18.0071,            0.,NA,NA,"",   195.583E-03,  -186.685E-03,   58.3227E-03,   8.94952E-03
C:/temp/dataset/3/11_8.odb,Step-1,Increment      1: Step Time =    1.000,"PART-1-1",           461,           15.,        -18.75,            0.,NA,NA,"",   222.025E-03,  -196.942E-03,   102.513E-03,   8.34690E-03
C:/temp/dataset/3/11_8.odb,Step-1,Increment      1: Step Time =    1.000,"PART-1-1",           462,       8.42876,      -15.2973,            0.,NA,NA,"",   223.498E-03,  -222.735E-03,   18.4450E-03,   2.91059E-03
C:/temp/dataset/3/11_8.odb,Step-1,Increment      1: Step Time =    1.000,"PART-1-1",           463,       10.4111,      -16.6310,            0.,NA,NA,"",   208.545E-03,  -203.603E-03,   45.1339E-03,   5.83336E-03
C:/temp/dataset/3/11_8.odb,Step-1,Increment      1: Step Time =    1.000,"PART-1-1",           464,       10.7289,      -14.9294,            0.,NA,NA,"",   239.560E-03,  -233.661E-03,   52.8348E-03,   3.16780E-03
C:/temp/dataset/3/11_8.odb,Step-1,Increment      1: Step Time =    1.000,"PART-1-1",           465,       8.74656,      -13.5956,            0.,NA,NA,"",   253.522E-03,  -252.432E-03,   23.4850E-03,   646.616E-06
C:/temp/dataset/3/11_8.odb,Step-1,Increment      1: Step Time =    1.000,"PART-1-1",           466,      -8.72016,      -22.5745,            0.,NA,NA,"",   28.3396E-03,  -28.3391E-03,   166.870E-06,   1.47699E-03
C:/temp/dataset/3/11_8.odb,Step-1,Increment      1: Step Time =    1.000,"PART-1-1",           467,      -7.48342,      -21.2909,            0.,NA,NA,"",   31.9883E-03,  -31.9594E-03,   1.35918E-03,   1.26747E-03
C:/temp/dataset/3/11_8.odb,Step-1,Increment      1: Step Time =    1.000,"PART-1-1",           468,         -8.75,          -20.,            0.,NA,NA,"",   32.5506E-03,  -32.5364E-03,   961.107E-06,   572.448E-06
C:/temp/dataset/3/11_8.odb,Step-1,Increment      1: Step Time =    1.000,"PART-1-1",           469,      -9.98674,      -21.2836,            0.,NA,NA,"",   30.1856E-03,  -30.1804E-03,  -560.617E-06,   653.977E-06
C:/temp/dataset/3/11_8.odb,Step-1,Increment      1: Step Time =    1.000,"PART-1-1",           470,      -4.96670,      -26.3491,            0.,NA,NA,"",   19.8050E-03,  -19.7701E-03,  -1.17400E-03,   3.51123E-03
C:/temp/dataset/3/11_8.odb,Step-1,Increment      1: Step Time =    1.000,"PART-1-1",           471,      -6.21541,      -25.0985,            0.,NA,NA,"",   23.5060E-03,  -23.5017E-03,  -448.107E-06,   2.98843E-03
C:/temp/dataset/3/11_8.odb,Step-1,Increment      1: Step Time =    1.000,"PART-1-1",           472,      -7.47738,      -26.3212,            0.,NA,NA,"",   17.2485E-03,  -17.2367E-03,  -635.531E-06,   2.87887E-03
C:/temp/dataset/3/11_8.odb,Step-1,Increment      1: Step Time =    1.000,"PART-1-1",           473,      -6.22867,      -27.5719,            0.,NA,NA,"",   12.7394E-03,  -12.7100E-03,  -864.774E-06,   3.43379E-03
C:/temp/dataset/3/11_8.odb,Step-1,Increment      1: Step Time =    1.000,"PART-1-1",           474,   49.7896E-03,      -26.4387,            0.,NA,NA,"",   25.5031E-03,  -24.9787E-03,  -5.14483E-03,   5.36454E-03
C:/temp/dataset/3/11_8.odb,Step-1,Increment      1: Step Time =    1.000,"PART-1-1",           475,       1.24862,      -27.7048,            0.,NA,NA,"",   17.3102E-03,  -16.7511E-03,  -4.36366E-03,   5.47785E-03
C:/temp/dataset/3/11_8.odb,Step-1,Increment      1: Step Time =    1.000,"PART-1-1",           476,       2.52056,      -26.5649,            0.,NA,NA,"",   26.3230E-03,  -25.2218E-03,  -7.53404E-03,   6.16276E-03
C:/temp/dataset/3/11_8.odb,Step-1,Increment      1: Step Time =    1.000,"PART-1-1",           477,       1.32172,      -25.2988,            0.,NA,NA,"",   34.8637E-03,  -33.9182E-03,  -8.06446E-03,   6.10401E-03
C:/temp/dataset/3/11_8.odb,Step-1,Increment      1: Step Time =    1.000,"PART-1-1",           478,        -13.75,          -20.,            0.,NA,NA,"",   32.8549E-03,  -32.1483E-03,  -6.77699E-03,   58.6429E-06
C:/temp/dataset/3/11_8.odb,Step-1,Increment      1: Step Time =    1.000,"PART-1-1",           479,          -15.,        -21.25,            0.,NA,NA,"",   31.0135E-03,  -29.5382E-03,  -9.45132E-03,   54.2470E-06
C:/temp/dataset/3/11_8.odb,Step-1,Increment      1: Step Time =    1.000,"PART-1-1",           480,      -13.7430,      -22.5153,            0.,NA,NA,"",   27.5430E-03,  -26.7204E-03,  -6.68113E-03,   178.127E-06
C:/temp/dataset/3/11_8.odb,Step-1,Increment      1: Step Time =    1.000,"PART-1-1",           481,      -12.4930,      -21.2653,            0.,NA,NA,"",   29.8886E-03,  -29.5850E-03,  -4.24907E-03,   176.411E-06
C:/temp/dataset/3/11_8.odb,Step-1,Increment      1: Step Time =    1.000,"PART-1-1",           482,      -11.2297,      -22.5489,            0.,NA,NA,"",   27.0731E-03,  -26.9802E-03,  -2.24105E-03,   789.938E-06
C:/temp/dataset/3/11_8.odb,Step-1,Increment      1: Step Time =    1.000,"PART-1-1",           483,        -11.25,          -20.,            0.,NA,NA,"",   32.0809E-03,  -32.0111E-03,  -2.11556E-03,   87.9579E-06
C:/temp/dataset/3/11_8.odb,Step-1,Increment      1: Step Time =    1.000,"PART-1-1",           484,      -13.7448,      -25.0201,            0.,NA,NA,"",   20.6067E-03,  -19.6961E-03,  -6.05806E-03,   772.712E-06
C:/temp/dataset/3/11_8.odb,Step-1,Increment      1: Step Time =    1.000,"PART-1-1",           485,      -12.4878,      -23.7854,            0.,NA,NA,"",   23.7450E-03,  -23.4017E-03,  -4.02281E-03,   887.927E-06
C:/temp/dataset/3/11_8.odb,Step-1,Increment      1: Step Time =    1.000,"PART-1-1",           486,          -15.,        -23.75,            0.,NA,NA,"",   25.4429E-03,  -23.5779E-03,  -9.56151E-03,   129.356E-06
C:/temp/dataset/3/11_8.odb,Step-1,Increment      1: Step Time =    1.000,"PART-1-1",           487,       13.7335,      -27.5520,            0.,NA,NA,"",   30.3003E-03,  -21.6683E-03,   21.1800E-03,   10.2409E-03
C:/temp/dataset/3/11_8.odb,Step-1,Increment      1: Step Time =    1.000,"PART-1-1",           488,       12.4835,      -28.8020,            0.,NA,NA,"",   8.75475E-03,  -6.21394E-03,   6.16706E-03,   6.77205E-03
C:/temp/dataset/3/11_8.odb,Step-1,Increment      1: Step Time =    1.000,"PART-1-1",           489,         13.75,          -30.,            0.,NA,NA,"",            0.,  -136.953E-42,   17.0322E-39,   11.7344E-03
C:/temp/dataset/3/11_8.odb,Step-1,Increment      1: Step Time =    1.000,"PART-1-1",           490,           15.,        -28.75,            0.,NA,NA,"",   23.7451E-03,  -16.3418E-03,   17.2271E-03,   14.9561E-03
C:/temp/dataset/3/11_8.odb,Step-1,Increment      1: Step Time =    1.000,"PART-1-1",           491,       9.98010,      -28.8907,            0.,NA,NA,"",   4.99107E-03,  -4.74151E-03,   1.55848E-03,   3.23272E-03
C:/temp/dataset/3/11_8.odb,Step-1,Increment      1: Step Time =    1.000,"PART-1-1",           492,       8.70049,      -27.8380,            0.,NA,NA,"",   12.1762E-03,  -12.1761E-03,  -63.2883E-06,   3.87954E-03
C:/temp/dataset/3/11_8.odb,Step-1,Increment      1: Step Time =    1.000,"PART-1-1",           493,          8.75,          -30.,            0.,NA,NA,"",            0.,  -1.93498E-39,   713.545E-42,   2.18870E-03
C:/temp/dataset/3/11_8.odb,Step-1,Increment      1: Step Time =    1.000,"PART-1-1",           494,       11.2136,      -27.6927,            0.,NA,NA,"",   16.0703E-03,  -14.4591E-03,   7.01345E-03,   5.52754E-03
C:/temp/dataset/3/11_8.odb,Step-1,Increment      1: Step Time =    1.000,"PART-1-1",           495,       12.3768,      -26.3916,            0.,NA,NA,"",   36.4528E-03,  -30.8365E-03,   19.4400E-03,   6.84630E-03
C:/temp/dataset/3/11_8.odb,Step-1,Increment      1: Step Time =    1.000,"PART-1-1",           496,       11.0556,      -25.4315,            0.,NA,NA,"",   42.6964E-03,  -40.3777E-03,   13.8790E-03,   5.78960E-03
C:/temp/dataset/3/11_8.odb,Step-1,Increment      1: Step Time =    1.000,"PART-1-1",           497,       9.89242,      -26.7326,            0.,NA,NA,"",   23.1068E-03,  -22.7136E-03,   4.24432E-03,   4.64570E-03
C:/temp/dataset/3/11_8.odb,Step-1,Increment      1: Step Time =    1.000,"PART-1-1",           498,   9.79186E-03,      -28.8313,            0.,NA,NA,"",   8.80696E-03,  -8.60138E-03,  -1.89179E-03,   5.26499E-03
C:/temp/dataset/3/11_8.odb,Step-1,Increment      1: Step Time =    1.000,"PART-1-1",           499,          1.25,          -30.,            0.,NA,NA,"",            0.,  -4.65682E-39,  -4.55876E-39,   5.30776E-03
C:/temp/dataset/3/11_8.odb,Step-1,Increment      1: Step Time =    1.000,"PART-1-1",           500,      -1.18061,      -25.1833,            0.,NA,NA,"",   31.2935E-03,  -31.0033E-03,  -4.25144E-03,   4.94473E-03
C:/temp/dataset/3/11_8.odb,Step-1,Increment      1: Step Time =    1.000,"PART-1-1",           501,      -2.45538,      -26.3836,            0.,NA,NA,"",   22.7975E-03,  -22.6387E-03,  -2.68608E-03,   4.36362E-03
C:/temp/dataset/3/11_8.odb,Step-1,Increment      1: Step Time =    1.000,"PART-1-1",           502,      -1.22498,      -27.6390,            0.,NA,NA,"",   16.5065E-03,  -16.2567E-03,  -2.86042E-03,   4.84363E-03
C:/temp/dataset/3/11_8.odb,Step-1,Increment      1: Step Time =    1.000,"PART-1-1",           503,      -3.70005,      -25.1329,            0.,NA,NA,"",   27.0248E-03,  -26.9775E-03,  -1.59854E-03,   3.82790E-03
C:/temp/dataset/3/11_8.odb,Step-1,Increment      1: Step Time =    1.000,"PART-1-1",           504,      -7.49141,      -28.7797,            0.,NA,NA,"",   6.08351E-03,  -6.06058E-03,  -527.769E-06,   3.21753E-03
C:/temp/dataset/3/11_8.odb,Step-1,Increment      1: Step Time =    1.000,"PART-1-1",           505,         -6.25,          -30.,            0.,NA,NA,"",            0.,  -3.45727E-39,  -1.71004E-39,   3.70130E-03
C:/temp/dataset/3/11_8.odb,Step-1,Increment      1: Step Time =    1.000,"PART-1-1",           506,      -12.4949,      -26.2800,            0.,NA,NA,"",   15.1876E-03,  -14.8826E-03,  -3.02832E-03,   1.95273E-03
C:/temp/dataset/3/11_8.odb,Step-1,Increment      1: Step Time =    1.000,"PART-1-1",           507,          -15.,        -26.25,            0.,NA,NA,"",   18.1947E-03,  -15.8648E-03,  -8.90817E-03,   1.07408E-03
C:/temp/dataset/3/11_8.odb,Step-1,Increment      1: Step Time =    1.000,"PART-1-1",           508,       12.0036,      -23.8365,            0.,NA,NA,"",   74.7859E-03,  -69.1490E-03,   28.4841E-03,   7.74385E-03
C:/temp/dataset/3/11_8.odb,Step-1,Increment      1: Step Time =    1.000,"PART-1-1",           509,       13.6432,      -25.0896,            0.,NA,NA,"",   67.2713E-03,  -53.3983E-03,   40.9151E-03,   8.30375E-03
C:/temp/dataset/3/11_8.odb,Step-1,Increment      1: Step Time =    1.000,"PART-1-1",           510,           15.,        -23.75,            0.,NA,NA,"",   110.216E-03,  -82.2732E-03,   73.3397E-03,   10.1343E-03
C:/temp/dataset/3/11_8.odb,Step-1,Increment      1: Step Time =    1.000,"PART-1-1",           511,         11.25,          -30.,            0.,NA,NA,"",            0.,  -1.51887E-39,   7.45532E-39,   4.07789E-03
C:/temp/dataset/3/11_8.odb,Step-1,Increment      1: Step Time =    1.000,"PART-1-1",           512,       13.9281,      -14.6298,            0.,NA,NA,"",   265.767E-03,  -246.733E-03,   98.7669E-03,   3.43353E-03
C:/temp/dataset/3/11_8.odb,Step-1,Increment      1: Step Time =    1.000,"PART-1-1",           513,       12.2657,      -15.3468,            0.,NA,NA,"",   243.938E-03,  -232.422E-03,   74.0654E-03,   4.50633E-03
C:/temp/dataset/3/11_8.odb,Step-1,Increment      1: Step Time =    1.000,"PART-1-1",           514,           15.,        -16.25,            0.,NA,NA,"",   260.623E-03,  -237.260E-03,   107.852E-03,   7.00109E-03
C:/temp/dataset/3/11_8.odb,Step-1,Increment      1: Step Time =    1.000,"PART-1-1",           515,       7.13425,      -14.5121,            0.,NA,NA,"",   235.902E-03,  -235.892E-03,  -2.21233E-03,   781.098E-06
C:/temp/dataset/3/11_8.odb,Step-1,Increment      1: Step Time =    1.000,"PART-1-1",           516,       6.81531,      -16.2905,            0.,NA,NA,"",   201.395E-03,  -201.283E-03,  -6.71575E-03,   3.25944E-03
C:/temp/dataset/3/11_8.odb,Step-1,Increment      1: Step Time =    1.000,"PART-1-1",           517,       8.10983,      -17.0757,            0.,NA,NA,"",   187.263E-03,  -186.809E-03,   13.0404E-03,   5.65720E-03
C:/temp/dataset/3/11_8.odb,Step-1,Increment      1: Step Time =    1.000,"PART-1-1",           518,       13.8641,      -7.41825,            0.,NA,NA,"",   360.918E-03,  -347.195E-03,   98.5762E-03,   144.538E-06
C:/temp/dataset/3/11_8.odb,Step-1,Increment      1: Step Time =    1.000,"PART-1-1",           519,       13.0286,      -8.63342,            0.,NA,NA,"",   339.767E-03,  -328.645E-03,   86.2202E-03,   290.107E-06
C:/temp/dataset/3/11_8.odb,Step-1,Increment      1: Step Time =    1.000,"PART-1-1",           520,       14.1645,      -9.96517,            0.,NA,NA,"",   325.379E-03,  -308.672E-03,   102.924E-03,   431.715E-06
C:/temp/dataset/3/11_8.odb,Step-1,Increment      1: Step Time =    1.000,"PART-1-1",           521,           15.,         -8.75,            0.,NA,NA,"",   346.983E-03,  -327.178E-03,   115.548E-03,   390.353E-06
C:/temp/dataset/3/11_8.odb,Step-1,Increment      1: Step Time =    1.000,"PART-1-1",           522,       12.0251,      -10.9831,            0.,NA,NA,"",   301.975E-03,  -293.239E-03,   72.1097E-03,   359.517E-06
C:/temp/dataset/3/11_8.odb,Step-1,Increment      1: Step Time =    1.000,"PART-1-1",           523,       12.8055,      -11.9581,            0.,NA,NA,"",   291.196E-03,  -278.950E-03,   83.5585E-03,   339.409E-06
C:/temp/dataset/3/11_8.odb,Step-1,Increment      1: Step Time =    1.000,"PART-1-1",           524,       13.3751,      -11.0455,            0.,NA,NA,"",   306.370E-03,  -292.395E-03,   91.4754E-03,   592.703E-06
C:/temp/dataset/3/11_8.odb,Step-1,Increment      1: Step Time =    1.000,"PART-1-1",           525,       12.5947,      -10.0706,            0.,NA,NA,"",   317.171E-03,  -306.890E-03,   80.0969E-03,   358.102E-06
C:/temp/dataset/3/11_8.odb,Step-1,Increment      1: Step Time =    1.000,"PART-1-1",           526,       11.4853,  -434.223E-03,            0.,NA,NA,"",   457.003E-03,  -452.779E-03,   61.9868E-03,   5.20212E-06
C:/temp/dataset/3/11_8.odb,Step-1,Increment      1: Step Time =    1.000,"PART-1-1",           527,       10.5886,      -1.82652,            0.,NA,NA,"",   434.368E-03,  -431.640E-03,   48.6054E-03,   19.1094E-06
C:/temp/dataset/3/11_8.odb,Step-1,Increment      1: Step Time =    1.000,"PART-1-1",           528,       11.9063,      -2.70193,            0.,NA,NA,"",   424.120E-03,  -418.532E-03,   68.6186E-03,   21.2424E-06
C:/temp/dataset/3/11_8.odb,Step-1,Increment      1: Step Time =    1.000,"PART-1-1",           529,       14.1300,       7.44597,            0.,NA,NA,"",   580.993E-03,  -572.139E-03,   101.044E-03,   398.302E-09
C:/temp/dataset/3/11_8.odb,Step-1,Increment      1: Step Time =    1.000,"PART-1-1",           530,       13.1865,       6.25975,            0.,NA,NA,"",   560.888E-03,  -554.111E-03,   86.9263E-03,   996.708E-09
C:/temp/dataset/3/11_8.odb,Step-1,Increment      1: Step Time =    1.000,"PART-1-1",           531,           15.,          6.25,            0.,NA,NA,"",   565.840E-03,  -554.171E-03,   114.325E-03,   859.081E-09
C:/temp/dataset/3/11_8.odb,Step-1,Increment      1: Step Time =    1.000,"PART-1-1",           532,       12.4155,       5.33720,            0.,NA,NA,"",   545.322E-03,  -540.086E-03,   75.3833E-03,   1.29285E-06
C:/temp/dataset/3/11_8.odb,Step-1,Increment      1: Step Time =    1.000,"PART-1-1",           533,       11.2733,       3.54111,            0.,NA,NA,"",   516.129E-03,  -512.822E-03,   58.3299E-03,   1.55764E-06
C:/temp/dataset/3/11_8.odb,Step-1,Increment      1: Step Time =    1.000,"PART-1-1",           534,       12.2480,       13.5548,            0.,NA,NA,"",   668.094E-03,  -664.212E-03,   71.9158E-03,   15.2569E-09
C:/temp/dataset/3/11_8.odb,Step-1,Increment      1: Step Time =    1.000,"PART-1-1",           535,           15.,         13.75,            0.,NA,NA,"",   677.051E-03,  -667.475E-03,   113.469E-03,   29.1567E-09
C:/temp/dataset/3/11_8.odb,Step-1,Increment      1: Step Time =    1.000,"PART-1-1",           536,       13.6600,       14.9734,            0.,NA,NA,"",   692.092E-03,  -685.804E-03,   93.0857E-03,   13.4250E-09
C:/temp/dataset/3/11_8.odb,Step-1,Increment      1: Step Time =    1.000,"PART-1-1",           537,       8.15326,       10.4556,            0.,NA,NA,"",   617.012E-03,  -616.924E-03,   10.4077E-03,   169.579E-09
C:/temp/dataset/3/11_8.odb,Step-1,Increment      1: Step Time =    1.000,"PART-1-1",           538,       12.3824,       21.2920,            0.,NA,NA,"",   784.526E-03,  -781.117E-03,   73.0622E-03,   2.62469E-09
C:/temp/dataset/3/11_8.odb,Step-1,Increment      1: Step Time =    1.000,"PART-1-1",           539,       13.6892,       20.0188,            0.,NA,NA,"",   767.680E-03,  -762.032E-03,   92.9502E-03,   2.57997E-09
C:/temp/dataset/3/11_8.odb,Step-1,Increment      1: Step Time =    1.000,"PART-1-1",           540,           15.,         21.25,            0.,NA,NA,"",   788.860E-03,  -780.781E-03,   112.613E-03,   1.65696E-09
C:/temp/dataset/3/11_8.odb,Step-1,Increment      1: Step Time =    1.000,"PART-1-1",           541,       13.6932,       22.5232,            0.,NA,NA,"",   805.223E-03,  -799.866E-03,   92.7248E-03,   681.920E-12
C:/temp/dataset/3/11_8.odb,Step-1,Increment      1: Step Time =    1.000,"PART-1-1",           542,       9.77662,       16.3041,            0.,NA,NA,"",   706.297E-03,  -705.465E-03,   34.2651E-03,   11.8948E-09
C:/temp/dataset/3/11_8.odb,Step-1,Increment      1: Step Time =    1.000,"PART-1-1",           543,       11.0318,       15.0036,            0.,NA,NA,"",   688.034E-03,  -685.960E-03,   53.3765E-03,   11.7857E-09
C:/temp/dataset/3/11_8.odb,Step-1,Increment      1: Step Time =    1.000,"PART-1-1",           544,       12.3430,       16.2301,            0.,NA,NA,"",   708.416E-03,  -704.640E-03,   73.0455E-03,   11.4665E-09
C:/temp/dataset/3/11_8.odb,Step-1,Increment      1: Step Time =    1.000,"PART-1-1",           545,         13.75,           30.,            0.,NA,NA,"",   917.527E-03,  -912.829E-03,   92.7298E-03,   34.7809E-12
C:/temp/dataset/3/11_8.odb,Step-1,Increment      1: Step Time =    1.000,"PART-1-1",           546,       12.4862,       28.7548,            0.,NA,NA,"",   896.912E-03,  -893.873E-03,   73.7786E-03,   49.3748E-12
C:/temp/dataset/3/11_8.odb,Step-1,Increment      1: Step Time =    1.000,"PART-1-1",           547,           15.,         28.75,            0.,NA,NA,"",   901.045E-03,  -894.087E-03,   111.757E-03,   35.5454E-12
C:/temp/dataset/3/11_8.odb,Step-1,Increment      1: Step Time =    1.000,"PART-1-1",           548,       12.4064,       23.7898,            0.,NA,NA,"",   822.115E-03,  -818.855E-03,   73.1397E-03,   735.294E-12
C:/temp/dataset/3/11_8.odb,Step-1,Increment      1: Step Time =    1.000,"PART-1-1",           549,           15.,         23.75,            0.,NA,NA,"",   826.221E-03,  -818.550E-03,   112.327E-03,   217.110E-12
C:/temp/dataset/3/11_8.odb,Step-1,Increment      1: Step Time =    1.000,"PART-1-1",           550,       9.91541,       26.3072,            0.,NA,NA,"",   857.326E-03,  -856.602E-03,   35.2202E-03,   228.310E-12
C:/temp/dataset/3/11_8.odb,Step-1,Increment      1: Step Time =    1.000,"PART-1-1",           551,       11.1537,       25.0565,            0.,NA,NA,"",   839.592E-03,  -837.849E-03,   54.0707E-03,   296.674E-12
C:/temp/dataset/3/11_8.odb,Step-1,Increment      1: Step Time =    1.000,"PART-1-1",           552,       11.2110,       27.5221,            0.,NA,NA,"",   876.810E-03,  -875.104E-03,   54.6553E-03,   72.3920E-12
C:/temp/dataset/3/11_8.odb,Step-1,Increment      1: Step Time =    1.000,"PART-1-1",           553,       8.69233,       27.5515,            0.,NA,NA,"",   875.419E-03,  -875.261E-03,   16.6006E-03,   73.6279E-12
C:/temp/dataset/3/11_8.odb,Step-1,Increment      1: Step Time =    1.000,"PART-1-1",           554,       7.41297,       26.3376,            0.,NA,NA,"",   856.781E-03,  -856.777E-03,  -2.58880E-03,   178.883E-12
C:/temp/dataset/3/11_8.odb,Step-1,Increment      1: Step Time =    1.000,"PART-1-1",           555,       8.63604,       25.0933,            0.,NA,NA,"",   838.271E-03,  -838.118E-03,   16.0308E-03,   318.947E-12
C:/temp/dataset/3/11_8.odb,Step-1,Increment      1: Step Time =    1.000,"PART-1-1",           556,      -1.26375,       27.5391,            0.,NA,NA,"",   884.122E-03,  -873.938E-03,  -133.809E-03,   55.2625E-12
C:/temp/dataset/3/11_8.odb,Step-1,Increment      1: Step Time =    1.000,"PART-1-1",           557,         -1.25,           30.,            0.,NA,NA,"",   920.901E-03,  -911.117E-03,  -133.882E-03,   45.6175E-12
C:/temp/dataset/3/11_8.odb,Step-1,Increment      1: Step Time =    1.000,"PART-1-1",           558,      -2.50500,       28.7640,            0.,NA,NA,"",   905.272E-03,  -892.300E-03,  -152.701E-03,   50.7040E-12
C:/temp/dataset/3/11_8.odb,Step-1,Increment      1: Step Time =    1.000,"PART-1-1",           559,      -7.50143,       28.7522,            0.,NA,NA,"",   920.289E-03,  -891.552E-03,  -228.183E-03,   57.6593E-12
C:/temp/dataset/3/11_8.odb,Step-1,Increment      1: Step Time =    1.000,"PART-1-1",           560,         -8.75,           30.,            0.,NA,NA,"",   943.227E-03,  -910.261E-03,  -247.188E-03,   59.4292E-12
C:/temp/dataset/3/11_8.odb,Step-1,Increment      1: Step Time =    1.000,"PART-1-1",           561,      -6.25460,       27.5081,            0.,NA,NA,"",   897.619E-03,  -872.900E-03,  -209.205E-03,   54.9235E-12
C:/temp/dataset/3/11_8.odb,Step-1,Increment      1: Step Time =    1.000,"PART-1-1",           562,        -13.75,           30.,            0.,NA,NA,"",   965.240E-03,  -909.690E-03,  -322.726E-03,   61.1951E-12
C:/temp/dataset/3/11_8.odb,Step-1,Increment      1: Step Time =    1.000,"PART-1-1",           563,          -15.,         28.75,            0.,NA,NA,"",   953.877E-03,  -890.663E-03,  -341.467E-03,   59.9471E-12
C:/temp/dataset/3/11_8.odb,Step-1,Increment      1: Step Time =    1.000,"PART-1-1",           564,      -13.7509,       27.5010,            0.,NA,NA,"",   929.650E-03,  -871.936E-03,  -322.455E-03,   58.3705E-12
C:/temp/dataset/3/11_8.odb,Step-1,Increment      1: Step Time =    1.000,"PART-1-1",           565,          -15.,         26.25,            0.,NA,NA,"",   918.605E-03,  -852.895E-03,  -341.182E-03,   57.8778E-12
C:/temp/dataset/3/11_8.odb,Step-1,Increment      1: Step Time =    1.000,"PART-1-1",           566,      -12.5016,       26.2536,            0.,NA,NA,"",   905.584E-03,  -853.234E-03,  -303.438E-03,   58.2688E-12
C:/temp/dataset/3/11_8.odb,Step-1,Increment      1: Step Time =    1.000,"PART-1-1",           567,      -7.50093,       21.2547,            0.,NA,NA,"",   810.803E-03,  -778.284E-03,  -227.320E-03,   54.8903E-12
C:/temp/dataset/3/11_8.odb,Step-1,Increment      1: Step Time =    1.000,"PART-1-1",           568,         -6.25,           20.,            0.,NA,NA,"",   787.513E-03,  -759.472E-03,  -208.278E-03,   53.9119E-12
C:/temp/dataset/3/11_8.odb,Step-1,Increment      1: Step Time =    1.000,"PART-1-1",           569,      -4.99978,       21.2574,            0.,NA,NA,"",   801.347E-03,  -778.611E-03,  -189.534E-03,   51.8523E-12
C:/temp/dataset/3/11_8.odb,Step-1,Increment      1: Step Time =    1.000,"PART-1-1",           570,      -3.74911,       22.5208,            0.,NA,NA,"",   815.914E-03,  -797.840E-03,  -170.784E-03,   51.5052E-12
C:/temp/dataset/3/11_8.odb,Step-1,Increment      1: Step Time =    1.000,"PART-1-1",           571,         -3.75,           20.,            0.,NA,NA,"",   778.655E-03,  -759.757E-03,  -170.510E-03,   47.5174E-12
C:/temp/dataset/3/11_8.odb,Step-1,Increment      1: Step Time =    1.000,"PART-1-1",           572,      -2.49933,       21.2634,            0.,NA,NA,"",   793.632E-03,  -778.987E-03,  -151.759E-03,   45.9967E-12
C:/temp/dataset/3/11_8.odb,Step-1,Increment      1: Step Time =    1.000,"PART-1-1",           573,         -1.25,           20.,            0.,NA,NA,"",   771.547E-03,  -760.042E-03,  -132.741E-03,   63.6065E-12
C:/temp/dataset/3/11_8.odb,Step-1,Increment      1: Step Time =    1.000,"PART-1-1",           574,  -2.23348E-03,       21.2694,            0.,NA,NA,"",   787.660E-03,  -779.362E-03,  -114.035E-03,   53.3604E-12
C:/temp/dataset/3/11_8.odb,Step-1,Increment      1: Step Time =    1.000,"PART-1-1",           575,      -1.25156,       22.5328,            0.,NA,NA,"",   809.318E-03,  -798.306E-03,  -133.054E-03,   58.2861E-12
C:/temp/dataset/3/11_8.odb,Step-1,Increment      1: Step Time =    1.000,"PART-1-1",           576,         -3.75,           30.,            0.,NA,NA,"",   926.865E-03,  -910.832E-03,  -171.651E-03,   53.3450E-12
C:/temp/dataset/3/11_8.odb,Step-1,Increment      1: Step Time =    1.000,"PART-1-1",           577,      -5.00318,       28.7559,            0.,NA,NA,"",   911.999E-03,  -891.894E-03,  -190.441E-03,   55.1983E-12
C:/temp/dataset/3/11_8.odb,Step-1,Increment      1: Step Time =    1.000,"PART-1-1",           578,       7.36074,       18.8052,            0.,NA,NA,"",   742.979E-03,  -742.975E-03,  -2.51810E-03,   6.59856E-09
C:/temp/dataset/3/11_8.odb,Step-1,Increment      1: Step Time =    1.000,"PART-1-1",           579,       8.58169,       17.5494,            0.,NA,NA,"",   724.320E-03,  -724.141E-03,   16.0707E-03,   8.55395E-09
C:/temp/dataset/3/11_8.odb,Step-1,Increment      1: Step Time =    1.000,"PART-1-1",           580,       8.60057,       20.0599,            0.,NA,NA,"",   762.241E-03,  -762.072E-03,   16.0694E-03,   3.58138E-09
C:/temp/dataset/3/11_8.odb,Step-1,Increment      1: Step Time =    1.000,"PART-1-1",           581,            5.,         18.75,            0.,NA,NA,"",   742.853E-03,  -741.871E-03,  -38.1767E-03,   6.04987E-09
C:/temp/dataset/3/11_8.odb,Step-1,Increment      1: Step Time =    1.000,"PART-1-1",           582,       6.17685,       17.5255,            0.,NA,NA,"",   723.789E-03,  -723.506E-03,  -20.2578E-03,   6.88121E-09
C:/temp/dataset/3/11_8.odb,Step-1,Increment      1: Step Time =    1.000,"PART-1-1",           583,       6.18390,       20.0298,            0.,NA,NA,"",   761.615E-03,  -761.340E-03,  -20.4371E-03,   2.50605E-09
C:/temp/dataset/3/11_8.odb,Step-1,Increment      1: Step Time =    1.000,"PART-1-1",           584,            5.,         16.25,            0.,NA,NA,"",   705.121E-03,  -704.102E-03,  -37.8914E-03,   18.4910E-09
C:/temp/dataset/3/11_8.odb,Step-1,Increment      1: Step Time =    1.000,"PART-1-1",           585,       6.15340,       15.0385,            0.,NA,NA,"",   686.233E-03,  -685.932E-03,  -20.3283E-03,   15.9970E-09
C:/temp/dataset/3/11_8.odb,Step-1,Increment      1: Step Time =    1.000,"PART-1-1",           586,       7.33024,       16.3140,            0.,NA,NA,"",   705.340E-03,  -705.335E-03,  -2.69459E-03,   12.1359E-09
C:/temp/dataset/3/11_8.odb,Step-1,Increment      1: Step Time =    1.000,"PART-1-1",           587,           15.,         16.25,            0.,NA,NA,"",   714.268E-03,  -705.244E-03,   113.183E-03,   17.0777E-09
C:/temp/dataset/3/11_8.odb,Step-1,Increment      1: Step Time =    1.000,"PART-1-1",           588,       13.6830,       17.5067,            0.,NA,NA,"",   730.046E-03,  -724.080E-03,   93.1431E-03,   7.01214E-09
C:/temp/dataset/3/11_8.odb,Step-1,Increment      1: Step Time =    1.000,"PART-1-1",           589,           15.,         18.75,            0.,NA,NA,"",   751.541E-03,  -743.012E-03,   112.898E-03,   6.03115E-09
C:/temp/dataset/3/11_8.odb,Step-1,Increment      1: Step Time =    1.000,"PART-1-1",           590,       7.36831,       6.81272,            0.,NA,NA,"",   561.798E-03,  -561.797E-03,  -1.03548E-03,   1.26333E-06
C:/temp/dataset/3/11_8.odb,Step-1,Increment      1: Step Time =    1.000,"PART-1-1",           591,       6.10412,       7.73110,            0.,NA,NA,"",   575.883E-03,  -575.528E-03,  -20.2384E-03,   436.105E-09
C:/temp/dataset/3/11_8.odb,Step-1,Increment      1: Step Time =    1.000,"PART-1-1",           592,            5.,          6.25,            0.,NA,NA,"",   554.244E-03,  -553.025E-03,  -36.7490E-03,   2.13056E-06
C:/temp/dataset/3/11_8.odb,Step-1,Increment      1: Step Time =    1.000,"PART-1-1",           593,       6.26419,       5.33162,            0.,NA,NA,"",   539.578E-03,  -539.293E-03,  -17.5461E-03,   2.63316E-06
C:/temp/dataset/3/11_8.odb,Step-1,Increment      1: Step Time =    1.000,"PART-1-1",           594,           15.,          8.75,            0.,NA,NA,"",   602.823E-03,  -591.938E-03,   114.039E-03,   176.676E-09
C:/temp/dataset/3/11_8.odb,Step-1,Increment      1: Step Time =    1.000,"PART-1-1",           595,       13.1418,       8.51598,            0.,NA,NA,"",   594.444E-03,  -588.191E-03,   85.9928E-03,   402.038E-09
C:/temp/dataset/3/11_8.odb,Step-1,Increment      1: Step Time =    1.000,"PART-1-1",           596,       6.30252,      -5.49102,            0.,NA,NA,"",   376.289E-03,  -375.958E-03,  -15.7790E-03,   60.6138E-06
C:/temp/dataset/3/11_8.odb,Step-1,Increment      1: Step Time =    1.000,"PART-1-1",           597,            5.,         -6.25,            0.,NA,NA,"",   366.079E-03,  -364.363E-03,  -35.4100E-03,   107.658E-06
C:/temp/dataset/3/11_8.odb,Step-1,Increment      1: Step Time =    1.000,"PART-1-1",           598,       6.10325,      -7.87566,            0.,NA,NA,"",   340.583E-03,  -340.071E-03,  -18.6692E-03,   163.367E-06
C:/temp/dataset/3/11_8.odb,Step-1,Increment      1: Step Time =    1.000,"PART-1-1",           599,       7.40577,      -7.11668,            0.,NA,NA,"",   351.633E-03,  -351.632E-03,   1.15526E-03,   172.566E-06
C:/temp/dataset/3/11_8.odb,Step-1,Increment      1: Step Time =    1.000,"PART-1-1",           600,            5.,         -8.75,            0.,NA,NA,"",   328.592E-03,  -326.669E-03,  -35.4978E-03,   338.035E-06
C:/temp/dataset/3/11_8.odb,Step-1,Increment      1: Step Time =    1.000,"PART-1-1",           601,            5.,        -13.75,            0.,NA,NA,"",   250.760E-03,  -247.851E-03,  -38.0872E-03,   1.32801E-03
C:/temp/dataset/3/11_8.odb,Step-1,Increment      1: Step Time =    1.000,"PART-1-1",           602,       5.77894,      -15.1288,            0.,NA,NA,"",   225.830E-03,  -224.358E-03,  -25.7442E-03,   693.079E-06
C:/temp/dataset/3/11_8.odb,Step-1,Increment      1: Step Time =    1.000,"PART-1-1",           603,            5.,        -16.25,            0.,NA,NA,"",   206.292E-03,  -202.121E-03,  -41.2745E-03,   794.671E-06
C:/temp/dataset/3/11_8.odb,Step-1,Increment      1: Step Time =    1.000,"PART-1-1",           604,       2.77244,      -24.0596,            0.,NA,NA,"",   46.7592E-03,  -45.2164E-03,  -11.9124E-03,   7.32818E-03
C:/temp/dataset/3/11_8.odb,Step-1,Increment      1: Step Time =    1.000,"PART-1-1",           605,       3.76359,      -25.5842,            0.,NA,NA,"",   34.7956E-03,  -33.2082E-03,  -10.3897E-03,   6.49216E-03
C:/temp/dataset/3/11_8.odb,Step-1,Increment      1: Step Time =    1.000,"PART-1-1",           606,       5.11162,      -24.8806,            0.,NA,NA,"",   41.3343E-03,  -39.6447E-03,  -11.6969E-03,   6.32646E-03
C:/temp/dataset/3/11_8.odb,Step-1,Increment      1: Step Time =    1.000,"PART-1-1",           607,       4.12047,      -23.3559,            0.,NA,NA,"",   55.7820E-03,  -53.4874E-03,  -15.8344E-03,   8.08491E-03
C:/temp/dataset/3/11_8.odb,Step-1,Increment      1: Step Time =    1.000,"PART-1-1",           608,       8.48587,      -2.76980,            0.,NA,NA,"",   417.532E-03,  -417.188E-03,   16.9491E-03,   26.9954E-06
C:/temp/dataset/3/11_8.odb,Step-1,Increment      1: Step Time =    1.000,"PART-1-1",           609,       9.66601,      -3.38468,            0.,NA,NA,"",   409.498E-03,  -408.010E-03,   34.8710E-03,   35.1366E-06
C:/temp/dataset/3/11_8.odb,Step-1,Increment      1: Step Time =    1.000,"PART-1-1",           610,       9.40849,      -1.21164,            0.,NA,NA,"",   441.880E-03,  -440.812E-03,   30.7004E-03,   10.4179E-06
C:/temp/dataset/3/11_8.odb,Step-1,Increment      1: Step Time =    1.000,"PART-1-1",           611,       3.88333,            5.,            0.,NA,NA,"",   536.674E-03,  -534.005E-03,  -53.4640E-03,   3.95478E-06
C:/temp/dataset/3/11_8.odb,Step-1,Increment      1: Step Time =    1.000,"PART-1-1",           612,       3.93709,       2.49951,            0.,NA,NA,"",   499.005E-03,  -496.250E-03,  -52.3679E-03,   1.54075E-06
C:/temp/dataset/3/11_8.odb,Step-1,Increment      1: Step Time =    1.000,"PART-1-1",           613,       5.14044,       3.62548,            0.,NA,NA,"",   514.538E-03,  -513.392E-03,  -34.3258E-03,   1.87742E-06
C:/temp/dataset/3/11_8.odb,Step-1,Increment      1: Step Time =    1.000,"PART-1-1",           614,       1.70000,           -5.,            0.,NA,NA,"",   392.157E-03,  -382.771E-03,  -85.2841E-03,   2.98036E-06
C:/temp/dataset/3/11_8.odb,Step-1,Increment      1: Step Time =    1.000,"PART-1-1",           615,       2.88648,      -4.17028,            0.,NA,NA,"",   401.150E-03,  -395.436E-03,  -67.4642E-03,   4.19276E-06
C:/temp/dataset/3/11_8.odb,Step-1,Increment      1: Step Time =    1.000,"PART-1-1",           616,       1.90498,      -3.27989,            0.,NA,NA,"",   416.981E-03,  -408.762E-03,  -82.3841E-03,   3.32697E-06
C:/temp/dataset/3/11_8.odb,Step-1,Increment      1: Step Time =    1.000,"PART-1-1",           617,      -2.82853,       3.20340,            0.,NA,NA,"",   529.191E-03,  -506.107E-03,  -154.593E-03,   274.116E-09
C:/temp/dataset/3/11_8.odb,Step-1,Increment      1: Step Time =    1.000,"PART-1-1",           618,      -1.73717,       4.08745,            0.,NA,NA,"",   537.649E-03,  -519.579E-03,  -138.217E-03,   278.225E-09
C:/temp/dataset/3/11_8.odb,Step-1,Increment      1: Step Time =    1.000,"PART-1-1",           619,      -2.81667,            5.,            0.,NA,NA,"",   555.198E-03,  -533.233E-03,  -154.619E-03,   132.295E-09
C:/temp/dataset/3/11_8.odb,Step-1,Increment      1: Step Time =    1.000,"PART-1-1",           620,      -7.28333,            5.,            0.,NA,NA,"",   577.151E-03,  -532.724E-03,  -222.056E-03,   23.5930E-09
C:/temp/dataset/3/11_8.odb,Step-1,Increment      1: Step Time =    1.000,"PART-1-1",           621,      -11.7000,            5.,            0.,NA,NA,"",   605.499E-03,  -532.221E-03,  -288.739E-03,   6.17684E-09
C:/temp/dataset/3/11_8.odb,Step-1,Increment      1: Step Time =    1.000,"PART-1-1",           622,      -11.5540,       2.50359,            0.,NA,NA,"",   571.415E-03,  -494.547E-03,  -286.250E-03,   7.23138E-09
C:/temp/dataset/3/11_8.odb,Step-1,Increment      1: Step Time =    1.000,"PART-1-1",           623,      -8.37698,      -4.01732,            0.,NA,NA,"",   462.172E-03,  -396.456E-03,  -237.540E-03,   12.4261E-09
C:/temp/dataset/3/11_8.odb,Step-1,Increment      1: Step Time =    1.000,"PART-1-1",           624,      -10.5279,      -3.86372,            0.,NA,NA,"",   481.398E-03,  -398.530E-03,  -270.032E-03,   7.16729E-09
C:/temp/dataset/3/11_8.odb,Step-1,Increment      1: Step Time =    1.000,"PART-1-1",           625,      -9.41667,           -5.,            0.,NA,NA,"",   457.838E-03,  -381.501E-03,  -253.125E-03,   15.7025E-09
C:/temp/dataset/3/11_8.odb,Step-1,Increment      1: Step Time =    1.000,"PART-1-1",           626,          3.75,          -20.,            0.,NA,NA,"",   76.9146E-03,  -76.0051E-03,  -11.7933E-03,   16.1635E-03
C:/temp/dataset/3/11_8.odb,Step-1,Increment      1: Step Time =    1.000,"PART-1-1",           627,       2.74072,      -21.3682,            0.,NA,NA,"",   65.4338E-03,  -64.2774E-03,  -12.2478E-03,   7.99066E-03
C:/temp/dataset/3/11_8.odb,Step-1,Increment      1: Step Time =    1.000,"PART-1-1",           628,       4.11640,      -22.1674,            0.,NA,NA,"",   68.1512E-03,  -65.7340E-03,  -17.9896E-03,   8.84079E-03
C:/temp/dataset/3/11_8.odb,Step-1,Increment      1: Step Time =    1.000,"PART-1-1",           629,       5.12568,      -20.7992,            0.,NA,NA,"",   87.0601E-03,  -84.0254E-03,  -22.7857E-03,   13.4447E-03
C:/temp/dataset/3/11_8.odb,Step-1,Increment      1: Step Time =    1.000,"PART-1-1",           630,          1.25,          -20.,            0.,NA,NA,"",   54.0002E-03,  -53.9646E-03,  -1.95889E-03,   6.76134E-03
C:/temp/dataset/3/11_8.odb,Step-1,Increment      1: Step Time =    1.000,"PART-1-1",           631,   73.0809E-03,      -21.3299,            0.,NA,NA,"",   49.2950E-03,  -49.2195E-03,  -2.72853E-03,   4.93265E-03
C:/temp/dataset/3/11_8.odb,Step-1,Increment      1: Step Time =    1.000,"PART-1-1",           632,       1.56380,      -22.6981,            0.,NA,NA,"",   52.3460E-03,  -51.4766E-03,  -9.50081E-03,   7.50727E-03
C:/temp/dataset/3/11_8.odb,Step-1,Increment      1: Step Time =    1.000,"PART-1-1",           633,         -1.25,          -20.,            0.,NA,NA,"",   44.7355E-03,  -44.7174E-03,   1.27317E-03,   3.66150E-03
C:/temp/dataset/3/11_8.odb,Step-1,Increment      1: Step Time =    1.000,"PART-1-1",           634,      -2.46493,      -21.3147,            0.,NA,NA,"",   40.8772E-03,  -40.8740E-03,   512.826E-06,   3.15706E-03
C:/temp/dataset/3/11_8.odb,Step-1,Increment      1: Step Time =    1.000,"PART-1-1",           635,      -1.14185,      -22.6446,            0.,NA,NA,"",   42.2679E-03,  -42.1751E-03,  -2.80004E-03,   4.74375E-03
C:/temp/dataset/3/11_8.odb,Step-1,Increment      1: Step Time =    1.000,"PART-1-1",           636,         -3.75,          -20.,            0.,NA,NA,"",   38.3731E-03,  -38.2718E-03,   2.78578E-03,   2.32165E-03
C:/temp/dataset/3/11_8.odb,Step-1,Increment      1: Step Time =    1.000,"PART-1-1",           637,      -4.97847,      -21.2978,            0.,NA,NA,"",   35.3817E-03,  -35.3361E-03,   1.79567E-03,   2.04575E-03
C:/temp/dataset/3/11_8.odb,Step-1,Increment      1: Step Time =    1.000,"PART-1-1",           638,      -3.69340,      -22.6125,            0.,NA,NA,"",   35.5810E-03,  -35.5809E-03,   78.2531E-06,   3.18530E-03
C:/temp/dataset/3/11_8.odb,Step-1,Increment      1: Step Time =    1.000,"PART-1-1",           639,      -4.95791,      -23.8547,            0.,NA,NA,"",   29.6934E-03,  -29.6927E-03,  -207.851E-06,   2.94232E-03
C:/temp/dataset/3/11_8.odb,Step-1,Increment      1: Step Time =    1.000,"PART-1-1",           640,      -6.21189,      -22.5887,            0.,NA,NA,"",   31.1630E-03,  -31.1501E-03,   899.299E-06,   2.21694E-03
C:/temp/dataset/3/11_8.odb,Step-1,Increment      1: Step Time =    1.000,"PART-1-1",           641,      -7.46939,      -23.8324,            0.,NA,NA,"",   26.2436E-03,  -26.2432E-03,   129.892E-06,   2.20221E-03
C:/temp/dataset/3/11_8.odb,Step-1,Increment      1: Step Time =    1.000,"PART-1-1",           642,           15.,        -13.75,            0.,NA,NA,"",   278.771E-03,  -255.886E-03,   110.614E-03,   1.97852E-03
C:/temp/dataset/3/11_8.odb,Step-1,Increment      1: Step Time =    1.000,"PART-1-1",           643,       14.2106,      -12.3304,            0.,NA,NA,"",   292.666E-03,  -274.130E-03,   102.498E-03,   1.15483E-03
C:/temp/dataset/3/11_8.odb,Step-1,Increment      1: Step Time =    1.000,"PART-1-1",           644,       13.1387,      -13.2101,            0.,NA,NA,"",   276.610E-03,  -262.143E-03,   88.2839E-03,   1.02039E-03
C:/temp/dataset/3/11_8.odb,Step-1,Increment      1: Step Time =    1.000,"PART-1-1",           645,           15.,        -11.25,            0.,NA,NA,"",   311.758E-03,  -289.958E-03,   114.532E-03,   906.736E-06
C:/temp/dataset/3/11_8.odb,Step-1,Increment      1: Step Time =    1.000,"PART-1-1",           646,           15.,         -6.25,            0.,NA,NA,"",   383.011E-03,  -365.116E-03,   115.706E-03,   96.3537E-06
C:/temp/dataset/3/11_8.odb,Step-1,Increment      1: Step Time =    1.000,"PART-1-1",           647,       14.0624,      -4.92369,            0.,NA,NA,"",   398.241E-03,  -385.109E-03,   101.423E-03,   38.3001E-06
C:/temp/dataset/3/11_8.odb,Step-1,Increment      1: Step Time =    1.000,"PART-1-1",           648,       12.9264,      -6.09194,            0.,NA,NA,"",   376.821E-03,  -367.244E-03,   84.4169E-03,   132.045E-06
C:/temp/dataset/3/11_8.odb,Step-1,Increment      1: Step Time =    1.000,"PART-1-1",           649,           15.,         -3.75,            0.,NA,NA,"",   419.226E-03,  -403.005E-03,   115.489E-03,   17.8626E-06
C:/temp/dataset/3/11_8.odb,Step-1,Increment      1: Step Time =    1.000,"PART-1-1",           650,       13.0440,      -3.68493,            0.,NA,NA,"",   412.806E-03,  -403.767E-03,   85.9130E-03,   36.8579E-06
C:/temp/dataset/3/11_8.odb,Step-1,Increment      1: Step Time =    1.000,"PART-1-1",           651,       8.06094,   477.426E-03,            0.,NA,NA,"",   466.288E-03,  -466.177E-03,   10.1449E-03,   3.38328E-06
C:/temp/dataset/3/11_8.odb,Step-1,Increment      1: Step Time =    1.000,"PART-1-1",           652,       8.76493,       2.31856,            0.,NA,NA,"",   494.495E-03,  -494.067E-03,   20.5703E-03,   1.56623E-06
C:/temp/dataset/3/11_8.odb,Step-1,Increment      1: Step Time =    1.000,"PART-1-1",           653,       6.73548,       2.80805,            0.,NA,NA,"",   501.331E-03,  -501.228E-03,  -10.1421E-03,   903.445E-09
C:/temp/dataset/3/11_8.odb,Step-1,Increment      1: Step Time =    1.000,"PART-1-1",           654,       6.03149,   966.916E-03,            0.,NA,NA,"",   473.789E-03,  -473.342E-03,  -20.5656E-03,   2.41702E-06
C:/temp/dataset/3/11_8.odb,Step-1,Increment      1: Step Time =    1.000,"PART-1-1",           655,            5.,          8.75,            0.,NA,NA,"",   591.955E-03,  -590.796E-03,  -37.0358E-03,   240.765E-09
C:/temp/dataset/3/11_8.odb,Step-1,Increment      1: Step Time =    1.000,"PART-1-1",           656,       7.16919,       9.14751,            0.,NA,NA,"",   597.064E-03,  -597.049E-03,  -4.30991E-03,   475.227E-09
C:/temp/dataset/3/11_8.odb,Step-1,Increment      1: Step Time =    1.000,"PART-1-1",           657,          3.75,           30.,            0.,NA,NA,"",   913.553E-03,  -911.688E-03,  -58.3449E-03,   100.353E-12
C:/temp/dataset/3/11_8.odb,Step-1,Increment      1: Step Time =    1.000,"PART-1-1",           658,       3.71036,       27.5731,            0.,NA,NA,"",   876.983E-03,  -875.018E-03,  -58.6668E-03,   64.1621E-12
C:/temp/dataset/3/11_8.odb,Step-1,Increment      1: Step Time =    1.000,"PART-1-1",           659,       7.38617,       23.8490,            0.,NA,NA,"",   819.181E-03,  -819.176E-03,  -2.70955E-03,   638.516E-12
C:/temp/dataset/3/11_8.odb,Step-1,Increment      1: Step Time =    1.000,"PART-1-1",           660,       6.16255,       25.1024,            0.,NA,NA,"",   838.244E-03,  -837.973E-03,  -21.3385E-03,   216.648E-12
C:/temp/dataset/3/11_8.odb,Step-1,Increment      1: Step Time =    1.000,"PART-1-1",           661,       4.93576,       23.8439,            0.,NA,NA,"",   819.783E-03,  -818.819E-03,  -39.7286E-03,   250.723E-12
C:/temp/dataset/3/11_8.odb,Step-1,Increment      1: Step Time =    1.000,"PART-1-1",           662,       6.15938,       22.5905,            0.,NA,NA,"",   800.301E-03,  -800.023E-03,  -21.0997E-03,   559.858E-12
C:/temp/dataset/3/11_8.odb,Step-1,Increment      1: Step Time =    1.000,"PART-1-1",           663,      -10.0017,       23.7560,            0.,NA,NA,"",   857.868E-03,  -815.787E-03,  -265.386E-03,   56.8184E-12
C:/temp/dataset/3/11_8.odb,Step-1,Increment      1: Step Time =    1.000,"PART-1-1",           664,      -8.75135,       22.5073,            0.,NA,NA,"",   834.267E-03,  -797.065E-03,  -246.354E-03,   55.6629E-12
C:/temp/dataset/3/11_8.odb,Step-1,Increment      1: Step Time =    1.000,"PART-1-1",           665,      -10.0004,       21.2526,            0.,NA,NA,"",   821.888E-03,  -777.967E-03,  -265.081E-03,   57.0554E-12
C:/temp/dataset/3/11_8.odb,Step-1,Increment      1: Step Time =    1.000,"PART-1-1",           666,      -11.2505,       22.5043,            0.,NA,NA,"",   845.874E-03,  -796.734E-03,  -284.108E-03,   57.4414E-12
C:/temp/dataset/3/11_8.odb,Step-1,Increment      1: Step Time =    1.000,"PART-1-1",           667,        -11.25,           20.,            0.,NA,NA,"",   810.236E-03,  -758.901E-03,  -283.816E-03,   58.0977E-12
C:/temp/dataset/3/11_8.odb,Step-1,Increment      1: Step Time =    1.000,"PART-1-1",           668,         -8.75,           20.,            0.,NA,NA,"",   798.062E-03,  -759.186E-03,  -246.047E-03,   56.3745E-12
C:/temp/dataset/3/11_8.odb,Step-1,Increment      1: Step Time =    1.000,"PART-1-1",           669,       7.37456,       21.3253,            0.,NA,NA,"",   781.053E-03,  -781.049E-03,  -2.59700E-03,   2.41456E-09
C:/temp/dataset/3/11_8.odb,Step-1,Increment      1: Step Time =    1.000,"PART-1-1",           670,      -1.26076,       25.0501,            0.,NA,NA,"",   846.920E-03,  -836.335E-03,  -133.480E-03,   64.1333E-12
C:/temp/dataset/3/11_8.odb,Step-1,Increment      1: Step Time =    1.000,"PART-1-1",           671,      -2.50213,       23.7814,            0.,NA,NA,"",   831.062E-03,  -817.027E-03,  -152.089E-03,   50.0784E-12
C:/temp/dataset/3/11_8.odb,Step-1,Increment      1: Step Time =    1.000,"PART-1-1",           672,          1.25,           20.,            0.,NA,NA,"",   766.236E-03,  -760.328E-03,  -94.9724E-03,   68.3669E-12
C:/temp/dataset/3/11_8.odb,Step-1,Increment      1: Step Time =    1.000,"PART-1-1",           673,            5.,         13.75,            0.,NA,NA,"",   667.394E-03,  -666.334E-03,  -37.6062E-03,   33.3278E-09
C:/temp/dataset/3/11_8.odb,Step-1,Increment      1: Step Time =    1.000,"PART-1-1",           674,       7.85923,       4.51418,            0.,NA,NA,"",   527.171E-03,  -527.129E-03,   6.64047E-03,   1.79527E-06
C:/temp/dataset/3/11_8.odb,Step-1,Increment      1: Step Time =    1.000,"PART-1-1",           675,       9.45843,       7.45797,            0.,NA,NA,"",   572.597E-03,  -571.786E-03,   30.4666E-03,   922.867E-09
C:/temp/dataset/3/11_8.odb,Step-1,Increment      1: Step Time =    1.000,"PART-1-1",           676,       11.3500,       8.04392,            0.,NA,NA,"",   583.841E-03,  -580.855E-03,   58.9775E-03,   630.720E-09
C:/temp/dataset/3/11_8.odb,Step-1,Increment      1: Step Time =    1.000,"PART-1-1",           677,       10.2386,       8.70699,            0.,NA,NA,"",   592.244E-03,  -590.745E-03,   42.1111E-03,   478.063E-09
C:/temp/dataset/3/11_8.odb,Step-1,Increment      1: Step Time =    1.000,"PART-1-1",           678,   133.314E-03,       2.02047,            0.,NA,NA,"",   500.757E-03,  -488.584E-03,  -109.742E-03,   997.984E-09
C:/temp/dataset/3/11_8.odb,Step-1,Increment      1: Step Time =    1.000,"PART-1-1",           679,       2.26054,       1.70692,            0.,NA,NA,"",   490.269E-03,  -484.091E-03,  -77.5898E-03,   1.74822E-06
C:/temp/dataset/3/11_8.odb,Step-1,Increment      1: Step Time =    1.000,"PART-1-1",           680,  -583.333E-03,            5.,            0.,NA,NA,"",   547.016E-03,  -533.488E-03,  -120.901E-03,   546.672E-09
C:/temp/dataset/3/11_8.odb,Step-1,Increment      1: Step Time =    1.000,"PART-1-1",           681,  -713.179E-03,       3.09316,            0.,NA,NA,"",   519.372E-03,  -504.684E-03,  -122.644E-03,   690.921E-09
C:/temp/dataset/3/11_8.odb,Step-1,Increment      1: Step Time =    1.000,"PART-1-1",           682,      -10.2084,       1.19941,            0.,NA,NA,"",   544.312E-03,  -475.009E-03,  -265.785E-03,   6.97389E-09
C:/temp/dataset/3/11_8.odb,Step-1,Increment      1: Step Time =    1.000,"PART-1-1",           683,      -7.18333,           -5.,            0.,NA,NA,"",   440.314E-03,  -381.756E-03,  -219.406E-03,   25.2434E-09
C:/temp/dataset/3/11_8.odb,Step-1,Increment      1: Step Time =    1.000,"PART-1-1",           684,      -7.36178,      -2.99006,            0.,NA,NA,"",   468.232E-03,  -412.081E-03,  -222.330E-03,   7.62724E-09
C:/temp/dataset/3/11_8.odb,Step-1,Increment      1: Step Time =    1.000,"PART-1-1",           685,      -11.3125,  -91.5578E-03,            0.,NA,NA,"",   535.799E-03,  -455.393E-03,  -282.308E-03,   6.20293E-09
C:/temp/dataset/3/11_8.odb,Step-1,Increment      1: Step Time =    1.000,"PART-1-1",           686,      -11.6500,           -5.,            0.,NA,NA,"",   477.104E-03,  -381.247E-03,  -286.844E-03,   6.51128E-09
C:/temp/dataset/3/11_8.odb,Step-1,Increment      1: Step Time =    1.000,"PART-1-1",           687,      -11.6245,      -2.63993,            0.,NA,NA,"",   505.968E-03,  -416.882E-03,  -286.728E-03,   7.20596E-09
C:/temp/dataset/3/11_8.odb,Step-1,Increment      1: Step Time =    1.000,"PART-1-1",           688,      -1.03706,       1.18772,            0.,NA,NA,"",   492.614E-03,  -475.878E-03,  -127.316E-03,   785.673E-09
C:/temp/dataset/3/11_8.odb,Step-1,Increment      1: Step Time =    1.000,"PART-1-1",           689,      -2.26684,   407.252E-03,            0.,NA,NA,"",   486.322E-03,  -463.954E-03,  -145.794E-03,   422.036E-09
C:/temp/dataset/3/11_8.odb,Step-1,Increment      1: Step Time =    1.000,"PART-1-1",           690,      -1.61706,  -775.207E-03,            0.,NA,NA,"",   466.398E-03,  -446.175E-03,  -135.848E-03,   689.076E-09
C:/temp/dataset/3/11_8.odb,Step-1,Increment      1: Step Time =    1.000,"PART-1-1",           691,      -4.44627,  -189.662E-03,            0.,NA,NA,"",   488.524E-03,  -454.694E-03,  -178.631E-03,   160.069E-09
C:/temp/dataset/3/11_8.odb,Step-1,Increment      1: Step Time =    1.000,"PART-1-1",           692,      -3.83065,   850.686E-03,            0.,NA,NA,"",   500.058E-03,  -470.471E-03,  -169.455E-03,   197.100E-09
C:/temp/dataset/3/11_8.odb,Step-1,Increment      1: Step Time =    1.000,"PART-1-1",           693,      -5.38306,   384.196E-03,            0.,NA,NA,"",   501.786E-03,  -463.251E-03,  -192.840E-03,   76.4616E-09
C:/temp/dataset/3/11_8.odb,Step-1,Increment      1: Step Time =    1.000,"PART-1-1",           694,       3.90000,           -5.,            0.,NA,NA,"",   386.558E-03,  -383.034E-03,  -52.0704E-03,   11.3695E-06
C:/temp/dataset/3/11_8.odb,Step-1,Increment      1: Step Time =    1.000,"PART-1-1",           695,       5.25667,      -4.01677,            0.,NA,NA,"",   399.288E-03,  -398.027E-03,  -31.7104E-03,   21.4526E-06
C:/temp/dataset/3/11_8.odb,Step-1,Increment      1: Step Time =    1.000,"PART-1-1",           696,       4.24316,      -3.18705,            0.,NA,NA,"",   413.123E-03,  -410.429E-03,  -47.0971E-03,   3.13991E-06
C:/temp/dataset/3/11_8.odb,Step-1,Increment      1: Step Time =    1.000,"PART-1-1",           697,       9.51721,      -4.82762,            0.,NA,NA,"",   387.602E-03,  -386.208E-03,   32.8403E-03,   76.4113E-06
C:/temp/dataset/3/11_8.odb,Step-1,Increment      1: Step Time =    1.000,"PART-1-1",           698,       8.04384,      -4.93500,            0.,NA,NA,"",   384.643E-03,  -384.498E-03,   10.5487E-03,   79.0865E-06
C:/temp/dataset/3/11_8.odb,Step-1,Increment      1: Step Time =    1.000,"PART-1-1",           699,       8.61490,      -6.56470,            0.,NA,NA,"",   360.513E-03,  -359.987E-03,   19.4813E-03,   139.608E-06
C:/temp/dataset/3/11_8.odb,Step-1,Increment      1: Step Time =    1.000,"PART-1-1",           700,       10.0883,      -6.45732,            0.,NA,NA,"",   364.024E-03,  -361.617E-03,   41.7935E-03,   156.573E-06
C:/temp/dataset/3/11_8.odb,Step-1,Increment      1: Step Time =    1.000,"PART-1-1",           701,       9.29828,      -8.00429,            0.,NA,NA,"",   339.646E-03,  -338.299E-03,   30.2251E-03,   250.588E-06
C:/temp/dataset/3/11_8.odb,Step-1,Increment      1: Step Time =    1.000,"PART-1-1",           702,       6.27674,      -21.4047,            0.,NA,NA,"",   82.7300E-03,  -81.7152E-03,  -12.9187E-03,   7.96304E-03
C:/temp/dataset/3/11_8.odb,Step-1,Increment      1: Step Time =    1.000,"PART-1-1",           703,       7.27122,      -20.3583,            0.,NA,NA,"",   107.050E-03,  -107.037E-03,  -1.67506E-03,   10.6518E-03
C:/temp/dataset/3/11_8.odb,Step-1,Increment      1: Step Time =    1.000,"PART-1-1",           704,         -6.25,          -20.,            0.,NA,NA,"",   34.5922E-03,  -34.4984E-03,   2.54513E-03,   1.30755E-03
C:/temp/dataset/3/11_8.odb,Step-1,Increment      1: Step Time =    1.000,"PART-1-1",           705,         -1.25,          -30.,            0.,NA,NA,"",            0.,  -4.59649E-39,  -3.52062E-39,   5.05060E-03
C:/temp/dataset/3/11_8.odb,Step-1,Increment      1: Step Time =    1.000,"PART-1-1",           706,       8.60683,      -25.8105,            0.,NA,NA,"",   31.6885E-03,  -31.6880E-03,  -190.060E-06,   4.66673E-03
C:/temp/dataset/3/11_8.odb,Step-1,Increment      1: Step Time =    1.000,"PART-1-1",           707,       7.41490,      -26.9159,            0.,NA,NA,"",   20.5724E-03,  -20.2873E-03,  -3.41307E-03,   4.48200E-03
C:/temp/dataset/3/11_8.odb,Step-1,Increment      1: Step Time =    1.000,"PART-1-1",           708,       6.17638,      -25.8614,            0.,NA,NA,"",   31.3500E-03,  -30.3639E-03,  -7.80105E-03,   5.32475E-03
C:/temp/dataset/3/11_8.odb,Step-1,Increment      1: Step Time =    1.000,"PART-1-1",           709,       7.37219,      -25.0876,            0.,NA,NA,"",   39.1002E-03,  -38.7357E-03,  -5.32658E-03,   4.90954E-03
C:/temp/dataset/3/11_8.odb,Step-1,Increment      1: Step Time =    1.000,"PART-1-1",           710,       6.30743,      -24.1068,            0.,NA,NA,"",   49.7182E-03,  -48.6191E-03,  -10.3964E-03,   5.65106E-03
C:/temp/dataset/3/11_8.odb,Step-1,Increment      1: Step Time =    1.000,"PART-1-1",           711,   113.079E-03,      -23.9373,            0.,NA,NA,"",   40.8395E-03,  -40.3391E-03,  -6.37395E-03,   5.72231E-03
C:/temp/dataset/3/11_8.odb,Step-1,Increment      1: Step Time =    1.000,"PART-1-1",           712,      -2.43554,      -23.8906,            0.,NA,NA,"",   34.5522E-03,  -34.4861E-03,  -2.13720E-03,   3.94349E-03
C:/temp/dataset/3/11_8.odb,Step-1,Increment      1: Step Time =    1.000,"PART-1-1",           713,      -8.72529,      -25.0755,            0.,NA,NA,"",   20.9204E-03,  -20.9134E-03,  -543.045E-06,   2.33227E-03
C:/temp/dataset/3/11_8.odb,Step-1,Increment      1: Step Time =    1.000,"PART-1-1",           714,      -9.97606,      -23.8175,            0.,NA,NA,"",   24.1380E-03,  -24.1175E-03,  -995.177E-06,   1.56806E-03
C:/temp/dataset/3/11_8.odb,Step-1,Increment      1: Step Time =    1.000,"PART-1-1",           715,      -9.99641,      -28.7682,            0.,NA,NA,"",   5.21097E-03,  -5.17814E-03,  -583.964E-06,   2.75018E-03
C:/temp/dataset/3/11_8.odb,Step-1,Increment      1: Step Time =    1.000,"PART-1-1",           716,      -11.2465,      -27.5281,            0.,NA,NA,"",   10.0990E-03,  -10.0182E-03,  -1.27506E-03,   2.55497E-03
C:/temp/dataset/3/11_8.odb,Step-1,Increment      1: Step Time =    1.000,"PART-1-1",           717,        -11.25,          -30.,            0.,NA,NA,"",            0.,  -2.33199E-39,  -1.87097E-39,   2.56747E-03
C:/temp/dataset/3/11_8.odb,Step-1,Increment      1: Step Time =    1.000,"PART-1-1",           718,         -8.75,          -30.,            0.,NA,NA,"",            0.,  -2.83413E-39,  -1.42297E-39,   3.06548E-03
C:/temp/dataset/3/11_8.odb,Step-1,Increment      1: Step Time =    1.000,"PART-1-1",           719,      -8.73783,      -27.5479,            0.,NA,NA,"",   11.0497E-03,  -11.0271E-03,  -706.381E-06,   2.93116E-03
C:/temp/dataset/3/11_8.odb,Step-1,Increment      1: Step Time =    1.000,"PART-1-1",           720,       9.45286,      -20.3748,            0.,NA,NA,"",   123.247E-03,  -121.661E-03,   19.7115E-03,   9.99334E-03
C:/temp/dataset/3/11_8.odb,Step-1,Increment      1: Step Time =    1.000,"PART-1-1",           721,       8.38706,      -19.4374,            0.,NA,NA,"",   135.403E-03,  -134.851E-03,   12.2157E-03,   10.4789E-03
C:/temp/dataset/3/11_8.odb,Step-1,Increment      1: Step Time =    1.000,"PART-1-1",           722,       8.33702,      -21.2957,            0.,NA,NA,"",   96.3800E-03,  -96.2322E-03,   5.33504E-03,   9.25844E-03
C:/temp/dataset/3/11_8.odb,Step-1,Increment      1: Step Time =    1.000,"PART-1-1",           723,       9.34035,      -18.0986,            0.,NA,NA,"",   171.381E-03,  -169.234E-03,   27.0424E-03,   8.24676E-03
C:/temp/dataset/3/11_8.odb,Step-1,Increment      1: Step Time =    1.000,"PART-1-1",           724,       10.7511,      -19.4747,            0.,NA,NA,"",   154.157E-03,  -149.444E-03,   37.8270E-03,   10.5356E-03
C:/temp/dataset/3/11_8.odb,Step-1,Increment      1: Step Time =    1.000,"PART-1-1",           725,       9.57777,      -9.07511,            0.,NA,NA,"",   324.017E-03,  -322.139E-03,   34.8332E-03,   312.175E-06
C:/temp/dataset/3/11_8.odb,Step-1,Increment      1: Step Time =    1.000,"PART-1-1",           726,       10.3854,      -7.79904,            0.,NA,NA,"",   344.508E-03,  -341.337E-03,   46.6347E-03,   231.234E-06
C:/temp/dataset/3/11_8.odb,Step-1,Increment      1: Step Time =    1.000,"PART-1-1",           727,       11.9371,      -7.89361,            0.,NA,NA,"",   346.953E-03,  -339.837E-03,   69.9108E-03,   224.196E-06
C:/temp/dataset/3/11_8.odb,Step-1,Increment      1: Step Time =    1.000,"PART-1-1",           728,       11.6400,      -6.55190,            0.,NA,NA,"",   366.039E-03,  -360.189E-03,   65.1772E-03,   143.253E-06
C:/temp/dataset/3/11_8.odb,Step-1,Increment      1: Step Time =    1.000,"PART-1-1",           729,       9.29748,       3.92298,            0.,NA,NA,"",   519.143E-03,  -518.364E-03,   28.4346E-03,   1.83263E-06
C:/temp/dataset/3/11_8.odb,Step-1,Increment      1: Step Time =    1.000,"PART-1-1",           730,       10.7408,       1.93669,            0.,NA,NA,"",   491.122E-03,  -488.522E-03,   50.4656E-03,   1.80441E-06
C:/temp/dataset/3/11_8.odb,Step-1,Increment      1: Step Time =    1.000,"PART-1-1",           731,       12.1175,       9.30164,            0.,NA,NA,"",   604.063E-03,  -599.943E-03,   70.4295E-03,   281.337E-09
C:/temp/dataset/3/11_8.odb,Step-1,Increment      1: Step Time =    1.000,"PART-1-1",           732,       12.3743,       7.25826,            0.,NA,NA,"",   573.964E-03,  -569.103E-03,   74.5409E-03,   697.309E-09
C:/temp/dataset/3/11_8.odb,Step-1,Increment      1: Step Time =    1.000,"PART-1-1",           733,       9.86952,       23.8294,            0.,NA,NA,"",   819.904E-03,  -819.164E-03,   34.8098E-03,   890.536E-12
C:/temp/dataset/3/11_8.odb,Step-1,Increment      1: Step Time =    1.000,"PART-1-1",           734,       8.61965,       22.5851,            0.,NA,NA,"",   800.384E-03,  -800.223E-03,   16.0695E-03,   1.11240E-09
C:/temp/dataset/3/11_8.odb,Step-1,Increment      1: Step Time =    1.000,"PART-1-1",           735,         11.25,           30.,            0.,NA,NA,"",   914.197E-03,  -912.544E-03,   54.9611E-03,   81.4574E-12
C:/temp/dataset/3/11_8.odb,Step-1,Increment      1: Step Time =    1.000,"PART-1-1",           736,       9.97488,       28.7673,            0.,NA,NA,"",   894.494E-03,  -893.775E-03,   35.8379E-03,   39.8745E-12
C:/temp/dataset/3/11_8.odb,Step-1,Increment      1: Step Time =    1.000,"PART-1-1",           737,          8.75,           30.,            0.,NA,NA,"",   912.420E-03,  -912.258E-03,   17.1924E-03,   122.408E-12
C:/temp/dataset/3/11_8.odb,Step-1,Increment      1: Step Time =    1.000,"PART-1-1",           738,       3.69885,       25.0915,            0.,NA,NA,"",   839.571E-03,  -837.526E-03,  -58.5576E-03,   104.706E-12
C:/temp/dataset/3/11_8.odb,Step-1,Increment      1: Step Time =    1.000,"PART-1-1",           739,       4.94207,       26.3392,            0.,NA,NA,"",   857.448E-03,  -856.518E-03,  -39.9180E-03,   88.7063E-12
C:/temp/dataset/3/11_8.odb,Step-1,Increment      1: Step Time =    1.000,"PART-1-1",           740,         -6.25,           30.,            0.,NA,NA,"",   934.319E-03,  -910.546E-03,  -209.420E-03,   57.8016E-12
C:/temp/dataset/3/11_8.odb,Step-1,Increment      1: Step Time =    1.000,"PART-1-1",           741,      -11.2519,       25.0060,            0.,NA,NA,"",   881.664E-03,  -834.529E-03,  -284.416E-03,   57.4020E-12
C:/temp/dataset/3/11_8.odb,Step-1,Increment      1: Step Time =    1.000,"PART-1-1",           742,       11.7111,      -12.1867,            0.,NA,NA,"",   283.848E-03,  -275.579E-03,   68.0162E-03,   397.363E-06
C:/temp/dataset/3/11_8.odb,Step-1,Increment      1: Step Time =    1.000,"PART-1-1",           743,       12.0443,      -13.4388,            0.,NA,NA,"",   268.108E-03,  -258.007E-03,   72.8971E-03,   1.25975E-03
C:/temp/dataset/3/11_8.odb,Step-1,Increment      1: Step Time =    1.000,"PART-1-1",           744,       9.07309,      -22.0228,            0.,NA,NA,"",   88.0371E-03,  -87.5276E-03,   9.45699E-03,   8.50647E-03
C:/temp/dataset/3/11_8.odb,Step-1,Increment      1: Step Time =    1.000,"PART-1-1",           745,       9.10959,      -23.2638,            0.,NA,NA,"",   67.3123E-03,  -67.0396E-03,   6.05261E-03,   6.92626E-03
C:/temp/dataset/3/11_8.odb,Step-1,Increment      1: Step Time =    1.000,"PART-1-1",           746,       10.5828,      -23.1781,            0.,NA,NA,"",   76.9143E-03,  -74.7347E-03,   18.1803E-03,   7.88091E-03
C:/temp/dataset/3/11_8.odb,Step-1,Increment      1: Step Time =    1.000,"PART-1-1",           747,       10.5463,      -21.9372,            0.,NA,NA,"",   100.475E-03,  -97.7543E-03,   23.2214E-03,   9.61006E-03
C:/temp/dataset/3/11_8.odb,Step-1,Increment      1: Step Time =    1.000,"PART-1-1",           748,      -1.00841,      -2.00181,            0.,NA,NA,"",   446.045E-03,  -427.726E-03,  -126.518E-03,   687.925E-09
C:/temp/dataset/3/11_8.odb,Step-1,Increment      1: Step Time =    1.000,"PART-1-1",           749,      -3.17395,      -1.50818,            0.,NA,NA,"",   463.177E-03,  -434.932E-03,  -159.271E-03,   275.915E-09
C:/temp/dataset/3/11_8.odb,Step-1,Increment      1: Step Time =    1.000,"PART-1-1",           750,       8.23699,       8.20647,            0.,NA,NA,"",   583.076E-03,  -582.954E-03,   11.9290E-03,   597.107E-09
C:/temp/dataset/3/11_8.odb,Step-1,Increment      1: Step Time =    1.000,"PART-1-1",           751,       8.58975,       6.06422,            0.,NA,NA,"",   550.908E-03,  -550.630E-03,   17.5012E-03,   1.51173E-06
C:/temp/dataset/3/11_8.odb,Step-1,Increment      1: Step Time =    1.000,"PART-1-1",           752,       1.04870,      -2.29850,            0.,NA,NA,"",   434.098E-03,  -423.480E-03,  -95.4251E-03,   1.62037E-06
C:/temp/dataset/3/11_8.odb,Step-1,Increment      1: Step Time =    1.000,"PART-1-1",           753,      -1.88356,       2.26041,            0.,NA,NA,"",   511.569E-03,  -491.977E-03,  -140.219E-03,   419.473E-09
C:/temp/dataset/3/11_8.odb,Step-1,Increment      1: Step Time =    1.000,"PART-1-1",           754,      -2.91638,       1.44829,            0.,NA,NA,"",   504.245E-03,  -479.598E-03,  -155.719E-03,   339.526E-09
C:/temp/dataset/3/11_8.odb,Step-1,Increment      1: Step Time =    1.000,"PART-1-1",           755,       3.03453,      -2.52132,            0.,NA,NA,"",   425.400E-03,  -420.340E-03,  -65.4170E-03,   2.55159E-06
C:/temp/dataset/3/11_8.odb,Step-1,Increment      1: Step Time =    1.000,"PART-1-1",           756,       6.99799,      -3.46075,            0.,NA,NA,"",   406.651E-03,  -406.614E-03,  -5.46005E-03,   24.1255E-06
C:/temp/dataset/3/11_8.odb,Step-1,Increment      1: Step Time =    1.000,"PART-1-1",           757,       7.63560,  -984.386E-03,            0.,NA,NA,"",   444.071E-03,  -444.054E-03,   3.88819E-03,   8.08668E-06
C:/temp/dataset/3/11_8.odb,Step-1,Increment      1: Step Time =    1.000,"PART-1-1",           758,       6.14771,      -1.67534,            0.,NA,NA,"",   433.855E-03,  -433.460E-03,  -18.5091E-03,   7.92851E-06
C:/temp/dataset/3/11_8.odb,Step-1,Increment      1: Step Time =    1.000,"PART-1-1",           759,       4.94795,      -26.8240,            0.,NA,NA,"",   23.4726E-03,  -22.3255E-03,  -7.24784E-03,   5.79269E-03
C:/temp/dataset/3/11_8.odb,Step-1,Increment      1: Step Time =    1.000,"PART-1-1",           760,      -11.2341,      -25.0541,            0.,NA,NA,"",   19.6827E-03,  -19.5717E-03,  -2.08734E-03,   1.70038E-03
C:/temp/dataset/3/11_8.odb,Step-1,Increment      1: Step Time =    1.000,"PART-1-1",           761,      -9.98574,      -26.3021,            0.,NA,NA,"",   15.5043E-03,  -15.4683E-03,  -1.05575E-03,   2.40488E-03
C:/temp/dataset/3/11_8.odb,Step-1,Increment      1: Step Time =    1.000,"PART-1-1",           762,           15.,        -26.25,            0.,NA,NA,"",   64.5524E-03,  -43.7186E-03,   47.4942E-03,   12.2201E-03
C:/temp/dataset/3/11_8.odb,Step-1,Increment      1: Step Time =    1.000,"PART-1-1",           763,       9.63478,      -24.7731,            0.,NA,NA,"",   46.7093E-03,  -46.2853E-03,   6.27978E-03,   5.69962E-03
C:/temp/dataset/3/11_8.odb,Step-1,Increment      1: Step Time =    1.000,"PART-1-1",           764,       9.83383,   250.169E-03,            0.,NA,NA,"",   464.413E-03,  -462.940E-03,   36.9553E-03,   5.36513E-06
C:/temp/dataset/3/11_8.odb,Step-1,Increment      1: Step Time =    1.000,"PART-1-1",           765,       11.1222,       22.5628,            0.,NA,NA,"",   801.983E-03,  -800.171E-03,   53.8788E-03,   1.18882E-09
C:/temp/dataset/3/11_8.odb,Step-1,Increment      1: Step Time =    1.000,"PART-1-1",           766,       9.84566,       21.3197,            0.,NA,NA,"",   782.018E-03,  -781.246E-03,   34.7358E-03,   2.86409E-09
C:/temp/dataset/3/11_8.odb,Step-1,Increment      1: Step Time =    1.000,"PART-1-1",           767,      -3.18112,  -190.353E-03,            0.,NA,NA,"",   481.993E-03,  -454.828E-03,  -159.529E-03,   310.247E-09
C:/temp/dataset/3/11_8.odb,Step-1,Increment      1: Step Time =    1.000,"PART-1-1",           768,       4.54417,       1.21940,            0.,NA,NA,"",   478.926E-03,  -476.987E-03,  -43.0543E-03,   1.52150E-06
C:/temp/dataset/3/11_8.odb,Step-1,Increment      1: Step Time =    1.000,"PART-1-1",           769,       9.22107,       9.51460,            0.,NA,NA,"",   603.418E-03,  -602.829E-03,   26.6468E-03,   348.553E-09
C:/temp/dataset/3/11_8.odb,Step-1,Increment      1: Step Time =    1.000,"PART-1-1",           770,       11.1709,      -3.71800,            0.,NA,NA,"",   407.193E-03,  -403.092E-03,   57.6478E-03,   49.4782E-06
C:/temp/dataset/3/11_8.odb,Step-1,Increment      1: Step Time =    1.000,"PART-1-1",           771,       11.0221,      -5.16095,            0.,NA,NA,"",   385.279E-03,  -381.243E-03,   55.6222E-03,   89.2227E-06
C:/temp/dataset/3/11_8.odb,Step-1,Increment      1: Step Time =    1.000,"PART-1-1",           772,       12.3085,      -4.70099,            0.,NA,NA,"",   395.461E-03,  -388.296E-03,   74.9391E-03,   63.2095E-06
C:/temp/dataset/3/11_8.odb,Step-1,Increment      1: Step Time =    1.000,"PART-1-1",           773,       5.03877,      -2.41022,            0.,NA,NA,"",   423.705E-03,  -422.242E-03,  -35.1749E-03,   6.07802E-06
C:/temp/dataset/3/11_8.odb,Step-1,Increment      1: Step Time =    1.000,"PART-1-1",           774,       11.0080,       9.74440,            0.,NA,NA,"",   608.870E-03,  -606.505E-03,   53.6172E-03,   283.575E-09
C:/temp/dataset/3/11_8.odb,Step-1,Increment      1: Step Time =    1.000,"PART-1-1",           775,       7.33953,      -23.4839,            0.,NA,NA,"",   58.3448E-03,  -58.0299E-03,  -6.05340E-03,   5.53327E-03
C:/temp/dataset/3/11_8.odb,Step-1,Increment      1: Step Time =    1.000,"PART-1-1",           776,       6.60048,      -22.7490,            0.,NA,NA,"",   66.3744E-03,  -65.5510E-03,  -10.4229E-03,   6.13406E-03
C:/temp/dataset/3/11_8.odb,Step-1,Increment      1: Step Time =    1.000,"PART-1-1",           777,       5.56839,      -23.3719,            0.,NA,NA,"",   57.1671E-03,  -55.4837E-03,  -13.7710E-03,   6.30709E-03
C:/temp/dataset/3/11_8.odb,Step-1,Increment      1: Step Time =    1.000,"PART-1-1",           778,       5.56431,      -22.1833,            0.,NA,NA,"",   71.0623E-03,  -69.2583E-03,  -15.9104E-03,   6.71042E-03
C:/temp/dataset/3/11_8.odb,Step-1,Increment      1: Step Time =    1.000,"PART-1-1",           779,       7.31291,      -21.9704,            0.,NA,NA,"",   79.0849E-03,  -78.9178E-03,  -5.13844E-03,   7.45055E-03
C:/temp/dataset/3/11_8.odb,Step-1,Increment      1: Step Time =    1.000,"PART-1-1",           780,       8.04898,      -22.6975,            0.,NA,NA,"",   71.3046E-03,  -71.3014E-03,  -671.377E-06,   6.73564E-03
C:/temp/dataset/3/11_8.odb,Step-1,Increment      1: Step Time =    1.000,"PART-1-1",           781,       5.89213,  -472.373E-03,            0.,NA,NA,"",   452.154E-03,  -451.593E-03,  -22.5060E-03,   3.41180E-06
C:/temp/dataset/3/11_8.odb,Step-1,Increment      1: Step Time =    1.000,"PART-1-1",           782,       8.40014,      -24.0502,            0.,NA,NA,"",   53.2183E-03,  -53.2181E-03,  -145.043E-06,   5.65975E-03
