ODB Name,Step,Frame,Part Instance Name,    êﬂì_ÉâÉxÉã,X,Y,Z,Section Name,Material Name,Section Point,   U-Magnitude,          U-U1,          U-U2,       S-Mises
C:/temp/dataset/3/12_3.odb,Step-1,Increment      1: Step Time =    1.000,"PART-1-1",             1,          -15.,           20.,            0.,NA,NA,"",   34.3026E-03,  -34.0030E-03,  -4.52334E-03,   48.9291E-12
C:/temp/dataset/3/12_3.odb,Step-1,Increment      1: Step Time =    1.000,"PART-1-1",             2,          -15.,           25.,            0.,NA,NA,"",   36.5266E-03,  -36.2453E-03,  -4.52384E-03,   48.7222E-12
C:/temp/dataset/3/12_3.odb,Step-1,Increment      1: Step Time =    1.000,"PART-1-1",             3,           -5.,           20.,            0.,NA,NA,"",   34.0041E-03,  -34.0041E-03,  -38.7251E-06,   42.5567E-12
C:/temp/dataset/3/12_3.odb,Step-1,Increment      1: Step Time =    1.000,"PART-1-1",             4,            5.,           20.,            0.,NA,NA,"",   34.2945E-03,  -34.0051E-03,   4.44589E-03,   71.0779E-12
C:/temp/dataset/3/12_3.odb,Step-1,Increment      1: Step Time =    1.000,"PART-1-1",             5,            5.,          12.5,            0.,NA,NA,"",   30.9626E-03,  -30.6416E-03,   4.44663E-03,   2.31254E-09
C:/temp/dataset/3/12_3.odb,Step-1,Increment      1: Step Time =    1.000,"PART-1-1",             6,            5.,            5.,            0.,NA,NA,"",   27.6381E-03,  -27.2779E-03,   4.44745E-03,   117.701E-09
C:/temp/dataset/3/12_3.odb,Step-1,Increment      1: Step Time =    1.000,"PART-1-1",             7,      -1.70000,            5.,            0.,NA,NA,"",   27.3153E-03,  -27.2771E-03,   1.44377E-03,   5.14569E-09
C:/temp/dataset/3/12_3.odb,Step-1,Increment      1: Step Time =    1.000,"PART-1-1",             8,      -8.40000,            5.,            0.,NA,NA,"",   27.3210E-03,  -27.2764E-03,  -1.56014E-03,   602.568E-12
C:/temp/dataset/3/12_3.odb,Step-1,Increment      1: Step Time =    1.000,"PART-1-1",             9,          -15.,            5.,            0.,NA,NA,"",   27.6476E-03,  -27.2758E-03,  -4.51924E-03,   39.8160E-12
C:/temp/dataset/3/12_3.odb,Step-1,Increment      1: Step Time =    1.000,"PART-1-1",            10,          -15.,            0.,            0.,NA,NA,"",   25.4386E-03,  -25.0340E-03,  -4.51874E-03,   80.9641E-12
C:/temp/dataset/3/12_3.odb,Step-1,Increment      1: Step Time =    1.000,"PART-1-1",            11,          -15.,           -5.,            0.,NA,NA,"",   23.2358E-03,  -22.7923E-03,  -4.51823E-03,   42.9033E-12
C:/temp/dataset/3/12_3.odb,Step-1,Increment      1: Step Time =    1.000,"PART-1-1",            12,      -8.30000,           -5.,            0.,NA,NA,"",   22.8432E-03,  -22.7929E-03,  -1.51431E-03,   600.343E-12
C:/temp/dataset/3/12_3.odb,Step-1,Increment      1: Step Time =    1.000,"PART-1-1",            13,      -1.60000,           -5.,            0.,NA,NA,"",   22.8422E-03,  -22.7936E-03,   1.48964E-03,   7.67617E-09
C:/temp/dataset/3/12_3.odb,Step-1,Increment      1: Step Time =    1.000,"PART-1-1",            14,            5.,           -5.,            0.,NA,NA,"",   23.2248E-03,  -22.7945E-03,   4.44962E-03,   901.939E-09
C:/temp/dataset/3/12_3.odb,Step-1,Increment      1: Step Time =    1.000,"PART-1-1",            15,            5.,         -12.5,            0.,NA,NA,"",   19.9802E-03,  -19.4884E-03,   4.40593E-03,   39.3115E-06
C:/temp/dataset/3/12_3.odb,Step-1,Increment      1: Step Time =    1.000,"PART-1-1",            16,            5.,          -20.,            0.,NA,NA,"",   13.8009E-03,  -13.4380E-03,   3.14392E-03,   1.10725E-03
C:/temp/dataset/3/12_3.odb,Step-1,Increment      1: Step Time =    1.000,"PART-1-1",            17,           -5.,          -20.,            0.,NA,NA,"",   6.19429E-03,  -6.15625E-03,   685.394E-06,   348.772E-06
C:/temp/dataset/3/12_3.odb,Step-1,Increment      1: Step Time =    1.000,"PART-1-1",            18,          -15.,          -20.,            0.,NA,NA,"",   5.50647E-03,  -5.26913E-03,  -1.59920E-03,   5.16432E-06
C:/temp/dataset/3/12_3.odb,Step-1,Increment      1: Step Time =    1.000,"PART-1-1",            19,          -15.,          -25.,            0.,NA,NA,"",   3.55856E-03,  -3.19160E-03,  -1.57387E-03,   68.1557E-06
C:/temp/dataset/3/12_3.odb,Step-1,Increment      1: Step Time =    1.000,"PART-1-1",            20,          -15.,          -30.,            0.,NA,NA,"",            0.,  -284.067E-42,  -458.694E-42,   878.474E-06
C:/temp/dataset/3/12_3.odb,Step-1,Increment      1: Step Time =    1.000,"PART-1-1",            21,           15.,          -30.,            0.,NA,NA,"",            0.,  -2.50302E-39,   3.59450E-39,   8.02080E-03
C:/temp/dataset/3/12_3.odb,Step-1,Increment      1: Step Time =    1.000,"PART-1-1",            22,           15.,         -22.5,            0.,NA,NA,"",   22.7177E-03,  -21.8567E-03,   6.19515E-03,   1.74280E-03
C:/temp/dataset/3/12_3.odb,Step-1,Increment      1: Step Time =    1.000,"PART-1-1",            23,           15.,          -15.,            0.,NA,NA,"",   20.2339E-03,  -18.2346E-03,   8.76993E-03,   99.0013E-06
C:/temp/dataset/3/12_3.odb,Step-1,Increment      1: Step Time =    1.000,"PART-1-1",            24,           15.,          -7.5,            0.,NA,NA,"",   23.4347E-03,  -21.6632E-03,   8.93804E-03,   699.272E-09
C:/temp/dataset/3/12_3.odb,Step-1,Increment      1: Step Time =    1.000,"PART-1-1",            25,           15.,            0.,            0.,NA,NA,"",   26.5829E-03,  -25.0370E-03,   8.93303E-03,   279.977E-09
C:/temp/dataset/3/12_3.odb,Step-1,Increment      1: Step Time =    1.000,"PART-1-1",            26,           15.,           7.5,            0.,NA,NA,"",   29.7717E-03,  -28.4003E-03,   8.93173E-03,   1.89835E-09
C:/temp/dataset/3/12_3.odb,Step-1,Increment      1: Step Time =    1.000,"PART-1-1",            27,           15.,           15.,            0.,NA,NA,"",   32.9954E-03,  -31.7638E-03,   8.93100E-03,   1.01765E-09
C:/temp/dataset/3/12_3.odb,Step-1,Increment      1: Step Time =    1.000,"PART-1-1",            28,           15.,          22.5,            0.,NA,NA,"",   36.2446E-03,  -35.1272E-03,   8.93024E-03,   64.2531E-12
C:/temp/dataset/3/12_3.odb,Step-1,Increment      1: Step Time =    1.000,"PART-1-1",            29,           15.,           30.,            0.,NA,NA,"",   39.5129E-03,  -38.4907E-03,   8.92949E-03,   48.2417E-12
C:/temp/dataset/3/12_3.odb,Step-1,Increment      1: Step Time =    1.000,"PART-1-1",            30,           7.5,           30.,            0.,NA,NA,"",   38.8903E-03,  -38.4899E-03,   5.56603E-03,   57.5237E-12
C:/temp/dataset/3/12_3.odb,Step-1,Increment      1: Step Time =    1.000,"PART-1-1",            31,            0.,           30.,            0.,NA,NA,"",   38.5521E-03,  -38.4892E-03,   2.20257E-03,   67.0501E-12
C:/temp/dataset/3/12_3.odb,Step-1,Increment      1: Step Time =    1.000,"PART-1-1",            32,          -7.5,           30.,            0.,NA,NA,"",   38.5059E-03,  -38.4884E-03,  -1.16088E-03,   56.8344E-12
C:/temp/dataset/3/12_3.odb,Step-1,Increment      1: Step Time =    1.000,"PART-1-1",            33,          -15.,           30.,            0.,NA,NA,"",   38.7527E-03,  -38.4877E-03,  -4.52434E-03,   48.3690E-12
C:/temp/dataset/3/12_3.odb,Step-1,Increment      1: Step Time =    1.000,"PART-1-1",            34,          -15.,          22.5,            0.,NA,NA,"",   35.4143E-03,  -35.1242E-03,  -4.52359E-03,   51.0276E-12
C:/temp/dataset/3/12_3.odb,Step-1,Increment      1: Step Time =    1.000,"PART-1-1",            35,          -7.5,           20.,            0.,NA,NA,"",   34.0236E-03,  -34.0038E-03,  -1.15988E-03,   43.5138E-12
C:/temp/dataset/3/12_3.odb,Step-1,Increment      1: Step Time =    1.000,"PART-1-1",            36,          -10.,           20.,            0.,NA,NA,"",   34.0800E-03,  -34.0035E-03,  -2.28103E-03,   44.7044E-12
C:/temp/dataset/3/12_3.odb,Step-1,Increment      1: Step Time =    1.000,"PART-1-1",            37,         -12.5,           20.,            0.,NA,NA,"",   34.1731E-03,  -34.0033E-03,  -3.40218E-03,   45.8804E-12
C:/temp/dataset/3/12_3.odb,Step-1,Increment      1: Step Time =    1.000,"PART-1-1",            38,           2.5,           20.,            0.,NA,NA,"",   34.1670E-03,  -34.0048E-03,   3.32473E-03,   50.1677E-12
C:/temp/dataset/3/12_3.odb,Step-1,Increment      1: Step Time =    1.000,"PART-1-1",            39,            0.,           20.,            0.,NA,NA,"",   34.0759E-03,  -34.0046E-03,   2.20358E-03,   42.0122E-12
C:/temp/dataset/3/12_3.odb,Step-1,Increment      1: Step Time =    1.000,"PART-1-1",            40,          -2.5,           20.,            0.,NA,NA,"",   34.0215E-03,  -34.0043E-03,   1.08243E-03,   42.6279E-12
C:/temp/dataset/3/12_3.odb,Step-1,Increment      1: Step Time =    1.000,"PART-1-1",            41,            5.,           15.,            0.,NA,NA,"",   32.0725E-03,  -31.7628E-03,   4.44639E-03,   954.050E-12
C:/temp/dataset/3/12_3.odb,Step-1,Increment      1: Step Time =    1.000,"PART-1-1",            42,            5.,          17.5,            0.,NA,NA,"",   33.1831E-03,  -32.8839E-03,   4.44614E-03,   211.793E-12
C:/temp/dataset/3/12_3.odb,Step-1,Increment      1: Step Time =    1.000,"PART-1-1",            43,            5.,           7.5,            0.,NA,NA,"",   28.7453E-03,  -28.3992E-03,   4.44712E-03,   21.5372E-09
C:/temp/dataset/3/12_3.odb,Step-1,Increment      1: Step Time =    1.000,"PART-1-1",            44,            5.,           10.,            0.,NA,NA,"",   29.8535E-03,  -29.5204E-03,   4.44688E-03,   6.81774E-09
C:/temp/dataset/3/12_3.odb,Step-1,Increment      1: Step Time =    1.000,"PART-1-1",            45,   533.333E-03,            5.,            0.,NA,NA,"",   27.3867E-03,  -27.2773E-03,   2.44505E-03,   6.23975E-09
C:/temp/dataset/3/12_3.odb,Step-1,Increment      1: Step Time =    1.000,"PART-1-1",            46,       2.76667,            5.,            0.,NA,NA,"",   27.4944E-03,  -27.2775E-03,   3.44627E-03,   40.2149E-09
C:/temp/dataset/3/12_3.odb,Step-1,Increment      1: Step Time =    1.000,"PART-1-1",            47,      -6.16667,            5.,            0.,NA,NA,"",   27.2824E-03,  -27.2766E-03,  -558.833E-06,   1.60275E-09
C:/temp/dataset/3/12_3.odb,Step-1,Increment      1: Step Time =    1.000,"PART-1-1",            48,      -3.93333,            5.,            0.,NA,NA,"",   27.2804E-03,  -27.2769E-03,   442.475E-06,   3.78549E-09
C:/temp/dataset/3/12_3.odb,Step-1,Increment      1: Step Time =    1.000,"PART-1-1",            49,      -12.8000,            5.,            0.,NA,NA,"",   27.5038E-03,  -27.2760E-03,  -3.53287E-03,   54.5756E-12
C:/temp/dataset/3/12_3.odb,Step-1,Increment      1: Step Time =    1.000,"PART-1-1",            50,      -10.6000,            5.,            0.,NA,NA,"",   27.3948E-03,  -27.2762E-03,  -2.54651E-03,   180.519E-12
C:/temp/dataset/3/12_3.odb,Step-1,Increment      1: Step Time =    1.000,"PART-1-1",            51,          -15.,           2.5,            0.,NA,NA,"",   26.5424E-03,  -26.1549E-03,  -4.51899E-03,   52.0472E-12
C:/temp/dataset/3/12_3.odb,Step-1,Increment      1: Step Time =    1.000,"PART-1-1",            52,          -15.,          -2.5,            0.,NA,NA,"",   24.3363E-03,  -23.9131E-03,  -4.51849E-03,   57.1130E-12
C:/temp/dataset/3/12_3.odb,Step-1,Increment      1: Step Time =    1.000,"PART-1-1",            53,      -10.5333,           -5.,            0.,NA,NA,"",   22.9311E-03,  -22.7927E-03,  -2.51561E-03,   156.957E-12
C:/temp/dataset/3/12_3.odb,Step-1,Increment      1: Step Time =    1.000,"PART-1-1",            54,      -12.7667,           -5.,            0.,NA,NA,"",   23.0622E-03,  -22.7925E-03,  -3.51692E-03,   46.5557E-12
C:/temp/dataset/3/12_3.odb,Step-1,Increment      1: Step Time =    1.000,"PART-1-1",            55,      -3.83333,           -5.,            0.,NA,NA,"",   22.7986E-03,  -22.7934E-03,   488.317E-06,   4.50521E-09
C:/temp/dataset/3/12_3.odb,Step-1,Increment      1: Step Time =    1.000,"PART-1-1",            56,      -6.06667,           -5.,            0.,NA,NA,"",   22.7989E-03,  -22.7932E-03,  -512.996E-06,   1.53806E-09
C:/temp/dataset/3/12_3.odb,Step-1,Increment      1: Step Time =    1.000,"PART-1-1",            57,       2.80000,           -5.,            0.,NA,NA,"",   23.0555E-03,  -22.7940E-03,   3.46261E-03,   177.850E-09
C:/temp/dataset/3/12_3.odb,Step-1,Increment      1: Step Time =    1.000,"PART-1-1",            58,   600.000E-03,           -5.,            0.,NA,NA,"",   22.9279E-03,  -22.7938E-03,   2.47606E-03,   34.6225E-09
C:/temp/dataset/3/12_3.odb,Step-1,Increment      1: Step Time =    1.000,"PART-1-1",            59,            5.,          -10.,            0.,NA,NA,"",   21.0512E-03,  -20.5766E-03,   4.44445E-03,   8.09649E-06
C:/temp/dataset/3/12_3.odb,Step-1,Increment      1: Step Time =    1.000,"PART-1-1",            60,            5.,          -7.5,            0.,NA,NA,"",   22.1330E-03,  -21.6806E-03,   4.45233E-03,   935.440E-09
C:/temp/dataset/3/12_3.odb,Step-1,Increment      1: Step Time =    1.000,"PART-1-1",            61,            5.,         -17.5,            0.,NA,NA,"",   17.3077E-03,  -16.8804E-03,   3.82222E-03,   361.108E-06
C:/temp/dataset/3/12_3.odb,Step-1,Increment      1: Step Time =    1.000,"PART-1-1",            62,            5.,          -15.,            0.,NA,NA,"",   18.8418E-03,  -18.3557E-03,   4.25240E-03,   132.741E-06
C:/temp/dataset/3/12_3.odb,Step-1,Increment      1: Step Time =    1.000,"PART-1-1",            63,          -2.5,          -20.,            0.,NA,NA,"",   7.20477E-03,  -7.13324E-03,   1.01273E-03,   533.781E-06
C:/temp/dataset/3/12_3.odb,Step-1,Increment      1: Step Time =    1.000,"PART-1-1",            64,            0.,          -20.,            0.,NA,NA,"",   8.67326E-03,  -8.55309E-03,   1.43879E-03,   733.950E-06
C:/temp/dataset/3/12_3.odb,Step-1,Increment      1: Step Time =    1.000,"PART-1-1",            65,           2.5,          -20.,            0.,NA,NA,"",   10.6569E-03,  -10.4514E-03,   2.08249E-03,   1.02509E-03
C:/temp/dataset/3/12_3.odb,Step-1,Increment      1: Step Time =    1.000,"PART-1-1",            66,         -12.5,          -20.,            0.,NA,NA,"",   5.30201E-03,  -5.25038E-03,  -738.127E-06,   10.5897E-06
C:/temp/dataset/3/12_3.odb,Step-1,Increment      1: Step Time =    1.000,"PART-1-1",            67,          -10.,          -20.,            0.,NA,NA,"",   5.28952E-03,  -5.28888E-03,  -82.2490E-06,   62.6561E-06
C:/temp/dataset/3/12_3.odb,Step-1,Increment      1: Step Time =    1.000,"PART-1-1",            68,          -7.5,          -20.,            0.,NA,NA,"",   5.57098E-03,  -5.55948E-03,   357.813E-06,   190.818E-06
C:/temp/dataset/3/12_3.odb,Step-1,Increment      1: Step Time =    1.000,"PART-1-1",            69,          -15.,         -22.5,            0.,NA,NA,"",   4.63930E-03,  -4.34763E-03,  -1.61901E-03,   13.8338E-06
C:/temp/dataset/3/12_3.odb,Step-1,Increment      1: Step Time =    1.000,"PART-1-1",            70,          -15.,         -27.5,            0.,NA,NA,"",   2.14360E-03,  -1.75038E-03,  -1.23741E-03,   334.027E-06
C:/temp/dataset/3/12_3.odb,Step-1,Increment      1: Step Time =    1.000,"PART-1-1",            71,          12.5,          -30.,            0.,NA,NA,"",            0.,  -3.04182E-39,   281.312E-42,   3.03230E-03
C:/temp/dataset/3/12_3.odb,Step-1,Increment      1: Step Time =    1.000,"PART-1-1",            72,           10.,          -30.,            0.,NA,NA,"",            0.,  -1.52010E-39,  -842.692E-42,   2.27203E-03
C:/temp/dataset/3/12_3.odb,Step-1,Increment      1: Step Time =    1.000,"PART-1-1",            73,           7.5,          -30.,            0.,NA,NA,"",            0.,  -1.15937E-39,  -439.095E-42,   1.57007E-03
C:/temp/dataset/3/12_3.odb,Step-1,Increment      1: Step Time =    1.000,"PART-1-1",            74,            5.,          -30.,            0.,NA,NA,"",            0.,  -792.319E-42,   80.3336E-42,   1.16761E-03
C:/temp/dataset/3/12_3.odb,Step-1,Increment      1: Step Time =    1.000,"PART-1-1",            75,           2.5,          -30.,            0.,NA,NA,"",            0.,  -623.438E-42,   2.63304E-42,   923.928E-06
C:/temp/dataset/3/12_3.odb,Step-1,Increment      1: Step Time =    1.000,"PART-1-1",            76,            0.,          -30.,            0.,NA,NA,"",            0.,  -515.689E-42,  -31.7352E-42,   775.120E-06
C:/temp/dataset/3/12_3.odb,Step-1,Increment      1: Step Time =    1.000,"PART-1-1",            77,          -2.5,          -30.,            0.,NA,NA,"",            0.,  -492.817E-42,  -332.090E-42,   663.880E-06
C:/temp/dataset/3/12_3.odb,Step-1,Increment      1: Step Time =    1.000,"PART-1-1",            78,           -5.,          -30.,            0.,NA,NA,"",            0.,  -373.914E-42,  -25.0678E-42,   569.391E-06
C:/temp/dataset/3/12_3.odb,Step-1,Increment      1: Step Time =    1.000,"PART-1-1",            79,          -7.5,          -30.,            0.,NA,NA,"",            0.,  -313.535E-42,  -29.7566E-42,   485.377E-06
C:/temp/dataset/3/12_3.odb,Step-1,Increment      1: Step Time =    1.000,"PART-1-1",            80,          -10.,          -30.,            0.,NA,NA,"",            0.,  -308.483E-42,  -252.918E-42,   419.927E-06
C:/temp/dataset/3/12_3.odb,Step-1,Increment      1: Step Time =    1.000,"PART-1-1",            81,         -12.5,          -30.,            0.,NA,NA,"",            0.,  -355.474E-42,  -315.048E-42,   337.902E-06
C:/temp/dataset/3/12_3.odb,Step-1,Increment      1: Step Time =    1.000,"PART-1-1",            82,           15.,          -25.,            0.,NA,NA,"",   25.3433E-03,  -24.2566E-03,   7.34178E-03,   2.82448E-03
C:/temp/dataset/3/12_3.odb,Step-1,Increment      1: Step Time =    1.000,"PART-1-1",            83,           15.,         -27.5,            0.,NA,NA,"",   18.9753E-03,  -17.5170E-03,   7.29496E-03,   3.88363E-03
C:/temp/dataset/3/12_3.odb,Step-1,Increment      1: Step Time =    1.000,"PART-1-1",            84,           15.,         -17.5,            0.,NA,NA,"",   19.2856E-03,  -17.3914E-03,   8.33508E-03,   244.995E-06
C:/temp/dataset/3/12_3.odb,Step-1,Increment      1: Step Time =    1.000,"PART-1-1",            85,           15.,          -20.,            0.,NA,NA,"",   19.0306E-03,  -17.4269E-03,   7.64643E-03,   544.679E-06
C:/temp/dataset/3/12_3.odb,Step-1,Increment      1: Step Time =    1.000,"PART-1-1",            86,           15.,          -10.,            0.,NA,NA,"",   22.3834E-03,  -20.5229E-03,   8.93471E-03,   6.08288E-06
C:/temp/dataset/3/12_3.odb,Step-1,Increment      1: Step Time =    1.000,"PART-1-1",            87,           15.,         -12.5,            0.,NA,NA,"",   21.3156E-03,  -19.3727E-03,   8.89129E-03,   32.4176E-06
C:/temp/dataset/3/12_3.odb,Step-1,Increment      1: Step Time =    1.000,"PART-1-1",            88,           15.,          -2.5,            0.,NA,NA,"",   25.5297E-03,  -23.9154E-03,   8.93420E-03,   584.529E-09
C:/temp/dataset/3/12_3.odb,Step-1,Increment      1: Step Time =    1.000,"PART-1-1",            89,           15.,           -5.,            0.,NA,NA,"",   24.4812E-03,  -22.7919E-03,   8.93630E-03,   1.11749E-06
C:/temp/dataset/3/12_3.odb,Step-1,Increment      1: Step Time =    1.000,"PART-1-1",            90,           15.,            5.,            0.,NA,NA,"",   28.7043E-03,  -27.2793E-03,   8.93201E-03,   22.2795E-09
C:/temp/dataset/3/12_3.odb,Step-1,Increment      1: Step Time =    1.000,"PART-1-1",            91,           15.,           2.5,            0.,NA,NA,"",   27.6413E-03,  -26.1582E-03,   8.93239E-03,   100.350E-09
C:/temp/dataset/3/12_3.odb,Step-1,Increment      1: Step Time =    1.000,"PART-1-1",            92,           15.,          12.5,            0.,NA,NA,"",   31.9177E-03,  -30.6426E-03,   8.93124E-03,   2.21158E-09
C:/temp/dataset/3/12_3.odb,Step-1,Increment      1: Step Time =    1.000,"PART-1-1",            93,           15.,           10.,            0.,NA,NA,"",   30.8430E-03,  -29.5215E-03,   8.93149E-03,   3.70656E-09
C:/temp/dataset/3/12_3.odb,Step-1,Increment      1: Step Time =    1.000,"PART-1-1",            94,           15.,           20.,            0.,NA,NA,"",   35.1592E-03,  -34.0061E-03,   8.93050E-03,   118.825E-12
C:/temp/dataset/3/12_3.odb,Step-1,Increment      1: Step Time =    1.000,"PART-1-1",            95,           15.,          17.5,            0.,NA,NA,"",   34.0760E-03,  -32.8849E-03,   8.93075E-03,   333.448E-12
C:/temp/dataset/3/12_3.odb,Step-1,Increment      1: Step Time =    1.000,"PART-1-1",            96,           15.,          27.5,            0.,NA,NA,"",   38.4216E-03,  -37.3695E-03,   8.92974E-03,   50.9635E-12
C:/temp/dataset/3/12_3.odb,Step-1,Increment      1: Step Time =    1.000,"PART-1-1",            97,           15.,           25.,            0.,NA,NA,"",   37.3321E-03,  -36.2484E-03,   8.92999E-03,   53.7919E-12
C:/temp/dataset/3/12_3.odb,Step-1,Increment      1: Step Time =    1.000,"PART-1-1",            98,           10.,           30.,            0.,NA,NA,"",   39.0668E-03,  -38.4902E-03,   6.68718E-03,   49.7895E-12
C:/temp/dataset/3/12_3.odb,Step-1,Increment      1: Step Time =    1.000,"PART-1-1",            99,          12.5,           30.,            0.,NA,NA,"",   39.2745E-03,  -38.4904E-03,   7.80834E-03,   45.8285E-12
C:/temp/dataset/3/12_3.odb,Step-1,Increment      1: Step Time =    1.000,"PART-1-1",           100,           2.5,           30.,            0.,NA,NA,"",   38.6327E-03,  -38.4894E-03,   3.32373E-03,   68.3530E-12
C:/temp/dataset/3/12_3.odb,Step-1,Increment      1: Step Time =    1.000,"PART-1-1",           101,            5.,           30.,            0.,NA,NA,"",   38.7455E-03,  -38.4897E-03,   4.44488E-03,   65.0414E-12
C:/temp/dataset/3/12_3.odb,Step-1,Increment      1: Step Time =    1.000,"PART-1-1",           102,           -5.,           30.,            0.,NA,NA,"",   38.4887E-03,  -38.4887E-03,  -39.7305E-06,   60.1499E-12
C:/temp/dataset/3/12_3.odb,Step-1,Increment      1: Step Time =    1.000,"PART-1-1",           103,          -2.5,           30.,            0.,NA,NA,"",   38.5041E-03,  -38.4889E-03,   1.08142E-03,   63.7595E-12
C:/temp/dataset/3/12_3.odb,Step-1,Increment      1: Step Time =    1.000,"PART-1-1",           104,         -12.5,           30.,            0.,NA,NA,"",   38.6381E-03,  -38.4879E-03,  -3.40319E-03,   51.9979E-12
C:/temp/dataset/3/12_3.odb,Step-1,Increment      1: Step Time =    1.000,"PART-1-1",           105,          -10.,           30.,            0.,NA,NA,"",   38.5558E-03,  -38.4882E-03,  -2.28204E-03,   53.9384E-12
C:/temp/dataset/3/12_3.odb,Step-1,Increment      1: Step Time =    1.000,"PART-1-1",           106,          -15.,          27.5,            0.,NA,NA,"",   37.6394E-03,  -37.3665E-03,  -4.52409E-03,   46.6230E-12
C:/temp/dataset/3/12_3.odb,Step-1,Increment      1: Step Time =    1.000,"PART-1-1",           107,      -12.5013,       25.0052,            0.,NA,NA,"",   36.4073E-03,  -36.2479E-03,  -3.40328E-03,   49.0221E-12
C:/temp/dataset/3/12_3.odb,Step-1,Increment      1: Step Time =    1.000,"PART-1-1",           108,      -10.0028,       27.5014,            0.,NA,NA,"",   37.4373E-03,  -37.3676E-03,  -2.28304E-03,   51.1513E-12
C:/temp/dataset/3/12_3.odb,Step-1,Increment      1: Step Time =    1.000,"PART-1-1",           109,      -2.49865,       22.5268,            0.,NA,NA,"",   35.1542E-03,  -35.1375E-03,   1.08278E-03,   43.9689E-12
C:/temp/dataset/3/12_3.odb,Step-1,Increment      1: Step Time =    1.000,"PART-1-1",           110,      -2.51000,       27.5279,            0.,NA,NA,"",   37.3958E-03,  -37.3803E-03,   1.07719E-03,   55.2524E-12
C:/temp/dataset/3/12_3.odb,Step-1,Increment      1: Step Time =    1.000,"PART-1-1",           111,       12.3864,       22.5464,            0.,NA,NA,"",   35.9938E-03,  -35.1477E-03,   7.75813E-03,   76.9486E-12
C:/temp/dataset/3/12_3.odb,Step-1,Increment      1: Step Time =    1.000,"PART-1-1",           112,       7.35369,       17.5509,            0.,NA,NA,"",   33.3637E-03,  -32.9070E-03,   5.50167E-03,   381.207E-12
C:/temp/dataset/3/12_3.odb,Step-1,Increment      1: Step Time =    1.000,"PART-1-1",           113,       12.3201,       14.9467,            0.,NA,NA,"",   32.6671E-03,  -31.7396E-03,   7.72917E-03,   898.670E-12
C:/temp/dataset/3/12_3.odb,Step-1,Increment      1: Step Time =    1.000,"PART-1-1",           114,       13.2599,       7.39194,            0.,NA,NA,"",   29.5002E-03,  -28.3517E-03,   8.15141E-03,   13.0869E-09
C:/temp/dataset/3/12_3.odb,Step-1,Increment      1: Step Time =    1.000,"PART-1-1",           115,       7.60504,      -5.98204,            0.,NA,NA,"",   23.0504E-03,  -22.3558E-03,   5.61590E-03,   1.11987E-06
C:/temp/dataset/3/12_3.odb,Step-1,Increment      1: Step Time =    1.000,"PART-1-1",           116,       7.71062,      -13.7665,            0.,NA,NA,"",   19.7891E-03,  -18.9461E-03,   5.71449E-03,   70.4989E-06
C:/temp/dataset/3/12_3.odb,Step-1,Increment      1: Step Time =    1.000,"PART-1-1",           117,       11.7208,      -22.4938,            0.,NA,NA,"",   19.2728E-03,  -17.9423E-03,   7.03678E-03,   1.70754E-03
C:/temp/dataset/3/12_3.odb,Step-1,Increment      1: Step Time =    1.000,"PART-1-1",           118,       2.59328,       2.74806,            0.,NA,NA,"",   26.4830E-03,  -26.2679E-03,   3.36878E-03,   65.9551E-09
C:/temp/dataset/3/12_3.odb,Step-1,Increment      1: Step Time =    1.000,"PART-1-1",           119,      -1.32361,      -2.98462,            0.,NA,NA,"",   23.7521E-03,  -23.6972E-03,   1.61336E-03,   5.20663E-09
C:/temp/dataset/3/12_3.odb,Step-1,Increment      1: Step Time =    1.000,"PART-1-1",           120,      -6.00563,       3.11026,            0.,NA,NA,"",   26.4339E-03,  -26.4294E-03,  -486.440E-06,   1.40803E-09
C:/temp/dataset/3/12_3.odb,Step-1,Increment      1: Step Time =    1.000,"PART-1-1",           121,      -10.4102,       2.53863,            0.,NA,NA,"",   26.2881E-03,  -26.1727E-03,  -2.46116E-03,   332.862E-12
C:/temp/dataset/3/12_3.odb,Step-1,Increment      1: Step Time =    1.000,"PART-1-1",           122,      -12.6184,  -43.2983E-03,            0.,NA,NA,"",   25.2518E-03,  -25.0148E-03,  -3.45097E-03,   129.410E-12
C:/temp/dataset/3/12_3.odb,Step-1,Increment      1: Step Time =    1.000,"PART-1-1",           123,      -3.88272,       3.23189,            0.,NA,NA,"",   26.4882E-03,  -26.4841E-03,   465.344E-06,   1.71796E-09
C:/temp/dataset/3/12_3.odb,Step-1,Increment      1: Step Time =    1.000,"PART-1-1",           124,       2.98144,      -22.7363,            0.,NA,NA,"",   9.12225E-03,  -9.03952E-03,   1.22577E-03,   842.268E-06
C:/temp/dataset/3/12_3.odb,Step-1,Increment      1: Step Time =    1.000,"PART-1-1",           125,      -2.42987,      -22.6294,            0.,NA,NA,"",   6.24718E-03,  -6.23128E-03,   445.481E-06,   547.870E-06
C:/temp/dataset/3/12_3.odb,Step-1,Increment      1: Step Time =    1.000,"PART-1-1",           126,      -9.97348,      -22.5672,            0.,NA,NA,"",   4.46248E-03,  -4.45932E-03,  -168.062E-06,   204.936E-06
C:/temp/dataset/3/12_3.odb,Step-1,Increment      1: Step Time =    1.000,"PART-1-1",           127,      -12.4895,      -25.0402,            0.,NA,NA,"",   3.16148E-03,  -3.10029E-03,  -618.959E-06,   238.630E-06
C:/temp/dataset/3/12_3.odb,Step-1,Increment      1: Step Time =    1.000,"PART-1-1",           128,       12.8561,      -14.2595,            0.,NA,NA,"",   20.1807E-03,  -18.5350E-03,   7.98200E-03,   79.0997E-06
C:/temp/dataset/3/12_3.odb,Step-1,Increment      1: Step Time =    1.000,"PART-1-1",           129,       12.7281,      -7.33650,            0.,NA,NA,"",   23.1338E-03,  -21.7378E-03,   7.91467E-03,   3.09078E-06
C:/temp/dataset/3/12_3.odb,Step-1,Increment      1: Step Time =    1.000,"PART-1-1",           130,       12.6427,  -96.8002E-03,            0.,NA,NA,"",   26.2049E-03,  -24.9935E-03,   7.87537E-03,   218.631E-09
C:/temp/dataset/3/12_3.odb,Step-1,Increment      1: Step Time =    1.000,"PART-1-1",           131,       7.13014,       10.3328,            0.,NA,NA,"",   30.1577E-03,  -29.6699E-03,   5.40214E-03,   4.51180E-09
C:/temp/dataset/3/12_3.odb,Step-1,Increment      1: Step Time =    1.000,"PART-1-1",           132,       4.95005,       27.5805,            0.,NA,NA,"",   37.6652E-03,  -37.4046E-03,   4.42272E-03,   58.1740E-12
C:/temp/dataset/3/12_3.odb,Step-1,Increment      1: Step Time =    1.000,"PART-1-1",           133,      -4.99957,       22.5148,            0.,NA,NA,"",   35.1319E-03,  -35.1318E-03,  -38.7840E-06,   44.8948E-12
C:/temp/dataset/3/12_3.odb,Step-1,Increment      1: Step Time =    1.000,"PART-1-1",           134,      -7.50186,       22.5094,            0.,NA,NA,"",   35.1483E-03,  -35.1292E-03,  -1.16096E-03,   45.7103E-12
C:/temp/dataset/3/12_3.odb,Step-1,Increment      1: Step Time =    1.000,"PART-1-1",           135,       4.93744,       22.5898,            0.,NA,NA,"",   35.4429E-03,  -35.1665E-03,   4.41757E-03,   47.3339E-12
C:/temp/dataset/3/12_3.odb,Step-1,Increment      1: Step Time =    1.000,"PART-1-1",           136,       2.47758,       22.5593,            0.,NA,NA,"",   35.3085E-03,  -35.1526E-03,   3.31442E-03,   41.2776E-12
C:/temp/dataset/3/12_3.odb,Step-1,Increment      1: Step Time =    1.000,"PART-1-1",           137,  -4.46696E-03,       22.5388,            0.,NA,NA,"",   35.2120E-03,  -35.1431E-03,   2.20132E-03,   43.3741E-12
C:/temp/dataset/3/12_3.odb,Step-1,Increment      1: Step Time =    1.000,"PART-1-1",           138,       7.20686,       12.6699,            0.,NA,NA,"",   31.1954E-03,  -30.7180E-03,   5.43631E-03,   1.16831E-09
C:/temp/dataset/3/12_3.odb,Step-1,Increment      1: Step Time =    1.000,"PART-1-1",           139,       7.30679,       15.0771,            0.,NA,NA,"",   32.2665E-03,  -31.7975E-03,   5.48089E-03,   874.943E-12
C:/temp/dataset/3/12_3.odb,Step-1,Increment      1: Step Time =    1.000,"PART-1-1",           140,       7.52839,       5.66323,            0.,NA,NA,"",   28.1349E-03,  -27.5758E-03,   5.58117E-03,   62.4030E-09
C:/temp/dataset/3/12_3.odb,Step-1,Increment      1: Step Time =    1.000,"PART-1-1",           141,       7.20823,       7.96221,            0.,NA,NA,"",   29.1189E-03,  -28.6068E-03,   5.43739E-03,   24.1315E-09
C:/temp/dataset/3/12_3.odb,Step-1,Increment      1: Step Time =    1.000,"PART-1-1",           142,      -1.77433,       3.17490,            0.,NA,NA,"",   26.4964E-03,  -26.4588E-03,   1.41063E-03,   2.23785E-09
C:/temp/dataset/3/12_3.odb,Step-1,Increment      1: Step Time =    1.000,"PART-1-1",           143,   347.975E-03,       3.01142,            0.,NA,NA,"",   26.4912E-03,  -26.3857E-03,   2.36215E-03,   15.3081E-09
C:/temp/dataset/3/12_3.odb,Step-1,Increment      1: Step Time =    1.000,"PART-1-1",           144,      -8.17775,       2.85153,            0.,NA,NA,"",   26.3537E-03,  -26.3132E-03,  -1.46028E-03,   764.534E-12
C:/temp/dataset/3/12_3.odb,Step-1,Increment      1: Step Time =    1.000,"PART-1-1",           145,      -8.45397,      -3.03463,            0.,NA,NA,"",   23.7270E-03,  -23.6741E-03,  -1.58353E-03,   667.228E-12
C:/temp/dataset/3/12_3.odb,Step-1,Increment      1: Step Time =    1.000,"PART-1-1",           146,      -12.6978,       2.46856,            0.,NA,NA,"",   26.3725E-03,  -26.1410E-03,  -3.48680E-03,   120.839E-12
C:/temp/dataset/3/12_3.odb,Step-1,Increment      1: Step Time =    1.000,"PART-1-1",           147,      -10.5225,      -2.72745,            0.,NA,NA,"",   23.9436E-03,  -23.8116E-03,  -2.51098E-03,   305.193E-12
C:/temp/dataset/3/12_3.odb,Step-1,Increment      1: Step Time =    1.000,"PART-1-1",           148,      -12.7265,      -2.55241,            0.,NA,NA,"",   24.1448E-03,  -23.8899E-03,  -3.49918E-03,   112.263E-12
C:/temp/dataset/3/12_3.odb,Step-1,Increment      1: Step Time =    1.000,"PART-1-1",           149,      -3.80700,      -2.48494,            0.,NA,NA,"",   23.9262E-03,  -23.9210E-03,   499.869E-06,   1.93713E-09
C:/temp/dataset/3/12_3.odb,Step-1,Increment      1: Step Time =    1.000,"PART-1-1",           150,      -6.26959,      -2.94549,            0.,NA,NA,"",   23.7220E-03,  -23.7143E-03,  -604.183E-06,   1.46312E-09
C:/temp/dataset/3/12_3.odb,Step-1,Increment      1: Step Time =    1.000,"PART-1-1",           151,       2.97297,      -3.34056,            0.,NA,NA,"",   23.8028E-03,  -23.5381E-03,   3.53990E-03,   188.006E-09
C:/temp/dataset/3/12_3.odb,Step-1,Increment      1: Step Time =    1.000,"PART-1-1",           152,   836.982E-03,      -3.21922,            0.,NA,NA,"",   23.7332E-03,  -23.5923E-03,   2.58212E-03,   42.6166E-09
C:/temp/dataset/3/12_3.odb,Step-1,Increment      1: Step Time =    1.000,"PART-1-1",           153,       7.27849,      -10.7647,            0.,NA,NA,"",   20.9734E-03,  -20.2468E-03,   5.47267E-03,   20.1932E-06
C:/temp/dataset/3/12_3.odb,Step-1,Increment      1: Step Time =    1.000,"PART-1-1",           154,       7.20650,      -8.25133,            0.,NA,NA,"",   22.0296E-03,  -21.3478E-03,   5.43833E-03,   5.16014E-06
C:/temp/dataset/3/12_3.odb,Step-1,Increment      1: Step Time =    1.000,"PART-1-1",           155,       7.07274,      -17.3233,            0.,NA,NA,"",   18.0419E-03,  -17.2259E-03,   5.36444E-03,   125.340E-06
C:/temp/dataset/3/12_3.odb,Step-1,Increment      1: Step Time =    1.000,"PART-1-1",           156,       6.55788,      -15.2577,            0.,NA,NA,"",   18.9846E-03,  -18.2901E-03,   5.08788E-03,   92.2034E-06
C:/temp/dataset/3/12_3.odb,Step-1,Increment      1: Step Time =    1.000,"PART-1-1",           157,      -7.46685,      -22.5818,            0.,NA,NA,"",   4.80003E-03,  -4.79816E-03,   134.195E-06,   310.974E-06
C:/temp/dataset/3/12_3.odb,Step-1,Increment      1: Step Time =    1.000,"PART-1-1",           158,      -4.95694,      -22.5955,            0.,NA,NA,"",   5.39096E-03,  -5.38249E-03,   301.930E-06,   420.262E-06
C:/temp/dataset/3/12_3.odb,Step-1,Increment      1: Step Time =    1.000,"PART-1-1",           159,   146.162E-03,      -22.6598,            0.,NA,NA,"",   7.46393E-03,  -7.43330E-03,   675.449E-06,   713.144E-06
C:/temp/dataset/3/12_3.odb,Step-1,Increment      1: Step Time =    1.000,"PART-1-1",           160,      -12.4860,      -22.5306,            0.,NA,NA,"",   4.40394E-03,  -4.34256E-03,  -732.715E-06,   85.6605E-06
C:/temp/dataset/3/12_3.odb,Step-1,Increment      1: Step Time =    1.000,"PART-1-1",           161,       9.96020,      -27.7814,            0.,NA,NA,"",   7.27055E-03,  -7.23705E-03,   697.160E-06,   2.31761E-03
C:/temp/dataset/3/12_3.odb,Step-1,Increment      1: Step Time =    1.000,"PART-1-1",           162,       7.44077,      -27.8946,            0.,NA,NA,"",   4.97515E-03,  -4.96215E-03,   359.397E-06,   1.53332E-03
C:/temp/dataset/3/12_3.odb,Step-1,Increment      1: Step Time =    1.000,"PART-1-1",           163,       4.93217,      -27.8625,            0.,NA,NA,"",   3.75364E-03,  -3.75135E-03,   131.089E-06,   1.12382E-03
C:/temp/dataset/3/12_3.odb,Step-1,Increment      1: Step Time =    1.000,"PART-1-1",           164,       2.47767,      -27.7470,            0.,NA,NA,"",   3.14658E-03,  -3.14653E-03,  -18.5949E-06,   889.698E-06
C:/temp/dataset/3/12_3.odb,Step-1,Increment      1: Step Time =    1.000,"PART-1-1",           165,   19.5837E-03,      -27.6625,            0.,NA,NA,"",   2.71053E-03,  -2.70904E-03,  -89.9250E-06,   747.407E-06
C:/temp/dataset/3/12_3.odb,Step-1,Increment      1: Step Time =    1.000,"PART-1-1",           166,      -2.46955,      -27.6154,            0.,NA,NA,"",   2.34670E-03,  -2.34448E-03,  -102.109E-06,   639.453E-06
C:/temp/dataset/3/12_3.odb,Step-1,Increment      1: Step Time =    1.000,"PART-1-1",           167,      -4.97450,      -27.5844,            0.,NA,NA,"",   2.04006E-03,  -2.03806E-03,  -90.4194E-06,   549.074E-06
C:/temp/dataset/3/12_3.odb,Step-1,Increment      1: Step Time =    1.000,"PART-1-1",           168,      -7.48283,      -27.5594,            0.,NA,NA,"",   1.78953E-03,  -1.78715E-03,  -92.1983E-06,   476.893E-06
C:/temp/dataset/3/12_3.odb,Step-1,Increment      1: Step Time =    1.000,"PART-1-1",           169,       12.2865,      -25.1793,            0.,NA,NA,"",   18.6065E-03,  -18.0306E-03,   4.59318E-03,   2.98010E-03
C:/temp/dataset/3/12_3.odb,Step-1,Increment      1: Step Time =    1.000,"PART-1-1",           170,       11.6753,      -16.4340,            0.,NA,NA,"",   19.2185E-03,  -17.6293E-03,   7.65233E-03,   120.349E-06
C:/temp/dataset/3/12_3.odb,Step-1,Increment      1: Step Time =    1.000,"PART-1-1",           171,       11.9685,      -19.5802,            0.,NA,NA,"",   18.6824E-03,  -16.9101E-03,   7.94249E-03,   409.521E-06
C:/temp/dataset/3/12_3.odb,Step-1,Increment      1: Step Time =    1.000,"PART-1-1",           172,       13.3291,      -9.93034,            0.,NA,NA,"",   22.1211E-03,  -20.5522E-03,   8.18223E-03,   12.9099E-06
C:/temp/dataset/3/12_3.odb,Step-1,Increment      1: Step Time =    1.000,"PART-1-1",           173,       13.4212,      -12.1607,            0.,NA,NA,"",   21.1724E-03,  -19.5154E-03,   8.21097E-03,   32.1403E-06
C:/temp/dataset/3/12_3.odb,Step-1,Increment      1: Step Time =    1.000,"PART-1-1",           174,       12.9633,      -2.52247,            0.,NA,NA,"",   25.2147E-03,  -23.9054E-03,   8.01958E-03,   272.054E-09
C:/temp/dataset/3/12_3.odb,Step-1,Increment      1: Step Time =    1.000,"PART-1-1",           175,       13.1247,      -4.84738,            0.,NA,NA,"",   24.2509E-03,  -22.8609E-03,   8.09247E-03,   189.248E-09
C:/temp/dataset/3/12_3.odb,Step-1,Increment      1: Step Time =    1.000,"PART-1-1",           176,       13.1131,       5.12757,            0.,NA,NA,"",   28.5071E-03,  -27.3363E-03,   8.08578E-03,   41.8384E-09
C:/temp/dataset/3/12_3.odb,Step-1,Increment      1: Step Time =    1.000,"PART-1-1",           177,       12.1418,       2.60140,            0.,NA,NA,"",   27.2974E-03,  -26.2034E-03,   7.65039E-03,   118.968E-09
C:/temp/dataset/3/12_3.odb,Step-1,Increment      1: Step Time =    1.000,"PART-1-1",           178,       12.1760,       12.1629,            0.,NA,NA,"",   31.4398E-03,  -30.4912E-03,   7.66482E-03,   948.129E-12
C:/temp/dataset/3/12_3.odb,Step-1,Increment      1: Step Time =    1.000,"PART-1-1",           179,       13.0236,       9.64002,            0.,NA,NA,"",   30.4422E-03,  -29.3598E-03,   8.04520E-03,   2.44878E-09
C:/temp/dataset/3/12_3.odb,Step-1,Increment      1: Step Time =    1.000,"PART-1-1",           180,       12.3784,       20.0377,            0.,NA,NA,"",   34.8953E-03,  -34.0227E-03,   7.75479E-03,   150.321E-12
C:/temp/dataset/3/12_3.odb,Step-1,Increment      1: Step Time =    1.000,"PART-1-1",           181,       12.3660,       17.5135,            0.,NA,NA,"",   33.7913E-03,  -32.8907E-03,   7.74948E-03,   394.526E-12
C:/temp/dataset/3/12_3.odb,Step-1,Increment      1: Step Time =    1.000,"PART-1-1",           182,       12.4264,       25.0333,            0.,NA,NA,"",   37.0873E-03,  -36.2630E-03,   7.77582E-03,   59.2390E-12
C:/temp/dataset/3/12_3.odb,Step-1,Increment      1: Step Time =    1.000,"PART-1-1",           183,       7.43491,       27.5684,            0.,NA,NA,"",   37.8071E-03,  -37.3994E-03,   5.53709E-03,   57.7156E-12
C:/temp/dataset/3/12_3.odb,Step-1,Increment      1: Step Time =    1.000,"PART-1-1",           184,  -17.4965E-03,       27.5503,            0.,NA,NA,"",   37.4549E-03,  -37.3906E-03,   2.19497E-03,   56.3682E-12
C:/temp/dataset/3/12_3.odb,Step-1,Increment      1: Step Time =    1.000,"PART-1-1",           185,       2.47067,       27.5656,            0.,NA,NA,"",   37.5440E-03,  -37.3977E-03,   3.31082E-03,   57.2011E-12
C:/temp/dataset/3/12_3.odb,Step-1,Increment      1: Step Time =    1.000,"PART-1-1",           186,      -7.50286,       27.5043,            0.,NA,NA,"",   37.3873E-03,  -37.3692E-03,  -1.16191E-03,   52.5166E-12
C:/temp/dataset/3/12_3.odb,Step-1,Increment      1: Step Time =    1.000,"PART-1-1",           187,      -5.00635,       27.5119,            0.,NA,NA,"",   37.3729E-03,  -37.3728E-03,  -42.3291E-06,   53.9071E-12
C:/temp/dataset/3/12_3.odb,Step-1,Increment      1: Step Time =    1.000,"PART-1-1",           188,      -12.5019,       27.5019,            0.,NA,NA,"",   37.5223E-03,  -37.3676E-03,  -3.40378E-03,   49.6740E-12
C:/temp/dataset/3/12_3.odb,Step-1,Increment      1: Step Time =    1.000,"PART-1-1",           189,      -12.5001,       22.5034,            0.,NA,NA,"",   35.2904E-03,  -35.1260E-03,  -3.40247E-03,   47.8432E-12
C:/temp/dataset/3/12_3.odb,Step-1,Increment      1: Step Time =    1.000,"PART-1-1",           190,      -5.00429,       25.0191,            0.,NA,NA,"",   36.2549E-03,  -36.2549E-03,  -41.1524E-06,   48.8758E-12
C:/temp/dataset/3/12_3.odb,Step-1,Increment      1: Step Time =    1.000,"PART-1-1",           191,  -15.9173E-03,       25.0642,            0.,NA,NA,"",   36.3421E-03,  -36.2757E-03,   2.19593E-03,   48.4631E-12
C:/temp/dataset/3/12_3.odb,Step-1,Increment      1: Step Time =    1.000,"PART-1-1",           192,       9.74355,       15.0604,            0.,NA,NA,"",   32.4629E-03,  -31.7903E-03,   6.57368E-03,   934.682E-12
C:/temp/dataset/3/12_3.odb,Step-1,Increment      1: Step Time =    1.000,"PART-1-1",           193,       9.51986,       12.6989,            0.,NA,NA,"",   31.4057E-03,  -30.7313E-03,   6.47360E-03,   1.22275E-09
C:/temp/dataset/3/12_3.odb,Step-1,Increment      1: Step Time =    1.000,"PART-1-1",           194,       12.1898,      -11.7554,            0.,NA,NA,"",   21.1610E-03,  -19.7129E-03,   7.69341E-03,   33.7612E-06
C:/temp/dataset/3/12_3.odb,Step-1,Increment      1: Step Time =    1.000,"PART-1-1",           195,       9.78251,      -13.4248,            0.,NA,NA,"",   20.1725E-03,  -19.0255E-03,   6.70522E-03,   68.2614E-06
C:/temp/dataset/3/12_3.odb,Step-1,Increment      1: Step Time =    1.000,"PART-1-1",           196,       7.24032,      -19.5057,            0.,NA,NA,"",   16.3467E-03,  -15.4697E-03,   5.28233E-03,   517.146E-06
C:/temp/dataset/3/12_3.odb,Step-1,Increment      1: Step Time =    1.000,"PART-1-1",           197,      -10.0066,  -139.817E-03,            0.,NA,NA,"",   25.0757E-03,  -24.9718E-03,  -2.27993E-03,   429.830E-12
C:/temp/dataset/3/12_3.odb,Step-1,Increment      1: Step Time =    1.000,"PART-1-1",           198,      -8.39380,      -1.43672,            0.,NA,NA,"",   24.4402E-03,  -24.3905E-03,  -1.55672E-03,   757.413E-12
C:/temp/dataset/3/12_3.odb,Step-1,Increment      1: Step Time =    1.000,"PART-1-1",           199,      -5.07121,  -530.035E-03,            0.,NA,NA,"",   24.7975E-03,  -24.7974E-03,  -67.1346E-06,   1.56903E-09
C:/temp/dataset/3/12_3.odb,Step-1,Increment      1: Step Time =    1.000,"PART-1-1",           200,      -12.5003,      -27.5198,            0.,NA,NA,"",   1.61978E-03,  -1.57130E-03,  -393.315E-06,   423.100E-06
C:/temp/dataset/3/12_3.odb,Step-1,Increment      1: Step Time =    1.000,"PART-1-1",           201,       8.97180,      -8.86122,            0.,NA,NA,"",   21.9729E-03,  -21.0692E-03,   6.23685E-03,   9.44427E-06
C:/temp/dataset/3/12_3.odb,Step-1,Increment      1: Step Time =    1.000,"PART-1-1",           202,      -2.50561,       25.0360,            0.,NA,NA,"",   36.2788E-03,  -36.2627E-03,   1.07941E-03,   48.5947E-12
C:/temp/dataset/3/12_3.odb,Step-1,Increment      1: Step Time =    1.000,"PART-1-1",           203,      -7.50383,       25.0106,            0.,NA,NA,"",   36.2695E-03,  -36.2509E-03,  -1.16210E-03,   48.9232E-12
C:/temp/dataset/3/12_3.odb,Step-1,Increment      1: Step Time =    1.000,"PART-1-1",           204,       2.46362,       25.0850,            0.,NA,NA,"",   36.4357E-03,  -36.2852E-03,   3.30790E-03,   49.0489E-12
C:/temp/dataset/3/12_3.odb,Step-1,Increment      1: Step Time =    1.000,"PART-1-1",           205,       9.17638,       10.5785,            0.,NA,NA,"",   30.4435E-03,  -29.7803E-03,   6.31978E-03,   2.20342E-09
C:/temp/dataset/3/12_3.odb,Step-1,Increment      1: Step Time =    1.000,"PART-1-1",           206,       9.65111,       6.46520,            0.,NA,NA,"",   28.6894E-03,  -27.9357E-03,   6.53306E-03,   36.9570E-09
C:/temp/dataset/3/12_3.odb,Step-1,Increment      1: Step Time =    1.000,"PART-1-1",           207,      -1.99278,       1.34592,            0.,NA,NA,"",   25.6724E-03,  -25.6388E-03,   1.31288E-03,   3.28721E-09
C:/temp/dataset/3/12_3.odb,Step-1,Increment      1: Step Time =    1.000,"PART-1-1",           208,      -5.69490,       1.29843,            0.,NA,NA,"",   25.6194E-03,  -25.6171E-03,  -346.948E-06,   1.52261E-09
C:/temp/dataset/3/12_3.odb,Step-1,Increment      1: Step Time =    1.000,"PART-1-1",           209,       1.92780,   665.778E-03,            0.,NA,NA,"",   25.5196E-03,  -25.3342E-03,   3.07069E-03,   52.3771E-09
C:/temp/dataset/3/12_3.odb,Step-1,Increment      1: Step Time =    1.000,"PART-1-1",           210,       1.26043,      -1.37778,            0.,NA,NA,"",   24.5747E-03,  -24.4179E-03,   2.77177E-03,   38.6670E-09
C:/temp/dataset/3/12_3.odb,Step-1,Increment      1: Step Time =    1.000,"PART-1-1",           211,       9.14691,      -16.8280,            0.,NA,NA,"",   18.7120E-03,  -17.4985E-03,   6.62885E-03,   101.754E-06
C:/temp/dataset/3/12_3.odb,Step-1,Increment      1: Step Time =    1.000,"PART-1-1",           212,   79.9954E-03,      -25.2148,            0.,NA,NA,"",   5.28706E-03,  -5.28522E-03,   139.497E-06,   705.595E-06
C:/temp/dataset/3/12_3.odb,Step-1,Increment      1: Step Time =    1.000,"PART-1-1",           213,      -9.97865,      -25.0679,            0.,NA,NA,"",   3.18137E-03,  -3.17508E-03,  -199.897E-06,   331.247E-06
C:/temp/dataset/3/12_3.odb,Step-1,Increment      1: Step Time =    1.000,"PART-1-1",           214,       12.4671,      -27.6040,            0.,NA,NA,"",   11.9581E-03,  -11.7900E-03,   1.99785E-03,   3.48767E-03
C:/temp/dataset/3/12_3.odb,Step-1,Increment      1: Step Time =    1.000,"PART-1-1",           215,       9.82463,      -25.6838,            0.,NA,NA,"",   12.5200E-03,  -12.2543E-03,   2.56581E-03,   2.04819E-03
C:/temp/dataset/3/12_3.odb,Step-1,Increment      1: Step Time =    1.000,"PART-1-1",           216,       2.56344,      -25.3828,            0.,NA,NA,"",   6.16206E-03,  -6.15030E-03,   380.652E-06,   832.549E-06
C:/temp/dataset/3/12_3.odb,Step-1,Increment      1: Step Time =    1.000,"PART-1-1",           217,      -2.44121,      -25.1518,            0.,NA,NA,"",   4.51586E-03,  -4.51552E-03,   55.4233E-06,   601.542E-06
C:/temp/dataset/3/12_3.odb,Step-1,Increment      1: Step Time =    1.000,"PART-1-1",           218,      -4.95889,      -25.1139,            0.,NA,NA,"",   3.91079E-03,  -3.91072E-03,   22.5048E-06,   503.430E-06
C:/temp/dataset/3/12_3.odb,Step-1,Increment      1: Step Time =    1.000,"PART-1-1",           219,       10.3279,  -771.646E-03,            0.,NA,NA,"",   25.6195E-03,  -24.6904E-03,   6.83671E-03,   231.253E-09
C:/temp/dataset/3/12_3.odb,Step-1,Increment      1: Step Time =    1.000,"PART-1-1",           220,       10.4049,       4.48083,            0.,NA,NA,"",   27.9051E-03,  -27.0459E-03,   6.87124E-03,   73.3749E-09
C:/temp/dataset/3/12_3.odb,Step-1,Increment      1: Step Time =    1.000,"PART-1-1",           221,       9.80969,       17.5478,            0.,NA,NA,"",   33.5618E-03,  -32.9058E-03,   6.60309E-03,   411.540E-12
C:/temp/dataset/3/12_3.odb,Step-1,Increment      1: Step Time =    1.000,"PART-1-1",           222,       9.88106,       25.0797,            0.,NA,NA,"",   36.8852E-03,  -36.2836E-03,   6.63434E-03,   61.1774E-12
C:/temp/dataset/3/12_3.odb,Step-1,Increment      1: Step Time =    1.000,"PART-1-1",           223,       9.94975,       27.5346,            0.,NA,NA,"",   37.9740E-03,  -37.3846E-03,   6.66490E-03,   55.5383E-12
C:/temp/dataset/3/12_3.odb,Step-1,Increment      1: Step Time =    1.000,"PART-1-1",           224,       7.36779,       20.0596,            0.,NA,NA,"",   34.4748E-03,  -34.0320E-03,   5.50774E-03,   110.186E-12
C:/temp/dataset/3/12_3.odb,Step-1,Increment      1: Step Time =    1.000,"PART-1-1",           225,  -693.206E-03,      -1.01900,            0.,NA,NA,"",   24.6516E-03,  -24.5786E-03,   1.89580E-03,   10.8101E-09
C:/temp/dataset/3/12_3.odb,Step-1,Increment      1: Step Time =    1.000,"PART-1-1",           226,      -7.47194,      -25.0831,            0.,NA,NA,"",   3.46530E-03,  -3.46512E-03,  -34.5080E-06,   419.479E-06
C:/temp/dataset/3/12_3.odb,Step-1,Increment      1: Step Time =    1.000,"PART-1-1",           227,       5.28089,       2.25097,            0.,NA,NA,"",   26.4437E-03,  -26.0452E-03,   4.57369E-03,   72.7747E-09
C:/temp/dataset/3/12_3.odb,Step-1,Increment      1: Step Time =    1.000,"PART-1-1",           228,       9.26575,       8.45073,            0.,NA,NA,"",   29.5194E-03,  -28.8261E-03,   6.36007E-03,   14.6057E-09
C:/temp/dataset/3/12_3.odb,Step-1,Increment      1: Step Time =    1.000,"PART-1-1",           229,  -81.3472E-03,       1.02952,            0.,NA,NA,"",   25.5893E-03,  -25.4971E-03,   2.16989E-03,   17.7262E-09
C:/temp/dataset/3/12_3.odb,Step-1,Increment      1: Step Time =    1.000,"PART-1-1",           230,      -7.67687,   831.326E-03,            0.,NA,NA,"",   25.4375E-03,  -25.4075E-03,  -1.23551E-03,   976.748E-12
C:/temp/dataset/3/12_3.odb,Step-1,Increment      1: Step Time =    1.000,"PART-1-1",           231,      -2.54090,  -531.417E-03,            0.,NA,NA,"",   24.8200E-03,  -24.7970E-03,   1.06733E-03,   2.55814E-09
C:/temp/dataset/3/12_3.odb,Step-1,Increment      1: Step Time =    1.000,"PART-1-1",           232,      -3.83997,       1.55066,            0.,NA,NA,"",   25.7349E-03,  -25.7304E-03,   484.680E-06,   1.48948E-09
C:/temp/dataset/3/12_3.odb,Step-1,Increment      1: Step Time =    1.000,"PART-1-1",           233,      -6.84494,  -996.203E-03,            0.,NA,NA,"",   24.6033E-03,  -24.5882E-03,  -862.334E-06,   1.32181E-09
C:/temp/dataset/3/12_3.odb,Step-1,Increment      1: Step Time =    1.000,"PART-1-1",           234,       5.51335,      -3.03354,            0.,NA,NA,"",   24.1335E-03,  -23.6757E-03,   4.67881E-03,   367.293E-09
C:/temp/dataset/3/12_3.odb,Step-1,Increment      1: Step Time =    1.000,"PART-1-1",           235,       9.62476,      -7.14735,            0.,NA,NA,"",   22.7852E-03,  -21.8313E-03,   6.52368E-03,   3.81023E-06
C:/temp/dataset/3/12_3.odb,Step-1,Increment      1: Step Time =    1.000,"PART-1-1",           236,       7.38903,      -25.9371,            0.,NA,NA,"",   8.88785E-03,  -8.77078E-03,   1.43785E-03,   1.45043E-03
C:/temp/dataset/3/12_3.odb,Step-1,Increment      1: Step Time =    1.000,"PART-1-1",           237,       4.96373,      -25.7856,            0.,NA,NA,"",   7.02788E-03,  -6.98501E-03,   775.046E-06,   1.03434E-03
C:/temp/dataset/3/12_3.odb,Step-1,Increment      1: Step Time =    1.000,"PART-1-1",           238,       9.37191,      -21.3805,            0.,NA,NA,"",   16.7333E-03,  -15.5981E-03,   6.05810E-03,   959.983E-06
C:/temp/dataset/3/12_3.odb,Step-1,Increment      1: Step Time =    1.000,"PART-1-1",           239,       9.53380,      -19.3691,            0.,NA,NA,"",   17.7784E-03,  -16.4261E-03,   6.80115E-03,   401.596E-06
C:/temp/dataset/3/12_3.odb,Step-1,Increment      1: Step Time =    1.000,"PART-1-1",           240,       10.5518,      -5.76730,            0.,NA,NA,"",   23.4962E-03,  -22.4486E-03,   6.93740E-03,   1.59819E-06
C:/temp/dataset/3/12_3.odb,Step-1,Increment      1: Step Time =    1.000,"PART-1-1",           241,       10.8494,      -2.88140,            0.,NA,NA,"",   24.7745E-03,  -23.7441E-03,   7.07048E-03,   287.387E-09
C:/temp/dataset/3/12_3.odb,Step-1,Increment      1: Step Time =    1.000,"PART-1-1",           242,       9.33979,       1.27198,            0.,NA,NA,"",   26.3929E-03,  -25.6068E-03,   6.39363E-03,   152.889E-09
C:/temp/dataset/3/12_3.odb,Step-1,Increment      1: Step Time =    1.000,"PART-1-1",           243,       9.83335,       20.0603,            0.,NA,NA,"",   34.6692E-03,  -34.0326E-03,   6.61345E-03,   139.605E-12
C:/temp/dataset/3/12_3.odb,Step-1,Increment      1: Step Time =    1.000,"PART-1-1",           244,       7.39102,       25.1069,            0.,NA,NA,"",   36.7126E-03,  -36.2956E-03,   5.51765E-03,   57.9402E-12
C:/temp/dataset/3/12_3.odb,Step-1,Increment      1: Step Time =    1.000,"PART-1-1",           245,       4.93408,       25.0979,            0.,NA,NA,"",   36.5589E-03,  -36.2913E-03,   4.41581E-03,   51.0328E-12
C:/temp/dataset/3/12_3.odb,Step-1,Increment      1: Step Time =    1.000,"PART-1-1",           246,      -10.0026,       25.0068,            0.,NA,NA,"",   36.3207E-03,  -36.2489E-03,  -2.28269E-03,   48.9656E-12
C:/temp/dataset/3/12_3.odb,Step-1,Increment      1: Step Time =    1.000,"PART-1-1",           247,      -10.0008,       22.5051,            0.,NA,NA,"",   35.2010E-03,  -35.1270E-03,  -2.28165E-03,   46.6286E-12
C:/temp/dataset/3/12_3.odb,Step-1,Increment      1: Step Time =    1.000,"PART-1-1",           248,      -9.99283,      -27.5363,            0.,NA,NA,"",   1.60480E-03,  -1.59807E-03,  -146.846E-06,   433.147E-06
C:/temp/dataset/3/12_3.odb,Step-1,Increment      1: Step Time =    1.000,"PART-1-1",           249,       3.80746,   187.829E-03,            0.,NA,NA,"",   25.4230E-03,  -25.1200E-03,   3.91344E-03,   108.952E-09
C:/temp/dataset/3/12_3.odb,Step-1,Increment      1: Step Time =    1.000,"PART-1-1",           250,       11.4886,       7.12458,            0.,NA,NA,"",   29.1745E-03,  -28.2316E-03,   7.35705E-03,   23.2457E-09
C:/temp/dataset/3/12_3.odb,Step-1,Increment      1: Step Time =    1.000,"PART-1-1",           251,       5.25951,      -23.9756,            0.,NA,NA,"",   9.61483E-03,  -9.46470E-03,   1.69247E-03,   971.584E-06
C:/temp/dataset/3/12_3.odb,Step-1,Increment      1: Step Time =    1.000,"PART-1-1",           252,       9.85798,       22.5791,            0.,NA,NA,"",   35.7807E-03,  -35.1622E-03,   6.62424E-03,   70.7856E-12
C:/temp/dataset/3/12_3.odb,Step-1,Increment      1: Step Time =    1.000,"PART-1-1",           253,       7.38133,       22.5911,            0.,NA,NA,"",   35.5969E-03,  -35.1673E-03,   5.51356E-03,   54.0257E-12
C:/temp/dataset/3/12_3.odb,Step-1,Increment      1: Step Time =    1.000,"PART-1-1",           254,       9.03817,      -10.9527,            0.,NA,NA,"",   21.1012E-03,  -20.1417E-03,   6.29050E-03,   25.5924E-06
C:/temp/dataset/3/12_3.odb,Step-1,Increment      1: Step Time =    1.000,"PART-1-1",           255,       7.30212,      -21.2110,            0.,NA,NA,"",   14.6705E-03,  -13.9188E-03,   4.63566E-03,   1.03309E-03
C:/temp/dataset/3/12_3.odb,Step-1,Increment      1: Step Time =    1.000,"PART-1-1",           256,       8.48263,      -3.88795,            0.,NA,NA,"",   24.0552E-03,  -23.2926E-03,   6.00905E-03,   333.289E-09
C:/temp/dataset/3/12_3.odb,Step-1,Increment      1: Step Time =    1.000,"PART-1-1",           257,       8.48912,      -1.65164,            0.,NA,NA,"",   25.0282E-03,  -24.2954E-03,   6.01208E-03,   261.468E-09
C:/temp/dataset/3/12_3.odb,Step-1,Increment      1: Step Time =    1.000,"PART-1-1",           258,       8.19007,       3.36514,            0.,NA,NA,"",   27.1883E-03,  -26.5453E-03,   5.87801E-03,   93.2872E-09
C:/temp/dataset/3/12_3.odb,Step-1,Increment      1: Step Time =    1.000,"PART-1-1",           259,       6.78208,  -317.133E-03,            0.,NA,NA,"",   25.4406E-03,  -24.8937E-03,   5.24689E-03,   174.292E-09
C:/temp/dataset/3/12_3.odb,Step-1,Increment      1: Step Time =    1.000,"PART-1-1",           260,       11.8604,      -10.2109,            0.,NA,NA,"",   21.7762E-03,  -20.4304E-03,   7.53683E-03,   17.6288E-06
C:/temp/dataset/3/12_3.odb,Step-1,Increment      1: Step Time =    1.000,"PART-1-1",           261,       5.00218,  -627.613E-03,            0.,NA,NA,"",   25.1510E-03,  -24.7544E-03,   4.44914E-03,   165.961E-09
C:/temp/dataset/3/12_3.odb,Step-1,Increment      1: Step Time =    1.000,"PART-1-1",           262,       11.1460,      -8.45072,            0.,NA,NA,"",   22.4282E-03,  -21.2378E-03,   7.20961E-03,   7.79019E-06
C:/temp/dataset/3/12_3.odb,Step-1,Increment      1: Step Time =    1.000,"PART-1-1",           263,       11.7180,       5.54683,            0.,NA,NA,"",   28.5172E-03,  -27.5241E-03,   7.46007E-03,   48.3832E-09
C:/temp/dataset/3/12_3.odb,Step-1,Increment      1: Step Time =    1.000,"PART-1-1",           264,       5.25136,      -21.5985,            0.,NA,NA,"",   12.0938E-03,  -11.7723E-03,   2.77018E-03,   906.266E-06
C:/temp/dataset/3/12_3.odb,Step-1,Increment      1: Step Time =    1.000,"PART-1-1",           265,       12.4723,       27.5096,            0.,NA,NA,"",   38.1780E-03,  -37.3736E-03,   7.79618E-03,   52.0791E-12
C:/temp/dataset/3/12_3.odb,Step-1,Increment      1: Step Time =    1.000,"PART-1-1",           266,       5.87727,      -22.7682,            0.,NA,NA,"",   11.5560E-03,  -11.2436E-03,   2.66895E-03,   1.01912E-03
C:/temp/dataset/3/12_3.odb,Step-1,Increment      1: Step Time =    1.000,"PART-1-1",           267,       7.32369,      -22.7299,            0.,NA,NA,"",   13.1966E-03,  -12.6683E-03,   3.69637E-03,   1.19118E-03
C:/temp/dataset/3/12_3.odb,Step-1,Increment      1: Step Time =    1.000,"PART-1-1",           268,       11.4923,      -4.55460,            0.,NA,NA,"",   24.1419E-03,  -22.9929E-03,   7.35923E-03,   552.234E-09
C:/temp/dataset/3/12_3.odb,Step-1,Increment      1: Step Time =    1.000,"PART-1-1",           269,       11.2115,       8.96325,            0.,NA,NA,"",   29.9428E-03,  -29.0561E-03,   7.23259E-03,   8.19445E-09
C:/temp/dataset/3/12_3.odb,Step-1,Increment      1: Step Time =    1.000,"PART-1-1",           270,       10.8046,       10.5255,            0.,NA,NA,"",   30.5805E-03,  -29.7567E-03,   7.04998E-03,   2.40840E-09
C:/temp/dataset/3/12_3.odb,Step-1,Increment      1: Step Time =    1.000,"PART-1-1",           271,       7.35536,      -24.2380,            0.,NA,NA,"",   11.4615E-03,  -11.1539E-03,   2.63758E-03,   1.32373E-03
C:/temp/dataset/3/12_3.odb,Step-1,Increment      1: Step Time =    1.000,"PART-1-1",           272,      -3.82134,   150.711E-03,            0.,NA,NA,"",   25.1076E-03,  -25.1027E-03,   493.178E-06,   1.73375E-09
C:/temp/dataset/3/12_3.odb,Step-1,Increment      1: Step Time =    1.000,"PART-1-1",           273,       3.09609,      -1.70207,            0.,NA,NA,"",   24.5374E-03,  -24.2726E-03,   3.59488E-03,   122.844E-09
C:/temp/dataset/3/12_3.odb,Step-1,Increment      1: Step Time =    1.000,"PART-1-1",           274,       4.56419,      -1.78689,            0.,NA,NA,"",   24.6050E-03,  -24.2346E-03,   4.25308E-03,   189.007E-09
C:/temp/dataset/3/12_3.odb,Step-1,Increment      1: Step Time =    1.000,"PART-1-1",           275,       9.44492,      -23.8624,            0.,NA,NA,"",   14.8355E-03,  -14.2149E-03,   4.24602E-03,   1.70414E-03
C:/temp/dataset/3/12_3.odb,Step-1,Increment      1: Step Time =    1.000,"PART-1-1",           276,       8.77427,      -22.6651,            0.,NA,NA,"",   15.0931E-03,  -14.3110E-03,   4.79548E-03,   1.32042E-03
C:/temp/dataset/3/12_3.odb,Step-1,Increment      1: Step Time =    1.000,"PART-1-1",           277,       10.1837,      -9.28900,            0.,NA,NA,"",   21.9427E-03,  -20.8672E-03,   6.78518E-03,   12.2290E-06
C:/temp/dataset/3/12_3.odb,Step-1,Increment      1: Step Time =    1.000,"PART-1-1",           278,       10.4979,      -10.7612,            0.,NA,NA,"",   21.3595E-03,  -20.1990E-03,   6.94456E-03,   24.1607E-06
C:/temp/dataset/3/12_3.odb,Step-1,Increment      1: Step Time =    1.000,"PART-1-1",           279,       11.2325,      -12.6180,            0.,NA,NA,"",   20.6663E-03,  -19.3324E-03,   7.30439E-03,   51.2712E-06
C:/temp/dataset/3/12_3.odb,Step-1,Increment      1: Step Time =    1.000,"PART-1-1",           280,      -13.7500,       22.5017,            0.,NA,NA,"",   35.3480E-03,  -35.1251E-03,  -3.96303E-03,   49.4482E-12
C:/temp/dataset/3/12_3.odb,Step-1,Increment      1: Step Time =    1.000,"PART-1-1",           281,          -15.,         21.25,            0.,NA,NA,"",   34.8584E-03,  -34.5636E-03,  -4.52346E-03,   50.2825E-12
C:/temp/dataset/3/12_3.odb,Step-1,Increment      1: Step Time =    1.000,"PART-1-1",           282,        -13.75,           20.,            0.,NA,NA,"",   34.2333E-03,  -34.0032E-03,  -3.96276E-03,   47.0293E-12
C:/temp/dataset/3/12_3.odb,Step-1,Increment      1: Step Time =    1.000,"PART-1-1",           283,      -12.5000,       21.2517,            0.,NA,NA,"",   34.7317E-03,  -34.5646E-03,  -3.40233E-03,   46.6475E-12
C:/temp/dataset/3/12_3.odb,Step-1,Increment      1: Step Time =    1.000,"PART-1-1",           284,        -11.25,           30.,            0.,NA,NA,"",   38.5929E-03,  -38.4880E-03,  -2.84261E-03,   52.5984E-12
C:/temp/dataset/3/12_3.odb,Step-1,Increment      1: Step Time =    1.000,"PART-1-1",           285,      -12.5009,       28.7510,            0.,NA,NA,"",   38.0802E-03,  -37.9278E-03,  -3.40349E-03,   50.6983E-12
C:/temp/dataset/3/12_3.odb,Step-1,Increment      1: Step Time =    1.000,"PART-1-1",           286,      -11.2523,       27.5017,            0.,NA,NA,"",   37.4757E-03,  -37.3676E-03,  -2.84341E-03,   50.4161E-12
C:/temp/dataset/3/12_3.odb,Step-1,Increment      1: Step Time =    1.000,"PART-1-1",           287,      -10.0014,       28.7507,            0.,NA,NA,"",   37.9965E-03,  -37.9279E-03,  -2.28254E-03,   52.4202E-12
C:/temp/dataset/3/12_3.odb,Step-1,Increment      1: Step Time =    1.000,"PART-1-1",           288,      -8.75282,       27.5029,            0.,NA,NA,"",   37.4081E-03,  -37.3684E-03,  -1.72247E-03,   51.8155E-12
C:/temp/dataset/3/12_3.odb,Step-1,Increment      1: Step Time =    1.000,"PART-1-1",           289,      -10.0027,       26.2541,            0.,NA,NA,"",   36.8790E-03,  -36.8083E-03,  -2.28286E-03,   50.0212E-12
C:/temp/dataset/3/12_3.odb,Step-1,Increment      1: Step Time =    1.000,"PART-1-1",           290,      -8.75320,       25.0087,            0.,NA,NA,"",   36.2908E-03,  -36.2499E-03,  -1.72239E-03,   48.9433E-12
C:/temp/dataset/3/12_3.odb,Step-1,Increment      1: Step Time =    1.000,"PART-1-1",           291,      -7.50334,       26.2575,            0.,NA,NA,"",   36.8284E-03,  -36.8100E-03,  -1.16201E-03,   50.6201E-12
C:/temp/dataset/3/12_3.odb,Step-1,Increment      1: Step Time =    1.000,"PART-1-1",           292,  -10.1921E-03,       23.8015,            0.,NA,NA,"",   35.7770E-03,  -35.7094E-03,   2.19863E-03,   44.7586E-12
C:/temp/dataset/3/12_3.odb,Step-1,Increment      1: Step Time =    1.000,"PART-1-1",           293,       1.23656,       22.5490,            0.,NA,NA,"",   35.2559E-03,  -35.1478E-03,   2.75787E-03,   41.3658E-12
C:/temp/dataset/3/12_3.odb,Step-1,Increment      1: Step Time =    1.000,"PART-1-1",           294,       2.47060,       23.8222,            0.,NA,NA,"",   35.8720E-03,  -35.7189E-03,   3.31116E-03,   42.4952E-12
C:/temp/dataset/3/12_3.odb,Step-1,Increment      1: Step Time =    1.000,"PART-1-1",           295,       1.22385,       25.0746,            0.,NA,NA,"",   36.3847E-03,  -36.2804E-03,   2.75192E-03,   47.7324E-12
C:/temp/dataset/3/12_3.odb,Step-1,Increment      1: Step Time =    1.000,"PART-1-1",           296,       13.7132,       25.0166,            0.,NA,NA,"",   37.2055E-03,  -36.2557E-03,   8.35291E-03,   56.0537E-12
C:/temp/dataset/3/12_3.odb,Step-1,Increment      1: Step Time =    1.000,"PART-1-1",           297,           15.,         26.25,            0.,NA,NA,"",   37.8767E-03,  -36.8089E-03,   8.92987E-03,   52.2461E-12
C:/temp/dataset/3/12_3.odb,Step-1,Increment      1: Step Time =    1.000,"PART-1-1",           298,       13.7362,       27.5048,            0.,NA,NA,"",   38.2958E-03,  -37.3715E-03,   8.36296E-03,   51.3388E-12
C:/temp/dataset/3/12_3.odb,Step-1,Increment      1: Step Time =    1.000,"PART-1-1",           299,       12.4494,       26.2714,            0.,NA,NA,"",   37.6325E-03,  -36.8183E-03,   7.78600E-03,   55.5595E-12
C:/temp/dataset/3/12_3.odb,Step-1,Increment      1: Step Time =    1.000,"PART-1-1",           300,       6.19248,       27.5744,            0.,NA,NA,"",   37.7321E-03,  -37.4020E-03,   4.97991E-03,   57.6929E-12
C:/temp/dataset/3/12_3.odb,Step-1,Increment      1: Step Time =    1.000,"PART-1-1",           301,       7.46746,       28.7842,            0.,NA,NA,"",   38.3486E-03,  -37.9447E-03,   5.55156E-03,   57.2203E-12
C:/temp/dataset/3/12_3.odb,Step-1,Increment      1: Step Time =    1.000,"PART-1-1",           302,          6.25,           30.,            0.,NA,NA,"",   38.8139E-03,  -38.4898E-03,   5.00546E-03,   61.3513E-12
C:/temp/dataset/3/12_3.odb,Step-1,Increment      1: Step Time =    1.000,"PART-1-1",           303,       4.97503,       28.7903,            0.,NA,NA,"",   38.2053E-03,  -37.9471E-03,   4.43380E-03,   61.3241E-12
C:/temp/dataset/3/12_3.odb,Step-1,Increment      1: Step Time =    1.000,"PART-1-1",           304,       11.0878,       17.5306,            0.,NA,NA,"",   33.6719E-03,  -32.8983E-03,   7.17629E-03,   344.783E-12
C:/temp/dataset/3/12_3.odb,Step-1,Increment      1: Step Time =    1.000,"PART-1-1",           305,       12.3722,       18.7756,            0.,NA,NA,"",   34.3431E-03,  -33.4567E-03,   7.75214E-03,   258.802E-12
C:/temp/dataset/3/12_3.odb,Step-1,Increment      1: Step Time =    1.000,"PART-1-1",           306,       11.1059,       20.0490,            0.,NA,NA,"",   34.7777E-03,  -34.0276E-03,   7.18412E-03,   128.235E-12
C:/temp/dataset/3/12_3.odb,Step-1,Increment      1: Step Time =    1.000,"PART-1-1",           307,       9.82152,       18.8041,            0.,NA,NA,"",   34.1154E-03,  -33.4692E-03,   6.60827E-03,   263.060E-12
C:/temp/dataset/3/12_3.odb,Step-1,Increment      1: Step Time =    1.000,"PART-1-1",           308,       9.63171,       13.8797,            0.,NA,NA,"",   31.9342E-03,  -31.2608E-03,   6.52364E-03,   1.00787E-09
C:/temp/dataset/3/12_3.odb,Step-1,Increment      1: Step Time =    1.000,"PART-1-1",           309,       8.52517,       15.0687,            0.,NA,NA,"",   32.3602E-03,  -31.7939E-03,   6.02728E-03,   754.220E-12
C:/temp/dataset/3/12_3.odb,Step-1,Increment      1: Step Time =    1.000,"PART-1-1",           310,       7.25683,       13.8735,            0.,NA,NA,"",   31.7308E-03,  -31.2578E-03,   5.45860E-03,   953.286E-12
C:/temp/dataset/3/12_3.odb,Step-1,Increment      1: Step Time =    1.000,"PART-1-1",           311,       8.36336,       12.6844,            0.,NA,NA,"",   31.2964E-03,  -30.7247E-03,   5.95496E-03,   918.092E-12
C:/temp/dataset/3/12_3.odb,Step-1,Increment      1: Step Time =    1.000,"PART-1-1",           312,       14.0118,       9.82001,            0.,NA,NA,"",   30.6399E-03,  -29.4406E-03,   8.48834E-03,   1.84933E-09
C:/temp/dataset/3/12_3.odb,Step-1,Increment      1: Step Time =    1.000,"PART-1-1",           313,           15.,         11.25,            0.,NA,NA,"",   31.3799E-03,  -30.0820E-03,   8.93137E-03,   2.83527E-09
C:/temp/dataset/3/12_3.odb,Step-1,Increment      1: Step Time =    1.000,"PART-1-1",           314,       13.5880,       12.3315,            0.,NA,NA,"",   31.6732E-03,  -30.5669E-03,   8.29803E-03,   1.13601E-09
C:/temp/dataset/3/12_3.odb,Step-1,Increment      1: Step Time =    1.000,"PART-1-1",           315,       12.5998,       10.9015,            0.,NA,NA,"",   30.9392E-03,  -29.9255E-03,   7.85501E-03,   973.487E-12
C:/temp/dataset/3/12_3.odb,Step-1,Increment      1: Step Time =    1.000,"PART-1-1",           316,       4.40482,  -219.892E-03,            0.,NA,NA,"",   25.2853E-03,  -24.9372E-03,   4.18130E-03,   135.247E-09
C:/temp/dataset/3/12_3.odb,Step-1,Increment      1: Step Time =    1.000,"PART-1-1",           317,       3.45177,  -757.122E-03,            0.,NA,NA,"",   24.9800E-03,  -24.6963E-03,   3.75416E-03,   103.456E-09
C:/temp/dataset/3/12_3.odb,Step-1,Increment      1: Step Time =    1.000,"PART-1-1",           318,       3.83014,      -1.74448,            0.,NA,NA,"",   24.5690E-03,  -24.2536E-03,   3.92398E-03,   155.767E-09
C:/temp/dataset/3/12_3.odb,Step-1,Increment      1: Step Time =    1.000,"PART-1-1",           319,       4.78319,      -1.20725,            0.,NA,NA,"",   24.8779E-03,  -24.4945E-03,   4.35111E-03,   172.147E-09
C:/temp/dataset/3/12_3.odb,Step-1,Increment      1: Step Time =    1.000,"PART-1-1",           320,       10.3408,      -10.0251,            0.,NA,NA,"",   21.6508E-03,  -20.5341E-03,   6.86335E-03,   18.0245E-06
C:/temp/dataset/3/12_3.odb,Step-1,Increment      1: Step Time =    1.000,"PART-1-1",           321,       11.1792,      -10.4860,            0.,NA,NA,"",   21.5646E-03,  -20.3126E-03,   7.24070E-03,   20.1665E-06
C:/temp/dataset/3/12_3.odb,Step-1,Increment      1: Step Time =    1.000,"PART-1-1",           322,       11.5032,      -9.33080,            0.,NA,NA,"",   22.1021E-03,  -20.8359E-03,   7.37324E-03,   12.5143E-06
C:/temp/dataset/3/12_3.odb,Step-1,Increment      1: Step Time =    1.000,"PART-1-1",           323,       10.6649,      -8.86986,            0.,NA,NA,"",   22.1842E-03,  -21.0518E-03,   6.99713E-03,   9.95446E-06
C:/temp/dataset/3/12_3.odb,Step-1,Increment      1: Step Time =    1.000,"PART-1-1",           324,       9.41034,      -12.1888,            0.,NA,NA,"",   20.6326E-03,  -19.5861E-03,   6.48787E-03,   41.4347E-06
C:/temp/dataset/3/12_3.odb,Step-1,Increment      1: Step Time =    1.000,"PART-1-1",           325,       10.5075,      -13.0214,            0.,NA,NA,"",   20.4192E-03,  -19.1765E-03,   7.01473E-03,   56.8088E-06
C:/temp/dataset/3/12_3.odb,Step-1,Increment      1: Step Time =    1.000,"PART-1-1",           326,       10.8652,      -11.6896,            0.,NA,NA,"",   21.0133E-03,  -19.7688E-03,   7.12412E-03,   36.1730E-06
C:/temp/dataset/3/12_3.odb,Step-1,Increment      1: Step Time =    1.000,"PART-1-1",           327,       9.76802,      -10.8570,            0.,NA,NA,"",   21.2284E-03,  -20.1702E-03,   6.61888E-03,   23.6762E-06
C:/temp/dataset/3/12_3.odb,Step-1,Increment      1: Step Time =    1.000,"PART-1-1",           328,       6.12016,      -19.7528,            0.,NA,NA,"",   15.2317E-03,  -14.5722E-03,   4.43333E-03,   703.499E-06
C:/temp/dataset/3/12_3.odb,Step-1,Increment      1: Step Time =    1.000,"PART-1-1",           329,       7.15653,      -18.4145,            0.,NA,NA,"",   17.2227E-03,  -16.3472E-03,   5.42119E-03,   193.628E-06
C:/temp/dataset/3/12_3.odb,Step-1,Increment      1: Step Time =    1.000,"PART-1-1",           330,       6.03637,      -17.4116,            0.,NA,NA,"",   17.6610E-03,  -17.0494E-03,   4.60749E-03,   181.780E-06
C:/temp/dataset/3/12_3.odb,Step-1,Increment      1: Step Time =    1.000,"PART-1-1",           331,            5.,        -18.75,            0.,NA,NA,"",   16.1909E-03,  -15.8183E-03,   3.45380E-03,   335.945E-06
C:/temp/dataset/3/12_3.odb,Step-1,Increment      1: Step Time =    1.000,"PART-1-1",           332,       13.3604,      -22.4969,            0.,NA,NA,"",   21.5811E-03,  -19.9552E-03,   8.21778E-03,   1.77578E-03
C:/temp/dataset/3/12_3.odb,Step-1,Increment      1: Step Time =    1.000,"PART-1-1",           333,           15.,        -21.25,            0.,NA,NA,"",   19.4474E-03,  -18.2081E-03,   6.83135E-03,   416.563E-06
C:/temp/dataset/3/12_3.odb,Step-1,Increment      1: Step Time =    1.000,"PART-1-1",           334,       13.4842,      -19.7901,            0.,NA,NA,"",   18.9122E-03,  -17.1608E-03,   7.94841E-03,   197.390E-06
C:/temp/dataset/3/12_3.odb,Step-1,Increment      1: Step Time =    1.000,"PART-1-1",           335,       11.8446,      -21.0370,            0.,NA,NA,"",   19.1559E-03,  -17.4970E-03,   7.79779E-03,   923.980E-06
C:/temp/dataset/3/12_3.odb,Step-1,Increment      1: Step Time =    1.000,"PART-1-1",           336,       1.65000,            5.,            0.,NA,NA,"",   27.4360E-03,  -27.2774E-03,   2.94567E-03,   16.4349E-09
C:/temp/dataset/3/12_3.odb,Step-1,Increment      1: Step Time =    1.000,"PART-1-1",           337,   440.654E-03,       4.00571,            0.,NA,NA,"",   26.9389E-03,  -26.8315E-03,   2.40360E-03,   6.45710E-09
C:/temp/dataset/3/12_3.odb,Step-1,Increment      1: Step Time =    1.000,"PART-1-1",           338,       1.47063,       2.87974,            0.,NA,NA,"",   26.4823E-03,  -26.3268E-03,   2.86547E-03,   37.9845E-09
C:/temp/dataset/3/12_3.odb,Step-1,Increment      1: Step Time =    1.000,"PART-1-1",           339,       2.67998,       3.87403,            0.,NA,NA,"",   26.9887E-03,  -26.7727E-03,   3.40751E-03,   37.8360E-09
C:/temp/dataset/3/12_3.odb,Step-1,Increment      1: Step Time =    1.000,"PART-1-1",           340,      -1.46180,      -3.99231,            0.,NA,NA,"",   23.2971E-03,  -23.2454E-03,   1.55150E-03,   2.70014E-09
C:/temp/dataset/3/12_3.odb,Step-1,Increment      1: Step Time =    1.000,"PART-1-1",           341,     -500.E-03,           -5.,            0.,NA,NA,"",   22.8798E-03,  -22.7937E-03,   1.98284E-03,   14.3879E-09
C:/temp/dataset/3/12_3.odb,Step-1,Increment      1: Step Time =    1.000,"PART-1-1",           342,   718.491E-03,      -4.10961,            0.,NA,NA,"",   23.3305E-03,  -23.1930E-03,   2.52908E-03,   17.4561E-09
C:/temp/dataset/3/12_3.odb,Step-1,Increment      1: Step Time =    1.000,"PART-1-1",           343,  -243.313E-03,      -3.10192,            0.,NA,NA,"",   23.7376E-03,  -23.6448E-03,   2.09773E-03,   11.2478E-09
C:/temp/dataset/3/12_3.odb,Step-1,Increment      1: Step Time =    1.000,"PART-1-1",           344,      -3.82017,      -3.74247,            0.,NA,NA,"",   23.3624E-03,  -23.3572E-03,   494.092E-06,   2.19678E-09
C:/temp/dataset/3/12_3.odb,Step-1,Increment      1: Step Time =    1.000,"PART-1-1",           345,      -2.71667,           -5.,            0.,NA,NA,"",   22.8149E-03,  -22.7935E-03,   988.975E-06,   4.95136E-09
C:/temp/dataset/3/12_3.odb,Step-1,Increment      1: Step Time =    1.000,"PART-1-1",           346,      -2.56530,      -2.73478,            0.,NA,NA,"",   23.8326E-03,  -23.8091E-03,   1.05661E-03,   2.05677E-09
C:/temp/dataset/3/12_3.odb,Step-1,Increment      1: Step Time =    1.000,"PART-1-1",           347,      -13.8092,  -21.6491E-03,            0.,NA,NA,"",   25.3397E-03,  -25.0244E-03,  -3.98485E-03,   100.168E-12
C:/temp/dataset/3/12_3.odb,Step-1,Increment      1: Step Time =    1.000,"PART-1-1",           348,      -12.6581,       1.21263,            0.,NA,NA,"",   25.8121E-03,  -25.5779E-03,  -3.46888E-03,   119.740E-12
C:/temp/dataset/3/12_3.odb,Step-1,Increment      1: Step Time =    1.000,"PART-1-1",           349,      -13.8489,       2.48428,            0.,NA,NA,"",   26.4526E-03,  -26.1479E-03,  -4.00289E-03,   81.2265E-12
C:/temp/dataset/3/12_3.odb,Step-1,Increment      1: Step Time =    1.000,"PART-1-1",           350,          -15.,          1.25,            0.,NA,NA,"",   25.9903E-03,  -25.5944E-03,  -4.51886E-03,   64.2360E-12
C:/temp/dataset/3/12_3.odb,Step-1,Increment      1: Step Time =    1.000,"PART-1-1",           351,      -8.84172,   345.754E-03,            0.,NA,NA,"",   25.2509E-03,  -25.1896E-03,  -1.75772E-03,   688.401E-12
C:/temp/dataset/3/12_3.odb,Step-1,Increment      1: Step Time =    1.000,"PART-1-1",           352,      -9.20019,  -788.270E-03,            0.,NA,NA,"",   24.7556E-03,  -24.6812E-03,  -1.91832E-03,   563.413E-12
C:/temp/dataset/3/12_3.odb,Step-1,Increment      1: Step Time =    1.000,"PART-1-1",           353,      -7.61937,      -1.21646,            0.,NA,NA,"",   24.5192E-03,  -24.4894E-03,  -1.20953E-03,   956.087E-12
C:/temp/dataset/3/12_3.odb,Step-1,Increment      1: Step Time =    1.000,"PART-1-1",           354,      -7.26090,  -82.4387E-03,            0.,NA,NA,"",   25.0198E-03,  -24.9978E-03,  -1.04892E-03,   1.05949E-09
C:/temp/dataset/3/12_3.odb,Step-1,Increment      1: Step Time =    1.000,"PART-1-1",           355,      -12.7466,      -3.77621,            0.,NA,NA,"",   23.6033E-03,  -23.3412E-03,  -3.50805E-03,   72.8153E-12
C:/temp/dataset/3/12_3.odb,Step-1,Increment      1: Step Time =    1.000,"PART-1-1",           356,      -13.8633,      -2.52621,            0.,NA,NA,"",   24.2354E-03,  -23.9015E-03,  -4.00883E-03,   79.0126E-12
C:/temp/dataset/3/12_3.odb,Step-1,Increment      1: Step Time =    1.000,"PART-1-1",           357,          -15.,         -3.75,            0.,NA,NA,"",   23.7858E-03,  -23.3527E-03,  -4.51836E-03,   51.1679E-12
C:/temp/dataset/3/12_3.odb,Step-1,Increment      1: Step Time =    1.000,"PART-1-1",           358,      -13.8833,           -5.,            0.,NA,NA,"",   23.1438E-03,  -22.7924E-03,  -4.01758E-03,   46.9471E-12
C:/temp/dataset/3/12_3.odb,Step-1,Increment      1: Step Time =    1.000,"PART-1-1",           359,      -5.03830,      -2.71522,            0.,NA,NA,"",   23.8177E-03,  -23.8177E-03,  -52.1579E-06,   1.75779E-09
C:/temp/dataset/3/12_3.odb,Step-1,Increment      1: Step Time =    1.000,"PART-1-1",           360,      -4.43911,      -1.50749,            0.,NA,NA,"",   24.3602E-03,  -24.3592E-03,   216.367E-06,   1.35988E-09
C:/temp/dataset/3/12_3.odb,Step-1,Increment      1: Step Time =    1.000,"PART-1-1",           361,      -5.95808,  -763.119E-03,            0.,NA,NA,"",   24.6972E-03,  -24.6928E-03,  -464.734E-06,   1.41680E-09
C:/temp/dataset/3/12_3.odb,Step-1,Increment      1: Step Time =    1.000,"PART-1-1",           362,      -6.55726,      -1.97085,            0.,NA,NA,"",   24.1624E-03,  -24.1512E-03,  -733.259E-06,   1.19761E-09
C:/temp/dataset/3/12_3.odb,Step-1,Increment      1: Step Time =    1.000,"PART-1-1",           363,          6.25,          -30.,            0.,NA,NA,"",            0.,  -1.29261E-39,  -193.151E-42,   1.37058E-03
C:/temp/dataset/3/12_3.odb,Step-1,Increment      1: Step Time =    1.000,"PART-1-1",           364,       7.47038,      -28.9473,            0.,NA,NA,"",   2.53436E-03,  -2.53381E-03,   52.9149E-06,   1.51893E-03
C:/temp/dataset/3/12_3.odb,Step-1,Increment      1: Step Time =    1.000,"PART-1-1",           365,       6.18647,      -27.8786,            0.,NA,NA,"",   4.28935E-03,  -4.28244E-03,   243.378E-06,   1.32607E-03
C:/temp/dataset/3/12_3.odb,Step-1,Increment      1: Step Time =    1.000,"PART-1-1",           366,       4.96608,      -28.9312,            0.,NA,NA,"",   1.90924E-03,  -1.90922E-03,  -9.63478E-06,   1.12123E-03
C:/temp/dataset/3/12_3.odb,Step-1,Increment      1: Step Time =    1.000,"PART-1-1",           367,       3.70492,      -27.8047,            0.,NA,NA,"",   3.41219E-03,  -3.41185E-03,   48.2689E-06,   1.00590E-03
C:/temp/dataset/3/12_3.odb,Step-1,Increment      1: Step Time =    1.000,"PART-1-1",           368,       2.48883,      -28.8735,            0.,NA,NA,"",   1.59168E-03,  -1.59048E-03,  -61.8696E-06,   895.878E-06
C:/temp/dataset/3/12_3.odb,Step-1,Increment      1: Step Time =    1.000,"PART-1-1",           369,          3.75,          -30.,            0.,NA,NA,"",            0.,  -977.937E-42,  -239.639E-42,   1.04549E-03
C:/temp/dataset/3/12_3.odb,Step-1,Increment      1: Step Time =    1.000,"PART-1-1",           370,      -3.72203,      -27.5999,            0.,NA,NA,"",   2.18594E-03,  -2.18380E-03,  -96.6262E-06,   594.346E-06
C:/temp/dataset/3/12_3.odb,Step-1,Increment      1: Step Time =    1.000,"PART-1-1",           371,      -4.98725,      -28.7922,            0.,NA,NA,"",   1.03811E-03,  -1.03557E-03,  -72.6192E-06,   554.133E-06
C:/temp/dataset/3/12_3.odb,Step-1,Increment      1: Step Time =    1.000,"PART-1-1",           372,         -3.75,          -30.,            0.,NA,NA,"",            0.,  -580.199E-42,  -224.304E-42,   616.626E-06
C:/temp/dataset/3/12_3.odb,Step-1,Increment      1: Step Time =    1.000,"PART-1-1",           373,      -2.48478,      -28.8077,            0.,NA,NA,"",   1.19449E-03,  -1.19157E-03,  -83.3716E-06,   645.252E-06
C:/temp/dataset/3/12_3.odb,Step-1,Increment      1: Step Time =    1.000,"PART-1-1",           374,      -13.7501,      -27.5099,            0.,NA,NA,"",   1.70798E-03,  -1.59316E-03,  -615.644E-06,   310.795E-06
C:/temp/dataset/3/12_3.odb,Step-1,Increment      1: Step Time =    1.000,"PART-1-1",           375,          -15.,        -28.75,            0.,NA,NA,"",   1.18070E-03,  -945.244E-06,  -707.505E-06,   548.491E-06
C:/temp/dataset/3/12_3.odb,Step-1,Increment      1: Step Time =    1.000,"PART-1-1",           376,        -13.75,          -30.,            0.,NA,NA,"",            0.,  -127.374E-42,  -606.349E-42,   565.391E-06
C:/temp/dataset/3/12_3.odb,Step-1,Increment      1: Step Time =    1.000,"PART-1-1",           377,      -12.5001,      -28.7599,            0.,NA,NA,"",   729.052E-06,  -705.883E-06,  -182.335E-06,   395.246E-06
C:/temp/dataset/3/12_3.odb,Step-1,Increment      1: Step Time =    1.000,"PART-1-1",           378,       8.15833,      -10.8587,            0.,NA,NA,"",   21.0363E-03,  -20.1973E-03,   5.88162E-03,   22.0849E-06
C:/temp/dataset/3/12_3.odb,Step-1,Increment      1: Step Time =    1.000,"PART-1-1",           379,       9.00498,      -9.90697,            0.,NA,NA,"",   21.5350E-03,  -20.6050E-03,   6.26019E-03,   17.4382E-06
C:/temp/dataset/3/12_3.odb,Step-1,Increment      1: Step Time =    1.000,"PART-1-1",           380,       8.08915,      -8.55627,            0.,NA,NA,"",   21.9983E-03,  -21.2099E-03,   5.83669E-03,   6.71226E-06
C:/temp/dataset/3/12_3.odb,Step-1,Increment      1: Step Time =    1.000,"PART-1-1",           381,       7.24249,      -9.50802,            0.,NA,NA,"",   21.4975E-03,  -20.7938E-03,   5.45512E-03,   11.9757E-06
C:/temp/dataset/3/12_3.odb,Step-1,Increment      1: Step Time =    1.000,"PART-1-1",           382,       13.9816,      -2.51124,            0.,NA,NA,"",   25.3687E-03,  -23.9104E-03,   8.47697E-03,   362.111E-09
C:/temp/dataset/3/12_3.odb,Step-1,Increment      1: Step Time =    1.000,"PART-1-1",           383,           15.,         -1.25,            0.,NA,NA,"",   26.0557E-03,  -24.4763E-03,   8.93353E-03,   423.846E-09
C:/temp/dataset/3/12_3.odb,Step-1,Increment      1: Step Time =    1.000,"PART-1-1",           384,       13.8213,  -48.4001E-03,            0.,NA,NA,"",   26.3894E-03,  -25.0153E-03,   8.40427E-03,   188.322E-09
C:/temp/dataset/3/12_3.odb,Step-1,Increment      1: Step Time =    1.000,"PART-1-1",           385,       12.8030,      -1.30964,            0.,NA,NA,"",   25.7088E-03,  -24.4496E-03,   7.94744E-03,   236.674E-09
C:/temp/dataset/3/12_3.odb,Step-1,Increment      1: Step Time =    1.000,"PART-1-1",           386,           15.,          1.25,            0.,NA,NA,"",   27.1115E-03,  -25.5976E-03,   8.93266E-03,   187.333E-09
C:/temp/dataset/3/12_3.odb,Step-1,Increment      1: Step Time =    1.000,"PART-1-1",           387,       13.5709,       2.55070,            0.,NA,NA,"",   27.4624E-03,  -26.1808E-03,   8.29143E-03,   82.8036E-09
C:/temp/dataset/3/12_3.odb,Step-1,Increment      1: Step Time =    1.000,"PART-1-1",           388,       12.3922,       1.25230,            0.,NA,NA,"",   26.7497E-03,  -25.5985E-03,   7.76286E-03,   166.590E-09
C:/temp/dataset/3/12_3.odb,Step-1,Increment      1: Step Time =    1.000,"PART-1-1",           389,      -5.00532,       26.2655,            0.,NA,NA,"",   36.8139E-03,  -36.8139E-03,  -41.7406E-06,   51.2229E-12
C:/temp/dataset/3/12_3.odb,Step-1,Increment      1: Step Time =    1.000,"PART-1-1",           390,      -3.75495,       25.0275,            0.,NA,NA,"",   36.2625E-03,  -36.2588E-03,   519.126E-06,   48.7606E-12
C:/temp/dataset/3/12_3.odb,Step-1,Increment      1: Step Time =    1.000,"PART-1-1",           391,      -2.50780,       26.2820,            0.,NA,NA,"",   36.8373E-03,  -36.8215E-03,   1.07830E-03,   51.7420E-12
C:/temp/dataset/3/12_3.odb,Step-1,Increment      1: Step Time =    1.000,"PART-1-1",           392,      -3.75817,       27.5199,            0.,NA,NA,"",   37.3801E-03,  -37.3766E-03,   517.429E-06,   54.5472E-12
C:/temp/dataset/3/12_3.odb,Step-1,Increment      1: Step Time =    1.000,"PART-1-1",           393,      -5.00193,       23.7670,            0.,NA,NA,"",   35.6934E-03,  -35.6934E-03,  -39.9682E-06,   46.6825E-12
C:/temp/dataset/3/12_3.odb,Step-1,Increment      1: Step Time =    1.000,"PART-1-1",           394,      -6.25406,       25.0149,            0.,NA,NA,"",   36.2579E-03,  -36.2529E-03,  -601.625E-06,   48.9007E-12
C:/temp/dataset/3/12_3.odb,Step-1,Increment      1: Step Time =    1.000,"PART-1-1",           395,      -7.50285,       23.7600,            0.,NA,NA,"",   35.7089E-03,  -35.6900E-03,  -1.16153E-03,   47.2254E-12
C:/temp/dataset/3/12_3.odb,Step-1,Increment      1: Step Time =    1.000,"PART-1-1",           396,      -6.25071,       22.5121,            0.,NA,NA,"",   35.1356E-03,  -35.1305E-03,  -599.874E-06,   45.2887E-12
C:/temp/dataset/3/12_3.odb,Step-1,Increment      1: Step Time =    1.000,"PART-1-1",           397,      -12.5007,       23.7543,            0.,NA,NA,"",   35.8488E-03,  -35.6870E-03,  -3.40287E-03,   48.4867E-12
C:/temp/dataset/3/12_3.odb,Step-1,Increment      1: Step Time =    1.000,"PART-1-1",           398,      -13.7507,       25.0026,            0.,NA,NA,"",   36.4627E-03,  -36.2466E-03,  -3.96356E-03,   48.8593E-12
C:/temp/dataset/3/12_3.odb,Step-1,Increment      1: Step Time =    1.000,"PART-1-1",           399,          -15.,         23.75,            0.,NA,NA,"",   35.9704E-03,  -35.6848E-03,  -4.52371E-03,   49.6018E-12
C:/temp/dataset/3/12_3.odb,Step-1,Increment      1: Step Time =    1.000,"PART-1-1",           400,       1.22659,       27.5580,            0.,NA,NA,"",   37.4953E-03,  -37.3941E-03,   2.75290E-03,   56.8709E-12
C:/temp/dataset/3/12_3.odb,Step-1,Increment      1: Step Time =    1.000,"PART-1-1",           401,       2.48534,       28.7828,            0.,NA,NA,"",   38.0883E-03,  -37.9436E-03,   3.31727E-03,   62.5802E-12
C:/temp/dataset/3/12_3.odb,Step-1,Increment      1: Step Time =    1.000,"PART-1-1",           402,          1.25,           30.,            0.,NA,NA,"",   38.5883E-03,  -38.4893E-03,   2.76315E-03,   67.6827E-12
C:/temp/dataset/3/12_3.odb,Step-1,Increment      1: Step Time =    1.000,"PART-1-1",           403,  -8.74824E-03,       28.7751,            0.,NA,NA,"",   38.0035E-03,  -37.9399E-03,   2.19877E-03,   61.4955E-12
C:/temp/dataset/3/12_3.odb,Step-1,Increment      1: Step Time =    1.000,"PART-1-1",           404,  -16.7069E-03,       26.3073,            0.,NA,NA,"",   36.8985E-03,  -36.8331E-03,   2.19545E-03,   52.2072E-12
C:/temp/dataset/3/12_3.odb,Step-1,Increment      1: Step Time =    1.000,"PART-1-1",           405,       2.46714,       26.3253,            0.,NA,NA,"",   36.9898E-03,  -36.8415E-03,   3.30936E-03,   53.0087E-12
C:/temp/dataset/3/12_3.odb,Step-1,Increment      1: Step Time =    1.000,"PART-1-1",           406,       3.70751,       22.5746,            0.,NA,NA,"",   35.3714E-03,  -35.1595E-03,   3.86599E-03,   41.8227E-12
C:/temp/dataset/3/12_3.odb,Step-1,Increment      1: Step Time =    1.000,"PART-1-1",           407,       2.48879,       21.2797,            0.,NA,NA,"",   34.7377E-03,  -34.5787E-03,   3.31958E-03,   40.5695E-12
C:/temp/dataset/3/12_3.odb,Step-1,Increment      1: Step Time =    1.000,"PART-1-1",           408,          3.75,           20.,            0.,NA,NA,"",   34.2262E-03,  -34.0049E-03,   3.88531E-03,   51.9160E-12
C:/temp/dataset/3/12_3.odb,Step-1,Increment      1: Step Time =    1.000,"PART-1-1",           409,       4.96872,       21.2949,            0.,NA,NA,"",   34.8686E-03,  -34.5858E-03,   4.43173E-03,   32.4037E-12
C:/temp/dataset/3/12_3.odb,Step-1,Increment      1: Step Time =    1.000,"PART-1-1",           410,       10.8479,       12.4309,            0.,NA,NA,"",   31.4169E-03,  -30.6112E-03,   7.06922E-03,   944.967E-12
C:/temp/dataset/3/12_3.odb,Step-1,Increment      1: Step Time =    1.000,"PART-1-1",           411,       9.34812,       11.6387,            0.,NA,NA,"",   30.9246E-03,  -30.2558E-03,   6.39669E-03,   1.25523E-09
C:/temp/dataset/3/12_3.odb,Step-1,Increment      1: Step Time =    1.000,"PART-1-1",           412,       9.99050,       10.5520,            0.,NA,NA,"",   30.5099E-03,  -29.7685E-03,   6.68488E-03,   2.33130E-09
C:/temp/dataset/3/12_3.odb,Step-1,Increment      1: Step Time =    1.000,"PART-1-1",           413,       11.4903,       11.3442,            0.,NA,NA,"",   31.0094E-03,  -30.1239E-03,   7.35740E-03,   1.25521E-09
C:/temp/dataset/3/12_3.odb,Step-1,Increment      1: Step Time =    1.000,"PART-1-1",           414,       7.16850,       11.5014,            0.,NA,NA,"",   30.6764E-03,  -30.1940E-03,   5.41923E-03,   1.38536E-09
C:/temp/dataset/3/12_3.odb,Step-1,Increment      1: Step Time =    1.000,"PART-1-1",           415,       6.10343,       12.5850,            0.,NA,NA,"",   31.0752E-03,  -30.6798E-03,   4.94147E-03,   1.23779E-09
C:/temp/dataset/3/12_3.odb,Step-1,Increment      1: Step Time =    1.000,"PART-1-1",           416,            5.,         11.25,            0.,NA,NA,"",   30.4079E-03,  -30.0810E-03,   4.44676E-03,   3.59971E-09
C:/temp/dataset/3/12_3.odb,Step-1,Increment      1: Step Time =    1.000,"PART-1-1",           417,       6.06507,       10.1664,            0.,NA,NA,"",   30.0021E-03,  -29.5952E-03,   4.92451E-03,   2.49685E-09
C:/temp/dataset/3/12_3.odb,Step-1,Increment      1: Step Time =    1.000,"PART-1-1",           418,       14.0565,       5.06378,            0.,NA,NA,"",   28.6027E-03,  -27.3078E-03,   8.50891E-03,   27.9922E-09
C:/temp/dataset/3/12_3.odb,Step-1,Increment      1: Step Time =    1.000,"PART-1-1",           419,       12.6274,       3.86448,            0.,NA,NA,"",   27.9022E-03,  -26.7698E-03,   7.86811E-03,   77.3010E-09
C:/temp/dataset/3/12_3.odb,Step-1,Increment      1: Step Time =    1.000,"PART-1-1",           420,           15.,          3.75,            0.,NA,NA,"",   28.1722E-03,  -26.7187E-03,   8.93217E-03,   61.8775E-09
C:/temp/dataset/3/12_3.odb,Step-1,Increment      1: Step Time =    1.000,"PART-1-1",           421,       10.0280,       5.47301,            0.,NA,NA,"",   28.2960E-03,  -27.4908E-03,   6.70215E-03,   54.1043E-09
C:/temp/dataset/3/12_3.odb,Step-1,Increment      1: Step Time =    1.000,"PART-1-1",           422,       11.0614,       5.01383,            0.,NA,NA,"",   28.2103E-03,  -27.2850E-03,   7.16566E-03,   56.3523E-09
C:/temp/dataset/3/12_3.odb,Step-1,Increment      1: Step Time =    1.000,"PART-1-1",           423,       11.6033,       6.33570,            0.,NA,NA,"",   28.8455E-03,  -27.8779E-03,   7.40856E-03,   35.1816E-09
C:/temp/dataset/3/12_3.odb,Step-1,Increment      1: Step Time =    1.000,"PART-1-1",           424,       10.5698,       6.79489,            0.,NA,NA,"",   28.9297E-03,  -28.0837E-03,   6.94505E-03,   28.3975E-09
C:/temp/dataset/3/12_3.odb,Step-1,Increment      1: Step Time =    1.000,"PART-1-1",           425,      -4.94418,       3.17107,            0.,NA,NA,"",   26.4568E-03,  -26.4568E-03,  -10.5474E-06,   1.49237E-09
C:/temp/dataset/3/12_3.odb,Step-1,Increment      1: Step Time =    1.000,"PART-1-1",           426,      -3.90803,       4.11594,            0.,NA,NA,"",   26.8843E-03,  -26.8805E-03,   453.910E-06,   2.32349E-09
C:/temp/dataset/3/12_3.odb,Step-1,Increment      1: Step Time =    1.000,"PART-1-1",           427,      -5.05000,            5.,            0.,NA,NA,"",   27.2768E-03,  -27.2767E-03,  -58.1786E-06,   2.59910E-09
C:/temp/dataset/3/12_3.odb,Step-1,Increment      1: Step Time =    1.000,"PART-1-1",           428,      -6.08615,       4.05513,            0.,NA,NA,"",   26.8581E-03,  -26.8530E-03,  -522.636E-06,   1.21912E-09
C:/temp/dataset/3/12_3.odb,Step-1,Increment      1: Step Time =    1.000,"PART-1-1",           429,      -3.86135,       2.39128,            0.,NA,NA,"",   26.1116E-03,  -26.1073E-03,   475.012E-06,   1.25862E-09
C:/temp/dataset/3/12_3.odb,Step-1,Increment      1: Step Time =    1.000,"PART-1-1",           430,      -5.85027,       2.20434,            0.,NA,NA,"",   26.0266E-03,  -26.0232E-03,  -416.694E-06,   1.27956E-09
C:/temp/dataset/3/12_3.odb,Step-1,Increment      1: Step Time =    1.000,"PART-1-1",           431,      -4.76744,       1.42454,            0.,NA,NA,"",   25.6738E-03,  -25.6737E-03,   68.8667E-06,   1.41568E-09
C:/temp/dataset/3/12_3.odb,Step-1,Increment      1: Step Time =    1.000,"PART-1-1",           432,      -9.29397,       2.69508,            0.,NA,NA,"",   26.3161E-03,  -26.2429E-03,  -1.96072E-03,   540.292E-12
C:/temp/dataset/3/12_3.odb,Step-1,Increment      1: Step Time =    1.000,"PART-1-1",           433,      -8.28887,       3.92576,            0.,NA,NA,"",   26.8373E-03,  -26.7948E-03,  -1.51021E-03,   531.118E-12
C:/temp/dataset/3/12_3.odb,Step-1,Increment      1: Step Time =    1.000,"PART-1-1",           434,          -9.5,            5.,            0.,NA,NA,"",   27.3535E-03,  -27.2763E-03,  -2.05333E-03,   389.085E-12
C:/temp/dataset/3/12_3.odb,Step-1,Increment      1: Step Time =    1.000,"PART-1-1",           435,      -10.5051,       3.76932,            0.,NA,NA,"",   26.8415E-03,  -26.7244E-03,  -2.50384E-03,   198.531E-12
C:/temp/dataset/3/12_3.odb,Step-1,Increment      1: Step Time =    1.000,"PART-1-1",           436,      -7.92731,       1.84143,            0.,NA,NA,"",   25.8954E-03,  -25.8603E-03,  -1.34790E-03,   767.408E-12
C:/temp/dataset/3/12_3.odb,Step-1,Increment      1: Step Time =    1.000,"PART-1-1",           437,      -6.68589,       1.06488,            0.,NA,NA,"",   25.5245E-03,  -25.5123E-03,  -791.229E-06,   1.22687E-09
C:/temp/dataset/3/12_3.odb,Step-1,Increment      1: Step Time =    1.000,"PART-1-1",           438,      -7.09169,       2.98089,            0.,NA,NA,"",   26.3892E-03,  -26.3713E-03,  -973.360E-06,   1.05249E-09
C:/temp/dataset/3/12_3.odb,Step-1,Increment      1: Step Time =    1.000,"PART-1-1",           439,      -13.9000,            5.,            0.,NA,NA,"",   27.5714E-03,  -27.2759E-03,  -4.02606E-03,   51.7755E-12
C:/temp/dataset/3/12_3.odb,Step-1,Increment      1: Step Time =    1.000,"PART-1-1",           440,          -15.,          3.75,            0.,NA,NA,"",   27.0948E-03,  -26.7153E-03,  -4.51911E-03,   47.4874E-12
C:/temp/dataset/3/12_3.odb,Step-1,Increment      1: Step Time =    1.000,"PART-1-1",           441,      -12.7489,       3.73428,            0.,NA,NA,"",   26.9381E-03,  -26.7085E-03,  -3.50984E-03,   76.8721E-12
C:/temp/dataset/3/12_3.odb,Step-1,Increment      1: Step Time =    1.000,"PART-1-1",           442,      -9.48823,      -2.88104,            0.,NA,NA,"",   23.8310E-03,  -23.7429E-03,  -2.04726E-03,   475.958E-12
C:/temp/dataset/3/12_3.odb,Step-1,Increment      1: Step Time =    1.000,"PART-1-1",           443,      -8.42388,      -2.23568,            0.,NA,NA,"",   24.0835E-03,  -24.0323E-03,  -1.57012E-03,   644.799E-12
C:/temp/dataset/3/12_3.odb,Step-1,Increment      1: Step Time =    1.000,"PART-1-1",           444,      -10.2645,      -1.43363,            0.,NA,NA,"",   24.5091E-03,  -24.3917E-03,  -2.39546E-03,   324.008E-12
C:/temp/dataset/3/12_3.odb,Step-1,Increment      1: Step Time =    1.000,"PART-1-1",           445,      -12.6725,      -1.29786,            0.,NA,NA,"",   24.6981E-03,  -24.4524E-03,  -3.47507E-03,   114.256E-12
C:/temp/dataset/3/12_3.odb,Step-1,Increment      1: Step Time =    1.000,"PART-1-1",           446,          -15.,         -1.25,            0.,NA,NA,"",   24.8872E-03,  -24.4736E-03,  -4.51861E-03,   67.7165E-12
C:/temp/dataset/3/12_3.odb,Step-1,Increment      1: Step Time =    1.000,"PART-1-1",           447,      -6.16813,      -3.97275,            0.,NA,NA,"",   23.2604E-03,  -23.2537E-03,  -558.589E-06,   1.17039E-09
C:/temp/dataset/3/12_3.odb,Step-1,Increment      1: Step Time =    1.000,"PART-1-1",           448,      -4.95000,           -5.,            0.,NA,NA,"",   22.7933E-03,  -22.7933E-03,  -12.3398E-06,   2.92174E-09
C:/temp/dataset/3/12_3.odb,Step-1,Increment      1: Step Time =    1.000,"PART-1-1",           449,       1.59412,  -355.999E-03,            0.,NA,NA,"",   25.0470E-03,  -24.8760E-03,   2.92124E-03,   42.6694E-09
C:/temp/dataset/3/12_3.odb,Step-1,Increment      1: Step Time =    1.000,"PART-1-1",           450,       2.17826,      -1.53992,            0.,NA,NA,"",   24.5525E-03,  -24.3453E-03,   3.18332E-03,   71.5390E-09
C:/temp/dataset/3/12_3.odb,Step-1,Increment      1: Step Time =    1.000,"PART-1-1",           451,       2.86763,   426.804E-03,            0.,NA,NA,"",   25.4676E-03,  -25.2271E-03,   3.49208E-03,   82.0592E-09
C:/temp/dataset/3/12_3.odb,Step-1,Increment      1: Step Time =    1.000,"PART-1-1",           452,  -387.277E-03,   5.26357E-03,            0.,NA,NA,"",   25.1202E-03,  -25.0378E-03,   2.03284E-03,   12.1007E-09
C:/temp/dataset/3/12_3.odb,Step-1,Increment      1: Step Time =    1.000,"PART-1-1",           453,   283.611E-03,      -1.19839,            0.,NA,NA,"",   24.6092E-03,  -24.4983E-03,   2.33378E-03,   25.4956E-09
C:/temp/dataset/3/12_3.odb,Step-1,Increment      1: Step Time =    1.000,"PART-1-1",           454,   923.228E-03,   847.652E-03,            0.,NA,NA,"",   25.5504E-03,  -25.4156E-03,   2.62030E-03,   33.0535E-09
C:/temp/dataset/3/12_3.odb,Step-1,Increment      1: Step Time =    1.000,"PART-1-1",           455,       6.35531,      -13.1332,            0.,NA,NA,"",   19.8730E-03,  -19.2278E-03,   5.02252E-03,   39.7409E-06
C:/temp/dataset/3/12_3.odb,Step-1,Increment      1: Step Time =    1.000,"PART-1-1",           456,       7.49455,      -12.2656,            0.,NA,NA,"",   20.3763E-03,  -19.5963E-03,   5.58376E-03,   41.0110E-06
C:/temp/dataset/3/12_3.odb,Step-1,Increment      1: Step Time =    1.000,"PART-1-1",           457,       6.13925,      -10.3824,            0.,NA,NA,"",   21.0060E-03,  -20.4135E-03,   4.95394E-03,   11.1009E-06
C:/temp/dataset/3/12_3.odb,Step-1,Increment      1: Step Time =    1.000,"PART-1-1",           458,            5.,        -11.25,            0.,NA,NA,"",   20.5172E-03,  -20.0317E-03,   4.43722E-03,   24.5149E-06
C:/temp/dataset/3/12_3.odb,Step-1,Increment      1: Step Time =    1.000,"PART-1-1",           459,       13.3376,      -16.9670,            0.,NA,NA,"",   19.1965E-03,  -17.4117E-03,   8.08333E-03,   101.599E-06
C:/temp/dataset/3/12_3.odb,Step-1,Increment      1: Step Time =    1.000,"PART-1-1",           460,       11.8219,      -18.0071,            0.,NA,NA,"",   18.8003E-03,  -17.1030E-03,   7.80642E-03,   135.646E-06
C:/temp/dataset/3/12_3.odb,Step-1,Increment      1: Step Time =    1.000,"PART-1-1",           461,           15.,        -18.75,            0.,NA,NA,"",   18.9587E-03,  -17.1849E-03,   8.00702E-03,   266.934E-06
C:/temp/dataset/3/12_3.odb,Step-1,Increment      1: Step Time =    1.000,"PART-1-1",           462,       8.42876,      -15.2973,            0.,NA,NA,"",   19.2502E-03,  -18.2428E-03,   6.14576E-03,   79.0701E-06
C:/temp/dataset/3/12_3.odb,Step-1,Increment      1: Step Time =    1.000,"PART-1-1",           463,       10.4111,      -16.6310,            0.,NA,NA,"",   18.9911E-03,  -17.5717E-03,   7.20407E-03,   94.9911E-06
C:/temp/dataset/3/12_3.odb,Step-1,Increment      1: Step Time =    1.000,"PART-1-1",           464,       10.7289,      -14.9294,            0.,NA,NA,"",   19.6702E-03,  -18.3005E-03,   7.21152E-03,   83.1155E-06
C:/temp/dataset/3/12_3.odb,Step-1,Increment      1: Step Time =    1.000,"PART-1-1",           465,       8.74656,      -13.5956,            0.,NA,NA,"",   19.9835E-03,  -18.9896E-03,   6.22355E-03,   62.8806E-06
C:/temp/dataset/3/12_3.odb,Step-1,Increment      1: Step Time =    1.000,"PART-1-1",           466,      -8.72016,      -22.5745,            0.,NA,NA,"",   4.60000E-03,  -4.59999E-03,   9.36831E-06,   256.433E-06
C:/temp/dataset/3/12_3.odb,Step-1,Increment      1: Step Time =    1.000,"PART-1-1",           467,      -7.48342,      -21.2909,            0.,NA,NA,"",   5.27743E-03,  -5.27169E-03,   246.008E-06,   232.869E-06
C:/temp/dataset/3/12_3.odb,Step-1,Increment      1: Step Time =    1.000,"PART-1-1",           468,         -8.75,          -20.,            0.,NA,NA,"",   5.39154E-03,  -5.38921E-03,   158.479E-06,   127.364E-06
C:/temp/dataset/3/12_3.odb,Step-1,Increment      1: Step Time =    1.000,"PART-1-1",           469,      -9.98674,      -21.2836,            0.,NA,NA,"",   4.94473E-03,  -4.94320E-03,  -122.855E-06,   123.984E-06
C:/temp/dataset/3/12_3.odb,Step-1,Increment      1: Step Time =    1.000,"PART-1-1",           470,      -4.96670,      -26.3491,            0.,NA,NA,"",   3.01345E-03,  -3.01291E-03,  -57.0964E-06,   522.116E-06
C:/temp/dataset/3/12_3.odb,Step-1,Increment      1: Step Time =    1.000,"PART-1-1",           471,      -6.21541,      -25.0985,            0.,NA,NA,"",   3.66753E-03,  -3.66753E-03,   2.23679E-06,   460.712E-06
C:/temp/dataset/3/12_3.odb,Step-1,Increment      1: Step Time =    1.000,"PART-1-1",           472,      -7.47738,      -26.3212,            0.,NA,NA,"",   2.65580E-03,  -2.65464E-03,  -78.4285E-06,   446.396E-06
C:/temp/dataset/3/12_3.odb,Step-1,Increment      1: Step Time =    1.000,"PART-1-1",           473,      -6.22867,      -27.5719,            0.,NA,NA,"",   1.90771E-03,  -1.90570E-03,  -87.6274E-06,   512.812E-06
C:/temp/dataset/3/12_3.odb,Step-1,Increment      1: Step Time =    1.000,"PART-1-1",           474,   49.7896E-03,      -26.4387,            0.,NA,NA,"",   4.04492E-03,  -4.04490E-03,  -12.2103E-06,   717.493E-06
C:/temp/dataset/3/12_3.odb,Step-1,Increment      1: Step Time =    1.000,"PART-1-1",           475,       1.24862,      -27.7048,            0.,NA,NA,"",   2.90878E-03,  -2.90808E-03,  -64.0980E-06,   819.243E-06
C:/temp/dataset/3/12_3.odb,Step-1,Increment      1: Step Time =    1.000,"PART-1-1",           476,       2.52056,      -26.5649,            0.,NA,NA,"",   4.70647E-03,  -4.70450E-03,   136.242E-06,   846.356E-06
C:/temp/dataset/3/12_3.odb,Step-1,Increment      1: Step Time =    1.000,"PART-1-1",           477,       1.32172,      -25.2988,            0.,NA,NA,"",   5.68670E-03,  -5.68185E-03,   234.837E-06,   769.437E-06
C:/temp/dataset/3/12_3.odb,Step-1,Increment      1: Step Time =    1.000,"PART-1-1",           478,        -13.75,          -20.,            0.,NA,NA,"",   5.38736E-03,  -5.26108E-03,  -1.15962E-03,   8.43514E-06
C:/temp/dataset/3/12_3.odb,Step-1,Increment      1: Step Time =    1.000,"PART-1-1",           479,          -15.,        -21.25,            0.,NA,NA,"",   5.08127E-03,  -4.81935E-03,  -1.61033E-03,   8.27879E-06
C:/temp/dataset/3/12_3.odb,Step-1,Increment      1: Step Time =    1.000,"PART-1-1",           480,      -13.7430,      -22.5153,            0.,NA,NA,"",   4.48480E-03,  -4.33705E-03,  -1.14168E-03,   37.2128E-06
C:/temp/dataset/3/12_3.odb,Step-1,Increment      1: Step Time =    1.000,"PART-1-1",           481,      -12.4930,      -21.2653,            0.,NA,NA,"",   4.88481E-03,  -4.82856E-03,  -739.151E-06,   37.2292E-06
C:/temp/dataset/3/12_3.odb,Step-1,Increment      1: Step Time =    1.000,"PART-1-1",           482,      -11.2297,      -22.5489,            0.,NA,NA,"",   4.39583E-03,  -4.37690E-03,  -407.563E-06,   144.238E-06
C:/temp/dataset/3/12_3.odb,Step-1,Increment      1: Step Time =    1.000,"PART-1-1",           483,        -11.25,          -20.,            0.,NA,NA,"",   5.26505E-03,  -5.25137E-03,  -379.270E-06,   28.0365E-06
C:/temp/dataset/3/12_3.odb,Step-1,Increment      1: Step Time =    1.000,"PART-1-1",           484,      -13.7448,      -25.0201,            0.,NA,NA,"",   3.31336E-03,  -3.15132E-03,  -1.02350E-03,   136.810E-06
C:/temp/dataset/3/12_3.odb,Step-1,Increment      1: Step Time =    1.000,"PART-1-1",           485,      -12.4878,      -23.7854,            0.,NA,NA,"",   3.83115E-03,  -3.76711E-03,  -697.572E-06,   156.569E-06
C:/temp/dataset/3/12_3.odb,Step-1,Increment      1: Step Time =    1.000,"PART-1-1",           486,          -15.,        -23.75,            0.,NA,NA,"",   4.13693E-03,  -3.80798E-03,  -1.61664E-03,   31.9953E-06
C:/temp/dataset/3/12_3.odb,Step-1,Increment      1: Step Time =    1.000,"PART-1-1",           487,       13.7335,      -27.5520,            0.,NA,NA,"",   14.4058E-03,  -14.1069E-03,   2.91949E-03,   3.07196E-03
C:/temp/dataset/3/12_3.odb,Step-1,Increment      1: Step Time =    1.000,"PART-1-1",           488,       12.4835,      -28.8020,            0.,NA,NA,"",   5.75801E-03,  -5.74330E-03,   411.286E-06,   3.22724E-03
C:/temp/dataset/3/12_3.odb,Step-1,Increment      1: Step Time =    1.000,"PART-1-1",           489,         13.75,          -30.,            0.,NA,NA,"",            0.,  -1.67203E-39,   906.504E-42,   5.01083E-03
C:/temp/dataset/3/12_3.odb,Step-1,Increment      1: Step Time =    1.000,"PART-1-1",           490,           15.,        -28.75,            0.,NA,NA,"",   12.0094E-03,  -11.1750E-03,   4.39830E-03,   4.00540E-03
C:/temp/dataset/3/12_3.odb,Step-1,Increment      1: Step Time =    1.000,"PART-1-1",           491,       9.98010,      -28.8907,            0.,NA,NA,"",   3.77720E-03,  -3.77278E-03,   182.753E-06,   2.16787E-03
C:/temp/dataset/3/12_3.odb,Step-1,Increment      1: Step Time =    1.000,"PART-1-1",           492,       8.70049,      -27.8380,            0.,NA,NA,"",   5.97766E-03,  -5.95591E-03,   509.451E-06,   1.87610E-03
C:/temp/dataset/3/12_3.odb,Step-1,Increment      1: Step Time =    1.000,"PART-1-1",           493,          8.75,          -30.,            0.,NA,NA,"",            0.,  -1.76789E-39,  -180.096E-42,   1.90985E-03
C:/temp/dataset/3/12_3.odb,Step-1,Increment      1: Step Time =    1.000,"PART-1-1",           494,       11.2136,      -27.6927,            0.,NA,NA,"",   9.21186E-03,  -9.16207E-03,   956.426E-06,   2.77831E-03
C:/temp/dataset/3/12_3.odb,Step-1,Increment      1: Step Time =    1.000,"PART-1-1",           495,       12.3768,      -26.3916,            0.,NA,NA,"",   15.8226E-03,  -15.4972E-03,   3.19267E-03,   2.88776E-03
C:/temp/dataset/3/12_3.odb,Step-1,Increment      1: Step Time =    1.000,"PART-1-1",           496,       11.0556,      -25.4315,            0.,NA,NA,"",   15.3833E-03,  -14.9645E-03,   3.56518E-03,   2.37400E-03
C:/temp/dataset/3/12_3.odb,Step-1,Increment      1: Step Time =    1.000,"PART-1-1",           497,       9.89242,      -26.7326,            0.,NA,NA,"",   10.2448E-03,  -10.1266E-03,   1.55137E-03,   2.12757E-03
C:/temp/dataset/3/12_3.odb,Step-1,Increment      1: Step Time =    1.000,"PART-1-1",           498,   9.79186E-03,      -28.8313,            0.,NA,NA,"",   1.37446E-03,  -1.37183E-03,  -85.0345E-06,   753.588E-06
C:/temp/dataset/3/12_3.odb,Step-1,Increment      1: Step Time =    1.000,"PART-1-1",           499,          1.25,          -30.,            0.,NA,NA,"",            0.,  -795.715E-42,  -266.030E-42,   849.730E-06
C:/temp/dataset/3/12_3.odb,Step-1,Increment      1: Step Time =    1.000,"PART-1-1",           500,      -1.18061,      -25.1833,            0.,NA,NA,"",   4.87776E-03,  -4.87703E-03,   84.4098E-06,   655.379E-06
C:/temp/dataset/3/12_3.odb,Step-1,Increment      1: Step Time =    1.000,"PART-1-1",           501,      -2.45538,      -26.3836,            0.,NA,NA,"",   3.47606E-03,  -3.47562E-03,  -54.9670E-06,   612.870E-06
C:/temp/dataset/3/12_3.odb,Step-1,Increment      1: Step Time =    1.000,"PART-1-1",           502,      -1.22498,      -27.6390,            0.,NA,NA,"",   2.51722E-03,  -2.51515E-03,  -101.955E-06,   693.349E-06
C:/temp/dataset/3/12_3.odb,Step-1,Increment      1: Step Time =    1.000,"PART-1-1",           503,      -3.70005,      -25.1329,            0.,NA,NA,"",   4.19200E-03,  -4.19184E-03,   37.0826E-06,   551.845E-06
C:/temp/dataset/3/12_3.odb,Step-1,Increment      1: Step Time =    1.000,"PART-1-1",           504,      -7.49141,      -28.7797,            0.,NA,NA,"",   902.123E-06,  -899.535E-06,  -68.2827E-06,   478.004E-06
C:/temp/dataset/3/12_3.odb,Step-1,Increment      1: Step Time =    1.000,"PART-1-1",           505,         -6.25,          -30.,            0.,NA,NA,"",            0.,  -497.140E-42,  -196.870E-42,   527.708E-06
C:/temp/dataset/3/12_3.odb,Step-1,Increment      1: Step Time =    1.000,"PART-1-1",           506,      -12.4949,      -26.2800,            0.,NA,NA,"",   2.40946E-03,  -2.35320E-03,  -517.622E-06,   318.257E-06
C:/temp/dataset/3/12_3.odb,Step-1,Increment      1: Step Time =    1.000,"PART-1-1",           507,          -15.,        -26.25,            0.,NA,NA,"",   2.92925E-03,  -2.53103E-03,  -1.47458E-03,   190.202E-06
C:/temp/dataset/3/12_3.odb,Step-1,Increment      1: Step Time =    1.000,"PART-1-1",           508,       12.0036,      -23.8365,            0.,NA,NA,"",   19.3805E-03,  -18.3903E-03,   6.11570E-03,   2.33603E-03
C:/temp/dataset/3/12_3.odb,Step-1,Increment      1: Step Time =    1.000,"PART-1-1",           509,       13.6432,      -25.0896,            0.,NA,NA,"",   22.1899E-03,  -21.4119E-03,   5.82396E-03,   2.81224E-03
C:/temp/dataset/3/12_3.odb,Step-1,Increment      1: Step Time =    1.000,"PART-1-1",           510,           15.,        -23.75,            0.,NA,NA,"",   25.8307E-03,  -24.9595E-03,   6.65172E-03,   2.37466E-03
C:/temp/dataset/3/12_3.odb,Step-1,Increment      1: Step Time =    1.000,"PART-1-1",           511,         11.25,          -30.,            0.,NA,NA,"",            0.,  -2.59695E-39,   3.49204E-42,   2.65002E-03
C:/temp/dataset/3/12_3.odb,Step-1,Increment      1: Step Time =    1.000,"PART-1-1",           512,       13.9281,      -14.6298,            0.,NA,NA,"",   20.1829E-03,  -18.3761E-03,   8.34695E-03,   71.6146E-06
C:/temp/dataset/3/12_3.odb,Step-1,Increment      1: Step Time =    1.000,"PART-1-1",           513,       12.2657,      -15.3468,            0.,NA,NA,"",   19.6684E-03,  -18.0628E-03,   7.78333E-03,   89.5862E-06
C:/temp/dataset/3/12_3.odb,Step-1,Increment      1: Step Time =    1.000,"PART-1-1",           514,           15.,        -16.25,            0.,NA,NA,"",   19.7084E-03,  -17.7438E-03,   8.57780E-03,   167.591E-06
C:/temp/dataset/3/12_3.odb,Step-1,Increment      1: Step Time =    1.000,"PART-1-1",           515,       7.13425,      -14.5121,            0.,NA,NA,"",   19.4010E-03,  -18.6301E-03,   5.41464E-03,   78.2411E-06
C:/temp/dataset/3/12_3.odb,Step-1,Increment      1: Step Time =    1.000,"PART-1-1",           516,       6.81531,      -16.2905,            0.,NA,NA,"",   18.5298E-03,  -17.7786E-03,   5.22235E-03,   88.9680E-06
C:/temp/dataset/3/12_3.odb,Step-1,Increment      1: Step Time =    1.000,"PART-1-1",           517,       8.10983,      -17.0757,            0.,NA,NA,"",   18.4043E-03,  -17.3817E-03,   6.04937E-03,   81.4440E-06
C:/temp/dataset/3/12_3.odb,Step-1,Increment      1: Step Time =    1.000,"PART-1-1",           518,       13.8641,      -7.41825,            0.,NA,NA,"",   23.2784E-03,  -21.7002E-03,   8.42539E-03,   1.58018E-06
C:/temp/dataset/3/12_3.odb,Step-1,Increment      1: Step Time =    1.000,"PART-1-1",           519,       13.0286,      -8.63342,            0.,NA,NA,"",   22.6277E-03,  -21.1475E-03,   8.04965E-03,   7.79117E-06
C:/temp/dataset/3/12_3.odb,Step-1,Increment      1: Step Time =    1.000,"PART-1-1",           520,       14.1645,      -9.96517,            0.,NA,NA,"",   22.2470E-03,  -20.5367E-03,   8.55410E-03,   7.68839E-06
C:/temp/dataset/3/12_3.odb,Step-1,Increment      1: Step Time =    1.000,"PART-1-1",           521,           15.,         -8.75,            0.,NA,NA,"",   22.9108E-03,  -21.0953E-03,   8.93820E-03,   3.12551E-06
C:/temp/dataset/3/12_3.odb,Step-1,Increment      1: Step Time =    1.000,"PART-1-1",           522,       12.0251,      -10.9831,            0.,NA,NA,"",   21.4689E-03,  -20.0730E-03,   7.61493E-03,   25.0056E-06
C:/temp/dataset/3/12_3.odb,Step-1,Increment      1: Step Time =    1.000,"PART-1-1",           523,       12.8055,      -11.9581,            0.,NA,NA,"",   21.1629E-03,  -19.6118E-03,   7.95255E-03,   32.2461E-06
C:/temp/dataset/3/12_3.odb,Step-1,Increment      1: Step Time =    1.000,"PART-1-1",           524,       13.3751,      -11.0455,            0.,NA,NA,"",   21.6480E-03,  -20.0355E-03,   8.19844E-03,   21.2782E-06
C:/temp/dataset/3/12_3.odb,Step-1,Increment      1: Step Time =    1.000,"PART-1-1",           525,       12.5947,      -10.0706,            0.,NA,NA,"",   21.9448E-03,  -20.4896E-03,   7.85816E-03,   13.9909E-06
C:/temp/dataset/3/12_3.odb,Step-1,Increment      1: Step Time =    1.000,"PART-1-1",           526,       11.4853,  -434.223E-03,            0.,NA,NA,"",   25.9082E-03,  -24.8420E-03,   7.35600E-03,   185.142E-09
C:/temp/dataset/3/12_3.odb,Step-1,Increment      1: Step Time =    1.000,"PART-1-1",           527,       10.5886,      -1.82652,            0.,NA,NA,"",   25.1959E-03,  -24.2173E-03,   6.95359E-03,   244.387E-09
C:/temp/dataset/3/12_3.odb,Step-1,Increment      1: Step Time =    1.000,"PART-1-1",           528,       11.9063,      -2.70193,            0.,NA,NA,"",   24.9909E-03,  -23.8248E-03,   7.54497E-03,   199.001E-09
C:/temp/dataset/3/12_3.odb,Step-1,Increment      1: Step Time =    1.000,"PART-1-1",           529,       14.1300,       7.44597,            0.,NA,NA,"",   29.6337E-03,  -28.3760E-03,   8.54157E-03,   6.27658E-09
C:/temp/dataset/3/12_3.odb,Step-1,Increment      1: Step Time =    1.000,"PART-1-1",           530,       13.1865,       6.25975,            0.,NA,NA,"",   29.0034E-03,  -27.8440E-03,   8.11859E-03,   26.2322E-09
C:/temp/dataset/3/12_3.odb,Step-1,Increment      1: Step Time =    1.000,"PART-1-1",           531,           15.,          6.25,            0.,NA,NA,"",   29.2375E-03,  -27.8398E-03,   8.93186E-03,   11.7692E-09
C:/temp/dataset/3/12_3.odb,Step-1,Increment      1: Step Time =    1.000,"PART-1-1",           532,       12.4155,       5.33720,            0.,NA,NA,"",   28.5103E-03,  -27.4302E-03,   7.77293E-03,   43.1773E-09
C:/temp/dataset/3/12_3.odb,Step-1,Increment      1: Step Time =    1.000,"PART-1-1",           533,       11.2733,       3.54111,            0.,NA,NA,"",   27.5970E-03,  -26.6247E-03,   7.26079E-03,   90.4457E-09
C:/temp/dataset/3/12_3.odb,Step-1,Increment      1: Step Time =    1.000,"PART-1-1",           534,       12.2480,       13.5548,            0.,NA,NA,"",   32.0532E-03,  -31.1154E-03,   7.69700E-03,   927.131E-12
C:/temp/dataset/3/12_3.odb,Step-1,Increment      1: Step Time =    1.000,"PART-1-1",           535,           15.,         13.75,            0.,NA,NA,"",   32.4562E-03,  -31.2032E-03,   8.93112E-03,   1.58405E-09
C:/temp/dataset/3/12_3.odb,Step-1,Increment      1: Step Time =    1.000,"PART-1-1",           536,       13.6600,       14.9734,            0.,NA,NA,"",   32.8262E-03,  -31.7517E-03,   8.33008E-03,   685.719E-12
C:/temp/dataset/3/12_3.odb,Step-1,Increment      1: Step Time =    1.000,"PART-1-1",           537,       8.15326,       10.4556,            0.,NA,NA,"",   30.2974E-03,  -29.7251E-03,   5.86096E-03,   2.54627E-09
C:/temp/dataset/3/12_3.odb,Step-1,Increment      1: Step Time =    1.000,"PART-1-1",           538,       12.3824,       21.2920,            0.,NA,NA,"",   35.4443E-03,  -34.5852E-03,   7.75646E-03,   109.948E-12
C:/temp/dataset/3/12_3.odb,Step-1,Increment      1: Step Time =    1.000,"PART-1-1",           539,       13.6892,       20.0188,            0.,NA,NA,"",   35.0225E-03,  -34.0144E-03,   8.34264E-03,   117.448E-12
C:/temp/dataset/3/12_3.odb,Step-1,Increment      1: Step Time =    1.000,"PART-1-1",           540,           15.,         21.25,            0.,NA,NA,"",   35.7016E-03,  -34.5666E-03,   8.93037E-03,   93.8397E-12
C:/temp/dataset/3/12_3.odb,Step-1,Increment      1: Step Time =    1.000,"PART-1-1",           541,       13.6932,       22.5232,            0.,NA,NA,"",   36.1146E-03,  -35.1375E-03,   8.34418E-03,   69.1418E-12
C:/temp/dataset/3/12_3.odb,Step-1,Increment      1: Step Time =    1.000,"PART-1-1",           542,       9.77662,       16.3041,            0.,NA,NA,"",   33.0122E-03,  -32.3481E-03,   6.58838E-03,   640.705E-12
C:/temp/dataset/3/12_3.odb,Step-1,Increment      1: Step Time =    1.000,"PART-1-1",           543,       11.0318,       15.0036,            0.,NA,NA,"",   32.5600E-03,  -31.7650E-03,   7.15143E-03,   746.966E-12
C:/temp/dataset/3/12_3.odb,Step-1,Increment      1: Step Time =    1.000,"PART-1-1",           544,       12.3430,       16.2301,            0.,NA,NA,"",   33.2290E-03,  -32.3151E-03,   7.73933E-03,   613.449E-12
C:/temp/dataset/3/12_3.odb,Step-1,Increment      1: Step Time =    1.000,"PART-1-1",           545,         13.75,           30.,            0.,NA,NA,"",   39.3899E-03,  -38.4905E-03,   8.36891E-03,   46.8081E-12
C:/temp/dataset/3/12_3.odb,Step-1,Increment      1: Step Time =    1.000,"PART-1-1",           546,       12.4862,       28.7548,            0.,NA,NA,"",   38.7261E-03,  -37.9320E-03,   7.80226E-03,   48.9237E-12
C:/temp/dataset/3/12_3.odb,Step-1,Increment      1: Step Time =    1.000,"PART-1-1",           547,           15.,         28.75,            0.,NA,NA,"",   38.9670E-03,  -37.9301E-03,   8.92961E-03,   50.1415E-12
C:/temp/dataset/3/12_3.odb,Step-1,Increment      1: Step Time =    1.000,"PART-1-1",           548,       12.4064,       23.7898,            0.,NA,NA,"",   36.5404E-03,  -35.7054E-03,   7.76697E-03,   67.8081E-12
C:/temp/dataset/3/12_3.odb,Step-1,Increment      1: Step Time =    1.000,"PART-1-1",           549,           15.,         23.75,            0.,NA,NA,"",   36.7881E-03,  -35.6878E-03,   8.93012E-03,   60.2095E-12
C:/temp/dataset/3/12_3.odb,Step-1,Increment      1: Step Time =    1.000,"PART-1-1",           550,       9.91541,       26.3072,            0.,NA,NA,"",   37.4295E-03,  -36.8341E-03,   6.64962E-03,   58.0133E-12
C:/temp/dataset/3/12_3.odb,Step-1,Increment      1: Step Time =    1.000,"PART-1-1",           551,       11.1537,       25.0565,            0.,NA,NA,"",   36.9820E-03,  -36.2733E-03,   7.20508E-03,   59.5513E-12
C:/temp/dataset/3/12_3.odb,Step-1,Increment      1: Step Time =    1.000,"PART-1-1",           552,       11.2110,       27.5221,            0.,NA,NA,"",   38.0720E-03,  -37.3791E-03,   7.23054E-03,   53.5034E-12
C:/temp/dataset/3/12_3.odb,Step-1,Increment      1: Step Time =    1.000,"PART-1-1",           553,       8.69233,       27.5515,            0.,NA,NA,"",   37.8864E-03,  -37.3920E-03,   6.10099E-03,   56.6229E-12
C:/temp/dataset/3/12_3.odb,Step-1,Increment      1: Step Time =    1.000,"PART-1-1",           554,       7.41297,       26.3376,            0.,NA,NA,"",   37.2598E-03,  -36.8475E-03,   5.52737E-03,   57.6292E-12
C:/temp/dataset/3/12_3.odb,Step-1,Increment      1: Step Time =    1.000,"PART-1-1",           555,       8.63604,       25.0933,            0.,NA,NA,"",   36.7947E-03,  -36.2896E-03,   6.07599E-03,   58.9884E-12
C:/temp/dataset/3/12_3.odb,Step-1,Increment      1: Step Time =    1.000,"PART-1-1",           556,      -1.26375,       27.5391,            0.,NA,NA,"",   37.4212E-03,  -37.3854E-03,   1.63608E-03,   55.8392E-12
C:/temp/dataset/3/12_3.odb,Step-1,Increment      1: Step Time =    1.000,"PART-1-1",           557,         -1.25,           30.,            0.,NA,NA,"",   38.5241E-03,  -38.4890E-03,   1.64200E-03,   65.3268E-12
C:/temp/dataset/3/12_3.odb,Step-1,Increment      1: Step Time =    1.000,"PART-1-1",           558,      -2.50500,       28.7640,            0.,NA,NA,"",   37.9500E-03,  -37.9346E-03,   1.07930E-03,   59.2476E-12
C:/temp/dataset/3/12_3.odb,Step-1,Increment      1: Step Time =    1.000,"PART-1-1",           559,      -7.50143,       28.7522,            0.,NA,NA,"",   37.9466E-03,  -37.9288E-03,  -1.16140E-03,   54.5308E-12
C:/temp/dataset/3/12_3.odb,Step-1,Increment      1: Step Time =    1.000,"PART-1-1",           560,         -8.75,           30.,            0.,NA,NA,"",   38.5268E-03,  -38.4883E-03,  -1.72146E-03,   55.3575E-12
C:/temp/dataset/3/12_3.odb,Step-1,Increment      1: Step Time =    1.000,"PART-1-1",           561,      -6.25460,       27.5081,            0.,NA,NA,"",   37.3759E-03,  -37.3710E-03,  -602.121E-06,   53.1994E-12
C:/temp/dataset/3/12_3.odb,Step-1,Increment      1: Step Time =    1.000,"PART-1-1",           562,        -13.75,           30.,            0.,NA,NA,"",   38.6914E-03,  -38.4878E-03,  -3.96376E-03,   50.4843E-12
C:/temp/dataset/3/12_3.odb,Step-1,Increment      1: Step Time =    1.000,"PART-1-1",           563,          -15.,         28.75,            0.,NA,NA,"",   38.1960E-03,  -37.9271E-03,  -4.52422E-03,   47.1375E-12
C:/temp/dataset/3/12_3.odb,Step-1,Increment      1: Step Time =    1.000,"PART-1-1",           564,      -13.7509,       27.5010,            0.,NA,NA,"",   37.5767E-03,  -37.3671E-03,  -3.96394E-03,   48.1184E-12
C:/temp/dataset/3/12_3.odb,Step-1,Increment      1: Step Time =    1.000,"PART-1-1",           565,          -15.,         26.25,            0.,NA,NA,"",   37.0829E-03,  -36.8059E-03,  -4.52396E-03,   47.8429E-12
C:/temp/dataset/3/12_3.odb,Step-1,Increment      1: Step Time =    1.000,"PART-1-1",           566,      -12.5016,       26.2536,            0.,NA,NA,"",   36.9648E-03,  -36.8078E-03,  -3.40353E-03,   49.2962E-12
C:/temp/dataset/3/12_3.odb,Step-1,Increment      1: Step Time =    1.000,"PART-1-1",           567,      -7.50093,       21.2547,            0.,NA,NA,"",   34.5860E-03,  -34.5665E-03,  -1.16042E-03,   44.3809E-12
C:/temp/dataset/3/12_3.odb,Step-1,Increment      1: Step Time =    1.000,"PART-1-1",           568,         -6.25,           20.,            0.,NA,NA,"",   34.0092E-03,  -34.0039E-03,  -599.301E-06,   42.9621E-12
C:/temp/dataset/3/12_3.odb,Step-1,Increment      1: Step Time =    1.000,"PART-1-1",           569,      -4.99978,       21.2574,            0.,NA,NA,"",   34.5680E-03,  -34.5679E-03,  -38.7544E-06,   43.4735E-12
C:/temp/dataset/3/12_3.odb,Step-1,Increment      1: Step Time =    1.000,"PART-1-1",           570,      -3.74911,       22.5208,            0.,NA,NA,"",   35.1385E-03,  -35.1347E-03,   521.997E-06,   44.4239E-12
C:/temp/dataset/3/12_3.odb,Step-1,Increment      1: Step Time =    1.000,"PART-1-1",           571,         -3.75,           20.,            0.,NA,NA,"",   34.0082E-03,  -34.0042E-03,   521.851E-06,   42.5514E-12
C:/temp/dataset/3/12_3.odb,Step-1,Increment      1: Step Time =    1.000,"PART-1-1",           572,      -2.49933,       21.2634,            0.,NA,NA,"",   34.5878E-03,  -34.5709E-03,   1.08260E-03,   42.6519E-12
C:/temp/dataset/3/12_3.odb,Step-1,Increment      1: Step Time =    1.000,"PART-1-1",           573,         -1.25,           20.,            0.,NA,NA,"",   34.0441E-03,  -34.0044E-03,   1.64300E-03,   41.3564E-12
C:/temp/dataset/3/12_3.odb,Step-1,Increment      1: Step Time =    1.000,"PART-1-1",           574,  -2.23348E-03,       21.2694,            0.,NA,NA,"",   34.6439E-03,  -34.5738E-03,   2.20245E-03,   42.7877E-12
C:/temp/dataset/3/12_3.odb,Step-1,Increment      1: Step Time =    1.000,"PART-1-1",           575,      -1.25156,       22.5328,            0.,NA,NA,"",   35.1786E-03,  -35.1403E-03,   1.64205E-03,   43.5187E-12
C:/temp/dataset/3/12_3.odb,Step-1,Increment      1: Step Time =    1.000,"PART-1-1",           576,         -3.75,           30.,            0.,NA,NA,"",   38.4923E-03,  -38.4888E-03,   520.846E-06,   61.8918E-12
C:/temp/dataset/3/12_3.odb,Step-1,Increment      1: Step Time =    1.000,"PART-1-1",           577,      -5.00318,       28.7559,            0.,NA,NA,"",   37.9308E-03,  -37.9307E-03,  -41.0298E-06,   56.8298E-12
C:/temp/dataset/3/12_3.odb,Step-1,Increment      1: Step Time =    1.000,"PART-1-1",           578,       7.36074,       18.8052,            0.,NA,NA,"",   33.9191E-03,  -33.4695E-03,   5.50471E-03,   240.259E-12
C:/temp/dataset/3/12_3.odb,Step-1,Increment      1: Step Time =    1.000,"PART-1-1",           579,       8.58169,       17.5494,            0.,NA,NA,"",   33.4584E-03,  -32.9064E-03,   6.05238E-03,   346.775E-12
C:/temp/dataset/3/12_3.odb,Step-1,Increment      1: Step Time =    1.000,"PART-1-1",           580,       8.60057,       20.0599,            0.,NA,NA,"",   34.5677E-03,  -34.0323E-03,   6.06059E-03,   110.097E-12
C:/temp/dataset/3/12_3.odb,Step-1,Increment      1: Step Time =    1.000,"PART-1-1",           581,            5.,         18.75,            0.,NA,NA,"",   33.7387E-03,  -33.4445E-03,   4.44601E-03,   122.640E-12
C:/temp/dataset/3/12_3.odb,Step-1,Increment      1: Step Time =    1.000,"PART-1-1",           582,       6.17685,       17.5255,            0.,NA,NA,"",   33.2694E-03,  -32.8954E-03,   4.97390E-03,   229.469E-12
C:/temp/dataset/3/12_3.odb,Step-1,Increment      1: Step Time =    1.000,"PART-1-1",           583,       6.18390,       20.0298,            0.,NA,NA,"",   34.3807E-03,  -34.0185E-03,   4.97681E-03,   76.9352E-12
C:/temp/dataset/3/12_3.odb,Step-1,Increment      1: Step Time =    1.000,"PART-1-1",           584,            5.,         16.25,            0.,NA,NA,"",   32.6277E-03,  -32.3233E-03,   4.44626E-03,   558.919E-12
C:/temp/dataset/3/12_3.odb,Step-1,Increment      1: Step Time =    1.000,"PART-1-1",           585,       6.15340,       15.0385,            0.,NA,NA,"",   32.1654E-03,  -31.7801E-03,   4.96364E-03,   675.959E-12
C:/temp/dataset/3/12_3.odb,Step-1,Increment      1: Step Time =    1.000,"PART-1-1",           586,       7.33024,       16.3140,            0.,NA,NA,"",   32.8150E-03,  -32.3523E-03,   5.49128E-03,   614.391E-12
C:/temp/dataset/3/12_3.odb,Step-1,Increment      1: Step Time =    1.000,"PART-1-1",           587,           15.,         16.25,            0.,NA,NA,"",   33.5354E-03,  -32.3243E-03,   8.93087E-03,   661.049E-12
C:/temp/dataset/3/12_3.odb,Step-1,Increment      1: Step Time =    1.000,"PART-1-1",           588,       13.6830,       17.5067,            0.,NA,NA,"",   33.9288E-03,  -32.8878E-03,   8.34011E-03,   282.095E-12
C:/temp/dataset/3/12_3.odb,Step-1,Increment      1: Step Time =    1.000,"PART-1-1",           589,           15.,         18.75,            0.,NA,NA,"",   34.6173E-03,  -33.4455E-03,   8.93062E-03,   226.974E-12
C:/temp/dataset/3/12_3.odb,Step-1,Increment      1: Step Time =    1.000,"PART-1-1",           590,       7.36831,       6.81272,            0.,NA,NA,"",   28.6264E-03,  -28.0913E-03,   5.50930E-03,   36.4475E-09
C:/temp/dataset/3/12_3.odb,Step-1,Increment      1: Step Time =    1.000,"PART-1-1",           591,       6.10412,       7.73110,            0.,NA,NA,"",   28.9283E-03,  -28.5030E-03,   4.94227E-03,   9.42301E-09
C:/temp/dataset/3/12_3.odb,Step-1,Increment      1: Step Time =    1.000,"PART-1-1",           592,            5.,          6.25,            0.,NA,NA,"",   28.1916E-03,  -27.8386E-03,   4.44727E-03,   51.1492E-09
C:/temp/dataset/3/12_3.odb,Step-1,Increment      1: Step Time =    1.000,"PART-1-1",           593,       6.26419,       5.33162,            0.,NA,NA,"",   27.8814E-03,  -27.4268E-03,   5.01430E-03,   72.2044E-09
C:/temp/dataset/3/12_3.odb,Step-1,Increment      1: Step Time =    1.000,"PART-1-1",           594,           15.,          8.75,            0.,NA,NA,"",   30.3069E-03,  -28.9609E-03,   8.93161E-03,   1.49235E-09
C:/temp/dataset/3/12_3.odb,Step-1,Increment      1: Step Time =    1.000,"PART-1-1",           595,       13.1418,       8.51598,            0.,NA,NA,"",   29.9706E-03,  -28.8558E-03,   8.09830E-03,   7.70098E-09
C:/temp/dataset/3/12_3.odb,Step-1,Increment      1: Step Time =    1.000,"PART-1-1",           596,       6.30252,      -5.49102,            0.,NA,NA,"",   23.1294E-03,  -22.5751E-03,   5.03292E-03,   439.386E-09
C:/temp/dataset/3/12_3.odb,Step-1,Increment      1: Step Time =    1.000,"PART-1-1",           597,            5.,         -6.25,            0.,NA,NA,"",   22.6778E-03,  -22.2367E-03,   4.45145E-03,   499.147E-09
C:/temp/dataset/3/12_3.odb,Step-1,Increment      1: Step Time =    1.000,"PART-1-1",           598,       6.10325,      -7.87566,            0.,NA,NA,"",   22.0751E-03,  -21.5145E-03,   4.94322E-03,   2.48125E-06
C:/temp/dataset/3/12_3.odb,Step-1,Increment      1: Step Time =    1.000,"PART-1-1",           599,       7.40577,      -7.11668,            0.,NA,NA,"",   22.5385E-03,  -21.8503E-03,   5.52707E-03,   3.36910E-06
C:/temp/dataset/3/12_3.odb,Step-1,Increment      1: Step Time =    1.000,"PART-1-1",           600,            5.,         -8.75,            0.,NA,NA,"",   21.5917E-03,  -21.1279E-03,   4.45130E-03,   4.54597E-06
C:/temp/dataset/3/12_3.odb,Step-1,Increment      1: Step Time =    1.000,"PART-1-1",           601,            5.,        -13.75,            0.,NA,NA,"",   19.4279E-03,  -18.9338E-03,   4.35374E-03,   83.6683E-06
C:/temp/dataset/3/12_3.odb,Step-1,Increment      1: Step Time =    1.000,"PART-1-1",           602,       5.77894,      -15.1288,            0.,NA,NA,"",   18.9175E-03,  -18.3408E-03,   4.63556E-03,   91.9383E-06
C:/temp/dataset/3/12_3.odb,Step-1,Increment      1: Step Time =    1.000,"PART-1-1",           603,            5.,        -16.25,            0.,NA,NA,"",   18.1836E-03,  -17.7238E-03,   4.06337E-03,   181.242E-06
C:/temp/dataset/3/12_3.odb,Step-1,Increment      1: Step Time =    1.000,"PART-1-1",           604,       2.77244,      -24.0596,            0.,NA,NA,"",   7.72051E-03,  -7.68174E-03,   772.725E-06,   799.234E-06
C:/temp/dataset/3/12_3.odb,Step-1,Increment      1: Step Time =    1.000,"PART-1-1",           605,       3.76359,      -25.5842,            0.,NA,NA,"",   6.54936E-03,  -6.52556E-03,   557.801E-06,   929.185E-06
C:/temp/dataset/3/12_3.odb,Step-1,Increment      1: Step Time =    1.000,"PART-1-1",           606,       5.11162,      -24.8806,            0.,NA,NA,"",   8.37304E-03,  -8.28569E-03,   1.20623E-03,   991.330E-06
C:/temp/dataset/3/12_3.odb,Step-1,Increment      1: Step Time =    1.000,"PART-1-1",           607,       4.12047,      -23.3559,            0.,NA,NA,"",   9.35828E-03,  -9.24961E-03,   1.42204E-03,   897.583E-06
C:/temp/dataset/3/12_3.odb,Step-1,Increment      1: Step Time =    1.000,"PART-1-1",           608,       8.48587,      -2.76980,            0.,NA,NA,"",   24.5414E-03,  -23.7939E-03,   6.01056E-03,   261.369E-09
C:/temp/dataset/3/12_3.odb,Step-1,Increment      1: Step Time =    1.000,"PART-1-1",           609,       9.66601,      -3.38468,            0.,NA,NA,"",   24.4105E-03,  -23.5182E-03,   6.53961E-03,   284.493E-09
C:/temp/dataset/3/12_3.odb,Step-1,Increment      1: Step Time =    1.000,"PART-1-1",           610,       9.40849,      -1.21164,            0.,NA,NA,"",   25.3214E-03,  -24.4929E-03,   6.42432E-03,   216.858E-09
C:/temp/dataset/3/12_3.odb,Step-1,Increment      1: Step Time =    1.000,"PART-1-1",           611,       3.88333,            5.,            0.,NA,NA,"",   27.5618E-03,  -27.2777E-03,   3.94687E-03,   83.1717E-09
C:/temp/dataset/3/12_3.odb,Step-1,Increment      1: Step Time =    1.000,"PART-1-1",           612,       3.93709,       2.49951,            0.,NA,NA,"",   26.4563E-03,  -26.1565E-03,   3.97122E-03,   70.7210E-09
C:/temp/dataset/3/12_3.odb,Step-1,Increment      1: Step Time =    1.000,"PART-1-1",           613,       5.14044,       3.62548,            0.,NA,NA,"",   27.0404E-03,  -26.6616E-03,   4.51056E-03,   73.6469E-09
C:/temp/dataset/3/12_3.odb,Step-1,Increment      1: Step Time =    1.000,"PART-1-1",           614,       1.70000,           -5.,            0.,NA,NA,"",   22.9865E-03,  -22.7939E-03,   2.96926E-03,   32.2435E-09
C:/temp/dataset/3/12_3.odb,Step-1,Increment      1: Step Time =    1.000,"PART-1-1",           615,       2.88648,      -4.17028,            0.,NA,NA,"",   23.4292E-03,  -23.1661E-03,   3.50129E-03,   94.0214E-09
C:/temp/dataset/3/12_3.odb,Step-1,Increment      1: Step Time =    1.000,"PART-1-1",           616,       1.90498,      -3.27989,            0.,NA,NA,"",   23.7632E-03,  -23.5652E-03,   3.06103E-03,   72.5727E-09
C:/temp/dataset/3/12_3.odb,Step-1,Increment      1: Step Time =    1.000,"PART-1-1",           617,      -2.82853,       3.20340,            0.,NA,NA,"",   26.4881E-03,  -26.4715E-03,   937.990E-06,   999.270E-12
C:/temp/dataset/3/12_3.odb,Step-1,Increment      1: Step Time =    1.000,"PART-1-1",           618,      -1.73717,       4.08745,            0.,NA,NA,"",   26.9058E-03,  -26.8679E-03,   1.42720E-03,   2.61342E-09
C:/temp/dataset/3/12_3.odb,Step-1,Increment      1: Step Time =    1.000,"PART-1-1",           619,      -2.81667,            5.,            0.,NA,NA,"",   27.2933E-03,  -27.2770E-03,   943.126E-06,   4.22755E-09
C:/temp/dataset/3/12_3.odb,Step-1,Increment      1: Step Time =    1.000,"PART-1-1",           620,      -7.28333,            5.,            0.,NA,NA,"",   27.2971E-03,  -27.2765E-03,  -1.05949E-03,   1.09414E-09
C:/temp/dataset/3/12_3.odb,Step-1,Increment      1: Step Time =    1.000,"PART-1-1",           621,      -11.7000,            5.,            0.,NA,NA,"",   27.4449E-03,  -27.2761E-03,  -3.03969E-03,   111.374E-12
C:/temp/dataset/3/12_3.odb,Step-1,Increment      1: Step Time =    1.000,"PART-1-1",           622,      -11.5540,       2.50359,            0.,NA,NA,"",   26.3254E-03,  -26.1568E-03,  -2.97398E-03,   218.096E-12
C:/temp/dataset/3/12_3.odb,Step-1,Increment      1: Step Time =    1.000,"PART-1-1",           623,      -8.37698,      -4.01732,            0.,NA,NA,"",   23.2851E-03,  -23.2335E-03,  -1.54892E-03,   508.895E-12
C:/temp/dataset/3/12_3.odb,Step-1,Increment      1: Step Time =    1.000,"PART-1-1",           624,      -10.5279,      -3.86372,            0.,NA,NA,"",   23.4373E-03,  -23.3022E-03,  -2.51330E-03,   185.649E-12
C:/temp/dataset/3/12_3.odb,Step-1,Increment      1: Step Time =    1.000,"PART-1-1",           625,      -9.41667,           -5.,            0.,NA,NA,"",   22.8817E-03,  -22.7928E-03,  -2.01496E-03,   379.852E-12
C:/temp/dataset/3/12_3.odb,Step-1,Increment      1: Step Time =    1.000,"PART-1-1",           626,          3.75,          -20.,            0.,NA,NA,"",   12.0764E-03,  -11.8098E-03,   2.52317E-03,   1.23475E-03
C:/temp/dataset/3/12_3.odb,Step-1,Increment      1: Step Time =    1.000,"PART-1-1",           627,       2.74072,      -21.3682,            0.,NA,NA,"",   10.1384E-03,  -10.0148E-03,   1.57833E-03,   894.248E-06
C:/temp/dataset/3/12_3.odb,Step-1,Increment      1: Step Time =    1.000,"PART-1-1",           628,       4.11640,      -22.1674,            0.,NA,NA,"",   10.5568E-03,  -10.3939E-03,   1.84731E-03,   805.471E-06
C:/temp/dataset/3/12_3.odb,Step-1,Increment      1: Step Time =    1.000,"PART-1-1",           629,       5.12568,      -20.7992,            0.,NA,NA,"",   12.7613E-03,  -12.4152E-03,   2.95213E-03,   1.04372E-03
C:/temp/dataset/3/12_3.odb,Step-1,Increment      1: Step Time =    1.000,"PART-1-1",           630,          1.25,          -20.,            0.,NA,NA,"",   9.58381E-03,  -9.42184E-03,   1.75452E-03,   875.464E-06
C:/temp/dataset/3/12_3.odb,Step-1,Increment      1: Step Time =    1.000,"PART-1-1",           631,   73.0809E-03,      -21.3299,            0.,NA,NA,"",   8.20239E-03,  -8.13559E-03,   1.04465E-03,   699.508E-06
C:/temp/dataset/3/12_3.odb,Step-1,Increment      1: Step Time =    1.000,"PART-1-1",           632,       1.56380,      -22.6981,            0.,NA,NA,"",   8.24869E-03,  -8.20227E-03,   873.909E-06,   777.929E-06
C:/temp/dataset/3/12_3.odb,Step-1,Increment      1: Step Time =    1.000,"PART-1-1",           633,         -1.25,          -20.,            0.,NA,NA,"",   7.87999E-03,  -7.78727E-03,   1.20530E-03,   633.376E-06
C:/temp/dataset/3/12_3.odb,Step-1,Increment      1: Step Time =    1.000,"PART-1-1",           634,      -2.46493,      -21.3147,            0.,NA,NA,"",   6.85330E-03,  -6.81616E-03,   712.516E-06,   518.107E-06
C:/temp/dataset/3/12_3.odb,Step-1,Increment      1: Step Time =    1.000,"PART-1-1",           635,      -1.14185,      -22.6446,            0.,NA,NA,"",   6.80942E-03,  -6.78787E-03,   541.297E-06,   625.096E-06
C:/temp/dataset/3/12_3.odb,Step-1,Increment      1: Step Time =    1.000,"PART-1-1",           636,         -3.75,          -20.,            0.,NA,NA,"",   6.64642E-03,  -6.59271E-03,   843.254E-06,   441.179E-06
C:/temp/dataset/3/12_3.odb,Step-1,Increment      1: Step Time =    1.000,"PART-1-1",           637,      -4.97847,      -21.2978,            0.,NA,NA,"",   5.89933E-03,  -5.87908E-03,   488.361E-06,   363.439E-06
C:/temp/dataset/3/12_3.odb,Step-1,Increment      1: Step Time =    1.000,"PART-1-1",           638,      -3.69340,      -22.6125,            0.,NA,NA,"",   5.78298E-03,  -5.77110E-03,   370.371E-06,   483.482E-06
C:/temp/dataset/3/12_3.odb,Step-1,Increment      1: Step Time =    1.000,"PART-1-1",           639,      -4.95791,      -23.8547,            0.,NA,NA,"",   4.71863E-03,  -4.71639E-03,   145.460E-06,   454.230E-06
C:/temp/dataset/3/12_3.odb,Step-1,Increment      1: Step Time =    1.000,"PART-1-1",           640,      -6.21189,      -22.5887,            0.,NA,NA,"",   5.06335E-03,  -5.05822E-03,   227.790E-06,   364.403E-06
C:/temp/dataset/3/12_3.odb,Step-1,Increment      1: Step Time =    1.000,"PART-1-1",           641,      -7.46939,      -23.8324,            0.,NA,NA,"",   4.18963E-03,  -4.18945E-03,   39.2835E-06,   359.874E-06
C:/temp/dataset/3/12_3.odb,Step-1,Increment      1: Step Time =    1.000,"PART-1-1",           642,           15.,        -13.75,            0.,NA,NA,"",   20.7815E-03,  -18.8037E-03,   8.84830E-03,   59.7696E-06
C:/temp/dataset/3/12_3.odb,Step-1,Increment      1: Step Time =    1.000,"PART-1-1",           643,       14.2106,      -12.3304,            0.,NA,NA,"",   21.2371E-03,  -19.4408E-03,   8.54815E-03,   27.7769E-06
C:/temp/dataset/3/12_3.odb,Step-1,Increment      1: Step Time =    1.000,"PART-1-1",           644,       13.1387,      -13.2101,            0.,NA,NA,"",   20.6700E-03,  -19.0220E-03,   8.08786E-03,   54.9106E-06
C:/temp/dataset/3/12_3.odb,Step-1,Increment      1: Step Time =    1.000,"PART-1-1",           645,           15.,        -11.25,            0.,NA,NA,"",   21.8509E-03,  -19.9470E-03,   8.92078E-03,   19.7834E-06
C:/temp/dataset/3/12_3.odb,Step-1,Increment      1: Step Time =    1.000,"PART-1-1",           646,           15.,         -6.25,            0.,NA,NA,"",   23.9581E-03,  -22.2285E-03,   8.93764E-03,   502.949E-09
C:/temp/dataset/3/12_3.odb,Step-1,Increment      1: Step Time =    1.000,"PART-1-1",           647,       14.0624,      -4.92369,            0.,NA,NA,"",   24.3627E-03,  -22.8265E-03,   8.51429E-03,   482.577E-09
C:/temp/dataset/3/12_3.odb,Step-1,Increment      1: Step Time =    1.000,"PART-1-1",           648,       12.9264,      -6.09194,            0.,NA,NA,"",   23.6929E-03,  -22.3002E-03,   8.00345E-03,   1.52663E-06
C:/temp/dataset/3/12_3.odb,Step-1,Increment      1: Step Time =    1.000,"PART-1-1",           649,           15.,         -3.75,            0.,NA,NA,"",   25.0050E-03,  -23.3540E-03,   8.93515E-03,   780.407E-09
C:/temp/dataset/3/12_3.odb,Step-1,Increment      1: Step Time =    1.000,"PART-1-1",           650,       13.0440,      -3.68493,            0.,NA,NA,"",   24.7323E-03,  -23.3835E-03,   8.05604E-03,   106.058E-09
C:/temp/dataset/3/12_3.odb,Step-1,Increment      1: Step Time =    1.000,"PART-1-1",           651,       8.06094,   477.426E-03,            0.,NA,NA,"",   25.9123E-03,  -25.2502E-03,   5.82017E-03,   123.786E-09
C:/temp/dataset/3/12_3.odb,Step-1,Increment      1: Step Time =    1.000,"PART-1-1",           652,       8.76493,       2.31856,            0.,NA,NA,"",   26.7882E-03,  -26.0760E-03,   6.13583E-03,   119.268E-09
C:/temp/dataset/3/12_3.odb,Step-1,Increment      1: Step Time =    1.000,"PART-1-1",           653,       6.73548,       2.80805,            0.,NA,NA,"",   26.8094E-03,  -26.2952E-03,   5.22580E-03,   59.3543E-09
C:/temp/dataset/3/12_3.odb,Step-1,Increment      1: Step Time =    1.000,"PART-1-1",           654,       6.03149,   966.916E-03,            0.,NA,NA,"",   25.9385E-03,  -25.4695E-03,   4.91032E-03,   113.761E-09
C:/temp/dataset/3/12_3.odb,Step-1,Increment      1: Step Time =    1.000,"PART-1-1",           655,            5.,          8.75,            0.,NA,NA,"",   29.2993E-03,  -28.9598E-03,   4.44699E-03,   4.41539E-09
C:/temp/dataset/3/12_3.odb,Step-1,Increment      1: Step Time =    1.000,"PART-1-1",           656,       7.16919,       9.14751,            0.,NA,NA,"",   29.6381E-03,  -29.1383E-03,   5.41977E-03,   9.91642E-09
C:/temp/dataset/3/12_3.odb,Step-1,Increment      1: Step Time =    1.000,"PART-1-1",           657,          3.75,           30.,            0.,NA,NA,"",   38.6850E-03,  -38.4895E-03,   3.88430E-03,   66.8373E-12
C:/temp/dataset/3/12_3.odb,Step-1,Increment      1: Step Time =    1.000,"PART-1-1",           658,       3.71036,       27.5731,            0.,NA,NA,"",   37.6005E-03,  -37.4012E-03,   3.86677E-03,   57.4228E-12
C:/temp/dataset/3/12_3.odb,Step-1,Increment      1: Step Time =    1.000,"PART-1-1",           659,       7.38617,       23.8490,            0.,NA,NA,"",   36.1546E-03,  -35.7314E-03,   5.51560E-03,   55.2755E-12
C:/temp/dataset/3/12_3.odb,Step-1,Increment      1: Step Time =    1.000,"PART-1-1",           660,       6.16255,       25.1024,            0.,NA,NA,"",   36.6317E-03,  -36.2934E-03,   4.96673E-03,   55.1288E-12
C:/temp/dataset/3/12_3.odb,Step-1,Increment      1: Step Time =    1.000,"PART-1-1",           661,       4.93576,       23.8439,            0.,NA,NA,"",   36.0008E-03,  -35.7289E-03,   4.41669E-03,   48.2940E-12
C:/temp/dataset/3/12_3.odb,Step-1,Increment      1: Step Time =    1.000,"PART-1-1",           662,       6.15938,       22.5905,            0.,NA,NA,"",   35.5157E-03,  -35.1669E-03,   4.96556E-03,   47.6766E-12
C:/temp/dataset/3/12_3.odb,Step-1,Increment      1: Step Time =    1.000,"PART-1-1",           663,      -10.0017,       23.7560,            0.,NA,NA,"",   35.7609E-03,  -35.6880E-03,  -2.28217E-03,   47.7246E-12
C:/temp/dataset/3/12_3.odb,Step-1,Increment      1: Step Time =    1.000,"PART-1-1",           664,      -8.75135,       22.5073,            0.,NA,NA,"",   35.1702E-03,  -35.1281E-03,  -1.72131E-03,   46.1637E-12
C:/temp/dataset/3/12_3.odb,Step-1,Increment      1: Step Time =    1.000,"PART-1-1",           665,      -10.0004,       21.2526,            0.,NA,NA,"",   34.6405E-03,  -34.5653E-03,  -2.28134E-03,   45.5230E-12
C:/temp/dataset/3/12_3.odb,Step-1,Increment      1: Step Time =    1.000,"PART-1-1",           666,      -11.2505,       22.5043,            0.,NA,NA,"",   35.2413E-03,  -35.1265E-03,  -2.84206E-03,   47.1696E-12
C:/temp/dataset/3/12_3.odb,Step-1,Increment      1: Step Time =    1.000,"PART-1-1",           667,        -11.25,           20.,            0.,NA,NA,"",   34.1219E-03,  -34.0034E-03,  -2.84161E-03,   45.5779E-12
C:/temp/dataset/3/12_3.odb,Step-1,Increment      1: Step Time =    1.000,"PART-1-1",           668,         -8.75,           20.,            0.,NA,NA,"",   34.0472E-03,  -34.0037E-03,  -1.72045E-03,   44.0630E-12
C:/temp/dataset/3/12_3.odb,Step-1,Increment      1: Step Time =    1.000,"PART-1-1",           669,       7.37456,       21.3253,            0.,NA,NA,"",   35.0357E-03,  -34.5996E-03,   5.51065E-03,   68.8087E-12
C:/temp/dataset/3/12_3.odb,Step-1,Increment      1: Step Time =    1.000,"PART-1-1",           670,      -1.26076,       25.0501,            0.,NA,NA,"",   36.3062E-03,  -36.2692E-03,   1.63767E-03,   48.5677E-12
C:/temp/dataset/3/12_3.odb,Step-1,Increment      1: Step Time =    1.000,"PART-1-1",           671,      -2.50213,       23.7814,            0.,NA,NA,"",   35.7165E-03,  -35.7001E-03,   1.08109E-03,   46.1024E-12
C:/temp/dataset/3/12_3.odb,Step-1,Increment      1: Step Time =    1.000,"PART-1-1",           672,          1.25,           20.,            0.,NA,NA,"",   34.1168E-03,  -34.0047E-03,   2.76416E-03,   45.3953E-12
C:/temp/dataset/3/12_3.odb,Step-1,Increment      1: Step Time =    1.000,"PART-1-1",           673,            5.,         13.75,            0.,NA,NA,"",   31.5174E-03,  -31.2022E-03,   4.44651E-03,   1.50279E-09
C:/temp/dataset/3/12_3.odb,Step-1,Increment      1: Step Time =    1.000,"PART-1-1",           674,       7.85923,       4.51418,            0.,NA,NA,"",   27.6604E-03,  -27.0605E-03,   5.72960E-03,   75.8790E-09
C:/temp/dataset/3/12_3.odb,Step-1,Increment      1: Step Time =    1.000,"PART-1-1",           675,       9.45843,       7.45797,            0.,NA,NA,"",   29.1038E-03,  -28.3809E-03,   6.44656E-03,   24.9665E-09
C:/temp/dataset/3/12_3.odb,Step-1,Increment      1: Step Time =    1.000,"PART-1-1",           676,       11.3500,       8.04392,            0.,NA,NA,"",   29.5582E-03,  -28.6439E-03,   7.29482E-03,   15.5169E-09
C:/temp/dataset/3/12_3.odb,Step-1,Increment      1: Step Time =    1.000,"PART-1-1",           677,       10.2386,       8.70699,            0.,NA,NA,"",   29.7284E-03,  -28.9411E-03,   6.79633E-03,   10.3938E-09
C:/temp/dataset/3/12_3.odb,Step-1,Increment      1: Step Time =    1.000,"PART-1-1",           678,   133.314E-03,       2.02047,            0.,NA,NA,"",   26.0402E-03,  -25.9414E-03,   2.26602E-03,   15.9407E-09
C:/temp/dataset/3/12_3.odb,Step-1,Increment      1: Step Time =    1.000,"PART-1-1",           679,       2.26054,       1.70692,            0.,NA,NA,"",   26.0011E-03,  -25.8010E-03,   3.21974E-03,   49.4379E-09
C:/temp/dataset/3/12_3.odb,Step-1,Increment      1: Step Time =    1.000,"PART-1-1",           680,  -583.333E-03,            5.,            0.,NA,NA,"",   27.3464E-03,  -27.2772E-03,   1.94441E-03,   4.33521E-09
C:/temp/dataset/3/12_3.odb,Step-1,Increment      1: Step Time =    1.000,"PART-1-1",           681,  -713.179E-03,       3.09316,            0.,NA,NA,"",   26.4895E-03,  -26.4223E-03,   1.88639E-03,   7.00824E-09
C:/temp/dataset/3/12_3.odb,Step-1,Increment      1: Step Time =    1.000,"PART-1-1",           682,      -10.2084,       1.19941,            0.,NA,NA,"",   25.6819E-03,  -25.5722E-03,  -2.37055E-03,   328.827E-12
C:/temp/dataset/3/12_3.odb,Step-1,Increment      1: Step Time =    1.000,"PART-1-1",           683,      -7.18333,           -5.,            0.,NA,NA,"",   22.8156E-03,  -22.7931E-03,  -1.01365E-03,   1.04244E-09
C:/temp/dataset/3/12_3.odb,Step-1,Increment      1: Step Time =    1.000,"PART-1-1",           684,      -7.36178,      -2.99006,            0.,NA,NA,"",   23.7194E-03,  -23.6942E-03,  -1.09386E-03,   983.802E-12
C:/temp/dataset/3/12_3.odb,Step-1,Increment      1: Step Time =    1.000,"PART-1-1",           685,      -11.3125,  -91.5578E-03,            0.,NA,NA,"",   25.1571E-03,  -24.9933E-03,  -2.86545E-03,   269.499E-12
C:/temp/dataset/3/12_3.odb,Step-1,Increment      1: Step Time =    1.000,"PART-1-1",           686,      -11.6500,           -5.,            0.,NA,NA,"",   22.9913E-03,  -22.7926E-03,  -3.01627E-03,   97.5007E-12
C:/temp/dataset/3/12_3.odb,Step-1,Increment      1: Step Time =    1.000,"PART-1-1",           687,      -11.6245,      -2.63993,            0.,NA,NA,"",   24.0393E-03,  -23.8507E-03,  -3.00508E-03,   202.819E-12
C:/temp/dataset/3/12_3.odb,Step-1,Increment      1: Step Time =    1.000,"PART-1-1",           688,      -1.03706,       1.18772,            0.,NA,NA,"",   25.6272E-03,  -25.5679E-03,   1.74139E-03,   9.88446E-09
C:/temp/dataset/3/12_3.odb,Step-1,Increment      1: Step Time =    1.000,"PART-1-1",           689,      -2.26684,   407.252E-03,            0.,NA,NA,"",   25.2460E-03,  -25.2179E-03,   1.19010E-03,   2.79727E-09
C:/temp/dataset/3/12_3.odb,Step-1,Increment      1: Step Time =    1.000,"PART-1-1",           690,      -1.61706,  -775.207E-03,            0.,NA,NA,"",   24.7322E-03,  -24.6878E-03,   1.48156E-03,   6.64894E-09
C:/temp/dataset/3/12_3.odb,Step-1,Increment      1: Step Time =    1.000,"PART-1-1",           691,      -4.44627,  -189.662E-03,            0.,NA,NA,"",   24.9510E-03,  -24.9500E-03,   213.022E-06,   1.62411E-09
C:/temp/dataset/3/12_3.odb,Step-1,Increment      1: Step Time =    1.000,"PART-1-1",           692,      -3.83065,   850.686E-03,            0.,NA,NA,"",   25.4212E-03,  -25.4165E-03,   488.929E-06,   1.49238E-09
C:/temp/dataset/3/12_3.odb,Step-1,Increment      1: Step Time =    1.000,"PART-1-1",           693,      -5.38306,   384.196E-03,            0.,NA,NA,"",   25.2081E-03,  -25.2072E-03,  -207.041E-06,   1.46445E-09
C:/temp/dataset/3/12_3.odb,Step-1,Increment      1: Step Time =    1.000,"PART-1-1",           694,       3.90000,           -5.,            0.,NA,NA,"",   23.1350E-03,  -22.7943E-03,   3.95591E-03,   311.911E-09
C:/temp/dataset/3/12_3.odb,Step-1,Increment      1: Step Time =    1.000,"PART-1-1",           695,       5.25667,      -4.01677,            0.,NA,NA,"",   23.6791E-03,  -23.2351E-03,   4.56424E-03,   415.584E-09
C:/temp/dataset/3/12_3.odb,Step-1,Increment      1: Step Time =    1.000,"PART-1-1",           696,       4.24316,      -3.18705,            0.,NA,NA,"",   23.9620E-03,  -23.6070E-03,   4.10954E-03,   196.670E-09
C:/temp/dataset/3/12_3.odb,Step-1,Increment      1: Step Time =    1.000,"PART-1-1",           697,       9.51721,      -4.82762,            0.,NA,NA,"",   23.7695E-03,  -22.8711E-03,   6.47299E-03,   743.836E-09
C:/temp/dataset/3/12_3.odb,Step-1,Increment      1: Step Time =    1.000,"PART-1-1",           698,       8.04384,      -4.93500,            0.,NA,NA,"",   23.5521E-03,  -22.8236E-03,   5.81240E-03,   658.400E-09
C:/temp/dataset/3/12_3.odb,Step-1,Increment      1: Step Time =    1.000,"PART-1-1",           699,       8.61490,      -6.56470,            0.,NA,NA,"",   22.9129E-03,  -22.0944E-03,   6.06930E-03,   2.27574E-06
C:/temp/dataset/3/12_3.odb,Step-1,Increment      1: Step Time =    1.000,"PART-1-1",           700,       10.0883,      -6.45732,            0.,NA,NA,"",   23.1399E-03,  -22.1395E-03,   6.73035E-03,   2.66527E-06
C:/temp/dataset/3/12_3.odb,Step-1,Increment      1: Step Time =    1.000,"PART-1-1",           701,       9.29828,      -8.00429,            0.,NA,NA,"",   22.3780E-03,  -21.4493E-03,   6.37971E-03,   6.59248E-06
C:/temp/dataset/3/12_3.odb,Step-1,Increment      1: Step Time =    1.000,"PART-1-1",           702,       6.27674,      -21.4047,            0.,NA,NA,"",   13.3535E-03,  -12.8330E-03,   3.69208E-03,   1.01766E-03
C:/temp/dataset/3/12_3.odb,Step-1,Increment      1: Step Time =    1.000,"PART-1-1",           703,       7.27122,      -20.3583,            0.,NA,NA,"",   15.5093E-03,  -14.6711E-03,   5.02952E-03,   802.127E-06
C:/temp/dataset/3/12_3.odb,Step-1,Increment      1: Step Time =    1.000,"PART-1-1",           704,         -6.25,          -20.,            0.,NA,NA,"",   5.83774E-03,  -5.81380E-03,   528.171E-06,   270.452E-06
C:/temp/dataset/3/12_3.odb,Step-1,Increment      1: Step Time =    1.000,"PART-1-1",           705,         -1.25,          -30.,            0.,NA,NA,"",            0.,  -675.692E-42,  -255.879E-42,   719.625E-06
C:/temp/dataset/3/12_3.odb,Step-1,Increment      1: Step Time =    1.000,"PART-1-1",           706,       8.60683,      -25.8105,            0.,NA,NA,"",   10.5150E-03,  -10.3309E-03,   1.95915E-03,   1.72102E-03
C:/temp/dataset/3/12_3.odb,Step-1,Increment      1: Step Time =    1.000,"PART-1-1",           707,       7.41490,      -26.9159,            0.,NA,NA,"",   7.01473E-03,  -6.96594E-03,   825.928E-06,   1.46460E-03
C:/temp/dataset/3/12_3.odb,Step-1,Increment      1: Step Time =    1.000,"PART-1-1",           708,       6.17638,      -25.8614,            0.,NA,NA,"",   7.85200E-03,  -7.77594E-03,   1.09025E-03,   1.23837E-03
C:/temp/dataset/3/12_3.odb,Step-1,Increment      1: Step Time =    1.000,"PART-1-1",           709,       7.37219,      -25.0876,            0.,NA,NA,"",   10.2575E-03,  -10.0555E-03,   2.02579E-03,   1.36009E-03
C:/temp/dataset/3/12_3.odb,Step-1,Increment      1: Step Time =    1.000,"PART-1-1",           710,       6.30743,      -24.1068,            0.,NA,NA,"",   10.4632E-03,  -10.2386E-03,   2.15623E-03,   1.15327E-03
C:/temp/dataset/3/12_3.odb,Step-1,Increment      1: Step Time =    1.000,"PART-1-1",           711,   113.079E-03,      -23.9373,            0.,NA,NA,"",   6.45055E-03,  -6.43978E-03,   372.555E-06,   694.879E-06
C:/temp/dataset/3/12_3.odb,Step-1,Increment      1: Step Time =    1.000,"PART-1-1",           712,      -2.43554,      -23.8906,            0.,NA,NA,"",   5.46150E-03,  -5.45687E-03,   224.863E-06,   562.289E-06
C:/temp/dataset/3/12_3.odb,Step-1,Increment      1: Step Time =    1.000,"PART-1-1",           713,      -8.72529,      -25.0755,            0.,NA,NA,"",   3.29777E-03,  -3.29635E-03,  -96.7486E-06,   375.595E-06
C:/temp/dataset/3/12_3.odb,Step-1,Increment      1: Step Time =    1.000,"PART-1-1",           714,      -9.97606,      -23.8175,            0.,NA,NA,"",   3.87352E-03,  -3.86867E-03,  -193.742E-06,   265.687E-06
C:/temp/dataset/3/12_3.odb,Step-1,Increment      1: Step Time =    1.000,"PART-1-1",           715,      -9.99641,      -28.7682,            0.,NA,NA,"",   792.218E-06,  -786.714E-06,  -93.2261E-06,   421.091E-06
C:/temp/dataset/3/12_3.odb,Step-1,Increment      1: Step Time =    1.000,"PART-1-1",           716,      -11.2465,      -27.5281,            0.,NA,NA,"",   1.57261E-03,  -1.55739E-03,  -218.268E-06,   403.282E-06
C:/temp/dataset/3/12_3.odb,Step-1,Increment      1: Step Time =    1.000,"PART-1-1",           717,        -11.25,          -30.,            0.,NA,NA,"",            0.,  -353.496E-42,  -299.720E-42,   391.434E-06
C:/temp/dataset/3/12_3.odb,Step-1,Increment      1: Step Time =    1.000,"PART-1-1",           718,         -8.75,          -30.,            0.,NA,NA,"",            0.,  -419.232E-42,  -201.672E-42,   451.652E-06
C:/temp/dataset/3/12_3.odb,Step-1,Increment      1: Step Time =    1.000,"PART-1-1",           719,      -8.73783,      -27.5479,            0.,NA,NA,"",   1.68643E-03,  -1.68294E-03,  -108.519E-06,   450.422E-06
C:/temp/dataset/3/12_3.odb,Step-1,Increment      1: Step Time =    1.000,"PART-1-1",           720,       9.45286,      -20.3748,            0.,NA,NA,"",   17.2995E-03,  -16.0263E-03,   6.51393E-03,   685.021E-06
C:/temp/dataset/3/12_3.odb,Step-1,Increment      1: Step Time =    1.000,"PART-1-1",           721,       8.38706,      -19.4374,            0.,NA,NA,"",   17.1007E-03,  -15.9855E-03,   6.07428E-03,   421.660E-06
C:/temp/dataset/3/12_3.odb,Step-1,Increment      1: Step Time =    1.000,"PART-1-1",           722,       8.33702,      -21.2957,            0.,NA,NA,"",   15.6996E-03,  -14.7591E-03,   5.35205E-03,   979.359E-06
C:/temp/dataset/3/12_3.odb,Step-1,Increment      1: Step Time =    1.000,"PART-1-1",           723,       9.34035,      -18.0986,            0.,NA,NA,"",   18.2268E-03,  -16.9211E-03,   6.77437E-03,   193.249E-06
C:/temp/dataset/3/12_3.odb,Step-1,Increment      1: Step Time =    1.000,"PART-1-1",           724,       10.7511,      -19.4747,            0.,NA,NA,"",   18.3243E-03,  -16.7378E-03,   7.45811E-03,   355.114E-06
C:/temp/dataset/3/12_3.odb,Step-1,Increment      1: Step Time =    1.000,"PART-1-1",           725,       9.57777,      -9.07511,            0.,NA,NA,"",   21.9567E-03,  -20.9690E-03,   6.51143E-03,   10.4042E-06
C:/temp/dataset/3/12_3.odb,Step-1,Increment      1: Step Time =    1.000,"PART-1-1",           726,       10.3854,      -7.79904,            0.,NA,NA,"",   22.6041E-03,  -21.5358E-03,   6.86683E-03,   5.60012E-06
C:/temp/dataset/3/12_3.odb,Step-1,Increment      1: Step Time =    1.000,"PART-1-1",           727,       11.9371,      -7.89361,            0.,NA,NA,"",   22.7784E-03,  -21.4869E-03,   7.56121E-03,   5.17306E-06
C:/temp/dataset/3/12_3.odb,Step-1,Increment      1: Step Time =    1.000,"PART-1-1",           728,       11.6400,      -6.55190,            0.,NA,NA,"",   23.3085E-03,  -22.0938E-03,   7.42625E-03,   2.31386E-06
C:/temp/dataset/3/12_3.odb,Step-1,Increment      1: Step Time =    1.000,"PART-1-1",           729,       9.29748,       3.92298,            0.,NA,NA,"",   27.5434E-03,  -26.7956E-03,   6.37461E-03,   79.1941E-09
C:/temp/dataset/3/12_3.odb,Step-1,Increment      1: Step Time =    1.000,"PART-1-1",           730,       10.7408,       1.93669,            0.,NA,NA,"",   26.8400E-03,  -25.9051E-03,   7.02199E-03,   117.386E-09
C:/temp/dataset/3/12_3.odb,Step-1,Increment      1: Step Time =    1.000,"PART-1-1",           731,       12.1175,       9.30164,            0.,NA,NA,"",   30.1904E-03,  -29.2080E-03,   7.63890E-03,   5.05670E-09
C:/temp/dataset/3/12_3.odb,Step-1,Increment      1: Step Time =    1.000,"PART-1-1",           732,       12.3743,       7.25826,            0.,NA,NA,"",   29.3351E-03,  -28.2917E-03,   7.75423E-03,   16.9286E-09
C:/temp/dataset/3/12_3.odb,Step-1,Increment      1: Step Time =    1.000,"PART-1-1",           733,       9.86952,       23.8294,            0.,NA,NA,"",   36.3328E-03,  -35.7229E-03,   6.62929E-03,   64.7887E-12
C:/temp/dataset/3/12_3.odb,Step-1,Increment      1: Step Time =    1.000,"PART-1-1",           734,       8.61965,       22.5851,            0.,NA,NA,"",   35.6846E-03,  -35.1647E-03,   6.06890E-03,   60.6346E-12
C:/temp/dataset/3/12_3.odb,Step-1,Increment      1: Step Time =    1.000,"PART-1-1",           735,         11.25,           30.,            0.,NA,NA,"",   39.1667E-03,  -38.4903E-03,   7.24776E-03,   47.7369E-12
C:/temp/dataset/3/12_3.odb,Step-1,Increment      1: Step Time =    1.000,"PART-1-1",           736,       9.97488,       28.7673,            0.,NA,NA,"",   38.5203E-03,  -37.9374E-03,   6.67604E-03,   52.3224E-12
C:/temp/dataset/3/12_3.odb,Step-1,Increment      1: Step Time =    1.000,"PART-1-1",           737,          8.75,           30.,            0.,NA,NA,"",   38.9746E-03,  -38.4900E-03,   6.12661E-03,   53.4267E-12
C:/temp/dataset/3/12_3.odb,Step-1,Increment      1: Step Time =    1.000,"PART-1-1",           738,       3.69885,       25.0915,            0.,NA,NA,"",   36.4932E-03,  -36.2883E-03,   3.86186E-03,   50.1577E-12
C:/temp/dataset/3/12_3.odb,Step-1,Increment      1: Step Time =    1.000,"PART-1-1",           739,       4.94207,       26.3392,            0.,NA,NA,"",   37.1120E-03,  -36.8479E-03,   4.41927E-03,   54.4098E-12
C:/temp/dataset/3/12_3.odb,Step-1,Increment      1: Step Time =    1.000,"PART-1-1",           740,         -6.25,           30.,            0.,NA,NA,"",   38.4932E-03,  -38.4885E-03,  -600.307E-06,   58.4675E-12
C:/temp/dataset/3/12_3.odb,Step-1,Increment      1: Step Time =    1.000,"PART-1-1",           741,      -11.2519,       25.0060,            0.,NA,NA,"",   36.3597E-03,  -36.2484E-03,  -2.84298E-03,   48.9812E-12
C:/temp/dataset/3/12_3.odb,Step-1,Increment      1: Step Time =    1.000,"PART-1-1",           742,       11.7111,      -12.1867,            0.,NA,NA,"",   20.9109E-03,  -19.5207E-03,   7.49700E-03,   37.9937E-06
C:/temp/dataset/3/12_3.odb,Step-1,Increment      1: Step Time =    1.000,"PART-1-1",           743,       12.0443,      -13.4388,            0.,NA,NA,"",   20.4223E-03,  -18.9314E-03,   7.65962E-03,   52.6987E-06
C:/temp/dataset/3/12_3.odb,Step-1,Increment      1: Step Time =    1.000,"PART-1-1",           744,       9.07309,      -22.0228,            0.,NA,NA,"",   15.9817E-03,  -15.0152E-03,   5.47332E-03,   1.13622E-03
C:/temp/dataset/3/12_3.odb,Step-1,Increment      1: Step Time =    1.000,"PART-1-1",           745,       9.10959,      -23.2638,            0.,NA,NA,"",   15.0028E-03,  -14.2924E-03,   4.56193E-03,   1.49825E-03
C:/temp/dataset/3/12_3.odb,Step-1,Increment      1: Step Time =    1.000,"PART-1-1",           746,       10.5828,      -23.1781,            0.,NA,NA,"",   17.3172E-03,  -16.3559E-03,   5.68940E-03,   1.59962E-03
C:/temp/dataset/3/12_3.odb,Step-1,Increment      1: Step Time =    1.000,"PART-1-1",           747,       10.5463,      -21.9372,            0.,NA,NA,"",   17.8073E-03,  -16.5475E-03,   6.57891E-03,   1.23748E-03
C:/temp/dataset/3/12_3.odb,Step-1,Increment      1: Step Time =    1.000,"PART-1-1",           748,      -1.00841,      -2.00181,            0.,NA,NA,"",   24.2016E-03,  -24.1379E-03,   1.75458E-03,   5.94638E-09
C:/temp/dataset/3/12_3.odb,Step-1,Increment      1: Step Time =    1.000,"PART-1-1",           749,      -3.17395,      -1.50818,            0.,NA,NA,"",   24.3716E-03,  -24.3590E-03,   783.597E-06,   1.58151E-09
C:/temp/dataset/3/12_3.odb,Step-1,Increment      1: Step Time =    1.000,"PART-1-1",           750,       8.23699,       8.20647,            0.,NA,NA,"",   29.3160E-03,  -28.7164E-03,   5.89873E-03,   14.0791E-09
C:/temp/dataset/3/12_3.odb,Step-1,Increment      1: Step Time =    1.000,"PART-1-1",           751,       8.58975,       6.06422,            0.,NA,NA,"",   28.4090E-03,  -27.7557E-03,   6.05711E-03,   45.6871E-09
C:/temp/dataset/3/12_3.odb,Step-1,Increment      1: Step Time =    1.000,"PART-1-1",           752,       1.04870,      -2.29850,            0.,NA,NA,"",   24.1539E-03,  -24.0051E-03,   2.67695E-03,   37.5818E-09
C:/temp/dataset/3/12_3.odb,Step-1,Increment      1: Step Time =    1.000,"PART-1-1",           753,      -1.88356,       2.26041,            0.,NA,NA,"",   26.0844E-03,  -26.0488E-03,   1.36176E-03,   2.39350E-09
C:/temp/dataset/3/12_3.odb,Step-1,Increment      1: Step Time =    1.000,"PART-1-1",           754,      -2.91638,       1.44829,            0.,NA,NA,"",   25.7003E-03,  -25.6846E-03,   898.782E-06,   1.71661E-09
C:/temp/dataset/3/12_3.odb,Step-1,Increment      1: Step Time =    1.000,"PART-1-1",           755,       3.03453,      -2.52132,            0.,NA,NA,"",   24.1701E-03,  -23.9053E-03,   3.56740E-03,   116.040E-09
C:/temp/dataset/3/12_3.odb,Step-1,Increment      1: Step Time =    1.000,"PART-1-1",           756,       6.99799,      -3.46075,            0.,NA,NA,"",   24.0844E-03,  -23.4841E-03,   5.34393E-03,   295.905E-09
C:/temp/dataset/3/12_3.odb,Step-1,Increment      1: Step Time =    1.000,"PART-1-1",           757,       7.63560,  -984.386E-03,            0.,NA,NA,"",   25.2306E-03,  -24.5945E-03,   5.62950E-03,   204.399E-09
C:/temp/dataset/3/12_3.odb,Step-1,Increment      1: Step Time =    1.000,"PART-1-1",           758,       6.14771,      -1.67534,            0.,NA,NA,"",   24.7865E-03,  -24.2846E-03,   4.96274E-03,   212.159E-09
C:/temp/dataset/3/12_3.odb,Step-1,Increment      1: Step Time =    1.000,"PART-1-1",           759,       4.94795,      -26.8240,            0.,NA,NA,"",   5.46366E-03,  -5.44860E-03,   405.315E-06,   1.05777E-03
C:/temp/dataset/3/12_3.odb,Step-1,Increment      1: Step Time =    1.000,"PART-1-1",           760,      -11.2341,      -25.0541,            0.,NA,NA,"",   3.13410E-03,  -3.11207E-03,  -370.963E-06,   282.782E-06
C:/temp/dataset/3/12_3.odb,Step-1,Increment      1: Step Time =    1.000,"PART-1-1",           761,      -9.98574,      -26.3021,            0.,NA,NA,"",   2.42409E-03,  -2.41697E-03,  -185.722E-06,   384.108E-06
C:/temp/dataset/3/12_3.odb,Step-1,Increment      1: Step Time =    1.000,"PART-1-1",           762,           15.,        -26.25,            0.,NA,NA,"",   23.4843E-03,  -22.1909E-03,   7.68619E-03,   2.99176E-03
C:/temp/dataset/3/12_3.odb,Step-1,Increment      1: Step Time =    1.000,"PART-1-1",           763,       9.63478,      -24.7731,            0.,NA,NA,"",   13.8827E-03,  -13.4557E-03,   3.41651E-03,   1.84491E-03
C:/temp/dataset/3/12_3.odb,Step-1,Increment      1: Step Time =    1.000,"PART-1-1",           764,       9.83383,   250.169E-03,            0.,NA,NA,"",   26.0041E-03,  -25.1486E-03,   6.61517E-03,   184.386E-09
C:/temp/dataset/3/12_3.odb,Step-1,Increment      1: Step Time =    1.000,"PART-1-1",           765,       11.1222,       22.5628,            0.,NA,NA,"",   35.8829E-03,  -35.1550E-03,   7.19118E-03,   72.4669E-12
C:/temp/dataset/3/12_3.odb,Step-1,Increment      1: Step Time =    1.000,"PART-1-1",           766,       9.84566,       21.3197,            0.,NA,NA,"",   35.2248E-03,  -34.5974E-03,   6.61884E-03,   97.7485E-12
C:/temp/dataset/3/12_3.odb,Step-1,Increment      1: Step Time =    1.000,"PART-1-1",           767,      -3.18112,  -190.353E-03,            0.,NA,NA,"",   24.9621E-03,  -24.9499E-03,   780.251E-06,   2.03814E-09
C:/temp/dataset/3/12_3.odb,Step-1,Increment      1: Step Time =    1.000,"PART-1-1",           768,       4.54417,       1.21940,            0.,NA,NA,"",   25.9321E-03,  -25.5826E-03,   4.24355E-03,   86.4689E-09
C:/temp/dataset/3/12_3.odb,Step-1,Increment      1: Step Time =    1.000,"PART-1-1",           769,       9.22107,       9.51460,            0.,NA,NA,"",   29.9812E-03,  -29.3032E-03,   6.33993E-03,   7.27995E-09
C:/temp/dataset/3/12_3.odb,Step-1,Increment      1: Step Time =    1.000,"PART-1-1",           770,       11.1709,      -3.71800,            0.,NA,NA,"",   24.4570E-03,  -23.3686E-03,   7.21478E-03,   338.262E-09
C:/temp/dataset/3/12_3.odb,Step-1,Increment      1: Step Time =    1.000,"PART-1-1",           771,       11.0221,      -5.16095,            0.,NA,NA,"",   23.8184E-03,  -22.7205E-03,   7.14811E-03,   901.312E-09
C:/temp/dataset/3/12_3.odb,Step-1,Increment      1: Step Time =    1.000,"PART-1-1",           772,       12.3085,      -4.70099,            0.,NA,NA,"",   24.1934E-03,  -22.9268E-03,   7.72561E-03,   352.809E-09
C:/temp/dataset/3/12_3.odb,Step-1,Increment      1: Step Time =    1.000,"PART-1-1",           773,       5.03877,      -2.41022,            0.,NA,NA,"",   24.3679E-03,  -23.9551E-03,   4.46594E-03,   265.289E-09
C:/temp/dataset/3/12_3.odb,Step-1,Increment      1: Step Time =    1.000,"PART-1-1",           774,       11.0080,       9.74440,            0.,NA,NA,"",   30.2611E-03,  -29.4064E-03,   7.14129E-03,   5.11809E-09
C:/temp/dataset/3/12_3.odb,Step-1,Increment      1: Step Time =    1.000,"PART-1-1",           775,       7.33953,      -23.4839,            0.,NA,NA,"",   12.3859E-03,  -11.9718E-03,   3.17602E-03,   1.24639E-03
C:/temp/dataset/3/12_3.odb,Step-1,Increment      1: Step Time =    1.000,"PART-1-1",           776,       6.60048,      -22.7490,            0.,NA,NA,"",   12.3395E-03,  -11.9262E-03,   3.16687E-03,   1.09894E-03
C:/temp/dataset/3/12_3.odb,Step-1,Increment      1: Step Time =    1.000,"PART-1-1",           777,       5.56839,      -23.3719,            0.,NA,NA,"",   10.5851E-03,  -10.3615E-03,   2.16430E-03,   987.983E-06
C:/temp/dataset/3/12_3.odb,Step-1,Increment      1: Step Time =    1.000,"PART-1-1",           778,       5.56431,      -22.1833,            0.,NA,NA,"",   11.8289E-03,  -11.5048E-03,   2.74981E-03,   958.144E-06
C:/temp/dataset/3/12_3.odb,Step-1,Increment      1: Step Time =    1.000,"PART-1-1",           779,       7.31291,      -21.9704,            0.,NA,NA,"",   13.9413E-03,  -13.2997E-03,   4.18064E-03,   1.10312E-03
C:/temp/dataset/3/12_3.odb,Step-1,Increment      1: Step Time =    1.000,"PART-1-1",           780,       8.04898,      -22.6975,            0.,NA,NA,"",   14.1230E-03,  -13.4719E-03,   4.23855E-03,   1.25367E-03
C:/temp/dataset/3/12_3.odb,Step-1,Increment      1: Step Time =    1.000,"PART-1-1",           781,       5.89213,  -472.373E-03,            0.,NA,NA,"",   25.2930E-03,  -24.8240E-03,   4.84802E-03,   156.712E-09
C:/temp/dataset/3/12_3.odb,Step-1,Increment      1: Step Time =    1.000,"PART-1-1",           782,       8.40014,      -24.0502,            0.,NA,NA,"",   13.0577E-03,  -12.6070E-03,   3.40114E-03,   1.49553E-03
