ODB Name,Step,Frame,Part Instance Name,    êﬂì_ÉâÉxÉã,X,Y,Z,Section Name,Material Name,Section Point,   U-Magnitude,          U-U1,          U-U2,       S-Mises
C:/temp/dataset/3/13_4.odb,Step-1,Increment      2: Step Time =    1.000,"PART-1-1",             1,          -15.,           20.,            0.,NA,NA,"",       10.7327,       8.85267,       6.06803,   114.171E-06
C:/temp/dataset/3/13_4.odb,Step-1,Increment      2: Step Time =    1.000,"PART-1-1",             2,          -15.,           25.,            0.,NA,NA,"",       11.8362,       10.2822,       5.86278,   2.26561E-03
C:/temp/dataset/3/13_4.odb,Step-1,Increment      2: Step Time =    1.000,"PART-1-1",             3,           -5.,           20.,            0.,NA,NA,"",       9.04583,       8.44878,       3.23190,   941.195E-06
C:/temp/dataset/3/13_4.odb,Step-1,Increment      2: Step Time =    1.000,"PART-1-1",             4,            5.,           20.,            0.,NA,NA,"",       8.06671,       8.05507,   433.171E-03,   8.14209E-03
C:/temp/dataset/3/13_4.odb,Step-1,Increment      2: Step Time =    1.000,"PART-1-1",             5,            5.,          12.5,            0.,NA,NA,"",       6.08089,       6.05035,   608.669E-03,   17.8039E-03
C:/temp/dataset/3/13_4.odb,Step-1,Increment      2: Step Time =    1.000,"PART-1-1",             6,            5.,            5.,            0.,NA,NA,"",       4.23388,       4.18089,   667.723E-03,   32.3290E-03
C:/temp/dataset/3/13_4.odb,Step-1,Increment      2: Step Time =    1.000,"PART-1-1",             7,      -1.70000,            5.,            0.,NA,NA,"",       4.74346,       4.31101,       1.97878,   1.16867E-03
C:/temp/dataset/3/13_4.odb,Step-1,Increment      2: Step Time =    1.000,"PART-1-1",             8,      -8.40000,            5.,            0.,NA,NA,"",       5.57931,       4.45673,       3.35652,   39.3487E-06
C:/temp/dataset/3/13_4.odb,Step-1,Increment      2: Step Time =    1.000,"PART-1-1",             9,          -15.,            5.,            0.,NA,NA,"",       6.58553,       4.59799,       4.71462,   466.272E-09
C:/temp/dataset/3/13_4.odb,Step-1,Increment      2: Step Time =    1.000,"PART-1-1",            10,          -15.,            0.,            0.,NA,NA,"",       5.99892,       3.56921,       4.82160,   4.02855E-06
C:/temp/dataset/3/13_4.odb,Step-1,Increment      2: Step Time =    1.000,"PART-1-1",            11,          -15.,           -5.,            0.,NA,NA,"",       5.54480,       2.54051,       4.92855,   381.942E-09
C:/temp/dataset/3/13_4.odb,Step-1,Increment      2: Step Time =    1.000,"PART-1-1",            12,      -8.30000,           -5.,            0.,NA,NA,"",       4.28375,       2.39718,       3.55022,   38.2871E-06
C:/temp/dataset/3/13_4.odb,Step-1,Increment      2: Step Time =    1.000,"PART-1-1",            13,      -1.60000,           -5.,            0.,NA,NA,"",       3.12804,       2.25113,       2.17188,   1.22174E-03
C:/temp/dataset/3/13_4.odb,Step-1,Increment      2: Step Time =    1.000,"PART-1-1",            14,            5.,           -5.,            0.,NA,NA,"",       2.21606,       2.08992,   737.008E-03,   43.0973E-03
C:/temp/dataset/3/13_4.odb,Step-1,Increment      2: Step Time =    1.000,"PART-1-1",            15,            5.,         -12.5,            0.,NA,NA,"",       1.03201,   896.763E-03,   510.747E-03,   48.1286E-03
C:/temp/dataset/3/13_4.odb,Step-1,Increment      2: Step Time =    1.000,"PART-1-1",            16,            5.,          -20.,            0.,NA,NA,"",   189.972E-03,   106.487E-03,   157.322E-03,   76.5092E-03
C:/temp/dataset/3/13_4.odb,Step-1,Increment      2: Step Time =    1.000,"PART-1-1",            17,           -5.,          -20.,            0.,NA,NA,"",   31.8607E-03,   31.8470E-03,  -935.075E-06,   505.872E-06
C:/temp/dataset/3/13_4.odb,Step-1,Increment      2: Step Time =    1.000,"PART-1-1",            18,          -15.,          -20.,            0.,NA,NA,"",   32.5478E-03,   31.5093E-03,   8.15608E-03,   19.9203E-06
C:/temp/dataset/3/13_4.odb,Step-1,Increment      2: Step Time =    1.000,"PART-1-1",            19,          -15.,          -25.,            0.,NA,NA,"",   21.9046E-03,   20.1748E-03,   8.53181E-03,   135.360E-06
C:/temp/dataset/3/13_4.odb,Step-1,Increment      2: Step Time =    1.000,"PART-1-1",            20,          -15.,          -30.,            0.,NA,NA,"",            0.,   3.11509E-42,   8.53251E-42,   5.48302E-03
C:/temp/dataset/3/13_4.odb,Step-1,Increment      2: Step Time =    1.000,"PART-1-1",            21,           15.,          -30.,            0.,NA,NA,"",            0.,  -108.657E-42,   128.585E-42,   26.3045E-03
C:/temp/dataset/3/13_4.odb,Step-1,Increment      2: Step Time =    1.000,"PART-1-1",            22,           15.,         -22.5,            0.,NA,NA,"",   236.583E-03,   83.3647E-03,  -221.409E-03,   44.0113E-03
C:/temp/dataset/3/13_4.odb,Step-1,Increment      2: Step Time =    1.000,"PART-1-1",            23,           15.,          -15.,            0.,NA,NA,"",   793.919E-03,   545.666E-03,  -576.677E-03,   50.7681E-03
C:/temp/dataset/3/13_4.odb,Step-1,Increment      2: Step Time =    1.000,"PART-1-1",            24,           15.,          -7.5,            0.,NA,NA,"",       1.79960,       1.52519,  -955.159E-03,   40.4825E-03
C:/temp/dataset/3/13_4.odb,Step-1,Increment      2: Step Time =    1.000,"PART-1-1",            25,           15.,            0.,            0.,NA,NA,"",       3.18736,       2.90629,      -1.30872,   26.0440E-03
C:/temp/dataset/3/13_4.odb,Step-1,Increment      2: Step Time =    1.000,"PART-1-1",            26,           15.,           7.5,            0.,NA,NA,"",       4.81817,       4.52589,      -1.65260,   22.9387E-03
C:/temp/dataset/3/13_4.odb,Step-1,Increment      2: Step Time =    1.000,"PART-1-1",            27,           15.,           15.,            0.,NA,NA,"",       6.68016,       6.36862,      -2.01623,   14.7971E-03
C:/temp/dataset/3/13_4.odb,Step-1,Increment      2: Step Time =    1.000,"PART-1-1",            28,           15.,          22.5,            0.,NA,NA,"",       8.69736,       8.37171,      -2.35766,   4.87208E-03
C:/temp/dataset/3/13_4.odb,Step-1,Increment      2: Step Time =    1.000,"PART-1-1",            29,           15.,           30.,            0.,NA,NA,"",       10.7589,       10.4263,      -2.65458,   139.774E-06
C:/temp/dataset/3/13_4.odb,Step-1,Increment      2: Step Time =    1.000,"PART-1-1",            30,           7.5,           30.,            0.,NA,NA,"",       10.7357,       10.7182,  -612.907E-03,   3.66153E-03
C:/temp/dataset/3/13_4.odb,Step-1,Increment      2: Step Time =    1.000,"PART-1-1",            31,            0.,           30.,            0.,NA,NA,"",       11.1345,       11.0403,       1.44510,   5.14871E-03
C:/temp/dataset/3/13_4.odb,Step-1,Increment      2: Step Time =    1.000,"PART-1-1",            32,          -7.5,           30.,            0.,NA,NA,"",       11.9114,       11.3737,       3.53840,   4.98083E-03
C:/temp/dataset/3/13_4.odb,Step-1,Increment      2: Step Time =    1.000,"PART-1-1",            33,          -15.,           30.,            0.,NA,NA,"",       13.0083,       11.7125,       5.65977,   3.98573E-03
C:/temp/dataset/3/13_4.odb,Step-1,Increment      2: Step Time =    1.000,"PART-1-1",            34,          -15.,          22.5,            0.,NA,NA,"",       11.2721,       9.56463,       5.96481,   850.033E-06
C:/temp/dataset/3/13_4.odb,Step-1,Increment      2: Step Time =    1.000,"PART-1-1",            35,          -7.5,           20.,            0.,NA,NA,"",       9.41085,       8.54792,       3.93666,   981.530E-06
C:/temp/dataset/3/13_4.odb,Step-1,Increment      2: Step Time =    1.000,"PART-1-1",            36,          -10.,           20.,            0.,NA,NA,"",       9.81639,       8.64803,       4.64469,   944.782E-06
C:/temp/dataset/3/13_4.odb,Step-1,Increment      2: Step Time =    1.000,"PART-1-1",            37,         -12.5,           20.,            0.,NA,NA,"",       10.2586,       8.74949,       5.35579,   498.133E-06
C:/temp/dataset/3/13_4.odb,Step-1,Increment      2: Step Time =    1.000,"PART-1-1",            38,           2.5,           20.,            0.,NA,NA,"",       8.23336,       8.15467,       1.13557,   1.74222E-03
C:/temp/dataset/3/13_4.odb,Step-1,Increment      2: Step Time =    1.000,"PART-1-1",            39,            0.,           20.,            0.,NA,NA,"",       8.45350,       8.25262,       1.83192,   608.405E-06
C:/temp/dataset/3/13_4.odb,Step-1,Increment      2: Step Time =    1.000,"PART-1-1",            40,          -2.5,           20.,            0.,NA,NA,"",       8.72546,       8.35048,       2.53042,   876.822E-06
C:/temp/dataset/3/13_4.odb,Step-1,Increment      2: Step Time =    1.000,"PART-1-1",            41,            5.,           15.,            0.,NA,NA,"",       6.72890,       6.70564,   559.015E-03,   14.7149E-03
C:/temp/dataset/3/13_4.odb,Step-1,Increment      2: Step Time =    1.000,"PART-1-1",            42,            5.,          17.5,            0.,NA,NA,"",       7.39153,       7.37469,   498.737E-03,   12.5534E-03
C:/temp/dataset/3/13_4.odb,Step-1,Increment      2: Step Time =    1.000,"PART-1-1",            43,            5.,           7.5,            0.,NA,NA,"",       4.83863,       4.79143,   674.165E-03,   25.6615E-03
C:/temp/dataset/3/13_4.odb,Step-1,Increment      2: Step Time =    1.000,"PART-1-1",            44,            5.,           10.,            0.,NA,NA,"",       5.45032,       5.41185,   646.422E-03,   20.5412E-03
C:/temp/dataset/3/13_4.odb,Step-1,Increment      2: Step Time =    1.000,"PART-1-1",            45,   533.333E-03,            5.,            0.,NA,NA,"",       4.52496,       4.26062,       1.52394,   2.98922E-03
C:/temp/dataset/3/13_4.odb,Step-1,Increment      2: Step Time =    1.000,"PART-1-1",            46,       2.76667,            5.,            0.,NA,NA,"",       4.34643,       4.21016,       1.07984,   5.53540E-03
C:/temp/dataset/3/13_4.odb,Step-1,Increment      2: Step Time =    1.000,"PART-1-1",            47,      -6.16667,            5.,            0.,NA,NA,"",       5.27531,       4.40875,       2.89687,   157.758E-06
C:/temp/dataset/3/13_4.odb,Step-1,Increment      2: Step Time =    1.000,"PART-1-1",            48,      -3.93333,            5.,            0.,NA,NA,"",       4.99532,       4.36033,       2.43737,   550.352E-06
C:/temp/dataset/3/13_4.odb,Step-1,Increment      2: Step Time =    1.000,"PART-1-1",            49,      -12.8000,            5.,            0.,NA,NA,"",       6.23499,       4.55092,       4.26195,   3.26175E-06
C:/temp/dataset/3/13_4.odb,Step-1,Increment      2: Step Time =    1.000,"PART-1-1",            50,      -10.6000,            5.,            0.,NA,NA,"",       5.89874,       4.50385,       3.80926,   2.67982E-06
C:/temp/dataset/3/13_4.odb,Step-1,Increment      2: Step Time =    1.000,"PART-1-1",            51,          -15.,           2.5,            0.,NA,NA,"",       6.27779,       4.08359,       4.76811,   3.68611E-06
C:/temp/dataset/3/13_4.odb,Step-1,Increment      2: Step Time =    1.000,"PART-1-1",            52,          -15.,          -2.5,            0.,NA,NA,"",       5.75313,       3.05485,       4.87507,   3.65284E-06
C:/temp/dataset/3/13_4.odb,Step-1,Increment      2: Step Time =    1.000,"PART-1-1",            53,      -10.5333,           -5.,            0.,NA,NA,"",       4.69626,       2.44497,       4.00962,   2.06859E-06
C:/temp/dataset/3/13_4.odb,Step-1,Increment      2: Step Time =    1.000,"PART-1-1",            54,      -12.7667,           -5.,            0.,NA,NA,"",       5.11726,       2.49273,       4.46907,   2.97395E-06
C:/temp/dataset/3/13_4.odb,Step-1,Increment      2: Step Time =    1.000,"PART-1-1",            55,      -3.83333,           -5.,            0.,NA,NA,"",       3.49565,       2.30082,       2.63169,   580.931E-06
C:/temp/dataset/3/13_4.odb,Step-1,Increment      2: Step Time =    1.000,"PART-1-1",            56,      -6.06667,           -5.,            0.,NA,NA,"",       3.88240,       2.34927,       3.09095,   159.088E-06
C:/temp/dataset/3/13_4.odb,Step-1,Increment      2: Step Time =    1.000,"PART-1-1",            57,       2.80000,           -5.,            0.,NA,NA,"",       2.47949,       2.14224,       1.24848,   9.18487E-03
C:/temp/dataset/3/13_4.odb,Step-1,Increment      2: Step Time =    1.000,"PART-1-1",            58,   600.000E-03,           -5.,            0.,NA,NA,"",       2.78966,       2.19953,       1.71588,   3.16148E-03
C:/temp/dataset/3/13_4.odb,Step-1,Increment      2: Step Time =    1.000,"PART-1-1",            59,            5.,          -10.,            0.,NA,NA,"",       1.38271,       1.25011,   590.851E-03,   44.5356E-03
C:/temp/dataset/3/13_4.odb,Step-1,Increment      2: Step Time =    1.000,"PART-1-1",            60,            5.,          -7.5,            0.,NA,NA,"",       1.77516,       1.64951,   655.998E-03,   43.7934E-03
C:/temp/dataset/3/13_4.odb,Step-1,Increment      2: Step Time =    1.000,"PART-1-1",            61,            5.,         -17.5,            0.,NA,NA,"",   465.113E-03,   340.532E-03,   316.809E-03,   57.0108E-03
C:/temp/dataset/3/13_4.odb,Step-1,Increment      2: Step Time =    1.000,"PART-1-1",            62,            5.,          -15.,            0.,NA,NA,"",   727.188E-03,   594.910E-03,   418.192E-03,   48.9648E-03
C:/temp/dataset/3/13_4.odb,Step-1,Increment      2: Step Time =    1.000,"PART-1-1",            63,          -2.5,          -20.,            0.,NA,NA,"",   33.9036E-03,   33.5962E-03,   4.55525E-03,   1.66160E-03
C:/temp/dataset/3/13_4.odb,Step-1,Increment      2: Step Time =    1.000,"PART-1-1",            64,            0.,          -20.,            0.,NA,NA,"",   42.4205E-03,   37.7975E-03,   19.2573E-03,   3.27984E-03
C:/temp/dataset/3/13_4.odb,Step-1,Increment      2: Step Time =    1.000,"PART-1-1",            65,           2.5,          -20.,            0.,NA,NA,"",   70.4166E-03,   46.2977E-03,   53.0567E-03,   20.6974E-03
C:/temp/dataset/3/13_4.odb,Step-1,Increment      2: Step Time =    1.000,"PART-1-1",            66,         -12.5,          -20.,            0.,NA,NA,"",   31.5229E-03,   31.3456E-03,   3.33899E-03,   150.033E-06
C:/temp/dataset/3/13_4.odb,Step-1,Increment      2: Step Time =    1.000,"PART-1-1",            67,          -10.,          -20.,            0.,NA,NA,"",   31.0096E-03,   31.0077E-03,  -346.839E-06,   80.3599E-06
C:/temp/dataset/3/13_4.odb,Step-1,Increment      2: Step Time =    1.000,"PART-1-1",            68,          -7.5,          -20.,            0.,NA,NA,"",   31.1697E-03,   31.1020E-03,  -2.05361E-03,   227.798E-06
C:/temp/dataset/3/13_4.odb,Step-1,Increment      2: Step Time =    1.000,"PART-1-1",            69,          -15.,         -22.5,            0.,NA,NA,"",   27.8227E-03,   26.5485E-03,   8.32353E-03,   142.795E-06
C:/temp/dataset/3/13_4.odb,Step-1,Increment      2: Step Time =    1.000,"PART-1-1",            70,          -15.,         -27.5,            0.,NA,NA,"",   13.5163E-03,   11.3750E-03,   7.30068E-03,   1.75609E-03
C:/temp/dataset/3/13_4.odb,Step-1,Increment      2: Step Time =    1.000,"PART-1-1",            71,          12.5,          -30.,            0.,NA,NA,"",            0.,   6.59125E-39,  -22.1265E-39,   15.9032E-03
C:/temp/dataset/3/13_4.odb,Step-1,Increment      2: Step Time =    1.000,"PART-1-1",            72,           10.,          -30.,            0.,NA,NA,"",            0.,  -14.4204E-39,  -18.4086E-39,   11.2502E-03
C:/temp/dataset/3/13_4.odb,Step-1,Increment      2: Step Time =    1.000,"PART-1-1",            73,           7.5,          -30.,            0.,NA,NA,"",            0.,  -5.64096E-39,  -694.158E-42,   7.42644E-03
C:/temp/dataset/3/13_4.odb,Step-1,Increment      2: Step Time =    1.000,"PART-1-1",            74,            5.,          -30.,            0.,NA,NA,"",            0.,  -5.64781E-39,   13.2153E-39,   6.79000E-03
C:/temp/dataset/3/13_4.odb,Step-1,Increment      2: Step Time =    1.000,"PART-1-1",            75,           2.5,          -30.,            0.,NA,NA,"",            0.,  -1.43544E-39,   9.66206E-39,   7.96901E-03
C:/temp/dataset/3/13_4.odb,Step-1,Increment      2: Step Time =    1.000,"PART-1-1",            76,            0.,          -30.,            0.,NA,NA,"",            0.,   1.58725E-39,   4.35319E-39,   8.00678E-03
C:/temp/dataset/3/13_4.odb,Step-1,Increment      2: Step Time =    1.000,"PART-1-1",            77,          -2.5,          -30.,            0.,NA,NA,"",            0.,   8.69829E-39,   11.3176E-39,   6.83079E-03
C:/temp/dataset/3/13_4.odb,Step-1,Increment      2: Step Time =    1.000,"PART-1-1",            78,           -5.,          -30.,            0.,NA,NA,"",            0.,   3.16061E-39,  -1.37492E-39,   5.38827E-03
C:/temp/dataset/3/13_4.odb,Step-1,Increment      2: Step Time =    1.000,"PART-1-1",            79,          -7.5,          -30.,            0.,NA,NA,"",            0.,   2.75149E-39,  -1.84772E-39,   4.11466E-03
C:/temp/dataset/3/13_4.odb,Step-1,Increment      2: Step Time =    1.000,"PART-1-1",            80,          -10.,          -30.,            0.,NA,NA,"",            0.,   3.81391E-39,   4.48222E-39,   3.20385E-03
C:/temp/dataset/3/13_4.odb,Step-1,Increment      2: Step Time =    1.000,"PART-1-1",            81,         -12.5,          -30.,            0.,NA,NA,"",            0.,   3.31674E-39,   3.96374E-39,   2.36317E-03
C:/temp/dataset/3/13_4.odb,Step-1,Increment      2: Step Time =    1.000,"PART-1-1",            82,           15.,          -25.,            0.,NA,NA,"",   134.710E-03,   34.9361E-03,  -130.101E-03,   36.3557E-03
C:/temp/dataset/3/13_4.odb,Step-1,Increment      2: Step Time =    1.000,"PART-1-1",            83,           15.,         -27.5,            0.,NA,NA,"",   59.8900E-03,   17.4383E-03,  -57.2950E-03,   30.0927E-03
C:/temp/dataset/3/13_4.odb,Step-1,Increment      2: Step Time =    1.000,"PART-1-1",            84,           15.,         -17.5,            0.,NA,NA,"",   559.183E-03,   330.763E-03,  -450.867E-03,   51.9727E-03
C:/temp/dataset/3/13_4.odb,Step-1,Increment      2: Step Time =    1.000,"PART-1-1",            85,           15.,          -20.,            0.,NA,NA,"",   374.667E-03,   177.921E-03,  -329.727E-03,   49.7013E-03
C:/temp/dataset/3/13_4.odb,Step-1,Increment      2: Step Time =    1.000,"PART-1-1",            86,           15.,          -10.,            0.,NA,NA,"",       1.41550,       1.14696,  -829.537E-03,   44.6068E-03
C:/temp/dataset/3/13_4.odb,Step-1,Increment      2: Step Time =    1.000,"PART-1-1",            87,           15.,         -12.5,            0.,NA,NA,"",       1.07966,   819.260E-03,  -703.194E-03,   47.9049E-03
C:/temp/dataset/3/13_4.odb,Step-1,Increment      2: Step Time =    1.000,"PART-1-1",            88,           15.,          -2.5,            0.,NA,NA,"",       2.69326,       2.41308,      -1.19611,   29.9297E-03
C:/temp/dataset/3/13_4.odb,Step-1,Increment      2: Step Time =    1.000,"PART-1-1",            89,           15.,           -5.,            0.,NA,NA,"",       2.22798,       1.94965,      -1.07832,   35.2882E-03
C:/temp/dataset/3/13_4.odb,Step-1,Increment      2: Step Time =    1.000,"PART-1-1",            90,           15.,            5.,            0.,NA,NA,"",       4.24832,       3.96174,      -1.53392,   23.8089E-03
C:/temp/dataset/3/13_4.odb,Step-1,Increment      2: Step Time =    1.000,"PART-1-1",            91,           15.,           2.5,            0.,NA,NA,"",       3.70545,       3.42271,      -1.41965,   24.4010E-03
C:/temp/dataset/3/13_4.odb,Step-1,Increment      2: Step Time =    1.000,"PART-1-1",            92,           15.,          12.5,            0.,NA,NA,"",       6.03727,       5.73192,      -1.89573,   17.9156E-03
C:/temp/dataset/3/13_4.odb,Step-1,Increment      2: Step Time =    1.000,"PART-1-1",            93,           15.,           10.,            0.,NA,NA,"",       5.41538,       5.11655,      -1.77405,   20.7813E-03
C:/temp/dataset/3/13_4.odb,Step-1,Increment      2: Step Time =    1.000,"PART-1-1",            94,           15.,           20.,            0.,NA,NA,"",       8.01431,       7.69243,      -2.24849,   8.17631E-03
C:/temp/dataset/3/13_4.odb,Step-1,Increment      2: Step Time =    1.000,"PART-1-1",            95,           15.,          17.5,            0.,NA,NA,"",       7.34045,       7.02334,      -2.13423,   11.5623E-03
C:/temp/dataset/3/13_4.odb,Step-1,Increment      2: Step Time =    1.000,"PART-1-1",            96,           15.,          27.5,            0.,NA,NA,"",       10.0728,       9.74226,      -2.55925,   294.117E-06
C:/temp/dataset/3/13_4.odb,Step-1,Increment      2: Step Time =    1.000,"PART-1-1",            97,           15.,           25.,            0.,NA,NA,"",       9.38490,       9.05646,      -2.46107,   2.05392E-03
C:/temp/dataset/3/13_4.odb,Step-1,Increment      2: Step Time =    1.000,"PART-1-1",            98,           10.,           30.,            0.,NA,NA,"",       10.6959,       10.6176,      -1.29198,   1.83519E-03
C:/temp/dataset/3/13_4.odb,Step-1,Increment      2: Step Time =    1.000,"PART-1-1",            99,          12.5,           30.,            0.,NA,NA,"",       10.7044,       10.5212,      -1.97191,   291.320E-06
C:/temp/dataset/3/13_4.odb,Step-1,Increment      2: Step Time =    1.000,"PART-1-1",           100,           2.5,           30.,            0.,NA,NA,"",       10.9569,       10.9309,   754.590E-03,   5.19313E-03
C:/temp/dataset/3/13_4.odb,Step-1,Increment      2: Step Time =    1.000,"PART-1-1",           101,            5.,           30.,            0.,NA,NA,"",       10.8233,       10.8231,   68.6303E-03,   4.81928E-03
C:/temp/dataset/3/13_4.odb,Step-1,Increment      2: Step Time =    1.000,"PART-1-1",           102,           -5.,           30.,            0.,NA,NA,"",       11.6136,       11.2617,       2.83734,   4.99289E-03
C:/temp/dataset/3/13_4.odb,Step-1,Increment      2: Step Time =    1.000,"PART-1-1",           103,          -2.5,           30.,            0.,NA,NA,"",       11.3540,       11.1506,       2.13951,   5.04555E-03
C:/temp/dataset/3/13_4.odb,Step-1,Increment      2: Step Time =    1.000,"PART-1-1",           104,         -12.5,           30.,            0.,NA,NA,"",       12.6120,       11.5999,       4.95029,   4.47166E-03
C:/temp/dataset/3/13_4.odb,Step-1,Increment      2: Step Time =    1.000,"PART-1-1",           105,          -10.,           30.,            0.,NA,NA,"",       12.2450,       11.4865,       4.24271,   4.93388E-03
C:/temp/dataset/3/13_4.odb,Step-1,Increment      2: Step Time =    1.000,"PART-1-1",           106,          -15.,          27.5,            0.,NA,NA,"",       12.4159,       10.9994,       5.75922,   4.10004E-03
C:/temp/dataset/3/13_4.odb,Step-1,Increment      2: Step Time =    1.000,"PART-1-1",           107,      -12.5013,       25.0052,            0.,NA,NA,"",       11.4039,       10.1751,       5.14938,   2.23836E-03
C:/temp/dataset/3/13_4.odb,Step-1,Increment      2: Step Time =    1.000,"PART-1-1",           108,      -10.0028,       27.5014,            0.,NA,NA,"",       11.6184,       10.7768,       4.34142,   3.56619E-03
C:/temp/dataset/3/13_4.odb,Step-1,Increment      2: Step Time =    1.000,"PART-1-1",           109,      -2.49865,       22.5268,            0.,NA,NA,"",       9.37747,       9.05746,       2.42889,   530.917E-06
C:/temp/dataset/3/13_4.odb,Step-1,Increment      2: Step Time =    1.000,"PART-1-1",           110,      -2.51000,       27.5279,            0.,NA,NA,"",       10.6948,       10.4583,       2.23643,   3.46740E-03
C:/temp/dataset/3/13_4.odb,Step-1,Increment      2: Step Time =    1.000,"PART-1-1",           111,       12.3864,       22.5464,            0.,NA,NA,"",       8.63732,       8.47847,      -1.64887,   5.01158E-03
C:/temp/dataset/3/13_4.odb,Step-1,Increment      2: Step Time =    1.000,"PART-1-1",           112,       7.35369,       17.5509,            0.,NA,NA,"",       7.29660,       7.29553,  -124.801E-03,   6.67013E-03
C:/temp/dataset/3/13_4.odb,Step-1,Increment      2: Step Time =    1.000,"PART-1-1",           113,       12.3201,       14.9467,            0.,NA,NA,"",       6.56685,       6.43351,      -1.31663,   8.19922E-03
C:/temp/dataset/3/13_4.odb,Step-1,Increment      2: Step Time =    1.000,"PART-1-1",           114,       13.2599,       7.39194,            0.,NA,NA,"",       4.70029,       4.53480,      -1.23628,   15.0858E-03
C:/temp/dataset/3/13_4.odb,Step-1,Increment      2: Step Time =    1.000,"PART-1-1",           115,       7.60504,      -5.98204,            0.,NA,NA,"",       1.86302,       1.84783,   237.420E-03,   14.9229E-03
C:/temp/dataset/3/13_4.odb,Step-1,Increment      2: Step Time =    1.000,"PART-1-1",           116,       7.71062,      -13.7665,            0.,NA,NA,"",   696.929E-03,   676.957E-03,   165.645E-03,   23.6619E-03
C:/temp/dataset/3/13_4.odb,Step-1,Increment      2: Step Time =    1.000,"PART-1-1",           117,       11.7208,      -22.4938,            0.,NA,NA,"",   108.626E-03,   39.5237E-03,  -101.181E-03,   20.4941E-03
C:/temp/dataset/3/13_4.odb,Step-1,Increment      2: Step Time =    1.000,"PART-1-1",           118,       2.59328,       2.74806,            0.,NA,NA,"",       3.93222,       3.75889,       1.15460,   7.70014E-03
C:/temp/dataset/3/13_4.odb,Step-1,Increment      2: Step Time =    1.000,"PART-1-1",           119,      -1.32361,      -2.98462,            0.,NA,NA,"",       3.37364,       2.66247,       2.07188,   702.375E-06
C:/temp/dataset/3/13_4.odb,Step-1,Increment      2: Step Time =    1.000,"PART-1-1",           120,      -6.00563,       3.11026,            0.,NA,NA,"",       4.95646,       4.01659,       2.90405,   235.468E-06
C:/temp/dataset/3/13_4.odb,Step-1,Increment      2: Step Time =    1.000,"PART-1-1",           121,      -10.4102,       2.53863,            0.,NA,NA,"",       5.52821,       3.99333,       3.82288,   27.3972E-06
C:/temp/dataset/3/13_4.odb,Step-1,Increment      2: Step Time =    1.000,"PART-1-1",           122,      -12.6184,  -43.2983E-03,            0.,NA,NA,"",       5.57551,       3.50935,       4.33252,   6.79074E-06
C:/temp/dataset/3/13_4.odb,Step-1,Increment      2: Step Time =    1.000,"PART-1-1",           123,      -3.88272,       3.23189,            0.,NA,NA,"",       4.69486,       3.99604,       2.46443,   468.192E-06
C:/temp/dataset/3/13_4.odb,Step-1,Increment      2: Step Time =    1.000,"PART-1-1",           124,       2.98144,      -22.7363,            0.,NA,NA,"",   80.7411E-03,   55.6496E-03,   58.5000E-03,   25.2155E-03
C:/temp/dataset/3/13_4.odb,Step-1,Increment      2: Step Time =    1.000,"PART-1-1",           125,      -2.42987,      -22.6294,            0.,NA,NA,"",   38.9296E-03,   38.2346E-03,   7.32334E-03,   4.10803E-03
C:/temp/dataset/3/13_4.odb,Step-1,Increment      2: Step Time =    1.000,"PART-1-1",           126,      -9.97348,      -22.5672,            0.,NA,NA,"",   27.3002E-03,   27.3001E-03,  -71.9141E-06,   871.951E-06
C:/temp/dataset/3/13_4.odb,Step-1,Increment      2: Step Time =    1.000,"PART-1-1",           127,      -12.4895,      -25.0402,            0.,NA,NA,"",   20.1464E-03,   19.9375E-03,   2.89360E-03,   1.24665E-03
C:/temp/dataset/3/13_4.odb,Step-1,Increment      2: Step Time =    1.000,"PART-1-1",           128,       12.8561,      -14.2595,            0.,NA,NA,"",   705.900E-03,   595.189E-03,  -379.532E-03,   27.6995E-03
C:/temp/dataset/3/13_4.odb,Step-1,Increment      2: Step Time =    1.000,"PART-1-1",           129,       12.7281,      -7.33650,            0.,NA,NA,"",       1.65748,       1.55073,  -585.225E-03,   22.5759E-03
C:/temp/dataset/3/13_4.odb,Step-1,Increment      2: Step Time =    1.000,"PART-1-1",           130,       12.6427,  -96.8002E-03,            0.,NA,NA,"",       3.02830,       2.91545,  -819.016E-03,   14.9806E-03
C:/temp/dataset/3/13_4.odb,Step-1,Increment      2: Step Time =    1.000,"PART-1-1",           131,       7.13014,       10.3328,            0.,NA,NA,"",       5.41746,       5.41606,   123.168E-03,   12.7772E-03
C:/temp/dataset/3/13_4.odb,Step-1,Increment      2: Step Time =    1.000,"PART-1-1",           132,       4.95005,       27.5805,            0.,NA,NA,"",       10.1592,       10.1577,   171.416E-03,   3.50887E-03
C:/temp/dataset/3/13_4.odb,Step-1,Increment      2: Step Time =    1.000,"PART-1-1",           133,      -4.99957,       22.5148,            0.,NA,NA,"",       9.67580,       9.15549,       3.13017,   515.705E-06
C:/temp/dataset/3/13_4.odb,Step-1,Increment      2: Step Time =    1.000,"PART-1-1",           134,      -7.50186,       22.5094,            0.,NA,NA,"",       10.0193,       9.25636,       3.83484,   507.057E-06
C:/temp/dataset/3/13_4.odb,Step-1,Increment      2: Step Time =    1.000,"PART-1-1",           135,       4.93744,       22.5898,            0.,NA,NA,"",       8.78368,       8.77632,   359.596E-03,   3.55788E-03
C:/temp/dataset/3/13_4.odb,Step-1,Increment      2: Step Time =    1.000,"PART-1-1",           136,       2.47758,       22.5593,            0.,NA,NA,"",       8.92810,       8.86709,       1.04196,   1.13757E-03
C:/temp/dataset/3/13_4.odb,Step-1,Increment      2: Step Time =    1.000,"PART-1-1",           137,  -4.46696E-03,       22.5388,            0.,NA,NA,"",       9.12661,       8.96067,       1.73247,   454.023E-06
C:/temp/dataset/3/13_4.odb,Step-1,Increment      2: Step Time =    1.000,"PART-1-1",           138,       7.20686,       12.6699,            0.,NA,NA,"",       6.00983,       6.00961,   50.9115E-03,   10.5676E-03
C:/temp/dataset/3/13_4.odb,Step-1,Increment      2: Step Time =    1.000,"PART-1-1",           139,       7.30679,       15.0771,            0.,NA,NA,"",       6.63592,       6.63581,  -38.2483E-03,   8.85080E-03
C:/temp/dataset/3/13_4.odb,Step-1,Increment      2: Step Time =    1.000,"PART-1-1",           140,       7.52839,       5.66323,            0.,NA,NA,"",       4.27415,       4.27240,   122.393E-03,   8.06113E-03
C:/temp/dataset/3/13_4.odb,Step-1,Increment      2: Step Time =    1.000,"PART-1-1",           141,       7.20823,       7.96221,            0.,NA,NA,"",       4.82984,       4.82741,   153.152E-03,   15.0354E-03
C:/temp/dataset/3/13_4.odb,Step-1,Increment      2: Step Time =    1.000,"PART-1-1",           142,      -1.77433,       3.17490,            0.,NA,NA,"",       4.43226,       3.93896,       2.03213,   716.166E-06
C:/temp/dataset/3/13_4.odb,Step-1,Increment      2: Step Time =    1.000,"PART-1-1",           143,   347.975E-03,       3.01142,            0.,NA,NA,"",       4.17998,       3.86107,       1.60136,   1.22598E-03
C:/temp/dataset/3/13_4.odb,Step-1,Increment      2: Step Time =    1.000,"PART-1-1",           144,      -8.17775,       2.85153,            0.,NA,NA,"",       5.22945,       4.00992,       3.35673,   92.0753E-06
C:/temp/dataset/3/13_4.odb,Step-1,Increment      2: Step Time =    1.000,"PART-1-1",           145,      -8.45397,      -3.03463,            0.,NA,NA,"",       4.51638,       2.80484,       3.53986,   75.1369E-06
C:/temp/dataset/3/13_4.odb,Step-1,Increment      2: Step Time =    1.000,"PART-1-1",           146,      -12.6978,       2.46856,            0.,NA,NA,"",       5.88825,       4.02786,       4.29509,   3.69411E-06
C:/temp/dataset/3/13_4.odb,Step-1,Increment      2: Step Time =    1.000,"PART-1-1",           147,      -10.5225,      -2.72745,            0.,NA,NA,"",       4.91459,       2.91227,       3.95877,   24.6314E-06
C:/temp/dataset/3/13_4.odb,Step-1,Increment      2: Step Time =    1.000,"PART-1-1",           148,      -12.7265,      -2.55241,            0.,NA,NA,"",       5.32983,       2.99543,       4.40846,   3.48778E-06
C:/temp/dataset/3/13_4.odb,Step-1,Increment      2: Step Time =    1.000,"PART-1-1",           149,      -3.80700,      -2.48494,            0.,NA,NA,"",       3.81622,       2.81890,       2.57241,   508.872E-06
C:/temp/dataset/3/13_4.odb,Step-1,Increment      2: Step Time =    1.000,"PART-1-1",           150,      -6.26959,      -2.94549,            0.,NA,NA,"",       4.15322,       2.77648,       3.08874,   216.110E-06
C:/temp/dataset/3/13_4.odb,Step-1,Increment      2: Step Time =    1.000,"PART-1-1",           151,       2.97297,      -3.34056,            0.,NA,NA,"",       2.75729,       2.49208,       1.17992,   9.51158E-03
C:/temp/dataset/3/13_4.odb,Step-1,Increment      2: Step Time =    1.000,"PART-1-1",           152,   836.982E-03,      -3.21922,            0.,NA,NA,"",       3.04014,       2.56706,       1.62870,   1.55562E-03
C:/temp/dataset/3/13_4.odb,Step-1,Increment      2: Step Time =    1.000,"PART-1-1",           153,       7.27849,      -10.7647,            0.,NA,NA,"",       1.11011,       1.07945,   259.093E-03,   26.0419E-03
C:/temp/dataset/3/13_4.odb,Step-1,Increment      2: Step Time =    1.000,"PART-1-1",           154,       7.20650,      -8.25133,            0.,NA,NA,"",       1.49596,       1.46676,   294.150E-03,   24.6899E-03
C:/temp/dataset/3/13_4.odb,Step-1,Increment      2: Step Time =    1.000,"PART-1-1",           155,       7.07274,      -17.3233,            0.,NA,NA,"",   356.339E-03,   318.538E-03,   159.721E-03,   34.6799E-03
C:/temp/dataset/3/13_4.odb,Step-1,Increment      2: Step Time =    1.000,"PART-1-1",           156,       6.55788,      -15.2577,            0.,NA,NA,"",   587.286E-03,   529.734E-03,   253.548E-03,   38.4599E-03
C:/temp/dataset/3/13_4.odb,Step-1,Increment      2: Step Time =    1.000,"PART-1-1",           157,      -7.46685,      -22.5818,            0.,NA,NA,"",   29.3036E-03,   29.2780E-03,  -1.22484E-03,   1.51032E-03
C:/temp/dataset/3/13_4.odb,Step-1,Increment      2: Step Time =    1.000,"PART-1-1",           158,      -4.95694,      -22.5955,            0.,NA,NA,"",   32.9144E-03,   32.9094E-03,   571.854E-06,   2.47612E-03
C:/temp/dataset/3/13_4.odb,Step-1,Increment      2: Step Time =    1.000,"PART-1-1",           159,   146.162E-03,      -22.6598,            0.,NA,NA,"",   54.0386E-03,   48.3948E-03,   24.0441E-03,   9.80288E-03
C:/temp/dataset/3/13_4.odb,Step-1,Increment      2: Step Time =    1.000,"PART-1-1",           160,      -12.4860,      -22.5306,            0.,NA,NA,"",   26.7967E-03,   26.5950E-03,   3.28107E-03,   259.034E-06
C:/temp/dataset/3/13_4.odb,Step-1,Increment      2: Step Time =    1.000,"PART-1-1",           161,       9.96020,      -27.7814,            0.,NA,NA,"",   20.3336E-03,  -18.0442E-03,  -9.37358E-03,   8.43775E-03
C:/temp/dataset/3/13_4.odb,Step-1,Increment      2: Step Time =    1.000,"PART-1-1",           162,       7.44077,      -27.8946,            0.,NA,NA,"",   14.0737E-03,  -11.5325E-03,   8.06670E-03,   8.24597E-03
C:/temp/dataset/3/13_4.odb,Step-1,Increment      2: Step Time =    1.000,"PART-1-1",           163,       4.93217,      -27.8625,            0.,NA,NA,"",   16.0727E-03,   1.89161E-03,   15.9610E-03,   11.4397E-03
C:/temp/dataset/3/13_4.odb,Step-1,Increment      2: Step Time =    1.000,"PART-1-1",           164,       2.47767,      -27.7470,            0.,NA,NA,"",   20.4899E-03,   13.7807E-03,   15.1634E-03,   10.7424E-03
C:/temp/dataset/3/13_4.odb,Step-1,Increment      2: Step Time =    1.000,"PART-1-1",           165,   19.5837E-03,      -27.6625,            0.,NA,NA,"",   21.4832E-03,   19.0870E-03,   9.85966E-03,   8.27290E-03
C:/temp/dataset/3/13_4.odb,Step-1,Increment      2: Step Time =    1.000,"PART-1-1",           166,      -2.46955,      -27.6154,            0.,NA,NA,"",   19.6547E-03,   19.0061E-03,   5.00745E-03,   6.09512E-03
C:/temp/dataset/3/13_4.odb,Step-1,Increment      2: Step Time =    1.000,"PART-1-1",           167,      -4.97450,      -27.5844,            0.,NA,NA,"",   16.5739E-03,   16.4489E-03,   2.03208E-03,   4.58571E-03
C:/temp/dataset/3/13_4.odb,Step-1,Increment      2: Step Time =    1.000,"PART-1-1",           168,      -7.48283,      -27.5594,            0.,NA,NA,"",   13.6413E-03,   13.6192E-03,   776.153E-06,   3.59816E-03
C:/temp/dataset/3/13_4.odb,Step-1,Increment      2: Step Time =    1.000,"PART-1-1",           169,       12.2865,      -25.1793,            0.,NA,NA,"",   73.5272E-03,  -517.009E-06,  -73.5254E-03,   21.8160E-03
C:/temp/dataset/3/13_4.odb,Step-1,Increment      2: Step Time =    1.000,"PART-1-1",           170,       11.6753,      -16.4340,            0.,NA,NA,"",   430.686E-03,   375.652E-03,  -210.656E-03,   17.4520E-03
C:/temp/dataset/3/13_4.odb,Step-1,Increment      2: Step Time =    1.000,"PART-1-1",           171,       11.9685,      -19.5802,            0.,NA,NA,"",   228.319E-03,   154.499E-03,  -168.106E-03,   22.0633E-03
C:/temp/dataset/3/13_4.odb,Step-1,Increment      2: Step Time =    1.000,"PART-1-1",           172,       13.3291,      -9.93034,            0.,NA,NA,"",       1.28787,       1.14681,  -586.025E-03,   29.2084E-03
C:/temp/dataset/3/13_4.odb,Step-1,Increment      2: Step Time =    1.000,"PART-1-1",           173,       13.4212,      -12.1607,            0.,NA,NA,"",   990.184E-03,   844.843E-03,  -516.435E-03,   31.9759E-03
C:/temp/dataset/3/13_4.odb,Step-1,Increment      2: Step Time =    1.000,"PART-1-1",           174,       12.9633,      -2.52247,            0.,NA,NA,"",       2.55300,       2.42541,  -796.998E-03,   19.2276E-03
C:/temp/dataset/3/13_4.odb,Step-1,Increment      2: Step Time =    1.000,"PART-1-1",           175,       13.1247,      -4.84738,            0.,NA,NA,"",       2.11788,       1.98368,  -741.893E-03,   23.1593E-03
C:/temp/dataset/3/13_4.odb,Step-1,Increment      2: Step Time =    1.000,"PART-1-1",           176,       13.1131,       5.12757,            0.,NA,NA,"",       4.17266,       4.02201,      -1.11108,   15.3814E-03
C:/temp/dataset/3/13_4.odb,Step-1,Increment      2: Step Time =    1.000,"PART-1-1",           177,       12.1418,       2.60140,            0.,NA,NA,"",       3.58056,       3.48883,  -805.277E-03,   11.1415E-03
C:/temp/dataset/3/13_4.odb,Step-1,Increment      2: Step Time =    1.000,"PART-1-1",           178,       12.1760,       12.1629,            0.,NA,NA,"",       5.83950,       5.72163,      -1.16736,   9.01497E-03
C:/temp/dataset/3/13_4.odb,Step-1,Increment      2: Step Time =    1.000,"PART-1-1",           179,       13.0236,       9.64002,            0.,NA,NA,"",       5.23158,       5.07429,      -1.27317,   12.9692E-03
C:/temp/dataset/3/13_4.odb,Step-1,Increment      2: Step Time =    1.000,"PART-1-1",           180,       12.3784,       20.0377,            0.,NA,NA,"",       7.94357,       7.79221,      -1.54330,   6.25992E-03
C:/temp/dataset/3/13_4.odb,Step-1,Increment      2: Step Time =    1.000,"PART-1-1",           181,       12.3660,       17.5135,            0.,NA,NA,"",       7.25441,       7.11108,      -1.43489,   7.25297E-03
C:/temp/dataset/3/13_4.odb,Step-1,Increment      2: Step Time =    1.000,"PART-1-1",           182,       12.4264,       25.0333,            0.,NA,NA,"",       9.32901,       9.16149,      -1.75998,   3.51297E-03
C:/temp/dataset/3/13_4.odb,Step-1,Increment      2: Step Time =    1.000,"PART-1-1",           183,       7.43491,       27.5684,            0.,NA,NA,"",       10.0658,       10.0531,  -505.470E-03,   3.41294E-03
C:/temp/dataset/3/13_4.odb,Step-1,Increment      2: Step Time =    1.000,"PART-1-1",           184,  -17.4965E-03,       27.5503,            0.,NA,NA,"",       10.4722,       10.3581,       1.54217,   3.47161E-03
C:/temp/dataset/3/13_4.odb,Step-1,Increment      2: Step Time =    1.000,"PART-1-1",           185,       2.47067,       27.5656,            0.,NA,NA,"",       10.2925,       10.2571,   853.182E-03,   3.49379E-03
C:/temp/dataset/3/13_4.odb,Step-1,Increment      2: Step Time =    1.000,"PART-1-1",           186,      -7.50286,       27.5043,            0.,NA,NA,"",       11.2706,       10.6679,       3.63615,   3.48754E-03
C:/temp/dataset/3/13_4.odb,Step-1,Increment      2: Step Time =    1.000,"PART-1-1",           187,      -5.00635,       27.5119,            0.,NA,NA,"",       10.9616,       10.5614,       2.93484,   3.47466E-03
C:/temp/dataset/3/13_4.odb,Step-1,Increment      2: Step Time =    1.000,"PART-1-1",           188,      -12.5019,       27.5019,            0.,NA,NA,"",       12.0020,       10.8881,       5.04928,   4.08487E-03
C:/temp/dataset/3/13_4.odb,Step-1,Increment      2: Step Time =    1.000,"PART-1-1",           189,      -12.5001,       22.5034,            0.,NA,NA,"",       10.8213,       9.46135,       5.25203,   530.811E-06
C:/temp/dataset/3/13_4.odb,Step-1,Increment      2: Step Time =    1.000,"PART-1-1",           190,      -5.00429,       25.0191,            0.,NA,NA,"",       10.3156,       9.85995,       3.03183,   1.96730E-03
C:/temp/dataset/3/13_4.odb,Step-1,Increment      2: Step Time =    1.000,"PART-1-1",           191,  -15.9173E-03,       25.0642,            0.,NA,NA,"",       9.80274,       9.66509,       1.63699,   1.91527E-03
C:/temp/dataset/3/13_4.odb,Step-1,Increment      2: Step Time =    1.000,"PART-1-1",           192,       9.74355,       15.0604,            0.,NA,NA,"",       6.57879,       6.54549,  -661.125E-03,   5.48339E-03
C:/temp/dataset/3/13_4.odb,Step-1,Increment      2: Step Time =    1.000,"PART-1-1",           193,       9.51986,       12.6989,            0.,NA,NA,"",       5.96126,       5.93801,  -525.957E-03,   5.67110E-03
C:/temp/dataset/3/13_4.odb,Step-1,Increment      2: Step Time =    1.000,"PART-1-1",           194,       12.1898,      -11.7554,            0.,NA,NA,"",   967.697E-03,   893.039E-03,  -372.718E-03,   20.2228E-03
C:/temp/dataset/3/13_4.odb,Step-1,Increment      2: Step Time =    1.000,"PART-1-1",           195,       9.78251,      -13.4248,            0.,NA,NA,"",   695.118E-03,   692.557E-03,  -59.6157E-03,   6.22602E-03
C:/temp/dataset/3/13_4.odb,Step-1,Increment      2: Step Time =    1.000,"PART-1-1",           196,       7.24032,      -19.5057,            0.,NA,NA,"",   179.209E-03,   145.901E-03,   104.061E-03,   19.1978E-03
C:/temp/dataset/3/13_4.odb,Step-1,Increment      2: Step Time =    1.000,"PART-1-1",           197,      -10.0066,  -139.817E-03,            0.,NA,NA,"",       5.11944,       3.43365,       3.79720,   45.7351E-06
C:/temp/dataset/3/13_4.odb,Step-1,Increment      2: Step Time =    1.000,"PART-1-1",           198,      -8.39380,      -1.43672,            0.,NA,NA,"",       4.69194,       3.13237,       3.49321,   94.2570E-06
C:/temp/dataset/3/13_4.odb,Step-1,Increment      2: Step Time =    1.000,"PART-1-1",           199,      -5.07121,  -530.035E-03,            0.,NA,NA,"",       4.28213,       3.24837,       2.79011,   382.004E-06
C:/temp/dataset/3/13_4.odb,Step-1,Increment      2: Step Time =    1.000,"PART-1-1",           200,      -12.5003,      -27.5198,            0.,NA,NA,"",   10.8225E-03,   10.6271E-03,   2.04704E-03,   2.71409E-03
C:/temp/dataset/3/13_4.odb,Step-1,Increment      2: Step Time =    1.000,"PART-1-1",           201,       8.97180,      -8.86122,            0.,NA,NA,"",       1.33590,       1.33562,   27.2895E-03,   9.31920E-03
C:/temp/dataset/3/13_4.odb,Step-1,Increment      2: Step Time =    1.000,"PART-1-1",           202,      -2.50561,       25.0360,            0.,NA,NA,"",       10.0349,       9.76024,       2.33183,   1.91386E-03
C:/temp/dataset/3/13_4.odb,Step-1,Increment      2: Step Time =    1.000,"PART-1-1",           203,      -7.50383,       25.0106,            0.,NA,NA,"",       10.6401,       9.96301,       3.73492,   1.98917E-03
C:/temp/dataset/3/13_4.odb,Step-1,Increment      2: Step Time =    1.000,"PART-1-1",           204,       2.46362,       25.0850,            0.,NA,NA,"",       9.61583,       9.56892,   948.664E-03,   2.27293E-03
C:/temp/dataset/3/13_4.odb,Step-1,Increment      2: Step Time =    1.000,"PART-1-1",           205,       9.17638,       10.5785,            0.,NA,NA,"",       5.42352,       5.41040,  -377.037E-03,   5.97468E-03
C:/temp/dataset/3/13_4.odb,Step-1,Increment      2: Step Time =    1.000,"PART-1-1",           206,       9.65111,       6.46520,            0.,NA,NA,"",       4.41766,       4.40198,  -371.880E-03,   3.57905E-03
C:/temp/dataset/3/13_4.odb,Step-1,Increment      2: Step Time =    1.000,"PART-1-1",           207,      -1.99278,       1.34592,            0.,NA,NA,"",       4.14930,       3.56925,       2.11593,   717.442E-06
C:/temp/dataset/3/13_4.odb,Step-1,Increment      2: Step Time =    1.000,"PART-1-1",           208,      -5.69490,       1.29843,            0.,NA,NA,"",       4.63902,       3.63759,       2.87896,   303.171E-06
C:/temp/dataset/3/13_4.odb,Step-1,Increment      2: Step Time =    1.000,"PART-1-1",           209,       1.92780,   665.778E-03,            0.,NA,NA,"",       3.59966,       3.34614,       1.32701,   4.13900E-03
C:/temp/dataset/3/13_4.odb,Step-1,Increment      2: Step Time =    1.000,"PART-1-1",           210,       1.26043,      -1.37778,            0.,NA,NA,"",       3.30066,       2.93924,       1.50173,   2.20135E-03
C:/temp/dataset/3/13_4.odb,Step-1,Increment      2: Step Time =    1.000,"PART-1-1",           211,       9.14691,      -16.8280,            0.,NA,NA,"",   340.298E-03,   340.282E-03,   3.28032E-03,   9.23747E-03
C:/temp/dataset/3/13_4.odb,Step-1,Increment      2: Step Time =    1.000,"PART-1-1",           212,   79.9954E-03,      -25.2148,            0.,NA,NA,"",   41.0131E-03,   35.7924E-03,   20.0245E-03,   9.20545E-03
C:/temp/dataset/3/13_4.odb,Step-1,Increment      2: Step Time =    1.000,"PART-1-1",           213,      -9.97865,      -25.0679,            0.,NA,NA,"",   20.9456E-03,   20.9409E-03,   440.053E-06,   1.92717E-03
C:/temp/dataset/3/13_4.odb,Step-1,Increment      2: Step Time =    1.000,"PART-1-1",           214,       12.4671,      -27.6040,            0.,NA,NA,"",   36.3209E-03,  -8.28196E-03,  -35.3640E-03,   20.6050E-03
C:/temp/dataset/3/13_4.odb,Step-1,Increment      2: Step Time =    1.000,"PART-1-1",           215,       9.82463,      -25.6838,            0.,NA,NA,"",   20.4891E-03,  -13.9845E-03,  -14.9745E-03,   9.62175E-03
C:/temp/dataset/3/13_4.odb,Step-1,Increment      2: Step Time =    1.000,"PART-1-1",           216,       2.56344,      -25.3828,            0.,NA,NA,"",   48.1310E-03,   32.0426E-03,   35.9147E-03,   14.3299E-03
C:/temp/dataset/3/13_4.odb,Step-1,Increment      2: Step Time =    1.000,"PART-1-1",           217,      -2.44121,      -25.1518,            0.,NA,NA,"",   33.3792E-03,   32.4241E-03,   7.92768E-03,   5.83119E-03
C:/temp/dataset/3/13_4.odb,Step-1,Increment      2: Step Time =    1.000,"PART-1-1",           218,      -4.95889,      -25.1139,            0.,NA,NA,"",   27.7903E-03,   27.7124E-03,   2.07895E-03,   3.77772E-03
C:/temp/dataset/3/13_4.odb,Step-1,Increment      2: Step Time =    1.000,"PART-1-1",           219,       10.3279,  -771.646E-03,            0.,NA,NA,"",       2.83828,       2.81811,  -337.812E-03,   7.07264E-03
C:/temp/dataset/3/13_4.odb,Step-1,Increment      2: Step Time =    1.000,"PART-1-1",           220,       10.4049,       4.48083,            0.,NA,NA,"",       3.96400,       3.93424,  -484.808E-03,   4.13843E-03
C:/temp/dataset/3/13_4.odb,Step-1,Increment      2: Step Time =    1.000,"PART-1-1",           221,       9.80969,       17.5478,            0.,NA,NA,"",       7.24664,       7.20592,  -767.088E-03,   5.55605E-03
C:/temp/dataset/3/13_4.odb,Step-1,Increment      2: Step Time =    1.000,"PART-1-1",           222,       9.88106,       25.0797,            0.,NA,NA,"",       9.33208,       9.27010,      -1.07372,   4.36834E-03
C:/temp/dataset/3/13_4.odb,Step-1,Increment      2: Step Time =    1.000,"PART-1-1",           223,       9.94975,       27.5346,            0.,NA,NA,"",       10.0150,       9.94447,      -1.18605,   3.02852E-03
C:/temp/dataset/3/13_4.odb,Step-1,Increment      2: Step Time =    1.000,"PART-1-1",           224,       7.36779,       20.0596,            0.,NA,NA,"",       7.98140,       7.97858,  -211.834E-03,   6.20756E-03
C:/temp/dataset/3/13_4.odb,Step-1,Increment      2: Step Time =    1.000,"PART-1-1",           225,  -693.206E-03,      -1.01900,            0.,NA,NA,"",       3.59767,       3.05564,       1.89904,   801.555E-06
C:/temp/dataset/3/13_4.odb,Step-1,Increment      2: Step Time =    1.000,"PART-1-1",           226,      -7.47194,      -25.0831,            0.,NA,NA,"",   23.6505E-03,   23.6504E-03,   61.1177E-06,   2.73174E-03
C:/temp/dataset/3/13_4.odb,Step-1,Increment      2: Step Time =    1.000,"PART-1-1",           227,       5.28089,       2.25097,            0.,NA,NA,"",       3.64598,       3.59064,   632.812E-03,   17.5107E-03
C:/temp/dataset/3/13_4.odb,Step-1,Increment      2: Step Time =    1.000,"PART-1-1",           228,       9.26575,       8.45073,            0.,NA,NA,"",       4.89471,       4.88302,  -338.088E-03,   6.09445E-03
C:/temp/dataset/3/13_4.odb,Step-1,Increment      2: Step Time =    1.000,"PART-1-1",           229,  -81.3472E-03,       1.02952,            0.,NA,NA,"",       3.87245,       3.46442,       1.73021,   863.987E-06
C:/temp/dataset/3/13_4.odb,Step-1,Increment      2: Step Time =    1.000,"PART-1-1",           230,      -7.67687,   831.326E-03,            0.,NA,NA,"",       4.86960,       3.58371,       3.29697,   139.562E-06
C:/temp/dataset/3/13_4.odb,Step-1,Increment      2: Step Time =    1.000,"PART-1-1",           231,      -2.54090,  -531.417E-03,            0.,NA,NA,"",       3.91889,       3.19498,       2.26933,   690.193E-06
C:/temp/dataset/3/13_4.odb,Step-1,Increment      2: Step Time =    1.000,"PART-1-1",           232,      -3.83997,       1.55066,            0.,NA,NA,"",       4.41947,       3.65013,       2.49164,   495.716E-06
C:/temp/dataset/3/13_4.odb,Step-1,Increment      2: Step Time =    1.000,"PART-1-1",           233,      -6.84494,  -996.203E-03,            0.,NA,NA,"",       4.49381,       3.19004,       3.16512,   207.116E-06
C:/temp/dataset/3/13_4.odb,Step-1,Increment      2: Step Time =    1.000,"PART-1-1",           234,       5.51335,      -3.03354,            0.,NA,NA,"",       2.55965,       2.48161,   627.246E-03,   23.3592E-03
C:/temp/dataset/3/13_4.odb,Step-1,Increment      2: Step Time =    1.000,"PART-1-1",           235,       9.62476,      -7.14735,            0.,NA,NA,"",       1.61045,       1.60797,  -89.3950E-03,   7.07314E-03
C:/temp/dataset/3/13_4.odb,Step-1,Increment      2: Step Time =    1.000,"PART-1-1",           236,       7.38903,      -25.9371,            0.,NA,NA,"",   23.0906E-03,  -6.17006E-03,   22.2510E-03,   11.2513E-03
C:/temp/dataset/3/13_4.odb,Step-1,Increment      2: Step Time =    1.000,"PART-1-1",           237,       4.96373,      -25.7856,            0.,NA,NA,"",   42.0475E-03,   13.7837E-03,   39.7241E-03,   15.9992E-03
C:/temp/dataset/3/13_4.odb,Step-1,Increment      2: Step Time =    1.000,"PART-1-1",           238,       9.37191,      -21.3805,            0.,NA,NA,"",   61.9011E-03,   61.3877E-03,  -7.95579E-03,   9.01861E-03
C:/temp/dataset/3/13_4.odb,Step-1,Increment      2: Step Time =    1.000,"PART-1-1",           239,       9.53380,      -19.3691,            0.,NA,NA,"",   154.275E-03,   152.668E-03,  -22.2075E-03,   5.47180E-03
C:/temp/dataset/3/13_4.odb,Step-1,Increment      2: Step Time =    1.000,"PART-1-1",           240,       10.5518,      -5.76730,            0.,NA,NA,"",       1.85827,       1.83896,  -267.186E-03,   9.66478E-03
C:/temp/dataset/3/13_4.odb,Step-1,Increment      2: Step Time =    1.000,"PART-1-1",           241,       10.8494,      -2.88140,            0.,NA,NA,"",       2.41389,       2.38256,  -387.647E-03,   10.4839E-03
C:/temp/dataset/3/13_4.odb,Step-1,Increment      2: Step Time =    1.000,"PART-1-1",           242,       9.33979,       1.27198,            0.,NA,NA,"",       3.27234,       3.26730,  -181.447E-03,   5.75969E-03
C:/temp/dataset/3/13_4.odb,Step-1,Increment      2: Step Time =    1.000,"PART-1-1",           243,       9.83335,       20.0603,            0.,NA,NA,"",       7.93521,       7.88763,  -867.681E-03,   6.01621E-03
C:/temp/dataset/3/13_4.odb,Step-1,Increment      2: Step Time =    1.000,"PART-1-1",           244,       7.39102,       25.1069,            0.,NA,NA,"",       9.38323,       9.37462,  -401.714E-03,   4.16159E-03
C:/temp/dataset/3/13_4.odb,Step-1,Increment      2: Step Time =    1.000,"PART-1-1",           245,       4.93408,       25.0979,            0.,NA,NA,"",       9.47512,       9.47132,   268.081E-03,   3.13566E-03
C:/temp/dataset/3/13_4.odb,Step-1,Increment      2: Step Time =    1.000,"PART-1-1",           246,      -10.0026,       25.0068,            0.,NA,NA,"",       11.0041,       10.0683,       4.44072,   2.00300E-03
C:/temp/dataset/3/13_4.odb,Step-1,Increment      2: Step Time =    1.000,"PART-1-1",           247,      -10.0008,       22.5051,            0.,NA,NA,"",       10.4022,       9.35827,       4.54179,   434.942E-06
C:/temp/dataset/3/13_4.odb,Step-1,Increment      2: Step Time =    1.000,"PART-1-1",           248,      -9.99283,      -27.5363,            0.,NA,NA,"",   11.4446E-03,   11.4252E-03,   665.430E-06,   2.98191E-03
C:/temp/dataset/3/13_4.odb,Step-1,Increment      2: Step Time =    1.000,"PART-1-1",           249,       3.80746,   187.829E-03,            0.,NA,NA,"",       3.33835,       3.19973,   951.992E-03,   11.0782E-03
C:/temp/dataset/3/13_4.odb,Step-1,Increment      2: Step Time =    1.000,"PART-1-1",           250,       11.4886,       7.12458,            0.,NA,NA,"",       4.58420,       4.51148,  -813.272E-03,   8.50934E-03
C:/temp/dataset/3/13_4.odb,Step-1,Increment      2: Step Time =    1.000,"PART-1-1",           251,       5.25951,      -23.9756,            0.,NA,NA,"",   71.2888E-03,   30.7887E-03,   64.2974E-03,   21.0447E-03
C:/temp/dataset/3/13_4.odb,Step-1,Increment      2: Step Time =    1.000,"PART-1-1",           252,       9.85798,       22.5791,            0.,NA,NA,"",       8.63465,       8.57986,  -971.156E-03,   5.54691E-03
C:/temp/dataset/3/13_4.odb,Step-1,Increment      2: Step Time =    1.000,"PART-1-1",           253,       7.38133,       22.5911,            0.,NA,NA,"",       8.68331,       8.67790,  -306.379E-03,   5.51363E-03
C:/temp/dataset/3/13_4.odb,Step-1,Increment      2: Step Time =    1.000,"PART-1-1",           254,       9.03817,      -10.9527,            0.,NA,NA,"",       1.02301,       1.02273,   23.8497E-03,   10.7934E-03
C:/temp/dataset/3/13_4.odb,Step-1,Increment      2: Step Time =    1.000,"PART-1-1",           255,       7.30212,      -21.2110,            0.,NA,NA,"",   104.895E-03,   67.4753E-03,   80.3123E-03,   17.7052E-03
C:/temp/dataset/3/13_4.odb,Step-1,Increment      2: Step Time =    1.000,"PART-1-1",           256,       8.48263,      -3.88795,            0.,NA,NA,"",       2.22855,       2.22765,   63.3574E-03,   13.4581E-03
C:/temp/dataset/3/13_4.odb,Step-1,Increment      2: Step Time =    1.000,"PART-1-1",           257,       8.48912,      -1.65164,            0.,NA,NA,"",       2.67935,       2.67913,   34.5558E-03,   12.5652E-03
C:/temp/dataset/3/13_4.odb,Step-1,Increment      2: Step Time =    1.000,"PART-1-1",           258,       8.19007,       3.36514,            0.,NA,NA,"",       3.74548,       3.74542,   21.5177E-03,   7.76744E-03
C:/temp/dataset/3/13_4.odb,Step-1,Increment      2: Step Time =    1.000,"PART-1-1",           259,       6.78208,  -317.133E-03,            0.,NA,NA,"",       3.02617,       3.00517,   355.951E-03,   15.7477E-03
C:/temp/dataset/3/13_4.odb,Step-1,Increment      2: Step Time =    1.000,"PART-1-1",           260,       11.8604,      -10.2109,            0.,NA,NA,"",       1.16603,       1.10630,  -368.406E-03,   16.8968E-03
C:/temp/dataset/3/13_4.odb,Step-1,Increment      2: Step Time =    1.000,"PART-1-1",           261,       5.00218,  -627.613E-03,            0.,NA,NA,"",       3.07948,       2.99485,   716.959E-03,   15.5257E-03
C:/temp/dataset/3/13_4.odb,Step-1,Increment      2: Step Time =    1.000,"PART-1-1",           262,       11.1460,      -8.45072,            0.,NA,NA,"",       1.41072,       1.37733,  -305.113E-03,   11.6166E-03
C:/temp/dataset/3/13_4.odb,Step-1,Increment      2: Step Time =    1.000,"PART-1-1",           263,       11.7180,       5.54683,            0.,NA,NA,"",       4.22293,       4.14426,  -811.313E-03,   9.24440E-03
C:/temp/dataset/3/13_4.odb,Step-1,Increment      2: Step Time =    1.000,"PART-1-1",           264,       5.25136,      -21.5985,            0.,NA,NA,"",   130.830E-03,   69.7584E-03,   110.681E-03,   33.1759E-03
C:/temp/dataset/3/13_4.odb,Step-1,Increment      2: Step Time =    1.000,"PART-1-1",           265,       12.4723,       27.5096,            0.,NA,NA,"",       10.0168,       9.84083,      -1.86949,   1.80914E-03
C:/temp/dataset/3/13_4.odb,Step-1,Increment      2: Step Time =    1.000,"PART-1-1",           266,       5.87727,      -22.7682,            0.,NA,NA,"",   94.1306E-03,   44.4191E-03,   82.9911E-03,   22.6889E-03
C:/temp/dataset/3/13_4.odb,Step-1,Increment      2: Step Time =    1.000,"PART-1-1",           267,       7.32369,      -22.7299,            0.,NA,NA,"",   66.8227E-03,   31.5842E-03,   58.8873E-03,   16.9089E-03
C:/temp/dataset/3/13_4.odb,Step-1,Increment      2: Step Time =    1.000,"PART-1-1",           268,       11.4923,      -4.55460,            0.,NA,NA,"",       2.10289,       2.05187,  -460.422E-03,   13.9842E-03
C:/temp/dataset/3/13_4.odb,Step-1,Increment      2: Step Time =    1.000,"PART-1-1",           269,       11.2115,       8.96325,            0.,NA,NA,"",       5.02147,       4.95529,  -812.563E-03,   7.18284E-03
C:/temp/dataset/3/13_4.odb,Step-1,Increment      2: Step Time =    1.000,"PART-1-1",           270,       10.8046,       10.5255,            0.,NA,NA,"",       5.40441,       5.34939,  -769.207E-03,   6.05799E-03
C:/temp/dataset/3/13_4.odb,Step-1,Increment      2: Step Time =    1.000,"PART-1-1",           271,       7.35536,      -24.2380,            0.,NA,NA,"",   40.0909E-03,   8.99278E-03,   39.0693E-03,   14.0893E-03
C:/temp/dataset/3/13_4.odb,Step-1,Increment      2: Step Time =    1.000,"PART-1-1",           272,      -3.82134,   150.711E-03,            0.,NA,NA,"",       4.20056,       3.36212,       2.51811,   539.623E-06
C:/temp/dataset/3/13_4.odb,Step-1,Increment      2: Step Time =    1.000,"PART-1-1",           273,       3.09609,      -1.70207,            0.,NA,NA,"",       3.04312,       2.82832,       1.12302,   9.01329E-03
C:/temp/dataset/3/13_4.odb,Step-1,Increment      2: Step Time =    1.000,"PART-1-1",           274,       4.56419,      -1.78689,            0.,NA,NA,"",       2.88662,       2.76882,   816.240E-03,   15.1112E-03
C:/temp/dataset/3/13_4.odb,Step-1,Increment      2: Step Time =    1.000,"PART-1-1",           275,       9.44492,      -23.8624,            0.,NA,NA,"",   10.2275E-03,   4.83155E-03,  -9.01428E-03,   10.2850E-03
C:/temp/dataset/3/13_4.odb,Step-1,Increment      2: Step Time =    1.000,"PART-1-1",           276,       8.77427,      -22.6651,            0.,NA,NA,"",   30.7051E-03,   27.0363E-03,   14.5547E-03,   10.6427E-03
C:/temp/dataset/3/13_4.odb,Step-1,Increment      2: Step Time =    1.000,"PART-1-1",           277,       10.1837,      -9.28900,            0.,NA,NA,"",       1.26306,       1.25443,  -147.452E-03,   5.96749E-03
C:/temp/dataset/3/13_4.odb,Step-1,Increment      2: Step Time =    1.000,"PART-1-1",           278,       10.4979,      -10.7612,            0.,NA,NA,"",       1.04872,       1.03461,  -171.482E-03,   6.67924E-03
C:/temp/dataset/3/13_4.odb,Step-1,Increment      2: Step Time =    1.000,"PART-1-1",           279,       11.2325,      -12.6180,            0.,NA,NA,"",   818.085E-03,   783.371E-03,  -235.783E-03,   11.8704E-03
C:/temp/dataset/3/13_4.odb,Step-1,Increment      2: Step Time =    1.000,"PART-1-1",           280,      -13.7500,       22.5017,            0.,NA,NA,"",       11.0433,       9.51302,       5.60862,   588.171E-06
C:/temp/dataset/3/13_4.odb,Step-1,Increment      2: Step Time =    1.000,"PART-1-1",           281,          -15.,         21.25,            0.,NA,NA,"",       10.9997,       9.20861,       6.01629,   213.277E-06
C:/temp/dataset/3/13_4.odb,Step-1,Increment      2: Step Time =    1.000,"PART-1-1",           282,        -13.75,           20.,            0.,NA,NA,"",       10.4920,       8.80094,       5.71189,   235.750E-06
C:/temp/dataset/3/13_4.odb,Step-1,Increment      2: Step Time =    1.000,"PART-1-1",           283,      -12.5000,       21.2517,            0.,NA,NA,"",       10.5376,       9.10552,       5.30384,   412.551E-06
C:/temp/dataset/3/13_4.odb,Step-1,Increment      2: Step Time =    1.000,"PART-1-1",           284,        -11.25,           30.,            0.,NA,NA,"",       12.4246,       11.5432,       4.59609,   4.73246E-03
C:/temp/dataset/3/13_4.odb,Step-1,Increment      2: Step Time =    1.000,"PART-1-1",           285,      -12.5009,       28.7510,            0.,NA,NA,"",       12.3054,       11.2439,       4.99978,   4.20074E-03
C:/temp/dataset/3/13_4.odb,Step-1,Increment      2: Step Time =    1.000,"PART-1-1",           286,      -11.2523,       27.5017,            0.,NA,NA,"",       11.8060,       10.8323,       4.69502,   3.77148E-03
C:/temp/dataset/3/13_4.odb,Step-1,Increment      2: Step Time =    1.000,"PART-1-1",           287,      -10.0014,       28.7507,            0.,NA,NA,"",       11.9303,       11.1316,       4.29189,   4.23903E-03
C:/temp/dataset/3/13_4.odb,Step-1,Increment      2: Step Time =    1.000,"PART-1-1",           288,      -8.75282,       27.5029,            0.,NA,NA,"",       11.4400,       10.7222,       3.98839,   3.53117E-03
C:/temp/dataset/3/13_4.odb,Step-1,Increment      2: Step Time =    1.000,"PART-1-1",           289,      -10.0027,       26.2541,            0.,NA,NA,"",       11.3097,       10.4226,       4.39083,   2.80639E-03
C:/temp/dataset/3/13_4.odb,Step-1,Increment      2: Step Time =    1.000,"PART-1-1",           290,      -8.75320,       25.0087,            0.,NA,NA,"",       10.8175,       10.0155,       4.08745,   1.99466E-03
C:/temp/dataset/3/13_4.odb,Step-1,Increment      2: Step Time =    1.000,"PART-1-1",           291,      -7.50334,       26.2575,            0.,NA,NA,"",       10.9540,       10.3154,       3.68533,   2.74387E-03
C:/temp/dataset/3/13_4.odb,Step-1,Increment      2: Step Time =    1.000,"PART-1-1",           292,  -10.1921E-03,       23.8015,            0.,NA,NA,"",       9.46396,       9.31283,       1.68455,   1.16144E-03
C:/temp/dataset/3/13_4.odb,Step-1,Increment      2: Step Time =    1.000,"PART-1-1",           293,       1.23656,       22.5490,            0.,NA,NA,"",       9.02110,       8.91387,       1.38678,   621.592E-06
C:/temp/dataset/3/13_4.odb,Step-1,Increment      2: Step Time =    1.000,"PART-1-1",           294,       2.47060,       23.8222,            0.,NA,NA,"",       9.27169,       9.21815,   994.973E-03,   1.47053E-03
C:/temp/dataset/3/13_4.odb,Step-1,Increment      2: Step Time =    1.000,"PART-1-1",           295,       1.22385,       25.0746,            0.,NA,NA,"",       9.70341,       9.61695,       1.29244,   2.01515E-03
C:/temp/dataset/3/13_4.odb,Step-1,Increment      2: Step Time =    1.000,"PART-1-1",           296,       13.7132,       25.0166,            0.,NA,NA,"",       9.35015,       9.10914,      -2.10925,   2.42544E-03
C:/temp/dataset/3/13_4.odb,Step-1,Increment      2: Step Time =    1.000,"PART-1-1",           297,           15.,         26.25,            0.,NA,NA,"",       9.72903,       9.39949,      -2.51070,   1.16482E-03
C:/temp/dataset/3/13_4.odb,Step-1,Increment      2: Step Time =    1.000,"PART-1-1",           298,       13.7362,       27.5048,            0.,NA,NA,"",       10.0387,       9.79160,      -2.21372,   922.216E-06
C:/temp/dataset/3/13_4.odb,Step-1,Increment      2: Step Time =    1.000,"PART-1-1",           299,       12.4494,       26.2714,            0.,NA,NA,"",       9.67327,       9.50145,      -1.81510,   2.63621E-03
C:/temp/dataset/3/13_4.odb,Step-1,Increment      2: Step Time =    1.000,"PART-1-1",           300,       6.19248,       27.5744,            0.,NA,NA,"",       10.1064,       10.1050,  -167.635E-03,   3.40138E-03
C:/temp/dataset/3/13_4.odb,Step-1,Increment      2: Step Time =    1.000,"PART-1-1",           301,       7.46746,       28.7842,            0.,NA,NA,"",       10.4014,       10.3864,  -559.478E-03,   3.35785E-03
C:/temp/dataset/3/13_4.odb,Step-1,Increment      2: Step Time =    1.000,"PART-1-1",           302,          6.25,           30.,            0.,NA,NA,"",       10.7736,       10.7701,  -272.626E-03,   4.25664E-03
C:/temp/dataset/3/13_4.odb,Step-1,Increment      2: Step Time =    1.000,"PART-1-1",           303,       4.97503,       28.7903,            0.,NA,NA,"",       10.4914,       10.4907,   119.781E-03,   4.10357E-03
C:/temp/dataset/3/13_4.odb,Step-1,Increment      2: Step Time =    1.000,"PART-1-1",           304,       11.0878,       17.5306,            0.,NA,NA,"",       7.24194,       7.15785,      -1.10041,   5.81559E-03
C:/temp/dataset/3/13_4.odb,Step-1,Increment      2: Step Time =    1.000,"PART-1-1",           305,       12.3722,       18.7756,            0.,NA,NA,"",       7.59755,       7.45020,      -1.48910,   6.73282E-03
C:/temp/dataset/3/13_4.odb,Step-1,Increment      2: Step Time =    1.000,"PART-1-1",           306,       11.1059,       20.0490,            0.,NA,NA,"",       7.93152,       7.83946,      -1.20495,   5.70159E-03
C:/temp/dataset/3/13_4.odb,Step-1,Increment      2: Step Time =    1.000,"PART-1-1",           307,       9.82152,       18.8041,            0.,NA,NA,"",       7.58950,       7.54540,  -817.015E-03,   5.79832E-03
C:/temp/dataset/3/13_4.odb,Step-1,Increment      2: Step Time =    1.000,"PART-1-1",           308,       9.63171,       13.8797,            0.,NA,NA,"",       6.26800,       6.23992,  -592.549E-03,   5.53513E-03
C:/temp/dataset/3/13_4.odb,Step-1,Increment      2: Step Time =    1.000,"PART-1-1",           309,       8.52517,       15.0687,            0.,NA,NA,"",       6.59882,       6.58952,  -350.120E-03,   6.24471E-03
C:/temp/dataset/3/13_4.odb,Step-1,Increment      2: Step Time =    1.000,"PART-1-1",           310,       7.25683,       13.8735,            0.,NA,NA,"",       6.32085,       6.32084,   7.43400E-03,   9.69728E-03
C:/temp/dataset/3/13_4.odb,Step-1,Increment      2: Step Time =    1.000,"PART-1-1",           311,       8.36336,       12.6844,            0.,NA,NA,"",       5.97732,       5.97259,  -237.834E-03,   7.34962E-03
C:/temp/dataset/3/13_4.odb,Step-1,Increment      2: Step Time =    1.000,"PART-1-1",           312,       14.0118,       9.82001,            0.,NA,NA,"",       5.31732,       5.09489,      -1.52184,   16.7502E-03
C:/temp/dataset/3/13_4.odb,Step-1,Increment      2: Step Time =    1.000,"PART-1-1",           313,           15.,         11.25,            0.,NA,NA,"",       5.72348,       5.42134,      -1.83501,   19.3418E-03
C:/temp/dataset/3/13_4.odb,Step-1,Increment      2: Step Time =    1.000,"PART-1-1",           314,       13.5880,       12.3315,            0.,NA,NA,"",       5.92640,       5.72588,      -1.52856,   13.0868E-03
C:/temp/dataset/3/13_4.odb,Step-1,Increment      2: Step Time =    1.000,"PART-1-1",           315,       12.5998,       10.9015,            0.,NA,NA,"",       5.53091,       5.39434,      -1.22151,   10.8526E-03
C:/temp/dataset/3/13_4.odb,Step-1,Increment      2: Step Time =    1.000,"PART-1-1",           316,       4.40482,  -219.892E-03,            0.,NA,NA,"",       3.20844,       3.09791,   834.900E-03,   13.4958E-03
C:/temp/dataset/3/13_4.odb,Step-1,Increment      2: Step Time =    1.000,"PART-1-1",           317,       3.45177,  -757.122E-03,            0.,NA,NA,"",       3.18684,       3.01367,       1.03623,   9.40955E-03
C:/temp/dataset/3/13_4.odb,Step-1,Increment      2: Step Time =    1.000,"PART-1-1",           318,       3.83014,      -1.74448,            0.,NA,NA,"",       2.96238,       2.79911,   969.890E-03,   12.3809E-03
C:/temp/dataset/3/13_4.odb,Step-1,Increment      2: Step Time =    1.000,"PART-1-1",           319,       4.78319,      -1.20725,            0.,NA,NA,"",       2.98177,       2.88171,   765.958E-03,   14.8969E-03
C:/temp/dataset/3/13_4.odb,Step-1,Increment      2: Step Time =    1.000,"PART-1-1",           320,       10.3408,      -10.0251,            0.,NA,NA,"",       1.15333,       1.14218,  -159.941E-03,   6.20778E-03
C:/temp/dataset/3/13_4.odb,Step-1,Increment      2: Step Time =    1.000,"PART-1-1",           321,       11.1792,      -10.4860,            0.,NA,NA,"",       1.10254,       1.06943,  -268.169E-03,   11.3177E-03
C:/temp/dataset/3/13_4.odb,Step-1,Increment      2: Step Time =    1.000,"PART-1-1",           322,       11.5032,      -9.33080,            0.,NA,NA,"",       1.28369,       1.23821,  -338.653E-03,   14.0754E-03
C:/temp/dataset/3/13_4.odb,Step-1,Increment      2: Step Time =    1.000,"PART-1-1",           323,       10.6649,      -8.86986,            0.,NA,NA,"",       1.33404,       1.31503,  -224.418E-03,   8.17978E-03
C:/temp/dataset/3/13_4.odb,Step-1,Increment      2: Step Time =    1.000,"PART-1-1",           324,       9.41034,      -12.1888,            0.,NA,NA,"",   850.743E-03,   850.485E-03,  -20.9648E-03,   8.11134E-03
C:/temp/dataset/3/13_4.odb,Step-1,Increment      2: Step Time =    1.000,"PART-1-1",           325,       10.5075,      -13.0214,            0.,NA,NA,"",   750.872E-03,   736.776E-03,  -144.808E-03,   6.44656E-03
C:/temp/dataset/3/13_4.odb,Step-1,Increment      2: Step Time =    1.000,"PART-1-1",           326,       10.8652,      -11.6896,            0.,NA,NA,"",   927.951E-03,   904.843E-03,  -205.796E-03,   8.98257E-03
C:/temp/dataset/3/13_4.odb,Step-1,Increment      2: Step Time =    1.000,"PART-1-1",           327,       9.76802,      -10.8570,            0.,NA,NA,"",       1.03020,       1.02759,  -73.2756E-03,   5.93342E-03
C:/temp/dataset/3/13_4.odb,Step-1,Increment      2: Step Time =    1.000,"PART-1-1",           328,       6.12016,      -19.7528,            0.,NA,NA,"",   193.021E-03,   124.603E-03,   147.416E-03,   43.6440E-03
C:/temp/dataset/3/13_4.odb,Step-1,Increment      2: Step Time =    1.000,"PART-1-1",           329,       7.15653,      -18.4145,            0.,NA,NA,"",   252.768E-03,   219.150E-03,   125.957E-03,   24.6244E-03
C:/temp/dataset/3/13_4.odb,Step-1,Increment      2: Step Time =    1.000,"PART-1-1",           330,       6.03637,      -17.4116,            0.,NA,NA,"",   397.931E-03,   323.978E-03,   231.057E-03,   44.0513E-03
C:/temp/dataset/3/13_4.odb,Step-1,Increment      2: Step Time =    1.000,"PART-1-1",           331,            5.,        -18.75,            0.,NA,NA,"",   336.473E-03,   231.851E-03,   243.842E-03,   73.2845E-03
C:/temp/dataset/3/13_4.odb,Step-1,Increment      2: Step Time =    1.000,"PART-1-1",           332,       13.3604,      -22.4969,            0.,NA,NA,"",   175.153E-03,   56.3500E-03,  -165.841E-03,   31.3499E-03
C:/temp/dataset/3/13_4.odb,Step-1,Increment      2: Step Time =    1.000,"PART-1-1",           333,           15.,        -21.25,            0.,NA,NA,"",   300.510E-03,   124.007E-03,  -273.731E-03,   46.9163E-03
C:/temp/dataset/3/13_4.odb,Step-1,Increment      2: Step Time =    1.000,"PART-1-1",           334,       13.4842,      -19.7901,            0.,NA,NA,"",   300.528E-03,   161.250E-03,  -253.605E-03,   35.5716E-03
C:/temp/dataset/3/13_4.odb,Step-1,Increment      2: Step Time =    1.000,"PART-1-1",           335,       11.8446,      -21.0370,            0.,NA,NA,"",   158.399E-03,   86.9064E-03,  -132.429E-03,   21.0352E-03
C:/temp/dataset/3/13_4.odb,Step-1,Increment      2: Step Time =    1.000,"PART-1-1",           336,       1.65000,            5.,            0.,NA,NA,"",       4.42861,       4.23390,       1.29873,   1.92435E-03
C:/temp/dataset/3/13_4.odb,Step-1,Increment      2: Step Time =    1.000,"PART-1-1",           337,   440.654E-03,       4.00571,            0.,NA,NA,"",       4.35055,       4.06043,       1.56210,   1.17496E-03
C:/temp/dataset/3/13_4.odb,Step-1,Increment      2: Step Time =    1.000,"PART-1-1",           338,       1.47063,       2.87974,            0.,NA,NA,"",       4.05187,       3.81061,       1.37729,   3.14613E-03
C:/temp/dataset/3/13_4.odb,Step-1,Increment      2: Step Time =    1.000,"PART-1-1",           339,       2.67998,       3.87403,            0.,NA,NA,"",       4.14275,       3.98906,       1.11792,   3.08000E-03
C:/temp/dataset/3/13_4.odb,Step-1,Increment      2: Step Time =    1.000,"PART-1-1",           340,      -1.46180,      -3.99231,            0.,NA,NA,"",       3.24622,       2.45666,       2.12196,   786.202E-06
C:/temp/dataset/3/13_4.odb,Step-1,Increment      2: Step Time =    1.000,"PART-1-1",           341,     -500.E-03,           -5.,            0.,NA,NA,"",       2.95574,       2.22596,       1.94461,   2.04917E-03
C:/temp/dataset/3/13_4.odb,Step-1,Increment      2: Step Time =    1.000,"PART-1-1",           342,   718.491E-03,      -4.10961,            0.,NA,NA,"",       2.91158,       2.38297,       1.67293,   1.36706E-03
C:/temp/dataset/3/13_4.odb,Step-1,Increment      2: Step Time =    1.000,"PART-1-1",           343,  -243.313E-03,      -3.10192,            0.,NA,NA,"",       3.20355,       2.61477,       1.85087,   515.681E-06
C:/temp/dataset/3/13_4.odb,Step-1,Increment      2: Step Time =    1.000,"PART-1-1",           344,      -3.82017,      -3.74247,            0.,NA,NA,"",       3.65017,       2.55972,       2.60223,   401.662E-06
C:/temp/dataset/3/13_4.odb,Step-1,Increment      2: Step Time =    1.000,"PART-1-1",           345,      -2.71667,           -5.,            0.,NA,NA,"",       3.30918,       2.27620,       2.40200,   913.445E-06
C:/temp/dataset/3/13_4.odb,Step-1,Increment      2: Step Time =    1.000,"PART-1-1",           346,      -2.56530,      -2.73478,            0.,NA,NA,"",       3.59238,       2.74081,       2.32232,   612.216E-06
C:/temp/dataset/3/13_4.odb,Step-1,Increment      2: Step Time =    1.000,"PART-1-1",           347,      -13.8092,  -21.6491E-03,            0.,NA,NA,"",       5.78584,       3.53928,       4.57706,   1.68388E-06
C:/temp/dataset/3/13_4.odb,Step-1,Increment      2: Step Time =    1.000,"PART-1-1",           348,      -12.6581,       1.21263,            0.,NA,NA,"",       5.72812,       3.76860,       4.31381,   5.53568E-06
C:/temp/dataset/3/13_4.odb,Step-1,Increment      2: Step Time =    1.000,"PART-1-1",           349,      -13.8489,       2.48428,            0.,NA,NA,"",       6.08148,       4.05573,       4.53160,   821.396E-09
C:/temp/dataset/3/13_4.odb,Step-1,Increment      2: Step Time =    1.000,"PART-1-1",           350,          -15.,          1.25,            0.,NA,NA,"",       6.13449,       3.82640,       4.79486,   3.97712E-06
C:/temp/dataset/3/13_4.odb,Step-1,Increment      2: Step Time =    1.000,"PART-1-1",           351,      -8.84172,   345.754E-03,            0.,NA,NA,"",       4.98926,       3.50867,       3.54711,   89.4141E-06
C:/temp/dataset/3/13_4.odb,Step-1,Increment      2: Step Time =    1.000,"PART-1-1",           352,      -9.20019,  -788.270E-03,            0.,NA,NA,"",       4.90567,       3.28301,       3.64519,   67.4825E-06
C:/temp/dataset/3/13_4.odb,Step-1,Increment      2: Step Time =    1.000,"PART-1-1",           353,      -7.61937,      -1.21646,            0.,NA,NA,"",       4.59091,       3.16118,       3.32918,   146.625E-06
C:/temp/dataset/3/13_4.odb,Step-1,Increment      2: Step Time =    1.000,"PART-1-1",           354,      -7.26090,  -82.4387E-03,            0.,NA,NA,"",       4.68087,       3.38689,       3.23102,   157.990E-06
C:/temp/dataset/3/13_4.odb,Step-1,Increment      2: Step Time =    1.000,"PART-1-1",           355,      -12.7466,      -3.77621,            0.,NA,NA,"",       5.21849,       2.74408,       4.43877,   1.55163E-06
C:/temp/dataset/3/13_4.odb,Step-1,Increment      2: Step Time =    1.000,"PART-1-1",           356,      -13.8633,      -2.52621,            0.,NA,NA,"",       5.54053,       3.02514,       4.64177,   851.547E-09
C:/temp/dataset/3/13_4.odb,Step-1,Increment      2: Step Time =    1.000,"PART-1-1",           357,          -15.,         -3.75,            0.,NA,NA,"",       5.64400,       2.79768,       4.90181,   1.47826E-06
C:/temp/dataset/3/13_4.odb,Step-1,Increment      2: Step Time =    1.000,"PART-1-1",           358,      -13.8833,           -5.,            0.,NA,NA,"",       5.33031,       2.51662,       4.69881,   1.15125E-06
C:/temp/dataset/3/13_4.odb,Step-1,Increment      2: Step Time =    1.000,"PART-1-1",           359,      -5.03830,      -2.71522,            0.,NA,NA,"",       3.97984,       2.79763,       2.83062,   365.329E-06
C:/temp/dataset/3/13_4.odb,Step-1,Increment      2: Step Time =    1.000,"PART-1-1",           360,      -4.43911,      -1.50749,            0.,NA,NA,"",       4.04881,       3.03378,       2.68125,   390.041E-06
C:/temp/dataset/3/13_4.odb,Step-1,Increment      2: Step Time =    1.000,"PART-1-1",           361,      -5.95808,  -763.119E-03,            0.,NA,NA,"",       4.38513,       3.21917,       2.97763,   287.490E-06
C:/temp/dataset/3/13_4.odb,Step-1,Increment      2: Step Time =    1.000,"PART-1-1",           362,      -6.55726,      -1.97085,            0.,NA,NA,"",       4.32178,       2.98329,       3.12695,   192.076E-06
C:/temp/dataset/3/13_4.odb,Step-1,Increment      2: Step Time =    1.000,"PART-1-1",           363,          6.25,          -30.,            0.,NA,NA,"",            0.,  -16.2284E-42,  -385.692E-42,   6.15023E-03
C:/temp/dataset/3/13_4.odb,Step-1,Increment      2: Step Time =    1.000,"PART-1-1",           364,       7.47038,      -28.9473,            0.,NA,NA,"",   8.98581E-03,  -8.50531E-03,   2.89904E-03,   7.11083E-03
C:/temp/dataset/3/13_4.odb,Step-1,Increment      2: Step Time =    1.000,"PART-1-1",           365,       6.18647,      -27.8786,            0.,NA,NA,"",   14.3430E-03,  -5.22255E-03,   13.3584E-03,   9.39974E-03
C:/temp/dataset/3/13_4.odb,Step-1,Increment      2: Step Time =    1.000,"PART-1-1",           366,       4.96608,      -28.9312,            0.,NA,NA,"",   6.69442E-03,  -430.303E-06,   6.68057E-03,   8.73724E-03
C:/temp/dataset/3/13_4.odb,Step-1,Increment      2: Step Time =    1.000,"PART-1-1",           367,       3.70492,      -27.8047,            0.,NA,NA,"",   18.5680E-03,   8.45209E-03,   16.5327E-03,   10.8881E-03
C:/temp/dataset/3/13_4.odb,Step-1,Increment      2: Step Time =    1.000,"PART-1-1",           368,       2.48883,      -28.8735,            0.,NA,NA,"",   9.62959E-03,   6.80866E-03,   6.80963E-03,   9.18373E-03
C:/temp/dataset/3/13_4.odb,Step-1,Increment      2: Step Time =    1.000,"PART-1-1",           369,          3.75,          -30.,            0.,NA,NA,"",            0.,  -87.3345E-42,  -330.884E-42,   6.97672E-03
C:/temp/dataset/3/13_4.odb,Step-1,Increment      2: Step Time =    1.000,"PART-1-1",           370,      -3.72203,      -27.5999,            0.,NA,NA,"",   18.1809E-03,   17.8854E-03,   3.26428E-03,   5.29050E-03
C:/temp/dataset/3/13_4.odb,Step-1,Increment      2: Step Time =    1.000,"PART-1-1",           371,      -4.98725,      -28.7922,            0.,NA,NA,"",   9.00231E-03,   8.90408E-03,   1.32621E-03,   4.92044E-03
C:/temp/dataset/3/13_4.odb,Step-1,Increment      2: Step Time =    1.000,"PART-1-1",           372,         -3.75,          -30.,            0.,NA,NA,"",            0.,  -56.1556E-42,  -25.3593E-42,   6.08680E-03
C:/temp/dataset/3/13_4.odb,Step-1,Increment      2: Step Time =    1.000,"PART-1-1",           373,      -2.48478,      -28.8077,            0.,NA,NA,"",   10.7221E-03,   10.3729E-03,   2.71420E-03,   6.40763E-03
C:/temp/dataset/3/13_4.odb,Step-1,Increment      2: Step Time =    1.000,"PART-1-1",           374,      -13.7501,      -27.5099,            0.,NA,NA,"",   11.0814E-03,   10.5605E-03,   3.35762E-03,   1.80078E-03
C:/temp/dataset/3/13_4.odb,Step-1,Increment      2: Step Time =    1.000,"PART-1-1",           375,          -15.,        -28.75,            0.,NA,NA,"",   7.46420E-03,   6.11538E-03,   4.27976E-03,   3.27367E-03
C:/temp/dataset/3/13_4.odb,Step-1,Increment      2: Step Time =    1.000,"PART-1-1",           376,        -13.75,          -30.,            0.,NA,NA,"",            0.,   3.85077E-42,   8.62079E-42,   3.60395E-03
C:/temp/dataset/3/13_4.odb,Step-1,Increment      2: Step Time =    1.000,"PART-1-1",           377,      -12.5001,      -28.7599,            0.,NA,NA,"",   5.01365E-03,   4.91861E-03,   971.566E-06,   2.63129E-03
C:/temp/dataset/3/13_4.odb,Step-1,Increment      2: Step Time =    1.000,"PART-1-1",           378,       8.15833,      -10.8587,            0.,NA,NA,"",       1.05885,       1.04951,   140.339E-03,   17.9241E-03
C:/temp/dataset/3/13_4.odb,Step-1,Increment      2: Step Time =    1.000,"PART-1-1",           379,       9.00498,      -9.90697,            0.,NA,NA,"",       1.17543,       1.17515,   26.0093E-03,   10.4140E-03
C:/temp/dataset/3/13_4.odb,Step-1,Increment      2: Step Time =    1.000,"PART-1-1",           380,       8.08915,      -8.55627,            0.,NA,NA,"",       1.40822,       1.39922,   158.934E-03,   17.1877E-03
C:/temp/dataset/3/13_4.odb,Step-1,Increment      2: Step Time =    1.000,"PART-1-1",           381,       7.24249,      -9.50802,            0.,NA,NA,"",       1.29698,       1.26679,   278.188E-03,   24.7434E-03
C:/temp/dataset/3/13_4.odb,Step-1,Increment      2: Step Time =    1.000,"PART-1-1",           382,       13.9816,      -2.51124,            0.,NA,NA,"",       2.61464,       2.41815,  -994.418E-03,   24.3236E-03
C:/temp/dataset/3/13_4.odb,Step-1,Increment      2: Step Time =    1.000,"PART-1-1",           383,           15.,         -1.25,            0.,NA,NA,"",       2.93711,       2.65651,      -1.25283,   27.9471E-03
C:/temp/dataset/3/13_4.odb,Step-1,Increment      2: Step Time =    1.000,"PART-1-1",           384,       13.8213,  -48.4001E-03,            0.,NA,NA,"",       3.09718,       2.90949,      -1.06180,   20.3859E-03
C:/temp/dataset/3/13_4.odb,Step-1,Increment      2: Step Time =    1.000,"PART-1-1",           385,       12.8030,      -1.30964,            0.,NA,NA,"",       2.78733,       2.66737,  -808.929E-03,   17.1276E-03
C:/temp/dataset/3/13_4.odb,Step-1,Increment      2: Step Time =    1.000,"PART-1-1",           386,           15.,          1.25,            0.,NA,NA,"",       3.44348,       3.16179,      -1.36406,   25.1572E-03
C:/temp/dataset/3/13_4.odb,Step-1,Increment      2: Step Time =    1.000,"PART-1-1",           387,       13.5709,       2.55070,            0.,NA,NA,"",       3.62805,       3.45361,      -1.11146,   17.7816E-03
C:/temp/dataset/3/13_4.odb,Step-1,Increment      2: Step Time =    1.000,"PART-1-1",           388,       12.3922,       1.25230,            0.,NA,NA,"",       3.30065,       3.19889,  -813.239E-03,   13.0562E-03
C:/temp/dataset/3/13_4.odb,Step-1,Increment      2: Step Time =    1.000,"PART-1-1",           389,      -5.00532,       26.2655,            0.,NA,NA,"",       10.6375,       10.2106,       2.98313,   2.71977E-03
C:/temp/dataset/3/13_4.odb,Step-1,Increment      2: Step Time =    1.000,"PART-1-1",           390,      -3.75495,       25.0275,            0.,NA,NA,"",       10.1698,       9.80997,       2.68144,   1.94508E-03
C:/temp/dataset/3/13_4.odb,Step-1,Increment      2: Step Time =    1.000,"PART-1-1",           391,      -2.50780,       26.2820,            0.,NA,NA,"",       10.3640,       10.1093,       2.28390,   2.68739E-03
C:/temp/dataset/3/13_4.odb,Step-1,Increment      2: Step Time =    1.000,"PART-1-1",           392,      -3.75817,       27.5199,            0.,NA,NA,"",       10.8231,       10.5098,       2.58523,   3.47172E-03
C:/temp/dataset/3/13_4.odb,Step-1,Increment      2: Step Time =    1.000,"PART-1-1",           393,      -5.00193,       23.7670,            0.,NA,NA,"",       9.99435,       9.50766,       3.08081,   1.23623E-03
C:/temp/dataset/3/13_4.odb,Step-1,Increment      2: Step Time =    1.000,"PART-1-1",           394,      -6.25406,       25.0149,            0.,NA,NA,"",       10.4728,       9.91136,       3.38299,   1.97793E-03
C:/temp/dataset/3/13_4.odb,Step-1,Increment      2: Step Time =    1.000,"PART-1-1",           395,      -7.50285,       23.7600,            0.,NA,NA,"",       10.3281,       9.60962,       3.78468,   1.24107E-03
C:/temp/dataset/3/13_4.odb,Step-1,Increment      2: Step Time =    1.000,"PART-1-1",           396,      -6.25071,       22.5121,            0.,NA,NA,"",       9.84235,       9.20581,       3.48209,   507.787E-06
C:/temp/dataset/3/13_4.odb,Step-1,Increment      2: Step Time =    1.000,"PART-1-1",           397,      -12.5007,       23.7543,            0.,NA,NA,"",       11.1102,       9.81796,       5.20046,   916.745E-06
C:/temp/dataset/3/13_4.odb,Step-1,Increment      2: Step Time =    1.000,"PART-1-1",           398,      -13.7507,       25.0026,            0.,NA,NA,"",       11.6154,       10.2282,       5.50458,   2.30671E-03
C:/temp/dataset/3/13_4.odb,Step-1,Increment      2: Step Time =    1.000,"PART-1-1",           399,          -15.,         23.75,            0.,NA,NA,"",       11.5505,       9.92144,       5.91426,   853.265E-06
C:/temp/dataset/3/13_4.odb,Step-1,Increment      2: Step Time =    1.000,"PART-1-1",           400,       1.22659,       27.5580,            0.,NA,NA,"",       10.3767,       10.3074,       1.19712,   3.47592E-03
C:/temp/dataset/3/13_4.odb,Step-1,Increment      2: Step Time =    1.000,"PART-1-1",           401,       2.48534,       28.7828,            0.,NA,NA,"",       10.6245,       10.5940,   803.657E-03,   4.33001E-03
C:/temp/dataset/3/13_4.odb,Step-1,Increment      2: Step Time =    1.000,"PART-1-1",           402,          1.25,           30.,            0.,NA,NA,"",       11.0403,       10.9855,       1.09933,   5.16719E-03
C:/temp/dataset/3/13_4.odb,Step-1,Increment      2: Step Time =    1.000,"PART-1-1",           403,  -8.74824E-03,       28.7751,            0.,NA,NA,"",       10.8029,       10.6991,       1.49342,   4.30772E-03
C:/temp/dataset/3/13_4.odb,Step-1,Increment      2: Step Time =    1.000,"PART-1-1",           404,  -16.7069E-03,       26.3073,            0.,NA,NA,"",       10.1369,       10.0116,       1.58936,   2.69930E-03
C:/temp/dataset/3/13_4.odb,Step-1,Increment      2: Step Time =    1.000,"PART-1-1",           405,       2.46714,       26.3253,            0.,NA,NA,"",       9.95389,       9.91305,   900.779E-03,   2.87597E-03
C:/temp/dataset/3/13_4.odb,Step-1,Increment      2: Step Time =    1.000,"PART-1-1",           406,       3.70751,       22.5746,            0.,NA,NA,"",       8.84967,       8.82200,   699.290E-03,   1.74363E-03
C:/temp/dataset/3/13_4.odb,Step-1,Increment      2: Step Time =    1.000,"PART-1-1",           407,       2.48879,       21.2797,            0.,NA,NA,"",       8.58047,       8.51120,       1.08807,   628.075E-06
C:/temp/dataset/3/13_4.odb,Step-1,Increment      2: Step Time =    1.000,"PART-1-1",           408,          3.75,           20.,            0.,NA,NA,"",       8.14410,       8.10596,   787.271E-03,   2.30384E-03
C:/temp/dataset/3/13_4.odb,Step-1,Increment      2: Step Time =    1.000,"PART-1-1",           409,       4.96872,       21.2949,            0.,NA,NA,"",       8.42563,       8.41628,   396.738E-03,   4.55002E-03
C:/temp/dataset/3/13_4.odb,Step-1,Increment      2: Step Time =    1.000,"PART-1-1",           410,       10.8479,       12.4309,            0.,NA,NA,"",       5.88934,       5.82812,  -846.964E-03,   5.77680E-03
C:/temp/dataset/3/13_4.odb,Step-1,Increment      2: Step Time =    1.000,"PART-1-1",           411,       9.34812,       11.6387,            0.,NA,NA,"",       5.69043,       5.67258,  -450.414E-03,   5.83884E-03
C:/temp/dataset/3/13_4.odb,Step-1,Increment      2: Step Time =    1.000,"PART-1-1",           412,       9.99050,       10.5520,            0.,NA,NA,"",       5.40975,       5.37931,  -573.049E-03,   5.13265E-03
C:/temp/dataset/3/13_4.odb,Step-1,Increment      2: Step Time =    1.000,"PART-1-1",           413,       11.4903,       11.3442,            0.,NA,NA,"",       5.61834,       5.53466,  -966.012E-03,   7.33461E-03
C:/temp/dataset/3/13_4.odb,Step-1,Increment      2: Step Time =    1.000,"PART-1-1",           414,       7.16850,       11.5014,            0.,NA,NA,"",       5.71144,       5.71076,   88.2041E-03,   11.5020E-03
C:/temp/dataset/3/13_4.odb,Step-1,Increment      2: Step Time =    1.000,"PART-1-1",           415,       6.10343,       12.5850,            0.,NA,NA,"",       6.03764,       6.02867,   328.993E-03,   13.9573E-03
C:/temp/dataset/3/13_4.odb,Step-1,Increment      2: Step Time =    1.000,"PART-1-1",           416,            5.,         11.25,            0.,NA,NA,"",       5.76324,       5.72881,   628.978E-03,   19.2587E-03
C:/temp/dataset/3/13_4.odb,Step-1,Increment      2: Step Time =    1.000,"PART-1-1",           417,       6.06507,       10.1664,            0.,NA,NA,"",       5.42674,       5.41307,   384.960E-03,   16.5513E-03
C:/temp/dataset/3/13_4.odb,Step-1,Increment      2: Step Time =    1.000,"PART-1-1",           418,       14.0565,       5.06378,            0.,NA,NA,"",       4.20436,       3.99101,      -1.32230,   19.5846E-03
C:/temp/dataset/3/13_4.odb,Step-1,Increment      2: Step Time =    1.000,"PART-1-1",           419,       12.6274,       3.86448,            0.,NA,NA,"",       3.87231,       3.75271,  -954.940E-03,   13.2872E-03
C:/temp/dataset/3/13_4.odb,Step-1,Increment      2: Step Time =    1.000,"PART-1-1",           420,           15.,          3.75,            0.,NA,NA,"",       3.97372,       3.68928,      -1.47637,   24.1402E-03
C:/temp/dataset/3/13_4.odb,Step-1,Increment      2: Step Time =    1.000,"PART-1-1",           421,       10.0280,       5.47301,            0.,NA,NA,"",       4.18783,       4.16578,  -429.184E-03,   3.42956E-03
C:/temp/dataset/3/13_4.odb,Step-1,Increment      2: Step Time =    1.000,"PART-1-1",           422,       11.0614,       5.01383,            0.,NA,NA,"",       4.08999,       4.03860,  -646.331E-03,   6.66594E-03
C:/temp/dataset/3/13_4.odb,Step-1,Increment      2: Step Time =    1.000,"PART-1-1",           423,       11.6033,       6.33570,            0.,NA,NA,"",       4.40188,       4.32628,  -812.311E-03,   8.79589E-03
C:/temp/dataset/3/13_4.odb,Step-1,Increment      2: Step Time =    1.000,"PART-1-1",           424,       10.5698,       6.79489,            0.,NA,NA,"",       4.49517,       4.45617,  -590.912E-03,   5.23721E-03
C:/temp/dataset/3/13_4.odb,Step-1,Increment      2: Step Time =    1.000,"PART-1-1",           425,      -4.94418,       3.17107,            0.,NA,NA,"",       4.82241,       4.00632,       2.68422,   346.566E-06
C:/temp/dataset/3/13_4.odb,Step-1,Increment      2: Step Time =    1.000,"PART-1-1",           426,      -3.90803,       4.11594,            0.,NA,NA,"",       4.84382,       4.17802,       2.45086,   417.251E-06
C:/temp/dataset/3/13_4.odb,Step-1,Increment      2: Step Time =    1.000,"PART-1-1",           427,      -5.05000,            5.,            0.,NA,NA,"",       5.13208,       4.38463,       2.66707,   349.853E-06
C:/temp/dataset/3/13_4.odb,Step-1,Increment      2: Step Time =    1.000,"PART-1-1",           428,      -6.08615,       4.05513,            0.,NA,NA,"",       5.11456,       4.21260,       2.90046,   157.105E-06
C:/temp/dataset/3/13_4.odb,Step-1,Increment      2: Step Time =    1.000,"PART-1-1",           429,      -3.86135,       2.39128,            0.,NA,NA,"",       4.55590,       3.82306,       2.47799,   432.440E-06
C:/temp/dataset/3/13_4.odb,Step-1,Increment      2: Step Time =    1.000,"PART-1-1",           430,      -5.85027,       2.20434,            0.,NA,NA,"",       4.79658,       3.82708,       2.89147,   240.501E-06
C:/temp/dataset/3/13_4.odb,Step-1,Increment      2: Step Time =    1.000,"PART-1-1",           431,      -4.76744,       1.42454,            0.,NA,NA,"",       4.52642,       3.64384,       2.68530,   396.000E-06
C:/temp/dataset/3/13_4.odb,Step-1,Increment      2: Step Time =    1.000,"PART-1-1",           432,      -9.29397,       2.69508,            0.,NA,NA,"",       5.37586,       4.00163,       3.58982,   59.5071E-06
C:/temp/dataset/3/13_4.odb,Step-1,Increment      2: Step Time =    1.000,"PART-1-1",           433,      -8.28887,       3.92576,            0.,NA,NA,"",       5.40256,       4.23330,       3.35662,   52.2132E-06
C:/temp/dataset/3/13_4.odb,Step-1,Increment      2: Step Time =    1.000,"PART-1-1",           434,          -9.5,            5.,            0.,NA,NA,"",       5.73675,       4.48030,       3.58290,   21.4217E-06
C:/temp/dataset/3/13_4.odb,Step-1,Increment      2: Step Time =    1.000,"PART-1-1",           435,      -10.5051,       3.76932,            0.,NA,NA,"",       5.71076,       4.24858,       3.81607,   12.2059E-06
C:/temp/dataset/3/13_4.odb,Step-1,Increment      2: Step Time =    1.000,"PART-1-1",           436,      -7.92731,       1.84143,            0.,NA,NA,"",       5.04812,       3.79681,       3.32683,   104.518E-06
C:/temp/dataset/3/13_4.odb,Step-1,Increment      2: Step Time =    1.000,"PART-1-1",           437,      -6.68589,       1.06488,            0.,NA,NA,"",       4.75104,       3.61064,       3.08798,   220.065E-06
C:/temp/dataset/3/13_4.odb,Step-1,Increment      2: Step Time =    1.000,"PART-1-1",           438,      -7.09169,       2.98089,            0.,NA,NA,"",       5.08977,       4.01327,       3.13041,   161.175E-06
C:/temp/dataset/3/13_4.odb,Step-1,Increment      2: Step Time =    1.000,"PART-1-1",           439,      -13.9000,            5.,            0.,NA,NA,"",       6.40862,       4.57445,       4.48829,   1.13406E-06
C:/temp/dataset/3/13_4.odb,Step-1,Increment      2: Step Time =    1.000,"PART-1-1",           440,          -15.,          3.75,            0.,NA,NA,"",       6.42830,       4.34079,       4.74137,   1.52159E-06
C:/temp/dataset/3/13_4.odb,Step-1,Increment      2: Step Time =    1.000,"PART-1-1",           441,      -12.7489,       3.73428,            0.,NA,NA,"",       6.05843,       4.28939,       4.27852,   1.48761E-06
C:/temp/dataset/3/13_4.odb,Step-1,Increment      2: Step Time =    1.000,"PART-1-1",           442,      -9.48823,      -2.88104,            0.,NA,NA,"",       4.71472,       2.85855,       3.74930,   50.0076E-06
C:/temp/dataset/3/13_4.odb,Step-1,Increment      2: Step Time =    1.000,"PART-1-1",           443,      -8.42388,      -2.23568,            0.,NA,NA,"",       4.60203,       2.96860,       3.51655,   79.6063E-06
C:/temp/dataset/3/13_4.odb,Step-1,Increment      2: Step Time =    1.000,"PART-1-1",           444,      -10.2645,      -1.43363,            0.,NA,NA,"",       5.01064,       3.17296,       3.87800,   31.9976E-06
C:/temp/dataset/3/13_4.odb,Step-1,Increment      2: Step Time =    1.000,"PART-1-1",           445,      -12.6725,      -1.29786,            0.,NA,NA,"",       5.44786,       3.25239,       4.37049,   5.28531E-06
C:/temp/dataset/3/13_4.odb,Step-1,Increment      2: Step Time =    1.000,"PART-1-1",           446,          -15.,         -1.25,            0.,NA,NA,"",       5.87162,       3.31203,       4.84834,   3.85300E-06
C:/temp/dataset/3/13_4.odb,Step-1,Increment      2: Step Time =    1.000,"PART-1-1",           447,      -6.16813,      -3.97275,            0.,NA,NA,"",       4.01440,       2.56282,       3.08988,   153.271E-06
C:/temp/dataset/3/13_4.odb,Step-1,Increment      2: Step Time =    1.000,"PART-1-1",           448,      -4.95000,           -5.,            0.,NA,NA,"",       3.68695,       2.32517,       2.86133,   370.333E-06
C:/temp/dataset/3/13_4.odb,Step-1,Increment      2: Step Time =    1.000,"PART-1-1",           449,       1.59412,  -355.999E-03,            0.,NA,NA,"",       3.44598,       3.14272,       1.41354,   3.06992E-03
C:/temp/dataset/3/13_4.odb,Step-1,Increment      2: Step Time =    1.000,"PART-1-1",           450,       2.17826,      -1.53992,            0.,NA,NA,"",       3.16975,       2.88469,       1.31373,   5.28116E-03
C:/temp/dataset/3/13_4.odb,Step-1,Increment      2: Step Time =    1.000,"PART-1-1",           451,       2.86763,   426.804E-03,            0.,NA,NA,"",       3.46617,       3.27370,       1.13897,   7.80188E-03
C:/temp/dataset/3/13_4.odb,Step-1,Increment      2: Step Time =    1.000,"PART-1-1",           452,  -387.277E-03,   5.26357E-03,            0.,NA,NA,"",       3.73122,       3.26039,       1.81435,   637.101E-06
C:/temp/dataset/3/13_4.odb,Step-1,Increment      2: Step Time =    1.000,"PART-1-1",           453,   283.611E-03,      -1.19839,            0.,NA,NA,"",       3.44693,       2.99795,       1.70107,   1.24543E-03
C:/temp/dataset/3/13_4.odb,Step-1,Increment      2: Step Time =    1.000,"PART-1-1",           454,   923.228E-03,   847.652E-03,            0.,NA,NA,"",       3.73267,       3.40553,       1.52813,   2.07565E-03
C:/temp/dataset/3/13_4.odb,Step-1,Increment      2: Step Time =    1.000,"PART-1-1",           455,       6.35531,      -13.1332,            0.,NA,NA,"",   847.771E-03,   780.769E-03,   330.327E-03,   35.5729E-03
C:/temp/dataset/3/13_4.odb,Step-1,Increment      2: Step Time =    1.000,"PART-1-1",           456,       7.49455,      -12.2656,            0.,NA,NA,"",   894.001E-03,   868.617E-03,   211.522E-03,   24.8685E-03
C:/temp/dataset/3/13_4.odb,Step-1,Increment      2: Step Time =    1.000,"PART-1-1",           457,       6.13925,      -10.3824,            0.,NA,NA,"",       1.23536,       1.16165,   420.341E-03,   35.4512E-03
C:/temp/dataset/3/13_4.odb,Step-1,Increment      2: Step Time =    1.000,"PART-1-1",           458,            5.,        -11.25,            0.,NA,NA,"",       1.20187,       1.06731,   552.564E-03,   46.2921E-03
C:/temp/dataset/3/13_4.odb,Step-1,Increment      2: Step Time =    1.000,"PART-1-1",           459,       13.3376,      -16.9670,            0.,NA,NA,"",   482.222E-03,   344.417E-03,  -337.513E-03,   34.4000E-03
C:/temp/dataset/3/13_4.odb,Step-1,Increment      2: Step Time =    1.000,"PART-1-1",           460,       11.8219,      -18.0071,            0.,NA,NA,"",   315.597E-03,   251.346E-03,  -190.858E-03,   19.5803E-03
C:/temp/dataset/3/13_4.odb,Step-1,Increment      2: Step Time =    1.000,"PART-1-1",           461,           15.,        -18.75,            0.,NA,NA,"",   460.697E-03,   246.724E-03,  -389.061E-03,   50.9212E-03
C:/temp/dataset/3/13_4.odb,Step-1,Increment      2: Step Time =    1.000,"PART-1-1",           462,       8.42876,      -15.2973,            0.,NA,NA,"",   501.548E-03,   495.878E-03,   75.2025E-03,   16.8907E-03
C:/temp/dataset/3/13_4.odb,Step-1,Increment      2: Step Time =    1.000,"PART-1-1",           463,       10.4111,      -16.6310,            0.,NA,NA,"",   369.092E-03,   355.075E-03,  -100.751E-03,   6.96623E-03
C:/temp/dataset/3/13_4.odb,Step-1,Increment      2: Step Time =    1.000,"PART-1-1",           464,       10.7289,      -14.9294,            0.,NA,NA,"",   539.683E-03,   519.319E-03,  -146.854E-03,   8.30595E-03
C:/temp/dataset/3/13_4.odb,Step-1,Increment      2: Step Time =    1.000,"PART-1-1",           465,       8.74656,      -13.5956,            0.,NA,NA,"",   684.559E-03,   682.393E-03,   54.4091E-03,   14.1885E-03
C:/temp/dataset/3/13_4.odb,Step-1,Increment      2: Step Time =    1.000,"PART-1-1",           466,      -8.72016,      -22.5745,            0.,NA,NA,"",   28.1271E-03,   28.1106E-03,  -961.414E-06,   1.19100E-03
C:/temp/dataset/3/13_4.odb,Step-1,Increment      2: Step Time =    1.000,"PART-1-1",           467,      -7.48342,      -21.2909,            0.,NA,NA,"",   30.6227E-03,   30.5721E-03,  -1.75994E-03,   824.462E-06
C:/temp/dataset/3/13_4.odb,Step-1,Increment      2: Step Time =    1.000,"PART-1-1",           468,         -8.75,          -20.,            0.,NA,NA,"",   31.0139E-03,   30.9788E-03,  -1.47662E-03,   98.1157E-06
C:/temp/dataset/3/13_4.odb,Step-1,Increment      2: Step Time =    1.000,"PART-1-1",           469,      -9.98674,      -21.2836,            0.,NA,NA,"",   29.4061E-03,   29.4046E-03,  -294.710E-06,   392.631E-06
C:/temp/dataset/3/13_4.odb,Step-1,Increment      2: Step Time =    1.000,"PART-1-1",           470,      -4.96670,      -26.3491,            0.,NA,NA,"",   22.9067E-03,   22.7943E-03,   2.26685E-03,   4.15321E-03
C:/temp/dataset/3/13_4.odb,Step-1,Increment      2: Step Time =    1.000,"PART-1-1",           471,      -6.21541,      -25.0985,            0.,NA,NA,"",   25.5447E-03,   25.5354E-03,   688.220E-06,   3.24900E-03
C:/temp/dataset/3/13_4.odb,Step-1,Increment      2: Step Time =    1.000,"PART-1-1",           472,      -7.47738,      -26.3212,            0.,NA,NA,"",   19.1709E-03,   19.1633E-03,   541.208E-06,   3.13297E-03
C:/temp/dataset/3/13_4.odb,Step-1,Increment      2: Step Time =    1.000,"PART-1-1",           473,      -6.22867,      -27.5719,            0.,NA,NA,"",   15.0418E-03,   14.9905E-03,   1.24033E-03,   4.07579E-03
C:/temp/dataset/3/13_4.odb,Step-1,Increment      2: Step Time =    1.000,"PART-1-1",           474,   49.7896E-03,      -26.4387,            0.,NA,NA,"",   31.8088E-03,   27.8651E-03,   15.3407E-03,   8.66503E-03
C:/temp/dataset/3/13_4.odb,Step-1,Increment      2: Step Time =    1.000,"PART-1-1",           475,       1.24862,      -27.7048,            0.,NA,NA,"",   21.5918E-03,   17.3689E-03,   12.8268E-03,   9.26048E-03
C:/temp/dataset/3/13_4.odb,Step-1,Increment      2: Step Time =    1.000,"PART-1-1",           476,       2.52056,      -26.5649,            0.,NA,NA,"",   33.5701E-03,   22.0339E-03,   25.3270E-03,   12.3990E-03
C:/temp/dataset/3/13_4.odb,Step-1,Increment      2: Step Time =    1.000,"PART-1-1",           477,       1.32172,      -25.2988,            0.,NA,NA,"",   44.6819E-03,   35.0835E-03,   27.6698E-03,   11.4907E-03
C:/temp/dataset/3/13_4.odb,Step-1,Increment      2: Step Time =    1.000,"PART-1-1",           478,        -13.75,          -20.,            0.,NA,NA,"",   31.9823E-03,   31.4656E-03,   5.72566E-03,   76.0658E-06
C:/temp/dataset/3/13_4.odb,Step-1,Increment      2: Step Time =    1.000,"PART-1-1",           479,          -15.,        -21.25,            0.,NA,NA,"",   30.2083E-03,   29.0676E-03,   8.22285E-03,   64.7182E-06
C:/temp/dataset/3/13_4.odb,Step-1,Increment      2: Step Time =    1.000,"PART-1-1",           480,      -13.7430,      -22.5153,            0.,NA,NA,"",   27.1357E-03,   26.5338E-03,   5.68387E-03,   86.5384E-06
C:/temp/dataset/3/13_4.odb,Step-1,Increment      2: Step Time =    1.000,"PART-1-1",           481,      -12.4930,      -21.2653,            0.,NA,NA,"",   29.2597E-03,   29.0723E-03,   3.30581E-03,   69.8776E-06
C:/temp/dataset/3/13_4.odb,Step-1,Increment      2: Step Time =    1.000,"PART-1-1",           482,      -11.2297,      -22.5489,            0.,NA,NA,"",   26.8392E-03,   26.8062E-03,   1.32998E-03,   564.338E-06
C:/temp/dataset/3/13_4.odb,Step-1,Increment      2: Step Time =    1.000,"PART-1-1",           483,        -11.25,          -20.,            0.,NA,NA,"",   31.1887E-03,   31.1621E-03,   1.28747E-03,   119.204E-06
C:/temp/dataset/3/13_4.odb,Step-1,Increment      2: Step Time =    1.000,"PART-1-1",           484,      -13.7448,      -25.0201,            0.,NA,NA,"",   20.7837E-03,   20.0883E-03,   5.33147E-03,   619.824E-06
C:/temp/dataset/3/13_4.odb,Step-1,Increment      2: Step Time =    1.000,"PART-1-1",           485,      -12.4878,      -23.7854,            0.,NA,NA,"",   23.8170E-03,   23.6031E-03,   3.18528E-03,   708.214E-06
C:/temp/dataset/3/13_4.odb,Step-1,Increment      2: Step Time =    1.000,"PART-1-1",           486,          -15.,        -23.75,            0.,NA,NA,"",   25.1188E-03,   23.6377E-03,   8.49759E-03,   17.5095E-06
C:/temp/dataset/3/13_4.odb,Step-1,Increment      2: Step Time =    1.000,"PART-1-1",           487,       13.7335,      -27.5520,            0.,NA,NA,"",   48.0606E-03,   2.12967E-03,  -48.0134E-03,   25.2367E-03
C:/temp/dataset/3/13_4.odb,Step-1,Increment      2: Step Time =    1.000,"PART-1-1",           488,       12.4835,      -28.8020,            0.,NA,NA,"",   17.7521E-03,  -8.03368E-03,  -15.8303E-03,   18.0421E-03
C:/temp/dataset/3/13_4.odb,Step-1,Increment      2: Step Time =    1.000,"PART-1-1",           489,         13.75,          -30.,            0.,NA,NA,"",            0.,   87.4536E-42,   377.242E-42,   19.2922E-03
C:/temp/dataset/3/13_4.odb,Step-1,Increment      2: Step Time =    1.000,"PART-1-1",           490,           15.,        -28.75,            0.,NA,NA,"",   30.3311E-03,   14.9065E-03,  -26.4154E-03,   26.3681E-03
C:/temp/dataset/3/13_4.odb,Step-1,Increment      2: Step Time =    1.000,"PART-1-1",           491,       9.98010,      -28.8907,            0.,NA,NA,"",   13.7229E-03,  -12.8112E-03,  -4.91837E-03,   9.70299E-03
C:/temp/dataset/3/13_4.odb,Step-1,Increment      2: Step Time =    1.000,"PART-1-1",           492,       8.70049,      -27.8380,            0.,NA,NA,"",   16.3354E-03,  -16.3251E-03,   578.232E-06,   6.09677E-03
C:/temp/dataset/3/13_4.odb,Step-1,Increment      2: Step Time =    1.000,"PART-1-1",           493,          8.75,          -30.,            0.,NA,NA,"",            0.,   44.1283E-42,  -294.304E-42,   8.56092E-03
C:/temp/dataset/3/13_4.odb,Step-1,Increment      2: Step Time =    1.000,"PART-1-1",           494,       11.2136,      -27.6927,            0.,NA,NA,"",   26.6399E-03,  -15.8625E-03,  -21.4025E-03,   13.6492E-03
C:/temp/dataset/3/13_4.odb,Step-1,Increment      2: Step Time =    1.000,"PART-1-1",           495,       12.3768,      -26.3916,            0.,NA,NA,"",   55.0279E-03,  -7.40732E-03,  -54.5270E-03,   20.9552E-03
C:/temp/dataset/3/13_4.odb,Step-1,Increment      2: Step Time =    1.000,"PART-1-1",           496,       11.0556,      -25.4315,            0.,NA,NA,"",   43.6029E-03,  -9.79449E-03,  -42.4886E-03,   14.6247E-03
C:/temp/dataset/3/13_4.odb,Step-1,Increment      2: Step Time =    1.000,"PART-1-1",           497,       9.89242,      -26.7326,            0.,NA,NA,"",   22.1204E-03,  -18.0999E-03,  -12.7163E-03,   9.05244E-03
C:/temp/dataset/3/13_4.odb,Step-1,Increment      2: Step Time =    1.000,"PART-1-1",           498,   9.79186E-03,      -28.8313,            0.,NA,NA,"",   11.3770E-03,   10.3071E-03,   4.81670E-03,   8.03688E-03
C:/temp/dataset/3/13_4.odb,Step-1,Increment      2: Step Time =    1.000,"PART-1-1",           499,          1.25,          -30.,            0.,NA,NA,"",            0.,  -113.690E-42,  -205.795E-42,   7.83709E-03
C:/temp/dataset/3/13_4.odb,Step-1,Increment      2: Step Time =    1.000,"PART-1-1",           500,      -1.18061,      -25.1833,            0.,NA,NA,"",   37.1352E-03,   34.7214E-03,   13.1701E-03,   7.39463E-03
C:/temp/dataset/3/13_4.odb,Step-1,Increment      2: Step Time =    1.000,"PART-1-1",           501,      -2.45538,      -26.3836,            0.,NA,NA,"",   27.4136E-03,   26.5383E-03,   6.87191E-03,   5.87248E-03
C:/temp/dataset/3/13_4.odb,Step-1,Increment      2: Step Time =    1.000,"PART-1-1",           502,      -1.22498,      -27.6390,            0.,NA,NA,"",   20.8618E-03,   19.5552E-03,   7.26698E-03,   7.01620E-03
C:/temp/dataset/3/13_4.odb,Step-1,Increment      2: Step Time =    1.000,"PART-1-1",           503,      -3.70005,      -25.1329,            0.,NA,NA,"",   30.3527E-03,   30.0357E-03,   4.37513E-03,   4.72276E-03
C:/temp/dataset/3/13_4.odb,Step-1,Increment      2: Step Time =    1.000,"PART-1-1",           504,      -7.49141,      -28.7797,            0.,NA,NA,"",   7.23680E-03,   7.20779E-03,   647.389E-06,   3.80239E-03
C:/temp/dataset/3/13_4.odb,Step-1,Increment      2: Step Time =    1.000,"PART-1-1",           505,         -6.25,          -30.,            0.,NA,NA,"",            0.,  -26.5434E-42,   3.35611E-42,   4.74986E-03
C:/temp/dataset/3/13_4.odb,Step-1,Increment      2: Step Time =    1.000,"PART-1-1",           506,      -12.4949,      -26.2800,            0.,NA,NA,"",   15.7335E-03,   15.5284E-03,   2.53212E-03,   1.90384E-03
C:/temp/dataset/3/13_4.odb,Step-1,Increment      2: Step Time =    1.000,"PART-1-1",           507,          -15.,        -26.25,            0.,NA,NA,"",   18.2824E-03,   16.2688E-03,   8.34117E-03,   861.494E-06
C:/temp/dataset/3/13_4.odb,Step-1,Increment      2: Step Time =    1.000,"PART-1-1",           508,       12.0036,      -23.8365,            0.,NA,NA,"",   90.2148E-03,   13.9705E-03,  -89.1265E-03,   21.1773E-03
C:/temp/dataset/3/13_4.odb,Step-1,Increment      2: Step Time =    1.000,"PART-1-1",           509,       13.6432,      -25.0896,            0.,NA,NA,"",   106.192E-03,   14.5173E-03,  -105.195E-03,   28.6109E-03
C:/temp/dataset/3/13_4.odb,Step-1,Increment      2: Step Time =    1.000,"PART-1-1",           510,           15.,        -23.75,            0.,NA,NA,"",   181.798E-03,   54.2400E-03,  -173.518E-03,   40.1005E-03
C:/temp/dataset/3/13_4.odb,Step-1,Increment      2: Step Time =    1.000,"PART-1-1",           511,         11.25,          -30.,            0.,NA,NA,"",            0.,   76.9887E-42,  -33.4420E-42,   13.0014E-03
C:/temp/dataset/3/13_4.odb,Step-1,Increment      2: Step Time =    1.000,"PART-1-1",           512,       13.9281,      -14.6298,            0.,NA,NA,"",   742.620E-03,   566.535E-03,  -480.129E-03,   39.1806E-03
C:/temp/dataset/3/13_4.odb,Step-1,Increment      2: Step Time =    1.000,"PART-1-1",           513,       12.2657,      -15.3468,            0.,NA,NA,"",   560.287E-03,   480.116E-03,  -288.809E-03,   22.4504E-03
C:/temp/dataset/3/13_4.odb,Step-1,Increment      2: Step Time =    1.000,"PART-1-1",           514,           15.,        -16.25,            0.,NA,NA,"",   669.846E-03,   430.569E-03,  -513.132E-03,   51.3106E-03
C:/temp/dataset/3/13_4.odb,Step-1,Increment      2: Step Time =    1.000,"PART-1-1",           515,       7.13425,      -14.5121,            0.,NA,NA,"",   638.311E-03,   601.282E-03,   214.243E-03,   30.6771E-03
C:/temp/dataset/3/13_4.odb,Step-1,Increment      2: Step Time =    1.000,"PART-1-1",           516,       6.81531,      -16.2905,            0.,NA,NA,"",   464.107E-03,   417.186E-03,   203.351E-03,   34.4293E-03
C:/temp/dataset/3/13_4.odb,Step-1,Increment      2: Step Time =    1.000,"PART-1-1",           517,       8.10983,      -17.0757,            0.,NA,NA,"",   337.433E-03,   326.916E-03,   83.5876E-03,   20.8593E-03
C:/temp/dataset/3/13_4.odb,Step-1,Increment      2: Step Time =    1.000,"PART-1-1",           518,       13.8641,      -7.41825,            0.,NA,NA,"",       1.71720,       1.53568,  -768.417E-03,   31.2405E-03
C:/temp/dataset/3/13_4.odb,Step-1,Increment      2: Step Time =    1.000,"PART-1-1",           519,       13.0286,      -8.63342,            0.,NA,NA,"",       1.46467,       1.34150,  -587.906E-03,   25.8794E-03
C:/temp/dataset/3/13_4.odb,Step-1,Increment      2: Step Time =    1.000,"PART-1-1",           520,       14.1645,      -9.96517,            0.,NA,NA,"",       1.34595,       1.14540,  -706.858E-03,   36.8088E-03
C:/temp/dataset/3/13_4.odb,Step-1,Increment      2: Step Time =    1.000,"PART-1-1",           521,           15.,         -8.75,            0.,NA,NA,"",       1.60173,       1.32996,  -892.606E-03,   42.5302E-03
C:/temp/dataset/3/13_4.odb,Step-1,Increment      2: Step Time =    1.000,"PART-1-1",           522,       12.0251,      -10.9831,            0.,NA,NA,"",       1.06386,   996.950E-03,  -371.340E-03,   18.5784E-03
C:/temp/dataset/3/13_4.odb,Step-1,Increment      2: Step Time =    1.000,"PART-1-1",           523,       12.8055,      -11.9581,            0.,NA,NA,"",   975.421E-03,   867.904E-03,  -445.183E-03,   25.9732E-03
C:/temp/dataset/3/13_4.odb,Step-1,Increment      2: Step Time =    1.000,"PART-1-1",           524,       13.3751,      -11.0455,            0.,NA,NA,"",       1.13379,   990.659E-03,  -551.434E-03,   30.6021E-03
C:/temp/dataset/3/13_4.odb,Step-1,Increment      2: Step Time =    1.000,"PART-1-1",           525,       12.5947,      -10.0706,            0.,NA,NA,"",       1.22209,       1.12566,  -475.828E-03,   23.0017E-03
C:/temp/dataset/3/13_4.odb,Step-1,Increment      2: Step Time =    1.000,"PART-1-1",           526,       11.4853,  -434.223E-03,            0.,NA,NA,"",       2.92234,       2.86511,  -575.471E-03,   9.44420E-03
C:/temp/dataset/3/13_4.odb,Step-1,Increment      2: Step Time =    1.000,"PART-1-1",           527,       10.5886,      -1.82652,            0.,NA,NA,"",       2.62315,       2.59776,  -364.100E-03,   8.60107E-03
C:/temp/dataset/3/13_4.odb,Step-1,Increment      2: Step Time =    1.000,"PART-1-1",           528,       11.9063,      -2.70193,            0.,NA,NA,"",       2.47412,       2.40269,  -590.221E-03,   14.0540E-03
C:/temp/dataset/3/13_4.odb,Step-1,Increment      2: Step Time =    1.000,"PART-1-1",           529,       14.1300,       7.44597,            0.,NA,NA,"",       4.75420,       4.52974,      -1.44357,   18.9514E-03
C:/temp/dataset/3/13_4.odb,Step-1,Increment      2: Step Time =    1.000,"PART-1-1",           530,       13.1865,       6.25975,            0.,NA,NA,"",       4.43370,       4.27572,      -1.17298,   15.2334E-03
C:/temp/dataset/3/13_4.odb,Step-1,Increment      2: Step Time =    1.000,"PART-1-1",           531,           15.,          6.25,            0.,NA,NA,"",       4.52976,       4.24051,      -1.59273,   23.3975E-03
C:/temp/dataset/3/13_4.odb,Step-1,Increment      2: Step Time =    1.000,"PART-1-1",           532,       12.4155,       5.33720,            0.,NA,NA,"",       4.19423,       4.08255,  -961.420E-03,   12.2608E-03
C:/temp/dataset/3/13_4.odb,Step-1,Increment      2: Step Time =    1.000,"PART-1-1",           533,       11.2733,       3.54111,            0.,NA,NA,"",       3.76507,       3.70898,  -647.422E-03,   7.41964E-03
C:/temp/dataset/3/13_4.odb,Step-1,Increment      2: Step Time =    1.000,"PART-1-1",           534,       12.2480,       13.5548,            0.,NA,NA,"",       6.20026,       6.07471,      -1.24138,   8.61271E-03
C:/temp/dataset/3/13_4.odb,Step-1,Increment      2: Step Time =    1.000,"PART-1-1",           535,           15.,         13.75,            0.,NA,NA,"",       6.35631,       6.04779,      -1.95625,   16.3566E-03
C:/temp/dataset/3/13_4.odb,Step-1,Increment      2: Step Time =    1.000,"PART-1-1",           536,       13.6600,       14.9734,            0.,NA,NA,"",       6.61325,       6.40042,      -1.66424,   11.0919E-03
C:/temp/dataset/3/13_4.odb,Step-1,Increment      2: Step Time =    1.000,"PART-1-1",           537,       8.15326,       10.4556,            0.,NA,NA,"",       5.41382,       5.41234,  -126.472E-03,   8.91329E-03
C:/temp/dataset/3/13_4.odb,Step-1,Increment      2: Step Time =    1.000,"PART-1-1",           538,       12.3824,       21.2920,            0.,NA,NA,"",       8.28968,       8.13453,      -1.59629,   5.61376E-03
C:/temp/dataset/3/13_4.odb,Step-1,Increment      2: Step Time =    1.000,"PART-1-1",           539,       13.6892,       20.0188,            0.,NA,NA,"",       7.97052,       7.74223,      -1.89393,   6.63083E-03
C:/temp/dataset/3/13_4.odb,Step-1,Increment      2: Step Time =    1.000,"PART-1-1",           540,           15.,         21.25,            0.,NA,NA,"",       8.35498,       8.03109,      -2.30375,   6.52870E-03
C:/temp/dataset/3/13_4.odb,Step-1,Increment      2: Step Time =    1.000,"PART-1-1",           541,       13.6932,       22.5232,            0.,NA,NA,"",       8.65965,       8.42517,      -2.00153,   4.37840E-03
C:/temp/dataset/3/13_4.odb,Step-1,Increment      2: Step Time =    1.000,"PART-1-1",           542,       9.77662,       16.3041,            0.,NA,NA,"",       6.91093,       6.87400,  -713.448E-03,   5.48244E-03
C:/temp/dataset/3/13_4.odb,Step-1,Increment      2: Step Time =    1.000,"PART-1-1",           543,       11.0318,       15.0036,            0.,NA,NA,"",       6.56336,       6.48852,  -988.349E-03,   5.83527E-03
C:/temp/dataset/3/13_4.odb,Step-1,Increment      2: Step Time =    1.000,"PART-1-1",           544,       12.3430,       16.2301,            0.,NA,NA,"",       6.90861,       6.77028,      -1.37554,   7.71324E-03
C:/temp/dataset/3/13_4.odb,Step-1,Increment      2: Step Time =    1.000,"PART-1-1",           545,         13.75,           30.,            0.,NA,NA,"",       10.7261,       10.4737,      -2.31302,   126.679E-06
C:/temp/dataset/3/13_4.odb,Step-1,Increment      2: Step Time =    1.000,"PART-1-1",           546,       12.4862,       28.7548,            0.,NA,NA,"",       10.3612,       10.1816,      -1.92096,   936.063E-06
C:/temp/dataset/3/13_4.odb,Step-1,Increment      2: Step Time =    1.000,"PART-1-1",           547,           15.,         28.75,            0.,NA,NA,"",       10.4160,       10.0844,      -2.60706,   126.386E-06
C:/temp/dataset/3/13_4.odb,Step-1,Increment      2: Step Time =    1.000,"PART-1-1",           548,       12.4064,       23.7898,            0.,NA,NA,"",       8.98305,       8.81981,      -1.70473,   4.24797E-03
C:/temp/dataset/3/13_4.odb,Step-1,Increment      2: Step Time =    1.000,"PART-1-1",           549,           15.,         23.75,            0.,NA,NA,"",       9.04086,       8.71371,      -2.41006,   3.46303E-03
C:/temp/dataset/3/13_4.odb,Step-1,Increment      2: Step Time =    1.000,"PART-1-1",           550,       9.91541,       26.3072,            0.,NA,NA,"",       9.67391,       9.60768,      -1.13005,   3.63457E-03
C:/temp/dataset/3/13_4.odb,Step-1,Increment      2: Step Time =    1.000,"PART-1-1",           551,       11.1537,       25.0565,            0.,NA,NA,"",       9.32369,       9.21547,      -1.41644,   3.80446E-03
C:/temp/dataset/3/13_4.odb,Step-1,Increment      2: Step Time =    1.000,"PART-1-1",           552,       11.2110,       27.5221,            0.,NA,NA,"",       10.0096,       9.89240,      -1.52744,   2.39120E-03
C:/temp/dataset/3/13_4.odb,Step-1,Increment      2: Step Time =    1.000,"PART-1-1",           553,       8.69233,       27.5515,            0.,NA,NA,"",       10.0341,       9.99838,  -846.001E-03,   3.18606E-03
C:/temp/dataset/3/13_4.odb,Step-1,Increment      2: Step Time =    1.000,"PART-1-1",           554,       7.41297,       26.3376,            0.,NA,NA,"",       9.72483,       9.71424,  -453.558E-03,   3.75469E-03
C:/temp/dataset/3/13_4.odb,Step-1,Increment      2: Step Time =    1.000,"PART-1-1",           555,       8.63604,       25.0933,            0.,NA,NA,"",       9.35106,       9.32189,  -738.103E-03,   4.18385E-03
C:/temp/dataset/3/13_4.odb,Step-1,Increment      2: Step Time =    1.000,"PART-1-1",           556,      -1.26375,       27.5391,            0.,NA,NA,"",       10.5781,       10.4081,       1.88885,   3.47534E-03
C:/temp/dataset/3/13_4.odb,Step-1,Increment      2: Step Time =    1.000,"PART-1-1",           557,         -1.25,           30.,            0.,NA,NA,"",       11.2391,       11.0954,       1.79187,   5.08959E-03
C:/temp/dataset/3/13_4.odb,Step-1,Increment      2: Step Time =    1.000,"PART-1-1",           558,      -2.50500,       28.7640,            0.,NA,NA,"",       11.0237,       10.8044,       2.18776,   4.25813E-03
C:/temp/dataset/3/13_4.odb,Step-1,Increment      2: Step Time =    1.000,"PART-1-1",           559,      -7.50143,       28.7522,            0.,NA,NA,"",       11.5898,       11.0207,       3.58707,   4.23224E-03
C:/temp/dataset/3/13_4.odb,Step-1,Increment      2: Step Time =    1.000,"PART-1-1",           560,         -8.75,           30.,            0.,NA,NA,"",       12.0739,       11.4300,       3.89014,   4.94933E-03
C:/temp/dataset/3/13_4.odb,Step-1,Increment      2: Step Time =    1.000,"PART-1-1",           561,      -6.25460,       27.5081,            0.,NA,NA,"",       11.1113,       10.6145,       3.28510,   3.48420E-03
C:/temp/dataset/3/13_4.odb,Step-1,Increment      2: Step Time =    1.000,"PART-1-1",           562,        -13.75,           30.,            0.,NA,NA,"",       12.8067,       11.6563,       5.30493,   4.20991E-03
C:/temp/dataset/3/13_4.odb,Step-1,Increment      2: Step Time =    1.000,"PART-1-1",           563,          -15.,         28.75,            0.,NA,NA,"",       12.7104,       11.3559,       5.70936,   3.87006E-03
C:/temp/dataset/3/13_4.odb,Step-1,Increment      2: Step Time =    1.000,"PART-1-1",           564,      -13.7509,       27.5010,            0.,NA,NA,"",       12.2056,       10.9439,       5.40444,   4.09253E-03
C:/temp/dataset/3/13_4.odb,Step-1,Increment      2: Step Time =    1.000,"PART-1-1",           565,          -15.,         26.25,            0.,NA,NA,"",       12.1255,       10.6427,       5.81029,   3.45992E-03
C:/temp/dataset/3/13_4.odb,Step-1,Increment      2: Step Time =    1.000,"PART-1-1",           566,      -12.5016,       26.2536,            0.,NA,NA,"",       11.7011,       10.5317,       5.09899,   3.27862E-03
C:/temp/dataset/3/13_4.odb,Step-1,Increment      2: Step Time =    1.000,"PART-1-1",           567,      -7.50093,       21.2547,            0.,NA,NA,"",       9.71311,       8.90207,       3.88555,   234.485E-06
C:/temp/dataset/3/13_4.odb,Step-1,Increment      2: Step Time =    1.000,"PART-1-1",           568,         -6.25,           20.,            0.,NA,NA,"",       9.22303,       8.49824,       3.58387,   957.839E-06
C:/temp/dataset/3/13_4.odb,Step-1,Increment      2: Step Time =    1.000,"PART-1-1",           569,      -4.99978,       21.2574,            0.,NA,NA,"",       9.35917,       8.80206,       3.18085,   213.984E-06
C:/temp/dataset/3/13_4.odb,Step-1,Increment      2: Step Time =    1.000,"PART-1-1",           570,      -3.74911,       22.5208,            0.,NA,NA,"",       9.52100,       9.10636,       2.77913,   521.781E-06
C:/temp/dataset/3/13_4.odb,Step-1,Increment      2: Step Time =    1.000,"PART-1-1",           571,         -3.75,           20.,            0.,NA,NA,"",       8.87981,       8.39954,       2.88075,   907.108E-06
C:/temp/dataset/3/13_4.odb,Step-1,Increment      2: Step Time =    1.000,"PART-1-1",           572,      -2.49933,       21.2634,            0.,NA,NA,"",       9.05015,       8.70387,       2.47946,   193.936E-06
C:/temp/dataset/3/13_4.odb,Step-1,Increment      2: Step Time =    1.000,"PART-1-1",           573,         -1.25,           20.,            0.,NA,NA,"",       8.58323,       8.30155,       2.18083,   719.550E-06
C:/temp/dataset/3/13_4.odb,Step-1,Increment      2: Step Time =    1.000,"PART-1-1",           574,  -2.23348E-03,       21.2694,            0.,NA,NA,"",       8.78913,       8.60655,       1.78217,   205.048E-06
C:/temp/dataset/3/13_4.odb,Step-1,Increment      2: Step Time =    1.000,"PART-1-1",           575,      -1.25156,       22.5328,            0.,NA,NA,"",       9.24600,       9.00893,       2.08032,   494.290E-06
C:/temp/dataset/3/13_4.odb,Step-1,Increment      2: Step Time =    1.000,"PART-1-1",           576,         -3.75,           30.,            0.,NA,NA,"",       11.4789,       11.2061,       2.48802,   5.01492E-03
C:/temp/dataset/3/13_4.odb,Step-1,Increment      2: Step Time =    1.000,"PART-1-1",           577,      -5.00318,       28.7559,            0.,NA,NA,"",       11.2867,       10.9115,       2.88588,   4.23559E-03
C:/temp/dataset/3/13_4.odb,Step-1,Increment      2: Step Time =    1.000,"PART-1-1",           578,       7.36074,       18.8052,            0.,NA,NA,"",       7.63693,       7.63511,  -166.919E-03,   6.01159E-03
C:/temp/dataset/3/13_4.odb,Step-1,Increment      2: Step Time =    1.000,"PART-1-1",           579,       8.58169,       17.5494,            0.,NA,NA,"",       7.26354,       7.24981,  -446.319E-03,   5.46196E-03
C:/temp/dataset/3/13_4.odb,Step-1,Increment      2: Step Time =    1.000,"PART-1-1",           580,       8.60057,       20.0599,            0.,NA,NA,"",       7.95082,       7.93242,  -540.578E-03,   5.55883E-03
C:/temp/dataset/3/13_4.odb,Step-1,Increment      2: Step Time =    1.000,"PART-1-1",           581,            5.,         18.75,            0.,NA,NA,"",       7.72811,       7.71400,   466.939E-03,   11.6098E-03
C:/temp/dataset/3/13_4.odb,Step-1,Increment      2: Step Time =    1.000,"PART-1-1",           582,       6.17685,       17.5255,            0.,NA,NA,"",       7.33626,       7.33388,   186.847E-03,   9.27410E-03
C:/temp/dataset/3/13_4.odb,Step-1,Increment      2: Step Time =    1.000,"PART-1-1",           583,       6.18390,       20.0298,            0.,NA,NA,"",       8.01621,       8.01549,   107.357E-03,   6.13413E-03
C:/temp/dataset/3/13_4.odb,Step-1,Increment      2: Step Time =    1.000,"PART-1-1",           584,            5.,         16.25,            0.,NA,NA,"",       7.05882,       7.03890,   529.904E-03,   13.5425E-03
C:/temp/dataset/3/13_4.odb,Step-1,Increment      2: Step Time =    1.000,"PART-1-1",           585,       6.15340,       15.0385,            0.,NA,NA,"",       6.67469,       6.66964,   259.348E-03,   11.5864E-03
C:/temp/dataset/3/13_4.odb,Step-1,Increment      2: Step Time =    1.000,"PART-1-1",           586,       7.33024,       16.3140,            0.,NA,NA,"",       6.96440,       6.96394,  -80.3520E-03,   7.77891E-03
C:/temp/dataset/3/13_4.odb,Step-1,Increment      2: Step Time =    1.000,"PART-1-1",           587,           15.,         16.25,            0.,NA,NA,"",       7.00837,       6.69395,      -2.07562,   13.1859E-03
C:/temp/dataset/3/13_4.odb,Step-1,Increment      2: Step Time =    1.000,"PART-1-1",           588,       13.6830,       17.5067,            0.,NA,NA,"",       7.28819,       7.06684,      -1.78253,   8.90594E-03
C:/temp/dataset/3/13_4.odb,Step-1,Increment      2: Step Time =    1.000,"PART-1-1",           589,           15.,         18.75,            0.,NA,NA,"",       7.67595,       7.35634,      -2.19191,   9.87914E-03
C:/temp/dataset/3/13_4.odb,Step-1,Increment      2: Step Time =    1.000,"PART-1-1",           590,       7.36831,       6.81272,            0.,NA,NA,"",       4.54579,       4.54375,   136.121E-03,   10.5230E-03
C:/temp/dataset/3/13_4.odb,Step-1,Increment      2: Step Time =    1.000,"PART-1-1",           591,       6.10412,       7.73110,            0.,NA,NA,"",       4.82360,       4.80610,   410.411E-03,   19.1802E-03
C:/temp/dataset/3/13_4.odb,Step-1,Increment      2: Step Time =    1.000,"PART-1-1",           592,            5.,          6.25,            0.,NA,NA,"",       4.53766,       4.48731,   674.101E-03,   33.1808E-03
C:/temp/dataset/3/13_4.odb,Step-1,Increment      2: Step Time =    1.000,"PART-1-1",           593,       6.26419,       5.33162,            0.,NA,NA,"",       4.24558,       4.22618,   405.499E-03,   19.0506E-03
C:/temp/dataset/3/13_4.odb,Step-1,Increment      2: Step Time =    1.000,"PART-1-1",           594,           15.,          8.75,            0.,NA,NA,"",       5.11347,       4.81796,      -1.71315,   21.8545E-03
C:/temp/dataset/3/13_4.odb,Step-1,Increment      2: Step Time =    1.000,"PART-1-1",           595,       13.1418,       8.51598,            0.,NA,NA,"",       4.96296,       4.80170,      -1.25486,   14.0359E-03
C:/temp/dataset/3/13_4.odb,Step-1,Increment      2: Step Time =    1.000,"PART-1-1",           596,       6.30252,      -5.49102,            0.,NA,NA,"",       2.01743,       1.96192,   470.001E-03,   26.4934E-03
C:/temp/dataset/3/13_4.odb,Step-1,Increment      2: Step Time =    1.000,"PART-1-1",           597,            5.,         -6.25,            0.,NA,NA,"",       1.99283,       1.86800,   694.228E-03,   49.4743E-03
C:/temp/dataset/3/13_4.odb,Step-1,Increment      2: Step Time =    1.000,"PART-1-1",           598,       6.10325,      -7.87566,            0.,NA,NA,"",       1.62581,       1.55470,   475.571E-03,   33.6574E-03
C:/temp/dataset/3/13_4.odb,Step-1,Increment      2: Step Time =    1.000,"PART-1-1",           599,       7.40577,      -7.11668,            0.,NA,NA,"",       1.67284,       1.65058,   271.992E-03,   18.0529E-03
C:/temp/dataset/3/13_4.odb,Step-1,Increment      2: Step Time =    1.000,"PART-1-1",           600,            5.,         -8.75,            0.,NA,NA,"",       1.57445,       1.44545,   624.143E-03,   44.2396E-03
C:/temp/dataset/3/13_4.odb,Step-1,Increment      2: Step Time =    1.000,"PART-1-1",           601,            5.,        -13.75,            0.,NA,NA,"",   873.825E-03,   739.268E-03,   465.889E-03,   48.5779E-03
C:/temp/dataset/3/13_4.odb,Step-1,Increment      2: Step Time =    1.000,"PART-1-1",           602,       5.77894,      -15.1288,            0.,NA,NA,"",   654.865E-03,   562.258E-03,   335.728E-03,   43.6098E-03
C:/temp/dataset/3/13_4.odb,Step-1,Increment      2: Step Time =    1.000,"PART-1-1",           603,            5.,        -16.25,            0.,NA,NA,"",   594.427E-03,   465.240E-03,   369.993E-03,   52.8168E-03
C:/temp/dataset/3/13_4.odb,Step-1,Increment      2: Step Time =    1.000,"PART-1-1",           604,       2.77244,      -24.0596,            0.,NA,NA,"",   64.5501E-03,   43.8011E-03,   47.4149E-03,   16.5645E-03
C:/temp/dataset/3/13_4.odb,Step-1,Increment      2: Step Time =    1.000,"PART-1-1",           605,       3.76359,      -25.5842,            0.,NA,NA,"",   46.2622E-03,   24.1602E-03,   39.4523E-03,   15.2347E-03
C:/temp/dataset/3/13_4.odb,Step-1,Increment      2: Step Time =    1.000,"PART-1-1",           606,       5.11162,      -24.8806,            0.,NA,NA,"",   55.0758E-03,   20.8779E-03,   50.9652E-03,   18.6416E-03
C:/temp/dataset/3/13_4.odb,Step-1,Increment      2: Step Time =    1.000,"PART-1-1",           607,       4.12047,      -23.3559,            0.,NA,NA,"",   85.6483E-03,   47.1844E-03,   71.4791E-03,   21.4513E-03
C:/temp/dataset/3/13_4.odb,Step-1,Increment      2: Step Time =    1.000,"PART-1-1",           608,       8.48587,      -2.76980,            0.,NA,NA,"",       2.45173,       2.45122,   49.7679E-03,   12.9191E-03
C:/temp/dataset/3/13_4.odb,Step-1,Increment      2: Step Time =    1.000,"PART-1-1",           609,       9.66601,      -3.38468,            0.,NA,NA,"",       2.30908,       2.30361,  -158.834E-03,   9.41053E-03
C:/temp/dataset/3/13_4.odb,Step-1,Increment      2: Step Time =    1.000,"PART-1-1",           610,       9.40849,      -1.21164,            0.,NA,NA,"",       2.75164,       2.74755,  -149.920E-03,   8.52174E-03
C:/temp/dataset/3/13_4.odb,Step-1,Increment      2: Step Time =    1.000,"PART-1-1",           611,       3.88333,            5.,            0.,NA,NA,"",       4.28040,       4.19250,   863.032E-03,   12.1250E-03
C:/temp/dataset/3/13_4.odb,Step-1,Increment      2: Step Time =    1.000,"PART-1-1",           612,       3.93709,       2.49951,            0.,NA,NA,"",       3.78752,       3.67981,   896.848E-03,   10.8972E-03
C:/temp/dataset/3/13_4.odb,Step-1,Increment      2: Step Time =    1.000,"PART-1-1",           613,       5.14044,       3.62548,            0.,NA,NA,"",       3.94193,       3.88778,   651.168E-03,   20.2850E-03
C:/temp/dataset/3/13_4.odb,Step-1,Increment      2: Step Time =    1.000,"PART-1-1",           614,       1.70000,           -5.,            0.,NA,NA,"",       2.63190,       2.17180,       1.48667,   2.36961E-03
C:/temp/dataset/3/13_4.odb,Step-1,Increment      2: Step Time =    1.000,"PART-1-1",           615,       2.88648,      -4.17028,            0.,NA,NA,"",       2.61783,       2.32022,       1.21227,   4.78904E-03
C:/temp/dataset/3/13_4.odb,Step-1,Increment      2: Step Time =    1.000,"PART-1-1",           616,       1.90498,      -3.27989,            0.,NA,NA,"",       2.89367,       2.52987,       1.40468,   3.24245E-03
C:/temp/dataset/3/13_4.odb,Step-1,Increment      2: Step Time =    1.000,"PART-1-1",           617,      -2.82853,       3.20340,            0.,NA,NA,"",       4.56017,       3.96750,       2.24814,   577.620E-06
C:/temp/dataset/3/13_4.odb,Step-1,Increment      2: Step Time =    1.000,"PART-1-1",           618,      -1.73717,       4.08745,            0.,NA,NA,"",       4.58658,       4.12491,       2.00545,   778.881E-06
C:/temp/dataset/3/13_4.odb,Step-1,Increment      2: Step Time =    1.000,"PART-1-1",           619,      -2.81667,            5.,            0.,NA,NA,"",       4.86554,       4.33576,       2.20787,   830.052E-06
C:/temp/dataset/3/13_4.odb,Step-1,Increment      2: Step Time =    1.000,"PART-1-1",           620,      -7.28333,            5.,            0.,NA,NA,"",       5.42455,       4.43277,       3.12669,   100.049E-06
C:/temp/dataset/3/13_4.odb,Step-1,Increment      2: Step Time =    1.000,"PART-1-1",           621,      -11.7000,            5.,            0.,NA,NA,"",       6.06493,       4.52739,       4.03561,   1.15517E-06
C:/temp/dataset/3/13_4.odb,Step-1,Increment      2: Step Time =    1.000,"PART-1-1",           622,      -11.5540,       2.50359,            0.,NA,NA,"",       5.70616,       4.01060,       4.05899,   14.6553E-06
C:/temp/dataset/3/13_4.odb,Step-1,Increment      2: Step Time =    1.000,"PART-1-1",           623,      -8.37698,      -4.01732,            0.,NA,NA,"",       4.39688,       2.60099,       3.54505,   46.2818E-06
C:/temp/dataset/3/13_4.odb,Step-1,Increment      2: Step Time =    1.000,"PART-1-1",           624,      -10.5279,      -3.86372,            0.,NA,NA,"",       4.80091,       2.67861,       3.98420,   11.2690E-06
C:/temp/dataset/3/13_4.odb,Step-1,Increment      2: Step Time =    1.000,"PART-1-1",           625,      -9.41667,           -5.,            0.,NA,NA,"",       4.48880,       2.42108,       3.77991,   20.8321E-06
C:/temp/dataset/3/13_4.odb,Step-1,Increment      2: Step Time =    1.000,"PART-1-1",           626,          3.75,          -20.,            0.,NA,NA,"",   106.336E-03,   70.2414E-03,   79.8345E-03,   37.5625E-03
C:/temp/dataset/3/13_4.odb,Step-1,Increment      2: Step Time =    1.000,"PART-1-1",           627,       2.74072,      -21.3682,            0.,NA,NA,"",   90.0520E-03,   65.1828E-03,   62.1335E-03,   13.7746E-03
C:/temp/dataset/3/13_4.odb,Step-1,Increment      2: Step Time =    1.000,"PART-1-1",           628,       4.11640,      -22.1674,            0.,NA,NA,"",   111.085E-03,   66.6936E-03,   88.8356E-03,   26.6604E-03
C:/temp/dataset/3/13_4.odb,Step-1,Increment      2: Step Time =    1.000,"PART-1-1",           629,       5.12568,      -20.7992,            0.,NA,NA,"",   162.479E-03,   87.7523E-03,   136.744E-03,   45.8364E-03
C:/temp/dataset/3/13_4.odb,Step-1,Increment      2: Step Time =    1.000,"PART-1-1",           630,          1.25,          -20.,            0.,NA,NA,"",   48.7530E-03,   39.0113E-03,   29.2399E-03,   7.80907E-03
C:/temp/dataset/3/13_4.odb,Step-1,Increment      2: Step Time =    1.000,"PART-1-1",           631,   73.0809E-03,      -21.3299,            0.,NA,NA,"",   49.3243E-03,   44.8226E-03,   20.5870E-03,   5.58542E-03
C:/temp/dataset/3/13_4.odb,Step-1,Increment      2: Step Time =    1.000,"PART-1-1",           632,       1.56380,      -22.6981,            0.,NA,NA,"",   67.1806E-03,   53.5286E-03,   40.5947E-03,   14.6464E-03
C:/temp/dataset/3/13_4.odb,Step-1,Increment      2: Step Time =    1.000,"PART-1-1",           633,         -1.25,          -20.,            0.,NA,NA,"",   36.9403E-03,   35.4176E-03,   10.4967E-03,   2.10790E-03
C:/temp/dataset/3/13_4.odb,Step-1,Increment      2: Step Time =    1.000,"PART-1-1",           634,      -2.46493,      -21.3147,            0.,NA,NA,"",   37.8109E-03,   37.3197E-03,   6.07457E-03,   2.66183E-03
C:/temp/dataset/3/13_4.odb,Step-1,Increment      2: Step Time =    1.000,"PART-1-1",           635,      -1.14185,      -22.6446,            0.,NA,NA,"",   44.7829E-03,   42.5500E-03,   13.9646E-03,   6.33202E-03
C:/temp/dataset/3/13_4.odb,Step-1,Increment      2: Step Time =    1.000,"PART-1-1",           636,         -3.75,          -20.,            0.,NA,NA,"",   32.4141E-03,   32.3963E-03,   1.07494E-03,   1.07599E-03
C:/temp/dataset/3/13_4.odb,Step-1,Increment      2: Step Time =    1.000,"PART-1-1",           637,      -4.97847,      -21.2978,            0.,NA,NA,"",   32.9103E-03,   32.9076E-03,  -421.174E-06,   1.41471E-03
C:/temp/dataset/3/13_4.odb,Step-1,Increment      2: Step Time =    1.000,"PART-1-1",           638,      -3.69340,      -22.6125,            0.,NA,NA,"",   35.4175E-03,   35.2834E-03,   3.07898E-03,   3.30529E-03
C:/temp/dataset/3/13_4.odb,Step-1,Increment      2: Step Time =    1.000,"PART-1-1",           639,      -4.95791,      -23.8547,            0.,NA,NA,"",   31.0903E-03,   31.0579E-03,   1.42057E-03,   3.10841E-03
C:/temp/dataset/3/13_4.odb,Step-1,Increment      2: Step Time =    1.000,"PART-1-1",           640,      -6.21189,      -22.5887,            0.,NA,NA,"",   30.8588E-03,   30.8485E-03,  -796.824E-06,   1.99725E-03
C:/temp/dataset/3/13_4.odb,Step-1,Increment      2: Step Time =    1.000,"PART-1-1",           641,      -7.46939,      -23.8324,            0.,NA,NA,"",   27.0287E-03,   27.0225E-03,  -578.296E-06,   2.09590E-03
C:/temp/dataset/3/13_4.odb,Step-1,Increment      2: Step Time =    1.000,"PART-1-1",           642,           15.,        -13.75,            0.,NA,NA,"",   930.285E-03,   675.328E-03,  -639.814E-03,   49.2992E-03
C:/temp/dataset/3/13_4.odb,Step-1,Increment      2: Step Time =    1.000,"PART-1-1",           643,       14.2106,      -12.3304,            0.,NA,NA,"",       1.03030,   830.321E-03,  -609.985E-03,   39.8884E-03
C:/temp/dataset/3/13_4.odb,Step-1,Increment      2: Step Time =    1.000,"PART-1-1",           644,       13.1387,      -13.2101,            0.,NA,NA,"",   842.738E-03,   715.723E-03,  -444.912E-03,   29.8759E-03
C:/temp/dataset/3/13_4.odb,Step-1,Increment      2: Step Time =    1.000,"PART-1-1",           645,           15.,        -11.25,            0.,NA,NA,"",       1.24134,   976.499E-03,  -766.406E-03,   46.2256E-03
C:/temp/dataset/3/13_4.odb,Step-1,Increment      2: Step Time =    1.000,"PART-1-1",           646,           15.,         -6.25,            0.,NA,NA,"",       2.00858,       1.73194,      -1.01725,   37.9249E-03
C:/temp/dataset/3/13_4.odb,Step-1,Increment      2: Step Time =    1.000,"PART-1-1",           647,       14.0624,      -4.92369,            0.,NA,NA,"",       2.16528,       1.96547,  -908.490E-03,   29.0307E-03
C:/temp/dataset/3/13_4.odb,Step-1,Increment      2: Step Time =    1.000,"PART-1-1",           648,       12.9264,      -6.09194,            0.,NA,NA,"",       1.88245,       1.76238,  -661.521E-03,   22.9141E-03
C:/temp/dataset/3/13_4.odb,Step-1,Increment      2: Step Time =    1.000,"PART-1-1",           649,           15.,         -3.75,            0.,NA,NA,"",       2.45645,       2.17702,      -1.13787,   32.6468E-03
C:/temp/dataset/3/13_4.odb,Step-1,Increment      2: Step Time =    1.000,"PART-1-1",           650,       13.0440,      -3.68493,            0.,NA,NA,"",       2.33171,       2.20088,  -770.045E-03,   21.1386E-03
C:/temp/dataset/3/13_4.odb,Step-1,Increment      2: Step Time =    1.000,"PART-1-1",           651,       8.06094,   477.426E-03,            0.,NA,NA,"",       3.13552,       3.13420,   90.7325E-03,   10.8815E-03
C:/temp/dataset/3/13_4.odb,Step-1,Increment      2: Step Time =    1.000,"PART-1-1",           652,       8.76493,       2.31856,            0.,NA,NA,"",       3.50544,       3.50448,  -82.1437E-03,   6.48354E-03
C:/temp/dataset/3/13_4.odb,Step-1,Increment      2: Step Time =    1.000,"PART-1-1",           653,       6.73548,       2.80805,            0.,NA,NA,"",       3.68124,       3.66608,   333.733E-03,   13.6064E-03
C:/temp/dataset/3/13_4.odb,Step-1,Increment      2: Step Time =    1.000,"PART-1-1",           654,       6.03149,   966.916E-03,            0.,NA,NA,"",       3.33451,       3.29762,   494.614E-03,   16.1005E-03
C:/temp/dataset/3/13_4.odb,Step-1,Increment      2: Step Time =    1.000,"PART-1-1",           655,            5.,          8.75,            0.,NA,NA,"",       5.14358,       5.10079,   662.035E-03,   22.9852E-03
C:/temp/dataset/3/13_4.odb,Step-1,Increment      2: Step Time =    1.000,"PART-1-1",           656,       7.16919,       9.14751,            0.,NA,NA,"",       5.12059,       5.11871,   138.699E-03,   13.2566E-03
C:/temp/dataset/3/13_4.odb,Step-1,Increment      2: Step Time =    1.000,"PART-1-1",           657,          3.75,           30.,            0.,NA,NA,"",       10.8845,       10.8767,   411.020E-03,   5.01830E-03
C:/temp/dataset/3/13_4.odb,Step-1,Increment      2: Step Time =    1.000,"PART-1-1",           658,       3.71036,       27.5731,            0.,NA,NA,"",       10.2200,       10.2072,   511.621E-03,   3.46730E-03
C:/temp/dataset/3/13_4.odb,Step-1,Increment      2: Step Time =    1.000,"PART-1-1",           659,       7.38617,       23.8490,            0.,NA,NA,"",       9.03335,       9.02642,  -353.743E-03,   4.71742E-03
C:/temp/dataset/3/13_4.odb,Step-1,Increment      2: Step Time =    1.000,"PART-1-1",           660,       6.16255,       25.1024,            0.,NA,NA,"",       9.42294,       9.42270,  -67.6365E-03,   3.60089E-03
C:/temp/dataset/3/13_4.odb,Step-1,Increment      2: Step Time =    1.000,"PART-1-1",           661,       4.93576,       23.8439,            0.,NA,NA,"",       9.12916,       9.12375,   314.151E-03,   3.23754E-03
C:/temp/dataset/3/13_4.odb,Step-1,Increment      2: Step Time =    1.000,"PART-1-1",           662,       6.15938,       22.5905,            0.,NA,NA,"",       8.72669,       8.72665,   25.0446E-03,   4.35332E-03
C:/temp/dataset/3/13_4.odb,Step-1,Increment      2: Step Time =    1.000,"PART-1-1",           663,      -10.0017,       23.7560,            0.,NA,NA,"",       10.7012,       9.71317,       4.49105,   1.18996E-03
C:/temp/dataset/3/13_4.odb,Step-1,Increment      2: Step Time =    1.000,"PART-1-1",           664,      -8.75135,       22.5073,            0.,NA,NA,"",       10.2060,       9.30722,       4.18790,   463.765E-06
C:/temp/dataset/3/13_4.odb,Step-1,Increment      2: Step Time =    1.000,"PART-1-1",           665,      -10.0004,       21.2526,            0.,NA,NA,"",       10.1070,       9.00311,       4.59306,   252.015E-06
C:/temp/dataset/3/13_4.odb,Step-1,Increment      2: Step Time =    1.000,"PART-1-1",           666,      -11.2505,       22.5043,            0.,NA,NA,"",       10.6076,       9.40982,       4.89651,   286.661E-06
C:/temp/dataset/3/13_4.odb,Step-1,Increment      2: Step Time =    1.000,"PART-1-1",           667,        -11.25,           20.,            0.,NA,NA,"",       10.0331,       8.69853,       4.99989,   747.633E-06
C:/temp/dataset/3/13_4.odb,Step-1,Increment      2: Step Time =    1.000,"PART-1-1",           668,         -8.75,           20.,            0.,NA,NA,"",       9.60880,       8.59784,       4.29026,   954.055E-06
C:/temp/dataset/3/13_4.odb,Step-1,Increment      2: Step Time =    1.000,"PART-1-1",           669,       7.37456,       21.3253,            0.,NA,NA,"",       8.33144,       8.32743,  -258.603E-03,   5.90518E-03
C:/temp/dataset/3/13_4.odb,Step-1,Increment      2: Step Time =    1.000,"PART-1-1",           670,      -1.26076,       25.0501,            0.,NA,NA,"",       9.91313,       9.71256,       1.98403,   1.91157E-03
C:/temp/dataset/3/13_4.odb,Step-1,Increment      2: Step Time =    1.000,"PART-1-1",           671,      -2.50213,       23.7814,            0.,NA,NA,"",       9.70523,       9.40884,       2.38015,   1.21518E-03
C:/temp/dataset/3/13_4.odb,Step-1,Increment      2: Step Time =    1.000,"PART-1-1",           672,          1.25,           20.,            0.,NA,NA,"",       8.33680,       8.20367,       1.48390,   647.049E-06
C:/temp/dataset/3/13_4.odb,Step-1,Increment      2: Step Time =    1.000,"PART-1-1",           673,            5.,         13.75,            0.,NA,NA,"",       6.40289,       6.37609,   585.248E-03,   16.2577E-03
C:/temp/dataset/3/13_4.odb,Step-1,Increment      2: Step Time =    1.000,"PART-1-1",           674,       7.85923,       4.51418,            0.,NA,NA,"",       4.00428,       4.00363,   71.9001E-03,   7.92437E-03
C:/temp/dataset/3/13_4.odb,Step-1,Increment      2: Step Time =    1.000,"PART-1-1",           675,       9.45843,       7.45797,            0.,NA,NA,"",       4.65370,       4.64014,  -354.971E-03,   4.78166E-03
C:/temp/dataset/3/13_4.odb,Step-1,Increment      2: Step Time =    1.000,"PART-1-1",           676,       11.3500,       8.04392,            0.,NA,NA,"",       4.80066,       4.73129,  -813.150E-03,   7.76502E-03
C:/temp/dataset/3/13_4.odb,Step-1,Increment      2: Step Time =    1.000,"PART-1-1",           677,       10.2386,       8.70699,            0.,NA,NA,"",       4.95202,       4.91864,  -574.005E-03,   5.20706E-03
C:/temp/dataset/3/13_4.odb,Step-1,Increment      2: Step Time =    1.000,"PART-1-1",           678,   133.314E-03,       2.02047,            0.,NA,NA,"",       4.02389,       3.66289,       1.66583,   764.896E-06
C:/temp/dataset/3/13_4.odb,Step-1,Increment      2: Step Time =    1.000,"PART-1-1",           679,       2.26054,       1.70692,            0.,NA,NA,"",       3.76314,       3.55292,       1.24013,   4.58594E-03
C:/temp/dataset/3/13_4.odb,Step-1,Increment      2: Step Time =    1.000,"PART-1-1",           680,  -583.333E-03,            5.,            0.,NA,NA,"",       4.62969,       4.28600,       1.75050,   1.86604E-03
C:/temp/dataset/3/13_4.odb,Step-1,Increment      2: Step Time =    1.000,"PART-1-1",           681,  -713.179E-03,       3.09316,            0.,NA,NA,"",       4.30201,       3.89977,       1.81633,   573.749E-06
C:/temp/dataset/3/13_4.odb,Step-1,Increment      2: Step Time =    1.000,"PART-1-1",           682,      -10.2084,       1.19941,            0.,NA,NA,"",       5.32037,       3.71349,       3.81003,   32.4805E-06
C:/temp/dataset/3/13_4.odb,Step-1,Increment      2: Step Time =    1.000,"PART-1-1",           683,      -7.18333,           -5.,            0.,NA,NA,"",       4.08148,       2.37325,       3.32057,   100.033E-06
C:/temp/dataset/3/13_4.odb,Step-1,Increment      2: Step Time =    1.000,"PART-1-1",           684,      -7.36178,      -2.99006,            0.,NA,NA,"",       4.33269,       2.79066,       3.31428,   140.555E-06
C:/temp/dataset/3/13_4.odb,Step-1,Increment      2: Step Time =    1.000,"PART-1-1",           685,      -11.3125,  -91.5578E-03,            0.,NA,NA,"",       5.34550,       3.47149,       4.06486,   25.4180E-06
C:/temp/dataset/3/13_4.odb,Step-1,Increment      2: Step Time =    1.000,"PART-1-1",           686,      -11.6500,           -5.,            0.,NA,NA,"",       4.90584,       2.46885,       4.23934,   1.28423E-06
C:/temp/dataset/3/13_4.odb,Step-1,Increment      2: Step Time =    1.000,"PART-1-1",           687,      -11.6245,      -2.63993,            0.,NA,NA,"",       5.12131,       2.95385,       4.18361,   13.1976E-06
C:/temp/dataset/3/13_4.odb,Step-1,Increment      2: Step Time =    1.000,"PART-1-1",           688,      -1.03706,       1.18772,            0.,NA,NA,"",       4.00826,       3.51691,       1.92289,   565.990E-06
C:/temp/dataset/3/13_4.odb,Step-1,Increment      2: Step Time =    1.000,"PART-1-1",           689,      -2.26684,   407.252E-03,            0.,NA,NA,"",       4.03082,       3.38233,       2.19257,   648.310E-06
C:/temp/dataset/3/13_4.odb,Step-1,Increment      2: Step Time =    1.000,"PART-1-1",           690,      -1.61706,  -775.207E-03,            0.,NA,NA,"",       3.75671,       3.12541,       2.08439,   606.507E-06
C:/temp/dataset/3/13_4.odb,Step-1,Increment      2: Step Time =    1.000,"PART-1-1",           691,      -4.44627,  -189.662E-03,            0.,NA,NA,"",       4.23898,       3.30524,       2.65412,   450.452E-06
C:/temp/dataset/3/13_4.odb,Step-1,Increment      2: Step Time =    1.000,"PART-1-1",           692,      -3.83065,   850.686E-03,            0.,NA,NA,"",       4.30900,       3.50617,       2.50484,   481.640E-06
C:/temp/dataset/3/13_4.odb,Step-1,Increment      2: Step Time =    1.000,"PART-1-1",           693,      -5.38306,   384.196E-03,            0.,NA,NA,"",       4.45970,       3.44303,       2.83450,   314.913E-06
C:/temp/dataset/3/13_4.odb,Step-1,Increment      2: Step Time =    1.000,"PART-1-1",           694,       3.90000,           -5.,            0.,NA,NA,"",       2.34674,       2.11920,       1.00807,   14.1157E-03
C:/temp/dataset/3/13_4.odb,Step-1,Increment      2: Step Time =    1.000,"PART-1-1",           695,       5.25667,      -4.01677,            0.,NA,NA,"",       2.38672,       2.28805,   679.159E-03,   27.6965E-03
C:/temp/dataset/3/13_4.odb,Step-1,Increment      2: Step Time =    1.000,"PART-1-1",           696,       4.24316,      -3.18705,            0.,NA,NA,"",       2.64708,       2.49070,   896.356E-03,   14.0876E-03
C:/temp/dataset/3/13_4.odb,Step-1,Increment      2: Step Time =    1.000,"PART-1-1",           697,       9.51721,      -4.82762,            0.,NA,NA,"",       2.02997,       2.02715,  -106.870E-03,   9.20565E-03
C:/temp/dataset/3/13_4.odb,Step-1,Increment      2: Step Time =    1.000,"PART-1-1",           698,       8.04384,      -4.93500,            0.,NA,NA,"",       2.03810,       2.03220,   154.929E-03,   14.0428E-03
C:/temp/dataset/3/13_4.odb,Step-1,Increment      2: Step Time =    1.000,"PART-1-1",           699,       8.61490,      -6.56470,            0.,NA,NA,"",       1.72597,       1.72460,   68.8296E-03,   9.41130E-03
C:/temp/dataset/3/13_4.odb,Step-1,Increment      2: Step Time =    1.000,"PART-1-1",           700,       10.0883,      -6.45732,            0.,NA,NA,"",       1.73105,       1.72207,  -176.145E-03,   7.60442E-03
C:/temp/dataset/3/13_4.odb,Step-1,Increment      2: Step Time =    1.000,"PART-1-1",           701,       9.29828,      -8.00429,            0.,NA,NA,"",       1.46933,       1.46905,  -28.7719E-03,   7.20330E-03
C:/temp/dataset/3/13_4.odb,Step-1,Increment      2: Step Time =    1.000,"PART-1-1",           702,       6.27674,      -21.4047,            0.,NA,NA,"",   124.782E-03,   65.8303E-03,   106.004E-03,   26.2777E-03
C:/temp/dataset/3/13_4.odb,Step-1,Increment      2: Step Time =    1.000,"PART-1-1",           703,       7.27122,      -20.3583,            0.,NA,NA,"",   134.081E-03,   98.0559E-03,   91.4480E-03,   18.5919E-03
C:/temp/dataset/3/13_4.odb,Step-1,Increment      2: Step Time =    1.000,"PART-1-1",           704,         -6.25,          -20.,            0.,NA,NA,"",   31.4424E-03,   31.3842E-03,  -1.91253E-03,   380.421E-06
C:/temp/dataset/3/13_4.odb,Step-1,Increment      2: Step Time =    1.000,"PART-1-1",           705,         -1.25,          -30.,            0.,NA,NA,"",            0.,  -93.7174E-42,  -91.9070E-42,   7.36050E-03
C:/temp/dataset/3/13_4.odb,Step-1,Increment      2: Step Time =    1.000,"PART-1-1",           706,       8.60683,      -25.8105,            0.,NA,NA,"",   13.5969E-03,  -12.0103E-03,   6.37423E-03,   7.70947E-03
C:/temp/dataset/3/13_4.odb,Step-1,Increment      2: Step Time =    1.000,"PART-1-1",           707,       7.41490,      -26.9159,            0.,NA,NA,"",   17.9021E-03,  -10.6398E-03,   14.3972E-03,   9.61233E-03
C:/temp/dataset/3/13_4.odb,Step-1,Increment      2: Step Time =    1.000,"PART-1-1",           708,       6.17638,      -25.8614,            0.,NA,NA,"",   33.8578E-03,   3.40455E-03,   33.6862E-03,   12.8616E-03
C:/temp/dataset/3/13_4.odb,Step-1,Increment      2: Step Time =    1.000,"PART-1-1",           709,       7.37219,      -25.0876,            0.,NA,NA,"",   30.1698E-03,   218.639E-06,   30.1690E-03,   12.6794E-03
C:/temp/dataset/3/13_4.odb,Step-1,Increment      2: Step Time =    1.000,"PART-1-1",           710,       6.30743,      -24.1068,            0.,NA,NA,"",   59.3714E-03,   19.5265E-03,   56.0685E-03,   16.1730E-03
C:/temp/dataset/3/13_4.odb,Step-1,Increment      2: Step Time =    1.000,"PART-1-1",           711,   113.079E-03,      -23.9373,            0.,NA,NA,"",   49.1274E-03,   43.1921E-03,   23.4082E-03,   9.40129E-03
C:/temp/dataset/3/13_4.odb,Step-1,Increment      2: Step Time =    1.000,"PART-1-1",           712,      -2.43554,      -23.8906,            0.,NA,NA,"",   37.6402E-03,   36.7756E-03,   8.02119E-03,   4.81872E-03
C:/temp/dataset/3/13_4.odb,Step-1,Increment      2: Step Time =    1.000,"PART-1-1",           713,      -8.72529,      -25.0755,            0.,NA,NA,"",   22.0921E-03,   22.0921E-03,  -2.73132E-06,   2.33427E-03
C:/temp/dataset/3/13_4.odb,Step-1,Increment      2: Step Time =    1.000,"PART-1-1",           714,      -9.97606,      -23.8175,            0.,NA,NA,"",   24.5245E-03,   24.5238E-03,   182.349E-06,   1.38656E-03
C:/temp/dataset/3/13_4.odb,Step-1,Increment      2: Step Time =    1.000,"PART-1-1",           715,      -9.99641,      -28.7682,            0.,NA,NA,"",   5.86311E-03,   5.83848E-03,   536.856E-06,   3.04897E-03
C:/temp/dataset/3/13_4.odb,Step-1,Increment      2: Step Time =    1.000,"PART-1-1",           716,      -11.2465,      -27.5281,            0.,NA,NA,"",   10.8541E-03,   10.8067E-03,   1.01341E-03,   2.67702E-03
C:/temp/dataset/3/13_4.odb,Step-1,Increment      2: Step Time =    1.000,"PART-1-1",           717,        -11.25,          -30.,            0.,NA,NA,"",            0.,  -779.122E-45,   11.4304E-42,   2.86265E-03
C:/temp/dataset/3/13_4.odb,Step-1,Increment      2: Step Time =    1.000,"PART-1-1",           718,         -8.75,          -30.,            0.,NA,NA,"",            0.,  -9.07901E-42,   11.2875E-42,   3.65429E-03
C:/temp/dataset/3/13_4.odb,Step-1,Increment      2: Step Time =    1.000,"PART-1-1",           719,      -8.73783,      -27.5479,            0.,NA,NA,"",   12.4221E-03,   12.4080E-03,   590.361E-06,   3.25922E-03
C:/temp/dataset/3/13_4.odb,Step-1,Increment      2: Step Time =    1.000,"PART-1-1",           720,       9.45286,      -20.3748,            0.,NA,NA,"",   102.372E-03,   101.350E-03,  -14.4326E-03,   7.03131E-03
C:/temp/dataset/3/13_4.odb,Step-1,Increment      2: Step Time =    1.000,"PART-1-1",           721,       8.38706,      -19.4374,            0.,NA,NA,"",   155.081E-03,   148.407E-03,   45.0049E-03,   10.3944E-03
C:/temp/dataset/3/13_4.odb,Step-1,Increment      2: Step Time =    1.000,"PART-1-1",           722,       8.33702,      -21.2957,            0.,NA,NA,"",   74.2942E-03,   63.7385E-03,   38.1710E-03,   11.1775E-03
C:/temp/dataset/3/13_4.odb,Step-1,Increment      2: Step Time =    1.000,"PART-1-1",           723,       9.34035,      -18.0986,            0.,NA,NA,"",   237.105E-03,   236.822E-03,  -11.5764E-03,   4.64369E-03
C:/temp/dataset/3/13_4.odb,Step-1,Increment      2: Step Time =    1.000,"PART-1-1",           724,       10.7511,      -19.4747,            0.,NA,NA,"",   179.013E-03,   151.604E-03,  -95.1943E-03,   12.4047E-03
C:/temp/dataset/3/13_4.odb,Step-1,Increment      2: Step Time =    1.000,"PART-1-1",           725,       9.57777,      -9.07511,            0.,NA,NA,"",       1.29563,       1.29418,  -61.1643E-03,   5.92076E-03
C:/temp/dataset/3/13_4.odb,Step-1,Increment      2: Step Time =    1.000,"PART-1-1",           726,       10.3854,      -7.79904,            0.,NA,NA,"",       1.50305,       1.48962,  -200.443E-03,   7.60749E-03
C:/temp/dataset/3/13_4.odb,Step-1,Increment      2: Step Time =    1.000,"PART-1-1",           727,       11.9371,      -7.89361,            0.,NA,NA,"",       1.52750,       1.46234,  -441.383E-03,   16.9153E-03
C:/temp/dataset/3/13_4.odb,Step-1,Increment      2: Step Time =    1.000,"PART-1-1",           728,       11.6400,      -6.55190,            0.,NA,NA,"",       1.74398,       1.69004,  -430.406E-03,   15.3124E-03
C:/temp/dataset/3/13_4.odb,Step-1,Increment      2: Step Time =    1.000,"PART-1-1",           729,       9.29748,       3.92298,            0.,NA,NA,"",       3.84456,       3.83778,  -228.212E-03,   1.74586E-03
C:/temp/dataset/3/13_4.odb,Step-1,Increment      2: Step Time =    1.000,"PART-1-1",           730,       10.7408,       1.93669,            0.,NA,NA,"",       3.41056,       3.37548,  -487.934E-03,   4.66974E-03
C:/temp/dataset/3/13_4.odb,Step-1,Increment      2: Step Time =    1.000,"PART-1-1",           731,       12.1175,       9.30164,            0.,NA,NA,"",       5.12133,       5.01439,      -1.04112,   9.90649E-03
C:/temp/dataset/3/13_4.odb,Step-1,Increment      2: Step Time =    1.000,"PART-1-1",           732,       12.3743,       7.25826,            0.,NA,NA,"",       4.63713,       4.52269,      -1.02383,   11.7377E-03
C:/temp/dataset/3/13_4.odb,Step-1,Increment      2: Step Time =    1.000,"PART-1-1",           733,       9.86952,       23.8294,            0.,NA,NA,"",       8.98331,       8.92493,      -1.02250,   4.95059E-03
C:/temp/dataset/3/13_4.odb,Step-1,Increment      2: Step Time =    1.000,"PART-1-1",           734,       8.61965,       22.5851,            0.,NA,NA,"",       8.65186,       8.62821,  -639.298E-03,   5.32391E-03
C:/temp/dataset/3/13_4.odb,Step-1,Increment      2: Step Time =    1.000,"PART-1-1",           735,         11.25,           30.,            0.,NA,NA,"",       10.6943,       10.5691,      -1.63163,   1.04762E-03
C:/temp/dataset/3/13_4.odb,Step-1,Increment      2: Step Time =    1.000,"PART-1-1",           736,       9.97488,       28.7673,            0.,NA,NA,"",       10.3564,       10.2820,      -1.23931,   2.20120E-03
C:/temp/dataset/3/13_4.odb,Step-1,Increment      2: Step Time =    1.000,"PART-1-1",           737,          8.75,           30.,            0.,NA,NA,"",       10.7098,       10.6673,  -952.564E-03,   2.76086E-03
C:/temp/dataset/3/13_4.odb,Step-1,Increment      2: Step Time =    1.000,"PART-1-1",           738,       3.69885,       25.0915,            0.,NA,NA,"",       9.53939,       9.52001,   607.688E-03,   2.68446E-03
C:/temp/dataset/3/13_4.odb,Step-1,Increment      2: Step Time =    1.000,"PART-1-1",           739,       4.94207,       26.3392,            0.,NA,NA,"",       9.81717,       9.81471,   219.773E-03,   3.28285E-03
C:/temp/dataset/3/13_4.odb,Step-1,Increment      2: Step Time =    1.000,"PART-1-1",           740,         -6.25,           30.,            0.,NA,NA,"",       11.7579,       11.3176,       3.18746,   4.98454E-03
C:/temp/dataset/3/13_4.odb,Step-1,Increment      2: Step Time =    1.000,"PART-1-1",           741,      -11.2519,       25.0060,            0.,NA,NA,"",       11.1998,       10.1216,       4.79467,   2.02592E-03
C:/temp/dataset/3/13_4.odb,Step-1,Increment      2: Step Time =    1.000,"PART-1-1",           742,       11.7111,      -12.1867,            0.,NA,NA,"",   890.082E-03,   837.267E-03,  -302.043E-03,   15.9388E-03
C:/temp/dataset/3/13_4.odb,Step-1,Increment      2: Step Time =    1.000,"PART-1-1",           743,       12.0443,      -13.4388,            0.,NA,NA,"",   752.430E-03,   684.474E-03,  -312.484E-03,   19.6933E-03
C:/temp/dataset/3/13_4.odb,Step-1,Increment      2: Step Time =    1.000,"PART-1-1",           744,       9.07309,      -22.0228,            0.,NA,NA,"",   42.2914E-03,   41.9932E-03,   5.01333E-03,   9.42592E-03
C:/temp/dataset/3/13_4.odb,Step-1,Increment      2: Step Time =    1.000,"PART-1-1",           745,       9.10959,      -23.2638,            0.,NA,NA,"",   15.0852E-03,   14.9857E-03,   1.72996E-03,   10.1692E-03
C:/temp/dataset/3/13_4.odb,Step-1,Increment      2: Step Time =    1.000,"PART-1-1",           746,       10.5828,      -23.1781,            0.,NA,NA,"",   52.2632E-03,   18.0497E-03,  -49.0474E-03,   13.5339E-03
C:/temp/dataset/3/13_4.odb,Step-1,Increment      2: Step Time =    1.000,"PART-1-1",           747,       10.5463,      -21.9372,            0.,NA,NA,"",   75.3880E-03,   47.8499E-03,  -58.2558E-03,   13.4425E-03
C:/temp/dataset/3/13_4.odb,Step-1,Increment      2: Step Time =    1.000,"PART-1-1",           748,      -1.00841,      -2.00181,            0.,NA,NA,"",       3.48100,       2.85930,       1.98538,   566.087E-06
C:/temp/dataset/3/13_4.odb,Step-1,Increment      2: Step Time =    1.000,"PART-1-1",           749,      -3.17395,      -1.50818,            0.,NA,NA,"",       3.86039,       3.00693,       2.42095,   543.312E-06
C:/temp/dataset/3/13_4.odb,Step-1,Increment      2: Step Time =    1.000,"PART-1-1",           750,       8.23699,       8.20647,            0.,NA,NA,"",       4.85492,       4.85405,  -91.9138E-03,   9.47475E-03
C:/temp/dataset/3/13_4.odb,Step-1,Increment      2: Step Time =    1.000,"PART-1-1",           751,       8.58975,       6.06422,            0.,NA,NA,"",       4.33851,       4.33680,  -121.874E-03,   5.60545E-03
C:/temp/dataset/3/13_4.odb,Step-1,Increment      2: Step Time =    1.000,"PART-1-1",           752,       1.04870,      -2.29850,            0.,NA,NA,"",       3.16698,       2.75338,       1.56483,   1.69735E-03
C:/temp/dataset/3/13_4.odb,Step-1,Increment      2: Step Time =    1.000,"PART-1-1",           753,      -1.88356,       2.26041,            0.,NA,NA,"",       4.28906,       3.75433,       2.07390,   585.531E-06
C:/temp/dataset/3/13_4.odb,Step-1,Increment      2: Step Time =    1.000,"PART-1-1",           754,      -2.91638,       1.44829,            0.,NA,NA,"",       4.28213,       3.60962,       2.30375,   566.104E-06
C:/temp/dataset/3/13_4.odb,Step-1,Increment      2: Step Time =    1.000,"PART-1-1",           755,       3.03453,      -2.52132,            0.,NA,NA,"",       2.89903,       2.66099,       1.15043,   7.81400E-03
C:/temp/dataset/3/13_4.odb,Step-1,Increment      2: Step Time =    1.000,"PART-1-1",           756,       6.99799,      -3.46075,            0.,NA,NA,"",       2.37272,       2.34869,   336.806E-03,   18.0017E-03
C:/temp/dataset/3/13_4.odb,Step-1,Increment      2: Step Time =    1.000,"PART-1-1",           757,       7.63560,  -984.386E-03,            0.,NA,NA,"",       2.84772,       2.84115,   193.341E-03,   14.2306E-03
C:/temp/dataset/3/13_4.odb,Step-1,Increment      2: Step Time =    1.000,"PART-1-1",           758,       6.14771,      -1.67534,            0.,NA,NA,"",       2.78657,       2.74254,   493.375E-03,   18.4294E-03
C:/temp/dataset/3/13_4.odb,Step-1,Increment      2: Step Time =    1.000,"PART-1-1",           759,       4.94795,      -26.8240,            0.,NA,NA,"",   27.6742E-03,   6.55249E-03,   26.8873E-03,   13.6824E-03
C:/temp/dataset/3/13_4.odb,Step-1,Increment      2: Step Time =    1.000,"PART-1-1",           760,      -11.2341,      -25.0541,            0.,NA,NA,"",   20.2836E-03,   20.2344E-03,   1.41261E-03,   1.58293E-03
C:/temp/dataset/3/13_4.odb,Step-1,Increment      2: Step Time =    1.000,"PART-1-1",           761,      -9.98574,      -26.3021,            0.,NA,NA,"",   16.5932E-03,   16.5813E-03,   626.646E-06,   2.45653E-03
C:/temp/dataset/3/13_4.odb,Step-1,Increment      2: Step Time =    1.000,"PART-1-1",           762,           15.,        -26.25,            0.,NA,NA,"",   94.8118E-03,   23.9766E-03,  -91.7301E-03,   32.8833E-03
C:/temp/dataset/3/13_4.odb,Step-1,Increment      2: Step Time =    1.000,"PART-1-1",           763,       9.63478,      -24.7731,            0.,NA,NA,"",   14.4831E-03,  -6.33687E-03,  -13.0232E-03,   9.80253E-03
C:/temp/dataset/3/13_4.odb,Step-1,Increment      2: Step Time =    1.000,"PART-1-1",           764,       9.83383,   250.169E-03,            0.,NA,NA,"",       3.05199,       3.04074,  -261.775E-03,   5.72002E-03
C:/temp/dataset/3/13_4.odb,Step-1,Increment      2: Step Time =    1.000,"PART-1-1",           765,       11.1222,       22.5628,            0.,NA,NA,"",       8.62873,       8.52878,      -1.30951,   5.03868E-03
C:/temp/dataset/3/13_4.odb,Step-1,Increment      2: Step Time =    1.000,"PART-1-1",           766,       9.84566,       21.3197,            0.,NA,NA,"",       8.28420,       8.23304,  -919.288E-03,   5.80958E-03
C:/temp/dataset/3/13_4.odb,Step-1,Increment      2: Step Time =    1.000,"PART-1-1",           767,      -3.18112,  -190.353E-03,            0.,NA,NA,"",       4.05942,       3.27856,       2.39372,   585.138E-06
C:/temp/dataset/3/13_4.odb,Step-1,Increment      2: Step Time =    1.000,"PART-1-1",           768,       4.54417,       1.21940,            0.,NA,NA,"",       3.48526,       3.39427,   791.180E-03,   13.7031E-03
C:/temp/dataset/3/13_4.odb,Step-1,Increment      2: Step Time =    1.000,"PART-1-1",           769,       9.22107,       9.51460,            0.,NA,NA,"",       5.15718,       5.14478,  -357.290E-03,   6.13898E-03
C:/temp/dataset/3/13_4.odb,Step-1,Increment      2: Step Time =    1.000,"PART-1-1",           770,       11.1709,      -3.71800,            0.,NA,NA,"",       2.25530,       2.21483,  -425.335E-03,   12.0776E-03
C:/temp/dataset/3/13_4.odb,Step-1,Increment      2: Step Time =    1.000,"PART-1-1",           771,       11.0221,      -5.16095,            0.,NA,NA,"",       1.97798,       1.94461,  -361.776E-03,   11.8552E-03
C:/temp/dataset/3/13_4.odb,Step-1,Increment      2: Step Time =    1.000,"PART-1-1",           772,       12.3085,      -4.70099,            0.,NA,NA,"",       2.10437,       2.01673,  -600.965E-03,   18.0810E-03
C:/temp/dataset/3/13_4.odb,Step-1,Increment      2: Step Time =    1.000,"PART-1-1",           773,       5.03877,      -2.41022,            0.,NA,NA,"",       2.72336,       2.62572,   722.694E-03,   18.7511E-03
C:/temp/dataset/3/13_4.odb,Step-1,Increment      2: Step Time =    1.000,"PART-1-1",           774,       11.0080,       9.74440,            0.,NA,NA,"",       5.21128,       5.15085,  -791.267E-03,   6.50533E-03
C:/temp/dataset/3/13_4.odb,Step-1,Increment      2: Step Time =    1.000,"PART-1-1",           775,       7.33953,      -23.4839,            0.,NA,NA,"",   52.2857E-03,   19.4363E-03,   48.5389E-03,   15.3858E-03
C:/temp/dataset/3/13_4.odb,Step-1,Increment      2: Step Time =    1.000,"PART-1-1",           776,       6.60048,      -22.7490,            0.,NA,NA,"",   82.9095E-03,   37.7338E-03,   73.8251E-03,   19.8124E-03
C:/temp/dataset/3/13_4.odb,Step-1,Increment      2: Step Time =    1.000,"PART-1-1",           777,       5.56839,      -23.3719,            0.,NA,NA,"",   81.6638E-03,   35.7442E-03,   73.4257E-03,   21.5954E-03
C:/temp/dataset/3/13_4.odb,Step-1,Increment      2: Step Time =    1.000,"PART-1-1",           778,       5.56431,      -22.1833,            0.,NA,NA,"",   111.504E-03,   56.4102E-03,   96.1826E-03,   26.0168E-03
C:/temp/dataset/3/13_4.odb,Step-1,Increment      2: Step Time =    1.000,"PART-1-1",           779,       7.31291,      -21.9704,            0.,NA,NA,"",   84.2045E-03,   47.4614E-03,   69.5544E-03,   17.3902E-03
C:/temp/dataset/3/13_4.odb,Step-1,Increment      2: Step Time =    1.000,"PART-1-1",           780,       8.04898,      -22.6975,            0.,NA,NA,"",   47.8253E-03,   28.2631E-03,   38.5805E-03,   12.4447E-03
C:/temp/dataset/3/13_4.odb,Step-1,Increment      2: Step Time =    1.000,"PART-1-1",           781,       5.89213,  -472.373E-03,            0.,NA,NA,"",       3.04761,       3.00018,   535.591E-03,   15.0170E-03
C:/temp/dataset/3/13_4.odb,Step-1,Increment      2: Step Time =    1.000,"PART-1-1",           782,       8.40014,      -24.0502,            0.,NA,NA,"",   19.5402E-03,   5.05910E-03,   18.8740E-03,   9.83303E-03
