ODB Name,Step,Frame,Part Instance Name,    êﬂì_ÉâÉxÉã,X,Y,Z,Section Name,Material Name,Section Point,   U-Magnitude,          U-U1,          U-U2,       S-Mises
C:/temp/dataset/3/13_6.odb,Step-1,Increment      1: Step Time =    1.000,"PART-1-1",             1,          -15.,           20.,            0.,NA,NA,"",       16.0515,       13.7533,       8.27637,   171.036E-06
C:/temp/dataset/3/13_6.odb,Step-1,Increment      1: Step Time =    1.000,"PART-1-1",             2,          -15.,           25.,            0.,NA,NA,"",       17.6714,       15.8454,       7.82311,   3.38549E-03
C:/temp/dataset/3/13_6.odb,Step-1,Increment      1: Step Time =    1.000,"PART-1-1",             3,           -5.,           20.,            0.,NA,NA,"",       13.5067,       12.8614,       4.12486,   1.39437E-03
C:/temp/dataset/3/13_6.odb,Step-1,Increment      1: Step Time =    1.000,"PART-1-1",             4,            5.,           20.,            0.,NA,NA,"",       11.9921,       11.9921,   26.9637E-03,   12.0415E-03
C:/temp/dataset/3/13_6.odb,Step-1,Increment      1: Step Time =    1.000,"PART-1-1",             5,            5.,          12.5,            0.,NA,NA,"",       9.04616,       9.03324,   483.292E-03,   26.5981E-03
C:/temp/dataset/3/13_6.odb,Step-1,Increment      1: Step Time =    1.000,"PART-1-1",             6,            5.,            5.,            0.,NA,NA,"",       6.29922,       6.25564,   739.672E-03,   48.5196E-03
C:/temp/dataset/3/13_6.odb,Step-1,Increment      1: Step Time =    1.000,"PART-1-1",             7,      -1.70000,            5.,            0.,NA,NA,"",       7.06614,       6.54063,       2.67403,   1.73251E-03
C:/temp/dataset/3/13_6.odb,Step-1,Increment      1: Step Time =    1.000,"PART-1-1",             8,      -8.40000,            5.,            0.,NA,NA,"",       8.31774,       6.85956,       4.70439,   59.9502E-06
C:/temp/dataset/3/13_6.odb,Step-1,Increment      1: Step Time =    1.000,"PART-1-1",             9,          -15.,            5.,            0.,NA,NA,"",       9.81780,       7.17049,       6.70621,   717.995E-09
C:/temp/dataset/3/13_6.odb,Step-1,Increment      1: Step Time =    1.000,"PART-1-1",            10,          -15.,            0.,            0.,NA,NA,"",       8.95297,       5.65409,       6.94168,   5.74766E-06
C:/temp/dataset/3/13_6.odb,Step-1,Increment      1: Step Time =    1.000,"PART-1-1",            11,          -15.,           -5.,            0.,NA,NA,"",       8.28447,       4.13779,       7.17712,   584.888E-09
C:/temp/dataset/3/13_6.odb,Step-1,Increment      1: Step Time =    1.000,"PART-1-1",            12,      -8.30000,           -5.,            0.,NA,NA,"",       6.40984,       3.82231,       5.14549,   58.3379E-06
C:/temp/dataset/3/13_6.odb,Step-1,Increment      1: Step Time =    1.000,"PART-1-1",            13,      -1.60000,           -5.,            0.,NA,NA,"",       4.68697,       3.50277,       3.11420,   1.80777E-03
C:/temp/dataset/3/13_6.odb,Step-1,Increment      1: Step Time =    1.000,"PART-1-1",            14,            5.,           -5.,            0.,NA,NA,"",       3.30729,       3.15200,       1.00152,   64.7827E-03
C:/temp/dataset/3/13_6.odb,Step-1,Increment      1: Step Time =    1.000,"PART-1-1",            15,            5.,         -12.5,            0.,NA,NA,"",       1.53724,       1.35240,   730.829E-03,   72.1211E-03
C:/temp/dataset/3/13_6.odb,Step-1,Increment      1: Step Time =    1.000,"PART-1-1",            16,            5.,          -20.,            0.,NA,NA,"",   281.300E-03,   163.635E-03,   228.809E-03,   114.997E-03
C:/temp/dataset/3/13_6.odb,Step-1,Increment      1: Step Time =    1.000,"PART-1-1",            17,           -5.,          -20.,            0.,NA,NA,"",   47.5784E-03,   47.5624E-03,  -1.23632E-03,   825.773E-06
C:/temp/dataset/3/13_6.odb,Step-1,Increment      1: Step Time =    1.000,"PART-1-1",            18,          -15.,          -20.,            0.,NA,NA,"",   48.4556E-03,   46.9058E-03,   12.1570E-03,   29.6710E-06
C:/temp/dataset/3/13_6.odb,Step-1,Increment      1: Step Time =    1.000,"PART-1-1",            19,          -15.,          -25.,            0.,NA,NA,"",   32.6298E-03,   30.0485E-03,   12.7196E-03,   205.804E-06
C:/temp/dataset/3/13_6.odb,Step-1,Increment      1: Step Time =    1.000,"PART-1-1",            20,          -15.,          -30.,            0.,NA,NA,"",            0.,   2.66842E-39,   4.26100E-39,   8.17556E-03
C:/temp/dataset/3/13_6.odb,Step-1,Increment      1: Step Time =    1.000,"PART-1-1",            21,           15.,          -30.,            0.,NA,NA,"",            0.,   10.8315E-39,  -20.7454E-39,   38.8997E-03
C:/temp/dataset/3/13_6.odb,Step-1,Increment      1: Step Time =    1.000,"PART-1-1",            22,           15.,         -22.5,            0.,NA,NA,"",   348.659E-03,   118.565E-03,  -327.881E-03,   65.2110E-03
C:/temp/dataset/3/13_6.odb,Step-1,Increment      1: Step Time =    1.000,"PART-1-1",            23,           15.,          -15.,            0.,NA,NA,"",       1.16829,   784.682E-03,  -865.551E-03,   75.4580E-03
C:/temp/dataset/3/13_6.odb,Step-1,Increment      1: Step Time =    1.000,"PART-1-1",            24,           15.,          -7.5,            0.,NA,NA,"",       2.65210,       2.20460,      -1.47424,   60.2789E-03
C:/temp/dataset/3/13_6.odb,Step-1,Increment      1: Step Time =    1.000,"PART-1-1",            25,           15.,            0.,            0.,NA,NA,"",       4.70523,       4.21478,      -2.09160,   38.8287E-03
C:/temp/dataset/3/13_6.odb,Step-1,Increment      1: Step Time =    1.000,"PART-1-1",            26,           15.,           7.5,            0.,NA,NA,"",       7.11892,       6.57496,      -2.72926,   34.2262E-03
C:/temp/dataset/3/13_6.odb,Step-1,Increment      1: Step Time =    1.000,"PART-1-1",            27,           15.,           15.,            0.,NA,NA,"",       9.87595,       9.25981,      -3.43370,   22.0326E-03
C:/temp/dataset/3/13_6.odb,Step-1,Increment      1: Step Time =    1.000,"PART-1-1",            28,           15.,          22.5,            0.,NA,NA,"",       12.8669,       12.1844,      -4.13481,   7.21320E-03
C:/temp/dataset/3/13_6.odb,Step-1,Increment      1: Step Time =    1.000,"PART-1-1",            29,           15.,           30.,            0.,NA,NA,"",       15.9271,       15.1929,      -4.78018,   206.592E-06
C:/temp/dataset/3/13_6.odb,Step-1,Increment      1: Step Time =    1.000,"PART-1-1",            30,           7.5,           30.,            0.,NA,NA,"",       15.9291,       15.8282,      -1.78977,   5.41686E-03
C:/temp/dataset/3/13_6.odb,Step-1,Increment      1: Step Time =    1.000,"PART-1-1",            31,            0.,           30.,            0.,NA,NA,"",       16.5561,       16.5113,       1.21812,   7.66627E-03
C:/temp/dataset/3/13_6.odb,Step-1,Increment      1: Step Time =    1.000,"PART-1-1",            32,          -7.5,           30.,            0.,NA,NA,"",       17.7410,       17.2182,       4.27539,   7.45675E-03
C:/temp/dataset/3/13_6.odb,Step-1,Increment      1: Step Time =    1.000,"PART-1-1",            33,          -15.,           30.,            0.,NA,NA,"",       19.3951,       17.9391,       7.37296,   5.97670E-03
C:/temp/dataset/3/13_6.odb,Step-1,Increment      1: Step Time =    1.000,"PART-1-1",            34,          -15.,          22.5,            0.,NA,NA,"",       16.8430,       14.7950,       8.04945,   1.27401E-03
C:/temp/dataset/3/13_6.odb,Step-1,Increment      1: Step Time =    1.000,"PART-1-1",            35,          -7.5,           20.,            0.,NA,NA,"",       14.0605,       13.0808,       5.15676,   1.46382E-03
C:/temp/dataset/3/13_6.odb,Step-1,Increment      1: Step Time =    1.000,"PART-1-1",            36,          -10.,           20.,            0.,NA,NA,"",       14.6734,       13.3023,       6.19333,   1.41468E-03
C:/temp/dataset/3/13_6.odb,Step-1,Increment      1: Step Time =    1.000,"PART-1-1",            37,         -12.5,           20.,            0.,NA,NA,"",       15.3394,       13.5264,       7.23418,   746.647E-06
C:/temp/dataset/3/13_6.odb,Step-1,Increment      1: Step Time =    1.000,"PART-1-1",            38,           2.5,           20.,            0.,NA,NA,"",       12.2572,       12.2118,       1.05511,   2.54310E-03
C:/temp/dataset/3/13_6.odb,Step-1,Increment      1: Step Time =    1.000,"PART-1-1",            39,            0.,           20.,            0.,NA,NA,"",       12.5997,       12.4277,       2.07477,   874.976E-06
C:/temp/dataset/3/13_6.odb,Step-1,Increment      1: Step Time =    1.000,"PART-1-1",            40,          -2.5,           20.,            0.,NA,NA,"",       13.0179,       12.6439,       3.09765,   1.28595E-03
C:/temp/dataset/3/13_6.odb,Step-1,Increment      1: Step Time =    1.000,"PART-1-1",            41,            5.,           15.,            0.,NA,NA,"",       10.0079,       10.0019,   346.937E-03,   21.9638E-03
C:/temp/dataset/3/13_6.odb,Step-1,Increment      1: Step Time =    1.000,"PART-1-1",            42,            5.,          17.5,            0.,NA,NA,"",       10.9907,       10.9891,   192.078E-03,   18.6845E-03
C:/temp/dataset/3/13_6.odb,Step-1,Increment      1: Step Time =    1.000,"PART-1-1",            43,            5.,           7.5,            0.,NA,NA,"",       7.20066,       7.16697,   695.731E-03,   38.3057E-03
C:/temp/dataset/3/13_6.odb,Step-1,Increment      1: Step Time =    1.000,"PART-1-1",            44,            5.,           10.,            0.,NA,NA,"",       8.10957,       8.08744,   598.678E-03,   30.7453E-03
C:/temp/dataset/3/13_6.odb,Step-1,Increment      1: Step Time =    1.000,"PART-1-1",            45,   533.333E-03,            5.,            0.,NA,NA,"",       6.73732,       6.43235,       2.00408,   4.41437E-03
C:/temp/dataset/3/13_6.odb,Step-1,Increment      1: Step Time =    1.000,"PART-1-1",            46,       2.76667,            5.,            0.,NA,NA,"",       6.46811,       6.32565,       1.35000,   8.21542E-03
C:/temp/dataset/3/13_6.odb,Step-1,Increment      1: Step Time =    1.000,"PART-1-1",            47,      -6.16667,            5.,            0.,NA,NA,"",       7.86341,       6.75406,       4.02690,   237.205E-06
C:/temp/dataset/3/13_6.odb,Step-1,Increment      1: Step Time =    1.000,"PART-1-1",            48,      -3.93333,            5.,            0.,NA,NA,"",       7.44417,       6.64793,       3.34972,   822.059E-06
C:/temp/dataset/3/13_6.odb,Step-1,Increment      1: Step Time =    1.000,"PART-1-1",            49,      -12.8000,            5.,            0.,NA,NA,"",       9.29569,       7.06687,       6.03898,   4.76613E-06
C:/temp/dataset/3/13_6.odb,Step-1,Increment      1: Step Time =    1.000,"PART-1-1",            50,      -10.6000,            5.,            0.,NA,NA,"",       8.79444,       6.96325,       5.37171,   4.32571E-06
C:/temp/dataset/3/13_6.odb,Step-1,Increment      1: Step Time =    1.000,"PART-1-1",            51,          -15.,           2.5,            0.,NA,NA,"",       9.36395,       6.41228,       6.82395,   5.39063E-06
C:/temp/dataset/3/13_6.odb,Step-1,Increment      1: Step Time =    1.000,"PART-1-1",            52,          -15.,          -2.5,            0.,NA,NA,"",       8.59100,       4.89593,       7.05940,   5.33633E-06
C:/temp/dataset/3/13_6.odb,Step-1,Increment      1: Step Time =    1.000,"PART-1-1",            53,      -10.5333,           -5.,            0.,NA,NA,"",       7.02340,       3.92748,       5.82263,   3.22916E-06
C:/temp/dataset/3/13_6.odb,Step-1,Increment      1: Step Time =    1.000,"PART-1-1",            54,      -12.7667,           -5.,            0.,NA,NA,"",       7.64920,       4.03263,       6.49986,   4.33422E-06
C:/temp/dataset/3/13_6.odb,Step-1,Increment      1: Step Time =    1.000,"PART-1-1",            55,      -3.83333,           -5.,            0.,NA,NA,"",       5.23595,       3.61084,       3.79170,   867.105E-06
C:/temp/dataset/3/13_6.odb,Step-1,Increment      1: Step Time =    1.000,"PART-1-1",            56,      -6.06667,           -5.,            0.,NA,NA,"",       5.81238,       3.71697,       4.46855,   239.242E-06
C:/temp/dataset/3/13_6.odb,Step-1,Increment      1: Step Time =    1.000,"PART-1-1",            57,       2.80000,           -5.,            0.,NA,NA,"",       3.71221,       3.27114,       1.75504,   13.4795E-03
C:/temp/dataset/3/13_6.odb,Step-1,Increment      1: Step Time =    1.000,"PART-1-1",            58,   600.000E-03,           -5.,            0.,NA,NA,"",       4.17996,       3.39199,       2.44264,   4.66747E-03
C:/temp/dataset/3/13_6.odb,Step-1,Increment      1: Step Time =    1.000,"PART-1-1",            59,            5.,          -10.,            0.,NA,NA,"",       2.06077,       1.88489,   833.035E-03,   66.8383E-03
C:/temp/dataset/3/13_6.odb,Step-1,Increment      1: Step Time =    1.000,"PART-1-1",            60,            5.,          -7.5,            0.,NA,NA,"",       2.64657,       2.48600,   907.806E-03,   65.5145E-03
C:/temp/dataset/3/13_6.odb,Step-1,Increment      1: Step Time =    1.000,"PART-1-1",            61,            5.,         -17.5,            0.,NA,NA,"",   691.838E-03,   514.975E-03,   461.996E-03,   84.7847E-03
C:/temp/dataset/3/13_6.odb,Step-1,Increment      1: Step Time =    1.000,"PART-1-1",            62,            5.,          -15.,            0.,NA,NA,"",       1.08227,   897.412E-03,   604.942E-03,   73.5255E-03
C:/temp/dataset/3/13_6.odb,Step-1,Increment      1: Step Time =    1.000,"PART-1-1",            63,          -2.5,          -20.,            0.,NA,NA,"",   50.8809E-03,   50.4086E-03,   6.91722E-03,   2.60537E-03
C:/temp/dataset/3/13_6.odb,Step-1,Increment      1: Step Time =    1.000,"PART-1-1",            64,            0.,          -20.,            0.,NA,NA,"",   63.8818E-03,   57.1471E-03,   28.5498E-03,   5.07547E-03
C:/temp/dataset/3/13_6.odb,Step-1,Increment      1: Step Time =    1.000,"PART-1-1",            65,           2.5,          -20.,            0.,NA,NA,"",   105.168E-03,   70.7225E-03,   77.8374E-03,   30.6604E-03
C:/temp/dataset/3/13_6.odb,Step-1,Increment      1: Step Time =    1.000,"PART-1-1",            66,         -12.5,          -20.,            0.,NA,NA,"",   46.9259E-03,   46.6582E-03,   5.00502E-03,   222.849E-06
C:/temp/dataset/3/13_6.odb,Step-1,Increment      1: Step Time =    1.000,"PART-1-1",            67,          -10.,          -20.,            0.,NA,NA,"",   46.1639E-03,   46.1618E-03,  -447.899E-06,   111.053E-06
C:/temp/dataset/3/13_6.odb,Step-1,Increment      1: Step Time =    1.000,"PART-1-1",            68,          -7.5,          -20.,            0.,NA,NA,"",   46.4362E-03,   46.3429E-03,  -2.94152E-03,   367.364E-06
C:/temp/dataset/3/13_6.odb,Step-1,Increment      1: Step Time =    1.000,"PART-1-1",            69,          -15.,         -22.5,            0.,NA,NA,"",   41.4361E-03,   39.5339E-03,   12.4106E-03,   212.270E-06
C:/temp/dataset/3/13_6.odb,Step-1,Increment      1: Step Time =    1.000,"PART-1-1",            70,          -15.,         -27.5,            0.,NA,NA,"",   20.1388E-03,   16.9482E-03,   10.8779E-03,   2.62133E-03
C:/temp/dataset/3/13_6.odb,Step-1,Increment      1: Step Time =    1.000,"PART-1-1",            71,          12.5,          -30.,            0.,NA,NA,"",            0.,   17.2241E-39,  -82.2289E-39,   23.7341E-03
C:/temp/dataset/3/13_6.odb,Step-1,Increment      1: Step Time =    1.000,"PART-1-1",            72,           10.,          -30.,            0.,NA,NA,"",            0.,  -46.2593E-39,  -58.0249E-39,   16.8936E-03
C:/temp/dataset/3/13_6.odb,Step-1,Increment      1: Step Time =    1.000,"PART-1-1",            73,           7.5,          -30.,            0.,NA,NA,"",            0.,  -20.3903E-39,   1.46714E-39,   11.0290E-03
C:/temp/dataset/3/13_6.odb,Step-1,Increment      1: Step Time =    1.000,"PART-1-1",            74,            5.,          -30.,            0.,NA,NA,"",            0.,  -15.4984E-39,   44.8152E-39,   9.86384E-03
C:/temp/dataset/3/13_6.odb,Step-1,Increment      1: Step Time =    1.000,"PART-1-1",            75,           2.5,          -30.,            0.,NA,NA,"",            0.,  -538.518E-42,   35.7628E-39,   11.6220E-03
C:/temp/dataset/3/13_6.odb,Step-1,Increment      1: Step Time =    1.000,"PART-1-1",            76,            0.,          -30.,            0.,NA,NA,"",            0.,   9.04690E-39,   18.9617E-39,   11.7441E-03
C:/temp/dataset/3/13_6.odb,Step-1,Increment      1: Step Time =    1.000,"PART-1-1",            77,          -2.5,          -30.,            0.,NA,NA,"",            0.,   28.1504E-39,   35.2425E-39,   10.0657E-03
C:/temp/dataset/3/13_6.odb,Step-1,Increment      1: Step Time =    1.000,"PART-1-1",            78,           -5.,          -30.,            0.,NA,NA,"",            0.,   12.3729E-39,  -1.34406E-39,   7.96968E-03
C:/temp/dataset/3/13_6.odb,Step-1,Increment      1: Step Time =    1.000,"PART-1-1",            79,          -7.5,          -30.,            0.,NA,NA,"",            0.,   10.4451E-39,  -3.67167E-39,   6.10480E-03
C:/temp/dataset/3/13_6.odb,Step-1,Increment      1: Step Time =    1.000,"PART-1-1",            80,          -10.,          -30.,            0.,NA,NA,"",            0.,   12.7197E-39,   13.4568E-39,   4.76505E-03
C:/temp/dataset/3/13_6.odb,Step-1,Increment      1: Step Time =    1.000,"PART-1-1",            81,         -12.5,          -30.,            0.,NA,NA,"",            0.,   11.6193E-39,   12.3909E-39,   3.52030E-03
C:/temp/dataset/3/13_6.odb,Step-1,Increment      1: Step Time =    1.000,"PART-1-1",            82,           15.,          -25.,            0.,NA,NA,"",   198.637E-03,   49.6017E-03,  -192.344E-03,   53.8530E-03
C:/temp/dataset/3/13_6.odb,Step-1,Increment      1: Step Time =    1.000,"PART-1-1",            83,           15.,         -27.5,            0.,NA,NA,"",   88.3109E-03,   25.2756E-03,  -84.6165E-03,   44.5435E-03
C:/temp/dataset/3/13_6.odb,Step-1,Increment      1: Step Time =    1.000,"PART-1-1",            84,           15.,         -17.5,            0.,NA,NA,"",   822.845E-03,   474.297E-03,  -672.397E-03,   77.1179E-03
C:/temp/dataset/3/13_6.odb,Step-1,Increment      1: Step Time =    1.000,"PART-1-1",            85,           15.,          -20.,            0.,NA,NA,"",   551.553E-03,   254.203E-03,  -489.481E-03,   73.7009E-03
C:/temp/dataset/3/13_6.odb,Step-1,Increment      1: Step Time =    1.000,"PART-1-1",            86,           15.,          -10.,            0.,NA,NA,"",       2.08484,       1.65564,      -1.26705,   66.4198E-03
C:/temp/dataset/3/13_6.odb,Step-1,Increment      1: Step Time =    1.000,"PART-1-1",            87,           15.,         -12.5,            0.,NA,NA,"",       1.58935,       1.18064,      -1.06401,   71.2876E-03
C:/temp/dataset/3/13_6.odb,Step-1,Increment      1: Step Time =    1.000,"PART-1-1",            88,           15.,          -2.5,            0.,NA,NA,"",       3.97380,       3.49602,      -1.88916,   44.5902E-03
C:/temp/dataset/3/13_6.odb,Step-1,Increment      1: Step Time =    1.000,"PART-1-1",            89,           15.,           -5.,            0.,NA,NA,"",       3.28539,       2.82146,      -1.68320,   52.5448E-03
C:/temp/dataset/3/13_6.odb,Step-1,Increment      1: Step Time =    1.000,"PART-1-1",            90,           15.,            5.,            0.,NA,NA,"",       6.27565,       5.75322,      -2.50684,   35.5303E-03
C:/temp/dataset/3/13_6.odb,Step-1,Increment      1: Step Time =    1.000,"PART-1-1",            91,           15.,           2.5,            0.,NA,NA,"",       5.47220,       4.96769,      -2.29500,   36.4020E-03
C:/temp/dataset/3/13_6.odb,Step-1,Increment      1: Step Time =    1.000,"PART-1-1",            92,           15.,          12.5,            0.,NA,NA,"",       8.92365,       8.33172,      -3.19592,   26.7042E-03
C:/temp/dataset/3/13_6.odb,Step-1,Increment      1: Step Time =    1.000,"PART-1-1",            93,           15.,           10.,            0.,NA,NA,"",       8.00282,       7.43519,      -2.96026,   30.9961E-03
C:/temp/dataset/3/13_6.odb,Step-1,Increment      1: Step Time =    1.000,"PART-1-1",            94,           15.,           20.,            0.,NA,NA,"",       11.8536,       11.1917,      -3.90575,   12.1337E-03
C:/temp/dataset/3/13_6.odb,Step-1,Increment      1: Step Time =    1.000,"PART-1-1",            95,           15.,          17.5,            0.,NA,NA,"",       10.8545,       10.2148,      -3.67113,   17.1919E-03
C:/temp/dataset/3/13_6.odb,Step-1,Increment      1: Step Time =    1.000,"PART-1-1",            96,           15.,          27.5,            0.,NA,NA,"",       14.9085,       14.1906,      -4.57057,   430.640E-06
C:/temp/dataset/3/13_6.odb,Step-1,Increment      1: Step Time =    1.000,"PART-1-1",            97,           15.,           25.,            0.,NA,NA,"",       13.8872,       13.1862,      -4.35643,   3.03124E-03
C:/temp/dataset/3/13_6.odb,Step-1,Increment      1: Step Time =    1.000,"PART-1-1",            98,           10.,           30.,            0.,NA,NA,"",       15.8583,       15.6120,      -2.78371,   2.70772E-03
C:/temp/dataset/3/13_6.odb,Step-1,Increment      1: Step Time =    1.000,"PART-1-1",            99,          12.5,           30.,            0.,NA,NA,"",       15.8587,       15.4017,      -3.77977,   426.759E-06
C:/temp/dataset/3/13_6.odb,Step-1,Increment      1: Step Time =    1.000,"PART-1-1",           100,           2.5,           30.,            0.,NA,NA,"",       16.2811,       16.2797,   209.325E-03,   7.71424E-03
C:/temp/dataset/3/13_6.odb,Step-1,Increment      1: Step Time =    1.000,"PART-1-1",           101,            5.,           30.,            0.,NA,NA,"",       16.0709,       16.0513,  -793.142E-03,   7.14383E-03
C:/temp/dataset/3/13_6.odb,Step-1,Increment      1: Step Time =    1.000,"PART-1-1",           102,           -5.,           30.,            0.,NA,NA,"",       17.2891,       16.9806,       3.25163,   7.46457E-03
C:/temp/dataset/3/13_6.odb,Step-1,Increment      1: Step Time =    1.000,"PART-1-1",           103,          -2.5,           30.,            0.,NA,NA,"",       16.8931,       16.7450,       2.23245,   7.52945E-03
C:/temp/dataset/3/13_6.odb,Step-1,Increment      1: Step Time =    1.000,"PART-1-1",           104,         -12.5,           30.,            0.,NA,NA,"",       18.7991,       17.6988,       6.33690,   6.70491E-03
C:/temp/dataset/3/13_6.odb,Step-1,Increment      1: Step Time =    1.000,"PART-1-1",           105,          -10.,           30.,            0.,NA,NA,"",       18.2456,       17.4578,       5.30377,   7.39224E-03
C:/temp/dataset/3/13_6.odb,Step-1,Increment      1: Step Time =    1.000,"PART-1-1",           106,          -15.,          27.5,            0.,NA,NA,"",       18.5233,       16.8948,       7.59457,   6.13948E-03
C:/temp/dataset/3/13_6.odb,Step-1,Increment      1: Step Time =    1.000,"PART-1-1",           107,      -12.5013,       25.0052,            0.,NA,NA,"",       17.0211,       15.6124,       6.78018,   3.35295E-03
C:/temp/dataset/3/13_6.odb,Step-1,Increment      1: Step Time =    1.000,"PART-1-1",           108,      -10.0028,       27.5014,            0.,NA,NA,"",       17.3226,       16.4183,       5.52357,   5.34161E-03
C:/temp/dataset/3/13_6.odb,Step-1,Increment      1: Step Time =    1.000,"PART-1-1",           109,      -2.49865,       22.5268,            0.,NA,NA,"",       13.9777,       13.6788,       2.87509,   815.303E-06
C:/temp/dataset/3/13_6.odb,Step-1,Increment      1: Step Time =    1.000,"PART-1-1",           110,      -2.51000,       27.5279,            0.,NA,NA,"",       15.9200,       15.7308,       2.44681,   5.17785E-03
C:/temp/dataset/3/13_6.odb,Step-1,Increment      1: Step Time =    1.000,"PART-1-1",           111,       12.3864,       22.5464,            0.,NA,NA,"",       12.7934,       12.4131,      -3.09636,   7.45886E-03
C:/temp/dataset/3/13_6.odb,Step-1,Increment      1: Step Time =    1.000,"PART-1-1",           112,       7.35369,       17.5509,            0.,NA,NA,"",       10.8357,       10.8116,  -722.204E-03,   9.96772E-03
C:/temp/dataset/3/13_6.odb,Step-1,Increment      1: Step Time =    1.000,"PART-1-1",           113,       12.3201,       14.9467,            0.,NA,NA,"",       9.72424,       9.42270,      -2.40285,   12.2242E-03
C:/temp/dataset/3/13_6.odb,Step-1,Increment      1: Step Time =    1.000,"PART-1-1",           114,       13.2599,       7.39194,            0.,NA,NA,"",       6.95277,       6.62427,      -2.11187,   22.4388E-03
C:/temp/dataset/3/13_6.odb,Step-1,Increment      1: Step Time =    1.000,"PART-1-1",           115,       7.60504,      -5.98204,            0.,NA,NA,"",       2.77035,       2.75645,   277.182E-03,   22.4710E-03
C:/temp/dataset/3/13_6.odb,Step-1,Increment      1: Step Time =    1.000,"PART-1-1",           116,       7.71062,      -13.7665,            0.,NA,NA,"",       1.03619,       1.01017,   230.744E-03,   35.8340E-03
C:/temp/dataset/3/13_6.odb,Step-1,Increment      1: Step Time =    1.000,"PART-1-1",           117,       11.7208,      -22.4938,            0.,NA,NA,"",   159.681E-03,   55.3601E-03,  -149.778E-03,   30.1345E-03
C:/temp/dataset/3/13_6.odb,Step-1,Increment      1: Step Time =    1.000,"PART-1-1",           118,       2.59328,       2.74806,            0.,NA,NA,"",       5.85550,       5.66168,       1.49407,   11.5889E-03
C:/temp/dataset/3/13_6.odb,Step-1,Increment      1: Step Time =    1.000,"PART-1-1",           119,      -1.32361,      -2.98462,            0.,NA,NA,"",       5.04616,       4.10479,       2.93504,   1.02265E-03
C:/temp/dataset/3/13_6.odb,Step-1,Increment      1: Step Time =    1.000,"PART-1-1",           120,      -6.00563,       3.11026,            0.,NA,NA,"",       7.39268,       6.17350,       4.06688,   350.576E-06
C:/temp/dataset/3/13_6.odb,Step-1,Increment      1: Step Time =    1.000,"PART-1-1",           121,      -10.4102,       2.53863,            0.,NA,NA,"",       8.24759,       6.20781,       5.43009,   41.3871E-06
C:/temp/dataset/3/13_6.odb,Step-1,Increment      1: Step Time =    1.000,"PART-1-1",           122,      -12.6184,  -43.2983E-03,            0.,NA,NA,"",       8.32312,       5.52880,       6.22147,   10.3528E-06
C:/temp/dataset/3/13_6.odb,Step-1,Increment      1: Step Time =    1.000,"PART-1-1",           123,      -3.88272,       3.23189,            0.,NA,NA,"",       7.00071,       6.11015,       3.41703,   692.514E-06
C:/temp/dataset/3/13_6.odb,Step-1,Increment      1: Step Time =    1.000,"PART-1-1",           124,       2.98144,      -22.7363,            0.,NA,NA,"",   119.460E-03,   82.7857E-03,   86.1226E-03,   37.1605E-03
C:/temp/dataset/3/13_6.odb,Step-1,Increment      1: Step Time =    1.000,"PART-1-1",           125,      -2.42987,      -22.6294,            0.,NA,NA,"",   58.0674E-03,   56.9936E-03,   11.1153E-03,   6.19598E-03
C:/temp/dataset/3/13_6.odb,Step-1,Increment      1: Step Time =    1.000,"PART-1-1",           126,      -9.97348,      -22.5672,            0.,NA,NA,"",   40.6509E-03,   40.6509E-03,  -30.3574E-06,   1.31427E-03
C:/temp/dataset/3/13_6.odb,Step-1,Increment      1: Step Time =    1.000,"PART-1-1",           127,      -12.4895,      -25.0402,            0.,NA,NA,"",   29.9980E-03,   29.6824E-03,   4.33939E-03,   1.86587E-03
C:/temp/dataset/3/13_6.odb,Step-1,Increment      1: Step Time =    1.000,"PART-1-1",           128,       12.8561,      -14.2595,            0.,NA,NA,"",       1.03751,   864.539E-03,  -573.593E-03,   40.6961E-03
C:/temp/dataset/3/13_6.odb,Step-1,Increment      1: Step Time =    1.000,"PART-1-1",           129,       12.7281,      -7.33650,            0.,NA,NA,"",       2.44609,       2.26451,  -924.852E-03,   33.3509E-03
C:/temp/dataset/3/13_6.odb,Step-1,Increment      1: Step Time =    1.000,"PART-1-1",           130,       12.6427,  -96.8002E-03,            0.,NA,NA,"",       4.47819,       4.26524,      -1.36453,   22.2855E-03
C:/temp/dataset/3/13_6.odb,Step-1,Increment      1: Step Time =    1.000,"PART-1-1",           131,       7.13014,       10.3328,            0.,NA,NA,"",       8.04951,       8.04760,  -175.356E-03,   19.1328E-03
C:/temp/dataset/3/13_6.odb,Step-1,Increment      1: Step Time =    1.000,"PART-1-1",           132,       4.95005,       27.5805,            0.,NA,NA,"",       15.0882,       15.0773,  -573.870E-03,   5.21701E-03
C:/temp/dataset/3/13_6.odb,Step-1,Increment      1: Step Time =    1.000,"PART-1-1",           133,      -4.99957,       22.5148,            0.,NA,NA,"",       14.4331,       13.8958,       3.90171,   783.889E-06
C:/temp/dataset/3/13_6.odb,Step-1,Increment      1: Step Time =    1.000,"PART-1-1",           134,      -7.50186,       22.5094,            0.,NA,NA,"",       14.9546,       14.1176,       4.93296,   764.627E-06
C:/temp/dataset/3/13_6.odb,Step-1,Increment      1: Step Time =    1.000,"PART-1-1",           135,       4.93744,       22.5898,            0.,NA,NA,"",       13.0532,       13.0523,  -155.317E-03,   5.28814E-03
C:/temp/dataset/3/13_6.odb,Step-1,Increment      1: Step Time =    1.000,"PART-1-1",           136,       2.47758,       22.5593,            0.,NA,NA,"",       13.2826,       13.2558,   844.160E-03,   1.67757E-03
C:/temp/dataset/3/13_6.odb,Step-1,Increment      1: Step Time =    1.000,"PART-1-1",           137,  -4.46696E-03,       22.5388,            0.,NA,NA,"",       13.5917,       13.4645,       1.85544,   705.501E-06
C:/temp/dataset/3/13_6.odb,Step-1,Increment      1: Step Time =    1.000,"PART-1-1",           138,       7.20686,       12.6699,            0.,NA,NA,"",       8.92824,       8.92186,  -337.592E-03,   15.8240E-03
C:/temp/dataset/3/13_6.odb,Step-1,Increment      1: Step Time =    1.000,"PART-1-1",           139,       7.30679,       15.0771,            0.,NA,NA,"",       9.85642,       9.84219,  -529.490E-03,   13.2312E-03
C:/temp/dataset/3/13_6.odb,Step-1,Increment      1: Step Time =    1.000,"PART-1-1",           140,       7.52839,       5.66323,            0.,NA,NA,"",       6.35017,       6.34971,  -75.6857E-03,   12.1094E-03
C:/temp/dataset/3/13_6.odb,Step-1,Increment      1: Step Time =    1.000,"PART-1-1",           141,       7.20823,       7.96221,            0.,NA,NA,"",       7.17686,       7.17643,  -78.0099E-03,   22.5453E-03
C:/temp/dataset/3/13_6.odb,Step-1,Increment      1: Step Time =    1.000,"PART-1-1",           142,      -1.77433,       3.17490,            0.,NA,NA,"",       6.60697,       5.99327,       2.78078,   1.04898E-03
C:/temp/dataset/3/13_6.odb,Step-1,Increment      1: Step Time =    1.000,"PART-1-1",           143,   347.975E-03,       3.01142,            0.,NA,NA,"",       6.22808,       5.84583,       2.14829,   1.84605E-03
C:/temp/dataset/3/13_6.odb,Step-1,Increment      1: Step Time =    1.000,"PART-1-1",           144,      -8.17775,       2.85153,            0.,NA,NA,"",       7.80122,       6.19751,       4.73813,   137.843E-06
C:/temp/dataset/3/13_6.odb,Step-1,Increment      1: Step Time =    1.000,"PART-1-1",           145,      -8.45397,      -3.03463,            0.,NA,NA,"",       6.75219,       4.42559,       5.09963,   112.646E-06
C:/temp/dataset/3/13_6.odb,Step-1,Increment      1: Step Time =    1.000,"PART-1-1",           146,      -12.6978,       2.46856,            0.,NA,NA,"",       8.78414,       6.29431,       6.12721,   5.67825E-06
C:/temp/dataset/3/13_6.odb,Step-1,Increment      1: Step Time =    1.000,"PART-1-1",           147,      -10.5225,      -2.72745,            0.,NA,NA,"",       7.34433,       4.61611,       5.71232,   37.2496E-06
C:/temp/dataset/3/13_6.odb,Step-1,Increment      1: Step Time =    1.000,"PART-1-1",           148,      -12.7265,      -2.55241,            0.,NA,NA,"",       7.96173,       4.77297,       6.37244,   5.34023E-06
C:/temp/dataset/3/13_6.odb,Step-1,Increment      1: Step Time =    1.000,"PART-1-1",           149,      -3.80700,      -2.48494,            0.,NA,NA,"",       5.70656,       4.37408,       3.66501,   751.458E-06
C:/temp/dataset/3/13_6.odb,Step-1,Increment      1: Step Time =    1.000,"PART-1-1",           150,      -6.26959,      -2.94549,            0.,NA,NA,"",       6.21090,       4.34984,       4.43330,   322.161E-06
C:/temp/dataset/3/13_6.odb,Step-1,Increment      1: Step Time =    1.000,"PART-1-1",           151,       2.97297,      -3.34056,            0.,NA,NA,"",       4.11897,       3.78433,       1.62627,   14.3178E-03
C:/temp/dataset/3/13_6.odb,Step-1,Increment      1: Step Time =    1.000,"PART-1-1",           152,   836.982E-03,      -3.21922,            0.,NA,NA,"",       4.54622,       3.92999,       2.28545,   2.35530E-03
C:/temp/dataset/3/13_6.odb,Step-1,Increment      1: Step Time =    1.000,"PART-1-1",           153,       7.27849,      -10.7647,            0.,NA,NA,"",       1.65167,       1.61377,   351.813E-03,   39.3030E-03
C:/temp/dataset/3/13_6.odb,Step-1,Increment      1: Step Time =    1.000,"PART-1-1",           154,       7.20650,      -8.25133,            0.,NA,NA,"",       2.22599,       2.19267,   383.701E-03,   37.3375E-03
C:/temp/dataset/3/13_6.odb,Step-1,Increment      1: Step Time =    1.000,"PART-1-1",           155,       7.07274,      -17.3233,            0.,NA,NA,"",   530.955E-03,   477.494E-03,   232.192E-03,   52.0620E-03
C:/temp/dataset/3/13_6.odb,Step-1,Increment      1: Step Time =    1.000,"PART-1-1",           156,       6.55788,      -15.2577,            0.,NA,NA,"",   874.489E-03,   794.636E-03,   365.083E-03,   57.6598E-03
C:/temp/dataset/3/13_6.odb,Step-1,Increment      1: Step Time =    1.000,"PART-1-1",           157,      -7.46685,      -22.5818,            0.,NA,NA,"",   43.6407E-03,   43.6081E-03,  -1.68723E-03,   2.27729E-03
C:/temp/dataset/3/13_6.odb,Step-1,Increment      1: Step Time =    1.000,"PART-1-1",           158,      -4.95694,      -22.5955,            0.,NA,NA,"",   49.0468E-03,   49.0355E-03,   1.05165E-03,   3.73344E-03
C:/temp/dataset/3/13_6.odb,Step-1,Increment      1: Step Time =    1.000,"PART-1-1",           159,   146.162E-03,      -22.6598,            0.,NA,NA,"",   80.4633E-03,   72.0606E-03,   35.7996E-03,   14.6229E-03
C:/temp/dataset/3/13_6.odb,Step-1,Increment      1: Step Time =    1.000,"PART-1-1",           160,      -12.4860,      -22.5306,            0.,NA,NA,"",   39.9037E-03,   39.5990E-03,   4.92187E-03,   392.237E-06
C:/temp/dataset/3/13_6.odb,Step-1,Increment      1: Step Time =    1.000,"PART-1-1",           161,       9.96020,      -27.7814,            0.,NA,NA,"",   30.6657E-03,  -27.1943E-03,  -14.1725E-03,   12.6847E-03
C:/temp/dataset/3/13_6.odb,Step-1,Increment      1: Step Time =    1.000,"PART-1-1",           162,       7.44077,      -27.8946,            0.,NA,NA,"",   20.8482E-03,  -17.3377E-03,   11.5780E-03,   12.1368E-03
C:/temp/dataset/3/13_6.odb,Step-1,Increment      1: Step Time =    1.000,"PART-1-1",           163,       4.93217,      -27.8625,            0.,NA,NA,"",   23.4246E-03,   2.54469E-03,   23.2860E-03,   16.7560E-03
C:/temp/dataset/3/13_6.odb,Step-1,Increment      1: Step Time =    1.000,"PART-1-1",           164,       2.47767,      -27.7470,            0.,NA,NA,"",   29.9904E-03,   20.1045E-03,   22.2539E-03,   15.7848E-03
C:/temp/dataset/3/13_6.odb,Step-1,Increment      1: Step Time =    1.000,"PART-1-1",           165,   19.5837E-03,      -27.6625,            0.,NA,NA,"",   31.5899E-03,   28.0294E-03,   14.5695E-03,   12.2067E-03
C:/temp/dataset/3/13_6.odb,Step-1,Increment      1: Step Time =    1.000,"PART-1-1",           166,      -2.46955,      -27.6154,            0.,NA,NA,"",   29.0058E-03,   28.0295E-03,   7.46185E-03,   9.02138E-03
C:/temp/dataset/3/13_6.odb,Step-1,Increment      1: Step Time =    1.000,"PART-1-1",           167,      -4.97450,      -27.5844,            0.,NA,NA,"",   24.5362E-03,   24.3436E-03,   3.06830E-03,   6.80140E-03
C:/temp/dataset/3/13_6.odb,Step-1,Increment      1: Step Time =    1.000,"PART-1-1",           168,      -7.48283,      -27.5594,            0.,NA,NA,"",   20.2461E-03,   20.2108E-03,   1.19488E-03,   5.34736E-03
C:/temp/dataset/3/13_6.odb,Step-1,Increment      1: Step Time =    1.000,"PART-1-1",           169,       12.2865,      -25.1793,            0.,NA,NA,"",   109.087E-03,  -2.59789E-03,  -109.056E-03,   32.3581E-03
C:/temp/dataset/3/13_6.odb,Step-1,Increment      1: Step Time =    1.000,"PART-1-1",           170,       11.6753,      -16.4340,            0.,NA,NA,"",   632.321E-03,   547.491E-03,  -316.360E-03,   25.1811E-03
C:/temp/dataset/3/13_6.odb,Step-1,Increment      1: Step Time =    1.000,"PART-1-1",           171,       11.9685,      -19.5802,            0.,NA,NA,"",   334.367E-03,   222.777E-03,  -249.342E-03,   32.1261E-03
C:/temp/dataset/3/13_6.odb,Step-1,Increment      1: Step Time =    1.000,"PART-1-1",           172,       13.3291,      -9.93034,            0.,NA,NA,"",       1.89744,       1.66817,  -904.155E-03,   43.1831E-03
C:/temp/dataset/3/13_6.odb,Step-1,Increment      1: Step Time =    1.000,"PART-1-1",           173,       13.4212,      -12.1607,            0.,NA,NA,"",       1.45709,       1.22645,  -786.717E-03,   47.2478E-03
C:/temp/dataset/3/13_6.odb,Step-1,Increment      1: Step Time =    1.000,"PART-1-1",           174,       12.9633,      -2.52247,            0.,NA,NA,"",       3.77247,       3.54271,      -1.29642,   28.5694E-03
C:/temp/dataset/3/13_6.odb,Step-1,Increment      1: Step Time =    1.000,"PART-1-1",           175,       13.1247,      -4.84738,            0.,NA,NA,"",       3.12708,       2.89404,      -1.18456,   34.3553E-03
C:/temp/dataset/3/13_6.odb,Step-1,Increment      1: Step Time =    1.000,"PART-1-1",           176,       13.1131,       5.12757,            0.,NA,NA,"",       6.17187,       5.87739,      -1.88368,   22.8796E-03
C:/temp/dataset/3/13_6.odb,Step-1,Increment      1: Step Time =    1.000,"PART-1-1",           177,       12.1418,       2.60140,            0.,NA,NA,"",       5.29900,       5.11408,      -1.38763,   16.5628E-03
C:/temp/dataset/3/13_6.odb,Step-1,Increment      1: Step Time =    1.000,"PART-1-1",           178,       12.1760,       12.1629,            0.,NA,NA,"",       8.64689,       8.38430,      -2.11477,   13.4183E-03
C:/temp/dataset/3/13_6.odb,Step-1,Increment      1: Step Time =    1.000,"PART-1-1",           179,       13.0236,       9.64002,            0.,NA,NA,"",       7.74113,       7.41801,      -2.21320,   19.2878E-03
C:/temp/dataset/3/13_6.odb,Step-1,Increment      1: Step Time =    1.000,"PART-1-1",           180,       12.3784,       20.0377,            0.,NA,NA,"",       11.7648,       11.4091,      -2.87136,   9.33365E-03
C:/temp/dataset/3/13_6.odb,Step-1,Increment      1: Step Time =    1.000,"PART-1-1",           181,       12.3660,       17.5135,            0.,NA,NA,"",       10.7432,       10.4129,      -2.64356,   10.8195E-03
C:/temp/dataset/3/13_6.odb,Step-1,Increment      1: Step Time =    1.000,"PART-1-1",           182,       12.4264,       25.0333,            0.,NA,NA,"",       13.8189,       13.4118,      -3.32960,   5.21298E-03
C:/temp/dataset/3/13_6.odb,Step-1,Increment      1: Step Time =    1.000,"PART-1-1",           183,       7.43491,       27.5684,            0.,NA,NA,"",       14.9370,       14.8549,      -1.56392,   5.07184E-03
C:/temp/dataset/3/13_6.odb,Step-1,Increment      1: Step Time =    1.000,"PART-1-1",           184,  -17.4965E-03,       27.5503,            0.,NA,NA,"",       15.5778,       15.5119,       1.43134,   5.17547E-03
C:/temp/dataset/3/13_6.odb,Step-1,Increment      1: Step Time =    1.000,"PART-1-1",           185,       2.47067,       27.5656,            0.,NA,NA,"",       15.2986,       15.2927,   423.594E-03,   5.19996E-03
C:/temp/dataset/3/13_6.odb,Step-1,Increment      1: Step Time =    1.000,"PART-1-1",           186,      -7.50286,       27.5043,            0.,NA,NA,"",       16.7964,       16.1843,       4.49304,   5.21952E-03
C:/temp/dataset/3/13_6.odb,Step-1,Increment      1: Step Time =    1.000,"PART-1-1",           187,      -5.00635,       27.5119,            0.,NA,NA,"",       16.3274,       15.9548,       3.46800,   5.19542E-03
C:/temp/dataset/3/13_6.odb,Step-1,Increment      1: Step Time =    1.000,"PART-1-1",           188,      -12.5019,       27.5019,            0.,NA,NA,"",       17.9008,       16.6564,       6.55756,   6.12153E-03
C:/temp/dataset/3/13_6.odb,Step-1,Increment      1: Step Time =    1.000,"PART-1-1",           189,      -12.5001,       22.5034,            0.,NA,NA,"",       16.1653,       14.5679,       7.00658,   796.615E-06
C:/temp/dataset/3/13_6.odb,Step-1,Increment      1: Step Time =    1.000,"PART-1-1",           190,      -5.00429,       25.0191,            0.,NA,NA,"",       15.3751,       14.9273,       3.68373,   2.94749E-03
C:/temp/dataset/3/13_6.odb,Step-1,Increment      1: Step Time =    1.000,"PART-1-1",           191,  -15.9173E-03,       25.0642,            0.,NA,NA,"",       14.5892,       14.4965,       1.64233,   2.86974E-03
C:/temp/dataset/3/13_6.odb,Step-1,Increment      1: Step Time =    1.000,"PART-1-1",           192,       9.74355,       15.0604,            0.,NA,NA,"",       9.75727,       9.65003,      -1.44264,   8.22776E-03
C:/temp/dataset/3/13_6.odb,Step-1,Increment      1: Step Time =    1.000,"PART-1-1",           193,       9.51986,       12.6989,            0.,NA,NA,"",       8.84285,       8.76313,      -1.18466,   8.51459E-03
C:/temp/dataset/3/13_6.odb,Step-1,Increment      1: Step Time =    1.000,"PART-1-1",           194,       12.1898,      -11.7554,            0.,NA,NA,"",       1.42572,       1.30455,  -575.157E-03,   29.6327E-03
C:/temp/dataset/3/13_6.odb,Step-1,Increment      1: Step Time =    1.000,"PART-1-1",           195,       9.78251,      -13.4248,            0.,NA,NA,"",       1.02824,       1.02309,  -102.736E-03,   9.55595E-03
C:/temp/dataset/3/13_6.odb,Step-1,Increment      1: Step Time =    1.000,"PART-1-1",           196,       7.24032,      -19.5057,            0.,NA,NA,"",   267.462E-03,   219.592E-03,   152.694E-03,   28.7775E-03
C:/temp/dataset/3/13_6.odb,Step-1,Increment      1: Step Time =    1.000,"PART-1-1",           197,      -10.0066,  -139.817E-03,            0.,NA,NA,"",       7.64427,       5.37658,       5.43391,   68.6648E-06
C:/temp/dataset/3/13_6.odb,Step-1,Increment      1: Step Time =    1.000,"PART-1-1",           198,      -8.39380,      -1.43672,            0.,NA,NA,"",       7.01020,       4.90742,       5.00601,   141.002E-06
C:/temp/dataset/3/13_6.odb,Step-1,Increment      1: Step Time =    1.000,"PART-1-1",           199,      -5.07121,  -530.035E-03,            0.,NA,NA,"",       6.39636,       5.02670,       3.95546,   565.329E-06
C:/temp/dataset/3/13_6.odb,Step-1,Increment      1: Step Time =    1.000,"PART-1-1",           200,      -12.5003,      -27.5198,            0.,NA,NA,"",   16.1134E-03,   15.8194E-03,   3.06374E-03,   4.04421E-03
C:/temp/dataset/3/13_6.odb,Step-1,Increment      1: Step Time =    1.000,"PART-1-1",           201,       8.97180,      -8.86122,            0.,NA,NA,"",       1.98231,       1.98230,  -3.88952E-03,   14.3257E-03
C:/temp/dataset/3/13_6.odb,Step-1,Increment      1: Step Time =    1.000,"PART-1-1",           202,      -2.50561,       25.0360,            0.,NA,NA,"",       14.9466,       14.7081,       2.65950,   2.86843E-03
C:/temp/dataset/3/13_6.odb,Step-1,Increment      1: Step Time =    1.000,"PART-1-1",           203,      -7.50383,       25.0106,            0.,NA,NA,"",       15.8679,       15.1521,       4.71209,   2.97969E-03
C:/temp/dataset/3/13_6.odb,Step-1,Increment      1: Step Time =    1.000,"PART-1-1",           204,       2.46362,       25.0850,            0.,NA,NA,"",       14.2985,       14.2844,   634.794E-03,   3.39315E-03
C:/temp/dataset/3/13_6.odb,Step-1,Increment      1: Step Time =    1.000,"PART-1-1",           205,       9.17638,       10.5785,            0.,NA,NA,"",       8.04722,       7.99500,  -915.226E-03,   8.98695E-03
C:/temp/dataset/3/13_6.odb,Step-1,Increment      1: Step Time =    1.000,"PART-1-1",           206,       9.65111,       6.46520,            0.,NA,NA,"",       6.55260,       6.50125,  -818.760E-03,   5.34714E-03
C:/temp/dataset/3/13_6.odb,Step-1,Increment      1: Step Time =    1.000,"PART-1-1",           207,      -1.99278,       1.34592,            0.,NA,NA,"",       6.19031,       5.45167,       2.93244,   1.04848E-03
C:/temp/dataset/3/13_6.odb,Step-1,Increment      1: Step Time =    1.000,"PART-1-1",           208,      -5.69490,       1.29843,            0.,NA,NA,"",       6.92388,       5.61005,       4.05802,   449.911E-06
C:/temp/dataset/3/13_6.odb,Step-1,Increment      1: Step Time =    1.000,"PART-1-1",           209,       1.92780,   665.778E-03,            0.,NA,NA,"",       5.36601,       5.06212,       1.78018,   6.25866E-03
C:/temp/dataset/3/13_6.odb,Step-1,Increment      1: Step Time =    1.000,"PART-1-1",           210,       1.26043,      -1.37778,            0.,NA,NA,"",       4.92744,       4.47182,       2.06941,   3.36127E-03
C:/temp/dataset/3/13_6.odb,Step-1,Increment      1: Step Time =    1.000,"PART-1-1",           211,       9.14691,      -16.8280,            0.,NA,NA,"",   503.878E-03,   503.877E-03,   1.22143E-03,   14.0473E-03
C:/temp/dataset/3/13_6.odb,Step-1,Increment      1: Step Time =    1.000,"PART-1-1",           212,   79.9954E-03,      -25.2148,            0.,NA,NA,"",   60.6358E-03,   52.8705E-03,   29.6887E-03,   13.6550E-03
C:/temp/dataset/3/13_6.odb,Step-1,Increment      1: Step Time =    1.000,"PART-1-1",           213,      -9.97865,      -25.0679,            0.,NA,NA,"",   31.1683E-03,   31.1601E-03,   715.928E-06,   2.88033E-03
C:/temp/dataset/3/13_6.odb,Step-1,Increment      1: Step Time =    1.000,"PART-1-1",           214,       12.4671,      -27.6040,            0.,NA,NA,"",   54.1197E-03,  -12.9627E-03,  -52.5444E-03,   30.6552E-03
C:/temp/dataset/3/13_6.odb,Step-1,Increment      1: Step Time =    1.000,"PART-1-1",           215,       9.82463,      -25.6838,            0.,NA,NA,"",   31.1807E-03,  -21.5327E-03,  -22.5517E-03,   14.3176E-03
C:/temp/dataset/3/13_6.odb,Step-1,Increment      1: Step Time =    1.000,"PART-1-1",           216,       2.56344,      -25.3828,            0.,NA,NA,"",   70.8199E-03,   47.1914E-03,   52.8056E-03,   21.1334E-03
C:/temp/dataset/3/13_6.odb,Step-1,Increment      1: Step Time =    1.000,"PART-1-1",           217,      -2.44121,      -25.1518,            0.,NA,NA,"",   49.4813E-03,   48.0261E-03,   11.9117E-03,   8.67887E-03
C:/temp/dataset/3/13_6.odb,Step-1,Increment      1: Step Time =    1.000,"PART-1-1",           218,      -4.95889,      -25.1139,            0.,NA,NA,"",   41.2646E-03,   41.1377E-03,   3.23341E-03,   5.63558E-03
C:/temp/dataset/3/13_6.odb,Step-1,Increment      1: Step Time =    1.000,"PART-1-1",           219,       10.3279,  -771.646E-03,            0.,NA,NA,"",       4.20615,       4.15664,  -643.438E-03,   10.5931E-03
C:/temp/dataset/3/13_6.odb,Step-1,Increment      1: Step Time =    1.000,"PART-1-1",           220,       10.4049,       4.48083,            0.,NA,NA,"",       5.87595,       5.79904,  -947.594E-03,   6.07961E-03
C:/temp/dataset/3/13_6.odb,Step-1,Increment      1: Step Time =    1.000,"PART-1-1",           221,       9.80969,       17.5478,            0.,NA,NA,"",       10.7470,       10.6174,      -1.66393,   8.32967E-03
C:/temp/dataset/3/13_6.odb,Step-1,Increment      1: Step Time =    1.000,"PART-1-1",           222,       9.88106,       25.0797,            0.,NA,NA,"",       13.8372,       13.6404,      -2.32514,   6.49357E-03
C:/temp/dataset/3/13_6.odb,Step-1,Increment      1: Step Time =    1.000,"PART-1-1",           223,       9.94975,       27.5346,            0.,NA,NA,"",       14.8490,       14.6267,      -2.55946,   4.49263E-03
C:/temp/dataset/3/13_6.odb,Step-1,Increment      1: Step Time =    1.000,"PART-1-1",           224,       7.36779,       20.0596,            0.,NA,NA,"",       11.8504,       11.8147,  -919.234E-03,   9.27184E-03
C:/temp/dataset/3/13_6.odb,Step-1,Increment      1: Step Time =    1.000,"PART-1-1",           225,  -693.206E-03,      -1.01900,            0.,NA,NA,"",       5.37295,       4.67433,       2.64938,   1.17452E-03
C:/temp/dataset/3/13_6.odb,Step-1,Increment      1: Step Time =    1.000,"PART-1-1",           226,      -7.47194,      -25.0831,            0.,NA,NA,"",   35.1607E-03,   35.1601E-03,   193.513E-06,   4.07808E-03
C:/temp/dataset/3/13_6.odb,Step-1,Increment      1: Step Time =    1.000,"PART-1-1",           227,       5.28089,       2.25097,            0.,NA,NA,"",       5.42466,       5.37477,   734.034E-03,   26.0796E-03
C:/temp/dataset/3/13_6.odb,Step-1,Increment      1: Step Time =    1.000,"PART-1-1",           228,       9.26575,       8.45073,            0.,NA,NA,"",       7.26227,       7.21694,  -810.168E-03,   9.13827E-03
C:/temp/dataset/3/13_6.odb,Step-1,Increment      1: Step Time =    1.000,"PART-1-1",           229,  -81.3472E-03,       1.02952,            0.,NA,NA,"",       5.77558,       5.26750,       2.36869,   1.30500E-03
C:/temp/dataset/3/13_6.odb,Step-1,Increment      1: Step Time =    1.000,"PART-1-1",           230,      -7.67687,   831.326E-03,            0.,NA,NA,"",       7.26955,       5.56151,       4.68145,   208.251E-06
C:/temp/dataset/3/13_6.odb,Step-1,Increment      1: Step Time =    1.000,"PART-1-1",           231,      -2.54090,  -531.417E-03,            0.,NA,NA,"",       5.85283,       4.90859,       3.18769,   1.01104E-03
C:/temp/dataset/3/13_6.odb,Step-1,Increment      1: Step Time =    1.000,"PART-1-1",           232,      -3.83997,       1.55066,            0.,NA,NA,"",       6.59456,       5.59963,       3.48316,   730.863E-06
C:/temp/dataset/3/13_6.odb,Step-1,Increment      1: Step Time =    1.000,"PART-1-1",           233,      -6.84494,  -996.203E-03,            0.,NA,NA,"",       6.71373,       4.96833,       4.51553,   308.386E-06
C:/temp/dataset/3/13_6.odb,Step-1,Increment      1: Step Time =    1.000,"PART-1-1",           234,       5.51335,      -3.03354,            0.,NA,NA,"",       3.81275,       3.72575,   809.815E-03,   34.7505E-03
C:/temp/dataset/3/13_6.odb,Step-1,Increment      1: Step Time =    1.000,"PART-1-1",           235,       9.62476,      -7.14735,            0.,NA,NA,"",       2.38739,       2.37964,  -192.195E-03,   10.5218E-03
C:/temp/dataset/3/13_6.odb,Step-1,Increment      1: Step Time =    1.000,"PART-1-1",           236,       7.38903,      -25.9371,            0.,NA,NA,"",   33.6335E-03,  -9.38349E-03,   32.2980E-03,   16.5627E-03
C:/temp/dataset/3/13_6.odb,Step-1,Increment      1: Step Time =    1.000,"PART-1-1",           237,       4.96373,      -25.7856,            0.,NA,NA,"",   61.5037E-03,   20.2331E-03,   58.0803E-03,   23.5065E-03
C:/temp/dataset/3/13_6.odb,Step-1,Increment      1: Step Time =    1.000,"PART-1-1",           238,       9.37191,      -21.3805,            0.,NA,NA,"",   91.1614E-03,   90.3770E-03,  -11.9328E-03,   12.8425E-03
C:/temp/dataset/3/13_6.odb,Step-1,Increment      1: Step Time =    1.000,"PART-1-1",           239,       9.53380,      -19.3691,            0.,NA,NA,"",   227.624E-03,   225.171E-03,  -33.3288E-03,   7.10368E-03
C:/temp/dataset/3/13_6.odb,Step-1,Increment      1: Step Time =    1.000,"PART-1-1",           240,       10.5518,      -5.76730,            0.,NA,NA,"",       2.75135,       2.71088,  -470.149E-03,   14.1605E-03
C:/temp/dataset/3/13_6.odb,Step-1,Increment      1: Step Time =    1.000,"PART-1-1",           241,       10.8494,      -2.88140,            0.,NA,NA,"",       3.57429,       3.50791,  -685.637E-03,   15.5655E-03
C:/temp/dataset/3/13_6.odb,Step-1,Increment      1: Step Time =    1.000,"PART-1-1",           242,       9.33979,       1.27198,            0.,NA,NA,"",       4.85474,       4.83424,  -445.775E-03,   8.73586E-03
C:/temp/dataset/3/13_6.odb,Step-1,Increment      1: Step Time =    1.000,"PART-1-1",           243,       9.83335,       20.0603,            0.,NA,NA,"",       11.7674,       11.6161,      -1.88063,   8.99052E-03
C:/temp/dataset/3/13_6.odb,Step-1,Increment      1: Step Time =    1.000,"PART-1-1",           244,       7.39102,       25.1069,            0.,NA,NA,"",       13.9264,       13.8616,      -1.34173,   6.19399E-03
C:/temp/dataset/3/13_6.odb,Step-1,Increment      1: Step Time =    1.000,"PART-1-1",           245,       4.93408,       25.0979,            0.,NA,NA,"",       14.0761,       14.0715,  -361.268E-03,   4.67640E-03
C:/temp/dataset/3/13_6.odb,Step-1,Increment      1: Step Time =    1.000,"PART-1-1",           246,      -10.0026,       25.0068,            0.,NA,NA,"",       16.4184,       15.3808,       5.74413,   3.00031E-03
C:/temp/dataset/3/13_6.odb,Step-1,Increment      1: Step Time =    1.000,"PART-1-1",           247,      -10.0008,       22.5051,            0.,NA,NA,"",       15.5335,       14.3415,       5.96741,   651.850E-06
C:/temp/dataset/3/13_6.odb,Step-1,Increment      1: Step Time =    1.000,"PART-1-1",           248,      -9.99283,      -27.5363,            0.,NA,NA,"",   17.0173E-03,   16.9868E-03,   1.01750E-03,   4.43900E-03
C:/temp/dataset/3/13_6.odb,Step-1,Increment      1: Step Time =    1.000,"PART-1-1",           249,       3.80746,   187.829E-03,            0.,NA,NA,"",       4.97315,       4.81709,       1.23606,   16.5866E-03
C:/temp/dataset/3/13_6.odb,Step-1,Increment      1: Step Time =    1.000,"PART-1-1",           250,       11.4886,       7.12458,            0.,NA,NA,"",       6.78992,       6.62613,      -1.48237,   12.6016E-03
C:/temp/dataset/3/13_6.odb,Step-1,Increment      1: Step Time =    1.000,"PART-1-1",           251,       5.25951,      -23.9756,            0.,NA,NA,"",   104.690E-03,   45.8768E-03,   94.1031E-03,   30.9022E-03
C:/temp/dataset/3/13_6.odb,Step-1,Increment      1: Step Time =    1.000,"PART-1-1",           252,       9.85798,       22.5791,            0.,NA,NA,"",       12.8037,       12.6298,      -2.10351,   8.26448E-03
C:/temp/dataset/3/13_6.odb,Step-1,Increment      1: Step Time =    1.000,"PART-1-1",           253,       7.38133,       22.5911,            0.,NA,NA,"",       12.8899,       12.8403,      -1.12995,   8.20792E-03
C:/temp/dataset/3/13_6.odb,Step-1,Increment      1: Step Time =    1.000,"PART-1-1",           254,       9.03817,      -10.9527,            0.,NA,NA,"",       1.51728,       1.51727,   6.75659E-03,   16.6003E-03
C:/temp/dataset/3/13_6.odb,Step-1,Increment      1: Step Time =    1.000,"PART-1-1",           255,       7.30212,      -21.2110,            0.,NA,NA,"",   155.890E-03,   101.961E-03,   117.922E-03,   25.8667E-03
C:/temp/dataset/3/13_6.odb,Step-1,Increment      1: Step Time =    1.000,"PART-1-1",           256,       8.48263,      -3.88795,            0.,NA,NA,"",       3.30891,       3.30890,  -6.13847E-03,   20.0332E-03
C:/temp/dataset/3/13_6.odb,Step-1,Increment      1: Step Time =    1.000,"PART-1-1",           257,       8.48912,      -1.65164,            0.,NA,NA,"",       3.97798,       3.97715,  -81.4793E-03,   18.8090E-03
C:/temp/dataset/3/13_6.odb,Step-1,Increment      1: Step Time =    1.000,"PART-1-1",           258,       8.19007,       3.36514,            0.,NA,NA,"",       5.56233,       5.55934,  -182.517E-03,   11.6109E-03
C:/temp/dataset/3/13_6.odb,Step-1,Increment      1: Step Time =    1.000,"PART-1-1",           259,       6.78208,  -317.133E-03,            0.,NA,NA,"",       4.49965,       4.48446,   369.427E-03,   23.5141E-03
C:/temp/dataset/3/13_6.odb,Step-1,Increment      1: Step Time =    1.000,"PART-1-1",           260,       11.8604,      -10.2109,            0.,NA,NA,"",       1.72033,       1.62008,  -578.689E-03,   24.7244E-03
C:/temp/dataset/3/13_6.odb,Step-1,Increment      1: Step Time =    1.000,"PART-1-1",           261,       5.00218,  -627.613E-03,            0.,NA,NA,"",       4.58536,       4.49537,   903.987E-03,   23.1773E-03
C:/temp/dataset/3/13_6.odb,Step-1,Increment      1: Step Time =    1.000,"PART-1-1",           262,       11.1460,      -8.45072,            0.,NA,NA,"",       2.08535,       2.02478,  -498.928E-03,   16.9419E-03
C:/temp/dataset/3/13_6.odb,Step-1,Increment      1: Step Time =    1.000,"PART-1-1",           263,       11.7180,       5.54683,            0.,NA,NA,"",       6.25321,       6.08305,      -1.44885,   13.7038E-03
C:/temp/dataset/3/13_6.odb,Step-1,Increment      1: Step Time =    1.000,"PART-1-1",           264,       5.25136,      -21.5985,            0.,NA,NA,"",   193.056E-03,   105.310E-03,   161.804E-03,   48.4984E-03
C:/temp/dataset/3/13_6.odb,Step-1,Increment      1: Step Time =    1.000,"PART-1-1",           265,       12.4723,       27.5096,            0.,NA,NA,"",       14.8388,       14.4055,      -3.56004,   2.67481E-03
C:/temp/dataset/3/13_6.odb,Step-1,Increment      1: Step Time =    1.000,"PART-1-1",           266,       5.87727,      -22.7682,            0.,NA,NA,"",   138.518E-03,   66.7696E-03,   121.363E-03,   33.3848E-03
C:/temp/dataset/3/13_6.odb,Step-1,Increment      1: Step Time =    1.000,"PART-1-1",           267,       7.32369,      -22.7299,            0.,NA,NA,"",   98.4308E-03,   47.6827E-03,   86.1103E-03,   24.8458E-03
C:/temp/dataset/3/13_6.odb,Step-1,Increment      1: Step Time =    1.000,"PART-1-1",           268,       11.4923,      -4.55460,            0.,NA,NA,"",       3.11052,       3.01348,  -770.881E-03,   20.6582E-03
C:/temp/dataset/3/13_6.odb,Step-1,Increment      1: Step Time =    1.000,"PART-1-1",           269,       11.2115,       8.96325,            0.,NA,NA,"",       7.43965,       7.28278,      -1.51969,   10.6564E-03
C:/temp/dataset/3/13_6.odb,Step-1,Increment      1: Step Time =    1.000,"PART-1-1",           270,       10.8046,       10.5255,            0.,NA,NA,"",       8.00971,       7.86978,      -1.49064,   9.02550E-03
C:/temp/dataset/3/13_6.odb,Step-1,Increment      1: Step Time =    1.000,"PART-1-1",           271,       7.35536,      -24.2380,            0.,NA,NA,"",   58.5641E-03,   13.4331E-03,   57.0027E-03,   20.7323E-03
C:/temp/dataset/3/13_6.odb,Step-1,Increment      1: Step Time =    1.000,"PART-1-1",           272,      -3.82134,   150.711E-03,            0.,NA,NA,"",       6.27202,       5.17487,       3.54387,   795.436E-06
C:/temp/dataset/3/13_6.odb,Step-1,Increment      1: Step Time =    1.000,"PART-1-1",           273,       3.09609,      -1.70207,            0.,NA,NA,"",       4.53936,       4.27840,       1.51693,   13.5293E-03
C:/temp/dataset/3/13_6.odb,Step-1,Increment      1: Step Time =    1.000,"PART-1-1",           274,       4.56419,      -1.78689,            0.,NA,NA,"",       4.30135,       4.16673,       1.06769,   22.5816E-03
C:/temp/dataset/3/13_6.odb,Step-1,Increment      1: Step Time =    1.000,"PART-1-1",           275,       9.44492,      -23.8624,            0.,NA,NA,"",   15.1174E-03,   6.36901E-03,  -13.7102E-03,   15.0974E-03
C:/temp/dataset/3/13_6.odb,Step-1,Increment      1: Step Time =    1.000,"PART-1-1",           276,       8.77427,      -22.6651,            0.,NA,NA,"",   45.1440E-03,   39.9106E-03,   21.0978E-03,   15.6109E-03
C:/temp/dataset/3/13_6.odb,Step-1,Increment      1: Step Time =    1.000,"PART-1-1",           277,       10.1837,      -9.28900,            0.,NA,NA,"",       1.86971,       1.85176,  -258.468E-03,   8.74611E-03
C:/temp/dataset/3/13_6.odb,Step-1,Increment      1: Step Time =    1.000,"PART-1-1",           278,       10.4979,      -10.7612,            0.,NA,NA,"",       1.55061,       1.52455,  -283.079E-03,   9.64007E-03
C:/temp/dataset/3/13_6.odb,Step-1,Increment      1: Step Time =    1.000,"PART-1-1",           279,       11.2325,      -12.6180,            0.,NA,NA,"",       1.20641,       1.14914,  -367.287E-03,   17.1441E-03
C:/temp/dataset/3/13_6.odb,Step-1,Increment      1: Step Time =    1.000,"PART-1-1",           280,      -13.7500,       22.5017,            0.,NA,NA,"",       16.4992,       14.6816,       7.52831,   881.774E-06
C:/temp/dataset/3/13_6.odb,Step-1,Increment      1: Step Time =    1.000,"PART-1-1",           281,          -15.,         21.25,            0.,NA,NA,"",       16.4432,       14.2741,       8.16271,   320.019E-06
C:/temp/dataset/3/13_6.odb,Step-1,Increment      1: Step Time =    1.000,"PART-1-1",           282,        -13.75,           20.,            0.,NA,NA,"",       15.6902,       13.6396,       7.75527,   353.169E-06
C:/temp/dataset/3/13_6.odb,Step-1,Increment      1: Step Time =    1.000,"PART-1-1",           283,      -12.5000,       21.2517,            0.,NA,NA,"",       15.7488,       14.0473,       7.12025,   619.028E-06
C:/temp/dataset/3/13_6.odb,Step-1,Increment      1: Step Time =    1.000,"PART-1-1",           284,        -11.25,           30.,            0.,NA,NA,"",       18.5166,       17.5782,       5.81972,   7.09269E-03
C:/temp/dataset/3/13_6.odb,Step-1,Increment      1: Step Time =    1.000,"PART-1-1",           285,      -12.5009,       28.7510,            0.,NA,NA,"",       18.3475,       17.1774,       6.44724,   6.29714E-03
C:/temp/dataset/3/13_6.odb,Step-1,Increment      1: Step Time =    1.000,"PART-1-1",           286,      -11.2523,       27.5017,            0.,NA,NA,"",       17.6055,       16.5370,       6.04012,   5.65014E-03
C:/temp/dataset/3/13_6.odb,Step-1,Increment      1: Step Time =    1.000,"PART-1-1",           287,      -10.0014,       28.7507,            0.,NA,NA,"",       17.7819,       16.9379,       5.41343,   6.35045E-03
C:/temp/dataset/3/13_6.odb,Step-1,Increment      1: Step Time =    1.000,"PART-1-1",           288,      -8.75282,       27.5029,            0.,NA,NA,"",       17.0529,       16.3010,       5.00775,   5.28694E-03
C:/temp/dataset/3/13_6.odb,Step-1,Increment      1: Step Time =    1.000,"PART-1-1",           289,      -10.0027,       26.2541,            0.,NA,NA,"",       16.8680,       15.8995,       5.63350,   4.20352E-03
C:/temp/dataset/3/13_6.odb,Step-1,Increment      1: Step Time =    1.000,"PART-1-1",           290,      -8.75320,       25.0087,            0.,NA,NA,"",       16.1365,       15.2662,       5.22758,   2.98786E-03
C:/temp/dataset/3/13_6.odb,Step-1,Increment      1: Step Time =    1.000,"PART-1-1",           291,      -7.50334,       26.2575,            0.,NA,NA,"",       16.3300,       15.6681,       4.60227,   4.10787E-03
C:/temp/dataset/3/13_6.odb,Step-1,Increment      1: Step Time =    1.000,"PART-1-1",           292,  -10.1921E-03,       23.8015,            0.,NA,NA,"",       14.0893,       13.9804,       1.74862,   1.75371E-03
C:/temp/dataset/3/13_6.odb,Step-1,Increment      1: Step Time =    1.000,"PART-1-1",           293,       1.23656,       22.5490,            0.,NA,NA,"",       13.4280,       13.3600,       1.34917,   951.402E-06
C:/temp/dataset/3/13_6.odb,Step-1,Increment      1: Step Time =    1.000,"PART-1-1",           294,       2.47060,       23.8222,            0.,NA,NA,"",       13.7900,       13.7702,   738.952E-03,   2.20298E-03
C:/temp/dataset/3/13_6.odb,Step-1,Increment      1: Step Time =    1.000,"PART-1-1",           295,       1.22385,       25.0746,            0.,NA,NA,"",       14.4352,       14.3903,       1.13800,   3.01542E-03
C:/temp/dataset/3/13_6.odb,Step-1,Increment      1: Step Time =    1.000,"PART-1-1",           296,       13.7132,       25.0166,            0.,NA,NA,"",       13.8431,       13.2995,      -3.84118,   3.59187E-03
C:/temp/dataset/3/13_6.odb,Step-1,Increment      1: Step Time =    1.000,"PART-1-1",           297,           15.,         26.25,            0.,NA,NA,"",       14.3981,       13.6885,      -4.46432,   1.71691E-03
C:/temp/dataset/3/13_6.odb,Step-1,Increment      1: Step Time =    1.000,"PART-1-1",           298,       13.7362,       27.5048,            0.,NA,NA,"",       14.8647,       14.2982,      -4.06437,   1.36130E-03
C:/temp/dataset/3/13_6.odb,Step-1,Increment      1: Step Time =    1.000,"PART-1-1",           299,       12.4494,       26.2714,            0.,NA,NA,"",       14.3294,       13.9090,      -3.44542,   3.90743E-03
C:/temp/dataset/3/13_6.odb,Step-1,Increment      1: Step Time =    1.000,"PART-1-1",           300,       6.19248,       27.5744,            0.,NA,NA,"",       15.0036,       14.9654,      -1.06971,   5.05737E-03
C:/temp/dataset/3/13_6.odb,Step-1,Increment      1: Step Time =    1.000,"PART-1-1",           301,       7.46746,       28.7842,            0.,NA,NA,"",       15.4340,       15.3426,      -1.67742,   4.97691E-03
C:/temp/dataset/3/13_6.odb,Step-1,Increment      1: Step Time =    1.000,"PART-1-1",           302,          6.25,           30.,            0.,NA,NA,"",       15.9913,       15.9390,      -1.29207,   6.30432E-03
C:/temp/dataset/3/13_6.odb,Step-1,Increment      1: Step Time =    1.000,"PART-1-1",           303,       4.97503,       28.7903,            0.,NA,NA,"",       15.5798,       15.5648,  -683.934E-03,   6.08921E-03
C:/temp/dataset/3/13_6.odb,Step-1,Increment      1: Step Time =    1.000,"PART-1-1",           304,       11.0878,       17.5306,            0.,NA,NA,"",       10.7324,       10.5143,      -2.15276,   8.69546E-03
C:/temp/dataset/3/13_6.odb,Step-1,Increment      1: Step Time =    1.000,"PART-1-1",           305,       12.3722,       18.7756,            0.,NA,NA,"",       11.2519,       10.9089,      -2.75719,   10.0436E-03
C:/temp/dataset/3/13_6.odb,Step-1,Increment      1: Step Time =    1.000,"PART-1-1",           306,       11.1059,       20.0490,            0.,NA,NA,"",       11.7545,       11.5120,      -2.37509,   8.51299E-03
C:/temp/dataset/3/13_6.odb,Step-1,Increment      1: Step Time =    1.000,"PART-1-1",           307,       9.82152,       18.8041,            0.,NA,NA,"",       11.2551,       11.1148,      -1.77146,   8.67814E-03
C:/temp/dataset/3/13_6.odb,Step-1,Increment      1: Step Time =    1.000,"PART-1-1",           308,       9.63171,       13.8797,            0.,NA,NA,"",       9.29709,       9.20407,      -1.31183,   8.30562E-03
C:/temp/dataset/3/13_6.odb,Step-1,Increment      1: Step Time =    1.000,"PART-1-1",           309,       8.52517,       15.0687,            0.,NA,NA,"",       9.79418,       9.74437,  -986.491E-03,   9.36225E-03
C:/temp/dataset/3/13_6.odb,Step-1,Increment      1: Step Time =    1.000,"PART-1-1",           310,       7.25683,       13.8735,            0.,NA,NA,"",       9.38938,       9.37946,  -431.537E-03,   14.5080E-03
C:/temp/dataset/3/13_6.odb,Step-1,Increment      1: Step Time =    1.000,"PART-1-1",           311,       8.36336,       12.6844,            0.,NA,NA,"",       8.87336,       8.84064,  -761.361E-03,   11.0307E-03
C:/temp/dataset/3/13_6.odb,Step-1,Increment      1: Step Time =    1.000,"PART-1-1",           312,       14.0118,       9.82001,            0.,NA,NA,"",       7.86283,       7.42611,      -2.58398,   24.9478E-03
C:/temp/dataset/3/13_6.odb,Step-1,Increment      1: Step Time =    1.000,"PART-1-1",           313,           15.,         11.25,            0.,NA,NA,"",       8.45897,       7.87919,      -3.07775,   28.8387E-03
C:/temp/dataset/3/13_6.odb,Step-1,Increment      1: Step Time =    1.000,"PART-1-1",           314,       13.5880,       12.3315,            0.,NA,NA,"",       8.76751,       8.35721,      -2.65070,   19.4794E-03
C:/temp/dataset/3/13_6.odb,Step-1,Increment      1: Step Time =    1.000,"PART-1-1",           315,       12.5998,       10.9015,            0.,NA,NA,"",       8.18708,       7.89558,      -2.16518,   16.1488E-03
C:/temp/dataset/3/13_6.odb,Step-1,Increment      1: Step Time =    1.000,"PART-1-1",           316,       4.40482,  -219.892E-03,            0.,NA,NA,"",       4.77866,       4.65720,       1.07056,   20.1631E-03
C:/temp/dataset/3/13_6.odb,Step-1,Increment      1: Step Time =    1.000,"PART-1-1",           317,       3.45177,  -757.122E-03,            0.,NA,NA,"",       4.75026,       4.54700,       1.37468,   14.1097E-03
C:/temp/dataset/3/13_6.odb,Step-1,Increment      1: Step Time =    1.000,"PART-1-1",           318,       3.83014,      -1.74448,            0.,NA,NA,"",       4.41678,       4.22339,       1.29261,   18.5318E-03
C:/temp/dataset/3/13_6.odb,Step-1,Increment      1: Step Time =    1.000,"PART-1-1",           319,       4.78319,      -1.20725,            0.,NA,NA,"",       4.44135,       4.33077,   984.914E-03,   22.2546E-03
C:/temp/dataset/3/13_6.odb,Step-1,Increment      1: Step Time =    1.000,"PART-1-1",           320,       10.3408,      -10.0251,            0.,NA,NA,"",       1.70633,       1.68464,  -271.222E-03,   9.02985E-03
C:/temp/dataset/3/13_6.odb,Step-1,Increment      1: Step Time =    1.000,"PART-1-1",           321,       11.1792,      -10.4860,            0.,NA,NA,"",       1.62823,       1.57093,  -428.123E-03,   16.4075E-03
C:/temp/dataset/3/13_6.odb,Step-1,Increment      1: Step Time =    1.000,"PART-1-1",           322,       11.5032,      -9.33080,            0.,NA,NA,"",       1.89580,       1.81690,  -541.227E-03,   20.5675E-03
C:/temp/dataset/3/13_6.odb,Step-1,Increment      1: Step Time =    1.000,"PART-1-1",           323,       10.6649,      -8.86986,            0.,NA,NA,"",       1.97331,       1.93719,  -375.814E-03,   11.8374E-03
C:/temp/dataset/3/13_6.odb,Step-1,Increment      1: Step Time =    1.000,"PART-1-1",           324,       9.41034,      -12.1888,            0.,NA,NA,"",       1.26031,       1.25924,  -51.8724E-03,   12.5698E-03
C:/temp/dataset/3/13_6.odb,Step-1,Increment      1: Step Time =    1.000,"PART-1-1",           325,       10.5075,      -13.0214,            0.,NA,NA,"",       1.10881,       1.08457,  -230.587E-03,   9.19403E-03
C:/temp/dataset/3/13_6.odb,Step-1,Increment      1: Step Time =    1.000,"PART-1-1",           326,       10.8652,      -11.6896,            0.,NA,NA,"",       1.37032,       1.33049,  -327.997E-03,   12.9464E-03
C:/temp/dataset/3/13_6.odb,Step-1,Increment      1: Step Time =    1.000,"PART-1-1",           327,       9.76802,      -10.8570,            0.,NA,NA,"",       1.52555,       1.51937,  -137.246E-03,   9.13538E-03
C:/temp/dataset/3/13_6.odb,Step-1,Increment      1: Step Time =    1.000,"PART-1-1",           328,       6.12016,      -19.7528,            0.,NA,NA,"",   287.920E-03,   190.177E-03,   216.173E-03,   65.6633E-03
C:/temp/dataset/3/13_6.odb,Step-1,Increment      1: Step Time =    1.000,"PART-1-1",           329,       7.15653,      -18.4145,            0.,NA,NA,"",   377.339E-03,   329.271E-03,   184.296E-03,   37.1628E-03
C:/temp/dataset/3/13_6.odb,Step-1,Increment      1: Step Time =    1.000,"PART-1-1",           330,       6.03637,      -17.4116,            0.,NA,NA,"",   592.974E-03,   487.978E-03,   336.891E-03,   65.9371E-03
C:/temp/dataset/3/13_6.odb,Step-1,Increment      1: Step Time =    1.000,"PART-1-1",           331,            5.,        -18.75,            0.,NA,NA,"",   499.867E-03,   350.965E-03,   355.937E-03,   110.364E-03
C:/temp/dataset/3/13_6.odb,Step-1,Increment      1: Step Time =    1.000,"PART-1-1",           332,       13.3604,      -22.4969,            0.,NA,NA,"",   258.023E-03,   78.9584E-03,  -245.645E-03,   46.2905E-03
C:/temp/dataset/3/13_6.odb,Step-1,Increment      1: Step Time =    1.000,"PART-1-1",           333,           15.,        -21.25,            0.,NA,NA,"",   442.615E-03,   176.784E-03,  -405.778E-03,   69.5254E-03
C:/temp/dataset/3/13_6.odb,Step-1,Increment      1: Step Time =    1.000,"PART-1-1",           334,       13.4842,      -19.7901,            0.,NA,NA,"",   441.328E-03,   230.473E-03,  -376.368E-03,   52.4241E-03
C:/temp/dataset/3/13_6.odb,Step-1,Increment      1: Step Time =    1.000,"PART-1-1",           335,       11.8446,      -21.0370,            0.,NA,NA,"",   232.143E-03,   124.282E-03,  -196.072E-03,   30.8191E-03
C:/temp/dataset/3/13_6.odb,Step-1,Increment      1: Step Time =    1.000,"PART-1-1",           336,       1.65000,            5.,            0.,NA,NA,"",       6.59202,       6.37630,       1.67259,   2.79374E-03
C:/temp/dataset/3/13_6.odb,Step-1,Increment      1: Step Time =    1.000,"PART-1-1",           337,   440.654E-03,       4.00571,            0.,NA,NA,"",       6.47977,       6.13841,       2.07543,   1.71265E-03
C:/temp/dataset/3/13_6.odb,Step-1,Increment      1: Step Time =    1.000,"PART-1-1",           338,       1.47063,       2.87974,            0.,NA,NA,"",       6.03556,       5.75459,       1.82006,   4.79410E-03
C:/temp/dataset/3/13_6.odb,Step-1,Increment      1: Step Time =    1.000,"PART-1-1",           339,       2.67998,       3.87403,            0.,NA,NA,"",       6.16689,       6.00060,       1.42244,   4.65079E-03
C:/temp/dataset/3/13_6.odb,Step-1,Increment      1: Step Time =    1.000,"PART-1-1",           340,      -1.46180,      -3.99231,            0.,NA,NA,"",       4.85968,       3.80360,       3.02475,   1.15680E-03
C:/temp/dataset/3/13_6.odb,Step-1,Increment      1: Step Time =    1.000,"PART-1-1",           341,     -500.E-03,           -5.,            0.,NA,NA,"",       4.42906,       3.44840,       2.77940,   3.02383E-03
C:/temp/dataset/3/13_6.odb,Step-1,Increment      1: Step Time =    1.000,"PART-1-1",           342,   718.491E-03,      -4.10961,            0.,NA,NA,"",       4.35816,       3.66061,       2.36505,   1.99500E-03
C:/temp/dataset/3/13_6.odb,Step-1,Increment      1: Step Time =    1.000,"PART-1-1",           343,  -243.313E-03,      -3.10192,            0.,NA,NA,"",       4.79146,       4.01748,       2.61112,   747.180E-06
C:/temp/dataset/3/13_6.odb,Step-1,Increment      1: Step Time =    1.000,"PART-1-1",           344,      -3.82017,      -3.74247,            0.,NA,NA,"",       5.46269,       3.99227,       3.72864,   595.934E-06
C:/temp/dataset/3/13_6.odb,Step-1,Increment      1: Step Time =    1.000,"PART-1-1",           345,      -2.71667,           -5.,            0.,NA,NA,"",       4.95764,       3.55717,       3.45323,   1.35452E-03
C:/temp/dataset/3/13_6.odb,Step-1,Increment      1: Step Time =    1.000,"PART-1-1",           346,      -2.56530,      -2.73478,            0.,NA,NA,"",       5.37275,       4.23965,       3.30027,   894.218E-06
C:/temp/dataset/3/13_6.odb,Step-1,Increment      1: Step Time =    1.000,"PART-1-1",           347,      -13.8092,  -21.6491E-03,            0.,NA,NA,"",       8.63605,       5.59144,       6.58158,   2.75765E-06
C:/temp/dataset/3/13_6.odb,Step-1,Increment      1: Step Time =    1.000,"PART-1-1",           348,      -12.6581,       1.21263,            0.,NA,NA,"",       8.54804,       5.91155,       6.17434,   8.45461E-06
C:/temp/dataset/3/13_6.odb,Step-1,Increment      1: Step Time =    1.000,"PART-1-1",           349,      -13.8489,       2.48428,            0.,NA,NA,"",       9.07180,       6.35329,       6.47558,   1.23710E-06
C:/temp/dataset/3/13_6.odb,Step-1,Increment      1: Step Time =    1.000,"PART-1-1",           350,          -15.,          1.25,            0.,NA,NA,"",       9.15273,       6.03318,       6.88282,   5.72619E-06
C:/temp/dataset/3/13_6.odb,Step-1,Increment      1: Step Time =    1.000,"PART-1-1",           351,      -8.84172,   345.754E-03,            0.,NA,NA,"",       7.44921,       5.46903,       5.05771,   133.655E-06
C:/temp/dataset/3/13_6.odb,Step-1,Increment      1: Step Time =    1.000,"PART-1-1",           352,      -9.20019,  -788.270E-03,            0.,NA,NA,"",       7.32720,       5.14200,       5.21994,   101.058E-06
C:/temp/dataset/3/13_6.odb,Step-1,Increment      1: Step Time =    1.000,"PART-1-1",           353,      -7.61937,      -1.21646,            0.,NA,NA,"",       6.85911,       4.93784,       4.76078,   218.483E-06
C:/temp/dataset/3/13_6.odb,Step-1,Increment      1: Step Time =    1.000,"PART-1-1",           354,      -7.26090,  -82.4387E-03,            0.,NA,NA,"",       6.99037,       5.26493,       4.59845,   235.485E-06
C:/temp/dataset/3/13_6.odb,Step-1,Increment      1: Step Time =    1.000,"PART-1-1",           355,      -12.7466,      -3.77621,            0.,NA,NA,"",       7.79799,       4.40280,       6.43615,   2.22954E-06
C:/temp/dataset/3/13_6.odb,Step-1,Increment      1: Step Time =    1.000,"PART-1-1",           356,      -13.8633,      -2.52621,            0.,NA,NA,"",       8.27499,       4.83445,       6.71592,   1.27567E-06
C:/temp/dataset/3/13_6.odb,Step-1,Increment      1: Step Time =    1.000,"PART-1-1",           357,          -15.,         -3.75,            0.,NA,NA,"",       8.43040,       4.51686,       7.11826,   2.17252E-06
C:/temp/dataset/3/13_6.odb,Step-1,Increment      1: Step Time =    1.000,"PART-1-1",           358,      -13.8833,           -5.,            0.,NA,NA,"",       7.96580,       4.08521,       6.83849,   1.67847E-06
C:/temp/dataset/3/13_6.odb,Step-1,Increment      1: Step Time =    1.000,"PART-1-1",           359,      -5.03830,      -2.71522,            0.,NA,NA,"",       5.95165,       4.36187,       4.04922,   541.118E-06
C:/temp/dataset/3/13_6.odb,Step-1,Increment      1: Step Time =    1.000,"PART-1-1",           360,      -4.43911,      -1.50749,            0.,NA,NA,"",       6.05088,       4.70059,       3.81020,   575.877E-06
C:/temp/dataset/3/13_6.odb,Step-1,Increment      1: Step Time =    1.000,"PART-1-1",           361,      -5.95808,  -763.119E-03,            0.,NA,NA,"",       6.55090,       4.99747,       4.23552,   426.601E-06
C:/temp/dataset/3/13_6.odb,Step-1,Increment      1: Step Time =    1.000,"PART-1-1",           362,      -6.55726,      -1.97085,            0.,NA,NA,"",       6.45972,       4.65913,       4.47443,   285.924E-06
C:/temp/dataset/3/13_6.odb,Step-1,Increment      1: Step Time =    1.000,"PART-1-1",           363,          6.25,          -30.,            0.,NA,NA,"",            0.,  -6.03937E-39,   12.5689E-39,   9.01027E-03
C:/temp/dataset/3/13_6.odb,Step-1,Increment      1: Step Time =    1.000,"PART-1-1",           364,       7.47038,      -28.9473,            0.,NA,NA,"",   13.3906E-03,  -12.7488E-03,   4.09605E-03,   10.4735E-03
C:/temp/dataset/3/13_6.odb,Step-1,Increment      1: Step Time =    1.000,"PART-1-1",           365,       6.18647,      -27.8786,            0.,NA,NA,"",   20.9729E-03,  -7.96974E-03,   19.3997E-03,   13.7739E-03
C:/temp/dataset/3/13_6.odb,Step-1,Increment      1: Step Time =    1.000,"PART-1-1",           366,       4.96608,      -28.9312,            0.,NA,NA,"",   9.75394E-03,  -800.158E-06,   9.72106E-03,   12.7391E-03
C:/temp/dataset/3/13_6.odb,Step-1,Increment      1: Step Time =    1.000,"PART-1-1",           367,       3.70492,      -27.8047,            0.,NA,NA,"",   27.1091E-03,   12.2302E-03,   24.1935E-03,   15.9680E-03
C:/temp/dataset/3/13_6.odb,Step-1,Increment      1: Step Time =    1.000,"PART-1-1",           368,       2.48883,      -28.8735,            0.,NA,NA,"",   14.0480E-03,   9.88762E-03,   9.97901E-03,   13.4470E-03
C:/temp/dataset/3/13_6.odb,Step-1,Increment      1: Step Time =    1.000,"PART-1-1",           369,          3.75,          -30.,            0.,NA,NA,"",            0.,   2.39001E-39,   19.0106E-39,   10.1337E-03
C:/temp/dataset/3/13_6.odb,Step-1,Increment      1: Step Time =    1.000,"PART-1-1",           370,      -3.72203,      -27.5999,            0.,NA,NA,"",   26.8746E-03,   26.4256E-03,   4.89225E-03,   7.83799E-03
C:/temp/dataset/3/13_6.odb,Step-1,Increment      1: Step Time =    1.000,"PART-1-1",           371,      -4.98725,      -28.7922,            0.,NA,NA,"",   13.3137E-03,   13.1650E-03,   1.98429E-03,   7.29033E-03
C:/temp/dataset/3/13_6.odb,Step-1,Increment      1: Step Time =    1.000,"PART-1-1",           372,         -3.75,          -30.,            0.,NA,NA,"",            0.,   8.05774E-39,   6.85884E-39,   8.98414E-03
C:/temp/dataset/3/13_6.odb,Step-1,Increment      1: Step Time =    1.000,"PART-1-1",           373,      -2.48478,      -28.8077,            0.,NA,NA,"",   15.7976E-03,   15.2754E-03,   4.02811E-03,   9.46377E-03
C:/temp/dataset/3/13_6.odb,Step-1,Increment      1: Step Time =    1.000,"PART-1-1",           374,      -13.7501,      -27.5099,            0.,NA,NA,"",   16.5061E-03,   15.7264E-03,   5.01343E-03,   2.68797E-03
C:/temp/dataset/3/13_6.odb,Step-1,Increment      1: Step Time =    1.000,"PART-1-1",           375,          -15.,        -28.75,            0.,NA,NA,"",   11.1253E-03,   9.11554E-03,   6.37800E-03,   4.88377E-03
C:/temp/dataset/3/13_6.odb,Step-1,Increment      1: Step Time =    1.000,"PART-1-1",           376,        -13.75,          -30.,            0.,NA,NA,"",            0.,   1.43461E-39,   5.28358E-39,   5.37543E-03
C:/temp/dataset/3/13_6.odb,Step-1,Increment      1: Step Time =    1.000,"PART-1-1",           377,      -12.5001,      -28.7599,            0.,NA,NA,"",   7.46494E-03,   7.32186E-03,   1.45457E-03,   3.92029E-03
C:/temp/dataset/3/13_6.odb,Step-1,Increment      1: Step Time =    1.000,"PART-1-1",           378,       8.15833,      -10.8587,            0.,NA,NA,"",       1.57320,       1.56313,   177.777E-03,   27.2426E-03
C:/temp/dataset/3/13_6.odb,Step-1,Increment      1: Step Time =    1.000,"PART-1-1",           379,       9.00498,      -9.90697,            0.,NA,NA,"",       1.74381,       1.74381,   2.54646E-03,   16.0040E-03
C:/temp/dataset/3/13_6.odb,Step-1,Increment      1: Step Time =    1.000,"PART-1-1",           380,       8.08915,      -8.55627,            0.,NA,NA,"",       2.09281,       2.08439,   187.452E-03,   26.1463E-03
C:/temp/dataset/3/13_6.odb,Step-1,Increment      1: Step Time =    1.000,"PART-1-1",           381,       7.24249,      -9.50802,            0.,NA,NA,"",       1.92983,       1.89387,   370.790E-03,   37.3868E-03
C:/temp/dataset/3/13_6.odb,Step-1,Increment      1: Step Time =    1.000,"PART-1-1",           382,       13.9816,      -2.51124,            0.,NA,NA,"",       3.86037,       3.51799,      -1.58940,   36.1875E-03
C:/temp/dataset/3/13_6.odb,Step-1,Increment      1: Step Time =    1.000,"PART-1-1",           383,           15.,         -1.25,            0.,NA,NA,"",       4.33477,       3.85071,      -1.99054,   41.6467E-03
C:/temp/dataset/3/13_6.odb,Step-1,Increment      1: Step Time =    1.000,"PART-1-1",           384,       13.8213,  -48.4001E-03,            0.,NA,NA,"",       4.57572,       4.23821,      -1.72474,   30.3614E-03
C:/temp/dataset/3/13_6.odb,Step-1,Increment      1: Step Time =    1.000,"PART-1-1",           385,       12.8030,      -1.30964,            0.,NA,NA,"",       4.12038,       3.89935,      -1.33139,   25.4594E-03
C:/temp/dataset/3/13_6.odb,Step-1,Increment      1: Step Time =    1.000,"PART-1-1",           386,           15.,          1.25,            0.,NA,NA,"",       5.08441,       4.58730,      -2.19270,   37.5182E-03
C:/temp/dataset/3/13_6.odb,Step-1,Increment      1: Step Time =    1.000,"PART-1-1",           387,       13.5709,       2.55070,            0.,NA,NA,"",       5.36307,       5.03776,      -1.83944,   26.4910E-03
C:/temp/dataset/3/13_6.odb,Step-1,Increment      1: Step Time =    1.000,"PART-1-1",           388,       12.3922,       1.25230,            0.,NA,NA,"",       4.88294,       4.68470,      -1.37720,   19.4117E-03
C:/temp/dataset/3/13_6.odb,Step-1,Increment      1: Step Time =    1.000,"PART-1-1",           389,      -5.00532,       26.2655,            0.,NA,NA,"",       15.8495,       15.4409,       3.57557,   4.06959E-03
C:/temp/dataset/3/13_6.odb,Step-1,Increment      1: Step Time =    1.000,"PART-1-1",           390,      -3.75495,       25.0275,            0.,NA,NA,"",       15.1530,       14.8174,       3.17106,   2.91459E-03
C:/temp/dataset/3/13_6.odb,Step-1,Increment      1: Step Time =    1.000,"PART-1-1",           391,      -2.50780,       26.2820,            0.,NA,NA,"",       15.4320,       15.2194,       2.55282,   4.01822E-03
C:/temp/dataset/3/13_6.odb,Step-1,Increment      1: Step Time =    1.000,"PART-1-1",           392,      -3.75817,       27.5199,            0.,NA,NA,"",       16.1161,       15.8425,       2.95683,   5.18771E-03
C:/temp/dataset/3/13_6.odb,Step-1,Increment      1: Step Time =    1.000,"PART-1-1",           393,      -5.00193,       23.7670,            0.,NA,NA,"",       14.9021,       14.4114,       3.79244,   1.85754E-03
C:/temp/dataset/3/13_6.odb,Step-1,Increment      1: Step Time =    1.000,"PART-1-1",           394,      -6.25406,       25.0149,            0.,NA,NA,"",       15.6142,       15.0395,       4.19735,   2.96313E-03
C:/temp/dataset/3/13_6.odb,Step-1,Increment      1: Step Time =    1.000,"PART-1-1",           395,      -7.50285,       23.7600,            0.,NA,NA,"",       15.4087,       14.6347,       4.82224,   1.86154E-03
C:/temp/dataset/3/13_6.odb,Step-1,Increment      1: Step Time =    1.000,"PART-1-1",           396,      -6.25071,       22.5121,            0.,NA,NA,"",       14.6863,       14.0064,       4.41675,   768.827E-06
C:/temp/dataset/3/13_6.odb,Step-1,Increment      1: Step Time =    1.000,"PART-1-1",           397,      -12.5007,       23.7543,            0.,NA,NA,"",       16.5896,       15.0897,       6.89308,   1.37326E-03
C:/temp/dataset/3/13_6.odb,Step-1,Increment      1: Step Time =    1.000,"PART-1-1",           398,      -13.7507,       25.0026,            0.,NA,NA,"",       17.3393,       15.7279,       7.29950,   3.45032E-03
C:/temp/dataset/3/13_6.odb,Step-1,Increment      1: Step Time =    1.000,"PART-1-1",           399,          -15.,         23.75,            0.,NA,NA,"",       17.2518,       15.3174,       7.93739,   1.27933E-03
C:/temp/dataset/3/13_6.odb,Step-1,Increment      1: Step Time =    1.000,"PART-1-1",           400,       1.22659,       27.5580,            0.,NA,NA,"",       15.4298,       15.4020,   926.677E-03,   5.17776E-03
C:/temp/dataset/3/13_6.odb,Step-1,Increment      1: Step Time =    1.000,"PART-1-1",           401,       2.48534,       28.7828,            0.,NA,NA,"",       15.7894,       15.7862,   316.111E-03,   6.43678E-03
C:/temp/dataset/3/13_6.odb,Step-1,Increment      1: Step Time =    1.000,"PART-1-1",           402,          1.25,           30.,            0.,NA,NA,"",       16.4107,       16.3952,   713.002E-03,   7.68478E-03
C:/temp/dataset/3/13_6.odb,Step-1,Increment      1: Step Time =    1.000,"PART-1-1",           403,  -8.74824E-03,       28.7751,            0.,NA,NA,"",       16.0661,       16.0114,       1.32442,   6.41733E-03
C:/temp/dataset/3/13_6.odb,Step-1,Increment      1: Step Time =    1.000,"PART-1-1",           404,  -16.7069E-03,       26.3073,            0.,NA,NA,"",       15.0826,       15.0041,       1.53651,   4.03084E-03
C:/temp/dataset/3/13_6.odb,Step-1,Increment      1: Step Time =    1.000,"PART-1-1",           405,       2.46714,       26.3253,            0.,NA,NA,"",       14.7981,       14.7886,   528.969E-03,   4.28667E-03
C:/temp/dataset/3/13_6.odb,Step-1,Increment      1: Step Time =    1.000,"PART-1-1",           406,       3.70751,       22.5746,            0.,NA,NA,"",       13.1586,       13.1542,   342.191E-03,   2.60047E-03
C:/temp/dataset/3/13_6.odb,Step-1,Increment      1: Step Time =    1.000,"PART-1-1",           407,       2.48879,       21.2797,            0.,NA,NA,"",       12.7694,       12.7341,   948.557E-03,   919.910E-06
C:/temp/dataset/3/13_6.odb,Step-1,Increment      1: Step Time =    1.000,"PART-1-1",           408,          3.75,           20.,            0.,NA,NA,"",       12.1164,       12.1041,   545.055E-03,   3.37852E-03
C:/temp/dataset/3/13_6.odb,Step-1,Increment      1: Step Time =    1.000,"PART-1-1",           409,       4.96872,       21.2949,            0.,NA,NA,"",       12.5233,       12.5231,  -63.7700E-03,   6.73702E-03
C:/temp/dataset/3/13_6.odb,Step-1,Increment      1: Step Time =    1.000,"PART-1-1",           410,       10.8479,       12.4309,            0.,NA,NA,"",       8.72849,       8.57114,      -1.64985,   8.62612E-03
C:/temp/dataset/3/13_6.odb,Step-1,Increment      1: Step Time =    1.000,"PART-1-1",           411,       9.34812,       11.6387,            0.,NA,NA,"",       8.44215,       8.37685,      -1.04803,   8.77041E-03
C:/temp/dataset/3/13_6.odb,Step-1,Increment      1: Step Time =    1.000,"PART-1-1",           412,       9.99050,       10.5520,            0.,NA,NA,"",       8.02221,       7.93154,      -1.20272,   7.68779E-03
C:/temp/dataset/3/13_6.odb,Step-1,Increment      1: Step Time =    1.000,"PART-1-1",           413,       11.4903,       11.3442,            0.,NA,NA,"",       8.32298,       8.12619,      -1.79917,   10.9082E-03
C:/temp/dataset/3/13_6.odb,Step-1,Increment      1: Step Time =    1.000,"PART-1-1",           414,       7.16850,       11.5014,            0.,NA,NA,"",       8.48566,       8.48184,  -254.350E-03,   17.2257E-03
C:/temp/dataset/3/13_6.odb,Step-1,Increment      1: Step Time =    1.000,"PART-1-1",           415,       6.10343,       12.5850,            0.,NA,NA,"",       8.97577,       8.97549,   71.9094E-03,   20.8720E-03
C:/temp/dataset/3/13_6.odb,Step-1,Increment      1: Step Time =    1.000,"PART-1-1",           416,            5.,         11.25,            0.,NA,NA,"",       8.57442,       8.55718,   543.563E-03,   28.8025E-03
C:/temp/dataset/3/13_6.odb,Step-1,Increment      1: Step Time =    1.000,"PART-1-1",           417,       6.06507,       10.1664,            0.,NA,NA,"",       8.06904,       8.06625,   212.074E-03,   24.7797E-03
C:/temp/dataset/3/13_6.odb,Step-1,Increment      1: Step Time =    1.000,"PART-1-1",           418,       14.0565,       5.06378,            0.,NA,NA,"",       6.21450,       5.81403,      -2.19479,   29.1887E-03
C:/temp/dataset/3/13_6.odb,Step-1,Increment      1: Step Time =    1.000,"PART-1-1",           419,       12.6274,       3.86448,            0.,NA,NA,"",       5.72915,       5.49226,      -1.63040,   19.7540E-03
C:/temp/dataset/3/13_6.odb,Step-1,Increment      1: Step Time =    1.000,"PART-1-1",           420,           15.,          3.75,            0.,NA,NA,"",       5.86926,       5.35621,      -2.39983,   36.0179E-03
C:/temp/dataset/3/13_6.odb,Step-1,Increment      1: Step Time =    1.000,"PART-1-1",           421,       10.0280,       5.47301,            0.,NA,NA,"",       6.20979,       6.14655,  -884.024E-03,   5.06292E-03
C:/temp/dataset/3/13_6.odb,Step-1,Increment      1: Step Time =    1.000,"PART-1-1",           422,       11.0614,       5.01383,            0.,NA,NA,"",       6.05947,       5.94036,      -1.19554,   9.84608E-03
C:/temp/dataset/3/13_6.odb,Step-1,Increment      1: Step Time =    1.000,"PART-1-1",           423,       11.6033,       6.33570,            0.,NA,NA,"",       6.51906,       6.35223,      -1.46538,   13.0338E-03
C:/temp/dataset/3/13_6.odb,Step-1,Increment      1: Step Time =    1.000,"PART-1-1",           424,       10.5698,       6.79489,            0.,NA,NA,"",       6.66277,       6.56313,      -1.14799,   7.73434E-03
C:/temp/dataset/3/13_6.odb,Step-1,Increment      1: Step Time =    1.000,"PART-1-1",           425,      -4.94418,       3.17107,            0.,NA,NA,"",       7.19195,       6.14184,       3.74192,   513.467E-06
C:/temp/dataset/3/13_6.odb,Step-1,Increment      1: Step Time =    1.000,"PART-1-1",           426,      -3.90803,       4.11594,            0.,NA,NA,"",       7.22053,       6.37880,       3.38333,   620.407E-06
C:/temp/dataset/3/13_6.odb,Step-1,Increment      1: Step Time =    1.000,"PART-1-1",           427,      -5.05000,            5.,            0.,NA,NA,"",       7.64905,       6.70112,       3.68823,   523.054E-06
C:/temp/dataset/3/13_6.odb,Step-1,Increment      1: Step Time =    1.000,"PART-1-1",           428,      -6.08615,       4.05513,            0.,NA,NA,"",       7.62605,       6.46368,       4.04690,   234.724E-06
C:/temp/dataset/3/13_6.odb,Step-1,Increment      1: Step Time =    1.000,"PART-1-1",           429,      -3.86135,       2.39128,            0.,NA,NA,"",       6.79573,       5.85486,       3.45002,   638.088E-06
C:/temp/dataset/3/13_6.odb,Step-1,Increment      1: Step Time =    1.000,"PART-1-1",           430,      -5.85027,       2.20434,            0.,NA,NA,"",       7.15653,       5.89176,       4.06240,   357.267E-06
C:/temp/dataset/3/13_6.odb,Step-1,Increment      1: Step Time =    1.000,"PART-1-1",           431,      -4.76744,       1.42454,            0.,NA,NA,"",       6.75510,       5.60482,       3.77059,   585.230E-06
C:/temp/dataset/3/13_6.odb,Step-1,Increment      1: Step Time =    1.000,"PART-1-1",           432,      -9.29397,       2.69508,            0.,NA,NA,"",       8.02007,       6.20267,       5.08413,   89.2484E-06
C:/temp/dataset/3/13_6.odb,Step-1,Increment      1: Step Time =    1.000,"PART-1-1",           433,      -8.28887,       3.92576,            0.,NA,NA,"",       8.05676,       6.52849,       4.72126,   78.4678E-06
C:/temp/dataset/3/13_6.odb,Step-1,Increment      1: Step Time =    1.000,"PART-1-1",           434,          -9.5,            5.,            0.,NA,NA,"",       8.55277,       6.91143,       5.03806,   32.8213E-06
C:/temp/dataset/3/13_6.odb,Step-1,Increment      1: Step Time =    1.000,"PART-1-1",           435,      -10.5051,       3.76932,            0.,NA,NA,"",       8.51697,       6.58552,       5.40090,   18.5333E-06
C:/temp/dataset/3/13_6.odb,Step-1,Increment      1: Step Time =    1.000,"PART-1-1",           436,      -7.92731,       1.84143,            0.,NA,NA,"",       7.53328,       5.87949,       4.70976,   156.098E-06
C:/temp/dataset/3/13_6.odb,Step-1,Increment      1: Step Time =    1.000,"PART-1-1",           437,      -6.68589,       1.06488,            0.,NA,NA,"",       7.09194,       5.58576,       4.36977,   327.109E-06
C:/temp/dataset/3/13_6.odb,Step-1,Increment      1: Step Time =    1.000,"PART-1-1",           438,      -7.09169,       2.98089,            0.,NA,NA,"",       7.59230,       6.18553,       4.40252,   240.253E-06
C:/temp/dataset/3/13_6.odb,Step-1,Increment      1: Step Time =    1.000,"PART-1-1",           439,      -13.9000,            5.,            0.,NA,NA,"",       9.55435,       7.11868,       6.37259,   1.65146E-06
C:/temp/dataset/3/13_6.odb,Step-1,Increment      1: Step Time =    1.000,"PART-1-1",           440,          -15.,          3.75,            0.,NA,NA,"",       9.58589,       6.79138,       6.76508,   2.23786E-06
C:/temp/dataset/3/13_6.odb,Step-1,Increment      1: Step Time =    1.000,"PART-1-1",           441,      -12.7489,       3.73428,            0.,NA,NA,"",       9.03517,       6.68059,       6.08310,   2.14849E-06
C:/temp/dataset/3/13_6.odb,Step-1,Increment      1: Step Time =    1.000,"PART-1-1",           442,      -9.48823,      -2.88104,            0.,NA,NA,"",       7.04716,       4.52085,       5.40596,   75.0889E-06
C:/temp/dataset/3/13_6.odb,Step-1,Increment      1: Step Time =    1.000,"PART-1-1",           443,      -8.42388,      -2.23568,            0.,NA,NA,"",       6.87804,       4.66650,       5.05284,   119.128E-06
C:/temp/dataset/3/13_6.odb,Step-1,Increment      1: Step Time =    1.000,"PART-1-1",           444,      -10.2645,      -1.43363,            0.,NA,NA,"",       7.48487,       4.99635,       5.57313,   48.1051E-06
C:/temp/dataset/3/13_6.odb,Step-1,Increment      1: Step Time =    1.000,"PART-1-1",           445,      -12.6725,      -1.29786,            0.,NA,NA,"",       8.13531,       5.15088,       6.29696,   8.07437E-06
C:/temp/dataset/3/13_6.odb,Step-1,Increment      1: Step Time =    1.000,"PART-1-1",           446,          -15.,         -1.25,            0.,NA,NA,"",       8.76546,       5.27500,       7.00055,   5.54060E-06
C:/temp/dataset/3/13_6.odb,Step-1,Increment      1: Step Time =    1.000,"PART-1-1",           447,      -6.16813,      -3.97275,            0.,NA,NA,"",       6.00657,       4.03333,       4.45098,   229.068E-06
C:/temp/dataset/3/13_6.odb,Step-1,Increment      1: Step Time =    1.000,"PART-1-1",           448,      -4.95000,           -5.,            0.,NA,NA,"",       5.52118,       3.66408,       4.13012,   553.191E-06
C:/temp/dataset/3/13_6.odb,Step-1,Increment      1: Step Time =    1.000,"PART-1-1",           449,       1.59412,  -355.999E-03,            0.,NA,NA,"",       5.14034,       4.76687,       1.92356,   4.65773E-03
C:/temp/dataset/3/13_6.odb,Step-1,Increment      1: Step Time =    1.000,"PART-1-1",           450,       2.17826,      -1.53992,            0.,NA,NA,"",       4.73046,       4.37665,       1.79502,   7.96907E-03
C:/temp/dataset/3/13_6.odb,Step-1,Increment      1: Step Time =    1.000,"PART-1-1",           451,       2.86763,   426.804E-03,            0.,NA,NA,"",       5.16545,       4.94066,       1.50723,   11.7146E-03
C:/temp/dataset/3/13_6.odb,Step-1,Increment      1: Step Time =    1.000,"PART-1-1",           452,  -387.277E-03,   5.26357E-03,            0.,NA,NA,"",       5.56846,       4.97140,       2.50858,   948.129E-06
C:/temp/dataset/3/13_6.odb,Step-1,Increment      1: Step Time =    1.000,"PART-1-1",           453,   283.611E-03,      -1.19839,            0.,NA,NA,"",       5.14704,       4.57394,       2.36033,   1.90508E-03
C:/temp/dataset/3/13_6.odb,Step-1,Increment      1: Step Time =    1.000,"PART-1-1",           454,   923.228E-03,   847.652E-03,            0.,NA,NA,"",       5.56586,       5.16513,       2.07370,   3.16114E-03
C:/temp/dataset/3/13_6.odb,Step-1,Increment      1: Step Time =    1.000,"PART-1-1",           455,       6.35531,      -13.1332,            0.,NA,NA,"",       1.26245,       1.17183,   469.665E-03,   53.5249E-03
C:/temp/dataset/3/13_6.odb,Step-1,Increment      1: Step Time =    1.000,"PART-1-1",           456,       7.49455,      -12.2656,            0.,NA,NA,"",       1.32969,       1.29746,   290.980E-03,   37.5937E-03
C:/temp/dataset/3/13_6.odb,Step-1,Increment      1: Step Time =    1.000,"PART-1-1",           457,       6.13925,      -10.3824,            0.,NA,NA,"",       1.84010,       1.74433,   585.902E-03,   53.3193E-03
C:/temp/dataset/3/13_6.odb,Step-1,Increment      1: Step Time =    1.000,"PART-1-1",           458,            5.,        -11.25,            0.,NA,NA,"",       1.79077,       1.60945,   785.195E-03,   69.4152E-03
C:/temp/dataset/3/13_6.odb,Step-1,Increment      1: Step Time =    1.000,"PART-1-1",           459,       13.3376,      -16.9670,            0.,NA,NA,"",   707.717E-03,   496.887E-03,  -503.951E-03,   50.6871E-03
C:/temp/dataset/3/13_6.odb,Step-1,Increment      1: Step Time =    1.000,"PART-1-1",           460,       11.8219,      -18.0071,            0.,NA,NA,"",   462.536E-03,   364.783E-03,  -284.381E-03,   28.4112E-03
C:/temp/dataset/3/13_6.odb,Step-1,Increment      1: Step Time =    1.000,"PART-1-1",           461,           15.,        -18.75,            0.,NA,NA,"",   678.017E-03,   353.168E-03,  -578.774E-03,   75.5216E-03
C:/temp/dataset/3/13_6.odb,Step-1,Increment      1: Step Time =    1.000,"PART-1-1",           462,       8.42876,      -15.2973,            0.,NA,NA,"",   744.596E-03,   737.406E-03,   103.227E-03,   25.7376E-03
C:/temp/dataset/3/13_6.odb,Step-1,Increment      1: Step Time =    1.000,"PART-1-1",           463,       10.4111,      -16.6310,            0.,NA,NA,"",   543.493E-03,   521.517E-03,  -152.985E-03,   9.50252E-03
C:/temp/dataset/3/13_6.odb,Step-1,Increment      1: Step Time =    1.000,"PART-1-1",           464,       10.7289,      -14.9294,            0.,NA,NA,"",   795.271E-03,   762.524E-03,  -225.860E-03,   11.8025E-03
C:/temp/dataset/3/13_6.odb,Step-1,Increment      1: Step Time =    1.000,"PART-1-1",           465,       8.74656,      -13.5956,            0.,NA,NA,"",       1.01548,       1.01331,   66.2781E-03,   21.7018E-03
C:/temp/dataset/3/13_6.odb,Step-1,Increment      1: Step Time =    1.000,"PART-1-1",           466,      -8.72016,      -22.5745,            0.,NA,NA,"",   41.8835E-03,   41.8624E-03,  -1.32712E-03,   1.79574E-03
C:/temp/dataset/3/13_6.odb,Step-1,Increment      1: Step Time =    1.000,"PART-1-1",           467,      -7.48342,      -21.2909,            0.,NA,NA,"",   45.6266E-03,   45.5587E-03,  -2.48953E-03,   1.25543E-03
C:/temp/dataset/3/13_6.odb,Step-1,Increment      1: Step Time =    1.000,"PART-1-1",           468,         -8.75,          -20.,            0.,NA,NA,"",   46.1807E-03,   46.1326E-03,  -2.10716E-03,   162.066E-06
C:/temp/dataset/3/13_6.odb,Step-1,Increment      1: Step Time =    1.000,"PART-1-1",           469,      -9.98674,      -21.2836,            0.,NA,NA,"",   43.7886E-03,   43.7871E-03,  -364.644E-06,   596.744E-06
C:/temp/dataset/3/13_6.odb,Step-1,Increment      1: Step Time =    1.000,"PART-1-1",           470,      -4.96670,      -26.3491,            0.,NA,NA,"",   33.9592E-03,   33.7820E-03,   3.46489E-03,   6.17815E-03
C:/temp/dataset/3/13_6.odb,Step-1,Increment      1: Step Time =    1.000,"PART-1-1",           471,      -6.21541,      -25.0985,            0.,NA,NA,"",   37.9552E-03,   37.9378E-03,   1.14872E-03,   4.84786E-03
C:/temp/dataset/3/13_6.odb,Step-1,Increment      1: Step Time =    1.000,"PART-1-1",           472,      -7.47738,      -26.3212,            0.,NA,NA,"",   28.4759E-03,   28.4624E-03,   877.304E-06,   4.66642E-03
C:/temp/dataset/3/13_6.odb,Step-1,Increment      1: Step Time =    1.000,"PART-1-1",           473,      -6.22867,      -27.5719,            0.,NA,NA,"",   22.2988E-03,   22.2186E-03,   1.89024E-03,   6.05062E-03
C:/temp/dataset/3/13_6.odb,Step-1,Increment      1: Step Time =    1.000,"PART-1-1",           474,   49.7896E-03,      -26.4387,            0.,NA,NA,"",   46.8931E-03,   41.0294E-03,   22.7056E-03,   12.8223E-03
C:/temp/dataset/3/13_6.odb,Step-1,Increment      1: Step Time =    1.000,"PART-1-1",           475,       1.24862,      -27.7048,            0.,NA,NA,"",   31.6775E-03,   25.4355E-03,   18.8812E-03,   13.6351E-03
C:/temp/dataset/3/13_6.odb,Step-1,Increment      1: Step Time =    1.000,"PART-1-1",           476,       2.52056,      -26.5649,            0.,NA,NA,"",   49.2737E-03,   32.3049E-03,   37.2061E-03,   18.2549E-03
C:/temp/dataset/3/13_6.odb,Step-1,Increment      1: Step Time =    1.000,"PART-1-1",           477,       1.32172,      -25.2988,            0.,NA,NA,"",   65.9208E-03,   51.7428E-03,   40.8441E-03,   16.9935E-03
C:/temp/dataset/3/13_6.odb,Step-1,Increment      1: Step Time =    1.000,"PART-1-1",           478,        -13.75,          -20.,            0.,NA,NA,"",   47.6119E-03,   46.8384E-03,   8.54748E-03,   113.241E-06
C:/temp/dataset/3/13_6.odb,Step-1,Increment      1: Step Time =    1.000,"PART-1-1",           479,          -15.,        -21.25,            0.,NA,NA,"",   44.9809E-03,   43.2782E-03,   12.2587E-03,   96.5406E-06
C:/temp/dataset/3/13_6.odb,Step-1,Increment      1: Step Time =    1.000,"PART-1-1",           480,      -13.7430,      -22.5153,            0.,NA,NA,"",   40.4108E-03,   39.5095E-03,   8.48731E-03,   131.102E-06
C:/temp/dataset/3/13_6.odb,Step-1,Increment      1: Step Time =    1.000,"PART-1-1",           481,      -12.4930,      -21.2653,            0.,NA,NA,"",   43.5662E-03,   43.2832E-03,   4.95763E-03,   107.085E-06
C:/temp/dataset/3/13_6.odb,Step-1,Increment      1: Step Time =    1.000,"PART-1-1",           482,      -11.2297,      -22.5489,            0.,NA,NA,"",   39.9651E-03,   39.9133E-03,   2.03415E-03,   851.657E-06
C:/temp/dataset/3/13_6.odb,Step-1,Increment      1: Step Time =    1.000,"PART-1-1",           483,        -11.25,          -20.,            0.,NA,NA,"",   46.4271E-03,   46.3855E-03,   1.96579E-03,   172.579E-06
C:/temp/dataset/3/13_6.odb,Step-1,Increment      1: Step Time =    1.000,"PART-1-1",           484,      -13.7448,      -25.0201,            0.,NA,NA,"",   30.9537E-03,   29.9131E-03,   7.95856E-03,   930.022E-06
C:/temp/dataset/3/13_6.odb,Step-1,Increment      1: Step Time =    1.000,"PART-1-1",           485,      -12.4878,      -23.7854,            0.,NA,NA,"",   35.4665E-03,   35.1432E-03,   4.77753E-03,   1.06327E-03
C:/temp/dataset/3/13_6.odb,Step-1,Increment      1: Step Time =    1.000,"PART-1-1",           486,          -15.,        -23.75,            0.,NA,NA,"",   37.4141E-03,   35.2035E-03,   12.6700E-03,   24.1365E-06
C:/temp/dataset/3/13_6.odb,Step-1,Increment      1: Step Time =    1.000,"PART-1-1",           487,       13.7335,      -27.5520,            0.,NA,NA,"",   71.2068E-03,   2.48280E-03,  -71.1635E-03,   37.4270E-03
C:/temp/dataset/3/13_6.odb,Step-1,Increment      1: Step Time =    1.000,"PART-1-1",           488,       12.4835,      -28.8020,            0.,NA,NA,"",   26.5165E-03,  -12.2088E-03,  -23.5386E-03,   26.8871E-03
C:/temp/dataset/3/13_6.odb,Step-1,Increment      1: Step Time =    1.000,"PART-1-1",           489,         13.75,          -30.,            0.,NA,NA,"",            0.,  -5.21452E-39,  -48.9482E-39,   28.6336E-03
C:/temp/dataset/3/13_6.odb,Step-1,Increment      1: Step Time =    1.000,"PART-1-1",           490,           15.,        -28.75,            0.,NA,NA,"",   44.7628E-03,   21.9824E-03,  -38.9933E-03,   38.9860E-03
C:/temp/dataset/3/13_6.odb,Step-1,Increment      1: Step Time =    1.000,"PART-1-1",           491,       9.98010,      -28.8907,            0.,NA,NA,"",   20.6169E-03,  -19.2184E-03,  -7.46369E-03,   14.5755E-03
C:/temp/dataset/3/13_6.odb,Step-1,Increment      1: Step Time =    1.000,"PART-1-1",           492,       8.70049,      -27.8380,            0.,NA,NA,"",   24.5266E-03,  -24.5212E-03,   515.339E-06,   9.14007E-03
C:/temp/dataset/3/13_6.odb,Step-1,Increment      1: Step Time =    1.000,"PART-1-1",           493,          8.75,          -30.,            0.,NA,NA,"",            0.,  -13.0913E-39,  -4.98853E-39,   12.8478E-03
C:/temp/dataset/3/13_6.odb,Step-1,Increment      1: Step Time =    1.000,"PART-1-1",           494,       11.2136,      -27.6927,            0.,NA,NA,"",   40.0124E-03,  -24.1082E-03,  -31.9341E-03,   20.3711E-03
C:/temp/dataset/3/13_6.odb,Step-1,Increment      1: Step Time =    1.000,"PART-1-1",           495,       12.3768,      -26.3916,            0.,NA,NA,"",   81.8663E-03,  -12.1925E-03,  -80.9533E-03,   31.1270E-03
C:/temp/dataset/3/13_6.odb,Step-1,Increment      1: Step Time =    1.000,"PART-1-1",           496,       11.0556,      -25.4315,            0.,NA,NA,"",   65.1403E-03,  -15.8323E-03,  -63.1870E-03,   21.7160E-03
C:/temp/dataset/3/13_6.odb,Step-1,Increment      1: Step Time =    1.000,"PART-1-1",           497,       9.89242,      -26.7326,            0.,NA,NA,"",   33.5126E-03,  -27.4736E-03,  -19.1911E-03,   13.5316E-03
C:/temp/dataset/3/13_6.odb,Step-1,Increment      1: Step Time =    1.000,"PART-1-1",           498,   9.79186E-03,      -28.8313,            0.,NA,NA,"",   16.6875E-03,   15.1015E-03,   7.10073E-03,   11.8237E-03
C:/temp/dataset/3/13_6.odb,Step-1,Increment      1: Step Time =    1.000,"PART-1-1",           499,          1.25,          -30.,            0.,NA,NA,"",            0.,   7.62474E-39,   16.8013E-39,   11.4609E-03
C:/temp/dataset/3/13_6.odb,Step-1,Increment      1: Step Time =    1.000,"PART-1-1",           500,      -1.18061,      -25.1833,            0.,NA,NA,"",   54.9857E-03,   51.3590E-03,   19.6387E-03,   10.9865E-03
C:/temp/dataset/3/13_6.odb,Step-1,Increment      1: Step Time =    1.000,"PART-1-1",           501,      -2.45538,      -26.3836,            0.,NA,NA,"",   40.5412E-03,   39.2158E-03,   10.2814E-03,   8.71738E-03
C:/temp/dataset/3/13_6.odb,Step-1,Increment      1: Step Time =    1.000,"PART-1-1",           502,      -1.22498,      -27.6390,            0.,NA,NA,"",   30.7333E-03,   28.7813E-03,   10.7783E-03,   10.3693E-03
C:/temp/dataset/3/13_6.odb,Step-1,Increment      1: Step Time =    1.000,"PART-1-1",           503,      -3.70005,      -25.1329,            0.,NA,NA,"",   45.0376E-03,   44.5435E-03,   6.65346E-03,   7.03690E-03
C:/temp/dataset/3/13_6.odb,Step-1,Increment      1: Step Time =    1.000,"PART-1-1",           504,      -7.49141,      -28.7797,            0.,NA,NA,"",   10.7350E-03,   10.6904E-03,   977.509E-06,   5.64787E-03
C:/temp/dataset/3/13_6.odb,Step-1,Increment      1: Step Time =    1.000,"PART-1-1",           505,         -6.25,          -30.,            0.,NA,NA,"",            0.,   6.47309E-39,   3.87799E-39,   7.03489E-03
C:/temp/dataset/3/13_6.odb,Step-1,Increment      1: Step Time =    1.000,"PART-1-1",           506,      -12.4949,      -26.2800,            0.,NA,NA,"",   23.4257E-03,   23.1164E-03,   3.79451E-03,   2.84102E-03
C:/temp/dataset/3/13_6.odb,Step-1,Increment      1: Step Time =    1.000,"PART-1-1",           507,          -15.,        -26.25,            0.,NA,NA,"",   27.2358E-03,   24.2335E-03,   12.4309E-03,   1.28946E-03
C:/temp/dataset/3/13_6.odb,Step-1,Increment      1: Step Time =    1.000,"PART-1-1",           508,       12.0036,      -23.8365,            0.,NA,NA,"",   133.314E-03,   18.1668E-03,  -132.071E-03,   31.2770E-03
C:/temp/dataset/3/13_6.odb,Step-1,Increment      1: Step Time =    1.000,"PART-1-1",           509,       13.6432,      -25.0896,            0.,NA,NA,"",   157.060E-03,   19.3595E-03,  -155.862E-03,   42.3726E-03
C:/temp/dataset/3/13_6.odb,Step-1,Increment      1: Step Time =    1.000,"PART-1-1",           510,           15.,        -23.75,            0.,NA,NA,"",   268.038E-03,   76.9952E-03,  -256.742E-03,   59.4083E-03
C:/temp/dataset/3/13_6.odb,Step-1,Increment      1: Step Time =    1.000,"PART-1-1",           511,         11.25,          -30.,            0.,NA,NA,"",            0.,  -13.2945E-39,  -29.6450E-39,   19.4817E-03
C:/temp/dataset/3/13_6.odb,Step-1,Increment      1: Step Time =    1.000,"PART-1-1",           512,       13.9281,      -14.6298,            0.,NA,NA,"",       1.09152,   818.406E-03,  -722.243E-03,   57.9982E-03
C:/temp/dataset/3/13_6.odb,Step-1,Increment      1: Step Time =    1.000,"PART-1-1",           513,       12.2657,      -15.3468,            0.,NA,NA,"",   823.014E-03,   698.554E-03,  -435.172E-03,   32.7598E-03
C:/temp/dataset/3/13_6.odb,Step-1,Increment      1: Step Time =    1.000,"PART-1-1",           514,           15.,        -16.25,            0.,NA,NA,"",   985.613E-03,   618.366E-03,  -767.500E-03,   76.1816E-03
C:/temp/dataset/3/13_6.odb,Step-1,Increment      1: Step Time =    1.000,"PART-1-1",           515,       7.13425,      -14.5121,            0.,NA,NA,"",   949.936E-03,   899.655E-03,   304.956E-03,   46.1757E-03
C:/temp/dataset/3/13_6.odb,Step-1,Increment      1: Step Time =    1.000,"PART-1-1",           516,       6.81531,      -16.2905,            0.,NA,NA,"",   691.343E-03,   625.552E-03,   294.346E-03,   51.8241E-03
C:/temp/dataset/3/13_6.odb,Step-1,Increment      1: Step Time =    1.000,"PART-1-1",           517,       8.10983,      -17.0757,            0.,NA,NA,"",   501.737E-03,   487.172E-03,   120.016E-03,   31.6090E-03
C:/temp/dataset/3/13_6.odb,Step-1,Increment      1: Step Time =    1.000,"PART-1-1",           518,       13.8641,      -7.41825,            0.,NA,NA,"",       2.53180,       2.23122,      -1.19652,   46.3660E-03
C:/temp/dataset/3/13_6.odb,Step-1,Increment      1: Step Time =    1.000,"PART-1-1",           519,       13.0286,      -8.63342,            0.,NA,NA,"",       2.15973,       1.95535,  -917.074E-03,   38.2513E-03
C:/temp/dataset/3/13_6.odb,Step-1,Increment      1: Step Time =    1.000,"PART-1-1",           520,       14.1645,      -9.96517,            0.,NA,NA,"",       1.98231,       1.65966,      -1.08401,   54.6456E-03
C:/temp/dataset/3/13_6.odb,Step-1,Increment      1: Step Time =    1.000,"PART-1-1",           521,           15.,         -8.75,            0.,NA,NA,"",       2.35980,       1.92115,      -1.37035,   63.3169E-03
C:/temp/dataset/3/13_6.odb,Step-1,Increment      1: Step Time =    1.000,"PART-1-1",           522,       12.0251,      -10.9831,            0.,NA,NA,"",       1.56852,       1.45822,  -577.805E-03,   27.2110E-03
C:/temp/dataset/3/13_6.odb,Step-1,Increment      1: Step Time =    1.000,"PART-1-1",           523,       12.8055,      -11.9581,            0.,NA,NA,"",       1.43600,       1.26386,  -681.735E-03,   38.2504E-03
C:/temp/dataset/3/13_6.odb,Step-1,Increment      1: Step Time =    1.000,"PART-1-1",           524,       13.3751,      -11.0455,            0.,NA,NA,"",       1.66944,       1.43967,  -845.216E-03,   45.2295E-03
C:/temp/dataset/3/13_6.odb,Step-1,Increment      1: Step Time =    1.000,"PART-1-1",           525,       12.5947,      -10.0706,            0.,NA,NA,"",       1.80152,       1.64287,  -739.236E-03,   33.8685E-03
C:/temp/dataset/3/13_6.odb,Step-1,Increment      1: Step Time =    1.000,"PART-1-1",           526,       11.4853,  -434.223E-03,            0.,NA,NA,"",       4.32588,       4.20887,  -999.339E-03,   14.0304E-03
C:/temp/dataset/3/13_6.odb,Step-1,Increment      1: Step Time =    1.000,"PART-1-1",           527,       10.5886,      -1.82652,            0.,NA,NA,"",       3.88581,       3.82828,  -666.178E-03,   12.8253E-03
C:/temp/dataset/3/13_6.odb,Step-1,Increment      1: Step Time =    1.000,"PART-1-1",           528,       11.9063,      -2.70193,            0.,NA,NA,"",       3.65945,       3.52364,  -987.697E-03,   20.8367E-03
C:/temp/dataset/3/13_6.odb,Step-1,Increment      1: Step Time =    1.000,"PART-1-1",           529,       14.1300,       7.44597,            0.,NA,NA,"",       7.02829,       6.59884,      -2.41914,   28.2385E-03
C:/temp/dataset/3/13_6.odb,Step-1,Increment      1: Step Time =    1.000,"PART-1-1",           530,       13.1865,       6.25975,            0.,NA,NA,"",       6.55820,       6.24699,      -1.99629,   22.6606E-03
C:/temp/dataset/3/13_6.odb,Step-1,Increment      1: Step Time =    1.000,"PART-1-1",           531,           15.,          6.25,            0.,NA,NA,"",       6.69212,       6.15932,      -2.61672,   34.9109E-03
C:/temp/dataset/3/13_6.odb,Step-1,Increment      1: Step Time =    1.000,"PART-1-1",           532,       12.4155,       5.33720,            0.,NA,NA,"",       6.20720,       5.97931,      -1.66649,   18.2127E-03
C:/temp/dataset/3/13_6.odb,Step-1,Increment      1: Step Time =    1.000,"PART-1-1",           533,       11.2733,       3.54111,            0.,NA,NA,"",       5.57666,       5.45239,      -1.17073,   10.9977E-03
C:/temp/dataset/3/13_6.odb,Step-1,Increment      1: Step Time =    1.000,"PART-1-1",           534,       12.2480,       13.5548,            0.,NA,NA,"",       9.18124,       8.89941,      -2.25736,   12.8311E-03
C:/temp/dataset/3/13_6.odb,Step-1,Increment      1: Step Time =    1.000,"PART-1-1",           535,           15.,         13.75,            0.,NA,NA,"",       9.39618,       8.79208,      -3.31476,   24.3693E-03
C:/temp/dataset/3/13_6.odb,Step-1,Increment      1: Step Time =    1.000,"PART-1-1",           536,       13.6600,       14.9734,            0.,NA,NA,"",       9.78495,       9.34071,      -2.91487,   16.5076E-03
C:/temp/dataset/3/13_6.odb,Step-1,Increment      1: Step Time =    1.000,"PART-1-1",           537,       8.15326,       10.4556,            0.,NA,NA,"",       8.03854,       8.02008,  -544.454E-03,   13.3758E-03
C:/temp/dataset/3/13_6.odb,Step-1,Increment      1: Step Time =    1.000,"PART-1-1",           538,       12.3824,       21.2920,            0.,NA,NA,"",       12.2780,       11.9098,      -2.98401,   8.36515E-03
C:/temp/dataset/3/13_6.odb,Step-1,Increment      1: Step Time =    1.000,"PART-1-1",           539,       13.6892,       20.0188,            0.,NA,NA,"",       11.7969,       11.3006,      -3.38563,   9.85035E-03
C:/temp/dataset/3/13_6.odb,Step-1,Increment      1: Step Time =    1.000,"PART-1-1",           540,           15.,         21.25,            0.,NA,NA,"",       12.3589,       11.6865,      -4.02109,   9.67983E-03
C:/temp/dataset/3/13_6.odb,Step-1,Increment      1: Step Time =    1.000,"PART-1-1",           541,       13.6932,       22.5232,            0.,NA,NA,"",       12.8189,       12.2992,      -3.61303,   6.49573E-03
C:/temp/dataset/3/13_6.odb,Step-1,Increment      1: Step Time =    1.000,"PART-1-1",           542,       9.77662,       16.3041,            0.,NA,NA,"",       10.2495,       10.1313,      -1.55197,   8.22213E-03
C:/temp/dataset/3/13_6.odb,Step-1,Increment      1: Step Time =    1.000,"PART-1-1",           543,       11.0318,       15.0036,            0.,NA,NA,"",       9.72676,       9.53502,      -1.92177,   8.72194E-03
C:/temp/dataset/3/13_6.odb,Step-1,Increment      1: Step Time =    1.000,"PART-1-1",           544,       12.3430,       16.2301,            0.,NA,NA,"",       10.2307,       9.91487,      -2.52250,   11.5044E-03
C:/temp/dataset/3/13_6.odb,Step-1,Increment      1: Step Time =    1.000,"PART-1-1",           545,         13.75,           30.,            0.,NA,NA,"",       15.8846,       15.2973,      -4.27965,   186.558E-06
C:/temp/dataset/3/13_6.odb,Step-1,Increment      1: Step Time =    1.000,"PART-1-1",           546,       12.4862,       28.7548,            0.,NA,NA,"",       15.3496,       14.9043,      -3.67041,   1.38201E-03
C:/temp/dataset/3/13_6.odb,Step-1,Increment      1: Step Time =    1.000,"PART-1-1",           547,           15.,         28.75,            0.,NA,NA,"",       15.4180,       14.6920,      -4.67562,   185.933E-06
C:/temp/dataset/3/13_6.odb,Step-1,Increment      1: Step Time =    1.000,"PART-1-1",           548,       12.4064,       23.7898,            0.,NA,NA,"",       13.3060,       12.9121,      -3.21340,   6.31527E-03
C:/temp/dataset/3/13_6.odb,Step-1,Increment      1: Step Time =    1.000,"PART-1-1",           549,           15.,         23.75,            0.,NA,NA,"",       13.3766,       12.6846,      -4.24658,   5.12213E-03
C:/temp/dataset/3/13_6.odb,Step-1,Increment      1: Step Time =    1.000,"PART-1-1",           550,       9.91541,       26.3072,            0.,NA,NA,"",       14.3436,       14.1341,      -2.44261,   5.39842E-03
C:/temp/dataset/3/13_6.odb,Step-1,Increment      1: Step Time =    1.000,"PART-1-1",           551,       11.1537,       25.0565,            0.,NA,NA,"",       13.8179,       13.5257,      -2.82669,   5.65139E-03
C:/temp/dataset/3/13_6.odb,Step-1,Increment      1: Step Time =    1.000,"PART-1-1",           552,       11.2110,       27.5221,            0.,NA,NA,"",       14.8347,       14.5158,      -3.05920,   3.54320E-03
C:/temp/dataset/3/13_6.odb,Step-1,Increment      1: Step Time =    1.000,"PART-1-1",           553,       8.69233,       27.5515,            0.,NA,NA,"",       14.8837,       14.7402,      -2.06195,   4.73179E-03
C:/temp/dataset/3/13_6.odb,Step-1,Increment      1: Step Time =    1.000,"PART-1-1",           554,       7.41297,       26.3376,            0.,NA,NA,"",       14.4322,       14.3589,      -1.45286,   5.58495E-03
C:/temp/dataset/3/13_6.odb,Step-1,Increment      1: Step Time =    1.000,"PART-1-1",           555,       8.63604,       25.0933,            0.,NA,NA,"",       13.8720,       13.7503,      -1.83390,   6.22452E-03
C:/temp/dataset/3/13_6.odb,Step-1,Increment      1: Step Time =    1.000,"PART-1-1",           556,      -1.26375,       27.5391,            0.,NA,NA,"",       15.7409,       15.6211,       1.93844,   5.18536E-03
C:/temp/dataset/3/13_6.odb,Step-1,Increment      1: Step Time =    1.000,"PART-1-1",           557,         -1.25,           30.,            0.,NA,NA,"",       16.7171,       16.6279,       1.72467,   7.58675E-03
C:/temp/dataset/3/13_6.odb,Step-1,Increment      1: Step Time =    1.000,"PART-1-1",           558,      -2.50500,       28.7640,            0.,NA,NA,"",       16.4054,       16.2377,       2.33933,   6.35613E-03
C:/temp/dataset/3/13_6.odb,Step-1,Increment      1: Step Time =    1.000,"PART-1-1",           559,      -7.50143,       28.7522,            0.,NA,NA,"",       17.2669,       16.7011,       4.38393,   6.33510E-03
C:/temp/dataset/3/13_6.odb,Step-1,Increment      1: Step Time =    1.000,"PART-1-1",           560,         -8.75,           30.,            0.,NA,NA,"",       17.9870,       17.3377,       4.78899,   7.41253E-03
C:/temp/dataset/3/13_6.odb,Step-1,Increment      1: Step Time =    1.000,"PART-1-1",           561,      -6.25460,       27.5081,            0.,NA,NA,"",       16.5548,       16.0693,       3.97996,   5.21212E-03
C:/temp/dataset/3/13_6.odb,Step-1,Increment      1: Step Time =    1.000,"PART-1-1",           562,        -13.75,           30.,            0.,NA,NA,"",       19.0921,       17.8191,       6.85478,   6.31320E-03
C:/temp/dataset/3/13_6.odb,Step-1,Increment      1: Step Time =    1.000,"PART-1-1",           563,          -15.,         28.75,            0.,NA,NA,"",       18.9566,       17.4169,       7.48357,   5.79803E-03
C:/temp/dataset/3/13_6.odb,Step-1,Increment      1: Step Time =    1.000,"PART-1-1",           564,      -13.7509,       27.5010,            0.,NA,NA,"",       18.2072,       16.7758,       7.07632,   6.13103E-03
C:/temp/dataset/3/13_6.odb,Step-1,Increment      1: Step Time =    1.000,"PART-1-1",           565,          -15.,         26.25,            0.,NA,NA,"",       18.0962,       16.3728,       7.70738,   5.17912E-03
C:/temp/dataset/3/13_6.odb,Step-1,Increment      1: Step Time =    1.000,"PART-1-1",           566,      -12.5016,       26.2536,            0.,NA,NA,"",       17.4582,       16.1345,       6.66834,   4.91185E-03
C:/temp/dataset/3/13_6.odb,Step-1,Increment      1: Step Time =    1.000,"PART-1-1",           567,      -7.50093,       21.2547,            0.,NA,NA,"",       14.5045,       13.5990,       5.04458,   345.936E-06
C:/temp/dataset/3/13_6.odb,Step-1,Increment      1: Step Time =    1.000,"PART-1-1",           568,         -6.25,           20.,            0.,NA,NA,"",       13.7759,       12.9708,       4.64023,   1.42378E-03
C:/temp/dataset/3/13_6.odb,Step-1,Increment      1: Step Time =    1.000,"PART-1-1",           569,      -4.99978,       21.2574,            0.,NA,NA,"",       13.9673,       13.3784,       4.01303,   309.505E-06
C:/temp/dataset/3/13_6.odb,Step-1,Increment      1: Step Time =    1.000,"PART-1-1",           570,      -3.74911,       22.5208,            0.,NA,NA,"",       14.1972,       13.7870,       3.38783,   797.309E-06
C:/temp/dataset/3/13_6.odb,Step-1,Increment      1: Step Time =    1.000,"PART-1-1",           571,         -3.75,           20.,            0.,NA,NA,"",       13.2537,       12.7524,       3.61068,   1.33731E-03
C:/temp/dataset/3/13_6.odb,Step-1,Increment      1: Step Time =    1.000,"PART-1-1",           572,      -2.49933,       21.2634,            0.,NA,NA,"",       13.4957,       13.1612,       2.98611,   274.605E-06
C:/temp/dataset/3/13_6.odb,Step-1,Increment      1: Step Time =    1.000,"PART-1-1",           573,         -1.25,           20.,            0.,NA,NA,"",       12.7996,       12.5357,       2.58571,   1.04545E-03
C:/temp/dataset/3/13_6.odb,Step-1,Increment      1: Step Time =    1.000,"PART-1-1",           574,  -2.23348E-03,       21.2694,            0.,NA,NA,"",       13.0942,       12.9459,       1.96509,   301.161E-06
C:/temp/dataset/3/13_6.odb,Step-1,Increment      1: Step Time =    1.000,"PART-1-1",           575,      -1.25156,       22.5328,            0.,NA,NA,"",       13.7759,       13.5714,       2.36476,   766.174E-06
C:/temp/dataset/3/13_6.odb,Step-1,Increment      1: Step Time =    1.000,"PART-1-1",           576,         -3.75,           30.,            0.,NA,NA,"",       17.0839,       16.8625,       2.74146,   7.49065E-03
C:/temp/dataset/3/13_6.odb,Step-1,Increment      1: Step Time =    1.000,"PART-1-1",           577,      -5.00318,       28.7559,            0.,NA,NA,"",       16.8067,       16.4675,       3.35952,   6.33261E-03
C:/temp/dataset/3/13_6.odb,Step-1,Increment      1: Step Time =    1.000,"PART-1-1",           578,       7.36074,       18.8052,            0.,NA,NA,"",       11.3401,       11.3105,  -818.278E-03,   8.98459E-03
C:/temp/dataset/3/13_6.odb,Step-1,Increment      1: Step Time =    1.000,"PART-1-1",           579,       8.58169,       17.5494,            0.,NA,NA,"",       10.7793,       10.7131,      -1.19345,   8.18642E-03
C:/temp/dataset/3/13_6.odb,Step-1,Increment      1: Step Time =    1.000,"PART-1-1",           580,       8.60057,       20.0599,            0.,NA,NA,"",       11.7977,       11.7142,      -1.40100,   8.31288E-03
C:/temp/dataset/3/13_6.odb,Step-1,Increment      1: Step Time =    1.000,"PART-1-1",           581,            5.,         18.75,            0.,NA,NA,"",       11.4900,       11.4894,   111.177E-03,   17.2604E-03
C:/temp/dataset/3/13_6.odb,Step-1,Increment      1: Step Time =    1.000,"PART-1-1",           582,       6.17685,       17.5255,            0.,NA,NA,"",       10.9017,       10.8985,  -265.030E-03,   13.8210E-03
C:/temp/dataset/3/13_6.odb,Step-1,Increment      1: Step Time =    1.000,"PART-1-1",           583,       6.18390,       20.0298,            0.,NA,NA,"",       11.9093,       11.9008,  -450.749E-03,   9.13166E-03
C:/temp/dataset/3/13_6.odb,Step-1,Increment      1: Step Time =    1.000,"PART-1-1",           584,            5.,         16.25,            0.,NA,NA,"",       10.4973,       10.4938,   271.299E-03,   20.1907E-03
C:/temp/dataset/3/13_6.odb,Step-1,Increment      1: Step Time =    1.000,"PART-1-1",           585,       6.15340,       15.0385,            0.,NA,NA,"",       9.92070,       9.92027,  -92.6026E-03,   17.3035E-03
C:/temp/dataset/3/13_6.odb,Step-1,Increment      1: Step Time =    1.000,"PART-1-1",           586,       7.33024,       16.3140,            0.,NA,NA,"",       10.3434,       10.3245,  -623.769E-03,   11.6246E-03
C:/temp/dataset/3/13_6.odb,Step-1,Increment      1: Step Time =    1.000,"PART-1-1",           587,           15.,         16.25,            0.,NA,NA,"",       10.3623,       9.73427,      -3.55262,   19.6209E-03
C:/temp/dataset/3/13_6.odb,Step-1,Increment      1: Step Time =    1.000,"PART-1-1",           588,       13.6830,       17.5067,            0.,NA,NA,"",       10.7853,       10.3137,      -3.15424,   13.2447E-03
C:/temp/dataset/3/13_6.odb,Step-1,Increment      1: Step Time =    1.000,"PART-1-1",           589,           15.,         18.75,            0.,NA,NA,"",       11.3519,       10.7009,      -3.78896,   14.6770E-03
C:/temp/dataset/3/13_6.odb,Step-1,Increment      1: Step Time =    1.000,"PART-1-1",           590,       7.36831,       6.81272,            0.,NA,NA,"",       6.75417,       6.75371,  -78.2688E-03,   15.8326E-03
C:/temp/dataset/3/13_6.odb,Step-1,Increment      1: Step Time =    1.000,"PART-1-1",           591,       6.10412,       7.73110,            0.,NA,NA,"",       7.17278,       7.16631,   304.650E-03,   28.7121E-03
C:/temp/dataset/3/13_6.odb,Step-1,Increment      1: Step Time =    1.000,"PART-1-1",           592,            5.,          6.25,            0.,NA,NA,"",       6.75230,       6.71354,   722.377E-03,   49.8536E-03
C:/temp/dataset/3/13_6.odb,Step-1,Increment      1: Step Time =    1.000,"PART-1-1",           593,       6.26419,       5.33162,            0.,NA,NA,"",       6.31336,       6.30379,   347.571E-03,   28.6392E-03
C:/temp/dataset/3/13_6.odb,Step-1,Increment      1: Step Time =    1.000,"PART-1-1",           594,           15.,          8.75,            0.,NA,NA,"",       7.55595,       7.00031,      -2.84394,   32.6019E-03
C:/temp/dataset/3/13_6.odb,Step-1,Increment      1: Step Time =    1.000,"PART-1-1",           595,       13.1418,       8.51598,            0.,NA,NA,"",       7.34250,       7.01691,      -2.16224,   20.8783E-03
C:/temp/dataset/3/13_6.odb,Step-1,Increment      1: Step Time =    1.000,"PART-1-1",           596,       6.30252,      -5.49102,            0.,NA,NA,"",       3.00531,       2.94179,   614.630E-03,   39.9396E-03
C:/temp/dataset/3/13_6.odb,Step-1,Increment      1: Step Time =    1.000,"PART-1-1",           597,            5.,         -6.25,            0.,NA,NA,"",       2.97226,       2.81591,   951.309E-03,   74.4695E-03
C:/temp/dataset/3/13_6.odb,Step-1,Increment      1: Step Time =    1.000,"PART-1-1",           598,       6.10325,      -7.87566,            0.,NA,NA,"",       2.42246,       2.33450,   646.850E-03,   50.5572E-03
C:/temp/dataset/3/13_6.odb,Step-1,Increment      1: Step Time =    1.000,"PART-1-1",           599,       7.40577,      -7.11668,            0.,NA,NA,"",       2.48877,       2.46536,   340.524E-03,   27.2836E-03
C:/temp/dataset/3/13_6.odb,Step-1,Increment      1: Step Time =    1.000,"PART-1-1",           600,            5.,         -8.75,            0.,NA,NA,"",       2.34686,       2.17882,   872.065E-03,   66.3272E-03
C:/temp/dataset/3/13_6.odb,Step-1,Increment      1: Step Time =    1.000,"PART-1-1",           601,            5.,        -13.75,            0.,NA,NA,"",       1.30115,       1.11501,   670.621E-03,   72.8752E-03
C:/temp/dataset/3/13_6.odb,Step-1,Increment      1: Step Time =    1.000,"PART-1-1",           602,       5.77894,      -15.1288,            0.,NA,NA,"",   975.024E-03,   845.938E-03,   484.831E-03,   65.4553E-03
C:/temp/dataset/3/13_6.odb,Step-1,Increment      1: Step Time =    1.000,"PART-1-1",           603,            5.,        -16.25,            0.,NA,NA,"",   884.178E-03,   702.150E-03,   537.360E-03,   79.0934E-03
C:/temp/dataset/3/13_6.odb,Step-1,Increment      1: Step Time =    1.000,"PART-1-1",           604,       2.77244,      -24.0596,            0.,NA,NA,"",   95.2438E-03,   64.8284E-03,   69.7758E-03,   24.4420E-03
C:/temp/dataset/3/13_6.odb,Step-1,Increment      1: Step Time =    1.000,"PART-1-1",           605,       3.76359,      -25.5842,            0.,NA,NA,"",   67.8861E-03,   35.5304E-03,   57.8456E-03,   22.4196E-03
C:/temp/dataset/3/13_6.odb,Step-1,Increment      1: Step Time =    1.000,"PART-1-1",           606,       5.11162,      -24.8806,            0.,NA,NA,"",   80.7232E-03,   30.9078E-03,   74.5718E-03,   27.3906E-03
C:/temp/dataset/3/13_6.odb,Step-1,Increment      1: Step Time =    1.000,"PART-1-1",           607,       4.12047,      -23.3559,            0.,NA,NA,"",   126.081E-03,   70.1959E-03,   104.733E-03,   31.6237E-03
C:/temp/dataset/3/13_6.odb,Step-1,Increment      1: Step Time =    1.000,"PART-1-1",           608,       8.48587,      -2.76980,            0.,NA,NA,"",       3.64014,       3.63990,  -42.2421E-03,   19.3384E-03
C:/temp/dataset/3/13_6.odb,Step-1,Increment      1: Step Time =    1.000,"PART-1-1",           609,       9.66601,      -3.38468,            0.,NA,NA,"",       3.42361,       3.40661,  -340.759E-03,   14.0216E-03
C:/temp/dataset/3/13_6.odb,Step-1,Increment      1: Step Time =    1.000,"PART-1-1",           610,       9.40849,      -1.21164,            0.,NA,NA,"",       4.08144,       4.06555,  -359.769E-03,   12.7843E-03
C:/temp/dataset/3/13_6.odb,Step-1,Increment      1: Step Time =    1.000,"PART-1-1",           611,       3.88333,            5.,            0.,NA,NA,"",       6.36835,       6.28458,       1.02958,   18.3325E-03
C:/temp/dataset/3/13_6.odb,Step-1,Increment      1: Step Time =    1.000,"PART-1-1",           612,       3.93709,       2.49951,            0.,NA,NA,"",       5.63807,       5.52612,       1.11795,   16.3216E-03
C:/temp/dataset/3/13_6.odb,Step-1,Increment      1: Step Time =    1.000,"PART-1-1",           613,       5.14044,       3.62548,            0.,NA,NA,"",       5.86470,       5.81808,   737.990E-03,   30.2941E-03
C:/temp/dataset/3/13_6.odb,Step-1,Increment      1: Step Time =    1.000,"PART-1-1",           614,       1.70000,           -5.,            0.,NA,NA,"",       3.94273,       3.33356,       2.10535,   3.42290E-03
C:/temp/dataset/3/13_6.odb,Step-1,Increment      1: Step Time =    1.000,"PART-1-1",           615,       2.88648,      -4.17028,            0.,NA,NA,"",       3.91436,       3.53207,       1.68723,   7.12533E-03
C:/temp/dataset/3/13_6.odb,Step-1,Increment      1: Step Time =    1.000,"PART-1-1",           616,       1.90498,      -3.27989,            0.,NA,NA,"",       4.32539,       3.85767,       1.95637,   4.99294E-03
C:/temp/dataset/3/13_6.odb,Step-1,Increment      1: Step Time =    1.000,"PART-1-1",           617,      -2.82853,       3.20340,            0.,NA,NA,"",       6.79888,       6.05168,       3.09870,   847.923E-06
C:/temp/dataset/3/13_6.odb,Step-1,Increment      1: Step Time =    1.000,"PART-1-1",           618,      -1.73717,       4.08745,            0.,NA,NA,"",       6.83463,       6.26685,       2.72741,   1.14837E-03
C:/temp/dataset/3/13_6.odb,Step-1,Increment      1: Step Time =    1.000,"PART-1-1",           619,      -2.81667,            5.,            0.,NA,NA,"",       7.24951,       6.59439,       3.01156,   1.23247E-03
C:/temp/dataset/3/13_6.odb,Step-1,Increment      1: Step Time =    1.000,"PART-1-1",           620,      -7.28333,            5.,            0.,NA,NA,"",       8.08654,       6.80686,       4.36564,   150.731E-06
C:/temp/dataset/3/13_6.odb,Step-1,Increment      1: Step Time =    1.000,"PART-1-1",           621,      -11.7000,            5.,            0.,NA,NA,"",       9.04224,       7.01507,       5.70535,   1.63894E-06
C:/temp/dataset/3/13_6.odb,Step-1,Increment      1: Step Time =    1.000,"PART-1-1",           622,      -11.5540,       2.50359,            0.,NA,NA,"",       8.51285,       6.25106,       5.77866,   22.2509E-06
C:/temp/dataset/3/13_6.odb,Step-1,Increment      1: Step Time =    1.000,"PART-1-1",           623,      -8.37698,      -4.01732,            0.,NA,NA,"",       6.57629,       4.12392,       5.12258,   69.7068E-06
C:/temp/dataset/3/13_6.odb,Step-1,Increment      1: Step Time =    1.000,"PART-1-1",           624,      -10.5279,      -3.86372,            0.,NA,NA,"",       7.17719,       4.27179,       5.76748,   17.1370E-06
C:/temp/dataset/3/13_6.odb,Step-1,Increment      1: Step Time =    1.000,"PART-1-1",           625,      -9.41667,           -5.,            0.,NA,NA,"",       6.71488,       3.87491,       5.48404,   31.9576E-06
C:/temp/dataset/3/13_6.odb,Step-1,Increment      1: Step Time =    1.000,"PART-1-1",           626,          3.75,          -20.,            0.,NA,NA,"",   158.805E-03,   107.232E-03,   117.134E-03,   56.9375E-03
C:/temp/dataset/3/13_6.odb,Step-1,Increment      1: Step Time =    1.000,"PART-1-1",           627,       2.74072,      -21.3682,            0.,NA,NA,"",   133.923E-03,   97.7493E-03,   91.5445E-03,   20.4927E-03
C:/temp/dataset/3/13_6.odb,Step-1,Increment      1: Step Time =    1.000,"PART-1-1",           628,       4.11640,      -22.1674,            0.,NA,NA,"",   163.911E-03,   99.6520E-03,   130.140E-03,   39.2690E-03
C:/temp/dataset/3/13_6.odb,Step-1,Increment      1: Step Time =    1.000,"PART-1-1",           629,       5.12568,      -20.7992,            0.,NA,NA,"",   239.586E-03,   133.064E-03,   199.237E-03,   68.1950E-03
C:/temp/dataset/3/13_6.odb,Step-1,Increment      1: Step Time =    1.000,"PART-1-1",           630,          1.25,          -20.,            0.,NA,NA,"",   73.4147E-03,   59.4066E-03,   43.1343E-03,   11.9830E-03
C:/temp/dataset/3/13_6.odb,Step-1,Increment      1: Step Time =    1.000,"PART-1-1",           631,   73.0809E-03,      -21.3299,            0.,NA,NA,"",   73.9094E-03,   67.2423E-03,   30.6768E-03,   8.47457E-03
C:/temp/dataset/3/13_6.odb,Step-1,Increment      1: Step Time =    1.000,"PART-1-1",           632,       1.56380,      -22.6981,            0.,NA,NA,"",   99.7306E-03,   79.6401E-03,   60.0304E-03,   21.8034E-03
C:/temp/dataset/3/13_6.odb,Step-1,Increment      1: Step Time =    1.000,"PART-1-1",           633,         -1.25,          -20.,            0.,NA,NA,"",   55.5733E-03,   53.3157E-03,   15.6787E-03,   3.35927E-03
C:/temp/dataset/3/13_6.odb,Step-1,Increment      1: Step Time =    1.000,"PART-1-1",           634,      -2.46493,      -21.3147,            0.,NA,NA,"",   56.5865E-03,   55.8269E-03,   9.24011E-03,   4.06845E-03
C:/temp/dataset/3/13_6.odb,Step-1,Increment      1: Step Time =    1.000,"PART-1-1",           635,      -1.14185,      -22.6446,            0.,NA,NA,"",   66.7810E-03,   63.4110E-03,   20.9463E-03,   9.49893E-03
C:/temp/dataset/3/13_6.odb,Step-1,Increment      1: Step Time =    1.000,"PART-1-1",           636,         -3.75,          -20.,            0.,NA,NA,"",   48.5129E-03,   48.4810E-03,   1.75834E-03,   1.70707E-03
C:/temp/dataset/3/13_6.odb,Step-1,Increment      1: Step Time =    1.000,"PART-1-1",           637,      -4.97847,      -21.2978,            0.,NA,NA,"",   49.1164E-03,   49.1144E-03,  -436.126E-06,   2.16362E-03
C:/temp/dataset/3/13_6.odb,Step-1,Increment      1: Step Time =    1.000,"PART-1-1",           638,      -3.69340,      -22.6125,            0.,NA,NA,"",   52.8053E-03,   52.5864E-03,   4.80332E-03,   4.98408E-03
C:/temp/dataset/3/13_6.odb,Step-1,Increment      1: Step Time =    1.000,"PART-1-1",           639,      -4.95791,      -23.8547,            0.,NA,NA,"",   46.2496E-03,   46.1927E-03,   2.29429E-03,   4.65632E-03
C:/temp/dataset/3/13_6.odb,Step-1,Increment      1: Step Time =    1.000,"PART-1-1",           640,      -6.21189,      -22.5887,            0.,NA,NA,"",   45.9673E-03,   45.9560E-03,  -1.01688E-03,   3.01111E-03
C:/temp/dataset/3/13_6.odb,Step-1,Increment      1: Step Time =    1.000,"PART-1-1",           641,      -7.46939,      -23.8324,            0.,NA,NA,"",   40.2206E-03,   40.2138E-03,  -735.290E-06,   3.14046E-03
C:/temp/dataset/3/13_6.odb,Step-1,Increment      1: Step Time =    1.000,"PART-1-1",           642,           15.,        -13.75,            0.,NA,NA,"",       1.36916,   972.261E-03,  -964.010E-03,   73.3061E-03
C:/temp/dataset/3/13_6.odb,Step-1,Increment      1: Step Time =    1.000,"PART-1-1",           643,       14.2106,      -12.3304,            0.,NA,NA,"",       1.51604,       1.20082,  -925.424E-03,   59.1856E-03
C:/temp/dataset/3/13_6.odb,Step-1,Increment      1: Step Time =    1.000,"PART-1-1",           644,       13.1387,      -13.2101,            0.,NA,NA,"",       1.23943,       1.03941,  -675.155E-03,   44.0199E-03
C:/temp/dataset/3/13_6.odb,Step-1,Increment      1: Step Time =    1.000,"PART-1-1",           645,           15.,        -11.25,            0.,NA,NA,"",       1.82782,       1.40848,      -1.16495,   68.7965E-03
C:/temp/dataset/3/13_6.odb,Step-1,Increment      1: Step Time =    1.000,"PART-1-1",           646,           15.,         -6.25,            0.,NA,NA,"",       2.96096,       2.50494,      -1.57879,   56.4663E-03
C:/temp/dataset/3/13_6.odb,Step-1,Increment      1: Step Time =    1.000,"PART-1-1",           647,       14.0624,      -4.92369,            0.,NA,NA,"",       3.19465,       2.85612,      -1.43123,   43.1496E-03
C:/temp/dataset/3/13_6.odb,Step-1,Increment      1: Step Time =    1.000,"PART-1-1",           648,       12.9264,      -6.09194,            0.,NA,NA,"",       2.77885,       2.57243,      -1.05102,   33.9165E-03
C:/temp/dataset/3/13_6.odb,Step-1,Increment      1: Step Time =    1.000,"PART-1-1",           649,           15.,         -3.75,            0.,NA,NA,"",       3.62337,       3.15230,      -1.78656,   48.6162E-03
C:/temp/dataset/3/13_6.odb,Step-1,Increment      1: Step Time =    1.000,"PART-1-1",           650,       13.0440,      -3.68493,            0.,NA,NA,"",       3.44421,       3.21292,      -1.24086,   31.3847E-03
C:/temp/dataset/3/13_6.odb,Step-1,Increment      1: Step Time =    1.000,"PART-1-1",           651,       8.06094,   477.426E-03,            0.,NA,NA,"",       4.65698,       4.65687,  -32.6974E-03,   16.3056E-03
C:/temp/dataset/3/13_6.odb,Step-1,Increment      1: Step Time =    1.000,"PART-1-1",           652,       8.76493,       2.31856,            0.,NA,NA,"",       5.20333,       5.19367,  -317.060E-03,   9.79321E-03
C:/temp/dataset/3/13_6.odb,Step-1,Increment      1: Step Time =    1.000,"PART-1-1",           653,       6.73548,       2.80805,            0.,NA,NA,"",       5.47267,       5.46521,   285.731E-03,   20.3218E-03
C:/temp/dataset/3/13_6.odb,Step-1,Increment      1: Step Time =    1.000,"PART-1-1",           654,       6.03149,   966.916E-03,            0.,NA,NA,"",       4.96001,       4.92918,   552.138E-03,   24.0181E-03
C:/temp/dataset/3/13_6.odb,Step-1,Increment      1: Step Time =    1.000,"PART-1-1",           655,            5.,          8.75,            0.,NA,NA,"",       7.65382,       7.62617,   649.970E-03,   34.3844E-03
C:/temp/dataset/3/13_6.odb,Step-1,Increment      1: Step Time =    1.000,"PART-1-1",           656,       7.16919,       9.14751,            0.,NA,NA,"",       7.60866,       7.60763,  -125.312E-03,   19.8791E-03
C:/temp/dataset/3/13_6.odb,Step-1,Increment      1: Step Time =    1.000,"PART-1-1",           657,          3.75,           30.,            0.,NA,NA,"",       16.1676,       16.1650,  -292.711E-03,   7.44692E-03
C:/temp/dataset/3/13_6.odb,Step-1,Increment      1: Step Time =    1.000,"PART-1-1",           658,       3.71036,       27.5731,            0.,NA,NA,"",       15.1847,       15.1845,  -76.0819E-03,   5.15860E-03
C:/temp/dataset/3/13_6.odb,Step-1,Increment      1: Step Time =    1.000,"PART-1-1",           659,       7.38617,       23.8490,            0.,NA,NA,"",       13.4083,       13.3512,      -1.23542,   7.02404E-03
C:/temp/dataset/3/13_6.odb,Step-1,Increment      1: Step Time =    1.000,"PART-1-1",           660,       6.16255,       25.1024,            0.,NA,NA,"",       13.9920,       13.9660,  -852.642E-03,   5.36570E-03
C:/temp/dataset/3/13_6.odb,Step-1,Increment      1: Step Time =    1.000,"PART-1-1",           661,       4.93576,       23.8439,            0.,NA,NA,"",       13.5643,       13.5618,  -257.820E-03,   4.82321E-03
C:/temp/dataset/3/13_6.odb,Step-1,Increment      1: Step Time =    1.000,"PART-1-1",           662,       6.15938,       22.5905,            0.,NA,NA,"",       12.9614,       12.9453,  -644.825E-03,   6.48596E-03
C:/temp/dataset/3/13_6.odb,Step-1,Increment      1: Step Time =    1.000,"PART-1-1",           663,      -10.0017,       23.7560,            0.,NA,NA,"",       15.9729,       14.8610,       5.85548,   1.78259E-03
C:/temp/dataset/3/13_6.odb,Step-1,Increment      1: Step Time =    1.000,"PART-1-1",           664,      -8.75135,       22.5073,            0.,NA,NA,"",       15.2372,       14.2293,       5.44959,   697.314E-06
C:/temp/dataset/3/13_6.odb,Step-1,Increment      1: Step Time =    1.000,"PART-1-1",           665,      -10.0004,       21.2526,            0.,NA,NA,"",       15.1000,       13.8218,       6.08012,   376.301E-06
C:/temp/dataset/3/13_6.odb,Step-1,Increment      1: Step Time =    1.000,"PART-1-1",           666,      -11.2505,       22.5043,            0.,NA,NA,"",       15.8433,       14.4546,       6.48640,   428.435E-06
C:/temp/dataset/3/13_6.odb,Step-1,Increment      1: Step Time =    1.000,"PART-1-1",           667,        -11.25,           20.,            0.,NA,NA,"",       15.0000,       13.4139,       6.71329,   1.12035E-03
C:/temp/dataset/3/13_6.odb,Step-1,Increment      1: Step Time =    1.000,"PART-1-1",           668,         -8.75,           20.,            0.,NA,NA,"",       14.3599,       13.1912,       5.67446,   1.42558E-03
C:/temp/dataset/3/13_6.odb,Step-1,Increment      1: Step Time =    1.000,"PART-1-1",           669,       7.37456,       21.3253,            0.,NA,NA,"",       12.3688,       12.3264,      -1.02368,   8.80890E-03
C:/temp/dataset/3/13_6.odb,Step-1,Increment      1: Step Time =    1.000,"PART-1-1",           670,      -1.26076,       25.0501,            0.,NA,NA,"",       14.7596,       14.6021,       2.15036,   2.86451E-03
C:/temp/dataset/3/13_6.odb,Step-1,Increment      1: Step Time =    1.000,"PART-1-1",           671,      -2.50213,       23.7814,            0.,NA,NA,"",       14.4606,       14.1934,       2.76698,   1.83038E-03
C:/temp/dataset/3/13_6.odb,Step-1,Increment      1: Step Time =    1.000,"PART-1-1",           672,          1.25,           20.,            0.,NA,NA,"",       12.4188,       12.3198,       1.56516,   921.149E-06
C:/temp/dataset/3/13_6.odb,Step-1,Increment      1: Step Time =    1.000,"PART-1-1",           673,            5.,         13.75,            0.,NA,NA,"",       9.52415,       9.51499,   417.574E-03,   24.2790E-03
C:/temp/dataset/3/13_6.odb,Step-1,Increment      1: Step Time =    1.000,"PART-1-1",           674,       7.85923,       4.51418,            0.,NA,NA,"",       5.94807,       5.94669,  -128.391E-03,   11.9205E-03
C:/temp/dataset/3/13_6.odb,Step-1,Increment      1: Step Time =    1.000,"PART-1-1",           675,       9.45843,       7.45797,            0.,NA,NA,"",       6.90377,       6.85561,  -814.036E-03,   7.17308E-03
C:/temp/dataset/3/13_6.odb,Step-1,Increment      1: Step Time =    1.000,"PART-1-1",           676,       11.3500,       8.04392,            0.,NA,NA,"",       7.11153,       6.95132,      -1.50101,   11.5133E-03
C:/temp/dataset/3/13_6.odb,Step-1,Increment      1: Step Time =    1.000,"PART-1-1",           677,       10.2386,       8.70699,            0.,NA,NA,"",       7.34200,       7.24932,      -1.16287,   7.74709E-03
C:/temp/dataset/3/13_6.odb,Step-1,Increment      1: Step Time =    1.000,"PART-1-1",           678,   133.314E-03,       2.02047,            0.,NA,NA,"",       5.99832,       5.55687,       2.25854,   1.16945E-03
C:/temp/dataset/3/13_6.odb,Step-1,Increment      1: Step Time =    1.000,"PART-1-1",           679,       2.26054,       1.70692,            0.,NA,NA,"",       5.60642,       5.36239,       1.63608,   6.92503E-03
C:/temp/dataset/3/13_6.odb,Step-1,Increment      1: Step Time =    1.000,"PART-1-1",           680,  -583.333E-03,            5.,            0.,NA,NA,"",       6.89503,       6.48662,       2.33776,   2.75560E-03
C:/temp/dataset/3/13_6.odb,Step-1,Increment      1: Step Time =    1.000,"PART-1-1",           681,  -713.179E-03,       3.09316,            0.,NA,NA,"",       6.41148,       5.91912,       2.46395,   823.357E-06
C:/temp/dataset/3/13_6.odb,Step-1,Increment      1: Step Time =    1.000,"PART-1-1",           682,      -10.2084,       1.19941,            0.,NA,NA,"",       7.94077,       5.79219,       5.43198,   48.8175E-06
C:/temp/dataset/3/13_6.odb,Step-1,Increment      1: Step Time =    1.000,"PART-1-1",           683,      -7.18333,           -5.,            0.,NA,NA,"",       6.10881,       3.76968,       4.80699,   150.675E-06
C:/temp/dataset/3/13_6.odb,Step-1,Increment      1: Step Time =    1.000,"PART-1-1",           684,      -7.36178,      -2.99006,            0.,NA,NA,"",       6.47850,       4.38771,       4.76644,   209.732E-06
C:/temp/dataset/3/13_6.odb,Step-1,Increment      1: Step Time =    1.000,"PART-1-1",           685,      -11.3125,  -91.5578E-03,            0.,NA,NA,"",       7.98083,       5.45267,       5.82769,   38.2498E-06
C:/temp/dataset/3/13_6.odb,Step-1,Increment      1: Step Time =    1.000,"PART-1-1",           686,      -11.6500,           -5.,            0.,NA,NA,"",       7.33496,       3.98005,       6.16124,   1.68180E-06
C:/temp/dataset/3/13_6.odb,Step-1,Increment      1: Step Time =    1.000,"PART-1-1",           687,      -11.6245,      -2.63993,            0.,NA,NA,"",       7.65173,       4.69454,       6.04237,   20.0776E-06
C:/temp/dataset/3/13_6.odb,Step-1,Increment      1: Step Time =    1.000,"PART-1-1",           688,      -1.03706,       1.18772,            0.,NA,NA,"",       5.97915,       5.35967,       2.65030,   830.096E-06
C:/temp/dataset/3/13_6.odb,Step-1,Increment      1: Step Time =    1.000,"PART-1-1",           689,      -2.26684,   407.252E-03,            0.,NA,NA,"",       6.01665,       5.18043,       3.05995,   948.800E-06
C:/temp/dataset/3/13_6.odb,Step-1,Increment      1: Step Time =    1.000,"PART-1-1",           690,      -1.61706,  -775.207E-03,            0.,NA,NA,"",       5.61066,       4.79164,       2.91884,   882.332E-06
C:/temp/dataset/3/13_6.odb,Step-1,Increment      1: Step Time =    1.000,"PART-1-1",           691,      -4.44627,  -189.662E-03,            0.,NA,NA,"",       6.33073,       5.10078,       3.74968,   665.064E-06
C:/temp/dataset/3/13_6.odb,Step-1,Increment      1: Step Time =    1.000,"PART-1-1",           692,      -3.83065,   850.686E-03,            0.,NA,NA,"",       6.43176,       5.38731,       3.51346,   709.628E-06
C:/temp/dataset/3/13_6.odb,Step-1,Increment      1: Step Time =    1.000,"PART-1-1",           693,      -5.38306,   384.196E-03,            0.,NA,NA,"",       6.65878,       5.31845,       4.00668,   466.751E-06
C:/temp/dataset/3/13_6.odb,Step-1,Increment      1: Step Time =    1.000,"PART-1-1",           694,       3.90000,           -5.,            0.,NA,NA,"",       3.50969,       3.21829,       1.40020,   21.4584E-03
C:/temp/dataset/3/13_6.odb,Step-1,Increment      1: Step Time =    1.000,"PART-1-1",           695,       5.25667,      -4.01677,            0.,NA,NA,"",       3.55751,       3.44152,   901.018E-03,   41.3612E-03
C:/temp/dataset/3/13_6.odb,Step-1,Increment      1: Step Time =    1.000,"PART-1-1",           696,       4.24316,      -3.18705,            0.,NA,NA,"",       3.94855,       3.75961,       1.20682,   21.0912E-03
C:/temp/dataset/3/13_6.odb,Step-1,Increment      1: Step Time =    1.000,"PART-1-1",           697,       9.51721,      -4.82762,            0.,NA,NA,"",       3.01016,       3.00020,  -244.681E-03,   13.6660E-03
C:/temp/dataset/3/13_6.odb,Step-1,Increment      1: Step Time =    1.000,"PART-1-1",           698,       8.04384,      -4.93500,            0.,NA,NA,"",       3.02845,       3.02506,   143.098E-03,   21.0409E-03
C:/temp/dataset/3/13_6.odb,Step-1,Increment      1: Step Time =    1.000,"PART-1-1",           699,       8.61490,      -6.56470,            0.,NA,NA,"",       2.56282,       2.56257,   35.2051E-03,   14.3262E-03
C:/temp/dataset/3/13_6.odb,Step-1,Increment      1: Step Time =    1.000,"PART-1-1",           700,       10.0883,      -6.45732,            0.,NA,NA,"",       2.56446,       2.54342,  -327.800E-03,   11.1257E-03
C:/temp/dataset/3/13_6.odb,Step-1,Increment      1: Step Time =    1.000,"PART-1-1",           701,       9.29828,      -8.00429,            0.,NA,NA,"",       2.17918,       2.17713,  -94.3134E-03,   10.9949E-03
C:/temp/dataset/3/13_6.odb,Step-1,Increment      1: Step Time =    1.000,"PART-1-1",           702,       6.27674,      -21.4047,            0.,NA,NA,"",   184.515E-03,   100.071E-03,   155.021E-03,   38.8519E-03
C:/temp/dataset/3/13_6.odb,Step-1,Increment      1: Step Time =    1.000,"PART-1-1",           703,       7.27122,      -20.3583,            0.,NA,NA,"",   200.049E-03,   148.308E-03,   134.254E-03,   27.8187E-03
C:/temp/dataset/3/13_6.odb,Step-1,Increment      1: Step Time =    1.000,"PART-1-1",           704,         -6.25,          -20.,            0.,NA,NA,"",   46.8837E-03,   46.8053E-03,  -2.70859E-03,   617.737E-06
C:/temp/dataset/3/13_6.odb,Step-1,Increment      1: Step Time =    1.000,"PART-1-1",           705,         -1.25,          -30.,            0.,NA,NA,"",            0.,   9.01390E-39,   11.5090E-39,   10.8190E-03
C:/temp/dataset/3/13_6.odb,Step-1,Increment      1: Step Time =    1.000,"PART-1-1",           706,       8.60683,      -25.8105,            0.,NA,NA,"",   20.3132E-03,  -18.2515E-03,   8.91678E-03,   11.4562E-03
C:/temp/dataset/3/13_6.odb,Step-1,Increment      1: Step Time =    1.000,"PART-1-1",           707,       7.41490,      -26.9159,            0.,NA,NA,"",   26.2783E-03,  -16.0523E-03,   20.8056E-03,   14.1381E-03
C:/temp/dataset/3/13_6.odb,Step-1,Increment      1: Step Time =    1.000,"PART-1-1",           708,       6.17638,      -25.8614,            0.,NA,NA,"",   49.3977E-03,   4.87396E-03,   49.1567E-03,   18.9122E-03
C:/temp/dataset/3/13_6.odb,Step-1,Increment      1: Step Time =    1.000,"PART-1-1",           709,       7.37219,      -25.0876,            0.,NA,NA,"",   43.9193E-03,   200.079E-06,   43.9189E-03,   18.6551E-03
C:/temp/dataset/3/13_6.odb,Step-1,Increment      1: Step Time =    1.000,"PART-1-1",           710,       6.30743,      -24.1068,            0.,NA,NA,"",   86.9918E-03,   29.2145E-03,   81.9395E-03,   23.8176E-03
C:/temp/dataset/3/13_6.odb,Step-1,Increment      1: Step Time =    1.000,"PART-1-1",           711,   113.079E-03,      -23.9373,            0.,NA,NA,"",   72.8665E-03,   64.0344E-03,   34.7723E-03,   13.9848E-03
C:/temp/dataset/3/13_6.odb,Step-1,Increment      1: Step Time =    1.000,"PART-1-1",           712,      -2.43554,      -23.8906,            0.,NA,NA,"",   55.9597E-03,   54.6318E-03,   12.1180E-03,   7.21204E-03
C:/temp/dataset/3/13_6.odb,Step-1,Increment      1: Step Time =    1.000,"PART-1-1",           713,      -8.72529,      -25.0755,            0.,NA,NA,"",   32.8606E-03,   32.8606E-03,   76.6900E-06,   3.48652E-03
C:/temp/dataset/3/13_6.odb,Step-1,Increment      1: Step Time =    1.000,"PART-1-1",           714,      -9.97606,      -23.8175,            0.,NA,NA,"",   36.5083E-03,   36.5067E-03,   343.435E-06,   2.07821E-03
C:/temp/dataset/3/13_6.odb,Step-1,Increment      1: Step Time =    1.000,"PART-1-1",           715,      -9.99641,      -28.7682,            0.,NA,NA,"",   8.71638E-03,   8.67865E-03,   810.142E-06,   4.53701E-03
C:/temp/dataset/3/13_6.odb,Step-1,Increment      1: Step Time =    1.000,"PART-1-1",           716,      -11.2465,      -27.5281,            0.,NA,NA,"",   16.1507E-03,   16.0781E-03,   1.53000E-03,   3.98843E-03
C:/temp/dataset/3/13_6.odb,Step-1,Increment      1: Step Time =    1.000,"PART-1-1",           717,        -11.25,          -30.,            0.,NA,NA,"",            0.,   3.90606E-39,   2.72116E-39,   4.26113E-03
C:/temp/dataset/3/13_6.odb,Step-1,Increment      1: Step Time =    1.000,"PART-1-1",           718,         -8.75,          -30.,            0.,NA,NA,"",            0.,   4.98688E-39,   2.49708E-39,   5.42765E-03
C:/temp/dataset/3/13_6.odb,Step-1,Increment      1: Step Time =    1.000,"PART-1-1",           719,      -8.73783,      -27.5479,            0.,NA,NA,"",   18.4556E-03,   18.4330E-03,   912.215E-06,   4.84749E-03
C:/temp/dataset/3/13_6.odb,Step-1,Increment      1: Step Time =    1.000,"PART-1-1",           720,       9.45286,      -20.3748,            0.,NA,NA,"",   150.893E-03,   149.354E-03,  -21.4934E-03,   9.69068E-03
C:/temp/dataset/3/13_6.odb,Step-1,Increment      1: Step Time =    1.000,"PART-1-1",           721,       8.38706,      -19.4374,            0.,NA,NA,"",   230.827E-03,   221.237E-03,   65.8441E-03,   15.5019E-03
C:/temp/dataset/3/13_6.odb,Step-1,Increment      1: Step Time =    1.000,"PART-1-1",           722,       8.33702,      -21.2957,            0.,NA,NA,"",   110.468E-03,   95.2301E-03,   55.9860E-03,   16.1581E-03
C:/temp/dataset/3/13_6.odb,Step-1,Increment      1: Step Time =    1.000,"PART-1-1",           723,       9.34035,      -18.0986,            0.,NA,NA,"",   350.590E-03,   350.090E-03,  -18.7263E-03,   6.68042E-03
C:/temp/dataset/3/13_6.odb,Step-1,Increment      1: Step Time =    1.000,"PART-1-1",           724,       10.7511,      -19.4747,            0.,NA,NA,"",   262.232E-03,   220.924E-03,  -141.273E-03,   17.5890E-03
C:/temp/dataset/3/13_6.odb,Step-1,Increment      1: Step Time =    1.000,"PART-1-1",           725,       9.57777,      -9.07511,            0.,NA,NA,"",       1.92026,       1.91567,  -132.694E-03,   9.09287E-03
C:/temp/dataset/3/13_6.odb,Step-1,Increment      1: Step Time =    1.000,"PART-1-1",           726,       10.3854,      -7.79904,            0.,NA,NA,"",       2.22506,       2.19737,  -349.966E-03,   11.0750E-03
C:/temp/dataset/3/13_6.odb,Step-1,Increment      1: Step Time =    1.000,"PART-1-1",           727,       11.9371,      -7.89361,            0.,NA,NA,"",       2.25585,       2.14253,  -706.005E-03,   24.8443E-03
C:/temp/dataset/3/13_6.odb,Step-1,Increment      1: Step Time =    1.000,"PART-1-1",           728,       11.6400,      -6.55190,            0.,NA,NA,"",       2.57780,       2.48004,  -703.151E-03,   22.5478E-03
C:/temp/dataset/3/13_6.odb,Step-1,Increment      1: Step Time =    1.000,"PART-1-1",           729,       9.29748,       3.92298,            0.,NA,NA,"",       5.70424,       5.67672,  -559.626E-03,   2.67450E-03
C:/temp/dataset/3/13_6.odb,Step-1,Increment      1: Step Time =    1.000,"PART-1-1",           730,       10.7408,       1.93669,            0.,NA,NA,"",       5.05342,       4.97114,  -908.215E-03,   6.96146E-03
C:/temp/dataset/3/13_6.odb,Step-1,Increment      1: Step Time =    1.000,"PART-1-1",           731,       12.1175,       9.30164,            0.,NA,NA,"",       7.58272,       7.35010,      -1.86377,   14.7083E-03
C:/temp/dataset/3/13_6.odb,Step-1,Increment      1: Step Time =    1.000,"PART-1-1",           732,       12.3743,       7.25826,            0.,NA,NA,"",       6.86372,       6.62468,      -1.79563,   17.4267E-03
C:/temp/dataset/3/13_6.odb,Step-1,Increment      1: Step Time =    1.000,"PART-1-1",           733,       9.86952,       23.8294,            0.,NA,NA,"",       13.3204,       13.1350,      -2.21441,   7.36840E-03
C:/temp/dataset/3/13_6.odb,Step-1,Increment      1: Step Time =    1.000,"PART-1-1",           734,       8.61965,       22.5851,            0.,NA,NA,"",       12.8362,       12.7339,      -1.61737,   7.93282E-03
C:/temp/dataset/3/13_6.odb,Step-1,Increment      1: Step Time =    1.000,"PART-1-1",           735,         11.25,           30.,            0.,NA,NA,"",       15.8498,       15.5064,      -3.28122,   1.54344E-03
C:/temp/dataset/3/13_6.odb,Step-1,Increment      1: Step Time =    1.000,"PART-1-1",           736,       9.97488,       28.7673,            0.,NA,NA,"",       15.3550,       15.1207,      -2.67220,   3.25891E-03
C:/temp/dataset/3/13_6.odb,Step-1,Increment      1: Step Time =    1.000,"PART-1-1",           737,          8.75,           30.,            0.,NA,NA,"",       15.8848,       15.7193,      -2.28680,   4.08068E-03
C:/temp/dataset/3/13_6.odb,Step-1,Increment      1: Step Time =    1.000,"PART-1-1",           738,       3.69885,       25.0915,            0.,NA,NA,"",       14.1783,       14.1776,   135.783E-03,   4.00686E-03
C:/temp/dataset/3/13_6.odb,Step-1,Increment      1: Step Time =    1.000,"PART-1-1",           739,       4.94207,       26.3392,            0.,NA,NA,"",       14.5821,       14.5746,  -467.570E-03,   4.88866E-03
C:/temp/dataset/3/13_6.odb,Step-1,Increment      1: Step Time =    1.000,"PART-1-1",           740,         -6.25,           30.,            0.,NA,NA,"",       17.5083,       17.0991,       3.76293,   7.45717E-03
C:/temp/dataset/3/13_6.odb,Step-1,Increment      1: Step Time =    1.000,"PART-1-1",           741,      -11.2519,       25.0060,            0.,NA,NA,"",       16.7136,       15.4964,       6.26162,   3.03425E-03
C:/temp/dataset/3/13_6.odb,Step-1,Increment      1: Step Time =    1.000,"PART-1-1",           742,       11.7111,      -12.1867,            0.,NA,NA,"",       1.31188,       1.22563,  -467.829E-03,   23.2131E-03
C:/temp/dataset/3/13_6.odb,Step-1,Increment      1: Step Time =    1.000,"PART-1-1",           743,       12.0443,      -13.4388,            0.,NA,NA,"",       1.10738,   999.272E-03,  -477.216E-03,   28.7761E-03
C:/temp/dataset/3/13_6.odb,Step-1,Increment      1: Step Time =    1.000,"PART-1-1",           744,       9.07309,      -22.0228,            0.,NA,NA,"",   62.3268E-03,   61.9156E-03,   7.14801E-03,   13.6669E-03
C:/temp/dataset/3/13_6.odb,Step-1,Increment      1: Step Time =    1.000,"PART-1-1",           745,       9.10959,      -23.2638,            0.,NA,NA,"",   21.8028E-03,   21.6962E-03,   2.15350E-03,   14.8981E-03
C:/temp/dataset/3/13_6.odb,Step-1,Increment      1: Step Time =    1.000,"PART-1-1",           746,       10.5828,      -23.1781,            0.,NA,NA,"",   76.8931E-03,   24.9736E-03,  -72.7246E-03,   19.9050E-03
C:/temp/dataset/3/13_6.odb,Step-1,Increment      1: Step Time =    1.000,"PART-1-1",           747,       10.5463,      -21.9372,            0.,NA,NA,"",   110.296E-03,   68.7678E-03,  -86.2339E-03,   19.4698E-03
C:/temp/dataset/3/13_6.odb,Step-1,Increment      1: Step Time =    1.000,"PART-1-1",           748,      -1.00841,      -2.00181,            0.,NA,NA,"",       5.20259,       4.38992,       2.79205,   818.160E-06
C:/temp/dataset/3/13_6.odb,Step-1,Increment      1: Step Time =    1.000,"PART-1-1",           749,      -3.17395,      -1.50818,            0.,NA,NA,"",       5.76911,       4.64133,       3.42647,   798.330E-06
C:/temp/dataset/3/13_6.odb,Step-1,Increment      1: Step Time =    1.000,"PART-1-1",           750,       8.23699,       8.20647,            0.,NA,NA,"",       7.20869,       7.19507,  -443.044E-03,   14.2532E-03
C:/temp/dataset/3/13_6.odb,Step-1,Increment      1: Step Time =    1.000,"PART-1-1",           751,       8.58975,       6.06422,            0.,NA,NA,"",       6.44063,       6.42539,  -442.896E-03,   8.46129E-03
C:/temp/dataset/3/13_6.odb,Step-1,Increment      1: Step Time =    1.000,"PART-1-1",           752,       1.04870,      -2.29850,            0.,NA,NA,"",       4.73163,       4.20117,       2.17681,   2.60135E-03
C:/temp/dataset/3/13_6.odb,Step-1,Increment      1: Step Time =    1.000,"PART-1-1",           753,      -1.88356,       2.26041,            0.,NA,NA,"",       6.39602,       5.72278,       2.85639,   852.252E-06
C:/temp/dataset/3/13_6.odb,Step-1,Increment      1: Step Time =    1.000,"PART-1-1",           754,      -2.91638,       1.44829,            0.,NA,NA,"",       6.38916,       5.52555,       3.20775,   828.470E-06
C:/temp/dataset/3/13_6.odb,Step-1,Increment      1: Step Time =    1.000,"PART-1-1",           755,       3.03453,      -2.52132,            0.,NA,NA,"",       4.32720,       4.03236,       1.56994,   11.7520E-03
C:/temp/dataset/3/13_6.odb,Step-1,Increment      1: Step Time =    1.000,"PART-1-1",           756,       6.99799,      -3.46075,            0.,NA,NA,"",       3.52915,       3.50751,   390.193E-03,   26.9323E-03
C:/temp/dataset/3/13_6.odb,Step-1,Increment      1: Step Time =    1.000,"PART-1-1",           757,       7.63560,  -984.386E-03,            0.,NA,NA,"",       4.23142,       4.22906,   141.314E-03,   21.2863E-03
C:/temp/dataset/3/13_6.odb,Step-1,Increment      1: Step Time =    1.000,"PART-1-1",           758,       6.14771,      -1.67534,            0.,NA,NA,"",       4.14654,       4.10400,   592.409E-03,   27.4649E-03
C:/temp/dataset/3/13_6.odb,Step-1,Increment      1: Step Time =    1.000,"PART-1-1",           759,       4.94795,      -26.8240,            0.,NA,NA,"",   40.3965E-03,   9.43441E-03,   39.2794E-03,   20.0675E-03
C:/temp/dataset/3/13_6.odb,Step-1,Increment      1: Step Time =    1.000,"PART-1-1",           760,      -11.2341,      -25.0541,            0.,NA,NA,"",   30.1944E-03,   30.1179E-03,   2.14715E-03,   2.36734E-03
C:/temp/dataset/3/13_6.odb,Step-1,Increment      1: Step Time =    1.000,"PART-1-1",           761,      -9.98574,      -26.3021,            0.,NA,NA,"",   24.6822E-03,   24.6629E-03,   977.618E-06,   3.66339E-03
C:/temp/dataset/3/13_6.odb,Step-1,Increment      1: Step Time =    1.000,"PART-1-1",           762,           15.,        -26.25,            0.,NA,NA,"",   139.834E-03,   34.3223E-03,  -135.556E-03,   48.6848E-03
C:/temp/dataset/3/13_6.odb,Step-1,Increment      1: Step Time =    1.000,"PART-1-1",           763,       9.63478,      -24.7731,            0.,NA,NA,"",   22.1746E-03,  -10.2464E-03,  -19.6653E-03,   14.4779E-03
C:/temp/dataset/3/13_6.odb,Step-1,Increment      1: Step Time =    1.000,"PART-1-1",           764,       9.83383,   250.169E-03,            0.,NA,NA,"",       4.52545,       4.49221,  -547.474E-03,   8.66523E-03
C:/temp/dataset/3/13_6.odb,Step-1,Increment      1: Step Time =    1.000,"PART-1-1",           765,       11.1222,       22.5628,            0.,NA,NA,"",       12.7879,       12.5210,      -2.59912,   7.50369E-03
C:/temp/dataset/3/13_6.odb,Step-1,Increment      1: Step Time =    1.000,"PART-1-1",           766,       9.84566,       21.3197,            0.,NA,NA,"",       12.2845,       12.1219,      -1.99174,   8.66963E-03
C:/temp/dataset/3/13_6.odb,Step-1,Increment      1: Step Time =    1.000,"PART-1-1",           767,      -3.18112,  -190.353E-03,            0.,NA,NA,"",       6.06200,       5.04175,       3.36579,   859.502E-06
C:/temp/dataset/3/13_6.odb,Step-1,Increment      1: Step Time =    1.000,"PART-1-1",           768,       4.54417,       1.21940,            0.,NA,NA,"",       5.18839,       5.09434,   983.413E-03,   20.4679E-03
C:/temp/dataset/3/13_6.odb,Step-1,Increment      1: Step Time =    1.000,"PART-1-1",           769,       9.22107,       9.51460,            0.,NA,NA,"",       7.65186,       7.60316,  -861.939E-03,   9.22597E-03
C:/temp/dataset/3/13_6.odb,Step-1,Increment      1: Step Time =    1.000,"PART-1-1",           770,       11.1709,      -3.71800,            0.,NA,NA,"",       3.33777,       3.25700,  -729.845E-03,   17.8798E-03
C:/temp/dataset/3/13_6.odb,Step-1,Increment      1: Step Time =    1.000,"PART-1-1",           771,       11.0221,      -5.16095,            0.,NA,NA,"",       2.92706,       2.86122,  -617.362E-03,   17.4358E-03
C:/temp/dataset/3/13_6.odb,Step-1,Increment      1: Step Time =    1.000,"PART-1-1",           772,       12.3085,      -4.70099,            0.,NA,NA,"",       3.10975,       2.95220,  -977.271E-03,   26.7601E-03
C:/temp/dataset/3/13_6.odb,Step-1,Increment      1: Step Time =    1.000,"PART-1-1",           773,       5.03877,      -2.41022,            0.,NA,NA,"",       4.05750,       3.94709,   940.089E-03,   27.9741E-03
C:/temp/dataset/3/13_6.odb,Step-1,Increment      1: Step Time =    1.000,"PART-1-1",           774,       11.0080,       9.74440,            0.,NA,NA,"",       7.72218,       7.57401,      -1.50546,   9.67216E-03
C:/temp/dataset/3/13_6.odb,Step-1,Increment      1: Step Time =    1.000,"PART-1-1",           775,       7.33953,      -23.4839,            0.,NA,NA,"",   76.6872E-03,   29.2133E-03,   70.9049E-03,   22.6252E-03
C:/temp/dataset/3/13_6.odb,Step-1,Increment      1: Step Time =    1.000,"PART-1-1",           776,       6.60048,      -22.7490,            0.,NA,NA,"",   122.041E-03,   56.9039E-03,   107.963E-03,   29.1611E-03
C:/temp/dataset/3/13_6.odb,Step-1,Increment      1: Step Time =    1.000,"PART-1-1",           777,       5.56839,      -23.3719,            0.,NA,NA,"",   120.043E-03,   53.5846E-03,   107.419E-03,   31.7586E-03
C:/temp/dataset/3/13_6.odb,Step-1,Increment      1: Step Time =    1.000,"PART-1-1",           778,       5.56431,      -22.1833,            0.,NA,NA,"",   164.353E-03,   85.0059E-03,   140.663E-03,   38.2591E-03
C:/temp/dataset/3/13_6.odb,Step-1,Increment      1: Step Time =    1.000,"PART-1-1",           779,       7.31291,      -21.9704,            0.,NA,NA,"",   124.625E-03,   71.7310E-03,   101.913E-03,   25.6215E-03
C:/temp/dataset/3/13_6.odb,Step-1,Increment      1: Step Time =    1.000,"PART-1-1",           780,       8.04898,      -22.6975,            0.,NA,NA,"",   70.5395E-03,   42.3331E-03,   56.4246E-03,   18.2888E-03
C:/temp/dataset/3/13_6.odb,Step-1,Increment      1: Step Time =    1.000,"PART-1-1",           781,       5.89213,  -472.373E-03,            0.,NA,NA,"",       4.53478,       4.49004,   635.410E-03,   22.4252E-03
C:/temp/dataset/3/13_6.odb,Step-1,Increment      1: Step Time =    1.000,"PART-1-1",           782,       8.40014,      -24.0502,            0.,NA,NA,"",   28.2858E-03,   7.28877E-03,   27.3305E-03,   14.5176E-03
