ODB Name,Step,Frame,Part Instance Name,    êﬂì_ÉâÉxÉã,X,Y,Z,Section Name,Material Name,Section Point,   U-Magnitude,          U-U1,          U-U2,       S-Mises
C:/temp/dataset/3/13_8.odb,Step-1,Increment      4: Step Time =    1.000,"PART-1-1",             1,          -15.,           20.,            0.,NA,NA,"",       21.2790,       18.8373,       9.89707,   227.779E-06
C:/temp/dataset/3/13_8.odb,Step-1,Increment      4: Step Time =    1.000,"PART-1-1",             2,          -15.,           25.,            0.,NA,NA,"",       23.3871,       21.5388,       9.11229,   4.52010E-03
C:/temp/dataset/3/13_8.odb,Step-1,Increment      4: Step Time =    1.000,"PART-1-1",             3,           -5.,           20.,            0.,NA,NA,"",       17.8778,       17.2931,       4.53474,   1.82823E-03
C:/temp/dataset/3/13_8.odb,Step-1,Increment      4: Step Time =    1.000,"PART-1-1",             4,            5.,           20.,            0.,NA,NA,"",       15.8063,       15.7880,  -760.700E-03,   15.8211E-03
C:/temp/dataset/3/13_8.odb,Step-1,Increment      4: Step Time =    1.000,"PART-1-1",             5,            5.,          12.5,            0.,NA,NA,"",       11.9319,       11.9316,   91.6530E-03,   35.3127E-03
C:/temp/dataset/3/13_8.odb,Step-1,Increment      4: Step Time =    1.000,"PART-1-1",             6,            5.,            5.,            0.,NA,NA,"",       8.30984,       8.28454,   647.944E-03,   64.7131E-03
C:/temp/dataset/3/13_8.odb,Step-1,Increment      4: Step Time =    1.000,"PART-1-1",             7,      -1.70000,            5.,            0.,NA,NA,"",       9.33353,       8.77708,       3.17453,   2.28194E-03
C:/temp/dataset/3/13_8.odb,Step-1,Increment      4: Step Time =    1.000,"PART-1-1",             8,      -8.40000,            5.,            0.,NA,NA,"",       10.9958,       9.32784,       5.82238,   81.0817E-06
C:/temp/dataset/3/13_8.odb,Step-1,Increment      4: Step Time =    1.000,"PART-1-1",             9,          -15.,            5.,            0.,NA,NA,"",       12.9796,       9.86636,       8.43351,   961.065E-09
C:/temp/dataset/3/13_8.odb,Step-1,Increment      4: Step Time =    1.000,"PART-1-1",            10,          -15.,            0.,            0.,NA,NA,"",       11.8489,       7.88838,       8.84137,   7.26677E-06
C:/temp/dataset/3/13_8.odb,Step-1,Increment      4: Step Time =    1.000,"PART-1-1",            11,          -15.,           -5.,            0.,NA,NA,"",       10.9764,       5.91054,       9.24916,   782.271E-09
C:/temp/dataset/3/13_8.odb,Step-1,Increment      4: Step Time =    1.000,"PART-1-1",            12,      -8.30000,           -5.,            0.,NA,NA,"",       8.50425,       5.36413,       6.59911,   78.9075E-06
C:/temp/dataset/3/13_8.odb,Step-1,Increment      4: Step Time =    1.000,"PART-1-1",            13,      -1.60000,           -5.,            0.,NA,NA,"",       6.22589,       4.81240,       3.95000,   2.37670E-03
C:/temp/dataset/3/13_8.odb,Step-1,Increment      4: Step Time =    1.000,"PART-1-1",            14,            5.,           -5.,            0.,NA,NA,"",       4.37572,       4.20859,       1.19777,   86.5329E-03
C:/temp/dataset/3/13_8.odb,Step-1,Increment      4: Step Time =    1.000,"PART-1-1",            15,            5.,         -12.5,            0.,NA,NA,"",       2.02932,       1.80519,   927.059E-03,   95.9577E-03
C:/temp/dataset/3/13_8.odb,Step-1,Increment      4: Step Time =    1.000,"PART-1-1",            16,            5.,          -20.,            0.,NA,NA,"",   369.017E-03,   221.163E-03,   295.400E-03,   153.245E-03
C:/temp/dataset/3/13_8.odb,Step-1,Increment      4: Step Time =    1.000,"PART-1-1",            17,           -5.,          -20.,            0.,NA,NA,"",   62.5784E-03,   62.5624E-03,  -1.41416E-03,   1.15923E-03
C:/temp/dataset/3/13_8.odb,Step-1,Increment      4: Step Time =    1.000,"PART-1-1",            18,          -15.,          -20.,            0.,NA,NA,"",   63.5898E-03,   61.5542E-03,   15.9608E-03,   38.9778E-06
C:/temp/dataset/3/13_8.odb,Step-1,Increment      4: Step Time =    1.000,"PART-1-1",            19,          -15.,          -25.,            0.,NA,NA,"",   42.8507E-03,   39.4595E-03,   16.7070E-03,   273.729E-06
C:/temp/dataset/3/13_8.odb,Step-1,Increment      4: Step Time =    1.000,"PART-1-1",            20,          -15.,          -30.,            0.,NA,NA,"",            0.,  -40.5087E-42,  -60.5851E-42,   10.7465E-03
C:/temp/dataset/3/13_8.odb,Step-1,Increment      4: Step Time =    1.000,"PART-1-1",            21,           15.,          -30.,            0.,NA,NA,"",            0.,  -240.990E-42,   384.570E-42,   50.8425E-03
C:/temp/dataset/3/13_8.odb,Step-1,Increment      4: Step Time =    1.000,"PART-1-1",            22,           15.,         -22.5,            0.,NA,NA,"",   454.879E-03,   148.592E-03,  -429.925E-03,   85.6835E-03
C:/temp/dataset/3/13_8.odb,Step-1,Increment      4: Step Time =    1.000,"PART-1-1",            23,           15.,          -15.,            0.,NA,NA,"",       1.52337,   998.961E-03,      -1.15010,   99.5848E-03
C:/temp/dataset/3/13_8.odb,Step-1,Increment      4: Step Time =    1.000,"PART-1-1",            24,           15.,          -7.5,            0.,NA,NA,"",       3.46494,       2.82267,      -2.00957,   79.7402E-03
C:/temp/dataset/3/13_8.odb,Step-1,Increment      4: Step Time =    1.000,"PART-1-1",            25,           15.,            0.,            0.,NA,NA,"",       6.15881,       5.41278,      -2.93816,   51.4399E-03
C:/temp/dataset/3/13_8.odb,Step-1,Increment      4: Step Time =    1.000,"PART-1-1",            26,           15.,           7.5,            0.,NA,NA,"",       9.32677,       8.45498,      -3.93725,   45.3856E-03
C:/temp/dataset/3/13_8.odb,Step-1,Increment      4: Step Time =    1.000,"PART-1-1",            27,           15.,           15.,            0.,NA,NA,"",       12.9463,       11.9117,      -5.07146,   29.1534E-03
C:/temp/dataset/3/13_8.odb,Step-1,Increment      4: Step Time =    1.000,"PART-1-1",            28,           15.,          22.5,            0.,NA,NA,"",       16.8778,       15.6821,      -6.23944,   9.48824E-03
C:/temp/dataset/3/13_8.odb,Step-1,Increment      4: Step Time =    1.000,"PART-1-1",            29,           15.,           30.,            0.,NA,NA,"",       20.9051,       19.5711,      -7.34832,   271.212E-06
C:/temp/dataset/3/13_8.odb,Step-1,Increment      4: Step Time =    1.000,"PART-1-1",            30,           7.5,           30.,            0.,NA,NA,"",       20.9548,       20.6636,      -3.48137,   7.11872E-03
C:/temp/dataset/3/13_8.odb,Step-1,Increment      4: Step Time =    1.000,"PART-1-1",            31,            0.,           30.,            0.,NA,NA,"",       21.8250,       21.8213,   399.518E-03,   10.1388E-03
C:/temp/dataset/3/13_8.odb,Step-1,Increment      4: Step Time =    1.000,"PART-1-1",            32,          -7.5,           30.,            0.,NA,NA,"",       23.4247,       23.0191,       4.34030,   9.91492E-03
C:/temp/dataset/3/13_8.odb,Step-1,Increment      4: Step Time =    1.000,"PART-1-1",            33,          -15.,           30.,            0.,NA,NA,"",       25.6346,       24.2429,       8.33147,   7.95997E-03
C:/temp/dataset/3/13_8.odb,Step-1,Increment      4: Step Time =    1.000,"PART-1-1",            34,          -15.,          22.5,            0.,NA,NA,"",       22.3086,       20.1823,       9.50511,   1.69794E-03
C:/temp/dataset/3/13_8.odb,Step-1,Increment      4: Step Time =    1.000,"PART-1-1",            35,          -7.5,           20.,            0.,NA,NA,"",       18.6221,       17.6734,       5.86808,   1.93257E-03
C:/temp/dataset/3/13_8.odb,Step-1,Increment      4: Step Time =    1.000,"PART-1-1",            36,          -10.,           20.,            0.,NA,NA,"",       19.4424,       18.0572,       7.20719,   1.87663E-03
C:/temp/dataset/3/13_8.odb,Step-1,Increment      4: Step Time =    1.000,"PART-1-1",            37,         -12.5,           20.,            0.,NA,NA,"",       20.3312,       18.4453,       8.55149,   993.872E-06
C:/temp/dataset/3/13_8.odb,Step-1,Increment      4: Step Time =    1.000,"PART-1-1",            38,           2.5,           20.,            0.,NA,NA,"",       16.1780,       16.1680,   567.421E-03,   3.29360E-03
C:/temp/dataset/3/13_8.odb,Step-1,Increment      4: Step Time =    1.000,"PART-1-1",            39,            0.,           20.,            0.,NA,NA,"",       16.6487,       16.5417,       1.88523,   1.11039E-03
C:/temp/dataset/3/13_8.odb,Step-1,Increment      4: Step Time =    1.000,"PART-1-1",            40,          -2.5,           20.,            0.,NA,NA,"",       17.2176,       16.9162,       3.20725,   1.66825E-03
C:/temp/dataset/3/13_8.odb,Step-1,Increment      4: Step Time =    1.000,"PART-1-1",            41,            5.,           15.,            0.,NA,NA,"",       13.1974,       13.1964,  -168.533E-03,   29.1337E-03
C:/temp/dataset/3/13_8.odb,Step-1,Increment      4: Step Time =    1.000,"PART-1-1",            42,            5.,          17.5,            0.,NA,NA,"",       14.4897,       14.4825,  -456.363E-03,   24.7126E-03
C:/temp/dataset/3/13_8.odb,Step-1,Increment      4: Step Time =    1.000,"PART-1-1",            43,            5.,           7.5,            0.,NA,NA,"",       9.50116,       9.48691,   520.260E-03,   50.8134E-03
C:/temp/dataset/3/13_8.odb,Step-1,Increment      4: Step Time =    1.000,"PART-1-1",            44,            5.,           10.,            0.,NA,NA,"",       10.6986,       10.6938,   320.203E-03,   40.8949E-03
C:/temp/dataset/3/13_8.odb,Step-1,Increment      4: Step Time =    1.000,"PART-1-1",            45,   533.333E-03,            5.,            0.,NA,NA,"",       8.89470,       8.59186,       2.30119,   5.79175E-03
C:/temp/dataset/3/13_8.odb,Step-1,Increment      4: Step Time =    1.000,"PART-1-1",            46,       2.76667,            5.,            0.,NA,NA,"",       8.53473,       8.41091,       1.44849,   10.8446E-03
C:/temp/dataset/3/13_8.odb,Step-1,Increment      4: Step Time =    1.000,"PART-1-1",            47,      -6.16667,            5.,            0.,NA,NA,"",       10.3936,       9.14521,       4.93872,   316.796E-06
C:/temp/dataset/3/13_8.odb,Step-1,Increment      4: Step Time =    1.000,"PART-1-1",            48,      -3.93333,            5.,            0.,NA,NA,"",       9.83675,       8.96181,       4.05556,   1.09079E-03
C:/temp/dataset/3/13_8.odb,Step-1,Increment      4: Step Time =    1.000,"PART-1-1",            49,      -12.8000,            5.,            0.,NA,NA,"",       12.2897,       9.68689,       7.56319,   6.17455E-06
C:/temp/dataset/3/13_8.odb,Step-1,Increment      4: Step Time =    1.000,"PART-1-1",            50,      -10.6000,            5.,            0.,NA,NA,"",       11.6269,       9.50741,       6.69282,   6.21710E-06
C:/temp/dataset/3/13_8.odb,Step-1,Increment      4: Step Time =    1.000,"PART-1-1",            51,          -15.,           2.5,            0.,NA,NA,"",       12.3860,       8.87736,       8.63745,   6.99121E-06
C:/temp/dataset/3/13_8.odb,Step-1,Increment      4: Step Time =    1.000,"PART-1-1",            52,          -15.,          -2.5,            0.,NA,NA,"",       11.3763,       6.89944,       9.04527,   6.91202E-06
C:/temp/dataset/3/13_8.odb,Step-1,Increment      4: Step Time =    1.000,"PART-1-1",            53,      -10.5333,           -5.,            0.,NA,NA,"",       9.31380,       5.54627,       7.48236,   4.53055E-06
C:/temp/dataset/3/13_8.odb,Step-1,Increment      4: Step Time =    1.000,"PART-1-1",            54,      -12.7667,           -5.,            0.,NA,NA,"",       10.1390,       5.72839,       8.36574,   5.59621E-06
C:/temp/dataset/3/13_8.odb,Step-1,Increment      4: Step Time =    1.000,"PART-1-1",            55,      -3.83333,           -5.,            0.,NA,NA,"",       6.95311,       4.99841,       4.83338,   1.14970E-03
C:/temp/dataset/3/13_8.odb,Step-1,Increment      4: Step Time =    1.000,"PART-1-1",            56,      -6.06667,           -5.,            0.,NA,NA,"",       7.71526,       5.18179,       5.71614,   319.571E-06
C:/temp/dataset/3/13_8.odb,Step-1,Increment      4: Step Time =    1.000,"PART-1-1",            57,       2.80000,           -5.,            0.,NA,NA,"",       4.92676,       4.41831,       2.17978,   17.5919E-03
C:/temp/dataset/3/13_8.odb,Step-1,Increment      4: Step Time =    1.000,"PART-1-1",            58,   600.000E-03,           -5.,            0.,NA,NA,"",       5.55215,       4.62298,       3.07481,   6.12145E-03
C:/temp/dataset/3/13_8.odb,Step-1,Increment      4: Step Time =    1.000,"PART-1-1",            59,            5.,          -10.,            0.,NA,NA,"",       2.72233,       2.51591,       1.03984,   89.0884E-03
C:/temp/dataset/3/13_8.odb,Step-1,Increment      4: Step Time =    1.000,"PART-1-1",            60,            5.,          -7.5,            0.,NA,NA,"",       3.49771,       3.31705,       1.10957,   87.0615E-03
C:/temp/dataset/3/13_8.odb,Step-1,Increment      4: Step Time =    1.000,"PART-1-1",            61,            5.,         -17.5,            0.,NA,NA,"",   911.633E-03,   688.356E-03,   597.696E-03,   111.864E-03
C:/temp/dataset/3/13_8.odb,Step-1,Increment      4: Step Time =    1.000,"PART-1-1",            62,            5.,          -15.,            0.,NA,NA,"",       1.42724,       1.19769,   776.245E-03,   97.9933E-03
C:/temp/dataset/3/13_8.odb,Step-1,Increment      4: Step Time =    1.000,"PART-1-1",            63,          -2.5,          -20.,            0.,NA,NA,"",   67.2030E-03,   66.5537E-03,   9.31954E-03,   3.56693E-03
C:/temp/dataset/3/13_8.odb,Step-1,Increment      4: Step Time =    1.000,"PART-1-1",            64,            0.,          -20.,            0.,NA,NA,"",   84.7155E-03,   75.9481E-03,   37.5314E-03,   6.90393E-03
C:/temp/dataset/3/13_8.odb,Step-1,Increment      4: Step Time =    1.000,"PART-1-1",            65,           2.5,          -20.,            0.,NA,NA,"",   138.741E-03,   94.8201E-03,   101.283E-03,   40.1874E-03
C:/temp/dataset/3/13_8.odb,Step-1,Increment      4: Step Time =    1.000,"PART-1-1",            66,         -12.5,          -20.,            0.,NA,NA,"",   61.5789E-03,   61.2242E-03,   6.60020E-03,   292.571E-06
C:/temp/dataset/3/13_8.odb,Step-1,Increment      4: Step Time =    1.000,"PART-1-1",            67,          -10.,          -20.,            0.,NA,NA,"",   60.5786E-03,   60.5764E-03,  -513.355E-06,   138.614E-06
C:/temp/dataset/3/13_8.odb,Step-1,Increment      4: Step Time =    1.000,"PART-1-1",            68,          -7.5,          -20.,            0.,NA,NA,"",   60.9651E-03,   60.8513E-03,  -3.72258E-03,   509.771E-06
C:/temp/dataset/3/13_8.odb,Step-1,Increment      4: Step Time =    1.000,"PART-1-1",            69,          -15.,         -22.5,            0.,NA,NA,"",   54.3988E-03,   51.8997E-03,   16.2990E-03,   278.789E-06
C:/temp/dataset/3/13_8.odb,Step-1,Increment      4: Step Time =    1.000,"PART-1-1",            70,          -15.,         -27.5,            0.,NA,NA,"",   26.4548E-03,   22.2660E-03,   14.2857E-03,   3.44666E-03
C:/temp/dataset/3/13_8.odb,Step-1,Increment      4: Step Time =    1.000,"PART-1-1",            71,          12.5,          -30.,            0.,NA,NA,"",            0.,   19.5403E-39,  -65.2165E-39,   31.3831E-03
C:/temp/dataset/3/13_8.odb,Step-1,Increment      4: Step Time =    1.000,"PART-1-1",            72,           10.,          -30.,            0.,NA,NA,"",            0.,  -43.4704E-39,  -56.2544E-39,   22.5111E-03
C:/temp/dataset/3/13_8.odb,Step-1,Increment      4: Step Time =    1.000,"PART-1-1",            73,           7.5,          -30.,            0.,NA,NA,"",            0.,  -17.7418E-39,  -4.12491E-39,   14.5768E-03
C:/temp/dataset/3/13_8.odb,Step-1,Increment      4: Step Time =    1.000,"PART-1-1",            74,            5.,          -30.,            0.,NA,NA,"",            0.,  -16.1177E-39,   37.3725E-39,   12.7157E-03
C:/temp/dataset/3/13_8.odb,Step-1,Increment      4: Step Time =    1.000,"PART-1-1",            75,           2.5,          -30.,            0.,NA,NA,"",            0.,  -4.14977E-39,   27.7490E-39,   15.0024E-03
C:/temp/dataset/3/13_8.odb,Step-1,Increment      4: Step Time =    1.000,"PART-1-1",            76,            0.,          -30.,            0.,NA,NA,"",            0.,   4.50301E-39,   12.7863E-39,   15.2357E-03
C:/temp/dataset/3/13_8.odb,Step-1,Increment      4: Step Time =    1.000,"PART-1-1",            77,          -2.5,          -30.,            0.,NA,NA,"",            0.,   24.9674E-39,   32.4442E-39,   13.1107E-03
C:/temp/dataset/3/13_8.odb,Step-1,Increment      4: Step Time =    1.000,"PART-1-1",            78,           -5.,          -30.,            0.,NA,NA,"",            0.,   9.10241E-39,  -3.81583E-39,   10.4131E-03
C:/temp/dataset/3/13_8.odb,Step-1,Increment      4: Step Time =    1.000,"PART-1-1",            79,          -7.5,          -30.,            0.,NA,NA,"",            0.,   7.95645E-39,  -5.27846E-39,   7.99632E-03
C:/temp/dataset/3/13_8.odb,Step-1,Increment      4: Step Time =    1.000,"PART-1-1",            80,          -10.,          -30.,            0.,NA,NA,"",            0.,   11.1617E-39,   13.1338E-39,   6.25331E-03
C:/temp/dataset/3/13_8.odb,Step-1,Increment      4: Step Time =    1.000,"PART-1-1",            81,         -12.5,          -30.,            0.,NA,NA,"",            0.,   9.72025E-39,   11.6296E-39,   4.62523E-03
C:/temp/dataset/3/13_8.odb,Step-1,Increment      4: Step Time =    1.000,"PART-1-1",            82,           15.,          -25.,            0.,NA,NA,"",   259.167E-03,   61.8394E-03,  -251.682E-03,   70.6936E-03
C:/temp/dataset/3/13_8.odb,Step-1,Increment      4: Step Time =    1.000,"PART-1-1",            83,           15.,         -27.5,            0.,NA,NA,"",   115.120E-03,   32.2031E-03,  -110.524E-03,   58.3659E-03
C:/temp/dataset/3/13_8.odb,Step-1,Increment      4: Step Time =    1.000,"PART-1-1",            84,           15.,         -17.5,            0.,NA,NA,"",       1.07263,   601.645E-03,  -888.006E-03,   101.570E-03
C:/temp/dataset/3/13_8.odb,Step-1,Increment      4: Step Time =    1.000,"PART-1-1",            85,           15.,          -20.,            0.,NA,NA,"",   719.042E-03,   320.840E-03,  -643.493E-03,   96.9701E-03
C:/temp/dataset/3/13_8.odb,Step-1,Increment      4: Step Time =    1.000,"PART-1-1",            86,           15.,          -10.,            0.,NA,NA,"",       2.72191,       2.11690,      -1.71100,   87.8537E-03
C:/temp/dataset/3/13_8.odb,Step-1,Increment      4: Step Time =    1.000,"PART-1-1",            87,           15.,         -12.5,            0.,NA,NA,"",       2.07358,       1.50683,      -1.42450,   94.2174E-03
C:/temp/dataset/3/13_8.odb,Step-1,Increment      4: Step Time =    1.000,"PART-1-1",            88,           15.,          -2.5,            0.,NA,NA,"",       5.19858,       4.48576,      -2.62740,   59.0272E-03
C:/temp/dataset/3/13_8.odb,Step-1,Increment      4: Step Time =    1.000,"PART-1-1",            89,           15.,           -5.,            0.,NA,NA,"",       4.29524,       3.61653,      -2.31728,   69.5167E-03
C:/temp/dataset/3/13_8.odb,Step-1,Increment      4: Step Time =    1.000,"PART-1-1",            90,           15.,            5.,            0.,NA,NA,"",       8.22021,       7.39659,      -3.58641,   47.1215E-03
C:/temp/dataset/3/13_8.odb,Step-1,Increment      4: Step Time =    1.000,"PART-1-1",            91,           15.,           2.5,            0.,NA,NA,"",       7.16573,       6.38401,      -3.25455,   48.2582E-03
C:/temp/dataset/3/13_8.odb,Step-1,Increment      4: Step Time =    1.000,"PART-1-1",            92,           15.,          12.5,            0.,NA,NA,"",       11.6957,       10.7166,      -4.68435,   35.3739E-03
C:/temp/dataset/3/13_8.odb,Step-1,Increment      4: Step Time =    1.000,"PART-1-1",            93,           15.,           10.,            0.,NA,NA,"",       10.4868,       9.56241,      -4.30499,   41.0872E-03
C:/temp/dataset/3/13_8.odb,Step-1,Increment      4: Step Time =    1.000,"PART-1-1",            94,           15.,           20.,            0.,NA,NA,"",       15.5453,       14.4012,      -5.85327,   15.9995E-03
C:/temp/dataset/3/13_8.odb,Step-1,Increment      4: Step Time =    1.000,"PART-1-1",            95,           15.,          17.5,            0.,NA,NA,"",       14.2320,       13.1420,      -5.46243,   22.7151E-03
C:/temp/dataset/3/13_8.odb,Step-1,Increment      4: Step Time =    1.000,"PART-1-1",            96,           15.,          27.5,            0.,NA,NA,"",       19.5644,       18.2746,      -6.98599,   560.071E-06
C:/temp/dataset/3/13_8.odb,Step-1,Increment      4: Step Time =    1.000,"PART-1-1",            97,           15.,           25.,            0.,NA,NA,"",       18.2203,       16.9761,      -6.61740,   3.97433E-03
C:/temp/dataset/3/13_8.odb,Step-1,Increment      4: Step Time =    1.000,"PART-1-1",            98,           10.,           30.,            0.,NA,NA,"",       20.8463,       20.2942,      -4.76581,   3.54894E-03
C:/temp/dataset/3/13_8.odb,Step-1,Increment      4: Step Time =    1.000,"PART-1-1",            99,          12.5,           30.,            0.,NA,NA,"",       20.8312,       19.9320,      -6.05409,   555.312E-06
C:/temp/dataset/3/13_8.odb,Step-1,Increment      4: Step Time =    1.000,"PART-1-1",           100,           2.5,           30.,            0.,NA,NA,"",       21.4482,       21.4293,  -901.409E-03,   10.1786E-03
C:/temp/dataset/3/13_8.odb,Step-1,Increment      4: Step Time =    1.000,"PART-1-1",           101,            5.,           30.,            0.,NA,NA,"",       21.1566,       21.0425,      -2.19470,   9.40662E-03
C:/temp/dataset/3/13_8.odb,Step-1,Increment      4: Step Time =    1.000,"PART-1-1",           102,           -5.,           30.,            0.,NA,NA,"",       22.8173,       22.6164,       3.02096,   9.91204E-03
C:/temp/dataset/3/13_8.odb,Step-1,Increment      4: Step Time =    1.000,"PART-1-1",           103,          -2.5,           30.,            0.,NA,NA,"",       22.2827,       22.2172,       1.70725,   9.97988E-03
C:/temp/dataset/3/13_8.odb,Step-1,Increment      4: Step Time =    1.000,"PART-1-1",           104,         -12.5,           30.,            0.,NA,NA,"",       24.8400,       23.8344,       6.99639,   8.92487E-03
C:/temp/dataset/3/13_8.odb,Step-1,Increment      4: Step Time =    1.000,"PART-1-1",           105,          -10.,           30.,            0.,NA,NA,"",       24.1007,       23.4254,       5.66536,   9.83760E-03
C:/temp/dataset/3/13_8.odb,Step-1,Increment      4: Step Time =    1.000,"PART-1-1",           106,          -15.,          27.5,            0.,NA,NA,"",       24.4970,       22.8936,       8.71682,   8.18254E-03
C:/temp/dataset/3/13_8.odb,Step-1,Increment      4: Step Time =    1.000,"PART-1-1",           107,      -12.5013,       25.0052,            0.,NA,NA,"",       22.5204,       21.1386,       7.76712,   4.46849E-03
C:/temp/dataset/3/13_8.odb,Step-1,Increment      4: Step Time =    1.000,"PART-1-1",           108,      -10.0028,       27.5014,            0.,NA,NA,"",       22.8952,       22.0820,       6.04757,   7.10631E-03
C:/temp/dataset/3/13_8.odb,Step-1,Increment      4: Step Time =    1.000,"PART-1-1",           109,      -2.49865,       22.5268,            0.,NA,NA,"",       18.4702,       18.2532,       2.82332,   1.11582E-03
C:/temp/dataset/3/13_8.odb,Step-1,Increment      4: Step Time =    1.000,"PART-1-1",           110,      -2.51000,       27.5279,            0.,NA,NA,"",       21.0091,       20.9060,       2.07880,   6.86911E-03
C:/temp/dataset/3/13_8.odb,Step-1,Increment      4: Step Time =    1.000,"PART-1-1",           111,       12.3864,       22.5464,            0.,NA,NA,"",       16.8015,       16.0722,      -4.89624,   9.86394E-03
C:/temp/dataset/3/13_8.odb,Step-1,Increment      4: Step Time =    1.000,"PART-1-1",           112,       7.35369,       17.5509,            0.,NA,NA,"",       14.2674,       14.1728,      -1.64031,   13.2370E-03
C:/temp/dataset/3/13_8.odb,Step-1,Increment      4: Step Time =    1.000,"PART-1-1",           113,       12.3201,       14.9467,            0.,NA,NA,"",       12.7682,       12.2113,      -3.72980,   16.1979E-03
C:/temp/dataset/3/13_8.odb,Step-1,Increment      4: Step Time =    1.000,"PART-1-1",           114,       13.2599,       7.39194,            0.,NA,NA,"",       9.11964,       8.56647,      -3.12786,   29.6593E-03
C:/temp/dataset/3/13_8.odb,Step-1,Increment      4: Step Time =    1.000,"PART-1-1",           115,       7.60504,      -5.98204,            0.,NA,NA,"",       3.65208,       3.64220,   268.495E-03,   30.0548E-03
C:/temp/dataset/3/13_8.odb,Step-1,Increment      4: Step Time =    1.000,"PART-1-1",           116,       7.71062,      -13.7665,            0.,NA,NA,"",       1.36485,       1.33480,   284.820E-03,   48.1484E-03
C:/temp/dataset/3/13_8.odb,Step-1,Increment      4: Step Time =    1.000,"PART-1-1",           117,       11.7208,      -22.4938,            0.,NA,NA,"",   207.686E-03,   67.7895E-03,  -196.311E-03,   39.3313E-03
C:/temp/dataset/3/13_8.odb,Step-1,Increment      4: Step Time =    1.000,"PART-1-1",           118,       2.59328,       2.74806,            0.,NA,NA,"",       7.73113,       7.54631,       1.68039,   15.4915E-03
C:/temp/dataset/3/13_8.odb,Step-1,Increment      4: Step Time =    1.000,"PART-1-1",           119,      -1.32361,      -2.98462,            0.,NA,NA,"",       6.69168,       5.59209,       3.67519,   1.32271E-03
C:/temp/dataset/3/13_8.odb,Step-1,Increment      4: Step Time =    1.000,"PART-1-1",           120,      -6.00563,       3.11026,            0.,NA,NA,"",       9.77716,       8.38469,       5.02890,   463.707E-06
C:/temp/dataset/3/13_8.odb,Step-1,Increment      4: Step Time =    1.000,"PART-1-1",           121,      -10.4102,       2.53863,            0.,NA,NA,"",       10.9111,       8.51820,       6.81853,   55.5293E-06
C:/temp/dataset/3/13_8.odb,Step-1,Increment      4: Step Time =    1.000,"PART-1-1",           122,      -12.6184,  -43.2983E-03,            0.,NA,NA,"",       11.0177,       7.67700,       7.90280,   14.0270E-06
C:/temp/dataset/3/13_8.odb,Step-1,Increment      4: Step Time =    1.000,"PART-1-1",           123,      -3.88272,       3.23189,            0.,NA,NA,"",       9.25624,       8.25926,       4.17884,   910.053E-06
C:/temp/dataset/3/13_8.odb,Step-1,Increment      4: Step Time =    1.000,"PART-1-1",           124,       2.98144,      -22.7363,            0.,NA,NA,"",   156.291E-03,   108.620E-03,   112.377E-03,   48.5132E-03
C:/temp/dataset/3/13_8.odb,Step-1,Increment      4: Step Time =    1.000,"PART-1-1",           125,      -2.42987,      -22.6294,            0.,NA,NA,"",   76.3618E-03,   74.8911E-03,   14.9146E-03,   8.23436E-03
C:/temp/dataset/3/13_8.odb,Step-1,Increment      4: Step Time =    1.000,"PART-1-1",           126,      -9.97348,      -22.5672,            0.,NA,NA,"",   53.3639E-03,   53.3639E-03,   42.7279E-06,   1.74181E-03
C:/temp/dataset/3/13_8.odb,Step-1,Increment      4: Step Time =    1.000,"PART-1-1",           127,      -12.4895,      -25.0402,            0.,NA,NA,"",   39.3844E-03,   38.9659E-03,   5.72598E-03,   2.45932E-03
C:/temp/dataset/3/13_8.odb,Step-1,Increment      4: Step Time =    1.000,"PART-1-1",           128,       12.8561,      -14.2595,            0.,NA,NA,"",       1.35091,       1.11219,  -766.804E-03,   53.0597E-03
C:/temp/dataset/3/13_8.odb,Step-1,Increment      4: Step Time =    1.000,"PART-1-1",           129,       12.7281,      -7.33650,            0.,NA,NA,"",       3.20016,       2.92999,      -1.28691,   43.7561E-03
C:/temp/dataset/3/13_8.odb,Step-1,Increment      4: Step Time =    1.000,"PART-1-1",           130,       12.6427,  -96.8002E-03,            0.,NA,NA,"",       5.87180,       5.52682,      -1.98299,   29.4548E-03
C:/temp/dataset/3/13_8.odb,Step-1,Increment      4: Step Time =    1.000,"PART-1-1",           131,       7.13014,       10.3328,            0.,NA,NA,"",       10.6050,       10.5824,  -691.876E-03,   25.4592E-03
C:/temp/dataset/3/13_8.odb,Step-1,Increment      4: Step Time =    1.000,"PART-1-1",           132,       4.95005,       27.5805,            0.,NA,NA,"",       19.8674,       19.7837,      -1.82149,   6.89127E-03
C:/temp/dataset/3/13_8.odb,Step-1,Increment      4: Step Time =    1.000,"PART-1-1",           133,      -4.99957,       22.5148,            0.,NA,NA,"",       19.0857,       18.6292,       4.14968,   1.06285E-03
C:/temp/dataset/3/13_8.odb,Step-1,Increment      4: Step Time =    1.000,"PART-1-1",           134,      -7.50186,       22.5094,            0.,NA,NA,"",       19.7868,       19.0124,       5.48151,   1.02891E-03
C:/temp/dataset/3/13_8.odb,Step-1,Increment      4: Step Time =    1.000,"PART-1-1",           135,       4.93744,       22.5898,            0.,NA,NA,"",       17.1984,       17.1636,      -1.09376,   6.98595E-03
C:/temp/dataset/3/13_8.odb,Step-1,Increment      4: Step Time =    1.000,"PART-1-1",           136,       2.47758,       22.5593,            0.,NA,NA,"",       17.5196,       17.5185,   198.444E-03,   2.20046E-03
C:/temp/dataset/3/13_8.odb,Step-1,Increment      4: Step Time =    1.000,"PART-1-1",           137,  -4.46696E-03,       22.5388,            0.,NA,NA,"",       17.9449,       17.8816,       1.50569,   977.466E-06
C:/temp/dataset/3/13_8.odb,Step-1,Increment      4: Step Time =    1.000,"PART-1-1",           138,       7.20686,       12.6699,            0.,NA,NA,"",       11.7607,       11.7202,  -975.903E-03,   21.0558E-03
C:/temp/dataset/3/13_8.odb,Step-1,Increment      4: Step Time =    1.000,"PART-1-1",           139,       7.30679,       15.0771,            0.,NA,NA,"",       12.9806,       12.9149,      -1.30462,   17.5767E-03
C:/temp/dataset/3/13_8.odb,Step-1,Increment      4: Step Time =    1.000,"PART-1-1",           140,       7.52839,       5.66323,            0.,NA,NA,"",       8.36546,       8.35438,  -430.481E-03,   16.1698E-03
C:/temp/dataset/3/13_8.odb,Step-1,Increment      4: Step Time =    1.000,"PART-1-1",           141,       7.20823,       7.96221,            0.,NA,NA,"",       9.45596,       9.44296,  -495.706E-03,   30.0410E-03
C:/temp/dataset/3/13_8.odb,Step-1,Increment      4: Step Time =    1.000,"PART-1-1",           142,      -1.77433,       3.17490,            0.,NA,NA,"",       8.73261,       8.06442,       3.35015,   1.36504E-03
C:/temp/dataset/3/13_8.odb,Step-1,Increment      4: Step Time =    1.000,"PART-1-1",           143,   347.975E-03,       3.01142,            0.,NA,NA,"",       8.22797,       7.82989,       2.52830,   2.47004E-03
C:/temp/dataset/3/13_8.odb,Step-1,Increment      4: Step Time =    1.000,"PART-1-1",           144,      -8.17775,       2.85153,            0.,NA,NA,"",       10.3195,       8.45979,       5.90966,   183.316E-06
C:/temp/dataset/3/13_8.odb,Step-1,Increment      4: Step Time =    1.000,"PART-1-1",           145,      -8.45397,      -3.03463,            0.,NA,NA,"",       8.95097,       6.15415,       6.49972,   150.018E-06
C:/temp/dataset/3/13_8.odb,Step-1,Increment      4: Step Time =    1.000,"PART-1-1",           146,      -12.6978,       2.46856,            0.,NA,NA,"",       11.6204,       8.67711,       7.72927,   7.77584E-06
C:/temp/dataset/3/13_8.odb,Step-1,Increment      4: Step Time =    1.000,"PART-1-1",           147,      -10.5225,      -2.72745,            0.,NA,NA,"",       9.73206,       6.44430,       7.29273,   50.0322E-06
C:/temp/dataset/3/13_8.odb,Step-1,Increment      4: Step Time =    1.000,"PART-1-1",           148,      -12.7265,      -2.55241,            0.,NA,NA,"",       10.5464,       6.69328,       8.15025,   7.29400E-06
C:/temp/dataset/3/13_8.odb,Step-1,Increment      4: Step Time =    1.000,"PART-1-1",           149,      -3.80700,      -2.48494,            0.,NA,NA,"",       7.56574,       5.99345,       4.61725,   985.895E-06
C:/temp/dataset/3/13_8.odb,Step-1,Increment      4: Step Time =    1.000,"PART-1-1",           150,      -6.26959,      -2.94549,            0.,NA,NA,"",       8.23528,       6.01140,       5.62876,   426.646E-06
C:/temp/dataset/3/13_8.odb,Step-1,Increment      4: Step Time =    1.000,"PART-1-1",           151,       2.97297,      -3.34056,            0.,NA,NA,"",       5.45483,       5.08436,       1.97598,   19.1412E-03
C:/temp/dataset/3/13_8.odb,Step-1,Increment      4: Step Time =    1.000,"PART-1-1",           152,   836.982E-03,      -3.21922,            0.,NA,NA,"",       6.02697,       5.31982,       2.83265,   3.16741E-03
C:/temp/dataset/3/13_8.odb,Step-1,Increment      4: Step Time =    1.000,"PART-1-1",           153,       7.27849,      -10.7647,            0.,NA,NA,"",       2.17791,       2.13674,   421.434E-03,   52.6535E-03
C:/temp/dataset/3/13_8.odb,Step-1,Increment      4: Step Time =    1.000,"PART-1-1",           154,       7.20650,      -8.25133,            0.,NA,NA,"",       2.93603,       2.90327,   437.344E-03,   50.1336E-03
C:/temp/dataset/3/13_8.odb,Step-1,Increment      4: Step Time =    1.000,"PART-1-1",           155,       7.07274,      -17.3233,            0.,NA,NA,"",   700.390E-03,   633.063E-03,   299.630E-03,   69.3357E-03
C:/temp/dataset/3/13_8.odb,Step-1,Increment      4: Step Time =    1.000,"PART-1-1",           156,       6.55788,      -15.2577,            0.,NA,NA,"",       1.15347,       1.05496,   466.435E-03,   76.7044E-03
C:/temp/dataset/3/13_8.odb,Step-1,Increment      4: Step Time =    1.000,"PART-1-1",           157,      -7.46685,      -22.5818,            0.,NA,NA,"",   57.2966E-03,   57.2597E-03,  -2.05597E-03,   3.02101E-03
C:/temp/dataset/3/13_8.odb,Step-1,Increment      4: Step Time =    1.000,"PART-1-1",           158,      -4.95694,      -22.5955,            0.,NA,NA,"",   64.4299E-03,   64.4091E-03,   1.63550E-03,   4.95634E-03
C:/temp/dataset/3/13_8.odb,Step-1,Increment      4: Step Time =    1.000,"PART-1-1",           159,   146.162E-03,      -22.6598,            0.,NA,NA,"",   105.737E-03,   94.6199E-03,   47.1957E-03,   19.2664E-03
C:/temp/dataset/3/13_8.odb,Step-1,Increment      4: Step Time =    1.000,"PART-1-1",           160,      -12.4860,      -22.5306,            0.,NA,NA,"",   52.3848E-03,   51.9807E-03,   6.49467E-03,   521.016E-06
C:/temp/dataset/3/13_8.odb,Step-1,Increment      4: Step Time =    1.000,"PART-1-1",           161,       9.96020,      -27.7814,            0.,NA,NA,"",   41.1275E-03,  -36.5040E-03,  -18.9454E-03,   16.9364E-03
C:/temp/dataset/3/13_8.odb,Step-1,Increment      4: Step Time =    1.000,"PART-1-1",           162,       7.44077,      -27.8946,            0.,NA,NA,"",   27.5490E-03,  -23.2690E-03,   14.7480E-03,   15.8825E-03
C:/temp/dataset/3/13_8.odb,Step-1,Increment      4: Step Time =    1.000,"PART-1-1",           163,       4.93217,      -27.8625,            0.,NA,NA,"",   30.2613E-03,   2.85882E-03,   30.1259E-03,   21.7636E-03
C:/temp/dataset/3/13_8.odb,Step-1,Increment      4: Step Time =    1.000,"PART-1-1",           164,       2.47767,      -27.7470,            0.,NA,NA,"",   38.8142E-03,   25.8622E-03,   28.9429E-03,   20.5389E-03
C:/temp/dataset/3/13_8.odb,Step-1,Increment      4: Step Time =    1.000,"PART-1-1",           165,   19.5837E-03,      -27.6625,            0.,NA,NA,"",   41.0476E-03,   36.3527E-03,   19.0627E-03,   15.9288E-03
C:/temp/dataset/3/13_8.odb,Step-1,Increment      4: Step Time =    1.000,"PART-1-1",           166,      -2.46955,      -27.6154,            0.,NA,NA,"",   37.8110E-03,   36.5098E-03,   9.83392E-03,   11.7968E-03
C:/temp/dataset/3/13_8.odb,Step-1,Increment      4: Step Time =    1.000,"PART-1-1",           167,      -4.97450,      -27.5844,            0.,NA,NA,"",   32.0710E-03,   31.8093E-03,   4.08873E-03,   8.90657E-03
C:/temp/dataset/3/13_8.odb,Step-1,Increment      4: Step Time =    1.000,"PART-1-1",           168,      -7.48283,      -27.5594,            0.,NA,NA,"",   26.5190E-03,   26.4697E-03,   1.61635E-03,   7.01279E-03
C:/temp/dataset/3/13_8.odb,Step-1,Increment      4: Step Time =    1.000,"PART-1-1",           169,       12.2865,      -25.1793,            0.,NA,NA,"",   143.374E-03,  -6.26940E-03,  -143.237E-03,   42.5591E-03
C:/temp/dataset/3/13_8.odb,Step-1,Increment      4: Step Time =    1.000,"PART-1-1",           170,       11.6753,      -16.4340,            0.,NA,NA,"",   821.926E-03,   706.347E-03,  -420.281E-03,   32.2276E-03
C:/temp/dataset/3/13_8.odb,Step-1,Increment      4: Step Time =    1.000,"PART-1-1",           171,       11.9685,      -19.5802,            0.,NA,NA,"",   433.225E-03,   283.687E-03,  -327.422E-03,   41.5112E-03
C:/temp/dataset/3/13_8.odb,Step-1,Increment      4: Step Time =    1.000,"PART-1-1",           172,       13.3291,      -9.93034,            0.,NA,NA,"",       2.47782,       2.14989,      -1.23189,   56.6898E-03
C:/temp/dataset/3/13_8.odb,Step-1,Increment      4: Step Time =    1.000,"PART-1-1",           173,       13.4212,      -12.1607,            0.,NA,NA,"",       1.90010,       1.57723,      -1.05958,   61.9780E-03
C:/temp/dataset/3/13_8.odb,Step-1,Increment      4: Step Time =    1.000,"PART-1-1",           174,       12.9633,      -2.52247,            0.,NA,NA,"",       4.94251,       4.58393,      -1.84823,   37.7134E-03
C:/temp/dataset/3/13_8.odb,Step-1,Increment      4: Step Time =    1.000,"PART-1-1",           175,       13.1247,      -4.84738,            0.,NA,NA,"",       4.09354,       3.74058,      -1.66288,   45.2730E-03
C:/temp/dataset/3/13_8.odb,Step-1,Increment      4: Step Time =    1.000,"PART-1-1",           176,       13.1131,       5.12757,            0.,NA,NA,"",       8.09477,       7.60456,      -2.77418,   30.2420E-03
C:/temp/dataset/3/13_8.odb,Step-1,Increment      4: Step Time =    1.000,"PART-1-1",           177,       12.1418,       2.60140,            0.,NA,NA,"",       6.95365,       6.63870,      -2.06902,   21.8775E-03
C:/temp/dataset/3/13_8.odb,Step-1,Increment      4: Step Time =    1.000,"PART-1-1",           178,       12.1760,       12.1629,            0.,NA,NA,"",       11.3534,       10.8734,      -3.26660,   17.7508E-03
C:/temp/dataset/3/13_8.odb,Step-1,Increment      4: Step Time =    1.000,"PART-1-1",           179,       13.0236,       9.64002,            0.,NA,NA,"",       10.1570,       9.59886,      -3.32047,   25.4917E-03
C:/temp/dataset/3/13_8.odb,Step-1,Increment      4: Step Time =    1.000,"PART-1-1",           180,       12.3784,       20.0377,            0.,NA,NA,"",       15.4496,       14.7756,      -4.51361,   12.3671E-03
C:/temp/dataset/3/13_8.odb,Step-1,Increment      4: Step Time =    1.000,"PART-1-1",           181,       12.3660,       17.5135,            0.,NA,NA,"",       14.1070,       13.4892,      -4.12909,   14.3442E-03
C:/temp/dataset/3/13_8.odb,Step-1,Increment      4: Step Time =    1.000,"PART-1-1",           182,       12.4264,       25.0333,            0.,NA,NA,"",       18.1493,       17.3613,      -5.28970,   6.87279E-03
C:/temp/dataset/3/13_8.odb,Step-1,Increment      4: Step Time =    1.000,"PART-1-1",           183,       7.43491,       27.5684,            0.,NA,NA,"",       19.6523,       19.4063,      -3.09994,   6.69594E-03
C:/temp/dataset/3/13_8.odb,Step-1,Increment      4: Step Time =    1.000,"PART-1-1",           184,  -17.4965E-03,       27.5503,            0.,NA,NA,"",       20.5435,       20.5292,   767.858E-03,   6.85466E-03
C:/temp/dataset/3/13_8.odb,Step-1,Increment      4: Step Time =    1.000,"PART-1-1",           185,       2.47067,       27.5656,            0.,NA,NA,"",       20.1603,       20.1533,  -533.217E-03,   6.87587E-03
C:/temp/dataset/3/13_8.odb,Step-1,Increment      4: Step Time =    1.000,"PART-1-1",           186,      -7.50286,       27.5043,            0.,NA,NA,"",       22.1904,       21.6828,       4.71878,   6.93945E-03
C:/temp/dataset/3/13_8.odb,Step-1,Increment      4: Step Time =    1.000,"PART-1-1",           187,      -5.00635,       27.5119,            0.,NA,NA,"",       21.5596,       21.2904,       3.39661,   6.90118E-03
C:/temp/dataset/3/13_8.odb,Step-1,Increment      4: Step Time =    1.000,"PART-1-1",           188,      -12.5019,       27.5019,            0.,NA,NA,"",       23.6674,       22.4873,       7.38029,   8.14735E-03
C:/temp/dataset/3/13_8.odb,Step-1,Increment      4: Step Time =    1.000,"PART-1-1",           189,      -12.5001,       22.5034,            0.,NA,NA,"",       21.4057,       19.7899,       8.15883,   1.05739E-03
C:/temp/dataset/3/13_8.odb,Step-1,Increment      4: Step Time =    1.000,"PART-1-1",           190,      -5.00429,       25.0191,            0.,NA,NA,"",       20.3154,       19.9622,       3.77152,   3.92537E-03
C:/temp/dataset/3/13_8.odb,Step-1,Increment      4: Step Time =    1.000,"PART-1-1",           191,  -15.9173E-03,       25.0642,            0.,NA,NA,"",       19.2496,       19.2161,       1.13466,   3.82222E-03
C:/temp/dataset/3/13_8.odb,Step-1,Increment      4: Step Time =    1.000,"PART-1-1",           192,       9.74355,       15.0604,            0.,NA,NA,"",       12.8316,       12.5882,      -2.48725,   10.9727E-03
C:/temp/dataset/3/13_8.odb,Step-1,Increment      4: Step Time =    1.000,"PART-1-1",           193,       9.51986,       12.6989,            0.,NA,NA,"",       11.6311,       11.4445,      -2.07500,   11.3618E-03
C:/temp/dataset/3/13_8.odb,Step-1,Increment      4: Step Time =    1.000,"PART-1-1",           194,       12.1898,      -11.7554,            0.,NA,NA,"",       1.86140,       1.68844,  -783.582E-03,   38.5416E-03
C:/temp/dataset/3/13_8.odb,Step-1,Increment      4: Step Time =    1.000,"PART-1-1",           195,       9.78251,      -13.4248,            0.,NA,NA,"",       1.34747,       1.33880,  -152.627E-03,   13.0825E-03
C:/temp/dataset/3/13_8.odb,Step-1,Increment      4: Step Time =    1.000,"PART-1-1",           196,       7.24032,      -19.5057,            0.,NA,NA,"",   353.084E-03,   291.722E-03,   198.914E-03,   38.3230E-03
C:/temp/dataset/3/13_8.odb,Step-1,Increment      4: Step Time =    1.000,"PART-1-1",           197,      -10.0066,  -139.817E-03,            0.,NA,NA,"",       10.1214,       7.42584,       6.87745,   91.5751E-06
C:/temp/dataset/3/13_8.odb,Step-1,Increment      4: Step Time =    1.000,"PART-1-1",           198,      -8.39380,      -1.43672,            0.,NA,NA,"",       9.28719,       6.78142,       6.34541,   187.377E-06
C:/temp/dataset/3/13_8.odb,Step-1,Increment      4: Step Time =    1.000,"PART-1-1",           199,      -5.07121,  -530.035E-03,            0.,NA,NA,"",       8.47154,       6.87007,       4.95672,   743.314E-06
C:/temp/dataset/3/13_8.odb,Step-1,Increment      4: Step Time =    1.000,"PART-1-1",           200,      -12.5003,      -27.5198,            0.,NA,NA,"",   21.1573E-03,   20.7684E-03,   4.03762E-03,   5.31336E-03
C:/temp/dataset/3/13_8.odb,Step-1,Increment      4: Step Time =    1.000,"PART-1-1",           201,       8.97180,      -8.86122,            0.,NA,NA,"",       2.60730,       2.60658,  -61.2183E-03,   19.5493E-03
C:/temp/dataset/3/13_8.odb,Step-1,Increment      4: Step Time =    1.000,"PART-1-1",           202,      -2.50561,       25.0360,            0.,NA,NA,"",       19.7362,       19.5837,       2.44889,   3.82155E-03
C:/temp/dataset/3/13_8.odb,Step-1,Increment      4: Step Time =    1.000,"PART-1-1",           203,      -7.50383,       25.0106,            0.,NA,NA,"",       20.9780,       20.3489,       5.09889,   3.96774E-03
C:/temp/dataset/3/13_8.odb,Step-1,Increment      4: Step Time =    1.000,"PART-1-1",           204,       2.46362,       25.0850,            0.,NA,NA,"",       18.8499,       18.8491,  -167.070E-03,   4.50235E-03
C:/temp/dataset/3/13_8.odb,Step-1,Increment      4: Step Time =    1.000,"PART-1-1",           205,       9.17638,       10.5785,            0.,NA,NA,"",       10.5874,       10.4566,      -1.65915,   12.0136E-03
C:/temp/dataset/3/13_8.odb,Step-1,Increment      4: Step Time =    1.000,"PART-1-1",           206,       9.65111,       6.46520,            0.,NA,NA,"",       8.61820,       8.50074,      -1.41800,   7.10833E-03
C:/temp/dataset/3/13_8.odb,Step-1,Increment      4: Step Time =    1.000,"PART-1-1",           207,      -1.99278,       1.34592,            0.,NA,NA,"",       8.18848,       7.36228,       3.58442,   1.36140E-03
C:/temp/dataset/3/13_8.odb,Step-1,Increment      4: Step Time =    1.000,"PART-1-1",           208,      -5.69490,       1.29843,            0.,NA,NA,"",       9.16314,       7.64348,       5.05374,   593.186E-06
C:/temp/dataset/3/13_8.odb,Step-1,Increment      4: Step Time =    1.000,"PART-1-1",           209,       1.92780,   665.778E-03,            0.,NA,NA,"",       7.09215,       6.77562,       2.09514,   8.40422E-03
C:/temp/dataset/3/13_8.odb,Step-1,Increment      4: Step Time =    1.000,"PART-1-1",           210,       1.26043,      -1.37778,            0.,NA,NA,"",       6.52166,       6.01784,       2.51349,   4.55588E-03
C:/temp/dataset/3/13_8.odb,Step-1,Increment      4: Step Time =    1.000,"PART-1-1",           211,       9.14691,      -16.8280,            0.,NA,NA,"",   660.334E-03,   660.329E-03,  -2.59151E-03,   19.0221E-03
C:/temp/dataset/3/13_8.odb,Step-1,Increment      4: Step Time =    1.000,"PART-1-1",           212,   79.9954E-03,      -25.2148,            0.,NA,NA,"",   79.1857E-03,   68.9309E-03,   38.9731E-03,   17.9086E-03
C:/temp/dataset/3/13_8.odb,Step-1,Increment      4: Step Time =    1.000,"PART-1-1",           213,      -9.97865,      -25.0679,            0.,NA,NA,"",   40.9025E-03,   40.8901E-03,   1.00580E-03,   3.79359E-03
C:/temp/dataset/3/13_8.odb,Step-1,Increment      4: Step Time =    1.000,"PART-1-1",           214,       12.4671,      -27.6040,            0.,NA,NA,"",   71.4614E-03,  -18.1368E-03,  -69.1215E-03,   40.4162E-03
C:/temp/dataset/3/13_8.odb,Step-1,Increment      4: Step Time =    1.000,"PART-1-1",           215,       9.82463,      -25.6838,            0.,NA,NA,"",   42.2588E-03,  -29.7551E-03,  -30.0074E-03,   18.9534E-03
C:/temp/dataset/3/13_8.odb,Step-1,Increment      4: Step Time =    1.000,"PART-1-1",           216,       2.56344,      -25.3828,            0.,NA,NA,"",   92.1609E-03,   61.3041E-03,   68.8145E-03,   27.6013E-03
C:/temp/dataset/3/13_8.odb,Step-1,Increment      4: Step Time =    1.000,"PART-1-1",           217,      -2.44121,      -25.1518,            0.,NA,NA,"",   64.7441E-03,   62.7806E-03,   15.8238E-03,   11.4063E-03
C:/temp/dataset/3/13_8.odb,Step-1,Increment      4: Step Time =    1.000,"PART-1-1",           218,      -4.95889,      -25.1139,            0.,NA,NA,"",   54.0617E-03,   53.8804E-03,   4.42375E-03,   7.41663E-03
C:/temp/dataset/3/13_8.odb,Step-1,Increment      4: Step Time =    1.000,"PART-1-1",           219,       10.3279,  -771.646E-03,            0.,NA,NA,"",       5.52673,       5.43045,      -1.02710,   14.0952E-03
C:/temp/dataset/3/13_8.odb,Step-1,Increment      4: Step Time =    1.000,"PART-1-1",           220,       10.4049,       4.48083,            0.,NA,NA,"",       7.72330,       7.56879,      -1.53713,   7.94007E-03
C:/temp/dataset/3/13_8.odb,Step-1,Increment      4: Step Time =    1.000,"PART-1-1",           221,       9.80969,       17.5478,            0.,NA,NA,"",       14.1318,       13.8394,      -2.85983,   11.0994E-03
C:/temp/dataset/3/13_8.odb,Step-1,Increment      4: Step Time =    1.000,"PART-1-1",           222,       9.88106,       25.0797,            0.,NA,NA,"",       18.1912,       17.7478,      -3.99163,   8.57624E-03
C:/temp/dataset/3/13_8.odb,Step-1,Increment      4: Step Time =    1.000,"PART-1-1",           223,       9.94975,       27.5346,            0.,NA,NA,"",       19.5201,       19.0211,      -4.38565,   5.92072E-03
C:/temp/dataset/3/13_8.odb,Step-1,Increment      4: Step Time =    1.000,"PART-1-1",           224,       7.36779,       20.0596,            0.,NA,NA,"",       15.6003,       15.4733,      -1.98615,   12.3093E-03
C:/temp/dataset/3/13_8.odb,Step-1,Increment      4: Step Time =    1.000,"PART-1-1",           225,  -693.206E-03,      -1.01900,            0.,NA,NA,"",       7.11429,       6.32205,       3.26263,   1.53143E-03
C:/temp/dataset/3/13_8.odb,Step-1,Increment      4: Step Time =    1.000,"PART-1-1",           226,      -7.47194,      -25.0831,            0.,NA,NA,"",   46.1088E-03,   46.1073E-03,   374.241E-06,   5.36787E-03
C:/temp/dataset/3/13_8.odb,Step-1,Increment      4: Step Time =    1.000,"PART-1-1",           227,       5.28089,       2.25097,            0.,NA,NA,"",       7.15616,       7.12179,   700.556E-03,   34.5146E-03
C:/temp/dataset/3/13_8.odb,Step-1,Increment      4: Step Time =    1.000,"PART-1-1",           228,       9.26575,       8.45073,            0.,NA,NA,"",       9.55428,       9.44201,      -1.46034,   12.1798E-03
C:/temp/dataset/3/13_8.odb,Step-1,Increment      4: Step Time =    1.000,"PART-1-1",           229,  -81.3472E-03,       1.02952,            0.,NA,NA,"",       7.63747,       7.08366,       2.85528,   1.75429E-03
C:/temp/dataset/3/13_8.odb,Step-1,Increment      4: Step Time =    1.000,"PART-1-1",           230,      -7.67687,   831.326E-03,            0.,NA,NA,"",       9.62279,       7.62013,       5.87638,   276.061E-06
C:/temp/dataset/3/13_8.odb,Step-1,Increment      4: Step Time =    1.000,"PART-1-1",           231,      -2.54090,  -531.417E-03,            0.,NA,NA,"",       7.75014,       6.66499,       3.95508,   1.31591E-03
C:/temp/dataset/3/13_8.odb,Step-1,Increment      4: Step Time =    1.000,"PART-1-1",           232,      -3.83997,       1.55066,            0.,NA,NA,"",       8.72498,       7.59249,       4.29877,   957.379E-06
C:/temp/dataset/3/13_8.odb,Step-1,Increment      4: Step Time =    1.000,"PART-1-1",           233,      -6.84494,  -996.203E-03,            0.,NA,NA,"",       8.89365,       6.82967,       5.69672,   407.927E-06
C:/temp/dataset/3/13_8.odb,Step-1,Increment      4: Step Time =    1.000,"PART-1-1",           234,       5.51335,      -3.03354,            0.,NA,NA,"",       5.03510,       4.95239,   908.892E-03,   45.9326E-03
C:/temp/dataset/3/13_8.odb,Step-1,Increment      4: Step Time =    1.000,"PART-1-1",           235,       9.62476,      -7.14735,            0.,NA,NA,"",       3.13743,       3.12023,  -328.151E-03,   13.9343E-03
C:/temp/dataset/3/13_8.odb,Step-1,Increment      4: Step Time =    1.000,"PART-1-1",           236,       7.38903,      -25.9371,            0.,NA,NA,"",   43.6053E-03,  -13.0030E-03,   41.6214E-03,   21.6676E-03
C:/temp/dataset/3/13_8.odb,Step-1,Increment      4: Step Time =    1.000,"PART-1-1",           237,       4.96373,      -25.7856,            0.,NA,NA,"",   79.6830E-03,   26.0049E-03,   75.3201E-03,   30.6255E-03
C:/temp/dataset/3/13_8.odb,Step-1,Increment      4: Step Time =    1.000,"PART-1-1",           238,       9.37191,      -21.3805,            0.,NA,NA,"",   118.078E-03,   117.038E-03,  -15.6379E-03,   16.3458E-03
C:/temp/dataset/3/13_8.odb,Step-1,Increment      4: Step Time =    1.000,"PART-1-1",           239,       9.53380,      -19.3691,            0.,NA,NA,"",   296.660E-03,   293.378E-03,  -44.0062E-03,   8.11565E-03
C:/temp/dataset/3/13_8.odb,Step-1,Increment      4: Step Time =    1.000,"PART-1-1",           240,       10.5518,      -5.76730,            0.,NA,NA,"",       3.61148,       3.54070,  -711.495E-03,   18.4324E-03
C:/temp/dataset/3/13_8.odb,Step-1,Increment      4: Step Time =    1.000,"PART-1-1",           241,       10.8494,      -2.88140,            0.,NA,NA,"",       4.69248,       4.57539,      -1.04171,   20.5302E-03
C:/temp/dataset/3/13_8.odb,Step-1,Increment      4: Step Time =    1.000,"PART-1-1",           242,       9.33979,       1.27198,            0.,NA,NA,"",       6.38611,       6.33430,  -811.834E-03,   11.7670E-03
C:/temp/dataset/3/13_8.odb,Step-1,Increment      4: Step Time =    1.000,"PART-1-1",           243,       9.83335,       20.0603,            0.,NA,NA,"",       15.4723,       15.1313,      -3.23065,   11.9404E-03
C:/temp/dataset/3/13_8.odb,Step-1,Increment      4: Step Time =    1.000,"PART-1-1",           244,       7.39102,       25.1069,            0.,NA,NA,"",       18.3257,       18.1225,      -2.72101,   8.19115E-03
C:/temp/dataset/3/13_8.odb,Step-1,Increment      4: Step Time =    1.000,"PART-1-1",           245,       4.93408,       25.0979,            0.,NA,NA,"",       18.5398,       18.4827,      -1.45392,   6.19732E-03
C:/temp/dataset/3/13_8.odb,Step-1,Increment      4: Step Time =    1.000,"PART-1-1",           246,      -10.0026,       25.0068,            0.,NA,NA,"",       21.7155,       20.7415,       6.43058,   3.99633E-03
C:/temp/dataset/3/13_8.odb,Step-1,Increment      4: Step Time =    1.000,"PART-1-1",           247,      -10.0008,       22.5051,            0.,NA,NA,"",       20.5621,       19.3991,       6.81723,   873.160E-06
C:/temp/dataset/3/13_8.odb,Step-1,Increment      4: Step Time =    1.000,"PART-1-1",           248,      -9.99283,      -27.5363,            0.,NA,NA,"",   22.3224E-03,   22.2806E-03,   1.36550E-03,   5.82852E-03
C:/temp/dataset/3/13_8.odb,Step-1,Increment      4: Step Time =    1.000,"PART-1-1",           249,       3.80746,   187.829E-03,            0.,NA,NA,"",       6.56847,       6.41828,       1.39661,   22.0608E-03
C:/temp/dataset/3/13_8.odb,Step-1,Increment      4: Step Time =    1.000,"PART-1-1",           250,       11.4886,       7.12458,            0.,NA,NA,"",       8.91770,       8.61606,      -2.29976,   16.5841E-03
C:/temp/dataset/3/13_8.odb,Step-1,Increment      4: Step Time =    1.000,"PART-1-1",           251,       5.25951,      -23.9756,            0.,NA,NA,"",   136.152E-03,   60.0835E-03,   122.177E-03,   40.2622E-03
C:/temp/dataset/3/13_8.odb,Step-1,Increment      4: Step Time =    1.000,"PART-1-1",           252,       9.85798,       22.5791,            0.,NA,NA,"",       16.8336,       16.4416,      -3.61192,   10.9418E-03
C:/temp/dataset/3/13_8.odb,Step-1,Increment      4: Step Time =    1.000,"PART-1-1",           253,       7.38133,       22.5911,            0.,NA,NA,"",       16.9650,       16.8010,      -2.35299,   10.8587E-03
C:/temp/dataset/3/13_8.odb,Step-1,Increment      4: Step Time =    1.000,"PART-1-1",           254,       9.03817,      -10.9527,            0.,NA,NA,"",       1.99434,       1.99416,  -27.0051E-03,   22.6518E-03
C:/temp/dataset/3/13_8.odb,Step-1,Increment      4: Step Time =    1.000,"PART-1-1",           255,       7.30212,      -21.2110,            0.,NA,NA,"",   204.935E-03,   135.564E-03,   153.691E-03,   33.6890E-03
C:/temp/dataset/3/13_8.odb,Step-1,Increment      4: Step Time =    1.000,"PART-1-1",           256,       8.48263,      -3.88795,            0.,NA,NA,"",       4.35582,       4.35369,  -135.950E-03,   26.4961E-03
C:/temp/dataset/3/13_8.odb,Step-1,Increment      4: Step Time =    1.000,"PART-1-1",           257,       8.48912,      -1.65164,            0.,NA,NA,"",       5.23645,       5.22912,  -276.970E-03,   25.0133E-03
C:/temp/dataset/3/13_8.odb,Step-1,Increment      4: Step Time =    1.000,"PART-1-1",           258,       8.19007,       3.36514,            0.,NA,NA,"",       7.32440,       7.30626,  -515.219E-03,   15.4301E-03
C:/temp/dataset/3/13_8.odb,Step-1,Increment      4: Step Time =    1.000,"PART-1-1",           259,       6.78208,  -317.133E-03,            0.,NA,NA,"",       5.93202,       5.92533,   281.600E-03,   31.1963E-03
C:/temp/dataset/3/13_8.odb,Step-1,Increment      4: Step Time =    1.000,"PART-1-1",           260,       11.8604,      -10.2109,            0.,NA,NA,"",       2.24956,       2.10219,  -800.838E-03,   32.1180E-03
C:/temp/dataset/3/13_8.odb,Step-1,Increment      4: Step Time =    1.000,"PART-1-1",           261,       5.00218,  -627.613E-03,            0.,NA,NA,"",       6.05339,       5.97319,   982.141E-03,   30.7403E-03
C:/temp/dataset/3/13_8.odb,Step-1,Increment      4: Step Time =    1.000,"PART-1-1",           262,       11.1460,      -8.45072,            0.,NA,NA,"",       2.73249,       2.63754,  -714.076E-03,   21.9427E-03
C:/temp/dataset/3/13_8.odb,Step-1,Increment      4: Step Time =    1.000,"PART-1-1",           263,       11.7180,       5.54683,            0.,NA,NA,"",       8.21065,       7.90583,      -2.21643,   18.0515E-03
C:/temp/dataset/3/13_8.odb,Step-1,Increment      4: Step Time =    1.000,"PART-1-1",           264,       5.25136,      -21.5985,            0.,NA,NA,"",   252.291E-03,   140.014E-03,   209.873E-03,   62.9599E-03
C:/temp/dataset/3/13_8.odb,Step-1,Increment      4: Step Time =    1.000,"PART-1-1",           265,       12.4723,       27.5096,            0.,NA,NA,"",       19.4901,       18.6444,      -5.67900,   3.51329E-03
C:/temp/dataset/3/13_8.odb,Step-1,Increment      4: Step Time =    1.000,"PART-1-1",           266,       5.87727,      -22.7682,            0.,NA,NA,"",   180.533E-03,   88.2546E-03,   157.491E-03,   43.6130E-03
C:/temp/dataset/3/13_8.odb,Step-1,Increment      4: Step Time =    1.000,"PART-1-1",           267,       7.32369,      -22.7299,            0.,NA,NA,"",   128.342E-03,   63.0155E-03,   111.806E-03,   32.4678E-03
C:/temp/dataset/3/13_8.odb,Step-1,Increment      4: Step Time =    1.000,"PART-1-1",           268,       11.4923,      -4.55460,            0.,NA,NA,"",       4.07918,       3.92112,      -1.12452,   27.1085E-03
C:/temp/dataset/3/13_8.odb,Step-1,Increment      4: Step Time =    1.000,"PART-1-1",           269,       11.2115,       8.96325,            0.,NA,NA,"",       9.77372,       9.47497,      -2.39805,   14.0516E-03
C:/temp/dataset/3/13_8.odb,Step-1,Increment      4: Step Time =    1.000,"PART-1-1",           270,       10.8046,       10.5255,            0.,NA,NA,"",       10.5261,       10.2476,      -2.40536,   11.9528E-03
C:/temp/dataset/3/13_8.odb,Step-1,Increment      4: Step Time =    1.000,"PART-1-1",           271,       7.35536,      -24.2380,            0.,NA,NA,"",   75.8248E-03,   17.2246E-03,   73.8425E-03,   27.1193E-03
C:/temp/dataset/3/13_8.odb,Step-1,Increment      4: Step Time =    1.000,"PART-1-1",           272,      -3.82134,   150.711E-03,            0.,NA,NA,"",       8.30352,       7.03811,       4.40606,   1.04174E-03
C:/temp/dataset/3/13_8.odb,Step-1,Increment      4: Step Time =    1.000,"PART-1-1",           273,       3.09609,      -1.70207,            0.,NA,NA,"",       6.00319,       5.72686,       1.80038,   18.0392E-03
C:/temp/dataset/3/13_8.odb,Step-1,Increment      4: Step Time =    1.000,"PART-1-1",           274,       4.56419,      -1.78689,            0.,NA,NA,"",       5.68247,       5.55033,       1.21832,   29.9781E-03
C:/temp/dataset/3/13_8.odb,Step-1,Increment      4: Step Time =    1.000,"PART-1-1",           275,       9.44492,      -23.8624,            0.,NA,NA,"",   19.5171E-03,   6.70754E-03,  -18.3283E-03,   19.7548E-03
C:/temp/dataset/3/13_8.odb,Step-1,Increment      4: Step Time =    1.000,"PART-1-1",           276,       8.77427,      -22.6651,            0.,NA,NA,"",   58.2378E-03,   51.4502E-03,   27.2858E-03,   20.4185E-03
C:/temp/dataset/3/13_8.odb,Step-1,Increment      4: Step Time =    1.000,"PART-1-1",           277,       10.1837,      -9.28900,            0.,NA,NA,"",       2.45323,       2.42208,  -389.734E-03,   11.4325E-03
C:/temp/dataset/3/13_8.odb,Step-1,Increment      4: Step Time =    1.000,"PART-1-1",           278,       10.4979,      -10.7612,            0.,NA,NA,"",       2.03188,       1.99050,  -407.958E-03,   12.3937E-03
C:/temp/dataset/3/13_8.odb,Step-1,Increment      4: Step Time =    1.000,"PART-1-1",           279,       11.2325,      -12.6180,            0.,NA,NA,"",       1.57632,       1.49345,  -504.390E-03,   21.9802E-03
C:/temp/dataset/3/13_8.odb,Step-1,Increment      4: Step Time =    1.000,"PART-1-1",           280,      -13.7500,       22.5017,            0.,NA,NA,"",       21.8509,       19.9863,       8.83234,   1.17076E-03
C:/temp/dataset/3/13_8.odb,Step-1,Increment      4: Step Time =    1.000,"PART-1-1",           281,          -15.,         21.25,            0.,NA,NA,"",       21.7884,       19.5097,       9.70085,   425.894E-06
C:/temp/dataset/3/13_8.odb,Step-1,Increment      4: Step Time =    1.000,"PART-1-1",           282,        -13.75,           20.,            0.,NA,NA,"",       20.7985,       18.6410,       9.22431,   470.653E-06
C:/temp/dataset/3/13_8.odb,Step-1,Increment      4: Step Time =    1.000,"PART-1-1",           283,      -12.5000,       21.2517,            0.,NA,NA,"",       20.8637,       19.1177,       8.35497,   819.935E-06
C:/temp/dataset/3/13_8.odb,Step-1,Increment      4: Step Time =    1.000,"PART-1-1",           284,        -11.25,           30.,            0.,NA,NA,"",       24.4628,       23.6297,       6.33008,   9.44031E-03
C:/temp/dataset/3/13_8.odb,Step-1,Increment      4: Step Time =    1.000,"PART-1-1",           285,      -12.5009,       28.7510,            0.,NA,NA,"",       24.2505,       23.1606,       7.18839,   8.38147E-03
C:/temp/dataset/3/13_8.odb,Step-1,Increment      4: Step Time =    1.000,"PART-1-1",           286,      -11.2523,       27.5017,            0.,NA,NA,"",       23.2733,       22.2840,       6.71342,   7.51907E-03
C:/temp/dataset/3/13_8.odb,Step-1,Increment      4: Step Time =    1.000,"PART-1-1",           287,      -10.0014,       28.7507,            0.,NA,NA,"",       23.4950,       22.7535,       5.85616,   8.44968E-03
C:/temp/dataset/3/13_8.odb,Step-1,Increment      4: Step Time =    1.000,"PART-1-1",           288,      -8.75282,       27.5029,            0.,NA,NA,"",       22.5342,       21.8819,       5.38250,   7.03144E-03
C:/temp/dataset/3/13_8.odb,Step-1,Increment      4: Step Time =    1.000,"PART-1-1",           289,      -10.0027,       26.2541,            0.,NA,NA,"",       22.3020,       21.4116,       6.23862,   5.59465E-03
C:/temp/dataset/3/13_8.odb,Step-1,Increment      4: Step Time =    1.000,"PART-1-1",           290,      -8.75320,       25.0087,            0.,NA,NA,"",       21.3381,       20.5448,       5.76407,   3.97912E-03
C:/temp/dataset/3/13_8.odb,Step-1,Increment      4: Step Time =    1.000,"PART-1-1",           291,      -7.50334,       26.2575,            0.,NA,NA,"",       21.5813,       21.0157,       4.90847,   5.46459E-03
C:/temp/dataset/3/13_8.odb,Step-1,Increment      4: Step Time =    1.000,"PART-1-1",           292,  -10.1921E-03,       23.8015,            0.,NA,NA,"",       18.5956,       18.5487,       1.31986,   2.35578E-03
C:/temp/dataset/3/13_8.odb,Step-1,Increment      4: Step Time =    1.000,"PART-1-1",           293,       1.23656,       22.5490,            0.,NA,NA,"",       17.7203,       17.6998,   851.262E-03,   1.29801E-03
C:/temp/dataset/3/13_8.odb,Step-1,Increment      4: Step Time =    1.000,"PART-1-1",           294,       2.47060,       23.8222,            0.,NA,NA,"",       18.1839,       18.1839,   14.9835E-03,   2.93549E-03
C:/temp/dataset/3/13_8.odb,Step-1,Increment      4: Step Time =    1.000,"PART-1-1",           295,       1.22385,       25.0746,            0.,NA,NA,"",       19.0384,       19.0323,   483.095E-03,   4.01089E-03
C:/temp/dataset/3/13_8.odb,Step-1,Increment      4: Step Time =    1.000,"PART-1-1",           296,       13.7132,       25.0166,            0.,NA,NA,"",       18.1718,       17.1697,      -5.95124,   4.72585E-03
C:/temp/dataset/3/13_8.odb,Step-1,Increment      4: Step Time =    1.000,"PART-1-1",           297,           15.,         26.25,            0.,NA,NA,"",       18.8926,       17.6253,      -6.80279,   2.24820E-03
C:/temp/dataset/3/13_8.odb,Step-1,Increment      4: Step Time =    1.000,"PART-1-1",           298,       13.7362,       27.5048,            0.,NA,NA,"",       19.5155,       18.4599,      -6.33132,   1.78514E-03
C:/temp/dataset/3/13_8.odb,Step-1,Increment      4: Step Time =    1.000,"PART-1-1",           299,       12.4494,       26.2714,            0.,NA,NA,"",       18.8203,       18.0032,      -5.48520,   5.14551E-03
C:/temp/dataset/3/13_8.odb,Step-1,Increment      4: Step Time =    1.000,"PART-1-1",           300,       6.19248,       27.5744,            0.,NA,NA,"",       19.7480,       19.5940,      -2.46165,   6.68047E-03
C:/temp/dataset/3/13_8.odb,Step-1,Increment      4: Step Time =    1.000,"PART-1-1",           301,       7.46746,       28.7842,            0.,NA,NA,"",       20.3048,       20.0362,      -3.29159,   6.55325E-03
C:/temp/dataset/3/13_8.odb,Step-1,Increment      4: Step Time =    1.000,"PART-1-1",           302,          6.25,           30.,            0.,NA,NA,"",       21.0443,       20.8519,      -2.83869,   8.29415E-03
C:/temp/dataset/3/13_8.odb,Step-1,Increment      4: Step Time =    1.000,"PART-1-1",           303,       4.97503,       28.7903,            0.,NA,NA,"",       20.5122,       20.4136,      -2.00874,   8.02688E-03
C:/temp/dataset/3/13_8.odb,Step-1,Increment      4: Step Time =    1.000,"PART-1-1",           304,       11.0878,       17.5306,            0.,NA,NA,"",       14.1028,       13.6633,      -3.49300,   11.5556E-03
C:/temp/dataset/3/13_8.odb,Step-1,Increment      4: Step Time =    1.000,"PART-1-1",           305,       12.3722,       18.7756,            0.,NA,NA,"",       14.7755,       14.1297,      -4.32063,   13.3146E-03
C:/temp/dataset/3/13_8.odb,Step-1,Increment      4: Step Time =    1.000,"PART-1-1",           306,       11.1059,       20.0490,            0.,NA,NA,"",       15.4457,       14.9528,      -3.87084,   11.2959E-03
C:/temp/dataset/3/13_8.odb,Step-1,Increment      4: Step Time =    1.000,"PART-1-1",           307,       9.82152,       18.8041,            0.,NA,NA,"",       14.7993,       14.4829,      -3.04383,   11.5435E-03
C:/temp/dataset/3/13_8.odb,Step-1,Increment      4: Step Time =    1.000,"PART-1-1",           308,       9.63171,       13.8797,            0.,NA,NA,"",       12.2275,       12.0134,      -2.27829,   11.0764E-03
C:/temp/dataset/3/13_8.odb,Step-1,Increment      4: Step Time =    1.000,"PART-1-1",           309,       8.52517,       15.0687,            0.,NA,NA,"",       12.8895,       12.7492,      -1.89621,   12.4734E-03
C:/temp/dataset/3/13_8.odb,Step-1,Increment      4: Step Time =    1.000,"PART-1-1",           310,       7.25683,       13.8735,            0.,NA,NA,"",       12.3669,       12.3145,      -1.13717,   19.2875E-03
C:/temp/dataset/3/13_8.odb,Step-1,Increment      4: Step Time =    1.000,"PART-1-1",           311,       8.36336,       12.6844,            0.,NA,NA,"",       11.6799,       11.5799,      -1.52546,   14.7115E-03
C:/temp/dataset/3/13_8.odb,Step-1,Increment      4: Step Time =    1.000,"PART-1-1",           312,       14.0118,       9.82001,            0.,NA,NA,"",       10.3098,       9.58040,      -3.80897,   33.0215E-03
C:/temp/dataset/3/13_8.odb,Step-1,Increment      4: Step Time =    1.000,"PART-1-1",           313,           15.,         11.25,            0.,NA,NA,"",       11.0856,       10.1340,      -4.49356,   38.2130E-03
C:/temp/dataset/3/13_8.odb,Step-1,Increment      4: Step Time =    1.000,"PART-1-1",           314,       13.5880,       12.3315,            0.,NA,NA,"",       11.5012,       10.7947,      -3.96915,   25.7671E-03
C:/temp/dataset/3/13_8.odb,Step-1,Increment      4: Step Time =    1.000,"PART-1-1",           315,       12.5998,       10.9015,            0.,NA,NA,"",       10.7460,       10.2286,      -3.29423,   21.3551E-03
C:/temp/dataset/3/13_8.odb,Step-1,Increment      4: Step Time =    1.000,"PART-1-1",           316,       4.40482,  -219.892E-03,            0.,NA,NA,"",       6.31028,       6.19707,       1.18996,   26.7629E-03
C:/temp/dataset/3/13_8.odb,Step-1,Increment      4: Step Time =    1.000,"PART-1-1",           317,       3.45177,  -757.122E-03,            0.,NA,NA,"",       6.27765,       6.07132,       1.59623,   18.7938E-03
C:/temp/dataset/3/13_8.odb,Step-1,Increment      4: Step Time =    1.000,"PART-1-1",           318,       3.83014,      -1.74448,            0.,NA,NA,"",       5.83827,       5.63972,       1.50963,   24.6410E-03
C:/temp/dataset/3/13_8.odb,Step-1,Increment      4: Step Time =    1.000,"PART-1-1",           319,       4.78319,      -1.20725,            0.,NA,NA,"",       5.86517,       5.76127,       1.09905,   29.5359E-03
C:/temp/dataset/3/13_8.odb,Step-1,Increment      4: Step Time =    1.000,"PART-1-1",           320,       10.3408,      -10.0251,            0.,NA,NA,"",       2.23749,       2.20161,  -399.103E-03,   11.7093E-03
C:/temp/dataset/3/13_8.odb,Step-1,Increment      4: Step Time =    1.000,"PART-1-1",           321,       11.1792,      -10.4860,            0.,NA,NA,"",       2.13111,       2.04472,  -600.610E-03,   21.1201E-03
C:/temp/dataset/3/13_8.odb,Step-1,Increment      4: Step Time =    1.000,"PART-1-1",           322,       11.5032,      -9.33080,            0.,NA,NA,"",       2.48163,       2.36235,  -760.123E-03,   26.6841E-03
C:/temp/dataset/3/13_8.odb,Step-1,Increment      4: Step Time =    1.000,"PART-1-1",           323,       10.6649,      -8.86986,            0.,NA,NA,"",       2.58733,       2.52863,  -547.969E-03,   15.2218E-03
C:/temp/dataset/3/13_8.odb,Step-1,Increment      4: Step Time =    1.000,"PART-1-1",           324,       9.41034,      -12.1888,            0.,NA,NA,"",       1.65438,       1.65171,  -94.0166E-03,   17.2876E-03
C:/temp/dataset/3/13_8.odb,Step-1,Increment      4: Step Time =    1.000,"PART-1-1",           325,       10.5075,      -13.0214,            0.,NA,NA,"",       1.45069,       1.41438,  -322.524E-03,   11.6894E-03
C:/temp/dataset/3/13_8.odb,Step-1,Increment      4: Step Time =    1.000,"PART-1-1",           326,       10.8652,      -11.6896,            0.,NA,NA,"",       1.79321,       1.73337,  -459.355E-03,   16.5788E-03
C:/temp/dataset/3/13_8.odb,Step-1,Increment      4: Step Time =    1.000,"PART-1-1",           327,       9.76802,      -10.8570,            0.,NA,NA,"",       2.00209,       1.99039,  -216.137E-03,   12.5233E-03
C:/temp/dataset/3/13_8.odb,Step-1,Increment      4: Step Time =    1.000,"PART-1-1",           328,       6.12016,      -19.7528,            0.,NA,NA,"",   380.136E-03,   255.740E-03,   281.248E-03,   87.6464E-03
C:/temp/dataset/3/13_8.odb,Step-1,Increment      4: Step Time =    1.000,"PART-1-1",           329,       7.15653,      -18.4145,            0.,NA,NA,"",   498.424E-03,   437.188E-03,   239.360E-03,   49.7420E-03
C:/temp/dataset/3/13_8.odb,Step-1,Increment      4: Step Time =    1.000,"PART-1-1",           330,       6.03637,      -17.4116,            0.,NA,NA,"",   782.505E-03,   649.877E-03,   435.861E-03,   87.5478E-03
C:/temp/dataset/3/13_8.odb,Step-1,Increment      4: Step Time =    1.000,"PART-1-1",           331,            5.,        -18.75,            0.,NA,NA,"",   657.822E-03,   469.212E-03,   461.052E-03,   147.301E-03
C:/temp/dataset/3/13_8.odb,Step-1,Increment      4: Step Time =    1.000,"PART-1-1",           332,       13.3604,      -22.4969,            0.,NA,NA,"",   336.527E-03,   97.0758E-03,  -322.222E-03,   60.6120E-03
C:/temp/dataset/3/13_8.odb,Step-1,Increment      4: Step Time =    1.000,"PART-1-1",           333,           15.,        -21.25,            0.,NA,NA,"",   577.234E-03,   222.399E-03,  -532.670E-03,   91.3860E-03
C:/temp/dataset/3/13_8.odb,Step-1,Increment      4: Step Time =    1.000,"PART-1-1",           334,       13.4842,      -19.7901,            0.,NA,NA,"",   573.807E-03,   290.837E-03,  -494.639E-03,   68.5427E-03
C:/temp/dataset/3/13_8.odb,Step-1,Increment      4: Step Time =    1.000,"PART-1-1",           335,       11.8446,      -21.0370,            0.,NA,NA,"",   300.944E-03,   156.532E-03,  -257.031E-03,   40.0712E-03
C:/temp/dataset/3/13_8.odb,Step-1,Increment      4: Step Time =    1.000,"PART-1-1",           336,       1.65000,            5.,            0.,NA,NA,"",       8.70042,       8.49723,       1.86934,   3.60559E-03
C:/temp/dataset/3/13_8.odb,Step-1,Increment      4: Step Time =    1.000,"PART-1-1",           337,   440.654E-03,       4.00571,            0.,NA,NA,"",       8.55739,       8.20990,       2.41384,   2.21820E-03
C:/temp/dataset/3/13_8.odb,Step-1,Increment      4: Step Time =    1.000,"PART-1-1",           338,       1.47063,       2.87974,            0.,NA,NA,"",       7.97141,       7.68907,       2.10275,   6.48439E-03
C:/temp/dataset/3/13_8.odb,Step-1,Increment      4: Step Time =    1.000,"PART-1-1",           339,       2.67998,       3.87403,            0.,NA,NA,"",       8.13960,       7.98791,       1.56411,   6.23951E-03
C:/temp/dataset/3/13_8.odb,Step-1,Increment      4: Step Time =    1.000,"PART-1-1",           340,      -1.46180,      -3.99231,            0.,NA,NA,"",       6.44969,       5.20204,       3.81277,   1.51233E-03
C:/temp/dataset/3/13_8.odb,Step-1,Increment      4: Step Time =    1.000,"PART-1-1",           341,     -500.E-03,           -5.,            0.,NA,NA,"",       5.88349,       4.71915,       3.51355,   3.96399E-03
C:/temp/dataset/3/13_8.odb,Step-1,Increment      4: Step Time =    1.000,"PART-1-1",           342,   718.491E-03,      -4.10961,            0.,NA,NA,"",       5.78307,       4.97105,       2.95510,   2.58741E-03
C:/temp/dataset/3/13_8.odb,Step-1,Increment      4: Step Time =    1.000,"PART-1-1",           343,  -243.313E-03,      -3.10192,            0.,NA,NA,"",       6.35339,       5.45620,       3.25507,   967.321E-06
C:/temp/dataset/3/13_8.odb,Step-1,Increment      4: Step Time =    1.000,"PART-1-1",           344,      -3.82017,      -3.74247,            0.,NA,NA,"",       7.24813,       5.49572,       4.72572,   785.536E-06
C:/temp/dataset/3/13_8.odb,Step-1,Increment      4: Step Time =    1.000,"PART-1-1",           345,      -2.71667,           -5.,            0.,NA,NA,"",       6.58467,       4.90592,       4.39201,   1.78455E-03
C:/temp/dataset/3/13_8.odb,Step-1,Increment      4: Step Time =    1.000,"PART-1-1",           346,      -2.56530,      -2.73478,            0.,NA,NA,"",       7.12415,       5.79309,       4.14653,   1.16029E-03
C:/temp/dataset/3/13_8.odb,Step-1,Increment      4: Step Time =    1.000,"PART-1-1",           347,      -13.8092,  -21.6491E-03,            0.,NA,NA,"",       11.4307,       7.78268,       8.37209,   3.98455E-06
C:/temp/dataset/3/13_8.odb,Step-1,Increment      4: Step Time =    1.000,"PART-1-1",           348,      -12.6581,       1.21263,            0.,NA,NA,"",       11.3117,       8.17705,       7.81604,   11.4787E-06
C:/temp/dataset/3/13_8.odb,Step-1,Increment      4: Step Time =    1.000,"PART-1-1",           349,      -13.8489,       2.48428,            0.,NA,NA,"",       12.0003,       8.77723,       8.18336,   1.69577E-06
C:/temp/dataset/3/13_8.odb,Step-1,Increment      4: Step Time =    1.000,"PART-1-1",           350,          -15.,          1.25,            0.,NA,NA,"",       12.1099,       8.38286,       8.73941,   7.30383E-06
C:/temp/dataset/3/13_8.odb,Step-1,Increment      4: Step Time =    1.000,"PART-1-1",           351,      -8.84172,   345.754E-03,            0.,NA,NA,"",       9.86209,       7.52297,       6.37696,   177.479E-06
C:/temp/dataset/3/13_8.odb,Step-1,Increment      4: Step Time =    1.000,"PART-1-1",           352,      -9.20019,  -788.270E-03,            0.,NA,NA,"",       9.70423,       7.10363,       6.61140,   134.438E-06
C:/temp/dataset/3/13_8.odb,Step-1,Increment      4: Step Time =    1.000,"PART-1-1",           353,      -7.61937,      -1.21646,            0.,NA,NA,"",       9.08672,       6.80551,       6.02109,   289.224E-06
C:/temp/dataset/3/13_8.odb,Step-1,Increment      4: Step Time =    1.000,"PART-1-1",           354,      -7.26090,  -82.4387E-03,            0.,NA,NA,"",       9.25651,       7.22492,       5.78650,   311.817E-06
C:/temp/dataset/3/13_8.odb,Step-1,Increment      4: Step Time =    1.000,"PART-1-1",           355,      -12.7466,      -3.77621,            0.,NA,NA,"",       10.3329,       6.21084,       8.25800,   2.86750E-06
C:/temp/dataset/3/13_8.odb,Step-1,Increment      4: Step Time =    1.000,"PART-1-1",           356,      -13.8633,      -2.52621,            0.,NA,NA,"",       10.9596,       6.79636,       8.59776,   1.73619E-06
C:/temp/dataset/3/13_8.odb,Step-1,Increment      4: Step Time =    1.000,"PART-1-1",           357,          -15.,         -3.75,            0.,NA,NA,"",       11.1667,       6.40499,       9.14721,   2.82660E-06
C:/temp/dataset/3/13_8.odb,Step-1,Increment      4: Step Time =    1.000,"PART-1-1",           358,      -13.8833,           -5.,            0.,NA,NA,"",       10.5564,       5.81947,       8.80745,   2.16173E-06
C:/temp/dataset/3/13_8.odb,Step-1,Increment      4: Step Time =    1.000,"PART-1-1",           359,      -5.03830,      -2.71522,            0.,NA,NA,"",       7.89139,       6.00231,       5.12311,   712.075E-06
C:/temp/dataset/3/13_8.odb,Step-1,Increment      4: Step Time =    1.000,"PART-1-1",           360,      -4.43911,      -1.50749,            0.,NA,NA,"",       8.01782,       6.43202,       4.78691,   755.426E-06
C:/temp/dataset/3/13_8.odb,Step-1,Increment      4: Step Time =    1.000,"PART-1-1",           361,      -5.95808,  -763.119E-03,            0.,NA,NA,"",       8.67724,       6.84982,       5.32676,   562.401E-06
C:/temp/dataset/3/13_8.odb,Step-1,Increment      4: Step Time =    1.000,"PART-1-1",           362,      -6.55726,      -1.97085,            0.,NA,NA,"",       8.56101,       6.42060,       5.66276,   378.127E-06
C:/temp/dataset/3/13_8.odb,Step-1,Increment      4: Step Time =    1.000,"PART-1-1",           363,          6.25,          -30.,            0.,NA,NA,"",            0.,  -41.2416E-42,  -393.476E-42,   11.7475E-03
C:/temp/dataset/3/13_8.odb,Step-1,Increment      4: Step Time =    1.000,"PART-1-1",           364,       7.47038,      -28.9473,            0.,NA,NA,"",   17.7744E-03,  -17.0173E-03,   5.13238E-03,   13.7309E-03
C:/temp/dataset/3/13_8.odb,Step-1,Increment      4: Step Time =    1.000,"PART-1-1",           365,       6.18647,      -27.8786,            0.,NA,NA,"",   27.2771E-03,  -10.9301E-03,   24.9915E-03,   17.9166E-03
C:/temp/dataset/3/13_8.odb,Step-1,Increment      4: Step Time =    1.000,"PART-1-1",           366,       4.96608,      -28.9312,            0.,NA,NA,"",   12.6124E-03,  -1.33237E-03,   12.5418E-03,   16.4720E-03
C:/temp/dataset/3/13_8.odb,Step-1,Increment      4: Step Time =    1.000,"PART-1-1",           367,       3.70492,      -27.8047,            0.,NA,NA,"",   35.0235E-03,   15.5425E-03,   31.3859E-03,   20.7505E-03
C:/temp/dataset/3/13_8.odb,Step-1,Increment      4: Step Time =    1.000,"PART-1-1",           368,       2.48883,      -28.8735,            0.,NA,NA,"",   18.1176E-03,   12.6623E-03,   12.9582E-03,   17.4308E-03
C:/temp/dataset/3/13_8.odb,Step-1,Increment      4: Step Time =    1.000,"PART-1-1",           369,          3.75,          -30.,            0.,NA,NA,"",            0.,  -143.640E-42,  -406.484E-42,   13.0392E-03
C:/temp/dataset/3/13_8.odb,Step-1,Increment      4: Step Time =    1.000,"PART-1-1",           370,      -3.72203,      -27.5999,            0.,NA,NA,"",   35.0826E-03,   34.4792E-03,   6.47894E-03,   10.2559E-03
C:/temp/dataset/3/13_8.odb,Step-1,Increment      4: Step Time =    1.000,"PART-1-1",           371,      -4.98725,      -28.7922,            0.,NA,NA,"",   17.3892E-03,   17.1903E-03,   2.62242E-03,   9.53903E-03
C:/temp/dataset/3/13_8.odb,Step-1,Increment      4: Step Time =    1.000,"PART-1-1",           372,         -3.75,          -30.,            0.,NA,NA,"",            0.,  -148.358E-42,  -93.4078E-42,   11.7180E-03
C:/temp/dataset/3/13_8.odb,Step-1,Increment      4: Step Time =    1.000,"PART-1-1",           373,      -2.48478,      -28.8077,            0.,NA,NA,"",   20.5660E-03,   19.8746E-03,   5.28807E-03,   12.3520E-03
C:/temp/dataset/3/13_8.odb,Step-1,Increment      4: Step Time =    1.000,"PART-1-1",           374,      -13.7501,      -27.5099,            0.,NA,NA,"",   21.6794E-03,   20.6520E-03,   6.59459E-03,   3.53582E-03
C:/temp/dataset/3/13_8.odb,Step-1,Increment      4: Step Time =    1.000,"PART-1-1",           375,          -15.,        -28.75,            0.,NA,NA,"",   14.6192E-03,   11.9802E-03,   8.37837E-03,   6.42152E-03
C:/temp/dataset/3/13_8.odb,Step-1,Increment      4: Step Time =    1.000,"PART-1-1",           376,        -13.75,          -30.,            0.,NA,NA,"",            0.,  -18.5714E-42,  -82.6037E-42,   7.06850E-03
C:/temp/dataset/3/13_8.odb,Step-1,Increment      4: Step Time =    1.000,"PART-1-1",           377,      -12.5001,      -28.7599,            0.,NA,NA,"",   9.80289E-03,   9.61347E-03,   1.91774E-03,   5.15057E-03
C:/temp/dataset/3/13_8.odb,Step-1,Increment      4: Step Time =    1.000,"PART-1-1",           378,       8.15833,      -10.8587,            0.,NA,NA,"",       2.07151,       2.06226,   195.448E-03,   36.7461E-03
C:/temp/dataset/3/13_8.odb,Step-1,Increment      4: Step Time =    1.000,"PART-1-1",           379,       9.00498,      -9.90697,            0.,NA,NA,"",       2.29291,       2.29253,  -42.0489E-03,   21.8232E-03
C:/temp/dataset/3/13_8.odb,Step-1,Increment      4: Step Time =    1.000,"PART-1-1",           380,       8.08915,      -8.55627,            0.,NA,NA,"",       2.75688,       2.75066,   185.095E-03,   35.3055E-03
C:/temp/dataset/3/13_8.odb,Step-1,Increment      4: Step Time =    1.000,"PART-1-1",           381,       7.24249,      -9.50802,            0.,NA,NA,"",       2.54510,       2.50777,   434.305E-03,   50.1467E-03
C:/temp/dataset/3/13_8.odb,Step-1,Increment      4: Step Time =    1.000,"PART-1-1",           382,       13.9816,      -2.51124,            0.,NA,NA,"",       5.05353,       4.53338,      -2.23308,   47.8342E-03
C:/temp/dataset/3/13_8.odb,Step-1,Increment      4: Step Time =    1.000,"PART-1-1",           383,           15.,         -1.25,            0.,NA,NA,"",       5.67245,       4.94316,      -2.78241,   55.1447E-03
C:/temp/dataset/3/13_8.odb,Step-1,Increment      4: Step Time =    1.000,"PART-1-1",           384,       13.8213,  -48.4001E-03,            0.,NA,NA,"",       5.99401,       5.46779,      -2.45589,   40.1782E-03
C:/temp/dataset/3/13_8.odb,Step-1,Increment      4: Step Time =    1.000,"PART-1-1",           385,       12.8030,      -1.30964,            0.,NA,NA,"",       5.40061,       5.04922,      -1.91622,   33.6217E-03
C:/temp/dataset/3/13_8.odb,Step-1,Increment      4: Step Time =    1.000,"PART-1-1",           386,           15.,          1.25,            0.,NA,NA,"",       6.65665,       5.89335,      -3.09506,   49.7196E-03
C:/temp/dataset/3/13_8.odb,Step-1,Increment      4: Step Time =    1.000,"PART-1-1",           387,       13.5709,       2.55070,            0.,NA,NA,"",       7.02962,       6.50740,      -2.65881,   35.0699E-03
C:/temp/dataset/3/13_8.odb,Step-1,Increment      4: Step Time =    1.000,"PART-1-1",           388,       12.3922,       1.25230,            0.,NA,NA,"",       6.40524,       6.07611,      -2.02683,   25.6425E-03
C:/temp/dataset/3/13_8.odb,Step-1,Increment      4: Step Time =    1.000,"PART-1-1",           389,      -5.00532,       26.2655,            0.,NA,NA,"",       20.9351,       20.6261,       3.58370,   5.41067E-03
C:/temp/dataset/3/13_8.odb,Step-1,Increment      4: Step Time =    1.000,"PART-1-1",           390,      -3.75495,       25.0275,            0.,NA,NA,"",       20.0155,       19.7725,       3.10953,   3.88213E-03
C:/temp/dataset/3/13_8.odb,Step-1,Increment      4: Step Time =    1.000,"PART-1-1",           391,      -2.50780,       26.2820,            0.,NA,NA,"",       20.3708,       20.2447,       2.26343,   5.33866E-03
C:/temp/dataset/3/13_8.odb,Step-1,Increment      4: Step Time =    1.000,"PART-1-1",           392,      -3.75817,       27.5199,            0.,NA,NA,"",       21.2746,       21.0978,       2.73701,   6.88662E-03
C:/temp/dataset/3/13_8.odb,Step-1,Increment      4: Step Time =    1.000,"PART-1-1",           393,      -5.00193,       23.7670,            0.,NA,NA,"",       19.6977,       19.2955,       3.96026,   2.48291E-03
C:/temp/dataset/3/13_8.odb,Step-1,Increment      4: Step Time =    1.000,"PART-1-1",           394,      -6.25406,       25.0149,            0.,NA,NA,"",       20.6372,       20.1551,       4.43452,   3.94597E-03
C:/temp/dataset/3/13_8.odb,Step-1,Increment      4: Step Time =    1.000,"PART-1-1",           395,      -7.50285,       23.7600,            0.,NA,NA,"",       20.3790,       19.6804,       5.28986,   2.48413E-03
C:/temp/dataset/3/13_8.odb,Step-1,Increment      4: Step Time =    1.000,"PART-1-1",           396,      -6.25071,       22.5121,            0.,NA,NA,"",       19.4265,       18.8203,       4.81487,   1.03862E-03
C:/temp/dataset/3/13_8.odb,Step-1,Increment      4: Step Time =    1.000,"PART-1-1",           397,      -12.5007,       23.7543,            0.,NA,NA,"",       21.9582,       20.4636,       7.96266,   1.83329E-03
C:/temp/dataset/3/13_8.odb,Step-1,Increment      4: Step Time =    1.000,"PART-1-1",           398,      -13.7507,       25.0026,            0.,NA,NA,"",       22.9446,       21.3370,       8.43706,   4.60394E-03
C:/temp/dataset/3/13_8.odb,Step-1,Increment      4: Step Time =    1.000,"PART-1-1",           399,          -15.,         23.75,            0.,NA,NA,"",       22.8409,       20.8570,       9.31069,   1.69765E-03
C:/temp/dataset/3/13_8.odb,Step-1,Increment      4: Step Time =    1.000,"PART-1-1",           400,       1.22659,       27.5580,            0.,NA,NA,"",       20.3410,       20.3407,   116.350E-03,   6.85227E-03
C:/temp/dataset/3/13_8.odb,Step-1,Increment      4: Step Time =    1.000,"PART-1-1",           401,       2.48534,       28.7828,            0.,NA,NA,"",       20.8036,       20.7912,  -717.779E-03,   8.49999E-03
C:/temp/dataset/3/13_8.odb,Step-1,Increment      4: Step Time =    1.000,"PART-1-1",           402,          1.25,           30.,            0.,NA,NA,"",       21.6262,       21.6247,  -251.823E-03,   10.1516E-03
C:/temp/dataset/3/13_8.odb,Step-1,Increment      4: Step Time =    1.000,"PART-1-1",           403,  -8.74824E-03,       28.7751,            0.,NA,NA,"",       21.1830,       21.1750,   583.299E-03,   8.49212E-03
C:/temp/dataset/3/13_8.odb,Step-1,Increment      4: Step Time =    1.000,"PART-1-1",           404,  -16.7069E-03,       26.3073,            0.,NA,NA,"",       19.8952,       19.8725,   950.843E-03,   5.34863E-03
C:/temp/dataset/3/13_8.odb,Step-1,Increment      4: Step Time =    1.000,"PART-1-1",           405,       2.46714,       26.3253,            0.,NA,NA,"",       19.5044,       19.5013,  -350.450E-03,   5.67745E-03
C:/temp/dataset/3/13_8.odb,Step-1,Increment      4: Step Time =    1.000,"PART-1-1",           406,       3.70751,       22.5746,            0.,NA,NA,"",       17.3467,       17.3408,  -450.570E-03,   3.44910E-03
C:/temp/dataset/3/13_8.odb,Step-1,Increment      4: Step Time =    1.000,"PART-1-1",           407,       2.48879,       21.2797,            0.,NA,NA,"",       16.8478,       16.8435,   381.495E-03,   1.20107E-03
C:/temp/dataset/3/13_8.odb,Step-1,Increment      4: Step Time =    1.000,"PART-1-1",           408,          3.75,           20.,            0.,NA,NA,"",       15.9818,       15.9815,  -91.8039E-03,   4.39881E-03
C:/temp/dataset/3/13_8.odb,Step-1,Increment      4: Step Time =    1.000,"PART-1-1",           409,       4.96872,       21.2949,            0.,NA,NA,"",       16.5031,       16.4771,  -926.859E-03,   8.86519E-03
C:/temp/dataset/3/13_8.odb,Step-1,Increment      4: Step Time =    1.000,"PART-1-1",           410,       10.8479,       12.4309,            0.,NA,NA,"",       11.4707,       11.1555,      -2.67055,   11.4495E-03
C:/temp/dataset/3/13_8.odb,Step-1,Increment      4: Step Time =    1.000,"PART-1-1",           411,       9.34812,       11.6387,            0.,NA,NA,"",       11.1055,       10.9479,      -1.86418,   11.7079E-03
C:/temp/dataset/3/13_8.odb,Step-1,Increment      4: Step Time =    1.000,"PART-1-1",           412,       9.99050,       10.5520,            0.,NA,NA,"",       10.5485,       10.3510,      -2.03185,   10.2361E-03
C:/temp/dataset/3/13_8.odb,Step-1,Increment      4: Step Time =    1.000,"PART-1-1",           413,       11.4903,       11.3442,            0.,NA,NA,"",       10.9329,       10.5599,      -2.83117,   14.4189E-03
C:/temp/dataset/3/13_8.odb,Step-1,Increment      4: Step Time =    1.000,"PART-1-1",           414,       7.16850,       11.5014,            0.,NA,NA,"",       11.1787,       11.1478,  -830.608E-03,   22.9240E-03
C:/temp/dataset/3/13_8.odb,Step-1,Increment      4: Step Time =    1.000,"PART-1-1",           415,       6.10343,       12.5850,            0.,NA,NA,"",       11.8313,       11.8230,  -443.039E-03,   27.7366E-03
C:/temp/dataset/3/13_8.odb,Step-1,Increment      4: Step Time =    1.000,"PART-1-1",           416,            5.,         11.25,            0.,NA,NA,"",       11.3108,       11.3089,   209.879E-03,   38.2797E-03
C:/temp/dataset/3/13_8.odb,Step-1,Increment      4: Step Time =    1.000,"PART-1-1",           417,       6.06507,       10.1664,            0.,NA,NA,"",       10.6381,       10.6365,  -185.089E-03,   32.9676E-03
C:/temp/dataset/3/13_8.odb,Step-1,Increment      4: Step Time =    1.000,"PART-1-1",           418,       14.0565,       5.06378,            0.,NA,NA,"",       8.14510,       7.49891,      -3.17945,   38.6590E-03
C:/temp/dataset/3/13_8.odb,Step-1,Increment      4: Step Time =    1.000,"PART-1-1",           419,       12.6274,       3.86448,            0.,NA,NA,"",       7.51607,       7.11780,      -2.41418,   26.0954E-03
C:/temp/dataset/3/13_8.odb,Step-1,Increment      4: Step Time =    1.000,"PART-1-1",           420,           15.,          3.75,            0.,NA,NA,"",       7.68687,       6.88491,      -3.41847,   47.7563E-03
C:/temp/dataset/3/13_8.odb,Step-1,Increment      4: Step Time =    1.000,"PART-1-1",           421,       10.0280,       5.47301,            0.,NA,NA,"",       8.16481,       8.02990,      -1.47815,   6.64882E-03
C:/temp/dataset/3/13_8.odb,Step-1,Increment      4: Step Time =    1.000,"PART-1-1",           422,       11.0614,       5.01383,            0.,NA,NA,"",       7.96030,       7.73678,      -1.87313,   12.9240E-03
C:/temp/dataset/3/13_8.odb,Step-1,Increment      4: Step Time =    1.000,"PART-1-1",           423,       11.6033,       6.33570,            0.,NA,NA,"",       8.56087,       8.25787,      -2.25745,   17.1626E-03
C:/temp/dataset/3/13_8.odb,Step-1,Increment      4: Step Time =    1.000,"PART-1-1",           424,       10.5698,       6.79489,            0.,NA,NA,"",       8.75686,       8.55804,      -1.85538,   10.1525E-03
C:/temp/dataset/3/13_8.odb,Step-1,Increment      4: Step Time =    1.000,"PART-1-1",           425,      -4.94418,       3.17107,            0.,NA,NA,"",       9.51055,       8.32198,       4.60383,   675.887E-06
C:/temp/dataset/3/13_8.odb,Step-1,Increment      4: Step Time =    1.000,"PART-1-1",           426,      -3.90803,       4.11594,            0.,NA,NA,"",       9.54394,       8.61021,       4.11717,   819.554E-06
C:/temp/dataset/3/13_8.odb,Step-1,Increment      4: Step Time =    1.000,"PART-1-1",           427,      -5.05000,            5.,            0.,NA,NA,"",       10.1090,       9.05367,       4.49701,   694.673E-06
C:/temp/dataset/3/13_8.odb,Step-1,Increment      4: Step Time =    1.000,"PART-1-1",           428,      -6.08615,       4.05513,            0.,NA,NA,"",       10.0827,       8.76482,       4.98383,   311.547E-06
C:/temp/dataset/3/13_8.odb,Step-1,Increment      4: Step Time =    1.000,"PART-1-1",           429,      -3.86135,       2.39128,            0.,NA,NA,"",       8.98806,       7.92582,       4.23871,   836.512E-06
C:/temp/dataset/3/13_8.odb,Step-1,Increment      4: Step Time =    1.000,"PART-1-1",           430,      -5.85027,       2.20434,            0.,NA,NA,"",       9.46781,       8.01406,       5.04125,   471.511E-06
C:/temp/dataset/3/13_8.odb,Step-1,Increment      4: Step Time =    1.000,"PART-1-1",           431,      -4.76744,       1.42454,            0.,NA,NA,"",       8.93872,       7.61795,       4.67626,   768.420E-06
C:/temp/dataset/3/13_8.odb,Step-1,Increment      4: Step Time =    1.000,"PART-1-1",           432,      -9.29397,       2.69508,            0.,NA,NA,"",       10.6097,       8.48902,       6.36412,   118.904E-06
C:/temp/dataset/3/13_8.odb,Step-1,Increment      4: Step Time =    1.000,"PART-1-1",           433,      -8.28887,       3.92576,            0.,NA,NA,"",       10.6541,       8.89375,       5.86602,   104.752E-06
C:/temp/dataset/3/13_8.odb,Step-1,Increment      4: Step Time =    1.000,"PART-1-1",           434,          -9.5,            5.,            0.,NA,NA,"",       11.3071,       9.41765,       6.25761,   44.6293E-06
C:/temp/dataset/3/13_8.odb,Step-1,Increment      4: Step Time =    1.000,"PART-1-1",           435,      -10.5051,       3.76932,            0.,NA,NA,"",       11.2636,       9.01279,       6.75568,   24.9967E-06
C:/temp/dataset/3/13_8.odb,Step-1,Increment      4: Step Time =    1.000,"PART-1-1",           436,      -7.92731,       1.84143,            0.,NA,NA,"",       9.96833,       8.03993,       5.89298,   207.110E-06
C:/temp/dataset/3/13_8.odb,Step-1,Increment      4: Step Time =    1.000,"PART-1-1",           437,      -6.68589,       1.06488,            0.,NA,NA,"",       9.38677,       7.63178,       5.46510,   431.967E-06
C:/temp/dataset/3/13_8.odb,Step-1,Increment      4: Step Time =    1.000,"PART-1-1",           438,      -7.09169,       2.98089,            0.,NA,NA,"",       10.0423,       8.42228,       5.46930,   318.162E-06
C:/temp/dataset/3/13_8.odb,Step-1,Increment      4: Step Time =    1.000,"PART-1-1",           439,      -13.9000,            5.,            0.,NA,NA,"",       12.6315,       9.77663,       7.99835,   2.12584E-06
C:/temp/dataset/3/13_8.odb,Step-1,Increment      4: Step Time =    1.000,"PART-1-1",           440,          -15.,          3.75,            0.,NA,NA,"",       12.6762,       9.37186,       8.53548,   2.91444E-06
C:/temp/dataset/3/13_8.odb,Step-1,Increment      4: Step Time =    1.000,"PART-1-1",           441,      -12.7489,       3.73428,            0.,NA,NA,"",       11.9488,       9.18200,       7.64623,   2.78304E-06
C:/temp/dataset/3/13_8.odb,Step-1,Increment      4: Step Time =    1.000,"PART-1-1",           442,      -9.48823,      -2.88104,            0.,NA,NA,"",       9.34011,       6.29922,       6.89620,   100.156E-06
C:/temp/dataset/3/13_8.odb,Step-1,Increment      4: Step Time =    1.000,"PART-1-1",           443,      -8.42388,      -2.23568,            0.,NA,NA,"",       9.11492,       6.46778,       6.42259,   158.366E-06
C:/temp/dataset/3/13_8.odb,Step-1,Increment      4: Step Time =    1.000,"PART-1-1",           444,      -10.2645,      -1.43363,            0.,NA,NA,"",       9.91434,       6.93508,       7.08511,   64.2438E-06
C:/temp/dataset/3/13_8.odb,Step-1,Increment      4: Step Time =    1.000,"PART-1-1",           445,      -12.6725,      -1.29786,            0.,NA,NA,"",       10.7727,       7.18513,       8.02653,   10.9680E-06
C:/temp/dataset/3/13_8.odb,Step-1,Increment      4: Step Time =    1.000,"PART-1-1",           446,          -15.,         -1.25,            0.,NA,NA,"",       11.6040,       7.39391,       8.94332,   7.05819E-06
C:/temp/dataset/3/13_8.odb,Step-1,Increment      4: Step Time =    1.000,"PART-1-1",           447,      -6.16813,      -3.97275,            0.,NA,NA,"",       7.96859,       5.59650,       5.67253,   304.135E-06
C:/temp/dataset/3/13_8.odb,Step-1,Increment      4: Step Time =    1.000,"PART-1-1",           448,      -4.95000,           -5.,            0.,NA,NA,"",       7.33037,       5.09033,       5.27474,   734.060E-06
C:/temp/dataset/3/13_8.odb,Step-1,Increment      4: Step Time =    1.000,"PART-1-1",           449,       1.59412,  -355.999E-03,            0.,NA,NA,"",       6.79827,       6.39641,       2.30271,   6.27440E-03
C:/temp/dataset/3/13_8.odb,Step-1,Increment      4: Step Time =    1.000,"PART-1-1",           450,       2.17826,      -1.53992,            0.,NA,NA,"",       6.25884,       5.87462,       2.15915,   10.6792E-03
C:/temp/dataset/3/13_8.odb,Step-1,Increment      4: Step Time =    1.000,"PART-1-1",           451,       2.86763,   426.804E-03,            0.,NA,NA,"",       6.82496,       6.59822,       1.74457,   15.6239E-03
C:/temp/dataset/3/13_8.odb,Step-1,Increment      4: Step Time =    1.000,"PART-1-1",           452,  -387.277E-03,   5.26357E-03,            0.,NA,NA,"",       7.36810,       6.70342,       3.05829,   1.25729E-03
C:/temp/dataset/3/13_8.odb,Step-1,Increment      4: Step Time =    1.000,"PART-1-1",           453,   283.611E-03,      -1.19839,            0.,NA,NA,"",       6.81404,       6.17121,       2.88917,   2.58782E-03
C:/temp/dataset/3/13_8.odb,Step-1,Increment      4: Step Time =    1.000,"PART-1-1",           454,   923.228E-03,   847.652E-03,            0.,NA,NA,"",       7.35841,       6.92998,       2.47420,   4.27437E-03
C:/temp/dataset/3/13_8.odb,Step-1,Increment      4: Step Time =    1.000,"PART-1-1",           455,       6.35531,      -13.1332,            0.,NA,NA,"",       1.66581,       1.55706,   592.026E-03,   71.4858E-03
C:/temp/dataset/3/13_8.odb,Step-1,Increment      4: Step Time =    1.000,"PART-1-1",           456,       7.49455,      -12.2656,            0.,NA,NA,"",       1.75247,       1.71634,   353.996E-03,   50.4274E-03
C:/temp/dataset/3/13_8.odb,Step-1,Increment      4: Step Time =    1.000,"PART-1-1",           457,       6.13925,      -10.3824,            0.,NA,NA,"",       2.42924,       2.31931,   722.516E-03,   71.2064E-03
C:/temp/dataset/3/13_8.odb,Step-1,Increment      4: Step Time =    1.000,"PART-1-1",           458,            5.,        -11.25,            0.,NA,NA,"",       2.36487,       2.14832,   988.603E-03,   92.4250E-03
C:/temp/dataset/3/13_8.odb,Step-1,Increment      4: Step Time =    1.000,"PART-1-1",           459,       13.3376,      -16.9670,            0.,NA,NA,"",   919.830E-03,   634.304E-03,  -666.143E-03,   66.2781E-03
C:/temp/dataset/3/13_8.odb,Step-1,Increment      4: Step Time =    1.000,"PART-1-1",           460,       11.8219,      -18.0071,            0.,NA,NA,"",   599.923E-03,   468.253E-03,  -375.029E-03,   36.5680E-03
C:/temp/dataset/3/13_8.odb,Step-1,Increment      4: Step Time =    1.000,"PART-1-1",           461,           15.,        -18.75,            0.,NA,NA,"",   883.817E-03,   446.932E-03,  -762.485E-03,   99.3916E-03
C:/temp/dataset/3/13_8.odb,Step-1,Increment      4: Step Time =    1.000,"PART-1-1",           462,       8.42876,      -15.2973,            0.,NA,NA,"",   978.955E-03,   970.861E-03,   125.621E-03,   34.7825E-03
C:/temp/dataset/3/13_8.odb,Step-1,Increment      4: Step Time =    1.000,"PART-1-1",           463,       10.4111,      -16.6310,            0.,NA,NA,"",   708.378E-03,   678.030E-03,  -205.121E-03,   11.4597E-03
C:/temp/dataset/3/13_8.odb,Step-1,Increment      4: Step Time =    1.000,"PART-1-1",           464,       10.7289,      -14.9294,            0.,NA,NA,"",       1.03788,   991.586E-03,  -306.510E-03,   14.8973E-03
C:/temp/dataset/3/13_8.odb,Step-1,Increment      4: Step Time =    1.000,"PART-1-1",           465,       8.74656,      -13.5956,            0.,NA,NA,"",       1.33450,       1.33270,   69.3372E-03,   29.4470E-03
C:/temp/dataset/3/13_8.odb,Step-1,Increment      4: Step Time =    1.000,"PART-1-1",           466,      -8.72016,      -22.5745,            0.,NA,NA,"",   54.9836E-03,   54.9596E-03,  -1.62513E-03,   2.38160E-03
C:/temp/dataset/3/13_8.odb,Step-1,Increment      4: Step Time =    1.000,"PART-1-1",           467,      -7.48342,      -21.2909,            0.,NA,NA,"",   59.9176E-03,   59.8366E-03,  -3.11463E-03,   1.67680E-03
C:/temp/dataset/3/13_8.odb,Step-1,Increment      4: Step Time =    1.000,"PART-1-1",           468,         -8.75,          -20.,            0.,NA,NA,"",   60.6085E-03,   60.5501E-03,  -2.66159E-03,   228.533E-06
C:/temp/dataset/3/13_8.odb,Step-1,Increment      4: Step Time =    1.000,"PART-1-1",           469,      -9.98674,      -21.2836,            0.,NA,NA,"",   57.4789E-03,   57.4775E-03,  -398.767E-06,   795.140E-06
C:/temp/dataset/3/13_8.odb,Step-1,Increment      4: Step Time =    1.000,"PART-1-1",           470,      -4.96670,      -26.3491,            0.,NA,NA,"",   44.4360E-03,   44.1901E-03,   4.66821E-03,   8.11102E-03
C:/temp/dataset/3/13_8.odb,Step-1,Increment      4: Step Time =    1.000,"PART-1-1",           471,      -6.21541,      -25.0985,            0.,NA,NA,"",   49.7516E-03,   49.7239E-03,   1.65975E-03,   6.37987E-03
C:/temp/dataset/3/13_8.odb,Step-1,Increment      4: Step Time =    1.000,"PART-1-1",           472,      -7.47738,      -26.3212,            0.,NA,NA,"",   37.3196E-03,   37.2991E-03,   1.23656E-03,   6.13088E-03
C:/temp/dataset/3/13_8.odb,Step-1,Increment      4: Step Time =    1.000,"PART-1-1",           473,      -6.22867,      -27.5719,            0.,NA,NA,"",   29.1802E-03,   29.0696E-03,   2.53767E-03,   7.92865E-03
C:/temp/dataset/3/13_8.odb,Step-1,Increment      4: Step Time =    1.000,"PART-1-1",           474,   49.7896E-03,      -26.4387,            0.,NA,NA,"",   61.0791E-03,   53.3404E-03,   29.7566E-03,   16.7775E-03
C:/temp/dataset/3/13_8.odb,Step-1,Increment      4: Step Time =    1.000,"PART-1-1",           475,       1.24862,      -27.7048,            0.,NA,NA,"",   41.0801E-03,   32.8843E-03,   24.6212E-03,   17.7664E-03
C:/temp/dataset/3/13_8.odb,Step-1,Increment      4: Step Time =    1.000,"PART-1-1",           476,       2.52056,      -26.5649,            0.,NA,NA,"",   63.9610E-03,   41.7669E-03,   48.4410E-03,   23.7995E-03
C:/temp/dataset/3/13_8.odb,Step-1,Increment      4: Step Time =    1.000,"PART-1-1",           477,       1.32172,      -25.2988,            0.,NA,NA,"",   85.9564E-03,   67.3478E-03,   53.4113E-03,   22.2391E-03
C:/temp/dataset/3/13_8.odb,Step-1,Increment      4: Step Time =    1.000,"PART-1-1",           478,        -13.75,          -20.,            0.,NA,NA,"",   62.4815E-03,   61.4630E-03,   11.2355E-03,   148.854E-06
C:/temp/dataset/3/13_8.odb,Step-1,Increment      4: Step Time =    1.000,"PART-1-1",           479,          -15.,        -21.25,            0.,NA,NA,"",   59.0411E-03,   56.8044E-03,   16.0970E-03,   127.099E-06
C:/temp/dataset/3/13_8.odb,Step-1,Increment      4: Step Time =    1.000,"PART-1-1",           480,      -13.7430,      -22.5153,            0.,NA,NA,"",   53.0520E-03,   51.8650E-03,   11.1596E-03,   174.229E-06
C:/temp/dataset/3/13_8.odb,Step-1,Increment      4: Step Time =    1.000,"PART-1-1",           481,      -12.4930,      -21.2653,            0.,NA,NA,"",   57.1831E-03,   56.8078E-03,   6.54015E-03,   143.284E-06
C:/temp/dataset/3/13_8.odb,Step-1,Increment      4: Step Time =    1.000,"PART-1-1",           482,      -11.2297,      -22.5489,            0.,NA,NA,"",   52.4640E-03,   52.3932E-03,   2.72507E-03,   1.12948E-03
C:/temp/dataset/3/13_8.odb,Step-1,Increment      4: Step Time =    1.000,"PART-1-1",           483,        -11.25,          -20.,            0.,NA,NA,"",   60.9222E-03,   60.8654E-03,   2.63015E-03,   222.618E-06
C:/temp/dataset/3/13_8.odb,Step-1,Increment      4: Step Time =    1.000,"PART-1-1",           484,      -13.7448,      -25.0201,            0.,NA,NA,"",   40.6447E-03,   39.2747E-03,   10.4636E-03,   1.22791E-03
C:/temp/dataset/3/13_8.odb,Step-1,Increment      4: Step Time =    1.000,"PART-1-1",           485,      -12.4878,      -23.7854,            0.,NA,NA,"",   46.5633E-03,   46.1345E-03,   6.30413E-03,   1.40443E-03
C:/temp/dataset/3/13_8.odb,Step-1,Increment      4: Step Time =    1.000,"PART-1-1",           486,          -15.,        -23.75,            0.,NA,NA,"",   49.1268E-03,   46.2224E-03,   16.6414E-03,   30.2971E-06
C:/temp/dataset/3/13_8.odb,Step-1,Increment      4: Step Time =    1.000,"PART-1-1",           487,       13.7335,      -27.5520,            0.,NA,NA,"",   93.3930E-03,   2.16777E-03,  -93.3679E-03,   49.1546E-03
C:/temp/dataset/3/13_8.odb,Step-1,Increment      4: Step Time =    1.000,"PART-1-1",           488,       12.4835,      -28.8020,            0.,NA,NA,"",   35.1143E-03,  -16.5177E-03,  -30.9868E-03,   35.5019E-03
C:/temp/dataset/3/13_8.odb,Step-1,Increment      4: Step Time =    1.000,"PART-1-1",           489,         13.75,          -30.,            0.,NA,NA,"",            0.,   112.105E-42,   856.338E-42,   37.5906E-03
C:/temp/dataset/3/13_8.odb,Step-1,Increment      4: Step Time =    1.000,"PART-1-1",           490,           15.,        -28.75,            0.,NA,NA,"",   58.3709E-03,   28.5919E-03,  -50.8888E-03,   50.9962E-03
C:/temp/dataset/3/13_8.odb,Step-1,Increment      4: Step Time =    1.000,"PART-1-1",           491,       9.98010,      -28.8907,            0.,NA,NA,"",   27.5239E-03,  -25.6380E-03,  -10.0129E-03,   19.4368E-03
C:/temp/dataset/3/13_8.odb,Step-1,Increment      4: Step Time =    1.000,"PART-1-1",           492,       8.70049,      -27.8380,            0.,NA,NA,"",   32.8243E-03,  -32.8232E-03,   265.761E-06,   12.2005E-03
C:/temp/dataset/3/13_8.odb,Step-1,Increment      4: Step Time =    1.000,"PART-1-1",           493,          8.75,          -30.,            0.,NA,NA,"",            0.,   48.4163E-42,  -184.030E-42,   17.1337E-03
C:/temp/dataset/3/13_8.odb,Step-1,Increment      4: Step Time =    1.000,"PART-1-1",           494,       11.2136,      -27.6927,            0.,NA,NA,"",   53.3431E-03,  -32.6504E-03,  -42.1834E-03,   26.9532E-03
C:/temp/dataset/3/13_8.odb,Step-1,Increment      4: Step Time =    1.000,"PART-1-1",           495,       12.3768,      -26.3916,            0.,NA,NA,"",   107.923E-03,  -17.9359E-03,  -106.422E-03,   40.9873E-03
C:/temp/dataset/3/13_8.odb,Step-1,Increment      4: Step Time =    1.000,"PART-1-1",           496,       11.0556,      -25.4315,            0.,NA,NA,"",   86.2952E-03,  -22.9585E-03,  -83.1851E-03,   28.6136E-03
C:/temp/dataset/3/13_8.odb,Step-1,Increment      4: Step Time =    1.000,"PART-1-1",           497,       9.89242,      -26.7326,            0.,NA,NA,"",   45.1883E-03,  -37.2372E-03,  -25.6002E-03,   17.9801E-03
C:/temp/dataset/3/13_8.odb,Step-1,Increment      4: Step Time =    1.000,"PART-1-1",           498,   9.79186E-03,      -28.8313,            0.,NA,NA,"",   21.6347E-03,   19.5486E-03,   9.26888E-03,   15.3838E-03
C:/temp/dataset/3/13_8.odb,Step-1,Increment      4: Step Time =    1.000,"PART-1-1",           499,          1.25,          -30.,            0.,NA,NA,"",            0.,  -194.643E-42,  -303.195E-42,   14.8278E-03
C:/temp/dataset/3/13_8.odb,Step-1,Increment      4: Step Time =    1.000,"PART-1-1",           500,      -1.18061,      -25.1833,            0.,NA,NA,"",   71.8862E-03,   67.0534E-03,   25.9128E-03,   14.4234E-03
C:/temp/dataset/3/13_8.odb,Step-1,Increment      4: Step Time =    1.000,"PART-1-1",           501,      -2.45538,      -26.3836,            0.,NA,NA,"",   52.9410E-03,   51.1639E-03,   13.6018E-03,   11.4296E-03
C:/temp/dataset/3/13_8.odb,Step-1,Increment      4: Step Time =    1.000,"PART-1-1",           502,      -1.22498,      -27.6390,            0.,NA,NA,"",   40.0013E-03,   37.4160E-03,   14.1474E-03,   13.5462E-03
C:/temp/dataset/3/13_8.odb,Step-1,Increment      4: Step Time =    1.000,"PART-1-1",           503,      -3.70005,      -25.1329,            0.,NA,NA,"",   58.9729E-03,   58.2926E-03,   8.93179E-03,   9.25441E-03
C:/temp/dataset/3/13_8.odb,Step-1,Increment      4: Step Time =    1.000,"PART-1-1",           504,      -7.49141,      -28.7797,            0.,NA,NA,"",   14.0563E-03,   13.9960E-03,   1.30081E-03,   7.40420E-03
C:/temp/dataset/3/13_8.odb,Step-1,Increment      4: Step Time =    1.000,"PART-1-1",           505,         -6.25,          -30.,            0.,NA,NA,"",            0.,  -109.268E-42,  -45.7033E-42,   9.20162E-03
C:/temp/dataset/3/13_8.odb,Step-1,Increment      4: Step Time =    1.000,"PART-1-1",           506,      -12.4949,      -26.2800,            0.,NA,NA,"",   30.7567E-03,   30.3467E-03,   5.00484E-03,   3.73660E-03
C:/temp/dataset/3/13_8.odb,Step-1,Increment      4: Step Time =    1.000,"PART-1-1",           507,          -15.,        -26.25,            0.,NA,NA,"",   35.7709E-03,   31.8283E-03,   16.3253E-03,   1.69853E-03
C:/temp/dataset/3/13_8.odb,Step-1,Increment      4: Step Time =    1.000,"PART-1-1",           508,       12.0036,      -23.8365,            0.,NA,NA,"",   174.440E-03,   19.9430E-03,  -173.297E-03,   40.9796E-03
C:/temp/dataset/3/13_8.odb,Step-1,Increment      4: Step Time =    1.000,"PART-1-1",           509,       13.6432,      -25.0896,            0.,NA,NA,"",   205.671E-03,   22.1460E-03,  -204.475E-03,   55.6130E-03
C:/temp/dataset/3/13_8.odb,Step-1,Increment      4: Step Time =    1.000,"PART-1-1",           510,           15.,        -23.75,            0.,NA,NA,"",   349.775E-03,   96.1418E-03,  -336.302E-03,   78.0206E-03
C:/temp/dataset/3/13_8.odb,Step-1,Increment      4: Step Time =    1.000,"PART-1-1",           511,         11.25,          -30.,            0.,NA,NA,"",            0.,   89.9718E-42,   247.888E-42,   25.8740E-03
C:/temp/dataset/3/13_8.odb,Step-1,Increment      4: Step Time =    1.000,"PART-1-1",           512,       13.9281,      -14.6298,            0.,NA,NA,"",       1.42141,       1.04686,  -961.508E-03,   76.2141E-03
C:/temp/dataset/3/13_8.odb,Step-1,Increment      4: Step Time =    1.000,"PART-1-1",           513,       12.2657,      -15.3468,            0.,NA,NA,"",       1.07071,   899.988E-03,  -580.041E-03,   42.4127E-03
C:/temp/dataset/3/13_8.odb,Step-1,Increment      4: Step Time =    1.000,"PART-1-1",           514,           15.,        -16.25,            0.,NA,NA,"",       1.28488,   785.957E-03,      -1.01645,   100.403E-03
C:/temp/dataset/3/13_8.odb,Step-1,Increment      4: Step Time =    1.000,"PART-1-1",           515,       7.13425,      -14.5121,            0.,NA,NA,"",       1.25233,       1.19166,   385.070E-03,   61.6696E-03
C:/temp/dataset/3/13_8.odb,Step-1,Increment      4: Step Time =    1.000,"PART-1-1",           516,       6.81531,      -16.2905,            0.,NA,NA,"",   912.015E-03,   829.934E-03,   378.128E-03,   69.1918E-03
C:/temp/dataset/3/13_8.odb,Step-1,Increment      4: Step Time =    1.000,"PART-1-1",           517,       8.10983,      -17.0757,            0.,NA,NA,"",   660.332E-03,   642.330E-03,   153.136E-03,   42.4872E-03
C:/temp/dataset/3/13_8.odb,Step-1,Increment      4: Step Time =    1.000,"PART-1-1",           518,       13.8641,      -7.41825,            0.,NA,NA,"",       3.30915,       2.87204,      -1.64373,   61.1272E-03
C:/temp/dataset/3/13_8.odb,Step-1,Increment      4: Step Time =    1.000,"PART-1-1",           519,       13.0286,      -8.63342,            0.,NA,NA,"",       2.82295,       2.52529,      -1.26173,   50.2038E-03
C:/temp/dataset/3/13_8.odb,Step-1,Increment      4: Step Time =    1.000,"PART-1-1",           520,       14.1645,      -9.96517,            0.,NA,NA,"",       2.58780,       2.13040,      -1.46905,   72.0526E-03
C:/temp/dataset/3/13_8.odb,Step-1,Increment      4: Step Time =    1.000,"PART-1-1",           521,           15.,         -8.75,            0.,NA,NA,"",       3.08196,       2.45813,      -1.85905,   83.7340E-03
C:/temp/dataset/3/13_8.odb,Step-1,Increment      4: Step Time =    1.000,"PART-1-1",           522,       12.0251,      -10.9831,            0.,NA,NA,"",       2.04948,       1.88984,  -793.018E-03,   35.3784E-03
C:/temp/dataset/3/13_8.odb,Step-1,Increment      4: Step Time =    1.000,"PART-1-1",           523,       12.8055,      -11.9581,            0.,NA,NA,"",       1.87340,       1.63053,  -922.495E-03,   50.0054E-03
C:/temp/dataset/3/13_8.odb,Step-1,Increment      4: Step Time =    1.000,"PART-1-1",           524,       13.3751,      -11.0455,            0.,NA,NA,"",       2.17859,       1.85357,      -1.14478,   59.3492E-03
C:/temp/dataset/3/13_8.odb,Step-1,Increment      4: Step Time =    1.000,"PART-1-1",           525,       12.5947,      -10.0706,            0.,NA,NA,"",       2.35378,       2.12449,      -1.01333,   44.2777E-03
C:/temp/dataset/3/13_8.odb,Step-1,Increment      4: Step Time =    1.000,"PART-1-1",           526,       11.4853,  -434.223E-03,            0.,NA,NA,"",       5.67780,       5.47646,      -1.49861,   18.5185E-03
C:/temp/dataset/3/13_8.odb,Step-1,Increment      4: Step Time =    1.000,"PART-1-1",           527,       10.5886,      -1.82652,            0.,NA,NA,"",       5.10374,       4.99748,      -1.03604,   16.9893E-03
C:/temp/dataset/3/13_8.odb,Step-1,Increment      4: Step Time =    1.000,"PART-1-1",           528,       11.9063,      -2.70193,            0.,NA,NA,"",       4.79905,       4.57781,      -1.44033,   27.4442E-03
C:/temp/dataset/3/13_8.odb,Step-1,Increment      4: Step Time =    1.000,"PART-1-1",           529,       14.1300,       7.44597,            0.,NA,NA,"",       9.21317,       8.50987,      -3.53052,   37.3932E-03
C:/temp/dataset/3/13_8.odb,Step-1,Increment      4: Step Time =    1.000,"PART-1-1",           530,       13.1865,       6.25975,            0.,NA,NA,"",       8.60182,       8.08069,      -2.94850,   29.9543E-03
C:/temp/dataset/3/13_8.odb,Step-1,Increment      4: Step Time =    1.000,"PART-1-1",           531,           15.,          6.25,            0.,NA,NA,"",       8.76672,       7.91974,      -3.75939,   46.2923E-03
C:/temp/dataset/3/13_8.odb,Step-1,Increment      4: Step Time =    1.000,"PART-1-1",           532,       12.4155,       5.33720,            0.,NA,NA,"",       8.14561,       7.75394,      -2.49545,   24.0400E-03
C:/temp/dataset/3/13_8.odb,Step-1,Increment      4: Step Time =    1.000,"PART-1-1",           533,       11.2733,       3.54111,            0.,NA,NA,"",       7.32411,       7.09780,      -1.80661,   14.4859E-03
C:/temp/dataset/3/13_8.odb,Step-1,Increment      4: Step Time =    1.000,"PART-1-1",           534,       12.2480,       13.5548,            0.,NA,NA,"",       12.0551,       11.5372,      -3.49561,   16.9891E-03
C:/temp/dataset/3/13_8.odb,Step-1,Increment      4: Step Time =    1.000,"PART-1-1",           535,           15.,         13.75,            0.,NA,NA,"",       12.3162,       11.3093,      -4.87724,   32.2654E-03
C:/temp/dataset/3/13_8.odb,Step-1,Increment      4: Step Time =    1.000,"PART-1-1",           536,       13.6600,       14.9734,            0.,NA,NA,"",       12.8375,       12.0613,      -4.39599,   21.8325E-03
C:/temp/dataset/3/13_8.odb,Step-1,Increment      4: Step Time =    1.000,"PART-1-1",           537,       8.15326,       10.4556,            0.,NA,NA,"",       10.5834,       10.5180,      -1.17423,   17.8371E-03
C:/temp/dataset/3/13_8.odb,Step-1,Increment      4: Step Time =    1.000,"PART-1-1",           538,       12.3824,       21.2920,            0.,NA,NA,"",       16.1240,       15.4223,      -4.70492,   11.0764E-03
C:/temp/dataset/3/13_8.odb,Step-1,Increment      4: Step Time =    1.000,"PART-1-1",           539,       13.6892,       20.0188,            0.,NA,NA,"",       15.4814,       14.5893,      -5.17962,   13.0027E-03
C:/temp/dataset/3/13_8.odb,Step-1,Increment      4: Step Time =    1.000,"PART-1-1",           540,           15.,         21.25,            0.,NA,NA,"",       16.2097,       15.0395,      -6.04716,   12.7519E-03
C:/temp/dataset/3/13_8.odb,Step-1,Increment      4: Step Time =    1.000,"PART-1-1",           541,       13.6932,       22.5232,            0.,NA,NA,"",       16.8251,       15.8782,      -5.56457,   8.56261E-03
C:/temp/dataset/3/13_8.odb,Step-1,Increment      4: Step Time =    1.000,"PART-1-1",           542,       9.77662,       16.3041,            0.,NA,NA,"",       13.4783,       13.2109,      -2.67140,   10.9596E-03
C:/temp/dataset/3/13_8.odb,Step-1,Increment      4: Step Time =    1.000,"PART-1-1",           543,       11.0318,       15.0036,            0.,NA,NA,"",       12.7815,       12.3982,      -3.10699,   11.5876E-03
C:/temp/dataset/3/13_8.odb,Step-1,Increment      4: Step Time =    1.000,"PART-1-1",           544,       12.3430,       16.2301,            0.,NA,NA,"",       13.4337,       12.8466,      -3.92802,   15.2499E-03
C:/temp/dataset/3/13_8.odb,Step-1,Increment      4: Step Time =    1.000,"PART-1-1",           545,         13.75,           30.,            0.,NA,NA,"",       20.8573,       19.7516,      -6.70078,   244.087E-06
C:/temp/dataset/3/13_8.odb,Step-1,Increment      4: Step Time =    1.000,"PART-1-1",           546,       12.4862,       28.7548,            0.,NA,NA,"",       20.1617,       19.2891,      -5.86734,   1.81265E-03
C:/temp/dataset/3/13_8.odb,Step-1,Increment      4: Step Time =    1.000,"PART-1-1",           547,           15.,         28.75,            0.,NA,NA,"",       20.2350,       18.9231,      -7.16752,   243.008E-06
C:/temp/dataset/3/13_8.odb,Step-1,Increment      4: Step Time =    1.000,"PART-1-1",           548,       12.4064,       23.7898,            0.,NA,NA,"",       17.4751,       16.7163,      -5.09347,   8.34187E-03
C:/temp/dataset/3/13_8.odb,Step-1,Increment      4: Step Time =    1.000,"PART-1-1",           549,           15.,         23.75,            0.,NA,NA,"",       17.5484,       16.3281,      -6.42957,   6.73098E-03
C:/temp/dataset/3/13_8.odb,Step-1,Increment      4: Step Time =    1.000,"PART-1-1",           550,       9.91541,       26.3072,            0.,NA,NA,"",       18.8563,       18.3851,      -4.18914,   7.12380E-03
C:/temp/dataset/3/13_8.odb,Step-1,Increment      4: Step Time =    1.000,"PART-1-1",           551,       11.1537,       25.0565,            0.,NA,NA,"",       18.1570,       17.5542,      -4.63970,   7.45859E-03
C:/temp/dataset/3/13_8.odb,Step-1,Increment      4: Step Time =    1.000,"PART-1-1",           552,       11.2110,       27.5221,            0.,NA,NA,"",       19.4930,       18.8324,      -5.03155,   4.66420E-03
C:/temp/dataset/3/13_8.odb,Step-1,Increment      4: Step Time =    1.000,"PART-1-1",           553,       8.69233,       27.5515,            0.,NA,NA,"",       19.5740,       19.2128,      -3.74302,   6.24311E-03
C:/temp/dataset/3/13_8.odb,Step-1,Increment      4: Step Time =    1.000,"PART-1-1",           554,       7.41297,       26.3376,            0.,NA,NA,"",       18.9896,       18.7652,      -2.91062,   7.38081E-03
C:/temp/dataset/3/13_8.odb,Step-1,Increment      4: Step Time =    1.000,"PART-1-1",           555,       8.63604,       25.0933,            0.,NA,NA,"",       18.2455,       17.9341,      -3.35678,   8.22783E-03
C:/temp/dataset/3/13_8.odb,Step-1,Increment      4: Step Time =    1.000,"PART-1-1",           556,      -1.26375,       27.5391,            0.,NA,NA,"",       20.7659,       20.7171,       1.42255,   6.87337E-03
C:/temp/dataset/3/13_8.odb,Step-1,Increment      4: Step Time =    1.000,"PART-1-1",           557,         -1.25,           30.,            0.,NA,NA,"",       22.0440,       22.0188,       1.05263,   10.0448E-03
C:/temp/dataset/3/13_8.odb,Step-1,Increment      4: Step Time =    1.000,"PART-1-1",           558,      -2.50500,       28.7640,            0.,NA,NA,"",       21.6443,       21.5613,       1.89266,   8.42778E-03
C:/temp/dataset/3/13_8.odb,Step-1,Increment      4: Step Time =    1.000,"PART-1-1",           559,      -7.50143,       28.7522,            0.,NA,NA,"",       22.8050,       22.3508,       4.52918,   8.42298E-03
C:/temp/dataset/3/13_8.odb,Step-1,Increment      4: Step Time =    1.000,"PART-1-1",           560,         -8.75,           30.,            0.,NA,NA,"",       23.7545,       23.2218,       5.00209,   9.86041E-03
C:/temp/dataset/3/13_8.odb,Step-1,Increment      4: Step Time =    1.000,"PART-1-1",           561,      -6.25460,       27.5081,            0.,NA,NA,"",       21.8658,       21.4862,       4.05700,   6.92650E-03
C:/temp/dataset/3/13_8.odb,Step-1,Increment      4: Step Time =    1.000,"PART-1-1",           562,        -13.75,           30.,            0.,NA,NA,"",       25.2309,       24.0388,       7.66369,   8.40519E-03
C:/temp/dataset/3/13_8.odb,Step-1,Increment      4: Step Time =    1.000,"PART-1-1",           563,          -15.,         28.75,            0.,NA,NA,"",       25.0622,       23.5681,       8.52391,   7.72507E-03
C:/temp/dataset/3/13_8.odb,Step-1,Increment      4: Step Time =    1.000,"PART-1-1",           564,      -13.7509,       27.5010,            0.,NA,NA,"",       24.0760,       22.6907,       8.04887,   8.16527E-03
C:/temp/dataset/3/13_8.odb,Step-1,Increment      4: Step Time =    1.000,"PART-1-1",           565,          -15.,         26.25,            0.,NA,NA,"",       23.9402,       22.2195,       8.91213,   6.90090E-03
C:/temp/dataset/3/13_8.odb,Step-1,Increment      4: Step Time =    1.000,"PART-1-1",           566,      -12.5016,       26.2536,            0.,NA,NA,"",       23.0901,       21.8129,       7.57299,   6.54015E-03
C:/temp/dataset/3/13_8.odb,Step-1,Increment      4: Step Time =    1.000,"PART-1-1",           567,      -7.50093,       21.2547,            0.,NA,NA,"",       19.2003,       18.3426,       5.67446,   447.900E-06
C:/temp/dataset/3/13_8.odb,Step-1,Increment      4: Step Time =    1.000,"PART-1-1",           568,         -6.25,           20.,            0.,NA,NA,"",       18.2399,       17.4828,       5.20068,   1.87334E-03
C:/temp/dataset/3/13_8.odb,Step-1,Increment      4: Step Time =    1.000,"PART-1-1",           569,      -4.99978,       21.2574,            0.,NA,NA,"",       18.4782,       17.9609,       4.34191,   392.227E-06
C:/temp/dataset/3/13_8.odb,Step-1,Increment      4: Step Time =    1.000,"PART-1-1",           570,      -3.74911,       22.5208,            0.,NA,NA,"",       18.7673,       18.4407,       3.48579,   1.08633E-03
C:/temp/dataset/3/13_8.odb,Step-1,Increment      4: Step Time =    1.000,"PART-1-1",           571,         -3.75,           20.,            0.,NA,NA,"",       17.5367,       17.1043,       3.87027,   1.74444E-03
C:/temp/dataset/3/13_8.odb,Step-1,Increment      4: Step Time =    1.000,"PART-1-1",           572,      -2.49933,       21.2634,            0.,NA,NA,"",       17.8410,       17.5844,       3.01498,   341.265E-06
C:/temp/dataset/3/13_8.odb,Step-1,Increment      4: Step Time =    1.000,"PART-1-1",           573,         -1.25,           20.,            0.,NA,NA,"",       16.9213,       16.7287,       2.54559,   1.34174E-03
C:/temp/dataset/3/13_8.odb,Step-1,Increment      4: Step Time =    1.000,"PART-1-1",           574,  -2.23348E-03,       21.2694,            0.,NA,NA,"",       17.2947,       17.2114,       1.69548,   396.967E-06
C:/temp/dataset/3/13_8.odb,Step-1,Increment      4: Step Time =    1.000,"PART-1-1",           575,      -1.25156,       22.5328,            0.,NA,NA,"",       18.1961,       18.0669,       2.16389,   1.05793E-03
C:/temp/dataset/3/13_8.odb,Step-1,Increment      4: Step Time =    1.000,"PART-1-1",           576,         -3.75,           30.,            0.,NA,NA,"",       22.5406,       22.4164,       2.36340,   9.93761E-03
C:/temp/dataset/3/13_8.odb,Step-1,Increment      4: Step Time =    1.000,"PART-1-1",           577,      -5.00318,       28.7559,            0.,NA,NA,"",       22.1864,       21.9532,       3.20842,   8.40992E-03
C:/temp/dataset/3/13_8.odb,Step-1,Increment      4: Step Time =    1.000,"PART-1-1",           578,       7.36074,       18.8052,            0.,NA,NA,"",       14.9302,       14.8201,      -1.80959,   11.9344E-03
C:/temp/dataset/3/13_8.odb,Step-1,Increment      4: Step Time =    1.000,"PART-1-1",           579,       8.58169,       17.5494,            0.,NA,NA,"",       14.1838,       14.0042,      -2.25033,   10.9048E-03
C:/temp/dataset/3/13_8.odb,Step-1,Increment      4: Step Time =    1.000,"PART-1-1",           580,       8.60057,       20.0599,            0.,NA,NA,"",       15.5215,       15.3006,      -2.60959,   11.0489E-03
C:/temp/dataset/3/13_8.odb,Step-1,Increment      4: Step Time =    1.000,"PART-1-1",           581,            5.,         18.75,            0.,NA,NA,"",       15.1461,       15.1340,  -606.113E-03,   22.8005E-03
C:/temp/dataset/3/13_8.odb,Step-1,Increment      4: Step Time =    1.000,"PART-1-1",           582,       6.17685,       17.5255,            0.,NA,NA,"",       14.3636,       14.3253,      -1.04802,   18.3026E-03
C:/temp/dataset/3/13_8.odb,Step-1,Increment      4: Step Time =    1.000,"PART-1-1",           583,       6.18390,       20.0298,            0.,NA,NA,"",       15.6871,       15.6264,      -1.37901,   12.0817E-03
C:/temp/dataset/3/13_8.odb,Step-1,Increment      4: Step Time =    1.000,"PART-1-1",           584,            5.,         16.25,            0.,NA,NA,"",       13.8409,       13.8375,  -309.766E-03,   26.7502E-03
C:/temp/dataset/3/13_8.odb,Step-1,Increment      4: Step Time =    1.000,"PART-1-1",           585,       6.15340,       15.0385,            0.,NA,NA,"",       13.0739,       13.0531,  -738.026E-03,   22.9638E-03
C:/temp/dataset/3/13_8.odb,Step-1,Increment      4: Step Time =    1.000,"PART-1-1",           586,       7.33024,       16.3140,            0.,NA,NA,"",       13.6206,       13.5411,      -1.46932,   15.4369E-03
C:/temp/dataset/3/13_8.odb,Step-1,Increment      4: Step Time =    1.000,"PART-1-1",           587,           15.,         16.25,            0.,NA,NA,"",       13.5852,       12.5228,      -5.26671,   25.9449E-03
C:/temp/dataset/3/13_8.odb,Step-1,Increment      4: Step Time =    1.000,"PART-1-1",           588,       13.6830,       17.5067,            0.,NA,NA,"",       14.1518,       13.3159,      -4.79161,   17.5038E-03
C:/temp/dataset/3/13_8.odb,Step-1,Increment      4: Step Time =    1.000,"PART-1-1",           589,           15.,         18.75,            0.,NA,NA,"",       14.8857,       13.7684,      -5.65814,   19.3755E-03
C:/temp/dataset/3/13_8.odb,Step-1,Increment      4: Step Time =    1.000,"PART-1-1",           590,       7.36831,       6.81272,            0.,NA,NA,"",       8.89826,       8.88617,  -463.611E-03,   21.1666E-03
C:/temp/dataset/3/13_8.odb,Step-1,Increment      4: Step Time =    1.000,"PART-1-1",           591,       6.10412,       7.73110,            0.,NA,NA,"",       9.45732,       9.45732,   7.56644E-03,   38.1931E-03
C:/temp/dataset/3/13_8.odb,Step-1,Increment      4: Step Time =    1.000,"PART-1-1",           592,            5.,          6.25,            0.,NA,NA,"",       8.90895,       8.88938,   590.183E-03,   66.5574E-03
C:/temp/dataset/3/13_8.odb,Step-1,Increment      4: Step Time =    1.000,"PART-1-1",           593,       6.26419,       5.33162,            0.,NA,NA,"",       8.32427,       8.32326,   129.116E-03,   38.2620E-03
C:/temp/dataset/3/13_8.odb,Step-1,Increment      4: Step Time =    1.000,"PART-1-1",           594,           15.,          8.75,            0.,NA,NA,"",       9.90027,       9.00258,      -4.11933,   43.2221E-03
C:/temp/dataset/3/13_8.odb,Step-1,Increment      4: Step Time =    1.000,"PART-1-1",           595,       13.1418,       8.51598,            0.,NA,NA,"",       9.63242,       9.07717,      -3.22314,   27.5984E-03
C:/temp/dataset/3/13_8.odb,Step-1,Increment      4: Step Time =    1.000,"PART-1-1",           596,       6.30252,      -5.49102,            0.,NA,NA,"",       3.96889,       3.90635,   701.822E-03,   53.4996E-03
C:/temp/dataset/3/13_8.odb,Step-1,Increment      4: Step Time =    1.000,"PART-1-1",           597,            5.,         -6.25,            0.,NA,NA,"",       3.92985,       3.75802,       1.14935,   99.5690E-03
C:/temp/dataset/3/13_8.odb,Step-1,Increment      4: Step Time =    1.000,"PART-1-1",           598,       6.10325,      -7.87566,            0.,NA,NA,"",       3.19952,       3.10415,   775.326E-03,   67.4466E-03
C:/temp/dataset/3/13_8.odb,Step-1,Increment      4: Step Time =    1.000,"PART-1-1",           599,       7.40577,      -7.11668,            0.,NA,NA,"",       3.28230,       3.26169,   367.249E-03,   36.6138E-03
C:/temp/dataset/3/13_8.odb,Step-1,Increment      4: Step Time =    1.000,"PART-1-1",           600,            5.,         -8.75,            0.,NA,NA,"",       3.10087,       2.90758,       1.07765,   88.3214E-03
C:/temp/dataset/3/13_8.odb,Step-1,Increment      4: Step Time =    1.000,"PART-1-1",           601,            5.,        -13.75,            0.,NA,NA,"",       1.71691,       1.48825,   856.083E-03,   97.0434E-03
C:/temp/dataset/3/13_8.odb,Step-1,Increment      4: Step Time =    1.000,"PART-1-1",           602,       5.77894,      -15.1288,            0.,NA,NA,"",       1.28615,       1.12622,   621.138E-03,   87.1852E-03
C:/temp/dataset/3/13_8.odb,Step-1,Increment      4: Step Time =    1.000,"PART-1-1",           603,            5.,        -16.25,            0.,NA,NA,"",       1.16523,   937.224E-03,   692.369E-03,   105.094E-03
C:/temp/dataset/3/13_8.odb,Step-1,Increment      4: Step Time =    1.000,"PART-1-1",           604,       2.77244,      -24.0596,            0.,NA,NA,"",   124.283E-03,   84.6360E-03,   91.0117E-03,   31.9390E-03
C:/temp/dataset/3/13_8.odb,Step-1,Increment      4: Step Time =    1.000,"PART-1-1",           605,       3.76359,      -25.5842,            0.,NA,NA,"",   88.1577E-03,   46.0084E-03,   75.1998E-03,   29.2381E-03
C:/temp/dataset/3/13_8.odb,Step-1,Increment      4: Step Time =    1.000,"PART-1-1",           606,       5.11162,      -24.8806,            0.,NA,NA,"",   104.783E-03,   40.1493E-03,   96.7856E-03,   35.6967E-03
C:/temp/dataset/3/13_8.odb,Step-1,Increment      4: Step Time =    1.000,"PART-1-1",           607,       4.12047,      -23.3559,            0.,NA,NA,"",   164.297E-03,   92.0444E-03,   136.093E-03,   41.3176E-03
C:/temp/dataset/3/13_8.odb,Step-1,Increment      4: Step Time =    1.000,"PART-1-1",           608,       8.48587,      -2.76980,            0.,NA,NA,"",       4.79178,       4.78744,  -203.933E-03,   25.7134E-03
C:/temp/dataset/3/13_8.odb,Step-1,Increment      4: Step Time =    1.000,"PART-1-1",           609,       9.66601,      -3.38468,            0.,NA,NA,"",       4.50050,       4.46273,  -581.839E-03,   18.5592E-03
C:/temp/dataset/3/13_8.odb,Step-1,Increment      4: Step Time =    1.000,"PART-1-1",           610,       9.40849,      -1.21164,            0.,NA,NA,"",       5.36765,       5.32835,  -648.317E-03,   17.0372E-03
C:/temp/dataset/3/13_8.odb,Step-1,Increment      4: Step Time =    1.000,"PART-1-1",           611,       3.88333,            5.,            0.,NA,NA,"",       8.40107,       8.33779,       1.02920,   24.6222E-03
C:/temp/dataset/3/13_8.odb,Step-1,Increment      4: Step Time =    1.000,"PART-1-1",           612,       3.93709,       2.49951,            0.,NA,NA,"",       7.44140,       7.34489,       1.19459,   21.7168E-03
C:/temp/dataset/3/13_8.odb,Step-1,Increment      4: Step Time =    1.000,"PART-1-1",           613,       5.14044,       3.62548,            0.,NA,NA,"",       7.73634,       7.70679,   675.538E-03,   40.2031E-03
C:/temp/dataset/3/13_8.odb,Step-1,Increment      4: Step Time =    1.000,"PART-1-1",           614,       1.70000,           -5.,            0.,NA,NA,"",       5.23581,       4.52407,       2.63561,   4.39455E-03
C:/temp/dataset/3/13_8.odb,Step-1,Increment      4: Step Time =    1.000,"PART-1-1",           615,       2.88648,      -4.17028,            0.,NA,NA,"",       5.18865,       4.75670,       2.07266,   9.42292E-03
C:/temp/dataset/3/13_8.odb,Step-1,Increment      4: Step Time =    1.000,"PART-1-1",           616,       1.90498,      -3.27989,            0.,NA,NA,"",       5.73179,       5.20285,       2.40493,   6.81749E-03
C:/temp/dataset/3/13_8.odb,Step-1,Increment      4: Step Time =    1.000,"PART-1-1",           617,      -2.82853,       3.20340,            0.,NA,NA,"",       8.98798,       8.16177,       3.76422,   1.10585E-03
C:/temp/dataset/3/13_8.odb,Step-1,Increment      4: Step Time =    1.000,"PART-1-1",           618,      -1.73717,       4.08745,            0.,NA,NA,"",       9.03050,       8.42063,       3.26236,   1.50433E-03
C:/temp/dataset/3/13_8.odb,Step-1,Increment      4: Step Time =    1.000,"PART-1-1",           619,      -2.81667,            5.,            0.,NA,NA,"",       9.57779,       8.86954,       3.61460,   1.62584E-03
C:/temp/dataset/3/13_8.odb,Step-1,Increment      4: Step Time =    1.000,"PART-1-1",           620,      -7.28333,            5.,            0.,NA,NA,"",       10.6895,       9.23659,       5.38054,   201.693E-06
C:/temp/dataset/3/13_8.odb,Step-1,Increment      4: Step Time =    1.000,"PART-1-1",           621,      -11.7000,            5.,            0.,NA,NA,"",       11.9547,       9.59716,       7.12801,   2.11441E-06
C:/temp/dataset/3/13_8.odb,Step-1,Increment      4: Step Time =    1.000,"PART-1-1",           622,      -11.5540,       2.50359,            0.,NA,NA,"",       11.2619,       8.59766,       7.27391,   30.0055E-06
C:/temp/dataset/3/13_8.odb,Step-1,Increment      4: Step Time =    1.000,"PART-1-1",           623,      -8.37698,      -4.01732,            0.,NA,NA,"",       8.72139,       5.75910,       6.54945,   93.2570E-06
C:/temp/dataset/3/13_8.odb,Step-1,Increment      4: Step Time =    1.000,"PART-1-1",           624,      -10.5279,      -3.86372,            0.,NA,NA,"",       9.51416,       5.99527,       7.38756,   23.1491E-06
C:/temp/dataset/3/13_8.odb,Step-1,Increment      4: Step Time =    1.000,"PART-1-1",           625,      -9.41667,           -5.,            0.,NA,NA,"",       8.90680,       5.45521,       7.04072,   43.5073E-06
C:/temp/dataset/3/13_8.odb,Step-1,Increment      4: Step Time =    1.000,"PART-1-1",           626,          3.75,          -20.,            0.,NA,NA,"",   209.580E-03,   143.876E-03,   152.392E-03,   76.2699E-03
C:/temp/dataset/3/13_8.odb,Step-1,Increment      4: Step Time =    1.000,"PART-1-1",           627,       2.74072,      -21.3682,            0.,NA,NA,"",   176.003E-03,   129.187E-03,   119.533E-03,   26.9454E-03
C:/temp/dataset/3/13_8.odb,Step-1,Increment      4: Step Time =    1.000,"PART-1-1",           628,       4.11640,      -22.1674,            0.,NA,NA,"",   214.088E-03,   131.323E-03,   169.080E-03,   51.2799E-03
C:/temp/dataset/3/13_8.odb,Step-1,Increment      4: Step Time =    1.000,"PART-1-1",           629,       5.12568,      -20.7992,            0.,NA,NA,"",   313.013E-03,   177.766E-03,   257.636E-03,   90.0113E-03
C:/temp/dataset/3/13_8.odb,Step-1,Increment      4: Step Time =    1.000,"PART-1-1",           630,          1.25,          -20.,            0.,NA,NA,"",   97.4256E-03,   79.4141E-03,   56.4370E-03,   16.1685E-03
C:/temp/dataset/3/13_8.odb,Step-1,Increment      4: Step Time =    1.000,"PART-1-1",           631,   73.0809E-03,      -21.3299,            0.,NA,NA,"",   97.6225E-03,   88.8279E-03,   40.4941E-03,   11.3245E-03
C:/temp/dataset/3/13_8.odb,Step-1,Increment      4: Step Time =    1.000,"PART-1-1",           632,       1.56380,      -22.6981,            0.,NA,NA,"",   130.789E-03,   104.503E-03,   78.6428E-03,   28.7020E-03
C:/temp/dataset/3/13_8.odb,Step-1,Increment      4: Step Time =    1.000,"PART-1-1",           633,         -1.25,          -20.,            0.,NA,NA,"",   73.5816E-03,   70.5888E-03,   20.7718E-03,   4.66376E-03
C:/temp/dataset/3/13_8.odb,Step-1,Increment      4: Step Time =    1.000,"PART-1-1",           634,      -2.46493,      -21.3147,            0.,NA,NA,"",   74.6035E-03,   73.5594E-03,   12.4376E-03,   5.46217E-03
C:/temp/dataset/3/13_8.odb,Step-1,Increment      4: Step Time =    1.000,"PART-1-1",           635,      -1.14185,      -22.6446,            0.,NA,NA,"",   87.8298E-03,   83.3132E-03,   27.8027E-03,   12.5726E-03
C:/temp/dataset/3/13_8.odb,Step-1,Increment      4: Step Time =    1.000,"PART-1-1",           636,         -3.75,          -20.,            0.,NA,NA,"",   63.9226E-03,   63.8721E-03,   2.54088E-03,   2.35519E-03
C:/temp/dataset/3/13_8.odb,Step-1,Increment      4: Step Time =    1.000,"PART-1-1",           637,      -4.97847,      -21.2978,            0.,NA,NA,"",   64.5880E-03,   64.5871E-03,  -327.057E-06,   2.90250E-03
C:/temp/dataset/3/13_8.odb,Step-1,Increment      4: Step Time =    1.000,"PART-1-1",           638,      -3.69340,      -22.6125,            0.,NA,NA,"",   69.4042E-03,   69.0893E-03,   6.60396E-03,   6.62052E-03
C:/temp/dataset/3/13_8.odb,Step-1,Increment      4: Step Time =    1.000,"PART-1-1",           639,      -4.95791,      -23.8547,            0.,NA,NA,"",   60.6783E-03,   60.5917E-03,   3.24065E-03,   6.14877E-03
C:/temp/dataset/3/13_8.odb,Step-1,Increment      4: Step Time =    1.000,"PART-1-1",           640,      -6.21189,      -22.5887,            0.,NA,NA,"",   60.3636E-03,   60.3531E-03,  -1.12945E-03,   3.99590E-03
C:/temp/dataset/3/13_8.odb,Step-1,Increment      4: Step Time =    1.000,"PART-1-1",           641,      -7.46939,      -23.8324,            0.,NA,NA,"",   52.7786E-03,   52.7722E-03,  -818.698E-06,   4.14574E-03
C:/temp/dataset/3/13_8.odb,Step-1,Increment      4: Step Time =    1.000,"PART-1-1",           642,           15.,        -13.75,            0.,NA,NA,"",       1.78575,       1.23947,      -1.28554,   96.7895E-03
C:/temp/dataset/3/13_8.odb,Step-1,Increment      4: Step Time =    1.000,"PART-1-1",           643,       14.2106,      -12.3304,            0.,NA,NA,"",       1.97696,       1.53824,      -1.24185,   77.9812E-03
C:/temp/dataset/3/13_8.odb,Step-1,Increment      4: Step Time =    1.000,"PART-1-1",           644,       13.1387,      -13.2101,            0.,NA,NA,"",       1.61515,       1.33707,  -906.055E-03,   57.5682E-03
C:/temp/dataset/3/13_8.odb,Step-1,Increment      4: Step Time =    1.000,"PART-1-1",           645,           15.,        -11.25,            0.,NA,NA,"",       2.38552,       1.79938,      -1.56618,   90.9364E-03
C:/temp/dataset/3/13_8.odb,Step-1,Increment      4: Step Time =    1.000,"PART-1-1",           646,           15.,         -6.25,            0.,NA,NA,"",       3.86978,       3.20907,      -2.16265,   74.6909E-03
C:/temp/dataset/3/13_8.odb,Step-1,Increment      4: Step Time =    1.000,"PART-1-1",           647,       14.0624,      -4.92369,            0.,NA,NA,"",       4.17886,       3.67663,      -1.98627,   56.9790E-03
C:/temp/dataset/3/13_8.odb,Step-1,Increment      4: Step Time =    1.000,"PART-1-1",           648,       12.9264,      -6.09194,            0.,NA,NA,"",       3.63672,       3.32674,      -1.46921,   44.5886E-03
C:/temp/dataset/3/13_8.odb,Step-1,Increment      4: Step Time =    1.000,"PART-1-1",           649,           15.,         -3.75,            0.,NA,NA,"",       4.73868,       4.04276,      -2.47209,   64.3241E-03
C:/temp/dataset/3/13_8.odb,Step-1,Increment      4: Step Time =    1.000,"PART-1-1",           650,       13.0440,      -3.68493,            0.,NA,NA,"",       4.51067,       4.15509,      -1.75538,   41.3947E-03
C:/temp/dataset/3/13_8.odb,Step-1,Increment      4: Step Time =    1.000,"PART-1-1",           651,       8.06094,   477.426E-03,            0.,NA,NA,"",       6.13269,       6.12728,  -257.566E-03,   21.7077E-03
C:/temp/dataset/3/13_8.odb,Step-1,Increment      4: Step Time =    1.000,"PART-1-1",           652,       8.76493,       2.31856,            0.,NA,NA,"",       6.84833,       6.81578,  -666.913E-03,   13.1415E-03
C:/temp/dataset/3/13_8.odb,Step-1,Increment      4: Step Time =    1.000,"PART-1-1",           653,       6.73548,       2.80805,            0.,NA,NA,"",       7.21372,       7.21294,   105.972E-03,   26.9697E-03
C:/temp/dataset/3/13_8.odb,Step-1,Increment      4: Step Time =    1.000,"PART-1-1",           654,       6.03149,   966.916E-03,            0.,NA,NA,"",       6.54149,       6.52298,   491.706E-03,   31.8358E-03
C:/temp/dataset/3/13_8.odb,Step-1,Increment      4: Step Time =    1.000,"PART-1-1",           655,            5.,          8.75,            0.,NA,NA,"",       10.0982,       10.0893,   424.089E-03,   45.7095E-03
C:/temp/dataset/3/13_8.odb,Step-1,Increment      4: Step Time =    1.000,"PART-1-1",           656,       7.16919,       9.14751,            0.,NA,NA,"",       10.0246,       10.0071,  -591.260E-03,   26.4893E-03
C:/temp/dataset/3/13_8.odb,Step-1,Increment      4: Step Time =    1.000,"PART-1-1",           657,          3.75,           30.,            0.,NA,NA,"",       21.2915,       21.2350,      -1.54900,   9.81612E-03
C:/temp/dataset/3/13_8.odb,Step-1,Increment      4: Step Time =    1.000,"PART-1-1",           658,       3.71036,       27.5731,            0.,NA,NA,"",       20.0024,       19.9677,      -1.17849,   6.81861E-03
C:/temp/dataset/3/13_8.odb,Step-1,Increment      4: Step Time =    1.000,"PART-1-1",           659,       7.38617,       23.8490,            0.,NA,NA,"",       17.6455,       17.4622,      -2.53651,   9.29342E-03
C:/temp/dataset/3/13_8.odb,Step-1,Increment      4: Step Time =    1.000,"PART-1-1",           660,       6.16255,       25.1024,            0.,NA,NA,"",       18.4205,       18.3017,      -2.08885,   7.10425E-03
C:/temp/dataset/3/13_8.odb,Step-1,Increment      4: Step Time =    1.000,"PART-1-1",           661,       4.93576,       23.8439,            0.,NA,NA,"",       17.8686,       17.8232,      -1.27321,   6.38619E-03
C:/temp/dataset/3/13_8.odb,Step-1,Increment      4: Step Time =    1.000,"PART-1-1",           662,       6.15938,       22.5905,            0.,NA,NA,"",       17.0682,       16.9807,      -1.72605,   8.58812E-03
C:/temp/dataset/3/13_8.odb,Step-1,Increment      4: Step Time =    1.000,"PART-1-1",           663,      -10.0017,       23.7560,            0.,NA,NA,"",       21.1347,       20.0700,       6.62357,   2.37758E-03
C:/temp/dataset/3/13_8.odb,Step-1,Increment      4: Step Time =    1.000,"PART-1-1",           664,      -8.75135,       22.5073,            0.,NA,NA,"",       20.1656,       19.2053,       6.14862,   936.572E-06
C:/temp/dataset/3/13_8.odb,Step-1,Increment      4: Step Time =    1.000,"PART-1-1",           665,      -10.0004,       21.2526,            0.,NA,NA,"",       19.9976,       18.7280,       7.01190,   493.800E-06
C:/temp/dataset/3/13_8.odb,Step-1,Increment      4: Step Time =    1.000,"PART-1-1",           666,      -11.2505,       22.5043,            0.,NA,NA,"",       20.9761,       19.5943,       7.48725,   572.438E-06
C:/temp/dataset/3/13_8.odb,Step-1,Increment      4: Step Time =    1.000,"PART-1-1",           667,        -11.25,           20.,            0.,NA,NA,"",       19.8786,       18.2506,       7.87881,   1.48733E-03
C:/temp/dataset/3/13_8.odb,Step-1,Increment      4: Step Time =    1.000,"PART-1-1",           668,         -8.75,           20.,            0.,NA,NA,"",       19.0232,       17.8648,       6.53692,   1.88621E-03
C:/temp/dataset/3/13_8.odb,Step-1,Increment      4: Step Time =    1.000,"PART-1-1",           669,       7.37456,       21.3253,            0.,NA,NA,"",       16.2809,       16.1359,      -2.16819,   11.6790E-03
C:/temp/dataset/3/13_8.odb,Step-1,Increment      4: Step Time =    1.000,"PART-1-1",           670,      -1.26076,       25.0501,            0.,NA,NA,"",       19.4820,       19.3995,       1.79110,   3.81570E-03
C:/temp/dataset/3/13_8.odb,Step-1,Increment      4: Step Time =    1.000,"PART-1-1",           671,      -2.50213,       23.7814,            0.,NA,NA,"",       19.1010,       18.9183,       2.63571,   2.45260E-03
C:/temp/dataset/3/13_8.odb,Step-1,Increment      4: Step Time =    1.000,"PART-1-1",           672,          1.25,           20.,            0.,NA,NA,"",       16.4009,       16.3550,       1.22659,   1.15619E-03
C:/temp/dataset/3/13_8.odb,Step-1,Increment      4: Step Time =    1.000,"PART-1-1",           673,            5.,         13.75,            0.,NA,NA,"",       12.5610,       12.5610,  -34.7486E-03,   32.2209E-03
C:/temp/dataset/3/13_8.odb,Step-1,Increment      4: Step Time =    1.000,"PART-1-1",           674,       7.85923,       4.51418,            0.,NA,NA,"",       7.83423,       7.82007,  -470.888E-03,   15.9366E-03
C:/temp/dataset/3/13_8.odb,Step-1,Increment      4: Step Time =    1.000,"PART-1-1",           675,       9.45843,       7.45797,            0.,NA,NA,"",       9.08145,       8.96686,      -1.43808,   9.56684E-03
C:/temp/dataset/3/13_8.odb,Step-1,Increment      4: Step Time =    1.000,"PART-1-1",           676,       11.3500,       8.04392,            0.,NA,NA,"",       9.34141,       9.04140,      -2.34841,   15.1713E-03
C:/temp/dataset/3/13_8.odb,Step-1,Increment      4: Step Time =    1.000,"PART-1-1",           677,       10.2386,       8.70699,            0.,NA,NA,"",       9.65228,       9.45809,      -1.92639,   10.2472E-03
C:/temp/dataset/3/13_8.odb,Step-1,Increment      4: Step Time =    1.000,"PART-1-1",           678,   133.314E-03,       2.02047,            0.,NA,NA,"",       7.92802,       7.45704,       2.69184,   1.58959E-03
C:/temp/dataset/3/13_8.odb,Step-1,Increment      4: Step Time =    1.000,"PART-1-1",           679,       2.26054,       1.70692,            0.,NA,NA,"",       7.40572,       7.16145,       1.88634,   9.28629E-03
C:/temp/dataset/3/13_8.odb,Step-1,Increment      4: Step Time =    1.000,"PART-1-1",           680,  -583.333E-03,            5.,            0.,NA,NA,"",       9.10530,       8.68447,       2.73614,   3.61530E-03
C:/temp/dataset/3/13_8.odb,Step-1,Increment      4: Step Time =    1.000,"PART-1-1",           681,  -713.179E-03,       3.09316,            0.,NA,NA,"",       8.47242,       7.94651,       2.93850,   1.05129E-03
C:/temp/dataset/3/13_8.odb,Step-1,Increment      4: Step Time =    1.000,"PART-1-1",           682,      -10.2084,       1.19941,            0.,NA,NA,"",       10.5094,       7.97202,       6.84797,   65.1783E-06
C:/temp/dataset/3/13_8.odb,Step-1,Increment      4: Step Time =    1.000,"PART-1-1",           683,      -7.18333,           -5.,            0.,NA,NA,"",       8.10682,       5.27301,       6.15758,   201.583E-06
C:/temp/dataset/3/13_8.odb,Step-1,Increment      4: Step Time =    1.000,"PART-1-1",           684,      -7.36178,      -2.99006,            0.,NA,NA,"",       8.58921,       6.08276,       6.06421,   278.025E-06
C:/temp/dataset/3/13_8.odb,Step-1,Increment      4: Step Time =    1.000,"PART-1-1",           685,      -11.3125,  -91.5578E-03,            0.,NA,NA,"",       10.5659,       7.55140,       7.39013,   51.1315E-06
C:/temp/dataset/3/13_8.odb,Step-1,Increment      4: Step Time =    1.000,"PART-1-1",           686,      -11.6500,           -5.,            0.,NA,NA,"",       9.72471,       5.63733,       7.92404,   1.94211E-06
C:/temp/dataset/3/13_8.odb,Step-1,Increment      4: Step Time =    1.000,"PART-1-1",           687,      -11.6245,      -2.63993,            0.,NA,NA,"",       10.1376,       6.56879,       7.72148,   27.1272E-06
C:/temp/dataset/3/13_8.odb,Step-1,Increment      4: Step Time =    1.000,"PART-1-1",           688,      -1.03706,       1.18772,            0.,NA,NA,"",       7.90807,       7.22306,       3.21948,   1.08434E-03
C:/temp/dataset/3/13_8.odb,Step-1,Increment      4: Step Time =    1.000,"PART-1-1",           689,      -2.26684,   407.252E-03,            0.,NA,NA,"",       7.96278,       7.01401,       3.76956,   1.23375E-03
C:/temp/dataset/3/13_8.odb,Step-1,Increment      4: Step Time =    1.000,"PART-1-1",           690,      -1.61706,  -775.207E-03,            0.,NA,NA,"",       7.42940,       6.49381,       3.60923,   1.14121E-03
C:/temp/dataset/3/13_8.odb,Step-1,Increment      4: Step Time =    1.000,"PART-1-1",           691,      -4.44627,  -189.662E-03,            0.,NA,NA,"",       8.38302,       6.95409,       4.68141,   872.404E-06
C:/temp/dataset/3/13_8.odb,Step-1,Increment      4: Step Time =    1.000,"PART-1-1",           692,      -3.83065,   850.686E-03,            0.,NA,NA,"",       8.51220,       7.31537,       4.35234,   928.931E-06
C:/temp/dataset/3/13_8.odb,Step-1,Increment      4: Step Time =    1.000,"PART-1-1",           693,      -5.38306,   384.196E-03,            0.,NA,NA,"",       8.81553,       7.25687,       5.00514,   614.626E-06
C:/temp/dataset/3/13_8.odb,Step-1,Increment      4: Step Time =    1.000,"PART-1-1",           694,       3.90000,           -5.,            0.,NA,NA,"",       4.65297,       4.32483,       1.71639,   28.9679E-03
C:/temp/dataset/3/13_8.odb,Step-1,Increment      4: Step Time =    1.000,"PART-1-1",           695,       5.25667,      -4.01677,            0.,NA,NA,"",       4.70107,       4.58299,       1.04702,   54.8850E-03
C:/temp/dataset/3/13_8.odb,Step-1,Increment      4: Step Time =    1.000,"PART-1-1",           696,       4.24316,      -3.18705,            0.,NA,NA,"",       5.22168,       5.02286,       1.42716,   28.0482E-03
C:/temp/dataset/3/13_8.odb,Step-1,Increment      4: Step Time =    1.000,"PART-1-1",           697,       9.51721,      -4.82762,            0.,NA,NA,"",       3.95736,       3.93379,  -431.235E-03,   18.0255E-03
C:/temp/dataset/3/13_8.odb,Step-1,Increment      4: Step Time =    1.000,"PART-1-1",           698,       8.04384,      -4.93500,            0.,NA,NA,"",       3.98953,       3.98879,   77.2681E-03,   28.0069E-03
C:/temp/dataset/3/13_8.odb,Step-1,Increment      4: Step Time =    1.000,"PART-1-1",           699,       8.61490,      -6.56470,            0.,NA,NA,"",       3.37352,       3.37330,  -38.8624E-03,   19.3728E-03
C:/temp/dataset/3/13_8.odb,Step-1,Increment      4: Step Time =    1.000,"PART-1-1",           700,       10.0883,      -6.45732,            0.,NA,NA,"",       3.36797,       3.32834,  -515.154E-03,   14.4712E-03
C:/temp/dataset/3/13_8.odb,Step-1,Increment      4: Step Time =    1.000,"PART-1-1",           701,       9.29828,      -8.00429,            0.,NA,NA,"",       2.86493,       2.85867,  -189.346E-03,   14.9207E-03
C:/temp/dataset/3/13_8.odb,Step-1,Increment      4: Step Time =    1.000,"PART-1-1",           702,       6.27674,      -21.4047,            0.,NA,NA,"",   241.625E-03,   133.778E-03,   201.212E-03,   50.9905E-03
C:/temp/dataset/3/13_8.odb,Step-1,Increment      4: Step Time =    1.000,"PART-1-1",           703,       7.27122,      -20.3583,            0.,NA,NA,"",   263.950E-03,   197.622E-03,   174.972E-03,   36.9778E-03
C:/temp/dataset/3/13_8.odb,Step-1,Increment      4: Step Time =    1.000,"PART-1-1",           704,         -6.25,          -20.,            0.,NA,NA,"",   61.5924E-03,   61.4995E-03,  -3.38094E-03,   863.173E-06
C:/temp/dataset/3/13_8.odb,Step-1,Increment      4: Step Time =    1.000,"PART-1-1",           705,         -1.25,          -30.,            0.,NA,NA,"",            0.,  -187.256E-42,  -180.765E-42,   14.0609E-03
C:/temp/dataset/3/13_8.odb,Step-1,Increment      4: Step Time =    1.000,"PART-1-1",           706,       8.60683,      -25.8105,            0.,NA,NA,"",   27.3186E-03,  -24.9600E-03,   11.1042E-03,   15.1664E-03
C:/temp/dataset/3/13_8.odb,Step-1,Increment      4: Step Time =    1.000,"PART-1-1",           707,       7.41490,      -26.9159,            0.,NA,NA,"",   34.4113E-03,  -21.7210E-03,   26.6896E-03,   18.4834E-03
C:/temp/dataset/3/13_8.odb,Step-1,Increment      4: Step Time =    1.000,"PART-1-1",           708,       6.17638,      -25.8614,            0.,NA,NA,"",   63.9105E-03,   5.83471E-03,   63.6436E-03,   24.6808E-03
C:/temp/dataset/3/13_8.odb,Step-1,Increment      4: Step Time =    1.000,"PART-1-1",           709,       7.37219,      -25.0876,            0.,NA,NA,"",   56.7656E-03,  -356.194E-06,   56.7644E-03,   24.3952E-03
C:/temp/dataset/3/13_8.odb,Step-1,Increment      4: Step Time =    1.000,"PART-1-1",           710,       6.30743,      -24.1068,            0.,NA,NA,"",   112.925E-03,   38.1987E-03,   106.268E-03,   31.1379E-03
C:/temp/dataset/3/13_8.odb,Step-1,Increment      4: Step Time =    1.000,"PART-1-1",           711,   113.079E-03,      -23.9373,            0.,NA,NA,"",   95.4339E-03,   83.7619E-03,   45.7337E-03,   18.3842E-03
C:/temp/dataset/3/13_8.odb,Step-1,Increment      4: Step Time =    1.000,"PART-1-1",           712,      -2.43554,      -23.8906,            0.,NA,NA,"",   73.3969E-03,   71.5907E-03,   16.1824E-03,   9.52285E-03
C:/temp/dataset/3/13_8.odb,Step-1,Increment      4: Step Time =    1.000,"PART-1-1",           713,      -8.72529,      -25.0755,            0.,NA,NA,"",   43.1097E-03,   43.1093E-03,   191.863E-06,   4.59050E-03
C:/temp/dataset/3/13_8.odb,Step-1,Increment      4: Step Time =    1.000,"PART-1-1",           714,      -9.97606,      -23.8175,            0.,NA,NA,"",   47.9205E-03,   47.9176E-03,   528.471E-06,   2.74289E-03
C:/temp/dataset/3/13_8.odb,Step-1,Increment      4: Step Time =    1.000,"PART-1-1",           715,      -9.99641,      -28.7682,            0.,NA,NA,"",   11.4331E-03,   11.3823E-03,   1.07593E-03,   5.95587E-03
C:/temp/dataset/3/13_8.odb,Step-1,Increment      4: Step Time =    1.000,"PART-1-1",           716,      -11.2465,      -27.5281,            0.,NA,NA,"",   21.1970E-03,   21.0995E-03,   2.03095E-03,   5.24016E-03
C:/temp/dataset/3/13_8.odb,Step-1,Increment      4: Step Time =    1.000,"PART-1-1",           717,        -11.25,          -30.,            0.,NA,NA,"",            0.,  -58.9961E-42,  -36.5290E-42,   5.59552E-03
C:/temp/dataset/3/13_8.odb,Step-1,Increment      4: Step Time =    1.000,"PART-1-1",           718,         -8.75,          -30.,            0.,NA,NA,"",            0.,  -78.8791E-42,  -28.1815E-42,   7.11539E-03
C:/temp/dataset/3/13_8.odb,Step-1,Increment      4: Step Time =    1.000,"PART-1-1",           719,      -8.73783,      -27.5479,            0.,NA,NA,"",   24.1936E-03,   24.1620E-03,   1.23611E-03,   6.36087E-03
C:/temp/dataset/3/13_8.odb,Step-1,Increment      4: Step Time =    1.000,"PART-1-1",           720,       9.45286,      -20.3748,            0.,NA,NA,"",   196.160E-03,   194.136E-03,  -28.1098E-03,   11.9260E-03
C:/temp/dataset/3/13_8.odb,Step-1,Increment      4: Step Time =    1.000,"PART-1-1",           721,       8.38706,      -19.4374,            0.,NA,NA,"",   303.597E-03,   291.256E-03,   85.6816E-03,   20.6214E-03
C:/temp/dataset/3/13_8.odb,Step-1,Increment      4: Step Time =    1.000,"PART-1-1",           722,       8.33702,      -21.2957,            0.,NA,NA,"",   144.914E-03,   125.174E-03,   73.0165E-03,   20.8502E-03
C:/temp/dataset/3/13_8.odb,Step-1,Increment      4: Step Time =    1.000,"PART-1-1",           723,       9.34035,      -18.0986,            0.,NA,NA,"",   458.467E-03,   457.716E-03,  -26.2239E-03,   8.73494E-03
C:/temp/dataset/3/13_8.odb,Step-1,Increment      4: Step Time =    1.000,"PART-1-1",           724,       10.7511,      -19.4747,            0.,NA,NA,"",   339.525E-03,   284.380E-03,  -185.486E-03,   22.1184E-03
C:/temp/dataset/3/13_8.odb,Step-1,Increment      4: Step Time =    1.000,"PART-1-1",           725,       9.57777,      -9.07511,            0.,NA,NA,"",       2.52267,       2.51241,  -227.345E-03,   12.4300E-03
C:/temp/dataset/3/13_8.odb,Step-1,Increment      4: Step Time =    1.000,"PART-1-1",           726,       10.3854,      -7.79904,            0.,NA,NA,"",       2.91992,       2.87207,  -526.463E-03,   14.3341E-03
C:/temp/dataset/3/13_8.odb,Step-1,Increment      4: Step Time =    1.000,"PART-1-1",           727,       11.9371,      -7.89361,            0.,NA,NA,"",       2.95324,       2.78150,  -992.427E-03,   32.4035E-03
C:/temp/dataset/3/13_8.odb,Step-1,Increment      4: Step Time =    1.000,"PART-1-1",           728,       11.6400,      -6.55190,            0.,NA,NA,"",       3.37788,       3.22465,      -1.00585,   29.4880E-03
C:/temp/dataset/3/13_8.odb,Step-1,Increment      4: Step Time =    1.000,"PART-1-1",           729,       9.29748,       3.92298,            0.,NA,NA,"",       7.50452,       7.43506,      -1.01867,   3.65368E-03
C:/temp/dataset/3/13_8.odb,Step-1,Increment      4: Step Time =    1.000,"PART-1-1",           730,       10.7408,       1.93669,            0.,NA,NA,"",       6.63920,       6.48364,      -1.42879,   9.22310E-03
C:/temp/dataset/3/13_8.odb,Step-1,Increment      4: Step Time =    1.000,"PART-1-1",           731,       12.1175,       9.30164,            0.,NA,NA,"",       9.95529,       9.53692,      -2.85567,   19.4071E-03
C:/temp/dataset/3/13_8.odb,Step-1,Increment      4: Step Time =    1.000,"PART-1-1",           732,       12.3743,       7.25826,            0.,NA,NA,"",       9.00861,       8.59079,      -2.71174,   22.9919E-03
C:/temp/dataset/3/13_8.odb,Step-1,Increment      4: Step Time =    1.000,"PART-1-1",           733,       9.86952,       23.8294,            0.,NA,NA,"",       17.5122,       17.0946,      -3.80187,   9.74470E-03
C:/temp/dataset/3/13_8.odb,Step-1,Increment      4: Step Time =    1.000,"PART-1-1",           734,       8.61965,       22.5851,            0.,NA,NA,"",       16.8853,       16.6197,      -2.98310,   10.5038E-03
C:/temp/dataset/3/13_8.odb,Step-1,Increment      4: Step Time =    1.000,"PART-1-1",           735,         11.25,           30.,            0.,NA,NA,"",       20.8273,       20.1126,      -5.40918,   2.01997E-03
C:/temp/dataset/3/13_8.odb,Step-1,Increment      4: Step Time =    1.000,"PART-1-1",           736,       9.97488,       28.7673,            0.,NA,NA,"",       20.1849,       19.6592,      -4.57676,   4.28636E-03
C:/temp/dataset/3/13_8.odb,Step-1,Increment      4: Step Time =    1.000,"PART-1-1",           737,          8.75,           30.,            0.,NA,NA,"",       20.8889,       20.4778,      -4.12352,   5.35790E-03
C:/temp/dataset/3/13_8.odb,Step-1,Increment      4: Step Time =    1.000,"PART-1-1",           738,       3.69885,       25.0915,            0.,NA,NA,"",       18.6830,       18.6654,  -811.714E-03,   5.31494E-03
C:/temp/dataset/3/13_8.odb,Step-1,Increment      4: Step Time =    1.000,"PART-1-1",           739,       4.94207,       26.3392,            0.,NA,NA,"",       19.2035,       19.1336,      -1.63775,   6.46840E-03
C:/temp/dataset/3/13_8.odb,Step-1,Increment      4: Step Time =    1.000,"PART-1-1",           740,         -6.25,           30.,            0.,NA,NA,"",       23.1122,       22.8173,       3.67993,   9.90881E-03
C:/temp/dataset/3/13_8.odb,Step-1,Increment      4: Step Time =    1.000,"PART-1-1",           741,      -11.2519,       25.0060,            0.,NA,NA,"",       22.1100,       20.9396,       7.09818,   4.04346E-03
C:/temp/dataset/3/13_8.odb,Step-1,Increment      4: Step Time =    1.000,"PART-1-1",           742,       11.7111,      -12.1867,            0.,NA,NA,"",       1.71333,       1.58956,  -639.378E-03,   30.0063E-03
C:/temp/dataset/3/13_8.odb,Step-1,Increment      4: Step Time =    1.000,"PART-1-1",           743,       12.0443,      -13.4388,            0.,NA,NA,"",       1.44389,       1.29232,  -644.002E-03,   37.3151E-03
C:/temp/dataset/3/13_8.odb,Step-1,Increment      4: Step Time =    1.000,"PART-1-1",           744,       9.07309,      -22.0228,            0.,NA,NA,"",   80.6107E-03,   80.0812E-03,   9.22386E-03,   17.7074E-03
C:/temp/dataset/3/13_8.odb,Step-1,Increment      4: Step Time =    1.000,"PART-1-1",           745,       9.10959,      -23.2638,            0.,NA,NA,"",   27.2426E-03,   27.1316E-03,   2.45727E-03,   19.4660E-03
C:/temp/dataset/3/13_8.odb,Step-1,Increment      4: Step Time =    1.000,"PART-1-1",           746,       10.5828,      -23.1781,            0.,NA,NA,"",   99.9553E-03,   29.7944E-03,  -95.4115E-03,   26.0163E-03
C:/temp/dataset/3/13_8.odb,Step-1,Increment      4: Step Time =    1.000,"PART-1-1",           747,       10.5463,      -21.9372,            0.,NA,NA,"",   142.388E-03,   86.7197E-03,  -112.934E-03,   25.0676E-03
C:/temp/dataset/3/13_8.odb,Step-1,Increment      4: Step Time =    1.000,"PART-1-1",           748,      -1.00841,      -2.00181,            0.,NA,NA,"",       6.89373,       5.95752,       3.46863,   1.05101E-03
C:/temp/dataset/3/13_8.odb,Step-1,Increment      4: Step Time =    1.000,"PART-1-1",           749,      -3.17395,      -1.50818,            0.,NA,NA,"",       7.64406,       6.32923,       4.28631,   1.04220E-03
C:/temp/dataset/3/13_8.odb,Step-1,Increment      4: Step Time =    1.000,"PART-1-1",           750,       8.23699,       8.20647,            0.,NA,NA,"",       9.49088,       9.44053,  -976.376E-03,   19.0524E-03
C:/temp/dataset/3/13_8.odb,Step-1,Increment      4: Step Time =    1.000,"PART-1-1",           751,       8.58975,       6.06422,            0.,NA,NA,"",       8.47797,       8.42807,  -918.516E-03,   11.3522E-03
C:/temp/dataset/3/13_8.odb,Step-1,Increment      4: Step Time =    1.000,"PART-1-1",           752,       1.04870,      -2.29850,            0.,NA,NA,"",       6.26731,       5.66909,       2.67219,   3.53805E-03
C:/temp/dataset/3/13_8.odb,Step-1,Increment      4: Step Time =    1.000,"PART-1-1",           753,      -1.88356,       2.26041,            0.,NA,NA,"",       8.45703,       7.71372,       3.46696,   1.10190E-03
C:/temp/dataset/3/13_8.odb,Step-1,Increment      4: Step Time =    1.000,"PART-1-1",           754,      -2.91638,       1.44829,            0.,NA,NA,"",       8.45251,       7.47724,       3.94155,   1.07717E-03
C:/temp/dataset/3/13_8.odb,Step-1,Increment      4: Step Time =    1.000,"PART-1-1",           755,       3.03453,      -2.52132,            0.,NA,NA,"",       5.72614,       5.40667,       1.88587,   15.6973E-03
C:/temp/dataset/3/13_8.odb,Step-1,Increment      4: Step Time =    1.000,"PART-1-1",           756,       6.99799,      -3.46075,            0.,NA,NA,"",       4.65386,       4.63894,   372.449E-03,   35.7899E-03
C:/temp/dataset/3/13_8.odb,Step-1,Increment      4: Step Time =    1.000,"PART-1-1",           757,       7.63560,  -984.386E-03,            0.,NA,NA,"",       5.57460,       5.57460,  -928.197E-06,   28.2877E-03
C:/temp/dataset/3/13_8.odb,Step-1,Increment      4: Step Time =    1.000,"PART-1-1",           758,       6.14771,      -1.67534,            0.,NA,NA,"",       5.47053,       5.43762,   599.111E-03,   36.3666E-03
C:/temp/dataset/3/13_8.odb,Step-1,Increment      4: Step Time =    1.000,"PART-1-1",           759,       4.94795,      -26.8240,            0.,NA,NA,"",   52.2425E-03,   11.8032E-03,   50.8917E-03,   26.0981E-03
C:/temp/dataset/3/13_8.odb,Step-1,Increment      4: Step Time =    1.000,"PART-1-1",           760,      -11.2341,      -25.0541,            0.,NA,NA,"",   39.6350E-03,   39.5314E-03,   2.86389E-03,   3.11914E-03
C:/temp/dataset/3/13_8.odb,Step-1,Increment      4: Step Time =    1.000,"PART-1-1",           761,      -9.98574,      -26.3021,            0.,NA,NA,"",   32.3838E-03,   32.3563E-03,   1.33224E-03,   4.81672E-03
C:/temp/dataset/3/13_8.odb,Step-1,Increment      4: Step Time =    1.000,"PART-1-1",           762,           15.,        -26.25,            0.,NA,NA,"",   182.413E-03,   43.1309E-03,  -177.241E-03,   63.8455E-03
C:/temp/dataset/3/13_8.odb,Step-1,Increment      4: Step Time =    1.000,"PART-1-1",           763,       9.63478,      -24.7731,            0.,NA,NA,"",   30.2344E-03,  -15.0948E-03,  -26.1966E-03,   19.0442E-03
C:/temp/dataset/3/13_8.odb,Step-1,Increment      4: Step Time =    1.000,"PART-1-1",           764,       9.83383,   250.169E-03,            0.,NA,NA,"",       5.94976,       5.87776,  -922.800E-03,   11.6569E-03
C:/temp/dataset/3/13_8.odb,Step-1,Increment      4: Step Time =    1.000,"PART-1-1",           765,       11.1222,       22.5628,            0.,NA,NA,"",       16.8035,       16.2564,      -4.25291,   9.92944E-03
C:/temp/dataset/3/13_8.odb,Step-1,Increment      4: Step Time =    1.000,"PART-1-1",           766,       9.84566,       21.3197,            0.,NA,NA,"",       16.1516,       15.7852,      -3.42068,   11.4972E-03
C:/temp/dataset/3/13_8.odb,Step-1,Increment      4: Step Time =    1.000,"PART-1-1",           767,      -3.18112,  -190.353E-03,            0.,NA,NA,"",       8.02630,       6.85159,       4.18058,   1.12172E-03
C:/temp/dataset/3/13_8.odb,Step-1,Increment      4: Step Time =    1.000,"PART-1-1",           768,       4.54417,       1.21940,            0.,NA,NA,"",       6.84813,       6.76767,       1.04669,   27.1626E-03
C:/temp/dataset/3/13_8.odb,Step-1,Increment      4: Step Time =    1.000,"PART-1-1",           769,       9.22107,       9.51460,            0.,NA,NA,"",       10.0670,       9.94570,      -1.55830,   12.3226E-03
C:/temp/dataset/3/13_8.odb,Step-1,Increment      4: Step Time =    1.000,"PART-1-1",           770,       11.1709,      -3.71800,            0.,NA,NA,"",       4.37967,       4.24321,      -1.08475,   23.5135E-03
C:/temp/dataset/3/13_8.odb,Step-1,Increment      4: Step Time =    1.000,"PART-1-1",           771,       11.0221,      -5.16095,            0.,NA,NA,"",       3.84023,       3.72995,  -913.690E-03,   22.7775E-03
C:/temp/dataset/3/13_8.odb,Step-1,Increment      4: Step Time =    1.000,"PART-1-1",           772,       12.3085,      -4.70099,            0.,NA,NA,"",       4.07429,       3.82880,      -1.39289,   35.1815E-03
C:/temp/dataset/3/13_8.odb,Step-1,Increment      4: Step Time =    1.000,"PART-1-1",           773,       5.03877,      -2.41022,            0.,NA,NA,"",       5.35953,       5.25259,       1.06526,   37.0776E-03
C:/temp/dataset/3/13_8.odb,Step-1,Increment      4: Step Time =    1.000,"PART-1-1",           774,       11.0080,       9.74440,            0.,NA,NA,"",       10.1466,       9.85827,      -2.40174,   12.7822E-03
C:/temp/dataset/3/13_8.odb,Step-1,Increment      4: Step Time =    1.000,"PART-1-1",           775,       7.33953,      -23.4839,            0.,NA,NA,"",   99.6060E-03,   38.2529E-03,   91.9677E-03,   29.5797E-03
C:/temp/dataset/3/13_8.odb,Step-1,Increment      4: Step Time =    1.000,"PART-1-1",           776,       6.60048,      -22.7490,            0.,NA,NA,"",   159.093E-03,   75.3060E-03,   140.141E-03,   38.1256E-03
C:/temp/dataset/3/13_8.odb,Step-1,Increment      4: Step Time =    1.000,"PART-1-1",           777,       5.56839,      -23.3719,            0.,NA,NA,"",   156.284E-03,   70.5914E-03,   139.433E-03,   41.4491E-03
C:/temp/dataset/3/13_8.odb,Step-1,Increment      4: Step Time =    1.000,"PART-1-1",           778,       5.56431,      -22.1833,            0.,NA,NA,"",   214.550E-03,   112.749E-03,   182.536E-03,   49.9457E-03
C:/temp/dataset/3/13_8.odb,Step-1,Increment      4: Step Time =    1.000,"PART-1-1",           779,       7.31291,      -21.9704,            0.,NA,NA,"",   163.200E-03,   95.1822E-03,   132.570E-03,   33.5699E-03
C:/temp/dataset/3/13_8.odb,Step-1,Increment      4: Step Time =    1.000,"PART-1-1",           780,       8.04898,      -22.6975,            0.,NA,NA,"",   91.9141E-03,   55.4239E-03,   73.3238E-03,   23.9416E-03
C:/temp/dataset/3/13_8.odb,Step-1,Increment      4: Step Time =    1.000,"PART-1-1",           781,       5.89213,  -472.373E-03,            0.,NA,NA,"",       5.98257,       5.94929,   630.154E-03,   29.7535E-03
C:/temp/dataset/3/13_8.odb,Step-1,Increment      4: Step Time =    1.000,"PART-1-1",           782,       8.40014,      -24.0502,            0.,NA,NA,"",   36.2649E-03,   8.70057E-03,   35.2058E-03,   19.0961E-03
