ODB Name,Step,Frame,Part Instance Name,    êﬂì_ÉâÉxÉã,X,Y,Z,Section Name,Material Name,Section Point,   U-Magnitude,          U-U1,          U-U2,       S-Mises
C:/temp/dataset/3/14_7.odb,Step-1,Increment      2: Step Time =    1.000,"PART-1-1",             1,          -15.,           20.,            0.,NA,NA,"",       15.9658,       14.0833,       7.52107,   6.97161E-03
C:/temp/dataset/3/14_7.odb,Step-1,Increment      2: Step Time =    1.000,"PART-1-1",             2,          -15.,           25.,            0.,NA,NA,"",       17.5011,       15.9681,       7.16296,   3.95566E-03
C:/temp/dataset/3/14_7.odb,Step-1,Increment      2: Step Time =    1.000,"PART-1-1",             3,           -5.,           20.,            0.,NA,NA,"",       13.7840,       13.2645,       3.74854,   8.63326E-03
C:/temp/dataset/3/14_7.odb,Step-1,Increment      2: Step Time =    1.000,"PART-1-1",             4,            5.,           20.,            0.,NA,NA,"",       12.4003,       12.3999,  -104.261E-03,   10.3179E-03
C:/temp/dataset/3/14_7.odb,Step-1,Increment      2: Step Time =    1.000,"PART-1-1",             5,            5.,          12.5,            0.,NA,NA,"",       9.42815,       9.41932,   408.119E-03,   21.7986E-03
C:/temp/dataset/3/14_7.odb,Step-1,Increment      2: Step Time =    1.000,"PART-1-1",             6,            5.,            5.,            0.,NA,NA,"",       6.62142,       6.58262,   715.745E-03,   46.0938E-03
C:/temp/dataset/3/14_7.odb,Step-1,Increment      2: Step Time =    1.000,"PART-1-1",             7,      -1.70000,            5.,            0.,NA,NA,"",       7.41780,       6.89431,       2.73719,   1.69743E-03
C:/temp/dataset/3/14_7.odb,Step-1,Increment      2: Step Time =    1.000,"PART-1-1",             8,      -8.40000,            5.,            0.,NA,NA,"",       8.71494,       7.24022,       4.85072,   58.4668E-06
C:/temp/dataset/3/14_7.odb,Step-1,Increment      2: Step Time =    1.000,"PART-1-1",             9,          -15.,            5.,            0.,NA,NA,"",       10.2718,       7.57781,       6.93446,   693.697E-09
C:/temp/dataset/3/14_7.odb,Step-1,Increment      2: Step Time =    1.000,"PART-1-1",            10,          -15.,            0.,            0.,NA,NA,"",       9.36431,       5.99934,       7.19014,   5.67026E-06
C:/temp/dataset/3/14_7.odb,Step-1,Increment      2: Step Time =    1.000,"PART-1-1",            11,          -15.,           -5.,            0.,NA,NA,"",       8.65937,       4.42097,       7.44579,   566.606E-09
C:/temp/dataset/3/14_7.odb,Step-1,Increment      2: Step Time =    1.000,"PART-1-1",            12,      -8.30000,           -5.,            0.,NA,NA,"",       6.71213,       4.07842,       5.33097,   57.0114E-06
C:/temp/dataset/3/14_7.odb,Step-1,Increment      2: Step Time =    1.000,"PART-1-1",            13,      -1.60000,           -5.,            0.,NA,NA,"",       4.92680,       3.73190,       3.21656,   1.77581E-03
C:/temp/dataset/3/14_7.odb,Step-1,Increment      2: Step Time =    1.000,"PART-1-1",            14,            5.,           -5.,            0.,NA,NA,"",       3.50557,       3.35285,       1.02344,   64.8783E-03
C:/temp/dataset/3/14_7.odb,Step-1,Increment      2: Step Time =    1.000,"PART-1-1",            15,            5.,         -12.5,            0.,NA,NA,"",       1.64123,       1.45193,   765.191E-03,   75.1260E-03
C:/temp/dataset/3/14_7.odb,Step-1,Increment      2: Step Time =    1.000,"PART-1-1",            16,            5.,          -20.,            0.,NA,NA,"",   302.527E-03,   180.825E-03,   242.539E-03,   123.306E-03
C:/temp/dataset/3/14_7.odb,Step-1,Increment      2: Step Time =    1.000,"PART-1-1",            17,           -5.,          -20.,            0.,NA,NA,"",   52.7374E-03,   52.7172E-03,  -1.45967E-03,   1.00098E-03
C:/temp/dataset/3/14_7.odb,Step-1,Increment      2: Step Time =    1.000,"PART-1-1",            18,          -15.,          -20.,            0.,NA,NA,"",   53.4534E-03,   51.7282E-03,   13.4706E-03,   32.7057E-06
C:/temp/dataset/3/14_7.odb,Step-1,Increment      2: Step Time =    1.000,"PART-1-1",            19,          -15.,          -25.,            0.,NA,NA,"",   35.9615E-03,   33.0949E-03,   14.0698E-03,   238.009E-06
C:/temp/dataset/3/14_7.odb,Step-1,Increment      2: Step Time =    1.000,"PART-1-1",            20,          -15.,          -30.,            0.,NA,NA,"",            0.,   8.82117E-42,   23.1635E-42,   9.01007E-03
C:/temp/dataset/3/14_7.odb,Step-1,Increment      2: Step Time =    1.000,"PART-1-1",            21,           15.,          -30.,            0.,NA,NA,"",            0.,  -276.078E-42,   310.731E-42,   42.0560E-03
C:/temp/dataset/3/14_7.odb,Step-1,Increment      2: Step Time =    1.000,"PART-1-1",            22,           15.,         -22.5,            0.,NA,NA,"",   373.816E-03,   129.798E-03,  -350.558E-03,   69.2571E-03
C:/temp/dataset/3/14_7.odb,Step-1,Increment      2: Step Time =    1.000,"PART-1-1",            23,           15.,          -15.,            0.,NA,NA,"",       1.24636,   840.189E-03,  -920.600E-03,   78.8376E-03
C:/temp/dataset/3/14_7.odb,Step-1,Increment      2: Step Time =    1.000,"PART-1-1",            24,           15.,          -7.5,            0.,NA,NA,"",       2.81287,       2.33966,      -1.56148,   61.3050E-03
C:/temp/dataset/3/14_7.odb,Step-1,Increment      2: Step Time =    1.000,"PART-1-1",            25,           15.,            0.,            0.,NA,NA,"",       4.96090,       4.44320,      -2.20647,   37.7614E-03
C:/temp/dataset/3/14_7.odb,Step-1,Increment      2: Step Time =    1.000,"PART-1-1",            26,           15.,           7.5,            0.,NA,NA,"",       7.46266,       6.89313,      -2.85936,   30.6860E-03
C:/temp/dataset/3/14_7.odb,Step-1,Increment      2: Step Time =    1.000,"PART-1-1",            27,           15.,           15.,            0.,NA,NA,"",       10.2764,       9.64215,      -3.55433,   15.9432E-03
C:/temp/dataset/3/14_7.odb,Step-1,Increment      2: Step Time =    1.000,"PART-1-1",            28,           15.,          22.5,            0.,NA,NA,"",       13.2606,       12.5739,      -4.21182,   2.27146E-03
C:/temp/dataset/3/14_7.odb,Step-1,Increment      2: Step Time =    1.000,"PART-1-1",            29,           15.,           30.,            0.,NA,NA,"",       16.2634,       15.5320,      -4.82242,   29.0345E-06
C:/temp/dataset/3/14_7.odb,Step-1,Increment      2: Step Time =    1.000,"PART-1-1",            30,           7.5,           30.,            0.,NA,NA,"",       16.2447,       16.1364,      -1.87260,   84.5653E-06
C:/temp/dataset/3/14_7.odb,Step-1,Increment      2: Step Time =    1.000,"PART-1-1",            31,            0.,           30.,            0.,NA,NA,"",       16.7632,       16.7295,       1.06151,   1.37760E-03
C:/temp/dataset/3/14_7.odb,Step-1,Increment      2: Step Time =    1.000,"PART-1-1",            32,          -7.5,           30.,            0.,NA,NA,"",       17.7448,       17.2984,       3.95503,   1.71067E-03
C:/temp/dataset/3/14_7.odb,Step-1,Increment      2: Step Time =    1.000,"PART-1-1",            33,          -15.,           30.,            0.,NA,NA,"",       19.1029,       17.8513,       6.80101,   199.456E-06
C:/temp/dataset/3/14_7.odb,Step-1,Increment      2: Step Time =    1.000,"PART-1-1",            34,          -15.,          22.5,            0.,NA,NA,"",       16.7283,       15.0307,       7.34260,   7.16744E-03
C:/temp/dataset/3/14_7.odb,Step-1,Increment      2: Step Time =    1.000,"PART-1-1",            35,          -7.5,           20.,            0.,NA,NA,"",       14.2690,       13.4731,       4.69867,   8.67271E-03
C:/temp/dataset/3/14_7.odb,Step-1,Increment      2: Step Time =    1.000,"PART-1-1",            36,          -10.,           20.,            0.,NA,NA,"",       14.7978,       13.6795,       5.64340,   8.61309E-03
C:/temp/dataset/3/14_7.odb,Step-1,Increment      2: Step Time =    1.000,"PART-1-1",            37,         -12.5,           20.,            0.,NA,NA,"",       15.3647,       13.8830,       6.58309,   7.81250E-03
C:/temp/dataset/3/14_7.odb,Step-1,Increment      2: Step Time =    1.000,"PART-1-1",            38,           2.5,           20.,            0.,NA,NA,"",       12.6553,       12.6256,   867.149E-03,   9.53122E-03
C:/temp/dataset/3/14_7.odb,Step-1,Increment      2: Step Time =    1.000,"PART-1-1",            39,            0.,           20.,            0.,NA,NA,"",       12.9708,       12.8407,       1.83258,   8.68789E-03
C:/temp/dataset/3/14_7.odb,Step-1,Increment      2: Step Time =    1.000,"PART-1-1",            40,          -2.5,           20.,            0.,NA,NA,"",       13.3493,       13.0538,       2.79309,   8.63262E-03
C:/temp/dataset/3/14_7.odb,Step-1,Increment      2: Step Time =    1.000,"PART-1-1",            41,            5.,           15.,            0.,NA,NA,"",       10.4006,       10.3975,   255.621E-03,   16.8052E-03
C:/temp/dataset/3/14_7.odb,Step-1,Increment      2: Step Time =    1.000,"PART-1-1",            42,            5.,          17.5,            0.,NA,NA,"",       11.3903,       11.3900,   85.4890E-03,   11.9048E-03
C:/temp/dataset/3/14_7.odb,Step-1,Increment      2: Step Time =    1.000,"PART-1-1",            43,            5.,           7.5,            0.,NA,NA,"",       7.54651,       7.51812,   653.979E-03,   34.8412E-03
C:/temp/dataset/3/14_7.odb,Step-1,Increment      2: Step Time =    1.000,"PART-1-1",            44,            5.,           10.,            0.,NA,NA,"",       8.47588,       8.45864,   540.218E-03,   26.6638E-03
C:/temp/dataset/3/14_7.odb,Step-1,Increment      2: Step Time =    1.000,"PART-1-1",            45,   533.333E-03,            5.,            0.,NA,NA,"",       7.07736,       6.77717,       2.03937,   4.27990E-03
C:/temp/dataset/3/14_7.odb,Step-1,Increment      2: Step Time =    1.000,"PART-1-1",            46,       2.76667,            5.,            0.,NA,NA,"",       6.79859,       6.66179,       1.35696,   7.79900E-03
C:/temp/dataset/3/14_7.odb,Step-1,Increment      2: Step Time =    1.000,"PART-1-1",            47,      -6.16667,            5.,            0.,NA,NA,"",       8.24384,       7.12569,       4.14552,   232.367E-06
C:/temp/dataset/3/14_7.odb,Step-1,Increment      2: Step Time =    1.000,"PART-1-1",            48,      -3.93333,            5.,            0.,NA,NA,"",       7.80935,       7.01057,       3.44062,   803.471E-06
C:/temp/dataset/3/14_7.odb,Step-1,Increment      2: Step Time =    1.000,"PART-1-1",            49,      -12.8000,            5.,            0.,NA,NA,"",       9.72972,       7.46531,       6.23992,   4.68102E-06
C:/temp/dataset/3/14_7.odb,Step-1,Increment      2: Step Time =    1.000,"PART-1-1",            50,      -10.6000,            5.,            0.,NA,NA,"",       9.20948,       7.35280,       5.54535,   4.19608E-06
C:/temp/dataset/3/14_7.odb,Step-1,Increment      2: Step Time =    1.000,"PART-1-1",            51,          -15.,           2.5,            0.,NA,NA,"",       9.79596,       6.78857,       7.06231,   5.29450E-06
C:/temp/dataset/3/14_7.odb,Step-1,Increment      2: Step Time =    1.000,"PART-1-1",            52,          -15.,          -2.5,            0.,NA,NA,"",       8.98322,       5.21014,       7.31797,   5.24250E-06
C:/temp/dataset/3/14_7.odb,Step-1,Increment      2: Step Time =    1.000,"PART-1-1",            53,      -10.5333,           -5.,            0.,NA,NA,"",       7.34910,       4.19262,       6.03584,   3.12515E-06
C:/temp/dataset/3/14_7.odb,Step-1,Increment      2: Step Time =    1.000,"PART-1-1",            54,      -12.7667,           -5.,            0.,NA,NA,"",       7.99917,       4.30679,       6.74080,   4.25778E-06
C:/temp/dataset/3/14_7.odb,Step-1,Increment      2: Step Time =    1.000,"PART-1-1",            55,      -3.83333,           -5.,            0.,NA,NA,"",       5.49493,       3.84894,       3.92173,   850.511E-06
C:/temp/dataset/3/14_7.odb,Step-1,Increment      2: Step Time =    1.000,"PART-1-1",            56,      -6.06667,           -5.,            0.,NA,NA,"",       6.09233,       3.96407,       4.62630,   233.866E-06
C:/temp/dataset/3/14_7.odb,Step-1,Increment      2: Step Time =    1.000,"PART-1-1",            57,       2.80000,           -5.,            0.,NA,NA,"",       3.92172,       3.48244,       1.80348,   13.5242E-03
C:/temp/dataset/3/14_7.odb,Step-1,Increment      2: Step Time =    1.000,"PART-1-1",            58,   600.000E-03,           -5.,            0.,NA,NA,"",       4.40321,       3.61228,       2.51787,   4.62804E-03
C:/temp/dataset/3/14_7.odb,Step-1,Increment      2: Step Time =    1.000,"PART-1-1",            59,            5.,          -10.,            0.,NA,NA,"",       2.19480,       2.01655,   866.401E-03,   68.9886E-03
C:/temp/dataset/3/14_7.odb,Step-1,Increment      2: Step Time =    1.000,"PART-1-1",            60,            5.,          -7.5,            0.,NA,NA,"",       2.81223,       2.65151,   937.078E-03,   66.8583E-03
C:/temp/dataset/3/14_7.odb,Step-1,Increment      2: Step Time =    1.000,"PART-1-1",            61,            5.,         -17.5,            0.,NA,NA,"",   742.288E-03,   558.570E-03,   488.867E-03,   89.5613E-03
C:/temp/dataset/3/14_7.odb,Step-1,Increment      2: Step Time =    1.000,"PART-1-1",            62,            5.,          -15.,            0.,NA,NA,"",       1.15833,   967.481E-03,   636.956E-03,   77.1369E-03
C:/temp/dataset/3/14_7.odb,Step-1,Increment      2: Step Time =    1.000,"PART-1-1",            63,          -2.5,          -20.,            0.,NA,NA,"",   56.5685E-03,   56.1085E-03,   7.19952E-03,   2.97101E-03
C:/temp/dataset/3/14_7.odb,Step-1,Increment      2: Step Time =    1.000,"PART-1-1",            64,            0.,          -20.,            0.,NA,NA,"",   70.6703E-03,   63.8867E-03,   30.2124E-03,   5.66238E-03
C:/temp/dataset/3/14_7.odb,Step-1,Increment      2: Step Time =    1.000,"PART-1-1",            65,           2.5,          -20.,            0.,NA,NA,"",   114.476E-03,   79.2881E-03,   82.5720E-03,   33.0237E-03
C:/temp/dataset/3/14_7.odb,Step-1,Increment      2: Step Time =    1.000,"PART-1-1",            66,         -12.5,          -20.,            0.,NA,NA,"",   51.7570E-03,   51.4559E-03,   5.57443E-03,   241.333E-06
C:/temp/dataset/3/14_7.odb,Step-1,Increment      2: Step Time =    1.000,"PART-1-1",            67,          -10.,          -20.,            0.,NA,NA,"",   50.9372E-03,   50.9353E-03,  -439.278E-06,   102.980E-06
C:/temp/dataset/3/14_7.odb,Step-1,Increment      2: Step Time =    1.000,"PART-1-1",            68,          -7.5,          -20.,            0.,NA,NA,"",   51.3152E-03,   51.2144E-03,  -3.21604E-03,   451.599E-06
C:/temp/dataset/3/14_7.odb,Step-1,Increment      2: Step Time =    1.000,"PART-1-1",            69,          -15.,         -22.5,            0.,NA,NA,"",   45.6959E-03,   43.5782E-03,   13.7498E-03,   230.481E-06
C:/temp/dataset/3/14_7.odb,Step-1,Increment      2: Step Time =    1.000,"PART-1-1",            70,          -15.,         -27.5,            0.,NA,NA,"",   22.1832E-03,   18.6557E-03,   12.0025E-03,   2.90338E-03
C:/temp/dataset/3/14_7.odb,Step-1,Increment      2: Step Time =    1.000,"PART-1-1",            71,          12.5,          -30.,            0.,NA,NA,"",            0.,   16.0925E-39,  -53.2388E-39,   25.2944E-03
C:/temp/dataset/3/14_7.odb,Step-1,Increment      2: Step Time =    1.000,"PART-1-1",            72,           10.,          -30.,            0.,NA,NA,"",            0.,  -34.3745E-39,  -44.3105E-39,   17.8243E-03
C:/temp/dataset/3/14_7.odb,Step-1,Increment      2: Step Time =    1.000,"PART-1-1",            73,           7.5,          -30.,            0.,NA,NA,"",            0.,  -13.4144E-39,  -2.16357E-39,   11.5223E-03
C:/temp/dataset/3/14_7.odb,Step-1,Increment      2: Step Time =    1.000,"PART-1-1",            74,            5.,          -30.,            0.,NA,NA,"",            0.,  -12.8770E-39,   30.4534E-39,   10.5108E-03
C:/temp/dataset/3/14_7.odb,Step-1,Increment      2: Step Time =    1.000,"PART-1-1",            75,           2.5,          -30.,            0.,NA,NA,"",            0.,  -3.09891E-39,   22.4686E-39,   12.5547E-03
C:/temp/dataset/3/14_7.odb,Step-1,Increment      2: Step Time =    1.000,"PART-1-1",            76,            0.,          -30.,            0.,NA,NA,"",            0.,   3.95605E-39,   10.1946E-39,   12.7296E-03
C:/temp/dataset/3/14_7.odb,Step-1,Increment      2: Step Time =    1.000,"PART-1-1",            77,          -2.5,          -30.,            0.,NA,NA,"",            0.,   20.7891E-39,   26.9871E-39,   10.9393E-03
C:/temp/dataset/3/14_7.odb,Step-1,Increment      2: Step Time =    1.000,"PART-1-1",            78,           -5.,          -30.,            0.,NA,NA,"",            0.,   7.65275E-39,  -3.29249E-39,   8.68581E-03
C:/temp/dataset/3/14_7.odb,Step-1,Increment      2: Step Time =    1.000,"PART-1-1",            79,          -7.5,          -30.,            0.,NA,NA,"",            0.,   6.67543E-39,  -4.43313E-39,   6.67314E-03
C:/temp/dataset/3/14_7.odb,Step-1,Increment      2: Step Time =    1.000,"PART-1-1",            80,          -10.,          -30.,            0.,NA,NA,"",            0.,   9.31851E-39,   10.9661E-39,   5.22318E-03
C:/temp/dataset/3/14_7.odb,Step-1,Increment      2: Step Time =    1.000,"PART-1-1",            81,         -12.5,          -30.,            0.,NA,NA,"",            0.,   8.14321E-39,   9.74864E-39,   3.86753E-03
C:/temp/dataset/3/14_7.odb,Step-1,Increment      2: Step Time =    1.000,"PART-1-1",            82,           15.,          -25.,            0.,NA,NA,"",   213.452E-03,   55.1555E-03,  -206.203E-03,   57.4249E-03
C:/temp/dataset/3/14_7.odb,Step-1,Increment      2: Step Time =    1.000,"PART-1-1",            83,           15.,         -27.5,            0.,NA,NA,"",   95.3215E-03,   28.0880E-03,  -91.0892E-03,   47.7550E-03
C:/temp/dataset/3/14_7.odb,Step-1,Increment      2: Step Time =    1.000,"PART-1-1",            84,           15.,         -17.5,            0.,NA,NA,"",   879.307E-03,   510.148E-03,  -716.191E-03,   81.1011E-03
C:/temp/dataset/3/14_7.odb,Step-1,Increment      2: Step Time =    1.000,"PART-1-1",            85,           15.,          -20.,            0.,NA,NA,"",   590.354E-03,   275.264E-03,  -522.252E-03,   77.9438E-03
C:/temp/dataset/3/14_7.odb,Step-1,Increment      2: Step Time =    1.000,"PART-1-1",            86,           15.,          -10.,            0.,NA,NA,"",       2.21576,       1.76168,      -1.34390,   68.2310E-03
C:/temp/dataset/3/14_7.odb,Step-1,Increment      2: Step Time =    1.000,"PART-1-1",            87,           15.,         -12.5,            0.,NA,NA,"",       1.69246,       1.25988,      -1.13009,   73.8976E-03
C:/temp/dataset/3/14_7.odb,Step-1,Increment      2: Step Time =    1.000,"PART-1-1",            88,           15.,          -2.5,            0.,NA,NA,"",       4.19760,       3.69286,      -1.99565,   44.2023E-03
C:/temp/dataset/3/14_7.odb,Step-1,Increment      2: Step Time =    1.000,"PART-1-1",            89,           15.,           -5.,            0.,NA,NA,"",       3.47734,       2.98700,      -1.78038,   52.8272E-03
C:/temp/dataset/3/14_7.odb,Step-1,Increment      2: Step Time =    1.000,"PART-1-1",            90,           15.,            5.,            0.,NA,NA,"",       6.59221,       6.04312,      -2.63400,   32.8411E-03
C:/temp/dataset/3/14_7.odb,Step-1,Increment      2: Step Time =    1.000,"PART-1-1",            91,           15.,           2.5,            0.,NA,NA,"",       5.75908,       5.22738,      -2.41690,   34.5502E-03
C:/temp/dataset/3/14_7.odb,Step-1,Increment      2: Step Time =    1.000,"PART-1-1",            92,           15.,          12.5,            0.,NA,NA,"",       9.31037,       8.69704,      -3.32330,   21.4819E-03
C:/temp/dataset/3/14_7.odb,Step-1,Increment      2: Step Time =    1.000,"PART-1-1",            93,           15.,           10.,            0.,NA,NA,"",       8.37027,       7.77878,      -3.09062,   26.6298E-03
C:/temp/dataset/3/14_7.odb,Step-1,Increment      2: Step Time =    1.000,"PART-1-1",            94,           15.,           20.,            0.,NA,NA,"",       12.2586,       11.5876,      -3.99996,   5.73967E-03
C:/temp/dataset/3/14_7.odb,Step-1,Increment      2: Step Time =    1.000,"PART-1-1",            95,           15.,          17.5,            0.,NA,NA,"",       11.2616,       10.6080,      -3.78060,   10.5306E-03
C:/temp/dataset/3/14_7.odb,Step-1,Increment      2: Step Time =    1.000,"PART-1-1",            96,           15.,          27.5,            0.,NA,NA,"",       15.2635,       14.5473,      -4.62050,   105.947E-06
C:/temp/dataset/3/14_7.odb,Step-1,Increment      2: Step Time =    1.000,"PART-1-1",            97,           15.,           25.,            0.,NA,NA,"",       14.2628,       13.5613,      -4.41777,   441.343E-06
C:/temp/dataset/3/14_7.odb,Step-1,Increment      2: Step Time =    1.000,"PART-1-1",            98,           10.,           30.,            0.,NA,NA,"",       16.1889,       15.9352,      -2.85465,   56.2590E-06
C:/temp/dataset/3/14_7.odb,Step-1,Increment      2: Step Time =    1.000,"PART-1-1",            99,          12.5,           30.,            0.,NA,NA,"",       16.1951,       15.7338,      -3.83802,   115.178E-06
C:/temp/dataset/3/14_7.odb,Step-1,Increment      2: Step Time =    1.000,"PART-1-1",           100,           2.5,           30.,            0.,NA,NA,"",       16.5348,       16.5346,   86.7688E-03,   948.771E-06
C:/temp/dataset/3/14_7.odb,Step-1,Increment      2: Step Time =    1.000,"PART-1-1",           101,            5.,           30.,            0.,NA,NA,"",       16.3610,       16.3367,  -891.801E-03,   351.179E-06
C:/temp/dataset/3/14_7.odb,Step-1,Increment      2: Step Time =    1.000,"PART-1-1",           102,           -5.,           30.,            0.,NA,NA,"",       17.3715,       17.1113,       2.99591,   1.67377E-03
C:/temp/dataset/3/14_7.odb,Step-1,Increment      2: Step Time =    1.000,"PART-1-1",           103,          -2.5,           30.,            0.,NA,NA,"",       17.0432,       16.9217,       2.03137,   1.58883E-03
C:/temp/dataset/3/14_7.odb,Step-1,Increment      2: Step Time =    1.000,"PART-1-1",           104,         -12.5,           30.,            0.,NA,NA,"",       18.6122,       17.6668,       5.85653,   870.232E-06
C:/temp/dataset/3/14_7.odb,Step-1,Increment      2: Step Time =    1.000,"PART-1-1",           105,          -10.,           30.,            0.,NA,NA,"",       18.1594,       17.4834,       4.90861,   1.64699E-03
C:/temp/dataset/3/14_7.odb,Step-1,Increment      2: Step Time =    1.000,"PART-1-1",           106,          -15.,          27.5,            0.,NA,NA,"",       18.2929,       16.9065,       6.98588,   1.48421E-03
C:/temp/dataset/3/14_7.odb,Step-1,Increment      2: Step Time =    1.000,"PART-1-1",           107,      -12.5013,       25.0052,            0.,NA,NA,"",       16.9636,       15.7796,       6.22639,   3.89250E-03
C:/temp/dataset/3/14_7.odb,Step-1,Increment      2: Step Time =    1.000,"PART-1-1",           108,      -10.0028,       27.5014,            0.,NA,NA,"",       17.3025,       16.5346,       5.09752,   757.777E-06
C:/temp/dataset/3/14_7.odb,Step-1,Increment      2: Step Time =    1.000,"PART-1-1",           109,      -2.49865,       22.5268,            0.,NA,NA,"",       14.2724,       14.0328,       2.60415,   5.97548E-03
C:/temp/dataset/3/14_7.odb,Step-1,Increment      2: Step Time =    1.000,"PART-1-1",           110,      -2.51000,       27.5279,            0.,NA,NA,"",       16.1224,       15.9678,       2.22742,   913.238E-06
C:/temp/dataset/3/14_7.odb,Step-1,Increment      2: Step Time =    1.000,"PART-1-1",           111,       12.3864,       22.5464,            0.,NA,NA,"",       13.1921,       12.8015,      -3.18676,   3.91477E-03
C:/temp/dataset/3/14_7.odb,Step-1,Increment      2: Step Time =    1.000,"PART-1-1",           112,       7.35369,       17.5509,            0.,NA,NA,"",       11.2447,       11.2138,  -833.666E-03,   9.33895E-03
C:/temp/dataset/3/14_7.odb,Step-1,Increment      2: Step Time =    1.000,"PART-1-1",           113,       12.3201,       14.9467,            0.,NA,NA,"",       10.1308,       9.81303,      -2.51739,   10.8358E-03
C:/temp/dataset/3/14_7.odb,Step-1,Increment      2: Step Time =    1.000,"PART-1-1",           114,       13.2599,       7.39194,            0.,NA,NA,"",       7.29746,       6.94966,      -2.22600,   20.3141E-03
C:/temp/dataset/3/14_7.odb,Step-1,Increment      2: Step Time =    1.000,"PART-1-1",           115,       7.60504,      -5.98204,            0.,NA,NA,"",       2.94608,       2.93354,   271.490E-03,   23.4196E-03
C:/temp/dataset/3/14_7.odb,Step-1,Increment      2: Step Time =    1.000,"PART-1-1",           116,       7.71062,      -13.7665,            0.,NA,NA,"",       1.11291,       1.08696,   238.924E-03,   37.7463E-03
C:/temp/dataset/3/14_7.odb,Step-1,Increment      2: Step Time =    1.000,"PART-1-1",           117,       11.7208,      -22.4938,            0.,NA,NA,"",   171.588E-03,   63.1169E-03,  -159.558E-03,   31.6952E-03
C:/temp/dataset/3/14_7.odb,Step-1,Increment      2: Step Time =    1.000,"PART-1-1",           118,       2.59328,       2.74806,            0.,NA,NA,"",       6.15876,       5.97012,       1.51261,   11.2095E-03
C:/temp/dataset/3/14_7.odb,Step-1,Increment      2: Step Time =    1.000,"PART-1-1",           119,      -1.32361,      -2.98462,            0.,NA,NA,"",       5.30522,       4.35775,       3.02578,   1.00949E-03
C:/temp/dataset/3/14_7.odb,Step-1,Increment      2: Step Time =    1.000,"PART-1-1",           120,      -6.00563,       3.11026,            0.,NA,NA,"",       7.75173,       6.52103,       4.19113,   343.361E-06
C:/temp/dataset/3/14_7.odb,Step-1,Increment      2: Step Time =    1.000,"PART-1-1",           121,      -10.4102,       2.53863,            0.,NA,NA,"",       8.63711,       6.56603,       5.61131,   40.4656E-06
C:/temp/dataset/3/14_7.odb,Step-1,Increment      2: Step Time =    1.000,"PART-1-1",           122,      -12.6184,  -43.2983E-03,            0.,NA,NA,"",       8.71010,       5.86389,       6.44054,   10.1081E-06
C:/temp/dataset/3/14_7.odb,Step-1,Increment      2: Step Time =    1.000,"PART-1-1",           123,      -3.88272,       3.23189,            0.,NA,NA,"",       7.34585,       6.45060,       3.51444,   679.077E-06
C:/temp/dataset/3/14_7.odb,Step-1,Increment      2: Step Time =    1.000,"PART-1-1",           124,       2.98144,      -22.7363,            0.,NA,NA,"",   129.428E-03,   91.2432E-03,   91.7946E-03,   39.8713E-03
C:/temp/dataset/3/14_7.odb,Step-1,Increment      2: Step Time =    1.000,"PART-1-1",           125,      -2.42987,      -22.6294,            0.,NA,NA,"",   63.9470E-03,   62.8343E-03,   11.8774E-03,   6.81798E-03
C:/temp/dataset/3/14_7.odb,Step-1,Increment      2: Step Time =    1.000,"PART-1-1",           126,      -9.97348,      -22.5672,            0.,NA,NA,"",   44.8053E-03,   44.8053E-03,   34.5368E-06,   1.46843E-03
C:/temp/dataset/3/14_7.odb,Step-1,Increment      2: Step Time =    1.000,"PART-1-1",           127,      -12.4895,      -25.0402,            0.,NA,NA,"",   33.0281E-03,   32.6732E-03,   4.82922E-03,   2.06825E-03
C:/temp/dataset/3/14_7.odb,Step-1,Increment      2: Step Time =    1.000,"PART-1-1",           128,       12.8561,      -14.2595,            0.,NA,NA,"",       1.11053,   927.889E-03,  -610.163E-03,   42.4088E-03
C:/temp/dataset/3/14_7.odb,Step-1,Increment      2: Step Time =    1.000,"PART-1-1",           129,       12.7281,      -7.33650,            0.,NA,NA,"",       2.60146,       2.40811,  -984.185E-03,   34.0384E-03
C:/temp/dataset/3/14_7.odb,Step-1,Increment      2: Step Time =    1.000,"PART-1-1",           130,       12.6427,  -96.8002E-03,            0.,NA,NA,"",       4.73047,       4.50264,      -1.45037,   21.9630E-03
C:/temp/dataset/3/14_7.odb,Step-1,Increment      2: Step Time =    1.000,"PART-1-1",           131,       7.13014,       10.3328,            0.,NA,NA,"",       8.42165,       8.41786,  -252.913E-03,   17.1318E-03
C:/temp/dataset/3/14_7.odb,Step-1,Increment      2: Step Time =    1.000,"PART-1-1",           132,       4.95005,       27.5805,            0.,NA,NA,"",       15.4084,       15.3934,  -679.542E-03,   1.25860E-03
C:/temp/dataset/3/14_7.odb,Step-1,Increment      2: Step Time =    1.000,"PART-1-1",           133,      -4.99957,       22.5148,            0.,NA,NA,"",       14.6728,       14.2336,       3.56316,   6.03784E-03
C:/temp/dataset/3/14_7.odb,Step-1,Increment      2: Step Time =    1.000,"PART-1-1",           134,      -7.50186,       22.5094,            0.,NA,NA,"",       15.1251,       14.4349,       4.51684,   6.06944E-03
C:/temp/dataset/3/14_7.odb,Step-1,Increment      2: Step Time =    1.000,"PART-1-1",           135,       4.93744,       22.5898,            0.,NA,NA,"",       13.4384,       13.4354,  -282.902E-03,   5.18733E-03
C:/temp/dataset/3/14_7.odb,Step-1,Increment      2: Step Time =    1.000,"PART-1-1",           136,       2.47758,       22.5593,            0.,NA,NA,"",       13.6484,       13.6315,   679.349E-03,   5.31150E-03
C:/temp/dataset/3/14_7.odb,Step-1,Increment      2: Step Time =    1.000,"PART-1-1",           137,  -4.46696E-03,       22.5388,            0.,NA,NA,"",       13.9277,       13.8305,       1.64257,   5.93298E-03
C:/temp/dataset/3/14_7.odb,Step-1,Increment      2: Step Time =    1.000,"PART-1-1",           138,       7.20686,       12.6699,            0.,NA,NA,"",       9.31701,       9.30719,  -427.652E-03,   13.6492E-03
C:/temp/dataset/3/14_7.odb,Step-1,Increment      2: Step Time =    1.000,"PART-1-1",           139,       7.30679,       15.0771,            0.,NA,NA,"",       10.2576,       10.2382,  -631.569E-03,   10.9430E-03
C:/temp/dataset/3/14_7.odb,Step-1,Increment      2: Step Time =    1.000,"PART-1-1",           140,       7.52839,       5.66323,            0.,NA,NA,"",       6.67703,       6.67572,  -132.004E-03,   11.6427E-03
C:/temp/dataset/3/14_7.odb,Step-1,Increment      2: Step Time =    1.000,"PART-1-1",           141,       7.20823,       7.96221,            0.,NA,NA,"",       7.52799,       7.52662,  -143.521E-03,   21.2219E-03
C:/temp/dataset/3/14_7.odb,Step-1,Increment      2: Step Time =    1.000,"PART-1-1",           142,      -1.77433,       3.17490,            0.,NA,NA,"",       6.93792,       6.32451,       2.85224,   1.02638E-03
C:/temp/dataset/3/14_7.odb,Step-1,Increment      2: Step Time =    1.000,"PART-1-1",           143,   347.975E-03,       3.01142,            0.,NA,NA,"",       6.54511,       6.16644,       2.19397,   1.76749E-03
C:/temp/dataset/3/14_7.odb,Step-1,Increment      2: Step Time =    1.000,"PART-1-1",           144,      -8.17775,       2.85153,            0.,NA,NA,"",       8.17473,       6.55060,       4.89039,   134.973E-06
C:/temp/dataset/3/14_7.odb,Step-1,Increment      2: Step Time =    1.000,"PART-1-1",           145,      -8.45397,      -3.03463,            0.,NA,NA,"",       7.07262,       4.70672,       5.27908,   110.261E-06
C:/temp/dataset/3/14_7.odb,Step-1,Increment      2: Step Time =    1.000,"PART-1-1",           146,      -12.6978,       2.46856,            0.,NA,NA,"",       9.19384,       6.66091,       6.33712,   5.53932E-06
C:/temp/dataset/3/14_7.odb,Step-1,Increment      2: Step Time =    1.000,"PART-1-1",           147,      -10.5225,      -2.72745,            0.,NA,NA,"",       7.68791,       4.90942,       5.91622,   36.4079E-06
C:/temp/dataset/3/14_7.odb,Step-1,Increment      2: Step Time =    1.000,"PART-1-1",           148,      -12.7265,      -2.55241,            0.,NA,NA,"",       8.32940,       5.07735,       6.60299,   5.21420E-06
C:/temp/dataset/3/14_7.odb,Step-1,Increment      2: Step Time =    1.000,"PART-1-1",           149,      -3.80700,      -2.48494,            0.,NA,NA,"",       5.99020,       4.64326,       3.78454,   738.332E-06
C:/temp/dataset/3/14_7.odb,Step-1,Increment      2: Step Time =    1.000,"PART-1-1",           150,      -6.26959,      -2.94549,            0.,NA,NA,"",       6.51147,       4.62326,       4.58527,   315.750E-06
C:/temp/dataset/3/14_7.odb,Step-1,Increment      2: Step Time =    1.000,"PART-1-1",           151,       2.97297,      -3.34056,            0.,NA,NA,"",       4.34723,       4.01544,       1.66571,   14.1316E-03
C:/temp/dataset/3/14_7.odb,Step-1,Increment      2: Step Time =    1.000,"PART-1-1",           152,   836.982E-03,      -3.21922,            0.,NA,NA,"",       4.78794,       4.17129,       2.35047,   2.33523E-03
C:/temp/dataset/3/14_7.odb,Step-1,Increment      2: Step Time =    1.000,"PART-1-1",           153,       7.27849,      -10.7647,            0.,NA,NA,"",       1.76554,       1.72818,   361.270E-03,   40.8694E-03
C:/temp/dataset/3/14_7.odb,Step-1,Increment      2: Step Time =    1.000,"PART-1-1",           154,       7.20650,      -8.25133,            0.,NA,NA,"",       2.37241,       2.34030,   389.040E-03,   38.3234E-03
C:/temp/dataset/3/14_7.odb,Step-1,Increment      2: Step Time =    1.000,"PART-1-1",           155,       7.07274,      -17.3233,            0.,NA,NA,"",   573.085E-03,   518.391E-03,   244.331E-03,   55.4005E-03
C:/temp/dataset/3/14_7.odb,Step-1,Increment      2: Step Time =    1.000,"PART-1-1",           156,       6.55788,      -15.2577,            0.,NA,NA,"",   939.173E-03,   857.545E-03,   382.964E-03,   60.7311E-03
C:/temp/dataset/3/14_7.odb,Step-1,Increment      2: Step Time =    1.000,"PART-1-1",           157,      -7.46685,      -22.5818,            0.,NA,NA,"",   48.1065E-03,   48.0726E-03,  -1.80422E-03,   2.53366E-03
C:/temp/dataset/3/14_7.odb,Step-1,Increment      2: Step Time =    1.000,"PART-1-1",           158,      -4.95694,      -22.5955,            0.,NA,NA,"",   54.0701E-03,   54.0586E-03,   1.11106E-03,   4.13191E-03
C:/temp/dataset/3/14_7.odb,Step-1,Increment      2: Step Time =    1.000,"PART-1-1",           159,   146.162E-03,      -22.6598,            0.,NA,NA,"",   88.0394E-03,   79.3024E-03,   38.2370E-03,   15.8732E-03
C:/temp/dataset/3/14_7.odb,Step-1,Increment      2: Step Time =    1.000,"PART-1-1",           160,      -12.4860,      -22.5306,            0.,NA,NA,"",   43.9883E-03,   43.6449E-03,   5.48527E-03,   444.568E-06
C:/temp/dataset/3/14_7.odb,Step-1,Increment      2: Step Time =    1.000,"PART-1-1",           161,       9.96020,      -27.7814,            0.,NA,NA,"",   31.8647E-03,  -28.0636E-03,  -15.0928E-03,   13.2717E-03
C:/temp/dataset/3/14_7.odb,Step-1,Increment      2: Step Time =    1.000,"PART-1-1",           162,       7.44077,      -27.8946,            0.,NA,NA,"",   21.4811E-03,  -17.5616E-03,   12.3704E-03,   12.8025E-03
C:/temp/dataset/3/14_7.odb,Step-1,Increment      2: Step Time =    1.000,"PART-1-1",           163,       4.93217,      -27.8625,            0.,NA,NA,"",   25.1262E-03,   3.59488E-03,   24.8677E-03,   17.9070E-03
C:/temp/dataset/3/14_7.odb,Step-1,Increment      2: Step Time =    1.000,"PART-1-1",           164,       2.47767,      -27.7470,            0.,NA,NA,"",   32.5992E-03,   22.2762E-03,   23.8008E-03,   16.9777E-03
C:/temp/dataset/3/14_7.odb,Step-1,Increment      2: Step Time =    1.000,"PART-1-1",           165,   19.5837E-03,      -27.6625,            0.,NA,NA,"",   34.4287E-03,   30.6786E-03,   15.6256E-03,   13.2182E-03
C:/temp/dataset/3/14_7.odb,Step-1,Increment      2: Step Time =    1.000,"PART-1-1",           166,      -2.46955,      -27.6154,            0.,NA,NA,"",   31.6551E-03,   30.6182E-03,   8.03552E-03,   9.82354E-03
C:/temp/dataset/3/14_7.odb,Step-1,Increment      2: Step Time =    1.000,"PART-1-1",           167,      -4.97450,      -27.5844,            0.,NA,NA,"",   26.8258E-03,   26.6184E-03,   3.32939E-03,   7.43415E-03
C:/temp/dataset/3/14_7.odb,Step-1,Increment      2: Step Time =    1.000,"PART-1-1",           168,      -7.48283,      -27.5594,            0.,NA,NA,"",   22.1807E-03,   22.1415E-03,   1.31860E-03,   5.86070E-03
C:/temp/dataset/3/14_7.odb,Step-1,Increment      2: Step Time =    1.000,"PART-1-1",           169,       12.2865,      -25.1793,            0.,NA,NA,"",   116.378E-03,  -499.607E-06,  -116.377E-03,   34.3131E-03
C:/temp/dataset/3/14_7.odb,Step-1,Increment      2: Step Time =    1.000,"PART-1-1",           170,       11.6753,      -16.4340,            0.,NA,NA,"",   680.572E-03,   591.265E-03,  -337.022E-03,   26.3726E-03
C:/temp/dataset/3/14_7.odb,Step-1,Increment      2: Step Time =    1.000,"PART-1-1",           171,       11.9685,      -19.5802,            0.,NA,NA,"",   360.190E-03,   243.498E-03,  -265.416E-03,   33.6683E-03
C:/temp/dataset/3/14_7.odb,Step-1,Increment      2: Step Time =    1.000,"PART-1-1",           172,       13.3291,      -9.93034,            0.,NA,NA,"",       2.02143,       1.77847,  -960.844E-03,   44.3663E-03
C:/temp/dataset/3/14_7.odb,Step-1,Increment      2: Step Time =    1.000,"PART-1-1",           173,       13.4212,      -12.1607,            0.,NA,NA,"",       1.55512,       1.31117,  -836.188E-03,   48.9127E-03
C:/temp/dataset/3/14_7.odb,Step-1,Increment      2: Step Time =    1.000,"PART-1-1",           174,       12.9633,      -2.52247,            0.,NA,NA,"",       3.99246,       3.74747,      -1.37704,   28.5481E-03
C:/temp/dataset/3/14_7.odb,Step-1,Increment      2: Step Time =    1.000,"PART-1-1",           175,       13.1247,      -4.84738,            0.,NA,NA,"",       3.31614,       3.06817,      -1.25824,   34.6757E-03
C:/temp/dataset/3/14_7.odb,Step-1,Increment      2: Step Time =    1.000,"PART-1-1",           176,       13.1131,       5.12757,            0.,NA,NA,"",       6.49089,       6.17787,      -1.99138,   21.2556E-03
C:/temp/dataset/3/14_7.odb,Step-1,Increment      2: Step Time =    1.000,"PART-1-1",           177,       12.1418,       2.60140,            0.,NA,NA,"",       5.58677,       5.38786,      -1.47750,   15.9458E-03
C:/temp/dataset/3/14_7.odb,Step-1,Increment      2: Step Time =    1.000,"PART-1-1",           178,       12.1760,       12.1629,            0.,NA,NA,"",       9.03673,       8.75772,      -2.22819,   12.3542E-03
C:/temp/dataset/3/14_7.odb,Step-1,Increment      2: Step Time =    1.000,"PART-1-1",           179,       13.0236,       9.64002,            0.,NA,NA,"",       8.10879,       7.76714,      -2.32895,   17.0865E-03
C:/temp/dataset/3/14_7.odb,Step-1,Increment      2: Step Time =    1.000,"PART-1-1",           180,       12.3784,       20.0377,            0.,NA,NA,"",       12.1766,       11.8078,      -2.97389,   6.54836E-03
C:/temp/dataset/3/14_7.odb,Step-1,Increment      2: Step Time =    1.000,"PART-1-1",           181,       12.3660,       17.5135,            0.,NA,NA,"",       11.1573,       10.8119,      -2.75443,   8.93865E-03
C:/temp/dataset/3/14_7.odb,Step-1,Increment      2: Step Time =    1.000,"PART-1-1",           182,       12.4264,       25.0333,            0.,NA,NA,"",       14.1971,       13.7823,      -3.40680,   1.67958E-03
C:/temp/dataset/3/14_7.odb,Step-1,Increment      2: Step Time =    1.000,"PART-1-1",           183,       7.43491,       27.5684,            0.,NA,NA,"",       15.2765,       15.1869,      -1.65256,   1.15981E-03
C:/temp/dataset/3/14_7.odb,Step-1,Increment      2: Step Time =    1.000,"PART-1-1",           184,  -17.4965E-03,       27.5503,            0.,NA,NA,"",       15.8302,       15.7799,       1.26073,   964.101E-06
C:/temp/dataset/3/14_7.odb,Step-1,Increment      2: Step Time =    1.000,"PART-1-1",           185,       2.47067,       27.5656,            0.,NA,NA,"",       15.5902,       15.5874,   291.018E-03,   1.14664E-03
C:/temp/dataset/3/14_7.odb,Step-1,Increment      2: Step Time =    1.000,"PART-1-1",           186,      -7.50286,       27.5043,            0.,NA,NA,"",       16.8631,       16.3456,       4.14579,   884.053E-06
C:/temp/dataset/3/14_7.odb,Step-1,Increment      2: Step Time =    1.000,"PART-1-1",           187,      -5.00635,       27.5119,            0.,NA,NA,"",       16.4680,       16.1562,       3.18963,   905.287E-06
C:/temp/dataset/3/14_7.odb,Step-1,Increment      2: Step Time =    1.000,"PART-1-1",           188,      -12.5019,       27.5019,            0.,NA,NA,"",       17.7805,       16.7218,       6.04372,   926.459E-06
C:/temp/dataset/3/14_7.odb,Step-1,Increment      2: Step Time =    1.000,"PART-1-1",           189,      -12.5001,       22.5034,            0.,NA,NA,"",       16.1573,       14.8336,       6.40489,   7.13091E-03
C:/temp/dataset/3/14_7.odb,Step-1,Increment      2: Step Time =    1.000,"PART-1-1",           190,      -5.00429,       25.0191,            0.,NA,NA,"",       15.5686,       15.1978,       3.37780,   3.44918E-03
C:/temp/dataset/3/14_7.odb,Step-1,Increment      2: Step Time =    1.000,"PART-1-1",           191,  -15.9173E-03,       25.0642,            0.,NA,NA,"",       14.8852,       14.8141,       1.45315,   3.14452E-03
C:/temp/dataset/3/14_7.odb,Step-1,Increment      2: Step Time =    1.000,"PART-1-1",           192,       9.74355,       15.0604,            0.,NA,NA,"",       10.1641,       10.0450,      -1.55165,   9.49902E-03
C:/temp/dataset/3/14_7.odb,Step-1,Increment      2: Step Time =    1.000,"PART-1-1",           193,       9.51986,       12.6989,            0.,NA,NA,"",       9.23602,       9.14596,      -1.28669,   9.66767E-03
C:/temp/dataset/3/14_7.odb,Step-1,Increment      2: Step Time =    1.000,"PART-1-1",           194,       12.1898,      -11.7554,            0.,NA,NA,"",       1.52441,       1.39573,  -612.985E-03,   30.7432E-03
C:/temp/dataset/3/14_7.odb,Step-1,Increment      2: Step Time =    1.000,"PART-1-1",           195,       9.78251,      -13.4248,            0.,NA,NA,"",       1.10531,       1.09949,  -113.343E-03,   11.0040E-03
C:/temp/dataset/3/14_7.odb,Step-1,Increment      2: Step Time =    1.000,"PART-1-1",           196,       7.24032,      -19.5057,            0.,NA,NA,"",   290.341E-03,   241.420E-03,   161.289E-03,   30.7096E-03
C:/temp/dataset/3/14_7.odb,Step-1,Increment      2: Step Time =    1.000,"PART-1-1",           197,      -10.0066,  -139.817E-03,            0.,NA,NA,"",       8.00525,       5.69992,       5.62094,   67.1923E-06
C:/temp/dataset/3/14_7.odb,Step-1,Increment      2: Step Time =    1.000,"PART-1-1",           198,      -8.39380,      -1.43672,            0.,NA,NA,"",       7.34433,       5.20815,       5.17826,   138.059E-06
C:/temp/dataset/3/14_7.odb,Step-1,Increment      2: Step Time =    1.000,"PART-1-1",           199,      -5.07121,  -530.035E-03,            0.,NA,NA,"",       6.71024,       5.32524,       4.08280,   554.551E-06
C:/temp/dataset/3/14_7.odb,Step-1,Increment      2: Step Time =    1.000,"PART-1-1",           200,      -12.5003,      -27.5198,            0.,NA,NA,"",   17.7200E-03,   17.3915E-03,   3.39656E-03,   4.45227E-03
C:/temp/dataset/3/14_7.odb,Step-1,Increment      2: Step Time =    1.000,"PART-1-1",           201,       8.97180,      -8.86122,            0.,NA,NA,"",       2.11664,       2.11658,  -16.2566E-03,   15.4314E-03
C:/temp/dataset/3/14_7.odb,Step-1,Increment      2: Step Time =    1.000,"PART-1-1",           202,      -2.50561,       25.0360,            0.,NA,NA,"",       15.1978,       15.0044,       2.41689,   3.37030E-03
C:/temp/dataset/3/14_7.odb,Step-1,Increment      2: Step Time =    1.000,"PART-1-1",           203,      -7.50383,       25.0106,            0.,NA,NA,"",       15.9906,       15.3924,       4.33300,   3.47316E-03
C:/temp/dataset/3/14_7.odb,Step-1,Increment      2: Step Time =    1.000,"PART-1-1",           204,       2.46362,       25.0850,            0.,NA,NA,"",       14.6283,       14.6202,   488.309E-03,   2.86228E-03
C:/temp/dataset/3/14_7.odb,Step-1,Increment      2: Step Time =    1.000,"PART-1-1",           205,       9.17638,       10.5785,            0.,NA,NA,"",       8.42398,       8.36346,      -1.00798,   9.79091E-03
C:/temp/dataset/3/14_7.odb,Step-1,Increment      2: Step Time =    1.000,"PART-1-1",           206,       9.65111,       6.46520,            0.,NA,NA,"",       6.88858,       6.82970,  -898.731E-03,   6.73472E-03
C:/temp/dataset/3/14_7.odb,Step-1,Increment      2: Step Time =    1.000,"PART-1-1",           207,      -1.99278,       1.34592,            0.,NA,NA,"",       6.50180,       5.76102,       3.01398,   1.02718E-03
C:/temp/dataset/3/14_7.odb,Step-1,Increment      2: Step Time =    1.000,"PART-1-1",           208,      -5.69490,       1.29843,            0.,NA,NA,"",       7.26157,       5.93381,       4.18572,   440.949E-06
C:/temp/dataset/3/14_7.odb,Step-1,Increment      2: Step Time =    1.000,"PART-1-1",           209,       1.92780,   665.778E-03,            0.,NA,NA,"",       5.64706,       5.34721,       1.81566,   6.11089E-03
C:/temp/dataset/3/14_7.odb,Step-1,Increment      2: Step Time =    1.000,"PART-1-1",           210,       1.26043,      -1.37778,            0.,NA,NA,"",       5.18789,       4.73422,       2.12165,   3.27440E-03
C:/temp/dataset/3/14_7.odb,Step-1,Increment      2: Step Time =    1.000,"PART-1-1",           211,       9.14691,      -16.8280,            0.,NA,NA,"",   546.139E-03,   546.139E-03,  -631.455E-06,   15.5721E-03
C:/temp/dataset/3/14_7.odb,Step-1,Increment      2: Step Time =    1.000,"PART-1-1",           212,   79.9954E-03,      -25.2148,            0.,NA,NA,"",   66.1428E-03,   58.0053E-03,   31.7844E-03,   14.7826E-03
C:/temp/dataset/3/14_7.odb,Step-1,Increment      2: Step Time =    1.000,"PART-1-1",           213,      -9.97865,      -25.0679,            0.,NA,NA,"",   34.2839E-03,   34.2736E-03,   839.424E-06,   3.18057E-03
C:/temp/dataset/3/14_7.odb,Step-1,Increment      2: Step Time =    1.000,"PART-1-1",           214,       12.4671,      -27.6040,            0.,NA,NA,"",   57.6301E-03,  -12.8645E-03,  -56.1759E-03,   32.6438E-03
C:/temp/dataset/3/14_7.odb,Step-1,Increment      2: Step Time =    1.000,"PART-1-1",           215,       9.82463,      -25.6838,            0.,NA,NA,"",   31.7854E-03,  -20.8399E-03,  -24.0001E-03,   14.8808E-03
C:/temp/dataset/3/14_7.odb,Step-1,Increment      2: Step Time =    1.000,"PART-1-1",           216,       2.56344,      -25.3828,            0.,NA,NA,"",   76.7736E-03,   52.1046E-03,   56.3852E-03,   22.7108E-03
C:/temp/dataset/3/14_7.odb,Step-1,Increment      2: Step Time =    1.000,"PART-1-1",           217,      -2.44121,      -25.1518,            0.,NA,NA,"",   54.1901E-03,   52.6564E-03,   12.8010E-03,   9.46540E-03
C:/temp/dataset/3/14_7.odb,Step-1,Increment      2: Step Time =    1.000,"PART-1-1",           218,      -4.95889,      -25.1139,            0.,NA,NA,"",   45.2795E-03,   45.1435E-03,   3.50623E-03,   6.18310E-03
C:/temp/dataset/3/14_7.odb,Step-1,Increment      2: Step Time =    1.000,"PART-1-1",           219,       10.3279,  -771.646E-03,            0.,NA,NA,"",       4.44926,       4.39381,  -700.239E-03,   11.6933E-03
C:/temp/dataset/3/14_7.odb,Step-1,Increment      2: Step Time =    1.000,"PART-1-1",           220,       10.4049,       4.48083,            0.,NA,NA,"",       6.18810,       6.10234,      -1.02666,   6.64209E-03
C:/temp/dataset/3/14_7.odb,Step-1,Increment      2: Step Time =    1.000,"PART-1-1",           221,       9.80969,       17.5478,            0.,NA,NA,"",       11.1619,       11.0197,      -1.77586,   9.58796E-03
C:/temp/dataset/3/14_7.odb,Step-1,Increment      2: Step Time =    1.000,"PART-1-1",           222,       9.88106,       25.0797,            0.,NA,NA,"",       14.2131,       14.0069,      -2.41259,   2.58170E-03
C:/temp/dataset/3/14_7.odb,Step-1,Increment      2: Step Time =    1.000,"PART-1-1",           223,       9.94975,       27.5346,            0.,NA,NA,"",       15.1999,       14.9694,      -2.63666,   898.785E-06
C:/temp/dataset/3/14_7.odb,Step-1,Increment      2: Step Time =    1.000,"PART-1-1",           224,       7.36779,       20.0596,            0.,NA,NA,"",       12.2619,       12.2180,      -1.03565,   10.3415E-03
C:/temp/dataset/3/14_7.odb,Step-1,Increment      2: Step Time =    1.000,"PART-1-1",           225,  -693.206E-03,      -1.01900,            0.,NA,NA,"",       5.64936,       4.94907,       2.72434,   1.15550E-03
C:/temp/dataset/3/14_7.odb,Step-1,Increment      2: Step Time =    1.000,"PART-1-1",           226,      -7.47194,      -25.0831,            0.,NA,NA,"",   38.6333E-03,   38.6325E-03,   248.204E-06,   4.48877E-03
C:/temp/dataset/3/14_7.odb,Step-1,Increment      2: Step Time =    1.000,"PART-1-1",           227,       5.28089,       2.25097,            0.,NA,NA,"",       5.71283,       5.66716,   720.894E-03,   25.1673E-03
C:/temp/dataset/3/14_7.odb,Step-1,Increment      2: Step Time =    1.000,"PART-1-1",           228,       9.26575,       8.45073,            0.,NA,NA,"",       7.61946,       7.56670,  -895.051E-03,   10.2310E-03
C:/temp/dataset/3/14_7.odb,Step-1,Increment      2: Step Time =    1.000,"PART-1-1",           229,  -81.3472E-03,       1.02952,            0.,NA,NA,"",       6.07165,       5.56517,       2.42772,   1.27573E-03
C:/temp/dataset/3/14_7.odb,Step-1,Increment      2: Step Time =    1.000,"PART-1-1",           230,      -7.67687,   831.326E-03,            0.,NA,NA,"",       7.61879,       5.88749,       4.83564,   203.978E-06
C:/temp/dataset/3/14_7.odb,Step-1,Increment      2: Step Time =    1.000,"PART-1-1",           231,      -2.54090,  -531.417E-03,            0.,NA,NA,"",       6.14730,       5.19685,       3.28360,   993.319E-06
C:/temp/dataset/3/14_7.odb,Step-1,Increment      2: Step Time =    1.000,"PART-1-1",           232,      -3.83997,       1.55066,            0.,NA,NA,"",       6.92098,       5.91901,       3.58681,   716.862E-06
C:/temp/dataset/3/14_7.odb,Step-1,Increment      2: Step Time =    1.000,"PART-1-1",           233,      -6.84494,  -996.203E-03,            0.,NA,NA,"",       7.03798,       5.26825,       4.66676,   302.304E-06
C:/temp/dataset/3/14_7.odb,Step-1,Increment      2: Step Time =    1.000,"PART-1-1",           234,       5.51335,      -3.03354,            0.,NA,NA,"",       4.03398,       3.95026,   817.577E-03,   34.7442E-03
C:/temp/dataset/3/14_7.odb,Step-1,Increment      2: Step Time =    1.000,"PART-1-1",           235,       9.62476,      -7.14735,            0.,NA,NA,"",       2.54387,       2.53462,  -216.789E-03,   11.9001E-03
C:/temp/dataset/3/14_7.odb,Step-1,Increment      2: Step Time =    1.000,"PART-1-1",           236,       7.38903,      -25.9371,            0.,NA,NA,"",   35.3604E-03,  -8.04324E-03,   34.4334E-03,   17.5001E-03
C:/temp/dataset/3/14_7.odb,Step-1,Increment      2: Step Time =    1.000,"PART-1-1",           237,       4.96373,      -25.7856,            0.,NA,NA,"",   66.2074E-03,   23.4289E-03,   61.9234E-03,   25.1025E-03
C:/temp/dataset/3/14_7.odb,Step-1,Increment      2: Step Time =    1.000,"PART-1-1",           238,       9.37191,      -21.3805,            0.,NA,NA,"",   102.582E-03,   101.762E-03,  -12.9397E-03,   12.9869E-03
C:/temp/dataset/3/14_7.odb,Step-1,Increment      2: Step Time =    1.000,"PART-1-1",           239,       9.53380,      -19.3691,            0.,NA,NA,"",   249.776E-03,   247.155E-03,  -36.0858E-03,   7.25740E-03
C:/temp/dataset/3/14_7.odb,Step-1,Increment      2: Step Time =    1.000,"PART-1-1",           240,       10.5518,      -5.76730,            0.,NA,NA,"",       2.92606,       2.88128,  -509.973E-03,   15.2286E-03
C:/temp/dataset/3/14_7.odb,Step-1,Increment      2: Step Time =    1.000,"PART-1-1",           241,       10.8494,      -2.88140,            0.,NA,NA,"",       3.78848,       3.71552,  -739.894E-03,   16.5092E-03
C:/temp/dataset/3/14_7.odb,Step-1,Increment      2: Step Time =    1.000,"PART-1-1",           242,       9.33979,       1.27198,            0.,NA,NA,"",       5.12575,       5.10127,  -500.314E-03,   9.31822E-03
C:/temp/dataset/3/14_7.odb,Step-1,Increment      2: Step Time =    1.000,"PART-1-1",           243,       9.83335,       20.0603,            0.,NA,NA,"",       12.1808,       12.0173,      -1.98932,   8.19609E-03
C:/temp/dataset/3/14_7.odb,Step-1,Increment      2: Step Time =    1.000,"PART-1-1",           244,       7.39102,       25.1069,            0.,NA,NA,"",       14.2949,       14.2222,      -1.44005,   3.02699E-03
C:/temp/dataset/3/14_7.odb,Step-1,Increment      2: Step Time =    1.000,"PART-1-1",           245,       4.93408,       25.0979,            0.,NA,NA,"",       14.4298,       14.4219,  -477.571E-03,   3.10442E-03
C:/temp/dataset/3/14_7.odb,Step-1,Increment      2: Step Time =    1.000,"PART-1-1",           246,      -10.0026,       25.0068,            0.,NA,NA,"",       16.4573,       15.5866,       5.28226,   3.48823E-03
C:/temp/dataset/3/14_7.odb,Step-1,Increment      2: Step Time =    1.000,"PART-1-1",           247,      -10.0008,       22.5051,            0.,NA,NA,"",       15.6211,       14.6344,       5.46373,   6.21774E-03
C:/temp/dataset/3/14_7.odb,Step-1,Increment      2: Step Time =    1.000,"PART-1-1",           248,      -9.99283,      -27.5363,            0.,NA,NA,"",   18.6795E-03,   18.6448E-03,   1.13892E-03,   4.87734E-03
C:/temp/dataset/3/14_7.odb,Step-1,Increment      2: Step Time =    1.000,"PART-1-1",           249,       3.80746,   187.829E-03,            0.,NA,NA,"",       5.24041,       5.08906,       1.25034,   16.2371E-03
C:/temp/dataset/3/14_7.odb,Step-1,Increment      2: Step Time =    1.000,"PART-1-1",           250,       11.4886,       7.12458,            0.,NA,NA,"",       7.13293,       6.95559,      -1.58065,   12.2295E-03
C:/temp/dataset/3/14_7.odb,Step-1,Increment      2: Step Time =    1.000,"PART-1-1",           251,       5.25951,      -23.9756,            0.,NA,NA,"",   112.775E-03,   51.7832E-03,   100.184E-03,   32.8931E-03
C:/temp/dataset/3/14_7.odb,Step-1,Increment      2: Step Time =    1.000,"PART-1-1",           252,       9.85798,       22.5791,            0.,NA,NA,"",       13.2032,       13.0182,      -2.20260,   5.34998E-03
C:/temp/dataset/3/14_7.odb,Step-1,Increment      2: Step Time =    1.000,"PART-1-1",           253,       7.38133,       22.5911,            0.,NA,NA,"",       13.2861,       13.2282,      -1.23890,   6.45825E-03
C:/temp/dataset/3/14_7.odb,Step-1,Increment      2: Step Time =    1.000,"PART-1-1",           254,       9.03817,      -10.9527,            0.,NA,NA,"",       1.62462,       1.62462,  -1.35788E-03,   17.8554E-03
C:/temp/dataset/3/14_7.odb,Step-1,Increment      2: Step Time =    1.000,"PART-1-1",           255,       7.30212,      -21.2110,            0.,NA,NA,"",   169.302E-03,   114.229E-03,   124.959E-03,   27.1256E-03
C:/temp/dataset/3/14_7.odb,Step-1,Increment      2: Step Time =    1.000,"PART-1-1",           256,       8.48263,      -3.88795,            0.,NA,NA,"",       3.51128,       3.51115,  -29.3906E-03,   21.1276E-03
C:/temp/dataset/3/14_7.odb,Step-1,Increment      2: Step Time =    1.000,"PART-1-1",           257,       8.48912,      -1.65164,            0.,NA,NA,"",       4.21059,       4.20905,  -113.832E-03,   19.4415E-03
C:/temp/dataset/3/14_7.odb,Step-1,Increment      2: Step Time =    1.000,"PART-1-1",           258,       8.19007,       3.36514,            0.,NA,NA,"",       5.86102,       5.85633,  -234.379E-03,   10.8551E-03
C:/temp/dataset/3/14_7.odb,Step-1,Increment      2: Step Time =    1.000,"PART-1-1",           259,       6.78208,  -317.133E-03,            0.,NA,NA,"",       4.75249,       4.73953,   350.682E-03,   23.2780E-03
C:/temp/dataset/3/14_7.odb,Step-1,Increment      2: Step Time =    1.000,"PART-1-1",           260,       11.8604,      -10.2109,            0.,NA,NA,"",       1.83719,       1.73014,  -617.959E-03,   25.6289E-03
C:/temp/dataset/3/14_7.odb,Step-1,Increment      2: Step Time =    1.000,"PART-1-1",           261,       5.00218,  -627.613E-03,            0.,NA,NA,"",       4.83858,       4.75271,   907.537E-03,   22.8335E-03
C:/temp/dataset/3/14_7.odb,Step-1,Increment      2: Step Time =    1.000,"PART-1-1",           262,       11.1460,      -8.45072,            0.,NA,NA,"",       2.22408,       2.15850,  -536.124E-03,   17.7911E-03
C:/temp/dataset/3/14_7.odb,Step-1,Increment      2: Step Time =    1.000,"PART-1-1",           263,       11.7180,       5.54683,            0.,NA,NA,"",       6.57793,       6.39408,      -1.54429,   13.0426E-03
C:/temp/dataset/3/14_7.odb,Step-1,Increment      2: Step Time =    1.000,"PART-1-1",           264,       5.25136,      -21.5985,            0.,NA,NA,"",   207.746E-03,   116.735E-03,   171.847E-03,   51.4860E-03
C:/temp/dataset/3/14_7.odb,Step-1,Increment      2: Step Time =    1.000,"PART-1-1",           265,       12.4723,       27.5096,            0.,NA,NA,"",       15.1944,       14.7555,      -3.62594,   395.444E-06
C:/temp/dataset/3/14_7.odb,Step-1,Increment      2: Step Time =    1.000,"PART-1-1",           266,       5.87727,      -22.7682,            0.,NA,NA,"",   149.196E-03,   74.9838E-03,   128.984E-03,   35.4869E-03
C:/temp/dataset/3/14_7.odb,Step-1,Increment      2: Step Time =    1.000,"PART-1-1",           267,       7.32369,      -22.7299,            0.,NA,NA,"",   106.706E-03,   55.0122E-03,   91.4319E-03,   26.1391E-03
C:/temp/dataset/3/14_7.odb,Step-1,Increment      2: Step Time =    1.000,"PART-1-1",           268,       11.4923,      -4.55460,            0.,NA,NA,"",       3.30189,       3.19687,  -826.129E-03,   21.3360E-03
C:/temp/dataset/3/14_7.odb,Step-1,Increment      2: Step Time =    1.000,"PART-1-1",           269,       11.2115,       8.96325,            0.,NA,NA,"",       7.80210,       7.63183,      -1.62106,   10.8342E-03
C:/temp/dataset/3/14_7.odb,Step-1,Increment      2: Step Time =    1.000,"PART-1-1",           270,       10.8046,       10.5255,            0.,NA,NA,"",       8.38678,       8.23401,      -1.59347,   9.84316E-03
C:/temp/dataset/3/14_7.odb,Step-1,Increment      2: Step Time =    1.000,"PART-1-1",           271,       7.35536,      -24.2380,            0.,NA,NA,"",   63.0916E-03,   17.3558E-03,   60.6574E-03,   21.8656E-03
C:/temp/dataset/3/14_7.odb,Step-1,Increment      2: Step Time =    1.000,"PART-1-1",           272,      -3.82134,   150.711E-03,            0.,NA,NA,"",       6.58325,       5.47679,       3.65294,   780.287E-06
C:/temp/dataset/3/14_7.odb,Step-1,Increment      2: Step Time =    1.000,"PART-1-1",           273,       3.09609,      -1.70207,            0.,NA,NA,"",       4.78666,       4.52943,       1.54803,   13.3059E-03
C:/temp/dataset/3/14_7.odb,Step-1,Increment      2: Step Time =    1.000,"PART-1-1",           274,       4.56419,      -1.78689,            0.,NA,NA,"",       4.54159,       4.41095,       1.08148,   22.2835E-03
C:/temp/dataset/3/14_7.odb,Step-1,Increment      2: Step Time =    1.000,"PART-1-1",           275,       9.44492,      -23.8624,            0.,NA,NA,"",   17.7993E-03,   10.1692E-03,  -14.6083E-03,   15.5493E-03
C:/temp/dataset/3/14_7.odb,Step-1,Increment      2: Step Time =    1.000,"PART-1-1",           276,       8.77427,      -22.6651,            0.,NA,NA,"",   51.9234E-03,   46.8820E-03,   22.3186E-03,   16.0669E-03
C:/temp/dataset/3/14_7.odb,Step-1,Increment      2: Step Time =    1.000,"PART-1-1",           277,       10.1837,      -9.28900,            0.,NA,NA,"",       1.99734,       1.97725,  -282.607E-03,   10.0739E-03
C:/temp/dataset/3/14_7.odb,Step-1,Increment      2: Step Time =    1.000,"PART-1-1",           278,       10.4979,      -10.7612,            0.,NA,NA,"",       1.65939,       1.63086,  -306.411E-03,   10.8152E-03
C:/temp/dataset/3/14_7.odb,Step-1,Increment      2: Step Time =    1.000,"PART-1-1",           279,       11.2325,      -12.6180,            0.,NA,NA,"",       1.29327,       1.23208,  -393.102E-03,   18.1062E-03
C:/temp/dataset/3/14_7.odb,Step-1,Increment      2: Step Time =    1.000,"PART-1-1",           280,      -13.7500,       22.5017,            0.,NA,NA,"",       16.4381,       14.9321,       6.87340,   7.14947E-03
C:/temp/dataset/3/14_7.odb,Step-1,Increment      2: Step Time =    1.000,"PART-1-1",           281,          -15.,         21.25,            0.,NA,NA,"",       16.3446,       14.5571,       7.43207,   6.76413E-03
C:/temp/dataset/3/14_7.odb,Step-1,Increment      2: Step Time =    1.000,"PART-1-1",           282,        -13.75,           20.,            0.,NA,NA,"",       15.6610,       13.9834,       7.05210,   7.35875E-03
C:/temp/dataset/3/14_7.odb,Step-1,Increment      2: Step Time =    1.000,"PART-1-1",           283,      -12.5000,       21.2517,            0.,NA,NA,"",       15.7585,       14.3581,       6.49414,   7.33623E-03
C:/temp/dataset/3/14_7.odb,Step-1,Increment      2: Step Time =    1.000,"PART-1-1",           284,        -11.25,           30.,            0.,NA,NA,"",       18.3811,       17.5751,       5.38330,   1.30422E-03
C:/temp/dataset/3/14_7.odb,Step-1,Increment      2: Step Time =    1.000,"PART-1-1",           285,      -12.5009,       28.7510,            0.,NA,NA,"",       18.1949,       17.1945,       5.95011,   718.930E-06
C:/temp/dataset/3/14_7.odb,Step-1,Increment      2: Step Time =    1.000,"PART-1-1",           286,      -11.2523,       27.5017,            0.,NA,NA,"",       17.5371,       16.6287,       5.57116,   498.379E-06
C:/temp/dataset/3/14_7.odb,Step-1,Increment      2: Step Time =    1.000,"PART-1-1",           287,      -10.0014,       28.7507,            0.,NA,NA,"",       17.7297,       17.0091,       5.00335,   439.281E-06
C:/temp/dataset/3/14_7.odb,Step-1,Increment      2: Step Time =    1.000,"PART-1-1",           288,      -8.75282,       27.5029,            0.,NA,NA,"",       17.0779,       16.4404,       4.62232,   808.610E-06
C:/temp/dataset/3/14_7.odb,Step-1,Increment      2: Step Time =    1.000,"PART-1-1",           289,      -10.0027,       26.2541,            0.,NA,NA,"",       16.8785,       16.0607,       5.19031,   2.07289E-03
C:/temp/dataset/3/14_7.odb,Step-1,Increment      2: Step Time =    1.000,"PART-1-1",           290,      -8.75320,       25.0087,            0.,NA,NA,"",       16.2189,       15.4897,       4.80827,   3.47774E-03
C:/temp/dataset/3/14_7.odb,Step-1,Increment      2: Step Time =    1.000,"PART-1-1",           291,      -7.50334,       26.2575,            0.,NA,NA,"",       16.4257,       15.8691,       4.23974,   2.16719E-03
C:/temp/dataset/3/14_7.odb,Step-1,Increment      2: Step Time =    1.000,"PART-1-1",           292,  -10.1921E-03,       23.8015,            0.,NA,NA,"",       14.4061,       14.3226,       1.54814,   4.48279E-03
C:/temp/dataset/3/14_7.odb,Step-1,Increment      2: Step Time =    1.000,"PART-1-1",           293,       1.23656,       22.5490,            0.,NA,NA,"",       13.7802,       13.7311,       1.16181,   5.66875E-03
C:/temp/dataset/3/14_7.odb,Step-1,Increment      2: Step Time =    1.000,"PART-1-1",           294,       2.47060,       23.8222,            0.,NA,NA,"",       14.1382,       14.1261,   584.027E-03,   4.12202E-03
C:/temp/dataset/3/14_7.odb,Step-1,Increment      2: Step Time =    1.000,"PART-1-1",           295,       1.22385,       25.0746,            0.,NA,NA,"",       14.7494,       14.7174,   971.384E-03,   3.04893E-03
C:/temp/dataset/3/14_7.odb,Step-1,Increment      2: Step Time =    1.000,"PART-1-1",           296,       13.7132,       25.0166,            0.,NA,NA,"",       14.2205,       13.6719,      -3.91163,   925.826E-06
C:/temp/dataset/3/14_7.odb,Step-1,Increment      2: Step Time =    1.000,"PART-1-1",           297,           15.,         26.25,            0.,NA,NA,"",       14.7633,       14.0545,      -4.51941,   180.064E-06
C:/temp/dataset/3/14_7.odb,Step-1,Increment      2: Step Time =    1.000,"PART-1-1",           298,       13.7362,       27.5048,            0.,NA,NA,"",       15.2205,       14.6514,      -4.12306,   145.016E-06
C:/temp/dataset/3/14_7.odb,Step-1,Increment      2: Step Time =    1.000,"PART-1-1",           299,       12.4494,       26.2714,            0.,NA,NA,"",       14.6961,       14.2692,      -3.51660,   1.02144E-03
C:/temp/dataset/3/14_7.odb,Step-1,Increment      2: Step Time =    1.000,"PART-1-1",           300,       6.19248,       27.5744,            0.,NA,NA,"",       15.3346,       15.2902,      -1.16585,   1.19667E-03
C:/temp/dataset/3/14_7.odb,Step-1,Increment      2: Step Time =    1.000,"PART-1-1",           301,       7.46746,       28.7842,            0.,NA,NA,"",       15.7606,       15.6617,      -1.76240,   606.095E-06
C:/temp/dataset/3/14_7.odb,Step-1,Increment      2: Step Time =    1.000,"PART-1-1",           302,          6.25,           30.,            0.,NA,NA,"",       16.2955,       16.2368,      -1.38201,   151.422E-06
C:/temp/dataset/3/14_7.odb,Step-1,Increment      2: Step Time =    1.000,"PART-1-1",           303,       4.97503,       28.7903,            0.,NA,NA,"",       15.8843,       15.8649,  -785.393E-03,   514.702E-06
C:/temp/dataset/3/14_7.odb,Step-1,Increment      2: Step Time =    1.000,"PART-1-1",           304,       11.0878,       17.5306,            0.,NA,NA,"",       11.1476,       10.9152,      -2.26416,   8.65020E-03
C:/temp/dataset/3/14_7.odb,Step-1,Increment      2: Step Time =    1.000,"PART-1-1",           305,       12.3722,       18.7756,            0.,NA,NA,"",       11.6661,       11.3090,      -2.86449,   7.74142E-03
C:/temp/dataset/3/14_7.odb,Step-1,Increment      2: Step Time =    1.000,"PART-1-1",           306,       11.1059,       20.0490,            0.,NA,NA,"",       12.1675,       11.9120,      -2.48067,   6.98201E-03
C:/temp/dataset/3/14_7.odb,Step-1,Increment      2: Step Time =    1.000,"PART-1-1",           307,       9.82152,       18.8041,            0.,NA,NA,"",       11.6706,       11.5178,      -1.88246,   8.88532E-03
C:/temp/dataset/3/14_7.odb,Step-1,Increment      2: Step Time =    1.000,"PART-1-1",           308,       9.63171,       13.8797,            0.,NA,NA,"",       9.69771,       9.59352,      -1.41773,   9.56422E-03
C:/temp/dataset/3/14_7.odb,Step-1,Increment      2: Step Time =    1.000,"PART-1-1",           309,       8.52517,       15.0687,            0.,NA,NA,"",       10.1988,       10.1401,      -1.09223,   9.35761E-03
C:/temp/dataset/3/14_7.odb,Step-1,Increment      2: Step Time =    1.000,"PART-1-1",           310,       7.25683,       13.8735,            0.,NA,NA,"",       9.78499,       9.77075,  -527.753E-03,   12.2469E-03
C:/temp/dataset/3/14_7.odb,Step-1,Increment      2: Step Time =    1.000,"PART-1-1",           311,       8.36336,       12.6844,            0.,NA,NA,"",       9.26468,       9.22489,  -857.739E-03,   10.5530E-03
C:/temp/dataset/3/14_7.odb,Step-1,Increment      2: Step Time =    1.000,"PART-1-1",           312,       14.0118,       9.82001,            0.,NA,NA,"",       8.23066,       7.77278,      -2.70696,   21.5598E-03
C:/temp/dataset/3/14_7.odb,Step-1,Increment      2: Step Time =    1.000,"PART-1-1",           313,           15.,         11.25,            0.,NA,NA,"",       8.83666,       8.23416,      -3.20705,   24.0506E-03
C:/temp/dataset/3/14_7.odb,Step-1,Increment      2: Step Time =    1.000,"PART-1-1",           314,       13.5880,       12.3315,            0.,NA,NA,"",       9.15660,       8.72723,      -2.77106,   16.0403E-03
C:/temp/dataset/3/14_7.odb,Step-1,Increment      2: Step Time =    1.000,"PART-1-1",           315,       12.5998,       10.9015,            0.,NA,NA,"",       8.56647,       8.25759,      -2.27962,   14.4260E-03
C:/temp/dataset/3/14_7.odb,Step-1,Increment      2: Step Time =    1.000,"PART-1-1",           316,       4.40482,  -219.892E-03,            0.,NA,NA,"",       5.03883,       4.92185,       1.07942,   19.7990E-03
C:/temp/dataset/3/14_7.odb,Step-1,Increment      2: Step Time =    1.000,"PART-1-1",           317,       3.45177,  -757.122E-03,            0.,NA,NA,"",       5.00742,       4.80847,       1.39744,   13.8293E-03
C:/temp/dataset/3/14_7.odb,Step-1,Increment      2: Step Time =    1.000,"PART-1-1",           318,       3.83014,      -1.74448,            0.,NA,NA,"",       4.66038,       4.47101,       1.31501,   18.2631E-03
C:/temp/dataset/3/14_7.odb,Step-1,Increment      2: Step Time =    1.000,"PART-1-1",           319,       4.78319,      -1.20725,            0.,NA,NA,"",       4.68805,       4.58155,   993.588E-03,   21.9430E-03
C:/temp/dataset/3/14_7.odb,Step-1,Increment      2: Step Time =    1.000,"PART-1-1",           320,       10.3408,      -10.0251,            0.,NA,NA,"",       1.82443,       1.80043,  -294.935E-03,   10.2884E-03
C:/temp/dataset/3/14_7.odb,Step-1,Increment      2: Step Time =    1.000,"PART-1-1",           321,       11.1792,      -10.4860,            0.,NA,NA,"",       1.74079,       1.67911,  -459.288E-03,   17.2762E-03
C:/temp/dataset/3/14_7.odb,Step-1,Increment      2: Step Time =    1.000,"PART-1-1",           322,       11.5032,      -9.33080,            0.,NA,NA,"",       2.02335,       1.93860,  -579.472E-03,   21.4040E-03
C:/temp/dataset/3/14_7.odb,Step-1,Increment      2: Step Time =    1.000,"PART-1-1",           323,       10.6649,      -8.86986,            0.,NA,NA,"",       2.10638,       2.06680,  -406.392E-03,   12.8511E-03
C:/temp/dataset/3/14_7.odb,Step-1,Increment      2: Step Time =    1.000,"PART-1-1",           324,       9.41034,      -12.1888,            0.,NA,NA,"",       1.35206,       1.35067,  -61.2334E-03,   13.8877E-03
C:/temp/dataset/3/14_7.odb,Step-1,Increment      2: Step Time =    1.000,"PART-1-1",           325,       10.5075,      -13.0214,            0.,NA,NA,"",       1.19047,       1.16423,  -248.591E-03,   10.3374E-03
C:/temp/dataset/3/14_7.odb,Step-1,Increment      2: Step Time =    1.000,"PART-1-1",           326,       10.8652,      -11.6896,            0.,NA,NA,"",       1.46784,       1.42486,  -352.597E-03,   13.9411E-03
C:/temp/dataset/3/14_7.odb,Step-1,Increment      2: Step Time =    1.000,"PART-1-1",           327,       9.76802,      -10.8570,            0.,NA,NA,"",       1.63333,       1.62616,  -152.931E-03,   10.5026E-03
C:/temp/dataset/3/14_7.odb,Step-1,Increment      2: Step Time =    1.000,"PART-1-1",           328,       6.12016,      -19.7528,            0.,NA,NA,"",   310.504E-03,   209.815E-03,   228.890E-03,   70.3318E-03
C:/temp/dataset/3/14_7.odb,Step-1,Increment      2: Step Time =    1.000,"PART-1-1",           329,       7.15653,      -18.4145,            0.,NA,NA,"",   408.586E-03,   359.437E-03,   194.286E-03,   39.6418E-03
C:/temp/dataset/3/14_7.odb,Step-1,Increment      2: Step Time =    1.000,"PART-1-1",           330,       6.03637,      -17.4116,            0.,NA,NA,"",   637.938E-03,   529.646E-03,   355.584E-03,   69.7511E-03
C:/temp/dataset/3/14_7.odb,Step-1,Increment      2: Step Time =    1.000,"PART-1-1",           331,            5.,        -18.75,            0.,NA,NA,"",   537.123E-03,   382.387E-03,   377.203E-03,   117.545E-03
C:/temp/dataset/3/14_7.odb,Step-1,Increment      2: Step Time =    1.000,"PART-1-1",           332,       13.3604,      -22.4969,            0.,NA,NA,"",   276.391E-03,   87.8828E-03,  -262.047E-03,   49.0670E-03
C:/temp/dataset/3/14_7.odb,Step-1,Increment      2: Step Time =    1.000,"PART-1-1",           333,           15.,        -21.25,            0.,NA,NA,"",   474.137E-03,   192.344E-03,  -433.371E-03,   73.6733E-03
C:/temp/dataset/3/14_7.odb,Step-1,Increment      2: Step Time =    1.000,"PART-1-1",           334,       13.4842,      -19.7901,            0.,NA,NA,"",   472.857E-03,   250.791E-03,  -400.871E-03,   55.3186E-03
C:/temp/dataset/3/14_7.odb,Step-1,Increment      2: Step Time =    1.000,"PART-1-1",           335,       11.8446,      -21.0370,            0.,NA,NA,"",   250.035E-03,   137.581E-03,  -208.779E-03,   32.3469E-03
C:/temp/dataset/3/14_7.odb,Step-1,Increment      2: Step Time =    1.000,"PART-1-1",           336,       1.65000,            5.,            0.,NA,NA,"",       6.92711,       6.71681,       1.69390,   2.70729E-03
C:/temp/dataset/3/14_7.odb,Step-1,Increment      2: Step Time =    1.000,"PART-1-1",           337,   440.654E-03,       4.00571,            0.,NA,NA,"",       6.80829,       6.47114,       2.11596,   1.66695E-03
C:/temp/dataset/3/14_7.odb,Step-1,Increment      2: Step Time =    1.000,"PART-1-1",           338,       1.47063,       2.87974,            0.,NA,NA,"",       6.34539,       6.06906,       1.85216,   4.65853E-03
C:/temp/dataset/3/14_7.odb,Step-1,Increment      2: Step Time =    1.000,"PART-1-1",           339,       2.67998,       3.87403,            0.,NA,NA,"",       6.48348,       6.32267,       1.43506,   4.47954E-03
C:/temp/dataset/3/14_7.odb,Step-1,Increment      2: Step Time =    1.000,"PART-1-1",           340,      -1.46180,      -3.99231,            0.,NA,NA,"",       5.10898,       4.04465,       3.12130,   1.13712E-03
C:/temp/dataset/3/14_7.odb,Step-1,Increment      2: Step Time =    1.000,"PART-1-1",           341,     -500.E-03,           -5.,            0.,NA,NA,"",       4.66028,       3.67312,       2.86816,   2.98717E-03
C:/temp/dataset/3/14_7.odb,Step-1,Increment      2: Step Time =    1.000,"PART-1-1",           342,   718.491E-03,      -4.10961,            0.,NA,NA,"",       4.59056,       3.89143,       2.43517,   1.98529E-03
C:/temp/dataset/3/14_7.odb,Step-1,Increment      2: Step Time =    1.000,"PART-1-1",           343,  -243.313E-03,      -3.10192,            0.,NA,NA,"",       5.04158,       4.26462,       2.68897,   748.352E-06
C:/temp/dataset/3/14_7.odb,Step-1,Increment      2: Step Time =    1.000,"PART-1-1",           344,      -3.82017,      -3.74247,            0.,NA,NA,"",       5.73382,       4.24592,       3.85342,   584.861E-06
C:/temp/dataset/3/14_7.odb,Step-1,Increment      2: Step Time =    1.000,"PART-1-1",           345,      -2.71667,           -5.,            0.,NA,NA,"",       5.20680,       3.79078,       3.56941,   1.33022E-03
C:/temp/dataset/3/14_7.odb,Step-1,Increment      2: Step Time =    1.000,"PART-1-1",           346,      -2.56530,      -2.73478,            0.,NA,NA,"",       5.64386,       4.50072,       3.40540,   882.283E-06
C:/temp/dataset/3/14_7.odb,Step-1,Increment      2: Step Time =    1.000,"PART-1-1",           347,      -13.8092,  -21.6491E-03,            0.,NA,NA,"",       9.03509,       5.93161,       6.81534,   2.66322E-06
C:/temp/dataset/3/14_7.odb,Step-1,Increment      2: Step Time =    1.000,"PART-1-1",           348,      -12.6581,       1.21263,            0.,NA,NA,"",       8.94621,       6.26239,       6.38883,   8.25444E-06
C:/temp/dataset/3/14_7.odb,Step-1,Increment      2: Step Time =    1.000,"PART-1-1",           349,      -13.8489,       2.48428,            0.,NA,NA,"",       9.49254,       6.72474,       6.69972,   1.21474E-06
C:/temp/dataset/3/14_7.odb,Step-1,Increment      2: Step Time =    1.000,"PART-1-1",           350,          -15.,          1.25,            0.,NA,NA,"",       9.57422,       6.39395,       7.12623,   5.63828E-06
C:/temp/dataset/3/14_7.odb,Step-1,Increment      2: Step Time =    1.000,"PART-1-1",           351,      -8.84172,   345.754E-03,            0.,NA,NA,"",       7.80399,       5.79369,       5.22833,   130.877E-06
C:/temp/dataset/3/14_7.odb,Step-1,Increment      2: Step Time =    1.000,"PART-1-1",           352,      -9.20019,  -788.270E-03,            0.,NA,NA,"",       7.67476,       5.45403,       5.39958,   98.9233E-06
C:/temp/dataset/3/14_7.odb,Step-1,Increment      2: Step Time =    1.000,"PART-1-1",           353,      -7.61937,      -1.21646,            0.,NA,NA,"",       7.18816,       5.23817,       4.92253,   214.104E-06
C:/temp/dataset/3/14_7.odb,Step-1,Increment      2: Step Time =    1.000,"PART-1-1",           354,      -7.26090,  -82.4387E-03,            0.,NA,NA,"",       7.32710,       5.57789,       4.75117,   230.760E-06
C:/temp/dataset/3/14_7.odb,Step-1,Increment      2: Step Time =    1.000,"PART-1-1",           355,      -12.7466,      -3.77621,            0.,NA,NA,"",       8.15657,       4.69207,       6.67189,   2.19788E-06
C:/temp/dataset/3/14_7.odb,Step-1,Increment      2: Step Time =    1.000,"PART-1-1",           356,      -13.8633,      -2.52621,            0.,NA,NA,"",       8.65484,       5.14375,       6.96047,   1.25255E-06
C:/temp/dataset/3/14_7.odb,Step-1,Increment      2: Step Time =    1.000,"PART-1-1",           357,          -15.,         -3.75,            0.,NA,NA,"",       8.81372,       4.81556,       7.38188,   2.13008E-06
C:/temp/dataset/3/14_7.odb,Step-1,Increment      2: Step Time =    1.000,"PART-1-1",           358,      -13.8833,           -5.,            0.,NA,NA,"",       8.32816,       4.36388,       7.09329,   1.64630E-06
C:/temp/dataset/3/14_7.odb,Step-1,Increment      2: Step Time =    1.000,"PART-1-1",           359,      -5.03830,      -2.71522,            0.,NA,NA,"",       6.24341,       4.63317,       4.18497,   531.218E-06
C:/temp/dataset/3/14_7.odb,Step-1,Increment      2: Step Time =    1.000,"PART-1-1",           360,      -4.43911,      -1.50749,            0.,NA,NA,"",       6.34965,       4.98444,       3.93362,   565.573E-06
C:/temp/dataset/3/14_7.odb,Step-1,Increment      2: Step Time =    1.000,"PART-1-1",           361,      -5.95808,  -763.119E-03,            0.,NA,NA,"",       6.86979,       5.29670,       4.37481,   418.276E-06
C:/temp/dataset/3/14_7.odb,Step-1,Increment      2: Step Time =    1.000,"PART-1-1",           362,      -6.55726,      -1.97085,            0.,NA,NA,"",       6.77209,       4.94581,       4.62603,   280.269E-06
C:/temp/dataset/3/14_7.odb,Step-1,Increment      2: Step Time =    1.000,"PART-1-1",           363,          6.25,          -30.,            0.,NA,NA,"",            0.,  -102.993E-42,  -806.945E-42,   9.45520E-03
C:/temp/dataset/3/14_7.odb,Step-1,Increment      2: Step Time =    1.000,"PART-1-1",           364,       7.47038,      -28.9473,            0.,NA,NA,"",   13.8616E-03,  -13.1508E-03,   4.38181E-03,   10.9596E-03
C:/temp/dataset/3/14_7.odb,Step-1,Increment      2: Step Time =    1.000,"PART-1-1",           365,       6.18647,      -27.8786,            0.,NA,NA,"",   22.0574E-03,  -7.58422E-03,   20.7125E-03,   14.6543E-03
C:/temp/dataset/3/14_7.odb,Step-1,Increment      2: Step Time =    1.000,"PART-1-1",           366,       4.96608,      -28.9312,            0.,NA,NA,"",   10.4001E-03,  -423.576E-06,   10.3915E-03,   13.6127E-03
C:/temp/dataset/3/14_7.odb,Step-1,Increment      2: Step Time =    1.000,"PART-1-1",           367,       3.70492,      -27.8047,            0.,NA,NA,"",   29.3528E-03,   13.9028E-03,   25.8515E-03,   17.1256E-03
C:/temp/dataset/3/14_7.odb,Step-1,Increment      2: Step Time =    1.000,"PART-1-1",           368,       2.48883,      -28.8735,            0.,NA,NA,"",   15.3018E-03,   10.9558E-03,   10.6825E-03,   14.4978E-03
C:/temp/dataset/3/14_7.odb,Step-1,Increment      2: Step Time =    1.000,"PART-1-1",           369,          3.75,          -30.,            0.,NA,NA,"",            0.,  -212.749E-42,  -663.970E-42,   10.8990E-03
C:/temp/dataset/3/14_7.odb,Step-1,Increment      2: Step Time =    1.000,"PART-1-1",           370,      -3.72203,      -27.5999,            0.,NA,NA,"",   29.3535E-03,   28.8739E-03,   5.28481E-03,   8.55130E-03
C:/temp/dataset/3/14_7.odb,Step-1,Increment      2: Step Time =    1.000,"PART-1-1",           371,      -4.98725,      -28.7922,            0.,NA,NA,"",   14.5337E-03,   14.3736E-03,   2.15138E-03,   7.95772E-03
C:/temp/dataset/3/14_7.odb,Step-1,Increment      2: Step Time =    1.000,"PART-1-1",           372,         -3.75,          -30.,            0.,NA,NA,"",            0.,  -112.636E-42,  -36.9606E-42,   9.77702E-03
C:/temp/dataset/3/14_7.odb,Step-1,Increment      2: Step Time =    1.000,"PART-1-1",           373,      -2.48478,      -28.8077,            0.,NA,NA,"",   17.2132E-03,   16.6570E-03,   4.34037E-03,   10.2951E-03
C:/temp/dataset/3/14_7.odb,Step-1,Increment      2: Step Time =    1.000,"PART-1-1",           374,      -13.7501,      -27.5099,            0.,NA,NA,"",   18.1670E-03,   17.2994E-03,   5.54728E-03,   2.96821E-03
C:/temp/dataset/3/14_7.odb,Step-1,Increment      2: Step Time =    1.000,"PART-1-1",           375,          -15.,        -28.75,            0.,NA,NA,"",   12.2553E-03,   10.0362E-03,   7.03331E-03,   5.38932E-03
C:/temp/dataset/3/14_7.odb,Step-1,Increment      2: Step Time =    1.000,"PART-1-1",           376,        -13.75,          -30.,            0.,NA,NA,"",            0.,   11.8200E-42,   20.4646E-42,   5.92141E-03
C:/temp/dataset/3/14_7.odb,Step-1,Increment      2: Step Time =    1.000,"PART-1-1",           377,      -12.5001,      -28.7599,            0.,NA,NA,"",   8.20377E-03,   8.04389E-03,   1.61171E-03,   4.31200E-03
C:/temp/dataset/3/14_7.odb,Step-1,Increment      2: Step Time =    1.000,"PART-1-1",           378,       8.15833,      -10.8587,            0.,NA,NA,"",       1.68339,       1.67391,   178.359E-03,   28.5576E-03
C:/temp/dataset/3/14_7.odb,Step-1,Increment      2: Step Time =    1.000,"PART-1-1",           379,       9.00498,      -9.90697,            0.,NA,NA,"",       1.86447,       1.86445,  -7.54993E-03,   17.1692E-03
C:/temp/dataset/3/14_7.odb,Step-1,Increment      2: Step Time =    1.000,"PART-1-1",           380,       8.08915,      -8.55627,            0.,NA,NA,"",       2.23282,       2.22524,   183.813E-03,   27.1449E-03
C:/temp/dataset/3/14_7.odb,Step-1,Increment      2: Step Time =    1.000,"PART-1-1",           381,       7.24249,      -9.50802,            0.,NA,NA,"",       2.05977,       2.02470,   378.483E-03,   38.6890E-03
C:/temp/dataset/3/14_7.odb,Step-1,Increment      2: Step Time =    1.000,"PART-1-1",           382,       13.9816,      -2.51124,            0.,NA,NA,"",       4.08189,       3.71893,      -1.68268,   35.8992E-03
C:/temp/dataset/3/14_7.odb,Step-1,Increment      2: Step Time =    1.000,"PART-1-1",           383,           15.,         -1.25,            0.,NA,NA,"",       4.57454,       4.06333,      -2.10136,   40.9181E-03
C:/temp/dataset/3/14_7.odb,Step-1,Increment      2: Step Time =    1.000,"PART-1-1",           384,       13.8213,  -48.4001E-03,            0.,NA,NA,"",       4.82935,       4.47134,      -1.82476,   29.5628E-03
C:/temp/dataset/3/14_7.odb,Step-1,Increment      2: Step Time =    1.000,"PART-1-1",           385,       12.8030,      -1.30964,            0.,NA,NA,"",       4.35651,       4.12043,      -1.41463,   25.2995E-03
C:/temp/dataset/3/14_7.odb,Step-1,Increment      2: Step Time =    1.000,"PART-1-1",           386,           15.,          1.25,            0.,NA,NA,"",       5.35582,       4.83142,      -2.31130,   36.0615E-03
C:/temp/dataset/3/14_7.odb,Step-1,Increment      2: Step Time =    1.000,"PART-1-1",           387,       13.5709,       2.55070,            0.,NA,NA,"",       5.65014,       5.30488,      -1.94482,   25.1802E-03
C:/temp/dataset/3/14_7.odb,Step-1,Increment      2: Step Time =    1.000,"PART-1-1",           388,       12.3922,       1.25230,            0.,NA,NA,"",       5.15306,       4.94042,      -1.46505,   18.9583E-03
C:/temp/dataset/3/14_7.odb,Step-1,Increment      2: Step Time =    1.000,"PART-1-1",           389,      -5.00532,       26.2655,            0.,NA,NA,"",       16.0174,       15.6771,       3.28404,   2.17368E-03
C:/temp/dataset/3/14_7.odb,Step-1,Increment      2: Step Time =    1.000,"PART-1-1",           390,      -3.75495,       25.0275,            0.,NA,NA,"",       15.3769,       15.1013,       2.89803,   3.40774E-03
C:/temp/dataset/3/14_7.odb,Step-1,Increment      2: Step Time =    1.000,"PART-1-1",           391,      -2.50780,       26.2820,            0.,NA,NA,"",       15.6594,       15.4862,       2.32247,   2.13841E-03
C:/temp/dataset/3/14_7.odb,Step-1,Increment      2: Step Time =    1.000,"PART-1-1",           392,      -3.75817,       27.5199,            0.,NA,NA,"",       16.2892,       16.0623,       2.70921,   909.284E-06
C:/temp/dataset/3/14_7.odb,Step-1,Increment      2: Step Time =    1.000,"PART-1-1",           393,      -5.00193,       23.7670,            0.,NA,NA,"",       15.1196,       14.7158,       3.47081,   4.74249E-03
C:/temp/dataset/3/14_7.odb,Step-1,Increment      2: Step Time =    1.000,"PART-1-1",           394,      -6.25406,       25.0149,            0.,NA,NA,"",       15.7739,       15.2953,       3.85607,   3.46039E-03
C:/temp/dataset/3/14_7.odb,Step-1,Increment      2: Step Time =    1.000,"PART-1-1",           395,      -7.50285,       23.7600,            0.,NA,NA,"",       15.5565,       14.9138,       4.42526,   4.78210E-03
C:/temp/dataset/3/14_7.odb,Step-1,Increment      2: Step Time =    1.000,"PART-1-1",           396,      -6.25071,       22.5121,            0.,NA,NA,"",       14.8931,       14.3345,       4.04068,   6.05734E-03
C:/temp/dataset/3/14_7.odb,Step-1,Increment      2: Step Time =    1.000,"PART-1-1",           397,      -12.5007,       23.7543,            0.,NA,NA,"",       16.5590,       15.3071,       6.31602,   5.71521E-03
C:/temp/dataset/3/14_7.odb,Step-1,Increment      2: Step Time =    1.000,"PART-1-1",           398,      -13.7507,       25.0026,            0.,NA,NA,"",       17.2297,       15.8748,       6.69722,   4.01961E-03
C:/temp/dataset/3/14_7.odb,Step-1,Increment      2: Step Time =    1.000,"PART-1-1",           399,          -15.,         23.75,            0.,NA,NA,"",       17.1150,       15.5028,       7.25165,   6.04507E-03
C:/temp/dataset/3/14_7.odb,Step-1,Increment      2: Step Time =    1.000,"PART-1-1",           400,       1.22659,       27.5580,            0.,NA,NA,"",       15.7032,       15.6840,   776.511E-03,   1.03992E-03
C:/temp/dataset/3/14_7.odb,Step-1,Increment      2: Step Time =    1.000,"PART-1-1",           401,       2.48534,       28.7828,            0.,NA,NA,"",       16.0620,       16.0609,   189.209E-03,   340.365E-06
C:/temp/dataset/3/14_7.odb,Step-1,Increment      2: Step Time =    1.000,"PART-1-1",           402,          1.25,           30.,            0.,NA,NA,"",       16.6424,       16.6324,   574.699E-03,   1.16693E-03
C:/temp/dataset/3/14_7.odb,Step-1,Increment      2: Step Time =    1.000,"PART-1-1",           403,  -8.74824E-03,       28.7751,            0.,NA,NA,"",       16.2962,       16.2547,       1.16145,   298.626E-06
C:/temp/dataset/3/14_7.odb,Step-1,Increment      2: Step Time =    1.000,"PART-1-1",           404,  -16.7069E-03,       26.3073,            0.,NA,NA,"",       15.3573,       15.2972,       1.35720,   2.03326E-03
C:/temp/dataset/3/14_7.odb,Step-1,Increment      2: Step Time =    1.000,"PART-1-1",           405,       2.46714,       26.3253,            0.,NA,NA,"",       15.1090,       15.1040,   389.843E-03,   1.98392E-03
C:/temp/dataset/3/14_7.odb,Step-1,Increment      2: Step Time =    1.000,"PART-1-1",           406,       3.70751,       22.5746,            0.,NA,NA,"",       13.5351,       13.5336,   199.242E-03,   4.66901E-03
C:/temp/dataset/3/14_7.odb,Step-1,Increment      2: Step Time =    1.000,"PART-1-1",           407,       2.48879,       21.2797,            0.,NA,NA,"",       13.1507,       13.1278,   774.385E-03,   7.28198E-03
C:/temp/dataset/3/14_7.odb,Step-1,Increment      2: Step Time =    1.000,"PART-1-1",           408,          3.75,           20.,            0.,NA,NA,"",       12.5201,       12.5142,   383.478E-03,   10.7485E-03
C:/temp/dataset/3/14_7.odb,Step-1,Increment      2: Step Time =    1.000,"PART-1-1",           409,       4.96872,       21.2949,            0.,NA,NA,"",       12.9229,       12.9215,  -194.067E-03,   7.65311E-03
C:/temp/dataset/3/14_7.odb,Step-1,Increment      2: Step Time =    1.000,"PART-1-1",           410,       10.8479,       12.4309,            0.,NA,NA,"",       9.12070,       8.94979,      -1.75740,   9.40666E-03
C:/temp/dataset/3/14_7.odb,Step-1,Increment      2: Step Time =    1.000,"PART-1-1",           411,       9.34812,       11.6387,            0.,NA,NA,"",       8.82755,       8.75288,      -1.14571,   9.76749E-03
C:/temp/dataset/3/14_7.odb,Step-1,Increment      2: Step Time =    1.000,"PART-1-1",           412,       9.99050,       10.5520,            0.,NA,NA,"",       8.39930,       8.29800,      -1.30055,   9.00762E-03
C:/temp/dataset/3/14_7.odb,Step-1,Increment      2: Step Time =    1.000,"PART-1-1",           413,       11.4903,       11.3442,            0.,NA,NA,"",       8.70683,       8.49522,      -1.90791,   10.8166E-03
C:/temp/dataset/3/14_7.odb,Step-1,Increment      2: Step Time =    1.000,"PART-1-1",           414,       7.16850,       11.5014,            0.,NA,NA,"",       8.86666,       8.86021,  -338.291E-03,   15.1259E-03
C:/temp/dataset/3/14_7.odb,Step-1,Increment      2: Step Time =    1.000,"PART-1-1",           415,       6.10343,       12.5850,            0.,NA,NA,"",       9.36128,       9.36128,  -11.1683E-03,   17.2137E-03
C:/temp/dataset/3/14_7.odb,Step-1,Increment      2: Step Time =    1.000,"PART-1-1",           416,            5.,         11.25,            0.,NA,NA,"",       8.94921,       8.93650,   476.711E-03,   24.3588E-03
C:/temp/dataset/3/14_7.odb,Step-1,Increment      2: Step Time =    1.000,"PART-1-1",           417,       6.06507,       10.1664,            0.,NA,NA,"",       8.43819,       8.43696,   143.609E-03,   21.5899E-03
C:/temp/dataset/3/14_7.odb,Step-1,Increment      2: Step Time =    1.000,"PART-1-1",           418,       14.0565,       5.06378,            0.,NA,NA,"",       6.53226,       6.10944,      -2.31195,   27.0083E-03
C:/temp/dataset/3/14_7.odb,Step-1,Increment      2: Step Time =    1.000,"PART-1-1",           419,       12.6274,       3.86448,            0.,NA,NA,"",       6.03291,       5.77967,      -1.72955,   18.6149E-03
C:/temp/dataset/3/14_7.odb,Step-1,Increment      2: Step Time =    1.000,"PART-1-1",           420,           15.,          3.75,            0.,NA,NA,"",       6.17121,       5.63118,      -2.52462,   33.7497E-03
C:/temp/dataset/3/14_7.odb,Step-1,Increment      2: Step Time =    1.000,"PART-1-1",           421,       10.0280,       5.47301,            0.,NA,NA,"",       6.53411,       6.46270,  -963.431E-03,   6.21080E-03
C:/temp/dataset/3/14_7.odb,Step-1,Increment      2: Step Time =    1.000,"PART-1-1",           422,       11.0614,       5.01383,            0.,NA,NA,"",       6.37799,       6.24762,      -1.28296,   9.71276E-03
C:/temp/dataset/3/14_7.odb,Step-1,Increment      2: Step Time =    1.000,"PART-1-1",           423,       11.6033,       6.33570,            0.,NA,NA,"",       6.85309,       6.67265,      -1.56224,   12.5055E-03
C:/temp/dataset/3/14_7.odb,Step-1,Increment      2: Step Time =    1.000,"PART-1-1",           424,       10.5698,       6.79489,            0.,NA,NA,"",       7.00238,       6.89220,      -1.23730,   8.38777E-03
C:/temp/dataset/3/14_7.odb,Step-1,Increment      2: Step Time =    1.000,"PART-1-1",           425,      -4.94418,       3.17107,            0.,NA,NA,"",       7.54385,       6.48583,       3.85276,   503.228E-06
C:/temp/dataset/3/14_7.odb,Step-1,Increment      2: Step Time =    1.000,"PART-1-1",           426,      -3.90803,       4.11594,            0.,NA,NA,"",       7.57565,       6.73035,       3.47749,   607.377E-06
C:/temp/dataset/3/14_7.odb,Step-1,Increment      2: Step Time =    1.000,"PART-1-1",           427,      -5.05000,            5.,            0.,NA,NA,"",       8.02165,       7.06825,       3.79298,   511.493E-06
C:/temp/dataset/3/14_7.odb,Step-1,Increment      2: Step Time =    1.000,"PART-1-1",           428,      -6.08615,       4.05513,            0.,NA,NA,"",       7.99574,       6.82326,       4.16833,   229.933E-06
C:/temp/dataset/3/14_7.odb,Step-1,Increment      2: Step Time =    1.000,"PART-1-1",           429,      -3.86135,       2.39128,            0.,NA,NA,"",       7.13147,       6.18477,       3.55056,   625.744E-06
C:/temp/dataset/3/14_7.odb,Step-1,Increment      2: Step Time =    1.000,"PART-1-1",           430,      -5.85027,       2.20434,            0.,NA,NA,"",       7.50487,       6.22740,       4.18837,   350.133E-06
C:/temp/dataset/3/14_7.odb,Step-1,Increment      2: Step Time =    1.000,"PART-1-1",           431,      -4.76744,       1.42454,            0.,NA,NA,"",       7.08697,       5.92639,       3.88628,   573.866E-06
C:/temp/dataset/3/14_7.odb,Step-1,Increment      2: Step Time =    1.000,"PART-1-1",           432,      -9.29397,       2.69508,            0.,NA,NA,"",       8.40138,       6.55833,       5.25087,   87.3537E-06
C:/temp/dataset/3/14_7.odb,Step-1,Increment      2: Step Time =    1.000,"PART-1-1",           433,      -8.28887,       3.92576,            0.,NA,NA,"",       8.44205,       6.89536,       4.87055,   76.7630E-06
C:/temp/dataset/3/14_7.odb,Step-1,Increment      2: Step Time =    1.000,"PART-1-1",           434,          -9.5,            5.,            0.,NA,NA,"",       8.95874,       7.29653,       5.19804,   31.9912E-06
C:/temp/dataset/3/14_7.odb,Step-1,Increment      2: Step Time =    1.000,"PART-1-1",           435,      -10.5051,       3.76932,            0.,NA,NA,"",       8.91914,       6.95940,       5.57833,   18.1069E-06
C:/temp/dataset/3/14_7.odb,Step-1,Increment      2: Step Time =    1.000,"PART-1-1",           436,      -7.92731,       1.84143,            0.,NA,NA,"",       7.89461,       6.21903,       4.86298,   152.885E-06
C:/temp/dataset/3/14_7.odb,Step-1,Increment      2: Step Time =    1.000,"PART-1-1",           437,      -6.68589,       1.06488,            0.,NA,NA,"",       7.43519,       5.91063,       4.51071,   320.556E-06
C:/temp/dataset/3/14_7.odb,Step-1,Increment      2: Step Time =    1.000,"PART-1-1",           438,      -7.09169,       2.98089,            0.,NA,NA,"",       7.95838,       6.53584,       4.54077,   235.262E-06
C:/temp/dataset/3/14_7.odb,Step-1,Increment      2: Step Time =    1.000,"PART-1-1",           439,      -13.9000,            5.,            0.,NA,NA,"",       9.99825,       7.52156,       6.58719,   1.62136E-06
C:/temp/dataset/3/14_7.odb,Step-1,Increment      2: Step Time =    1.000,"PART-1-1",           440,          -15.,          3.75,            0.,NA,NA,"",       10.0287,       7.18319,       6.99839,   2.19465E-06
C:/temp/dataset/3/14_7.odb,Step-1,Increment      2: Step Time =    1.000,"PART-1-1",           441,      -12.7489,       3.73428,            0.,NA,NA,"",       9.45690,       7.06310,       6.28852,   2.11891E-06
C:/temp/dataset/3/14_7.odb,Step-1,Increment      2: Step Time =    1.000,"PART-1-1",           442,      -9.48823,      -2.88104,            0.,NA,NA,"",       7.37909,       4.80807,       5.59763,   73.4743E-06
C:/temp/dataset/3/14_7.odb,Step-1,Increment      2: Step Time =    1.000,"PART-1-1",           443,      -8.42388,      -2.23568,            0.,NA,NA,"",       7.20523,       4.95743,       5.22869,   116.644E-06
C:/temp/dataset/3/14_7.odb,Step-1,Increment      2: Step Time =    1.000,"PART-1-1",           444,      -10.2645,      -1.43363,            0.,NA,NA,"",       7.83685,       5.30467,       5.76860,   47.0615E-06
C:/temp/dataset/3/14_7.odb,Step-1,Increment      2: Step Time =    1.000,"PART-1-1",           445,      -12.6725,      -1.29786,            0.,NA,NA,"",       8.51241,       5.47062,       6.52177,   7.88264E-06
C:/temp/dataset/3/14_7.odb,Step-1,Increment      2: Step Time =    1.000,"PART-1-1",           446,          -15.,         -1.25,            0.,NA,NA,"",       9.16703,       5.60474,       7.25406,   5.45787E-06
C:/temp/dataset/3/14_7.odb,Step-1,Increment      2: Step Time =    1.000,"PART-1-1",           447,      -6.16813,      -3.97275,            0.,NA,NA,"",       6.29672,       4.29359,       4.60583,   224.343E-06
C:/temp/dataset/3/14_7.odb,Step-1,Increment      2: Step Time =    1.000,"PART-1-1",           448,      -4.95000,           -5.,            0.,NA,NA,"",       5.79045,       3.90668,       4.27401,   542.342E-06
C:/temp/dataset/3/14_7.odb,Step-1,Increment      2: Step Time =    1.000,"PART-1-1",           449,       1.59412,  -355.999E-03,            0.,NA,NA,"",       5.41097,       5.04061,       1.96744,   4.54158E-03
C:/temp/dataset/3/14_7.odb,Step-1,Increment      2: Step Time =    1.000,"PART-1-1",           450,       2.17826,      -1.53992,            0.,NA,NA,"",       4.98411,       4.63337,       1.83664,   7.81608E-03
C:/temp/dataset/3/14_7.odb,Step-1,Increment      2: Step Time =    1.000,"PART-1-1",           451,       2.86763,   426.804E-03,            0.,NA,NA,"",       5.43939,       5.21916,       1.53209,   11.4515E-03
C:/temp/dataset/3/14_7.odb,Step-1,Increment      2: Step Time =    1.000,"PART-1-1",           452,  -387.277E-03,   5.26357E-03,            0.,NA,NA,"",       5.85455,       5.25759,       2.57557,   931.267E-06
C:/temp/dataset/3/14_7.odb,Step-1,Increment      2: Step Time =    1.000,"PART-1-1",           453,   283.611E-03,      -1.19839,            0.,NA,NA,"",       5.41526,       4.84249,       2.42390,   1.86212E-03
C:/temp/dataset/3/14_7.odb,Step-1,Increment      2: Step Time =    1.000,"PART-1-1",           454,   923.228E-03,   847.652E-03,            0.,NA,NA,"",       5.85422,       5.45650,       2.12096,   3.09225E-03
C:/temp/dataset/3/14_7.odb,Step-1,Increment      2: Step Time =    1.000,"PART-1-1",           455,       6.35531,      -13.1332,            0.,NA,NA,"",       1.35157,       1.25952,   490.256E-03,   55.9196E-03
C:/temp/dataset/3/14_7.odb,Step-1,Increment      2: Step Time =    1.000,"PART-1-1",           456,       7.49455,      -12.2656,            0.,NA,NA,"",       1.42450,       1.39253,   300.094E-03,   39.3477E-03
C:/temp/dataset/3/14_7.odb,Step-1,Increment      2: Step Time =    1.000,"PART-1-1",           457,       6.13925,      -10.3824,            0.,NA,NA,"",       1.96331,       1.86714,   606.963E-03,   55.1569E-03
C:/temp/dataset/3/14_7.odb,Step-1,Increment      2: Step Time =    1.000,"PART-1-1",           458,            5.,        -11.25,            0.,NA,NA,"",       1.90956,       1.72478,   819.485E-03,   71.9711E-03
C:/temp/dataset/3/14_7.odb,Step-1,Increment      2: Step Time =    1.000,"PART-1-1",           459,       13.3376,      -16.9670,            0.,NA,NA,"",   757.967E-03,   535.811E-03,  -536.116E-03,   53.1908E-03
C:/temp/dataset/3/14_7.odb,Step-1,Increment      2: Step Time =    1.000,"PART-1-1",           460,       11.8219,      -18.0071,            0.,NA,NA,"",   498.333E-03,   395.830E-03,  -302.745E-03,   29.7340E-03
C:/temp/dataset/3/14_7.odb,Step-1,Increment      2: Step Time =    1.000,"PART-1-1",           461,           15.,        -18.75,            0.,NA,NA,"",   725.134E-03,   380.985E-03,  -616.984E-03,   79.6384E-03
C:/temp/dataset/3/14_7.odb,Step-1,Increment      2: Step Time =    1.000,"PART-1-1",           462,       8.42876,      -15.2973,            0.,NA,NA,"",   802.946E-03,   795.920E-03,   105.991E-03,   27.4611E-03
C:/temp/dataset/3/14_7.odb,Step-1,Increment      2: Step Time =    1.000,"PART-1-1",           463,       10.4111,      -16.6310,            0.,NA,NA,"",   587.703E-03,   564.379E-03,  -163.924E-03,   10.4494E-03
C:/temp/dataset/3/14_7.odb,Step-1,Increment      2: Step Time =    1.000,"PART-1-1",           464,       10.7289,      -14.9294,            0.,NA,NA,"",   856.280E-03,   821.368E-03,  -242.012E-03,   12.7925E-03
C:/temp/dataset/3/14_7.odb,Step-1,Increment      2: Step Time =    1.000,"PART-1-1",           465,       8.74656,      -13.5956,            0.,NA,NA,"",       1.09172,       1.08978,   65.1029E-03,   23.1878E-03
C:/temp/dataset/3/14_7.odb,Step-1,Increment      2: Step Time =    1.000,"PART-1-1",           466,      -8.72016,      -22.5745,            0.,NA,NA,"",   46.1654E-03,   46.1443E-03,  -1.39509E-03,   2.00065E-03
C:/temp/dataset/3/14_7.odb,Step-1,Increment      2: Step Time =    1.000,"PART-1-1",           467,      -7.48342,      -21.2909,            0.,NA,NA,"",   50.3707E-03,   50.2985E-03,  -2.69670E-03,   1.41787E-03
C:/temp/dataset/3/14_7.odb,Step-1,Increment      2: Step Time =    1.000,"PART-1-1",           468,         -8.75,          -20.,            0.,NA,NA,"",   50.9859E-03,   50.9351E-03,  -2.27609E-03,   209.008E-06
C:/temp/dataset/3/14_7.odb,Step-1,Increment      2: Step Time =    1.000,"PART-1-1",           469,      -9.98674,      -21.2836,            0.,NA,NA,"",   48.3007E-03,   48.2996E-03,  -337.214E-06,   677.151E-06
C:/temp/dataset/3/14_7.odb,Step-1,Increment      2: Step Time =    1.000,"PART-1-1",           470,      -4.96670,      -26.3491,            0.,NA,NA,"",   37.1927E-03,   37.0021E-03,   3.76067E-03,   6.76495E-03
C:/temp/dataset/3/14_7.odb,Step-1,Increment      2: Step Time =    1.000,"PART-1-1",           471,      -6.21541,      -25.0985,            0.,NA,NA,"",   41.6774E-03,   41.6580E-03,   1.27022E-03,   5.32629E-03
C:/temp/dataset/3/14_7.odb,Step-1,Increment      2: Step Time =    1.000,"PART-1-1",           472,      -7.47738,      -26.3212,            0.,NA,NA,"",   31.2407E-03,   31.2252E-03,   984.043E-06,   5.12523E-03
C:/temp/dataset/3/14_7.odb,Step-1,Increment      2: Step Time =    1.000,"PART-1-1",           473,      -6.22867,      -27.5719,            0.,NA,NA,"",   24.4045E-03,   24.3170E-03,   2.06483E-03,   6.62226E-03
C:/temp/dataset/3/14_7.odb,Step-1,Increment      2: Step Time =    1.000,"PART-1-1",           474,   49.7896E-03,      -26.4387,            0.,NA,NA,"",   51.1197E-03,   44.9594E-03,   24.3285E-03,   13.8849E-03
C:/temp/dataset/3/14_7.odb,Step-1,Increment      2: Step Time =    1.000,"PART-1-1",           475,       1.24862,      -27.7048,            0.,NA,NA,"",   34.4832E-03,   27.9353E-03,   20.2166E-03,   14.7164E-03
C:/temp/dataset/3/14_7.odb,Step-1,Increment      2: Step Time =    1.000,"PART-1-1",           476,       2.52056,      -26.5649,            0.,NA,NA,"",   53.4680E-03,   35.7516E-03,   39.7574E-03,   19.6288E-03
C:/temp/dataset/3/14_7.odb,Step-1,Increment      2: Step Time =    1.000,"PART-1-1",           477,       1.32172,      -25.2988,            0.,NA,NA,"",   71.7073E-03,   56.8780E-03,   43.6672E-03,   18.3259E-03
C:/temp/dataset/3/14_7.odb,Step-1,Increment      2: Step Time =    1.000,"PART-1-1",           478,        -13.75,          -20.,            0.,NA,NA,"",   52.5162E-03,   51.6528E-03,   9.48378E-03,   123.475E-06
C:/temp/dataset/3/14_7.odb,Step-1,Increment      2: Step Time =    1.000,"PART-1-1",           479,          -15.,        -21.25,            0.,NA,NA,"",   49.6148E-03,   47.7191E-03,   13.5836E-03,   105.504E-06
C:/temp/dataset/3/14_7.odb,Step-1,Increment      2: Step Time =    1.000,"PART-1-1",           480,      -13.7430,      -22.5153,            0.,NA,NA,"",   44.5545E-03,   43.5482E-03,   9.41563E-03,   149.049E-06
C:/temp/dataset/3/14_7.odb,Step-1,Increment      2: Step Time =    1.000,"PART-1-1",           481,      -12.4930,      -21.2653,            0.,NA,NA,"",   48.0444E-03,   47.7257E-03,   5.52472E-03,   124.676E-06
C:/temp/dataset/3/14_7.odb,Step-1,Increment      2: Step Time =    1.000,"PART-1-1",           482,      -11.2297,      -22.5489,            0.,NA,NA,"",   44.0517E-03,   43.9913E-03,   2.30601E-03,   954.640E-06
C:/temp/dataset/3/14_7.odb,Step-1,Increment      2: Step Time =    1.000,"PART-1-1",           483,        -11.25,          -20.,            0.,NA,NA,"",   51.2118E-03,   51.1635E-03,   2.22306E-03,   177.394E-06
C:/temp/dataset/3/14_7.odb,Step-1,Increment      2: Step Time =    1.000,"PART-1-1",           484,      -13.7448,      -25.0201,            0.,NA,NA,"",   34.0958E-03,   32.9362E-03,   8.81641E-03,   1.03590E-03
C:/temp/dataset/3/14_7.odb,Step-1,Increment      2: Step Time =    1.000,"PART-1-1",           485,      -12.4878,      -23.7854,            0.,NA,NA,"",   39.0747E-03,   38.7108E-03,   5.32092E-03,   1.18510E-03
C:/temp/dataset/3/14_7.odb,Step-1,Increment      2: Step Time =    1.000,"PART-1-1",           486,          -15.,        -23.75,            0.,NA,NA,"",   41.2482E-03,   38.7895E-03,   14.0280E-03,   23.5834E-06
C:/temp/dataset/3/14_7.odb,Step-1,Increment      2: Step Time =    1.000,"PART-1-1",           487,       13.7335,      -27.5520,            0.,NA,NA,"",   76.3216E-03,   3.61881E-03,  -76.2357E-03,   40.0221E-03
C:/temp/dataset/3/14_7.odb,Step-1,Increment      2: Step Time =    1.000,"PART-1-1",           488,       12.4835,      -28.8020,            0.,NA,NA,"",   28.1675E-03,  -12.6384E-03,  -25.1730E-03,   28.6485E-03
C:/temp/dataset/3/14_7.odb,Step-1,Increment      2: Step Time =    1.000,"PART-1-1",           489,         13.75,          -30.,            0.,NA,NA,"",            0.,   170.028E-42,   815.189E-42,   30.8174E-03
C:/temp/dataset/3/14_7.odb,Step-1,Increment      2: Step Time =    1.000,"PART-1-1",           490,           15.,        -28.75,            0.,NA,NA,"",   48.4479E-03,   24.0421E-03,  -42.0616E-03,   41.9332E-03
C:/temp/dataset/3/14_7.odb,Step-1,Increment      2: Step Time =    1.000,"PART-1-1",           491,       9.98010,      -28.8907,            0.,NA,NA,"",   21.5855E-03,  -20.0637E-03,  -7.96126E-03,   15.3155E-03
C:/temp/dataset/3/14_7.odb,Step-1,Increment      2: Step Time =    1.000,"PART-1-1",           492,       8.70049,      -27.8380,            0.,NA,NA,"",   25.2091E-03,  -25.2026E-03,   575.501E-06,   9.48638E-03
C:/temp/dataset/3/14_7.odb,Step-1,Increment      2: Step Time =    1.000,"PART-1-1",           493,          8.75,          -30.,            0.,NA,NA,"",            0.,  -18.3318E-42,  -670.277E-42,   13.4624E-03
C:/temp/dataset/3/14_7.odb,Step-1,Increment      2: Step Time =    1.000,"PART-1-1",           494,       11.2136,      -27.6927,            0.,NA,NA,"",   42.1194E-03,  -24.7728E-03,  -34.0639E-03,   21.5975E-03
C:/temp/dataset/3/14_7.odb,Step-1,Increment      2: Step Time =    1.000,"PART-1-1",           495,       12.3768,      -26.3916,            0.,NA,NA,"",   87.2112E-03,  -11.4316E-03,  -86.4588E-03,   33.0662E-03
C:/temp/dataset/3/14_7.odb,Step-1,Increment      2: Step Time =    1.000,"PART-1-1",           496,       11.0556,      -25.4315,            0.,NA,NA,"",   68.9259E-03,  -14.6721E-03,  -67.3461E-03,   22.8965E-03
C:/temp/dataset/3/14_7.odb,Step-1,Increment      2: Step Time =    1.000,"PART-1-1",           497,       9.89242,      -26.7326,            0.,NA,NA,"",   34.4948E-03,  -27.7972E-03,  -20.4257E-03,   14.1082E-03
C:/temp/dataset/3/14_7.odb,Step-1,Increment      2: Step Time =    1.000,"PART-1-1",           498,   9.79186E-03,      -28.8313,            0.,NA,NA,"",   18.1714E-03,   16.4960E-03,   7.62122E-03,   12.8127E-03
C:/temp/dataset/3/14_7.odb,Step-1,Increment      2: Step Time =    1.000,"PART-1-1",           499,          1.25,          -30.,            0.,NA,NA,"",            0.,  -245.632E-42,  -399.428E-42,   12.4108E-03
C:/temp/dataset/3/14_7.odb,Step-1,Increment      2: Step Time =    1.000,"PART-1-1",           500,      -1.18061,      -25.1833,            0.,NA,NA,"",   60.1112E-03,   56.3010E-03,   21.0607E-03,   11.9340E-03
C:/temp/dataset/3/14_7.odb,Step-1,Increment      2: Step Time =    1.000,"PART-1-1",           501,      -2.45538,      -26.3836,            0.,NA,NA,"",   44.3154E-03,   42.9125E-03,   11.0620E-03,   9.50076E-03
C:/temp/dataset/3/14_7.odb,Step-1,Increment      2: Step Time =    1.000,"PART-1-1",           502,      -1.22498,      -27.6390,            0.,NA,NA,"",   33.5148E-03,   31.4507E-03,   11.5799E-03,   11.2615E-03
C:/temp/dataset/3/14_7.odb,Step-1,Increment      2: Step Time =    1.000,"PART-1-1",           503,      -3.70005,      -25.1329,            0.,NA,NA,"",   49.3801E-03,   48.8564E-03,   7.17282E-03,   7.69633E-03
C:/temp/dataset/3/14_7.odb,Step-1,Increment      2: Step Time =    1.000,"PART-1-1",           504,      -7.49141,      -28.7797,            0.,NA,NA,"",   11.7466E-03,   11.6976E-03,   1.07119E-03,   6.18313E-03
C:/temp/dataset/3/14_7.odb,Step-1,Increment      2: Step Time =    1.000,"PART-1-1",           505,         -6.25,          -30.,            0.,NA,NA,"",            0.,  -50.0698E-42,   16.7553E-42,   7.67717E-03
C:/temp/dataset/3/14_7.odb,Step-1,Increment      2: Step Time =    1.000,"PART-1-1",           506,      -12.4949,      -26.2800,            0.,NA,NA,"",   25.7759E-03,   25.4288E-03,   4.21601E-03,   3.13452E-03
C:/temp/dataset/3/14_7.odb,Step-1,Increment      2: Step Time =    1.000,"PART-1-1",           507,          -15.,        -26.25,            0.,NA,NA,"",   30.0066E-03,   26.6799E-03,   13.7324E-03,   1.43617E-03
C:/temp/dataset/3/14_7.odb,Step-1,Increment      2: Step Time =    1.000,"PART-1-1",           508,       12.0036,      -23.8365,            0.,NA,NA,"",   142.591E-03,   22.5016E-03,  -140.805E-03,   33.0366E-03
C:/temp/dataset/3/14_7.odb,Step-1,Increment      2: Step Time =    1.000,"PART-1-1",           509,       13.6432,      -25.0896,            0.,NA,NA,"",   168.232E-03,   22.8784E-03,  -166.669E-03,   45.1224E-03
C:/temp/dataset/3/14_7.odb,Step-1,Increment      2: Step Time =    1.000,"PART-1-1",           510,           15.,        -23.75,            0.,NA,NA,"",   287.677E-03,   84.9313E-03,  -274.853E-03,   63.2090E-03
C:/temp/dataset/3/14_7.odb,Step-1,Increment      2: Step Time =    1.000,"PART-1-1",           511,         11.25,          -30.,            0.,NA,NA,"",            0.,   49.3257E-42,  -156.500E-42,   20.6908E-03
C:/temp/dataset/3/14_7.odb,Step-1,Increment      2: Step Time =    1.000,"PART-1-1",           512,       13.9281,      -14.6298,            0.,NA,NA,"",       1.16601,   877.515E-03,  -767.824E-03,   60.5151E-03
C:/temp/dataset/3/14_7.odb,Step-1,Increment      2: Step Time =    1.000,"PART-1-1",           513,       12.2657,      -15.3468,            0.,NA,NA,"",   883.115E-03,   751.868E-03,  -463.236E-03,   34.1929E-03
C:/temp/dataset/3/14_7.odb,Step-1,Increment      2: Step Time =    1.000,"PART-1-1",           514,           15.,        -16.25,            0.,NA,NA,"",       1.05238,   663.478E-03,  -816.879E-03,   79.8541E-03
C:/temp/dataset/3/14_7.odb,Step-1,Increment      2: Step Time =    1.000,"PART-1-1",           515,       7.13425,      -14.5121,            0.,NA,NA,"",       1.02036,   969.431E-03,   318.321E-03,   48.6169E-03
C:/temp/dataset/3/14_7.odb,Step-1,Increment      2: Step Time =    1.000,"PART-1-1",           516,       6.81531,      -16.2905,            0.,NA,NA,"",   744.188E-03,   676.877E-03,   309.279E-03,   54.7986E-03
C:/temp/dataset/3/14_7.odb,Step-1,Increment      2: Step Time =    1.000,"PART-1-1",           517,       8.10983,      -17.0757,            0.,NA,NA,"",   543.214E-03,   528.573E-03,   125.269E-03,   33.8251E-03
C:/temp/dataset/3/14_7.odb,Step-1,Increment      2: Step Time =    1.000,"PART-1-1",           518,       13.8641,      -7.41825,            0.,NA,NA,"",       2.68906,       2.37058,      -1.26940,   47.1430E-03
C:/temp/dataset/3/14_7.odb,Step-1,Increment      2: Step Time =    1.000,"PART-1-1",           519,       13.0286,      -8.63342,            0.,NA,NA,"",       2.29903,       2.08200,  -975.097E-03,   39.1748E-03
C:/temp/dataset/3/14_7.odb,Step-1,Increment      2: Step Time =    1.000,"PART-1-1",           520,       14.1645,      -9.96517,            0.,NA,NA,"",       2.10923,       1.76781,      -1.15051,   56.1076E-03
C:/temp/dataset/3/14_7.odb,Step-1,Increment      2: Step Time =    1.000,"PART-1-1",           521,           15.,         -8.75,            0.,NA,NA,"",       2.50544,       2.04147,      -1.45245,   64.7310E-03
C:/temp/dataset/3/14_7.odb,Step-1,Increment      2: Step Time =    1.000,"PART-1-1",           522,       12.0251,      -10.9831,            0.,NA,NA,"",       1.67612,       1.55868,  -616.354E-03,   28.2114E-03
C:/temp/dataset/3/14_7.odb,Step-1,Increment      2: Step Time =    1.000,"PART-1-1",           523,       12.8055,      -11.9581,            0.,NA,NA,"",       1.53405,       1.35174,  -725.327E-03,   39.6091E-03
C:/temp/dataset/3/14_7.odb,Step-1,Increment      2: Step Time =    1.000,"PART-1-1",           524,       13.3751,      -11.0455,            0.,NA,NA,"",       1.78018,       1.53693,  -898.278E-03,   46.6529E-03
C:/temp/dataset/3/14_7.odb,Step-1,Increment      2: Step Time =    1.000,"PART-1-1",           525,       12.5947,      -10.0706,            0.,NA,NA,"",       1.92162,       1.75305,  -787.041E-03,   34.8664E-03
C:/temp/dataset/3/14_7.odb,Step-1,Increment      2: Step Time =    1.000,"PART-1-1",           526,       11.4853,  -434.223E-03,            0.,NA,NA,"",       4.57338,       4.44631,      -1.07057,   14.3506E-03
C:/temp/dataset/3/14_7.odb,Step-1,Increment      2: Step Time =    1.000,"PART-1-1",           527,       10.5886,      -1.82652,            0.,NA,NA,"",       4.11448,       4.05070,  -721.646E-03,   13.8632E-03
C:/temp/dataset/3/14_7.odb,Step-1,Increment      2: Step Time =    1.000,"PART-1-1",           528,       11.9063,      -2.70193,            0.,NA,NA,"",       3.87625,       3.72992,      -1.05497,   21.1834E-03
C:/temp/dataset/3/14_7.odb,Step-1,Increment      2: Step Time =    1.000,"PART-1-1",           529,       14.1300,       7.44597,            0.,NA,NA,"",       7.37260,       6.92084,      -2.54110,   25.3606E-03
C:/temp/dataset/3/14_7.odb,Step-1,Increment      2: Step Time =    1.000,"PART-1-1",           530,       13.1865,       6.25975,            0.,NA,NA,"",       6.89039,       6.56021,      -2.10742,   20.7790E-03
C:/temp/dataset/3/14_7.odb,Step-1,Increment      2: Step Time =    1.000,"PART-1-1",           531,           15.,          6.25,            0.,NA,NA,"",       7.02264,       6.46366,      -2.74566,   31.7968E-03
C:/temp/dataset/3/14_7.odb,Step-1,Increment      2: Step Time =    1.000,"PART-1-1",           532,       12.4155,       5.33720,            0.,NA,NA,"",       6.52908,       6.28517,      -1.76791,   17.0325E-03
C:/temp/dataset/3/14_7.odb,Step-1,Increment      2: Step Time =    1.000,"PART-1-1",           533,       11.2733,       3.54111,            0.,NA,NA,"",       5.87672,       5.74117,      -1.25490,   10.7944E-03
C:/temp/dataset/3/14_7.odb,Step-1,Increment      2: Step Time =    1.000,"PART-1-1",           534,       12.2480,       13.5548,            0.,NA,NA,"",       9.58043,       9.28217,      -2.37193,   11.5896E-03
C:/temp/dataset/3/14_7.odb,Step-1,Increment      2: Step Time =    1.000,"PART-1-1",           535,           15.,         13.75,            0.,NA,NA,"",       9.79053,       9.16656,      -3.43926,   18.7264E-03
C:/temp/dataset/3/14_7.odb,Step-1,Increment      2: Step Time =    1.000,"PART-1-1",           536,       13.6600,       14.9734,            0.,NA,NA,"",       10.1894,       9.72769,      -3.03232,   12.4592E-03
C:/temp/dataset/3/14_7.odb,Step-1,Increment      2: Step Time =    1.000,"PART-1-1",           537,       8.15326,       10.4556,            0.,NA,NA,"",       8.41312,       8.38951,  -629.891E-03,   12.7183E-03
C:/temp/dataset/3/14_7.odb,Step-1,Increment      2: Step Time =    1.000,"PART-1-1",           538,       12.3824,       21.2920,            0.,NA,NA,"",       12.6844,       12.3046,      -3.08079,   5.21950E-03
C:/temp/dataset/3/14_7.odb,Step-1,Increment      2: Step Time =    1.000,"PART-1-1",           539,       13.6892,       20.0188,            0.,NA,NA,"",       12.2061,       11.6981,      -3.48453,   5.32405E-03
C:/temp/dataset/3/14_7.odb,Step-1,Increment      2: Step Time =    1.000,"PART-1-1",           540,           15.,         21.25,            0.,NA,NA,"",       12.7593,       12.0804,      -4.10676,   3.99022E-03
C:/temp/dataset/3/14_7.odb,Step-1,Increment      2: Step Time =    1.000,"PART-1-1",           541,       13.6932,       22.5232,            0.,NA,NA,"",       13.2158,       12.6880,      -3.69781,   2.62455E-03
C:/temp/dataset/3/14_7.odb,Step-1,Increment      2: Step Time =    1.000,"PART-1-1",           542,       9.77662,       16.3041,            0.,NA,NA,"",       10.6611,       10.5306,      -1.66293,   9.54467E-03
C:/temp/dataset/3/14_7.odb,Step-1,Increment      2: Step Time =    1.000,"PART-1-1",           543,       11.0318,       15.0036,            0.,NA,NA,"",       10.1342,       9.92812,      -2.03355,   9.26296E-03
C:/temp/dataset/3/14_7.odb,Step-1,Increment      2: Step Time =    1.000,"PART-1-1",           544,       12.3430,       16.2301,            0.,NA,NA,"",       10.6422,       10.3106,      -2.63582,   9.86013E-03
C:/temp/dataset/3/14_7.odb,Step-1,Increment      2: Step Time =    1.000,"PART-1-1",           545,         13.75,           30.,            0.,NA,NA,"",       16.2216,       15.6329,      -4.33018,   70.1584E-06
C:/temp/dataset/3/14_7.odb,Step-1,Increment      2: Step Time =    1.000,"PART-1-1",           546,       12.4862,       28.7548,            0.,NA,NA,"",       15.6949,       15.2448,      -3.73204,   150.473E-06
C:/temp/dataset/3/14_7.odb,Step-1,Increment      2: Step Time =    1.000,"PART-1-1",           547,           15.,         28.75,            0.,NA,NA,"",       15.7634,       15.0397,      -4.72147,   51.3094E-06
C:/temp/dataset/3/14_7.odb,Step-1,Increment      2: Step Time =    1.000,"PART-1-1",           548,       12.4064,       23.7898,            0.,NA,NA,"",       13.6950,       13.2922,      -3.29717,   2.77438E-03
C:/temp/dataset/3/14_7.odb,Step-1,Increment      2: Step Time =    1.000,"PART-1-1",           549,           15.,         23.75,            0.,NA,NA,"",       13.7618,       13.0677,      -4.31540,   1.34320E-03
C:/temp/dataset/3/14_7.odb,Step-1,Increment      2: Step Time =    1.000,"PART-1-1",           550,       9.91541,       26.3072,            0.,NA,NA,"",       14.7069,       14.4886,      -2.52459,   1.70952E-03
C:/temp/dataset/3/14_7.odb,Step-1,Increment      2: Step Time =    1.000,"PART-1-1",           551,       11.1537,       25.0565,            0.,NA,NA,"",       14.1956,       13.8943,      -2.90929,   2.00668E-03
C:/temp/dataset/3/14_7.odb,Step-1,Increment      2: Step Time =    1.000,"PART-1-1",           552,       11.2110,       27.5221,            0.,NA,NA,"",       15.1886,       14.8624,      -3.13107,   640.417E-06
C:/temp/dataset/3/14_7.odb,Step-1,Increment      2: Step Time =    1.000,"PART-1-1",           553,       8.69233,       27.5515,            0.,NA,NA,"",       15.2298,       15.0781,      -2.14448,   994.722E-06
C:/temp/dataset/3/14_7.odb,Step-1,Increment      2: Step Time =    1.000,"PART-1-1",           554,       7.41297,       26.3376,            0.,NA,NA,"",       14.7860,       14.7049,      -1.54607,   2.07951E-03
C:/temp/dataset/3/14_7.odb,Step-1,Increment      2: Step Time =    1.000,"PART-1-1",           555,       8.63604,       25.0933,            0.,NA,NA,"",       14.2451,       14.1142,      -1.92631,   2.72091E-03
C:/temp/dataset/3/14_7.odb,Step-1,Increment      2: Step Time =    1.000,"PART-1-1",           556,      -1.26375,       27.5391,            0.,NA,NA,"",       15.9698,       15.8742,       1.74476,   930.586E-06
C:/temp/dataset/3/14_7.odb,Step-1,Increment      2: Step Time =    1.000,"PART-1-1",           557,         -1.25,           30.,            0.,NA,NA,"",       16.8969,       16.8259,       1.54708,   1.48311E-03
C:/temp/dataset/3/14_7.odb,Step-1,Increment      2: Step Time =    1.000,"PART-1-1",           558,      -2.50500,       28.7640,            0.,NA,NA,"",       16.5822,       16.4448,       2.12973,   349.482E-06
C:/temp/dataset/3/14_7.odb,Step-1,Increment      2: Step Time =    1.000,"PART-1-1",           559,      -7.50143,       28.7522,            0.,NA,NA,"",       17.3030,       16.8221,       4.05075,   408.876E-06
C:/temp/dataset/3/14_7.odb,Step-1,Increment      2: Step Time =    1.000,"PART-1-1",           560,         -8.75,           30.,            0.,NA,NA,"",       17.9471,       17.3912,       4.43253,   1.66307E-03
C:/temp/dataset/3/14_7.odb,Step-1,Increment      2: Step Time =    1.000,"PART-1-1",           561,      -6.25460,       27.5081,            0.,NA,NA,"",       16.6601,       16.2512,       3.66839,   889.541E-06
C:/temp/dataset/3/14_7.odb,Step-1,Increment      2: Step Time =    1.000,"PART-1-1",           562,        -13.75,           30.,            0.,NA,NA,"",       18.8529,       17.7589,       6.32895,   411.618E-06
C:/temp/dataset/3/14_7.odb,Step-1,Increment      2: Step Time =    1.000,"PART-1-1",           563,          -15.,         28.75,            0.,NA,NA,"",       18.6963,       17.3790,       6.89367,   371.998E-06
C:/temp/dataset/3/14_7.odb,Step-1,Increment      2: Step Time =    1.000,"PART-1-1",           564,      -13.7509,       27.5010,            0.,NA,NA,"",       18.0319,       16.8140,       6.51449,   1.02663E-03
C:/temp/dataset/3/14_7.odb,Step-1,Increment      2: Step Time =    1.000,"PART-1-1",           565,          -15.,         26.25,            0.,NA,NA,"",       17.8927,       16.4341,       7.07596,   1.48848E-03
C:/temp/dataset/3/14_7.odb,Step-1,Increment      2: Step Time =    1.000,"PART-1-1",           566,      -12.5016,       26.2536,            0.,NA,NA,"",       17.3703,       16.2506,       6.13567,   1.59207E-03
C:/temp/dataset/3/14_7.odb,Step-1,Increment      2: Step Time =    1.000,"PART-1-1",           567,      -7.50093,       21.2547,            0.,NA,NA,"",       14.6954,       13.9542,       4.60810,   7.36636E-03
C:/temp/dataset/3/14_7.odb,Step-1,Increment      2: Step Time =    1.000,"PART-1-1",           568,         -6.25,           20.,            0.,NA,NA,"",       14.0206,       13.3691,       4.22428,   8.65013E-03
C:/temp/dataset/3/14_7.odb,Step-1,Increment      2: Step Time =    1.000,"PART-1-1",           569,      -4.99978,       21.2574,            0.,NA,NA,"",       14.2270,       13.7492,       3.65618,   7.33694E-03
C:/temp/dataset/3/14_7.odb,Step-1,Increment      2: Step Time =    1.000,"PART-1-1",           570,      -3.74911,       22.5208,            0.,NA,NA,"",       14.4661,       14.1334,       3.08431,   6.00835E-03
C:/temp/dataset/3/14_7.odb,Step-1,Increment      2: Step Time =    1.000,"PART-1-1",           571,         -3.75,           20.,            0.,NA,NA,"",       13.5600,       13.1594,       3.27145,   8.63349E-03
C:/temp/dataset/3/14_7.odb,Step-1,Increment      2: Step Time =    1.000,"PART-1-1",           572,      -2.49933,       21.2634,            0.,NA,NA,"",       13.8097,       13.5434,       2.69901,   7.30739E-03
C:/temp/dataset/3/14_7.odb,Step-1,Increment      2: Step Time =    1.000,"PART-1-1",           573,         -1.25,           20.,            0.,NA,NA,"",       13.1526,       12.9475,       2.31349,   8.67290E-03
C:/temp/dataset/3/14_7.odb,Step-1,Increment      2: Step Time =    1.000,"PART-1-1",           574,  -2.23348E-03,       21.2694,            0.,NA,NA,"",       13.4486,       13.3358,       1.73789,   7.35253E-03
C:/temp/dataset/3/14_7.odb,Step-1,Increment      2: Step Time =    1.000,"PART-1-1",           575,      -1.25156,       22.5328,            0.,NA,NA,"",       14.0929,       13.9319,       2.12400,   5.93180E-03
C:/temp/dataset/3/14_7.odb,Step-1,Increment      2: Step Time =    1.000,"PART-1-1",           576,         -3.75,           30.,            0.,NA,NA,"",       17.2015,       17.0168,       2.51431,   1.62793E-03
C:/temp/dataset/3/14_7.odb,Step-1,Increment      2: Step Time =    1.000,"PART-1-1",           577,      -5.00318,       28.7559,            0.,NA,NA,"",       16.9190,       16.6338,       3.09311,   385.789E-06
C:/temp/dataset/3/14_7.odb,Step-1,Increment      2: Step Time =    1.000,"PART-1-1",           578,       7.36074,       18.8052,            0.,NA,NA,"",       11.7527,       11.7154,  -934.626E-03,   9.63509E-03
C:/temp/dataset/3/14_7.odb,Step-1,Increment      2: Step Time =    1.000,"PART-1-1",           579,       8.58169,       17.5494,            0.,NA,NA,"",       11.1921,       11.1157,      -1.30570,   9.17760E-03
C:/temp/dataset/3/14_7.odb,Step-1,Increment      2: Step Time =    1.000,"PART-1-1",           580,       8.60057,       20.0599,            0.,NA,NA,"",       12.2105,       12.1164,      -1.51285,   8.71995E-03
C:/temp/dataset/3/14_7.odb,Step-1,Increment      2: Step Time =    1.000,"PART-1-1",           581,            5.,         18.75,            0.,NA,NA,"",       11.8905,       11.8905,  -5.91015E-03,   9.32824E-03
C:/temp/dataset/3/14_7.odb,Step-1,Increment      2: Step Time =    1.000,"PART-1-1",           582,       6.17685,       17.5255,            0.,NA,NA,"",       11.3066,       11.3003,  -376.365E-03,   9.24833E-03
C:/temp/dataset/3/14_7.odb,Step-1,Increment      2: Step Time =    1.000,"PART-1-1",           583,       6.18390,       20.0298,            0.,NA,NA,"",       12.3203,       12.3070,  -573.514E-03,   9.78127E-03
C:/temp/dataset/3/14_7.odb,Step-1,Increment      2: Step Time =    1.000,"PART-1-1",           584,            5.,         16.25,            0.,NA,NA,"",       10.8932,       10.8919,   172.862E-03,   14.3305E-03
C:/temp/dataset/3/14_7.odb,Step-1,Increment      2: Step Time =    1.000,"PART-1-1",           585,       6.15340,       15.0385,            0.,NA,NA,"",       10.3178,       10.3160,  -189.513E-03,   13.1970E-03
C:/temp/dataset/3/14_7.odb,Step-1,Increment      2: Step Time =    1.000,"PART-1-1",           586,       7.33024,       16.3140,            0.,NA,NA,"",       10.7494,       10.7245,  -731.099E-03,   9.93815E-03
C:/temp/dataset/3/14_7.odb,Step-1,Increment      2: Step Time =    1.000,"PART-1-1",           587,           15.,         16.25,            0.,NA,NA,"",       10.7670,       10.1229,      -3.66818,   13.2475E-03
C:/temp/dataset/3/14_7.odb,Step-1,Increment      2: Step Time =    1.000,"PART-1-1",           588,       13.6830,       17.5067,            0.,NA,NA,"",       11.1968,       10.7103,      -3.26448,   8.75746E-03
C:/temp/dataset/3/14_7.odb,Step-1,Increment      2: Step Time =    1.000,"PART-1-1",           589,           15.,         18.75,            0.,NA,NA,"",       11.7591,       11.0966,      -3.89119,   8.12717E-03
C:/temp/dataset/3/14_7.odb,Step-1,Increment      2: Step Time =    1.000,"PART-1-1",           590,       7.36831,       6.81272,            0.,NA,NA,"",       7.09380,       7.09244,  -138.968E-03,   15.1448E-03
C:/temp/dataset/3/14_7.odb,Step-1,Increment      2: Step Time =    1.000,"PART-1-1",           591,       6.10412,       7.73110,            0.,NA,NA,"",       7.52122,       7.51704,   250.761E-03,   26.1397E-03
C:/temp/dataset/3/14_7.odb,Step-1,Increment      2: Step Time =    1.000,"PART-1-1",           592,            5.,          6.25,            0.,NA,NA,"",       7.08656,       7.05294,   689.464E-03,   46.4347E-03
C:/temp/dataset/3/14_7.odb,Step-1,Increment      2: Step Time =    1.000,"PART-1-1",           593,       6.26419,       5.33162,            0.,NA,NA,"",       6.63726,       6.63019,   306.188E-03,   27.1468E-03
C:/temp/dataset/3/14_7.odb,Step-1,Increment      2: Step Time =    1.000,"PART-1-1",           594,           15.,          8.75,            0.,NA,NA,"",       7.91202,       7.33159,      -2.97452,   28.6519E-03
C:/temp/dataset/3/14_7.odb,Step-1,Increment      2: Step Time =    1.000,"PART-1-1",           595,       13.1418,       8.51598,            0.,NA,NA,"",       7.69907,       7.35456,      -2.27730,   18.7008E-03
C:/temp/dataset/3/14_7.odb,Step-1,Increment      2: Step Time =    1.000,"PART-1-1",           596,       6.30252,      -5.49102,            0.,NA,NA,"",       3.19161,       3.13032,   622.487E-03,   40.3454E-03
C:/temp/dataset/3/14_7.odb,Step-1,Increment      2: Step Time =    1.000,"PART-1-1",           597,            5.,         -6.25,            0.,NA,NA,"",       3.15411,       2.99890,   977.263E-03,   75.3150E-03
C:/temp/dataset/3/14_7.odb,Step-1,Increment      2: Step Time =    1.000,"PART-1-1",           598,       6.10325,      -7.87566,            0.,NA,NA,"",       2.57790,       2.49097,   663.807E-03,   51.7401E-03
C:/temp/dataset/3/14_7.odb,Step-1,Increment      2: Step Time =    1.000,"PART-1-1",           599,       7.40577,      -7.11668,            0.,NA,NA,"",       2.64974,       2.62775,   340.595E-03,   28.2070E-03
C:/temp/dataset/3/14_7.odb,Step-1,Increment      2: Step Time =    1.000,"PART-1-1",           600,            5.,         -8.75,            0.,NA,NA,"",       2.49653,       2.32721,   903.762E-03,   68.0730E-03
C:/temp/dataset/3/14_7.odb,Step-1,Increment      2: Step Time =    1.000,"PART-1-1",           601,            5.,        -13.75,            0.,NA,NA,"",       1.39086,       1.19941,   704.195E-03,   76.1810E-03
C:/temp/dataset/3/14_7.odb,Step-1,Increment      2: Step Time =    1.000,"PART-1-1",           602,       5.77894,      -15.1288,            0.,NA,NA,"",       1.04515,   912.445E-03,   509.688E-03,   68.7819E-03
C:/temp/dataset/3/14_7.odb,Step-1,Increment      2: Step Time =    1.000,"PART-1-1",           603,            5.,        -16.25,            0.,NA,NA,"",   947.452E-03,   758.897E-03,   567.221E-03,   83.3190E-03
C:/temp/dataset/3/14_7.odb,Step-1,Increment      2: Step Time =    1.000,"PART-1-1",           604,       2.77244,      -24.0596,            0.,NA,NA,"",   103.213E-03,   71.4911E-03,   74.4438E-03,   26.2598E-03
C:/temp/dataset/3/14_7.odb,Step-1,Increment      2: Step Time =    1.000,"PART-1-1",           605,       3.76359,      -25.5842,            0.,NA,NA,"",   73.3861E-03,   39.7045E-03,   61.7177E-03,   24.0181E-03
C:/temp/dataset/3/14_7.odb,Step-1,Increment      2: Step Time =    1.000,"PART-1-1",           606,       5.11162,      -24.8806,            0.,NA,NA,"",   86.9411E-03,   35.2902E-03,   79.4567E-03,   29.2103E-03
C:/temp/dataset/3/14_7.odb,Step-1,Increment      2: Step Time =    1.000,"PART-1-1",           607,       4.12047,      -23.3559,            0.,NA,NA,"",   135.978E-03,   77.7999E-03,   111.523E-03,   33.8617E-03
C:/temp/dataset/3/14_7.odb,Step-1,Increment      2: Step Time =    1.000,"PART-1-1",           608,       8.48587,      -2.76980,            0.,NA,NA,"",       3.85770,       3.85706,  -69.9404E-03,   20.2054E-03
C:/temp/dataset/3/14_7.odb,Step-1,Increment      2: Step Time =    1.000,"PART-1-1",           609,       9.66601,      -3.38468,            0.,NA,NA,"",       3.63145,       3.61157,  -379.455E-03,   15.2447E-03
C:/temp/dataset/3/14_7.odb,Step-1,Increment      2: Step Time =    1.000,"PART-1-1",           610,       9.40849,      -1.21164,            0.,NA,NA,"",       4.31909,       4.30012,  -404.370E-03,   13.7392E-03
C:/temp/dataset/3/14_7.odb,Step-1,Increment      2: Step Time =    1.000,"PART-1-1",           611,       3.88333,            5.,            0.,NA,NA,"",       6.69460,       6.61613,       1.02198,   17.6155E-03
C:/temp/dataset/3/14_7.odb,Step-1,Increment      2: Step Time =    1.000,"PART-1-1",           612,       3.93709,       2.49951,            0.,NA,NA,"",       5.93294,       5.82622,       1.12025,   15.8819E-03
C:/temp/dataset/3/14_7.odb,Step-1,Increment      2: Step Time =    1.000,"PART-1-1",           613,       5.14044,       3.62548,            0.,NA,NA,"",       6.16977,       6.12768,   719.519E-03,   28.9571E-03
C:/temp/dataset/3/14_7.odb,Step-1,Increment      2: Step Time =    1.000,"PART-1-1",           614,       1.70000,           -5.,            0.,NA,NA,"",       4.15872,       3.54945,       2.16711,   3.41627E-03
C:/temp/dataset/3/14_7.odb,Step-1,Increment      2: Step Time =    1.000,"PART-1-1",           615,       2.88648,      -4.17028,            0.,NA,NA,"",       4.13317,       3.75315,       1.73116,   7.10391E-03
C:/temp/dataset/3/14_7.odb,Step-1,Increment      2: Step Time =    1.000,"PART-1-1",           616,       1.90498,      -3.27989,            0.,NA,NA,"",       4.56006,       4.09388,       2.00856,   4.87604E-03
C:/temp/dataset/3/14_7.odb,Step-1,Increment      2: Step Time =    1.000,"PART-1-1",           617,      -2.82853,       3.20340,            0.,NA,NA,"",       7.13672,       6.38752,       3.18314,   830.018E-06
C:/temp/dataset/3/14_7.odb,Step-1,Increment      2: Step Time =    1.000,"PART-1-1",           618,      -1.73717,       4.08745,            0.,NA,NA,"",       7.17589,       6.60931,       2.79472,   1.12576E-03
C:/temp/dataset/3/14_7.odb,Step-1,Increment      2: Step Time =    1.000,"PART-1-1",           619,      -2.81667,            5.,            0.,NA,NA,"",       7.60770,       6.95254,       3.08859,   1.20758E-03
C:/temp/dataset/3/14_7.odb,Step-1,Increment      2: Step Time =    1.000,"PART-1-1",           620,      -7.28333,            5.,            0.,NA,NA,"",       8.47517,       7.18300,       4.49811,   147.504E-06
C:/temp/dataset/3/14_7.odb,Step-1,Increment      2: Step Time =    1.000,"PART-1-1",           621,      -11.7000,            5.,            0.,NA,NA,"",       9.46665,       7.40906,       5.89264,   1.60992E-06
C:/temp/dataset/3/14_7.odb,Step-1,Increment      2: Step Time =    1.000,"PART-1-1",           622,      -11.5540,       2.50359,            0.,NA,NA,"",       8.91232,       6.61347,       5.97423,   21.7363E-06
C:/temp/dataset/3/14_7.odb,Step-1,Increment      2: Step Time =    1.000,"PART-1-1",           623,      -8.37698,      -4.01732,            0.,NA,NA,"",       6.88752,       4.39254,       5.30505,   68.1749E-06
C:/temp/dataset/3/14_7.odb,Step-1,Increment      2: Step Time =    1.000,"PART-1-1",           624,      -10.5279,      -3.86372,            0.,NA,NA,"",       7.51163,       4.55101,       5.97603,   16.7350E-06
C:/temp/dataset/3/14_7.odb,Step-1,Increment      2: Step Time =    1.000,"PART-1-1",           625,      -9.41667,           -5.,            0.,NA,NA,"",       7.02876,       4.13553,       5.68339,   31.1788E-06
C:/temp/dataset/3/14_7.odb,Step-1,Increment      2: Step Time =    1.000,"PART-1-1",           626,          3.75,          -20.,            0.,NA,NA,"",   172.184E-03,   119.095E-03,   124.353E-03,   61.5710E-03
C:/temp/dataset/3/14_7.odb,Step-1,Increment      2: Step Time =    1.000,"PART-1-1",           627,       2.74072,      -21.3682,            0.,NA,NA,"",   145.335E-03,   107.810E-03,   97.4644E-03,   22.1809E-03
C:/temp/dataset/3/14_7.odb,Step-1,Increment      2: Step Time =    1.000,"PART-1-1",           628,       4.11640,      -22.1674,            0.,NA,NA,"",   176.745E-03,   109.872E-03,   138.445E-03,   41.9817E-03
C:/temp/dataset/3/14_7.odb,Step-1,Increment      2: Step Time =    1.000,"PART-1-1",           629,       5.12568,      -20.7992,            0.,NA,NA,"",   257.464E-03,   146.991E-03,   211.379E-03,   72.9342E-03
C:/temp/dataset/3/14_7.odb,Step-1,Increment      2: Step Time =    1.000,"PART-1-1",           630,          1.25,          -20.,            0.,NA,NA,"",   80.8510E-03,   66.6987E-03,   45.6966E-03,   13.2002E-03
C:/temp/dataset/3/14_7.odb,Step-1,Increment      2: Step Time =    1.000,"PART-1-1",           631,   73.0809E-03,      -21.3299,            0.,NA,NA,"",   81.3269E-03,   74.4836E-03,   32.6537E-03,   9.32342E-03
C:/temp/dataset/3/14_7.odb,Step-1,Increment      2: Step Time =    1.000,"PART-1-1",           632,       1.56380,      -22.6981,            0.,NA,NA,"",   108.542E-03,   87.6272E-03,   64.0538E-03,   23.5419E-03
C:/temp/dataset/3/14_7.odb,Step-1,Increment      2: Step Time =    1.000,"PART-1-1",           633,         -1.25,          -20.,            0.,NA,NA,"",   61.7214E-03,   59.4685E-03,   16.5235E-03,   3.84063E-03
C:/temp/dataset/3/14_7.odb,Step-1,Increment      2: Step Time =    1.000,"PART-1-1",           634,      -2.46493,      -21.3147,            0.,NA,NA,"",   62.5705E-03,   61.8000E-03,   9.78922E-03,   4.53495E-03
C:/temp/dataset/3/14_7.odb,Step-1,Increment      2: Step Time =    1.000,"PART-1-1",           635,      -1.14185,      -22.6446,            0.,NA,NA,"",   73.3642E-03,   69.8664E-03,   22.3830E-03,   10.3760E-03
C:/temp/dataset/3/14_7.odb,Step-1,Increment      2: Step Time =    1.000,"PART-1-1",           636,         -3.75,          -20.,            0.,NA,NA,"",   53.8784E-03,   53.8511E-03,   1.71379E-03,   1.97941E-03
C:/temp/dataset/3/14_7.odb,Step-1,Increment      2: Step Time =    1.000,"PART-1-1",           637,      -4.97847,      -21.2978,            0.,NA,NA,"",   54.3033E-03,   54.3006E-03,  -537.352E-06,   2.43665E-03
C:/temp/dataset/3/14_7.odb,Step-1,Increment      2: Step Time =    1.000,"PART-1-1",           638,      -3.69340,      -22.6125,            0.,NA,NA,"",   58.2038E-03,   57.9777E-03,   5.12553E-03,   5.49658E-03
C:/temp/dataset/3/14_7.odb,Step-1,Increment      2: Step Time =    1.000,"PART-1-1",           639,      -4.95791,      -23.8547,            0.,NA,NA,"",   50.8651E-03,   50.8046E-03,   2.47906E-03,   5.12537E-03
C:/temp/dataset/3/14_7.odb,Step-1,Increment      2: Step Time =    1.000,"PART-1-1",           640,      -6.21189,      -22.5887,            0.,NA,NA,"",   50.6763E-03,   50.6644E-03,  -1.09903E-03,   3.33871E-03
C:/temp/dataset/3/14_7.odb,Step-1,Increment      2: Step Time =    1.000,"PART-1-1",           641,      -7.46939,      -23.8324,            0.,NA,NA,"",   44.2643E-03,   44.2578E-03,  -760.854E-06,   3.47030E-03
C:/temp/dataset/3/14_7.odb,Step-1,Increment      2: Step Time =    1.000,"PART-1-1",           642,           15.,        -13.75,            0.,NA,NA,"",       1.45936,       1.03920,      -1.02459,   76.2936E-03
C:/temp/dataset/3/14_7.odb,Step-1,Increment      2: Step Time =    1.000,"PART-1-1",           643,       14.2106,      -12.3304,            0.,NA,NA,"",       1.61605,       1.28270,  -983.005E-03,   61.3011E-03
C:/temp/dataset/3/14_7.odb,Step-1,Increment      2: Step Time =    1.000,"PART-1-1",           644,       13.1387,      -13.2101,            0.,NA,NA,"",       1.32469,       1.11326,  -717.942E-03,   45.7065E-03
C:/temp/dataset/3/14_7.odb,Step-1,Increment      2: Step Time =    1.000,"PART-1-1",           645,           15.,        -11.25,            0.,NA,NA,"",       1.94452,       1.50079,      -1.23645,   71.0043E-03
C:/temp/dataset/3/14_7.odb,Step-1,Increment      2: Step Time =    1.000,"PART-1-1",           646,           15.,         -6.25,            0.,NA,NA,"",       3.13720,       2.65510,      -1.67108,   57.1197E-03
C:/temp/dataset/3/14_7.odb,Step-1,Increment      2: Step Time =    1.000,"PART-1-1",           647,       14.0624,      -4.92369,            0.,NA,NA,"",       3.38472,       3.02603,      -1.51640,   43.3899E-03
C:/temp/dataset/3/14_7.odb,Step-1,Increment      2: Step Time =    1.000,"PART-1-1",           648,       12.9264,      -6.09194,            0.,NA,NA,"",       2.95103,       2.73127,      -1.11747,   34.4239E-03
C:/temp/dataset/3/14_7.odb,Step-1,Increment      2: Step Time =    1.000,"PART-1-1",           649,           15.,         -3.75,            0.,NA,NA,"",       3.83121,       3.33343,      -1.88849,   48.5636E-03
C:/temp/dataset/3/14_7.odb,Step-1,Increment      2: Step Time =    1.000,"PART-1-1",           650,       13.0440,      -3.68493,            0.,NA,NA,"",       3.64870,       3.40232,      -1.31803,   31.5313E-03
C:/temp/dataset/3/14_7.odb,Step-1,Increment      2: Step Time =    1.000,"PART-1-1",           651,       8.06094,   477.426E-03,            0.,NA,NA,"",       4.91840,       4.91791,  -69.5414E-03,   16.3029E-03
C:/temp/dataset/3/14_7.odb,Step-1,Increment      2: Step Time =    1.000,"PART-1-1",           652,       8.76493,       2.31856,            0.,NA,NA,"",       5.48834,       5.47585,  -370.087E-03,   9.75491E-03
C:/temp/dataset/3/14_7.odb,Step-1,Increment      2: Step Time =    1.000,"PART-1-1",           653,       6.73548,       2.80805,            0.,NA,NA,"",       5.76541,       5.75988,   252.627E-03,   19.4883E-03
C:/temp/dataset/3/14_7.odb,Step-1,Increment      2: Step Time =    1.000,"PART-1-1",           654,       6.03149,   966.916E-03,            0.,NA,NA,"",       5.23064,       5.20308,   536.193E-03,   23.4862E-03
C:/temp/dataset/3/14_7.odb,Step-1,Increment      2: Step Time =    1.000,"PART-1-1",           655,            5.,          8.75,            0.,NA,NA,"",       8.01036,       7.98787,   599.853E-03,   30.6068E-03
C:/temp/dataset/3/14_7.odb,Step-1,Increment      2: Step Time =    1.000,"PART-1-1",           656,       7.16919,       9.14751,            0.,NA,NA,"",       7.97086,       7.96843,  -196.848E-03,   18.2423E-03
C:/temp/dataset/3/14_7.odb,Step-1,Increment      2: Step Time =    1.000,"PART-1-1",           657,          3.75,           30.,            0.,NA,NA,"",       16.4409,       16.4360,  -402.134E-03,   653.110E-06
C:/temp/dataset/3/14_7.odb,Step-1,Increment      2: Step Time =    1.000,"PART-1-1",           658,       3.71036,       27.5731,            0.,NA,NA,"",       15.4918,       15.4906,  -193.815E-03,   1.19962E-03
C:/temp/dataset/3/14_7.odb,Step-1,Increment      2: Step Time =    1.000,"PART-1-1",           659,       7.38617,       23.8490,            0.,NA,NA,"",       13.7913,       13.7261,      -1.33915,   4.57153E-03
C:/temp/dataset/3/14_7.odb,Step-1,Increment      2: Step Time =    1.000,"PART-1-1",           660,       6.16255,       25.1024,            0.,NA,NA,"",       14.3541,       14.3220,  -958.755E-03,   3.00359E-03
C:/temp/dataset/3/14_7.odb,Step-1,Increment      2: Step Time =    1.000,"PART-1-1",           661,       4.93576,       23.8439,            0.,NA,NA,"",       13.9345,       13.9294,  -380.118E-03,   4.11421E-03
C:/temp/dataset/3/14_7.odb,Step-1,Increment      2: Step Time =    1.000,"PART-1-1",           662,       6.15938,       22.5905,            0.,NA,NA,"",       13.3535,       13.3318,  -761.009E-03,   5.97485E-03
C:/temp/dataset/3/14_7.odb,Step-1,Increment      2: Step Time =    1.000,"PART-1-1",           663,      -10.0017,       23.7560,            0.,NA,NA,"",       16.0377,       15.1107,       5.37334,   4.89163E-03
C:/temp/dataset/3/14_7.odb,Step-1,Increment      2: Step Time =    1.000,"PART-1-1",           664,      -8.75135,       22.5073,            0.,NA,NA,"",       15.3679,       14.5349,       4.99098,   6.15124E-03
C:/temp/dataset/3/14_7.odb,Step-1,Increment      2: Step Time =    1.000,"PART-1-1",           665,      -10.0004,       21.2526,            0.,NA,NA,"",       15.2075,       14.1571,       5.55387,   7.39546E-03
C:/temp/dataset/3/14_7.odb,Step-1,Increment      2: Step Time =    1.000,"PART-1-1",           666,      -11.2505,       22.5043,            0.,NA,NA,"",       15.8845,       14.7341,       5.93501,   6.57983E-03
C:/temp/dataset/3/14_7.odb,Step-1,Increment      2: Step Time =    1.000,"PART-1-1",           667,        -11.25,           20.,            0.,NA,NA,"",       15.0769,       13.7817,       6.11380,   8.26475E-03
C:/temp/dataset/3/14_7.odb,Step-1,Increment      2: Step Time =    1.000,"PART-1-1",           668,         -8.75,           20.,            0.,NA,NA,"",       14.5283,       13.5766,       5.17172,   8.62897E-03
C:/temp/dataset/3/14_7.odb,Step-1,Increment      2: Step Time =    1.000,"PART-1-1",           669,       7.37456,       21.3253,            0.,NA,NA,"",       12.7752,       12.7245,      -1.13724,   8.57040E-03
C:/temp/dataset/3/14_7.odb,Step-1,Increment      2: Step Time =    1.000,"PART-1-1",           670,      -1.26076,       25.0501,            0.,NA,NA,"",       15.0346,       14.9095,       1.93571,   3.26213E-03
C:/temp/dataset/3/14_7.odb,Step-1,Increment      2: Step Time =    1.000,"PART-1-1",           671,      -2.50213,       23.7814,            0.,NA,NA,"",       14.7343,       14.5187,       2.51087,   4.66405E-03
C:/temp/dataset/3/14_7.odb,Step-1,Increment      2: Step Time =    1.000,"PART-1-1",           672,          1.25,           20.,            0.,NA,NA,"",       12.8049,       12.7335,       1.35017,   9.03966E-03
C:/temp/dataset/3/14_7.odb,Step-1,Increment      2: Step Time =    1.000,"PART-1-1",           673,            5.,         13.75,            0.,NA,NA,"",       9.91208,       9.90645,   334.191E-03,   19.2999E-03
C:/temp/dataset/3/14_7.odb,Step-1,Increment      2: Step Time =    1.000,"PART-1-1",           674,       7.85923,       4.51418,            0.,NA,NA,"",       6.26133,       6.25867,  -182.314E-03,   11.2727E-03
C:/temp/dataset/3/14_7.odb,Step-1,Increment      2: Step Time =    1.000,"PART-1-1",           675,       9.45843,       7.45797,            0.,NA,NA,"",       7.25069,       7.19506,  -896.433E-03,   8.47566E-03
C:/temp/dataset/3/14_7.odb,Step-1,Increment      2: Step Time =    1.000,"PART-1-1",           676,       11.3500,       8.04392,            0.,NA,NA,"",       7.46454,       7.29086,      -1.60084,   11.4038E-03
C:/temp/dataset/3/14_7.odb,Step-1,Increment      2: Step Time =    1.000,"PART-1-1",           677,       10.2386,       8.70699,            0.,NA,NA,"",       7.70199,       7.59885,      -1.25622,   8.92880E-03
C:/temp/dataset/3/14_7.odb,Step-1,Increment      2: Step Time =    1.000,"PART-1-1",           678,   133.314E-03,       2.02047,            0.,NA,NA,"",       6.30478,       5.86601,       2.31089,   1.13066E-03
C:/temp/dataset/3/14_7.odb,Step-1,Increment      2: Step Time =    1.000,"PART-1-1",           679,       2.26054,       1.70692,            0.,NA,NA,"",       5.89845,       5.65913,       1.66313,   6.73589E-03
C:/temp/dataset/3/14_7.odb,Step-1,Increment      2: Step Time =    1.000,"PART-1-1",           680,  -583.333E-03,            5.,            0.,NA,NA,"",       7.24063,       6.83585,       2.38703,   2.68341E-03
C:/temp/dataset/3/14_7.odb,Step-1,Increment      2: Step Time =    1.000,"PART-1-1",           681,  -713.179E-03,       3.09316,            0.,NA,NA,"",       6.73527,       6.24506,       2.52253,   798.707E-06
C:/temp/dataset/3/14_7.odb,Step-1,Increment      2: Step Time =    1.000,"PART-1-1",           682,      -10.2084,       1.19941,            0.,NA,NA,"",       8.31589,       6.13297,       5.61611,   47.7670E-06
C:/temp/dataset/3/14_7.odb,Step-1,Increment      2: Step Time =    1.000,"PART-1-1",           683,      -7.18333,           -5.,            0.,NA,NA,"",       6.39978,       4.02129,       4.97860,   147.291E-06
C:/temp/dataset/3/14_7.odb,Step-1,Increment      2: Step Time =    1.000,"PART-1-1",           684,      -7.36178,      -2.99006,            0.,NA,NA,"",       6.78883,       4.66498,       4.93215,   205.479E-06
C:/temp/dataset/3/14_7.odb,Step-1,Increment      2: Step Time =    1.000,"PART-1-1",           685,      -11.3125,  -91.5578E-03,            0.,NA,NA,"",       8.35465,       5.78189,       6.03074,   37.4168E-06
C:/temp/dataset/3/14_7.odb,Step-1,Increment      2: Step Time =    1.000,"PART-1-1",           686,      -11.6500,           -5.,            0.,NA,NA,"",       7.67271,       4.24970,       6.38831,   1.67737E-06
C:/temp/dataset/3/14_7.odb,Step-1,Increment      2: Step Time =    1.000,"PART-1-1",           687,      -11.6245,      -2.63993,            0.,NA,NA,"",       8.00727,       4.99338,       6.25959,   19.6064E-06
C:/temp/dataset/3/14_7.odb,Step-1,Increment      2: Step Time =    1.000,"PART-1-1",           688,      -1.03706,       1.18772,            0.,NA,NA,"",       6.28277,       5.66318,       2.72059,   814.558E-06
C:/temp/dataset/3/14_7.odb,Step-1,Increment      2: Step Time =    1.000,"PART-1-1",           689,      -2.26684,   407.252E-03,            0.,NA,NA,"",       6.31950,       5.47923,       3.14867,   930.588E-06
C:/temp/dataset/3/14_7.odb,Step-1,Increment      2: Step Time =    1.000,"PART-1-1",           690,      -1.61706,  -775.207E-03,            0.,NA,NA,"",       5.89596,       5.07314,       3.00426,   870.956E-06
C:/temp/dataset/3/14_7.odb,Step-1,Increment      2: Step Time =    1.000,"PART-1-1",           691,      -4.44627,  -189.662E-03,            0.,NA,NA,"",       6.64315,       5.40101,       3.86788,   652.476E-06
C:/temp/dataset/3/14_7.odb,Step-1,Increment      2: Step Time =    1.000,"PART-1-1",           692,      -3.83065,   850.686E-03,            0.,NA,NA,"",       6.75054,       5.69796,       3.61982,   696.560E-06
C:/temp/dataset/3/14_7.odb,Step-1,Increment      2: Step Time =    1.000,"PART-1-1",           693,      -5.38306,   384.196E-03,            0.,NA,NA,"",       6.98455,       5.62959,       4.13420,   457.631E-06
C:/temp/dataset/3/14_7.odb,Step-1,Increment      2: Step Time =    1.000,"PART-1-1",           694,       3.90000,           -5.,            0.,NA,NA,"",       3.71340,       3.42478,       1.43534,   21.2824E-03
C:/temp/dataset/3/14_7.odb,Step-1,Increment      2: Step Time =    1.000,"PART-1-1",           695,       5.25667,      -4.01677,            0.,NA,NA,"",       3.76721,       3.65419,   915.848E-03,   41.3979E-03
C:/temp/dataset/3/14_7.odb,Step-1,Increment      2: Step Time =    1.000,"PART-1-1",           696,       4.24316,      -3.18705,            0.,NA,NA,"",       4.17276,       3.98725,       1.23033,   20.8788E-03
C:/temp/dataset/3/14_7.odb,Step-1,Increment      2: Step Time =    1.000,"PART-1-1",           697,       9.51721,      -4.82762,            0.,NA,NA,"",       3.19837,       3.18643,  -276.156E-03,   14.9438E-03
C:/temp/dataset/3/14_7.odb,Step-1,Increment      2: Step Time =    1.000,"PART-1-1",           698,       8.04384,      -4.93500,            0.,NA,NA,"",       3.21740,       3.21482,   128.810E-03,   22.0541E-03
C:/temp/dataset/3/14_7.odb,Step-1,Increment      2: Step Time =    1.000,"PART-1-1",           699,       8.61490,      -6.56470,            0.,NA,NA,"",       2.72850,       2.72842,   19.9809E-03,   15.3520E-03
C:/temp/dataset/3/14_7.odb,Step-1,Increment      2: Step Time =    1.000,"PART-1-1",           700,       10.0883,      -6.45732,            0.,NA,NA,"",       2.72994,       2.70611,  -359.926E-03,   12.3983E-03
C:/temp/dataset/3/14_7.odb,Step-1,Increment      2: Step Time =    1.000,"PART-1-1",           701,       9.29828,      -8.00429,            0.,NA,NA,"",       2.32446,       2.32172,  -112.641E-03,   12.2687E-03
C:/temp/dataset/3/14_7.odb,Step-1,Increment      2: Step Time =    1.000,"PART-1-1",           702,       6.27674,      -21.4047,            0.,NA,NA,"",   198.837E-03,   111.787E-03,   164.438E-03,   41.2239E-03
C:/temp/dataset/3/14_7.odb,Step-1,Increment      2: Step Time =    1.000,"PART-1-1",           703,       7.27122,      -20.3583,            0.,NA,NA,"",   217.392E-03,   164.574E-03,   142.037E-03,   29.5558E-03
C:/temp/dataset/3/14_7.odb,Step-1,Increment      2: Step Time =    1.000,"PART-1-1",           704,         -6.25,          -20.,            0.,NA,NA,"",   51.8788E-03,   51.7917E-03,  -3.00360E-03,   750.364E-06
C:/temp/dataset/3/14_7.odb,Step-1,Increment      2: Step Time =    1.000,"PART-1-1",           705,         -1.25,          -30.,            0.,NA,NA,"",            0.,  -194.823E-42,  -168.129E-42,   11.7440E-03
C:/temp/dataset/3/14_7.odb,Step-1,Increment      2: Step Time =    1.000,"PART-1-1",           706,       8.60683,      -25.8105,            0.,NA,NA,"",   19.8370E-03,  -17.3954E-03,   9.53445E-03,   11.8914E-03
C:/temp/dataset/3/14_7.odb,Step-1,Increment      2: Step Time =    1.000,"PART-1-1",           707,       7.41490,      -26.9159,            0.,NA,NA,"",   27.1949E-03,  -15.6980E-03,   22.2067E-03,   14.9240E-03
C:/temp/dataset/3/14_7.odb,Step-1,Increment      2: Step Time =    1.000,"PART-1-1",           708,       6.17638,      -25.8614,            0.,NA,NA,"",   52.8832E-03,   7.12108E-03,   52.4016E-03,   20.1239E-03
C:/temp/dataset/3/14_7.odb,Step-1,Increment      2: Step Time =    1.000,"PART-1-1",           709,       7.37219,      -25.0876,            0.,NA,NA,"",   46.8580E-03,   2.68725E-03,   46.7808E-03,   19.6827E-03
C:/temp/dataset/3/14_7.odb,Step-1,Increment      2: Step Time =    1.000,"PART-1-1",           710,       6.30743,      -24.1068,            0.,NA,NA,"",   93.6352E-03,   34.1314E-03,   87.1928E-03,   25.2976E-03
C:/temp/dataset/3/14_7.odb,Step-1,Increment      2: Step Time =    1.000,"PART-1-1",           711,   113.079E-03,      -23.9373,            0.,NA,NA,"",   79.5650E-03,   70.3383E-03,   37.1902E-03,   15.1583E-03
C:/temp/dataset/3/14_7.odb,Step-1,Increment      2: Step Time =    1.000,"PART-1-1",           712,      -2.43554,      -23.8906,            0.,NA,NA,"",   61.4250E-03,   60.0337E-03,   12.9993E-03,   7.89677E-03
C:/temp/dataset/3/14_7.odb,Step-1,Increment      2: Step Time =    1.000,"PART-1-1",           713,      -8.72529,      -25.0755,            0.,NA,NA,"",   36.1267E-03,   36.1264E-03,   132.480E-06,   3.84264E-03
C:/temp/dataset/3/14_7.odb,Step-1,Increment      2: Step Time =    1.000,"PART-1-1",           714,      -9.97606,      -23.8175,            0.,NA,NA,"",   40.2009E-03,   40.1984E-03,   441.261E-06,   2.30374E-03
C:/temp/dataset/3/14_7.odb,Step-1,Increment      2: Step Time =    1.000,"PART-1-1",           715,      -9.99641,      -28.7682,            0.,NA,NA,"",   9.55945E-03,   9.51724E-03,   897.367E-06,   4.97937E-03
C:/temp/dataset/3/14_7.odb,Step-1,Increment      2: Step Time =    1.000,"PART-1-1",           716,      -11.2465,      -27.5281,            0.,NA,NA,"",   17.7447E-03,   17.6625E-03,   1.70608E-03,   4.38701E-03
C:/temp/dataset/3/14_7.odb,Step-1,Increment      2: Step Time =    1.000,"PART-1-1",           717,        -11.25,          -30.,            0.,NA,NA,"",            0.,   2.93432E-42,   27.1768E-42,   4.67603E-03
C:/temp/dataset/3/14_7.odb,Step-1,Increment      2: Step Time =    1.000,"PART-1-1",           718,         -8.75,          -30.,            0.,NA,NA,"",            0.,  -13.8799E-42,   29.1162E-42,   5.94021E-03
C:/temp/dataset/3/14_7.odb,Step-1,Increment      2: Step Time =    1.000,"PART-1-1",           719,      -8.73783,      -27.5479,            0.,NA,NA,"",   20.2395E-03,   20.2139E-03,   1.01777E-03,   5.31890E-03
C:/temp/dataset/3/14_7.odb,Step-1,Increment      2: Step Time =    1.000,"PART-1-1",           720,       9.45286,      -20.3748,            0.,NA,NA,"",   167.118E-03,   165.491E-03,  -23.2672E-03,   9.66474E-03
C:/temp/dataset/3/14_7.odb,Step-1,Increment      2: Step Time =    1.000,"PART-1-1",           721,       8.38706,      -19.4374,            0.,NA,NA,"",   252.782E-03,   243.149E-03,   69.1176E-03,   16.7457E-03
C:/temp/dataset/3/14_7.odb,Step-1,Increment      2: Step Time =    1.000,"PART-1-1",           722,       8.33702,      -21.2957,            0.,NA,NA,"",   122.324E-03,   107.059E-03,   59.1737E-03,   16.7001E-03
C:/temp/dataset/3/14_7.odb,Step-1,Increment      2: Step Time =    1.000,"PART-1-1",           723,       9.34035,      -18.0986,            0.,NA,NA,"",   381.935E-03,   381.354E-03,  -21.0653E-03,   7.64507E-03
C:/temp/dataset/3/14_7.odb,Step-1,Increment      2: Step Time =    1.000,"PART-1-1",           724,       10.7511,      -19.4747,            0.,NA,NA,"",   285.134E-03,   242.129E-03,  -150.582E-03,   18.3167E-03
C:/temp/dataset/3/14_7.odb,Step-1,Increment      2: Step Time =    1.000,"PART-1-1",           725,       9.57777,      -9.07511,            0.,NA,NA,"",       2.05106,       2.04550,  -150.973E-03,   10.4131E-03
C:/temp/dataset/3/14_7.odb,Step-1,Increment      2: Step Time =    1.000,"PART-1-1",           726,       10.3854,      -7.79904,            0.,NA,NA,"",       2.37233,       2.34155,  -380.897E-03,   12.2281E-03
C:/temp/dataset/3/14_7.odb,Step-1,Increment      2: Step Time =    1.000,"PART-1-1",           727,       11.9371,      -7.89361,            0.,NA,NA,"",       2.40264,       2.28124,  -754.048E-03,   25.5327E-03
C:/temp/dataset/3/14_7.odb,Step-1,Increment      2: Step Time =    1.000,"PART-1-1",           728,       11.6400,      -6.55190,            0.,NA,NA,"",       2.74216,       2.63685,  -752.619E-03,   23.2335E-03
C:/temp/dataset/3/14_7.odb,Step-1,Increment      2: Step Time =    1.000,"PART-1-1",           729,       9.29748,       3.92298,            0.,NA,NA,"",       6.00965,       5.97701,  -625.426E-03,   3.34710E-03
C:/temp/dataset/3/14_7.odb,Step-1,Increment      2: Step Time =    1.000,"PART-1-1",           730,       10.7408,       1.93669,            0.,NA,NA,"",       5.33274,       5.24180,  -980.610E-03,   7.36657E-03
C:/temp/dataset/3/14_7.odb,Step-1,Increment      2: Step Time =    1.000,"PART-1-1",           731,       12.1175,       9.30164,            0.,NA,NA,"",       7.94802,       7.69937,      -1.97251,   13.6079E-03
C:/temp/dataset/3/14_7.odb,Step-1,Increment      2: Step Time =    1.000,"PART-1-1",           732,       12.3743,       7.25826,            0.,NA,NA,"",       7.20770,       6.95228,      -1.90180,   16.0882E-03
C:/temp/dataset/3/14_7.odb,Step-1,Increment      2: Step Time =    1.000,"PART-1-1",           733,       9.86952,       23.8294,            0.,NA,NA,"",       13.7088,       13.5132,      -2.30767,   3.88729E-03
C:/temp/dataset/3/14_7.odb,Step-1,Increment      2: Step Time =    1.000,"PART-1-1",           734,       8.61965,       22.5851,            0.,NA,NA,"",       13.2347,       13.1223,      -1.72091,   5.66444E-03
C:/temp/dataset/3/14_7.odb,Step-1,Increment      2: Step Time =    1.000,"PART-1-1",           735,         11.25,           30.,            0.,NA,NA,"",       16.1842,       15.8345,      -3.34616,   55.6977E-06
C:/temp/dataset/3/14_7.odb,Step-1,Increment      2: Step Time =    1.000,"PART-1-1",           736,       9.97488,       28.7673,            0.,NA,NA,"",       15.6946,       15.4525,      -2.74562,   464.712E-06
C:/temp/dataset/3/14_7.odb,Step-1,Increment      2: Step Time =    1.000,"PART-1-1",           737,          8.75,           30.,            0.,NA,NA,"",       16.2091,       16.0359,      -2.36349,   76.3546E-06
C:/temp/dataset/3/14_7.odb,Step-1,Increment      2: Step Time =    1.000,"PART-1-1",           738,       3.69885,       25.0915,            0.,NA,NA,"",       14.5213,       14.5213,   5.80852E-03,   2.92282E-03
C:/temp/dataset/3/14_7.odb,Step-1,Increment      2: Step Time =    1.000,"PART-1-1",           739,       4.94207,       26.3392,            0.,NA,NA,"",       14.9191,       14.9079,  -578.314E-03,   2.16430E-03
C:/temp/dataset/3/14_7.odb,Step-1,Increment      2: Step Time =    1.000,"PART-1-1",           740,         -6.25,           30.,            0.,NA,NA,"",       17.5528,       17.2051,       3.47616,   1.68705E-03
C:/temp/dataset/3/14_7.odb,Step-1,Increment      2: Step Time =    1.000,"PART-1-1",           741,      -11.2519,       25.0060,            0.,NA,NA,"",       16.7059,       15.6833,       5.75497,   3.52548E-03
C:/temp/dataset/3/14_7.odb,Step-1,Increment      2: Step Time =    1.000,"PART-1-1",           742,       11.7111,      -12.1867,            0.,NA,NA,"",       1.40450,       1.31268,  -499.484E-03,   24.2024E-03
C:/temp/dataset/3/14_7.odb,Step-1,Increment      2: Step Time =    1.000,"PART-1-1",           743,       12.0443,      -13.4388,            0.,NA,NA,"",       1.18653,       1.07203,  -508.540E-03,   30.0232E-03
C:/temp/dataset/3/14_7.odb,Step-1,Increment      2: Step Time =    1.000,"PART-1-1",           744,       9.07309,      -22.0228,            0.,NA,NA,"",   71.2633E-03,   70.8766E-03,   7.41389E-03,   13.9032E-03
C:/temp/dataset/3/14_7.odb,Step-1,Increment      2: Step Time =    1.000,"PART-1-1",           745,       9.10959,      -23.2638,            0.,NA,NA,"",   27.0702E-03,   26.9787E-03,   2.22394E-03,   15.3015E-03
C:/temp/dataset/3/14_7.odb,Step-1,Increment      2: Step Time =    1.000,"PART-1-1",           746,       10.5828,      -23.1781,            0.,NA,NA,"",   83.2249E-03,   30.4236E-03,  -77.4647E-03,   20.7699E-03
C:/temp/dataset/3/14_7.odb,Step-1,Increment      2: Step Time =    1.000,"PART-1-1",           747,       10.5463,      -21.9372,            0.,NA,NA,"",   120.564E-03,   78.0737E-03,  -91.8705E-03,   20.2417E-03
C:/temp/dataset/3/14_7.odb,Step-1,Increment      2: Step Time =    1.000,"PART-1-1",           748,      -1.00841,      -2.00181,            0.,NA,NA,"",       5.47015,       4.65376,       2.87489,   807.506E-06
C:/temp/dataset/3/14_7.odb,Step-1,Increment      2: Step Time =    1.000,"PART-1-1",           749,      -3.17395,      -1.50818,            0.,NA,NA,"",       6.05784,       4.92005,       3.53419,   784.209E-06
C:/temp/dataset/3/14_7.odb,Step-1,Increment      2: Step Time =    1.000,"PART-1-1",           750,       8.23699,       8.20647,            0.,NA,NA,"",       7.56291,       7.54511,  -518.550E-03,   13.9565E-03
C:/temp/dataset/3/14_7.odb,Step-1,Increment      2: Step Time =    1.000,"PART-1-1",           751,       8.58975,       6.06422,            0.,NA,NA,"",       6.77201,       6.75266,  -511.462E-03,   9.08228E-03
C:/temp/dataset/3/14_7.odb,Step-1,Increment      2: Step Time =    1.000,"PART-1-1",           752,       1.04870,      -2.29850,            0.,NA,NA,"",       4.98263,       4.45302,       2.23545,   2.54441E-03
C:/temp/dataset/3/14_7.odb,Step-1,Increment      2: Step Time =    1.000,"PART-1-1",           753,      -1.88356,       2.26041,            0.,NA,NA,"",       6.71717,       6.04306,       2.93289,   836.259E-06
C:/temp/dataset/3/14_7.odb,Step-1,Increment      2: Step Time =    1.000,"PART-1-1",           754,      -2.91638,       1.44829,            0.,NA,NA,"",       6.70798,       5.83991,       3.30036,   812.594E-06
C:/temp/dataset/3/14_7.odb,Step-1,Increment      2: Step Time =    1.000,"PART-1-1",           755,       3.03453,      -2.52132,            0.,NA,NA,"",       4.56494,       4.27340,       1.60522,   11.5569E-03
C:/temp/dataset/3/14_7.odb,Step-1,Increment      2: Step Time =    1.000,"PART-1-1",           756,       6.99799,      -3.46075,            0.,NA,NA,"",       3.74039,       3.72079,   382.370E-03,   27.3821E-03
C:/temp/dataset/3/14_7.odb,Step-1,Increment      2: Step Time =    1.000,"PART-1-1",           757,       7.63560,  -984.386E-03,            0.,NA,NA,"",       4.47412,       4.47262,   115.776E-03,   21.4627E-03
C:/temp/dataset/3/14_7.odb,Step-1,Increment      2: Step Time =    1.000,"PART-1-1",           758,       6.14771,      -1.67534,            0.,NA,NA,"",       4.38327,       4.34379,   587.018E-03,   27.3325E-03
C:/temp/dataset/3/14_7.odb,Step-1,Increment      2: Step Time =    1.000,"PART-1-1",           759,       4.94795,      -26.8240,            0.,NA,NA,"",   43.4383E-03,   11.4109E-03,   41.9127E-03,   21.4408E-03
C:/temp/dataset/3/14_7.odb,Step-1,Increment      2: Step Time =    1.000,"PART-1-1",           760,      -11.2341,      -25.0541,            0.,NA,NA,"",   33.2294E-03,   33.1415E-03,   2.41517E-03,   2.61761E-03
C:/temp/dataset/3/14_7.odb,Step-1,Increment      2: Step Time =    1.000,"PART-1-1",           761,      -9.98574,      -26.3021,            0.,NA,NA,"",   27.1214E-03,   27.0986E-03,   1.11175E-03,   4.03388E-03
C:/temp/dataset/3/14_7.odb,Step-1,Increment      2: Step Time =    1.000,"PART-1-1",           762,           15.,        -26.25,            0.,NA,NA,"",   150.553E-03,   38.3158E-03,  -145.596E-03,   52.0314E-03
C:/temp/dataset/3/14_7.odb,Step-1,Increment      2: Step Time =    1.000,"PART-1-1",           763,       9.63478,      -24.7731,            0.,NA,NA,"",   22.4733E-03,  -8.20300E-03,  -20.9228E-03,   14.9668E-03
C:/temp/dataset/3/14_7.odb,Step-1,Increment      2: Step Time =    1.000,"PART-1-1",           764,       9.83383,   250.169E-03,            0.,NA,NA,"",       4.78257,       4.74440,  -603.002E-03,   9.70118E-03
C:/temp/dataset/3/14_7.odb,Step-1,Increment      2: Step Time =    1.000,"PART-1-1",           765,       11.1222,       22.5628,            0.,NA,NA,"",       13.1874,       12.9093,      -2.69404,   4.35497E-03
C:/temp/dataset/3/14_7.odb,Step-1,Increment      2: Step Time =    1.000,"PART-1-1",           766,       9.84566,       21.3197,            0.,NA,NA,"",       12.6924,       12.5181,      -2.09622,   6.74596E-03
C:/temp/dataset/3/14_7.odb,Step-1,Increment      2: Step Time =    1.000,"PART-1-1",           767,      -3.18112,  -190.353E-03,            0.,NA,NA,"",       6.36482,       5.33684,       3.46828,   844.372E-06
C:/temp/dataset/3/14_7.odb,Step-1,Increment      2: Step Time =    1.000,"PART-1-1",           768,       4.54417,       1.21940,            0.,NA,NA,"",       5.46581,       5.37649,   984.102E-03,   19.8829E-03
C:/temp/dataset/3/14_7.odb,Step-1,Increment      2: Step Time =    1.000,"PART-1-1",           769,       9.22107,       9.51460,            0.,NA,NA,"",       8.01924,       7.96268,  -950.816E-03,   10.1335E-03
C:/temp/dataset/3/14_7.odb,Step-1,Increment      2: Step Time =    1.000,"PART-1-1",           770,       11.1709,      -3.71800,            0.,NA,NA,"",       3.54049,       3.45247,  -784.546E-03,   18.6762E-03
C:/temp/dataset/3/14_7.odb,Step-1,Increment      2: Step Time =    1.000,"PART-1-1",           771,       11.0221,      -5.16095,            0.,NA,NA,"",       3.11004,       3.03815,  -664.822E-03,   18.2744E-03
C:/temp/dataset/3/14_7.odb,Step-1,Increment      2: Step Time =    1.000,"PART-1-1",           772,       12.3085,      -4.70099,            0.,NA,NA,"",       3.29969,       3.13098,      -1.04160,   27.1749E-03
C:/temp/dataset/3/14_7.odb,Step-1,Increment      2: Step Time =    1.000,"PART-1-1",           773,       5.03877,      -2.41022,            0.,NA,NA,"",       4.28828,       4.18153,   950.862E-03,   27.8083E-03
C:/temp/dataset/3/14_7.odb,Step-1,Increment      2: Step Time =    1.000,"PART-1-1",           774,       11.0080,       9.74440,            0.,NA,NA,"",       8.09219,       7.93092,      -1.60753,   10.1687E-03
C:/temp/dataset/3/14_7.odb,Step-1,Increment      2: Step Time =    1.000,"PART-1-1",           775,       7.33953,      -23.4839,            0.,NA,NA,"",   82.9849E-03,   34.7235E-03,   75.3709E-03,   23.8262E-03
C:/temp/dataset/3/14_7.odb,Step-1,Increment      2: Step Time =    1.000,"PART-1-1",           776,       6.60048,      -22.7490,            0.,NA,NA,"",   131.670E-03,   64.6693E-03,   114.695E-03,   30.8876E-03
C:/temp/dataset/3/14_7.odb,Step-1,Increment      2: Step Time =    1.000,"PART-1-1",           777,       5.56839,      -23.3719,            0.,NA,NA,"",   129.264E-03,   60.4438E-03,   114.262E-03,   33.7837E-03
C:/temp/dataset/3/14_7.odb,Step-1,Increment      2: Step Time =    1.000,"PART-1-1",           778,       5.56431,      -22.1833,            0.,NA,NA,"",   176.954E-03,   94.7655E-03,   149.440E-03,   40.6635E-03
C:/temp/dataset/3/14_7.odb,Step-1,Increment      2: Step Time =    1.000,"PART-1-1",           779,       7.31291,      -21.9704,            0.,NA,NA,"",   135.265E-03,   81.2932E-03,   108.112E-03,   26.9526E-03
C:/temp/dataset/3/14_7.odb,Step-1,Increment      2: Step Time =    1.000,"PART-1-1",           780,       8.04898,      -22.6975,            0.,NA,NA,"",   77.6394E-03,   49.4146E-03,   59.8839E-03,   19.0575E-03
C:/temp/dataset/3/14_7.odb,Step-1,Increment      2: Step Time =    1.000,"PART-1-1",           781,       5.89213,  -472.373E-03,            0.,NA,NA,"",       4.78751,       4.74618,   627.707E-03,   22.1230E-03
C:/temp/dataset/3/14_7.odb,Step-1,Increment      2: Step Time =    1.000,"PART-1-1",           782,       8.40014,      -24.0502,            0.,NA,NA,"",   31.0832E-03,   11.0131E-03,   29.0668E-03,   15.0768E-03
