ODB Name,Step,Frame,Part Instance Name,    êﬂì_ÉâÉxÉã,X,Y,Z,Section Name,Material Name,Section Point,   U-Magnitude,          U-U1,          U-U2,       S-Mises
C:/temp/dataset/3/15_5.odb,Step-1,Increment      8: Step Time =    1.000,"PART-1-1",             1,          -15.,           20.,            0.,NA,NA,"",       25.0493,       21.0833,       13.5264,   5.05637E-03
C:/temp/dataset/3/15_5.odb,Step-1,Increment      8: Step Time =    1.000,"PART-1-1",             2,          -15.,           25.,            0.,NA,NA,"",       27.3280,       24.4605,       12.1864,   2.57835E-03
C:/temp/dataset/3/15_5.odb,Step-1,Increment      8: Step Time =    1.000,"PART-1-1",             3,           -5.,           20.,            0.,NA,NA,"",       19.6208,       18.4485,       6.68034,   15.8125E-03
C:/temp/dataset/3/15_5.odb,Step-1,Increment      8: Step Time =    1.000,"PART-1-1",             4,            5.,           20.,            0.,NA,NA,"",       16.0773,       16.0754,  -242.866E-03,   95.1412E-03
C:/temp/dataset/3/15_5.odb,Step-1,Increment      8: Step Time =    1.000,"PART-1-1",             5,            5.,          12.5,            0.,NA,NA,"",       11.7930,       11.7828,   491.006E-03,   71.5525E-03
C:/temp/dataset/3/15_5.odb,Step-1,Increment      8: Step Time =    1.000,"PART-1-1",             6,            5.,            5.,            0.,NA,NA,"",       7.99984,       7.94904,   900.071E-03,   89.4942E-03
C:/temp/dataset/3/15_5.odb,Step-1,Increment      8: Step Time =    1.000,"PART-1-1",             7,      -1.70000,            5.,            0.,NA,NA,"",       9.03205,       8.40234,       3.31341,   2.96920E-03
C:/temp/dataset/3/15_5.odb,Step-1,Increment      8: Step Time =    1.000,"PART-1-1",             8,      -8.40000,            5.,            0.,NA,NA,"",       10.6954,       8.92556,       5.89284,   98.1740E-06
C:/temp/dataset/3/15_5.odb,Step-1,Increment      8: Step Time =    1.000,"PART-1-1",             9,          -15.,            5.,            0.,NA,NA,"",       12.6577,       9.43570,       8.43707,   1.15803E-06
C:/temp/dataset/3/15_5.odb,Step-1,Increment      8: Step Time =    1.000,"PART-1-1",            10,          -15.,            0.,            0.,NA,NA,"",       11.5857,       7.50844,       8.82340,   10.4694E-06
C:/temp/dataset/3/15_5.odb,Step-1,Increment      8: Step Time =    1.000,"PART-1-1",            11,          -15.,           -5.,            0.,NA,NA,"",       10.7689,       5.58138,       9.20965,   951.618E-09
C:/temp/dataset/3/15_5.odb,Step-1,Increment      8: Step Time =    1.000,"PART-1-1",            12,      -8.30000,           -5.,            0.,NA,NA,"",       8.34081,       5.06386,       6.62771,   95.1192E-06
C:/temp/dataset/3/15_5.odb,Step-1,Increment      8: Step Time =    1.000,"PART-1-1",            13,      -1.60000,           -5.,            0.,NA,NA,"",       6.08169,       4.53962,       4.04708,   3.08413E-03
C:/temp/dataset/3/15_5.odb,Step-1,Increment      8: Step Time =    1.000,"PART-1-1",            14,            5.,           -5.,            0.,NA,NA,"",       4.16778,       3.94955,       1.33098,   100.980E-03
C:/temp/dataset/3/15_5.odb,Step-1,Increment      8: Step Time =    1.000,"PART-1-1",            15,            5.,         -12.5,            0.,NA,NA,"",       1.92493,       1.66678,   962.914E-03,   99.5938E-03
C:/temp/dataset/3/15_5.odb,Step-1,Increment      8: Step Time =    1.000,"PART-1-1",            16,            5.,          -20.,            0.,NA,NA,"",   360.424E-03,   195.138E-03,   303.028E-03,   149.511E-03
C:/temp/dataset/3/15_5.odb,Step-1,Increment      8: Step Time =    1.000,"PART-1-1",            17,           -5.,          -20.,            0.,NA,NA,"",   57.4671E-03,   57.4401E-03,  -1.76319E-03,   707.149E-06
C:/temp/dataset/3/15_5.odb,Step-1,Increment      8: Step Time =    1.000,"PART-1-1",            18,          -15.,          -20.,            0.,NA,NA,"",   59.2603E-03,   57.4171E-03,   14.6648E-03,   36.4658E-06
C:/temp/dataset/3/15_5.odb,Step-1,Increment      8: Step Time =    1.000,"PART-1-1",            19,          -15.,          -25.,            0.,NA,NA,"",   39.9152E-03,   36.8215E-03,   15.4078E-03,   229.768E-06
C:/temp/dataset/3/15_5.odb,Step-1,Increment      8: Step Time =    1.000,"PART-1-1",            20,          -15.,          -30.,            0.,NA,NA,"",            0.,   60.6216E-42,   96.8465E-42,   9.99456E-03
C:/temp/dataset/3/15_5.odb,Step-1,Increment      8: Step Time =    1.000,"PART-1-1",            21,           15.,          -30.,            0.,NA,NA,"",            0.,   195.729E-42,  -399.486E-42,   38.2355E-03
C:/temp/dataset/3/15_5.odb,Step-1,Increment      8: Step Time =    1.000,"PART-1-1",            22,           15.,         -22.5,            0.,NA,NA,"",   379.128E-03,   116.756E-03,  -360.702E-03,   74.7385E-03
C:/temp/dataset/3/15_5.odb,Step-1,Increment      8: Step Time =    1.000,"PART-1-1",            23,           15.,          -15.,            0.,NA,NA,"",       1.34672,   901.517E-03,      -1.00045,   90.4424E-03
C:/temp/dataset/3/15_5.odb,Step-1,Increment      8: Step Time =    1.000,"PART-1-1",            24,           15.,          -7.5,            0.,NA,NA,"",       3.17294,       2.62118,      -1.78800,   76.3468E-03
C:/temp/dataset/3/15_5.odb,Step-1,Increment      8: Step Time =    1.000,"PART-1-1",            25,           15.,            0.,            0.,NA,NA,"",       5.76929,       5.11218,      -2.67402,   53.9860E-03
C:/temp/dataset/3/15_5.odb,Step-1,Increment      8: Step Time =    1.000,"PART-1-1",            26,           15.,           7.5,            0.,NA,NA,"",       8.89673,       8.08741,      -3.70749,   61.2528E-03
C:/temp/dataset/3/15_5.odb,Step-1,Increment      8: Step Time =    1.000,"PART-1-1",            27,           15.,           15.,            0.,NA,NA,"",       12.6606,       11.6074,      -5.05571,   59.1274E-03
C:/temp/dataset/3/15_5.odb,Step-1,Increment      8: Step Time =    1.000,"PART-1-1",            28,           15.,          22.5,            0.,NA,NA,"",       17.0913,       15.7228,      -6.70116,   33.6584E-03
C:/temp/dataset/3/15_5.odb,Step-1,Increment      8: Step Time =    1.000,"PART-1-1",            29,           15.,           30.,            0.,NA,NA,"",       21.9158,       20.2697,      -8.33326,   1.13267E-03
C:/temp/dataset/3/15_5.odb,Step-1,Increment      8: Step Time =    1.000,"PART-1-1",            30,           7.5,           30.,            0.,NA,NA,"",       22.1933,       21.8593,      -3.83614,   30.4468E-03
C:/temp/dataset/3/15_5.odb,Step-1,Increment      8: Step Time =    1.000,"PART-1-1",            31,            0.,           30.,            0.,NA,NA,"",       23.7912,       23.7780,   794.579E-03,   31.1668E-03
C:/temp/dataset/3/15_5.odb,Step-1,Increment      8: Step Time =    1.000,"PART-1-1",            32,          -7.5,           30.,            0.,NA,NA,"",       26.4715,       25.8356,       5.76756,   8.06530E-03
C:/temp/dataset/3/15_5.odb,Step-1,Increment      8: Step Time =    1.000,"PART-1-1",            33,          -15.,           30.,            0.,NA,NA,"",       29.8913,       27.8490,       10.8592,   209.211E-06
C:/temp/dataset/3/15_5.odb,Step-1,Increment      8: Step Time =    1.000,"PART-1-1",            34,          -15.,          22.5,            0.,NA,NA,"",       26.1496,       22.7722,       12.8541,   4.69121E-03
C:/temp/dataset/3/15_5.odb,Step-1,Increment      8: Step Time =    1.000,"PART-1-1",            35,          -7.5,           20.,            0.,NA,NA,"",       20.8686,       19.1017,       8.40381,   10.6114E-03
C:/temp/dataset/3/15_5.odb,Step-1,Increment      8: Step Time =    1.000,"PART-1-1",            36,          -10.,           20.,            0.,NA,NA,"",       22.1999,       19.7601,       10.1179,   6.76518E-03
C:/temp/dataset/3/15_5.odb,Step-1,Increment      8: Step Time =    1.000,"PART-1-1",            37,         -12.5,           20.,            0.,NA,NA,"",       23.5984,       20.4222,       11.8246,   5.21151E-03
C:/temp/dataset/3/15_5.odb,Step-1,Increment      8: Step Time =    1.000,"PART-1-1",            38,           2.5,           20.,            0.,NA,NA,"",       16.7044,       16.6338,       1.53516,   44.7575E-03
C:/temp/dataset/3/15_5.odb,Step-1,Increment      8: Step Time =    1.000,"PART-1-1",            39,            0.,           20.,            0.,NA,NA,"",       17.5181,       17.2157,       3.24084,   27.4204E-03
C:/temp/dataset/3/15_5.odb,Step-1,Increment      8: Step Time =    1.000,"PART-1-1",            40,          -2.5,           20.,            0.,NA,NA,"",       18.4940,       17.8179,       4.95463,   22.6700E-03
C:/temp/dataset/3/15_5.odb,Step-1,Increment      8: Step Time =    1.000,"PART-1-1",            41,            5.,           15.,            0.,NA,NA,"",       13.1700,       13.1674,   259.243E-03,   68.1776E-03
C:/temp/dataset/3/15_5.odb,Step-1,Increment      8: Step Time =    1.000,"PART-1-1",            42,            5.,          17.5,            0.,NA,NA,"",       14.5990,       14.5990,  -11.6676E-03,   76.0175E-03
C:/temp/dataset/3/15_5.odb,Step-1,Increment      8: Step Time =    1.000,"PART-1-1",            43,            5.,           7.5,            0.,NA,NA,"",       9.23033,       9.19242,   835.691E-03,   79.9820E-03
C:/temp/dataset/3/15_5.odb,Step-1,Increment      8: Step Time =    1.000,"PART-1-1",            44,            5.,           10.,            0.,NA,NA,"",       10.4792,       10.4571,   680.865E-03,   73.0084E-03
C:/temp/dataset/3/15_5.odb,Step-1,Increment      8: Step Time =    1.000,"PART-1-1",            45,   533.333E-03,            5.,            0.,NA,NA,"",       8.58685,       8.22527,       2.46557,   7.80741E-03
C:/temp/dataset/3/15_5.odb,Step-1,Increment      8: Step Time =    1.000,"PART-1-1",            46,       2.76667,            5.,            0.,NA,NA,"",       8.21916,       8.05288,       1.64490,   14.8714E-03
C:/temp/dataset/3/15_5.odb,Step-1,Increment      8: Step Time =    1.000,"PART-1-1",            47,      -6.16667,            5.,            0.,NA,NA,"",       10.0957,       8.75243,       5.03177,   394.755E-06
C:/temp/dataset/3/15_5.odb,Step-1,Increment      8: Step Time =    1.000,"PART-1-1",            48,      -3.93333,            5.,            0.,NA,NA,"",       9.53869,       8.57828,       4.17128,   1.39660E-03
C:/temp/dataset/3/15_5.odb,Step-1,Increment      8: Step Time =    1.000,"PART-1-1",            49,      -12.8000,            5.,            0.,NA,NA,"",       11.9769,       9.26570,       7.58906,   8.35353E-06
C:/temp/dataset/3/15_5.odb,Step-1,Increment      8: Step Time =    1.000,"PART-1-1",            50,      -10.6000,            5.,            0.,NA,NA,"",       11.3213,       9.09569,       6.74100,   6.34508E-06
C:/temp/dataset/3/15_5.odb,Step-1,Increment      8: Step Time =    1.000,"PART-1-1",            51,          -15.,           2.5,            0.,NA,NA,"",       12.0937,       8.47205,       8.63025,   9.43432E-06
C:/temp/dataset/3/15_5.odb,Step-1,Increment      8: Step Time =    1.000,"PART-1-1",            52,          -15.,          -2.5,            0.,NA,NA,"",       11.1415,       6.54489,       9.01653,   9.35153E-06
C:/temp/dataset/3/15_5.odb,Step-1,Increment      8: Step Time =    1.000,"PART-1-1",            53,      -10.5333,           -5.,            0.,NA,NA,"",       9.13745,       5.23637,       7.48823,   5.11405E-06
C:/temp/dataset/3/15_5.odb,Step-1,Increment      8: Step Time =    1.000,"PART-1-1",            54,      -12.7667,           -5.,            0.,NA,NA,"",       9.94787,       5.40885,       8.34891,   7.62796E-06
C:/temp/dataset/3/15_5.odb,Step-1,Increment      8: Step Time =    1.000,"PART-1-1",            55,      -3.83333,           -5.,            0.,NA,NA,"",       6.80704,       4.71703,       4.90770,   1.46350E-03
C:/temp/dataset/3/15_5.odb,Step-1,Increment      8: Step Time =    1.000,"PART-1-1",            56,      -6.06667,           -5.,            0.,NA,NA,"",       7.56224,       4.89109,       5.76755,   400.169E-06
C:/temp/dataset/3/15_5.odb,Step-1,Increment      8: Step Time =    1.000,"PART-1-1",            57,       2.80000,           -5.,            0.,NA,NA,"",       4.75672,       4.15563,       2.31454,   20.6165E-03
C:/temp/dataset/3/15_5.odb,Step-1,Increment      8: Step Time =    1.000,"PART-1-1",            58,   600.000E-03,           -5.,            0.,NA,NA,"",       5.40183,       4.35703,       3.19312,   7.67342E-03
C:/temp/dataset/3/15_5.odb,Step-1,Increment      8: Step Time =    1.000,"PART-1-1",            59,            5.,          -10.,            0.,NA,NA,"",       2.58087,       2.33569,       1.09794,   94.8787E-03
C:/temp/dataset/3/15_5.odb,Step-1,Increment      8: Step Time =    1.000,"PART-1-1",            60,            5.,          -7.5,            0.,NA,NA,"",       3.31848,       3.09539,       1.19619,   95.7703E-03
C:/temp/dataset/3/15_5.odb,Step-1,Increment      8: Step Time =    1.000,"PART-1-1",            61,            5.,         -17.5,            0.,NA,NA,"",   873.881E-03,   627.246E-03,   608.466E-03,   112.316E-03
C:/temp/dataset/3/15_5.odb,Step-1,Increment      8: Step Time =    1.000,"PART-1-1",            62,            5.,          -15.,            0.,NA,NA,"",       1.35798,       1.09969,   796.749E-03,   99.9855E-03
C:/temp/dataset/3/15_5.odb,Step-1,Increment      8: Step Time =    1.000,"PART-1-1",            63,          -2.5,          -20.,            0.,NA,NA,"",   60.6067E-03,   59.9562E-03,   8.85583E-03,   2.71557E-03
C:/temp/dataset/3/15_5.odb,Step-1,Increment      8: Step Time =    1.000,"PART-1-1",            64,            0.,          -20.,            0.,NA,NA,"",   76.3205E-03,   66.5424E-03,   37.3754E-03,   5.71838E-03
C:/temp/dataset/3/15_5.odb,Step-1,Increment      8: Step Time =    1.000,"PART-1-1",            65,           2.5,          -20.,            0.,NA,NA,"",   130.727E-03,   80.6099E-03,   102.915E-03,   37.8233E-03
C:/temp/dataset/3/15_5.odb,Step-1,Increment      8: Step Time =    1.000,"PART-1-1",            66,         -12.5,          -20.,            0.,NA,NA,"",   57.4124E-03,   57.1097E-03,   5.88808E-03,   280.150E-06
C:/temp/dataset/3/15_5.odb,Step-1,Increment      8: Step Time =    1.000,"PART-1-1",            67,          -10.,          -20.,            0.,NA,NA,"",   56.4475E-03,   56.4411E-03,  -854.455E-06,   186.428E-06
C:/temp/dataset/3/15_5.odb,Step-1,Increment      8: Step Time =    1.000,"PART-1-1",            68,          -7.5,          -20.,            0.,NA,NA,"",   56.5895E-03,   56.4504E-03,  -3.96608E-03,   318.207E-06
C:/temp/dataset/3/15_5.odb,Step-1,Increment      8: Step Time =    1.000,"PART-1-1",            69,          -15.,         -22.5,            0.,NA,NA,"",   50.6646E-03,   48.3997E-03,   14.9788E-03,   265.323E-06
C:/temp/dataset/3/15_5.odb,Step-1,Increment      8: Step Time =    1.000,"PART-1-1",            70,          -15.,         -27.5,            0.,NA,NA,"",   24.6455E-03,   20.7804E-03,   13.2505E-03,   3.17170E-03
C:/temp/dataset/3/15_5.odb,Step-1,Increment      8: Step Time =    1.000,"PART-1-1",            71,          12.5,          -30.,            0.,NA,NA,"",            0.,   12.3845E-39,  -55.0593E-39,   26.0735E-03
C:/temp/dataset/3/15_5.odb,Step-1,Increment      8: Step Time =    1.000,"PART-1-1",            72,           10.,          -30.,            0.,NA,NA,"",            0.,  -41.4099E-39,  -48.6286E-39,   19.3578E-03
C:/temp/dataset/3/15_5.odb,Step-1,Increment      8: Step Time =    1.000,"PART-1-1",            73,           7.5,          -30.,            0.,NA,NA,"",            0.,  -13.8501E-39,   7.22408E-39,   14.1141E-03
C:/temp/dataset/3/15_5.odb,Step-1,Increment      8: Step Time =    1.000,"PART-1-1",            74,            5.,          -30.,            0.,NA,NA,"",            0.,  -18.6768E-39,   46.3764E-39,   13.8702E-03
C:/temp/dataset/3/15_5.odb,Step-1,Increment      8: Step Time =    1.000,"PART-1-1",            75,           2.5,          -30.,            0.,NA,NA,"",            0.,  -4.38294E-39,   33.0436E-39,   15.7453E-03
C:/temp/dataset/3/15_5.odb,Step-1,Increment      8: Step Time =    1.000,"PART-1-1",            76,            0.,          -30.,            0.,NA,NA,"",            0.,   5.55092E-39,   14.8400E-39,   15.3725E-03
C:/temp/dataset/3/15_5.odb,Step-1,Increment      8: Step Time =    1.000,"PART-1-1",            77,          -2.5,          -30.,            0.,NA,NA,"",            0.,   28.7647E-39,   37.1099E-39,   12.8975E-03
C:/temp/dataset/3/15_5.odb,Step-1,Increment      8: Step Time =    1.000,"PART-1-1",            78,           -5.,          -30.,            0.,NA,NA,"",            0.,   10.4061E-39,  -4.40803E-39,   10.0570E-03
C:/temp/dataset/3/15_5.odb,Step-1,Increment      8: Step Time =    1.000,"PART-1-1",            79,          -7.5,          -30.,            0.,NA,NA,"",            0.,   8.98101E-39,  -5.99100E-39,   7.61502E-03
C:/temp/dataset/3/15_5.odb,Step-1,Increment      8: Step Time =    1.000,"PART-1-1",            80,          -10.,          -30.,            0.,NA,NA,"",            0.,   12.2511E-39,   14.2802E-39,   5.89150E-03
C:/temp/dataset/3/15_5.odb,Step-1,Increment      8: Step Time =    1.000,"PART-1-1",            81,         -12.5,          -30.,            0.,NA,NA,"",            0.,   10.6081E-39,   12.5768E-39,   4.32713E-03
C:/temp/dataset/3/15_5.odb,Step-1,Increment      8: Step Time =    1.000,"PART-1-1",            82,           15.,          -25.,            0.,NA,NA,"",   210.709E-03,   40.4581E-03,  -206.789E-03,   60.4389E-03
C:/temp/dataset/3/15_5.odb,Step-1,Increment      8: Step Time =    1.000,"PART-1-1",            83,           15.,         -27.5,            0.,NA,NA,"",   89.3869E-03,   18.3123E-03,  -87.4910E-03,   48.1179E-03
C:/temp/dataset/3/15_5.odb,Step-1,Increment      8: Step Time =    1.000,"PART-1-1",            84,           15.,         -17.5,            0.,NA,NA,"",   932.316E-03,   532.061E-03,  -765.587E-03,   91.2617E-03
C:/temp/dataset/3/15_5.odb,Step-1,Increment      8: Step Time =    1.000,"PART-1-1",            85,           15.,          -20.,            0.,NA,NA,"",   612.589E-03,   273.262E-03,  -548.264E-03,   85.9628E-03
C:/temp/dataset/3/15_5.odb,Step-1,Increment      8: Step Time =    1.000,"PART-1-1",            86,           15.,          -10.,            0.,NA,NA,"",       2.46805,       1.95156,      -1.51086,   82.4074E-03
C:/temp/dataset/3/15_5.odb,Step-1,Increment      8: Step Time =    1.000,"PART-1-1",            87,           15.,         -12.5,            0.,NA,NA,"",       1.85874,       1.37684,      -1.24870,   86.7591E-03
C:/temp/dataset/3/15_5.odb,Step-1,Increment      8: Step Time =    1.000,"PART-1-1",            88,           15.,          -2.5,            0.,NA,NA,"",       4.83826,       4.21628,      -2.37314,   59.1662E-03
C:/temp/dataset/3/15_5.odb,Step-1,Increment      8: Step Time =    1.000,"PART-1-1",            89,           15.,           -5.,            0.,NA,NA,"",       3.96748,       3.38004,      -2.07755,   67.9381E-03
C:/temp/dataset/3/15_5.odb,Step-1,Increment      8: Step Time =    1.000,"PART-1-1",            90,           15.,            5.,            0.,NA,NA,"",       7.79082,       7.04328,      -3.33004,   58.1258E-03
C:/temp/dataset/3/15_5.odb,Step-1,Increment      8: Step Time =    1.000,"PART-1-1",            91,           15.,           2.5,            0.,NA,NA,"",       6.75181,       6.05450,      -2.98831,   54.6508E-03
C:/temp/dataset/3/15_5.odb,Step-1,Increment      8: Step Time =    1.000,"PART-1-1",            92,           15.,          12.5,            0.,NA,NA,"",       11.3320,       10.3692,      -4.57105,   60.5736E-03
C:/temp/dataset/3/15_5.odb,Step-1,Increment      8: Step Time =    1.000,"PART-1-1",            93,           15.,           10.,            0.,NA,NA,"",       10.0769,       9.19549,      -4.12163,   61.5438E-03
C:/temp/dataset/3/15_5.odb,Step-1,Increment      8: Step Time =    1.000,"PART-1-1",            94,           15.,           20.,            0.,NA,NA,"",       15.5427,       14.2829,      -6.12987,   47.5323E-03
C:/temp/dataset/3/15_5.odb,Step-1,Increment      8: Step Time =    1.000,"PART-1-1",            95,           15.,          17.5,            0.,NA,NA,"",       14.0638,       12.9109,      -5.57658,   55.7364E-03
C:/temp/dataset/3/15_5.odb,Step-1,Increment      8: Step Time =    1.000,"PART-1-1",            96,           15.,          27.5,            0.,NA,NA,"",       20.3067,       18.7435,      -7.81291,   3.15310E-03
C:/temp/dataset/3/15_5.odb,Step-1,Increment      8: Step Time =    1.000,"PART-1-1",            97,           15.,           25.,            0.,NA,NA,"",       18.6894,       17.2181,      -7.26850,   16.6821E-03
C:/temp/dataset/3/15_5.odb,Step-1,Increment      8: Step Time =    1.000,"PART-1-1",            98,           10.,           30.,            0.,NA,NA,"",       21.9586,       21.3043,      -5.32059,   16.1326E-03
C:/temp/dataset/3/15_5.odb,Step-1,Increment      8: Step Time =    1.000,"PART-1-1",            99,          12.5,           30.,            0.,NA,NA,"",       21.8724,       20.7834,      -6.81575,   3.13446E-03
C:/temp/dataset/3/15_5.odb,Step-1,Increment      8: Step Time =    1.000,"PART-1-1",           100,           2.5,           30.,            0.,NA,NA,"",       23.1197,       23.1060,  -793.614E-03,   37.6483E-03
C:/temp/dataset/3/15_5.odb,Step-1,Increment      8: Step Time =    1.000,"PART-1-1",           101,            5.,           30.,            0.,NA,NA,"",       22.5825,       22.4615,      -2.33472,   38.2585E-03
C:/temp/dataset/3/15_5.odb,Step-1,Increment      8: Step Time =    1.000,"PART-1-1",           102,           -5.,           30.,            0.,NA,NA,"",       25.4804,       25.1508,       4.08523,   14.8078E-03
C:/temp/dataset/3/15_5.odb,Step-1,Increment      8: Step Time =    1.000,"PART-1-1",           103,          -2.5,           30.,            0.,NA,NA,"",       24.5826,       24.4628,       2.42422,   22.8520E-03
C:/temp/dataset/3/15_5.odb,Step-1,Increment      8: Step Time =    1.000,"PART-1-1",           104,         -12.5,           30.,            0.,NA,NA,"",       28.6861,       27.1840,       9.16111,   387.238E-06
C:/temp/dataset/3/15_5.odb,Step-1,Increment      8: Step Time =    1.000,"PART-1-1",           105,          -10.,           30.,            0.,NA,NA,"",       27.5437,       26.5136,       7.46207,   3.11758E-03
C:/temp/dataset/3/15_5.odb,Step-1,Increment      8: Step Time =    1.000,"PART-1-1",           106,          -15.,          27.5,            0.,NA,NA,"",       28.5784,       26.1524,       11.5229,   388.796E-06
C:/temp/dataset/3/15_5.odb,Step-1,Increment      8: Step Time =    1.000,"PART-1-1",           107,      -12.5013,       25.0052,            0.,NA,NA,"",       26.0092,       23.8017,       10.4862,   4.54143E-03
C:/temp/dataset/3/15_5.odb,Step-1,Increment      8: Step Time =    1.000,"PART-1-1",           108,      -10.0028,       27.5014,            0.,NA,NA,"",       26.1139,       24.8178,       8.12480,   5.71864E-03
C:/temp/dataset/3/15_5.odb,Step-1,Increment      8: Step Time =    1.000,"PART-1-1",           109,      -2.49865,       22.5268,            0.,NA,NA,"",       19.9612,       19.4946,       4.29097,   14.7148E-03
C:/temp/dataset/3/15_5.odb,Step-1,Increment      8: Step Time =    1.000,"PART-1-1",           110,      -2.51000,       27.5279,            0.,NA,NA,"",       23.0069,       22.8042,       3.04698,   15.6846E-03
C:/temp/dataset/3/15_5.odb,Step-1,Increment      8: Step Time =    1.000,"PART-1-1",           111,       12.3864,       22.5464,            0.,NA,NA,"",       17.0330,       16.2392,      -5.13928,   26.9112E-03
C:/temp/dataset/3/15_5.odb,Step-1,Increment      8: Step Time =    1.000,"PART-1-1",           112,       7.35369,       17.5509,            0.,NA,NA,"",       14.2541,       14.1944,      -1.30269,   40.6183E-03
C:/temp/dataset/3/15_5.odb,Step-1,Increment      8: Step Time =    1.000,"PART-1-1",           113,       12.3201,       14.9467,            0.,NA,NA,"",       12.4795,       11.9528,      -3.58718,   23.1247E-03
C:/temp/dataset/3/15_5.odb,Step-1,Increment      8: Step Time =    1.000,"PART-1-1",           114,       13.2599,       7.39194,            0.,NA,NA,"",       8.68808,       8.19647,      -2.88108,   37.4221E-03
C:/temp/dataset/3/15_5.odb,Step-1,Increment      8: Step Time =    1.000,"PART-1-1",           115,       7.60504,      -5.98204,            0.,NA,NA,"",       3.42577,       3.40121,   409.476E-03,   34.3893E-03
C:/temp/dataset/3/15_5.odb,Step-1,Increment      8: Step Time =    1.000,"PART-1-1",           116,       7.71062,      -13.7665,            0.,NA,NA,"",       1.27004,       1.22113,   349.061E-03,   52.1134E-03
C:/temp/dataset/3/15_5.odb,Step-1,Increment      8: Step Time =    1.000,"PART-1-1",           117,       11.7208,      -22.4938,            0.,NA,NA,"",   157.602E-03,   48.2499E-03,  -150.034E-03,   33.0389E-03
C:/temp/dataset/3/15_5.odb,Step-1,Increment      8: Step Time =    1.000,"PART-1-1",           118,       2.59328,       2.74806,            0.,NA,NA,"",       7.45102,       7.21557,       1.85827,   19.6158E-03
C:/temp/dataset/3/15_5.odb,Step-1,Increment      8: Step Time =    1.000,"PART-1-1",           119,      -1.32361,      -2.98462,            0.,NA,NA,"",       6.51309,       5.30141,       3.78357,   1.78958E-03
C:/temp/dataset/3/15_5.odb,Step-1,Increment      8: Step Time =    1.000,"PART-1-1",           120,      -6.00563,       3.11026,            0.,NA,NA,"",       9.50559,       8.01181,       5.11539,   596.656E-06
C:/temp/dataset/3/15_5.odb,Step-1,Increment      8: Step Time =    1.000,"PART-1-1",           121,      -10.4102,       2.53863,            0.,NA,NA,"",       10.6380,       8.13226,       6.85805,   68.5686E-06
C:/temp/dataset/3/15_5.odb,Step-1,Increment      8: Step Time =    1.000,"PART-1-1",           122,      -12.6184,  -43.2983E-03,            0.,NA,NA,"",       10.7681,       7.30775,       7.90882,   16.8944E-06
C:/temp/dataset/3/15_5.odb,Step-1,Increment      8: Step Time =    1.000,"PART-1-1",           123,      -3.88272,       3.23189,            0.,NA,NA,"",       8.98321,       7.89416,       4.28722,   1.19075E-03
C:/temp/dataset/3/15_5.odb,Step-1,Increment      8: Step Time =    1.000,"PART-1-1",           124,       2.98144,      -22.7363,            0.,NA,NA,"",   151.587E-03,   101.029E-03,   113.012E-03,   47.0992E-03
C:/temp/dataset/3/15_5.odb,Step-1,Increment      8: Step Time =    1.000,"PART-1-1",           125,      -2.42987,      -22.6294,            0.,NA,NA,"",   70.9721E-03,   69.6366E-03,   13.7035E-03,   7.42762E-03
C:/temp/dataset/3/15_5.odb,Step-1,Increment      8: Step Time =    1.000,"PART-1-1",           126,      -9.97348,      -22.5672,            0.,NA,NA,"",   49.7657E-03,   49.7643E-03,  -373.253E-06,   1.54616E-03
C:/temp/dataset/3/15_5.odb,Step-1,Increment      8: Step Time =    1.000,"PART-1-1",           127,      -12.4895,      -25.0402,            0.,NA,NA,"",   36.7717E-03,   36.4119E-03,   5.13194E-03,   2.24821E-03
C:/temp/dataset/3/15_5.odb,Step-1,Increment      8: Step Time =    1.000,"PART-1-1",           128,       12.8561,      -14.2595,            0.,NA,NA,"",       1.19423,       1.00688,  -642.166E-03,   45.9600E-03
C:/temp/dataset/3/15_5.odb,Step-1,Increment      8: Step Time =    1.000,"PART-1-1",           129,       12.7281,      -7.33650,            0.,NA,NA,"",       2.93264,       2.71881,      -1.09931,   39.2039E-03
C:/temp/dataset/3/15_5.odb,Step-1,Increment      8: Step Time =    1.000,"PART-1-1",           130,       12.6427,  -96.8002E-03,            0.,NA,NA,"",       5.50030,       5.21752,      -1.74093,   27.8246E-03
C:/temp/dataset/3/15_5.odb,Step-1,Increment      8: Step Time =    1.000,"PART-1-1",           131,       7.13014,       10.3328,            0.,NA,NA,"",       10.3189,       10.3129,  -351.150E-03,   46.5802E-03
C:/temp/dataset/3/15_5.odb,Step-1,Increment      8: Step Time =    1.000,"PART-1-1",           132,       4.95005,       27.5805,            0.,NA,NA,"",       20.9995,       20.9235,      -1.78548,   20.9049E-03
C:/temp/dataset/3/15_5.odb,Step-1,Increment      8: Step Time =    1.000,"PART-1-1",           133,      -4.99957,       22.5148,            0.,NA,NA,"",       21.0114,       20.1345,       6.00672,   14.1772E-03
C:/temp/dataset/3/15_5.odb,Step-1,Increment      8: Step Time =    1.000,"PART-1-1",           134,      -7.50186,       22.5094,            0.,NA,NA,"",       22.1811,       20.7912,       7.72833,   11.1649E-03
C:/temp/dataset/3/15_5.odb,Step-1,Increment      8: Step Time =    1.000,"PART-1-1",           135,       4.93744,       22.5898,            0.,NA,NA,"",       17.7469,       17.7330,  -702.108E-03,   23.8117E-03
C:/temp/dataset/3/15_5.odb,Step-1,Increment      8: Step Time =    1.000,"PART-1-1",           136,       2.47758,       22.5593,            0.,NA,NA,"",       18.3150,       18.2918,   922.257E-03,   28.4906E-03
C:/temp/dataset/3/15_5.odb,Step-1,Increment      8: Step Time =    1.000,"PART-1-1",           137,  -4.46696E-03,       22.5388,            0.,NA,NA,"",       19.0569,       18.8798,       2.59204,   20.0466E-03
C:/temp/dataset/3/15_5.odb,Step-1,Increment      8: Step Time =    1.000,"PART-1-1",           138,       7.20686,       12.6699,            0.,NA,NA,"",       11.5354,       11.5187,  -620.759E-03,   43.7083E-03
C:/temp/dataset/3/15_5.odb,Step-1,Increment      8: Step Time =    1.000,"PART-1-1",           139,       7.30679,       15.0771,            0.,NA,NA,"",       12.8451,       12.8101,  -947.573E-03,   42.9974E-03
C:/temp/dataset/3/15_5.odb,Step-1,Increment      8: Step Time =    1.000,"PART-1-1",           140,       7.52839,       5.66323,            0.,NA,NA,"",       8.01834,       8.01702,  -145.567E-03,   27.4632E-03
C:/temp/dataset/3/15_5.odb,Step-1,Increment      8: Step Time =    1.000,"PART-1-1",           141,       7.20823,       7.96221,            0.,NA,NA,"",       9.12953,       9.12774,  -180.651E-03,   47.3935E-03
C:/temp/dataset/3/15_5.odb,Step-1,Increment      8: Step Time =    1.000,"PART-1-1",           142,      -1.77433,       3.17490,            0.,NA,NA,"",       8.45780,       7.70881,       3.47973,   1.86262E-03
C:/temp/dataset/3/15_5.odb,Step-1,Increment      8: Step Time =    1.000,"PART-1-1",           143,   347.975E-03,       3.01142,            0.,NA,NA,"",       7.95105,       7.48589,       2.67968,   3.22466E-03
C:/temp/dataset/3/15_5.odb,Step-1,Increment      8: Step Time =    1.000,"PART-1-1",           144,      -8.17775,       2.85153,            0.,NA,NA,"",       10.0483,       8.08026,       5.97312,   231.788E-06
C:/temp/dataset/3/15_5.odb,Step-1,Increment      8: Step Time =    1.000,"PART-1-1",           145,      -8.45397,      -3.03463,            0.,NA,NA,"",       8.75989,       5.83324,       6.53522,   189.077E-06
C:/temp/dataset/3/15_5.odb,Step-1,Increment      8: Step Time =    1.000,"PART-1-1",           146,      -12.6978,       2.46856,            0.,NA,NA,"",       11.3394,       8.28204,       7.74529,   9.14324E-06
C:/temp/dataset/3/15_5.odb,Step-1,Increment      8: Step Time =    1.000,"PART-1-1",           147,      -10.5225,      -2.72745,            0.,NA,NA,"",       9.52694,       6.11135,       7.30849,   61.6455E-06
C:/temp/dataset/3/15_5.odb,Step-1,Increment      8: Step Time =    1.000,"PART-1-1",           148,      -12.7265,      -2.55241,            0.,NA,NA,"",       10.3267,       6.34905,       8.14437,   8.65833E-06
C:/temp/dataset/3/15_5.odb,Step-1,Increment      8: Step Time =    1.000,"PART-1-1",           149,      -3.80700,      -2.48494,            0.,NA,NA,"",       7.37961,       5.68724,       4.70255,   1.29146E-03
C:/temp/dataset/3/15_5.odb,Step-1,Increment      8: Step Time =    1.000,"PART-1-1",           150,      -6.26959,      -2.94549,            0.,NA,NA,"",       8.05111,       5.69904,       5.68695,   545.910E-06
C:/temp/dataset/3/15_5.odb,Step-1,Increment      8: Step Time =    1.000,"PART-1-1",           151,       2.97297,      -3.34056,            0.,NA,NA,"",       5.25750,       4.81156,       2.11902,   22.7651E-03
C:/temp/dataset/3/15_5.odb,Step-1,Increment      8: Step Time =    1.000,"PART-1-1",           152,   836.982E-03,      -3.21922,            0.,NA,NA,"",       5.84503,       5.03992,       2.96035,   3.61268E-03
C:/temp/dataset/3/15_5.odb,Step-1,Increment      8: Step Time =    1.000,"PART-1-1",           153,       7.27849,      -10.7647,            0.,NA,NA,"",       2.03708,       1.97327,   505.841E-03,   57.9131E-03
C:/temp/dataset/3/15_5.odb,Step-1,Increment      8: Step Time =    1.000,"PART-1-1",           154,       7.20650,      -8.25133,            0.,NA,NA,"",       2.75255,       2.69768,   546.835E-03,   57.3795E-03
C:/temp/dataset/3/15_5.odb,Step-1,Increment      8: Step Time =    1.000,"PART-1-1",           155,       7.07274,      -17.3233,            0.,NA,NA,"",   662.127E-03,   571.331E-03,   334.654E-03,   71.2756E-03
C:/temp/dataset/3/15_5.odb,Step-1,Increment      8: Step Time =    1.000,"PART-1-1",           156,       6.55788,      -15.2577,            0.,NA,NA,"",       1.08831,   963.362E-03,   506.305E-03,   79.5398E-03
C:/temp/dataset/3/15_5.odb,Step-1,Increment      8: Step Time =    1.000,"PART-1-1",           157,      -7.46685,      -22.5818,            0.,NA,NA,"",   53.4166E-03,   53.3571E-03,  -2.51870E-03,   2.69181E-03
C:/temp/dataset/3/15_5.odb,Step-1,Increment      8: Step Time =    1.000,"PART-1-1",           158,      -4.95694,      -22.5955,            0.,NA,NA,"",   59.9640E-03,   59.9579E-03,   854.399E-06,   4.44085E-03
C:/temp/dataset/3/15_5.odb,Step-1,Increment      8: Step Time =    1.000,"PART-1-1",           159,   146.162E-03,      -22.6598,            0.,NA,NA,"",   99.3682E-03,   88.1391E-03,   45.8862E-03,   18.0338E-03
C:/temp/dataset/3/15_5.odb,Step-1,Increment      8: Step Time =    1.000,"PART-1-1",           160,      -12.4860,      -22.5306,            0.,NA,NA,"",   48.8279E-03,   48.4837E-03,   5.78759E-03,   449.565E-06
C:/temp/dataset/3/15_5.odb,Step-1,Increment      8: Step Time =    1.000,"PART-1-1",           161,       9.96020,      -27.7814,            0.,NA,NA,"",   36.8683E-03,  -35.4033E-03,  -10.2894E-03,   14.2368E-03
C:/temp/dataset/3/15_5.odb,Step-1,Increment      8: Step Time =    1.000,"PART-1-1",           162,       7.44077,      -27.8946,            0.,NA,NA,"",   28.3725E-03,  -20.7916E-03,   19.3056E-03,   17.2010E-03
C:/temp/dataset/3/15_5.odb,Step-1,Increment      8: Step Time =    1.000,"PART-1-1",           163,       4.93217,      -27.8625,            0.,NA,NA,"",   32.3845E-03,   4.92775E-03,   32.0074E-03,   22.4673E-03
C:/temp/dataset/3/15_5.odb,Step-1,Increment      8: Step Time =    1.000,"PART-1-1",           164,       2.47767,      -27.7470,            0.,NA,NA,"",   39.6684E-03,   26.7837E-03,   29.2612E-03,   20.5190E-03
C:/temp/dataset/3/15_5.odb,Step-1,Increment      8: Step Time =    1.000,"PART-1-1",           165,   19.5837E-03,      -27.6625,            0.,NA,NA,"",   40.7083E-03,   36.1607E-03,   18.6967E-03,   15.6016E-03
C:/temp/dataset/3/15_5.odb,Step-1,Increment      8: Step Time =    1.000,"PART-1-1",           166,      -2.46955,      -27.6154,            0.,NA,NA,"",   36.7868E-03,   35.5806E-03,   9.34297E-03,   11.3909E-03
C:/temp/dataset/3/15_5.odb,Step-1,Increment      8: Step Time =    1.000,"PART-1-1",           167,      -4.97450,      -27.5844,            0.,NA,NA,"",   30.7647E-03,   30.5415E-03,   3.69938E-03,   8.50931E-03
C:/temp/dataset/3/15_5.odb,Step-1,Increment      8: Step Time =    1.000,"PART-1-1",           168,      -7.48283,      -27.5594,            0.,NA,NA,"",   25.1606E-03,   25.1246E-03,   1.34636E-03,   6.63291E-03
C:/temp/dataset/3/15_5.odb,Step-1,Increment      8: Step Time =    1.000,"PART-1-1",           169,       12.2865,      -25.1793,            0.,NA,NA,"",   113.467E-03,  -16.0586E-03,  -112.324E-03,   35.1982E-03
C:/temp/dataset/3/15_5.odb,Step-1,Increment      8: Step Time =    1.000,"PART-1-1",           170,       11.6753,      -16.4340,            0.,NA,NA,"",   712.043E-03,   631.130E-03,  -329.669E-03,   25.5451E-03
C:/temp/dataset/3/15_5.odb,Step-1,Increment      8: Step Time =    1.000,"PART-1-1",           171,       11.9685,      -19.5802,            0.,NA,NA,"",   354.254E-03,   242.414E-03,  -258.325E-03,   34.7000E-03
C:/temp/dataset/3/15_5.odb,Step-1,Increment      8: Step Time =    1.000,"PART-1-1",           172,       13.3291,      -9.93034,            0.,NA,NA,"",       2.24549,       1.97997,      -1.05922,   51.2487E-03
C:/temp/dataset/3/15_5.odb,Step-1,Increment      8: Step Time =    1.000,"PART-1-1",           173,       13.4212,      -12.1607,            0.,NA,NA,"",       1.70290,       1.44141,  -906.758E-03,   55.4251E-03
C:/temp/dataset/3/15_5.odb,Step-1,Increment      8: Step Time =    1.000,"PART-1-1",           174,       12.9633,      -2.52247,            0.,NA,NA,"",       4.60016,       4.30581,      -1.61908,   35.3410E-03
C:/temp/dataset/3/15_5.odb,Step-1,Increment      8: Step Time =    1.000,"PART-1-1",           175,       13.1247,      -4.84738,            0.,NA,NA,"",       3.78275,       3.49423,      -1.44899,   42.1347E-03
C:/temp/dataset/3/15_5.odb,Step-1,Increment      8: Step Time =    1.000,"PART-1-1",           176,       13.1131,       5.12757,            0.,NA,NA,"",       7.66826,       7.24369,      -2.51618,   35.2368E-03
C:/temp/dataset/3/15_5.odb,Step-1,Increment      8: Step Time =    1.000,"PART-1-1",           177,       12.1418,       2.60140,            0.,NA,NA,"",       6.55500,       6.29882,      -1.81462,   21.7519E-03
C:/temp/dataset/3/15_5.odb,Step-1,Increment      8: Step Time =    1.000,"PART-1-1",           178,       12.1760,       12.1629,            0.,NA,NA,"",       10.9826,       10.5492,      -3.05481,   21.7906E-03
C:/temp/dataset/3/15_5.odb,Step-1,Increment      8: Step Time =    1.000,"PART-1-1",           179,       13.0236,       9.64002,            0.,NA,NA,"",       9.73941,       9.23529,      -3.09282,   34.0741E-03
C:/temp/dataset/3/15_5.odb,Step-1,Increment      8: Step Time =    1.000,"PART-1-1",           180,       12.3784,       20.0377,            0.,NA,NA,"",       15.4541,       14.7554,      -4.59445,   26.3913E-03
C:/temp/dataset/3/15_5.odb,Step-1,Increment      8: Step Time =    1.000,"PART-1-1",           181,       12.3660,       17.5135,            0.,NA,NA,"",       13.9394,       13.3286,      -4.08099,   24.2383E-03
C:/temp/dataset/3/15_5.odb,Step-1,Increment      8: Step Time =    1.000,"PART-1-1",           182,       12.4264,       25.0333,            0.,NA,NA,"",       18.6457,       17.7487,      -5.71372,   23.4992E-03
C:/temp/dataset/3/15_5.odb,Step-1,Increment      8: Step Time =    1.000,"PART-1-1",           183,       7.43491,       27.5684,            0.,NA,NA,"",       20.6134,       20.3485,      -3.29386,   22.5552E-03
C:/temp/dataset/3/15_5.odb,Step-1,Increment      8: Step Time =    1.000,"PART-1-1",           184,  -17.4965E-03,       27.5503,            0.,NA,NA,"",       22.1987,       22.1551,       1.39101,   18.1251E-03
C:/temp/dataset/3/15_5.odb,Step-1,Increment      8: Step Time =    1.000,"PART-1-1",           185,       2.47067,       27.5656,            0.,NA,NA,"",       21.5236,       21.5224,  -224.205E-03,   19.4669E-03
C:/temp/dataset/3/15_5.odb,Step-1,Increment      8: Step Time =    1.000,"PART-1-1",           186,      -7.50286,       27.5043,            0.,NA,NA,"",       24.9826,       24.1428,       6.42299,   9.06408E-03
C:/temp/dataset/3/15_5.odb,Step-1,Increment      8: Step Time =    1.000,"PART-1-1",           187,      -5.00635,       27.5119,            0.,NA,NA,"",       23.9409,       23.4692,       4.72864,   12.4509E-03
C:/temp/dataset/3/15_5.odb,Step-1,Increment      8: Step Time =    1.000,"PART-1-1",           188,      -12.5019,       27.5019,            0.,NA,NA,"",       27.3175,       25.4893,       9.82552,   2.70465E-03
C:/temp/dataset/3/15_5.odb,Step-1,Increment      8: Step Time =    1.000,"PART-1-1",           189,      -12.5001,       22.5034,            0.,NA,NA,"",       24.7662,       22.1135,       11.1516,   5.16753E-03
C:/temp/dataset/3/15_5.odb,Step-1,Increment      8: Step Time =    1.000,"PART-1-1",           190,      -5.00429,       25.0191,            0.,NA,NA,"",       22.4529,       21.8031,       5.36249,   12.9038E-03
C:/temp/dataset/3/15_5.odb,Step-1,Increment      8: Step Time =    1.000,"PART-1-1",           191,  -15.9173E-03,       25.0642,            0.,NA,NA,"",       20.6224,       20.5269,       1.98265,   13.0649E-03
C:/temp/dataset/3/15_5.odb,Step-1,Increment      8: Step Time =    1.000,"PART-1-1",           192,       9.74355,       15.0604,            0.,NA,NA,"",       12.6009,       12.4022,      -2.22944,   10.1431E-03
C:/temp/dataset/3/15_5.odb,Step-1,Increment      8: Step Time =    1.000,"PART-1-1",           193,       9.51986,       12.6989,            0.,NA,NA,"",       11.3268,       11.1852,      -1.78506,   14.2247E-03
C:/temp/dataset/3/15_5.odb,Step-1,Increment      8: Step Time =    1.000,"PART-1-1",           194,       12.1898,      -11.7554,            0.,NA,NA,"",       1.67466,       1.54555,  -644.798E-03,   32.2308E-03
C:/temp/dataset/3/15_5.odb,Step-1,Increment      8: Step Time =    1.000,"PART-1-1",           195,       9.78251,      -13.4248,            0.,NA,NA,"",       1.22241,       1.22094,  -60.0207E-03,   14.9959E-03
C:/temp/dataset/3/15_5.odb,Step-1,Increment      8: Step Time =    1.000,"PART-1-1",           196,       7.24032,      -19.5057,            0.,NA,NA,"",   342.269E-03,   256.843E-03,   226.230E-03,   40.4984E-03
C:/temp/dataset/3/15_5.odb,Step-1,Increment      8: Step Time =    1.000,"PART-1-1",           197,      -10.0066,  -139.817E-03,            0.,NA,NA,"",       9.88487,       7.06884,       6.90956,   114.988E-06
C:/temp/dataset/3/15_5.odb,Step-1,Increment      8: Step Time =    1.000,"PART-1-1",           198,      -8.39380,      -1.43672,            0.,NA,NA,"",       9.07434,       6.44458,       6.38835,   237.600E-06
C:/temp/dataset/3/15_5.odb,Step-1,Increment      8: Step Time =    1.000,"PART-1-1",           199,      -5.07121,  -530.035E-03,            0.,NA,NA,"",       8.25392,       6.53862,       5.03722,   969.247E-06
C:/temp/dataset/3/15_5.odb,Step-1,Increment      8: Step Time =    1.000,"PART-1-1",           200,      -12.5003,      -27.5198,            0.,NA,NA,"",   19.7867E-03,   19.4433E-03,   3.67014E-03,   4.95032E-03
C:/temp/dataset/3/15_5.odb,Step-1,Increment      8: Step Time =    1.000,"PART-1-1",           201,       8.97180,      -8.86122,            0.,NA,NA,"",       2.41392,       2.41306,   64.3556E-03,   23.6468E-03
C:/temp/dataset/3/15_5.odb,Step-1,Increment      8: Step Time =    1.000,"PART-1-1",           202,      -2.50561,       25.0360,            0.,NA,NA,"",       21.4669,       21.1523,       3.66196,   13.7880E-03
C:/temp/dataset/3/15_5.odb,Step-1,Increment      8: Step Time =    1.000,"PART-1-1",           203,      -7.50383,       25.0106,            0.,NA,NA,"",       23.5538,       22.4671,       7.07180,   10.5323E-03
C:/temp/dataset/3/15_5.odb,Step-1,Increment      8: Step Time =    1.000,"PART-1-1",           204,       2.46362,       25.0850,            0.,NA,NA,"",       19.9213,       19.9183,   343.157E-03,   14.2435E-03
C:/temp/dataset/3/15_5.odb,Step-1,Increment      8: Step Time =    1.000,"PART-1-1",           205,       9.17638,       10.5785,            0.,NA,NA,"",       10.2435,       10.1536,      -1.35478,   18.0263E-03
C:/temp/dataset/3/15_5.odb,Step-1,Increment      8: Step Time =    1.000,"PART-1-1",           206,       9.65111,       6.46520,            0.,NA,NA,"",       8.22773,       8.14908,      -1.13494,   7.06862E-03
C:/temp/dataset/3/15_5.odb,Step-1,Increment      8: Step Time =    1.000,"PART-1-1",           207,      -1.99278,       1.34592,            0.,NA,NA,"",       7.94194,       7.02546,       3.70369,   1.85152E-03
C:/temp/dataset/3/15_5.odb,Step-1,Increment      8: Step Time =    1.000,"PART-1-1",           208,      -5.69490,       1.29843,            0.,NA,NA,"",       8.91777,       7.29056,       5.13560,   768.914E-06
C:/temp/dataset/3/15_5.odb,Step-1,Increment      8: Step Time =    1.000,"PART-1-1",           209,       1.92780,   665.778E-03,            0.,NA,NA,"",       6.84523,       6.46399,       2.25254,   10.3087E-03
C:/temp/dataset/3/15_5.odb,Step-1,Increment      8: Step Time =    1.000,"PART-1-1",           210,       1.26043,      -1.37778,            0.,NA,NA,"",       6.30776,       5.72280,       2.65281,   5.51103E-03
C:/temp/dataset/3/15_5.odb,Step-1,Increment      8: Step Time =    1.000,"PART-1-1",           211,       9.14691,      -16.8280,            0.,NA,NA,"",   594.817E-03,   592.054E-03,   57.2568E-03,   21.9003E-03
C:/temp/dataset/3/15_5.odb,Step-1,Increment      8: Step Time =    1.000,"PART-1-1",           212,   79.9954E-03,      -25.2148,            0.,NA,NA,"",   76.5262E-03,   66.5008E-03,   37.8670E-03,   17.1348E-03
C:/temp/dataset/3/15_5.odb,Step-1,Increment      8: Step Time =    1.000,"PART-1-1",           213,      -9.97865,      -25.0679,            0.,NA,NA,"",   38.3124E-03,   38.3074E-03,   623.304E-06,   3.49858E-03
C:/temp/dataset/3/15_5.odb,Step-1,Increment      8: Step Time =    1.000,"PART-1-1",           214,       12.4671,      -27.6040,            0.,NA,NA,"",   58.6879E-03,  -22.5556E-03,  -54.1804E-03,   32.9516E-03
C:/temp/dataset/3/15_5.odb,Step-1,Increment      8: Step Time =    1.000,"PART-1-1",           215,       9.82463,      -25.6838,            0.,NA,NA,"",   34.4152E-03,  -32.1214E-03,  -12.3542E-03,   17.2189E-03
C:/temp/dataset/3/15_5.odb,Step-1,Increment      8: Step Time =    1.000,"PART-1-1",           216,       2.56344,      -25.3828,            0.,NA,NA,"",   91.3292E-03,   59.8909E-03,   68.9500E-03,   27.0962E-03
C:/temp/dataset/3/15_5.odb,Step-1,Increment      8: Step Time =    1.000,"PART-1-1",           217,      -2.44121,      -25.1518,            0.,NA,NA,"",   61.7433E-03,   59.9612E-03,   14.7272E-03,   10.7632E-03
C:/temp/dataset/3/15_5.odb,Step-1,Increment      8: Step Time =    1.000,"PART-1-1",           218,      -4.95889,      -25.1139,            0.,NA,NA,"",   51.1572E-03,   51.0259E-03,   3.66358E-03,   6.93156E-03
C:/temp/dataset/3/15_5.odb,Step-1,Increment      8: Step Time =    1.000,"PART-1-1",           219,       10.3279,  -771.646E-03,            0.,NA,NA,"",       5.19073,       5.12762,  -806.966E-03,   11.0020E-03
C:/temp/dataset/3/15_5.odb,Step-1,Increment      8: Step Time =    1.000,"PART-1-1",           220,       10.4049,       4.48083,            0.,NA,NA,"",       7.32837,       7.21737,      -1.27068,   5.45518E-03
C:/temp/dataset/3/15_5.odb,Step-1,Increment      8: Step Time =    1.000,"PART-1-1",           221,       9.80969,       17.5478,            0.,NA,NA,"",       14.0177,       13.7632,      -2.65918,   6.83882E-03
C:/temp/dataset/3/15_5.odb,Step-1,Increment      8: Step Time =    1.000,"PART-1-1",           222,       9.88106,       25.0797,            0.,NA,NA,"",       18.7527,       18.2729,      -4.21457,   27.1684E-03
C:/temp/dataset/3/15_5.odb,Step-1,Increment      8: Step Time =    1.000,"PART-1-1",           223,       9.94975,       27.5346,            0.,NA,NA,"",       20.3640,       19.7940,      -4.78429,   22.0172E-03
C:/temp/dataset/3/15_5.odb,Step-1,Increment      8: Step Time =    1.000,"PART-1-1",           224,       7.36779,       20.0596,            0.,NA,NA,"",       15.7441,       15.6521,      -1.69992,   23.2428E-03
C:/temp/dataset/3/15_5.odb,Step-1,Increment      8: Step Time =    1.000,"PART-1-1",           225,  -693.206E-03,      -1.01900,            0.,NA,NA,"",       6.90241,       6.01539,       3.38503,   2.01281E-03
C:/temp/dataset/3/15_5.odb,Step-1,Increment      8: Step Time =    1.000,"PART-1-1",           226,      -7.47194,      -25.0831,            0.,NA,NA,"",   43.3815E-03,   43.3814E-03,  -97.2852E-06,   4.98725E-03
C:/temp/dataset/3/15_5.odb,Step-1,Increment      8: Step Time =    1.000,"PART-1-1",           227,       5.28089,       2.25097,            0.,NA,NA,"",       6.86551,       6.80423,   915.247E-03,   45.9679E-03
C:/temp/dataset/3/15_5.odb,Step-1,Increment      8: Step Time =    1.000,"PART-1-1",           228,       9.26575,       8.45073,            0.,NA,NA,"",       9.17970,       9.10573,      -1.16303,   14.4248E-03
C:/temp/dataset/3/15_5.odb,Step-1,Increment      8: Step Time =    1.000,"PART-1-1",           229,  -81.3472E-03,       1.02952,            0.,NA,NA,"",       7.39214,       6.75920,       2.99282,   2.13600E-03
C:/temp/dataset/3/15_5.odb,Step-1,Increment      8: Step Time =    1.000,"PART-1-1",           230,      -7.67687,   831.326E-03,            0.,NA,NA,"",       9.38058,       7.26334,       5.93625,   352.395E-06
C:/temp/dataset/3/15_5.odb,Step-1,Increment      8: Step Time =    1.000,"PART-1-1",           231,      -2.54090,  -531.417E-03,            0.,NA,NA,"",       7.53340,       6.34506,       4.06108,   1.75824E-03
C:/temp/dataset/3/15_5.odb,Step-1,Increment      8: Step Time =    1.000,"PART-1-1",           232,      -3.83997,       1.55066,            0.,NA,NA,"",       8.47675,       7.24517,       4.40032,   1.26355E-03
C:/temp/dataset/3/15_5.odb,Step-1,Increment      8: Step Time =    1.000,"PART-1-1",           233,      -6.84494,  -996.203E-03,            0.,NA,NA,"",       8.67945,       6.49511,       5.75728,   523.357E-06
C:/temp/dataset/3/15_5.odb,Step-1,Increment      8: Step Time =    1.000,"PART-1-1",           234,       5.51335,      -3.03354,            0.,NA,NA,"",       4.79712,       4.67730,       1.06547,   54.6869E-03
C:/temp/dataset/3/15_5.odb,Step-1,Increment      8: Step Time =    1.000,"PART-1-1",           235,       9.62476,      -7.14735,            0.,NA,NA,"",       2.90531,       2.89990,  -177.237E-03,   13.3560E-03
C:/temp/dataset/3/15_5.odb,Step-1,Increment      8: Step Time =    1.000,"PART-1-1",           236,       7.38903,      -25.9371,            0.,NA,NA,"",   52.0746E-03,  -12.5281E-03,   50.5451E-03,   23.5864E-03
C:/temp/dataset/3/15_5.odb,Step-1,Increment      8: Step Time =    1.000,"PART-1-1",           237,       4.96373,      -25.7856,            0.,NA,NA,"",   82.9509E-03,   26.2104E-03,   78.7011E-03,   31.1432E-03
C:/temp/dataset/3/15_5.odb,Step-1,Increment      8: Step Time =    1.000,"PART-1-1",           238,       9.37191,      -21.3805,            0.,NA,NA,"",   97.6075E-03,   95.5139E-03,   20.1076E-03,   16.9281E-03
C:/temp/dataset/3/15_5.odb,Step-1,Increment      8: Step Time =    1.000,"PART-1-1",           239,       9.53380,      -19.3691,            0.,NA,NA,"",   254.415E-03,   254.382E-03,   4.08493E-03,   9.32199E-03
C:/temp/dataset/3/15_5.odb,Step-1,Increment      8: Step Time =    1.000,"PART-1-1",           240,       10.5518,      -5.76730,            0.,NA,NA,"",       3.34446,       3.30113,  -536.567E-03,   12.9599E-03
C:/temp/dataset/3/15_5.odb,Step-1,Increment      8: Step Time =    1.000,"PART-1-1",           241,       10.8494,      -2.88140,            0.,NA,NA,"",       4.37828,       4.29755,  -836.941E-03,   15.4583E-03
C:/temp/dataset/3/15_5.odb,Step-1,Increment      8: Step Time =    1.000,"PART-1-1",           242,       9.33979,       1.27198,            0.,NA,NA,"",       6.03969,       6.01213,  -576.271E-03,   17.4933E-03
C:/temp/dataset/3/15_5.odb,Step-1,Increment      8: Step Time =    1.000,"PART-1-1",           243,       9.83335,       20.0603,            0.,NA,NA,"",       15.5273,       15.2084,      -3.13088,   17.8762E-03
C:/temp/dataset/3/15_5.odb,Step-1,Increment      8: Step Time =    1.000,"PART-1-1",           244,       7.39102,       25.1069,            0.,NA,NA,"",       18.9952,       18.7966,      -2.74002,   23.4776E-03
C:/temp/dataset/3/15_5.odb,Step-1,Increment      8: Step Time =    1.000,"PART-1-1",           245,       4.93408,       25.0979,            0.,NA,NA,"",       19.3754,       19.3360,      -1.23555,   14.4583E-03
C:/temp/dataset/3/15_5.odb,Step-1,Increment      8: Step Time =    1.000,"PART-1-1",           246,      -10.0026,       25.0068,            0.,NA,NA,"",       24.7454,       23.1351,       8.78094,   7.38417E-03
C:/temp/dataset/3/15_5.odb,Step-1,Increment      8: Step Time =    1.000,"PART-1-1",           247,      -10.0008,       22.5051,            0.,NA,NA,"",       23.4378,       21.4511,       9.44335,   7.70579E-03
C:/temp/dataset/3/15_5.odb,Step-1,Increment      8: Step Time =    1.000,"PART-1-1",           248,      -9.99283,      -27.5363,            0.,NA,NA,"",   21.0054E-03,   20.9743E-03,   1.14289E-03,   5.46432E-03
C:/temp/dataset/3/15_5.odb,Step-1,Increment      8: Step Time =    1.000,"PART-1-1",           249,       3.80746,   187.829E-03,            0.,NA,NA,"",       6.31456,       6.11588,       1.57154,   27.5714E-03
C:/temp/dataset/3/15_5.odb,Step-1,Increment      8: Step Time =    1.000,"PART-1-1",           250,       11.4886,       7.12458,            0.,NA,NA,"",       8.49946,       8.25291,      -2.03234,   15.8219E-03
C:/temp/dataset/3/15_5.odb,Step-1,Increment      8: Step Time =    1.000,"PART-1-1",           251,       5.25951,      -23.9756,            0.,NA,NA,"",   139.406E-03,   55.9003E-03,   127.708E-03,   40.9811E-03
C:/temp/dataset/3/15_5.odb,Step-1,Increment      8: Step Time =    1.000,"PART-1-1",           252,       9.85798,       22.5791,            0.,NA,NA,"",       17.1195,       16.7233,      -3.66154,   26.9388E-03
C:/temp/dataset/3/15_5.odb,Step-1,Increment      8: Step Time =    1.000,"PART-1-1",           253,       7.38133,       22.5911,            0.,NA,NA,"",       17.3459,       17.2054,      -2.20336,   27.1065E-03
C:/temp/dataset/3/15_5.odb,Step-1,Increment      8: Step Time =    1.000,"PART-1-1",           254,       9.03817,      -10.9527,            0.,NA,NA,"",       1.83735,       1.83567,   78.4601E-03,   26.5519E-03
C:/temp/dataset/3/15_5.odb,Step-1,Increment      8: Step Time =    1.000,"PART-1-1",           255,       7.30212,      -21.2110,            0.,NA,NA,"",   209.983E-03,   116.034E-03,   175.011E-03,   36.5430E-03
C:/temp/dataset/3/15_5.odb,Step-1,Increment      8: Step Time =    1.000,"PART-1-1",           256,       8.48263,      -3.88795,            0.,NA,NA,"",       4.08639,       4.08624,   35.8722E-03,   28.8338E-03
C:/temp/dataset/3/15_5.odb,Step-1,Increment      8: Step Time =    1.000,"PART-1-1",           257,       8.48912,      -1.65164,            0.,NA,NA,"",       4.93803,       4.93738,  -80.6323E-03,   29.8960E-03
C:/temp/dataset/3/15_5.odb,Step-1,Increment      8: Step Time =    1.000,"PART-1-1",           258,       8.19007,       3.36514,            0.,NA,NA,"",       6.97714,       6.97235,  -258.475E-03,   27.7280E-03
C:/temp/dataset/3/15_5.odb,Step-1,Increment      8: Step Time =    1.000,"PART-1-1",           259,       6.78208,  -317.133E-03,            0.,NA,NA,"",       5.64499,       5.62456,   479.800E-03,   40.0355E-03
C:/temp/dataset/3/15_5.odb,Step-1,Increment      8: Step Time =    1.000,"PART-1-1",           260,       11.8604,      -10.2109,            0.,NA,NA,"",       2.04138,       1.93447,  -651.953E-03,   26.0734E-03
C:/temp/dataset/3/15_5.odb,Step-1,Increment      8: Step Time =    1.000,"PART-1-1",           261,       5.00218,  -627.613E-03,            0.,NA,NA,"",       5.79505,       5.67766,       1.16053,   38.3551E-03
C:/temp/dataset/3/15_5.odb,Step-1,Increment      8: Step Time =    1.000,"PART-1-1",           262,       11.1460,      -8.45072,            0.,NA,NA,"",       2.50340,       2.44047,  -557.780E-03,   15.8120E-03
C:/temp/dataset/3/15_5.odb,Step-1,Increment      8: Step Time =    1.000,"PART-1-1",           263,       11.7180,       5.54683,            0.,NA,NA,"",       7.79294,       7.54460,      -1.95164,   18.5845E-03
C:/temp/dataset/3/15_5.odb,Step-1,Increment      8: Step Time =    1.000,"PART-1-1",           264,       5.25136,      -21.5985,            0.,NA,NA,"",   251.110E-03,   125.664E-03,   217.404E-03,   63.5784E-03
C:/temp/dataset/3/15_5.odb,Step-1,Increment      8: Step Time =    1.000,"PART-1-1",           265,       12.4723,       27.5096,            0.,NA,NA,"",       20.2642,       19.2661,      -6.28129,   14.3402E-03
C:/temp/dataset/3/15_5.odb,Step-1,Increment      8: Step Time =    1.000,"PART-1-1",           266,       5.87727,      -22.7682,            0.,NA,NA,"",   184.591E-03,   79.1771E-03,   166.748E-03,   44.9897E-03
C:/temp/dataset/3/15_5.odb,Step-1,Increment      8: Step Time =    1.000,"PART-1-1",           267,       7.32369,      -22.7299,            0.,NA,NA,"",   138.962E-03,   52.6659E-03,   128.595E-03,   35.1464E-03
C:/temp/dataset/3/15_5.odb,Step-1,Increment      8: Step Time =    1.000,"PART-1-1",           268,       11.4923,      -4.55460,            0.,NA,NA,"",       3.78190,       3.66630,  -927.910E-03,   22.2592E-03
C:/temp/dataset/3/15_5.odb,Step-1,Increment      8: Step Time =    1.000,"PART-1-1",           269,       11.2115,       8.96325,            0.,NA,NA,"",       9.36725,       9.12166,      -2.13091,   10.6709E-03
C:/temp/dataset/3/15_5.odb,Step-1,Increment      8: Step Time =    1.000,"PART-1-1",           270,       10.8046,       10.5255,            0.,NA,NA,"",       10.1447,       9.91699,      -2.13745,   4.92809E-03
C:/temp/dataset/3/15_5.odb,Step-1,Increment      8: Step Time =    1.000,"PART-1-1",           271,       7.35536,      -24.2380,            0.,NA,NA,"",   87.7852E-03,   13.1895E-03,   86.7887E-03,   29.4459E-03
C:/temp/dataset/3/15_5.odb,Step-1,Increment      8: Step Time =    1.000,"PART-1-1",           272,      -3.82134,   150.711E-03,            0.,NA,NA,"",       8.07648,       6.70536,       4.50198,   1.37431E-03
C:/temp/dataset/3/15_5.odb,Step-1,Increment      8: Step Time =    1.000,"PART-1-1",           273,       3.09609,      -1.70207,            0.,NA,NA,"",       5.77999,       5.43999,       1.95315,   21.9900E-03
C:/temp/dataset/3/15_5.odb,Step-1,Increment      8: Step Time =    1.000,"PART-1-1",           274,       4.56419,      -1.78689,            0.,NA,NA,"",       5.44335,       5.26520,       1.38121,   36.9010E-03
C:/temp/dataset/3/15_5.odb,Step-1,Increment      8: Step Time =    1.000,"PART-1-1",           275,       9.44492,      -23.8624,            0.,NA,NA,"",   6.12041E-03,  -1.15925E-03,   6.00962E-03,   19.7964E-03
C:/temp/dataset/3/15_5.odb,Step-1,Increment      8: Step Time =    1.000,"PART-1-1",           276,       8.77427,      -22.6651,            0.,NA,NA,"",   65.7454E-03,   38.9439E-03,   52.9701E-03,   22.4327E-03
C:/temp/dataset/3/15_5.odb,Step-1,Increment      8: Step Time =    1.000,"PART-1-1",           277,       10.1837,      -9.28900,            0.,NA,NA,"",       2.25160,       2.23726,  -253.693E-03,   8.09975E-03
C:/temp/dataset/3/15_5.odb,Step-1,Increment      8: Step Time =    1.000,"PART-1-1",           278,       10.4979,      -10.7612,            0.,NA,NA,"",       1.85187,       1.83024,  -282.228E-03,   7.08772E-03
C:/temp/dataset/3/15_5.odb,Step-1,Increment      8: Step Time =    1.000,"PART-1-1",           279,       11.2325,      -12.6180,            0.,NA,NA,"",       1.41724,       1.36355,  -386.422E-03,   15.4911E-03
C:/temp/dataset/3/15_5.odb,Step-1,Increment      8: Step Time =    1.000,"PART-1-1",           280,      -13.7500,       22.5017,            0.,NA,NA,"",       25.4518,       22.4434,       12.0036,   4.73692E-03
C:/temp/dataset/3/15_5.odb,Step-1,Increment      8: Step Time =    1.000,"PART-1-1",           281,          -15.,         21.25,            0.,NA,NA,"",       25.5892,       21.9279,       13.1900,   4.89175E-03
C:/temp/dataset/3/15_5.odb,Step-1,Increment      8: Step Time =    1.000,"PART-1-1",           282,        -13.75,           20.,            0.,NA,NA,"",       24.3178,       20.7529,       12.6758,   5.09922E-03
C:/temp/dataset/3/15_5.odb,Step-1,Increment      8: Step Time =    1.000,"PART-1-1",           283,      -12.5000,       21.2517,            0.,NA,NA,"",       24.1724,       21.2684,       11.4874,   5.06227E-03
C:/temp/dataset/3/15_5.odb,Step-1,Increment      8: Step Time =    1.000,"PART-1-1",           284,        -11.25,           30.,            0.,NA,NA,"",       28.1067,       26.8497,       8.31146,   1.73909E-03
C:/temp/dataset/3/15_5.odb,Step-1,Increment      8: Step Time =    1.000,"PART-1-1",           285,      -12.5009,       28.7510,            0.,NA,NA,"",       27.9948,       26.3358,       9.49381,   1.34732E-03
C:/temp/dataset/3/15_5.odb,Step-1,Increment      8: Step Time =    1.000,"PART-1-1",           286,      -11.2523,       27.5017,            0.,NA,NA,"",       26.7077,       25.1544,       8.97538,   4.17420E-03
C:/temp/dataset/3/15_5.odb,Step-1,Increment      8: Step Time =    1.000,"PART-1-1",           287,      -10.0014,       28.7507,            0.,NA,NA,"",       26.8216,       25.6640,       7.79460,   3.83607E-03
C:/temp/dataset/3/15_5.odb,Step-1,Increment      8: Step Time =    1.000,"PART-1-1",           288,      -8.75282,       27.5029,            0.,NA,NA,"",       25.5385,       24.4809,       7.27354,   7.36577E-03
C:/temp/dataset/3/15_5.odb,Step-1,Increment      8: Step Time =    1.000,"PART-1-1",           289,      -10.0027,       26.2541,            0.,NA,NA,"",       25.4218,       23.9754,       8.45269,   6.27758E-03
C:/temp/dataset/3/15_5.odb,Step-1,Increment      8: Step Time =    1.000,"PART-1-1",           290,      -8.75320,       25.0087,            0.,NA,NA,"",       24.1398,       22.8013,       7.92655,   8.92605E-03
C:/temp/dataset/3/15_5.odb,Step-1,Increment      8: Step Time =    1.000,"PART-1-1",           291,      -7.50334,       26.2575,            0.,NA,NA,"",       24.2607,       23.3036,       6.74712,   9.26904E-03
C:/temp/dataset/3/15_5.odb,Step-1,Increment      8: Step Time =    1.000,"PART-1-1",           292,  -10.1921E-03,       23.8015,            0.,NA,NA,"",       19.8346,       19.7025,       2.28541,   14.8516E-03
C:/temp/dataset/3/15_5.odb,Step-1,Increment      8: Step Time =    1.000,"PART-1-1",           293,       1.23656,       22.5490,            0.,NA,NA,"",       18.6653,       18.5829,       1.75248,   21.1279E-03
C:/temp/dataset/3/15_5.odb,Step-1,Increment      8: Step Time =    1.000,"PART-1-1",           294,       2.47060,       23.8222,            0.,NA,NA,"",       19.1153,       19.1050,   628.435E-03,   16.5975E-03
C:/temp/dataset/3/15_5.odb,Step-1,Increment      8: Step Time =    1.000,"PART-1-1",           295,       1.22385,       25.0746,            0.,NA,NA,"",       20.2535,       20.2204,       1.15890,   13.3395E-03
C:/temp/dataset/3/15_5.odb,Step-1,Increment      8: Step Time =    1.000,"PART-1-1",           296,       13.7132,       25.0166,            0.,NA,NA,"",       18.6507,       17.4874,      -6.48373,   17.4245E-03
C:/temp/dataset/3/15_5.odb,Step-1,Increment      8: Step Time =    1.000,"PART-1-1",           297,           15.,         26.25,            0.,NA,NA,"",       19.4979,       17.9793,      -7.54410,   9.88170E-03
C:/temp/dataset/3/15_5.odb,Step-1,Increment      8: Step Time =    1.000,"PART-1-1",           298,       13.7362,       27.5048,            0.,NA,NA,"",       20.2698,       19.0070,      -7.04263,   7.67478E-03
C:/temp/dataset/3/15_5.odb,Step-1,Increment      8: Step Time =    1.000,"PART-1-1",           299,       12.4494,       26.2714,            0.,NA,NA,"",       19.4555,       18.5073,      -5.99977,   18.7007E-03
C:/temp/dataset/3/15_5.odb,Step-1,Increment      8: Step Time =    1.000,"PART-1-1",           300,       6.19248,       27.5744,            0.,NA,NA,"",       20.7869,       20.6305,      -2.54509,   21.0485E-03
C:/temp/dataset/3/15_5.odb,Step-1,Increment      8: Step Time =    1.000,"PART-1-1",           301,       7.46746,       28.7842,            0.,NA,NA,"",       21.4073,       21.1076,      -3.56969,   24.8891E-03
C:/temp/dataset/3/15_5.odb,Step-1,Increment      8: Step Time =    1.000,"PART-1-1",           302,          6.25,           30.,            0.,NA,NA,"",       22.3689,       22.1545,      -3.08945,   34.4945E-03
C:/temp/dataset/3/15_5.odb,Step-1,Increment      8: Step Time =    1.000,"PART-1-1",           303,       4.97503,       28.7903,            0.,NA,NA,"",       21.7904,       21.6926,      -2.06272,   29.1862E-03
C:/temp/dataset/3/15_5.odb,Step-1,Increment      8: Step Time =    1.000,"PART-1-1",           304,       11.0878,       17.5306,            0.,NA,NA,"",       13.9559,       13.5433,      -3.36844,   12.0292E-03
C:/temp/dataset/3/15_5.odb,Step-1,Increment      8: Step Time =    1.000,"PART-1-1",           305,       12.3722,       18.7756,            0.,NA,NA,"",       14.6868,       14.0333,      -4.33205,   24.9889E-03
C:/temp/dataset/3/15_5.odb,Step-1,Increment      8: Step Time =    1.000,"PART-1-1",           306,       11.1059,       20.0490,            0.,NA,NA,"",       15.4703,       14.9806,      -3.86166,   19.7442E-03
C:/temp/dataset/3/15_5.odb,Step-1,Increment      8: Step Time =    1.000,"PART-1-1",           307,       9.82152,       18.8041,            0.,NA,NA,"",       14.7628,       14.4775,      -2.88832,   11.6382E-03
C:/temp/dataset/3/15_5.odb,Step-1,Increment      8: Step Time =    1.000,"PART-1-1",           308,       9.63171,       13.8797,            0.,NA,NA,"",       11.9565,       11.7879,      -2.00138,   12.1488E-03
C:/temp/dataset/3/15_5.odb,Step-1,Increment      8: Step Time =    1.000,"PART-1-1",           309,       8.52517,       15.0687,            0.,NA,NA,"",       12.7017,       12.6021,      -1.58736,   25.8911E-03
C:/temp/dataset/3/15_5.odb,Step-1,Increment      8: Step Time =    1.000,"PART-1-1",           310,       7.25683,       13.8735,            0.,NA,NA,"",       12.1828,       12.1578,  -779.314E-03,   43.0017E-03
C:/temp/dataset/3/15_5.odb,Step-1,Increment      8: Step Time =    1.000,"PART-1-1",           311,       8.36336,       12.6844,            0.,NA,NA,"",       11.4121,       11.3487,      -1.20078,   28.8303E-03
C:/temp/dataset/3/15_5.odb,Step-1,Increment      8: Step Time =    1.000,"PART-1-1",           312,       14.0118,       9.82001,            0.,NA,NA,"",       9.89306,       9.21343,      -3.60351,   47.7605E-03
C:/temp/dataset/3/15_5.odb,Step-1,Increment      8: Step Time =    1.000,"PART-1-1",           313,           15.,         11.25,            0.,NA,NA,"",       10.6953,       9.77420,      -4.34210,   60.9922E-03
C:/temp/dataset/3/15_5.odb,Step-1,Increment      8: Step Time =    1.000,"PART-1-1",           314,       13.5880,       12.3315,            0.,NA,NA,"",       11.1265,       10.4552,      -3.80609,   41.0970E-03
C:/temp/dataset/3/15_5.odb,Step-1,Increment      8: Step Time =    1.000,"PART-1-1",           315,       12.5998,       10.9015,            0.,NA,NA,"",       10.3474,       9.88014,      -3.07449,   27.8880E-03
C:/temp/dataset/3/15_5.odb,Step-1,Increment      8: Step Time =    1.000,"PART-1-1",           316,       4.40482,  -219.892E-03,            0.,NA,NA,"",       6.05483,       5.89848,       1.36706,   33.4550E-03
C:/temp/dataset/3/15_5.odb,Step-1,Increment      8: Step Time =    1.000,"PART-1-1",           317,       3.45177,  -757.122E-03,            0.,NA,NA,"",       6.03857,       5.77662,       1.75925,   23.3599E-03
C:/temp/dataset/3/15_5.odb,Step-1,Increment      8: Step Time =    1.000,"PART-1-1",           318,       3.83014,      -1.74448,            0.,NA,NA,"",       5.60777,       5.35404,       1.66773,   30.1960E-03
C:/temp/dataset/3/15_5.odb,Step-1,Increment      8: Step Time =    1.000,"PART-1-1",           319,       4.78319,      -1.20725,            0.,NA,NA,"",       5.61621,       5.47086,       1.26942,   36.6424E-03
C:/temp/dataset/3/15_5.odb,Step-1,Increment      8: Step Time =    1.000,"PART-1-1",           320,       10.3408,      -10.0251,            0.,NA,NA,"",       2.04674,       2.02908,  -268.268E-03,   7.31670E-03
C:/temp/dataset/3/15_5.odb,Step-1,Increment      8: Step Time =    1.000,"PART-1-1",           321,       11.1792,      -10.4860,            0.,NA,NA,"",       1.93692,       1.88066,  -463.441E-03,   14.7530E-03
C:/temp/dataset/3/15_5.odb,Step-1,Increment      8: Step Time =    1.000,"PART-1-1",           322,       11.5032,      -9.33080,            0.,NA,NA,"",       2.26312,       2.18002,  -607.644E-03,   20.6212E-03
C:/temp/dataset/3/15_5.odb,Step-1,Increment      8: Step Time =    1.000,"PART-1-1",           323,       10.6649,      -8.86986,            0.,NA,NA,"",       2.37188,       2.33761,  -401.754E-03,   9.02909E-03
C:/temp/dataset/3/15_5.odb,Step-1,Increment      8: Step Time =    1.000,"PART-1-1",           324,       9.41034,      -12.1888,            0.,NA,NA,"",       1.51391,       1.51390,   4.72935E-03,   20.4828E-03
C:/temp/dataset/3/15_5.odb,Step-1,Increment      8: Step Time =    1.000,"PART-1-1",           325,       10.5075,      -13.0214,            0.,NA,NA,"",       1.30864,       1.29046,  -217.403E-03,   7.00852E-03
C:/temp/dataset/3/15_5.odb,Step-1,Increment      8: Step Time =    1.000,"PART-1-1",           326,       10.8652,      -11.6896,            0.,NA,NA,"",       1.62396,       1.58848,  -337.627E-03,   10.2020E-03
C:/temp/dataset/3/15_5.odb,Step-1,Increment      8: Step Time =    1.000,"PART-1-1",           327,       9.76802,      -10.8570,            0.,NA,NA,"",       1.83377,       1.83101,  -100.545E-03,   14.2105E-03
C:/temp/dataset/3/15_5.odb,Step-1,Increment      8: Step Time =    1.000,"PART-1-1",           328,       6.12016,      -19.7528,            0.,NA,NA,"",   373.554E-03,   225.061E-03,   298.144E-03,   87.3942E-03
C:/temp/dataset/3/15_5.odb,Step-1,Increment      8: Step Time =    1.000,"PART-1-1",           329,       7.15653,      -18.4145,            0.,NA,NA,"",   474.587E-03,   390.011E-03,   270.416E-03,   51.9782E-03
C:/temp/dataset/3/15_5.odb,Step-1,Increment      8: Step Time =    1.000,"PART-1-1",           330,       6.03637,      -17.4116,            0.,NA,NA,"",   746.949E-03,   589.065E-03,   459.277E-03,   89.0907E-03
C:/temp/dataset/3/15_5.odb,Step-1,Increment      8: Step Time =    1.000,"PART-1-1",           331,            5.,        -18.75,            0.,NA,NA,"",   633.556E-03,   425.185E-03,   469.693E-03,   146.134E-03
C:/temp/dataset/3/15_5.odb,Step-1,Increment      8: Step Time =    1.000,"PART-1-1",           332,       13.3604,      -22.4969,            0.,NA,NA,"",   274.042E-03,   72.4141E-03,  -264.301E-03,   51.6797E-03
C:/temp/dataset/3/15_5.odb,Step-1,Increment      8: Step Time =    1.000,"PART-1-1",           333,           15.,        -21.25,            0.,NA,NA,"",   486.507E-03,   183.445E-03,  -450.596E-03,   80.4168E-03
C:/temp/dataset/3/15_5.odb,Step-1,Increment      8: Step Time =    1.000,"PART-1-1",           334,       13.4842,      -19.7901,            0.,NA,NA,"",   481.023E-03,   247.440E-03,  -412.500E-03,   59.5302E-03
C:/temp/dataset/3/15_5.odb,Step-1,Increment      8: Step Time =    1.000,"PART-1-1",           335,       11.8446,      -21.0370,            0.,NA,NA,"",   236.842E-03,   127.367E-03,  -199.678E-03,   33.5078E-03
C:/temp/dataset/3/15_5.odb,Step-1,Increment      8: Step Time =    1.000,"PART-1-1",           336,       1.65000,            5.,            0.,NA,NA,"",       8.38770,       8.13388,       2.04783,   5.11642E-03
C:/temp/dataset/3/15_5.odb,Step-1,Increment      8: Step Time =    1.000,"PART-1-1",           337,   440.654E-03,       4.00571,            0.,NA,NA,"",       8.26446,       7.85426,       2.57136,   3.07269E-03
C:/temp/dataset/3/15_5.odb,Step-1,Increment      8: Step Time =    1.000,"PART-1-1",           338,       1.47063,       2.87974,            0.,NA,NA,"",       7.69359,       7.35201,       2.26699,   7.93150E-03
C:/temp/dataset/3/15_5.odb,Step-1,Increment      8: Step Time =    1.000,"PART-1-1",           339,       2.67998,       3.87403,            0.,NA,NA,"",       7.84399,       7.64595,       1.75145,   7.97471E-03
C:/temp/dataset/3/15_5.odb,Step-1,Increment      8: Step Time =    1.000,"PART-1-1",           340,      -1.46180,      -3.99231,            0.,NA,NA,"",       6.28811,       4.92021,       3.91560,   1.99159E-03
C:/temp/dataset/3/15_5.odb,Step-1,Increment      8: Step Time =    1.000,"PART-1-1",           341,     -500.E-03,           -5.,            0.,NA,NA,"",       5.73751,       4.45012,       3.62153,   5.07678E-03
C:/temp/dataset/3/15_5.odb,Step-1,Increment      8: Step Time =    1.000,"PART-1-1",           342,   718.491E-03,      -4.10961,            0.,NA,NA,"",       5.61672,       4.69798,       3.07840,   3.28996E-03
C:/temp/dataset/3/15_5.odb,Step-1,Increment      8: Step Time =    1.000,"PART-1-1",           343,  -243.313E-03,      -3.10192,            0.,NA,NA,"",       6.17408,       5.17101,       3.37342,   1.23861E-03
C:/temp/dataset/3/15_5.odb,Step-1,Increment      8: Step Time =    1.000,"PART-1-1",           344,      -3.82017,      -3.74247,            0.,NA,NA,"",       7.08191,       5.20186,       4.80563,   1.01462E-03
C:/temp/dataset/3/15_5.odb,Step-1,Increment      8: Step Time =    1.000,"PART-1-1",           345,      -2.71667,           -5.,            0.,NA,NA,"",       6.44034,       4.62897,       4.47778,   2.29935E-03
C:/temp/dataset/3/15_5.odb,Step-1,Increment      8: Step Time =    1.000,"PART-1-1",           346,      -2.56530,      -2.73478,            0.,NA,NA,"",       6.94253,       5.49473,       4.24344,   1.54487E-03
C:/temp/dataset/3/15_5.odb,Step-1,Increment      8: Step Time =    1.000,"PART-1-1",           347,      -13.8092,  -21.6491E-03,            0.,NA,NA,"",       11.1746,       7.40809,       8.36611,   3.97443E-06
C:/temp/dataset/3/15_5.odb,Step-1,Increment      8: Step Time =    1.000,"PART-1-1",           348,      -12.6581,       1.21263,            0.,NA,NA,"",       11.0464,       7.79489,       7.82706,   13.7501E-06
C:/temp/dataset/3/15_5.odb,Step-1,Increment      8: Step Time =    1.000,"PART-1-1",           349,      -13.8489,       2.48428,            0.,NA,NA,"",       11.7139,       8.37704,       8.18777,   2.06761E-06
C:/temp/dataset/3/15_5.odb,Step-1,Increment      8: Step Time =    1.000,"PART-1-1",           350,          -15.,          1.25,            0.,NA,NA,"",       11.8322,       7.99024,       8.72683,   10.2818E-06
C:/temp/dataset/3/15_5.odb,Step-1,Increment      8: Step Time =    1.000,"PART-1-1",           351,      -8.84172,   345.754E-03,            0.,NA,NA,"",       9.62326,       7.16608,       6.42296,   225.514E-06
C:/temp/dataset/3/15_5.odb,Step-1,Increment      8: Step Time =    1.000,"PART-1-1",           352,      -9.20019,  -788.270E-03,            0.,NA,NA,"",       9.47952,       6.75670,       6.64893,   170.006E-06
C:/temp/dataset/3/15_5.odb,Step-1,Increment      8: Step Time =    1.000,"PART-1-1",           353,      -7.61937,      -1.21646,            0.,NA,NA,"",       8.87343,       6.46979,       6.07285,   370.374E-06
C:/temp/dataset/3/15_5.odb,Step-1,Increment      8: Step Time =    1.000,"PART-1-1",           354,      -7.26090,  -82.4387E-03,            0.,NA,NA,"",       9.02818,       6.87925,       5.84670,   399.061E-06
C:/temp/dataset/3/15_5.odb,Step-1,Increment      8: Step Time =    1.000,"PART-1-1",           355,      -12.7466,      -3.77621,            0.,NA,NA,"",       10.1276,       5.87895,       8.24664,   4.02401E-06
C:/temp/dataset/3/15_5.odb,Step-1,Increment      8: Step Time =    1.000,"PART-1-1",           356,      -13.8633,      -2.52621,            0.,NA,NA,"",       10.7325,       6.44697,       8.58045,   2.15214E-06
C:/temp/dataset/3/15_5.odb,Step-1,Increment      8: Step Time =    1.000,"PART-1-1",           357,          -15.,         -3.75,            0.,NA,NA,"",       10.9458,       6.06313,       9.11309,   3.77407E-06
C:/temp/dataset/3/15_5.odb,Step-1,Increment      8: Step Time =    1.000,"PART-1-1",           358,      -13.8833,           -5.,            0.,NA,NA,"",       10.3572,       5.49512,       8.77928,   2.95583E-06
C:/temp/dataset/3/15_5.odb,Step-1,Increment      8: Step Time =    1.000,"PART-1-1",           359,      -5.03830,      -2.71522,            0.,NA,NA,"",       7.70693,       5.69299,       5.19487,   923.953E-06
C:/temp/dataset/3/15_5.odb,Step-1,Increment      8: Step Time =    1.000,"PART-1-1",           360,      -4.43911,      -1.50749,            0.,NA,NA,"",       7.81581,       6.11327,       4.86978,   989.041E-06
C:/temp/dataset/3/15_5.odb,Step-1,Increment      8: Step Time =    1.000,"PART-1-1",           361,      -5.95808,  -763.119E-03,            0.,NA,NA,"",       8.46165,       6.51680,       5.39731,   728.655E-06
C:/temp/dataset/3/15_5.odb,Step-1,Increment      8: Step Time =    1.000,"PART-1-1",           362,      -6.55726,      -1.97085,            0.,NA,NA,"",       8.36171,       6.09716,       5.72213,   485.545E-06
C:/temp/dataset/3/15_5.odb,Step-1,Increment      8: Step Time =    1.000,"PART-1-1",           363,          6.25,          -30.,            0.,NA,NA,"",            0.,  -61.0924E-42,   77.5801E-42,   12.4247E-03
C:/temp/dataset/3/15_5.odb,Step-1,Increment      8: Step Time =    1.000,"PART-1-1",           364,       7.47038,      -28.9473,            0.,NA,NA,"",   16.7808E-03,  -15.0502E-03,   7.42207E-03,   14.3936E-03
C:/temp/dataset/3/15_5.odb,Step-1,Increment      8: Step Time =    1.000,"PART-1-1",           365,       6.18647,      -27.8786,            0.,NA,NA,"",   29.3486E-03,  -8.49655E-03,   28.0917E-03,   19.1508E-03
C:/temp/dataset/3/15_5.odb,Step-1,Increment      8: Step Time =    1.000,"PART-1-1",           366,       4.96608,      -28.9312,            0.,NA,NA,"",   13.5941E-03,   270.230E-06,   13.5914E-03,   17.5301E-03
C:/temp/dataset/3/15_5.odb,Step-1,Increment      8: Step Time =    1.000,"PART-1-1",           367,       3.70492,      -27.8047,            0.,NA,NA,"",   36.5970E-03,   17.0789E-03,   32.3674E-03,   21.1232E-03
C:/temp/dataset/3/15_5.odb,Step-1,Increment      8: Step Time =    1.000,"PART-1-1",           368,       2.48883,      -28.8735,            0.,NA,NA,"",   18.9256E-03,   13.5244E-03,   13.2389E-03,   17.8300E-03
C:/temp/dataset/3/15_5.odb,Step-1,Increment      8: Step Time =    1.000,"PART-1-1",           369,          3.75,          -30.,            0.,NA,NA,"",            0.,   51.4361E-42,   207.235E-42,   14.1337E-03
C:/temp/dataset/3/15_5.odb,Step-1,Increment      8: Step Time =    1.000,"PART-1-1",           370,      -3.72203,      -27.5999,            0.,NA,NA,"",   33.8736E-03,   33.3331E-03,   6.02731E-03,   9.85761E-03
C:/temp/dataset/3/15_5.odb,Step-1,Increment      8: Step Time =    1.000,"PART-1-1",           371,      -4.98725,      -28.7922,            0.,NA,NA,"",   16.7568E-03,   16.5779E-03,   2.44213E-03,   9.15384E-03
C:/temp/dataset/3/15_5.odb,Step-1,Increment      8: Step Time =    1.000,"PART-1-1",           372,         -3.75,          -30.,            0.,NA,NA,"",            0.,   144.318E-42,   116.776E-42,   11.4346E-03
C:/temp/dataset/3/15_5.odb,Step-1,Increment      8: Step Time =    1.000,"PART-1-1",           373,      -2.48478,      -28.8077,            0.,NA,NA,"",   20.1529E-03,   19.4995E-03,   5.09002E-03,   12.0388E-03
C:/temp/dataset/3/15_5.odb,Step-1,Increment      8: Step Time =    1.000,"PART-1-1",           374,      -13.7501,      -27.5099,            0.,NA,NA,"",   20.2316E-03,   19.3018E-03,   6.06258E-03,   3.27059E-03
C:/temp/dataset/3/15_5.odb,Step-1,Increment      8: Step Time =    1.000,"PART-1-1",           375,          -15.,        -28.75,            0.,NA,NA,"",   13.6116E-03,   11.1678E-03,   7.78178E-03,   5.95725E-03
C:/temp/dataset/3/15_5.odb,Step-1,Increment      8: Step Time =    1.000,"PART-1-1",           376,        -13.75,          -30.,            0.,NA,NA,"",            0.,   33.0791E-42,   123.774E-42,   6.57618E-03
C:/temp/dataset/3/15_5.odb,Step-1,Increment      8: Step Time =    1.000,"PART-1-1",           377,      -12.5001,      -28.7599,            0.,NA,NA,"",   9.17575E-03,   9.00792E-03,   1.74697E-03,   4.80739E-03
C:/temp/dataset/3/15_5.odb,Step-1,Increment      8: Step Time =    1.000,"PART-1-1",           378,       8.15833,      -10.8587,            0.,NA,NA,"",       1.92345,       1.90138,   290.533E-03,   41.5910E-03
C:/temp/dataset/3/15_5.odb,Step-1,Increment      8: Step Time =    1.000,"PART-1-1",           379,       9.00498,      -9.90697,            0.,NA,NA,"",       2.11788,       2.11661,   73.1947E-03,   25.9771E-03
C:/temp/dataset/3/15_5.odb,Step-1,Increment      8: Step Time =    1.000,"PART-1-1",           380,       8.08915,      -8.55627,            0.,NA,NA,"",       2.56904,       2.55112,   302.895E-03,   41.1824E-03
C:/temp/dataset/3/15_5.odb,Step-1,Increment      8: Step Time =    1.000,"PART-1-1",           381,       7.24249,      -9.50802,            0.,NA,NA,"",       2.38288,       2.32301,   530.791E-03,   56.1110E-03
C:/temp/dataset/3/15_5.odb,Step-1,Increment      8: Step Time =    1.000,"PART-1-1",           382,       13.9816,      -2.51124,            0.,NA,NA,"",       4.70182,       4.25896,      -1.99207,   46.9190E-03
C:/temp/dataset/3/15_5.odb,Step-1,Increment      8: Step Time =    1.000,"PART-1-1",           383,           15.,         -1.25,            0.,NA,NA,"",       5.29707,       4.65792,      -2.52244,   56.4804E-03
C:/temp/dataset/3/15_5.odb,Step-1,Increment      8: Step Time =    1.000,"PART-1-1",           384,       13.8213,  -48.4001E-03,            0.,NA,NA,"",       5.61253,       5.16169,      -2.20395,   40.9460E-03
C:/temp/dataset/3/15_5.odb,Step-1,Increment      8: Step Time =    1.000,"PART-1-1",           385,       12.8030,      -1.30964,            0.,NA,NA,"",       5.04344,       4.75523,      -1.68050,   31.5256E-03
C:/temp/dataset/3/15_5.odb,Step-1,Increment      8: Step Time =    1.000,"PART-1-1",           386,           15.,          1.25,            0.,NA,NA,"",       6.25415,       5.57797,      -2.82855,   54.1559E-03
C:/temp/dataset/3/15_5.odb,Step-1,Increment      8: Step Time =    1.000,"PART-1-1",           387,       13.5709,       2.55070,            0.,NA,NA,"",       6.62086,       6.17028,      -2.40071,   38.1778E-03
C:/temp/dataset/3/15_5.odb,Step-1,Increment      8: Step Time =    1.000,"PART-1-1",           388,       12.3922,       1.25230,            0.,NA,NA,"",       6.01943,       5.75067,      -1.77858,   24.5496E-03
C:/temp/dataset/3/15_5.odb,Step-1,Increment      8: Step Time =    1.000,"PART-1-1",           389,      -5.00532,       26.2655,            0.,NA,NA,"",       23.1899,       22.6345,       5.04531,   11.8459E-03
C:/temp/dataset/3/15_5.odb,Step-1,Increment      8: Step Time =    1.000,"PART-1-1",           390,      -3.75495,       25.0275,            0.,NA,NA,"",       21.9448,       21.4762,       4.51042,   13.3488E-03
C:/temp/dataset/3/15_5.odb,Step-1,Increment      8: Step Time =    1.000,"PART-1-1",           391,      -2.50780,       26.2820,            0.,NA,NA,"",       22.2309,       21.9765,       3.35376,   13.3489E-03
C:/temp/dataset/3/15_5.odb,Step-1,Increment      8: Step Time =    1.000,"PART-1-1",           392,      -3.75817,       27.5199,            0.,NA,NA,"",       23.4599,       23.1359,       3.88542,   14.0053E-03
C:/temp/dataset/3/15_5.odb,Step-1,Increment      8: Step Time =    1.000,"PART-1-1",           393,      -5.00193,       23.7670,            0.,NA,NA,"",       21.7254,       20.9690,       5.68277,   12.6892E-03
C:/temp/dataset/3/15_5.odb,Step-1,Increment      8: Step Time =    1.000,"PART-1-1",           394,      -6.25406,       25.0149,            0.,NA,NA,"",       22.9910,       22.1347,       6.21647,   11.7226E-03
C:/temp/dataset/3/15_5.odb,Step-1,Increment      8: Step Time =    1.000,"PART-1-1",           395,      -7.50285,       23.7600,            0.,NA,NA,"",       22.8596,       21.6292,       7.39838,   10.3969E-03
C:/temp/dataset/3/15_5.odb,Step-1,Increment      8: Step Time =    1.000,"PART-1-1",           396,      -6.25071,       22.5121,            0.,NA,NA,"",       21.5837,       20.4620,       6.86740,   12.9015E-03
C:/temp/dataset/3/15_5.odb,Step-1,Increment      8: Step Time =    1.000,"PART-1-1",           397,      -12.5007,       23.7543,            0.,NA,NA,"",       25.3788,       22.9576,       10.8182,   4.71635E-03
C:/temp/dataset/3/15_5.odb,Step-1,Increment      8: Step Time =    1.000,"PART-1-1",           398,      -13.7507,       25.0026,            0.,NA,NA,"",       26.6625,       24.1320,       11.3374,   3.25786E-03
C:/temp/dataset/3/15_5.odb,Step-1,Increment      8: Step Time =    1.000,"PART-1-1",           399,          -15.,         23.75,            0.,NA,NA,"",       26.7295,       23.6162,       12.5196,   3.66955E-03
C:/temp/dataset/3/15_5.odb,Step-1,Increment      8: Step Time =    1.000,"PART-1-1",           400,       1.22659,       27.5580,            0.,NA,NA,"",       21.8430,       21.8353,   577.717E-03,   18.6342E-03
C:/temp/dataset/3/15_5.odb,Step-1,Increment      8: Step Time =    1.000,"PART-1-1",           401,       2.48534,       28.7828,            0.,NA,NA,"",       22.3169,       22.3111,  -509.484E-03,   28.0854E-03
C:/temp/dataset/3/15_5.odb,Step-1,Increment      8: Step Time =    1.000,"PART-1-1",           402,          1.25,           30.,            0.,NA,NA,"",       23.4395,       23.4395,  -4.96877E-03,   34.3858E-03
C:/temp/dataset/3/15_5.odb,Step-1,Increment      8: Step Time =    1.000,"PART-1-1",           403,  -8.74824E-03,       28.7751,            0.,NA,NA,"",       22.9882,       22.9622,       1.09361,   23.5953E-03
C:/temp/dataset/3/15_5.odb,Step-1,Increment      8: Step Time =    1.000,"PART-1-1",           404,  -16.7069E-03,       26.3073,            0.,NA,NA,"",       21.4054,       21.3389,       1.68607,   14.1692E-03
C:/temp/dataset/3/15_5.odb,Step-1,Increment      8: Step Time =    1.000,"PART-1-1",           405,       2.46714,       26.3253,            0.,NA,NA,"",       20.7191,       20.7190,   59.1827E-03,   14.9168E-03
C:/temp/dataset/3/15_5.odb,Step-1,Increment      8: Step Time =    1.000,"PART-1-1",           406,       3.70751,       22.5746,            0.,NA,NA,"",       18.0079,       18.0077,   92.0808E-03,   19.3392E-03
C:/temp/dataset/3/15_5.odb,Step-1,Increment      8: Step Time =    1.000,"PART-1-1",           407,       2.48879,       21.2797,            0.,NA,NA,"",       17.5109,       17.4689,       1.21208,   30.3070E-03
C:/temp/dataset/3/15_5.odb,Step-1,Increment      8: Step Time =    1.000,"PART-1-1",           408,          3.75,           20.,            0.,NA,NA,"",       16.3794,       16.3658,   666.288E-03,   61.6012E-03
C:/temp/dataset/3/15_5.odb,Step-1,Increment      8: Step Time =    1.000,"PART-1-1",           409,       4.96872,       21.2949,            0.,NA,NA,"",       16.9025,       16.8961,  -465.376E-03,   46.7689E-03
C:/temp/dataset/3/15_5.odb,Step-1,Increment      8: Step Time =    1.000,"PART-1-1",           410,       10.8479,       12.4309,            0.,NA,NA,"",       11.1269,       10.8605,      -2.42013,   4.82000E-03
C:/temp/dataset/3/15_5.odb,Step-1,Increment      8: Step Time =    1.000,"PART-1-1",           411,       9.34812,       11.6387,            0.,NA,NA,"",       10.7790,       10.6649,      -1.56478,   16.1559E-03
C:/temp/dataset/3/15_5.odb,Step-1,Increment      8: Step Time =    1.000,"PART-1-1",           412,       9.99050,       10.5520,            0.,NA,NA,"",       10.1842,       10.0336,      -1.74533,   7.29007E-03
C:/temp/dataset/3/15_5.odb,Step-1,Increment      8: Step Time =    1.000,"PART-1-1",           413,       11.4903,       11.3442,            0.,NA,NA,"",       10.5543,       10.2322,      -2.58750,   13.0299E-03
C:/temp/dataset/3/15_5.odb,Step-1,Increment      8: Step Time =    1.000,"PART-1-1",           414,       7.16850,       11.5014,            0.,NA,NA,"",       10.9198,       10.9092,  -481.148E-03,   44.8024E-03
C:/temp/dataset/3/15_5.odb,Step-1,Increment      8: Step Time =    1.000,"PART-1-1",           415,       6.10343,       12.5850,            0.,NA,NA,"",       11.6481,       11.6479,  -62.9329E-03,   57.5694E-03
C:/temp/dataset/3/15_5.odb,Step-1,Increment      8: Step Time =    1.000,"PART-1-1",           416,            5.,         11.25,            0.,NA,NA,"",       11.1279,       11.1122,   591.011E-03,   72.5036E-03
C:/temp/dataset/3/15_5.odb,Step-1,Increment      8: Step Time =    1.000,"PART-1-1",           417,       6.06507,       10.1664,            0.,NA,NA,"",       10.3854,       10.3840,   168.271E-03,   60.0318E-03
C:/temp/dataset/3/15_5.odb,Step-1,Increment      8: Step Time =    1.000,"PART-1-1",           418,       14.0565,       5.06378,            0.,NA,NA,"",       7.71567,       7.14030,      -2.92365,   46.6088E-03
C:/temp/dataset/3/15_5.odb,Step-1,Increment      8: Step Time =    1.000,"PART-1-1",           419,       12.6274,       3.86448,            0.,NA,NA,"",       7.10131,       6.76631,      -2.15538,   28.5742E-03
C:/temp/dataset/3/15_5.odb,Step-1,Increment      8: Step Time =    1.000,"PART-1-1",           420,           15.,          3.75,            0.,NA,NA,"",       7.26380,       6.54265,      -3.15540,   56.4425E-03
C:/temp/dataset/3/15_5.odb,Step-1,Increment      8: Step Time =    1.000,"PART-1-1",           421,       10.0280,       5.47301,            0.,NA,NA,"",       7.77031,       7.67652,      -1.20367,   3.19456E-03
C:/temp/dataset/3/15_5.odb,Step-1,Increment      8: Step Time =    1.000,"PART-1-1",           422,       11.0614,       5.01383,            0.,NA,NA,"",       7.55297,       7.38018,      -1.60631,   11.4161E-03
C:/temp/dataset/3/15_5.odb,Step-1,Increment      8: Step Time =    1.000,"PART-1-1",           423,       11.6033,       6.33570,            0.,NA,NA,"",       8.14179,       7.89458,      -1.99106,   17.0713E-03
C:/temp/dataset/3/15_5.odb,Step-1,Increment      8: Step Time =    1.000,"PART-1-1",           424,       10.5698,       6.79489,            0.,NA,NA,"",       8.35093,       8.20033,      -1.57881,   4.54078E-03
C:/temp/dataset/3/15_5.odb,Step-1,Increment      8: Step Time =    1.000,"PART-1-1",           425,      -4.94418,       3.17107,            0.,NA,NA,"",       9.23862,       7.95300,       4.70126,   880.237E-06
C:/temp/dataset/3/15_5.odb,Step-1,Increment      8: Step Time =    1.000,"PART-1-1",           426,      -3.90803,       4.11594,            0.,NA,NA,"",       9.25822,       8.23580,       4.22922,   1.05928E-03
C:/temp/dataset/3/15_5.odb,Step-1,Increment      8: Step Time =    1.000,"PART-1-1",           427,      -5.05000,            5.,            0.,NA,NA,"",       9.81145,       8.66556,       4.60136,   885.497E-06
C:/temp/dataset/3/15_5.odb,Step-1,Increment      8: Step Time =    1.000,"PART-1-1",           428,      -6.08615,       4.05513,            0.,NA,NA,"",       9.79789,       8.38195,       5.07360,   395.997E-06
C:/temp/dataset/3/15_5.odb,Step-1,Increment      8: Step Time =    1.000,"PART-1-1",           429,      -3.86135,       2.39128,            0.,NA,NA,"",       8.72731,       7.56959,       4.34366,   1.10332E-03
C:/temp/dataset/3/15_5.odb,Step-1,Increment      8: Step Time =    1.000,"PART-1-1",           430,      -5.85027,       2.20434,            0.,NA,NA,"",       9.20923,       7.65116,       5.12540,   609.327E-06
C:/temp/dataset/3/15_5.odb,Step-1,Increment      8: Step Time =    1.000,"PART-1-1",           431,      -4.76744,       1.42454,            0.,NA,NA,"",       8.69223,       7.26782,       4.76797,   1.00763E-03
C:/temp/dataset/3/15_5.odb,Step-1,Increment      8: Step Time =    1.000,"PART-1-1",           432,      -9.29397,       2.69508,            0.,NA,NA,"",       10.3379,       8.10628,       6.41561,   149.647E-06
C:/temp/dataset/3/15_5.odb,Step-1,Increment      8: Step Time =    1.000,"PART-1-1",           433,      -8.28887,       3.92576,            0.,NA,NA,"",       10.3681,       8.50283,       5.93298,   131.179E-06
C:/temp/dataset/3/15_5.odb,Step-1,Increment      8: Step Time =    1.000,"PART-1-1",           434,          -9.5,            5.,            0.,NA,NA,"",       11.0043,       9.01066,       6.31693,   53.1888E-06
C:/temp/dataset/3/15_5.odb,Step-1,Increment      8: Step Time =    1.000,"PART-1-1",           435,      -10.5051,       3.76932,            0.,NA,NA,"",       10.9742,       8.61395,       6.79953,   30.4522E-06
C:/temp/dataset/3/15_5.odb,Step-1,Increment      8: Step Time =    1.000,"PART-1-1",           436,      -7.92731,       1.84143,            0.,NA,NA,"",       9.71152,       7.67177,       5.95463,   263.741E-06
C:/temp/dataset/3/15_5.odb,Step-1,Increment      8: Step Time =    1.000,"PART-1-1",           437,      -6.68589,       1.06488,            0.,NA,NA,"",       9.14334,       7.27693,       5.53598,   557.361E-06
C:/temp/dataset/3/15_5.odb,Step-1,Increment      8: Step Time =    1.000,"PART-1-1",           438,      -7.09169,       2.98089,            0.,NA,NA,"",       9.77131,       8.04608,       5.54428,   407.915E-06
C:/temp/dataset/3/15_5.odb,Step-1,Increment      8: Step Time =    1.000,"PART-1-1",           439,      -13.9000,            5.,            0.,NA,NA,"",       12.3144,       9.35070,       8.01307,   2.91054E-06
C:/temp/dataset/3/15_5.odb,Step-1,Increment      8: Step Time =    1.000,"PART-1-1",           440,          -15.,          3.75,            0.,NA,NA,"",       12.3691,       8.95387,       8.53366,   3.87970E-06
C:/temp/dataset/3/15_5.odb,Step-1,Increment      8: Step Time =    1.000,"PART-1-1",           441,      -12.7489,       3.73428,            0.,NA,NA,"",       11.6519,       8.77386,       7.66718,   3.83904E-06
C:/temp/dataset/3/15_5.odb,Step-1,Increment      8: Step Time =    1.000,"PART-1-1",           442,      -9.48823,      -2.88104,            0.,NA,NA,"",       9.14220,       5.97229,       6.92182,   125.714E-06
C:/temp/dataset/3/15_5.odb,Step-1,Increment      8: Step Time =    1.000,"PART-1-1",           443,      -8.42388,      -2.23568,            0.,NA,NA,"",       8.91298,       6.13891,       6.46181,   200.587E-06
C:/temp/dataset/3/15_5.odb,Step-1,Increment      8: Step Time =    1.000,"PART-1-1",           444,      -10.2645,      -1.43363,            0.,NA,NA,"",       9.69372,       6.59010,       7.10906,   80.3933E-06
C:/temp/dataset/3/15_5.odb,Step-1,Increment      8: Step Time =    1.000,"PART-1-1",           445,      -12.6725,      -1.29786,            0.,NA,NA,"",       10.5382,       6.82840,       8.02660,   13.1318E-06
C:/temp/dataset/3/15_5.odb,Step-1,Increment      8: Step Time =    1.000,"PART-1-1",           446,          -15.,         -1.25,            0.,NA,NA,"",       11.3552,       7.02666,       8.91997,   9.96377E-06
C:/temp/dataset/3/15_5.odb,Step-1,Increment      8: Step Time =    1.000,"PART-1-1",           447,      -6.16813,      -3.97275,            0.,NA,NA,"",       7.79993,       5.29494,       5.72735,   386.457E-06
C:/temp/dataset/3/15_5.odb,Step-1,Increment      8: Step Time =    1.000,"PART-1-1",           448,      -4.95000,           -5.,            0.,NA,NA,"",       7.18134,       4.80436,       5.33759,   931.348E-06
C:/temp/dataset/3/15_5.odb,Step-1,Increment      8: Step Time =    1.000,"PART-1-1",           449,       1.59412,  -355.999E-03,            0.,NA,NA,"",       6.56744,       6.09307,       2.45067,   7.68249E-03
C:/temp/dataset/3/15_5.odb,Step-1,Increment      8: Step Time =    1.000,"PART-1-1",           450,       2.17826,      -1.53992,            0.,NA,NA,"",       6.04153,       5.58421,       2.30580,   13.0229E-03
C:/temp/dataset/3/15_5.odb,Step-1,Increment      8: Step Time =    1.000,"PART-1-1",           451,       2.86763,   426.804E-03,            0.,NA,NA,"",       6.57530,       6.29158,       1.91064,   19.4195E-03
C:/temp/dataset/3/15_5.odb,Step-1,Increment      8: Step Time =    1.000,"PART-1-1",           452,  -387.277E-03,   5.26357E-03,            0.,NA,NA,"",       7.13942,       6.38807,       3.18810,   1.61528E-03
C:/temp/dataset/3/15_5.odb,Step-1,Increment      8: Step Time =    1.000,"PART-1-1",           453,   283.611E-03,      -1.19839,            0.,NA,NA,"",       6.60205,       5.87066,       3.02033,   3.07409E-03
C:/temp/dataset/3/15_5.odb,Step-1,Increment      8: Step Time =    1.000,"PART-1-1",           454,   923.228E-03,   847.652E-03,            0.,NA,NA,"",       7.11268,       6.61198,       2.62144,   5.15660E-03
C:/temp/dataset/3/15_5.odb,Step-1,Increment      8: Step Time =    1.000,"PART-1-1",           455,       6.35531,      -13.1332,            0.,NA,NA,"",       1.56946,       1.43162,   643.166E-03,   75.3931E-03
C:/temp/dataset/3/15_5.odb,Step-1,Increment      8: Step Time =    1.000,"PART-1-1",           456,       7.49455,      -12.2656,            0.,NA,NA,"",       1.63503,       1.57814,   427.577E-03,   54.9776E-03
C:/temp/dataset/3/15_5.odb,Step-1,Increment      8: Step Time =    1.000,"PART-1-1",           457,       6.13925,      -10.3824,            0.,NA,NA,"",       2.28992,       2.14774,   794.314E-03,   76.8332E-03
C:/temp/dataset/3/15_5.odb,Step-1,Increment      8: Step Time =    1.000,"PART-1-1",           458,            5.,        -11.25,            0.,NA,NA,"",       2.24203,       1.98901,       1.03467,   97.2056E-03
C:/temp/dataset/3/15_5.odb,Step-1,Increment      8: Step Time =    1.000,"PART-1-1",           459,       13.3376,      -16.9670,            0.,NA,NA,"",   794.421E-03,   563.235E-03,  -560.242E-03,   57.8902E-03
C:/temp/dataset/3/15_5.odb,Step-1,Increment      8: Step Time =    1.000,"PART-1-1",           460,       11.8219,      -18.0071,            0.,NA,NA,"",   506.522E-03,   411.510E-03,  -295.337E-03,   29.8347E-03
C:/temp/dataset/3/15_5.odb,Step-1,Increment      8: Step Time =    1.000,"PART-1-1",           461,           15.,        -18.75,            0.,NA,NA,"",   760.785E-03,   389.175E-03,  -653.710E-03,   88.7359E-03
C:/temp/dataset/3/15_5.odb,Step-1,Increment      8: Step Time =    1.000,"PART-1-1",           462,       8.42876,      -15.2973,            0.,NA,NA,"",   900.867E-03,   881.101E-03,   187.677E-03,   38.4236E-03
C:/temp/dataset/3/15_5.odb,Step-1,Increment      8: Step Time =    1.000,"PART-1-1",           463,       10.4111,      -16.6310,            0.,NA,NA,"",   620.279E-03,   606.440E-03,  -130.293E-03,   6.24568E-03
C:/temp/dataset/3/15_5.odb,Step-1,Increment      8: Step Time =    1.000,"PART-1-1",           464,       10.7289,      -14.9294,            0.,NA,NA,"",   921.848E-03,   896.463E-03,  -214.842E-03,   8.67991E-03
C:/temp/dataset/3/15_5.odb,Step-1,Increment      8: Step Time =    1.000,"PART-1-1",           465,       8.74656,      -13.5956,            0.,NA,NA,"",       1.22599,       1.21704,   147.864E-03,   33.3474E-03
C:/temp/dataset/3/15_5.odb,Step-1,Increment      8: Step Time =    1.000,"PART-1-1",           466,      -8.72016,      -22.5745,            0.,NA,NA,"",   51.2761E-03,   51.2362E-03,  -2.02314E-03,   2.11911E-03
C:/temp/dataset/3/15_5.odb,Step-1,Increment      8: Step Time =    1.000,"PART-1-1",           467,      -7.48342,      -21.2909,            0.,NA,NA,"",   55.6725E-03,   55.5637E-03,  -3.47867E-03,   1.42271E-03
C:/temp/dataset/3/15_5.odb,Step-1,Increment      8: Step Time =    1.000,"PART-1-1",           468,         -8.75,          -20.,            0.,NA,NA,"",   56.4018E-03,   56.3260E-03,  -2.92247E-03,   130.807E-06
C:/temp/dataset/3/15_5.odb,Step-1,Increment      8: Step Time =    1.000,"PART-1-1",           469,      -9.98674,      -21.2836,            0.,NA,NA,"",   53.5434E-03,   53.5378E-03,  -777.367E-06,   675.340E-06
C:/temp/dataset/3/15_5.odb,Step-1,Increment      8: Step Time =    1.000,"PART-1-1",           470,      -4.96670,      -26.3491,            0.,NA,NA,"",   42.3536E-03,   42.1577E-03,   4.06886E-03,   7.66410E-03
C:/temp/dataset/3/15_5.odb,Step-1,Increment      8: Step Time =    1.000,"PART-1-1",           471,      -6.21541,      -25.0985,            0.,NA,NA,"",   46.9344E-03,   46.9223E-03,   1.06271E-03,   5.94760E-03
C:/temp/dataset/3/15_5.odb,Step-1,Increment      8: Step Time =    1.000,"PART-1-1",           472,      -7.47738,      -26.3212,            0.,NA,NA,"",   35.2671E-03,   35.2569E-03,   847.877E-06,   5.74788E-03
C:/temp/dataset/3/15_5.odb,Step-1,Increment      8: Step Time =    1.000,"PART-1-1",           473,      -6.22867,      -27.5719,            0.,NA,NA,"",   27.8250E-03,   27.7369E-03,   2.21201E-03,   7.54093E-03
C:/temp/dataset/3/15_5.odb,Step-1,Increment      8: Step Time =    1.000,"PART-1-1",           474,   49.7896E-03,      -26.4387,            0.,NA,NA,"",   59.7926E-03,   52.2811E-03,   29.0145E-03,   16.2423E-03
C:/temp/dataset/3/15_5.odb,Step-1,Increment      8: Step Time =    1.000,"PART-1-1",           475,       1.24862,      -27.7048,            0.,NA,NA,"",   41.2690E-03,   33.2102E-03,   24.4992E-03,   17.5984E-03
C:/temp/dataset/3/15_5.odb,Step-1,Increment      8: Step Time =    1.000,"PART-1-1",           476,       2.52056,      -26.5649,            0.,NA,NA,"",   64.2655E-03,   41.9437E-03,   48.6907E-03,   23.5691E-03
C:/temp/dataset/3/15_5.odb,Step-1,Increment      8: Step Time =    1.000,"PART-1-1",           477,       1.32172,      -25.2988,            0.,NA,NA,"",   83.9915E-03,   65.3786E-03,   52.7277E-03,   21.5921E-03
C:/temp/dataset/3/15_5.odb,Step-1,Increment      8: Step Time =    1.000,"PART-1-1",           478,        -13.75,          -20.,            0.,NA,NA,"",   58.2425E-03,   57.3353E-03,   10.2397E-03,   140.707E-06
C:/temp/dataset/3/15_5.odb,Step-1,Increment      8: Step Time =    1.000,"PART-1-1",           479,          -15.,        -21.25,            0.,NA,NA,"",   55.0016E-03,   52.9761E-03,   14.7891E-03,   118.994E-06
C:/temp/dataset/3/15_5.odb,Step-1,Increment      8: Step Time =    1.000,"PART-1-1",           480,      -13.7430,      -22.5153,            0.,NA,NA,"",   49.4321E-03,   48.3732E-03,   10.1767E-03,   150.620E-06
C:/temp/dataset/3/15_5.odb,Step-1,Increment      8: Step Time =    1.000,"PART-1-1",           481,      -12.4930,      -21.2653,            0.,NA,NA,"",   53.2927E-03,   52.9731E-03,   5.82720E-03,   115.704E-06
C:/temp/dataset/3/15_5.odb,Step-1,Increment      8: Step Time =    1.000,"PART-1-1",           482,      -11.2297,      -22.5489,            0.,NA,NA,"",   48.9168E-03,   48.8668E-03,   2.21083E-03,   995.995E-06
C:/temp/dataset/3/15_5.odb,Step-1,Increment      8: Step Time =    1.000,"PART-1-1",           483,        -11.25,          -20.,            0.,NA,NA,"",   56.7989E-03,   56.7587E-03,   2.13826E-03,   241.453E-06
C:/temp/dataset/3/15_5.odb,Step-1,Increment      8: Step Time =    1.000,"PART-1-1",           484,      -13.7448,      -25.0201,            0.,NA,NA,"",   37.9026E-03,   36.6716E-03,   9.58122E-03,   1.11025E-03
C:/temp/dataset/3/15_5.odb,Step-1,Increment      8: Step Time =    1.000,"PART-1-1",           485,      -12.4878,      -23.7854,            0.,NA,NA,"",   43.4313E-03,   43.0645E-03,   5.63259E-03,   1.26538E-03
C:/temp/dataset/3/15_5.odb,Step-1,Increment      8: Step Time =    1.000,"PART-1-1",           486,          -15.,        -23.75,            0.,NA,NA,"",   45.7550E-03,   43.1157E-03,   15.3155E-03,   42.8022E-06
C:/temp/dataset/3/15_5.odb,Step-1,Increment      8: Step Time =    1.000,"PART-1-1",           487,       13.7335,      -27.5520,            0.,NA,NA,"",   75.3844E-03,  -6.06245E-03,  -75.1402E-03,   40.2173E-03
C:/temp/dataset/3/15_5.odb,Step-1,Increment      8: Step Time =    1.000,"PART-1-1",           488,       12.4835,      -28.8020,            0.,NA,NA,"",   30.0593E-03,  -17.6953E-03,  -24.2989E-03,   29.1079E-03
C:/temp/dataset/3/15_5.odb,Step-1,Increment      8: Step Time =    1.000,"PART-1-1",           489,         13.75,          -30.,            0.,NA,NA,"",            0.,  -62.0187E-42,  -837.808E-42,   29.0561E-03
C:/temp/dataset/3/15_5.odb,Step-1,Increment      8: Step Time =    1.000,"PART-1-1",           490,           15.,        -28.75,            0.,NA,NA,"",   43.6534E-03,   18.7463E-03,  -39.4233E-03,   40.6702E-03
C:/temp/dataset/3/15_5.odb,Step-1,Increment      8: Step Time =    1.000,"PART-1-1",           491,       9.98010,      -28.8907,            0.,NA,NA,"",   24.9519E-03,  -24.2606E-03,  -5.83252E-03,   16.5464E-03
C:/temp/dataset/3/15_5.odb,Step-1,Increment      8: Step Time =    1.000,"PART-1-1",           492,       8.70049,      -27.8380,            0.,NA,NA,"",   31.4223E-03,  -30.6986E-03,   6.70503E-03,   12.2829E-03
C:/temp/dataset/3/15_5.odb,Step-1,Increment      8: Step Time =    1.000,"PART-1-1",           493,          8.75,          -30.,            0.,NA,NA,"",            0.,  -163.272E-42,  -197.706E-42,   15.2501E-03
C:/temp/dataset/3/15_5.odb,Step-1,Increment      8: Step Time =    1.000,"PART-1-1",           494,       11.2136,      -27.6927,            0.,NA,NA,"",   45.6205E-03,  -33.5912E-03,  -30.8684E-03,   21.4142E-03
C:/temp/dataset/3/15_5.odb,Step-1,Increment      8: Step Time =    1.000,"PART-1-1",           495,       12.3768,      -26.3916,            0.,NA,NA,"",   87.0672E-03,  -24.5886E-03,  -83.5230E-03,   33.7225E-03
C:/temp/dataset/3/15_5.odb,Step-1,Increment      8: Step Time =    1.000,"PART-1-1",           496,       11.0556,      -25.4315,            0.,NA,NA,"",   65.7758E-03,  -28.5650E-03,  -59.2494E-03,   23.4064E-03
C:/temp/dataset/3/15_5.odb,Step-1,Increment      8: Step Time =    1.000,"PART-1-1",           497,       9.89242,      -26.7326,            0.,NA,NA,"",   39.5228E-03,  -37.4967E-03,  -12.4919E-03,   15.7236E-03
C:/temp/dataset/3/15_5.odb,Step-1,Increment      8: Step Time =    1.000,"PART-1-1",           498,   9.79186E-03,      -28.8313,            0.,NA,NA,"",   21.7058E-03,   19.6715E-03,   9.17482E-03,   15.3023E-03
C:/temp/dataset/3/15_5.odb,Step-1,Increment      8: Step Time =    1.000,"PART-1-1",           499,          1.25,          -30.,            0.,NA,NA,"",            0.,   124.720E-42,   216.861E-42,   15.2870E-03
C:/temp/dataset/3/15_5.odb,Step-1,Increment      8: Step Time =    1.000,"PART-1-1",           500,      -1.18061,      -25.1833,            0.,NA,NA,"",   68.9457E-03,   64.3597E-03,   24.7251E-03,   13.7051E-03
C:/temp/dataset/3/15_5.odb,Step-1,Increment      8: Step Time =    1.000,"PART-1-1",           501,      -2.45538,      -26.3836,            0.,NA,NA,"",   51.0203E-03,   49.3939E-03,   12.7794E-03,   10.9109E-03
C:/temp/dataset/3/15_5.odb,Step-1,Increment      8: Step Time =    1.000,"PART-1-1",           502,      -1.22498,      -27.6390,            0.,NA,NA,"",   39.2529E-03,   36.7961E-03,   13.6689E-03,   13.1837E-03
C:/temp/dataset/3/15_5.odb,Step-1,Increment      8: Step Time =    1.000,"PART-1-1",           503,      -3.70005,      -25.1329,            0.,NA,NA,"",   55.9950E-03,   55.4217E-03,   7.99178E-03,   8.69001E-03
C:/temp/dataset/3/15_5.odb,Step-1,Increment      8: Step Time =    1.000,"PART-1-1",           504,      -7.49141,      -28.7797,            0.,NA,NA,"",   13.3724E-03,   13.3217E-03,   1.16328E-03,   7.01963E-03
C:/temp/dataset/3/15_5.odb,Step-1,Increment      8: Step Time =    1.000,"PART-1-1",           505,         -6.25,          -30.,            0.,NA,NA,"",            0.,   124.675E-42,   76.4927E-42,   8.83279E-03
C:/temp/dataset/3/15_5.odb,Step-1,Increment      8: Step Time =    1.000,"PART-1-1",           506,      -12.4949,      -26.2800,            0.,NA,NA,"",   28.7430E-03,   28.3865E-03,   4.51292E-03,   3.46035E-03
C:/temp/dataset/3/15_5.odb,Step-1,Increment      8: Step Time =    1.000,"PART-1-1",           507,          -15.,        -26.25,            0.,NA,NA,"",   33.3259E-03,   29.7083E-03,   15.1006E-03,   1.54444E-03
C:/temp/dataset/3/15_5.odb,Step-1,Increment      8: Step Time =    1.000,"PART-1-1",           508,       12.0036,      -23.8365,            0.,NA,NA,"",   134.546E-03,   6.13714E-03,  -134.406E-03,   34.1637E-03
C:/temp/dataset/3/15_5.odb,Step-1,Increment      8: Step Time =    1.000,"PART-1-1",           509,       13.6432,      -25.0896,            0.,NA,NA,"",   166.336E-03,   6.99851E-03,  -166.189E-03,   46.5477E-03
C:/temp/dataset/3/15_5.odb,Step-1,Increment      8: Step Time =    1.000,"PART-1-1",           510,           15.,        -23.75,            0.,NA,NA,"",   288.138E-03,   70.1168E-03,  -279.477E-03,   67.4286E-03
C:/temp/dataset/3/15_5.odb,Step-1,Increment      8: Step Time =    1.000,"PART-1-1",           511,         11.25,          -30.,            0.,NA,NA,"",            0.,  -169.131E-42,  -566.283E-42,   21.4663E-03
C:/temp/dataset/3/15_5.odb,Step-1,Increment      8: Step Time =    1.000,"PART-1-1",           512,       13.9281,      -14.6298,            0.,NA,NA,"",       1.25519,   945.892E-03,  -825.107E-03,   68.1442E-03
C:/temp/dataset/3/15_5.odb,Step-1,Increment      8: Step Time =    1.000,"PART-1-1",           513,       12.2657,      -15.3468,            0.,NA,NA,"",   937.993E-03,   809.947E-03,  -473.092E-03,   35.5446E-03
C:/temp/dataset/3/15_5.odb,Step-1,Increment      8: Step Time =    1.000,"PART-1-1",           514,           15.,        -16.25,            0.,NA,NA,"",       1.12675,   703.107E-03,  -880.461E-03,   90.6916E-03
C:/temp/dataset/3/15_5.odb,Step-1,Increment      8: Step Time =    1.000,"PART-1-1",           515,       7.13425,      -14.5121,            0.,NA,NA,"",       1.17348,       1.08915,   436.808E-03,   65.1286E-03
C:/temp/dataset/3/15_5.odb,Step-1,Increment      8: Step Time =    1.000,"PART-1-1",           516,       6.81531,      -16.2905,            0.,NA,NA,"",   860.767E-03,   753.887E-03,   415.420E-03,   71.7886E-03
C:/temp/dataset/3/15_5.odb,Step-1,Increment      8: Step Time =    1.000,"PART-1-1",           517,       8.10983,      -17.0757,            0.,NA,NA,"",   611.335E-03,   577.520E-03,   200.503E-03,   45.4399E-03
C:/temp/dataset/3/15_5.odb,Step-1,Increment      8: Step Time =    1.000,"PART-1-1",           518,       13.8641,      -7.41825,            0.,NA,NA,"",       3.02951,       2.66529,      -1.44020,   57.3072E-03
C:/temp/dataset/3/15_5.odb,Step-1,Increment      8: Step Time =    1.000,"PART-1-1",           519,       13.0286,      -8.63342,            0.,NA,NA,"",       2.57305,       2.33469,      -1.08155,   45.2280E-03
C:/temp/dataset/3/15_5.odb,Step-1,Increment      8: Step Time =    1.000,"PART-1-1",           520,       14.1645,      -9.96517,            0.,NA,NA,"",       2.34497,       1.96263,      -1.28333,   66.6882E-03
C:/temp/dataset/3/15_5.odb,Step-1,Increment      8: Step Time =    1.000,"PART-1-1",           521,           15.,         -8.75,            0.,NA,NA,"",       2.80881,       2.27469,      -1.64780,   79.3264E-03
C:/temp/dataset/3/15_5.odb,Step-1,Increment      8: Step Time =    1.000,"PART-1-1",           522,       12.0251,      -10.9831,            0.,NA,NA,"",       1.85216,       1.73465,  -649.218E-03,   29.2095E-03
C:/temp/dataset/3/15_5.odb,Step-1,Increment      8: Step Time =    1.000,"PART-1-1",           523,       12.8055,      -11.9581,            0.,NA,NA,"",       1.68147,       1.49122,  -776.917E-03,   43.6092E-03
C:/temp/dataset/3/15_5.odb,Step-1,Increment      8: Step Time =    1.000,"PART-1-1",           524,       13.3751,      -11.0455,            0.,NA,NA,"",       1.96397,       1.70086,  -981.962E-03,   53.3538E-03
C:/temp/dataset/3/15_5.odb,Step-1,Increment      8: Step Time =    1.000,"PART-1-1",           525,       12.5947,      -10.0706,            0.,NA,NA,"",       2.13346,       1.95557,  -852.887E-03,   38.6092E-03
C:/temp/dataset/3/15_5.odb,Step-1,Increment      8: Step Time =    1.000,"PART-1-1",           526,       11.4853,  -434.223E-03,            0.,NA,NA,"",       5.32273,       5.16965,      -1.26737,   14.0570E-03
C:/temp/dataset/3/15_5.odb,Step-1,Increment      8: Step Time =    1.000,"PART-1-1",           527,       10.5886,      -1.82652,            0.,NA,NA,"",       4.77819,       4.70661,  -823.930E-03,   12.2598E-03
C:/temp/dataset/3/15_5.odb,Step-1,Increment      8: Step Time =    1.000,"PART-1-1",           528,       11.9063,      -2.70193,            0.,NA,NA,"",       4.47007,       4.29932,      -1.22364,   23.3497E-03
C:/temp/dataset/3/15_5.odb,Step-1,Increment      8: Step Time =    1.000,"PART-1-1",           529,       14.1300,       7.44597,            0.,NA,NA,"",       8.78055,       8.13970,      -3.29291,   49.2653E-03
C:/temp/dataset/3/15_5.odb,Step-1,Increment      8: Step Time =    1.000,"PART-1-1",           530,       13.1865,       6.25975,            0.,NA,NA,"",       8.17081,       7.71377,      -2.69441,   36.3600E-03
C:/temp/dataset/3/15_5.odb,Step-1,Increment      8: Step Time =    1.000,"PART-1-1",           531,           15.,          6.25,            0.,NA,NA,"",       8.33471,       7.55770,      -3.51404,   59.7264E-03
C:/temp/dataset/3/15_5.odb,Step-1,Increment      8: Step Time =    1.000,"PART-1-1",           532,       12.4155,       5.33720,            0.,NA,NA,"",       7.72255,       7.39213,      -2.23478,   26.7773E-03
C:/temp/dataset/3/15_5.odb,Step-1,Increment      8: Step Time =    1.000,"PART-1-1",           533,       11.2733,       3.54111,            0.,NA,NA,"",       6.92543,       6.75029,      -1.54763,   12.9088E-03
C:/temp/dataset/3/15_5.odb,Step-1,Increment      8: Step Time =    1.000,"PART-1-1",           534,       12.2480,       13.5548,            0.,NA,NA,"",       11.7198,       11.2415,      -3.31390,   22.4789E-03
C:/temp/dataset/3/15_5.odb,Step-1,Increment      8: Step Time =    1.000,"PART-1-1",           535,           15.,         13.75,            0.,NA,NA,"",       11.9872,       10.9802,      -4.80905,   59.7729E-03
C:/temp/dataset/3/15_5.odb,Step-1,Increment      8: Step Time =    1.000,"PART-1-1",           536,       13.6600,       14.9734,            0.,NA,NA,"",       12.5423,       11.7761,      -4.31672,   40.9605E-03
C:/temp/dataset/3/15_5.odb,Step-1,Increment      8: Step Time =    1.000,"PART-1-1",           537,       8.15326,       10.4556,            0.,NA,NA,"",       10.2669,       10.2317,  -849.898E-03,   32.0853E-03
C:/temp/dataset/3/15_5.odb,Step-1,Increment      8: Step Time =    1.000,"PART-1-1",           538,       12.3824,       21.2920,            0.,NA,NA,"",       16.2357,       15.4901,      -4.86344,   26.3691E-03
C:/temp/dataset/3/15_5.odb,Step-1,Increment      8: Step Time =    1.000,"PART-1-1",           539,       13.6892,       20.0188,            0.,NA,NA,"",       15.4758,       14.5197,      -5.35519,   35.2194E-03
C:/temp/dataset/3/15_5.odb,Step-1,Increment      8: Step Time =    1.000,"PART-1-1",           540,           15.,         21.25,            0.,NA,NA,"",       16.3092,       14.9949,      -6.41434,   40.6989E-03
C:/temp/dataset/3/15_5.odb,Step-1,Increment      8: Step Time =    1.000,"PART-1-1",           541,       13.6932,       22.5232,            0.,NA,NA,"",       17.0423,       15.9841,      -5.91185,   27.2812E-03
C:/temp/dataset/3/15_5.odb,Step-1,Increment      8: Step Time =    1.000,"PART-1-1",           542,       9.77662,       16.3041,            0.,NA,NA,"",       13.3019,       13.0765,      -2.43835,   8.10381E-03
C:/temp/dataset/3/15_5.odb,Step-1,Increment      8: Step Time =    1.000,"PART-1-1",           543,       11.0318,       15.0036,            0.,NA,NA,"",       12.5153,       12.1732,      -2.90626,   7.34576E-03
C:/temp/dataset/3/15_5.odb,Step-1,Increment      8: Step Time =    1.000,"PART-1-1",           544,       12.3430,       16.2301,            0.,NA,NA,"",       13.1991,       12.6318,      -3.82787,   23.6304E-03
C:/temp/dataset/3/15_5.odb,Step-1,Increment      8: Step Time =    1.000,"PART-1-1",           545,         13.75,           30.,            0.,NA,NA,"",       21.8791,       20.5268,      -7.57270,   1.22351E-03
C:/temp/dataset/3/15_5.odb,Step-1,Increment      8: Step Time =    1.000,"PART-1-1",           546,       12.4862,       28.7548,            0.,NA,NA,"",       21.0725,       20.0280,      -6.55212,   7.72204E-03
C:/temp/dataset/3/15_5.odb,Step-1,Increment      8: Step Time =    1.000,"PART-1-1",           547,           15.,         28.75,            0.,NA,NA,"",       21.1125,       19.5073,      -8.07480,   1.23338E-03
C:/temp/dataset/3/15_5.odb,Step-1,Increment      8: Step Time =    1.000,"PART-1-1",           548,       12.4064,       23.7898,            0.,NA,NA,"",       17.8356,       16.9902,      -5.42589,   25.1186E-03
C:/temp/dataset/3/15_5.odb,Step-1,Increment      8: Step Time =    1.000,"PART-1-1",           549,           15.,         23.75,            0.,NA,NA,"",       17.8860,       16.4651,      -6.98650,   25.2149E-03
C:/temp/dataset/3/15_5.odb,Step-1,Increment      8: Step Time =    1.000,"PART-1-1",           550,       9.91541,       26.3072,            0.,NA,NA,"",       19.5591,       19.0341,      -4.50096,   23.9731E-03
C:/temp/dataset/3/15_5.odb,Step-1,Increment      8: Step Time =    1.000,"PART-1-1",           551,       11.1537,       25.0565,            0.,NA,NA,"",       18.6807,       18.0096,      -4.96220,   24.4759E-03
C:/temp/dataset/3/15_5.odb,Step-1,Increment      8: Step Time =    1.000,"PART-1-1",           552,       11.2110,       27.5221,            0.,NA,NA,"",       20.2970,       19.5289,      -5.53081,   17.9353E-03
C:/temp/dataset/3/15_5.odb,Step-1,Increment      8: Step Time =    1.000,"PART-1-1",           553,       8.69233,       27.5515,            0.,NA,NA,"",       20.4701,       20.0672,      -4.04133,   22.0502E-03
C:/temp/dataset/3/15_5.odb,Step-1,Increment      8: Step Time =    1.000,"PART-1-1",           554,       7.41297,       26.3376,            0.,NA,NA,"",       19.8051,       19.5739,      -3.01736,   22.4782E-03
C:/temp/dataset/3/15_5.odb,Step-1,Increment      8: Step Time =    1.000,"PART-1-1",           555,       8.63604,       25.0933,            0.,NA,NA,"",       18.8541,       18.5302,      -3.48020,   24.8314E-03
C:/temp/dataset/3/15_5.odb,Step-1,Increment      8: Step Time =    1.000,"PART-1-1",           556,      -1.26375,       27.5391,            0.,NA,NA,"",       22.5866,       22.4777,       2.21509,   16.8461E-03
C:/temp/dataset/3/15_5.odb,Step-1,Increment      8: Step Time =    1.000,"PART-1-1",           557,         -1.25,           30.,            0.,NA,NA,"",       24.1728,       24.1194,       1.60503,   26.9347E-03
C:/temp/dataset/3/15_5.odb,Step-1,Increment      8: Step Time =    1.000,"PART-1-1",           558,      -2.50500,       28.7640,            0.,NA,NA,"",       23.7873,       23.6293,       2.73711,   17.9335E-03
C:/temp/dataset/3/15_5.odb,Step-1,Increment      8: Step Time =    1.000,"PART-1-1",           559,      -7.50143,       28.7522,            0.,NA,NA,"",       25.7196,       24.9865,       6.09684,   7.52293E-03
C:/temp/dataset/3/15_5.odb,Step-1,Increment      8: Step Time =    1.000,"PART-1-1",           560,         -8.75,           30.,            0.,NA,NA,"",       26.9982,       26.1756,       6.61383,   5.58731E-03
C:/temp/dataset/3/15_5.odb,Step-1,Increment      8: Step Time =    1.000,"PART-1-1",           561,      -6.25460,       27.5081,            0.,NA,NA,"",       24.4500,       23.8060,       5.57456,   10.7312E-03
C:/temp/dataset/3/15_5.odb,Step-1,Increment      8: Step Time =    1.000,"PART-1-1",           562,        -13.75,           30.,            0.,NA,NA,"",       29.2811,       27.5168,       10.0103,   177.171E-06
C:/temp/dataset/3/15_5.odb,Step-1,Increment      8: Step Time =    1.000,"PART-1-1",           563,          -15.,         28.75,            0.,NA,NA,"",       29.2278,       27.0004,       11.1912,   180.291E-06
C:/temp/dataset/3/15_5.odb,Step-1,Increment      8: Step Time =    1.000,"PART-1-1",           564,      -13.7509,       27.5010,            0.,NA,NA,"",       27.9411,       25.8216,       10.6748,   1.38388E-03
C:/temp/dataset/3/15_5.odb,Step-1,Increment      8: Step Time =    1.000,"PART-1-1",           565,          -15.,         26.25,            0.,NA,NA,"",       27.9448,       25.3058,       11.8544,   1.44759E-03
C:/temp/dataset/3/15_5.odb,Step-1,Increment      8: Step Time =    1.000,"PART-1-1",           566,      -12.5016,       26.2536,            0.,NA,NA,"",       26.6553,       24.6448,       10.1558,   3.57764E-03
C:/temp/dataset/3/15_5.odb,Step-1,Increment      8: Step Time =    1.000,"PART-1-1",           567,      -7.50093,       21.2547,            0.,NA,NA,"",       21.5163,       19.9481,       8.06378,   10.1941E-03
C:/temp/dataset/3/15_5.odb,Step-1,Increment      8: Step Time =    1.000,"PART-1-1",           568,         -6.25,           20.,            0.,NA,NA,"",       20.2340,       18.7749,       7.54434,   13.0796E-03
C:/temp/dataset/3/15_5.odb,Step-1,Increment      8: Step Time =    1.000,"PART-1-1",           569,      -4.99978,       21.2574,            0.,NA,NA,"",       20.3096,       19.2950,       6.33912,   14.0978E-03
C:/temp/dataset/3/15_5.odb,Step-1,Increment      8: Step Time =    1.000,"PART-1-1",           570,      -3.74911,       22.5208,            0.,NA,NA,"",       20.4702,       19.8124,       5.14742,   14.2459E-03
C:/temp/dataset/3/15_5.odb,Step-1,Increment      8: Step Time =    1.000,"PART-1-1",           571,         -3.75,           20.,            0.,NA,NA,"",       19.0383,       18.1285,       5.81524,   19.1806E-03
C:/temp/dataset/3/15_5.odb,Step-1,Increment      8: Step Time =    1.000,"PART-1-1",           572,      -2.49933,       21.2634,            0.,NA,NA,"",       19.2212,       18.6580,       4.61886,   17.4702E-03
C:/temp/dataset/3/15_5.odb,Step-1,Increment      8: Step Time =    1.000,"PART-1-1",           573,         -1.25,           20.,            0.,NA,NA,"",       17.9864,       17.5137,       4.09630,   25.0840E-03
C:/temp/dataset/3/15_5.odb,Step-1,Increment      8: Step Time =    1.000,"PART-1-1",           574,  -2.23348E-03,       21.2694,            0.,NA,NA,"",       18.2832,       18.0494,       2.91427,   22.7869E-03
C:/temp/dataset/3/15_5.odb,Step-1,Increment      8: Step Time =    1.000,"PART-1-1",           575,      -1.25156,       22.5328,            0.,NA,NA,"",       19.4900,       19.1840,       3.43991,   16.7240E-03
C:/temp/dataset/3/15_5.odb,Step-1,Increment      8: Step Time =    1.000,"PART-1-1",           576,         -3.75,           30.,            0.,NA,NA,"",       25.0190,       24.8068,       3.25151,   18.7824E-03
C:/temp/dataset/3/15_5.odb,Step-1,Increment      8: Step Time =    1.000,"PART-1-1",           577,      -5.00318,       28.7559,            0.,NA,NA,"",       24.7030,       24.3064,       4.40869,   12.3588E-03
C:/temp/dataset/3/15_5.odb,Step-1,Increment      8: Step Time =    1.000,"PART-1-1",           578,       7.36074,       18.8052,            0.,NA,NA,"",       14.9854,       14.9120,      -1.48226,   25.4688E-03
C:/temp/dataset/3/15_5.odb,Step-1,Increment      8: Step Time =    1.000,"PART-1-1",           579,       8.58169,       17.5494,            0.,NA,NA,"",       14.1143,       13.9750,      -1.97795,   21.2813E-03
C:/temp/dataset/3/15_5.odb,Step-1,Increment      8: Step Time =    1.000,"PART-1-1",           580,       8.60057,       20.0599,            0.,NA,NA,"",       15.6154,       15.4267,      -2.42062,   16.2406E-03
C:/temp/dataset/3/15_5.odb,Step-1,Increment      8: Step Time =    1.000,"PART-1-1",           581,            5.,         18.75,            0.,NA,NA,"",       15.3460,       15.3454,  -137.366E-03,   89.6253E-03
C:/temp/dataset/3/15_5.odb,Step-1,Increment      8: Step Time =    1.000,"PART-1-1",           582,       6.17685,       17.5255,            0.,NA,NA,"",       14.4103,       14.3960,  -642.720E-03,   55.8120E-03
C:/temp/dataset/3/15_5.odb,Step-1,Increment      8: Step Time =    1.000,"PART-1-1",           583,       6.18390,       20.0298,            0.,NA,NA,"",       15.8812,       15.8506,  -985.722E-03,   49.1725E-03
C:/temp/dataset/3/15_5.odb,Step-1,Increment      8: Step Time =    1.000,"PART-1-1",           584,            5.,         16.25,            0.,NA,NA,"",       13.8814,       13.8808,   123.712E-03,   70.4250E-03
C:/temp/dataset/3/15_5.odb,Step-1,Increment      8: Step Time =    1.000,"PART-1-1",           585,       6.15340,       15.0385,            0.,NA,NA,"",       12.9909,       12.9863,  -344.285E-03,   55.9181E-03
C:/temp/dataset/3/15_5.odb,Step-1,Increment      8: Step Time =    1.000,"PART-1-1",           586,       7.33024,       16.3140,            0.,NA,NA,"",       13.5414,       13.4952,      -1.11765,   39.7898E-03
C:/temp/dataset/3/15_5.odb,Step-1,Increment      8: Step Time =    1.000,"PART-1-1",           587,           15.,         16.25,            0.,NA,NA,"",       13.3528,       12.2507,      -5.31190,   57.4247E-03
C:/temp/dataset/3/15_5.odb,Step-1,Increment      8: Step Time =    1.000,"PART-1-1",           588,       13.6830,       17.5067,            0.,NA,NA,"",       13.9761,       13.1173,      -4.82353,   39.4120E-03
C:/temp/dataset/3/15_5.odb,Step-1,Increment      8: Step Time =    1.000,"PART-1-1",           589,           15.,         18.75,            0.,NA,NA,"",       14.7938,       13.5881,      -5.84988,   51.7590E-03
C:/temp/dataset/3/15_5.odb,Step-1,Increment      8: Step Time =    1.000,"PART-1-1",           590,       7.36831,       6.81272,            0.,NA,NA,"",       8.55657,       8.55500,  -164.197E-03,   34.1975E-03
C:/temp/dataset/3/15_5.odb,Step-1,Increment      8: Step Time =    1.000,"PART-1-1",           591,       6.10412,       7.73110,            0.,NA,NA,"",       9.15718,       9.15145,   323.791E-03,   61.9381E-03
C:/temp/dataset/3/15_5.odb,Step-1,Increment      8: Step Time =    1.000,"PART-1-1",           592,            5.,          6.25,            0.,NA,NA,"",       8.61833,       8.57376,   875.367E-03,   98.2397E-03
C:/temp/dataset/3/15_5.odb,Step-1,Increment      8: Step Time =    1.000,"PART-1-1",           593,       6.26419,       5.33162,            0.,NA,NA,"",       8.00022,       7.98985,   407.172E-03,   55.8158E-03
C:/temp/dataset/3/15_5.odb,Step-1,Increment      8: Step Time =    1.000,"PART-1-1",           594,           15.,          8.75,            0.,NA,NA,"",       9.47744,       8.63322,      -3.91016,   61.3535E-03
C:/temp/dataset/3/15_5.odb,Step-1,Increment      8: Step Time =    1.000,"PART-1-1",           595,       13.1418,       8.51598,            0.,NA,NA,"",       9.20544,       8.70814,      -2.98470,   35.7871E-03
C:/temp/dataset/3/15_5.odb,Step-1,Increment      8: Step Time =    1.000,"PART-1-1",           596,       6.30252,      -5.49102,            0.,NA,NA,"",       3.74940,       3.65504,   835.866E-03,   62.9830E-03
C:/temp/dataset/3/15_5.odb,Step-1,Increment      8: Step Time =    1.000,"PART-1-1",           597,            5.,         -6.25,            0.,NA,NA,"",       3.73566,       3.51798,       1.25657,   113.051E-03
C:/temp/dataset/3/15_5.odb,Step-1,Increment      8: Step Time =    1.000,"PART-1-1",           598,       6.10325,      -7.87566,            0.,NA,NA,"",       3.02039,       2.89071,   875.517E-03,   75.1265E-03
C:/temp/dataset/3/15_5.odb,Step-1,Increment      8: Step Time =    1.000,"PART-1-1",           599,       7.40577,      -7.11668,            0.,NA,NA,"",       3.07737,       3.03754,   493.502E-03,   42.3103E-03
C:/temp/dataset/3/15_5.odb,Step-1,Increment      8: Step Time =    1.000,"PART-1-1",           600,            5.,         -8.75,            0.,NA,NA,"",       2.94052,       2.70682,       1.14882,   95.6583E-03
C:/temp/dataset/3/15_5.odb,Step-1,Increment      8: Step Time =    1.000,"PART-1-1",           601,            5.,        -13.75,            0.,NA,NA,"",       1.63047,       1.37037,   883.466E-03,   99.8616E-03
C:/temp/dataset/3/15_5.odb,Step-1,Increment      8: Step Time =    1.000,"PART-1-1",           602,       5.77894,      -15.1288,            0.,NA,NA,"",       1.22010,       1.03152,   651.624E-03,   89.6449E-03
C:/temp/dataset/3/15_5.odb,Step-1,Increment      8: Step Time =    1.000,"PART-1-1",           603,            5.,        -16.25,            0.,NA,NA,"",       1.11204,   858.016E-03,   707.411E-03,   106.328E-03
C:/temp/dataset/3/15_5.odb,Step-1,Increment      8: Step Time =    1.000,"PART-1-1",           604,       2.77244,      -24.0596,            0.,NA,NA,"",   121.791E-03,   80.5973E-03,   91.3078E-03,   31.2398E-03
C:/temp/dataset/3/15_5.odb,Step-1,Increment      8: Step Time =    1.000,"PART-1-1",           605,       3.76359,      -25.5842,            0.,NA,NA,"",   89.1714E-03,   45.4477E-03,   76.7206E-03,   29.2479E-03
C:/temp/dataset/3/15_5.odb,Step-1,Increment      8: Step Time =    1.000,"PART-1-1",           606,       5.11162,      -24.8806,            0.,NA,NA,"",   108.246E-03,   38.5406E-03,   101.152E-03,   36.3251E-03
C:/temp/dataset/3/15_5.odb,Step-1,Increment      8: Step Time =    1.000,"PART-1-1",           607,       4.12047,      -23.3559,            0.,NA,NA,"",   163.198E-03,   85.9749E-03,   138.715E-03,   41.0819E-03
C:/temp/dataset/3/15_5.odb,Step-1,Increment      8: Step Time =    1.000,"PART-1-1",           608,       8.48587,      -2.76980,            0.,NA,NA,"",       4.50748,       4.50744,  -19.9484E-03,   29.5303E-03
C:/temp/dataset/3/15_5.odb,Step-1,Increment      8: Step Time =    1.000,"PART-1-1",           609,       9.66601,      -3.38468,            0.,NA,NA,"",       4.20845,       4.19003,  -393.278E-03,   17.3511E-03
C:/temp/dataset/3/15_5.odb,Step-1,Increment      8: Step Time =    1.000,"PART-1-1",           610,       9.40849,      -1.21164,            0.,NA,NA,"",       5.05015,       5.03097,  -439.757E-03,   18.8422E-03
C:/temp/dataset/3/15_5.odb,Step-1,Increment      8: Step Time =    1.000,"PART-1-1",           611,       3.88333,            5.,            0.,NA,NA,"",       8.08455,       7.98808,       1.24522,   32.2357E-03
C:/temp/dataset/3/15_5.odb,Step-1,Increment      8: Step Time =    1.000,"PART-1-1",           612,       3.93709,       2.49951,            0.,NA,NA,"",       7.16110,       7.02434,       1.39280,   27.8257E-03
C:/temp/dataset/3/15_5.odb,Step-1,Increment      8: Step Time =    1.000,"PART-1-1",           613,       5.14044,       3.62548,            0.,NA,NA,"",       7.43767,       7.38199,   908.393E-03,   55.0794E-03
C:/temp/dataset/3/15_5.odb,Step-1,Increment      8: Step Time =    1.000,"PART-1-1",           614,       1.70000,           -5.,            0.,NA,NA,"",       5.07835,       4.26038,       2.76384,   5.73431E-03
C:/temp/dataset/3/15_5.odb,Step-1,Increment      8: Step Time =    1.000,"PART-1-1",           615,       2.88648,      -4.17028,            0.,NA,NA,"",       5.00481,       4.49010,       2.21069,   10.9304E-03
C:/temp/dataset/3/15_5.odb,Step-1,Increment      8: Step Time =    1.000,"PART-1-1",           616,       1.90498,      -3.27989,            0.,NA,NA,"",       5.54334,       4.92678,       2.54076,   8.17118E-03
C:/temp/dataset/3/15_5.odb,Step-1,Increment      8: Step Time =    1.000,"PART-1-1",           617,      -2.82853,       3.20340,            0.,NA,NA,"",       8.71440,       7.80141,       3.88315,   1.49054E-03
C:/temp/dataset/3/15_5.odb,Step-1,Increment      8: Step Time =    1.000,"PART-1-1",           618,      -1.73717,       4.08745,            0.,NA,NA,"",       8.74220,       8.05537,       3.39661,   1.98800E-03
C:/temp/dataset/3/15_5.odb,Step-1,Increment      8: Step Time =    1.000,"PART-1-1",           619,      -2.81667,            5.,            0.,NA,NA,"",       9.27841,       8.49046,       3.74180,   2.10430E-03
C:/temp/dataset/3/15_5.odb,Step-1,Increment      8: Step Time =    1.000,"PART-1-1",           620,      -7.28333,            5.,            0.,NA,NA,"",       10.3907,       8.83908,       5.46229,   250.399E-06
C:/temp/dataset/3/15_5.odb,Step-1,Increment      8: Step Time =    1.000,"PART-1-1",           621,      -11.7000,            5.,            0.,NA,NA,"",       11.6457,       9.18070,       7.16504,   3.08036E-06
C:/temp/dataset/3/15_5.odb,Step-1,Increment      8: Step Time =    1.000,"PART-1-1",           622,      -11.5540,       2.50359,            0.,NA,NA,"",       10.9851,       8.20715,       7.30169,   36.5666E-06
C:/temp/dataset/3/15_5.odb,Step-1,Increment      8: Step Time =    1.000,"PART-1-1",           623,      -8.37698,      -4.01732,            0.,NA,NA,"",       8.54414,       5.44850,       6.58151,   116.111E-06
C:/temp/dataset/3/15_5.odb,Step-1,Increment      8: Step Time =    1.000,"PART-1-1",           624,      -10.5279,      -3.86372,            0.,NA,NA,"",       9.32354,       5.67384,       7.39837,   28.1015E-06
C:/temp/dataset/3/15_5.odb,Step-1,Increment      8: Step Time =    1.000,"PART-1-1",           625,      -9.41667,           -5.,            0.,NA,NA,"",       8.73718,       5.15013,       7.05794,   51.5754E-06
C:/temp/dataset/3/15_5.odb,Step-1,Increment      8: Step Time =    1.000,"PART-1-1",           626,          3.75,          -20.,            0.,NA,NA,"",   199.988E-03,   124.972E-03,   156.133E-03,   72.0228E-03
C:/temp/dataset/3/15_5.odb,Step-1,Increment      8: Step Time =    1.000,"PART-1-1",           627,       2.74072,      -21.3682,            0.,NA,NA,"",   167.847E-03,   117.221E-03,   120.133E-03,   25.3107E-03
C:/temp/dataset/3/15_5.odb,Step-1,Increment      8: Step Time =    1.000,"PART-1-1",           628,       4.11640,      -22.1674,            0.,NA,NA,"",   210.165E-03,   120.623E-03,   172.104E-03,   50.7374E-03
C:/temp/dataset/3/15_5.odb,Step-1,Increment      8: Step Time =    1.000,"PART-1-1",           629,       5.12568,      -20.7992,            0.,NA,NA,"",   308.995E-03,   158.628E-03,   265.170E-03,   88.8424E-03
C:/temp/dataset/3/15_5.odb,Step-1,Increment      8: Step Time =    1.000,"PART-1-1",           630,          1.25,          -20.,            0.,NA,NA,"",   88.7589E-03,   68.0318E-03,   57.0072E-03,   13.9786E-03
C:/temp/dataset/3/15_5.odb,Step-1,Increment      8: Step Time =    1.000,"PART-1-1",           631,   73.0809E-03,      -21.3299,            0.,NA,NA,"",   89.7513E-03,   80.5286E-03,   39.6289E-03,   10.0539E-03
C:/temp/dataset/3/15_5.odb,Step-1,Increment      8: Step Time =    1.000,"PART-1-1",           632,       1.56380,      -22.6981,            0.,NA,NA,"",   124.628E-03,   97.3770E-03,   77.7800E-03,   27.3847E-03
C:/temp/dataset/3/15_5.odb,Step-1,Increment      8: Step Time =    1.000,"PART-1-1",           633,         -1.25,          -20.,            0.,NA,NA,"",   66.0005E-03,   62.7835E-03,   20.3544E-03,   3.45571E-03
C:/temp/dataset/3/15_5.odb,Step-1,Increment      8: Step Time =    1.000,"PART-1-1",           634,      -2.46493,      -21.3147,            0.,NA,NA,"",   68.2993E-03,   67.3242E-03,   11.4998E-03,   4.66480E-03
C:/temp/dataset/3/15_5.odb,Step-1,Increment      8: Step Time =    1.000,"PART-1-1",           635,      -1.14185,      -22.6446,            0.,NA,NA,"",   81.8794E-03,   77.4912E-03,   26.4453E-03,   11.5817E-03
C:/temp/dataset/3/15_5.odb,Step-1,Increment      8: Step Time =    1.000,"PART-1-1",           636,         -3.75,          -20.,            0.,NA,NA,"",   58.1812E-03,   58.1425E-03,   2.12190E-03,   1.69192E-03
C:/temp/dataset/3/15_5.odb,Step-1,Increment      8: Step Time =    1.000,"PART-1-1",           637,      -4.97847,      -21.2978,            0.,NA,NA,"",   59.6244E-03,   59.6172E-03,  -924.630E-06,   2.43949E-03
C:/temp/dataset/3/15_5.odb,Step-1,Increment      8: Step Time =    1.000,"PART-1-1",           638,      -3.69340,      -22.6125,            0.,NA,NA,"",   64.5150E-03,   64.2711E-03,   5.60483E-03,   5.95442E-03
C:/temp/dataset/3/15_5.odb,Step-1,Increment      8: Step Time =    1.000,"PART-1-1",           639,      -4.95791,      -23.8547,            0.,NA,NA,"",   56.9416E-03,   56.8904E-03,   2.41360E-03,   5.65319E-03
C:/temp/dataset/3/15_5.odb,Step-1,Increment      8: Step Time =    1.000,"PART-1-1",           640,      -6.21189,      -22.5887,            0.,NA,NA,"",   56.2364E-03,   56.2100E-03,  -1.72224E-03,   3.57403E-03
C:/temp/dataset/3/15_5.odb,Step-1,Increment      8: Step Time =    1.000,"PART-1-1",           641,      -7.46939,      -23.8324,            0.,NA,NA,"",   49.4213E-03,   49.4037E-03,  -1.31614E-03,   3.79332E-03
C:/temp/dataset/3/15_5.odb,Step-1,Increment      8: Step Time =    1.000,"PART-1-1",           642,           15.,        -13.75,            0.,NA,NA,"",       1.59019,       1.12619,      -1.12268,   88.5047E-03
C:/temp/dataset/3/15_5.odb,Step-1,Increment      8: Step Time =    1.000,"PART-1-1",           643,       14.2106,      -12.3304,            0.,NA,NA,"",       1.77128,       1.40539,      -1.07809,   71.0220E-03
C:/temp/dataset/3/15_5.odb,Step-1,Increment      8: Step Time =    1.000,"PART-1-1",           644,       13.1387,      -13.2101,            0.,NA,NA,"",       1.43849,       1.21662,  -767.531E-03,   50.7435E-03
C:/temp/dataset/3/15_5.odb,Step-1,Increment      8: Step Time =    1.000,"PART-1-1",           645,           15.,        -11.25,            0.,NA,NA,"",       2.15119,       1.65195,      -1.37793,   84.4866E-03
C:/temp/dataset/3/15_5.odb,Step-1,Increment      8: Step Time =    1.000,"PART-1-1",           646,           15.,         -6.25,            0.,NA,NA,"",       3.55951,       2.98985,      -1.93155,   72.2201E-03
C:/temp/dataset/3/15_5.odb,Step-1,Increment      8: Step Time =    1.000,"PART-1-1",           647,       14.0624,      -4.92369,            0.,NA,NA,"",       3.85952,       3.43480,      -1.76012,   54.7473E-03
C:/temp/dataset/3/15_5.odb,Step-1,Increment      8: Step Time =    1.000,"PART-1-1",           648,       12.9264,      -6.09194,            0.,NA,NA,"",       3.34704,       3.09753,      -1.26808,   40.7329E-03
C:/temp/dataset/3/15_5.odb,Step-1,Increment      8: Step Time =    1.000,"PART-1-1",           649,           15.,         -3.75,            0.,NA,NA,"",       4.39422,       3.78951,      -2.22459,   63.6123E-03
C:/temp/dataset/3/15_5.odb,Step-1,Increment      8: Step Time =    1.000,"PART-1-1",           650,       13.0440,      -3.68493,            0.,NA,NA,"",       4.18382,       3.89258,      -1.53366,   38.6331E-03
C:/temp/dataset/3/15_5.odb,Step-1,Increment      8: Step Time =    1.000,"PART-1-1",           651,       8.06094,   477.426E-03,            0.,NA,NA,"",       5.81635,       5.81622,  -39.4449E-03,   29.6817E-03
C:/temp/dataset/3/15_5.odb,Step-1,Increment      8: Step Time =    1.000,"PART-1-1",           652,       8.76493,       2.31856,            0.,NA,NA,"",       6.50021,       6.48651,  -421.728E-03,   22.4663E-03
C:/temp/dataset/3/15_5.odb,Step-1,Increment      8: Step Time =    1.000,"PART-1-1",           653,       6.73548,       2.80805,            0.,NA,NA,"",       6.89709,       6.88842,   345.677E-03,   39.1111E-03
C:/temp/dataset/3/15_5.odb,Step-1,Increment      8: Step Time =    1.000,"PART-1-1",           654,       6.03149,   966.916E-03,            0.,NA,NA,"",       6.25279,       6.21361,   698.852E-03,   41.6346E-03
C:/temp/dataset/3/15_5.odb,Step-1,Increment      8: Step Time =    1.000,"PART-1-1",           655,            5.,          8.75,            0.,NA,NA,"",       9.85065,       9.82108,   762.792E-03,   76.4088E-03
C:/temp/dataset/3/15_5.odb,Step-1,Increment      8: Step Time =    1.000,"PART-1-1",           656,       7.16919,       9.14751,            0.,NA,NA,"",       9.71480,       9.71125,  -262.568E-03,   45.5526E-03
C:/temp/dataset/3/15_5.odb,Step-1,Increment      8: Step Time =    1.000,"PART-1-1",           657,          3.75,           30.,            0.,NA,NA,"",       22.8331,       22.7791,      -1.56990,   38.0986E-03
C:/temp/dataset/3/15_5.odb,Step-1,Increment      8: Step Time =    1.000,"PART-1-1",           658,       3.71036,       27.5731,            0.,NA,NA,"",       21.2422,       21.2181,      -1.01158,   19.6031E-03
C:/temp/dataset/3/15_5.odb,Step-1,Increment      8: Step Time =    1.000,"PART-1-1",           659,       7.38617,       23.8490,            0.,NA,NA,"",       18.1681,       17.9995,      -2.46913,   24.4718E-03
C:/temp/dataset/3/15_5.odb,Step-1,Increment      8: Step Time =    1.000,"PART-1-1",           660,       6.16255,       25.1024,            0.,NA,NA,"",       19.1650,       19.0609,      -1.99479,   18.1176E-03
C:/temp/dataset/3/15_5.odb,Step-1,Increment      8: Step Time =    1.000,"PART-1-1",           661,       4.93576,       23.8439,            0.,NA,NA,"",       18.5577,       18.5326,  -964.738E-03,   17.0381E-03
C:/temp/dataset/3/15_5.odb,Step-1,Increment      8: Step Time =    1.000,"PART-1-1",           662,       6.15938,       22.5905,            0.,NA,NA,"",       17.5208,       17.4594,      -1.46490,   22.6826E-03
C:/temp/dataset/3/15_5.odb,Step-1,Increment      8: Step Time =    1.000,"PART-1-1",           663,      -10.0017,       23.7560,            0.,NA,NA,"",       24.0831,       22.2932,       9.11106,   7.26396E-03
C:/temp/dataset/3/15_5.odb,Step-1,Increment      8: Step Time =    1.000,"PART-1-1",           664,      -8.75135,       22.5073,            0.,NA,NA,"",       22.7995,       21.1208,       8.58654,   9.25457E-03
C:/temp/dataset/3/15_5.odb,Step-1,Increment      8: Step Time =    1.000,"PART-1-1",           665,      -10.0004,       21.2526,            0.,NA,NA,"",       22.8096,       20.6069,       9.77917,   6.88909E-03
C:/temp/dataset/3/15_5.odb,Step-1,Increment      8: Step Time =    1.000,"PART-1-1",           666,      -11.2505,       22.5043,            0.,NA,NA,"",       24.0942,       21.7825,       10.2983,   6.40083E-03
C:/temp/dataset/3/15_5.odb,Step-1,Increment      8: Step Time =    1.000,"PART-1-1",           667,        -11.25,           20.,            0.,NA,NA,"",       22.8919,       20.0910,       10.9721,   5.94013E-03
C:/temp/dataset/3/15_5.odb,Step-1,Increment      8: Step Time =    1.000,"PART-1-1",           668,         -8.75,           20.,            0.,NA,NA,"",       21.5247,       19.4302,       9.26186,   8.54024E-03
C:/temp/dataset/3/15_5.odb,Step-1,Increment      8: Step Time =    1.000,"PART-1-1",           669,       7.37456,       21.3253,            0.,NA,NA,"",       16.5322,       16.4177,      -1.94271,   24.0286E-03
C:/temp/dataset/3/15_5.odb,Step-1,Increment      8: Step Time =    1.000,"PART-1-1",           670,      -1.26076,       25.0501,            0.,NA,NA,"",       21.0273,       20.8375,       2.81937,   13.5957E-03
C:/temp/dataset/3/15_5.odb,Step-1,Increment      8: Step Time =    1.000,"PART-1-1",           671,      -2.50213,       23.7814,            0.,NA,NA,"",       20.7088,       20.3240,       3.97387,   13.2022E-03
C:/temp/dataset/3/15_5.odb,Step-1,Increment      8: Step Time =    1.000,"PART-1-1",           672,          1.25,           20.,            0.,NA,NA,"",       17.0921,       16.9238,       2.39241,   33.6415E-03
C:/temp/dataset/3/15_5.odb,Step-1,Increment      8: Step Time =    1.000,"PART-1-1",           673,            5.,         13.75,            0.,NA,NA,"",       12.4740,       12.4682,   380.446E-03,   69.9168E-03
C:/temp/dataset/3/15_5.odb,Step-1,Increment      8: Step Time =    1.000,"PART-1-1",           674,       7.85923,       4.51418,            0.,NA,NA,"",       7.48358,       7.48090,  -200.185E-03,   28.2329E-03
C:/temp/dataset/3/15_5.odb,Step-1,Increment      8: Step Time =    1.000,"PART-1-1",           675,       9.45843,       7.45797,            0.,NA,NA,"",       8.69678,       8.62074,      -1.14757,   10.0065E-03
C:/temp/dataset/3/15_5.odb,Step-1,Increment      8: Step Time =    1.000,"PART-1-1",           676,       11.3500,       8.04392,            0.,NA,NA,"",       8.92721,       8.68135,      -2.08072,   13.1614E-03
C:/temp/dataset/3/15_5.odb,Step-1,Increment      8: Step Time =    1.000,"PART-1-1",           677,       10.2386,       8.70699,            0.,NA,NA,"",       9.25982,       9.11295,      -1.64265,   2.94976E-03
C:/temp/dataset/3/15_5.odb,Step-1,Increment      8: Step Time =    1.000,"PART-1-1",           678,   133.314E-03,       2.02047,            0.,NA,NA,"",       7.66686,       7.12293,       2.83628,   1.94709E-03
C:/temp/dataset/3/15_5.odb,Step-1,Increment      8: Step Time =    1.000,"PART-1-1",           679,       2.26054,       1.70692,            0.,NA,NA,"",       7.14214,       6.84057,       2.05346,   11.5602E-03
C:/temp/dataset/3/15_5.odb,Step-1,Increment      8: Step Time =    1.000,"PART-1-1",           680,  -583.333E-03,            5.,            0.,NA,NA,"",       8.80096,       8.31389,       2.88721,   4.84250E-03
C:/temp/dataset/3/15_5.odb,Step-1,Increment      8: Step Time =    1.000,"PART-1-1",           681,  -713.179E-03,       3.09316,            0.,NA,NA,"",       8.19672,       7.59653,       3.07880,   1.53936E-03
C:/temp/dataset/3/15_5.odb,Step-1,Increment      8: Step Time =    1.000,"PART-1-1",           682,      -10.2084,       1.19941,            0.,NA,NA,"",       10.2545,       7.60054,       6.88378,   81.5752E-06
C:/temp/dataset/3/15_5.odb,Step-1,Increment      8: Step Time =    1.000,"PART-1-1",           683,      -7.18333,           -5.,            0.,NA,NA,"",       7.94895,       4.97754,       6.19757,   251.132E-06
C:/temp/dataset/3/15_5.odb,Step-1,Increment      8: Step Time =    1.000,"PART-1-1",           684,      -7.36178,      -2.99006,            0.,NA,NA,"",       8.40197,       5.76612,       6.11104,   354.704E-06
C:/temp/dataset/3/15_5.odb,Step-1,Increment      8: Step Time =    1.000,"PART-1-1",           685,      -11.3125,  -91.5578E-03,            0.,NA,NA,"",       10.3232,       7.18828,       7.40920,   63.8070E-06
C:/temp/dataset/3/15_5.odb,Step-1,Increment      8: Step Time =    1.000,"PART-1-1",           686,      -11.6500,           -5.,            0.,NA,NA,"",       9.54116,       5.32261,       7.91856,   3.52686E-06
C:/temp/dataset/3/15_5.odb,Step-1,Increment      8: Step Time =    1.000,"PART-1-1",           687,      -11.6245,      -2.63993,            0.,NA,NA,"",       9.92536,       6.23020,       7.72642,   32.8932E-06
C:/temp/dataset/3/15_5.odb,Step-1,Increment      8: Step Time =    1.000,"PART-1-1",           688,      -1.03706,       1.18772,            0.,NA,NA,"",       7.66244,       6.89241,       3.34778,   1.45407E-03
C:/temp/dataset/3/15_5.odb,Step-1,Increment      8: Step Time =    1.000,"PART-1-1",           689,      -2.26684,   407.252E-03,            0.,NA,NA,"",       7.73113,       6.68576,       3.88214,   1.66409E-03
C:/temp/dataset/3/15_5.odb,Step-1,Increment      8: Step Time =    1.000,"PART-1-1",           690,      -1.61706,  -775.207E-03,            0.,NA,NA,"",       7.21554,       6.18057,       3.72352,   1.53828E-03
C:/temp/dataset/3/15_5.odb,Step-1,Increment      8: Step Time =    1.000,"PART-1-1",           691,      -4.44627,  -189.662E-03,            0.,NA,NA,"",       8.16088,       6.62199,       4.76962,   1.14536E-03
C:/temp/dataset/3/15_5.odb,Step-1,Increment      8: Step Time =    1.000,"PART-1-1",           692,      -3.83065,   850.686E-03,            0.,NA,NA,"",       8.27450,       6.97535,       4.45105,   1.22601E-03
C:/temp/dataset/3/15_5.odb,Step-1,Increment      8: Step Time =    1.000,"PART-1-1",           693,      -5.38306,   384.196E-03,            0.,NA,NA,"",       8.58391,       6.91471,       5.08629,   798.679E-06
C:/temp/dataset/3/15_5.odb,Step-1,Increment      8: Step Time =    1.000,"PART-1-1",           694,       3.90000,           -5.,            0.,NA,NA,"",       4.46858,       4.06516,       1.85544,   34.2015E-03
C:/temp/dataset/3/15_5.odb,Step-1,Increment      8: Step Time =    1.000,"PART-1-1",           695,       5.25667,      -4.01677,            0.,NA,NA,"",       4.47762,       4.31645,       1.19052,   64.8323E-03
C:/temp/dataset/3/15_5.odb,Step-1,Increment      8: Step Time =    1.000,"PART-1-1",           696,       4.24316,      -3.18705,            0.,NA,NA,"",       5.00455,       4.75015,       1.57533,   34.1455E-03
C:/temp/dataset/3/15_5.odb,Step-1,Increment      8: Step Time =    1.000,"PART-1-1",           697,       9.51721,      -4.82762,            0.,NA,NA,"",       3.68837,       3.67930,  -258.468E-03,   16.2140E-03
C:/temp/dataset/3/15_5.odb,Step-1,Increment      8: Step Time =    1.000,"PART-1-1",           698,       8.04384,      -4.93500,            0.,NA,NA,"",       3.74088,       3.73354,   234.347E-03,   31.9303E-03
C:/temp/dataset/3/15_5.odb,Step-1,Increment      8: Step Time =    1.000,"PART-1-1",           699,       8.61490,      -6.56470,            0.,NA,NA,"",       3.14432,       3.14252,   106.539E-03,   23.0894E-03
C:/temp/dataset/3/15_5.odb,Step-1,Increment      8: Step Time =    1.000,"PART-1-1",           700,       10.0883,      -6.45732,            0.,NA,NA,"",       3.11826,       3.09831,  -352.162E-03,   10.2780E-03
C:/temp/dataset/3/15_5.odb,Step-1,Increment      8: Step Time =    1.000,"PART-1-1",           701,       9.29828,      -8.00429,            0.,NA,NA,"",       2.65206,       2.65157,  -51.1755E-03,   17.2737E-03
C:/temp/dataset/3/15_5.odb,Step-1,Increment      8: Step Time =    1.000,"PART-1-1",           702,       6.27674,      -21.4047,            0.,NA,NA,"",   244.775E-03,   117.013E-03,   214.995E-03,   52.8609E-03
C:/temp/dataset/3/15_5.odb,Step-1,Increment      8: Step Time =    1.000,"PART-1-1",           703,       7.27122,      -20.3583,            0.,NA,NA,"",   262.590E-03,   171.157E-03,   199.145E-03,   39.6470E-03
C:/temp/dataset/3/15_5.odb,Step-1,Increment      8: Step Time =    1.000,"PART-1-1",           704,         -6.25,          -20.,            0.,NA,NA,"",   56.9305E-03,   56.8127E-03,  -3.66030E-03,   533.902E-06
C:/temp/dataset/3/15_5.odb,Step-1,Increment      8: Step Time =    1.000,"PART-1-1",           705,         -1.25,          -30.,            0.,NA,NA,"",            0.,   150.630E-42,   170.692E-42,   14.0262E-03
C:/temp/dataset/3/15_5.odb,Step-1,Increment      8: Step Time =    1.000,"PART-1-1",           706,       8.60683,      -25.8105,            0.,NA,NA,"",   35.0634E-03,  -25.5086E-03,   24.0573E-03,   16.5411E-03
C:/temp/dataset/3/15_5.odb,Step-1,Increment      8: Step Time =    1.000,"PART-1-1",           707,       7.41490,      -26.9159,            0.,NA,NA,"",   38.8070E-03,  -19.7637E-03,   33.3973E-03,   20.1330E-03
C:/temp/dataset/3/15_5.odb,Step-1,Increment      8: Step Time =    1.000,"PART-1-1",           708,       6.17638,      -25.8614,            0.,NA,NA,"",   69.8488E-03,   6.38494E-03,   69.5564E-03,   26.0592E-03
C:/temp/dataset/3/15_5.odb,Step-1,Increment      8: Step Time =    1.000,"PART-1-1",           709,       7.37219,      -25.0876,            0.,NA,NA,"",   67.6850E-03,  -1.80584E-03,   67.6609E-03,   26.5241E-03
C:/temp/dataset/3/15_5.odb,Step-1,Increment      8: Step Time =    1.000,"PART-1-1",           710,       6.30743,      -24.1068,            0.,NA,NA,"",   120.236E-03,   34.2224E-03,   115.263E-03,   32.8700E-03
C:/temp/dataset/3/15_5.odb,Step-1,Increment      8: Step Time =    1.000,"PART-1-1",           711,   113.079E-03,      -23.9373,            0.,NA,NA,"",   90.9959E-03,   79.4339E-03,   44.3903E-03,   17.4265E-03
C:/temp/dataset/3/15_5.odb,Step-1,Increment      8: Step Time =    1.000,"PART-1-1",           712,      -2.43554,      -23.8906,            0.,NA,NA,"",   69.1516E-03,   67.5205E-03,   14.9306E-03,   8.82429E-03
C:/temp/dataset/3/15_5.odb,Step-1,Increment      8: Step Time =    1.000,"PART-1-1",           713,      -8.72529,      -25.0755,            0.,NA,NA,"",   40.4622E-03,   40.4617E-03,  -204.535E-06,   4.25106E-03
C:/temp/dataset/3/15_5.odb,Step-1,Increment      8: Step Time =    1.000,"PART-1-1",           714,      -9.97606,      -23.8175,            0.,NA,NA,"",   44.7769E-03,   44.7768E-03,   112.065E-06,   2.49764E-03
C:/temp/dataset/3/15_5.odb,Step-1,Increment      8: Step Time =    1.000,"PART-1-1",           715,      -9.99641,      -28.7682,            0.,NA,NA,"",   10.7740E-03,   10.7317E-03,   953.414E-06,   5.59596E-03
C:/temp/dataset/3/15_5.odb,Step-1,Increment      8: Step Time =    1.000,"PART-1-1",           716,      -11.2465,      -27.5281,            0.,NA,NA,"",   19.8803E-03,   19.8002E-03,   1.78243E-03,   4.89495E-03
C:/temp/dataset/3/15_5.odb,Step-1,Increment      8: Step Time =    1.000,"PART-1-1",           717,        -11.25,          -30.,            0.,NA,NA,"",            0.,   83.8117E-42,   65.5023E-42,   5.25339E-03
C:/temp/dataset/3/15_5.odb,Step-1,Increment      8: Step Time =    1.000,"PART-1-1",           718,         -8.75,          -30.,            0.,NA,NA,"",            0.,   102.293E-42,   56.6447E-42,   6.74426E-03
C:/temp/dataset/3/15_5.odb,Step-1,Increment      8: Step Time =    1.000,"PART-1-1",           719,      -8.73783,      -27.5479,            0.,NA,NA,"",   22.8503E-03,   22.8283E-03,   1.00295E-03,   5.99225E-03
C:/temp/dataset/3/15_5.odb,Step-1,Increment      8: Step Time =    1.000,"PART-1-1",           720,       9.45286,      -20.3748,            0.,NA,NA,"",   165.128E-03,   164.566E-03,   13.6036E-03,   12.6986E-03
C:/temp/dataset/3/15_5.odb,Step-1,Increment      8: Step Time =    1.000,"PART-1-1",           721,       8.38706,      -19.4374,            0.,NA,NA,"",   282.645E-03,   254.384E-03,   123.193E-03,   23.5921E-03
C:/temp/dataset/3/15_5.odb,Step-1,Increment      8: Step Time =    1.000,"PART-1-1",           722,       8.33702,      -21.2957,            0.,NA,NA,"",   145.846E-03,   104.710E-03,   101.522E-03,   23.8177E-03
C:/temp/dataset/3/15_5.odb,Step-1,Increment      8: Step Time =    1.000,"PART-1-1",           723,       9.34035,      -18.0986,            0.,NA,NA,"",   406.059E-03,   405.121E-03,   27.5934E-03,   12.0588E-03
C:/temp/dataset/3/15_5.odb,Step-1,Increment      8: Step Time =    1.000,"PART-1-1",           724,       10.7511,      -19.4747,            0.,NA,NA,"",   275.524E-03,   244.507E-03,  -127.003E-03,   16.6696E-03
C:/temp/dataset/3/15_5.odb,Step-1,Increment      8: Step Time =    1.000,"PART-1-1",           725,       9.57777,      -9.07511,            0.,NA,NA,"",       2.32526,       2.32325,  -96.6078E-03,   14.3258E-03
C:/temp/dataset/3/15_5.odb,Step-1,Increment      8: Step Time =    1.000,"PART-1-1",           726,       10.3854,      -7.79904,            0.,NA,NA,"",       2.68933,       2.66332,  -373.140E-03,   8.89402E-03
C:/temp/dataset/3/15_5.odb,Step-1,Increment      8: Step Time =    1.000,"PART-1-1",           727,       11.9371,      -7.89361,            0.,NA,NA,"",       2.70457,       2.57708,  -820.588E-03,   27.1466E-03
C:/temp/dataset/3/15_5.odb,Step-1,Increment      8: Step Time =    1.000,"PART-1-1",           728,       11.6400,      -6.55190,            0.,NA,NA,"",       3.11050,       2.99899,  -825.406E-03,   24.2676E-03
C:/temp/dataset/3/15_5.odb,Step-1,Increment      8: Step Time =    1.000,"PART-1-1",           729,       9.29748,       3.92298,            0.,NA,NA,"",       7.13204,       7.09201,  -754.535E-03,   12.6434E-03
C:/temp/dataset/3/15_5.odb,Step-1,Increment      8: Step Time =    1.000,"PART-1-1",           730,       10.7408,       1.93669,            0.,NA,NA,"",       6.26417,       6.15168,      -1.18178,   6.56953E-03
C:/temp/dataset/3/15_5.odb,Step-1,Increment      8: Step Time =    1.000,"PART-1-1",           731,       12.1175,       9.30164,            0.,NA,NA,"",       9.54086,       9.17779,      -2.60697,   22.4047E-03
C:/temp/dataset/3/15_5.odb,Step-1,Increment      8: Step Time =    1.000,"PART-1-1",           732,       12.3743,       7.25826,            0.,NA,NA,"",       8.58185,       8.22334,      -2.45459,   26.7245E-03
C:/temp/dataset/3/15_5.odb,Step-1,Increment      8: Step Time =    1.000,"PART-1-1",           733,       9.86952,       23.8294,            0.,NA,NA,"",       17.9322,       17.4947,      -3.93669,   27.0351E-03
C:/temp/dataset/3/15_5.odb,Step-1,Increment      8: Step Time =    1.000,"PART-1-1",           734,       8.61965,       22.5851,            0.,NA,NA,"",       17.2122,       16.9600,      -2.93571,   25.5753E-03
C:/temp/dataset/3/15_5.odb,Step-1,Increment      8: Step Time =    1.000,"PART-1-1",           735,         11.25,           30.,            0.,NA,NA,"",       21.8983,       21.0415,      -6.06556,   9.58026E-03
C:/temp/dataset/3/15_5.odb,Step-1,Increment      8: Step Time =    1.000,"PART-1-1",           736,       9.97488,       28.7673,            0.,NA,NA,"",       21.1675,       20.5544,      -5.05745,   16.8723E-03
C:/temp/dataset/3/15_5.odb,Step-1,Increment      8: Step Time =    1.000,"PART-1-1",           737,          8.75,           30.,            0.,NA,NA,"",       22.0571,       21.5766,      -4.57887,   23.3709E-03
C:/temp/dataset/3/15_5.odb,Step-1,Increment      8: Step Time =    1.000,"PART-1-1",           738,       3.69885,       25.0915,            0.,NA,NA,"",       19.6278,       19.6225,  -452.856E-03,   12.4593E-03
C:/temp/dataset/3/15_5.odb,Step-1,Increment      8: Step Time =    1.000,"PART-1-1",           739,       4.94207,       26.3392,            0.,NA,NA,"",       20.1861,       20.1295,      -1.51006,   16.7638E-03
C:/temp/dataset/3/15_5.odb,Step-1,Increment      8: Step Time =    1.000,"PART-1-1",           740,         -6.25,           30.,            0.,NA,NA,"",       25.9651,       25.4939,       4.92436,   11.4329E-03
C:/temp/dataset/3/15_5.odb,Step-1,Increment      8: Step Time =    1.000,"PART-1-1",           741,      -11.2519,       25.0060,            0.,NA,NA,"",       25.3694,       23.4689,       9.63421,   5.87491E-03
C:/temp/dataset/3/15_5.odb,Step-1,Increment      8: Step Time =    1.000,"PART-1-1",           742,       11.7111,      -12.1867,            0.,NA,NA,"",       1.54040,       1.45312,  -511.159E-03,   23.6097E-03
C:/temp/dataset/3/15_5.odb,Step-1,Increment      8: Step Time =    1.000,"PART-1-1",           743,       12.0443,      -13.4388,            0.,NA,NA,"",       1.28620,       1.17513,  -522.856E-03,   30.5799E-03
C:/temp/dataset/3/15_5.odb,Step-1,Increment      8: Step Time =    1.000,"PART-1-1",           744,       9.07309,      -22.0228,            0.,NA,NA,"",   74.7690E-03,   63.3480E-03,   39.7170E-03,   19.3368E-03
C:/temp/dataset/3/15_5.odb,Step-1,Increment      8: Step Time =    1.000,"PART-1-1",           745,       9.10959,      -23.2638,            0.,NA,NA,"",   32.4909E-03,   17.1094E-03,   27.6211E-03,   20.5854E-03
C:/temp/dataset/3/15_5.odb,Step-1,Increment      8: Step Time =    1.000,"PART-1-1",           746,       10.5828,      -23.1781,            0.,NA,NA,"",   63.2101E-03,   16.6111E-03,  -60.9885E-03,   22.0556E-03
C:/temp/dataset/3/15_5.odb,Step-1,Increment      8: Step Time =    1.000,"PART-1-1",           747,       10.5463,      -21.9372,            0.,NA,NA,"",   97.7936E-03,   66.6714E-03,  -71.5439E-03,   21.0582E-03
C:/temp/dataset/3/15_5.odb,Step-1,Increment      8: Step Time =    1.000,"PART-1-1",           748,      -1.00841,      -2.00181,            0.,NA,NA,"",       6.69842,       5.65895,       3.58400,   1.44100E-03
C:/temp/dataset/3/15_5.odb,Step-1,Increment      8: Step Time =    1.000,"PART-1-1",           749,      -3.17395,      -1.50818,            0.,NA,NA,"",       7.44286,       6.01615,       4.38202,   1.38340E-03
C:/temp/dataset/3/15_5.odb,Step-1,Increment      8: Step Time =    1.000,"PART-1-1",           750,       8.23699,       8.20647,            0.,NA,NA,"",       9.13910,       9.11464,  -668.239E-03,   30.7952E-03
C:/temp/dataset/3/15_5.odb,Step-1,Increment      8: Step Time =    1.000,"PART-1-1",           751,       8.58975,       6.06422,            0.,NA,NA,"",       8.10871,       8.08407,  -631.753E-03,   17.4735E-03
C:/temp/dataset/3/15_5.odb,Step-1,Increment      8: Step Time =    1.000,"PART-1-1",           752,       1.04870,      -2.29850,            0.,NA,NA,"",       6.06908,       5.38170,       2.80552,   4.15428E-03
C:/temp/dataset/3/15_5.odb,Step-1,Increment      8: Step Time =    1.000,"PART-1-1",           753,      -1.88356,       2.26041,            0.,NA,NA,"",       8.19629,       7.36762,       3.59128,   1.51293E-03
C:/temp/dataset/3/15_5.odb,Step-1,Increment      8: Step Time =    1.000,"PART-1-1",           754,      -2.91638,       1.44829,            0.,NA,NA,"",       8.20537,       7.13511,       4.05195,   1.45435E-03
C:/temp/dataset/3/15_5.odb,Step-1,Increment      8: Step Time =    1.000,"PART-1-1",           755,       3.03453,      -2.52132,            0.,NA,NA,"",       5.51556,       5.12713,       2.03323,   19.0735E-03
C:/temp/dataset/3/15_5.odb,Step-1,Increment      8: Step Time =    1.000,"PART-1-1",           756,       6.99799,      -3.46075,            0.,NA,NA,"",       4.39922,       4.36648,   535.746E-03,   42.4611E-03
C:/temp/dataset/3/15_5.odb,Step-1,Increment      8: Step Time =    1.000,"PART-1-1",           757,       7.63560,  -984.386E-03,            0.,NA,NA,"",       5.28162,       5.27798,   196.301E-03,   35.4962E-03
C:/temp/dataset/3/15_5.odb,Step-1,Increment      8: Step Time =    1.000,"PART-1-1",           758,       6.14771,      -1.67534,            0.,NA,NA,"",       5.20804,       5.14993,   775.803E-03,   44.9175E-03
C:/temp/dataset/3/15_5.odb,Step-1,Increment      8: Step Time =    1.000,"PART-1-1",           759,       4.94795,      -26.8240,            0.,NA,NA,"",   55.1896E-03,   13.3849E-03,   53.5419E-03,   26.7477E-03
C:/temp/dataset/3/15_5.odb,Step-1,Increment      8: Step Time =    1.000,"PART-1-1",           760,      -11.2341,      -25.0541,            0.,NA,NA,"",   37.0577E-03,   36.9788E-03,   2.41648E-03,   2.86625E-03
C:/temp/dataset/3/15_5.odb,Step-1,Increment      8: Step Time =    1.000,"PART-1-1",           761,      -9.98574,      -26.3021,            0.,NA,NA,"",   30.4034E-03,   30.3864E-03,   1.01661E-03,   4.48287E-03
C:/temp/dataset/3/15_5.odb,Step-1,Increment      8: Step Time =    1.000,"PART-1-1",           762,           15.,        -26.25,            0.,NA,NA,"",   145.569E-03,   25.2382E-03,  -143.365E-03,   53.7482E-03
C:/temp/dataset/3/15_5.odb,Step-1,Increment      8: Step Time =    1.000,"PART-1-1",           763,       9.63478,      -24.7731,            0.,NA,NA,"",   20.5254E-03,  -19.8755E-03,  -5.12408E-03,   18.2746E-03
C:/temp/dataset/3/15_5.odb,Step-1,Increment      8: Step Time =    1.000,"PART-1-1",           764,       9.83383,   250.169E-03,            0.,NA,NA,"",       5.60782,       5.56449,  -695.790E-03,   12.8354E-03
C:/temp/dataset/3/15_5.odb,Step-1,Increment      8: Step Time =    1.000,"PART-1-1",           765,       11.1222,       22.5628,            0.,NA,NA,"",       17.0577,       16.4807,      -4.39876,   25.7117E-03
C:/temp/dataset/3/15_5.odb,Step-1,Increment      8: Step Time =    1.000,"PART-1-1",           766,       9.84566,       21.3197,            0.,NA,NA,"",       16.3150,       15.9588,      -3.39076,   22.5972E-03
C:/temp/dataset/3/15_5.odb,Step-1,Increment      8: Step Time =    1.000,"PART-1-1",           767,      -3.18112,  -190.353E-03,            0.,NA,NA,"",       7.80451,       6.52525,       4.28153,   1.49008E-03
C:/temp/dataset/3/15_5.odb,Step-1,Increment      8: Step Time =    1.000,"PART-1-1",           768,       4.54417,       1.21940,            0.,NA,NA,"",       6.57547,       6.45750,       1.24000,   35.2210E-03
C:/temp/dataset/3/15_5.odb,Step-1,Increment      8: Step Time =    1.000,"PART-1-1",           769,       9.22107,       9.51460,            0.,NA,NA,"",       9.70545,       9.62375,      -1.25665,   17.0034E-03
C:/temp/dataset/3/15_5.odb,Step-1,Increment      8: Step Time =    1.000,"PART-1-1",           770,       11.1709,      -3.71800,            0.,NA,NA,"",       4.07368,       3.97653,  -884.309E-03,   18.3888E-03
C:/temp/dataset/3/15_5.odb,Step-1,Increment      8: Step Time =    1.000,"PART-1-1",           771,       11.0221,      -5.16095,            0.,NA,NA,"",       3.55786,       3.48261,  -727.859E-03,   17.4922E-03
C:/temp/dataset/3/15_5.odb,Step-1,Increment      8: Step Time =    1.000,"PART-1-1",           772,       12.3085,      -4.70099,            0.,NA,NA,"",       3.77007,       3.57798,      -1.18807,   31.2146E-03
C:/temp/dataset/3/15_5.odb,Step-1,Increment      8: Step Time =    1.000,"PART-1-1",           773,       5.03877,      -2.41022,            0.,NA,NA,"",       5.12137,       4.97260,       1.22543,   44.8478E-03
C:/temp/dataset/3/15_5.odb,Step-1,Increment      8: Step Time =    1.000,"PART-1-1",           774,       11.0080,       9.74440,            0.,NA,NA,"",       9.75105,       9.51465,      -2.13409,   7.64692E-03
C:/temp/dataset/3/15_5.odb,Step-1,Increment      8: Step Time =    1.000,"PART-1-1",           775,       7.33953,      -23.4839,            0.,NA,NA,"",   111.285E-03,   31.3392E-03,   106.781E-03,   32.1258E-03
C:/temp/dataset/3/15_5.odb,Step-1,Increment      8: Step Time =    1.000,"PART-1-1",           776,       6.60048,      -22.7490,            0.,NA,NA,"",   166.455E-03,   65.6765E-03,   152.951E-03,   40.2352E-03
C:/temp/dataset/3/15_5.odb,Step-1,Increment      8: Step Time =    1.000,"PART-1-1",           777,       5.56839,      -23.3719,            0.,NA,NA,"",   160.118E-03,   64.2589E-03,   146.658E-03,   42.5138E-03
C:/temp/dataset/3/15_5.odb,Step-1,Increment      8: Step Time =    1.000,"PART-1-1",           778,       5.56431,      -22.1833,            0.,NA,NA,"",   216.219E-03,   101.160E-03,   191.096E-03,   50.9813E-03
C:/temp/dataset/3/15_5.odb,Step-1,Increment      8: Step Time =    1.000,"PART-1-1",           779,       7.31291,      -21.9704,            0.,NA,NA,"",   171.641E-03,   80.6659E-03,   151.504E-03,   36.4296E-03
C:/temp/dataset/3/15_5.odb,Step-1,Increment      8: Step Time =    1.000,"PART-1-1",           780,       8.04898,      -22.6975,            0.,NA,NA,"",   104.209E-03,   44.0880E-03,   94.4229E-03,   26.8226E-03
C:/temp/dataset/3/15_5.odb,Step-1,Increment      8: Step Time =    1.000,"PART-1-1",           781,       5.89213,  -472.373E-03,            0.,NA,NA,"",       5.71059,       5.65161,   818.603E-03,   37.8482E-03
C:/temp/dataset/3/15_5.odb,Step-1,Increment      8: Step Time =    1.000,"PART-1-1",           782,       8.40014,      -24.0502,            0.,NA,NA,"",   53.5391E-03,   3.04301E-03,   53.4525E-03,   21.4135E-03
