ODB Name,Step,Frame,Part Instance Name,    êﬂì_ÉâÉxÉã,X,Y,Z,Section Name,Material Name,Section Point,   U-Magnitude,          U-U1,          U-U2,       S-Mises
C:/temp/dataset/3/15_6.odb,Step-1,Increment      8: Step Time =    1.000,"PART-1-1",             1,          -15.,           20.,            0.,NA,NA,"",       31.9914,       28.3871,       14.7519,   6.04039E-03
C:/temp/dataset/3/15_6.odb,Step-1,Increment      8: Step Time =    1.000,"PART-1-1",             2,          -15.,           25.,            0.,NA,NA,"",       34.7940,       32.3906,       12.7073,   3.08449E-03
C:/temp/dataset/3/15_6.odb,Step-1,Increment      8: Step Time =    1.000,"PART-1-1",             3,           -5.,           20.,            0.,NA,NA,"",       25.2165,       24.3302,       6.62677,   19.0062E-03
C:/temp/dataset/3/15_6.odb,Step-1,Increment      8: Step Time =    1.000,"PART-1-1",             4,            5.,           20.,            0.,NA,NA,"",       20.6346,       20.5687,      -1.64823,   115.108E-03
C:/temp/dataset/3/15_6.odb,Step-1,Increment      8: Step Time =    1.000,"PART-1-1",             5,            5.,          12.5,            0.,NA,NA,"",       15.2142,       15.2120,  -257.785E-03,   87.6447E-03
C:/temp/dataset/3/15_6.odb,Step-1,Increment      8: Step Time =    1.000,"PART-1-1",             6,            5.,            5.,            0.,NA,NA,"",       10.3793,       10.3595,   640.938E-03,   111.842E-03
C:/temp/dataset/3/15_6.odb,Step-1,Increment      8: Step Time =    1.000,"PART-1-1",             7,      -1.70000,            5.,            0.,NA,NA,"",       11.7125,       11.1075,       3.71563,   3.67788E-03
C:/temp/dataset/3/15_6.odb,Step-1,Increment      8: Step Time =    1.000,"PART-1-1",             8,      -8.40000,            5.,            0.,NA,NA,"",       13.8559,       11.9674,       6.98337,   125.553E-06
C:/temp/dataset/3/15_6.odb,Step-1,Increment      8: Step Time =    1.000,"PART-1-1",             9,          -15.,            5.,            0.,NA,NA,"",       16.3782,       12.8084,       10.2073,   1.47994E-06
C:/temp/dataset/3/15_6.odb,Step-1,Increment      8: Step Time =    1.000,"PART-1-1",            10,          -15.,            0.,            0.,NA,NA,"",       15.0019,       10.3663,       10.8442,   12.4141E-06
C:/temp/dataset/3/15_6.odb,Step-1,Increment      8: Step Time =    1.000,"PART-1-1",            11,          -15.,           -5.,            0.,NA,NA,"",       13.9503,       7.92437,       11.4811,   1.21045E-06
C:/temp/dataset/3/15_6.odb,Step-1,Increment      8: Step Time =    1.000,"PART-1-1",            12,      -8.30000,           -5.,            0.,NA,NA,"",       10.8348,       7.07114,       8.20928,   121.705E-06
C:/temp/dataset/3/15_6.odb,Step-1,Increment      8: Step Time =    1.000,"PART-1-1",            13,      -1.60000,           -5.,            0.,NA,NA,"",       7.93499,       6.20972,       4.93998,   3.81467E-03
C:/temp/dataset/3/15_6.odb,Step-1,Increment      8: Step Time =    1.000,"PART-1-1",            14,            5.,           -5.,            0.,NA,NA,"",       5.46117,       5.24736,       1.51313,   128.328E-03
C:/temp/dataset/3/15_6.odb,Step-1,Increment      8: Step Time =    1.000,"PART-1-1",            15,            5.,         -12.5,            0.,NA,NA,"",       2.53235,       2.23637,       1.18805,   128.547E-03
C:/temp/dataset/3/15_6.odb,Step-1,Increment      8: Step Time =    1.000,"PART-1-1",            16,            5.,          -20.,            0.,NA,NA,"",   472.967E-03,   275.504E-03,   384.442E-03,   199.037E-03
C:/temp/dataset/3/15_6.odb,Step-1,Increment      8: Step Time =    1.000,"PART-1-1",            17,           -5.,          -20.,            0.,NA,NA,"",   79.1167E-03,   79.0840E-03,  -2.27434E-03,   1.27988E-03
C:/temp/dataset/3/15_6.odb,Step-1,Increment      8: Step Time =    1.000,"PART-1-1",            18,          -15.,          -20.,            0.,NA,NA,"",   80.7757E-03,   78.2235E-03,   20.1443E-03,   49.4726E-06
C:/temp/dataset/3/15_6.odb,Step-1,Increment      8: Step Time =    1.000,"PART-1-1",            19,          -15.,          -25.,            0.,NA,NA,"",   54.3793E-03,   50.1112E-03,   21.1182E-03,   340.894E-06
C:/temp/dataset/3/15_6.odb,Step-1,Increment      8: Step Time =    1.000,"PART-1-1",            20,          -15.,          -30.,            0.,NA,NA,"",            0.,   5.22544E-42,   8.29008E-42,   13.6304E-03
C:/temp/dataset/3/15_6.odb,Step-1,Increment      8: Step Time =    1.000,"PART-1-1",            21,           15.,          -30.,            0.,NA,NA,"",            0.,   18.1020E-42,  -37.9163E-42,   52.0368E-03
C:/temp/dataset/3/15_6.odb,Step-1,Increment      8: Step Time =    1.000,"PART-1-1",            22,           15.,         -22.5,            0.,NA,NA,"",   502.175E-03,   154.450E-03,  -477.833E-03,   98.0077E-03
C:/temp/dataset/3/15_6.odb,Step-1,Increment      8: Step Time =    1.000,"PART-1-1",            23,           15.,          -15.,            0.,NA,NA,"",       1.76079,       1.15505,      -1.32900,   116.966E-03
C:/temp/dataset/3/15_6.odb,Step-1,Increment      8: Step Time =    1.000,"PART-1-1",            24,           15.,          -7.5,            0.,NA,NA,"",       4.11735,       3.33028,      -2.42111,   97.1719E-03
C:/temp/dataset/3/15_6.odb,Step-1,Increment      8: Step Time =    1.000,"PART-1-1",            25,           15.,            0.,            0.,NA,NA,"",       7.44757,       6.45748,      -3.71043,   67.6077E-03
C:/temp/dataset/3/15_6.odb,Step-1,Increment      8: Step Time =    1.000,"PART-1-1",            26,           15.,           7.5,            0.,NA,NA,"",       11.4298,       10.1587,      -5.23830,   75.4069E-03
C:/temp/dataset/3/15_6.odb,Step-1,Increment      8: Step Time =    1.000,"PART-1-1",            27,           15.,           15.,            0.,NA,NA,"",       16.1740,       14.4691,      -7.22806,   71.6761E-03
C:/temp/dataset/3/15_6.odb,Step-1,Increment      8: Step Time =    1.000,"PART-1-1",            28,           15.,          22.5,            0.,NA,NA,"",       21.7106,       19.4358,      -9.67475,   40.2924E-03
C:/temp/dataset/3/15_6.odb,Step-1,Increment      8: Step Time =    1.000,"PART-1-1",            29,           15.,           30.,            0.,NA,NA,"",       27.7352,       24.9142,      -12.1871,   1.35430E-03
C:/temp/dataset/3/15_6.odb,Step-1,Increment      8: Step Time =    1.000,"PART-1-1",            30,           7.5,           30.,            0.,NA,NA,"",       28.1876,       27.3650,      -6.75978,   36.3933E-03
C:/temp/dataset/3/15_6.odb,Step-1,Increment      8: Step Time =    1.000,"PART-1-1",            31,            0.,           30.,            0.,NA,NA,"",       30.2561,       30.2304,      -1.24580,   37.3447E-03
C:/temp/dataset/3/15_6.odb,Step-1,Increment      8: Step Time =    1.000,"PART-1-1",            32,          -7.5,           30.,            0.,NA,NA,"",       33.6547,       33.3333,       4.64002,   9.65560E-03
C:/temp/dataset/3/15_6.odb,Step-1,Increment      8: Step Time =    1.000,"PART-1-1",            33,          -15.,           30.,            0.,NA,NA,"",       37.9431,       36.4104,       10.6751,   250.524E-06
C:/temp/dataset/3/15_6.odb,Step-1,Increment      8: Step Time =    1.000,"PART-1-1",            34,          -15.,          22.5,            0.,NA,NA,"",       33.3452,       30.3887,       13.7270,   5.61877E-03
C:/temp/dataset/3/15_6.odb,Step-1,Increment      8: Step Time =    1.000,"PART-1-1",            35,          -7.5,           20.,            0.,NA,NA,"",       26.7838,       25.3405,       8.67346,   12.7470E-03
C:/temp/dataset/3/15_6.odb,Step-1,Increment      8: Step Time =    1.000,"PART-1-1",            36,          -10.,           20.,            0.,NA,NA,"",       28.4473,       26.3550,       10.7079,   8.11780E-03
C:/temp/dataset/3/15_6.odb,Step-1,Increment      8: Step Time =    1.000,"PART-1-1",            37,         -12.5,           20.,            0.,NA,NA,"",       30.1887,       27.3722,       12.7328,   6.24658E-03
C:/temp/dataset/3/15_6.odb,Step-1,Increment      8: Step Time =    1.000,"PART-1-1",            38,           2.5,           20.,            0.,NA,NA,"",       21.4819,       21.4764,   484.230E-03,   53.6663E-03
C:/temp/dataset/3/15_6.odb,Step-1,Increment      8: Step Time =    1.000,"PART-1-1",            39,            0.,           20.,            0.,NA,NA,"",       22.5402,       22.3982,       2.52570,   33.0091E-03
C:/temp/dataset/3/15_6.odb,Step-1,Increment      8: Step Time =    1.000,"PART-1-1",            40,          -2.5,           20.,            0.,NA,NA,"",       23.7895,       23.3460,       4.57239,   27.2540E-03
C:/temp/dataset/3/15_6.odb,Step-1,Increment      8: Step Time =    1.000,"PART-1-1",            41,            5.,           15.,            0.,NA,NA,"",       16.9574,       16.9432,  -695.541E-03,   83.2790E-03
C:/temp/dataset/3/15_6.odb,Step-1,Increment      8: Step Time =    1.000,"PART-1-1",            42,            5.,          17.5,            0.,NA,NA,"",       18.7620,       18.7241,      -1.19052,   92.0303E-03
C:/temp/dataset/3/15_6.odb,Step-1,Increment      8: Step Time =    1.000,"PART-1-1",            43,            5.,           7.5,            0.,NA,NA,"",       11.9549,       11.9469,   437.768E-03,   98.6210E-03
C:/temp/dataset/3/15_6.odb,Step-1,Increment      8: Step Time =    1.000,"PART-1-1",            44,            5.,           10.,            0.,NA,NA,"",       13.5457,       13.5452,   117.258E-03,   89.9001E-03
C:/temp/dataset/3/15_6.odb,Step-1,Increment      8: Step Time =    1.000,"PART-1-1",            45,   533.333E-03,            5.,            0.,NA,NA,"",       11.1373,       10.8195,       2.64158,   9.60236E-03
C:/temp/dataset/3/15_6.odb,Step-1,Increment      8: Step Time =    1.000,"PART-1-1",            46,       2.76667,            5.,            0.,NA,NA,"",       10.6621,       10.5413,       1.60029,   18.3022E-03
C:/temp/dataset/3/15_6.odb,Step-1,Increment      8: Step Time =    1.000,"PART-1-1",            47,      -6.16667,            5.,            0.,NA,NA,"",       13.0841,       11.6822,       5.89236,   497.400E-06
C:/temp/dataset/3/15_6.odb,Step-1,Increment      8: Step Time =    1.000,"PART-1-1",            48,      -3.93333,            5.,            0.,NA,NA,"",       12.3663,       11.3958,       4.80223,   1.74467E-03
C:/temp/dataset/3/15_6.odb,Step-1,Increment      8: Step Time =    1.000,"PART-1-1",            49,      -12.8000,            5.,            0.,NA,NA,"",       15.5036,       12.5282,       9.13273,   10.1677E-06
C:/temp/dataset/3/15_6.odb,Step-1,Increment      8: Step Time =    1.000,"PART-1-1",            50,      -10.6000,            5.,            0.,NA,NA,"",       14.6609,       12.2479,       8.05811,   8.64097E-06
C:/temp/dataset/3/15_6.odb,Step-1,Increment      8: Step Time =    1.000,"PART-1-1",            51,          -15.,           2.5,            0.,NA,NA,"",       15.6544,       11.5873,       10.5258,   11.4965E-06
C:/temp/dataset/3/15_6.odb,Step-1,Increment      8: Step Time =    1.000,"PART-1-1",            52,          -15.,          -2.5,            0.,NA,NA,"",       14.4306,       9.14531,       11.1627,   11.3815E-06
C:/temp/dataset/3/15_6.odb,Step-1,Increment      8: Step Time =    1.000,"PART-1-1",            53,      -10.5333,           -5.,            0.,NA,NA,"",       11.8570,       7.35554,       9.29971,   6.65931E-06
C:/temp/dataset/3/15_6.odb,Step-1,Increment      8: Step Time =    1.000,"PART-1-1",            54,      -12.7667,           -5.,            0.,NA,NA,"",       12.8968,       7.63993,       10.3904,   9.25348E-06
C:/temp/dataset/3/15_6.odb,Step-1,Increment      8: Step Time =    1.000,"PART-1-1",            55,      -3.83333,           -5.,            0.,NA,NA,"",       8.86638,       6.50023,       6.02991,   1.82785E-03
C:/temp/dataset/3/15_6.odb,Step-1,Increment      8: Step Time =    1.000,"PART-1-1",            56,      -6.06667,           -5.,            0.,NA,NA,"",       9.83570,       6.78647,       7.11933,   504.019E-06
C:/temp/dataset/3/15_6.odb,Step-1,Increment      8: Step Time =    1.000,"PART-1-1",            57,       2.80000,           -5.,            0.,NA,NA,"",       6.23019,       5.58971,       2.75143,   25.4677E-03
C:/temp/dataset/3/15_6.odb,Step-1,Increment      8: Step Time =    1.000,"PART-1-1",            58,   600.000E-03,           -5.,            0.,NA,NA,"",       7.06123,       5.91305,       3.85965,   9.48563E-03
C:/temp/dataset/3/15_6.odb,Step-1,Increment      8: Step Time =    1.000,"PART-1-1",            59,            5.,          -10.,            0.,NA,NA,"",       3.39039,       3.12092,       1.32461,   121.937E-03
C:/temp/dataset/3/15_6.odb,Step-1,Increment      8: Step Time =    1.000,"PART-1-1",            60,            5.,          -7.5,            0.,NA,NA,"",       4.35250,       4.12035,       1.40250,   121.850E-03
C:/temp/dataset/3/15_6.odb,Step-1,Increment      8: Step Time =    1.000,"PART-1-1",            61,            5.,         -17.5,            0.,NA,NA,"",       1.15183,   853.836E-03,   773.091E-03,   145.397E-03
C:/temp/dataset/3/15_6.odb,Step-1,Increment      8: Step Time =    1.000,"PART-1-1",            62,            5.,          -15.,            0.,NA,NA,"",       1.78836,       1.48291,   999.609E-03,   129.947E-03
C:/temp/dataset/3/15_6.odb,Step-1,Increment      8: Step Time =    1.000,"PART-1-1",            63,          -2.5,          -20.,            0.,NA,NA,"",   84.2775E-03,   83.4902E-03,   11.4930E-03,   4.14268E-03
C:/temp/dataset/3/15_6.odb,Step-1,Increment      8: Step Time =    1.000,"PART-1-1",            64,            0.,          -20.,            0.,NA,NA,"",   105.723E-03,   94.1158E-03,   48.1615E-03,   8.24386E-03
C:/temp/dataset/3/15_6.odb,Step-1,Increment      8: Step Time =    1.000,"PART-1-1",            65,           2.5,          -20.,            0.,NA,NA,"",   175.316E-03,   115.857E-03,   131.578E-03,   49.9288E-03
C:/temp/dataset/3/15_6.odb,Step-1,Increment      8: Step Time =    1.000,"PART-1-1",            66,         -12.5,          -20.,            0.,NA,NA,"",   78.2314E-03,   77.7997E-03,   8.20681E-03,   372.047E-06
C:/temp/dataset/3/15_6.odb,Step-1,Increment      8: Step Time =    1.000,"PART-1-1",            67,          -10.,          -20.,            0.,NA,NA,"",   76.9607E-03,   76.9553E-03,  -912.563E-06,   195.640E-06
C:/temp/dataset/3/15_6.odb,Step-1,Increment      8: Step Time =    1.000,"PART-1-1",            68,          -7.5,          -20.,            0.,NA,NA,"",   77.3731E-03,   77.2042E-03,  -5.11053E-03,   573.633E-06
C:/temp/dataset/3/15_6.odb,Step-1,Increment      8: Step Time =    1.000,"PART-1-1",            69,          -15.,         -22.5,            0.,NA,NA,"",   69.0615E-03,   65.9244E-03,   20.5784E-03,   353.799E-06
C:/temp/dataset/3/15_6.odb,Step-1,Increment      8: Step Time =    1.000,"PART-1-1",            70,          -15.,         -27.5,            0.,NA,NA,"",   33.5619E-03,   28.2706E-03,   18.0879E-03,   4.36002E-03
C:/temp/dataset/3/15_6.odb,Step-1,Increment      8: Step Time =    1.000,"PART-1-1",            71,          12.5,          -30.,            0.,NA,NA,"",            0.,   5.27084E-39,  -21.5323E-39,   34.6531E-03
C:/temp/dataset/3/15_6.odb,Step-1,Increment      8: Step Time =    1.000,"PART-1-1",            72,           10.,          -30.,            0.,NA,NA,"",            0.,  -15.7434E-39,  -18.9144E-39,   25.3804E-03
C:/temp/dataset/3/15_6.odb,Step-1,Increment      8: Step Time =    1.000,"PART-1-1",            73,           7.5,          -30.,            0.,NA,NA,"",            0.,  -5.34034E-39,   2.06621E-39,   17.9232E-03
C:/temp/dataset/3/15_6.odb,Step-1,Increment      8: Step Time =    1.000,"PART-1-1",            74,            5.,          -30.,            0.,NA,NA,"",            0.,  -6.68558E-39,   16.7140E-39,   17.5883E-03
C:/temp/dataset/3/15_6.odb,Step-1,Increment      8: Step Time =    1.000,"PART-1-1",            75,           2.5,          -30.,            0.,NA,NA,"",            0.,  -1.49283E-39,   12.0268E-39,   20.3741E-03
C:/temp/dataset/3/15_6.odb,Step-1,Increment      8: Step Time =    1.000,"PART-1-1",            76,            0.,          -30.,            0.,NA,NA,"",            0.,   2.15063E-39,   5.42907E-39,   20.1242E-03
C:/temp/dataset/3/15_6.odb,Step-1,Increment      8: Step Time =    1.000,"PART-1-1",            77,          -2.5,          -30.,            0.,NA,NA,"",            0.,   10.8131E-39,   13.9290E-39,   17.0383E-03
C:/temp/dataset/3/15_6.odb,Step-1,Increment      8: Step Time =    1.000,"PART-1-1",            78,           -5.,          -30.,            0.,NA,NA,"",            0.,   3.95722E-39,  -1.68081E-39,   13.3939E-03
C:/temp/dataset/3/15_6.odb,Step-1,Increment      8: Step Time =    1.000,"PART-1-1",            79,          -7.5,          -30.,            0.,NA,NA,"",            0.,   3.42622E-39,  -2.27826E-39,   10.2174E-03
C:/temp/dataset/3/15_6.odb,Step-1,Increment      8: Step Time =    1.000,"PART-1-1",            80,          -10.,          -30.,            0.,NA,NA,"",            0.,   4.72766E-39,   5.53107E-39,   7.95573E-03
C:/temp/dataset/3/15_6.odb,Step-1,Increment      8: Step Time =    1.000,"PART-1-1",            81,         -12.5,          -30.,            0.,NA,NA,"",            0.,   4.11438E-39,   4.89865E-39,   5.87111E-03
C:/temp/dataset/3/15_6.odb,Step-1,Increment      8: Step Time =    1.000,"PART-1-1",            82,           15.,          -25.,            0.,NA,NA,"",   280.730E-03,   56.1098E-03,  -275.065E-03,   79.7080E-03
C:/temp/dataset/3/15_6.odb,Step-1,Increment      8: Step Time =    1.000,"PART-1-1",            83,           15.,         -27.5,            0.,NA,NA,"",   120.410E-03,   26.7001E-03,  -117.412E-03,   64.0564E-03
C:/temp/dataset/3/15_6.odb,Step-1,Increment      8: Step Time =    1.000,"PART-1-1",            84,           15.,         -17.5,            0.,NA,NA,"",       1.22318,   684.859E-03,      -1.01348,   118.522E-03
C:/temp/dataset/3/15_6.odb,Step-1,Increment      8: Step Time =    1.000,"PART-1-1",            85,           15.,          -20.,            0.,NA,NA,"",   807.100E-03,   354.765E-03,  -724.950E-03,   112.222E-03
C:/temp/dataset/3/15_6.odb,Step-1,Increment      8: Step Time =    1.000,"PART-1-1",            86,           15.,          -10.,            0.,NA,NA,"",       3.20976,       2.48564,      -2.03080,   105.482E-03
C:/temp/dataset/3/15_6.odb,Step-1,Increment      8: Step Time =    1.000,"PART-1-1",            87,           15.,         -12.5,            0.,NA,NA,"",       2.42331,       1.75838,      -1.66749,   111.660E-03
C:/temp/dataset/3/15_6.odb,Step-1,Increment      8: Step Time =    1.000,"PART-1-1",            88,           15.,          -2.5,            0.,NA,NA,"",       6.25526,       5.33466,      -3.26646,   74.5338E-03
C:/temp/dataset/3/15_6.odb,Step-1,Increment      8: Step Time =    1.000,"PART-1-1",            89,           15.,           -5.,            0.,NA,NA,"",       5.13824,       4.28480,      -2.83585,   86.0056E-03
C:/temp/dataset/3/15_6.odb,Step-1,Increment      8: Step Time =    1.000,"PART-1-1",            90,           15.,            5.,            0.,NA,NA,"",       10.0263,       8.86614,      -4.68175,   71.9166E-03
C:/temp/dataset/3/15_6.odb,Step-1,Increment      8: Step Time =    1.000,"PART-1-1",            91,           15.,           2.5,            0.,NA,NA,"",       8.70297,       7.63543,      -4.17634,   67.9994E-03
C:/temp/dataset/3/15_6.odb,Step-1,Increment      8: Step Time =    1.000,"PART-1-1",            92,           15.,          12.5,            0.,NA,NA,"",       14.5045,       12.9604,      -6.51203,   73.8051E-03
C:/temp/dataset/3/15_6.odb,Step-1,Increment      8: Step Time =    1.000,"PART-1-1",            93,           15.,           10.,            0.,NA,NA,"",       12.9224,       11.5230,      -5.84880,   75.3841E-03
C:/temp/dataset/3/15_6.odb,Step-1,Increment      8: Step Time =    1.000,"PART-1-1",            94,           15.,           20.,            0.,NA,NA,"",       19.7793,       17.7041,      -8.81962,   57.1187E-03
C:/temp/dataset/3/15_6.odb,Step-1,Increment      8: Step Time =    1.000,"PART-1-1",            95,           15.,          17.5,            0.,NA,NA,"",       17.9317,       16.0490,      -7.99845,   67.2564E-03
C:/temp/dataset/3/15_6.odb,Step-1,Increment      8: Step Time =    1.000,"PART-1-1",            96,           15.,          27.5,            0.,NA,NA,"",       25.7231,       23.0711,      -11.3755,   3.73143E-03
C:/temp/dataset/3/15_6.odb,Step-1,Increment      8: Step Time =    1.000,"PART-1-1",            97,           15.,           25.,            0.,NA,NA,"",       23.7037,       21.2335,      -10.5358,   19.8911E-03
C:/temp/dataset/3/15_6.odb,Step-1,Increment      8: Step Time =    1.000,"PART-1-1",            98,           10.,           30.,            0.,NA,NA,"",       27.8647,       26.5217,      -8.54635,   19.2310E-03
C:/temp/dataset/3/15_6.odb,Step-1,Increment      8: Step Time =    1.000,"PART-1-1",            99,          12.5,           30.,            0.,NA,NA,"",       27.7217,       25.7160,      -10.3528,   3.71070E-03
C:/temp/dataset/3/15_6.odb,Step-1,Increment      8: Step Time =    1.000,"PART-1-1",           100,           2.5,           30.,            0.,NA,NA,"",       29.3948,       29.2278,      -3.12924,   45.0988E-03
C:/temp/dataset/3/15_6.odb,Step-1,Increment      8: Step Time =    1.000,"PART-1-1",           101,            5.,           30.,            0.,NA,NA,"",       28.6997,       28.2673,      -4.96330,   45.7973E-03
C:/temp/dataset/3/15_6.odb,Step-1,Increment      8: Step Time =    1.000,"PART-1-1",           102,           -5.,           30.,            0.,NA,NA,"",       32.4033,       32.2948,       2.64887,   17.7370E-03
C:/temp/dataset/3/15_6.odb,Step-1,Increment      8: Step Time =    1.000,"PART-1-1",           103,          -2.5,           30.,            0.,NA,NA,"",       31.2648,       31.2573,   683.472E-03,   27.3800E-03
C:/temp/dataset/3/15_6.odb,Step-1,Increment      8: Step Time =    1.000,"PART-1-1",           104,         -12.5,           30.,            0.,NA,NA,"",       36.4360,       35.3917,       8.66097,   461.562E-06
C:/temp/dataset/3/15_6.odb,Step-1,Increment      8: Step Time =    1.000,"PART-1-1",           105,          -10.,           30.,            0.,NA,NA,"",       35.0034,       34.3665,       6.64697,   3.72847E-03
C:/temp/dataset/3/15_6.odb,Step-1,Increment      8: Step Time =    1.000,"PART-1-1",           106,          -15.,          27.5,            0.,NA,NA,"",       36.3305,       34.3978,       11.6918,   463.733E-06
C:/temp/dataset/3/15_6.odb,Step-1,Increment      8: Step Time =    1.000,"PART-1-1",           107,      -12.5013,       25.0052,            0.,NA,NA,"",       33.1499,       31.3790,       10.6898,   5.44607E-03
C:/temp/dataset/3/15_6.odb,Step-1,Increment      8: Step Time =    1.000,"PART-1-1",           108,      -10.0028,       27.5014,            0.,NA,NA,"",       33.2496,       32.3545,       7.66273,   6.85548E-03
C:/temp/dataset/3/15_6.odb,Step-1,Increment      8: Step Time =    1.000,"PART-1-1",           109,      -2.49865,       22.5268,            0.,NA,NA,"",       25.5859,       25.3368,       3.56169,   17.6845E-03
C:/temp/dataset/3/15_6.odb,Step-1,Increment      8: Step Time =    1.000,"PART-1-1",           110,      -2.51000,       27.5279,            0.,NA,NA,"",       29.3278,       29.2816,       1.64587,   18.8106E-03
C:/temp/dataset/3/15_6.odb,Step-1,Increment      8: Step Time =    1.000,"PART-1-1",           111,       12.3864,       22.5464,            0.,NA,NA,"",       21.6909,       20.2478,      -7.77969,   32.4306E-03
C:/temp/dataset/3/15_6.odb,Step-1,Increment      8: Step Time =    1.000,"PART-1-1",           112,       7.35369,       17.5509,            0.,NA,NA,"",       18.3021,       18.0917,      -2.76753,   49.3983E-03
C:/temp/dataset/3/15_6.odb,Step-1,Increment      8: Step Time =    1.000,"PART-1-1",           113,       12.3201,       14.9467,            0.,NA,NA,"",       15.9943,       15.0507,      -5.41229,   27.8105E-03
C:/temp/dataset/3/15_6.odb,Step-1,Increment      8: Step Time =    1.000,"PART-1-1",           114,       13.2599,       7.39194,            0.,NA,NA,"",       11.1873,       10.3707,      -4.19559,   45.8416E-03
C:/temp/dataset/3/15_6.odb,Step-1,Increment      8: Step Time =    1.000,"PART-1-1",           115,       7.60504,      -5.98204,            0.,NA,NA,"",       4.48981,       4.47461,   369.093E-03,   44.2947E-03
C:/temp/dataset/3/15_6.odb,Step-1,Increment      8: Step Time =    1.000,"PART-1-1",           116,       7.71062,      -13.7665,            0.,NA,NA,"",       1.68117,       1.62922,   414.720E-03,   68.1217E-03
C:/temp/dataset/3/15_6.odb,Step-1,Increment      8: Step Time =    1.000,"PART-1-1",           117,       11.7208,      -22.4938,            0.,NA,NA,"",   211.108E-03,   67.6549E-03,  -199.973E-03,   42.7192E-03
C:/temp/dataset/3/15_6.odb,Step-1,Increment      8: Step Time =    1.000,"PART-1-1",           118,       2.59328,       2.74806,            0.,NA,NA,"",       9.67613,       9.48048,       1.93600,   24.6661E-03
C:/temp/dataset/3/15_6.odb,Step-1,Increment      8: Step Time =    1.000,"PART-1-1",           119,      -1.32361,      -2.98462,            0.,NA,NA,"",       8.48663,       7.16652,       4.54575,   2.17259E-03
C:/temp/dataset/3/15_6.odb,Step-1,Increment      8: Step Time =    1.000,"PART-1-1",           120,      -6.00563,       3.11026,            0.,NA,NA,"",       12.3278,       10.7389,       6.05400,   742.847E-06
C:/temp/dataset/3/15_6.odb,Step-1,Increment      8: Step Time =    1.000,"PART-1-1",           121,      -10.4102,       2.53863,            0.,NA,NA,"",       13.7846,       11.0215,       8.27899,   86.8443E-06
C:/temp/dataset/3/15_6.odb,Step-1,Increment      8: Step Time =    1.000,"PART-1-1",           122,      -12.6184,  -43.2983E-03,            0.,NA,NA,"",       13.9523,       10.0418,       9.68659,   21.6383E-06
C:/temp/dataset/3/15_6.odb,Step-1,Increment      8: Step Time =    1.000,"PART-1-1",           123,      -3.88272,       3.23189,            0.,NA,NA,"",       11.6547,       10.5272,       5.00111,   1.47133E-03
C:/temp/dataset/3/15_6.odb,Step-1,Increment      8: Step Time =    1.000,"PART-1-1",           124,       2.98144,      -22.7363,            0.,NA,NA,"",   200.454E-03,   137.595E-03,   145.772E-03,   61.4798E-03
C:/temp/dataset/3/15_6.odb,Step-1,Increment      8: Step Time =    1.000,"PART-1-1",           125,      -2.42987,      -22.6294,            0.,NA,NA,"",   96.7433E-03,   94.9871E-03,   18.3502E-03,   10.2485E-03
C:/temp/dataset/3/15_6.odb,Step-1,Increment      8: Step Time =    1.000,"PART-1-1",           126,      -9.97348,      -22.5672,            0.,NA,NA,"",   67.7726E-03,   67.7722E-03,  -215.459E-06,   2.17472E-03
C:/temp/dataset/3/15_6.odb,Step-1,Increment      8: Step Time =    1.000,"PART-1-1",           127,      -12.4895,      -25.0402,            0.,NA,NA,"",   50.0075E-03,   49.4944E-03,   7.14550E-03,   3.10303E-03
C:/temp/dataset/3/15_6.odb,Step-1,Increment      8: Step Time =    1.000,"PART-1-1",           128,       12.8561,      -14.2595,            0.,NA,NA,"",       1.56548,       1.30656,  -862.338E-03,   58.7269E-03
C:/temp/dataset/3/15_6.odb,Step-1,Increment      8: Step Time =    1.000,"PART-1-1",           129,       12.7281,      -7.33650,            0.,NA,NA,"",       3.82070,       3.49954,      -1.53330,   49.6281E-03
C:/temp/dataset/3/15_6.odb,Step-1,Increment      8: Step Time =    1.000,"PART-1-1",           130,       12.6427,  -96.8002E-03,            0.,NA,NA,"",       7.12425,       6.66377,      -2.51974,   34.9195E-03
C:/temp/dataset/3/15_6.odb,Step-1,Increment      8: Step Time =    1.000,"PART-1-1",           131,       7.13014,       10.3328,            0.,NA,NA,"",       13.3283,       13.2764,      -1.17537,   57.5173E-03
C:/temp/dataset/3/15_6.odb,Step-1,Increment      8: Step Time =    1.000,"PART-1-1",           132,       4.95005,       27.5805,            0.,NA,NA,"",       26.7366,       26.4191,      -4.10861,   24.9404E-03
C:/temp/dataset/3/15_6.odb,Step-1,Increment      8: Step Time =    1.000,"PART-1-1",           133,      -4.99957,       22.5148,            0.,NA,NA,"",       26.9183,       26.3290,       5.60159,   17.0242E-03
C:/temp/dataset/3/15_6.odb,Step-1,Increment      8: Step Time =    1.000,"PART-1-1",           134,      -7.50186,       22.5094,            0.,NA,NA,"",       28.3913,       27.3426,       7.64512,   13.4016E-03
C:/temp/dataset/3/15_6.odb,Step-1,Increment      8: Step Time =    1.000,"PART-1-1",           135,       4.93744,       22.5898,            0.,NA,NA,"",       22.7076,       22.5798,      -2.40575,   28.3338E-03
C:/temp/dataset/3/15_6.odb,Step-1,Increment      8: Step Time =    1.000,"PART-1-1",           136,       2.47758,       22.5593,            0.,NA,NA,"",       23.4614,       23.4569,  -459.082E-03,   34.1013E-03
C:/temp/dataset/3/15_6.odb,Step-1,Increment      8: Step Time =    1.000,"PART-1-1",           137,  -4.46696E-03,       22.5388,            0.,NA,NA,"",       24.4262,       24.3778,       1.53645,   24.0600E-03
C:/temp/dataset/3/15_6.odb,Step-1,Increment      8: Step Time =    1.000,"PART-1-1",           138,       7.20686,       12.6699,            0.,NA,NA,"",       14.8710,       14.7809,      -1.63462,   53.7967E-03
C:/temp/dataset/3/15_6.odb,Step-1,Increment      8: Step Time =    1.000,"PART-1-1",           139,       7.30679,       15.0771,            0.,NA,NA,"",       16.5265,       16.3825,      -2.17760,   52.6080E-03
C:/temp/dataset/3/15_6.odb,Step-1,Increment      8: Step Time =    1.000,"PART-1-1",           140,       7.52839,       5.66323,            0.,NA,NA,"",       10.3933,       10.3695,  -702.865E-03,   34.0957E-03
C:/temp/dataset/3/15_6.odb,Step-1,Increment      8: Step Time =    1.000,"PART-1-1",           141,       7.20823,       7.96221,            0.,NA,NA,"",       11.8143,       11.7839,  -847.470E-03,   58.9980E-03
C:/temp/dataset/3/15_6.odb,Step-1,Increment      8: Step Time =    1.000,"PART-1-1",           142,      -1.77433,       3.17490,            0.,NA,NA,"",       10.9771,       10.2303,       3.97968,   2.27412E-03
C:/temp/dataset/3/15_6.odb,Step-1,Increment      8: Step Time =    1.000,"PART-1-1",           143,   347.975E-03,       3.01142,            0.,NA,NA,"",       10.3226,       9.88603,       2.97014,   4.04319E-03
C:/temp/dataset/3/15_6.odb,Step-1,Increment      8: Step Time =    1.000,"PART-1-1",           144,      -8.17775,       2.85153,            0.,NA,NA,"",       13.0264,       10.8897,       7.14844,   290.475E-06
C:/temp/dataset/3/15_6.odb,Step-1,Increment      8: Step Time =    1.000,"PART-1-1",           145,      -8.45397,      -3.03463,            0.,NA,NA,"",       11.3737,       8.05063,       8.03414,   237.328E-06
C:/temp/dataset/3/15_6.odb,Step-1,Increment      8: Step Time =    1.000,"PART-1-1",           146,      -12.6978,       2.46856,            0.,NA,NA,"",       14.6857,       11.2787,       9.40533,   11.8185E-06
C:/temp/dataset/3/15_6.odb,Step-1,Increment      8: Step Time =    1.000,"PART-1-1",           147,      -10.5225,      -2.72745,            0.,NA,NA,"",       12.3583,       8.46398,       9.00498,   78.1720E-06
C:/temp/dataset/3/15_6.odb,Step-1,Increment      8: Step Time =    1.000,"PART-1-1",           148,      -12.7265,      -2.55241,            0.,NA,NA,"",       13.3849,       8.83015,       10.0590,   11.1376E-06
C:/temp/dataset/3/15_6.odb,Step-1,Increment      8: Step Time =    1.000,"PART-1-1",           149,      -3.80700,      -2.48494,            0.,NA,NA,"",       9.60056,       7.72871,       5.69542,   1.59332E-03
C:/temp/dataset/3/15_6.odb,Step-1,Increment      8: Step Time =    1.000,"PART-1-1",           150,      -6.26959,      -2.94549,            0.,NA,NA,"",       10.4636,       7.81625,       6.95657,   680.753E-06
C:/temp/dataset/3/15_6.odb,Step-1,Increment      8: Step Time =    1.000,"PART-1-1",           151,       2.97297,      -3.34056,            0.,NA,NA,"",       6.86649,       6.41434,       2.45049,   28.8052E-03
C:/temp/dataset/3/15_6.odb,Step-1,Increment      8: Step Time =    1.000,"PART-1-1",           152,   836.982E-03,      -3.21922,            0.,NA,NA,"",       7.62614,       6.77031,       3.51011,   4.61439E-03
C:/temp/dataset/3/15_6.odb,Step-1,Increment      8: Step Time =    1.000,"PART-1-1",           153,       7.27849,      -10.7647,            0.,NA,NA,"",       2.68445,       2.62097,   580.365E-03,   74.8913E-03
C:/temp/dataset/3/15_6.odb,Step-1,Increment      8: Step Time =    1.000,"PART-1-1",           154,       7.20650,      -8.25133,            0.,NA,NA,"",       3.61709,       3.56843,   591.284E-03,   73.8002E-03
C:/temp/dataset/3/15_6.odb,Step-1,Increment      8: Step Time =    1.000,"PART-1-1",           155,       7.07274,      -17.3233,            0.,NA,NA,"",   880.647E-03,   774.231E-03,   419.650E-03,   93.6068E-03
C:/temp/dataset/3/15_6.odb,Step-1,Increment      8: Step Time =    1.000,"PART-1-1",           156,       6.55788,      -15.2577,            0.,NA,NA,"",       1.44015,       1.29560,   628.858E-03,   103.396E-03
C:/temp/dataset/3/15_6.odb,Step-1,Increment      8: Step Time =    1.000,"PART-1-1",           157,      -7.46685,      -22.5818,            0.,NA,NA,"",   72.7668E-03,   72.7032E-03,  -3.04213E-03,   3.76587E-03
C:/temp/dataset/3/15_6.odb,Step-1,Increment      8: Step Time =    1.000,"PART-1-1",           158,      -4.95694,      -22.5955,            0.,NA,NA,"",   81.7532E-03,   81.7399E-03,   1.47503E-03,   6.17032E-03
C:/temp/dataset/3/15_6.odb,Step-1,Increment      8: Step Time =    1.000,"PART-1-1",           159,   146.162E-03,      -22.6598,            0.,NA,NA,"",   134.058E-03,   119.847E-03,   60.0679E-03,   24.1596E-03
C:/temp/dataset/3/15_6.odb,Step-1,Increment      8: Step Time =    1.000,"PART-1-1",           160,      -12.4860,      -22.5306,            0.,NA,NA,"",   66.5147E-03,   66.0221E-03,   8.07958E-03,   648.154E-06
C:/temp/dataset/3/15_6.odb,Step-1,Increment      8: Step Time =    1.000,"PART-1-1",           161,       9.96020,      -27.7814,            0.,NA,NA,"",   47.4067E-03,  -45.0362E-03,  -14.8034E-03,   18.5005E-03
C:/temp/dataset/3/15_6.odb,Step-1,Increment      8: Step Time =    1.000,"PART-1-1",           162,       7.44077,      -27.8946,            0.,NA,NA,"",   35.4033E-03,  -26.0052E-03,   24.0233E-03,   21.7940E-03
C:/temp/dataset/3/15_6.odb,Step-1,Increment      8: Step Time =    1.000,"PART-1-1",           163,       4.93217,      -27.8625,            0.,NA,NA,"",   41.5334E-03,   7.31563E-03,   40.8840E-03,   28.8798E-03
C:/temp/dataset/3/15_6.odb,Step-1,Increment      8: Step Time =    1.000,"PART-1-1",           164,       2.47767,      -27.7470,            0.,NA,NA,"",   51.9403E-03,   35.6551E-03,   37.7692E-03,   26.7054E-03
C:/temp/dataset/3/15_6.odb,Step-1,Increment      8: Step Time =    1.000,"PART-1-1",           165,   19.5837E-03,      -27.6625,            0.,NA,NA,"",   53.8073E-03,   47.9522E-03,   24.4092E-03,   20.5634E-03
C:/temp/dataset/3/15_6.odb,Step-1,Increment      8: Step Time =    1.000,"PART-1-1",           166,      -2.46955,      -27.6154,            0.,NA,NA,"",   48.9367E-03,   47.3455E-03,   12.3775E-03,   15.1651E-03
C:/temp/dataset/3/15_6.odb,Step-1,Increment      8: Step Time =    1.000,"PART-1-1",           167,      -4.97450,      -27.5844,            0.,NA,NA,"",   41.1776E-03,   40.8698E-03,   5.02582E-03,   11.4087E-03
C:/temp/dataset/3/15_6.odb,Step-1,Increment      8: Step Time =    1.000,"PART-1-1",           168,      -7.48283,      -27.5594,            0.,NA,NA,"",   33.8677E-03,   33.8134E-03,   1.91799E-03,   8.94509E-03
C:/temp/dataset/3/15_6.odb,Step-1,Increment      8: Step Time =    1.000,"PART-1-1",           169,       12.2865,      -25.1793,            0.,NA,NA,"",   151.055E-03,  -18.1827E-03,  -149.957E-03,   46.3574E-03
C:/temp/dataset/3/15_6.odb,Step-1,Increment      8: Step Time =    1.000,"PART-1-1",           170,       11.6753,      -16.4340,            0.,NA,NA,"",   940.612E-03,   829.188E-03,  -444.071E-03,   32.2451E-03
C:/temp/dataset/3/15_6.odb,Step-1,Increment      8: Step Time =    1.000,"PART-1-1",           171,       11.9685,      -19.5802,            0.,NA,NA,"",   470.310E-03,   321.524E-03,  -343.240E-03,   44.2382E-03
C:/temp/dataset/3/15_6.odb,Step-1,Increment      8: Step Time =    1.000,"PART-1-1",           172,       13.3291,      -9.93034,            0.,NA,NA,"",       2.92846,       2.54781,      -1.44380,   65.1749E-03
C:/temp/dataset/3/15_6.odb,Step-1,Increment      8: Step Time =    1.000,"PART-1-1",           173,       13.4212,      -12.1607,            0.,NA,NA,"",       2.22471,       1.85862,      -1.22265,   70.8162E-03
C:/temp/dataset/3/15_6.odb,Step-1,Increment      8: Step Time =    1.000,"PART-1-1",           174,       12.9633,      -2.52247,            0.,NA,NA,"",       5.96617,       5.50461,      -2.30096,   44.5769E-03
C:/temp/dataset/3/15_6.odb,Step-1,Increment      8: Step Time =    1.000,"PART-1-1",           175,       13.1247,      -4.84738,            0.,NA,NA,"",       4.91385,       4.47487,      -2.03015,   53.2723E-03
C:/temp/dataset/3/15_6.odb,Step-1,Increment      8: Step Time =    1.000,"PART-1-1",           176,       13.1131,       5.12757,            0.,NA,NA,"",       9.89156,       9.19033,      -3.65796,   43.3885E-03
C:/temp/dataset/3/15_6.odb,Step-1,Increment      8: Step Time =    1.000,"PART-1-1",           177,       12.1418,       2.60140,            0.,NA,NA,"",       8.48032,       8.04162,      -2.69224,   26.9006E-03
C:/temp/dataset/3/15_6.odb,Step-1,Increment      8: Step Time =    1.000,"PART-1-1",           178,       12.1760,       12.1629,            0.,NA,NA,"",       14.1092,       13.3337,      -4.61340,   26.3125E-03
C:/temp/dataset/3/15_6.odb,Step-1,Increment      8: Step Time =    1.000,"PART-1-1",           179,       13.0236,       9.64002,            0.,NA,NA,"",       12.5240,       11.6690,      -4.54814,   41.5061E-03
C:/temp/dataset/3/15_6.odb,Step-1,Increment      8: Step Time =    1.000,"PART-1-1",           180,       12.3784,       20.0377,            0.,NA,NA,"",       19.7220,       18.4579,      -6.94717,   31.7837E-03
C:/temp/dataset/3/15_6.odb,Step-1,Increment      8: Step Time =    1.000,"PART-1-1",           181,       12.3660,       17.5135,            0.,NA,NA,"",       17.8271,       16.7278,      -6.16327,   29.1186E-03
C:/temp/dataset/3/15_6.odb,Step-1,Increment      8: Step Time =    1.000,"PART-1-1",           182,       12.4264,       25.0333,            0.,NA,NA,"",       23.6987,       22.0617,      -8.65498,   28.2152E-03
C:/temp/dataset/3/15_6.odb,Step-1,Increment      8: Step Time =    1.000,"PART-1-1",           183,       7.43491,       27.5684,            0.,NA,NA,"",       26.2227,       25.5460,      -5.91871,   27.0438E-03
C:/temp/dataset/3/15_6.odb,Step-1,Increment      8: Step Time =    1.000,"PART-1-1",           184,  -17.4965E-03,       27.5503,            0.,NA,NA,"",       28.2938,       28.2920,  -320.630E-03,   21.6929E-03
C:/temp/dataset/3/15_6.odb,Step-1,Increment      8: Step Time =    1.000,"PART-1-1",           185,       2.47067,       27.5656,            0.,NA,NA,"",       27.4219,       27.3300,      -2.24296,   23.2246E-03
C:/temp/dataset/3/15_6.odb,Step-1,Increment      8: Step Time =    1.000,"PART-1-1",           186,      -7.50286,       27.5043,            0.,NA,NA,"",       31.8283,       31.3234,       5.64670,   10.8753E-03
C:/temp/dataset/3/15_6.odb,Step-1,Increment      8: Step Time =    1.000,"PART-1-1",           187,      -5.00635,       27.5119,            0.,NA,NA,"",       30.5136,       30.2957,       3.63956,   14.9435E-03
C:/temp/dataset/3/15_6.odb,Step-1,Increment      8: Step Time =    1.000,"PART-1-1",           188,      -12.5019,       27.5019,            0.,NA,NA,"",       34.7562,       33.3815,       9.67843,   3.23803E-03
C:/temp/dataset/3/15_6.odb,Step-1,Increment      8: Step Time =    1.000,"PART-1-1",           189,      -12.5001,       22.5034,            0.,NA,NA,"",       31.6233,       29.3767,       11.7064,   6.20539E-03
C:/temp/dataset/3/15_6.odb,Step-1,Increment      8: Step Time =    1.000,"PART-1-1",           190,      -5.00429,       25.0191,            0.,NA,NA,"",       28.6865,       28.3129,       4.61462,   15.4949E-03
C:/temp/dataset/3/15_6.odb,Step-1,Increment      8: Step Time =    1.000,"PART-1-1",           191,  -15.9173E-03,       25.0642,            0.,NA,NA,"",       26.3518,       26.3450,   596.840E-03,   15.6589E-03
C:/temp/dataset/3/15_6.odb,Step-1,Increment      8: Step Time =    1.000,"PART-1-1",           192,       9.74355,       15.0604,            0.,NA,NA,"",       16.1880,       15.7480,      -3.74842,   12.9796E-03
C:/temp/dataset/3/15_6.odb,Step-1,Increment      8: Step Time =    1.000,"PART-1-1",           193,       9.51986,       12.6989,            0.,NA,NA,"",       14.5817,       14.2547,      -3.07062,   17.9675E-03
C:/temp/dataset/3/15_6.odb,Step-1,Increment      8: Step Time =    1.000,"PART-1-1",           194,       12.1898,      -11.7554,            0.,NA,NA,"",       2.19403,       2.00704,  -886.318E-03,   40.9530E-03
C:/temp/dataset/3/15_6.odb,Step-1,Increment      8: Step Time =    1.000,"PART-1-1",           195,       9.78251,      -13.4248,            0.,NA,NA,"",       1.61620,       1.61213,  -114.664E-03,   20.8457E-03
C:/temp/dataset/3/15_6.odb,Step-1,Increment      8: Step Time =    1.000,"PART-1-1",           196,       7.24032,      -19.5057,            0.,NA,NA,"",   456.486E-03,   355.556E-03,   286.286E-03,   53.2957E-03
C:/temp/dataset/3/15_6.odb,Step-1,Increment      8: Step Time =    1.000,"PART-1-1",           197,      -10.0066,  -139.817E-03,            0.,NA,NA,"",       12.8182,       9.66205,       8.42320,   144.576E-06
C:/temp/dataset/3/15_6.odb,Step-1,Increment      8: Step Time =    1.000,"PART-1-1",           198,      -8.39380,      -1.43672,            0.,NA,NA,"",       11.7775,       8.82349,       7.80093,   297.464E-06
C:/temp/dataset/3/15_6.odb,Step-1,Increment      8: Step Time =    1.000,"PART-1-1",           199,      -5.07121,  -530.035E-03,            0.,NA,NA,"",       10.7226,       8.84461,       6.06191,   1.19852E-03
C:/temp/dataset/3/15_6.odb,Step-1,Increment      8: Step Time =    1.000,"PART-1-1",           200,      -12.5003,      -27.5198,            0.,NA,NA,"",   26.8655E-03,   26.3828E-03,   5.06967E-03,   6.73703E-03
C:/temp/dataset/3/15_6.odb,Step-1,Increment      8: Step Time =    1.000,"PART-1-1",           201,       8.97180,      -8.86122,            0.,NA,NA,"",       3.17243,       3.17240,  -13.7060E-03,   31.1623E-03
C:/temp/dataset/3/15_6.odb,Step-1,Increment      8: Step Time =    1.000,"PART-1-1",           202,      -2.50561,       25.0360,            0.,NA,NA,"",       27.4345,       27.3115,       2.59547,   16.5529E-03
C:/temp/dataset/3/15_6.odb,Step-1,Increment      8: Step Time =    1.000,"PART-1-1",           203,      -7.50383,       25.0106,            0.,NA,NA,"",       30.0750,       29.3324,       6.64165,   12.6428E-03
C:/temp/dataset/3/15_6.odb,Step-1,Increment      8: Step Time =    1.000,"PART-1-1",           204,       2.46362,       25.0850,            0.,NA,NA,"",       25.4426,       25.4063,      -1.35842,   16.9648E-03
C:/temp/dataset/3/15_6.odb,Step-1,Increment      8: Step Time =    1.000,"PART-1-1",           205,       9.17638,       10.5785,            0.,NA,NA,"",       13.2132,       12.9879,      -2.42990,   22.6718E-03
C:/temp/dataset/3/15_6.odb,Step-1,Increment      8: Step Time =    1.000,"PART-1-1",           206,       9.65111,       6.46520,            0.,NA,NA,"",       10.6436,       10.4592,      -1.97294,   8.80022E-03
C:/temp/dataset/3/15_6.odb,Step-1,Increment      8: Step Time =    1.000,"PART-1-1",           207,      -1.99278,       1.34592,            0.,NA,NA,"",       10.3169,       9.37042,       4.31673,   2.25473E-03
C:/temp/dataset/3/15_6.odb,Step-1,Increment      8: Step Time =    1.000,"PART-1-1",           208,      -5.69490,       1.29843,            0.,NA,NA,"",       11.5742,       9.81576,       6.13285,   953.709E-06
C:/temp/dataset/3/15_6.odb,Step-1,Increment      8: Step Time =    1.000,"PART-1-1",           209,       1.92780,   665.778E-03,            0.,NA,NA,"",       8.90149,       8.54395,       2.49748,   13.0671E-03
C:/temp/dataset/3/15_6.odb,Step-1,Increment      8: Step Time =    1.000,"PART-1-1",           210,       1.26043,      -1.37778,            0.,NA,NA,"",       8.21586,       7.62246,       3.06567,   7.05972E-03
C:/temp/dataset/3/15_6.odb,Step-1,Increment      8: Step Time =    1.000,"PART-1-1",           211,       9.14691,      -16.8280,            0.,NA,NA,"",   795.143E-03,   792.904E-03,   59.6319E-03,   29.6947E-03
C:/temp/dataset/3/15_6.odb,Step-1,Increment      8: Step Time =    1.000,"PART-1-1",           212,   79.9954E-03,      -25.2148,            0.,NA,NA,"",   101.978E-03,   89.1473E-03,   49.5208E-03,   22.7318E-03
C:/temp/dataset/3/15_6.odb,Step-1,Increment      8: Step Time =    1.000,"PART-1-1",           213,      -9.97865,      -25.0679,            0.,NA,NA,"",   51.9981E-03,   51.9870E-03,   1.07285E-03,   4.79554E-03
C:/temp/dataset/3/15_6.odb,Step-1,Increment      8: Step Time =    1.000,"PART-1-1",           214,       12.4671,      -27.6040,            0.,NA,NA,"",   77.8308E-03,  -27.9385E-03,  -72.6434E-03,   43.7673E-03
C:/temp/dataset/3/15_6.odb,Step-1,Increment      8: Step Time =    1.000,"PART-1-1",           215,       9.82463,      -25.6838,            0.,NA,NA,"",   43.0537E-03,  -38.8009E-03,  -18.6576E-03,   21.9532E-03
C:/temp/dataset/3/15_6.odb,Step-1,Increment      8: Step Time =    1.000,"PART-1-1",           216,       2.56344,      -25.3828,            0.,NA,NA,"",   120.088E-03,   80.5663E-03,   89.0519E-03,   35.4014E-03
C:/temp/dataset/3/15_6.odb,Step-1,Increment      8: Step Time =    1.000,"PART-1-1",           217,      -2.44121,      -25.1518,            0.,NA,NA,"",   82.9514E-03,   80.5910E-03,   19.6476E-03,   14.4576E-03
C:/temp/dataset/3/15_6.odb,Step-1,Increment      8: Step Time =    1.000,"PART-1-1",           218,      -4.95889,      -25.1139,            0.,NA,NA,"",   69.0338E-03,   68.8406E-03,   5.16092E-03,   9.40070E-03
C:/temp/dataset/3/15_6.odb,Step-1,Increment      8: Step Time =    1.000,"PART-1-1",           219,       10.3279,  -771.646E-03,            0.,NA,NA,"",       6.74607,       6.61641,      -1.31624,   14.6693E-03
C:/temp/dataset/3/15_6.odb,Step-1,Increment      8: Step Time =    1.000,"PART-1-1",           220,       10.4049,       4.48083,            0.,NA,NA,"",       9.48735,       9.25893,      -2.06927,   5.99517E-03
C:/temp/dataset/3/15_6.odb,Step-1,Increment      8: Step Time =    1.000,"PART-1-1",           221,       9.80969,       17.5478,            0.,NA,NA,"",       17.9696,       17.4166,      -4.42370,   8.46984E-03
C:/temp/dataset/3/15_6.odb,Step-1,Increment      8: Step Time =    1.000,"PART-1-1",           222,       9.88106,       25.0797,            0.,NA,NA,"",       23.8739,       22.8730,      -6.83992,   32.6320E-03
C:/temp/dataset/3/15_6.odb,Step-1,Increment      8: Step Time =    1.000,"PART-1-1",           223,       9.94975,       27.5346,            0.,NA,NA,"",       25.8773,       24.7005,      -7.71479,   26.4095E-03
C:/temp/dataset/3/15_6.odb,Step-1,Increment      8: Step Time =    1.000,"PART-1-1",           224,       7.36779,       20.0596,            0.,NA,NA,"",       20.1726,       19.8808,      -3.41901,   27.9168E-03
C:/temp/dataset/3/15_6.odb,Step-1,Increment      8: Step Time =    1.000,"PART-1-1",           225,  -693.206E-03,      -1.01900,            0.,NA,NA,"",       8.98288,       8.05192,       3.98229,   2.46034E-03
C:/temp/dataset/3/15_6.odb,Step-1,Increment      8: Step Time =    1.000,"PART-1-1",           226,      -7.47194,      -25.0831,            0.,NA,NA,"",   58.7284E-03,   58.7282E-03,   146.199E-06,   6.79736E-03
C:/temp/dataset/3/15_6.odb,Step-1,Increment      8: Step Time =    1.000,"PART-1-1",           227,       5.28089,       2.25097,            0.,NA,NA,"",       8.92008,       8.88801,   755.661E-03,   57.0274E-03
C:/temp/dataset/3/15_6.odb,Step-1,Increment      8: Step Time =    1.000,"PART-1-1",           228,       9.26575,       8.45073,            0.,NA,NA,"",       11.8605,       11.6746,      -2.09160,   18.3581E-03
C:/temp/dataset/3/15_6.odb,Step-1,Increment      8: Step Time =    1.000,"PART-1-1",           229,  -81.3472E-03,       1.02952,            0.,NA,NA,"",       9.60785,       8.97670,       3.42484,   2.70392E-03
C:/temp/dataset/3/15_6.odb,Step-1,Increment      8: Step Time =    1.000,"PART-1-1",           230,      -7.67687,   831.326E-03,            0.,NA,NA,"",       12.1698,       9.83979,       7.16120,   439.903E-06
C:/temp/dataset/3/15_6.odb,Step-1,Increment      8: Step Time =    1.000,"PART-1-1",           231,      -2.54090,  -531.417E-03,            0.,NA,NA,"",       9.79514,       8.52449,       4.82470,   2.14864E-03
C:/temp/dataset/3/15_6.odb,Step-1,Increment      8: Step Time =    1.000,"PART-1-1",           232,      -3.83997,       1.55066,            0.,NA,NA,"",       11.0059,       9.70342,       5.19365,   1.55537E-03
C:/temp/dataset/3/15_6.odb,Step-1,Increment      8: Step Time =    1.000,"PART-1-1",           233,      -6.84494,  -996.203E-03,            0.,NA,NA,"",       11.2700,       8.84185,       6.98821,   651.739E-06
C:/temp/dataset/3/15_6.odb,Step-1,Increment      8: Step Time =    1.000,"PART-1-1",           234,       5.51335,      -3.03354,            0.,NA,NA,"",       6.26414,       6.16383,       1.11654,   68.4756E-03
C:/temp/dataset/3/15_6.odb,Step-1,Increment      8: Step Time =    1.000,"PART-1-1",           235,       9.62476,      -7.14735,            0.,NA,NA,"",       3.80656,       3.79007,  -353.848E-03,   17.9963E-03
C:/temp/dataset/3/15_6.odb,Step-1,Increment      8: Step Time =    1.000,"PART-1-1",           236,       7.38903,      -25.9371,            0.,NA,NA,"",   64.9474E-03,  -13.2352E-03,   63.5846E-03,   29.9879E-03
C:/temp/dataset/3/15_6.odb,Step-1,Increment      8: Step Time =    1.000,"PART-1-1",           237,       4.96373,      -25.7856,            0.,NA,NA,"",   107.233E-03,   36.9345E-03,   100.671E-03,   40.1641E-03
C:/temp/dataset/3/15_6.odb,Step-1,Increment      8: Step Time =    1.000,"PART-1-1",           238,       9.37191,      -21.3805,            0.,NA,NA,"",   136.907E-03,   135.235E-03,   21.3308E-03,   20.4489E-03
C:/temp/dataset/3/15_6.odb,Step-1,Increment      8: Step Time =    1.000,"PART-1-1",           239,       9.53380,      -19.3691,            0.,NA,NA,"",   346.119E-03,   346.115E-03,  -1.68055E-03,   10.7759E-03
C:/temp/dataset/3/15_6.odb,Step-1,Increment      8: Step Time =    1.000,"PART-1-1",           240,       10.5518,      -5.76730,            0.,NA,NA,"",       4.36807,       4.28620,  -841.764E-03,   16.9656E-03
C:/temp/dataset/3/15_6.odb,Step-1,Increment      8: Step Time =    1.000,"PART-1-1",           241,       10.8494,      -2.88140,            0.,NA,NA,"",       5.69767,       5.54859,      -1.29480,   20.2280E-03
C:/temp/dataset/3/15_6.odb,Step-1,Increment      8: Step Time =    1.000,"PART-1-1",           242,       9.33979,       1.27198,            0.,NA,NA,"",       7.84379,       7.76789,      -1.08854,   21.9856E-03
C:/temp/dataset/3/15_6.odb,Step-1,Increment      8: Step Time =    1.000,"PART-1-1",           243,       9.83335,       20.0603,            0.,NA,NA,"",       19.8593,       19.1767,      -5.16198,   21.5469E-03
C:/temp/dataset/3/15_6.odb,Step-1,Increment      8: Step Time =    1.000,"PART-1-1",           244,       7.39102,       25.1069,            0.,NA,NA,"",       24.2140,       23.6798,      -5.05798,   28.1004E-03
C:/temp/dataset/3/15_6.odb,Step-1,Increment      8: Step Time =    1.000,"PART-1-1",           245,       4.93408,       25.0979,            0.,NA,NA,"",       24.7247,       24.5105,      -3.24771,   17.2143E-03
C:/temp/dataset/3/15_6.odb,Step-1,Increment      8: Step Time =    1.000,"PART-1-1",           246,      -10.0026,       25.0068,            0.,NA,NA,"",       31.5701,       30.3569,       8.66779,   8.85972E-03
C:/temp/dataset/3/15_6.odb,Step-1,Increment      8: Step Time =    1.000,"PART-1-1",           247,      -10.0008,       22.5051,            0.,NA,NA,"",       29.9655,       28.3589,       9.67996,   9.24820E-03
C:/temp/dataset/3/15_6.odb,Step-1,Increment      8: Step Time =    1.000,"PART-1-1",           248,      -9.99283,      -27.5363,            0.,NA,NA,"",   28.4079E-03,   28.3602E-03,   1.64558E-03,   7.40836E-03
C:/temp/dataset/3/15_6.odb,Step-1,Increment      8: Step Time =    1.000,"PART-1-1",           249,       3.80746,   187.829E-03,            0.,NA,NA,"",       8.21628,       8.04864,       1.65125,   34.5565E-03
C:/temp/dataset/3/15_6.odb,Step-1,Increment      8: Step Time =    1.000,"PART-1-1",           250,       11.4886,       7.12458,            0.,NA,NA,"",       10.9697,       10.5161,      -3.12185,   19.1389E-03
C:/temp/dataset/3/15_6.odb,Step-1,Increment      8: Step Time =    1.000,"PART-1-1",           251,       5.25951,      -23.9756,            0.,NA,NA,"",   181.099E-03,   78.3766E-03,   163.261E-03,   52.6817E-03
C:/temp/dataset/3/15_6.odb,Step-1,Increment      8: Step Time =    1.000,"PART-1-1",           252,       9.85798,       22.5791,            0.,NA,NA,"",       21.8432,       21.0076,      -5.98378,   32.3622E-03
C:/temp/dataset/3/15_6.odb,Step-1,Increment      8: Step Time =    1.000,"PART-1-1",           253,       7.38133,       22.5911,            0.,NA,NA,"",       22.1664,       21.7621,      -4.21440,   32.2541E-03
C:/temp/dataset/3/15_6.odb,Step-1,Increment      8: Step Time =    1.000,"PART-1-1",           254,       9.03817,      -10.9527,            0.,NA,NA,"",       2.42146,       2.42119,   35.8143E-03,   35.1757E-03
C:/temp/dataset/3/15_6.odb,Step-1,Increment      8: Step Time =    1.000,"PART-1-1",           255,       7.30212,      -21.2110,            0.,NA,NA,"",   276.880E-03,   165.496E-03,   221.976E-03,   46.3527E-03
C:/temp/dataset/3/15_6.odb,Step-1,Increment      8: Step Time =    1.000,"PART-1-1",           256,       8.48263,      -3.88795,            0.,NA,NA,"",       5.33700,       5.33464,  -158.436E-03,   36.8358E-03
C:/temp/dataset/3/15_6.odb,Step-1,Increment      8: Step Time =    1.000,"PART-1-1",           257,       8.48912,      -1.65164,            0.,NA,NA,"",       6.43266,       6.42195,  -371.119E-03,   37.8669E-03
C:/temp/dataset/3/15_6.odb,Step-1,Increment      8: Step Time =    1.000,"PART-1-1",           258,       8.19007,       3.36514,            0.,NA,NA,"",       9.05472,       9.02280,  -759.610E-03,   34.0623E-03
C:/temp/dataset/3/15_6.odb,Step-1,Increment      8: Step Time =    1.000,"PART-1-1",           259,       6.78208,  -317.133E-03,            0.,NA,NA,"",       7.34863,       7.34280,   292.675E-03,   50.0406E-03
C:/temp/dataset/3/15_6.odb,Step-1,Increment      8: Step Time =    1.000,"PART-1-1",           260,       11.8604,      -10.2109,            0.,NA,NA,"",       2.67249,       2.51153,  -913.464E-03,   33.0554E-03
C:/temp/dataset/3/15_6.odb,Step-1,Increment      8: Step Time =    1.000,"PART-1-1",           261,       5.00218,  -627.613E-03,            0.,NA,NA,"",       7.54671,       7.45709,       1.15960,   47.9782E-03
C:/temp/dataset/3/15_6.odb,Step-1,Increment      8: Step Time =    1.000,"PART-1-1",           262,       11.1460,      -8.45072,            0.,NA,NA,"",       3.27637,       3.17261,  -818.012E-03,   20.2215E-03
C:/temp/dataset/3/15_6.odb,Step-1,Increment      8: Step Time =    1.000,"PART-1-1",           263,       11.7180,       5.54683,            0.,NA,NA,"",       10.0667,       9.62099,      -2.96224,   22.6165E-03
C:/temp/dataset/3/15_6.odb,Step-1,Increment      8: Step Time =    1.000,"PART-1-1",           264,       5.25136,      -21.5985,            0.,NA,NA,"",   327.963E-03,   175.238E-03,   277.221E-03,   81.3446E-03
C:/temp/dataset/3/15_6.odb,Step-1,Increment      8: Step Time =    1.000,"PART-1-1",           265,       12.4723,       27.5096,            0.,NA,NA,"",       25.7145,       23.8857,      -9.52434,   17.1320E-03
C:/temp/dataset/3/15_6.odb,Step-1,Increment      8: Step Time =    1.000,"PART-1-1",           266,       5.87727,      -22.7682,            0.,NA,NA,"",   240.090E-03,   111.767E-03,   212.488E-03,   57.8638E-03
C:/temp/dataset/3/15_6.odb,Step-1,Increment      8: Step Time =    1.000,"PART-1-1",           267,       7.32369,      -22.7299,            0.,NA,NA,"",   180.521E-03,   78.0917E-03,   162.756E-03,   44.6399E-03
C:/temp/dataset/3/15_6.odb,Step-1,Increment      8: Step Time =    1.000,"PART-1-1",           268,       11.4923,      -4.55460,            0.,NA,NA,"",       4.92523,       4.73106,      -1.36931,   28.3975E-03
C:/temp/dataset/3/15_6.odb,Step-1,Increment      8: Step Time =    1.000,"PART-1-1",           269,       11.2115,       8.96325,            0.,NA,NA,"",       12.0765,       11.6112,      -3.31989,   12.8437E-03
C:/temp/dataset/3/15_6.odb,Step-1,Increment      8: Step Time =    1.000,"PART-1-1",           270,       10.8046,       10.5255,            0.,NA,NA,"",       13.0682,       12.6187,      -3.39800,   6.24654E-03
C:/temp/dataset/3/15_6.odb,Step-1,Increment      8: Step Time =    1.000,"PART-1-1",           271,       7.35536,      -24.2380,            0.,NA,NA,"",   112.069E-03,   23.0223E-03,   109.679E-03,   37.4425E-03
C:/temp/dataset/3/15_6.odb,Step-1,Increment      8: Step Time =    1.000,"PART-1-1",           272,      -3.82134,   150.711E-03,            0.,NA,NA,"",       10.4932,       9.01889,       5.36352,   1.69133E-03
C:/temp/dataset/3/15_6.odb,Step-1,Increment      8: Step Time =    1.000,"PART-1-1",           273,       3.09609,      -1.70207,            0.,NA,NA,"",       7.53353,       7.20774,       2.19149,   27.6935E-03
C:/temp/dataset/3/15_6.odb,Step-1,Increment      8: Step Time =    1.000,"PART-1-1",           274,       4.56419,      -1.78689,            0.,NA,NA,"",       7.09670,       6.94193,       1.47404,   46.2437E-03
C:/temp/dataset/3/15_6.odb,Step-1,Increment      8: Step Time =    1.000,"PART-1-1",           275,       9.44492,      -23.8624,            0.,NA,NA,"",   6.08266E-03,   4.23858E-03,   4.36271E-03,   24.7045E-03
C:/temp/dataset/3/15_6.odb,Step-1,Increment      8: Step Time =    1.000,"PART-1-1",           276,       8.77427,      -22.6651,            0.,NA,NA,"",   87.8812E-03,   59.3952E-03,   64.7713E-03,   28.0046E-03
C:/temp/dataset/3/15_6.odb,Step-1,Increment      8: Step Time =    1.000,"PART-1-1",           277,       10.1837,      -9.28900,            0.,NA,NA,"",       2.95556,       2.92639,  -414.217E-03,   11.7822E-03
C:/temp/dataset/3/15_6.odb,Step-1,Increment      8: Step Time =    1.000,"PART-1-1",           278,       10.4979,      -10.7612,            0.,NA,NA,"",       2.43416,       2.39588,  -429.960E-03,   10.4173E-03
C:/temp/dataset/3/15_6.odb,Step-1,Increment      8: Step Time =    1.000,"PART-1-1",           279,       11.2325,      -12.6180,            0.,NA,NA,"",       1.86404,       1.78307,  -543.432E-03,   19.8823E-03
C:/temp/dataset/3/15_6.odb,Step-1,Increment      8: Step Time =    1.000,"PART-1-1",           280,      -13.7500,       22.5017,            0.,NA,NA,"",       32.4770,       29.8835,       12.7175,   5.68052E-03
C:/temp/dataset/3/15_6.odb,Step-1,Increment      8: Step Time =    1.000,"PART-1-1",           281,          -15.,         21.25,            0.,NA,NA,"",       32.6559,       29.3880,       14.2391,   5.85175E-03
C:/temp/dataset/3/15_6.odb,Step-1,Increment      8: Step Time =    1.000,"PART-1-1",           282,        -13.75,           20.,            0.,NA,NA,"",       31.0829,       27.8799,       13.7427,   6.10399E-03
C:/temp/dataset/3/15_6.odb,Step-1,Increment      8: Step Time =    1.000,"PART-1-1",           283,      -12.5000,       21.2517,            0.,NA,NA,"",       30.8939,       28.3749,       12.2187,   6.07502E-03
C:/temp/dataset/3/15_6.odb,Step-1,Increment      8: Step Time =    1.000,"PART-1-1",           284,        -11.25,           30.,            0.,NA,NA,"",       35.7100,       34.8802,       7.65361,   2.07879E-03
C:/temp/dataset/3/15_6.odb,Step-1,Increment      8: Step Time =    1.000,"PART-1-1",           285,      -12.5009,       28.7510,            0.,NA,NA,"",       35.5876,       34.3857,       9.17047,   1.61179E-03
C:/temp/dataset/3/15_6.odb,Step-1,Increment      8: Step Time =    1.000,"PART-1-1",           286,      -11.2523,       27.5017,            0.,NA,NA,"",       33.9934,       32.8690,       8.67066,   5.00212E-03
C:/temp/dataset/3/15_6.odb,Step-1,Increment      8: Step Time =    1.000,"PART-1-1",           287,      -10.0014,       28.7507,            0.,NA,NA,"",       34.1178,       33.3588,       7.15661,   4.59456E-03
C:/temp/dataset/3/15_6.odb,Step-1,Increment      8: Step Time =    1.000,"PART-1-1",           288,      -8.75282,       27.5029,            0.,NA,NA,"",       32.5274,       31.8395,       6.65417,   8.83509E-03
C:/temp/dataset/3/15_6.odb,Step-1,Increment      8: Step Time =    1.000,"PART-1-1",           289,      -10.0027,       26.2541,            0.,NA,NA,"",       32.4002,       31.3545,       8.16529,   7.52951E-03
C:/temp/dataset/3/15_6.odb,Step-1,Increment      8: Step Time =    1.000,"PART-1-1",           290,      -8.75320,       25.0087,            0.,NA,NA,"",       30.8110,       29.8449,       7.65490,   10.7128E-03
C:/temp/dataset/3/15_6.odb,Step-1,Increment      8: Step Time =    1.000,"PART-1-1",           291,      -7.50334,       26.2575,            0.,NA,NA,"",       30.9424,       30.3262,       6.14417,   11.1240E-03
C:/temp/dataset/3/15_6.odb,Step-1,Increment      8: Step Time =    1.000,"PART-1-1",           292,  -10.1921E-03,       23.8015,            0.,NA,NA,"",       25.3824,       25.3600,       1.06457,   17.8257E-03
C:/temp/dataset/3/15_6.odb,Step-1,Increment      8: Step Time =    1.000,"PART-1-1",           293,       1.23656,       22.5490,            0.,NA,NA,"",       23.9189,       23.9129,   533.841E-03,   25.3755E-03
C:/temp/dataset/3/15_6.odb,Step-1,Increment      8: Step Time =    1.000,"PART-1-1",           294,       2.47060,       23.8222,            0.,NA,NA,"",       24.4477,       24.4306,  -913.741E-03,   19.8593E-03
C:/temp/dataset/3/15_6.odb,Step-1,Increment      8: Step Time =    1.000,"PART-1-1",           295,       1.22385,       25.0746,            0.,NA,NA,"",       25.8750,       25.8721,  -385.011E-03,   15.9506E-03
C:/temp/dataset/3/15_6.odb,Step-1,Increment      8: Step Time =    1.000,"PART-1-1",           296,       13.7132,       25.0166,            0.,NA,NA,"",       23.6815,       21.6539,      -9.58746,   20.8493E-03
C:/temp/dataset/3/15_6.odb,Step-1,Increment      8: Step Time =    1.000,"PART-1-1",           297,           15.,         26.25,            0.,NA,NA,"",       24.7128,       22.1498,      -10.9594,   11.7656E-03
C:/temp/dataset/3/15_6.odb,Step-1,Increment      8: Step Time =    1.000,"PART-1-1",           298,       13.7362,       27.5048,            0.,NA,NA,"",       25.7002,       23.4819,      -10.4451,   9.14961E-03
C:/temp/dataset/3/15_6.odb,Step-1,Increment      8: Step Time =    1.000,"PART-1-1",           299,       12.4494,       26.2714,            0.,NA,NA,"",       24.7071,       22.9732,      -9.09235,   22.4185E-03
C:/temp/dataset/3/15_6.odb,Step-1,Increment      8: Step Time =    1.000,"PART-1-1",           300,       6.19248,       27.5744,            0.,NA,NA,"",       26.4553,       25.9749,      -5.01889,   25.1924E-03
C:/temp/dataset/3/15_6.odb,Step-1,Increment      8: Step Time =    1.000,"PART-1-1",           301,       7.46746,       28.7842,            0.,NA,NA,"",       27.2092,       26.4589,      -6.34561,   29.7626E-03
C:/temp/dataset/3/15_6.odb,Step-1,Increment      8: Step Time =    1.000,"PART-1-1",           302,          6.25,           30.,            0.,NA,NA,"",       28.4202,       27.8084,      -5.86503,   41.2634E-03
C:/temp/dataset/3/15_6.odb,Step-1,Increment      8: Step Time =    1.000,"PART-1-1",           303,       4.97503,       28.7903,            0.,NA,NA,"",       27.7169,       27.3427,      -4.53913,   34.8880E-03
C:/temp/dataset/3/15_6.odb,Step-1,Increment      8: Step Time =    1.000,"PART-1-1",           304,       11.0878,       17.5306,            0.,NA,NA,"",       17.8706,       17.0694,      -5.29094,   14.3629E-03
C:/temp/dataset/3/15_6.odb,Step-1,Increment      8: Step Time =    1.000,"PART-1-1",           305,       12.3722,       18.7756,            0.,NA,NA,"",       18.7629,       17.5837,      -6.54684,   30.0839E-03
C:/temp/dataset/3/15_6.odb,Step-1,Increment      8: Step Time =    1.000,"PART-1-1",           306,       11.1059,       20.0490,            0.,NA,NA,"",       19.7656,       18.8160,      -6.05308,   23.7521E-03
C:/temp/dataset/3/15_6.odb,Step-1,Increment      8: Step Time =    1.000,"PART-1-1",           307,       9.82152,       18.8041,            0.,NA,NA,"",       18.9034,       18.2882,      -4.78323,   14.1265E-03
C:/temp/dataset/3/15_6.odb,Step-1,Increment      8: Step Time =    1.000,"PART-1-1",           308,       9.63171,       13.8797,            0.,NA,NA,"",       15.3763,       14.9954,      -3.40136,   15.4137E-03
C:/temp/dataset/3/15_6.odb,Step-1,Increment      8: Step Time =    1.000,"PART-1-1",           309,       8.52517,       15.0687,            0.,NA,NA,"",       16.3313,       16.0607,      -2.96097,   31.9036E-03
C:/temp/dataset/3/15_6.odb,Step-1,Increment      8: Step Time =    1.000,"PART-1-1",           310,       7.25683,       13.8735,            0.,NA,NA,"",       15.6900,       15.5746,      -1.89895,   52.7877E-03
C:/temp/dataset/3/15_6.odb,Step-1,Increment      8: Step Time =    1.000,"PART-1-1",           311,       8.36336,       12.6844,            0.,NA,NA,"",       14.7032,       14.5143,      -2.34959,   35.6833E-03
C:/temp/dataset/3/15_6.odb,Step-1,Increment      8: Step Time =    1.000,"PART-1-1",           312,       14.0118,       9.82001,            0.,NA,NA,"",       12.7042,       11.5942,      -5.19341,   58.3747E-03
C:/temp/dataset/3/15_6.odb,Step-1,Increment      8: Step Time =    1.000,"PART-1-1",           313,           15.,         11.25,            0.,NA,NA,"",       13.7024,       12.2326,      -6.17403,   74.5003E-03
C:/temp/dataset/3/15_6.odb,Step-1,Increment      8: Step Time =    1.000,"PART-1-1",           314,       13.5880,       12.3315,            0.,NA,NA,"",       14.2685,       13.1435,      -5.55339,   49.9150E-03
C:/temp/dataset/3/15_6.odb,Step-1,Increment      8: Step Time =    1.000,"PART-1-1",           315,       12.5998,       10.9015,            0.,NA,NA,"",       13.2998,       12.4865,      -4.57954,   33.8476E-03
C:/temp/dataset/3/15_6.odb,Step-1,Increment      8: Step Time =    1.000,"PART-1-1",           316,       4.40482,  -219.892E-03,            0.,NA,NA,"",       7.88161,       7.75511,       1.40643,   41.8566E-03
C:/temp/dataset/3/15_6.odb,Step-1,Increment      8: Step Time =    1.000,"PART-1-1",           317,       3.45177,  -757.122E-03,            0.,NA,NA,"",       7.86351,       7.62607,       1.91779,   29.3418E-03
C:/temp/dataset/3/15_6.odb,Step-1,Increment      8: Step Time =    1.000,"PART-1-1",           318,       3.83014,      -1.74448,            0.,NA,NA,"",       7.31027,       7.07668,       1.83322,   37.9104E-03
C:/temp/dataset/3/15_6.odb,Step-1,Increment      8: Step Time =    1.000,"PART-1-1",           319,       4.78319,      -1.20725,            0.,NA,NA,"",       7.31775,       7.19861,       1.31511,   45.8837E-03
C:/temp/dataset/3/15_6.odb,Step-1,Increment      8: Step Time =    1.000,"PART-1-1",           320,       10.3408,      -10.0251,            0.,NA,NA,"",       2.68850,       2.65518,  -421.997E-03,   10.8214E-03
C:/temp/dataset/3/15_6.odb,Step-1,Increment      8: Step Time =    1.000,"PART-1-1",           321,       11.1792,      -10.4860,            0.,NA,NA,"",       2.54093,       2.45187,  -666.826E-03,   18.8888E-03
C:/temp/dataset/3/15_6.odb,Step-1,Increment      8: Step Time =    1.000,"PART-1-1",           322,       11.5032,      -9.33080,            0.,NA,NA,"",       2.96250,       2.83233,  -868.500E-03,   26.2002E-03
C:/temp/dataset/3/15_6.odb,Step-1,Increment      8: Step Time =    1.000,"PART-1-1",           323,       10.6649,      -8.86986,            0.,NA,NA,"",       3.10893,       3.04832,  -610.883E-03,   12.1264E-03
C:/temp/dataset/3/15_6.odb,Step-1,Increment      8: Step Time =    1.000,"PART-1-1",           324,       9.41034,      -12.1888,            0.,NA,NA,"",       1.99827,       1.99779,  -43.7876E-03,   27.6182E-03
C:/temp/dataset/3/15_6.odb,Step-1,Increment      8: Step Time =    1.000,"PART-1-1",           325,       10.5075,      -13.0214,            0.,NA,NA,"",       1.72597,       1.69578,  -321.378E-03,   10.4049E-03
C:/temp/dataset/3/15_6.odb,Step-1,Increment      8: Step Time =    1.000,"PART-1-1",           326,       10.8652,      -11.6896,            0.,NA,NA,"",       2.13545,       2.07844,  -490.127E-03,   13.6400E-03
C:/temp/dataset/3/15_6.odb,Step-1,Increment      8: Step Time =    1.000,"PART-1-1",           327,       9.76802,      -10.8570,            0.,NA,NA,"",       2.41411,       2.40621,  -195.183E-03,   19.6064E-03
C:/temp/dataset/3/15_6.odb,Step-1,Increment      8: Step Time =    1.000,"PART-1-1",           328,       6.12016,      -19.7528,            0.,NA,NA,"",   493.935E-03,   316.193E-03,   379.464E-03,   116.199E-03
C:/temp/dataset/3/15_6.odb,Step-1,Increment      8: Step Time =    1.000,"PART-1-1",           329,       7.15653,      -18.4145,            0.,NA,NA,"",   633.411E-03,   533.748E-03,   341.062E-03,   68.5920E-03
C:/temp/dataset/3/15_6.odb,Step-1,Increment      8: Step Time =    1.000,"PART-1-1",           330,       6.03637,      -17.4116,            0.,NA,NA,"",   989.220E-03,   800.708E-03,   580.881E-03,   116.095E-03
C:/temp/dataset/3/15_6.odb,Step-1,Increment      8: Step Time =    1.000,"PART-1-1",           331,            5.,        -18.75,            0.,NA,NA,"",   834.976E-03,   582.443E-03,   598.284E-03,   193.024E-03
C:/temp/dataset/3/15_6.odb,Step-1,Increment      8: Step Time =    1.000,"PART-1-1",           332,       13.3604,      -22.4969,            0.,NA,NA,"",   363.470E-03,   97.1089E-03,  -350.257E-03,   67.5495E-03
C:/temp/dataset/3/15_6.odb,Step-1,Increment      8: Step Time =    1.000,"PART-1-1",           333,           15.,        -21.25,            0.,NA,NA,"",   642.637E-03,   239.923E-03,  -596.171E-03,   105.155E-03
C:/temp/dataset/3/15_6.odb,Step-1,Increment      8: Step Time =    1.000,"PART-1-1",           334,       13.4842,      -19.7901,            0.,NA,NA,"",   634.209E-03,   323.427E-03,  -545.542E-03,   77.1890E-03
C:/temp/dataset/3/15_6.odb,Step-1,Increment      8: Step Time =    1.000,"PART-1-1",           335,       11.8446,      -21.0370,            0.,NA,NA,"",   316.002E-03,   171.422E-03,  -265.465E-03,   43.0809E-03
C:/temp/dataset/3/15_6.odb,Step-1,Increment      8: Step Time =    1.000,"PART-1-1",           336,       1.65000,            5.,            0.,NA,NA,"",       10.8799,       10.6729,       2.11257,   6.16683E-03
C:/temp/dataset/3/15_6.odb,Step-1,Increment      8: Step Time =    1.000,"PART-1-1",           337,   440.654E-03,       4.00571,            0.,NA,NA,"",       10.7242,       10.3510,       2.80448,   3.72446E-03
C:/temp/dataset/3/15_6.odb,Step-1,Increment      8: Step Time =    1.000,"PART-1-1",           338,       1.47063,       2.87974,            0.,NA,NA,"",       9.98977,       9.68457,       2.45040,   10.1427E-03
C:/temp/dataset/3/15_6.odb,Step-1,Increment      8: Step Time =    1.000,"PART-1-1",           339,       2.67998,       3.87403,            0.,NA,NA,"",       10.1800,       10.0256,       1.76635,   10.0306E-03
C:/temp/dataset/3/15_6.odb,Step-1,Increment      8: Step Time =    1.000,"PART-1-1",           340,      -1.46180,      -3.99231,            0.,NA,NA,"",       8.19908,       6.68780,       4.74322,   2.44712E-03
C:/temp/dataset/3/15_6.odb,Step-1,Increment      8: Step Time =    1.000,"PART-1-1",           341,     -500.E-03,           -5.,            0.,NA,NA,"",       7.49274,       6.06379,       4.40133,   6.26645E-03
C:/temp/dataset/3/15_6.odb,Step-1,Increment      8: Step Time =    1.000,"PART-1-1",           342,   718.491E-03,      -4.10961,            0.,NA,NA,"",       7.33531,       6.34134,       3.68702,   4.01306E-03
C:/temp/dataset/3/15_6.odb,Step-1,Increment      8: Step Time =    1.000,"PART-1-1",           343,  -243.313E-03,      -3.10192,            0.,NA,NA,"",       8.05025,       6.96906,       4.02973,   1.49891E-03
C:/temp/dataset/3/15_6.odb,Step-1,Increment      8: Step Time =    1.000,"PART-1-1",           344,      -3.82017,      -3.74247,            0.,NA,NA,"",       9.21903,       7.11420,       5.86333,   1.25850E-03
C:/temp/dataset/3/15_6.odb,Step-1,Increment      8: Step Time =    1.000,"PART-1-1",           345,      -2.71667,           -5.,            0.,NA,NA,"",       8.39557,       6.35583,       5.48535,   2.85111E-03
C:/temp/dataset/3/15_6.odb,Step-1,Increment      8: Step Time =    1.000,"PART-1-1",           346,      -2.56530,      -2.73478,            0.,NA,NA,"",       9.03881,       7.44818,       5.12101,   1.88357E-03
C:/temp/dataset/3/15_6.odb,Step-1,Increment      8: Step Time =    1.000,"PART-1-1",           347,      -13.8092,  -21.6491E-03,            0.,NA,NA,"",       14.4742,       10.2040,       10.2654,   5.56867E-06
C:/temp/dataset/3/15_6.odb,Step-1,Increment      8: Step Time =    1.000,"PART-1-1",           348,      -12.6581,       1.21263,            0.,NA,NA,"",       14.3096,       10.6602,       9.54596,   17.6518E-06
C:/temp/dataset/3/15_6.odb,Step-1,Increment      8: Step Time =    1.000,"PART-1-1",           349,      -13.8489,       2.48428,            0.,NA,NA,"",       15.1666,       11.4330,       9.96556,   2.60203E-06
C:/temp/dataset/3/15_6.odb,Step-1,Increment      8: Step Time =    1.000,"PART-1-1",           350,          -15.,          1.25,            0.,NA,NA,"",       15.3186,       10.9768,       10.6850,   12.3109E-06
C:/temp/dataset/3/15_6.odb,Step-1,Increment      8: Step Time =    1.000,"PART-1-1",           351,      -8.84172,   345.754E-03,            0.,NA,NA,"",       12.4820,       9.75092,       7.79227,   282.083E-06
C:/temp/dataset/3/15_6.odb,Step-1,Increment      8: Step Time =    1.000,"PART-1-1",           352,      -9.20019,  -788.270E-03,            0.,NA,NA,"",       12.2977,       9.24276,       8.11203,   213.108E-06
C:/temp/dataset/3/15_6.odb,Step-1,Increment      8: Step Time =    1.000,"PART-1-1",           353,      -7.61937,      -1.21646,            0.,NA,NA,"",       11.5193,       8.83261,       7.39462,   461.626E-06
C:/temp/dataset/3/15_6.odb,Step-1,Increment      8: Step Time =    1.000,"PART-1-1",           354,      -7.26090,  -82.4387E-03,            0.,NA,NA,"",       11.7176,       9.34084,       7.07463,   497.531E-06
C:/temp/dataset/3/15_6.odb,Step-1,Increment      8: Step Time =    1.000,"PART-1-1",           355,      -12.7466,      -3.77621,            0.,NA,NA,"",       13.1286,       8.23504,       10.2247,   4.80143E-06
C:/temp/dataset/3/15_6.odb,Step-1,Increment      8: Step Time =    1.000,"PART-1-1",           356,      -13.8633,      -2.52621,            0.,NA,NA,"",       13.9057,       8.98772,       10.6108,   2.69423E-06
C:/temp/dataset/3/15_6.odb,Step-1,Increment      8: Step Time =    1.000,"PART-1-1",           357,          -15.,         -3.75,            0.,NA,NA,"",       14.1784,       8.53484,       11.3219,   4.61959E-06
C:/temp/dataset/3/15_6.odb,Step-1,Increment      8: Step Time =    1.000,"PART-1-1",           358,      -13.8833,           -5.,            0.,NA,NA,"",       13.4221,       7.78215,       10.9357,   3.58117E-06
C:/temp/dataset/3/15_6.odb,Step-1,Increment      8: Step Time =    1.000,"PART-1-1",           359,      -5.03830,      -2.71522,            0.,NA,NA,"",       10.0214,       7.77232,       6.32617,   1.14380E-03
C:/temp/dataset/3/15_6.odb,Step-1,Increment      8: Step Time =    1.000,"PART-1-1",           360,      -4.43911,      -1.50749,            0.,NA,NA,"",       10.1603,       8.28707,       5.87850,   1.22001E-03
C:/temp/dataset/3/15_6.odb,Step-1,Increment      8: Step Time =    1.000,"PART-1-1",           361,      -5.95808,  -763.119E-03,            0.,NA,NA,"",       10.9899,       8.84315,       6.52514,   903.778E-06
C:/temp/dataset/3/15_6.odb,Step-1,Increment      8: Step Time =    1.000,"PART-1-1",           362,      -6.55726,      -1.97085,            0.,NA,NA,"",       10.8623,       8.32916,       6.97240,   604.466E-06
C:/temp/dataset/3/15_6.odb,Step-1,Increment      8: Step Time =    1.000,"PART-1-1",           363,          6.25,          -30.,            0.,NA,NA,"",            0.,  -8.73569E-42,   8.35875E-42,   15.6154E-03
C:/temp/dataset/3/15_6.odb,Step-1,Increment      8: Step Time =    1.000,"PART-1-1",           364,       7.47038,      -28.9473,            0.,NA,NA,"",   21.2408E-03,  -19.1916E-03,   9.10254E-03,   18.1167E-03
C:/temp/dataset/3/15_6.odb,Step-1,Increment      8: Step Time =    1.000,"PART-1-1",           365,       6.18647,      -27.8786,            0.,NA,NA,"",   36.9821E-03,  -10.0500E-03,   35.5904E-03,   24.4327E-03
C:/temp/dataset/3/15_6.odb,Step-1,Increment      8: Step Time =    1.000,"PART-1-1",           366,       4.96608,      -28.9312,            0.,NA,NA,"",   17.3296E-03,   677.862E-06,   17.3164E-03,   22.3983E-03
C:/temp/dataset/3/15_6.odb,Step-1,Increment      8: Step Time =    1.000,"PART-1-1",           367,       3.70492,      -27.8047,            0.,NA,NA,"",   47.5386E-03,   23.0606E-03,   41.5708E-03,   27.3152E-03
C:/temp/dataset/3/15_6.odb,Step-1,Increment      8: Step Time =    1.000,"PART-1-1",           368,       2.48883,      -28.8735,            0.,NA,NA,"",   24.7189E-03,   17.8794E-03,   17.0690E-03,   23.1494E-03
C:/temp/dataset/3/15_6.odb,Step-1,Increment      8: Step Time =    1.000,"PART-1-1",           369,          3.75,          -30.,            0.,NA,NA,"",            0.,   3.22159E-42,   20.8247E-42,   18.1017E-03
C:/temp/dataset/3/15_6.odb,Step-1,Increment      8: Step Time =    1.000,"PART-1-1",           370,      -3.72203,      -27.5999,            0.,NA,NA,"",   45.2002E-03,   44.4740E-03,   8.06988E-03,   13.1686E-03
C:/temp/dataset/3/15_6.odb,Step-1,Increment      8: Step Time =    1.000,"PART-1-1",           371,      -4.98725,      -28.7922,            0.,NA,NA,"",   22.3598E-03,   22.1182E-03,   3.27790E-03,   12.2384E-03
C:/temp/dataset/3/15_6.odb,Step-1,Increment      8: Step Time =    1.000,"PART-1-1",           372,         -3.75,          -30.,            0.,NA,NA,"",            0.,   12.9662E-42,   10.8503E-42,   15.1613E-03
C:/temp/dataset/3/15_6.odb,Step-1,Increment      8: Step Time =    1.000,"PART-1-1",           373,      -2.48478,      -28.8077,            0.,NA,NA,"",   26.7047E-03,   25.8466E-03,   6.71512E-03,   15.9669E-03
C:/temp/dataset/3/15_6.odb,Step-1,Increment      8: Step Time =    1.000,"PART-1-1",           374,      -13.7501,      -27.5099,            0.,NA,NA,"",   27.5129E-03,   26.2224E-03,   8.32718E-03,   4.47729E-03
C:/temp/dataset/3/15_6.odb,Step-1,Increment      8: Step Time =    1.000,"PART-1-1",           375,          -15.,        -28.75,            0.,NA,NA,"",   18.5445E-03,   15.2051E-03,   10.6161E-03,   8.14273E-03
C:/temp/dataset/3/15_6.odb,Step-1,Increment      8: Step Time =    1.000,"PART-1-1",           376,        -13.75,          -30.,            0.,NA,NA,"",            0.,   2.92731E-42,   10.6120E-42,   8.96600E-03
C:/temp/dataset/3/15_6.odb,Step-1,Increment      8: Step Time =    1.000,"PART-1-1",           377,      -12.5001,      -28.7599,            0.,NA,NA,"",   12.4480E-03,   12.2122E-03,   2.41177E-03,   6.53387E-03
C:/temp/dataset/3/15_6.odb,Step-1,Increment      8: Step Time =    1.000,"PART-1-1",           378,       8.15833,      -10.8587,            0.,NA,NA,"",       2.53567,       2.51710,   306.272E-03,   54.1736E-03
C:/temp/dataset/3/15_6.odb,Step-1,Increment      8: Step Time =    1.000,"PART-1-1",           379,       9.00498,      -9.90697,            0.,NA,NA,"",       2.78707,       2.78704,   14.2313E-03,   34.2664E-03
C:/temp/dataset/3/15_6.odb,Step-1,Increment      8: Step Time =    1.000,"PART-1-1",           380,       8.08915,      -8.55627,            0.,NA,NA,"",       3.37687,       3.36476,   285.667E-03,   53.3688E-03
C:/temp/dataset/3/15_6.odb,Step-1,Increment      8: Step Time =    1.000,"PART-1-1",           381,       7.24249,      -9.50802,            0.,NA,NA,"",       3.13567,       3.07910,   592.946E-03,   72.4226E-03
C:/temp/dataset/3/15_6.odb,Step-1,Increment      8: Step Time =    1.000,"PART-1-1",           382,       13.9816,      -2.51124,            0.,NA,NA,"",       6.08834,       5.41757,      -2.77808,   59.0713E-03
C:/temp/dataset/3/15_6.odb,Step-1,Increment      8: Step Time =    1.000,"PART-1-1",           383,           15.,         -1.25,            0.,NA,NA,"",       6.84313,       5.88846,      -3.48632,   70.9386E-03
C:/temp/dataset/3/15_6.odb,Step-1,Increment      8: Step Time =    1.000,"PART-1-1",           384,       13.8213,  -48.4001E-03,            0.,NA,NA,"",       7.25733,       6.55722,      -3.10995,   51.2703E-03
C:/temp/dataset/3/15_6.odb,Step-1,Increment      8: Step Time =    1.000,"PART-1-1",           385,       12.8030,      -1.30964,            0.,NA,NA,"",       6.53670,       6.07616,      -2.41014,   39.6741E-03
C:/temp/dataset/3/15_6.odb,Step-1,Increment      8: Step Time =    1.000,"PART-1-1",           386,           15.,          1.25,            0.,NA,NA,"",       8.06755,       7.04026,      -3.93956,   67.5983E-03
C:/temp/dataset/3/15_6.odb,Step-1,Increment      8: Step Time =    1.000,"PART-1-1",           387,       13.5709,       2.55070,            0.,NA,NA,"",       8.54983,       7.83075,      -3.43205,   47.4388E-03
C:/temp/dataset/3/15_6.odb,Step-1,Increment      8: Step Time =    1.000,"PART-1-1",           388,       12.3922,       1.25230,            0.,NA,NA,"",       7.79201,       7.34331,      -2.60598,   30.6061E-03
C:/temp/dataset/3/15_6.odb,Step-1,Increment      8: Step Time =    1.000,"PART-1-1",           389,      -5.00532,       26.2655,            0.,NA,NA,"",       29.5915,       29.3022,       4.12719,   14.2208E-03
C:/temp/dataset/3/15_6.odb,Step-1,Increment      8: Step Time =    1.000,"PART-1-1",           390,      -3.75495,       25.0275,            0.,NA,NA,"",       28.0425,       27.8101,       3.60326,   16.0284E-03
C:/temp/dataset/3/15_6.odb,Step-1,Increment      8: Step Time =    1.000,"PART-1-1",           391,      -2.50780,       26.2820,            0.,NA,NA,"",       28.3736,       28.2943,       2.12022,   16.0160E-03
C:/temp/dataset/3/15_6.odb,Step-1,Increment      8: Step Time =    1.000,"PART-1-1",           392,      -3.75817,       27.5199,            0.,NA,NA,"",       29.9039,       29.7871,       2.64009,   16.8050E-03
C:/temp/dataset/3/15_6.odb,Step-1,Increment      8: Step Time =    1.000,"PART-1-1",           393,      -5.00193,       23.7670,            0.,NA,NA,"",       27.7938,       27.3208,       5.10591,   15.2420E-03
C:/temp/dataset/3/15_6.odb,Step-1,Increment      8: Step Time =    1.000,"PART-1-1",           394,      -6.25406,       25.0149,            0.,NA,NA,"",       29.3662,       28.8220,       5.62745,   14.0751E-03
C:/temp/dataset/3/15_6.odb,Step-1,Increment      8: Step Time =    1.000,"PART-1-1",           395,      -7.50285,       23.7600,            0.,NA,NA,"",       29.2232,       28.3372,       7.14139,   12.4813E-03
C:/temp/dataset/3/15_6.odb,Step-1,Increment      8: Step Time =    1.000,"PART-1-1",           396,      -6.25071,       22.5121,            0.,NA,NA,"",       27.6400,       26.8347,       6.62340,   15.4905E-03
C:/temp/dataset/3/15_6.odb,Step-1,Increment      8: Step Time =    1.000,"PART-1-1",           397,      -12.5007,       23.7543,            0.,NA,NA,"",       32.3757,       30.3777,       11.1973,   5.65755E-03
C:/temp/dataset/3/15_6.odb,Step-1,Increment      8: Step Time =    1.000,"PART-1-1",           398,      -13.7507,       25.0026,            0.,NA,NA,"",       33.9648,       31.8862,       11.6996,   3.90289E-03
C:/temp/dataset/3/15_6.odb,Step-1,Increment      8: Step Time =    1.000,"PART-1-1",           399,          -15.,         23.75,            0.,NA,NA,"",       34.0583,       31.3894,       13.2164,   4.39245E-03
C:/temp/dataset/3/15_6.odb,Step-1,Increment      8: Step Time =    1.000,"PART-1-1",           400,       1.22659,       27.5580,            0.,NA,NA,"",       27.8355,       27.8057,      -1.28772,   22.2740E-03
C:/temp/dataset/3/15_6.odb,Step-1,Increment      8: Step Time =    1.000,"PART-1-1",           401,       2.48534,       28.7828,            0.,NA,NA,"",       28.4023,       28.2750,      -2.68613,   33.5906E-03
C:/temp/dataset/3/15_6.odb,Step-1,Increment      8: Step Time =    1.000,"PART-1-1",           402,          1.25,           30.,            0.,NA,NA,"",       29.8057,       29.7249,      -2.19337,   41.1943E-03
C:/temp/dataset/3/15_6.odb,Step-1,Increment      8: Step Time =    1.000,"PART-1-1",           403,  -8.74824E-03,       28.7751,            0.,NA,NA,"",       29.2666,       29.2562,  -781.286E-03,   28.2447E-03
C:/temp/dataset/3/15_6.odb,Step-1,Increment      8: Step Time =    1.000,"PART-1-1",           404,  -16.7069E-03,       26.3073,            0.,NA,NA,"",       27.3162,       27.3158,   137.684E-03,   16.9573E-03
C:/temp/dataset/3/15_6.odb,Step-1,Increment      8: Step Time =    1.000,"PART-1-1",           405,       2.46714,       26.3253,            0.,NA,NA,"",       26.4279,       26.3665,      -1.80075,   17.7683E-03
C:/temp/dataset/3/15_6.odb,Step-1,Increment      8: Step Time =    1.000,"PART-1-1",           406,       3.70751,       22.5746,            0.,NA,NA,"",       23.0549,       23.0091,      -1.45247,   23.1407E-03
C:/temp/dataset/3/15_6.odb,Step-1,Increment      8: Step Time =    1.000,"PART-1-1",           407,       2.48879,       21.2797,            0.,NA,NA,"",       22.4703,       22.4703,  -8.29554E-03,   36.4058E-03
C:/temp/dataset/3/15_6.odb,Step-1,Increment      8: Step Time =    1.000,"PART-1-1",           408,          3.75,           20.,            0.,NA,NA,"",       21.0471,       21.0396,  -560.648E-03,   74.5159E-03
C:/temp/dataset/3/15_6.odb,Step-1,Increment      8: Step Time =    1.000,"PART-1-1",           409,       4.96872,       21.2949,            0.,NA,NA,"",       21.6600,       21.5659,      -2.01644,   56.2693E-03
C:/temp/dataset/3/15_6.odb,Step-1,Increment      8: Step Time =    1.000,"PART-1-1",           410,       10.8479,       12.4309,            0.,NA,NA,"",       14.3111,       13.7860,      -3.84101,   6.07760E-03
C:/temp/dataset/3/15_6.odb,Step-1,Increment      8: Step Time =    1.000,"PART-1-1",           411,       9.34812,       11.6387,            0.,NA,NA,"",       13.8903,       13.6167,      -2.74322,   20.3594E-03
C:/temp/dataset/3/15_6.odb,Step-1,Increment      8: Step Time =    1.000,"PART-1-1",           412,       9.99050,       10.5520,            0.,NA,NA,"",       13.1285,       12.8014,      -2.91273,   9.67511E-03
C:/temp/dataset/3/15_6.odb,Step-1,Increment      8: Step Time =    1.000,"PART-1-1",           413,       11.4903,       11.3442,            0.,NA,NA,"",       13.5777,       12.9766,      -3.99508,   15.6887E-03
C:/temp/dataset/3/15_6.odb,Step-1,Increment      8: Step Time =    1.000,"PART-1-1",           414,       7.16850,       11.5014,            0.,NA,NA,"",       14.0909,       14.0214,      -1.39792,   55.2293E-03
C:/temp/dataset/3/15_6.odb,Step-1,Increment      8: Step Time =    1.000,"PART-1-1",           415,       6.10343,       12.5850,            0.,NA,NA,"",       15.0231,       14.9934,  -943.559E-03,   70.6352E-03
C:/temp/dataset/3/15_6.odb,Step-1,Increment      8: Step Time =    1.000,"PART-1-1",           416,            5.,         11.25,            0.,NA,NA,"",       14.3702,       14.3700,  -62.5407E-03,   89.0485E-03
C:/temp/dataset/3/15_6.odb,Step-1,Increment      8: Step Time =    1.000,"PART-1-1",           417,       6.06507,       10.1664,            0.,NA,NA,"",       13.4205,       13.4102,  -524.889E-03,   73.9886E-03
C:/temp/dataset/3/15_6.odb,Step-1,Increment      8: Step Time =    1.000,"PART-1-1",           418,       14.0565,       5.06378,            0.,NA,NA,"",       9.94103,       9.02421,      -4.16986,   57.5743E-03
C:/temp/dataset/3/15_6.odb,Step-1,Increment      8: Step Time =    1.000,"PART-1-1",           419,       12.6274,       3.86448,            0.,NA,NA,"",       9.17369,       8.61149,      -3.16208,   35.2398E-03
C:/temp/dataset/3/15_6.odb,Step-1,Increment      8: Step Time =    1.000,"PART-1-1",           420,           15.,          3.75,            0.,NA,NA,"",       9.35562,       8.24374,      -4.42362,   70.0179E-03
C:/temp/dataset/3/15_6.odb,Step-1,Increment      8: Step Time =    1.000,"PART-1-1",           421,       10.0280,       5.47301,            0.,NA,NA,"",       10.0559,       9.85066,      -2.02108,   3.23608E-03
C:/temp/dataset/3/15_6.odb,Step-1,Increment      8: Step Time =    1.000,"PART-1-1",           422,       11.0614,       5.01383,            0.,NA,NA,"",       9.76766,       9.43974,      -2.50966,   13.6681E-03
C:/temp/dataset/3/15_6.odb,Step-1,Increment      8: Step Time =    1.000,"PART-1-1",           423,       11.6033,       6.33570,            0.,NA,NA,"",       10.5128,       10.0636,      -3.04027,   20.7117E-03
C:/temp/dataset/3/15_6.odb,Step-1,Increment      8: Step Time =    1.000,"PART-1-1",           424,       10.5698,       6.79489,            0.,NA,NA,"",       10.7911,       10.4876,      -2.54134,   5.07217E-03
C:/temp/dataset/3/15_6.odb,Step-1,Increment      8: Step Time =    1.000,"PART-1-1",           425,      -4.94418,       3.17107,            0.,NA,NA,"",       11.9839,       10.6330,       5.52749,   1.08965E-03
C:/temp/dataset/3/15_6.odb,Step-1,Increment      8: Step Time =    1.000,"PART-1-1",           426,      -3.90803,       4.11594,            0.,NA,NA,"",       12.0070,       10.9610,       4.90168,   1.31658E-03
C:/temp/dataset/3/15_6.odb,Step-1,Increment      8: Step Time =    1.000,"PART-1-1",           427,      -5.05000,            5.,            0.,NA,NA,"",       12.7179,       11.5392,       5.34706,   1.10753E-03
C:/temp/dataset/3/15_6.odb,Step-1,Increment      8: Step Time =    1.000,"PART-1-1",           428,      -6.08615,       4.05513,            0.,NA,NA,"",       12.7024,       11.2103,       5.97323,   495.100E-06
C:/temp/dataset/3/15_6.odb,Step-1,Increment      8: Step Time =    1.000,"PART-1-1",           429,      -3.86135,       2.39128,            0.,NA,NA,"",       11.3269,       10.1152,       5.09725,   1.35942E-03
C:/temp/dataset/3/15_6.odb,Step-1,Increment      8: Step Time =    1.000,"PART-1-1",           430,      -5.85027,       2.20434,            0.,NA,NA,"",       11.9478,       10.2773,       6.09331,   756.685E-06
C:/temp/dataset/3/15_6.odb,Step-1,Increment      8: Step Time =    1.000,"PART-1-1",           431,      -4.76744,       1.42454,            0.,NA,NA,"",       11.2837,       9.75954,       5.66327,   1.24379E-03
C:/temp/dataset/3/15_6.odb,Step-1,Increment      8: Step Time =    1.000,"PART-1-1",           432,      -9.29397,       2.69508,            0.,NA,NA,"",       13.3988,       10.9556,       7.71375,   187.929E-06
C:/temp/dataset/3/15_6.odb,Step-1,Increment      8: Step Time =    1.000,"PART-1-1",           433,      -8.28887,       3.92576,            0.,NA,NA,"",       13.4364,       11.4285,       7.06592,   165.123E-06
C:/temp/dataset/3/15_6.odb,Step-1,Increment      8: Step Time =    1.000,"PART-1-1",           434,          -9.5,            5.,            0.,NA,NA,"",       14.2533,       12.1077,       7.52075,   68.4894E-06
C:/temp/dataset/3/15_6.odb,Step-1,Increment      8: Step Time =    1.000,"PART-1-1",           435,      -10.5051,       3.76932,            0.,NA,NA,"",       14.2158,       11.6346,       8.16856,   38.8023E-06
C:/temp/dataset/3/15_6.odb,Step-1,Increment      8: Step Time =    1.000,"PART-1-1",           436,      -7.92731,       1.84143,            0.,NA,NA,"",       12.5944,       10.3647,       7.15476,   329.587E-06
C:/temp/dataset/3/15_6.odb,Step-1,Increment      8: Step Time =    1.000,"PART-1-1",           437,      -6.68589,       1.06488,            0.,NA,NA,"",       11.8646,       9.82776,       6.64709,   692.630E-06
C:/temp/dataset/3/15_6.odb,Step-1,Increment      8: Step Time =    1.000,"PART-1-1",           438,      -7.09169,       2.98089,            0.,NA,NA,"",       12.6699,       10.8144,       6.60124,   508.554E-06
C:/temp/dataset/3/15_6.odb,Step-1,Increment      8: Step Time =    1.000,"PART-1-1",           439,      -13.9000,            5.,            0.,NA,NA,"",       15.9372,       12.6683,       9.67002,   3.52340E-06
C:/temp/dataset/3/15_6.odb,Step-1,Increment      8: Step Time =    1.000,"PART-1-1",           440,          -15.,          3.75,            0.,NA,NA,"",       16.0079,       12.1979,       10.3665,   4.75375E-06
C:/temp/dataset/3/15_6.odb,Step-1,Increment      8: Step Time =    1.000,"PART-1-1",           441,      -12.7489,       3.73428,            0.,NA,NA,"",       15.0866,       11.9034,       9.26903,   4.60616E-06
C:/temp/dataset/3/15_6.odb,Step-1,Increment      8: Step Time =    1.000,"PART-1-1",           442,      -9.48823,      -2.88104,            0.,NA,NA,"",       11.8645,       8.25729,       8.51953,   158.083E-06
C:/temp/dataset/3/15_6.odb,Step-1,Increment      8: Step Time =    1.000,"PART-1-1",           443,      -8.42388,      -2.23568,            0.,NA,NA,"",       11.5703,       8.43706,       7.91757,   251.245E-06
C:/temp/dataset/3/15_6.odb,Step-1,Increment      8: Step Time =    1.000,"PART-1-1",           444,      -10.2645,      -1.43363,            0.,NA,NA,"",       12.5728,       9.06303,       8.71412,   101.240E-06
C:/temp/dataset/3/15_6.odb,Step-1,Increment      8: Step Time =    1.000,"PART-1-1",           445,      -12.6725,      -1.29786,            0.,NA,NA,"",       13.6569,       9.43596,       9.87282,   16.8630E-06
C:/temp/dataset/3/15_6.odb,Step-1,Increment      8: Step Time =    1.000,"PART-1-1",           446,          -15.,         -1.25,            0.,NA,NA,"",       14.7055,       9.75579,       11.0035,   11.9142E-06
C:/temp/dataset/3/15_6.odb,Step-1,Increment      8: Step Time =    1.000,"PART-1-1",           447,      -6.16813,      -3.97275,            0.,NA,NA,"",       10.1411,       7.30123,       7.03809,   483.335E-06
C:/temp/dataset/3/15_6.odb,Step-1,Increment      8: Step Time =    1.000,"PART-1-1",           448,      -4.95000,           -5.,            0.,NA,NA,"",       9.34684,       6.64371,       6.57453,   1.16432E-03
C:/temp/dataset/3/15_6.odb,Step-1,Increment      8: Step Time =    1.000,"PART-1-1",           449,       1.59412,  -355.999E-03,            0.,NA,NA,"",       8.54693,       8.08248,       2.77914,   9.77147E-03
C:/temp/dataset/3/15_6.odb,Step-1,Increment      8: Step Time =    1.000,"PART-1-1",           450,       2.17826,      -1.53992,            0.,NA,NA,"",       7.87190,       7.41898,       2.63163,   16.4879E-03
C:/temp/dataset/3/15_6.odb,Step-1,Increment      8: Step Time =    1.000,"PART-1-1",           451,       2.86763,   426.804E-03,            0.,NA,NA,"",       8.55301,       8.29814,       2.07240,   24.4171E-03
C:/temp/dataset/3/15_6.odb,Step-1,Increment      8: Step Time =    1.000,"PART-1-1",           452,  -387.277E-03,   5.26357E-03,            0.,NA,NA,"",       9.28522,       8.51512,       3.70244,   2.00900E-03
C:/temp/dataset/3/15_6.odb,Step-1,Increment      8: Step Time =    1.000,"PART-1-1",           453,   283.611E-03,      -1.19839,            0.,NA,NA,"",       8.59561,       7.83935,       3.52549,   3.95320E-03
C:/temp/dataset/3/15_6.odb,Step-1,Increment      8: Step Time =    1.000,"PART-1-1",           454,   923.228E-03,   847.652E-03,            0.,NA,NA,"",       9.24706,       8.76065,       2.95958,   6.59488E-03
C:/temp/dataset/3/15_6.odb,Step-1,Increment      8: Step Time =    1.000,"PART-1-1",           455,       6.35531,      -13.1332,            0.,NA,NA,"",       2.07116,       1.91637,   785.636E-03,   97.7280E-03
C:/temp/dataset/3/15_6.odb,Step-1,Increment      8: Step Time =    1.000,"PART-1-1",           456,       7.49455,      -12.2656,            0.,NA,NA,"",       2.15905,       2.10042,   499.750E-03,   71.4591E-03
C:/temp/dataset/3/15_6.odb,Step-1,Increment      8: Step Time =    1.000,"PART-1-1",           457,       6.13925,      -10.3824,            0.,NA,NA,"",       3.01325,       2.86179,   943.323E-03,   98.9560E-03
C:/temp/dataset/3/15_6.odb,Step-1,Increment      8: Step Time =    1.000,"PART-1-1",           458,            5.,        -11.25,            0.,NA,NA,"",       2.94743,       2.66299,       1.26326,   125.151E-03
C:/temp/dataset/3/15_6.odb,Step-1,Increment      8: Step Time =    1.000,"PART-1-1",           459,       13.3376,      -16.9670,            0.,NA,NA,"",       1.04301,   731.537E-03,  -743.453E-03,   74.6233E-03
C:/temp/dataset/3/15_6.odb,Step-1,Increment      8: Step Time =    1.000,"PART-1-1",           460,       11.8219,      -18.0071,            0.,NA,NA,"",   670.698E-03,   542.576E-03,  -394.268E-03,   37.8437E-03
C:/temp/dataset/3/15_6.odb,Step-1,Increment      8: Step Time =    1.000,"PART-1-1",           461,           15.,        -18.75,            0.,NA,NA,"",       1.00013,   502.650E-03,  -864.645E-03,   115.485E-03
C:/temp/dataset/3/15_6.odb,Step-1,Increment      8: Step Time =    1.000,"PART-1-1",           462,       8.42876,      -15.2973,            0.,NA,NA,"",       1.19734,       1.17711,   219.194E-03,   50.7702E-03
C:/temp/dataset/3/15_6.odb,Step-1,Increment      8: Step Time =    1.000,"PART-1-1",           463,       10.4111,      -16.6310,            0.,NA,NA,"",   825.517E-03,   804.720E-03,  -184.132E-03,   8.48003E-03
C:/temp/dataset/3/15_6.odb,Step-1,Increment      8: Step Time =    1.000,"PART-1-1",           464,       10.7289,      -14.9294,            0.,NA,NA,"",       1.21939,       1.18116,  -302.960E-03,   11.8269E-03
C:/temp/dataset/3/15_6.odb,Step-1,Increment      8: Step Time =    1.000,"PART-1-1",           465,       8.74656,      -13.5956,            0.,NA,NA,"",       1.62332,       1.61595,   154.527E-03,   44.0982E-03
C:/temp/dataset/3/15_6.odb,Step-1,Increment      8: Step Time =    1.000,"PART-1-1",           466,      -8.72016,      -22.5745,            0.,NA,NA,"",   69.8340E-03,   69.7925E-03,  -2.40759E-03,   2.97012E-03
C:/temp/dataset/3/15_6.odb,Step-1,Increment      8: Step Time =    1.000,"PART-1-1",           467,      -7.48342,      -21.2909,            0.,NA,NA,"",   76.0313E-03,   75.9052E-03,  -4.37607E-03,   2.05933E-03
C:/temp/dataset/3/15_6.odb,Step-1,Increment      8: Step Time =    1.000,"PART-1-1",           468,         -8.75,          -20.,            0.,NA,NA,"",   76.9774E-03,   76.8885E-03,  -3.69890E-03,   248.884E-06
C:/temp/dataset/3/15_6.odb,Step-1,Increment      8: Step Time =    1.000,"PART-1-1",           469,      -9.98674,      -21.2836,            0.,NA,NA,"",   72.9939E-03,   72.9897E-03,  -776.647E-06,   981.572E-06
C:/temp/dataset/3/15_6.odb,Step-1,Increment      8: Step Time =    1.000,"PART-1-1",           470,      -4.96670,      -26.3491,            0.,NA,NA,"",   56.9083E-03,   56.6307E-03,   5.61389E-03,   10.3342E-03
C:/temp/dataset/3/15_6.odb,Step-1,Increment      8: Step Time =    1.000,"PART-1-1",           471,      -6.21541,      -25.0985,            0.,NA,NA,"",   63.4425E-03,   63.4195E-03,   1.70960E-03,   8.08290E-03
C:/temp/dataset/3/15_6.odb,Step-1,Increment      8: Step Time =    1.000,"PART-1-1",           472,      -7.47738,      -26.3212,            0.,NA,NA,"",   47.6011E-03,   47.5823E-03,   1.33527E-03,   7.79239E-03
C:/temp/dataset/3/15_6.odb,Step-1,Increment      8: Step Time =    1.000,"PART-1-1",           473,      -6.22867,      -27.5719,            0.,NA,NA,"",   37.3533E-03,   37.2272E-03,   3.06678E-03,   10.1382E-03
C:/temp/dataset/3/15_6.odb,Step-1,Increment      8: Step Time =    1.000,"PART-1-1",           474,   49.7896E-03,      -26.4387,            0.,NA,NA,"",   79.3291E-03,   69.6832E-03,   37.9126E-03,   21.4844E-03
C:/temp/dataset/3/15_6.odb,Step-1,Increment      8: Step Time =    1.000,"PART-1-1",           475,       1.24862,      -27.7048,            0.,NA,NA,"",   54.3093E-03,   44.0374E-03,   31.7838E-03,   23.0466E-03
C:/temp/dataset/3/15_6.odb,Step-1,Increment      8: Step Time =    1.000,"PART-1-1",           476,       2.52056,      -26.5649,            0.,NA,NA,"",   84.3156E-03,   56.1804E-03,   62.8720E-03,   30.7419E-03
C:/temp/dataset/3/15_6.odb,Step-1,Increment      8: Step Time =    1.000,"PART-1-1",           477,       1.32172,      -25.2988,            0.,NA,NA,"",   111.260E-03,   87.6707E-03,   68.5028E-03,   28.4120E-03
C:/temp/dataset/3/15_6.odb,Step-1,Increment      8: Step Time =    1.000,"PART-1-1",           478,        -13.75,          -20.,            0.,NA,NA,"",   79.3720E-03,   78.1060E-03,   14.1202E-03,   188.923E-06
C:/temp/dataset/3/15_6.odb,Step-1,Increment      8: Step Time =    1.000,"PART-1-1",           479,          -15.,        -21.25,            0.,NA,NA,"",   74.9765E-03,   72.1706E-03,   20.3192E-03,   160.600E-06
C:/temp/dataset/3/15_6.odb,Step-1,Increment      8: Step Time =    1.000,"PART-1-1",           480,      -13.7430,      -22.5153,            0.,NA,NA,"",   67.3562E-03,   65.8780E-03,   14.0335E-03,   216.724E-06
C:/temp/dataset/3/15_6.odb,Step-1,Increment      8: Step Time =    1.000,"PART-1-1",           481,      -12.4930,      -21.2653,            0.,NA,NA,"",   72.6227E-03,   72.1660E-03,   8.13218E-03,   175.513E-06
C:/temp/dataset/3/15_6.odb,Step-1,Increment      8: Step Time =    1.000,"PART-1-1",           482,      -11.2297,      -22.5489,            0.,NA,NA,"",   66.6229E-03,   66.5436E-03,   3.25014E-03,   1.40898E-03
C:/temp/dataset/3/15_6.odb,Step-1,Increment      8: Step Time =    1.000,"PART-1-1",           483,        -11.25,          -20.,            0.,NA,NA,"",   77.4024E-03,   77.3392E-03,   3.12775E-03,   293.595E-06
C:/temp/dataset/3/15_6.odb,Step-1,Increment      8: Step Time =    1.000,"PART-1-1",           484,      -13.7448,      -25.0201,            0.,NA,NA,"",   51.5891E-03,   49.8770E-03,   13.1804E-03,   1.54646E-03
C:/temp/dataset/3/15_6.odb,Step-1,Increment      8: Step Time =    1.000,"PART-1-1",           485,      -12.4878,      -23.7854,            0.,NA,NA,"",   59.1198E-03,   58.5959E-03,   7.85367E-03,   1.76582E-03
C:/temp/dataset/3/15_6.odb,Step-1,Increment      8: Step Time =    1.000,"PART-1-1",           486,          -15.,        -23.75,            0.,NA,NA,"",   62.3551E-03,   58.7049E-03,   21.0213E-03,   40.7526E-06
C:/temp/dataset/3/15_6.odb,Step-1,Increment      8: Step Time =    1.000,"PART-1-1",           487,       13.7335,      -27.5520,            0.,NA,NA,"",   100.595E-03,  -6.01115E-03,  -100.415E-03,   53.5248E-03
C:/temp/dataset/3/15_6.odb,Step-1,Increment      8: Step Time =    1.000,"PART-1-1",           488,       12.4835,      -28.8020,            0.,NA,NA,"",   39.6319E-03,  -22.5094E-03,  -32.6192E-03,   38.7058E-03
C:/temp/dataset/3/15_6.odb,Step-1,Increment      8: Step Time =    1.000,"PART-1-1",           489,         13.75,          -30.,            0.,NA,NA,"",            0.,  -7.71275E-42,  -82.8714E-42,   39.2793E-03
C:/temp/dataset/3/15_6.odb,Step-1,Increment      8: Step Time =    1.000,"PART-1-1",           490,           15.,        -28.75,            0.,NA,NA,"",   59.3914E-03,   26.4499E-03,  -53.1765E-03,   54.5395E-03
C:/temp/dataset/3/15_6.odb,Step-1,Increment      8: Step Time =    1.000,"PART-1-1",           491,       9.98010,      -28.8907,            0.,NA,NA,"",   32.2926E-03,  -31.1962E-03,  -8.34300E-03,   21.5941E-03
C:/temp/dataset/3/15_6.odb,Step-1,Increment      8: Step Time =    1.000,"PART-1-1",           492,       8.70049,      -27.8380,            0.,NA,NA,"",   39.5957E-03,  -38.8841E-03,   7.47299E-03,   15.5243E-03
C:/temp/dataset/3/15_6.odb,Step-1,Increment      8: Step Time =    1.000,"PART-1-1",           493,          8.75,          -30.,            0.,NA,NA,"",            0.,  -19.7023E-42,  -19.3547E-42,   19.7173E-03
C:/temp/dataset/3/15_6.odb,Step-1,Increment      8: Step Time =    1.000,"PART-1-1",           494,       11.2136,      -27.6927,            0.,NA,NA,"",   59.7131E-03,  -42.6182E-03,  -41.8252E-03,   28.4097E-03
C:/temp/dataset/3/15_6.odb,Step-1,Increment      8: Step Time =    1.000,"PART-1-1",           495,       12.3768,      -26.3916,            0.,NA,NA,"",   115.680E-03,  -29.9733E-03,  -111.729E-03,   44.5672E-03
C:/temp/dataset/3/15_6.odb,Step-1,Increment      8: Step Time =    1.000,"PART-1-1",           496,       11.0556,      -25.4315,            0.,NA,NA,"",   87.2034E-03,  -34.3278E-03,  -80.1625E-03,   30.6276E-03
C:/temp/dataset/3/15_6.odb,Step-1,Increment      8: Step Time =    1.000,"PART-1-1",           497,       9.89242,      -26.7326,            0.,NA,NA,"",   50.3205E-03,  -46.8842E-03,  -18.2762E-03,   20.2023E-03
C:/temp/dataset/3/15_6.odb,Step-1,Increment      8: Step Time =    1.000,"PART-1-1",           498,   9.79186E-03,      -28.8313,            0.,NA,NA,"",   28.5699E-03,   25.9491E-03,   11.9535E-03,   20.1047E-03
C:/temp/dataset/3/15_6.odb,Step-1,Increment      8: Step Time =    1.000,"PART-1-1",           499,          1.25,          -30.,            0.,NA,NA,"",            0.,   10.8895E-42,   21.1960E-42,   19.9048E-03
C:/temp/dataset/3/15_6.odb,Step-1,Increment      8: Step Time =    1.000,"PART-1-1",           500,      -1.18061,      -25.1833,            0.,NA,NA,"",   92.2948E-03,   86.3414E-03,   32.6113E-03,   18.2876E-03
C:/temp/dataset/3/15_6.odb,Step-1,Increment      8: Step Time =    1.000,"PART-1-1",           501,      -2.45538,      -26.3836,            0.,NA,NA,"",   68.1828E-03,   66.0318E-03,   16.9913E-03,   14.5941E-03
C:/temp/dataset/3/15_6.odb,Step-1,Increment      8: Step Time =    1.000,"PART-1-1",           502,      -1.22498,      -27.6390,            0.,NA,NA,"",   52.0514E-03,   48.8547E-03,   17.9602E-03,   17.4666E-03
C:/temp/dataset/3/15_6.odb,Step-1,Increment      8: Step Time =    1.000,"PART-1-1",           503,      -3.70005,      -25.1329,            0.,NA,NA,"",   75.4215E-03,   74.6358E-03,   10.8587E-03,   11.7270E-03
C:/temp/dataset/3/15_6.odb,Step-1,Increment      8: Step Time =    1.000,"PART-1-1",           504,      -7.49141,      -28.7797,            0.,NA,NA,"",   17.9619E-03,   17.8905E-03,   1.60059E-03,   9.44855E-03
C:/temp/dataset/3/15_6.odb,Step-1,Increment      8: Step Time =    1.000,"PART-1-1",           505,         -6.25,          -30.,            0.,NA,NA,"",            0.,   11.0983E-42,   6.91120E-42,   11.8019E-03
C:/temp/dataset/3/15_6.odb,Step-1,Increment      8: Step Time =    1.000,"PART-1-1",           506,      -12.4949,      -26.2800,            0.,NA,NA,"",   39.0547E-03,   38.5492E-03,   6.26297E-03,   4.73052E-03
C:/temp/dataset/3/15_6.odb,Step-1,Increment      8: Step Time =    1.000,"PART-1-1",           507,          -15.,        -26.25,            0.,NA,NA,"",   45.3862E-03,   40.4154E-03,   20.6521E-03,   2.14527E-03
C:/temp/dataset/3/15_6.odb,Step-1,Increment      8: Step Time =    1.000,"PART-1-1",           508,       12.0036,      -23.8365,            0.,NA,NA,"",   179.627E-03,   11.5932E-03,  -179.253E-03,   44.5808E-03
C:/temp/dataset/3/15_6.odb,Step-1,Increment      8: Step Time =    1.000,"PART-1-1",           509,       13.6432,      -25.0896,            0.,NA,NA,"",   221.531E-03,   11.9030E-03,  -221.211E-03,   61.4288E-03
C:/temp/dataset/3/15_6.odb,Step-1,Increment      8: Step Time =    1.000,"PART-1-1",           510,           15.,        -23.75,            0.,NA,NA,"",   382.753E-03,   94.4778E-03,  -370.909E-03,   88.6391E-03
C:/temp/dataset/3/15_6.odb,Step-1,Increment      8: Step Time =    1.000,"PART-1-1",           511,         11.25,          -30.,            0.,NA,NA,"",            0.,  -20.5360E-42,  -56.8661E-42,   28.4632E-03
C:/temp/dataset/3/15_6.odb,Step-1,Increment      8: Step Time =    1.000,"PART-1-1",           512,       13.9281,      -14.6298,            0.,NA,NA,"",       1.64188,       1.21940,      -1.09947,   87.7398E-03
C:/temp/dataset/3/15_6.odb,Step-1,Increment      8: Step Time =    1.000,"PART-1-1",           513,       12.2657,      -15.3468,            0.,NA,NA,"",       1.23361,       1.05710,  -635.870E-03,   45.2046E-03
C:/temp/dataset/3/15_6.odb,Step-1,Increment      8: Step Time =    1.000,"PART-1-1",           514,           15.,        -16.25,            0.,NA,NA,"",       1.47555,   902.708E-03,      -1.16721,   117.478E-03
C:/temp/dataset/3/15_6.odb,Step-1,Increment      8: Step Time =    1.000,"PART-1-1",           515,       7.13425,      -14.5121,            0.,NA,NA,"",       1.55358,       1.45903,   533.712E-03,   84.8322E-03
C:/temp/dataset/3/15_6.odb,Step-1,Increment      8: Step Time =    1.000,"PART-1-1",           516,       6.81531,      -16.2905,            0.,NA,NA,"",       1.14192,       1.01723,   518.873E-03,   93.8893E-03
C:/temp/dataset/3/15_6.odb,Step-1,Increment      8: Step Time =    1.000,"PART-1-1",           517,       8.10983,      -17.0757,            0.,NA,NA,"",   816.393E-03,   778.534E-03,   245.729E-03,   60.1747E-03
C:/temp/dataset/3/15_6.odb,Step-1,Increment      8: Step Time =    1.000,"PART-1-1",           518,       13.8641,      -7.41825,            0.,NA,NA,"",       3.93833,       3.40917,      -1.97180,   72.7206E-03
C:/temp/dataset/3/15_6.odb,Step-1,Increment      8: Step Time =    1.000,"PART-1-1",           519,       13.0286,      -8.63342,            0.,NA,NA,"",       3.35401,       3.00490,      -1.48995,   57.3920E-03
C:/temp/dataset/3/15_6.odb,Step-1,Increment      8: Step Time =    1.000,"PART-1-1",           520,       14.1645,      -9.96517,            0.,NA,NA,"",       3.05324,       2.51273,      -1.73449,   85.1098E-03
C:/temp/dataset/3/15_6.odb,Step-1,Increment      8: Step Time =    1.000,"PART-1-1",           521,           15.,         -8.75,            0.,NA,NA,"",       3.64875,       2.89352,      -2.22282,   101.224E-03
C:/temp/dataset/3/15_6.odb,Step-1,Increment      8: Step Time =    1.000,"PART-1-1",           522,       12.0251,      -10.9831,            0.,NA,NA,"",       2.42571,       2.25238,  -900.467E-03,   37.0756E-03
C:/temp/dataset/3/15_6.odb,Step-1,Increment      8: Step Time =    1.000,"PART-1-1",           523,       12.8055,      -11.9581,            0.,NA,NA,"",       2.19962,       1.92975,      -1.05564,   55.5738E-03
C:/temp/dataset/3/15_6.odb,Step-1,Increment      8: Step Time =    1.000,"PART-1-1",           524,       13.3751,      -11.0455,            0.,NA,NA,"",       2.56351,       2.19087,      -1.33104,   68.0067E-03
C:/temp/dataset/3/15_6.odb,Step-1,Increment      8: Step Time =    1.000,"PART-1-1",           525,       12.5947,      -10.0706,            0.,NA,NA,"",       2.78745,       2.52776,      -1.17487,   48.9845E-03
C:/temp/dataset/3/15_6.odb,Step-1,Increment      8: Step Time =    1.000,"PART-1-1",           526,       11.4853,  -434.223E-03,            0.,NA,NA,"",       6.90652,       6.63738,      -1.90925,   17.9560E-03
C:/temp/dataset/3/15_6.odb,Step-1,Increment      8: Step Time =    1.000,"PART-1-1",           527,       10.5886,      -1.82652,            0.,NA,NA,"",       6.21387,       6.07483,      -1.30715,   16.3443E-03
C:/temp/dataset/3/15_6.odb,Step-1,Increment      8: Step Time =    1.000,"PART-1-1",           528,       11.9063,      -2.70193,            0.,NA,NA,"",       5.80759,       5.52422,      -1.79195,   29.6490E-03
C:/temp/dataset/3/15_6.odb,Step-1,Increment      8: Step Time =    1.000,"PART-1-1",           529,       14.1300,       7.44597,            0.,NA,NA,"",       11.2934,       10.2622,      -4.71474,   60.5342E-03
C:/temp/dataset/3/15_6.odb,Step-1,Increment      8: Step Time =    1.000,"PART-1-1",           530,       13.1865,       6.25975,            0.,NA,NA,"",       10.5306,       9.77349,      -3.92069,   44.6528E-03
C:/temp/dataset/3/15_6.odb,Step-1,Increment      8: Step Time =    1.000,"PART-1-1",           531,           15.,          6.25,            0.,NA,NA,"",       10.7172,       9.50389,      -4.95318,   73.6958E-03
C:/temp/dataset/3/15_6.odb,Step-1,Increment      8: Step Time =    1.000,"PART-1-1",           532,       12.4155,       5.33720,            0.,NA,NA,"",       9.96887,       9.40304,      -3.31078,   32.8485E-03
C:/temp/dataset/3/15_6.odb,Step-1,Increment      8: Step Time =    1.000,"PART-1-1",           533,       11.2733,       3.54111,            0.,NA,NA,"",       8.96319,       8.63987,      -2.38568,   15.6824E-03
C:/temp/dataset/3/15_6.odb,Step-1,Increment      8: Step Time =    1.000,"PART-1-1",           534,       12.2480,       13.5548,            0.,NA,NA,"",       15.0385,       14.1820,      -5.00263,   27.0845E-03
C:/temp/dataset/3/15_6.odb,Step-1,Increment      8: Step Time =    1.000,"PART-1-1",           535,           15.,         13.75,            0.,NA,NA,"",       15.3284,       13.7059,      -6.86352,   72.6390E-03
C:/temp/dataset/3/15_6.odb,Step-1,Increment      8: Step Time =    1.000,"PART-1-1",           536,       13.6600,       14.9734,            0.,NA,NA,"",       16.0499,       14.7560,      -6.31343,   49.5092E-03
C:/temp/dataset/3/15_6.odb,Step-1,Increment      8: Step Time =    1.000,"PART-1-1",           537,       8.15326,       10.4556,            0.,NA,NA,"",       13.2534,       13.1307,      -1.79874,   39.8073E-03
C:/temp/dataset/3/15_6.odb,Step-1,Increment      8: Step Time =    1.000,"PART-1-1",           538,       12.3824,       21.2920,            0.,NA,NA,"",       20.6972,       19.3452,      -7.35797,   31.7987E-03
C:/temp/dataset/3/15_6.odb,Step-1,Increment      8: Step Time =    1.000,"PART-1-1",           539,       13.6892,       20.0188,            0.,NA,NA,"",       19.7234,       18.0831,      -7.87500,   42.2671E-03
C:/temp/dataset/3/15_6.odb,Step-1,Increment      8: Step Time =    1.000,"PART-1-1",           540,           15.,         21.25,            0.,NA,NA,"",       20.7355,       18.5609,      -9.24428,   48.8241E-03
C:/temp/dataset/3/15_6.odb,Step-1,Increment      8: Step Time =    1.000,"PART-1-1",           541,       13.6932,       22.5232,            0.,NA,NA,"",       21.6775,       19.8473,      -8.71783,   32.6950E-03
C:/temp/dataset/3/15_6.odb,Step-1,Increment      8: Step Time =    1.000,"PART-1-1",           542,       9.77662,       16.3041,            0.,NA,NA,"",       17.0702,       16.5760,      -4.07772,   10.3463E-03
C:/temp/dataset/3/15_6.odb,Step-1,Increment      8: Step Time =    1.000,"PART-1-1",           543,       11.0318,       15.0036,            0.,NA,NA,"",       16.0606,       15.3946,      -4.57702,   8.81594E-03
C:/temp/dataset/3/15_6.odb,Step-1,Increment      8: Step Time =    1.000,"PART-1-1",           544,       12.3430,       16.2301,            0.,NA,NA,"",       16.8986,       15.8798,      -5.77873,   28.4129E-03
C:/temp/dataset/3/15_6.odb,Step-1,Increment      8: Step Time =    1.000,"PART-1-1",           545,         13.75,           30.,            0.,NA,NA,"",       27.7101,       25.3158,      -11.2679,   1.45133E-03
C:/temp/dataset/3/15_6.odb,Step-1,Increment      8: Step Time =    1.000,"PART-1-1",           546,       12.4862,       28.7548,            0.,NA,NA,"",       26.7229,       24.8040,      -9.94347,   9.20804E-03
C:/temp/dataset/3/15_6.odb,Step-1,Increment      8: Step Time =    1.000,"PART-1-1",           547,           15.,         28.75,            0.,NA,NA,"",       26.7305,       23.9931,      -11.7835,   1.46267E-03
C:/temp/dataset/3/15_6.odb,Step-1,Increment      8: Step Time =    1.000,"PART-1-1",           548,       12.4064,       23.7898,            0.,NA,NA,"",       22.6903,       21.1506,      -8.21589,   30.2340E-03
C:/temp/dataset/3/15_6.odb,Step-1,Increment      8: Step Time =    1.000,"PART-1-1",           549,           15.,         23.75,            0.,NA,NA,"",       22.7017,       20.3281,      -10.1062,   30.1431E-03
C:/temp/dataset/3/15_6.odb,Step-1,Increment      8: Step Time =    1.000,"PART-1-1",           550,       9.91541,       26.3072,            0.,NA,NA,"",       24.8761,       23.7873,      -7.27930,   28.7773E-03
C:/temp/dataset/3/15_6.odb,Step-1,Increment      8: Step Time =    1.000,"PART-1-1",           551,       11.1537,       25.0565,            0.,NA,NA,"",       23.7639,       22.4664,      -7.74488,   29.3943E-03
C:/temp/dataset/3/15_6.odb,Step-1,Increment      8: Step Time =    1.000,"PART-1-1",           552,       11.2110,       27.5221,            0.,NA,NA,"",       25.7752,       24.2921,      -8.61697,   21.4869E-03
C:/temp/dataset/3/15_6.odb,Step-1,Increment      8: Step Time =    1.000,"PART-1-1",           553,       8.69233,       27.5515,            0.,NA,NA,"",       26.0270,       25.1180,      -6.81854,   26.4613E-03
C:/temp/dataset/3/15_6.odb,Step-1,Increment      8: Step Time =    1.000,"PART-1-1",           554,       7.41297,       26.3376,            0.,NA,NA,"",       25.2190,       24.6144,      -5.48911,   26.9354E-03
C:/temp/dataset/3/15_6.odb,Step-1,Increment      8: Step Time =    1.000,"PART-1-1",           555,       8.63604,       25.0933,            0.,NA,NA,"",       24.0194,       23.2704,      -5.95144,   29.7913E-03
C:/temp/dataset/3/15_6.odb,Step-1,Increment      8: Step Time =    1.000,"PART-1-1",           556,      -1.26375,       27.5391,            0.,NA,NA,"",       28.7911,       28.7835,   658.477E-03,   20.1869E-03
C:/temp/dataset/3/15_6.odb,Step-1,Increment      8: Step Time =    1.000,"PART-1-1",           557,         -1.25,           30.,            0.,NA,NA,"",       30.7432,       30.7418,  -286.083E-03,   32.2725E-03
C:/temp/dataset/3/15_6.odb,Step-1,Increment      8: Step Time =    1.000,"PART-1-1",           558,      -2.50500,       28.7640,            0.,NA,NA,"",       30.2873,       30.2648,       1.16741,   21.4810E-03
C:/temp/dataset/3/15_6.odb,Step-1,Increment      8: Step Time =    1.000,"PART-1-1",           559,      -7.50143,       28.7522,            0.,NA,NA,"",       32.7326,       32.3256,       5.14581,   9.01384E-03
C:/temp/dataset/3/15_6.odb,Step-1,Increment      8: Step Time =    1.000,"PART-1-1",           560,         -8.75,           30.,            0.,NA,NA,"",       34.3178,       33.8508,       5.64213,   6.68704E-03
C:/temp/dataset/3/15_6.odb,Step-1,Increment      8: Step Time =    1.000,"PART-1-1",           561,      -6.25460,       27.5081,            0.,NA,NA,"",       31.1570,       30.8093,       4.64165,   12.8789E-03
C:/temp/dataset/3/15_6.odb,Step-1,Increment      8: Step Time =    1.000,"PART-1-1",           562,        -13.75,           30.,            0.,NA,NA,"",       37.1805,       35.9015,       9.66813,   211.799E-06
C:/temp/dataset/3/15_6.odb,Step-1,Increment      8: Step Time =    1.000,"PART-1-1",           563,          -15.,         28.75,            0.,NA,NA,"",       37.1282,       35.4038,       11.1837,   215.644E-06
C:/temp/dataset/3/15_6.odb,Step-1,Increment      8: Step Time =    1.000,"PART-1-1",           564,      -13.7509,       27.5010,            0.,NA,NA,"",       35.5353,       33.8906,       10.6856,   1.65573E-03
C:/temp/dataset/3/15_6.odb,Step-1,Increment      8: Step Time =    1.000,"PART-1-1",           565,          -15.,         26.25,            0.,NA,NA,"",       35.5520,       33.3934,       12.1995,   1.73038E-03
C:/temp/dataset/3/15_6.odb,Step-1,Increment      8: Step Time =    1.000,"PART-1-1",           566,      -12.5016,       26.2536,            0.,NA,NA,"",       33.9433,       32.3794,       10.1841,   4.28763E-03
C:/temp/dataset/3/15_6.odb,Step-1,Increment      8: Step Time =    1.000,"PART-1-1",           567,      -7.50093,       21.2547,            0.,NA,NA,"",       27.5767,       26.3430,       8.15621,   12.2433E-03
C:/temp/dataset/3/15_6.odb,Step-1,Increment      8: Step Time =    1.000,"PART-1-1",           568,         -6.25,           20.,            0.,NA,NA,"",       25.9879,       24.8356,       7.65282,   15.7160E-03
C:/temp/dataset/3/15_6.odb,Step-1,Increment      8: Step Time =    1.000,"PART-1-1",           569,      -4.99978,       21.2574,            0.,NA,NA,"",       26.0586,       25.3326,       6.10822,   16.9467E-03
C:/temp/dataset/3/15_6.odb,Step-1,Increment      8: Step Time =    1.000,"PART-1-1",           570,      -3.74911,       22.5208,            0.,NA,NA,"",       26.2330,       25.8300,       4.58044,   17.1121E-03
C:/temp/dataset/3/15_6.odb,Step-1,Increment      8: Step Time =    1.000,"PART-1-1",           571,         -3.75,           20.,            0.,NA,NA,"",       24.4806,       23.8319,       5.59800,   23.0566E-03
C:/temp/dataset/3/15_6.odb,Step-1,Increment      8: Step Time =    1.000,"PART-1-1",           572,      -2.49933,       21.2634,            0.,NA,NA,"",       24.6792,       24.3426,       4.06202,   21.0103E-03
C:/temp/dataset/3/15_6.odb,Step-1,Increment      8: Step Time =    1.000,"PART-1-1",           573,         -1.25,           20.,            0.,NA,NA,"",       23.1416,       22.8680,       3.54803,   30.1864E-03
C:/temp/dataset/3/15_6.odb,Step-1,Increment      8: Step Time =    1.000,"PART-1-1",           574,  -2.23348E-03,       21.2694,            0.,NA,NA,"",       23.4773,       23.3895,       2.02817,   27.4157E-03
C:/temp/dataset/3/15_6.odb,Step-1,Increment      8: Step Time =    1.000,"PART-1-1",           575,      -1.25156,       22.5328,            0.,NA,NA,"",       24.9835,       24.8532,       2.54789,   20.0916E-03
C:/temp/dataset/3/15_6.odb,Step-1,Increment      8: Step Time =    1.000,"PART-1-1",           576,         -3.75,           30.,            0.,NA,NA,"",       31.8189,       31.7755,       1.66239,   22.5015E-03
C:/temp/dataset/3/15_6.odb,Step-1,Increment      8: Step Time =    1.000,"PART-1-1",           577,      -5.00318,       28.7559,            0.,NA,NA,"",       31.4493,       31.2914,       3.14710,   14.8083E-03
C:/temp/dataset/3/15_6.odb,Step-1,Increment      8: Step Time =    1.000,"PART-1-1",           578,       7.36074,       18.8052,            0.,NA,NA,"",       19.2232,       18.9767,      -3.06862,   31.0684E-03
C:/temp/dataset/3/15_6.odb,Step-1,Increment      8: Step Time =    1.000,"PART-1-1",           579,       8.58169,       17.5494,            0.,NA,NA,"",       18.1099,       17.7502,      -3.59144,   26.1436E-03
C:/temp/dataset/3/15_6.odb,Step-1,Increment      8: Step Time =    1.000,"PART-1-1",           580,       8.60057,       20.0599,            0.,NA,NA,"",       19.9905,       19.5234,      -4.29599,   19.4777E-03
C:/temp/dataset/3/15_6.odb,Step-1,Increment      8: Step Time =    1.000,"PART-1-1",           581,            5.,         18.75,            0.,NA,NA,"",       19.7055,       19.6534,      -1.43280,   109.054E-03
C:/temp/dataset/3/15_6.odb,Step-1,Increment      8: Step Time =    1.000,"PART-1-1",           582,       6.17685,       17.5255,            0.,NA,NA,"",       18.5141,       18.4098,      -1.96204,   67.8496E-03
C:/temp/dataset/3/15_6.odb,Step-1,Increment      8: Step Time =    1.000,"PART-1-1",           583,       6.18390,       20.0298,            0.,NA,NA,"",       20.3661,       20.2060,      -2.54838,   59.4427E-03
C:/temp/dataset/3/15_6.odb,Step-1,Increment      8: Step Time =    1.000,"PART-1-1",           584,            5.,         16.25,            0.,NA,NA,"",       17.8554,       17.8305,  -942.330E-03,   85.7668E-03
C:/temp/dataset/3/15_6.odb,Step-1,Increment      8: Step Time =    1.000,"PART-1-1",           585,       6.15340,       15.0385,            0.,NA,NA,"",       16.7216,       16.6598,      -1.43641,   68.3432E-03
C:/temp/dataset/3/15_6.odb,Step-1,Increment      8: Step Time =    1.000,"PART-1-1",           586,       7.33024,       16.3140,            0.,NA,NA,"",       17.4051,       17.2300,      -2.46228,   48.6528E-03
C:/temp/dataset/3/15_6.odb,Step-1,Increment      8: Step Time =    1.000,"PART-1-1",           587,           15.,         16.25,            0.,NA,NA,"",       17.0417,       15.2499,      -7.60672,   69.4475E-03
C:/temp/dataset/3/15_6.odb,Step-1,Increment      8: Step Time =    1.000,"PART-1-1",           588,       13.6830,       17.5067,            0.,NA,NA,"",       17.8482,       16.3866,      -7.07383,   47.4353E-03
C:/temp/dataset/3/15_6.odb,Step-1,Increment      8: Step Time =    1.000,"PART-1-1",           589,           15.,         18.75,            0.,NA,NA,"",       18.8443,       16.8668,      -8.40344,   62.3286E-03
C:/temp/dataset/3/15_6.odb,Step-1,Increment      8: Step Time =    1.000,"PART-1-1",           590,       7.36831,       6.81272,            0.,NA,NA,"",       11.0823,       11.0553,  -773.787E-03,   42.6449E-03
C:/temp/dataset/3/15_6.odb,Step-1,Increment      8: Step Time =    1.000,"PART-1-1",           591,       6.10412,       7.73110,            0.,NA,NA,"",       11.8562,       11.8544,  -208.232E-03,   76.6290E-03
C:/temp/dataset/3/15_6.odb,Step-1,Increment      8: Step Time =    1.000,"PART-1-1",           592,            5.,          6.25,            0.,NA,NA,"",       11.1719,       11.1584,   548.657E-03,   122.499E-03
C:/temp/dataset/3/15_6.odb,Step-1,Increment      8: Step Time =    1.000,"PART-1-1",           593,       6.26419,       5.33162,            0.,NA,NA,"",       10.3776,       10.3776,   4.49612E-03,   69.8001E-03
C:/temp/dataset/3/15_6.odb,Step-1,Increment      8: Step Time =    1.000,"PART-1-1",           594,           15.,          8.75,            0.,NA,NA,"",       12.1648,       10.8316,      -5.53697,   75.3281E-03
C:/temp/dataset/3/15_6.odb,Step-1,Increment      8: Step Time =    1.000,"PART-1-1",           595,       13.1418,       8.51598,            0.,NA,NA,"",       11.8455,       11.0108,      -4.36790,   43.7236E-03
C:/temp/dataset/3/15_6.odb,Step-1,Increment      8: Step Time =    1.000,"PART-1-1",           596,       6.30252,      -5.49102,            0.,NA,NA,"",       4.91448,       4.83134,   900.177E-03,   80.4446E-03
C:/temp/dataset/3/15_6.odb,Step-1,Increment      8: Step Time =    1.000,"PART-1-1",           597,            5.,         -6.25,            0.,NA,NA,"",       4.89614,       4.67666,       1.44950,   144.316E-03
C:/temp/dataset/3/15_6.odb,Step-1,Increment      8: Step Time =    1.000,"PART-1-1",           598,       6.10325,      -7.87566,            0.,NA,NA,"",       3.96642,       3.83776,       1.00204,   96.0388E-03
C:/temp/dataset/3/15_6.odb,Step-1,Increment      8: Step Time =    1.000,"PART-1-1",           599,       7.40577,      -7.11668,            0.,NA,NA,"",       4.03962,       4.00844,   500.966E-03,   54.5061E-03
C:/temp/dataset/3/15_6.odb,Step-1,Increment      8: Step Time =    1.000,"PART-1-1",           600,            5.,         -8.75,            0.,NA,NA,"",       3.85958,       3.60930,       1.36722,   122.398E-03
C:/temp/dataset/3/15_6.odb,Step-1,Increment      8: Step Time =    1.000,"PART-1-1",           601,            5.,        -13.75,            0.,NA,NA,"",       2.14627,       1.84300,       1.09992,   129.319E-03
C:/temp/dataset/3/15_6.odb,Step-1,Increment      8: Step Time =    1.000,"PART-1-1",           602,       5.77894,      -15.1288,            0.,NA,NA,"",       1.61035,       1.38930,   814.278E-03,   116.531E-03
C:/temp/dataset/3/15_6.odb,Step-1,Increment      8: Step Time =    1.000,"PART-1-1",           603,            5.,        -16.25,            0.,NA,NA,"",       1.46478,       1.16091,   893.235E-03,   138.282E-03
C:/temp/dataset/3/15_6.odb,Step-1,Increment      8: Step Time =    1.000,"PART-1-1",           604,       2.77244,      -24.0596,            0.,NA,NA,"",   160.597E-03,   109.052E-03,   117.895E-03,   40.8424E-03
C:/temp/dataset/3/15_6.odb,Step-1,Increment      8: Step Time =    1.000,"PART-1-1",           605,       3.76359,      -25.5842,            0.,NA,NA,"",   116.397E-03,   61.8142E-03,   98.6268E-03,   37.9505E-03
C:/temp/dataset/3/15_6.odb,Step-1,Increment      8: Step Time =    1.000,"PART-1-1",           606,       5.11162,      -24.8806,            0.,NA,NA,"",   140.286E-03,   54.2123E-03,   129.388E-03,   46.7982E-03
C:/temp/dataset/3/15_6.odb,Step-1,Increment      8: Step Time =    1.000,"PART-1-1",           607,       4.12047,      -23.3559,            0.,NA,NA,"",   213.353E-03,   117.805E-03,   177.881E-03,   53.4100E-03
C:/temp/dataset/3/15_6.odb,Step-1,Increment      8: Step Time =    1.000,"PART-1-1",           608,       8.48587,      -2.76980,            0.,NA,NA,"",       5.87895,       5.87315,  -260.980E-03,   37.6484E-03
C:/temp/dataset/3/15_6.odb,Step-1,Increment      8: Step Time =    1.000,"PART-1-1",           609,       9.66601,      -3.38468,            0.,NA,NA,"",       5.48725,       5.44017,  -717.239E-03,   22.6495E-03
C:/temp/dataset/3/15_6.odb,Step-1,Increment      8: Step Time =    1.000,"PART-1-1",           610,       9.40849,      -1.21164,            0.,NA,NA,"",       6.57152,       6.51782,  -838.436E-03,   24.1887E-03
C:/temp/dataset/3/15_6.odb,Step-1,Increment      8: Step Time =    1.000,"PART-1-1",           611,       3.88333,            5.,            0.,NA,NA,"",       10.4876,       10.4308,       1.08954,   40.7076E-03
C:/temp/dataset/3/15_6.odb,Step-1,Increment      8: Step Time =    1.000,"PART-1-1",           612,       3.93709,       2.49951,            0.,NA,NA,"",       9.30137,       9.20271,       1.35117,   34.8358E-03
C:/temp/dataset/3/15_6.odb,Step-1,Increment      8: Step Time =    1.000,"PART-1-1",           613,       5.14044,       3.62548,            0.,NA,NA,"",       9.65517,       9.62984,   698.934E-03,   68.4392E-03
C:/temp/dataset/3/15_6.odb,Step-1,Increment      8: Step Time =    1.000,"PART-1-1",           614,       1.70000,           -5.,            0.,NA,NA,"",       6.64509,       5.75777,       3.31741,   6.91989E-03
C:/temp/dataset/3/15_6.odb,Step-1,Increment      8: Step Time =    1.000,"PART-1-1",           615,       2.88648,      -4.17028,            0.,NA,NA,"",       6.54459,       6.00934,       2.59220,   13.7044E-03
C:/temp/dataset/3/15_6.odb,Step-1,Increment      8: Step Time =    1.000,"PART-1-1",           616,       1.90498,      -3.27989,            0.,NA,NA,"",       7.23654,       6.59381,       2.98149,   10.5580E-03
C:/temp/dataset/3/15_6.odb,Step-1,Increment      8: Step Time =    1.000,"PART-1-1",           617,      -2.82853,       3.20340,            0.,NA,NA,"",       11.3082,       10.3786,       4.48999,   1.82453E-03
C:/temp/dataset/3/15_6.odb,Step-1,Increment      8: Step Time =    1.000,"PART-1-1",           618,      -1.73717,       4.08745,            0.,NA,NA,"",       11.3414,       10.6687,       3.84773,   2.44644E-03
C:/temp/dataset/3/15_6.odb,Step-1,Increment      8: Step Time =    1.000,"PART-1-1",           619,      -2.81667,            5.,            0.,NA,NA,"",       12.0306,       11.2517,       4.25823,   2.61142E-03
C:/temp/dataset/3/15_6.odb,Step-1,Increment      8: Step Time =    1.000,"PART-1-1",           620,      -7.28333,            5.,            0.,NA,NA,"",       13.4638,       11.8249,       6.43784,   316.174E-06
C:/temp/dataset/3/15_6.odb,Step-1,Increment      8: Step Time =    1.000,"PART-1-1",           621,      -11.7000,            5.,            0.,NA,NA,"",       15.0780,       12.3880,       8.59543,   3.52257E-06
C:/temp/dataset/3/15_6.odb,Step-1,Increment      8: Step Time =    1.000,"PART-1-1",           622,      -11.5540,       2.50359,            0.,NA,NA,"",       14.2306,       11.1501,       8.84218,   46.5928E-06
C:/temp/dataset/3/15_6.odb,Step-1,Increment      8: Step Time =    1.000,"PART-1-1",           623,      -8.37698,      -4.01732,            0.,NA,NA,"",       11.0964,       7.56083,       8.12177,   146.526E-06
C:/temp/dataset/3/15_6.odb,Step-1,Increment      8: Step Time =    1.000,"PART-1-1",           624,      -10.5279,      -3.86372,            0.,NA,NA,"",       12.0967,       7.90974,       9.15237,   35.8716E-06
C:/temp/dataset/3/15_6.odb,Step-1,Increment      8: Step Time =    1.000,"PART-1-1",           625,      -9.41667,           -5.,            0.,NA,NA,"",       11.3434,       7.21336,       8.75446,   66.5257E-06
C:/temp/dataset/3/15_6.odb,Step-1,Increment      8: Step Time =    1.000,"PART-1-1",           626,          3.75,          -20.,            0.,NA,NA,"",   266.729E-03,   176.869E-03,   199.654E-03,   97.4281E-03
C:/temp/dataset/3/15_6.odb,Step-1,Increment      8: Step Time =    1.000,"PART-1-1",           627,       2.74072,      -21.3682,            0.,NA,NA,"",   223.598E-03,   161.292E-03,   154.858E-03,   33.7052E-03
C:/temp/dataset/3/15_6.odb,Step-1,Increment      8: Step Time =    1.000,"PART-1-1",           628,       4.11640,      -22.1674,            0.,NA,NA,"",   275.535E-03,   165.262E-03,   220.473E-03,   65.8489E-03
C:/temp/dataset/3/15_6.odb,Step-1,Increment      8: Step Time =    1.000,"PART-1-1",           629,       5.12568,      -20.7992,            0.,NA,NA,"",   403.245E-03,   221.350E-03,   337.062E-03,   116.712E-03
C:/temp/dataset/3/15_6.odb,Step-1,Increment      8: Step Time =    1.000,"PART-1-1",           630,          1.25,          -20.,            0.,NA,NA,"",   121.984E-03,   97.6096E-03,   73.1599E-03,   19.6823E-03
C:/temp/dataset/3/15_6.odb,Step-1,Increment      8: Step Time =    1.000,"PART-1-1",           631,   73.0809E-03,      -21.3299,            0.,NA,NA,"",   122.806E-03,   111.395E-03,   51.6959E-03,   13.9691E-03
C:/temp/dataset/3/15_6.odb,Step-1,Increment      8: Step Time =    1.000,"PART-1-1",           632,       1.56380,      -22.6981,            0.,NA,NA,"",   166.422E-03,   132.300E-03,   100.959E-03,   36.3398E-03
C:/temp/dataset/3/15_6.odb,Step-1,Increment      8: Step Time =    1.000,"PART-1-1",           633,         -1.25,          -20.,            0.,NA,NA,"",   91.8945E-03,   88.0441E-03,   26.3217E-03,   5.39478E-03
C:/temp/dataset/3/15_6.odb,Step-1,Increment      8: Step Time =    1.000,"PART-1-1",           634,      -2.46493,      -21.3147,            0.,NA,NA,"",   93.9751E-03,   92.7258E-03,   15.2728E-03,   6.66002E-03
C:/temp/dataset/3/15_6.odb,Step-1,Increment      8: Step Time =    1.000,"PART-1-1",           635,      -1.14185,      -22.6446,            0.,NA,NA,"",   111.230E-03,   105.603E-03,   34.9296E-03,   15.7329E-03
C:/temp/dataset/3/15_6.odb,Step-1,Increment      8: Step Time =    1.000,"PART-1-1",           636,         -3.75,          -20.,            0.,NA,NA,"",   80.5264E-03,   80.4789E-03,   2.76726E-03,   2.69842E-03
C:/temp/dataset/3/15_6.odb,Step-1,Increment      8: Step Time =    1.000,"PART-1-1",           637,      -4.97847,      -21.2978,            0.,NA,NA,"",   81.7484E-03,   81.7425E-03,  -983.706E-06,   3.53741E-03
C:/temp/dataset/3/15_6.odb,Step-1,Increment      8: Step Time =    1.000,"PART-1-1",           638,      -3.69340,      -22.6125,            0.,NA,NA,"",   87.9962E-03,   87.6548E-03,   7.74384E-03,   8.23838E-03
C:/temp/dataset/3/15_6.odb,Step-1,Increment      8: Step Time =    1.000,"PART-1-1",           639,      -4.95791,      -23.8547,            0.,NA,NA,"",   77.2331E-03,   77.1512E-03,   3.55518E-03,   7.73821E-03
C:/temp/dataset/3/15_6.odb,Step-1,Increment      8: Step Time =    1.000,"PART-1-1",           640,      -6.21189,      -22.5887,            0.,NA,NA,"",   76.6392E-03,   76.6142E-03,  -1.95729E-03,   4.97739E-03
C:/temp/dataset/3/15_6.odb,Step-1,Increment      8: Step Time =    1.000,"PART-1-1",           641,      -7.46939,      -23.8324,            0.,NA,NA,"",   67.1183E-03,   67.1029E-03,  -1.43781E-03,   5.21965E-03
C:/temp/dataset/3/15_6.odb,Step-1,Increment      8: Step Time =    1.000,"PART-1-1",           642,           15.,        -13.75,            0.,NA,NA,"",       2.07604,       1.44049,      -1.49497,   114.144E-03
C:/temp/dataset/3/15_6.odb,Step-1,Increment      8: Step Time =    1.000,"PART-1-1",           643,       14.2106,      -12.3304,            0.,NA,NA,"",       2.31092,       1.80348,      -1.44493,   91.1220E-03
C:/temp/dataset/3/15_6.odb,Step-1,Increment      8: Step Time =    1.000,"PART-1-1",           644,       13.1387,      -13.2101,            0.,NA,NA,"",       1.88231,       1.57360,      -1.03291,   64.8078E-03
C:/temp/dataset/3/15_6.odb,Step-1,Increment      8: Step Time =    1.000,"PART-1-1",           645,           15.,        -11.25,            0.,NA,NA,"",       2.80102,       2.10680,      -1.84583,   108.407E-03
C:/temp/dataset/3/15_6.odb,Step-1,Increment      8: Step Time =    1.000,"PART-1-1",           646,           15.,         -6.25,            0.,NA,NA,"",       4.61428,       3.79430,      -2.62582,   91.6647E-03
C:/temp/dataset/3/15_6.odb,Step-1,Increment      8: Step Time =    1.000,"PART-1-1",           647,       14.0624,      -4.92369,            0.,NA,NA,"",       5.00576,       4.37726,      -2.42841,   69.2165E-03
C:/temp/dataset/3/15_6.odb,Step-1,Increment      8: Step Time =    1.000,"PART-1-1",           648,       12.9264,      -6.09194,            0.,NA,NA,"",       4.35407,       3.97674,      -1.77297,   51.5146E-03
C:/temp/dataset/3/15_6.odb,Step-1,Increment      8: Step Time =    1.000,"PART-1-1",           649,           15.,         -3.75,            0.,NA,NA,"",       5.68590,       4.79913,      -3.04923,   80.3250E-03
C:/temp/dataset/3/15_6.odb,Step-1,Increment      8: Step Time =    1.000,"PART-1-1",           650,       13.0440,      -3.68493,            0.,NA,NA,"",       5.43043,       4.98056,      -2.16417,   48.7925E-03
C:/temp/dataset/3/15_6.odb,Step-1,Increment      8: Step Time =    1.000,"PART-1-1",           651,       8.06094,   477.426E-03,            0.,NA,NA,"",       7.56380,       7.55391,  -386.768E-03,   37.1371E-03
C:/temp/dataset/3/15_6.odb,Step-1,Increment      8: Step Time =    1.000,"PART-1-1",           652,       8.76493,       2.31856,            0.,NA,NA,"",       8.43890,       8.38766,  -928.550E-03,   27.8864E-03
C:/temp/dataset/3/15_6.odb,Step-1,Increment      8: Step Time =    1.000,"PART-1-1",           653,       6.73548,       2.80805,            0.,NA,NA,"",       8.95798,       8.95796,   19.0204E-03,   48.5216E-03
C:/temp/dataset/3/15_6.odb,Step-1,Increment      8: Step Time =    1.000,"PART-1-1",           654,       6.03149,   966.916E-03,            0.,NA,NA,"",       8.13159,       8.11457,   525.963E-03,   51.8732E-03
C:/temp/dataset/3/15_6.odb,Step-1,Increment      8: Step Time =    1.000,"PART-1-1",           655,            5.,          8.75,            0.,NA,NA,"",       12.7454,       12.7422,   283.842E-03,   94.2416E-03
C:/temp/dataset/3/15_6.odb,Step-1,Increment      8: Step Time =    1.000,"PART-1-1",           656,       7.16919,       9.14751,            0.,NA,NA,"",       12.5600,       12.5197,      -1.00570,   56.4684E-03
C:/temp/dataset/3/15_6.odb,Step-1,Increment      8: Step Time =    1.000,"PART-1-1",           657,          3.75,           30.,            0.,NA,NA,"",       29.0251,       28.7408,      -4.05202,   45.6200E-03
C:/temp/dataset/3/15_6.odb,Step-1,Increment      8: Step Time =    1.000,"PART-1-1",           658,       3.71036,       27.5731,            0.,NA,NA,"",       27.0553,       26.8674,      -3.18269,   23.3922E-03
C:/temp/dataset/3/15_6.odb,Step-1,Increment      8: Step Time =    1.000,"PART-1-1",           659,       7.38617,       23.8490,            0.,NA,NA,"",       23.1873,       22.7198,      -4.63280,   29.2565E-03
C:/temp/dataset/3/15_6.odb,Step-1,Increment      8: Step Time =    1.000,"PART-1-1",           660,       6.16255,       25.1024,            0.,NA,NA,"",       24.4439,       24.0874,      -4.15998,   21.6567E-03
C:/temp/dataset/3/15_6.odb,Step-1,Increment      8: Step Time =    1.000,"PART-1-1",           661,       4.93576,       23.8439,            0.,NA,NA,"",       23.7122,       23.5437,      -2.82145,   20.2625E-03
C:/temp/dataset/3/15_6.odb,Step-1,Increment      8: Step Time =    1.000,"PART-1-1",           662,       6.15938,       22.5905,            0.,NA,NA,"",       22.4048,       22.1571,      -3.32237,   27.1009E-03
C:/temp/dataset/3/15_6.odb,Step-1,Increment      8: Step Time =    1.000,"PART-1-1",           663,      -10.0017,       23.7560,            0.,NA,NA,"",       30.7573,       29.3577,       9.17259,   8.71851E-03
C:/temp/dataset/3/15_6.odb,Step-1,Increment      8: Step Time =    1.000,"PART-1-1",           664,      -8.75135,       22.5073,            0.,NA,NA,"",       29.1669,       27.8505,       8.66343,   11.1083E-03
C:/temp/dataset/3/15_6.odb,Step-1,Increment      8: Step Time =    1.000,"PART-1-1",           665,      -10.0004,       21.2526,            0.,NA,NA,"",       29.1949,       27.3582,       10.1919,   8.26672E-03
C:/temp/dataset/3/15_6.odb,Step-1,Increment      8: Step Time =    1.000,"PART-1-1",           666,      -11.2505,       22.5043,            0.,NA,NA,"",       30.7853,       28.8682,       10.6942,   7.68361E-03
C:/temp/dataset/3/15_6.odb,Step-1,Increment      8: Step Time =    1.000,"PART-1-1",           667,        -11.25,           20.,            0.,NA,NA,"",       29.3095,       26.8637,       11.7214,   7.12093E-03
C:/temp/dataset/3/15_6.odb,Step-1,Increment      8: Step Time =    1.000,"PART-1-1",           668,         -8.75,           20.,            0.,NA,NA,"",       27.6045,       25.8472,       9.69202,   10.2549E-03
C:/temp/dataset/3/15_6.odb,Step-1,Increment      8: Step Time =    1.000,"PART-1-1",           669,       7.37456,       21.3253,            0.,NA,NA,"",       21.1552,       20.8104,      -3.80386,   28.7820E-03
C:/temp/dataset/3/15_6.odb,Step-1,Increment      8: Step Time =    1.000,"PART-1-1",           670,      -1.26076,       25.0501,            0.,NA,NA,"",       26.8724,       26.8251,       1.59317,   16.3092E-03
C:/temp/dataset/3/15_6.odb,Step-1,Increment      8: Step Time =    1.000,"PART-1-1",           671,      -2.50213,       23.7814,            0.,NA,NA,"",       26.5033,       26.3242,       3.07541,   15.8610E-03
C:/temp/dataset/3/15_6.odb,Step-1,Increment      8: Step Time =    1.000,"PART-1-1",           672,          1.25,           20.,            0.,NA,NA,"",       21.9890,       21.9371,       1.51031,   40.4804E-03
C:/temp/dataset/3/15_6.odb,Step-1,Increment      8: Step Time =    1.000,"PART-1-1",           673,            5.,         13.75,            0.,NA,NA,"",       16.0770,       16.0701,  -468.829E-03,   85.5331E-03
C:/temp/dataset/3/15_6.odb,Step-1,Increment      8: Step Time =    1.000,"PART-1-1",           674,       7.85923,       4.51418,            0.,NA,NA,"",       9.70671,       9.67945,  -726.988E-03,   34.9372E-03
C:/temp/dataset/3/15_6.odb,Step-1,Increment      8: Step Time =    1.000,"PART-1-1",           675,       9.45843,       7.45797,            0.,NA,NA,"",       11.2436,       11.0590,      -2.02944,   12.8396E-03
C:/temp/dataset/3/15_6.odb,Step-1,Increment      8: Step Time =    1.000,"PART-1-1",           676,       11.3500,       8.04392,            0.,NA,NA,"",       11.5156,       11.0566,      -3.21882,   15.8832E-03
C:/temp/dataset/3/15_6.odb,Step-1,Increment      8: Step Time =    1.000,"PART-1-1",           677,       10.2386,       8.70699,            0.,NA,NA,"",       11.9518,       11.6427,      -2.70034,   4.42966E-03
C:/temp/dataset/3/15_6.odb,Step-1,Increment      8: Step Time =    1.000,"PART-1-1",           678,   133.314E-03,       2.02047,            0.,NA,NA,"",       9.95909,       9.43183,       3.19750,   2.48894E-03
C:/temp/dataset/3/15_6.odb,Step-1,Increment      8: Step Time =    1.000,"PART-1-1",           679,       2.26054,       1.70692,            0.,NA,NA,"",       9.28089,       9.01288,       2.21426,   14.6121E-03
C:/temp/dataset/3/15_6.odb,Step-1,Increment      8: Step Time =    1.000,"PART-1-1",           680,  -583.333E-03,            5.,            0.,NA,NA,"",       11.4140,       10.9633,       3.17579,   5.96179E-03
C:/temp/dataset/3/15_6.odb,Step-1,Increment      8: Step Time =    1.000,"PART-1-1",           681,  -713.179E-03,       3.09316,            0.,NA,NA,"",       10.6401,       10.0570,       3.47389,   1.83075E-03
C:/temp/dataset/3/15_6.odb,Step-1,Increment      8: Step Time =    1.000,"PART-1-1",           682,      -10.2084,       1.19941,            0.,NA,NA,"",       13.2926,       10.3417,       8.35106,   102.701E-06
C:/temp/dataset/3/15_6.odb,Step-1,Increment      8: Step Time =    1.000,"PART-1-1",           683,      -7.18333,           -5.,            0.,NA,NA,"",       10.3320,       6.92888,       7.66422,   316.917E-06
C:/temp/dataset/3/15_6.odb,Step-1,Increment      8: Step Time =    1.000,"PART-1-1",           684,      -7.36178,      -2.99006,            0.,NA,NA,"",       10.9142,       7.93341,       7.49531,   442.822E-06
C:/temp/dataset/3/15_6.odb,Step-1,Increment      8: Step Time =    1.000,"PART-1-1",           685,      -11.3125,  -91.5578E-03,            0.,NA,NA,"",       13.3810,       9.85190,       9.05490,   80.4463E-06
C:/temp/dataset/3/15_6.odb,Step-1,Increment      8: Step Time =    1.000,"PART-1-1",           686,      -11.6500,           -5.,            0.,NA,NA,"",       12.3750,       7.49773,       9.84502,   3.77327E-06
C:/temp/dataset/3/15_6.odb,Step-1,Increment      8: Step Time =    1.000,"PART-1-1",           687,      -11.6245,      -2.63993,            0.,NA,NA,"",       12.8697,       8.64705,       9.53199,   42.0106E-06
C:/temp/dataset/3/15_6.odb,Step-1,Increment      8: Step Time =    1.000,"PART-1-1",           688,      -1.03706,       1.18772,            0.,NA,NA,"",       9.95658,       9.17362,       3.87019,   1.77545E-03
C:/temp/dataset/3/15_6.odb,Step-1,Increment      8: Step Time =    1.000,"PART-1-1",           689,      -2.26684,   407.252E-03,            0.,NA,NA,"",       10.0477,       8.94803,       4.57035,   2.03059E-03
C:/temp/dataset/3/15_6.odb,Step-1,Increment      8: Step Time =    1.000,"PART-1-1",           690,      -1.61706,  -775.207E-03,            0.,NA,NA,"",       9.38606,       8.28872,       4.40402,   1.86569E-03
C:/temp/dataset/3/15_6.odb,Step-1,Increment      8: Step Time =    1.000,"PART-1-1",           691,      -4.44627,  -189.662E-03,            0.,NA,NA,"",       10.6024,       8.93175,       5.71275,   1.41232E-03
C:/temp/dataset/3/15_6.odb,Step-1,Increment      8: Step Time =    1.000,"PART-1-1",           692,      -3.83065,   850.686E-03,            0.,NA,NA,"",       10.7469,       9.36125,       5.27845,   1.50819E-03
C:/temp/dataset/3/15_6.odb,Step-1,Increment      8: Step Time =    1.000,"PART-1-1",           693,      -5.38306,   384.196E-03,            0.,NA,NA,"",       11.1459,       9.33032,       6.09723,   989.255E-06
C:/temp/dataset/3/15_6.odb,Step-1,Increment      8: Step Time =    1.000,"PART-1-1",           694,       3.90000,           -5.,            0.,NA,NA,"",       5.85554,       5.43834,       2.17066,   43.8353E-03
C:/temp/dataset/3/15_6.odb,Step-1,Increment      8: Step Time =    1.000,"PART-1-1",           695,       5.25667,      -4.01677,            0.,NA,NA,"",       5.85500,       5.70768,       1.30517,   81.6775E-03
C:/temp/dataset/3/15_6.odb,Step-1,Increment      8: Step Time =    1.000,"PART-1-1",           696,       4.24316,      -3.18705,            0.,NA,NA,"",       6.53557,       6.29365,       1.76175,   42.9163E-03
C:/temp/dataset/3/15_6.odb,Step-1,Increment      8: Step Time =    1.000,"PART-1-1",           697,       9.51721,      -4.82762,            0.,NA,NA,"",       4.81844,       4.79153,  -508.531E-03,   21.2668E-03
C:/temp/dataset/3/15_6.odb,Step-1,Increment      8: Step Time =    1.000,"PART-1-1",           698,       8.04384,      -4.93500,            0.,NA,NA,"",       4.89494,       4.89343,   121.507E-03,   40.9765E-03
C:/temp/dataset/3/15_6.odb,Step-1,Increment      8: Step Time =    1.000,"PART-1-1",           699,       8.61490,      -6.56470,            0.,NA,NA,"",       4.12116,       4.12116,  -3.55852E-03,   30.1838E-03
C:/temp/dataset/3/15_6.odb,Step-1,Increment      8: Step Time =    1.000,"PART-1-1",           700,       10.0883,      -6.45732,            0.,NA,NA,"",       4.07897,       4.03585,  -591.512E-03,   13.9161E-03
C:/temp/dataset/3/15_6.odb,Step-1,Increment      8: Step Time =    1.000,"PART-1-1",           701,       9.29828,      -8.00429,            0.,NA,NA,"",       3.48005,       3.47557,  -176.483E-03,   23.0877E-03
C:/temp/dataset/3/15_6.odb,Step-1,Increment      8: Step Time =    1.000,"PART-1-1",           702,       6.27674,      -21.4047,            0.,NA,NA,"",   319.934E-03,   166.290E-03,   273.323E-03,   68.1541E-03
C:/temp/dataset/3/15_6.odb,Step-1,Increment      8: Step Time =    1.000,"PART-1-1",           703,       7.27122,      -20.3583,            0.,NA,NA,"",   348.932E-03,   241.029E-03,   252.306E-03,   51.7564E-03
C:/temp/dataset/3/15_6.odb,Step-1,Increment      8: Step Time =    1.000,"PART-1-1",           704,         -6.25,          -20.,            0.,NA,NA,"",   78.0589E-03,   77.9151E-03,  -4.73563E-03,   961.577E-06
C:/temp/dataset/3/15_6.odb,Step-1,Increment      8: Step Time =    1.000,"PART-1-1",           705,         -1.25,          -30.,            0.,NA,NA,"",            0.,   13.5604E-42,   16.2649E-42,   18.4421E-03
C:/temp/dataset/3/15_6.odb,Step-1,Increment      8: Step Time =    1.000,"PART-1-1",           706,       8.60683,      -25.8105,            0.,NA,NA,"",   41.7284E-03,  -30.0584E-03,   28.9440E-03,   20.8191E-03
C:/temp/dataset/3/15_6.odb,Step-1,Increment      8: Step Time =    1.000,"PART-1-1",           707,       7.41490,      -26.9159,            0.,NA,NA,"",   48.1350E-03,  -23.8063E-03,   41.8358E-03,   25.5359E-03
C:/temp/dataset/3/15_6.odb,Step-1,Increment      8: Step Time =    1.000,"PART-1-1",           708,       6.17638,      -25.8614,            0.,NA,NA,"",   89.2298E-03,   11.3207E-03,   88.5087E-03,   33.4008E-03
C:/temp/dataset/3/15_6.odb,Step-1,Increment      8: Step Time =    1.000,"PART-1-1",           709,       7.37219,      -25.0876,            0.,NA,NA,"",   85.3689E-03,   1.95921E-03,   85.3464E-03,   33.7028E-03
C:/temp/dataset/3/15_6.odb,Step-1,Increment      8: Step Time =    1.000,"PART-1-1",           710,       6.30743,      -24.1068,            0.,NA,NA,"",   155.131E-03,   50.4566E-03,   146.696E-03,   42.1514E-03
C:/temp/dataset/3/15_6.odb,Step-1,Increment      8: Step Time =    1.000,"PART-1-1",           711,   113.079E-03,      -23.9373,            0.,NA,NA,"",   121.898E-03,   107.167E-03,   58.0892E-03,   23.2253E-03
C:/temp/dataset/3/15_6.odb,Step-1,Increment      8: Step Time =    1.000,"PART-1-1",           712,      -2.43554,      -23.8906,            0.,NA,NA,"",   93.5003E-03,   91.3382E-03,   19.9908E-03,   11.9885E-03
C:/temp/dataset/3/15_6.odb,Step-1,Increment      8: Step Time =    1.000,"PART-1-1",           713,      -8.72529,      -25.0755,            0.,NA,NA,"",   54.8507E-03,   54.8507E-03,  -18.6718E-06,   5.80778E-03
C:/temp/dataset/3/15_6.odb,Step-1,Increment      8: Step Time =    1.000,"PART-1-1",           714,      -9.97606,      -23.8175,            0.,NA,NA,"",   60.8841E-03,   60.8827E-03,   424.534E-06,   3.45276E-03
C:/temp/dataset/3/15_6.odb,Step-1,Increment      8: Step Time =    1.000,"PART-1-1",           715,      -9.99641,      -28.7682,            0.,NA,NA,"",   14.5517E-03,   14.4909E-03,   1.32940E-03,   7.57284E-03
C:/temp/dataset/3/15_6.odb,Step-1,Increment      8: Step Time =    1.000,"PART-1-1",           716,      -11.2465,      -27.5281,            0.,NA,NA,"",   26.9412E-03,   26.8241E-03,   2.50937E-03,   6.65221E-03
C:/temp/dataset/3/15_6.odb,Step-1,Increment      8: Step Time =    1.000,"PART-1-1",           717,        -11.25,          -30.,            0.,NA,NA,"",            0.,   7.33720E-42,   5.61781E-42,   7.11100E-03
C:/temp/dataset/3/15_6.odb,Step-1,Increment      8: Step Time =    1.000,"PART-1-1",           718,         -8.75,          -30.,            0.,NA,NA,"",            0.,   9.02016E-42,   4.96480E-42,   9.07460E-03
C:/temp/dataset/3/15_6.odb,Step-1,Increment      8: Step Time =    1.000,"PART-1-1",           719,      -8.73783,      -27.5479,            0.,NA,NA,"",   30.8359E-03,   30.8014E-03,   1.45852E-03,   8.10078E-03
C:/temp/dataset/3/15_6.odb,Step-1,Increment      8: Step Time =    1.000,"PART-1-1",           720,       9.45286,      -20.3748,            0.,NA,NA,"",   227.424E-03,   227.102E-03,   12.0955E-03,   14.8355E-03
C:/temp/dataset/3/15_6.odb,Step-1,Increment      8: Step Time =    1.000,"PART-1-1",           721,       8.38706,      -19.4374,            0.,NA,NA,"",   381.560E-03,   349.618E-03,   152.826E-03,   31.2482E-03
C:/temp/dataset/3/15_6.odb,Step-1,Increment      8: Step Time =    1.000,"PART-1-1",           722,       8.33702,      -21.2957,            0.,NA,NA,"",   195.845E-03,   149.211E-03,   126.852E-03,   29.6128E-03
C:/temp/dataset/3/15_6.odb,Step-1,Increment      8: Step Time =    1.000,"PART-1-1",           723,       9.34035,      -18.0986,            0.,NA,NA,"",   546.433E-03,   545.821E-03,   25.8634E-03,   16.3604E-03
C:/temp/dataset/3/15_6.odb,Step-1,Increment      8: Step Time =    1.000,"PART-1-1",           724,       10.7511,      -19.4747,            0.,NA,NA,"",   370.925E-03,   328.650E-03,  -171.972E-03,   20.3424E-03
C:/temp/dataset/3/15_6.odb,Step-1,Increment      8: Step Time =    1.000,"PART-1-1",           725,       9.57777,      -9.07511,            0.,NA,NA,"",       3.05446,       3.04679,  -216.224E-03,   19.5017E-03
C:/temp/dataset/3/15_6.odb,Step-1,Increment      8: Step Time =    1.000,"PART-1-1",           726,       10.3854,      -7.79904,            0.,NA,NA,"",       3.52220,       3.47203,  -592.341E-03,   12.1854E-03
C:/temp/dataset/3/15_6.odb,Step-1,Increment      8: Step Time =    1.000,"PART-1-1",           727,       11.9371,      -7.89361,            0.,NA,NA,"",       3.53144,       3.33370,      -1.16511,   34.3074E-03
C:/temp/dataset/3/15_6.odb,Step-1,Increment      8: Step Time =    1.000,"PART-1-1",           728,       11.6400,      -6.55190,            0.,NA,NA,"",       4.05823,       3.87812,      -1.19560,   30.8133E-03
C:/temp/dataset/3/15_6.odb,Step-1,Increment      8: Step Time =    1.000,"PART-1-1",           729,       9.29748,       3.92298,            0.,NA,NA,"",       9.24583,       9.13896,      -1.40168,   15.3148E-03
C:/temp/dataset/3/15_6.odb,Step-1,Increment      8: Step Time =    1.000,"PART-1-1",           730,       10.7408,       1.93669,            0.,NA,NA,"",       8.12101,       7.90211,      -1.87284,   8.18577E-03
C:/temp/dataset/3/15_6.odb,Step-1,Increment      8: Step Time =    1.000,"PART-1-1",           731,       12.1175,       9.30164,            0.,NA,NA,"",       12.2849,       11.6401,      -3.92786,   27.1841E-03
C:/temp/dataset/3/15_6.odb,Step-1,Increment      8: Step Time =    1.000,"PART-1-1",           732,       12.3743,       7.25826,            0.,NA,NA,"",       11.0636,       10.4421,      -3.65580,   32.6222E-03
C:/temp/dataset/3/15_6.odb,Step-1,Increment      8: Step Time =    1.000,"PART-1-1",           733,       9.86952,       23.8294,            0.,NA,NA,"",       22.8538,       21.9366,      -6.40950,   32.4861E-03
C:/temp/dataset/3/15_6.odb,Step-1,Increment      8: Step Time =    1.000,"PART-1-1",           734,       8.61965,       22.5851,            0.,NA,NA,"",       21.9794,       21.3790,      -5.10210,   30.6132E-03
C:/temp/dataset/3/15_6.odb,Step-1,Increment      8: Step Time =    1.000,"PART-1-1",           735,         11.25,           30.,            0.,NA,NA,"",       27.7724,       26.1167,      -9.44598,   11.4029E-03
C:/temp/dataset/3/15_6.odb,Step-1,Increment      8: Step Time =    1.000,"PART-1-1",           736,       9.97488,       28.7673,            0.,NA,NA,"",       26.8778,       25.6163,      -8.13758,   20.1778E-03
C:/temp/dataset/3/15_6.odb,Step-1,Increment      8: Step Time =    1.000,"PART-1-1",           737,          8.75,           30.,            0.,NA,NA,"",       28.0031,       26.9371,      -7.65255,   27.9084E-03
C:/temp/dataset/3/15_6.odb,Step-1,Increment      8: Step Time =    1.000,"PART-1-1",           738,       3.69885,       25.0915,            0.,NA,NA,"",       25.0582,       24.9515,      -2.30994,   14.8230E-03
C:/temp/dataset/3/15_6.odb,Step-1,Increment      8: Step Time =    1.000,"PART-1-1",           739,       4.94207,       26.3392,            0.,NA,NA,"",       25.7288,       25.4646,      -3.67757,   19.9861E-03
C:/temp/dataset/3/15_6.odb,Step-1,Increment      8: Step Time =    1.000,"PART-1-1",           740,         -6.25,           30.,            0.,NA,NA,"",       33.0159,       32.8144,       3.64190,   13.6917E-03
C:/temp/dataset/3/15_6.odb,Step-1,Increment      8: Step Time =    1.000,"PART-1-1",           741,      -11.2519,       25.0060,            0.,NA,NA,"",       32.3507,       30.8687,       9.67942,   7.04735E-03
C:/temp/dataset/3/15_6.odb,Step-1,Increment      8: Step Time =    1.000,"PART-1-1",           742,       11.7111,      -12.1867,            0.,NA,NA,"",       2.02197,       1.89360,  -708.973E-03,   29.9799E-03
C:/temp/dataset/3/15_6.odb,Step-1,Increment      8: Step Time =    1.000,"PART-1-1",           743,       12.0443,      -13.4388,            0.,NA,NA,"",       1.68899,       1.53113,  -712.977E-03,   38.9603E-03
C:/temp/dataset/3/15_6.odb,Step-1,Increment      8: Step Time =    1.000,"PART-1-1",           744,       9.07309,      -22.0228,            0.,NA,NA,"",   103.699E-03,   92.3253E-03,   47.2178E-03,   23.7814E-03
C:/temp/dataset/3/15_6.odb,Step-1,Increment      8: Step Time =    1.000,"PART-1-1",           745,       9.10959,      -23.2638,            0.,NA,NA,"",   43.5635E-03,   29.4096E-03,   32.1380E-03,   25.6080E-03
C:/temp/dataset/3/15_6.odb,Step-1,Increment      8: Step Time =    1.000,"PART-1-1",           746,       10.5828,      -23.1781,            0.,NA,NA,"",   87.6701E-03,   27.3086E-03,  -83.3084E-03,   28.2034E-03
C:/temp/dataset/3/15_6.odb,Step-1,Increment      8: Step Time =    1.000,"PART-1-1",           747,       10.5463,      -21.9372,            0.,NA,NA,"",   135.709E-03,   94.2803E-03,  -97.6129E-03,   26.3745E-03
C:/temp/dataset/3/15_6.odb,Step-1,Increment      8: Step Time =    1.000,"PART-1-1",           748,      -1.00841,      -2.00181,            0.,NA,NA,"",       8.72284,       7.60987,       4.26354,   1.73437E-03
C:/temp/dataset/3/15_6.odb,Step-1,Increment      8: Step Time =    1.000,"PART-1-1",           749,      -3.17395,      -1.50818,            0.,NA,NA,"",       9.68055,       8.12664,       5.26030,   1.69669E-03
C:/temp/dataset/3/15_6.odb,Step-1,Increment      8: Step Time =    1.000,"PART-1-1",           750,       8.23699,       8.20647,            0.,NA,NA,"",       11.8184,       11.7273,      -1.46482,   38.5051E-03
C:/temp/dataset/3/15_6.odb,Step-1,Increment      8: Step Time =    1.000,"PART-1-1",           751,       8.58975,       6.06422,            0.,NA,NA,"",       10.5012,       10.4169,      -1.32771,   21.9823E-03
C:/temp/dataset/3/15_6.odb,Step-1,Increment      8: Step Time =    1.000,"PART-1-1",           752,       1.04870,      -2.29850,            0.,NA,NA,"",       7.91156,       7.19665,       3.28650,   5.35663E-03
C:/temp/dataset/3/15_6.odb,Step-1,Increment      8: Step Time =    1.000,"PART-1-1",           753,      -1.88356,       2.26041,            0.,NA,NA,"",       10.6424,       9.80093,       4.14761,   1.83429E-03
C:/temp/dataset/3/15_6.odb,Step-1,Increment      8: Step Time =    1.000,"PART-1-1",           754,      -2.91638,       1.44829,            0.,NA,NA,"",       10.6564,       9.53667,       4.75515,   1.77445E-03
C:/temp/dataset/3/15_6.odb,Step-1,Increment      8: Step Time =    1.000,"PART-1-1",           755,       3.03453,      -2.52132,            0.,NA,NA,"",       7.19560,       6.81226,       2.31727,   24.0750E-03
C:/temp/dataset/3/15_6.odb,Step-1,Increment      8: Step Time =    1.000,"PART-1-1",           756,       6.99799,      -3.46075,            0.,NA,NA,"",       5.74715,       5.72851,   462.468E-03,   53.6832E-03
C:/temp/dataset/3/15_6.odb,Step-1,Increment      8: Step Time =    1.000,"PART-1-1",           757,       7.63560,  -984.386E-03,            0.,NA,NA,"",       6.87837,       6.87824,  -42.8721E-03,   44.6122E-03
C:/temp/dataset/3/15_6.odb,Step-1,Increment      8: Step Time =    1.000,"PART-1-1",           758,       6.14771,      -1.67534,            0.,NA,NA,"",       6.78938,       6.75227,   708.895E-03,   56.2198E-03
C:/temp/dataset/3/15_6.odb,Step-1,Increment      8: Step Time =    1.000,"PART-1-1",           759,       4.94795,      -26.8240,            0.,NA,NA,"",   71.0851E-03,   19.1377E-03,   68.4605E-03,   34.4386E-03
C:/temp/dataset/3/15_6.odb,Step-1,Increment      8: Step Time =    1.000,"PART-1-1",           760,      -11.2341,      -25.0541,            0.,NA,NA,"",   50.3508E-03,   50.2306E-03,   3.47763E-03,   3.93904E-03
C:/temp/dataset/3/15_6.odb,Step-1,Increment      8: Step Time =    1.000,"PART-1-1",           761,      -9.98574,      -26.3021,            0.,NA,NA,"",   41.1907E-03,   41.1618E-03,   1.54337E-03,   6.10713E-03
C:/temp/dataset/3/15_6.odb,Step-1,Increment      8: Step Time =    1.000,"PART-1-1",           762,           15.,        -26.25,            0.,NA,NA,"",   194.839E-03,   36.3072E-03,  -191.426E-03,   71.1448E-03
C:/temp/dataset/3/15_6.odb,Step-1,Increment      8: Step Time =    1.000,"PART-1-1",           763,       9.63478,      -24.7731,            0.,NA,NA,"",   23.7146E-03,  -21.6483E-03,  -9.68152E-03,   22.9882E-03
C:/temp/dataset/3/15_6.odb,Step-1,Increment      8: Step Time =    1.000,"PART-1-1",           764,       9.83383,   250.169E-03,            0.,NA,NA,"",       7.28553,       7.18490,      -1.20675,   16.5997E-03
C:/temp/dataset/3/15_6.odb,Step-1,Increment      8: Step Time =    1.000,"PART-1-1",           765,       11.1222,       22.5628,            0.,NA,NA,"",       21.7444,       20.6274,      -6.87965,   30.9283E-03
C:/temp/dataset/3/15_6.odb,Step-1,Increment      8: Step Time =    1.000,"PART-1-1",           766,       9.84566,       21.3197,            0.,NA,NA,"",       20.8416,       20.0849,      -5.56499,   27.2021E-03
C:/temp/dataset/3/15_6.odb,Step-1,Increment      8: Step Time =    1.000,"PART-1-1",           767,      -3.18112,  -190.353E-03,            0.,NA,NA,"",       10.1436,       8.77175,       5.09412,   1.82683E-03
C:/temp/dataset/3/15_6.odb,Step-1,Increment      8: Step Time =    1.000,"PART-1-1",           768,       4.54417,       1.21940,            0.,NA,NA,"",       8.54917,       8.46456,       1.19979,   43.9227E-03
C:/temp/dataset/3/15_6.odb,Step-1,Increment      8: Step Time =    1.000,"PART-1-1",           769,       9.22107,       9.51460,            0.,NA,NA,"",       12.5294,       12.3245,      -2.25700,   21.4693E-03
C:/temp/dataset/3/15_6.odb,Step-1,Increment      8: Step Time =    1.000,"PART-1-1",           770,       11.1709,      -3.71800,            0.,NA,NA,"",       5.30329,       5.13286,      -1.33368,   23.7201E-03
C:/temp/dataset/3/15_6.odb,Step-1,Increment      8: Step Time =    1.000,"PART-1-1",           771,       11.0221,      -5.16095,            0.,NA,NA,"",       4.63997,       4.50775,      -1.09978,   22.4319E-03
C:/temp/dataset/3/15_6.odb,Step-1,Increment      8: Step Time =    1.000,"PART-1-1",           772,       12.3085,      -4.70099,            0.,NA,NA,"",       4.90377,       4.60010,      -1.69883,   39.5019E-03
C:/temp/dataset/3/15_6.odb,Step-1,Increment      8: Step Time =    1.000,"PART-1-1",           773,       5.03877,      -2.41022,            0.,NA,NA,"",       6.68201,       6.55479,       1.29772,   56.2270E-03
C:/temp/dataset/3/15_6.odb,Step-1,Increment      8: Step Time =    1.000,"PART-1-1",           774,       11.0080,       9.74440,            0.,NA,NA,"",       12.5663,       12.1093,      -3.35806,   9.26642E-03
C:/temp/dataset/3/15_6.odb,Step-1,Increment      8: Step Time =    1.000,"PART-1-1",           775,       7.33953,      -23.4839,            0.,NA,NA,"",   143.448E-03,   48.2956E-03,   135.074E-03,   40.8112E-03
C:/temp/dataset/3/15_6.odb,Step-1,Increment      8: Step Time =    1.000,"PART-1-1",           776,       6.60048,      -22.7490,            0.,NA,NA,"",   216.260E-03,   94.7327E-03,   194.407E-03,   51.5090E-03
C:/temp/dataset/3/15_6.odb,Step-1,Increment      8: Step Time =    1.000,"PART-1-1",           777,       5.56839,      -23.3719,            0.,NA,NA,"",   208.024E-03,   90.7582E-03,   187.182E-03,   54.6789E-03
C:/temp/dataset/3/15_6.odb,Step-1,Increment      8: Step Time =    1.000,"PART-1-1",           778,       5.56431,      -22.1833,            0.,NA,NA,"",   281.928E-03,   141.843E-03,   243.647E-03,   65.5814E-03
C:/temp/dataset/3/15_6.odb,Step-1,Increment      8: Step Time =    1.000,"PART-1-1",           779,       7.31291,      -21.9704,            0.,NA,NA,"",   224.730E-03,   116.825E-03,   191.978E-03,   46.4300E-03
C:/temp/dataset/3/15_6.odb,Step-1,Increment      8: Step Time =    1.000,"PART-1-1",           780,       8.04898,      -22.6975,            0.,NA,NA,"",   136.053E-03,   66.6871E-03,   118.589E-03,   33.8043E-03
C:/temp/dataset/3/15_6.odb,Step-1,Increment      8: Step Time =    1.000,"PART-1-1",           781,       5.89213,  -472.373E-03,            0.,NA,NA,"",       7.43566,       7.40032,   724.074E-03,   47.3213E-03
C:/temp/dataset/3/15_6.odb,Step-1,Increment      8: Step Time =    1.000,"PART-1-1",           782,       8.40014,      -24.0502,            0.,NA,NA,"",   66.9276E-03,   9.98526E-03,   66.1786E-03,   26.9243E-03
