ODB Name,Step,Frame,Part Instance Name,    êﬂì_ÉâÉxÉã,X,Y,Z,Section Name,Material Name,Section Point,   U-Magnitude,          U-U1,          U-U2,       S-Mises
C:/temp/dataset/3/18_2.odb,Step-1,Increment      1: Step Time =    1.000,"PART-1-1",             1,          -15.,           20.,            0.,NA,NA,"",       3.81753,       3.22437,       2.04376,   2.23655E-09
C:/temp/dataset/3/18_2.odb,Step-1,Increment      1: Step Time =    1.000,"PART-1-1",             2,          -15.,           25.,            0.,NA,NA,"",       4.18612,       3.66408,       2.02439,   4.42456E-09
C:/temp/dataset/3/18_2.odb,Step-1,Increment      1: Step Time =    1.000,"PART-1-1",             3,           -5.,           20.,            0.,NA,NA,"",       3.39174,       3.18563,       1.16434,   57.8123E-09
C:/temp/dataset/3/18_2.odb,Step-1,Increment      1: Step Time =    1.000,"PART-1-1",             4,            5.,           20.,            0.,NA,NA,"",       3.15974,       3.14687,   284.903E-03,   26.2619E-06
C:/temp/dataset/3/18_2.odb,Step-1,Increment      1: Step Time =    1.000,"PART-1-1",             5,            5.,          12.5,            0.,NA,NA,"",       2.50996,       2.49050,   311.977E-03,   1.07738E-03
C:/temp/dataset/3/18_2.odb,Step-1,Increment      1: Step Time =    1.000,"PART-1-1",             6,            5.,            5.,            0.,NA,NA,"",       1.84511,       1.81537,   329.972E-03,   5.96859E-03
C:/temp/dataset/3/18_2.odb,Step-1,Increment      1: Step Time =    1.000,"PART-1-1",             7,      -1.70000,            5.,            0.,NA,NA,"",       2.04227,       1.83758,   891.179E-03,   280.479E-06
C:/temp/dataset/3/18_2.odb,Step-1,Increment      1: Step Time =    1.000,"PART-1-1",             8,      -8.40000,            5.,            0.,NA,NA,"",       2.37068,       1.86291,       1.46618,   9.91036E-06
C:/temp/dataset/3/18_2.odb,Step-1,Increment      1: Step Time =    1.000,"PART-1-1",             9,          -15.,            5.,            0.,NA,NA,"",       2.77381,       1.88728,       2.03278,   119.596E-09
C:/temp/dataset/3/18_2.odb,Step-1,Increment      1: Step Time =    1.000,"PART-1-1",            10,          -15.,            0.,            0.,NA,NA,"",       2.51664,       1.45806,       2.05123,   923.013E-09
C:/temp/dataset/3/18_2.odb,Step-1,Increment      1: Step Time =    1.000,"PART-1-1",            11,          -15.,           -5.,            0.,NA,NA,"",       2.31131,       1.02886,       2.06969,   96.3377E-09
C:/temp/dataset/3/18_2.odb,Step-1,Increment      1: Step Time =    1.000,"PART-1-1",            12,      -8.30000,           -5.,            0.,NA,NA,"",       1.80057,       1.00413,       1.49459,   9.69943E-06
C:/temp/dataset/3/18_2.odb,Step-1,Increment      1: Step Time =    1.000,"PART-1-1",            13,      -1.60000,           -5.,            0.,NA,NA,"",       1.34284,   978.726E-03,   919.405E-03,   301.504E-06
C:/temp/dataset/3/18_2.odb,Step-1,Increment      1: Step Time =    1.000,"PART-1-1",            14,            5.,           -5.,            0.,NA,NA,"",       1.00672,   950.784E-03,   330.915E-03,   12.9513E-03
C:/temp/dataset/3/18_2.odb,Step-1,Increment      1: Step Time =    1.000,"PART-1-1",            15,            5.,         -12.5,            0.,NA,NA,"",   487.971E-03,   427.269E-03,   235.706E-03,   19.2839E-03
C:/temp/dataset/3/18_2.odb,Step-1,Increment      1: Step Time =    1.000,"PART-1-1",            16,            5.,          -20.,            0.,NA,NA,"",   93.6764E-03,   56.4261E-03,   74.7754E-03,   36.0747E-03
C:/temp/dataset/3/18_2.odb,Step-1,Increment      1: Step Time =    1.000,"PART-1-1",            17,           -5.,          -20.,            0.,NA,NA,"",   17.9456E-03,   17.9302E-03,  -743.283E-06,   379.830E-06
C:/temp/dataset/3/18_2.odb,Step-1,Increment      1: Step Time =    1.000,"PART-1-1",            18,          -15.,          -20.,            0.,NA,NA,"",   18.0157E-03,   17.4170E-03,   4.60577E-03,   11.0199E-06
C:/temp/dataset/3/18_2.odb,Step-1,Increment      1: Step Time =    1.000,"PART-1-1",            19,          -15.,          -25.,            0.,NA,NA,"",   12.0621E-03,   11.0762E-03,   4.77633E-03,   89.6979E-06
C:/temp/dataset/3/18_2.odb,Step-1,Increment      1: Step Time =    1.000,"PART-1-1",            20,          -15.,          -30.,            0.,NA,NA,"",            0.,   983.832E-42,   1.57192E-39,   3.01364E-03
C:/temp/dataset/3/18_2.odb,Step-1,Increment      1: Step Time =    1.000,"PART-1-1",            21,           15.,          -30.,            0.,NA,NA,"",            0.,   3.89958E-39,  -7.28634E-39,   13.7170E-03
C:/temp/dataset/3/18_2.odb,Step-1,Increment      1: Step Time =    1.000,"PART-1-1",            22,           15.,         -22.5,            0.,NA,NA,"",   118.310E-03,   48.8506E-03,  -107.754E-03,   20.6268E-03
C:/temp/dataset/3/18_2.odb,Step-1,Increment      1: Step Time =    1.000,"PART-1-1",            23,           15.,          -15.,            0.,NA,NA,"",   385.315E-03,   280.698E-03,  -263.963E-03,   21.5308E-03
C:/temp/dataset/3/18_2.odb,Step-1,Increment      1: Step Time =    1.000,"PART-1-1",            24,           15.,          -7.5,            0.,NA,NA,"",   840.277E-03,   738.921E-03,  -400.077E-03,   14.3269E-03
C:/temp/dataset/3/18_2.odb,Step-1,Increment      1: Step Time =    1.000,"PART-1-1",            25,           15.,            0.,            0.,NA,NA,"",       1.43037,       1.34285,  -492.653E-03,   6.11947E-03
C:/temp/dataset/3/18_2.odb,Step-1,Increment      1: Step Time =    1.000,"PART-1-1",            26,           15.,           7.5,            0.,NA,NA,"",       2.07552,       2.00276,  -544.726E-03,   1.21580E-03
C:/temp/dataset/3/18_2.odb,Step-1,Increment      1: Step Time =    1.000,"PART-1-1",            27,           15.,           15.,            0.,NA,NA,"",       2.72957,       2.66820,  -575.523E-03,   164.824E-06
C:/temp/dataset/3/18_2.odb,Step-1,Increment      1: Step Time =    1.000,"PART-1-1",            28,           15.,          22.5,            0.,NA,NA,"",       3.38244,       3.32805,  -604.135E-03,   8.65507E-06
C:/temp/dataset/3/18_2.odb,Step-1,Increment      1: Step Time =    1.000,"PART-1-1",            29,           15.,           30.,            0.,NA,NA,"",       4.03751,       3.98755,  -633.180E-03,   57.0920E-09
C:/temp/dataset/3/18_2.odb,Step-1,Increment      1: Step Time =    1.000,"PART-1-1",            30,           7.5,           30.,            0.,NA,NA,"",       4.01670,       4.01661,   26.3445E-03,   698.681E-09
C:/temp/dataset/3/18_2.odb,Step-1,Increment      1: Step Time =    1.000,"PART-1-1",            31,            0.,           30.,            0.,NA,NA,"",       4.10340,       4.04567,   685.893E-03,   481.435E-09
C:/temp/dataset/3/18_2.odb,Step-1,Increment      1: Step Time =    1.000,"PART-1-1",            32,          -7.5,           30.,            0.,NA,NA,"",       4.29112,       4.07473,       1.34545,   5.89312E-09
C:/temp/dataset/3/18_2.odb,Step-1,Increment      1: Step Time =    1.000,"PART-1-1",            33,          -15.,           30.,            0.,NA,NA,"",       4.56740,       4.10379,       2.00502,   2.14707E-09
C:/temp/dataset/3/18_2.odb,Step-1,Increment      1: Step Time =    1.000,"PART-1-1",            34,          -15.,          22.5,            0.,NA,NA,"",       4.00002,       3.44423,       2.03407,   3.16921E-09
C:/temp/dataset/3/18_2.odb,Step-1,Increment      1: Step Time =    1.000,"PART-1-1",            35,          -7.5,           20.,            0.,NA,NA,"",       3.48225,       3.19532,       1.38420,   8.81565E-09
C:/temp/dataset/3/18_2.odb,Step-1,Increment      1: Step Time =    1.000,"PART-1-1",            36,          -10.,           20.,            0.,NA,NA,"",       3.58399,       3.20500,       1.60405,   7.06721E-09
C:/temp/dataset/3/18_2.odb,Step-1,Increment      1: Step Time =    1.000,"PART-1-1",            37,         -12.5,           20.,            0.,NA,NA,"",       3.69606,       3.21469,       1.82391,   3.55163E-09
C:/temp/dataset/3/18_2.odb,Step-1,Increment      1: Step Time =    1.000,"PART-1-1",            38,           2.5,           20.,            0.,NA,NA,"",       3.19668,       3.15657,   504.783E-03,   4.50082E-06
C:/temp/dataset/3/18_2.odb,Step-1,Increment      1: Step Time =    1.000,"PART-1-1",            39,            0.,           20.,            0.,NA,NA,"",       3.24812,       3.16626,   724.637E-03,   1.12293E-06
C:/temp/dataset/3/18_2.odb,Step-1,Increment      1: Step Time =    1.000,"PART-1-1",            40,          -2.5,           20.,            0.,NA,NA,"",       3.31341,       3.17594,   944.491E-03,   186.043E-09
C:/temp/dataset/3/18_2.odb,Step-1,Increment      1: Step Time =    1.000,"PART-1-1",            41,            5.,           15.,            0.,NA,NA,"",       2.72453,       2.70755,   303.677E-03,   408.232E-06
C:/temp/dataset/3/18_2.odb,Step-1,Increment      1: Step Time =    1.000,"PART-1-1",            42,            5.,          17.5,            0.,NA,NA,"",       2.94181,       2.92705,   294.401E-03,   125.840E-06
C:/temp/dataset/3/18_2.odb,Step-1,Increment      1: Step Time =    1.000,"PART-1-1",            43,            5.,           7.5,            0.,NA,NA,"",       2.07352,       2.04722,   329.216E-03,   3.19379E-03
C:/temp/dataset/3/18_2.odb,Step-1,Increment      1: Step Time =    1.000,"PART-1-1",            44,            5.,           10.,            0.,NA,NA,"",       2.29451,       2.27190,   321.320E-03,   1.95332E-03
C:/temp/dataset/3/18_2.odb,Step-1,Increment      1: Step Time =    1.000,"PART-1-1",            45,   533.333E-03,            5.,            0.,NA,NA,"",       1.95823,       1.82865,   700.495E-03,   656.321E-06
C:/temp/dataset/3/18_2.odb,Step-1,Increment      1: Step Time =    1.000,"PART-1-1",            46,       2.76667,            5.,            0.,NA,NA,"",       1.89017,       1.81942,   512.284E-03,   986.607E-06
C:/temp/dataset/3/18_2.odb,Step-1,Increment      1: Step Time =    1.000,"PART-1-1",            47,      -6.16667,            5.,            0.,NA,NA,"",       2.25028,       1.85462,       1.27443,   39.3923E-06
C:/temp/dataset/3/18_2.odb,Step-1,Increment      1: Step Time =    1.000,"PART-1-1",            48,      -3.93333,            5.,            0.,NA,NA,"",       2.14027,       1.84622,       1.08270,   133.328E-06
C:/temp/dataset/3/18_2.odb,Step-1,Increment      1: Step Time =    1.000,"PART-1-1",            49,      -12.8000,            5.,            0.,NA,NA,"",       2.63273,       1.87916,       1.84392,   773.775E-09
C:/temp/dataset/3/18_2.odb,Step-1,Increment      1: Step Time =    1.000,"PART-1-1",            50,      -10.6000,            5.,            0.,NA,NA,"",       2.49800,       1.87103,       1.65506,   765.574E-09
C:/temp/dataset/3/18_2.odb,Step-1,Increment      1: Step Time =    1.000,"PART-1-1",            51,          -15.,           2.5,            0.,NA,NA,"",       2.63962,       1.67266,       2.04201,   875.060E-09
C:/temp/dataset/3/18_2.odb,Step-1,Increment      1: Step Time =    1.000,"PART-1-1",            52,          -15.,          -2.5,            0.,NA,NA,"",       2.40659,       1.24346,       2.06046,   867.137E-09
C:/temp/dataset/3/18_2.odb,Step-1,Increment      1: Step Time =    1.000,"PART-1-1",            53,      -10.5333,           -5.,            0.,NA,NA,"",       1.96683,       1.01237,       1.68628,   528.359E-09
C:/temp/dataset/3/18_2.odb,Step-1,Increment      1: Step Time =    1.000,"PART-1-1",            54,      -12.7667,           -5.,            0.,NA,NA,"",       2.13740,       1.02062,       1.87798,   702.907E-09
C:/temp/dataset/3/18_2.odb,Step-1,Increment      1: Step Time =    1.000,"PART-1-1",            55,      -3.83333,           -5.,            0.,NA,NA,"",       1.48657,   987.429E-03,       1.11125,   143.257E-06
C:/temp/dataset/3/18_2.odb,Step-1,Increment      1: Step Time =    1.000,"PART-1-1",            56,      -6.06667,           -5.,            0.,NA,NA,"",       1.63992,   995.843E-03,       1.30293,   39.1041E-06
C:/temp/dataset/3/18_2.odb,Step-1,Increment      1: Step Time =    1.000,"PART-1-1",            57,       2.80000,           -5.,            0.,NA,NA,"",       1.09905,   959.189E-03,   536.529E-03,   2.84431E-03
C:/temp/dataset/3/18_2.odb,Step-1,Increment      1: Step Time =    1.000,"PART-1-1",            58,   600.000E-03,           -5.,            0.,NA,NA,"",       1.21338,   969.554E-03,   729.563E-03,   855.433E-06
C:/temp/dataset/3/18_2.odb,Step-1,Increment      1: Step Time =    1.000,"PART-1-1",            59,            5.,          -10.,            0.,NA,NA,"",   645.191E-03,   585.476E-03,   271.089E-03,   16.7423E-03
C:/temp/dataset/3/18_2.odb,Step-1,Increment      1: Step Time =    1.000,"PART-1-1",            60,            5.,          -7.5,            0.,NA,NA,"",   818.140E-03,   761.171E-03,   299.954E-03,   15.2398E-03
C:/temp/dataset/3/18_2.odb,Step-1,Increment      1: Step Time =    1.000,"PART-1-1",            61,            5.,         -17.5,            0.,NA,NA,"",   225.603E-03,   169.746E-03,   148.604E-03,   25.3193E-03
C:/temp/dataset/3/18_2.odb,Step-1,Increment      1: Step Time =    1.000,"PART-1-1",            62,            5.,          -15.,            0.,NA,NA,"",   348.518E-03,   289.236E-03,   194.440E-03,   20.3955E-03
C:/temp/dataset/3/18_2.odb,Step-1,Increment      1: Step Time =    1.000,"PART-1-1",            63,          -2.5,          -20.,            0.,NA,NA,"",   19.2405E-03,   19.1575E-03,   1.78546E-03,   999.304E-06
C:/temp/dataset/3/18_2.odb,Step-1,Increment      1: Step Time =    1.000,"PART-1-1",            64,            0.,          -20.,            0.,NA,NA,"",   23.4446E-03,   21.7558E-03,   8.73692E-03,   1.80058E-03
C:/temp/dataset/3/18_2.odb,Step-1,Increment      1: Step Time =    1.000,"PART-1-1",            65,           2.5,          -20.,            0.,NA,NA,"",   36.4362E-03,   26.6142E-03,   24.8854E-03,   10.3401E-03
C:/temp/dataset/3/18_2.odb,Step-1,Increment      1: Step Time =    1.000,"PART-1-1",            66,         -12.5,          -20.,            0.,NA,NA,"",   17.4366E-03,   17.3308E-03,   1.91873E-03,   76.4605E-06
C:/temp/dataset/3/18_2.odb,Step-1,Increment      1: Step Time =    1.000,"PART-1-1",            67,          -10.,          -20.,            0.,NA,NA,"",   17.1828E-03,   17.1822E-03,  -137.902E-06,   22.3228E-06
C:/temp/dataset/3/18_2.odb,Step-1,Increment      1: Step Time =    1.000,"PART-1-1",            68,          -7.5,          -20.,            0.,NA,NA,"",   17.3722E-03,   17.3342E-03,  -1.14819E-03,   182.468E-06
C:/temp/dataset/3/18_2.odb,Step-1,Increment      1: Step Time =    1.000,"PART-1-1",            69,          -15.,         -22.5,            0.,NA,NA,"",   15.3706E-03,   14.6363E-03,   4.69419E-03,   73.6624E-06
C:/temp/dataset/3/18_2.odb,Step-1,Increment      1: Step Time =    1.000,"PART-1-1",            70,          -15.,         -27.5,            0.,NA,NA,"",   7.42187E-03,   6.22416E-03,   4.04277E-03,   986.383E-06
C:/temp/dataset/3/18_2.odb,Step-1,Increment      1: Step Time =    1.000,"PART-1-1",            71,          12.5,          -30.,            0.,NA,NA,"",            0.,   2.57822E-39,  -15.1781E-39,   7.52452E-03
C:/temp/dataset/3/18_2.odb,Step-1,Increment      1: Step Time =    1.000,"PART-1-1",            72,           10.,          -30.,            0.,NA,NA,"",            0.,  -6.87774E-39,  -8.54591E-39,   4.96266E-03
C:/temp/dataset/3/18_2.odb,Step-1,Increment      1: Step Time =    1.000,"PART-1-1",            73,           7.5,          -30.,            0.,NA,NA,"",            0.,  -3.06715E-39,   1.45172E-39,   3.15854E-03
C:/temp/dataset/3/18_2.odb,Step-1,Increment      1: Step Time =    1.000,"PART-1-1",            74,            5.,          -30.,            0.,NA,NA,"",            0.,  -1.82391E-39,   7.89955E-39,   3.31851E-03
C:/temp/dataset/3/18_2.odb,Step-1,Increment      1: Step Time =    1.000,"PART-1-1",            75,           2.5,          -30.,            0.,NA,NA,"",            0.,   850.292E-42,   6.69027E-39,   4.11020E-03
C:/temp/dataset/3/18_2.odb,Step-1,Increment      1: Step Time =    1.000,"PART-1-1",            76,            0.,          -30.,            0.,NA,NA,"",            0.,   2.38069E-39,   3.90169E-39,   4.16538E-03
C:/temp/dataset/3/18_2.odb,Step-1,Increment      1: Step Time =    1.000,"PART-1-1",            77,          -2.5,          -30.,            0.,NA,NA,"",            0.,   4.93713E-39,   5.85060E-39,   3.57709E-03
C:/temp/dataset/3/18_2.odb,Step-1,Increment      1: Step Time =    1.000,"PART-1-1",            78,           -5.,          -30.,            0.,NA,NA,"",            0.,   2.57253E-39,   242.933E-42,   2.84514E-03
C:/temp/dataset/3/18_2.odb,Step-1,Increment      1: Step Time =    1.000,"PART-1-1",            79,          -7.5,          -30.,            0.,NA,NA,"",            0.,   2.12042E-39,  -253.362E-42,   2.19355E-03
C:/temp/dataset/3/18_2.odb,Step-1,Increment      1: Step Time =    1.000,"PART-1-1",            80,          -10.,          -30.,            0.,NA,NA,"",            0.,   2.29753E-39,   2.16911E-39,   1.72422E-03
C:/temp/dataset/3/18_2.odb,Step-1,Increment      1: Step Time =    1.000,"PART-1-1",            81,         -12.5,          -30.,            0.,NA,NA,"",            0.,   2.21432E-39,   2.11442E-39,   1.28218E-03
C:/temp/dataset/3/18_2.odb,Step-1,Increment      1: Step Time =    1.000,"PART-1-1",            82,           15.,          -25.,            0.,NA,NA,"",   68.2348E-03,   22.1345E-03,  -64.5450E-03,   17.4324E-03
C:/temp/dataset/3/18_2.odb,Step-1,Increment      1: Step Time =    1.000,"PART-1-1",            83,           15.,         -27.5,            0.,NA,NA,"",   31.1200E-03,   10.8205E-03,  -29.1783E-03,   14.8923E-03
C:/temp/dataset/3/18_2.odb,Step-1,Increment      1: Step Time =    1.000,"PART-1-1",            84,           15.,         -17.5,            0.,NA,NA,"",   274.370E-03,   175.138E-03,  -211.200E-03,   22.9803E-03
C:/temp/dataset/3/18_2.odb,Step-1,Increment      1: Step Time =    1.000,"PART-1-1",            85,           15.,          -20.,            0.,NA,NA,"",   185.668E-03,   98.0959E-03,  -157.638E-03,   22.7101E-03
C:/temp/dataset/3/18_2.odb,Step-1,Increment      1: Step Time =    1.000,"PART-1-1",            86,           15.,          -10.,            0.,NA,NA,"",   669.946E-03,   565.712E-03,  -358.883E-03,   16.9261E-03
C:/temp/dataset/3/18_2.odb,Step-1,Increment      1: Step Time =    1.000,"PART-1-1",            87,           15.,         -12.5,            0.,NA,NA,"",   517.665E-03,   412.030E-03,  -313.383E-03,   19.3095E-03
C:/temp/dataset/3/18_2.odb,Step-1,Increment      1: Step Time =    1.000,"PART-1-1",            88,           15.,          -2.5,            0.,NA,NA,"",       1.22407,       1.13136,  -467.290E-03,   8.60132E-03
C:/temp/dataset/3/18_2.odb,Step-1,Increment      1: Step Time =    1.000,"PART-1-1",            89,           15.,           -5.,            0.,NA,NA,"",       1.02617,   928.706E-03,  -436.490E-03,   11.4545E-03
C:/temp/dataset/3/18_2.odb,Step-1,Increment      1: Step Time =    1.000,"PART-1-1",            90,           15.,            5.,            0.,NA,NA,"",       1.85775,       1.78035,  -530.639E-03,   2.50757E-03
C:/temp/dataset/3/18_2.odb,Step-1,Increment      1: Step Time =    1.000,"PART-1-1",            91,           15.,           2.5,            0.,NA,NA,"",       1.64215,       1.55984,  -513.362E-03,   4.14813E-03
C:/temp/dataset/3/18_2.odb,Step-1,Increment      1: Step Time =    1.000,"PART-1-1",            92,           15.,          12.5,            0.,NA,NA,"",       2.51201,       2.44738,  -566.158E-03,   86.8242E-06
C:/temp/dataset/3/18_2.odb,Step-1,Increment      1: Step Time =    1.000,"PART-1-1",            93,           15.,           10.,            0.,NA,NA,"",       2.29396,       2.22550,  -556.255E-03,   287.298E-06
C:/temp/dataset/3/18_2.odb,Step-1,Increment      1: Step Time =    1.000,"PART-1-1",            94,           15.,           20.,            0.,NA,NA,"",       3.16457,       3.10822,  -594.494E-03,   35.2924E-06
C:/temp/dataset/3/18_2.odb,Step-1,Increment      1: Step Time =    1.000,"PART-1-1",            95,           15.,          17.5,            0.,NA,NA,"",       2.94698,       2.88834,  -584.940E-03,   94.5864E-06
C:/temp/dataset/3/18_2.odb,Step-1,Increment      1: Step Time =    1.000,"PART-1-1",            96,           15.,          27.5,            0.,NA,NA,"",       3.81895,       3.76771,  -623.495E-03,   320.258E-09
C:/temp/dataset/3/18_2.odb,Step-1,Increment      1: Step Time =    1.000,"PART-1-1",            97,           15.,           25.,            0.,NA,NA,"",       3.60058,       3.54788,  -613.811E-03,   1.09183E-06
C:/temp/dataset/3/18_2.odb,Step-1,Increment      1: Step Time =    1.000,"PART-1-1",            98,           10.,           30.,            0.,NA,NA,"",       4.01159,       4.00692,  -193.499E-03,   355.018E-09
C:/temp/dataset/3/18_2.odb,Step-1,Increment      1: Step Time =    1.000,"PART-1-1",            99,          12.5,           30.,            0.,NA,NA,"",       4.01855,       3.99724,  -413.340E-03,   305.255E-09
C:/temp/dataset/3/18_2.odb,Step-1,Increment      1: Step Time =    1.000,"PART-1-1",           100,           2.5,           30.,            0.,NA,NA,"",       4.06280,       4.03598,   466.041E-03,   917.685E-09
C:/temp/dataset/3/18_2.odb,Step-1,Increment      1: Step Time =    1.000,"PART-1-1",           101,            5.,           30.,            0.,NA,NA,"",       4.03382,       4.02630,   246.191E-03,   1.07376E-06
C:/temp/dataset/3/18_2.odb,Step-1,Increment      1: Step Time =    1.000,"PART-1-1",           102,           -5.,           30.,            0.,NA,NA,"",       4.21800,       4.06504,       1.12560,   30.4012E-09
C:/temp/dataset/3/18_2.odb,Step-1,Increment      1: Step Time =    1.000,"PART-1-1",           103,          -2.5,           30.,            0.,NA,NA,"",       4.15527,       4.05536,   905.747E-03,   160.829E-09
C:/temp/dataset/3/18_2.odb,Step-1,Increment      1: Step Time =    1.000,"PART-1-1",           104,         -12.5,           30.,            0.,NA,NA,"",       4.46637,       4.09410,       1.78516,   3.36984E-09
C:/temp/dataset/3/18_2.odb,Step-1,Increment      1: Step Time =    1.000,"PART-1-1",           105,          -10.,           30.,            0.,NA,NA,"",       4.37409,       4.08442,       1.56531,   6.13485E-09
C:/temp/dataset/3/18_2.odb,Step-1,Increment      1: Step Time =    1.000,"PART-1-1",           106,          -15.,          27.5,            0.,NA,NA,"",       4.37538,       3.88393,       2.01470,   3.32833E-09
C:/temp/dataset/3/18_2.odb,Step-1,Increment      1: Step Time =    1.000,"PART-1-1",           107,      -12.5013,       25.0052,            0.,NA,NA,"",       4.07611,       3.65486,       1.80463,   2.18118E-09
C:/temp/dataset/3/18_2.odb,Step-1,Increment      1: Step Time =    1.000,"PART-1-1",           108,      -10.0028,       27.5014,            0.,NA,NA,"",       4.17340,       3.86470,       1.57523,   1.53285E-09
C:/temp/dataset/3/18_2.odb,Step-1,Increment      1: Step Time =    1.000,"PART-1-1",           109,      -2.49865,       22.5268,            0.,NA,NA,"",       3.52433,       3.39815,   934.583E-03,   272.177E-09
C:/temp/dataset/3/18_2.odb,Step-1,Increment      1: Step Time =    1.000,"PART-1-1",           110,      -2.51000,       27.5279,            0.,NA,NA,"",       3.94584,       3.83800,   916.204E-03,   230.678E-09
C:/temp/dataset/3/18_2.odb,Step-1,Increment      1: Step Time =    1.000,"PART-1-1",           111,       12.3864,       22.5464,            0.,NA,NA,"",       3.36317,       3.34225,  -374.469E-03,   15.2060E-06
C:/temp/dataset/3/18_2.odb,Step-1,Increment      1: Step Time =    1.000,"PART-1-1",           112,       7.35369,       17.5509,            0.,NA,NA,"",       2.92368,       2.92237,   87.4892E-03,   76.0249E-06
C:/temp/dataset/3/18_2.odb,Step-1,Increment      1: Step Time =    1.000,"PART-1-1",           113,       12.3201,       14.9467,            0.,NA,NA,"",       2.69545,       2.67404,  -339.123E-03,   54.9756E-06
C:/temp/dataset/3/18_2.odb,Step-1,Increment      1: Step Time =    1.000,"PART-1-1",           114,       13.2599,       7.39194,            0.,NA,NA,"",       2.03680,       1.99906,  -390.253E-03,   1.60149E-03
C:/temp/dataset/3/18_2.odb,Step-1,Increment      1: Step Time =    1.000,"PART-1-1",           115,       7.60504,      -5.98204,            0.,NA,NA,"",   867.421E-03,   859.249E-03,   118.782E-03,   6.07739E-03
C:/temp/dataset/3/18_2.odb,Step-1,Increment      1: Step Time =    1.000,"PART-1-1",           116,       7.71062,      -13.7665,            0.,NA,NA,"",   341.876E-03,   333.346E-03,   75.8904E-03,   9.97463E-03
C:/temp/dataset/3/18_2.odb,Step-1,Increment      1: Step Time =    1.000,"PART-1-1",           117,       11.7208,      -22.4938,            0.,NA,NA,"",   56.1829E-03,   27.6159E-03,  -48.9273E-03,   9.40805E-03
C:/temp/dataset/3/18_2.odb,Step-1,Increment      1: Step Time =    1.000,"PART-1-1",           118,       2.59328,       2.74806,            0.,NA,NA,"",       1.71393,       1.62869,   533.768E-03,   1.82885E-03
C:/temp/dataset/3/18_2.odb,Step-1,Increment      1: Step Time =    1.000,"PART-1-1",           119,      -1.32361,      -2.98462,            0.,NA,NA,"",       1.45421,       1.15135,   888.314E-03,   171.566E-06
C:/temp/dataset/3/18_2.odb,Step-1,Increment      1: Step Time =    1.000,"PART-1-1",           120,      -6.00563,       3.11026,            0.,NA,NA,"",       2.11400,       1.69183,       1.26755,   57.1726E-06
C:/temp/dataset/3/18_2.odb,Step-1,Increment      1: Step Time =    1.000,"PART-1-1",           121,      -10.4102,       2.53863,            0.,NA,NA,"",       2.33834,       1.65904,       1.64785,   6.83117E-06
C:/temp/dataset/3/18_2.odb,Step-1,Increment      1: Step Time =    1.000,"PART-1-1",           122,      -12.6184,  -43.2983E-03,            0.,NA,NA,"",       2.34539,       1.44555,       1.84696,   1.71414E-06
C:/temp/dataset/3/18_2.odb,Step-1,Increment      1: Step Time =    1.000,"PART-1-1",           123,      -3.88272,       3.23189,            0.,NA,NA,"",       2.01192,       1.69441,       1.08481,   112.667E-06
C:/temp/dataset/3/18_2.odb,Step-1,Increment      1: Step Time =    1.000,"PART-1-1",           124,       2.98144,      -22.7363,            0.,NA,NA,"",   41.4867E-03,   30.6899E-03,   27.9155E-03,   12.4551E-03
C:/temp/dataset/3/18_2.odb,Step-1,Increment      1: Step Time =    1.000,"PART-1-1",           125,      -2.42987,      -22.6294,            0.,NA,NA,"",   21.3256E-03,   21.0605E-03,   3.35211E-03,   2.20498E-03
C:/temp/dataset/3/18_2.odb,Step-1,Increment      1: Step Time =    1.000,"PART-1-1",           126,      -9.97348,      -22.5672,            0.,NA,NA,"",   15.0468E-03,   15.0467E-03,   29.2324E-06,   502.403E-06
C:/temp/dataset/3/18_2.odb,Step-1,Increment      1: Step Time =    1.000,"PART-1-1",           127,      -12.4895,      -25.0402,            0.,NA,NA,"",   11.0503E-03,   10.9259E-03,   1.65329E-03,   699.758E-06
C:/temp/dataset/3/18_2.odb,Step-1,Increment      1: Step Time =    1.000,"PART-1-1",           128,       12.8561,      -14.2595,            0.,NA,NA,"",   348.797E-03,   303.732E-03,  -171.482E-03,   11.9480E-03
C:/temp/dataset/3/18_2.odb,Step-1,Increment      1: Step Time =    1.000,"PART-1-1",           129,       12.7281,      -7.33650,            0.,NA,NA,"",   782.755E-03,   745.482E-03,  -238.666E-03,   8.44121E-03
C:/temp/dataset/3/18_2.odb,Step-1,Increment      1: Step Time =    1.000,"PART-1-1",           130,       12.6427,  -96.8002E-03,            0.,NA,NA,"",       1.36953,       1.33788,  -292.702E-03,   4.57651E-03
C:/temp/dataset/3/18_2.odb,Step-1,Increment      1: Step Time =    1.000,"PART-1-1",           131,       7.13014,       10.3328,            0.,NA,NA,"",       2.29360,       2.28975,   132.854E-03,   2.30445E-03
C:/temp/dataset/3/18_2.odb,Step-1,Increment      1: Step Time =    1.000,"PART-1-1",           132,       4.95005,       27.5805,            0.,NA,NA,"",       3.82257,       3.81372,   259.956E-03,   470.666E-09
C:/temp/dataset/3/18_2.odb,Step-1,Increment      1: Step Time =    1.000,"PART-1-1",           133,      -4.99957,       22.5148,            0.,NA,NA,"",       3.59711,       3.40678,       1.15456,   75.6256E-09
C:/temp/dataset/3/18_2.odb,Step-1,Increment      1: Step Time =    1.000,"PART-1-1",           134,      -7.50186,       22.5094,            0.,NA,NA,"",       3.68222,       3.41600,       1.37464,   15.3018E-09
C:/temp/dataset/3/18_2.odb,Step-1,Increment      1: Step Time =    1.000,"PART-1-1",           135,       4.93744,       22.5898,            0.,NA,NA,"",       3.38651,       3.37488,   280.395E-03,   5.43837E-06
C:/temp/dataset/3/18_2.odb,Step-1,Increment      1: Step Time =    1.000,"PART-1-1",           136,       2.47758,       22.5593,            0.,NA,NA,"",       3.41803,       3.38173,   496.840E-03,   2.33061E-06
C:/temp/dataset/3/18_2.odb,Step-1,Increment      1: Step Time =    1.000,"PART-1-1",           137,  -4.46696E-03,       22.5388,            0.,NA,NA,"",       3.46417,       3.38954,   715.194E-03,   705.265E-09
C:/temp/dataset/3/18_2.odb,Step-1,Increment      1: Step Time =    1.000,"PART-1-1",           138,       7.20686,       12.6699,            0.,NA,NA,"",       2.49792,       2.49509,   118.966E-03,   958.231E-06
C:/temp/dataset/3/18_2.odb,Step-1,Increment      1: Step Time =    1.000,"PART-1-1",           139,       7.30679,       15.0771,            0.,NA,NA,"",       2.70711,       2.70522,   101.258E-03,   182.186E-06
C:/temp/dataset/3/18_2.odb,Step-1,Increment      1: Step Time =    1.000,"PART-1-1",           140,       7.52839,       5.66323,            0.,NA,NA,"",       1.86930,       1.86598,   111.441E-03,   3.12866E-03
C:/temp/dataset/3/18_2.odb,Step-1,Increment      1: Step Time =    1.000,"PART-1-1",           141,       7.20823,       7.96221,            0.,NA,NA,"",       2.08078,       2.07653,   132.859E-03,   3.38486E-03
C:/temp/dataset/3/18_2.odb,Step-1,Increment      1: Step Time =    1.000,"PART-1-1",           142,      -1.77433,       3.17490,            0.,NA,NA,"",       1.90929,       1.68166,   904.111E-03,   162.933E-06
C:/temp/dataset/3/18_2.odb,Step-1,Increment      1: Step Time =    1.000,"PART-1-1",           143,   347.975E-03,       3.01142,            0.,NA,NA,"",       1.81066,       1.65998,   723.167E-03,   283.678E-06
C:/temp/dataset/3/18_2.odb,Step-1,Increment      1: Step Time =    1.000,"PART-1-1",           144,      -8.17775,       2.85153,            0.,NA,NA,"",       2.22073,       1.67766,       1.45503,   22.6881E-06
C:/temp/dataset/3/18_2.odb,Step-1,Increment      1: Step Time =    1.000,"PART-1-1",           145,      -8.45397,      -3.03463,            0.,NA,NA,"",       1.90487,       1.17340,       1.50055,   18.4997E-06
C:/temp/dataset/3/18_2.odb,Step-1,Increment      1: Step Time =    1.000,"PART-1-1",           146,      -12.6978,       2.46856,            0.,NA,NA,"",       2.48246,       1.66147,       1.84449,   945.401E-09
C:/temp/dataset/3/18_2.odb,Step-1,Increment      1: Step Time =    1.000,"PART-1-1",           147,      -10.5225,      -2.72745,            0.,NA,NA,"",       2.06640,       1.20741,       1.67696,   6.13947E-06
C:/temp/dataset/3/18_2.odb,Step-1,Increment      1: Step Time =    1.000,"PART-1-1",           148,      -12.7265,      -2.55241,            0.,NA,NA,"",       2.23481,       1.23056,       1.86550,   887.410E-09
C:/temp/dataset/3/18_2.odb,Step-1,Increment      1: Step Time =    1.000,"PART-1-1",           149,      -3.80700,      -2.48494,            0.,NA,NA,"",       1.63030,       1.20352,       1.09973,   123.853E-06
C:/temp/dataset/3/18_2.odb,Step-1,Increment      1: Step Time =    1.000,"PART-1-1",           150,      -6.26959,      -2.94549,            0.,NA,NA,"",       1.76048,       1.17300,       1.31277,   52.8774E-06
C:/temp/dataset/3/18_2.odb,Step-1,Increment      1: Step Time =    1.000,"PART-1-1",           151,       2.97297,      -3.34056,            0.,NA,NA,"",       1.21919,       1.10421,   516.853E-03,   2.56476E-03
C:/temp/dataset/3/18_2.odb,Step-1,Increment      1: Step Time =    1.000,"PART-1-1",           152,   836.982E-03,      -3.21922,            0.,NA,NA,"",       1.32492,       1.12316,   702.791E-03,   447.307E-06
C:/temp/dataset/3/18_2.odb,Step-1,Increment      1: Step Time =    1.000,"PART-1-1",           153,       7.27849,      -10.7647,            0.,NA,NA,"",   530.676E-03,   516.856E-03,   120.320E-03,   10.1845E-03
C:/temp/dataset/3/18_2.odb,Step-1,Increment      1: Step Time =    1.000,"PART-1-1",           154,       7.20650,      -8.25133,            0.,NA,NA,"",   704.021E-03,   690.160E-03,   139.015E-03,   8.85773E-03
C:/temp/dataset/3/18_2.odb,Step-1,Increment      1: Step Time =    1.000,"PART-1-1",           155,       7.07274,      -17.3233,            0.,NA,NA,"",   178.059E-03,   162.594E-03,   72.5818E-03,   15.7819E-03
C:/temp/dataset/3/18_2.odb,Step-1,Increment      1: Step Time =    1.000,"PART-1-1",           156,       6.55788,      -15.2577,            0.,NA,NA,"",   286.675E-03,   262.032E-03,   116.285E-03,   16.4778E-03
C:/temp/dataset/3/18_2.odb,Step-1,Increment      1: Step Time =    1.000,"PART-1-1",           157,      -7.46685,      -22.5818,            0.,NA,NA,"",   16.1551E-03,   16.1417E-03,  -657.418E-06,   853.269E-06
C:/temp/dataset/3/18_2.odb,Step-1,Increment      1: Step Time =    1.000,"PART-1-1",           158,      -4.95694,      -22.5955,            0.,NA,NA,"",   18.1375E-03,   18.1369E-03,   139.850E-06,   1.36547E-03
C:/temp/dataset/3/18_2.odb,Step-1,Increment      1: Step Time =    1.000,"PART-1-1",           159,   146.162E-03,      -22.6598,            0.,NA,NA,"",   28.8208E-03,   26.4840E-03,   11.3683E-03,   5.02104E-03
C:/temp/dataset/3/18_2.odb,Step-1,Increment      1: Step Time =    1.000,"PART-1-1",           160,      -12.4860,      -22.5306,            0.,NA,NA,"",   14.7787E-03,   14.6576E-03,   1.88775E-03,   158.062E-06
C:/temp/dataset/3/18_2.odb,Step-1,Increment      1: Step Time =    1.000,"PART-1-1",           161,       9.96020,      -27.7814,            0.,NA,NA,"",   8.13674E-03,  -6.78638E-03,  -4.48905E-03,   3.58285E-03
C:/temp/dataset/3/18_2.odb,Step-1,Increment      1: Step Time =    1.000,"PART-1-1",           162,       7.44077,      -27.8946,            0.,NA,NA,"",   5.57583E-03,  -3.95180E-03,   3.93359E-03,   3.70893E-03
C:/temp/dataset/3/18_2.odb,Step-1,Increment      1: Step Time =    1.000,"PART-1-1",           163,       4.93217,      -27.8625,            0.,NA,NA,"",   8.10138E-03,   2.31221E-03,   7.76441E-03,   5.57447E-03
C:/temp/dataset/3/18_2.odb,Step-1,Increment      1: Step Time =    1.000,"PART-1-1",           164,       2.47767,      -27.7470,            0.,NA,NA,"",   10.8453E-03,   7.93170E-03,   7.39656E-03,   5.38428E-03
C:/temp/dataset/3/18_2.odb,Step-1,Increment      1: Step Time =    1.000,"PART-1-1",           165,   19.5837E-03,      -27.6625,            0.,NA,NA,"",   11.4326E-03,   10.3629E-03,   4.82843E-03,   4.25492E-03
C:/temp/dataset/3/18_2.odb,Step-1,Increment      1: Step Time =    1.000,"PART-1-1",           166,      -2.46955,      -27.6154,            0.,NA,NA,"",   10.4761E-03,   10.1807E-03,   2.47001E-03,   3.20205E-03
C:/temp/dataset/3/18_2.odb,Step-1,Increment      1: Step Time =    1.000,"PART-1-1",           167,      -4.97450,      -27.5844,            0.,NA,NA,"",   8.87097E-03,   8.81218E-03,   1.01957E-03,   2.44405E-03
C:/temp/dataset/3/18_2.odb,Step-1,Increment      1: Step Time =    1.000,"PART-1-1",           168,      -7.48283,      -27.5594,            0.,NA,NA,"",   7.34540E-03,   7.33387E-03,   411.398E-06,   1.93676E-03
C:/temp/dataset/3/18_2.odb,Step-1,Increment      1: Step Time =    1.000,"PART-1-1",           169,       12.2865,      -25.1793,            0.,NA,NA,"",   35.9979E-03,   4.82058E-03,  -35.6737E-03,   10.2318E-03
C:/temp/dataset/3/18_2.odb,Step-1,Increment      1: Step Time =    1.000,"PART-1-1",           170,       11.6753,      -16.4340,            0.,NA,NA,"",   219.589E-03,   196.576E-03,  -97.8631E-03,   8.20648E-03
C:/temp/dataset/3/18_2.odb,Step-1,Increment      1: Step Time =    1.000,"PART-1-1",           171,       11.9685,      -19.5802,            0.,NA,NA,"",   118.424E-03,   87.1817E-03,  -80.1469E-03,   10.1552E-03
C:/temp/dataset/3/18_2.odb,Step-1,Increment      1: Step Time =    1.000,"PART-1-1",           172,       13.3291,      -9.93034,            0.,NA,NA,"",   616.495E-03,   563.274E-03,  -250.577E-03,   11.3262E-03
C:/temp/dataset/3/18_2.odb,Step-1,Increment      1: Step Time =    1.000,"PART-1-1",           173,       13.4212,      -12.1607,            0.,NA,NA,"",   480.258E-03,   422.842E-03,  -227.710E-03,   13.0296E-03
C:/temp/dataset/3/18_2.odb,Step-1,Increment      1: Step Time =    1.000,"PART-1-1",           174,       12.9633,      -2.52247,            0.,NA,NA,"",       1.16920,       1.12995,  -300.406E-03,   6.17593E-03
C:/temp/dataset/3/18_2.odb,Step-1,Increment      1: Step Time =    1.000,"PART-1-1",           175,       13.1247,      -4.84738,            0.,NA,NA,"",   982.956E-03,   938.545E-03,  -292.122E-03,   7.91356E-03
C:/temp/dataset/3/18_2.odb,Step-1,Increment      1: Step Time =    1.000,"PART-1-1",           176,       13.1131,       5.12757,            0.,NA,NA,"",       1.83395,       1.79716,  -365.501E-03,   2.44260E-03
C:/temp/dataset/3/18_2.odb,Step-1,Increment      1: Step Time =    1.000,"PART-1-1",           177,       12.1418,       2.60140,            0.,NA,NA,"",       1.59808,       1.57552,  -267.594E-03,   3.30293E-03
C:/temp/dataset/3/18_2.odb,Step-1,Increment      1: Step Time =    1.000,"PART-1-1",           178,       12.1760,       12.1629,            0.,NA,NA,"",       2.44910,       2.42868,  -315.580E-03,   449.518E-06
C:/temp/dataset/3/18_2.odb,Step-1,Increment      1: Step Time =    1.000,"PART-1-1",           179,       13.0236,       9.64002,            0.,NA,NA,"",       2.23342,       2.20089,  -379.837E-03,   972.101E-06
C:/temp/dataset/3/18_2.odb,Step-1,Increment      1: Step Time =    1.000,"PART-1-1",           180,       12.3784,       20.0377,            0.,NA,NA,"",       3.14286,       3.12170,  -364.037E-03,   40.2445E-06
C:/temp/dataset/3/18_2.odb,Step-1,Increment      1: Step Time =    1.000,"PART-1-1",           181,       12.3660,       17.5135,            0.,NA,NA,"",       2.92121,       2.89979,  -353.141E-03,   68.2030E-06
C:/temp/dataset/3/18_2.odb,Step-1,Increment      1: Step Time =    1.000,"PART-1-1",           182,       12.4264,       25.0333,            0.,NA,NA,"",       3.58181,       3.56077,  -387.625E-03,   4.08468E-06
C:/temp/dataset/3/18_2.odb,Step-1,Increment      1: Step Time =    1.000,"PART-1-1",           183,       7.43491,       27.5684,            0.,NA,NA,"",       3.80325,       3.80303,   41.4886E-03,   1.13223E-06
C:/temp/dataset/3/18_2.odb,Step-1,Increment      1: Step Time =    1.000,"PART-1-1",           184,  -17.4965E-03,       27.5503,            0.,NA,NA,"",       3.89320,       3.83031,   696.923E-03,   404.017E-09
C:/temp/dataset/3/18_2.odb,Step-1,Increment      1: Step Time =    1.000,"PART-1-1",           185,       2.47067,       27.5656,            0.,NA,NA,"",       3.85180,       3.82202,   478.051E-03,   400.004E-09
C:/temp/dataset/3/18_2.odb,Step-1,Increment      1: Step Time =    1.000,"PART-1-1",           186,      -7.50286,       27.5043,            0.,NA,NA,"",       4.08658,       3.85527,       1.35537,   15.0931E-09
C:/temp/dataset/3/18_2.odb,Step-1,Increment      1: Step Time =    1.000,"PART-1-1",           187,      -5.00635,       27.5119,            0.,NA,NA,"",       4.01046,       3.84626,       1.13580,   74.6049E-09
C:/temp/dataset/3/18_2.odb,Step-1,Increment      1: Step Time =    1.000,"PART-1-1",           188,      -12.5019,       27.5019,            0.,NA,NA,"",       4.27004,       3.87443,       1.79501,   3.39418E-09
C:/temp/dataset/3/18_2.odb,Step-1,Increment      1: Step Time =    1.000,"PART-1-1",           189,      -12.5001,       22.5034,            0.,NA,NA,"",       3.88452,       3.43484,       1.81421,   3.53786E-09
C:/temp/dataset/3/18_2.odb,Step-1,Increment      1: Step Time =    1.000,"PART-1-1",           190,      -5.00429,       25.0191,            0.,NA,NA,"",       3.80355,       3.62703,       1.14528,   83.5233E-09
C:/temp/dataset/3/18_2.odb,Step-1,Increment      1: Step Time =    1.000,"PART-1-1",           191,  -15.9173E-03,       25.0642,            0.,NA,NA,"",       3.68011,       3.61167,   706.416E-03,   510.713E-09
C:/temp/dataset/3/18_2.odb,Step-1,Increment      1: Step Time =    1.000,"PART-1-1",           192,       9.74355,       15.0604,            0.,NA,NA,"",       2.69658,       2.69422,  -112.785E-03,   117.083E-06
C:/temp/dataset/3/18_2.odb,Step-1,Increment      1: Step Time =    1.000,"PART-1-1",           193,       9.51986,       12.6989,            0.,NA,NA,"",       2.48867,       2.48724,  -84.2112E-03,   597.587E-06
C:/temp/dataset/3/18_2.odb,Step-1,Increment      1: Step Time =    1.000,"PART-1-1",           194,       12.1898,      -11.7554,            0.,NA,NA,"",   472.379E-03,   443.616E-03,  -162.317E-03,   8.61464E-03
C:/temp/dataset/3/18_2.odb,Step-1,Increment      1: Step Time =    1.000,"PART-1-1",           195,       9.78251,      -13.4248,            0.,NA,NA,"",   346.136E-03,   345.169E-03,  -25.8551E-03,   4.25875E-03
C:/temp/dataset/3/18_2.odb,Step-1,Increment      1: Step Time =    1.000,"PART-1-1",           196,       7.24032,      -19.5057,            0.,NA,NA,"",   91.5534E-03,   78.5852E-03,   46.9723E-03,   8.98809E-03
C:/temp/dataset/3/18_2.odb,Step-1,Increment      1: Step Time =    1.000,"PART-1-1",           197,      -10.0066,  -139.817E-03,            0.,NA,NA,"",       2.16162,       1.42763,       1.62311,   11.2934E-06
C:/temp/dataset/3/18_2.odb,Step-1,Increment      1: Step Time =    1.000,"PART-1-1",           198,      -8.39380,      -1.43672,            0.,NA,NA,"",       1.98383,       1.31036,       1.48947,   23.1140E-06
C:/temp/dataset/3/18_2.odb,Step-1,Increment      1: Step Time =    1.000,"PART-1-1",           199,      -5.07121,  -530.035E-03,            0.,NA,NA,"",       1.82640,       1.37606,       1.20090,   92.4252E-06
C:/temp/dataset/3/18_2.odb,Step-1,Increment      1: Step Time =    1.000,"PART-1-1",           200,      -12.5003,      -27.5198,            0.,NA,NA,"",   5.90439E-03,   5.79101E-03,   1.15150E-03,   1.48657E-03
C:/temp/dataset/3/18_2.odb,Step-1,Increment      1: Step Time =    1.000,"PART-1-1",           201,       8.97180,      -8.86122,            0.,NA,NA,"",   638.410E-03,   638.069E-03,   20.8636E-03,   4.67272E-03
C:/temp/dataset/3/18_2.odb,Step-1,Increment      1: Step Time =    1.000,"PART-1-1",           202,      -2.50561,       25.0360,            0.,NA,NA,"",       3.73530,       3.61884,   925.473E-03,   268.925E-09
C:/temp/dataset/3/18_2.odb,Step-1,Increment      1: Step Time =    1.000,"PART-1-1",           203,      -7.50383,       25.0106,            0.,NA,NA,"",       3.88379,       3.63597,       1.36512,   21.0719E-09
C:/temp/dataset/3/18_2.odb,Step-1,Increment      1: Step Time =    1.000,"PART-1-1",           204,       2.46362,       25.0850,            0.,NA,NA,"",       3.63683,       3.60390,   488.281E-03,   835.498E-09
C:/temp/dataset/3/18_2.odb,Step-1,Increment      1: Step Time =    1.000,"PART-1-1",           205,       9.17638,       10.5785,            0.,NA,NA,"",       2.30143,       2.30096,  -46.7943E-03,   1.46491E-03
C:/temp/dataset/3/18_2.odb,Step-1,Increment      1: Step Time =    1.000,"PART-1-1",           206,       9.65111,       6.46520,            0.,NA,NA,"",       1.93060,       1.92920,  -73.4327E-03,   2.76414E-03
C:/temp/dataset/3/18_2.odb,Step-1,Increment      1: Step Time =    1.000,"PART-1-1",           207,      -1.99278,       1.34592,            0.,NA,NA,"",       1.78678,       1.52593,   929.582E-03,   164.780E-06
C:/temp/dataset/3/18_2.odb,Step-1,Increment      1: Step Time =    1.000,"PART-1-1",           208,      -5.69490,       1.29843,            0.,NA,NA,"",       1.97826,       1.53526,       1.24760,   73.3228E-06
C:/temp/dataset/3/18_2.odb,Step-1,Increment      1: Step Time =    1.000,"PART-1-1",           209,       1.92780,   665.778E-03,            0.,NA,NA,"",       1.57063,       1.45303,   596.291E-03,   1.02822E-03
C:/temp/dataset/3/18_2.odb,Step-1,Increment      1: Step Time =    1.000,"PART-1-1",           210,       1.26043,      -1.37778,            0.,NA,NA,"",       1.44016,       1.28026,   659.536E-03,   539.694E-06
C:/temp/dataset/3/18_2.odb,Step-1,Increment      1: Step Time =    1.000,"PART-1-1",           211,       9.14691,      -16.8280,            0.,NA,NA,"",   176.269E-03,   176.269E-03,  -228.638E-06,   5.27921E-03
C:/temp/dataset/3/18_2.odb,Step-1,Increment      1: Step Time =    1.000,"PART-1-1",           212,   79.9954E-03,      -25.2148,            0.,NA,NA,"",   21.7741E-03,   19.5102E-03,   9.66768E-03,   4.69447E-03
C:/temp/dataset/3/18_2.odb,Step-1,Increment      1: Step Time =    1.000,"PART-1-1",           213,      -9.97865,      -25.0679,            0.,NA,NA,"",   11.4476E-03,   11.4439E-03,   290.953E-06,   1.06513E-03
C:/temp/dataset/3/18_2.odb,Step-1,Increment      1: Step Time =    1.000,"PART-1-1",           214,       12.4671,      -27.6040,            0.,NA,NA,"",   17.3543E-03,  -1.77635E-03,  -17.2632E-03,   9.81932E-03
C:/temp/dataset/3/18_2.odb,Step-1,Increment      1: Step Time =    1.000,"PART-1-1",           215,       9.82463,      -25.6838,            0.,NA,NA,"",   7.82440E-03,  -2.73550E-03,  -7.33064E-03,   4.00353E-03
C:/temp/dataset/3/18_2.odb,Step-1,Increment      1: Step Time =    1.000,"PART-1-1",           216,       2.56344,      -25.3828,            0.,NA,NA,"",   25.0005E-03,   18.0104E-03,   17.3393E-03,   7.11159E-03
C:/temp/dataset/3/18_2.odb,Step-1,Increment      1: Step Time =    1.000,"PART-1-1",           217,      -2.44121,      -25.1518,            0.,NA,NA,"",   17.9747E-03,   17.5653E-03,   3.81465E-03,   3.06235E-03
C:/temp/dataset/3/18_2.odb,Step-1,Increment      1: Step Time =    1.000,"PART-1-1",           218,      -4.95889,      -25.1139,            0.,NA,NA,"",   15.0631E-03,   15.0306E-03,   989.259E-06,   2.03177E-03
C:/temp/dataset/3/18_2.odb,Step-1,Increment      1: Step Time =    1.000,"PART-1-1",           219,       10.3279,  -771.646E-03,            0.,NA,NA,"",       1.28952,       1.28561,  -100.392E-03,   4.27083E-03
C:/temp/dataset/3/18_2.odb,Step-1,Increment      1: Step Time =    1.000,"PART-1-1",           220,       10.4049,       4.48083,            0.,NA,NA,"",       1.75295,       1.74816,  -129.491E-03,   2.96691E-03
C:/temp/dataset/3/18_2.odb,Step-1,Increment      1: Step Time =    1.000,"PART-1-1",           221,       9.80969,       17.5478,            0.,NA,NA,"",       2.91550,       2.91268,  -128.334E-03,   82.2720E-06
C:/temp/dataset/3/18_2.odb,Step-1,Increment      1: Step Time =    1.000,"PART-1-1",           222,       9.88106,       25.0797,            0.,NA,NA,"",       3.57847,       3.57471,  -163.973E-03,   5.09041E-06
C:/temp/dataset/3/18_2.odb,Step-1,Increment      1: Step Time =    1.000,"PART-1-1",           223,       9.94975,       27.5346,            0.,NA,NA,"",       3.79457,       3.79032,  -179.529E-03,   1.16909E-06
C:/temp/dataset/3/18_2.odb,Step-1,Increment      1: Step Time =    1.000,"PART-1-1",           224,       7.36779,       20.0596,            0.,NA,NA,"",       3.14386,       3.14293,   76.5038E-03,   44.2627E-06
C:/temp/dataset/3/18_2.odb,Step-1,Increment      1: Step Time =    1.000,"PART-1-1",           225,  -693.206E-03,      -1.01900,            0.,NA,NA,"",       1.55611,       1.31833,   826.723E-03,   199.104E-06
C:/temp/dataset/3/18_2.odb,Step-1,Increment      1: Step Time =    1.000,"PART-1-1",           226,      -7.47194,      -25.0831,            0.,NA,NA,"",   12.8771E-03,   12.8771E-03,   36.8346E-06,   1.48994E-03
C:/temp/dataset/3/18_2.odb,Step-1,Increment      1: Step Time =    1.000,"PART-1-1",           227,       5.28089,       2.25097,            0.,NA,NA,"",       1.60395,       1.57375,   309.791E-03,   3.65226E-03
C:/temp/dataset/3/18_2.odb,Step-1,Increment      1: Step Time =    1.000,"PART-1-1",           228,       9.26575,       8.45073,            0.,NA,NA,"",       2.11042,       2.10989,  -47.4482E-03,   2.47076E-03
C:/temp/dataset/3/18_2.odb,Step-1,Increment      1: Step Time =    1.000,"PART-1-1",           229,  -81.3472E-03,       1.02952,            0.,NA,NA,"",       1.67750,       1.49194,   766.877E-03,   225.169E-06
C:/temp/dataset/3/18_2.odb,Step-1,Increment      1: Step Time =    1.000,"PART-1-1",           230,      -7.67687,   831.326E-03,            0.,NA,NA,"",       2.06695,       1.50243,       1.41951,   34.1277E-06
C:/temp/dataset/3/18_2.odb,Step-1,Increment      1: Step Time =    1.000,"PART-1-1",           231,      -2.54090,  -531.417E-03,            0.,NA,NA,"",       1.68402,       1.36686,   983.673E-03,   165.253E-06
C:/temp/dataset/3/18_2.odb,Step-1,Increment      1: Step Time =    1.000,"PART-1-1",           232,      -3.83997,       1.55066,            0.,NA,NA,"",       1.89350,       1.55015,       1.08738,   118.285E-06
C:/temp/dataset/3/18_2.odb,Step-1,Increment      1: Step Time =    1.000,"PART-1-1",           233,      -6.84494,  -996.203E-03,            0.,NA,NA,"",       1.90737,       1.34250,       1.35490,   50.6647E-06
C:/temp/dataset/3/18_2.odb,Step-1,Increment      1: Step Time =    1.000,"PART-1-1",           234,       5.51335,      -3.03354,            0.,NA,NA,"",       1.15394,       1.11655,   291.393E-03,   6.93603E-03
C:/temp/dataset/3/18_2.odb,Step-1,Increment      1: Step Time =    1.000,"PART-1-1",           235,       9.62476,      -7.14735,            0.,NA,NA,"",   762.181E-03,   761.780E-03,  -24.7302E-03,   4.47485E-03
C:/temp/dataset/3/18_2.odb,Step-1,Increment      1: Step Time =    1.000,"PART-1-1",           236,       7.38903,      -25.9371,            0.,NA,NA,"",   10.6247E-03,   182.358E-06,   10.6232E-03,   5.07936E-03
C:/temp/dataset/3/18_2.odb,Step-1,Increment      1: Step Time =    1.000,"PART-1-1",           237,       4.96373,      -25.7856,            0.,NA,NA,"",   21.3086E-03,   9.37842E-03,   19.1338E-03,   7.72192E-03
C:/temp/dataset/3/18_2.odb,Step-1,Increment      1: Step Time =    1.000,"PART-1-1",           238,       9.37191,      -21.3805,            0.,NA,NA,"",   38.4703E-03,   38.1375E-03,  -5.04882E-03,   3.73432E-03
C:/temp/dataset/3/18_2.odb,Step-1,Increment      1: Step Time =    1.000,"PART-1-1",           239,       9.53380,      -19.3691,            0.,NA,NA,"",   85.4494E-03,   84.5623E-03,  -12.2810E-03,   3.14648E-03
C:/temp/dataset/3/18_2.odb,Step-1,Increment      1: Step Time =    1.000,"PART-1-1",           240,       10.5518,      -5.76730,            0.,NA,NA,"",   871.974E-03,   866.748E-03,  -95.3213E-03,   5.05031E-03
C:/temp/dataset/3/18_2.odb,Step-1,Increment      1: Step Time =    1.000,"PART-1-1",           241,       10.8494,      -2.88140,            0.,NA,NA,"",       1.11101,       1.10314,  -131.984E-03,   5.10462E-03
C:/temp/dataset/3/18_2.odb,Step-1,Increment      1: Step Time =    1.000,"PART-1-1",           242,       9.33979,       1.27198,            0.,NA,NA,"",       1.46817,       1.46792,  -27.0907E-03,   3.44707E-03
C:/temp/dataset/3/18_2.odb,Step-1,Increment      1: Step Time =    1.000,"PART-1-1",           243,       9.83335,       20.0603,            0.,NA,NA,"",       3.13664,       3.13351,  -140.262E-03,   44.2240E-06
C:/temp/dataset/3/18_2.odb,Step-1,Increment      1: Step Time =    1.000,"PART-1-1",           244,       7.39102,       25.1069,            0.,NA,NA,"",       3.58716,       3.58674,   54.8864E-03,   3.78774E-06
C:/temp/dataset/3/18_2.odb,Step-1,Increment      1: Step Time =    1.000,"PART-1-1",           245,       4.93408,       25.0979,            0.,NA,NA,"",       3.60566,       3.59546,   270.978E-03,   1.91973E-06
C:/temp/dataset/3/18_2.odb,Step-1,Increment      1: Step Time =    1.000,"PART-1-1",           246,      -10.0026,       25.0068,            0.,NA,NA,"",       3.97494,       3.64532,       1.58488,   1.62669E-09
C:/temp/dataset/3/18_2.odb,Step-1,Increment      1: Step Time =    1.000,"PART-1-1",           247,      -10.0008,       22.5051,            0.,NA,NA,"",       3.77822,       3.42531,       1.59442,   2.50713E-09
C:/temp/dataset/3/18_2.odb,Step-1,Increment      1: Step Time =    1.000,"PART-1-1",           248,      -9.99283,      -27.5363,            0.,NA,NA,"",   6.20218E-03,   6.19049E-03,   380.654E-06,   1.62027E-03
C:/temp/dataset/3/18_2.odb,Step-1,Increment      1: Step Time =    1.000,"PART-1-1",           249,       3.80746,   187.829E-03,            0.,NA,NA,"",       1.46965,       1.40317,   437.007E-03,   2.73843E-03
C:/temp/dataset/3/18_2.odb,Step-1,Increment      1: Step Time =    1.000,"PART-1-1",           250,       11.4886,       7.12458,            0.,NA,NA,"",       1.99525,       1.98141,  -234.601E-03,   2.19318E-03
C:/temp/dataset/3/18_2.odb,Step-1,Increment      1: Step Time =    1.000,"PART-1-1",           251,       5.25951,      -23.9756,            0.,NA,NA,"",   35.9529E-03,   18.7308E-03,   30.6883E-03,   9.99692E-03
C:/temp/dataset/3/18_2.odb,Step-1,Increment      1: Step Time =    1.000,"PART-1-1",           252,       9.85798,       22.5791,            0.,NA,NA,"",       3.35836,       3.35491,  -152.239E-03,   16.3687E-06
C:/temp/dataset/3/18_2.odb,Step-1,Increment      1: Step Time =    1.000,"PART-1-1",           253,       7.38133,       22.5911,            0.,NA,NA,"",       3.36616,       3.36552,   65.4900E-03,   12.9313E-06
C:/temp/dataset/3/18_2.odb,Step-1,Increment      1: Step Time =    1.000,"PART-1-1",           254,       9.03817,      -10.9527,            0.,NA,NA,"",   496.580E-03,   496.347E-03,   15.1935E-03,   5.23108E-03
C:/temp/dataset/3/18_2.odb,Step-1,Increment      1: Step Time =    1.000,"PART-1-1",           255,       7.30212,      -21.2110,            0.,NA,NA,"",   53.8191E-03,   39.3459E-03,   36.7205E-03,   7.85610E-03
C:/temp/dataset/3/18_2.odb,Step-1,Increment      1: Step Time =    1.000,"PART-1-1",           256,       8.48263,      -3.88795,            0.,NA,NA,"",       1.02771,       1.02637,   52.3894E-03,   5.91804E-03
C:/temp/dataset/3/18_2.odb,Step-1,Increment      1: Step Time =    1.000,"PART-1-1",           257,       8.48912,      -1.65164,            0.,NA,NA,"",       1.21804,       1.21705,   49.1581E-03,   5.00155E-03
C:/temp/dataset/3/18_2.odb,Step-1,Increment      1: Step Time =    1.000,"PART-1-1",           258,       8.19007,       3.36514,            0.,NA,NA,"",       1.65867,       1.65749,   62.5338E-03,   2.53710E-03
C:/temp/dataset/3/18_2.odb,Step-1,Increment      1: Step Time =    1.000,"PART-1-1",           259,       6.78208,  -317.133E-03,            0.,NA,NA,"",       1.35521,       1.34225,   186.954E-03,   4.36925E-03
C:/temp/dataset/3/18_2.odb,Step-1,Increment      1: Step Time =    1.000,"PART-1-1",           260,       11.8604,      -10.2109,            0.,NA,NA,"",   563.706E-03,   541.744E-03,  -155.813E-03,   7.22709E-03
C:/temp/dataset/3/18_2.odb,Step-1,Increment      1: Step Time =    1.000,"PART-1-1",           261,       5.00218,  -627.613E-03,            0.,NA,NA,"",       1.36808,       1.32613,   336.181E-03,   4.02667E-03
C:/temp/dataset/3/18_2.odb,Step-1,Increment      1: Step Time =    1.000,"PART-1-1",           262,       11.1460,      -8.45072,            0.,NA,NA,"",   674.519E-03,   663.353E-03,  -122.227E-03,   5.47631E-03
C:/temp/dataset/3/18_2.odb,Step-1,Increment      1: Step Time =    1.000,"PART-1-1",           263,       11.7180,       5.54683,            0.,NA,NA,"",       1.85561,       1.83910,  -247.019E-03,   2.51776E-03
C:/temp/dataset/3/18_2.odb,Step-1,Increment      1: Step Time =    1.000,"PART-1-1",           264,       5.25136,      -21.5985,            0.,NA,NA,"",   65.1149E-03,   38.6143E-03,   52.4298E-03,   15.7177E-03
C:/temp/dataset/3/18_2.odb,Step-1,Increment      1: Step Time =    1.000,"PART-1-1",           265,       12.4723,       27.5096,            0.,NA,NA,"",       3.79959,       3.77835,  -401.259E-03,   600.178E-09
C:/temp/dataset/3/18_2.odb,Step-1,Increment      1: Step Time =    1.000,"PART-1-1",           266,       5.87727,      -22.7682,            0.,NA,NA,"",   47.2187E-03,   26.2127E-03,   39.2746E-03,   10.6333E-03
C:/temp/dataset/3/18_2.odb,Step-1,Increment      1: Step Time =    1.000,"PART-1-1",           267,       7.32369,      -22.7299,            0.,NA,NA,"",   34.4240E-03,   20.8447E-03,   27.3955E-03,   7.48881E-03
C:/temp/dataset/3/18_2.odb,Step-1,Increment      1: Step Time =    1.000,"PART-1-1",           268,       11.4923,      -4.55460,            0.,NA,NA,"",   978.104E-03,   962.981E-03,  -171.333E-03,   5.80413E-03
C:/temp/dataset/3/18_2.odb,Step-1,Increment      1: Step Time =    1.000,"PART-1-1",           269,       11.2115,       8.96325,            0.,NA,NA,"",       2.15858,       2.14751,  -218.345E-03,   1.65534E-03
C:/temp/dataset/3/18_2.odb,Step-1,Increment      1: Step Time =    1.000,"PART-1-1",           270,       10.8046,       10.5255,            0.,NA,NA,"",       2.29665,       2.28887,  -188.894E-03,   1.15180E-03
C:/temp/dataset/3/18_2.odb,Step-1,Increment      1: Step Time =    1.000,"PART-1-1",           271,       7.35536,      -24.2380,            0.,NA,NA,"",   20.3969E-03,   8.82723E-03,   18.3879E-03,   6.29945E-03
C:/temp/dataset/3/18_2.odb,Step-1,Increment      1: Step Time =    1.000,"PART-1-1",           272,      -3.82134,   150.711E-03,            0.,NA,NA,"",       1.79868,       1.43000,       1.09104,   129.214E-06
C:/temp/dataset/3/18_2.odb,Step-1,Increment      1: Step Time =    1.000,"PART-1-1",           273,       3.09609,      -1.70207,            0.,NA,NA,"",       1.34181,       1.24475,   501.041E-03,   2.34049E-03
C:/temp/dataset/3/18_2.odb,Step-1,Increment      1: Step Time =    1.000,"PART-1-1",           274,       4.56419,      -1.78689,            0.,NA,NA,"",       1.28502,       1.22948,   373.713E-03,   3.98627E-03
C:/temp/dataset/3/18_2.odb,Step-1,Increment      1: Step Time =    1.000,"PART-1-1",           275,       9.44492,      -23.8624,            0.,NA,NA,"",   9.46341E-03,   8.16415E-03,  -4.78569E-03,   4.16466E-03
C:/temp/dataset/3/18_2.odb,Step-1,Increment      1: Step Time =    1.000,"PART-1-1",           276,       8.77427,      -22.6651,            0.,NA,NA,"",   20.6614E-03,   19.7441E-03,   6.08804E-03,   4.23944E-03
C:/temp/dataset/3/18_2.odb,Step-1,Increment      1: Step Time =    1.000,"PART-1-1",           277,       10.1837,      -9.28900,            0.,NA,NA,"",   607.715E-03,   605.096E-03,  -56.3546E-03,   4.15838E-03
C:/temp/dataset/3/18_2.odb,Step-1,Increment      1: Step Time =    1.000,"PART-1-1",           278,       10.4979,      -10.7612,            0.,NA,NA,"",   510.536E-03,   505.615E-03,  -70.7108E-03,   4.33270E-03
C:/temp/dataset/3/18_2.odb,Step-1,Increment      1: Step Time =    1.000,"PART-1-1",           279,       11.2325,      -12.6180,            0.,NA,NA,"",   404.055E-03,   390.601E-03,  -103.400E-03,   5.87789E-03
C:/temp/dataset/3/18_2.odb,Step-1,Increment      1: Step Time =    1.000,"PART-1-1",           280,      -13.7500,       22.5017,            0.,NA,NA,"",       3.94116,       3.43954,       1.92414,   3.10599E-09
C:/temp/dataset/3/18_2.odb,Step-1,Increment      1: Step Time =    1.000,"PART-1-1",           281,          -15.,         21.25,            0.,NA,NA,"",       3.90829,       3.33430,       2.03892,   2.52870E-09
C:/temp/dataset/3/18_2.odb,Step-1,Increment      1: Step Time =    1.000,"PART-1-1",           282,        -13.75,           20.,            0.,NA,NA,"",       3.75567,       3.21953,       1.93383,   2.73094E-09
C:/temp/dataset/3/18_2.odb,Step-1,Increment      1: Step Time =    1.000,"PART-1-1",           283,      -12.5000,       21.2517,            0.,NA,NA,"",       3.78986,       3.32477,       1.81906,   3.22740E-09
C:/temp/dataset/3/18_2.odb,Step-1,Increment      1: Step Time =    1.000,"PART-1-1",           284,        -11.25,           30.,            0.,NA,NA,"",       4.41910,       4.08926,       1.67523,   4.43611E-09
C:/temp/dataset/3/18_2.odb,Step-1,Increment      1: Step Time =    1.000,"PART-1-1",           285,      -12.5009,       28.7510,            0.,NA,NA,"",       4.36792,       3.98426,       1.79008,   3.12406E-09
C:/temp/dataset/3/18_2.odb,Step-1,Increment      1: Step Time =    1.000,"PART-1-1",           286,      -11.2523,       27.5017,            0.,NA,NA,"",       4.22056,       3.86956,       1.68512,   1.89778E-09
C:/temp/dataset/3/18_2.odb,Step-1,Increment      1: Step Time =    1.000,"PART-1-1",           287,      -10.0014,       28.7507,            0.,NA,NA,"",       4.27351,       3.97456,       1.57027,   3.32562E-09
C:/temp/dataset/3/18_2.odb,Step-1,Increment      1: Step Time =    1.000,"PART-1-1",           288,      -8.75282,       27.5029,            0.,NA,NA,"",       4.12875,       3.85998,       1.46530,   7.33452E-09
C:/temp/dataset/3/18_2.odb,Step-1,Increment      1: Step Time =    1.000,"PART-1-1",           289,      -10.0027,       26.2541,            0.,NA,NA,"",       4.07390,       3.75501,       1.58006,   1.07480E-09
C:/temp/dataset/3/18_2.odb,Step-1,Increment      1: Step Time =    1.000,"PART-1-1",           290,      -8.75320,       25.0087,            0.,NA,NA,"",       3.92809,       3.64064,       1.47500,   11.3782E-09
C:/temp/dataset/3/18_2.odb,Step-1,Increment      1: Step Time =    1.000,"PART-1-1",           291,      -7.50334,       26.2575,            0.,NA,NA,"",       3.98496,       3.74562,       1.36025,   16.1984E-09
C:/temp/dataset/3/18_2.odb,Step-1,Increment      1: Step Time =    1.000,"PART-1-1",           292,  -10.1921E-03,       23.8015,            0.,NA,NA,"",       3.57204,       3.50061,   710.805E-03,   508.609E-09
C:/temp/dataset/3/18_2.odb,Step-1,Increment      1: Step Time =    1.000,"PART-1-1",           293,       1.23656,       22.5490,            0.,NA,NA,"",       3.43944,       3.38563,   606.017E-03,   1.03306E-06
C:/temp/dataset/3/18_2.odb,Step-1,Increment      1: Step Time =    1.000,"PART-1-1",           294,       2.47060,       23.8222,            0.,NA,NA,"",       3.52738,       3.49282,   492.560E-03,   997.692E-09
C:/temp/dataset/3/18_2.odb,Step-1,Increment      1: Step Time =    1.000,"PART-1-1",           295,       1.22385,       25.0746,            0.,NA,NA,"",       3.65690,       3.60779,   597.349E-03,   607.372E-09
C:/temp/dataset/3/18_2.odb,Step-1,Increment      1: Step Time =    1.000,"PART-1-1",           296,       13.7132,       25.0166,            0.,NA,NA,"",       3.58942,       3.55433,  -500.720E-03,   2.10839E-06
C:/temp/dataset/3/18_2.odb,Step-1,Increment      1: Step Time =    1.000,"PART-1-1",           297,           15.,         26.25,            0.,NA,NA,"",       3.70974,       3.65779,  -618.652E-03,   494.628E-09
C:/temp/dataset/3/18_2.odb,Step-1,Increment      1: Step Time =    1.000,"PART-1-1",           298,       13.7362,       27.5048,            0.,NA,NA,"",       3.80766,       3.77303,  -512.377E-03,   207.161E-09
C:/temp/dataset/3/18_2.odb,Step-1,Increment      1: Step Time =    1.000,"PART-1-1",           299,       12.4494,       26.2714,            0.,NA,NA,"",       3.69070,       3.66956,  -394.442E-03,   2.29312E-06
C:/temp/dataset/3/18_2.odb,Step-1,Increment      1: Step Time =    1.000,"PART-1-1",           300,       6.19248,       27.5744,            0.,NA,NA,"",       3.81136,       3.80837,   150.722E-03,   761.869E-09
C:/temp/dataset/3/18_2.odb,Step-1,Increment      1: Step Time =    1.000,"PART-1-1",           301,       7.46746,       28.7842,            0.,NA,NA,"",       3.90997,       3.90982,   33.9163E-03,   488.662E-09
C:/temp/dataset/3/18_2.odb,Step-1,Increment      1: Step Time =    1.000,"PART-1-1",           302,          6.25,           30.,            0.,NA,NA,"",       4.02376,       4.02145,   136.267E-03,   878.049E-09
C:/temp/dataset/3/18_2.odb,Step-1,Increment      1: Step Time =    1.000,"PART-1-1",           303,       4.97503,       28.7903,            0.,NA,NA,"",       3.92817,       3.92001,   253.073E-03,   577.051E-09
C:/temp/dataset/3/18_2.odb,Step-1,Increment      1: Step Time =    1.000,"PART-1-1",           304,       11.0878,       17.5306,            0.,NA,NA,"",       2.91620,       2.90624,  -240.712E-03,   61.3473E-06
C:/temp/dataset/3/18_2.odb,Step-1,Increment      1: Step Time =    1.000,"PART-1-1",           305,       12.3722,       18.7756,            0.,NA,NA,"",       3.03204,       3.01076,  -358.591E-03,   50.7087E-06
C:/temp/dataset/3/18_2.odb,Step-1,Increment      1: Step Time =    1.000,"PART-1-1",           306,       11.1059,       20.0490,            0.,NA,NA,"",       3.13776,       3.12761,  -252.138E-03,   35.6186E-06
C:/temp/dataset/3/18_2.odb,Step-1,Increment      1: Step Time =    1.000,"PART-1-1",           307,       9.82152,       18.8041,            0.,NA,NA,"",       3.02607,       3.02309,  -134.307E-03,   59.7260E-06
C:/temp/dataset/3/18_2.odb,Step-1,Increment      1: Step Time =    1.000,"PART-1-1",           308,       9.63171,       13.8797,            0.,NA,NA,"",       2.59268,       2.59081,  -98.4066E-03,   315.248E-06
C:/temp/dataset/3/18_2.odb,Step-1,Increment      1: Step Time =    1.000,"PART-1-1",           309,       8.52517,       15.0687,            0.,NA,NA,"",       2.69977,       2.69976,  -5.69105E-03,   104.760E-06
C:/temp/dataset/3/18_2.odb,Step-1,Increment      1: Step Time =    1.000,"PART-1-1",           310,       7.25683,       13.8735,            0.,NA,NA,"",       2.60246,       2.60013,   110.248E-03,   393.293E-06
C:/temp/dataset/3/18_2.odb,Step-1,Increment      1: Step Time =    1.000,"PART-1-1",           311,       8.36336,       12.6844,            0.,NA,NA,"",       2.49115,       2.49109,   17.3867E-03,   688.507E-06
C:/temp/dataset/3/18_2.odb,Step-1,Increment      1: Step Time =    1.000,"PART-1-1",           312,       14.0118,       9.82001,            0.,NA,NA,"",       2.26211,       2.21322,  -467.771E-03,   567.602E-06
C:/temp/dataset/3/18_2.odb,Step-1,Increment      1: Step Time =    1.000,"PART-1-1",           313,           15.,         11.25,            0.,NA,NA,"",       2.40306,       2.33658,  -561.313E-03,   99.0983E-06
C:/temp/dataset/3/18_2.odb,Step-1,Increment      1: Step Time =    1.000,"PART-1-1",           314,       13.5880,       12.3315,            0.,NA,NA,"",       2.47753,       2.43802,  -440.690E-03,   212.365E-06
C:/temp/dataset/3/18_2.odb,Step-1,Increment      1: Step Time =    1.000,"PART-1-1",           315,       12.5998,       10.9015,            0.,NA,NA,"",       2.34095,       2.31496,  -347.833E-03,   694.928E-06
C:/temp/dataset/3/18_2.odb,Step-1,Increment      1: Step Time =    1.000,"PART-1-1",           316,       4.40482,  -219.892E-03,            0.,NA,NA,"",       1.41852,       1.36481,   386.644E-03,   3.41654E-03
C:/temp/dataset/3/18_2.odb,Step-1,Increment      1: Step Time =    1.000,"PART-1-1",           317,       3.45177,  -757.122E-03,            0.,NA,NA,"",       1.40441,       1.32388,   468.722E-03,   2.34710E-03
C:/temp/dataset/3/18_2.odb,Step-1,Increment      1: Step Time =    1.000,"PART-1-1",           318,       3.83014,      -1.74448,            0.,NA,NA,"",       1.31229,       1.23725,   437.409E-03,   3.24135E-03
C:/temp/dataset/3/18_2.odb,Step-1,Increment      1: Step Time =    1.000,"PART-1-1",           319,       4.78319,      -1.20725,            0.,NA,NA,"",       1.32613,       1.27780,   354.765E-03,   3.89274E-03
C:/temp/dataset/3/18_2.odb,Step-1,Increment      1: Step Time =    1.000,"PART-1-1",           320,       10.3408,      -10.0251,            0.,NA,NA,"",   558.152E-03,   554.493E-03,  -63.8073E-03,   4.20911E-03
C:/temp/dataset/3/18_2.odb,Step-1,Increment      1: Step Time =    1.000,"PART-1-1",           321,       11.1792,      -10.4860,            0.,NA,NA,"",   535.228E-03,   523.256E-03,  -112.568E-03,   5.48562E-03
C:/temp/dataset/3/18_2.odb,Step-1,Increment      1: Step Time =    1.000,"PART-1-1",           322,       11.5032,      -9.33080,            0.,NA,NA,"",   617.294E-03,   601.238E-03,  -139.875E-03,   6.22725E-03
C:/temp/dataset/3/18_2.odb,Step-1,Increment      1: Step Time =    1.000,"PART-1-1",           323,       10.6649,      -8.86986,            0.,NA,NA,"",   640.039E-03,   633.871E-03,  -88.6375E-03,   4.61372E-03
C:/temp/dataset/3/18_2.odb,Step-1,Increment      1: Step Time =    1.000,"PART-1-1",           324,       9.41034,      -12.1888,            0.,NA,NA,"",   418.041E-03,   417.987E-03,  -6.76370E-03,   4.54826E-03
C:/temp/dataset/3/18_2.odb,Step-1,Increment      1: Step Time =    1.000,"PART-1-1",           325,       10.5075,      -13.0214,            0.,NA,NA,"",   372.804E-03,   367.360E-03,  -63.4802E-03,   4.28317E-03
C:/temp/dataset/3/18_2.odb,Step-1,Increment      1: Step Time =    1.000,"PART-1-1",           326,       10.8652,      -11.6896,            0.,NA,NA,"",   455.125E-03,   446.529E-03,  -88.0394E-03,   4.92894E-03
C:/temp/dataset/3/18_2.odb,Step-1,Increment      1: Step Time =    1.000,"PART-1-1",           327,       9.76802,      -10.8570,            0.,NA,NA,"",   501.304E-03,   500.543E-03,  -27.6057E-03,   4.03439E-03
C:/temp/dataset/3/18_2.odb,Step-1,Increment      1: Step Time =    1.000,"PART-1-1",           328,       6.12016,      -19.7528,            0.,NA,NA,"",   95.1351E-03,   66.4969E-03,   68.0357E-03,   20.4173E-03
C:/temp/dataset/3/18_2.odb,Step-1,Increment      1: Step Time =    1.000,"PART-1-1",           329,       7.15653,      -18.4145,            0.,NA,NA,"",   127.747E-03,   114.444E-03,   56.7627E-03,   11.2289E-03
C:/temp/dataset/3/18_2.odb,Step-1,Increment      1: Step Time =    1.000,"PART-1-1",           330,       6.03637,      -17.4116,            0.,NA,NA,"",   195.255E-03,   163.577E-03,   106.616E-03,   19.4068E-03
C:/temp/dataset/3/18_2.odb,Step-1,Increment      1: Step Time =    1.000,"PART-1-1",           331,            5.,        -18.75,            0.,NA,NA,"",   164.734E-03,   117.930E-03,   115.020E-03,   33.1021E-03
C:/temp/dataset/3/18_2.odb,Step-1,Increment      1: Step Time =    1.000,"PART-1-1",           332,       13.3604,      -22.4969,            0.,NA,NA,"",   87.7835E-03,   36.0488E-03,  -80.0401E-03,   14.7094E-03
C:/temp/dataset/3/18_2.odb,Step-1,Increment      1: Step Time =    1.000,"PART-1-1",           333,           15.,        -21.25,            0.,NA,NA,"",   149.588E-03,   70.2634E-03,  -132.059E-03,   21.7056E-03
C:/temp/dataset/3/18_2.odb,Step-1,Increment      1: Step Time =    1.000,"PART-1-1",           334,       13.4842,      -19.7901,            0.,NA,NA,"",   150.819E-03,   90.6213E-03,  -120.557E-03,   16.3291E-03
C:/temp/dataset/3/18_2.odb,Step-1,Increment      1: Step Time =    1.000,"PART-1-1",           335,       11.8446,      -21.0370,            0.,NA,NA,"",   82.5545E-03,   52.5453E-03,  -63.6729E-03,   9.62909E-03
C:/temp/dataset/3/18_2.odb,Step-1,Increment      1: Step Time =    1.000,"PART-1-1",           336,       1.65000,            5.,            0.,NA,NA,"",       1.92169,       1.82375,   605.648E-03,   401.051E-06
C:/temp/dataset/3/18_2.odb,Step-1,Increment      1: Step Time =    1.000,"PART-1-1",           337,   440.654E-03,       4.00571,            0.,NA,NA,"",       1.88383,       1.74422,   711.713E-03,   255.181E-06
C:/temp/dataset/3/18_2.odb,Step-1,Increment      1: Step Time =    1.000,"PART-1-1",           338,       1.47063,       2.87974,            0.,NA,NA,"",       1.76044,       1.64451,   628.298E-03,   821.822E-06
C:/temp/dataset/3/18_2.odb,Step-1,Increment      1: Step Time =    1.000,"PART-1-1",           339,       2.67998,       3.87403,            0.,NA,NA,"",       1.80283,       1.72522,   523.293E-03,   739.292E-06
C:/temp/dataset/3/18_2.odb,Step-1,Increment      1: Step Time =    1.000,"PART-1-1",           340,      -1.46180,      -3.99231,            0.,NA,NA,"",       1.39686,       1.06500,   903.874E-03,   191.834E-06
C:/temp/dataset/3/18_2.odb,Step-1,Increment      1: Step Time =    1.000,"PART-1-1",           341,     -500.E-03,           -5.,            0.,NA,NA,"",       1.27647,   974.290E-03,   824.700E-03,   530.135E-06
C:/temp/dataset/3/18_2.odb,Step-1,Increment      1: Step Time =    1.000,"PART-1-1",           342,   718.491E-03,      -4.10961,            0.,NA,NA,"",       1.26799,       1.04626,   716.343E-03,   376.668E-06
C:/temp/dataset/3/18_2.odb,Step-1,Increment      1: Step Time =    1.000,"PART-1-1",           343,  -243.313E-03,      -3.10192,            0.,NA,NA,"",       1.38795,       1.13724,   795.684E-03,   148.258E-06
C:/temp/dataset/3/18_2.odb,Step-1,Increment      1: Step Time =    1.000,"PART-1-1",           344,      -3.82017,      -3.74247,            0.,NA,NA,"",       1.55633,       1.09543,       1.10553,   98.2697E-06
C:/temp/dataset/3/18_2.odb,Step-1,Increment      1: Step Time =    1.000,"PART-1-1",           345,      -2.71667,           -5.,            0.,NA,NA,"",       1.41335,   983.128E-03,       1.01539,   225.877E-06
C:/temp/dataset/3/18_2.odb,Step-1,Increment      1: Step Time =    1.000,"PART-1-1",           346,      -2.56530,      -2.73478,            0.,NA,NA,"",       1.54097,       1.17746,   994.067E-03,   152.263E-06
C:/temp/dataset/3/18_2.odb,Step-1,Increment      1: Step Time =    1.000,"PART-1-1",           347,      -13.8092,  -21.6491E-03,            0.,NA,NA,"",       2.43037,       1.45180,       1.94909,   470.121E-09
C:/temp/dataset/3/18_2.odb,Step-1,Increment      1: Step Time =    1.000,"PART-1-1",           348,      -12.6581,       1.21263,            0.,NA,NA,"",       2.41249,       1.55351,       1.84572,   1.40225E-06
C:/temp/dataset/3/18_2.odb,Step-1,Increment      1: Step Time =    1.000,"PART-1-1",           349,      -13.8489,       2.48428,            0.,NA,NA,"",       2.56034,       1.66707,       1.94325,   205.336E-09
C:/temp/dataset/3/18_2.odb,Step-1,Increment      1: Step Time =    1.000,"PART-1-1",           350,          -15.,          1.25,            0.,NA,NA,"",       2.57663,       1.56536,       2.04662,   922.612E-09
C:/temp/dataset/3/18_2.odb,Step-1,Increment      1: Step Time =    1.000,"PART-1-1",           351,      -8.84172,   345.754E-03,            0.,NA,NA,"",       2.11204,       1.46503,       1.52131,   21.9156E-06
C:/temp/dataset/3/18_2.odb,Step-1,Increment      1: Step Time =    1.000,"PART-1-1",           352,      -9.20019,  -788.270E-03,            0.,NA,NA,"",       2.07272,       1.36900,       1.55629,   16.5825E-06
C:/temp/dataset/3/18_2.odb,Step-1,Increment      1: Step Time =    1.000,"PART-1-1",           353,      -7.61937,      -1.21646,            0.,NA,NA,"",       1.94474,       1.32643,       1.42219,   35.8645E-06
C:/temp/dataset/3/18_2.odb,Step-1,Increment      1: Step Time =    1.000,"PART-1-1",           354,      -7.26090,  -82.4387E-03,            0.,NA,NA,"",       1.98689,       1.42247,       1.38720,   38.6297E-06
C:/temp/dataset/3/18_2.odb,Step-1,Increment      1: Step Time =    1.000,"PART-1-1",           355,      -12.7466,      -3.77621,            0.,NA,NA,"",       2.18412,       1.12559,       1.87174,   359.306E-09
C:/temp/dataset/3/18_2.odb,Step-1,Increment      1: Step Time =    1.000,"PART-1-1",           356,      -13.8633,      -2.52621,            0.,NA,NA,"",       2.32023,       1.23701,       1.96298,   210.864E-09
C:/temp/dataset/3/18_2.odb,Step-1,Increment      1: Step Time =    1.000,"PART-1-1",           357,          -15.,         -3.75,            0.,NA,NA,"",       2.35698,       1.13616,       2.06507,   352.475E-09
C:/temp/dataset/3/18_2.odb,Step-1,Increment      1: Step Time =    1.000,"PART-1-1",           358,      -13.8833,           -5.,            0.,NA,NA,"",       2.22398,       1.02474,       1.97383,   270.836E-09
C:/temp/dataset/3/18_2.odb,Step-1,Increment      1: Step Time =    1.000,"PART-1-1",           359,      -5.03830,      -2.71522,            0.,NA,NA,"",       1.69321,       1.18824,       1.20626,   89.1965E-06
C:/temp/dataset/3/18_2.odb,Step-1,Increment      1: Step Time =    1.000,"PART-1-1",           360,      -4.43911,      -1.50749,            0.,NA,NA,"",       1.72826,       1.28983,       1.15032,   94.9611E-06
C:/temp/dataset/3/18_2.odb,Step-1,Increment      1: Step Time =    1.000,"PART-1-1",           361,      -5.95808,  -763.119E-03,            0.,NA,NA,"",       1.86565,       1.35928,       1.27790,   69.7788E-06
C:/temp/dataset/3/18_2.odb,Step-1,Increment      1: Step Time =    1.000,"PART-1-1",           362,      -6.55726,      -1.97085,            0.,NA,NA,"",       1.83332,       1.25776,       1.33384,   46.8854E-06
C:/temp/dataset/3/18_2.odb,Step-1,Increment      1: Step Time =    1.000,"PART-1-1",           363,          6.25,          -30.,            0.,NA,NA,"",            0.,  -1.49123E-39,   4.38338E-39,   2.75756E-03
C:/temp/dataset/3/18_2.odb,Step-1,Increment      1: Step Time =    1.000,"PART-1-1",           364,       7.47038,      -28.9473,            0.,NA,NA,"",   3.60633E-03,  -3.30471E-03,   1.44379E-03,   3.08382E-03
C:/temp/dataset/3/18_2.odb,Step-1,Increment      1: Step Time =    1.000,"PART-1-1",           365,       6.18647,      -27.8786,            0.,NA,NA,"",   6.57498E-03,  -1.01767E-03,   6.49575E-03,   4.46378E-03
C:/temp/dataset/3/18_2.odb,Step-1,Increment      1: Step Time =    1.000,"PART-1-1",           366,       4.96608,      -28.9312,            0.,NA,NA,"",   3.31042E-03,   494.244E-06,   3.27332E-03,   4.28787E-03
C:/temp/dataset/3/18_2.odb,Step-1,Increment      1: Step Time =    1.000,"PART-1-1",           367,       3.70492,      -27.8047,            0.,NA,NA,"",   9.70367E-03,   5.41618E-03,   8.05147E-03,   5.39285E-03
C:/temp/dataset/3/18_2.odb,Step-1,Increment      1: Step Time =    1.000,"PART-1-1",           368,       2.48883,      -28.8735,            0.,NA,NA,"",   5.16074E-03,   3.93284E-03,   3.34156E-03,   4.67312E-03
C:/temp/dataset/3/18_2.odb,Step-1,Increment      1: Step Time =    1.000,"PART-1-1",           369,          3.75,          -30.,            0.,NA,NA,"",            0.,   1.20097E-39,   6.45048E-39,   3.55087E-03
C:/temp/dataset/3/18_2.odb,Step-1,Increment      1: Step Time =    1.000,"PART-1-1",           370,      -3.72203,      -27.5999,            0.,NA,NA,"",   9.70669E-03,   9.57046E-03,   1.62051E-03,   2.79997E-03
C:/temp/dataset/3/18_2.odb,Step-1,Increment      1: Step Time =    1.000,"PART-1-1",           371,      -4.98725,      -28.7922,            0.,NA,NA,"",   4.79144E-03,   4.74404E-03,   672.348E-06,   2.61003E-03
C:/temp/dataset/3/18_2.odb,Step-1,Increment      1: Step Time =    1.000,"PART-1-1",           372,         -3.75,          -30.,            0.,NA,NA,"",            0.,   2.88777E-39,   2.33626E-39,   3.20052E-03
C:/temp/dataset/3/18_2.odb,Step-1,Increment      1: Step Time =    1.000,"PART-1-1",           373,      -2.48478,      -28.8077,            0.,NA,NA,"",   5.68563E-03,   5.52267E-03,   1.35147E-03,   3.36002E-03
C:/temp/dataset/3/18_2.odb,Step-1,Increment      1: Step Time =    1.000,"PART-1-1",           374,      -13.7501,      -27.5099,            0.,NA,NA,"",   6.06481E-03,   5.76700E-03,   1.87716E-03,   997.359E-06
C:/temp/dataset/3/18_2.odb,Step-1,Increment      1: Step Time =    1.000,"PART-1-1",           375,          -15.,        -28.75,            0.,NA,NA,"",   4.09698E-03,   3.34744E-03,   2.36218E-03,   1.80854E-03
C:/temp/dataset/3/18_2.odb,Step-1,Increment      1: Step Time =    1.000,"PART-1-1",           376,        -13.75,          -30.,            0.,NA,NA,"",            0.,   516.006E-42,   1.96504E-39,   1.97532E-03
C:/temp/dataset/3/18_2.odb,Step-1,Increment      1: Step Time =    1.000,"PART-1-1",           377,      -12.5001,      -28.7599,            0.,NA,NA,"",   2.72656E-03,   2.67162E-03,   544.553E-06,   1.43537E-03
C:/temp/dataset/3/18_2.odb,Step-1,Increment      1: Step Time =    1.000,"PART-1-1",           378,       8.15833,      -10.8587,            0.,NA,NA,"",   510.437E-03,   506.002E-03,   67.1405E-03,   7.35880E-03
C:/temp/dataset/3/18_2.odb,Step-1,Increment      1: Step Time =    1.000,"PART-1-1",           379,       9.00498,      -9.90697,            0.,NA,NA,"",   565.948E-03,   565.659E-03,   18.1053E-03,   5.02572E-03
C:/temp/dataset/3/18_2.odb,Step-1,Increment      1: Step Time =    1.000,"PART-1-1",           380,       8.08915,      -8.55627,            0.,NA,NA,"",   668.147E-03,   663.454E-03,   79.0468E-03,   6.68099E-03
C:/temp/dataset/3/18_2.odb,Step-1,Increment      1: Step Time =    1.000,"PART-1-1",           381,       7.24249,      -9.50802,            0.,NA,NA,"",   615.126E-03,   601.189E-03,   130.199E-03,   9.38030E-03
C:/temp/dataset/3/18_2.odb,Step-1,Increment      1: Step Time =    1.000,"PART-1-1",           382,       13.9816,      -2.51124,            0.,NA,NA,"",       1.19339,       1.13033,  -382.790E-03,   7.13479E-03
C:/temp/dataset/3/18_2.odb,Step-1,Increment      1: Step Time =    1.000,"PART-1-1",           383,           15.,         -1.25,            0.,NA,NA,"",       1.32637,       1.23624,  -480.593E-03,   7.34894E-03
C:/temp/dataset/3/18_2.odb,Step-1,Increment      1: Step Time =    1.000,"PART-1-1",           384,       13.8213,  -48.4001E-03,            0.,NA,NA,"",       1.39609,       1.34007,  -391.497E-03,   5.04185E-03
C:/temp/dataset/3/18_2.odb,Step-1,Increment      1: Step Time =    1.000,"PART-1-1",           385,       12.8030,      -1.30964,            0.,NA,NA,"",       1.26836,       1.23308,  -297.075E-03,   5.37440E-03
C:/temp/dataset/3/18_2.odb,Step-1,Increment      1: Step Time =    1.000,"PART-1-1",           386,           15.,          1.25,            0.,NA,NA,"",       1.53572,       1.45082,  -503.525E-03,   5.12134E-03
C:/temp/dataset/3/18_2.odb,Step-1,Increment      1: Step Time =    1.000,"PART-1-1",           387,       13.5709,       2.55070,            0.,NA,NA,"",       1.61504,       1.56740,  -389.372E-03,   3.40274E-03
C:/temp/dataset/3/18_2.odb,Step-1,Increment      1: Step Time =    1.000,"PART-1-1",           388,       12.3922,       1.25230,            0.,NA,NA,"",       1.48288,       1.45608,  -280.643E-03,   3.92224E-03
C:/temp/dataset/3/18_2.odb,Step-1,Increment      1: Step Time =    1.000,"PART-1-1",           389,      -5.00532,       26.2655,            0.,NA,NA,"",       3.90683,       3.73665,       1.14054,   69.5189E-09
C:/temp/dataset/3/18_2.odb,Step-1,Increment      1: Step Time =    1.000,"PART-1-1",           390,      -3.75495,       25.0275,            0.,NA,NA,"",       3.76798,       3.62293,       1.03537,   168.518E-09
C:/temp/dataset/3/18_2.odb,Step-1,Increment      1: Step Time =    1.000,"PART-1-1",           391,      -2.50780,       26.2820,            0.,NA,NA,"",       3.84045,       3.72842,   920.838E-03,   210.993E-09
C:/temp/dataset/3/18_2.odb,Step-1,Increment      1: Step Time =    1.000,"PART-1-1",           392,      -3.75817,       27.5199,            0.,NA,NA,"",       3.97676,       3.84213,       1.02600,   143.206E-09
C:/temp/dataset/3/18_2.odb,Step-1,Increment      1: Step Time =    1.000,"PART-1-1",           393,      -5.00193,       23.7670,            0.,NA,NA,"",       3.70013,       3.51691,       1.14992,   73.2070E-09
C:/temp/dataset/3/18_2.odb,Step-1,Increment      1: Step Time =    1.000,"PART-1-1",           394,      -6.25406,       25.0149,            0.,NA,NA,"",       3.84231,       3.63150,       1.25520,   52.4665E-09
C:/temp/dataset/3/18_2.odb,Step-1,Increment      1: Step Time =    1.000,"PART-1-1",           395,      -7.50285,       23.7600,            0.,NA,NA,"",       3.78274,       3.52599,       1.36988,   15.2334E-09
C:/temp/dataset/3/18_2.odb,Step-1,Increment      1: Step Time =    1.000,"PART-1-1",           396,      -6.25071,       22.5121,            0.,NA,NA,"",       3.63824,       3.41139,       1.26460,   42.8556E-09
C:/temp/dataset/3/18_2.odb,Step-1,Increment      1: Step Time =    1.000,"PART-1-1",           397,      -12.5007,       23.7543,            0.,NA,NA,"",       3.97995,       3.54485,       1.80942,   2.71124E-09
C:/temp/dataset/3/18_2.odb,Step-1,Increment      1: Step Time =    1.000,"PART-1-1",           398,      -13.7507,       25.0026,            0.,NA,NA,"",       4.13002,       3.65947,       1.91451,   3.19566E-09
C:/temp/dataset/3/18_2.odb,Step-1,Increment      1: Step Time =    1.000,"PART-1-1",           399,          -15.,         23.75,            0.,NA,NA,"",       4.09265,       3.55415,       2.02923,   3.88823E-09
C:/temp/dataset/3/18_2.odb,Step-1,Increment      1: Step Time =    1.000,"PART-1-1",           400,       1.22659,       27.5580,            0.,NA,NA,"",       3.87100,       3.82616,   587.486E-03,   402.600E-09
C:/temp/dataset/3/18_2.odb,Step-1,Increment      1: Step Time =    1.000,"PART-1-1",           401,       2.48534,       28.7828,            0.,NA,NA,"",       3.95726,       3.92900,   472.046E-03,   559.551E-09
C:/temp/dataset/3/18_2.odb,Step-1,Increment      1: Step Time =    1.000,"PART-1-1",           402,          1.25,           30.,            0.,NA,NA,"",       4.08167,       4.04083,   575.967E-03,   701.171E-09
C:/temp/dataset/3/18_2.odb,Step-1,Increment      1: Step Time =    1.000,"PART-1-1",           403,  -8.74824E-03,       28.7751,            0.,NA,NA,"",       3.99823,       3.93799,   691.408E-03,   336.381E-09
C:/temp/dataset/3/18_2.odb,Step-1,Increment      1: Step Time =    1.000,"PART-1-1",           404,  -16.7069E-03,       26.3073,            0.,NA,NA,"",       3.78657,       3.72099,   701.669E-03,   376.138E-09
C:/temp/dataset/3/18_2.odb,Step-1,Increment      1: Step Time =    1.000,"PART-1-1",           405,       2.46714,       26.3253,            0.,NA,NA,"",       3.74426,       3.71296,   483.166E-03,   447.008E-09
C:/temp/dataset/3/18_2.odb,Step-1,Increment      1: Step Time =    1.000,"PART-1-1",           406,       3.70751,       22.5746,            0.,NA,NA,"",       3.40059,       3.37831,   388.615E-03,   2.08331E-06
C:/temp/dataset/3/18_2.odb,Step-1,Increment      1: Step Time =    1.000,"PART-1-1",           407,       2.48879,       21.2797,            0.,NA,NA,"",       3.30729,       3.26915,   500.810E-03,   2.08111E-06
C:/temp/dataset/3/18_2.odb,Step-1,Increment      1: Step Time =    1.000,"PART-1-1",           408,          3.75,           20.,            0.,NA,NA,"",       3.17636,       3.15172,   394.853E-03,   6.21137E-06
C:/temp/dataset/3/18_2.odb,Step-1,Increment      1: Step Time =    1.000,"PART-1-1",           409,       4.96872,       21.2949,            0.,NA,NA,"",       3.27311,       3.26088,   282.653E-03,   12.4535E-06
C:/temp/dataset/3/18_2.odb,Step-1,Increment      1: Step Time =    1.000,"PART-1-1",           410,       10.8479,       12.4309,            0.,NA,NA,"",       2.46598,       2.45787,  -199.864E-03,   483.513E-06
C:/temp/dataset/3/18_2.odb,Step-1,Increment      1: Step Time =    1.000,"PART-1-1",           411,       9.34812,       11.6387,            0.,NA,NA,"",       2.39518,       2.39429,  -65.4076E-03,   1.03098E-03
C:/temp/dataset/3/18_2.odb,Step-1,Increment      1: Step Time =    1.000,"PART-1-1",           412,       9.99050,       10.5520,            0.,NA,NA,"",       2.29782,       2.29480,  -117.824E-03,   1.28652E-03
C:/temp/dataset/3/18_2.odb,Step-1,Increment      1: Step Time =    1.000,"PART-1-1",           413,       11.4903,       11.3442,            0.,NA,NA,"",       2.37226,       2.35882,  -252.130E-03,   798.581E-06
C:/temp/dataset/3/18_2.odb,Step-1,Increment      1: Step Time =    1.000,"PART-1-1",           414,       7.16850,       11.5014,            0.,NA,NA,"",       2.39609,       2.39277,   126.109E-03,   1.57470E-03
C:/temp/dataset/3/18_2.odb,Step-1,Increment      1: Step Time =    1.000,"PART-1-1",           415,       6.10343,       12.5850,            0.,NA,NA,"",       2.50212,       2.49277,   216.095E-03,   1.03422E-03
C:/temp/dataset/3/18_2.odb,Step-1,Increment      1: Step Time =    1.000,"PART-1-1",           416,            5.,         11.25,            0.,NA,NA,"",       2.40346,       2.38252,   316.626E-03,   1.64457E-03
C:/temp/dataset/3/18_2.odb,Step-1,Increment      1: Step Time =    1.000,"PART-1-1",           417,       6.06507,       10.1664,            0.,NA,NA,"",       2.29215,       2.28090,   226.771E-03,   2.11872E-03
C:/temp/dataset/3/18_2.odb,Step-1,Increment      1: Step Time =    1.000,"PART-1-1",           418,       14.0565,       5.06378,            0.,NA,NA,"",       1.84388,       1.78872,  -447.619E-03,   2.33951E-03
C:/temp/dataset/3/18_2.odb,Step-1,Increment      1: Step Time =    1.000,"PART-1-1",           419,       12.6274,       3.86448,            0.,NA,NA,"",       1.71555,       1.68614,  -316.311E-03,   2.86538E-03
C:/temp/dataset/3/18_2.odb,Step-1,Increment      1: Step Time =    1.000,"PART-1-1",           420,           15.,          3.75,            0.,NA,NA,"",       1.74959,       1.66976,  -522.466E-03,   3.34138E-03
C:/temp/dataset/3/18_2.odb,Step-1,Increment      1: Step Time =    1.000,"PART-1-1",           421,       10.0280,       5.47301,            0.,NA,NA,"",       1.84135,       1.83854,  -101.699E-03,   2.84141E-03
C:/temp/dataset/3/18_2.odb,Step-1,Increment      1: Step Time =    1.000,"PART-1-1",           422,       11.0614,       5.01383,            0.,NA,NA,"",       1.80344,       1.79362,  -188.029E-03,   2.69952E-03
C:/temp/dataset/3/18_2.odb,Step-1,Increment      1: Step Time =    1.000,"PART-1-1",           423,       11.6033,       6.33570,            0.,NA,NA,"",       1.92532,       1.91019,  -240.889E-03,   2.33431E-03
C:/temp/dataset/3/18_2.odb,Step-1,Increment      1: Step Time =    1.000,"PART-1-1",           424,       10.5698,       6.79489,            0.,NA,NA,"",       1.96129,       1.95525,  -153.781E-03,   2.44964E-03
C:/temp/dataset/3/18_2.odb,Step-1,Increment      1: Step Time =    1.000,"PART-1-1",           425,      -4.94418,       3.17107,            0.,NA,NA,"",       2.06157,       1.69312,       1.17618,   83.5383E-06
C:/temp/dataset/3/18_2.odb,Step-1,Increment      1: Step Time =    1.000,"PART-1-1",           426,      -3.90803,       4.11594,            0.,NA,NA,"",       2.07566,       1.77027,       1.08374,   100.778E-06
C:/temp/dataset/3/18_2.odb,Step-1,Increment      1: Step Time =    1.000,"PART-1-1",           427,      -5.05000,            5.,            0.,NA,NA,"",       2.19388,       1.85044,       1.17855,   85.0515E-06
C:/temp/dataset/3/18_2.odb,Step-1,Increment      1: Step Time =    1.000,"PART-1-1",           428,      -6.08615,       4.05513,            0.,NA,NA,"",       2.18167,       1.77321,       1.27099,   38.5362E-06
C:/temp/dataset/3/18_2.odb,Step-1,Increment      1: Step Time =    1.000,"PART-1-1",           429,      -3.86135,       2.39128,            0.,NA,NA,"",       1.95227,       1.62227,       1.08609,   102.973E-06
C:/temp/dataset/3/18_2.odb,Step-1,Increment      1: Step Time =    1.000,"PART-1-1",           430,      -5.85027,       2.20434,            0.,NA,NA,"",       2.04573,       1.61354,       1.25757,   58.3868E-06
C:/temp/dataset/3/18_2.odb,Step-1,Increment      1: Step Time =    1.000,"PART-1-1",           431,      -4.76744,       1.42454,            0.,NA,NA,"",       1.93467,       1.54270,       1.16749,   95.0346E-06
C:/temp/dataset/3/18_2.odb,Step-1,Increment      1: Step Time =    1.000,"PART-1-1",           432,      -9.29397,       2.69508,            0.,NA,NA,"",       2.27824,       1.66835,       1.55144,   14.6897E-06
C:/temp/dataset/3/18_2.odb,Step-1,Increment      1: Step Time =    1.000,"PART-1-1",           433,      -8.28887,       3.92576,            0.,NA,NA,"",       2.29504,       1.77027,       1.46060,   12.9311E-06
C:/temp/dataset/3/18_2.odb,Step-1,Increment      1: Step Time =    1.000,"PART-1-1",           434,          -9.5,            5.,            0.,NA,NA,"",       2.43334,       1.86697,       1.56062,   5.44086E-06
C:/temp/dataset/3/18_2.odb,Step-1,Increment      1: Step Time =    1.000,"PART-1-1",           435,      -10.5051,       3.76932,            0.,NA,NA,"",       2.41716,       1.76503,       1.65145,   3.05864E-06
C:/temp/dataset/3/18_2.odb,Step-1,Increment      1: Step Time =    1.000,"PART-1-1",           436,      -7.92731,       1.84143,            0.,NA,NA,"",       2.14335,       1.59004,       1.43726,   25.6027E-06
C:/temp/dataset/3/18_2.odb,Step-1,Increment      1: Step Time =    1.000,"PART-1-1",           437,      -6.68589,       1.06488,            0.,NA,NA,"",       2.02120,       1.51884,       1.33356,   53.4122E-06
C:/temp/dataset/3/18_2.odb,Step-1,Increment      1: Step Time =    1.000,"PART-1-1",           438,      -7.09169,       2.98089,            0.,NA,NA,"",       2.16599,       1.68475,       1.36129,   39.1549E-06
C:/temp/dataset/3/18_2.odb,Step-1,Increment      1: Step Time =    1.000,"PART-1-1",           439,      -13.9000,            5.,            0.,NA,NA,"",       2.70254,       1.88322,       1.93835,   268.250E-09
C:/temp/dataset/3/18_2.odb,Step-1,Increment      1: Step Time =    1.000,"PART-1-1",           440,          -15.,          3.75,            0.,NA,NA,"",       2.70541,       1.77997,       2.03739,   365.013E-09
C:/temp/dataset/3/18_2.odb,Step-1,Increment      1: Step Time =    1.000,"PART-1-1",           441,      -12.7489,       3.73428,            0.,NA,NA,"",       2.55638,       1.77031,       1.84421,   350.217E-09
C:/temp/dataset/3/18_2.odb,Step-1,Increment      1: Step Time =    1.000,"PART-1-1",           442,      -9.48823,      -2.88104,            0.,NA,NA,"",       1.98525,       1.19040,       1.58875,   12.3350E-06
C:/temp/dataset/3/18_2.odb,Step-1,Increment      1: Step Time =    1.000,"PART-1-1",           443,      -8.42388,      -2.23568,            0.,NA,NA,"",       1.94354,       1.24188,       1.49502,   19.5573E-06
C:/temp/dataset/3/18_2.odb,Step-1,Increment      1: Step Time =    1.000,"PART-1-1",           444,      -10.2645,      -1.43363,            0.,NA,NA,"",       2.11151,       1.31752,       1.65003,   7.90879E-06
C:/temp/dataset/3/18_2.odb,Step-1,Increment      1: Step Time =    1.000,"PART-1-1",           445,      -12.6725,      -1.29786,            0.,NA,NA,"",       2.28823,       1.33806,       1.85623,   1.33641E-06
C:/temp/dataset/3/18_2.odb,Step-1,Increment      1: Step Time =    1.000,"PART-1-1",           446,          -15.,         -1.25,            0.,NA,NA,"",       2.45989,       1.35076,       2.05585,   893.363E-09
C:/temp/dataset/3/18_2.odb,Step-1,Increment      1: Step Time =    1.000,"PART-1-1",           447,      -6.16813,      -3.97275,            0.,NA,NA,"",       1.69895,       1.08441,       1.30785,   37.5984E-06
C:/temp/dataset/3/18_2.odb,Step-1,Increment      1: Step Time =    1.000,"PART-1-1",           448,      -4.95000,           -5.,            0.,NA,NA,"",       1.56220,   991.665E-03,       1.20710,   91.5086E-06
C:/temp/dataset/3/18_2.odb,Step-1,Increment      1: Step Time =    1.000,"PART-1-1",           449,       1.59412,  -355.999E-03,            0.,NA,NA,"",       1.50395,       1.36670,   627.696E-03,   754.945E-06
C:/temp/dataset/3/18_2.odb,Step-1,Increment      1: Step Time =    1.000,"PART-1-1",           450,       2.17826,      -1.53992,            0.,NA,NA,"",       1.38980,       1.26269,   580.662E-03,   1.34630E-03
C:/temp/dataset/3/18_2.odb,Step-1,Increment      1: Step Time =    1.000,"PART-1-1",           451,       2.86763,   426.804E-03,            0.,NA,NA,"",       1.51883,       1.42832,   516.496E-03,   1.91955E-03
C:/temp/dataset/3/18_2.odb,Step-1,Increment      1: Step Time =    1.000,"PART-1-1",           452,  -387.277E-03,   5.26357E-03,            0.,NA,NA,"",       1.61538,       1.40523,   796.737E-03,   157.992E-06
C:/temp/dataset/3/18_2.odb,Step-1,Increment      1: Step Time =    1.000,"PART-1-1",           453,   283.611E-03,      -1.19839,            0.,NA,NA,"",       1.49698,       1.29939,   743.318E-03,   322.205E-06
C:/temp/dataset/3/18_2.odb,Step-1,Increment      1: Step Time =    1.000,"PART-1-1",           454,   923.228E-03,   847.652E-03,            0.,NA,NA,"",       1.62262,       1.47258,   681.476E-03,   535.678E-06
C:/temp/dataset/3/18_2.odb,Step-1,Increment      1: Step Time =    1.000,"PART-1-1",           455,       6.35531,      -13.1332,            0.,NA,NA,"",   407.359E-03,   378.011E-03,   151.821E-03,   14.3595E-03
C:/temp/dataset/3/18_2.odb,Step-1,Increment      1: Step Time =    1.000,"PART-1-1",           456,       7.49455,      -12.2656,            0.,NA,NA,"",   432.573E-03,   421.398E-03,   97.6872E-03,   10.1072E-03
C:/temp/dataset/3/18_2.odb,Step-1,Increment      1: Step Time =    1.000,"PART-1-1",           457,       6.13925,      -10.3824,            0.,NA,NA,"",   583.131E-03,   550.112E-03,   193.438E-03,   13.4376E-03
C:/temp/dataset/3/18_2.odb,Step-1,Increment      1: Step Time =    1.000,"PART-1-1",           458,            5.,        -11.25,            0.,NA,NA,"",   564.529E-03,   504.042E-03,   254.235E-03,   17.9659E-03
C:/temp/dataset/3/18_2.odb,Step-1,Increment      1: Step Time =    1.000,"PART-1-1",           459,       13.3376,      -16.9670,            0.,NA,NA,"",   240.518E-03,   182.263E-03,  -156.936E-03,   15.3135E-03
C:/temp/dataset/3/18_2.odb,Step-1,Increment      1: Step Time =    1.000,"PART-1-1",           460,       11.8219,      -18.0071,            0.,NA,NA,"",   162.757E-03,   135.604E-03,  -90.0080E-03,   9.03145E-03
C:/temp/dataset/3/18_2.odb,Step-1,Increment      1: Step Time =    1.000,"PART-1-1",           461,           15.,        -18.75,            0.,NA,NA,"",   227.212E-03,   133.044E-03,  -184.186E-03,   22.8866E-03
C:/temp/dataset/3/18_2.odb,Step-1,Increment      1: Step Time =    1.000,"PART-1-1",           462,       8.42876,      -15.2973,            0.,NA,NA,"",   251.897E-03,   249.652E-03,   33.5628E-03,   7.64194E-03
C:/temp/dataset/3/18_2.odb,Step-1,Increment      1: Step Time =    1.000,"PART-1-1",           463,       10.4111,      -16.6310,            0.,NA,NA,"",   191.236E-03,   185.171E-03,  -47.7800E-03,   4.48648E-03
C:/temp/dataset/3/18_2.odb,Step-1,Increment      1: Step Time =    1.000,"PART-1-1",           464,       10.7289,      -14.9294,            0.,NA,NA,"",   273.145E-03,   264.757E-03,  -67.1690E-03,   4.80662E-03
C:/temp/dataset/3/18_2.odb,Step-1,Increment      1: Step Time =    1.000,"PART-1-1",           465,       8.74656,      -13.5956,            0.,NA,NA,"",   339.160E-03,   338.211E-03,   25.3563E-03,   6.50013E-03
C:/temp/dataset/3/18_2.odb,Step-1,Increment      1: Step Time =    1.000,"PART-1-1",           466,      -8.72016,      -22.5745,            0.,NA,NA,"",   15.5035E-03,   15.4962E-03,  -476.373E-06,   677.124E-06
C:/temp/dataset/3/18_2.odb,Step-1,Increment      1: Step Time =    1.000,"PART-1-1",           467,      -7.48342,      -21.2909,            0.,NA,NA,"",   16.9872E-03,   16.9600E-03,  -961.734E-06,   491.874E-06
C:/temp/dataset/3/18_2.odb,Step-1,Increment      1: Step Time =    1.000,"PART-1-1",           468,         -8.75,          -20.,            0.,NA,NA,"",   17.2256E-03,   17.2077E-03,  -785.440E-06,   92.7032E-06
C:/temp/dataset/3/18_2.odb,Step-1,Increment      1: Step Time =    1.000,"PART-1-1",           469,      -9.98674,      -21.2836,            0.,NA,NA,"",   16.2637E-03,   16.2634E-03,  -96.7128E-06,   239.603E-06
C:/temp/dataset/3/18_2.odb,Step-1,Increment      1: Step Time =    1.000,"PART-1-1",           470,      -4.96670,      -26.3491,            0.,NA,NA,"",   12.3351E-03,   12.2844E-03,   1.11642E-03,   2.22239E-03
C:/temp/dataset/3/18_2.odb,Step-1,Increment      1: Step Time =    1.000,"PART-1-1",           471,      -6.21541,      -25.0985,            0.,NA,NA,"",   13.8783E-03,   13.8745E-03,   324.258E-06,   1.75830E-03
C:/temp/dataset/3/18_2.odb,Step-1,Increment      1: Step Time =    1.000,"PART-1-1",           472,      -7.47738,      -26.3212,            0.,NA,NA,"",   10.3780E-03,   10.3740E-03,   289.610E-06,   1.69741E-03
C:/temp/dataset/3/18_2.odb,Step-1,Increment      1: Step Time =    1.000,"PART-1-1",           473,      -6.22867,      -27.5719,            0.,NA,NA,"",   8.07388E-03,   8.04892E-03,   634.382E-06,   2.18287E-03
C:/temp/dataset/3/18_2.odb,Step-1,Increment      1: Step Time =    1.000,"PART-1-1",           474,   49.7896E-03,      -26.4387,            0.,NA,NA,"",   16.8981E-03,   15.1627E-03,   7.45910E-03,   4.43830E-03
C:/temp/dataset/3/18_2.odb,Step-1,Increment      1: Step Time =    1.000,"PART-1-1",           475,       1.24862,      -27.7048,            0.,NA,NA,"",   11.4641E-03,   9.59896E-03,   6.26784E-03,   4.70387E-03
C:/temp/dataset/3/18_2.odb,Step-1,Increment      1: Step Time =    1.000,"PART-1-1",           476,       2.52056,      -26.5649,            0.,NA,NA,"",   17.5722E-03,   12.5620E-03,   12.2874E-03,   6.18595E-03
C:/temp/dataset/3/18_2.odb,Step-1,Increment      1: Step Time =    1.000,"PART-1-1",           477,       1.32172,      -25.2988,            0.,NA,NA,"",   23.4893E-03,   19.3197E-03,   13.3601E-03,   5.77594E-03
C:/temp/dataset/3/18_2.odb,Step-1,Increment      1: Step Time =    1.000,"PART-1-1",           478,        -13.75,          -20.,            0.,NA,NA,"",   17.6936E-03,   17.3930E-03,   3.24808E-03,   39.9026E-06
C:/temp/dataset/3/18_2.odb,Step-1,Increment      1: Step Time =    1.000,"PART-1-1",           479,          -15.,        -21.25,            0.,NA,NA,"",   16.7076E-03,   16.0497E-03,   4.64225E-03,   34.2347E-06
C:/temp/dataset/3/18_2.odb,Step-1,Increment      1: Step Time =    1.000,"PART-1-1",           480,      -13.7430,      -22.5153,            0.,NA,NA,"",   14.9756E-03,   14.6253E-03,   3.21991E-03,   53.7799E-06
C:/temp/dataset/3/18_2.odb,Step-1,Increment      1: Step Time =    1.000,"PART-1-1",           481,      -12.4930,      -21.2653,            0.,NA,NA,"",   16.1688E-03,   16.0564E-03,   1.90268E-03,   47.2681E-06
C:/temp/dataset/3/18_2.odb,Step-1,Increment      1: Step Time =    1.000,"PART-1-1",           482,      -11.2297,      -22.5489,            0.,NA,NA,"",   14.7962E-03,   14.7741E-03,   808.151E-06,   329.332E-06
C:/temp/dataset/3/18_2.odb,Step-1,Increment      1: Step Time =    1.000,"PART-1-1",           483,        -11.25,          -20.,            0.,NA,NA,"",   17.2598E-03,   17.2423E-03,   776.927E-06,   48.8990E-06
C:/temp/dataset/3/18_2.odb,Step-1,Increment      1: Step Time =    1.000,"PART-1-1",           484,      -13.7448,      -25.0201,            0.,NA,NA,"",   11.4203E-03,   11.0190E-03,   3.00079E-03,   354.224E-06
C:/temp/dataset/3/18_2.odb,Step-1,Increment      1: Step Time =    1.000,"PART-1-1",           485,      -12.4878,      -23.7854,            0.,NA,NA,"",   13.1015E-03,   12.9735E-03,   1.82683E-03,   405.667E-06
C:/temp/dataset/3/18_2.odb,Step-1,Increment      1: Step Time =    1.000,"PART-1-1",           486,          -15.,        -23.75,            0.,NA,NA,"",   13.8552E-03,   13.0056E-03,   4.77731E-03,   11.2418E-06
C:/temp/dataset/3/18_2.odb,Step-1,Increment      1: Step Time =    1.000,"PART-1-1",           487,       13.7335,      -27.5520,            0.,NA,NA,"",   23.9300E-03,   3.27010E-03,  -23.7055E-03,   12.3148E-03
C:/temp/dataset/3/18_2.odb,Step-1,Increment      1: Step Time =    1.000,"PART-1-1",           488,       12.4835,      -28.8020,            0.,NA,NA,"",   8.26066E-03,  -2.92015E-03,  -7.72731E-03,   8.58003E-03
C:/temp/dataset/3/18_2.odb,Step-1,Increment      1: Step Time =    1.000,"PART-1-1",           489,         13.75,          -30.,            0.,NA,NA,"",            0.,  -1.59333E-39,  -16.5961E-39,   9.76777E-03
C:/temp/dataset/3/18_2.odb,Step-1,Increment      1: Step Time =    1.000,"PART-1-1",           490,           15.,        -28.75,            0.,NA,NA,"",   15.9804E-03,   8.34716E-03,  -13.6271E-03,   13.3436E-03
C:/temp/dataset/3/18_2.odb,Step-1,Increment      1: Step Time =    1.000,"PART-1-1",           491,       9.98010,      -28.8907,            0.,NA,NA,"",   5.75146E-03,  -5.25275E-03,  -2.34262E-03,   4.19778E-03
C:/temp/dataset/3/18_2.odb,Step-1,Increment      1: Step Time =    1.000,"PART-1-1",           492,       8.70049,      -27.8380,            0.,NA,NA,"",   6.10753E-03,  -6.09912E-03,   320.318E-06,   2.41862E-03
C:/temp/dataset/3/18_2.odb,Step-1,Increment      1: Step Time =    1.000,"PART-1-1",           493,          8.75,          -30.,            0.,NA,NA,"",            0.,  -3.74419E-39,  -1.35414E-39,   3.62748E-03
C:/temp/dataset/3/18_2.odb,Step-1,Increment      1: Step Time =    1.000,"PART-1-1",           494,       11.2136,      -27.6927,            0.,NA,NA,"",   11.7345E-03,  -5.57196E-03,  -10.3272E-03,   6.35154E-03
C:/temp/dataset/3/18_2.odb,Step-1,Increment      1: Step Time =    1.000,"PART-1-1",           495,       12.3768,      -26.3916,            0.,NA,NA,"",   26.5193E-03,  -84.8534E-09,  -26.5193E-03,   9.88786E-03
C:/temp/dataset/3/18_2.odb,Step-1,Increment      1: Step Time =    1.000,"PART-1-1",           496,       11.0556,      -25.4315,            0.,NA,NA,"",   20.5952E-03,  -150.405E-06,  -20.5947E-03,   6.67575E-03
C:/temp/dataset/3/18_2.odb,Step-1,Increment      1: Step Time =    1.000,"PART-1-1",           497,       9.89242,      -26.7326,            0.,NA,NA,"",   8.43585E-03,  -5.78310E-03,  -6.14161E-03,   3.80547E-03
C:/temp/dataset/3/18_2.odb,Step-1,Increment      1: Step Time =    1.000,"PART-1-1",           498,   9.79186E-03,      -28.8313,            0.,NA,NA,"",   6.04794E-03,   5.56167E-03,   2.37599E-03,   4.16105E-03
C:/temp/dataset/3/18_2.odb,Step-1,Increment      1: Step Time =    1.000,"PART-1-1",           499,          1.25,          -30.,            0.,NA,NA,"",            0.,   2.85648E-39,   5.67683E-39,   4.07272E-03
C:/temp/dataset/3/18_2.odb,Step-1,Increment      1: Step Time =    1.000,"PART-1-1",           500,      -1.18061,      -25.1833,            0.,NA,NA,"",   19.8698E-03,   18.8274E-03,   6.35116E-03,   3.82211E-03
C:/temp/dataset/3/18_2.odb,Step-1,Increment      1: Step Time =    1.000,"PART-1-1",           501,      -2.45538,      -26.3836,            0.,NA,NA,"",   14.6803E-03,   14.2925E-03,   3.35202E-03,   3.08473E-03
C:/temp/dataset/3/18_2.odb,Step-1,Increment      1: Step Time =    1.000,"PART-1-1",           502,      -1.22498,      -27.6390,            0.,NA,NA,"",   11.1056E-03,   10.5162E-03,   3.56972E-03,   3.64873E-03
C:/temp/dataset/3/18_2.odb,Step-1,Increment      1: Step Time =    1.000,"PART-1-1",           503,      -3.70005,      -25.1329,            0.,NA,NA,"",   16.4079E-03,   16.2734E-03,   2.09663E-03,   2.50850E-03
C:/temp/dataset/3/18_2.odb,Step-1,Increment      1: Step Time =    1.000,"PART-1-1",           504,      -7.49141,      -28.7797,            0.,NA,NA,"",   3.87823E-03,   3.86321E-03,   340.978E-06,   2.03792E-03
C:/temp/dataset/3/18_2.odb,Step-1,Increment      1: Step Time =    1.000,"PART-1-1",           505,         -6.25,          -30.,            0.,NA,NA,"",            0.,   2.32386E-39,   1.34111E-39,   2.51884E-03
C:/temp/dataset/3/18_2.odb,Step-1,Increment      1: Step Time =    1.000,"PART-1-1",           506,      -12.4949,      -26.2800,            0.,NA,NA,"",   8.60575E-03,   8.48494E-03,   1.43691E-03,   1.05088E-03
C:/temp/dataset/3/18_2.odb,Step-1,Increment      1: Step Time =    1.000,"PART-1-1",           507,          -15.,        -26.25,            0.,NA,NA,"",   10.0512E-03,   8.91411E-03,   4.64382E-03,   493.921E-06
C:/temp/dataset/3/18_2.odb,Step-1,Increment      1: Step Time =    1.000,"PART-1-1",           508,       12.0036,      -23.8365,            0.,NA,NA,"",   45.2229E-03,   13.5289E-03,  -43.1519E-03,   9.82711E-03
C:/temp/dataset/3/18_2.odb,Step-1,Increment      1: Step Time =    1.000,"PART-1-1",           509,       13.6432,      -25.0896,            0.,NA,NA,"",   52.8777E-03,   12.2622E-03,  -51.4362E-03,   13.6799E-03
C:/temp/dataset/3/18_2.odb,Step-1,Increment      1: Step Time =    1.000,"PART-1-1",           510,           15.,        -23.75,            0.,NA,NA,"",   91.4273E-03,   33.0629E-03,  -85.2396E-03,   18.9905E-03
C:/temp/dataset/3/18_2.odb,Step-1,Increment      1: Step Time =    1.000,"PART-1-1",           511,         11.25,          -30.,            0.,NA,NA,"",            0.,  -3.84747E-39,  -9.58850E-39,   5.99481E-03
C:/temp/dataset/3/18_2.odb,Step-1,Increment      1: Step Time =    1.000,"PART-1-1",           512,       13.9281,      -14.6298,            0.,NA,NA,"",   363.503E-03,   290.694E-03,  -218.247E-03,   16.6575E-03
C:/temp/dataset/3/18_2.odb,Step-1,Increment      1: Step Time =    1.000,"PART-1-1",           513,       12.2657,      -15.3468,            0.,NA,NA,"",   280.848E-03,   247.806E-03,  -132.165E-03,   10.0011E-03
C:/temp/dataset/3/18_2.odb,Step-1,Increment      1: Step Time =    1.000,"PART-1-1",           514,           15.,        -16.25,            0.,NA,NA,"",   326.945E-03,   224.466E-03,  -237.715E-03,   22.2325E-03
C:/temp/dataset/3/18_2.odb,Step-1,Increment      1: Step Time =    1.000,"PART-1-1",           515,       7.13425,      -14.5121,            0.,NA,NA,"",   312.464E-03,   296.710E-03,   97.9623E-03,   13.0142E-03
C:/temp/dataset/3/18_2.odb,Step-1,Increment      1: Step Time =    1.000,"PART-1-1",           516,       6.81531,      -16.2905,            0.,NA,NA,"",   228.994E-03,   209.331E-03,   92.8369E-03,   14.9584E-03
C:/temp/dataset/3/18_2.odb,Step-1,Increment      1: Step Time =    1.000,"PART-1-1",           517,       8.10983,      -17.0757,            0.,NA,NA,"",   172.235E-03,   168.250E-03,   36.8336E-03,   9.65124E-03
C:/temp/dataset/3/18_2.odb,Step-1,Increment      1: Step Time =    1.000,"PART-1-1",           518,       13.8641,      -7.41825,            0.,NA,NA,"",   806.865E-03,   741.404E-03,  -318.356E-03,   11.1533E-03
C:/temp/dataset/3/18_2.odb,Step-1,Increment      1: Step Time =    1.000,"PART-1-1",           519,       13.0286,      -8.63342,            0.,NA,NA,"",   696.584E-03,   651.753E-03,  -245.860E-03,   9.84815E-03
C:/temp/dataset/3/18_2.odb,Step-1,Increment      1: Step Time =    1.000,"PART-1-1",           520,       14.1645,      -9.96517,            0.,NA,NA,"",   640.738E-03,   563.953E-03,  -304.143E-03,   14.0337E-03
C:/temp/dataset/3/18_2.odb,Step-1,Increment      1: Step Time =    1.000,"PART-1-1",           521,           15.,         -8.75,            0.,NA,NA,"",   753.009E-03,   650.048E-03,  -380.078E-03,   15.6191E-03
C:/temp/dataset/3/18_2.odb,Step-1,Increment      1: Step Time =    1.000,"PART-1-1",           522,       12.0251,      -10.9831,            0.,NA,NA,"",   516.852E-03,   491.629E-03,  -159.490E-03,   7.90773E-03
C:/temp/dataset/3/18_2.odb,Step-1,Increment      1: Step Time =    1.000,"PART-1-1",           523,       12.8055,      -11.9581,            0.,NA,NA,"",   474.814E-03,   432.844E-03,  -195.176E-03,   10.7305E-03
C:/temp/dataset/3/18_2.odb,Step-1,Increment      1: Step Time =    1.000,"PART-1-1",           524,       13.3751,      -11.0455,            0.,NA,NA,"",   546.341E-03,   491.032E-03,  -239.533E-03,   12.1789E-03
C:/temp/dataset/3/18_2.odb,Step-1,Increment      1: Step Time =    1.000,"PART-1-1",           525,       12.5947,      -10.0706,            0.,NA,NA,"",   588.137E-03,   552.157E-03,  -202.553E-03,   9.18833E-03
C:/temp/dataset/3/18_2.odb,Step-1,Increment      1: Step Time =    1.000,"PART-1-1",           526,       11.4853,  -434.223E-03,            0.,NA,NA,"",       1.32580,       1.31129,  -195.608E-03,   4.07679E-03
C:/temp/dataset/3/18_2.odb,Step-1,Increment      1: Step Time =    1.000,"PART-1-1",           527,       10.5886,      -1.82652,            0.,NA,NA,"",       1.19940,       1.19371,  -116.668E-03,   4.64900E-03
C:/temp/dataset/3/18_2.odb,Step-1,Increment      1: Step Time =    1.000,"PART-1-1",           528,       11.9063,      -2.70193,            0.,NA,NA,"",       1.13673,       1.11615,  -215.368E-03,   5.32419E-03
C:/temp/dataset/3/18_2.odb,Step-1,Increment      1: Step Time =    1.000,"PART-1-1",           529,       14.1300,       7.44597,            0.,NA,NA,"",       2.05472,       2.00091,  -467.143E-03,   1.28883E-03
C:/temp/dataset/3/18_2.odb,Step-1,Increment      1: Step Time =    1.000,"PART-1-1",           530,       13.1865,       6.25975,            0.,NA,NA,"",       1.93533,       1.89805,  -378.058E-03,   1.99963E-03
C:/temp/dataset/3/18_2.odb,Step-1,Increment      1: Step Time =    1.000,"PART-1-1",           531,           15.,          6.25,            0.,NA,NA,"",       1.96645,       1.89141,  -538.031E-03,   1.86966E-03
C:/temp/dataset/3/18_2.odb,Step-1,Increment      1: Step Time =    1.000,"PART-1-1",           532,       12.4155,       5.33720,            0.,NA,NA,"",       1.84363,       1.81804,  -306.118E-03,   2.42254E-03
C:/temp/dataset/3/18_2.odb,Step-1,Increment      1: Step Time =    1.000,"PART-1-1",           533,       11.2733,       3.54111,            0.,NA,NA,"",       1.67336,       1.66149,  -198.904E-03,   2.97624E-03
C:/temp/dataset/3/18_2.odb,Step-1,Increment      1: Step Time =    1.000,"PART-1-1",           534,       12.2480,       13.5548,            0.,NA,NA,"",       2.57246,       2.55154,  -327.370E-03,   216.072E-06
C:/temp/dataset/3/18_2.odb,Step-1,Increment      1: Step Time =    1.000,"PART-1-1",           535,           15.,         13.75,            0.,NA,NA,"",       2.62084,       2.55791,  -570.883E-03,   130.176E-06
C:/temp/dataset/3/18_2.odb,Step-1,Increment      1: Step Time =    1.000,"PART-1-1",           536,       13.6600,       14.9734,            0.,NA,NA,"",       2.71000,       2.67114,  -457.324E-03,   75.9888E-06
C:/temp/dataset/3/18_2.odb,Step-1,Increment      1: Step Time =    1.000,"PART-1-1",           537,       8.15326,       10.4556,            0.,NA,NA,"",       2.29557,       2.29516,   43.0626E-03,   1.77932E-03
C:/temp/dataset/3/18_2.odb,Step-1,Increment      1: Step Time =    1.000,"PART-1-1",           538,       12.3824,       21.2920,            0.,NA,NA,"",       3.25300,       3.23198,  -369.255E-03,   26.4350E-06
C:/temp/dataset/3/18_2.odb,Step-1,Increment      1: Step Time =    1.000,"PART-1-1",           539,       13.6892,       20.0188,            0.,NA,NA,"",       3.15163,       3.11497,  -479.280E-03,   26.9485E-06
C:/temp/dataset/3/18_2.odb,Step-1,Increment      1: Step Time =    1.000,"PART-1-1",           540,           15.,         21.25,            0.,NA,NA,"",       3.27347,       3.21814,  -599.307E-03,   21.4512E-06
C:/temp/dataset/3/18_2.odb,Step-1,Increment      1: Step Time =    1.000,"PART-1-1",           541,       13.6932,       22.5232,            0.,NA,NA,"",       3.37086,       3.33515,  -489.308E-03,   9.03798E-06
C:/temp/dataset/3/18_2.odb,Step-1,Increment      1: Step Time =    1.000,"PART-1-1",           542,       9.77662,       16.3041,            0.,NA,NA,"",       2.80604,       2.80345,  -120.542E-03,   71.3075E-06
C:/temp/dataset/3/18_2.odb,Step-1,Increment      1: Step Time =    1.000,"PART-1-1",           543,       11.0318,       15.0036,            0.,NA,NA,"",       2.69362,       2.68413,  -225.902E-03,   76.6764E-06
C:/temp/dataset/3/18_2.odb,Step-1,Increment      1: Step Time =    1.000,"PART-1-1",           544,       12.3430,       16.2301,            0.,NA,NA,"",       2.80839,       2.78697,  -346.135E-03,   45.3485E-06
C:/temp/dataset/3/18_2.odb,Step-1,Increment      1: Step Time =    1.000,"PART-1-1",           545,         13.75,           30.,            0.,NA,NA,"",       4.02654,       3.99239,  -523.260E-03,   159.558E-09
C:/temp/dataset/3/18_2.odb,Step-1,Increment      1: Step Time =    1.000,"PART-1-1",           546,       12.4862,       28.7548,            0.,NA,NA,"",       3.90907,       3.88779,  -407.300E-03,   188.565E-09
C:/temp/dataset/3/18_2.odb,Step-1,Increment      1: Step Time =    1.000,"PART-1-1",           547,           15.,         28.75,            0.,NA,NA,"",       3.92821,       3.87763,  -628.337E-03,   96.3733E-09
C:/temp/dataset/3/18_2.odb,Step-1,Increment      1: Step Time =    1.000,"PART-1-1",           548,       12.4064,       23.7898,            0.,NA,NA,"",       3.47248,       3.45151,  -381.048E-03,   9.37129E-06
C:/temp/dataset/3/18_2.odb,Step-1,Increment      1: Step Time =    1.000,"PART-1-1",           549,           15.,         23.75,            0.,NA,NA,"",       3.49148,       3.43796,  -608.970E-03,   4.96901E-06
C:/temp/dataset/3/18_2.odb,Step-1,Increment      1: Step Time =    1.000,"PART-1-1",           550,       9.91541,       26.3072,            0.,NA,NA,"",       3.68652,       3.68252,  -171.752E-03,   3.20467E-06
C:/temp/dataset/3/18_2.odb,Step-1,Increment      1: Step Time =    1.000,"PART-1-1",           551,       11.1537,       25.0565,            0.,NA,NA,"",       3.57839,       3.56774,  -275.799E-03,   4.14682E-06
C:/temp/dataset/3/18_2.odb,Step-1,Increment      1: Step Time =    1.000,"PART-1-1",           552,       11.2110,       27.5221,            0.,NA,NA,"",       3.79546,       3.78433,  -290.394E-03,   848.604E-09
C:/temp/dataset/3/18_2.odb,Step-1,Increment      1: Step Time =    1.000,"PART-1-1",           553,       8.69233,       27.5515,            0.,NA,NA,"",       3.79730,       3.79667,  -69.0203E-03,   1.06802E-06
C:/temp/dataset/3/18_2.odb,Step-1,Increment      1: Step Time =    1.000,"PART-1-1",           554,       7.41297,       26.3376,            0.,NA,NA,"",       3.69520,       3.69488,   48.1872E-03,   2.56176E-06
C:/temp/dataset/3/18_2.odb,Step-1,Increment      1: Step Time =    1.000,"PART-1-1",           555,       8.63604,       25.0933,            0.,NA,NA,"",       3.58114,       3.58072,  -54.5431E-03,   4.13621E-06
C:/temp/dataset/3/18_2.odb,Step-1,Increment      1: Step Time =    1.000,"PART-1-1",           556,      -1.26375,       27.5391,            0.,NA,NA,"",       3.91807,       3.83415,   806.563E-03,   301.278E-09
C:/temp/dataset/3/18_2.odb,Step-1,Increment      1: Step Time =    1.000,"PART-1-1",           557,         -1.25,           30.,            0.,NA,NA,"",       4.12795,       4.05051,   795.820E-03,   312.118E-09
C:/temp/dataset/3/18_2.odb,Step-1,Increment      1: Step Time =    1.000,"PART-1-1",           558,      -2.50500,       28.7640,            0.,NA,NA,"",       4.05045,       3.94668,   910.975E-03,   141.221E-09
C:/temp/dataset/3/18_2.odb,Step-1,Increment      1: Step Time =    1.000,"PART-1-1",           559,      -7.50143,       28.7522,            0.,NA,NA,"",       4.18866,       3.96500,       1.35041,   6.78633E-09
C:/temp/dataset/3/18_2.odb,Step-1,Increment      1: Step Time =    1.000,"PART-1-1",           560,         -8.75,           30.,            0.,NA,NA,"",       4.33140,       4.07957,       1.45538,   4.80569E-09
C:/temp/dataset/3/18_2.odb,Step-1,Increment      1: Step Time =    1.000,"PART-1-1",           561,      -6.25460,       27.5081,            0.,NA,NA,"",       4.04721,       3.85076,       1.24559,   43.0062E-09
C:/temp/dataset/3/18_2.odb,Step-1,Increment      1: Step Time =    1.000,"PART-1-1",           562,        -13.75,           30.,            0.,NA,NA,"",       4.51583,       4.09894,       1.89509,   2.55256E-09
C:/temp/dataset/3/18_2.odb,Step-1,Increment      1: Step Time =    1.000,"PART-1-1",           563,          -15.,         28.75,            0.,NA,NA,"",       4.47107,       3.99386,       2.00986,   2.63895E-09
C:/temp/dataset/3/18_2.odb,Step-1,Increment      1: Step Time =    1.000,"PART-1-1",           564,      -13.7509,       27.5010,            0.,NA,NA,"",       4.32163,       3.87918,       1.90485,   3.06914E-09
C:/temp/dataset/3/18_2.odb,Step-1,Increment      1: Step Time =    1.000,"PART-1-1",           565,          -15.,         26.25,            0.,NA,NA,"",       4.28038,       3.77401,       2.01954,   3.94128E-09
C:/temp/dataset/3/18_2.odb,Step-1,Increment      1: Step Time =    1.000,"PART-1-1",           566,      -12.5016,       26.2536,            0.,NA,NA,"",       4.17275,       3.76464,       1.79982,   2.53145E-09
C:/temp/dataset/3/18_2.odb,Step-1,Increment      1: Step Time =    1.000,"PART-1-1",           567,      -7.50093,       21.2547,            0.,NA,NA,"",       3.58192,       3.30566,       1.37942,   8.88225E-09
C:/temp/dataset/3/18_2.odb,Step-1,Increment      1: Step Time =    1.000,"PART-1-1",           568,         -6.25,           20.,            0.,NA,NA,"",       3.43553,       3.19047,       1.27427,   23.5722E-09
C:/temp/dataset/3/18_2.odb,Step-1,Increment      1: Step Time =    1.000,"PART-1-1",           569,      -4.99978,       21.2574,            0.,NA,NA,"",       3.49418,       3.29621,       1.15945,   42.1458E-09
C:/temp/dataset/3/18_2.odb,Step-1,Increment      1: Step Time =    1.000,"PART-1-1",           570,      -3.74911,       22.5208,            0.,NA,NA,"",       3.55920,       3.40247,       1.04457,   173.814E-09
C:/temp/dataset/3/18_2.odb,Step-1,Increment      1: Step Time =    1.000,"PART-1-1",           571,         -3.75,           20.,            0.,NA,NA,"",       3.35100,       3.18079,       1.05442,   81.2291E-09
C:/temp/dataset/3/18_2.odb,Step-1,Increment      1: Step Time =    1.000,"PART-1-1",           572,      -2.49933,       21.2634,            0.,NA,NA,"",       3.41869,       3.28705,   939.537E-03,   169.882E-09
C:/temp/dataset/3/18_2.odb,Step-1,Increment      1: Step Time =    1.000,"PART-1-1",           573,         -1.25,           20.,            0.,NA,NA,"",       3.27908,       3.17110,   834.564E-03,   582.430E-09
C:/temp/dataset/3/18_2.odb,Step-1,Increment      1: Step Time =    1.000,"PART-1-1",           574,  -2.23348E-03,       21.2694,            0.,NA,NA,"",       3.35602,       3.27790,   719.916E-03,   499.728E-09
C:/temp/dataset/3/18_2.odb,Step-1,Increment      1: Step Time =    1.000,"PART-1-1",           575,      -1.25156,       22.5328,            0.,NA,NA,"",       3.49265,       3.39385,   824.888E-03,   434.381E-09
C:/temp/dataset/3/18_2.odb,Step-1,Increment      1: Step Time =    1.000,"PART-1-1",           576,         -3.75,           30.,            0.,NA,NA,"",       4.18531,       4.06020,       1.01567,   90.6402E-09
C:/temp/dataset/3/18_2.odb,Step-1,Increment      1: Step Time =    1.000,"PART-1-1",           577,      -5.00318,       28.7559,            0.,NA,NA,"",       4.11408,       3.95565,       1.13070,   40.6132E-09
C:/temp/dataset/3/18_2.odb,Step-1,Increment      1: Step Time =    1.000,"PART-1-1",           578,       7.36074,       18.8052,            0.,NA,NA,"",       3.03375,       3.03264,   81.9925E-03,   58.7585E-06
C:/temp/dataset/3/18_2.odb,Step-1,Increment      1: Step Time =    1.000,"PART-1-1",           579,       8.58169,       17.5494,            0.,NA,NA,"",       2.91759,       2.91752,  -20.3869E-03,   68.5725E-06
C:/temp/dataset/3/18_2.odb,Step-1,Increment      1: Step Time =    1.000,"PART-1-1",           580,       8.60057,       20.0599,            0.,NA,NA,"",       3.13838,       3.13821,  -31.8693E-03,   36.2239E-06
C:/temp/dataset/3/18_2.odb,Step-1,Increment      1: Step Time =    1.000,"PART-1-1",           581,            5.,         18.75,            0.,NA,NA,"",       3.05072,       3.03693,   289.677E-03,   78.4389E-06
C:/temp/dataset/3/18_2.odb,Step-1,Increment      1: Step Time =    1.000,"PART-1-1",           582,       6.17685,       17.5255,            0.,NA,NA,"",       2.93091,       2.92468,   190.943E-03,   73.0784E-06
C:/temp/dataset/3/18_2.odb,Step-1,Increment      1: Step Time =    1.000,"PART-1-1",           583,       6.18390,       20.0298,            0.,NA,NA,"",       3.15008,       3.14489,   180.682E-03,   28.1096E-06
C:/temp/dataset/3/18_2.odb,Step-1,Increment      1: Step Time =    1.000,"PART-1-1",           584,            5.,         16.25,            0.,NA,NA,"",       2.83303,       2.81720,   299.084E-03,   178.632E-06
C:/temp/dataset/3/18_2.odb,Step-1,Increment      1: Step Time =    1.000,"PART-1-1",           585,       6.15340,       15.0385,            0.,NA,NA,"",       2.71393,       2.70637,   202.429E-03,   190.365E-06
C:/temp/dataset/3/18_2.odb,Step-1,Increment      1: Step Time =    1.000,"PART-1-1",           586,       7.33024,       16.3140,            0.,NA,NA,"",       2.81533,       2.81375,   94.3737E-03,   86.0952E-06
C:/temp/dataset/3/18_2.odb,Step-1,Increment      1: Step Time =    1.000,"PART-1-1",           587,           15.,         16.25,            0.,NA,NA,"",       2.83826,       2.77832,  -580.222E-03,   123.731E-06
C:/temp/dataset/3/18_2.odb,Step-1,Increment      1: Step Time =    1.000,"PART-1-1",           588,       13.6830,       17.5067,            0.,NA,NA,"",       2.93185,       2.89408,  -469.062E-03,   57.7212E-06
C:/temp/dataset/3/18_2.odb,Step-1,Increment      1: Step Time =    1.000,"PART-1-1",           589,           15.,         18.75,            0.,NA,NA,"",       3.05574,       2.99830,  -589.703E-03,   62.6111E-06
C:/temp/dataset/3/18_2.odb,Step-1,Increment      1: Step Time =    1.000,"PART-1-1",           590,       7.36831,       6.81272,            0.,NA,NA,"",       1.97447,       1.97072,   121.638E-03,   3.16179E-03
C:/temp/dataset/3/18_2.odb,Step-1,Increment      1: Step Time =    1.000,"PART-1-1",           591,       6.10412,       7.73110,            0.,NA,NA,"",       2.07420,       2.06145,   229.685E-03,   2.81509E-03
C:/temp/dataset/3/18_2.odb,Step-1,Increment      1: Step Time =    1.000,"PART-1-1",           592,            5.,          6.25,            0.,NA,NA,"",       1.96141,       1.93336,   330.515E-03,   4.55430E-03
C:/temp/dataset/3/18_2.odb,Step-1,Increment      1: Step Time =    1.000,"PART-1-1",           593,       6.26419,       5.33162,            0.,NA,NA,"",       1.85375,       1.84054,   220.952E-03,   3.95301E-03
C:/temp/dataset/3/18_2.odb,Step-1,Increment      1: Step Time =    1.000,"PART-1-1",           594,           15.,          8.75,            0.,NA,NA,"",       2.18473,       2.11417,  -550.748E-03,   749.177E-06
C:/temp/dataset/3/18_2.odb,Step-1,Increment      1: Step Time =    1.000,"PART-1-1",           595,       13.1418,       8.51598,            0.,NA,NA,"",       2.13507,       2.10003,  -385.213E-03,   1.27679E-03
C:/temp/dataset/3/18_2.odb,Step-1,Increment      1: Step Time =    1.000,"PART-1-1",           596,       6.30252,      -5.49102,            0.,NA,NA,"",   929.471E-03,   903.371E-03,   218.718E-03,   8.47894E-03
C:/temp/dataset/3/18_2.odb,Step-1,Increment      1: Step Time =    1.000,"PART-1-1",           597,            5.,         -6.25,            0.,NA,NA,"",   911.503E-03,   855.254E-03,   315.244E-03,   15.9759E-03
C:/temp/dataset/3/18_2.odb,Step-1,Increment      1: Step Time =    1.000,"PART-1-1",           598,       6.10325,      -7.87566,            0.,NA,NA,"",   756.760E-03,   724.447E-03,   218.775E-03,   11.8552E-03
C:/temp/dataset/3/18_2.odb,Step-1,Increment      1: Step Time =    1.000,"PART-1-1",           599,       7.40577,      -7.11668,            0.,NA,NA,"",   783.289E-03,   772.303E-03,   130.727E-03,   6.90074E-03
C:/temp/dataset/3/18_2.odb,Step-1,Increment      1: Step Time =    1.000,"PART-1-1",           600,            5.,         -8.75,            0.,NA,NA,"",   730.007E-03,   671.640E-03,   286.025E-03,   16.0018E-03
C:/temp/dataset/3/18_2.odb,Step-1,Increment      1: Step Time =    1.000,"PART-1-1",           601,            5.,        -13.75,            0.,NA,NA,"",   415.910E-03,   355.602E-03,   215.704E-03,   19.8391E-03
C:/temp/dataset/3/18_2.odb,Step-1,Increment      1: Step Time =    1.000,"PART-1-1",           602,       5.77894,      -15.1288,            0.,NA,NA,"",   316.320E-03,   275.664E-03,   155.137E-03,   18.3562E-03
C:/temp/dataset/3/18_2.odb,Step-1,Increment      1: Step Time =    1.000,"PART-1-1",           603,            5.,        -16.25,            0.,NA,NA,"",   286.759E-03,   228.799E-03,   172.864E-03,   22.6920E-03
C:/temp/dataset/3/18_2.odb,Step-1,Increment      1: Step Time =    1.000,"PART-1-1",           604,       2.77244,      -24.0596,            0.,NA,NA,"",   33.3346E-03,   24.3594E-03,   22.7556E-03,   8.20435E-03
C:/temp/dataset/3/18_2.odb,Step-1,Increment      1: Step Time =    1.000,"PART-1-1",           605,       3.76359,      -25.5842,            0.,NA,NA,"",   23.8025E-03,   14.2978E-03,   19.0298E-03,   7.46099E-03
C:/temp/dataset/3/18_2.odb,Step-1,Increment      1: Step Time =    1.000,"PART-1-1",           606,       5.11162,      -24.8806,            0.,NA,NA,"",   27.8599E-03,   13.3812E-03,   24.4360E-03,   8.93022E-03
C:/temp/dataset/3/18_2.odb,Step-1,Increment      1: Step Time =    1.000,"PART-1-1",           607,       4.12047,      -23.3559,            0.,NA,NA,"",   43.3559E-03,   26.6335E-03,   34.2110E-03,   10.4446E-03
C:/temp/dataset/3/18_2.odb,Step-1,Increment      1: Step Time =    1.000,"PART-1-1",           608,       8.48587,      -2.76980,            0.,NA,NA,"",       1.12228,       1.12112,   51.0526E-03,   5.41324E-03
C:/temp/dataset/3/18_2.odb,Step-1,Increment      1: Step Time =    1.000,"PART-1-1",           609,       9.66601,      -3.38468,            0.,NA,NA,"",       1.06486,       1.06415,  -38.8318E-03,   4.96041E-03
C:/temp/dataset/3/18_2.odb,Step-1,Increment      1: Step Time =    1.000,"PART-1-1",           610,       9.40849,      -1.21164,            0.,NA,NA,"",       1.25122,       1.25096,  -25.2398E-03,   4.36877E-03
C:/temp/dataset/3/18_2.odb,Step-1,Increment      1: Step Time =    1.000,"PART-1-1",           611,       3.88333,            5.,            0.,NA,NA,"",       1.86470,       1.81691,   419.460E-03,   2.82874E-03
C:/temp/dataset/3/18_2.odb,Step-1,Increment      1: Step Time =    1.000,"PART-1-1",           612,       3.93709,       2.49951,            0.,NA,NA,"",       1.65686,       1.60214,   422.307E-03,   2.56078E-03
C:/temp/dataset/3/18_2.odb,Step-1,Increment      1: Step Time =    1.000,"PART-1-1",           613,       5.14044,       3.62548,            0.,NA,NA,"",       1.72435,       1.69432,   320.401E-03,   3.78064E-03
C:/temp/dataset/3/18_2.odb,Step-1,Increment      1: Step Time =    1.000,"PART-1-1",           614,       1.70000,           -5.,            0.,NA,NA,"",       1.15441,   964.515E-03,   634.333E-03,   658.432E-06
C:/temp/dataset/3/18_2.odb,Step-1,Increment      1: Step Time =    1.000,"PART-1-1",           615,       2.88648,      -4.17028,            0.,NA,NA,"",       1.15891,       1.03252,   526.283E-03,   1.43384E-03
C:/temp/dataset/3/18_2.odb,Step-1,Increment      1: Step Time =    1.000,"PART-1-1",           616,       1.90498,      -3.27989,            0.,NA,NA,"",       1.26979,       1.11375,   609.858E-03,   785.410E-06
C:/temp/dataset/3/18_2.odb,Step-1,Increment      1: Step Time =    1.000,"PART-1-1",           617,      -2.82853,       3.20340,            0.,NA,NA,"",       1.95917,       1.68804,   994.426E-03,   132.171E-06
C:/temp/dataset/3/18_2.odb,Step-1,Increment      1: Step Time =    1.000,"PART-1-1",           618,      -1.73717,       4.08745,            0.,NA,NA,"",       1.97535,       1.75961,   897.640E-03,   184.100E-06
C:/temp/dataset/3/18_2.odb,Step-1,Increment      1: Step Time =    1.000,"PART-1-1",           619,      -2.81667,            5.,            0.,NA,NA,"",       2.08965,       1.84193,   986.889E-03,   200.409E-06
C:/temp/dataset/3/18_2.odb,Step-1,Increment      1: Step Time =    1.000,"PART-1-1",           620,      -7.28333,            5.,            0.,NA,NA,"",       2.30928,       1.85877,       1.37030,   24.9453E-06
C:/temp/dataset/3/18_2.odb,Step-1,Increment      1: Step Time =    1.000,"PART-1-1",           621,      -11.7000,            5.,            0.,NA,NA,"",       2.56451,       1.87510,       1.74949,   263.246E-09
C:/temp/dataset/3/18_2.odb,Step-1,Increment      1: Step Time =    1.000,"PART-1-1",           622,      -11.5540,       2.50359,            0.,NA,NA,"",       2.40947,       1.66025,       1.74617,   3.67563E-06
C:/temp/dataset/3/18_2.odb,Step-1,Increment      1: Step Time =    1.000,"PART-1-1",           623,      -8.37698,      -4.01732,            0.,NA,NA,"",       1.85152,       1.08876,       1.49757,   11.4600E-06
C:/temp/dataset/3/18_2.odb,Step-1,Increment      1: Step Time =    1.000,"PART-1-1",           624,      -10.5279,      -3.86372,            0.,NA,NA,"",       2.01487,       1.10989,       1.68162,   2.82960E-06
C:/temp/dataset/3/18_2.odb,Step-1,Increment      1: Step Time =    1.000,"PART-1-1",           625,      -9.41667,           -5.,            0.,NA,NA,"",       1.88309,       1.00825,       1.59043,   5.30699E-06
C:/temp/dataset/3/18_2.odb,Step-1,Increment      1: Step Time =    1.000,"PART-1-1",           626,          3.75,          -20.,            0.,NA,NA,"",   53.8770E-03,   38.6516E-03,   37.5338E-03,   18.2301E-03
C:/temp/dataset/3/18_2.odb,Step-1,Increment      1: Step Time =    1.000,"PART-1-1",           627,       2.74072,      -21.3682,            0.,NA,NA,"",   46.2555E-03,   35.6757E-03,   29.4418E-03,   6.98306E-03
C:/temp/dataset/3/18_2.odb,Step-1,Increment      1: Step Time =    1.000,"PART-1-1",           628,       4.11640,      -22.1674,            0.,NA,NA,"",   55.9757E-03,   36.5981E-03,   42.3539E-03,   12.9127E-03
C:/temp/dataset/3/18_2.odb,Step-1,Increment      1: Step Time =    1.000,"PART-1-1",           629,       5.12568,      -20.7992,            0.,NA,NA,"",   80.4842E-03,   47.4730E-03,   64.9925E-03,   21.7418E-03
C:/temp/dataset/3/18_2.odb,Step-1,Increment      1: Step Time =    1.000,"PART-1-1",           630,          1.25,          -20.,            0.,NA,NA,"",   26.3661E-03,   22.6695E-03,   13.4635E-03,   4.09985E-03
C:/temp/dataset/3/18_2.odb,Step-1,Increment      1: Step Time =    1.000,"PART-1-1",           631,   73.0809E-03,      -21.3299,            0.,NA,NA,"",   26.7623E-03,   25.0048E-03,   9.53832E-03,   2.96810E-03
C:/temp/dataset/3/18_2.odb,Step-1,Increment      1: Step Time =    1.000,"PART-1-1",           632,       1.56380,      -22.6981,            0.,NA,NA,"",   35.1073E-03,   29.3014E-03,   19.3378E-03,   7.32602E-03
C:/temp/dataset/3/18_2.odb,Step-1,Increment      1: Step Time =    1.000,"PART-1-1",           633,         -1.25,          -20.,            0.,NA,NA,"",   20.8106E-03,   20.2983E-03,   4.58901E-03,   1.25433E-03
C:/temp/dataset/3/18_2.odb,Step-1,Increment      1: Step Time =    1.000,"PART-1-1",           634,      -2.46493,      -21.3147,            0.,NA,NA,"",   21.0095E-03,   20.8433E-03,   2.63738E-03,   1.48963E-03
C:/temp/dataset/3/18_2.odb,Step-1,Increment      1: Step Time =    1.000,"PART-1-1",           635,      -1.14185,      -22.6446,            0.,NA,NA,"",   24.2761E-03,   23.3808E-03,   6.53185E-03,   3.31003E-03
C:/temp/dataset/3/18_2.odb,Step-1,Increment      1: Step Time =    1.000,"PART-1-1",           636,         -3.75,          -20.,            0.,NA,NA,"",   18.3670E-03,   18.3663E-03,   166.353E-06,   687.958E-06
C:/temp/dataset/3/18_2.odb,Step-1,Increment      1: Step Time =    1.000,"PART-1-1",           637,      -4.97847,      -21.2978,            0.,NA,NA,"",   18.3371E-03,   18.3324E-03,  -416.376E-06,   829.043E-06
C:/temp/dataset/3/18_2.odb,Step-1,Increment      1: Step Time =    1.000,"PART-1-1",           638,      -3.69340,      -22.6125,            0.,NA,NA,"",   19.4889E-03,   19.4437E-03,   1.32570E-03,   1.79321E-03
C:/temp/dataset/3/18_2.odb,Step-1,Increment      1: Step Time =    1.000,"PART-1-1",           639,      -4.95791,      -23.8547,            0.,NA,NA,"",   16.9857E-03,   16.9745E-03,   616.774E-06,   1.68722E-03
C:/temp/dataset/3/18_2.odb,Step-1,Increment      1: Step Time =    1.000,"PART-1-1",           640,      -6.21189,      -22.5887,            0.,NA,NA,"",   17.0146E-03,   17.0075E-03,  -490.746E-06,   1.11108E-03
C:/temp/dataset/3/18_2.odb,Step-1,Increment      1: Step Time =    1.000,"PART-1-1",           641,      -7.46939,      -23.8324,            0.,NA,NA,"",   14.8067E-03,   14.8036E-03,  -304.756E-06,   1.15783E-03
C:/temp/dataset/3/18_2.odb,Step-1,Increment      1: Step Time =    1.000,"PART-1-1",           642,           15.,        -13.75,            0.,NA,NA,"",   448.828E-03,   343.327E-03,  -289.090E-03,   20.4023E-03
C:/temp/dataset/3/18_2.odb,Step-1,Increment      1: Step Time =    1.000,"PART-1-1",           643,       14.2106,      -12.3304,            0.,NA,NA,"",   496.827E-03,   416.788E-03,  -270.415E-03,   16.1121E-03
C:/temp/dataset/3/18_2.odb,Step-1,Increment      1: Step Time =    1.000,"PART-1-1",           644,       13.1387,      -13.2101,            0.,NA,NA,"",   412.429E-03,   361.481E-03,  -198.568E-03,   12.5047E-03
C:/temp/dataset/3/18_2.odb,Step-1,Increment      1: Step Time =    1.000,"PART-1-1",           645,           15.,        -11.25,            0.,NA,NA,"",   591.386E-03,   486.220E-03,  -336.643E-03,   18.1090E-03
C:/temp/dataset/3/18_2.odb,Step-1,Increment      1: Step Time =    1.000,"PART-1-1",           646,           15.,         -6.25,            0.,NA,NA,"",   931.462E-03,   831.922E-03,  -418.960E-03,   12.9007E-03
C:/temp/dataset/3/18_2.odb,Step-1,Increment      1: Step Time =    1.000,"PART-1-1",           647,       14.0624,      -4.92369,            0.,NA,NA,"",       1.00151,   933.229E-03,  -363.468E-03,   9.50971E-03
C:/temp/dataset/3/18_2.odb,Step-1,Increment      1: Step Time =    1.000,"PART-1-1",           648,       12.9264,      -6.09194,            0.,NA,NA,"",   881.158E-03,   840.354E-03,  -265.038E-03,   8.19978E-03
C:/temp/dataset/3/18_2.odb,Step-1,Increment      1: Step Time =    1.000,"PART-1-1",           649,           15.,         -3.75,            0.,NA,NA,"",       1.12382,       1.02866,  -452.579E-03,   10.0424E-03
C:/temp/dataset/3/18_2.odb,Step-1,Increment      1: Step Time =    1.000,"PART-1-1",           650,       13.0440,      -3.68493,            0.,NA,NA,"",       1.07488,       1.03310,  -296.748E-03,   7.01103E-03
C:/temp/dataset/3/18_2.odb,Step-1,Increment      1: Step Time =    1.000,"PART-1-1",           651,       8.06094,   477.426E-03,            0.,NA,NA,"",       1.40663,       1.40433,   80.3990E-03,   3.64058E-03
C:/temp/dataset/3/18_2.odb,Step-1,Increment      1: Step Time =    1.000,"PART-1-1",           652,       8.76493,       2.31856,            0.,NA,NA,"",       1.56253,       1.56244,   17.2833E-03,   3.03802E-03
C:/temp/dataset/3/18_2.odb,Step-1,Increment      1: Step Time =    1.000,"PART-1-1",           653,       6.73548,       2.80805,            0.,NA,NA,"",       1.62561,       1.61485,   186.797E-03,   2.92565E-03
C:/temp/dataset/3/18_2.odb,Step-1,Increment      1: Step Time =    1.000,"PART-1-1",           654,       6.03149,   966.916E-03,            0.,NA,NA,"",       1.47910,       1.45809,   248.398E-03,   3.90689E-03
C:/temp/dataset/3/18_2.odb,Step-1,Increment      1: Step Time =    1.000,"PART-1-1",           655,            5.,          8.75,            0.,NA,NA,"",       2.18486,       2.16045,   325.677E-03,   2.32206E-03
C:/temp/dataset/3/18_2.odb,Step-1,Increment      1: Step Time =    1.000,"PART-1-1",           656,       7.16919,       9.14751,            0.,NA,NA,"",       2.18750,       2.18346,   132.845E-03,   2.57138E-03
C:/temp/dataset/3/18_2.odb,Step-1,Increment      1: Step Time =    1.000,"PART-1-1",           657,          3.75,           30.,            0.,NA,NA,"",       4.04684,       4.03114,   356.115E-03,   1.02584E-06
C:/temp/dataset/3/18_2.odb,Step-1,Increment      1: Step Time =    1.000,"PART-1-1",           658,       3.71036,       27.5731,            0.,NA,NA,"",       3.83566,       3.81787,   369.003E-03,   168.804E-09
C:/temp/dataset/3/18_2.odb,Step-1,Increment      1: Step Time =    1.000,"PART-1-1",           659,       7.38617,       23.8490,            0.,NA,NA,"",       3.47665,       3.47613,   60.1878E-03,   8.05777E-06
C:/temp/dataset/3/18_2.odb,Step-1,Increment      1: Step Time =    1.000,"PART-1-1",           660,       6.16255,       25.1024,            0.,NA,NA,"",       3.59479,       3.59110,   162.931E-03,   2.76391E-06
C:/temp/dataset/3/18_2.odb,Step-1,Increment      1: Step Time =    1.000,"PART-1-1",           661,       4.93576,       23.8439,            0.,NA,NA,"",       3.49606,       3.48517,   275.688E-03,   3.67955E-06
C:/temp/dataset/3/18_2.odb,Step-1,Increment      1: Step Time =    1.000,"PART-1-1",           662,       6.15938,       22.5905,            0.,NA,NA,"",       3.37464,       3.37020,   172.941E-03,   7.61660E-06
C:/temp/dataset/3/18_2.odb,Step-1,Increment      1: Step Time =    1.000,"PART-1-1",           663,      -10.0017,       23.7560,            0.,NA,NA,"",       3.87626,       3.53531,       1.58965,   1.18174E-09
C:/temp/dataset/3/18_2.odb,Step-1,Increment      1: Step Time =    1.000,"PART-1-1",           664,      -8.75135,       22.5073,            0.,NA,NA,"",       3.72890,       3.42066,       1.48453,   8.25319E-09
C:/temp/dataset/3/18_2.odb,Step-1,Increment      1: Step Time =    1.000,"PART-1-1",           665,      -10.0004,       21.2526,            0.,NA,NA,"",       3.68073,       3.31516,       1.59924,   3.64270E-09
C:/temp/dataset/3/18_2.odb,Step-1,Increment      1: Step Time =    1.000,"PART-1-1",           666,      -11.2505,       22.5043,            0.,NA,NA,"",       3.83016,       3.43008,       1.70432,   2.26968E-09
C:/temp/dataset/3/18_2.odb,Step-1,Increment      1: Step Time =    1.000,"PART-1-1",           667,        -11.25,           20.,            0.,NA,NA,"",       3.63879,       3.20984,       1.71398,   4.70783E-09
C:/temp/dataset/3/18_2.odb,Step-1,Increment      1: Step Time =    1.000,"PART-1-1",           668,         -8.75,           20.,            0.,NA,NA,"",       3.53177,       3.20016,       1.49412,   6.32382E-09
C:/temp/dataset/3/18_2.odb,Step-1,Increment      1: Step Time =    1.000,"PART-1-1",           669,       7.37456,       21.3253,            0.,NA,NA,"",       3.25500,       3.25423,   70.9957E-03,   27.8549E-06
C:/temp/dataset/3/18_2.odb,Step-1,Increment      1: Step Time =    1.000,"PART-1-1",           670,      -1.26076,       25.0501,            0.,NA,NA,"",       3.70619,       3.61525,   815.944E-03,   398.613E-09
C:/temp/dataset/3/18_2.odb,Step-1,Increment      1: Step Time =    1.000,"PART-1-1",           671,      -2.50213,       23.7814,            0.,NA,NA,"",       3.62967,       3.50849,   930.028E-03,   210.274E-09
C:/temp/dataset/3/18_2.odb,Step-1,Increment      1: Step Time =    1.000,"PART-1-1",           672,          1.25,           20.,            0.,NA,NA,"",       3.22062,       3.16141,   614.711E-03,   1.09562E-06
C:/temp/dataset/3/18_2.odb,Step-1,Increment      1: Step Time =    1.000,"PART-1-1",           673,            5.,         13.75,            0.,NA,NA,"",       2.61630,       2.59811,   307.916E-03,   334.124E-06
C:/temp/dataset/3/18_2.odb,Step-1,Increment      1: Step Time =    1.000,"PART-1-1",           674,       7.85923,       4.51418,            0.,NA,NA,"",       1.76303,       1.76089,   86.9039E-03,   2.89815E-03
C:/temp/dataset/3/18_2.odb,Step-1,Increment      1: Step Time =    1.000,"PART-1-1",           675,       9.45843,       7.45797,            0.,NA,NA,"",       2.02051,       2.01961,  -60.5220E-03,   2.61062E-03
C:/temp/dataset/3/18_2.odb,Step-1,Increment      1: Step Time =    1.000,"PART-1-1",           676,       11.3500,       8.04392,            0.,NA,NA,"",       2.07688,       2.06448,  -226.611E-03,   1.90857E-03
C:/temp/dataset/3/18_2.odb,Step-1,Increment      1: Step Time =    1.000,"PART-1-1",           677,       10.2386,       8.70699,            0.,NA,NA,"",       2.13273,       2.12859,  -132.752E-03,   1.99524E-03
C:/temp/dataset/3/18_2.odb,Step-1,Increment      1: Step Time =    1.000,"PART-1-1",           678,   133.314E-03,       2.02047,            0.,NA,NA,"",       1.74321,       1.57598,   745.034E-03,   188.452E-06
C:/temp/dataset/3/18_2.odb,Step-1,Increment      1: Step Time =    1.000,"PART-1-1",           679,       2.26054,       1.70692,            0.,NA,NA,"",       1.64124,       1.54096,   564.889E-03,   1.10448E-03
C:/temp/dataset/3/18_2.odb,Step-1,Increment      1: Step Time =    1.000,"PART-1-1",           680,  -583.333E-03,            5.,            0.,NA,NA,"",       1.99839,       1.83317,   795.659E-03,   419.266E-06
C:/temp/dataset/3/18_2.odb,Step-1,Increment      1: Step Time =    1.000,"PART-1-1",           681,  -713.179E-03,       3.09316,            0.,NA,NA,"",       1.85831,       1.67078,   813.525E-03,   119.359E-06
C:/temp/dataset/3/18_2.odb,Step-1,Increment      1: Step Time =    1.000,"PART-1-1",           682,      -10.2084,       1.19941,            0.,NA,NA,"",       2.24870,       1.54334,       1.63548,   8.03778E-06
C:/temp/dataset/3/18_2.odb,Step-1,Increment      1: Step Time =    1.000,"PART-1-1",           683,      -7.18333,           -5.,            0.,NA,NA,"",       1.71945,   999.992E-03,       1.39876,   24.6971E-06
C:/temp/dataset/3/18_2.odb,Step-1,Increment      1: Step Time =    1.000,"PART-1-1",           684,      -7.36178,      -2.99006,            0.,NA,NA,"",       1.83169,       1.17320,       1.40666,   34.4359E-06
C:/temp/dataset/3/18_2.odb,Step-1,Increment      1: Step Time =    1.000,"PART-1-1",           685,      -11.3125,  -91.5578E-03,            0.,NA,NA,"",       2.25258,       1.43659,       1.73503,   6.29275E-06
C:/temp/dataset/3/18_2.odb,Step-1,Increment      1: Step Time =    1.000,"PART-1-1",           686,      -11.6500,           -5.,            0.,NA,NA,"",       2.05164,       1.01649,       1.78213,   263.120E-09
C:/temp/dataset/3/18_2.odb,Step-1,Increment      1: Step Time =    1.000,"PART-1-1",           687,      -11.6245,      -2.63993,            0.,NA,NA,"",       2.15016,       1.21899,       1.77123,   3.31789E-06
C:/temp/dataset/3/18_2.odb,Step-1,Increment      1: Step Time =    1.000,"PART-1-1",           688,      -1.03706,       1.18772,            0.,NA,NA,"",       1.73101,       1.50896,   848.194E-03,   135.119E-06
C:/temp/dataset/3/18_2.odb,Step-1,Increment      1: Step Time =    1.000,"PART-1-1",           689,      -2.26684,   407.252E-03,            0.,NA,NA,"",       1.73416,       1.44645,   956.618E-03,   152.273E-06
C:/temp/dataset/3/18_2.odb,Step-1,Increment      1: Step Time =    1.000,"PART-1-1",           690,      -1.61706,  -775.207E-03,            0.,NA,NA,"",       1.61929,       1.34261,   905.255E-03,   149.580E-06
C:/temp/dataset/3/18_2.odb,Step-1,Increment      1: Step Time =    1.000,"PART-1-1",           691,      -4.44627,  -189.662E-03,            0.,NA,NA,"",       1.81156,       1.40303,       1.14598,   108.348E-06
C:/temp/dataset/3/18_2.odb,Step-1,Increment      1: Step Time =    1.000,"PART-1-1",           692,      -3.83065,   850.686E-03,            0.,NA,NA,"",       1.84573,       1.49008,       1.08921,   115.377E-06
C:/temp/dataset/3/18_2.odb,Step-1,Increment      1: Step Time =    1.000,"PART-1-1",           693,      -5.38306,   384.196E-03,            0.,NA,NA,"",       1.90204,       1.45567,       1.22424,   76.2398E-06
C:/temp/dataset/3/18_2.odb,Step-1,Increment      1: Step Time =    1.000,"PART-1-1",           694,       3.90000,           -5.,            0.,NA,NA,"",       1.05140,   955.567E-03,   438.567E-03,   3.89664E-03
C:/temp/dataset/3/18_2.odb,Step-1,Increment      1: Step Time =    1.000,"PART-1-1",           695,       5.25667,      -4.01677,            0.,NA,NA,"",       1.08015,       1.03458,   310.426E-03,   8.29977E-03
C:/temp/dataset/3/18_2.odb,Step-1,Increment      1: Step Time =    1.000,"PART-1-1",           696,       4.24316,      -3.18705,            0.,NA,NA,"",       1.18222,       1.11178,   401.980E-03,   3.81678E-03
C:/temp/dataset/3/18_2.odb,Step-1,Increment      1: Step Time =    1.000,"PART-1-1",           697,       9.51721,      -4.82762,            0.,NA,NA,"",   945.098E-03,   944.811E-03,  -23.2852E-03,   4.97400E-03
C:/temp/dataset/3/18_2.odb,Step-1,Increment      1: Step Time =    1.000,"PART-1-1",           698,       8.04384,      -4.93500,            0.,NA,NA,"",   944.955E-03,   940.953E-03,   86.8832E-03,   5.94223E-03
C:/temp/dataset/3/18_2.odb,Step-1,Increment      1: Step Time =    1.000,"PART-1-1",           699,       8.61490,      -6.56470,            0.,NA,NA,"",   810.777E-03,   809.524E-03,   45.0623E-03,   4.59642E-03
C:/temp/dataset/3/18_2.odb,Step-1,Increment      1: Step Time =    1.000,"PART-1-1",           700,       10.0883,      -6.45732,            0.,NA,NA,"",   815.878E-03,   813.717E-03,  -59.3414E-03,   4.60904E-03
C:/temp/dataset/3/18_2.odb,Step-1,Increment      1: Step Time =    1.000,"PART-1-1",           701,       9.29828,      -8.00429,            0.,NA,NA,"",   698.886E-03,   698.885E-03,  -1.18166E-03,   4.32381E-03
C:/temp/dataset/3/18_2.odb,Step-1,Increment      1: Step Time =    1.000,"PART-1-1",           702,       6.27674,      -21.4047,            0.,NA,NA,"",   62.1490E-03,   37.4112E-03,   49.6277E-03,   12.0660E-03
C:/temp/dataset/3/18_2.odb,Step-1,Increment      1: Step Time =    1.000,"PART-1-1",           703,       7.27122,      -20.3583,            0.,NA,NA,"",   68.6691E-03,   54.6962E-03,   41.5183E-03,   8.41133E-03
C:/temp/dataset/3/18_2.odb,Step-1,Increment      1: Step Time =    1.000,"PART-1-1",           704,         -6.25,          -20.,            0.,NA,NA,"",   17.6089E-03,   17.5713E-03,  -1.15106E-03,   289.136E-06
C:/temp/dataset/3/18_2.odb,Step-1,Increment      1: Step Time =    1.000,"PART-1-1",           705,         -1.25,          -30.,            0.,NA,NA,"",            0.,   3.25481E-39,   3.89472E-39,   3.84477E-03
C:/temp/dataset/3/18_2.odb,Step-1,Increment      1: Step Time =    1.000,"PART-1-1",           706,       8.60683,      -25.8105,            0.,NA,NA,"",   3.69417E-03,  -2.21359E-03,   2.95752E-03,   3.08521E-03
C:/temp/dataset/3/18_2.odb,Step-1,Increment      1: Step Time =    1.000,"PART-1-1",           707,       7.41490,      -26.9159,            0.,NA,NA,"",   7.46601E-03,  -2.75158E-03,   6.94047E-03,   4.33231E-03
C:/temp/dataset/3/18_2.odb,Step-1,Increment      1: Step Time =    1.000,"PART-1-1",           708,       6.17638,      -25.8614,            0.,NA,NA,"",   16.8001E-03,   4.57200E-03,   16.1661E-03,   6.05963E-03
C:/temp/dataset/3/18_2.odb,Step-1,Increment      1: Step Time =    1.000,"PART-1-1",           709,       7.37219,      -25.0876,            0.,NA,NA,"",   14.8315E-03,   3.93673E-03,   14.2995E-03,   5.68319E-03
C:/temp/dataset/3/18_2.odb,Step-1,Increment      1: Step Time =    1.000,"PART-1-1",           710,       6.30743,      -24.1068,            0.,NA,NA,"",   29.8905E-03,   13.5774E-03,   26.6288E-03,   7.51679E-03
C:/temp/dataset/3/18_2.odb,Step-1,Increment      1: Step Time =    1.000,"PART-1-1",           711,   113.079E-03,      -23.9373,            0.,NA,NA,"",   26.0953E-03,   23.5684E-03,   11.2024E-03,   4.80084E-03
C:/temp/dataset/3/18_2.odb,Step-1,Increment      1: Step Time =    1.000,"PART-1-1",           712,      -2.43554,      -23.8906,            0.,NA,NA,"",   20.4038E-03,   20.0498E-03,   3.78420E-03,   2.55588E-03
C:/temp/dataset/3/18_2.odb,Step-1,Increment      1: Step Time =    1.000,"PART-1-1",           713,      -8.72529,      -25.0755,            0.,NA,NA,"",   12.0520E-03,   12.0520E-03,   32.8118E-06,   1.28001E-03
C:/temp/dataset/3/18_2.odb,Step-1,Increment      1: Step Time =    1.000,"PART-1-1",           714,      -9.97606,      -23.8175,            0.,NA,NA,"",   13.4627E-03,   13.4617E-03,   162.999E-06,   776.905E-06
C:/temp/dataset/3/18_2.odb,Step-1,Increment      1: Step Time =    1.000,"PART-1-1",           715,      -9.99641,      -28.7682,            0.,NA,NA,"",   3.16556E-03,   3.15154E-03,   297.551E-06,   1.64906E-03
C:/temp/dataset/3/18_2.odb,Step-1,Increment      1: Step Time =    1.000,"PART-1-1",           716,      -11.2465,      -27.5281,            0.,NA,NA,"",   5.90166E-03,   5.87321E-03,   578.737E-06,   1.46013E-03
C:/temp/dataset/3/18_2.odb,Step-1,Increment      1: Step Time =    1.000,"PART-1-1",           717,        -11.25,          -30.,            0.,NA,NA,"",            0.,   1.41671E-39,   1.00339E-39,   1.54661E-03
C:/temp/dataset/3/18_2.odb,Step-1,Increment      1: Step Time =    1.000,"PART-1-1",           718,         -8.75,          -30.,            0.,NA,NA,"",            0.,   1.79962E-39,   889.984E-42,   1.95616E-03
C:/temp/dataset/3/18_2.odb,Step-1,Increment      1: Step Time =    1.000,"PART-1-1",           719,      -8.73783,      -27.5479,            0.,NA,NA,"",   6.71068E-03,   6.70264E-03,   328.294E-06,   1.76177E-03
C:/temp/dataset/3/18_2.odb,Step-1,Increment      1: Step Time =    1.000,"PART-1-1",           720,       9.45286,      -20.3748,            0.,NA,NA,"",   59.2708E-03,   58.6671E-03,  -8.43803E-03,   3.13518E-03
C:/temp/dataset/3/18_2.odb,Step-1,Increment      1: Step Time =    1.000,"PART-1-1",           721,       8.38706,      -19.4374,            0.,NA,NA,"",   83.4092E-03,   81.1936E-03,   19.0970E-03,   5.31299E-03
C:/temp/dataset/3/18_2.odb,Step-1,Increment      1: Step Time =    1.000,"PART-1-1",           722,       8.33702,      -21.2957,            0.,NA,NA,"",   41.9298E-03,   38.4560E-03,   16.7105E-03,   4.76095E-03
C:/temp/dataset/3/18_2.odb,Step-1,Increment      1: Step Time =    1.000,"PART-1-1",           723,       9.34035,      -18.0986,            0.,NA,NA,"",   126.270E-03,   126.056E-03,  -7.34723E-03,   3.32968E-03
C:/temp/dataset/3/18_2.odb,Step-1,Increment      1: Step Time =    1.000,"PART-1-1",           724,       10.7511,      -19.4747,            0.,NA,NA,"",   96.7927E-03,   85.0822E-03,  -46.1503E-03,   6.01671E-03
C:/temp/dataset/3/18_2.odb,Step-1,Increment      1: Step Time =    1.000,"PART-1-1",           725,       9.57777,      -9.07511,            0.,NA,NA,"",   621.562E-03,   621.296E-03,  -18.1800E-03,   3.98712E-03
C:/temp/dataset/3/18_2.odb,Step-1,Increment      1: Step Time =    1.000,"PART-1-1",           726,       10.3854,      -7.79904,            0.,NA,NA,"",   715.477E-03,   711.564E-03,  -74.7215E-03,   4.51067E-03
C:/temp/dataset/3/18_2.odb,Step-1,Increment      1: Step Time =    1.000,"PART-1-1",           727,       11.9371,      -7.89361,            0.,NA,NA,"",   726.175E-03,   703.754E-03,  -179.056E-03,   6.80632E-03
C:/temp/dataset/3/18_2.odb,Step-1,Increment      1: Step Time =    1.000,"PART-1-1",           728,       11.6400,      -6.55190,            0.,NA,NA,"",   822.007E-03,   804.566E-03,  -168.430E-03,   6.25131E-03
C:/temp/dataset/3/18_2.odb,Step-1,Increment      1: Step Time =    1.000,"PART-1-1",           729,       9.29748,       3.92298,            0.,NA,NA,"",       1.70284,       1.70251,  -33.1679E-03,   2.71535E-03
C:/temp/dataset/3/18_2.odb,Step-1,Increment      1: Step Time =    1.000,"PART-1-1",           730,       10.7408,       1.93669,            0.,NA,NA,"",       1.52816,       1.52115,  -146.237E-03,   3.08764E-03
C:/temp/dataset/3/18_2.odb,Step-1,Increment      1: Step Time =    1.000,"PART-1-1",           731,       12.1175,       9.30164,            0.,NA,NA,"",       2.19461,       2.17417,  -298.881E-03,   1.27944E-03
C:/temp/dataset/3/18_2.odb,Step-1,Increment      1: Step Time =    1.000,"PART-1-1",           732,       12.3743,       7.25826,            0.,NA,NA,"",       2.01453,       1.99019,  -312.166E-03,   1.84802E-03
C:/temp/dataset/3/18_2.odb,Step-1,Increment      1: Step Time =    1.000,"PART-1-1",           733,       9.86952,       23.8294,            0.,NA,NA,"",       3.46841,       3.46481,  -158.109E-03,   10.6585E-06
C:/temp/dataset/3/18_2.odb,Step-1,Increment      1: Step Time =    1.000,"PART-1-1",           734,       8.61965,       22.5851,            0.,NA,NA,"",       3.36049,       3.36021,  -43.3715E-03,   13.4493E-06
C:/temp/dataset/3/18_2.odb,Step-1,Increment      1: Step Time =    1.000,"PART-1-1",           735,         11.25,           30.,            0.,NA,NA,"",       4.01357,       4.00208,  -303.420E-03,   320.227E-09
C:/temp/dataset/3/18_2.odb,Step-1,Increment      1: Step Time =    1.000,"PART-1-1",           736,       9.97488,       28.7673,            0.,NA,NA,"",       3.90308,       3.89862,  -186.514E-03,   458.232E-09
C:/temp/dataset/3/18_2.odb,Step-1,Increment      1: Step Time =    1.000,"PART-1-1",           737,          8.75,           30.,            0.,NA,NA,"",       4.01264,       4.01177,  -83.5775E-03,   494.758E-09
C:/temp/dataset/3/18_2.odb,Step-1,Increment      1: Step Time =    1.000,"PART-1-1",           738,       3.69885,       25.0915,            0.,NA,NA,"",       3.61964,       3.59968,   379.629E-03,   837.563E-09
C:/temp/dataset/3/18_2.odb,Step-1,Increment      1: Step Time =    1.000,"PART-1-1",           739,       4.94207,       26.3392,            0.,NA,NA,"",       3.71409,       3.70459,   265.467E-03,   1.08448E-06
C:/temp/dataset/3/18_2.odb,Step-1,Increment      1: Step Time =    1.000,"PART-1-1",           740,         -6.25,           30.,            0.,NA,NA,"",       4.25329,       4.06989,       1.23553,   14.6852E-09
C:/temp/dataset/3/18_2.odb,Step-1,Increment      1: Step Time =    1.000,"PART-1-1",           741,      -11.2519,       25.0060,            0.,NA,NA,"",       4.02434,       3.65009,       1.69475,   915.933E-12
C:/temp/dataset/3/18_2.odb,Step-1,Increment      1: Step Time =    1.000,"PART-1-1",           742,       11.7111,      -12.1867,            0.,NA,NA,"",   437.099E-03,   416.699E-03,  -131.975E-03,   7.15515E-03
C:/temp/dataset/3/18_2.odb,Step-1,Increment      1: Step Time =    1.000,"PART-1-1",           743,       12.0443,      -13.4388,            0.,NA,NA,"",   372.386E-03,   345.294E-03,  -139.438E-03,   8.73206E-03
C:/temp/dataset/3/18_2.odb,Step-1,Increment      1: Step Time =    1.000,"PART-1-1",           744,       9.07309,      -22.0228,            0.,NA,NA,"",   27.8729E-03,   27.8430E-03,   1.29070E-03,   3.69416E-03
C:/temp/dataset/3/18_2.odb,Step-1,Increment      1: Step Time =    1.000,"PART-1-1",           745,       9.10959,      -23.2638,            0.,NA,NA,"",   13.5173E-03,   13.5162E-03,   171.226E-06,   4.04422E-03
C:/temp/dataset/3/18_2.odb,Step-1,Increment      1: Step Time =    1.000,"PART-1-1",           746,       10.5828,      -23.1781,            0.,NA,NA,"",   28.7987E-03,   15.8738E-03,  -24.0289E-03,   5.99256E-03
C:/temp/dataset/3/18_2.odb,Step-1,Increment      1: Step Time =    1.000,"PART-1-1",           747,       10.5463,      -21.9372,            0.,NA,NA,"",   42.7848E-03,   31.7991E-03,  -28.6244E-03,   6.09087E-03
C:/temp/dataset/3/18_2.odb,Step-1,Increment      1: Step Time =    1.000,"PART-1-1",           748,      -1.00841,      -2.00181,            0.,NA,NA,"",       1.50344,       1.23491,   857.506E-03,   136.874E-06
C:/temp/dataset/3/18_2.odb,Step-1,Increment      1: Step Time =    1.000,"PART-1-1",           749,      -3.17395,      -1.50818,            0.,NA,NA,"",       1.65435,       1.28519,       1.04172,   130.481E-06
C:/temp/dataset/3/18_2.odb,Step-1,Increment      1: Step Time =    1.000,"PART-1-1",           750,       8.23699,       8.20647,            0.,NA,NA,"",       2.09344,       2.09301,   42.4963E-03,   2.78176E-03
C:/temp/dataset/3/18_2.odb,Step-1,Increment      1: Step Time =    1.000,"PART-1-1",           751,       8.58975,       6.06422,            0.,NA,NA,"",       1.89769,       1.89759,   19.1862E-03,   3.02387E-03
C:/temp/dataset/3/18_2.odb,Step-1,Increment      1: Step Time =    1.000,"PART-1-1",           752,       1.04870,      -2.29850,            0.,NA,NA,"",       1.38136,       1.20179,   681.078E-03,   438.481E-06
C:/temp/dataset/3/18_2.odb,Step-1,Increment      1: Step Time =    1.000,"PART-1-1",           753,      -1.88356,       2.26041,            0.,NA,NA,"",       1.84740,       1.60385,   916.824E-03,   135.050E-06
C:/temp/dataset/3/18_2.odb,Step-1,Increment      1: Step Time =    1.000,"PART-1-1",           754,      -2.91638,       1.44829,            0.,NA,NA,"",       1.83917,       1.53802,       1.00847,   131.737E-06
C:/temp/dataset/3/18_2.odb,Step-1,Increment      1: Step Time =    1.000,"PART-1-1",           755,       3.03453,      -2.52132,            0.,NA,NA,"",       1.28015,       1.17474,   508.700E-03,   2.03176E-03
C:/temp/dataset/3/18_2.odb,Step-1,Increment      1: Step Time =    1.000,"PART-1-1",           756,       6.99799,      -3.46075,            0.,NA,NA,"",       1.08327,       1.07005,   168.703E-03,   6.09888E-03
C:/temp/dataset/3/18_2.odb,Step-1,Increment      1: Step Time =    1.000,"PART-1-1",           757,       7.63560,  -984.386E-03,            0.,NA,NA,"",       1.28495,       1.27957,   117.419E-03,   4.68929E-03
C:/temp/dataset/3/18_2.odb,Step-1,Increment      1: Step Time =    1.000,"PART-1-1",           758,       6.14771,      -1.67534,            0.,NA,NA,"",       1.25218,       1.22900,   239.824E-03,   5.26222E-03
C:/temp/dataset/3/18_2.odb,Step-1,Increment      1: Step Time =    1.000,"PART-1-1",           759,       4.94795,      -26.8240,            0.,NA,NA,"",   14.0240E-03,   5.23493E-03,   13.0103E-03,   6.64086E-03
C:/temp/dataset/3/18_2.odb,Step-1,Increment      1: Step Time =    1.000,"PART-1-1",           760,      -11.2341,      -25.0541,            0.,NA,NA,"",   11.1064E-03,   11.0751E-03,   833.406E-06,   879.523E-06
C:/temp/dataset/3/18_2.odb,Step-1,Increment      1: Step Time =    1.000,"PART-1-1",           761,      -9.98574,      -26.3021,            0.,NA,NA,"",   9.03079E-03,   9.02294E-03,   376.579E-06,   1.34466E-03
C:/temp/dataset/3/18_2.odb,Step-1,Increment      1: Step Time =    1.000,"PART-1-1",           762,           15.,        -26.25,            0.,NA,NA,"",   48.5408E-03,   15.3668E-03,  -46.0443E-03,   15.9866E-03
C:/temp/dataset/3/18_2.odb,Step-1,Increment      1: Step Time =    1.000,"PART-1-1",           763,       9.63478,      -24.7731,            0.,NA,NA,"",   6.77861E-03,   1.87204E-03,  -6.51498E-03,   4.00718E-03
C:/temp/dataset/3/18_2.odb,Step-1,Increment      1: Step Time =    1.000,"PART-1-1",           764,       9.83383,   250.169E-03,            0.,NA,NA,"",       1.37788,       1.37638,  -64.2596E-03,   3.82568E-03
C:/temp/dataset/3/18_2.odb,Step-1,Increment      1: Step Time =    1.000,"PART-1-1",           765,       11.1222,       22.5628,            0.,NA,NA,"",       3.35892,       3.34858,  -263.351E-03,   13.8103E-06
C:/temp/dataset/3/18_2.odb,Step-1,Increment      1: Step Time =    1.000,"PART-1-1",           766,       9.84566,       21.3197,            0.,NA,NA,"",       3.24750,       3.24421,  -146.258E-03,   29.1187E-06
C:/temp/dataset/3/18_2.odb,Step-1,Increment      1: Step Time =    1.000,"PART-1-1",           767,      -3.18112,  -190.353E-03,            0.,NA,NA,"",       1.74119,       1.39843,       1.03736,   140.743E-06
C:/temp/dataset/3/18_2.odb,Step-1,Increment      1: Step Time =    1.000,"PART-1-1",           768,       4.54417,       1.21940,            0.,NA,NA,"",       1.53424,       1.48815,   373.212E-03,   3.10268E-03
C:/temp/dataset/3/18_2.odb,Step-1,Increment      1: Step Time =    1.000,"PART-1-1",           769,       9.22107,       9.51460,            0.,NA,NA,"",       2.20626,       2.20575,  -47.1375E-03,   1.95541E-03
C:/temp/dataset/3/18_2.odb,Step-1,Increment      1: Step Time =    1.000,"PART-1-1",           770,       11.1709,      -3.71800,            0.,NA,NA,"",       1.04351,       1.03236,  -152.130E-03,   5.39250E-03
C:/temp/dataset/3/18_2.odb,Step-1,Increment      1: Step Time =    1.000,"PART-1-1",           771,       11.0221,      -5.16095,            0.,NA,NA,"",   924.131E-03,   914.562E-03,  -132.647E-03,   5.41748E-03
C:/temp/dataset/3/18_2.odb,Step-1,Increment      1: Step Time =    1.000,"PART-1-1",           772,       12.3085,      -4.70099,            0.,NA,NA,"",   978.225E-03,   950.433E-03,  -231.519E-03,   6.59764E-03
C:/temp/dataset/3/18_2.odb,Step-1,Increment      1: Step Time =    1.000,"PART-1-1",           773,       5.03877,      -2.41022,            0.,NA,NA,"",       1.21953,       1.17322,   332.880E-03,   5.28665E-03
C:/temp/dataset/3/18_2.odb,Step-1,Increment      1: Step Time =    1.000,"PART-1-1",           774,       11.0080,       9.74440,            0.,NA,NA,"",       2.22758,       2.21825,  -203.714E-03,   1.38255E-03
C:/temp/dataset/3/18_2.odb,Step-1,Increment      1: Step Time =    1.000,"PART-1-1",           775,       7.33953,      -23.4839,            0.,NA,NA,"",   26.9179E-03,   14.4397E-03,   22.7172E-03,   6.83175E-03
C:/temp/dataset/3/18_2.odb,Step-1,Increment      1: Step Time =    1.000,"PART-1-1",           776,       6.60048,      -22.7490,            0.,NA,NA,"",   41.8395E-03,   23.3695E-03,   34.7046E-03,   9.08516E-03
C:/temp/dataset/3/18_2.odb,Step-1,Increment      1: Step Time =    1.000,"PART-1-1",           777,       5.56839,      -23.3719,            0.,NA,NA,"",   41.0078E-03,   21.5413E-03,   34.8943E-03,   10.1808E-03
C:/temp/dataset/3/18_2.odb,Step-1,Increment      1: Step Time =    1.000,"PART-1-1",           778,       5.56431,      -22.1833,            0.,NA,NA,"",   55.7075E-03,   32.1227E-03,   45.5133E-03,   12.2120E-03
C:/temp/dataset/3/18_2.odb,Step-1,Increment      1: Step Time =    1.000,"PART-1-1",           779,       7.31291,      -21.9704,            0.,NA,NA,"",   43.3089E-03,   29.0677E-03,   32.1050E-03,   7.65958E-03
C:/temp/dataset/3/18_2.odb,Step-1,Increment      1: Step Time =    1.000,"PART-1-1",           780,       8.04898,      -22.6975,            0.,NA,NA,"",   26.4589E-03,   19.7818E-03,   17.5714E-03,   5.22862E-03
C:/temp/dataset/3/18_2.odb,Step-1,Increment      1: Step Time =    1.000,"PART-1-1",           781,       5.89213,  -472.373E-03,            0.,NA,NA,"",       1.35950,       1.33420,   261.092E-03,   3.96035E-03
C:/temp/dataset/3/18_2.odb,Step-1,Increment      1: Step Time =    1.000,"PART-1-1",           782,       8.40014,      -24.0502,            0.,NA,NA,"",   11.4613E-03,   7.57479E-03,   8.60146E-03,   3.99630E-03
