ODB Name,Step,Frame,Part Instance Name,    êﬂì_ÉâÉxÉã,X,Y,Z,Section Name,Material Name,Section Point,   U-Magnitude,          U-U1,          U-U2,       S-Mises
C:/temp/dataset/3/18_5.odb,Step-1,Increment      1: Step Time =    1.000,"PART-1-1",             1,          -15.,           20.,            0.,NA,NA,"",       9.52678,       8.33991,       4.60493,   442.798E-12
C:/temp/dataset/3/18_5.odb,Step-1,Increment      1: Step Time =    1.000,"PART-1-1",             2,          -15.,           25.,            0.,NA,NA,"",       10.4402,       9.42767,       4.48518,   6.99898E-09
C:/temp/dataset/3/18_5.odb,Step-1,Increment      1: Step Time =    1.000,"PART-1-1",             3,           -5.,           20.,            0.,NA,NA,"",       8.45686,       8.10040,       2.42942,   143.560E-09
C:/temp/dataset/3/18_5.odb,Step-1,Increment      1: Step Time =    1.000,"PART-1-1",             4,            5.,           20.,            0.,NA,NA,"",       7.86493,       7.86083,   253.840E-03,   65.4769E-06
C:/temp/dataset/3/18_5.odb,Step-1,Increment      1: Step Time =    1.000,"PART-1-1",             5,            5.,          12.5,            0.,NA,NA,"",       6.25108,       6.23644,   427.528E-03,   2.69318E-03
C:/temp/dataset/3/18_5.odb,Step-1,Increment      1: Step Time =    1.000,"PART-1-1",             6,            5.,            5.,            0.,NA,NA,"",       4.59989,       4.56259,   584.611E-03,   15.0170E-03
C:/temp/dataset/3/18_5.odb,Step-1,Increment      1: Step Time =    1.000,"PART-1-1",             7,      -1.70000,            5.,            0.,NA,NA,"",       5.10152,       4.70436,       1.97345,   697.645E-06
C:/temp/dataset/3/18_5.odb,Step-1,Increment      1: Step Time =    1.000,"PART-1-1",             8,      -8.40000,            5.,            0.,NA,NA,"",       5.92738,       4.85853,       3.39536,   25.2271E-06
C:/temp/dataset/3/18_5.odb,Step-1,Increment      1: Step Time =    1.000,"PART-1-1",             9,          -15.,            5.,            0.,NA,NA,"",       6.93531,       5.00902,       4.79668,   303.308E-09
C:/temp/dataset/3/18_5.odb,Step-1,Increment      1: Step Time =    1.000,"PART-1-1",            10,          -15.,            0.,            0.,NA,NA,"",       6.30057,       3.94747,       4.91067,   2.21364E-06
C:/temp/dataset/3/18_5.odb,Step-1,Increment      1: Step Time =    1.000,"PART-1-1",            11,          -15.,           -5.,            0.,NA,NA,"",       5.79446,       2.88596,       5.02464,   243.969E-09
C:/temp/dataset/3/18_5.odb,Step-1,Increment      1: Step Time =    1.000,"PART-1-1",            12,      -8.30000,           -5.,            0.,NA,NA,"",       4.52184,       2.73323,       3.60229,   24.7057E-06
C:/temp/dataset/3/18_5.odb,Step-1,Increment      1: Step Time =    1.000,"PART-1-1",            13,      -1.60000,           -5.,            0.,NA,NA,"",       3.37674,       2.57881,       2.17993,   748.608E-06
C:/temp/dataset/3/18_5.odb,Step-1,Increment      1: Step Time =    1.000,"PART-1-1",            14,            5.,           -5.,            0.,NA,NA,"",       2.51972,       2.41301,   725.534E-03,   32.5795E-03
C:/temp/dataset/3/18_5.odb,Step-1,Increment      1: Step Time =    1.000,"PART-1-1",            15,            5.,         -12.5,            0.,NA,NA,"",       1.22114,       1.08795,   554.570E-03,   48.5029E-03
C:/temp/dataset/3/18_5.odb,Step-1,Increment      1: Step Time =    1.000,"PART-1-1",            16,            5.,          -20.,            0.,NA,NA,"",   233.645E-03,   148.673E-03,   180.239E-03,   91.4759E-03
C:/temp/dataset/3/18_5.odb,Step-1,Increment      1: Step Time =    1.000,"PART-1-1",            17,           -5.,          -20.,            0.,NA,NA,"",   45.5340E-03,   45.5018E-03,  -1.71288E-03,   1.06785E-03
C:/temp/dataset/3/18_5.odb,Step-1,Increment      1: Step Time =    1.000,"PART-1-1",            18,          -15.,          -20.,            0.,NA,NA,"",   45.4814E-03,   43.9638E-03,   11.6507E-03,   27.9929E-06
C:/temp/dataset/3/18_5.odb,Step-1,Increment      1: Step Time =    1.000,"PART-1-1",            19,          -15.,          -25.,            0.,NA,NA,"",   30.4680E-03,   27.9694E-03,   12.0835E-03,   235.408E-06
C:/temp/dataset/3/18_5.odb,Step-1,Increment      1: Step Time =    1.000,"PART-1-1",            20,          -15.,          -30.,            0.,NA,NA,"",            0.,   2.48490E-39,   3.97665E-39,   7.62262E-03
C:/temp/dataset/3/18_5.odb,Step-1,Increment      1: Step Time =    1.000,"PART-1-1",            21,           15.,          -30.,            0.,NA,NA,"",            0.,   9.63895E-39,  -18.1460E-39,   34.2228E-03
C:/temp/dataset/3/18_5.odb,Step-1,Increment      1: Step Time =    1.000,"PART-1-1",            22,           15.,         -22.5,            0.,NA,NA,"",   292.928E-03,   116.843E-03,  -268.616E-03,   51.2668E-03
C:/temp/dataset/3/18_5.odb,Step-1,Increment      1: Step Time =    1.000,"PART-1-1",            23,           15.,          -15.,            0.,NA,NA,"",   950.861E-03,   673.900E-03,  -670.817E-03,   53.5459E-03
C:/temp/dataset/3/18_5.odb,Step-1,Increment      1: Step Time =    1.000,"PART-1-1",            24,           15.,          -7.5,            0.,NA,NA,"",       2.07638,       1.78490,      -1.06090,   35.6560E-03
C:/temp/dataset/3/18_5.odb,Step-1,Increment      1: Step Time =    1.000,"PART-1-1",            25,           15.,            0.,            0.,NA,NA,"",       3.54188,       3.26181,      -1.38041,   15.2139E-03
C:/temp/dataset/3/18_5.odb,Step-1,Increment      1: Step Time =    1.000,"PART-1-1",            26,           15.,           7.5,            0.,NA,NA,"",       5.14782,       4.88727,      -1.61697,   3.01954E-03
C:/temp/dataset/3/18_5.odb,Step-1,Increment      1: Step Time =    1.000,"PART-1-1",            27,           15.,           15.,            0.,NA,NA,"",       6.77709,       6.53291,      -1.80280,   412.009E-06
C:/temp/dataset/3/18_5.odb,Step-1,Increment      1: Step Time =    1.000,"PART-1-1",            28,           15.,          22.5,            0.,NA,NA,"",       8.40237,       8.16540,      -1.98142,   21.5591E-06
C:/temp/dataset/3/18_5.odb,Step-1,Increment      1: Step Time =    1.000,"PART-1-1",            29,           15.,           30.,            0.,NA,NA,"",       10.0324,       9.79690,      -2.16100,   145.599E-09
C:/temp/dataset/3/18_5.odb,Step-1,Increment      1: Step Time =    1.000,"PART-1-1",            30,           7.5,           30.,            0.,NA,NA,"",       9.99055,       9.97651,  -529.459E-03,   1.75513E-06
C:/temp/dataset/3/18_5.odb,Step-1,Increment      1: Step Time =    1.000,"PART-1-1",            31,            0.,           30.,            0.,NA,NA,"",       10.2158,       10.1562,       1.10215,   1.20211E-06
C:/temp/dataset/3/18_5.odb,Step-1,Increment      1: Step Time =    1.000,"PART-1-1",            32,          -7.5,           30.,            0.,NA,NA,"",       10.6912,       10.3358,       2.73378,   11.0954E-09
C:/temp/dataset/3/18_5.odb,Step-1,Increment      1: Step Time =    1.000,"PART-1-1",            33,          -15.,           30.,            0.,NA,NA,"",       11.3856,       10.5154,       4.36542,   555.551E-12
C:/temp/dataset/3/18_5.odb,Step-1,Increment      1: Step Time =    1.000,"PART-1-1",            34,          -15.,          22.5,            0.,NA,NA,"",       9.97894,       8.88379,       4.54505,   3.52672E-09
C:/temp/dataset/3/18_5.odb,Step-1,Increment      1: Step Time =    1.000,"PART-1-1",            35,          -7.5,           20.,            0.,NA,NA,"",       8.68508,       8.16028,       2.97329,   21.4657E-09
C:/temp/dataset/3/18_5.odb,Step-1,Increment      1: Step Time =    1.000,"PART-1-1",            36,          -10.,           20.,            0.,NA,NA,"",       8.94100,       8.22015,       3.51717,   12.3543E-09
C:/temp/dataset/3/18_5.odb,Step-1,Increment      1: Step Time =    1.000,"PART-1-1",            37,         -12.5,           20.,            0.,NA,NA,"",       9.22231,       8.28003,       4.06105,   4.65903E-09
C:/temp/dataset/3/18_5.odb,Step-1,Increment      1: Step Time =    1.000,"PART-1-1",            38,           2.5,           20.,            0.,NA,NA,"",       7.96083,       7.92076,   797.778E-03,   11.2297E-06
C:/temp/dataset/3/18_5.odb,Step-1,Increment      1: Step Time =    1.000,"PART-1-1",            39,            0.,           20.,            0.,NA,NA,"",       8.09263,       7.98064,       1.34166,   2.80220E-06
C:/temp/dataset/3/18_5.odb,Step-1,Increment      1: Step Time =    1.000,"PART-1-1",            40,          -2.5,           20.,            0.,NA,NA,"",       8.25865,       8.04052,       1.88554,   469.879E-09
C:/temp/dataset/3/18_5.odb,Step-1,Increment      1: Step Time =    1.000,"PART-1-1",            41,            5.,           15.,            0.,NA,NA,"",       6.78406,       6.77385,   371.989E-03,   1.02020E-03
C:/temp/dataset/3/18_5.odb,Step-1,Increment      1: Step Time =    1.000,"PART-1-1",            42,            5.,          17.5,            0.,NA,NA,"",       7.32367,       7.31697,   313.242E-03,   314.148E-06
C:/temp/dataset/3/18_5.odb,Step-1,Increment      1: Step Time =    1.000,"PART-1-1",            43,            5.,           7.5,            0.,NA,NA,"",       5.16775,       5.13913,   543.060E-03,   8.00216E-03
C:/temp/dataset/3/18_5.odb,Step-1,Increment      1: Step Time =    1.000,"PART-1-1",            44,            5.,           10.,            0.,NA,NA,"",       5.71624,       5.69554,   486.116E-03,   4.87764E-03
C:/temp/dataset/3/18_5.odb,Step-1,Increment      1: Step Time =    1.000,"PART-1-1",            45,   533.333E-03,            5.,            0.,NA,NA,"",       4.88859,       4.65210,       1.50209,   1.62538E-03
C:/temp/dataset/3/18_5.odb,Step-1,Increment      1: Step Time =    1.000,"PART-1-1",            46,       2.76667,            5.,            0.,NA,NA,"",       4.71534,       4.59991,       1.03693,   2.46868E-03
C:/temp/dataset/3/18_5.odb,Step-1,Increment      1: Step Time =    1.000,"PART-1-1",            47,      -6.16667,            5.,            0.,NA,NA,"",       5.62538,       4.80749,       2.92112,   99.1864E-06
C:/temp/dataset/3/18_5.odb,Step-1,Increment      1: Step Time =    1.000,"PART-1-1",            48,      -3.93333,            5.,            0.,NA,NA,"",       5.34875,       4.75619,       2.44699,   333.719E-06
C:/temp/dataset/3/18_5.odb,Step-1,Increment      1: Step Time =    1.000,"PART-1-1",            49,      -12.8000,            5.,            0.,NA,NA,"",       6.58299,       4.95887,       4.32959,   1.89773E-06
C:/temp/dataset/3/18_5.odb,Step-1,Increment      1: Step Time =    1.000,"PART-1-1",            50,      -10.6000,            5.,            0.,NA,NA,"",       6.24614,       4.90871,       3.86249,   2.05234E-06
C:/temp/dataset/3/18_5.odb,Step-1,Increment      1: Step Time =    1.000,"PART-1-1",            51,          -15.,           2.5,            0.,NA,NA,"",       6.60400,       4.47824,       4.85368,   2.14785E-06
C:/temp/dataset/3/18_5.odb,Step-1,Increment      1: Step Time =    1.000,"PART-1-1",            52,          -15.,          -2.5,            0.,NA,NA,"",       6.02922,       3.41671,       4.96765,   2.12619E-06
C:/temp/dataset/3/18_5.odb,Step-1,Increment      1: Step Time =    1.000,"PART-1-1",            53,      -10.5333,           -5.,            0.,NA,NA,"",       4.93643,       2.78415,       4.07638,   1.39312E-06
C:/temp/dataset/3/18_5.odb,Step-1,Increment      1: Step Time =    1.000,"PART-1-1",            54,      -12.7667,           -5.,            0.,NA,NA,"",       5.36140,       2.83505,       4.55050,   1.71906E-06
C:/temp/dataset/3/18_5.odb,Step-1,Increment      1: Step Time =    1.000,"PART-1-1",            55,      -3.83333,           -5.,            0.,NA,NA,"",       3.73723,       2.63091,       2.65427,   358.610E-06
C:/temp/dataset/3/18_5.odb,Step-1,Increment      1: Step Time =    1.000,"PART-1-1",            56,      -6.06667,           -5.,            0.,NA,NA,"",       4.12074,       2.68223,       3.12828,   98.4763E-06
C:/temp/dataset/3/18_5.odb,Step-1,Increment      1: Step Time =    1.000,"PART-1-1",            57,       2.80000,           -5.,            0.,NA,NA,"",       2.75997,       2.46876,       1.23396,   7.00942E-03
C:/temp/dataset/3/18_5.odb,Step-1,Increment      1: Step Time =    1.000,"PART-1-1",            58,   600.000E-03,           -5.,            0.,NA,NA,"",       3.05057,       2.52576,       1.71071,   2.12230E-03
C:/temp/dataset/3/18_5.odb,Step-1,Increment      1: Step Time =    1.000,"PART-1-1",            59,            5.,          -10.,            0.,NA,NA,"",       1.61462,       1.48879,   624.904E-03,   42.1478E-03
C:/temp/dataset/3/18_5.odb,Step-1,Increment      1: Step Time =    1.000,"PART-1-1",            60,            5.,          -7.5,            0.,NA,NA,"",       2.04705,       1.93274,   674.483E-03,   38.2404E-03
C:/temp/dataset/3/18_5.odb,Step-1,Increment      1: Step Time =    1.000,"PART-1-1",            61,            5.,         -17.5,            0.,NA,NA,"",   564.571E-03,   435.273E-03,   359.552E-03,   63.1296E-03
C:/temp/dataset/3/18_5.odb,Step-1,Increment      1: Step Time =    1.000,"PART-1-1",            62,            5.,          -15.,            0.,NA,NA,"",   871.864E-03,   737.712E-03,   464.680E-03,   51.5261E-03
C:/temp/dataset/3/18_5.odb,Step-1,Increment      1: Step Time =    1.000,"PART-1-1",            63,          -2.5,          -20.,            0.,NA,NA,"",   49.1623E-03,   48.9487E-03,   4.57700E-03,   2.71025E-03
C:/temp/dataset/3/18_5.odb,Step-1,Increment      1: Step Time =    1.000,"PART-1-1",            64,            0.,          -20.,            0.,NA,NA,"",   60.1918E-03,   56.1635E-03,   21.6498E-03,   4.83098E-03
C:/temp/dataset/3/18_5.odb,Step-1,Increment      1: Step Time =    1.000,"PART-1-1",            65,           2.5,          -20.,            0.,NA,NA,"",   92.4319E-03,   69.6525E-03,   60.7633E-03,   25.7759E-03
C:/temp/dataset/3/18_5.odb,Step-1,Increment      1: Step Time =    1.000,"PART-1-1",            66,         -12.5,          -20.,            0.,NA,NA,"",   44.0129E-03,   43.7404E-03,   4.88986E-03,   191.427E-06
C:/temp/dataset/3/18_5.odb,Step-1,Increment      1: Step Time =    1.000,"PART-1-1",            67,          -10.,          -20.,            0.,NA,NA,"",   43.3796E-03,   43.3788E-03,  -259.420E-06,   51.6806E-06
C:/temp/dataset/3/18_5.odb,Step-1,Increment      1: Step Time =    1.000,"PART-1-1",            68,          -7.5,          -20.,            0.,NA,NA,"",   43.9161E-03,   43.8295E-03,  -2.75771E-03,   507.234E-06
C:/temp/dataset/3/18_5.odb,Step-1,Increment      1: Step Time =    1.000,"PART-1-1",            69,          -15.,         -22.5,            0.,NA,NA,"",   38.8194E-03,   36.9568E-03,   11.8802E-03,   184.797E-06
C:/temp/dataset/3/18_5.odb,Step-1,Increment      1: Step Time =    1.000,"PART-1-1",            70,          -15.,         -27.5,            0.,NA,NA,"",   18.7503E-03,   15.7233E-03,   10.2153E-03,   2.50100E-03
C:/temp/dataset/3/18_5.odb,Step-1,Increment      1: Step Time =    1.000,"PART-1-1",            71,          12.5,          -30.,            0.,NA,NA,"",            0.,   13.3558E-39,  -58.8062E-39,   18.9198E-03
C:/temp/dataset/3/18_5.odb,Step-1,Increment      1: Step Time =    1.000,"PART-1-1",            72,           10.,          -30.,            0.,NA,NA,"",            0.,  -29.2575E-39,  -37.3030E-39,   12.5602E-03
C:/temp/dataset/3/18_5.odb,Step-1,Increment      1: Step Time =    1.000,"PART-1-1",            73,           7.5,          -30.,            0.,NA,NA,"",            0.,  -11.9155E-39,   3.02226E-39,   7.78678E-03
C:/temp/dataset/3/18_5.odb,Step-1,Increment      1: Step Time =    1.000,"PART-1-1",            74,            5.,          -30.,            0.,NA,NA,"",            0.,  -8.58264E-39,   30.0599E-39,   7.99810E-03
C:/temp/dataset/3/18_5.odb,Step-1,Increment      1: Step Time =    1.000,"PART-1-1",            75,           2.5,          -30.,            0.,NA,NA,"",            0.,   1.49066E-39,   24.4092E-39,   10.0386E-03
C:/temp/dataset/3/18_5.odb,Step-1,Increment      1: Step Time =    1.000,"PART-1-1",            76,            0.,          -30.,            0.,NA,NA,"",            0.,   7.79509E-39,   13.1633E-39,   10.2620E-03
C:/temp/dataset/3/18_5.odb,Step-1,Increment      1: Step Time =    1.000,"PART-1-1",            77,          -2.5,          -30.,            0.,NA,NA,"",            0.,   20.4443E-39,   25.0663E-39,   8.87346E-03
C:/temp/dataset/3/18_5.odb,Step-1,Increment      1: Step Time =    1.000,"PART-1-1",            78,           -5.,          -30.,            0.,NA,NA,"",            0.,   9.55228E-39,  -789.330E-42,   7.09844E-03
C:/temp/dataset/3/18_5.odb,Step-1,Increment      1: Step Time =    1.000,"PART-1-1",            79,          -7.5,          -30.,            0.,NA,NA,"",            0.,   8.02345E-39,  -2.41899E-39,   5.49988E-03
C:/temp/dataset/3/18_5.odb,Step-1,Increment      1: Step Time =    1.000,"PART-1-1",            80,          -10.,          -30.,            0.,NA,NA,"",            0.,   9.57439E-39,   9.94949E-39,   4.34046E-03
C:/temp/dataset/3/18_5.odb,Step-1,Increment      1: Step Time =    1.000,"PART-1-1",            81,         -12.5,          -30.,            0.,NA,NA,"",            0.,   8.93781E-39,   9.38286E-39,   3.23662E-03
C:/temp/dataset/3/18_5.odb,Step-1,Increment      1: Step Time =    1.000,"PART-1-1",            82,           15.,          -25.,            0.,NA,NA,"",   169.236E-03,   53.2054E-03,  -160.655E-03,   43.3817E-03
C:/temp/dataset/3/18_5.odb,Step-1,Increment      1: Step Time =    1.000,"PART-1-1",            83,           15.,         -27.5,            0.,NA,NA,"",   77.3193E-03,   26.5620E-03,  -72.6136E-03,   37.1164E-03
C:/temp/dataset/3/18_5.odb,Step-1,Increment      1: Step Time =    1.000,"PART-1-1",            84,           15.,         -17.5,            0.,NA,NA,"",   677.285E-03,   419.613E-03,  -531.639E-03,   57.0752E-03
C:/temp/dataset/3/18_5.odb,Step-1,Increment      1: Step Time =    1.000,"PART-1-1",            85,           15.,          -20.,            0.,NA,NA,"",   458.796E-03,   234.670E-03,  -394.238E-03,   56.4286E-03
C:/temp/dataset/3/18_5.odb,Step-1,Increment      1: Step Time =    1.000,"PART-1-1",            86,           15.,          -10.,            0.,NA,NA,"",       1.65445,       1.36385,  -936.544E-03,   42.1460E-03
C:/temp/dataset/3/18_5.odb,Step-1,Increment      1: Step Time =    1.000,"PART-1-1",            87,           15.,         -12.5,            0.,NA,NA,"",       1.27775,   991.323E-03,  -806.177E-03,   48.0662E-03
C:/temp/dataset/3/18_5.odb,Step-1,Increment      1: Step Time =    1.000,"PART-1-1",            88,           15.,          -2.5,            0.,NA,NA,"",       3.02898,       2.74314,      -1.28449,   21.3836E-03
C:/temp/dataset/3/18_5.odb,Step-1,Increment      1: Step Time =    1.000,"PART-1-1",            89,           15.,           -5.,            0.,NA,NA,"",       2.53747,       2.24755,      -1.17782,   28.4835E-03
C:/temp/dataset/3/18_5.odb,Step-1,Increment      1: Step Time =    1.000,"PART-1-1",            90,           15.,            5.,            0.,NA,NA,"",       4.60547,       4.33844,      -1.54540,   6.23465E-03
C:/temp/dataset/3/18_5.odb,Step-1,Increment      1: Step Time =    1.000,"PART-1-1",            91,           15.,           2.5,            0.,NA,NA,"",       4.06880,       3.79530,      -1.46656,   10.3166E-03
C:/temp/dataset/3/18_5.odb,Step-1,Increment      1: Step Time =    1.000,"PART-1-1",            92,           15.,          12.5,            0.,NA,NA,"",       6.23521,       5.98652,      -1.74340,   219.477E-06
C:/temp/dataset/3/18_5.odb,Step-1,Increment      1: Step Time =    1.000,"PART-1-1",            93,           15.,           10.,            0.,NA,NA,"",       5.69199,       5.43770,      -1.68233,   709.213E-06
C:/temp/dataset/3/18_5.odb,Step-1,Increment      1: Step Time =    1.000,"PART-1-1",            94,           15.,           20.,            0.,NA,NA,"",       7.86010,       7.62157,      -1.92166,   88.0207E-06
C:/temp/dataset/3/18_5.odb,Step-1,Increment      1: Step Time =    1.000,"PART-1-1",            95,           15.,          17.5,            0.,NA,NA,"",       7.31844,       7.07758,      -1.86210,   236.108E-06
C:/temp/dataset/3/18_5.odb,Step-1,Increment      1: Step Time =    1.000,"PART-1-1",            96,           15.,          27.5,            0.,NA,NA,"",       9.48861,       9.25305,      -2.10113,   804.847E-09
C:/temp/dataset/3/18_5.odb,Step-1,Increment      1: Step Time =    1.000,"PART-1-1",            97,           15.,           25.,            0.,NA,NA,"",       8.94524,       8.70922,      -2.04127,   2.71159E-06
C:/temp/dataset/3/18_5.odb,Step-1,Increment      1: Step Time =    1.000,"PART-1-1",            98,           10.,           30.,            0.,NA,NA,"",       9.97455,       9.91664,      -1.07331,   896.367E-09
C:/temp/dataset/3/18_5.odb,Step-1,Increment      1: Step Time =    1.000,"PART-1-1",            99,          12.5,           30.,            0.,NA,NA,"",       9.98855,       9.85677,      -1.61716,   766.671E-09
C:/temp/dataset/3/18_5.odb,Step-1,Increment      1: Step Time =    1.000,"PART-1-1",           100,           2.5,           30.,            0.,NA,NA,"",       10.1117,       10.0963,   558.270E-03,   2.29248E-06
C:/temp/dataset/3/18_5.odb,Step-1,Increment      1: Step Time =    1.000,"PART-1-1",           101,            5.,           30.,            0.,NA,NA,"",       10.0364,       10.0364,   14.4014E-03,   2.68632E-06
C:/temp/dataset/3/18_5.odb,Step-1,Increment      1: Step Time =    1.000,"PART-1-1",           102,           -5.,           30.,            0.,NA,NA,"",       10.5067,       10.2759,       2.18990,   76.3146E-09
C:/temp/dataset/3/18_5.odb,Step-1,Increment      1: Step Time =    1.000,"PART-1-1",           103,          -2.5,           30.,            0.,NA,NA,"",       10.3478,       10.2160,       1.64602,   402.041E-09
C:/temp/dataset/3/18_5.odb,Step-1,Increment      1: Step Time =    1.000,"PART-1-1",           104,         -12.5,           30.,            0.,NA,NA,"",       11.1321,       10.4555,       3.82154,   4.13816E-09
C:/temp/dataset/3/18_5.odb,Step-1,Increment      1: Step Time =    1.000,"PART-1-1",           105,          -10.,           30.,            0.,NA,NA,"",       10.9001,       10.3957,       3.27766,   12.2604E-09
C:/temp/dataset/3/18_5.odb,Step-1,Increment      1: Step Time =    1.000,"PART-1-1",           106,          -15.,          27.5,            0.,NA,NA,"",       10.9094,       9.97155,       4.42530,   3.47375E-09
C:/temp/dataset/3/18_5.odb,Step-1,Increment      1: Step Time =    1.000,"PART-1-1",           107,      -12.5013,       25.0052,            0.,NA,NA,"",       10.1643,       9.36895,       3.94146,   3.00926E-09
C:/temp/dataset/3/18_5.odb,Step-1,Increment      1: Step Time =    1.000,"PART-1-1",           108,      -10.0028,       27.5014,            0.,NA,NA,"",       10.4023,       9.85216,       3.33811,   4.85543E-09
C:/temp/dataset/3/18_5.odb,Step-1,Increment      1: Step Time =    1.000,"PART-1-1",           109,      -2.49865,       22.5268,            0.,NA,NA,"",       8.78187,       8.59021,       1.82472,   679.931E-09
C:/temp/dataset/3/18_5.odb,Step-1,Increment      1: Step Time =    1.000,"PART-1-1",           110,      -2.51000,       27.5279,            0.,NA,NA,"",       9.82792,       9.67847,       1.70741,   576.127E-09
C:/temp/dataset/3/18_5.odb,Step-1,Increment      1: Step Time =    1.000,"PART-1-1",           111,       12.3864,       22.5464,            0.,NA,NA,"",       8.35854,       8.23808,      -1.41394,   37.9327E-06
C:/temp/dataset/3/18_5.odb,Step-1,Increment      1: Step Time =    1.000,"PART-1-1",           112,       7.35369,       17.5509,            0.,NA,NA,"",       7.27442,       7.27169,  -199.342E-03,   190.058E-06
C:/temp/dataset/3/18_5.odb,Step-1,Increment      1: Step Time =    1.000,"PART-1-1",           113,       12.3201,       14.9467,            0.,NA,NA,"",       6.69756,       6.58601,      -1.21727,   137.231E-06
C:/temp/dataset/3/18_5.odb,Step-1,Increment      1: Step Time =    1.000,"PART-1-1",           114,       13.2599,       7.39194,            0.,NA,NA,"",       5.05609,       4.90346,      -1.23294,   3.99288E-03
C:/temp/dataset/3/18_5.odb,Step-1,Increment      1: Step Time =    1.000,"PART-1-1",           115,       7.60504,      -5.98204,            0.,NA,NA,"",       2.16363,       2.15313,   212.921E-03,   15.2732E-03
C:/temp/dataset/3/18_5.odb,Step-1,Increment      1: Step Time =    1.000,"PART-1-1",           116,       7.71062,      -13.7665,            0.,NA,NA,"",   854.183E-03,   837.174E-03,   169.609E-03,   25.3813E-03
C:/temp/dataset/3/18_5.odb,Step-1,Increment      1: Step Time =    1.000,"PART-1-1",           117,       11.7208,      -22.4938,            0.,NA,NA,"",   138.668E-03,   66.2196E-03,  -121.835E-03,   23.0256E-03
C:/temp/dataset/3/18_5.odb,Step-1,Increment      1: Step Time =    1.000,"PART-1-1",           118,       2.59328,       2.74806,            0.,NA,NA,"",       4.27919,       4.12996,       1.12026,   4.60852E-03
C:/temp/dataset/3/18_5.odb,Step-1,Increment      1: Step Time =    1.000,"PART-1-1",           119,      -1.32361,      -2.98462,            0.,NA,NA,"",       3.64950,       3.00201,       2.07527,   420.444E-06
C:/temp/dataset/3/18_5.odb,Step-1,Increment      1: Step Time =    1.000,"PART-1-1",           120,      -6.00563,       3.11026,            0.,NA,NA,"",       5.28849,       4.40268,       2.92994,   142.727E-06
C:/temp/dataset/3/18_5.odb,Step-1,Increment      1: Step Time =    1.000,"PART-1-1",           121,      -10.4102,       2.53863,            0.,NA,NA,"",       5.85162,       4.38180,       3.87831,   17.2703E-06
C:/temp/dataset/3/18_5.odb,Step-1,Increment      1: Step Time =    1.000,"PART-1-1",           122,      -12.6184,  -43.2983E-03,            0.,NA,NA,"",       5.87354,       3.88399,       4.40603,   4.37006E-06
C:/temp/dataset/3/18_5.odb,Step-1,Increment      1: Step Time =    1.000,"PART-1-1",           123,      -3.88272,       3.23189,            0.,NA,NA,"",       5.03158,       4.38001,       2.47634,   279.665E-06
C:/temp/dataset/3/18_5.odb,Step-1,Increment      1: Step Time =    1.000,"PART-1-1",           124,       2.98144,      -22.7363,            0.,NA,NA,"",   103.465E-03,   77.4187E-03,   68.6395E-03,   30.7501E-03
C:/temp/dataset/3/18_5.odb,Step-1,Increment      1: Step Time =    1.000,"PART-1-1",           125,      -2.42987,      -22.6294,            0.,NA,NA,"",   53.9503E-03,   53.2550E-03,   8.63374E-03,   5.65990E-03
C:/temp/dataset/3/18_5.odb,Step-1,Increment      1: Step Time =    1.000,"PART-1-1",           126,      -9.97348,      -22.5672,            0.,NA,NA,"",   37.9886E-03,   37.9881E-03,   176.389E-06,   1.29281E-03
C:/temp/dataset/3/18_5.odb,Step-1,Increment      1: Step Time =    1.000,"PART-1-1",           127,      -12.4895,      -25.0402,            0.,NA,NA,"",   27.8897E-03,   27.5689E-03,   4.21783E-03,   1.78109E-03
C:/temp/dataset/3/18_5.odb,Step-1,Increment      1: Step Time =    1.000,"PART-1-1",           128,       12.8561,      -14.2595,            0.,NA,NA,"",   860.444E-03,   738.602E-03,  -441.397E-03,   29.3514E-03
C:/temp/dataset/3/18_5.odb,Step-1,Increment      1: Step Time =    1.000,"PART-1-1",           129,       12.7281,      -7.33650,            0.,NA,NA,"",       1.93816,       1.82267,  -659.054E-03,   20.9090E-03
C:/temp/dataset/3/18_5.odb,Step-1,Increment      1: Step Time =    1.000,"PART-1-1",           130,       12.6427,  -96.8002E-03,            0.,NA,NA,"",       3.39753,       3.28094,  -882.408E-03,   11.4129E-03
C:/temp/dataset/3/18_5.odb,Step-1,Increment      1: Step Time =    1.000,"PART-1-1",           131,       7.13014,       10.3328,            0.,NA,NA,"",       5.70916,       5.70914,   16.1611E-03,   5.75511E-03
C:/temp/dataset/3/18_5.odb,Step-1,Increment      1: Step Time =    1.000,"PART-1-1",           132,       4.95005,       27.5805,            0.,NA,NA,"",       9.51160,       9.51124,   83.2120E-03,   1.16663E-06
C:/temp/dataset/3/18_5.odb,Step-1,Increment      1: Step Time =    1.000,"PART-1-1",           133,      -4.99957,       22.5148,            0.,NA,NA,"",       8.96614,       8.64749,       2.36909,   190.162E-09
C:/temp/dataset/3/18_5.odb,Step-1,Increment      1: Step Time =    1.000,"PART-1-1",           134,      -7.50186,       22.5094,            0.,NA,NA,"",       9.18084,       8.70625,       2.91360,   40.1105E-09
C:/temp/dataset/3/18_5.odb,Step-1,Increment      1: Step Time =    1.000,"PART-1-1",           135,       4.93744,       22.5898,            0.,NA,NA,"",       8.42832,       8.42581,   205.474E-03,   13.5591E-06
C:/temp/dataset/3/18_5.odb,Step-1,Increment      1: Step Time =    1.000,"PART-1-1",           136,       2.47758,       22.5593,            0.,NA,NA,"",       8.51044,       8.47809,   741.359E-03,   5.81216E-06
C:/temp/dataset/3/18_5.odb,Step-1,Increment      1: Step Time =    1.000,"PART-1-1",           137,  -4.46696E-03,       22.5388,            0.,NA,NA,"",       8.62880,       8.53306,       1.28182,   1.75949E-06
C:/temp/dataset/3/18_5.odb,Step-1,Increment      1: Step Time =    1.000,"PART-1-1",           138,       7.20686,       12.6699,            0.,NA,NA,"",       6.21686,       6.21664,  -51.7991E-03,   2.38937E-03
C:/temp/dataset/3/18_5.odb,Step-1,Increment      1: Step Time =    1.000,"PART-1-1",           139,       7.30679,       15.0771,            0.,NA,NA,"",       6.73643,       6.73518,  -129.811E-03,   454.957E-06
C:/temp/dataset/3/18_5.odb,Step-1,Increment      1: Step Time =    1.000,"PART-1-1",           140,       7.52839,       5.66323,            0.,NA,NA,"",       4.65370,       4.65358,   34.0274E-03,   7.83000E-03
C:/temp/dataset/3/18_5.odb,Step-1,Increment      1: Step Time =    1.000,"PART-1-1",           141,       7.20823,       7.96221,            0.,NA,NA,"",       5.18005,       5.17979,   51.6710E-03,   8.45358E-03
C:/temp/dataset/3/18_5.odb,Step-1,Increment      1: Step Time =    1.000,"PART-1-1",           142,      -1.77433,       3.17490,            0.,NA,NA,"",       4.77302,       4.31971,       2.03023,   400.641E-06
C:/temp/dataset/3/18_5.odb,Step-1,Increment      1: Step Time =    1.000,"PART-1-1",           143,   347.975E-03,       3.01142,            0.,NA,NA,"",       4.52400,       4.23729,       1.58492,   715.269E-06
C:/temp/dataset/3/18_5.odb,Step-1,Increment      1: Step Time =    1.000,"PART-1-1",           144,      -8.17775,       2.85153,            0.,NA,NA,"",       5.55671,       4.39733,       3.39713,   56.9160E-06
C:/temp/dataset/3/18_5.odb,Step-1,Increment      1: Step Time =    1.000,"PART-1-1",           145,      -8.45397,      -3.03463,            0.,NA,NA,"",       4.77882,       3.15400,       3.59018,   46.4710E-06
C:/temp/dataset/3/18_5.odb,Step-1,Increment      1: Step Time =    1.000,"PART-1-1",           146,      -12.6978,       2.46856,            0.,NA,NA,"",       6.21183,       4.41908,       4.36561,   2.43305E-06
C:/temp/dataset/3/18_5.odb,Step-1,Increment      1: Step Time =    1.000,"PART-1-1",           147,      -10.5225,      -2.72745,            0.,NA,NA,"",       5.18148,       3.26636,       4.02227,   15.5370E-06
C:/temp/dataset/3/18_5.odb,Step-1,Increment      1: Step Time =    1.000,"PART-1-1",           148,      -12.7265,      -2.55241,            0.,NA,NA,"",       5.60121,       3.35376,       4.48619,   2.27874E-06
C:/temp/dataset/3/18_5.odb,Step-1,Increment      1: Step Time =    1.000,"PART-1-1",           149,      -3.80700,      -2.48494,            0.,NA,NA,"",       4.09049,       3.16500,       2.59131,   307.075E-06
C:/temp/dataset/3/18_5.odb,Step-1,Increment      1: Step Time =    1.000,"PART-1-1",           150,      -6.26959,      -2.94549,            0.,NA,NA,"",       4.41778,       3.12315,       3.12453,   132.182E-06
C:/temp/dataset/3/18_5.odb,Step-1,Increment      1: Step Time =    1.000,"PART-1-1",           151,       2.97297,      -3.34056,            0.,NA,NA,"",       3.05484,       2.82540,       1.16155,   6.46310E-03
C:/temp/dataset/3/18_5.odb,Step-1,Increment      1: Step Time =    1.000,"PART-1-1",           152,   836.982E-03,      -3.21922,            0.,NA,NA,"",       3.32378,       2.90247,       1.61962,   1.13138E-03
C:/temp/dataset/3/18_5.odb,Step-1,Increment      1: Step Time =    1.000,"PART-1-1",           153,       7.27849,      -10.7647,            0.,NA,NA,"",       1.32563,       1.29975,   260.665E-03,   25.8026E-03
C:/temp/dataset/3/18_5.odb,Step-1,Increment      1: Step Time =    1.000,"PART-1-1",           154,       7.20650,      -8.25133,            0.,NA,NA,"",       1.75785,       1.73443,   285.967E-03,   22.4687E-03
C:/temp/dataset/3/18_5.odb,Step-1,Increment      1: Step Time =    1.000,"PART-1-1",           155,       7.07274,      -17.3233,            0.,NA,NA,"",   446.909E-03,   411.662E-03,   173.959E-03,   39.7473E-03
C:/temp/dataset/3/18_5.odb,Step-1,Increment      1: Step Time =    1.000,"PART-1-1",           156,       6.55788,      -15.2577,            0.,NA,NA,"",   717.840E-03,   663.062E-03,   275.031E-03,   41.4768E-03
C:/temp/dataset/3/18_5.odb,Step-1,Increment      1: Step Time =    1.000,"PART-1-1",           157,      -7.46685,      -22.5818,            0.,NA,NA,"",   40.7968E-03,   40.7697E-03,  -1.48734E-03,   2.19504E-03
C:/temp/dataset/3/18_5.odb,Step-1,Increment      1: Step Time =    1.000,"PART-1-1",           158,      -4.95694,      -22.5955,            0.,NA,NA,"",   45.8379E-03,   45.8342E-03,   580.052E-06,   3.50863E-03
C:/temp/dataset/3/18_5.odb,Step-1,Increment      1: Step Time =    1.000,"PART-1-1",           159,   146.162E-03,      -22.6598,            0.,NA,NA,"",   72.6495E-03,   66.8515E-03,   28.4399E-03,   12.6579E-03
C:/temp/dataset/3/18_5.odb,Step-1,Increment      1: Step Time =    1.000,"PART-1-1",           160,      -12.4860,      -22.5306,            0.,NA,NA,"",   37.3155E-03,   37.0033E-03,   4.81722E-03,   410.232E-06
C:/temp/dataset/3/18_5.odb,Step-1,Increment      1: Step Time =    1.000,"PART-1-1",           161,       9.96020,      -27.7814,            0.,NA,NA,"",   20.6362E-03,  -17.1399E-03,  -11.4925E-03,   9.06469E-03
C:/temp/dataset/3/18_5.odb,Step-1,Increment      1: Step Time =    1.000,"PART-1-1",           162,       7.44077,      -27.8946,            0.,NA,NA,"",   13.5715E-03,  -9.84324E-03,   9.34317E-03,   9.07270E-03
C:/temp/dataset/3/18_5.odb,Step-1,Increment      1: Step Time =    1.000,"PART-1-1",           163,       4.93217,      -27.8625,            0.,NA,NA,"",   19.7134E-03,   5.69971E-03,   18.8714E-03,   13.6306E-03
C:/temp/dataset/3/18_5.odb,Step-1,Increment      1: Step Time =    1.000,"PART-1-1",           164,       2.47767,      -27.7470,            0.,NA,NA,"",   26.6818E-03,   19.5718E-03,   18.1346E-03,   13.2578E-03
C:/temp/dataset/3/18_5.odb,Step-1,Increment      1: Step Time =    1.000,"PART-1-1",           165,   19.5837E-03,      -27.6625,            0.,NA,NA,"",   28.3115E-03,   25.6597E-03,   11.9634E-03,   10.5602E-03
C:/temp/dataset/3/18_5.odb,Step-1,Increment      1: Step Time =    1.000,"PART-1-1",           166,      -2.46955,      -27.6154,            0.,NA,NA,"",   26.0728E-03,   25.3248E-03,   6.20053E-03,   7.99477E-03
C:/temp/dataset/3/18_5.odb,Step-1,Increment      1: Step Time =    1.000,"PART-1-1",           167,      -4.97450,      -27.5844,            0.,NA,NA,"",   22.1800E-03,   22.0256E-03,   2.61219E-03,   6.12628E-03
C:/temp/dataset/3/18_5.odb,Step-1,Increment      1: Step Time =    1.000,"PART-1-1",           168,      -7.48283,      -27.5594,            0.,NA,NA,"",   18.4370E-03,   18.4050E-03,   1.08481E-03,   4.87115E-03
C:/temp/dataset/3/18_5.odb,Step-1,Increment      1: Step Time =    1.000,"PART-1-1",           169,       12.2865,      -25.1793,            0.,NA,NA,"",   89.6111E-03,   10.5444E-03,  -88.9886E-03,   25.4316E-03
C:/temp/dataset/3/18_5.odb,Step-1,Increment      1: Step Time =    1.000,"PART-1-1",           170,       11.6753,      -16.4340,            0.,NA,NA,"",   541.723E-03,   480.647E-03,  -249.886E-03,   19.7320E-03
C:/temp/dataset/3/18_5.odb,Step-1,Increment      1: Step Time =    1.000,"PART-1-1",           171,       11.9685,      -19.5802,            0.,NA,NA,"",   291.434E-03,   211.564E-03,  -200.436E-03,   24.5472E-03
C:/temp/dataset/3/18_5.odb,Step-1,Increment      1: Step Time =    1.000,"PART-1-1",           172,       13.3291,      -9.93034,            0.,NA,NA,"",       1.52388,       1.37083,  -665.600E-03,   28.0233E-03
C:/temp/dataset/3/18_5.odb,Step-1,Increment      1: Step Time =    1.000,"PART-1-1",           173,       13.4212,      -12.1607,            0.,NA,NA,"",       1.18573,       1.02682,  -592.954E-03,   32.2085E-03
C:/temp/dataset/3/18_5.odb,Step-1,Increment      1: Step Time =    1.000,"PART-1-1",           174,       12.9633,      -2.52247,            0.,NA,NA,"",       2.89835,       2.76506,  -868.822E-03,   15.3743E-03
C:/temp/dataset/3/18_5.odb,Step-1,Increment      1: Step Time =    1.000,"PART-1-1",           175,       13.1247,      -4.84738,            0.,NA,NA,"",       2.43479,       2.29278,  -819.354E-03,   19.6658E-03
C:/temp/dataset/3/18_5.odb,Step-1,Increment      1: Step Time =    1.000,"PART-1-1",           176,       13.1131,       5.12757,            0.,NA,NA,"",       4.55163,       4.40705,      -1.13808,   6.09396E-03
C:/temp/dataset/3/18_5.odb,Step-1,Increment      1: Step Time =    1.000,"PART-1-1",           177,       12.1418,       2.60140,            0.,NA,NA,"",       3.96750,       3.87350,  -858.506E-03,   8.24956E-03
C:/temp/dataset/3/18_5.odb,Step-1,Increment      1: Step Time =    1.000,"PART-1-1",           178,       12.1760,       12.1629,            0.,NA,NA,"",       6.08487,       5.98115,      -1.11867,   1.11844E-03
C:/temp/dataset/3/18_5.odb,Step-1,Increment      1: Step Time =    1.000,"PART-1-1",           179,       13.0236,       9.64002,            0.,NA,NA,"",       5.54613,       5.40561,      -1.24052,   2.42143E-03
C:/temp/dataset/3/18_5.odb,Step-1,Increment      1: Step Time =    1.000,"PART-1-1",           180,       12.3784,       20.0377,            0.,NA,NA,"",       7.81053,       7.69261,      -1.35210,   100.474E-06
C:/temp/dataset/3/18_5.odb,Step-1,Increment      1: Step Time =    1.000,"PART-1-1",           181,       12.3660,       17.5135,            0.,NA,NA,"",       7.25915,       7.14381,      -1.28889,   170.497E-06
C:/temp/dataset/3/18_5.odb,Step-1,Increment      1: Step Time =    1.000,"PART-1-1",           182,       12.4264,       25.0333,            0.,NA,NA,"",       8.90234,       8.77809,      -1.48220,   10.1779E-06
C:/temp/dataset/3/18_5.odb,Step-1,Increment      1: Step Time =    1.000,"PART-1-1",           183,       7.43491,       27.5684,            0.,NA,NA,"",       9.46014,       9.44909,  -457.063E-03,   2.81766E-06
C:/temp/dataset/3/18_5.odb,Step-1,Increment      1: Step Time =    1.000,"PART-1-1",           184,  -17.4965E-03,       27.5503,            0.,NA,NA,"",       9.69385,       9.62364,       1.16462,   1.00948E-06
C:/temp/dataset/3/18_5.odb,Step-1,Increment      1: Step Time =    1.000,"PART-1-1",           185,       2.47067,       27.5656,            0.,NA,NA,"",       9.58764,       9.56738,   622.954E-03,   1.00049E-06
C:/temp/dataset/3/18_5.odb,Step-1,Increment      1: Step Time =    1.000,"PART-1-1",           186,      -7.50286,       27.5043,            0.,NA,NA,"",       10.1838,       9.79292,       2.79418,   39.0971E-09
C:/temp/dataset/3/18_5.odb,Step-1,Increment      1: Step Time =    1.000,"PART-1-1",           187,      -5.00635,       27.5119,            0.,NA,NA,"",       9.99161,       9.73477,       2.25088,   187.173E-09
C:/temp/dataset/3/18_5.odb,Step-1,Increment      1: Step Time =    1.000,"PART-1-1",           188,      -12.5019,       27.5019,            0.,NA,NA,"",       10.6451,       9.91214,       3.88178,   6.40809E-09
C:/temp/dataset/3/18_5.odb,Step-1,Increment      1: Step Time =    1.000,"PART-1-1",           189,      -12.5001,       22.5034,            0.,NA,NA,"",       9.68935,       8.82466,       4.00111,   6.29630E-09
C:/temp/dataset/3/18_5.odb,Step-1,Increment      1: Step Time =    1.000,"PART-1-1",           190,      -5.00429,       25.0191,            0.,NA,NA,"",       9.47825,       9.19241,       2.31013,   209.263E-09
C:/temp/dataset/3/18_5.odb,Step-1,Increment      1: Step Time =    1.000,"PART-1-1",           191,  -15.9173E-03,       25.0642,            0.,NA,NA,"",       9.16483,       9.08275,       1.22383,   1.27564E-06
C:/temp/dataset/3/18_5.odb,Step-1,Increment      1: Step Time =    1.000,"PART-1-1",           192,       9.74355,       15.0604,            0.,NA,NA,"",       6.70549,       6.67302,  -659.043E-03,   291.841E-06
C:/temp/dataset/3/18_5.odb,Step-1,Increment      1: Step Time =    1.000,"PART-1-1",           193,       9.51986,       12.6989,            0.,NA,NA,"",       6.18901,       6.16413,  -554.370E-03,   1.48895E-03
C:/temp/dataset/3/18_5.odb,Step-1,Increment      1: Step Time =    1.000,"PART-1-1",           194,       12.1898,      -11.7554,            0.,NA,NA,"",       1.16818,       1.08531,  -432.143E-03,   21.1508E-03
C:/temp/dataset/3/18_5.odb,Step-1,Increment      1: Step Time =    1.000,"PART-1-1",           195,       9.78251,      -13.4248,            0.,NA,NA,"",   860.158E-03,   856.124E-03,  -83.2121E-03,   10.7153E-03
C:/temp/dataset/3/18_5.odb,Step-1,Increment      1: Step Time =    1.000,"PART-1-1",           196,       7.24032,      -19.5057,            0.,NA,NA,"",   230.939E-03,   200.661E-03,   114.315E-03,   22.4942E-03
C:/temp/dataset/3/18_5.odb,Step-1,Increment      1: Step Time =    1.000,"PART-1-1",           197,      -10.0066,  -139.817E-03,            0.,NA,NA,"",       5.41492,       3.80397,       3.85371,   28.4017E-06
C:/temp/dataset/3/18_5.odb,Step-1,Increment      1: Step Time =    1.000,"PART-1-1",           198,      -8.39380,      -1.43672,            0.,NA,NA,"",       4.97309,       3.49191,       3.54093,   57.9530E-06
C:/temp/dataset/3/18_5.odb,Step-1,Increment      1: Step Time =    1.000,"PART-1-1",           199,      -5.07121,  -530.035E-03,            0.,NA,NA,"",       4.57688,       3.60898,       2.81480,   229.536E-06
C:/temp/dataset/3/18_5.odb,Step-1,Increment      1: Step Time =    1.000,"PART-1-1",           200,      -12.5003,      -27.5198,            0.,NA,NA,"",   14.8962E-03,   14.6053E-03,   2.92920E-03,   3.75537E-03
C:/temp/dataset/3/18_5.odb,Step-1,Increment      1: Step Time =    1.000,"PART-1-1",           201,       8.97180,      -8.86122,            0.,NA,NA,"",       1.58974,       1.58974,  -5.06481E-06,   11.8863E-03
C:/temp/dataset/3/18_5.odb,Step-1,Increment      1: Step Time =    1.000,"PART-1-1",           202,      -2.50561,       25.0360,            0.,NA,NA,"",       9.30538,       9.13624,       1.76614,   670.940E-09
C:/temp/dataset/3/18_5.odb,Step-1,Increment      1: Step Time =    1.000,"PART-1-1",           203,      -7.50383,       25.0106,            0.,NA,NA,"",       9.68073,       9.25043,       2.85412,   54.2941E-09
C:/temp/dataset/3/18_5.odb,Step-1,Increment      1: Step Time =    1.000,"PART-1-1",           204,       2.46362,       25.0850,            0.,NA,NA,"",       9.05377,       9.02790,   683.900E-03,   2.08299E-06
C:/temp/dataset/3/18_5.odb,Step-1,Increment      1: Step Time =    1.000,"PART-1-1",           205,       9.17638,       10.5785,            0.,NA,NA,"",       5.72414,       5.70790,  -430.967E-03,   3.65469E-03
C:/temp/dataset/3/18_5.odb,Step-1,Increment      1: Step Time =    1.000,"PART-1-1",           206,       9.65111,       6.46520,            0.,NA,NA,"",       4.80087,       4.78111,  -435.088E-03,   6.91369E-03
C:/temp/dataset/3/18_5.odb,Step-1,Increment      1: Step Time =    1.000,"PART-1-1",           207,      -1.99278,       1.34592,            0.,NA,NA,"",       4.47104,       3.93751,       2.11807,   404.548E-06
C:/temp/dataset/3/18_5.odb,Step-1,Increment      1: Step Time =    1.000,"PART-1-1",           208,      -5.69490,       1.29843,            0.,NA,NA,"",       4.95283,       4.01120,       2.90532,   182.548E-06
C:/temp/dataset/3/18_5.odb,Step-1,Increment      1: Step Time =    1.000,"PART-1-1",           209,       1.92780,   665.778E-03,            0.,NA,NA,"",       3.92637,       3.70382,       1.30310,   2.60126E-03
C:/temp/dataset/3/18_5.odb,Step-1,Increment      1: Step Time =    1.000,"PART-1-1",           210,       1.26043,      -1.37778,            0.,NA,NA,"",       3.60614,       3.28513,       1.48733,   1.37745E-03
C:/temp/dataset/3/18_5.odb,Step-1,Increment      1: Step Time =    1.000,"PART-1-1",           211,       9.14691,      -16.8280,            0.,NA,NA,"",   439.410E-03,   439.365E-03,  -6.31129E-03,   13.2762E-03
C:/temp/dataset/3/18_5.odb,Step-1,Increment      1: Step Time =    1.000,"PART-1-1",           212,   79.9954E-03,      -25.2148,            0.,NA,NA,"",   54.3233E-03,   48.7077E-03,   24.0536E-03,   11.7329E-03
C:/temp/dataset/3/18_5.odb,Step-1,Increment      1: Step Time =    1.000,"PART-1-1",           213,      -9.97865,      -25.0679,            0.,NA,NA,"",   28.8625E-03,   28.8510E-03,   815.791E-06,   2.70434E-03
C:/temp/dataset/3/18_5.odb,Step-1,Increment      1: Step Time =    1.000,"PART-1-1",           214,       12.4671,      -27.6040,            0.,NA,NA,"",   43.4546E-03,  -4.96620E-03,  -43.1699E-03,   24.5505E-03
C:/temp/dataset/3/18_5.odb,Step-1,Increment      1: Step Time =    1.000,"PART-1-1",           215,       9.82463,      -25.6838,            0.,NA,NA,"",   20.0047E-03,  -7.12628E-03,  -18.6923E-03,   9.91798E-03
C:/temp/dataset/3/18_5.odb,Step-1,Increment      1: Step Time =    1.000,"PART-1-1",           216,       2.56344,      -25.3828,            0.,NA,NA,"",   61.8852E-03,   44.8979E-03,   42.5906E-03,   17.5914E-03
C:/temp/dataset/3/18_5.odb,Step-1,Increment      1: Step Time =    1.000,"PART-1-1",           217,      -2.44121,      -25.1518,            0.,NA,NA,"",   45.0445E-03,   43.9906E-03,   9.68652E-03,   7.70571E-03
C:/temp/dataset/3/18_5.odb,Step-1,Increment      1: Step Time =    1.000,"PART-1-1",           218,      -4.95889,      -25.1139,            0.,NA,NA,"",   37.8488E-03,   37.7561E-03,   2.64785E-03,   5.13769E-03
C:/temp/dataset/3/18_5.odb,Step-1,Increment      1: Step Time =    1.000,"PART-1-1",           219,       10.3279,  -771.646E-03,            0.,NA,NA,"",       3.20515,       3.18055,  -396.398E-03,   10.6742E-03
C:/temp/dataset/3/18_5.odb,Step-1,Increment      1: Step Time =    1.000,"PART-1-1",           220,       10.4049,       4.48083,            0.,NA,NA,"",       4.35732,       4.32322,  -544.067E-03,   7.42036E-03
C:/temp/dataset/3/18_5.odb,Step-1,Increment      1: Step Time =    1.000,"PART-1-1",           221,       9.80969,       17.5478,            0.,NA,NA,"",       7.24964,       7.21246,  -733.235E-03,   205.655E-06
C:/temp/dataset/3/18_5.odb,Step-1,Increment      1: Step Time =    1.000,"PART-1-1",           222,       9.88106,       25.0797,            0.,NA,NA,"",       8.89782,       8.84913,  -929.589E-03,   12.6929E-06
C:/temp/dataset/3/18_5.odb,Step-1,Increment      1: Step Time =    1.000,"PART-1-1",           223,       9.94975,       27.5346,            0.,NA,NA,"",       9.43503,       9.38153,      -1.00334,   2.91009E-06
C:/temp/dataset/3/18_5.odb,Step-1,Increment      1: Step Time =    1.000,"PART-1-1",           224,       7.36779,       20.0596,            0.,NA,NA,"",       7.82150,       7.81709,  -262.557E-03,   110.477E-06
C:/temp/dataset/3/18_5.odb,Step-1,Increment      1: Step Time =    1.000,"PART-1-1",           225,  -693.206E-03,      -1.01900,            0.,NA,NA,"",       3.89837,       3.40629,       1.89591,   490.797E-06
C:/temp/dataset/3/18_5.odb,Step-1,Increment      1: Step Time =    1.000,"PART-1-1",           226,      -7.47194,      -25.0831,            0.,NA,NA,"",   32.4191E-03,   32.4184E-03,   221.084E-06,   3.77463E-03
C:/temp/dataset/3/18_5.odb,Step-1,Increment      1: Step Time =    1.000,"PART-1-1",           227,       5.28089,       2.25097,            0.,NA,NA,"",       4.00024,       3.95887,   573.849E-03,   9.12566E-03
C:/temp/dataset/3/18_5.odb,Step-1,Increment      1: Step Time =    1.000,"PART-1-1",           228,       9.26575,       8.45073,            0.,NA,NA,"",       5.24892,       5.23360,  -400.833E-03,   6.17094E-03
C:/temp/dataset/3/18_5.odb,Step-1,Increment      1: Step Time =    1.000,"PART-1-1",           229,  -81.3472E-03,       1.02952,            0.,NA,NA,"",       4.19607,       3.82739,       1.71992,   569.296E-06
C:/temp/dataset/3/18_5.odb,Step-1,Increment      1: Step Time =    1.000,"PART-1-1",           230,      -7.67687,   831.326E-03,            0.,NA,NA,"",       5.17625,       3.95711,       3.33689,   85.3752E-06
C:/temp/dataset/3/18_5.odb,Step-1,Increment      1: Step Time =    1.000,"PART-1-1",           231,      -2.54090,  -531.417E-03,            0.,NA,NA,"",       4.21911,       3.55162,       2.27747,   406.814E-06
C:/temp/dataset/3/18_5.odb,Step-1,Increment      1: Step Time =    1.000,"PART-1-1",           232,      -3.83997,       1.55066,            0.,NA,NA,"",       4.73917,       4.02266,       2.50559,   292.802E-06
C:/temp/dataset/3/18_5.odb,Step-1,Increment      1: Step Time =    1.000,"PART-1-1",           233,      -6.84494,  -996.203E-03,            0.,NA,NA,"",       4.78093,       3.55023,       3.20206,   126.513E-06
C:/temp/dataset/3/18_5.odb,Step-1,Increment      1: Step Time =    1.000,"PART-1-1",           234,       5.51335,      -3.03354,            0.,NA,NA,"",       2.88258,       2.81916,   601.317E-03,   17.3009E-03
C:/temp/dataset/3/18_5.odb,Step-1,Increment      1: Step Time =    1.000,"PART-1-1",           235,       9.62476,      -7.14735,            0.,NA,NA,"",       1.89577,       1.89135,  -129.378E-03,   11.1878E-03
C:/temp/dataset/3/18_5.odb,Step-1,Increment      1: Step Time =    1.000,"PART-1-1",           236,       7.38903,      -25.9371,            0.,NA,NA,"",   25.5997E-03,   736.259E-06,   25.5891E-03,   12.4512E-03
C:/temp/dataset/3/18_5.odb,Step-1,Increment      1: Step Time =    1.000,"PART-1-1",           237,       4.96373,      -25.7856,            0.,NA,NA,"",   52.2417E-03,   23.6076E-03,   46.6034E-03,   18.9621E-03
C:/temp/dataset/3/18_5.odb,Step-1,Increment      1: Step Time =    1.000,"PART-1-1",           238,       9.37191,      -21.3805,            0.,NA,NA,"",   96.4371E-03,   95.5363E-03,  -13.1502E-03,   8.38234E-03
C:/temp/dataset/3/18_5.odb,Step-1,Increment      1: Step Time =    1.000,"PART-1-1",           239,       9.53380,      -19.3691,            0.,NA,NA,"",   213.039E-03,   210.643E-03,  -31.8623E-03,   6.75510E-03
C:/temp/dataset/3/18_5.odb,Step-1,Increment      1: Step Time =    1.000,"PART-1-1",           240,       10.5518,      -5.76730,            0.,NA,NA,"",       2.16605,       2.14237,  -319.432E-03,   12.5616E-03
C:/temp/dataset/3/18_5.odb,Step-1,Increment      1: Step Time =    1.000,"PART-1-1",           241,       10.8494,      -2.88140,            0.,NA,NA,"",       2.75965,       2.72337,  -446.019E-03,   12.7497E-03
C:/temp/dataset/3/18_5.odb,Step-1,Increment      1: Step Time =    1.000,"PART-1-1",           242,       9.33979,       1.27198,            0.,NA,NA,"",       3.65216,       3.64401,  -243.968E-03,   8.61900E-03
C:/temp/dataset/3/18_5.odb,Step-1,Increment      1: Step Time =    1.000,"PART-1-1",           243,       9.83335,       20.0603,            0.,NA,NA,"",       7.79940,       7.75838,  -798.830E-03,   110.404E-06
C:/temp/dataset/3/18_5.odb,Step-1,Increment      1: Step Time =    1.000,"PART-1-1",           244,       7.39102,       25.1069,            0.,NA,NA,"",       8.92312,       8.91465,  -388.557E-03,   9.44253E-06
C:/temp/dataset/3/18_5.odb,Step-1,Increment      1: Step Time =    1.000,"PART-1-1",           245,       4.93408,       25.0979,            0.,NA,NA,"",       8.97272,       8.97153,   146.146E-03,   4.78075E-06
C:/temp/dataset/3/18_5.odb,Step-1,Increment      1: Step Time =    1.000,"PART-1-1",           246,      -10.0026,       25.0068,            0.,NA,NA,"",       9.91015,       9.30946,       3.39781,   8.12964E-09
C:/temp/dataset/3/18_5.odb,Step-1,Increment      1: Step Time =    1.000,"PART-1-1",           247,      -10.0008,       22.5051,            0.,NA,NA,"",       9.42239,       8.76517,       3.45735,   6.75169E-09
C:/temp/dataset/3/18_5.odb,Step-1,Increment      1: Step Time =    1.000,"PART-1-1",           248,      -9.99283,      -27.5363,            0.,NA,NA,"",   15.6132E-03,   15.5814E-03,   995.951E-06,   4.08653E-03
C:/temp/dataset/3/18_5.odb,Step-1,Increment      1: Step Time =    1.000,"PART-1-1",           249,       3.80746,   187.829E-03,            0.,NA,NA,"",       3.67104,       3.55484,   916.314E-03,   6.87042E-03
C:/temp/dataset/3/18_5.odb,Step-1,Increment      1: Step Time =    1.000,"PART-1-1",           250,       11.4886,       7.12458,            0.,NA,NA,"",       4.95719,       4.88487,  -843.698E-03,   5.47664E-03
C:/temp/dataset/3/18_5.odb,Step-1,Increment      1: Step Time =    1.000,"PART-1-1",           251,       5.25951,      -23.9756,            0.,NA,NA,"",   88.6761E-03,   47.6322E-03,   74.7972E-03,   24.5010E-03
C:/temp/dataset/3/18_5.odb,Step-1,Increment      1: Step Time =    1.000,"PART-1-1",           252,       9.85798,       22.5791,            0.,NA,NA,"",       8.35060,       8.30571,  -864.640E-03,   40.8392E-06
C:/temp/dataset/3/18_5.odb,Step-1,Increment      1: Step Time =    1.000,"PART-1-1",           253,       7.38133,       22.5911,            0.,NA,NA,"",       8.37391,       8.36755,  -326.180E-03,   32.2512E-06
C:/temp/dataset/3/18_5.odb,Step-1,Increment      1: Step Time =    1.000,"PART-1-1",           254,       9.03817,      -10.9527,            0.,NA,NA,"",       1.23649,       1.23648,   2.84746E-03,   13.3608E-03
C:/temp/dataset/3/18_5.odb,Step-1,Increment      1: Step Time =    1.000,"PART-1-1",           255,       7.30212,      -21.2110,            0.,NA,NA,"",   135.340E-03,   101.386E-03,   89.6534E-03,   18.9385E-03
C:/temp/dataset/3/18_5.odb,Step-1,Increment      1: Step Time =    1.000,"PART-1-1",           256,       8.48263,      -3.88795,            0.,NA,NA,"",       2.55934,       2.55924,   23.4306E-03,   14.7621E-03
C:/temp/dataset/3/18_5.odb,Step-1,Increment      1: Step Time =    1.000,"PART-1-1",           257,       8.48912,      -1.65164,            0.,NA,NA,"",       3.03261,       3.03258,  -14.4590E-03,   12.4986E-03
C:/temp/dataset/3/18_5.odb,Step-1,Increment      1: Step Time =    1.000,"PART-1-1",           258,       8.19007,       3.36514,            0.,NA,NA,"",       4.12874,       4.12840,  -52.6748E-03,   6.36073E-03
C:/temp/dataset/3/18_5.odb,Step-1,Increment      1: Step Time =    1.000,"PART-1-1",           259,       6.78208,  -317.133E-03,            0.,NA,NA,"",       3.37850,       3.36454,   306.856E-03,   10.9270E-03
C:/temp/dataset/3/18_5.odb,Step-1,Increment      1: Step Time =    1.000,"PART-1-1",           260,       11.8604,      -10.2109,            0.,NA,NA,"",       1.39587,       1.32896,  -426.983E-03,   17.7687E-03
C:/temp/dataset/3/18_5.odb,Step-1,Increment      1: Step Time =    1.000,"PART-1-1",           261,       5.00218,  -627.613E-03,            0.,NA,NA,"",       3.41567,       3.34752,   678.930E-03,   10.0749E-03
C:/temp/dataset/3/18_5.odb,Step-1,Increment      1: Step Time =    1.000,"PART-1-1",           262,       11.1460,      -8.45072,            0.,NA,NA,"",       1.67328,       1.63443,  -358.485E-03,   13.5200E-03
C:/temp/dataset/3/18_5.odb,Step-1,Increment      1: Step Time =    1.000,"PART-1-1",           263,       11.7180,       5.54683,            0.,NA,NA,"",       4.60924,       4.53003,  -850.874E-03,   6.29113E-03
C:/temp/dataset/3/18_5.odb,Step-1,Increment      1: Step Time =    1.000,"PART-1-1",           264,       5.25136,      -21.5985,            0.,NA,NA,"",   161.617E-03,   99.3893E-03,   127.443E-03,   38.2194E-03
C:/temp/dataset/3/18_5.odb,Step-1,Increment      1: Step Time =    1.000,"PART-1-1",           265,       12.4723,       27.5096,            0.,NA,NA,"",       9.44398,       9.31567,      -1.55150,   1.48816E-06
C:/temp/dataset/3/18_5.odb,Step-1,Increment      1: Step Time =    1.000,"PART-1-1",           266,       5.87727,      -22.7682,            0.,NA,NA,"",   116.832E-03,   67.2607E-03,   95.5287E-03,   26.1198E-03
C:/temp/dataset/3/18_5.odb,Step-1,Increment      1: Step Time =    1.000,"PART-1-1",           267,       7.32369,      -22.7299,            0.,NA,NA,"",   85.6493E-03,   53.9425E-03,   66.5283E-03,   18.2781E-03
C:/temp/dataset/3/18_5.odb,Step-1,Increment      1: Step Time =    1.000,"PART-1-1",           268,       11.4923,      -4.55460,            0.,NA,NA,"",       2.42726,       2.37037,  -522.469E-03,   14.4483E-03
C:/temp/dataset/3/18_5.odb,Step-1,Increment      1: Step Time =    1.000,"PART-1-1",           269,       11.2115,       8.96325,            0.,NA,NA,"",       5.36420,       5.29944,  -830.994E-03,   4.13084E-03
C:/temp/dataset/3/18_5.odb,Step-1,Increment      1: Step Time =    1.000,"PART-1-1",           270,       10.8046,       10.5255,            0.,NA,NA,"",       5.70862,       5.65489,  -781.367E-03,   2.87169E-03
C:/temp/dataset/3/18_5.odb,Step-1,Increment      1: Step Time =    1.000,"PART-1-1",           271,       7.35536,      -24.2380,            0.,NA,NA,"",   50.1071E-03,   22.9122E-03,   44.5618E-03,   15.4233E-03
C:/temp/dataset/3/18_5.odb,Step-1,Increment      1: Step Time =    1.000,"PART-1-1",           272,      -3.82134,   150.711E-03,            0.,NA,NA,"",       4.50528,       3.72527,       2.53375,   319.797E-06
C:/temp/dataset/3/18_5.odb,Step-1,Increment      1: Step Time =    1.000,"PART-1-1",           273,       3.09609,      -1.70207,            0.,NA,NA,"",       3.35685,       3.17149,       1.10005,   5.88333E-03
C:/temp/dataset/3/18_5.odb,Step-1,Increment      1: Step Time =    1.000,"PART-1-1",           274,       4.56419,      -1.78689,            0.,NA,NA,"",       3.21106,       3.11309,   787.157E-03,   9.98804E-03
C:/temp/dataset/3/18_5.odb,Step-1,Increment      1: Step Time =    1.000,"PART-1-1",           275,       9.44492,      -23.8624,            0.,NA,NA,"",   23.8490E-03,   20.3398E-03,  -12.4527E-03,   10.0110E-03
C:/temp/dataset/3/18_5.odb,Step-1,Increment      1: Step Time =    1.000,"PART-1-1",           276,       8.77427,      -22.6651,            0.,NA,NA,"",   52.0866E-03,   50.0758E-03,   14.3328E-03,   10.1511E-03
C:/temp/dataset/3/18_5.odb,Step-1,Increment      1: Step Time =    1.000,"PART-1-1",           277,       10.1837,      -9.28900,            0.,NA,NA,"",       1.50984,       1.49816,  -187.474E-03,   10.3528E-03
C:/temp/dataset/3/18_5.odb,Step-1,Increment      1: Step Time =    1.000,"PART-1-1",           278,       10.4979,      -10.7612,            0.,NA,NA,"",       1.26722,       1.24948,  -211.270E-03,   10.6873E-03
C:/temp/dataset/3/18_5.odb,Step-1,Increment      1: Step Time =    1.000,"PART-1-1",           279,       11.2325,      -12.6180,            0.,NA,NA,"",       1.00053,   960.527E-03,  -280.091E-03,   14.3210E-03
C:/temp/dataset/3/18_5.odb,Step-1,Increment      1: Step Time =    1.000,"PART-1-1",           280,      -13.7500,       22.5017,            0.,NA,NA,"",       9.83140,       8.85423,       4.27308,   4.01726E-09
C:/temp/dataset/3/18_5.odb,Step-1,Increment      1: Step Time =    1.000,"PART-1-1",           281,          -15.,         21.25,            0.,NA,NA,"",       9.75164,       8.61185,       4.57499,   1.47900E-09
C:/temp/dataset/3/18_5.odb,Step-1,Increment      1: Step Time =    1.000,"PART-1-1",           282,        -13.75,           20.,            0.,NA,NA,"",       9.37179,       8.30997,       4.33299,   1.86375E-09
C:/temp/dataset/3/18_5.odb,Step-1,Increment      1: Step Time =    1.000,"PART-1-1",           283,      -12.5000,       21.2517,            0.,NA,NA,"",       9.45475,       8.55235,       4.03108,   4.35151E-09
C:/temp/dataset/3/18_5.odb,Step-1,Increment      1: Step Time =    1.000,"PART-1-1",           284,        -11.25,           30.,            0.,NA,NA,"",       11.0133,       10.4256,       3.54960,   7.57118E-09
C:/temp/dataset/3/18_5.odb,Step-1,Increment      1: Step Time =    1.000,"PART-1-1",           285,      -12.5009,       28.7510,            0.,NA,NA,"",       10.8879,       10.1838,       3.85166,   4.36415E-09
C:/temp/dataset/3/18_5.odb,Step-1,Increment      1: Step Time =    1.000,"PART-1-1",           286,      -11.2523,       27.5017,            0.,NA,NA,"",       10.5209,       9.88215,       3.60995,   3.80903E-09
C:/temp/dataset/3/18_5.odb,Step-1,Increment      1: Step Time =    1.000,"PART-1-1",           287,      -10.0014,       28.7507,            0.,NA,NA,"",       10.6506,       10.1239,       3.30789,   5.34366E-09
C:/temp/dataset/3/18_5.odb,Step-1,Increment      1: Step Time =    1.000,"PART-1-1",           288,      -8.75282,       27.5029,            0.,NA,NA,"",       10.2900,       9.82254,       3.06615,   19.8976E-09
C:/temp/dataset/3/18_5.odb,Step-1,Increment      1: Step Time =    1.000,"PART-1-1",           289,      -10.0027,       26.2541,            0.,NA,NA,"",       10.1555,       9.58081,       3.36796,   5.86413E-09
C:/temp/dataset/3/18_5.odb,Step-1,Increment      1: Step Time =    1.000,"PART-1-1",           290,      -8.75320,       25.0087,            0.,NA,NA,"",       9.79229,       9.27994,       3.12597,   30.2688E-09
C:/temp/dataset/3/18_5.odb,Step-1,Increment      1: Step Time =    1.000,"PART-1-1",           291,      -7.50334,       26.2575,            0.,NA,NA,"",       9.93168,       9.52168,       2.82415,   42.2236E-09
C:/temp/dataset/3/18_5.odb,Step-1,Increment      1: Step Time =    1.000,"PART-1-1",           292,  -10.1921E-03,       23.8015,            0.,NA,NA,"",       8.89656,       8.80791,       1.25283,   1.26840E-06
C:/temp/dataset/3/18_5.odb,Step-1,Increment      1: Step Time =    1.000,"PART-1-1",           293,       1.23656,       22.5490,            0.,NA,NA,"",       8.56552,       8.50558,       1.01159,   2.57862E-06
C:/temp/dataset/3/18_5.odb,Step-1,Increment      1: Step Time =    1.000,"PART-1-1",           294,       2.47060,       23.8222,            0.,NA,NA,"",       8.78196,       8.75300,   712.628E-03,   2.48874E-06
C:/temp/dataset/3/18_5.odb,Step-1,Increment      1: Step Time =    1.000,"PART-1-1",           295,       1.22385,       25.0746,            0.,NA,NA,"",       9.10543,       9.05533,   953.863E-03,   1.51507E-06
C:/temp/dataset/3/18_5.odb,Step-1,Increment      1: Step Time =    1.000,"PART-1-1",           296,       13.7132,       25.0166,            0.,NA,NA,"",       8.91937,       8.74365,      -1.76174,   5.24920E-06
C:/temp/dataset/3/18_5.odb,Step-1,Increment      1: Step Time =    1.000,"PART-1-1",           297,           15.,         26.25,            0.,NA,NA,"",       9.21687,       8.98113,      -2.07120,   1.22376E-06
C:/temp/dataset/3/18_5.odb,Step-1,Increment      1: Step Time =    1.000,"PART-1-1",           298,       13.7362,       27.5048,            0.,NA,NA,"",       9.46228,       9.28436,      -1.82632,   512.690E-09
C:/temp/dataset/3/18_5.odb,Step-1,Increment      1: Step Time =    1.000,"PART-1-1",           299,       12.4494,       26.2714,            0.,NA,NA,"",       9.17316,       9.04688,      -1.51685,   5.71003E-06
C:/temp/dataset/3/18_5.odb,Step-1,Increment      1: Step Time =    1.000,"PART-1-1",           300,       6.19248,       27.5744,            0.,NA,NA,"",       9.48200,       9.48016,  -186.926E-03,   1.89343E-06
C:/temp/dataset/3/18_5.odb,Step-1,Increment      1: Step Time =    1.000,"PART-1-1",           301,       7.46746,       28.7842,            0.,NA,NA,"",       9.72532,       9.71280,  -493.261E-03,   1.21604E-06
C:/temp/dataset/3/18_5.odb,Step-1,Increment      1: Step Time =    1.000,"PART-1-1",           302,          6.25,           30.,            0.,NA,NA,"",       10.0098,       10.0065,  -257.530E-03,   2.20031E-06
C:/temp/dataset/3/18_5.odb,Step-1,Increment      1: Step Time =    1.000,"PART-1-1",           303,       4.97503,       28.7903,            0.,NA,NA,"",       9.77394,       9.77382,   48.8064E-03,   1.44242E-06
C:/temp/dataset/3/18_5.odb,Step-1,Increment      1: Step Time =    1.000,"PART-1-1",           304,       11.0878,       17.5306,            0.,NA,NA,"",       7.24902,       7.17817,      -1.01100,   153.361E-06
C:/temp/dataset/3/18_5.odb,Step-1,Increment      1: Step Time =    1.000,"PART-1-1",           305,       12.3722,       18.7756,            0.,NA,NA,"",       7.53485,       7.41824,      -1.32050,   126.721E-06
C:/temp/dataset/3/18_5.odb,Step-1,Increment      1: Step Time =    1.000,"PART-1-1",           306,       11.1059,       20.0490,            0.,NA,NA,"",       7.80001,       7.72551,      -1.07544,   88.9314E-06
C:/temp/dataset/3/18_5.odb,Step-1,Increment      1: Step Time =    1.000,"PART-1-1",           307,       9.82152,       18.8041,            0.,NA,NA,"",       7.52450,       7.48541,  -766.053E-03,   149.259E-06
C:/temp/dataset/3/18_5.odb,Step-1,Increment      1: Step Time =    1.000,"PART-1-1",           308,       9.63171,       13.8797,            0.,NA,NA,"",       6.44740,       6.41881,  -606.507E-03,   784.909E-06
C:/temp/dataset/3/18_5.odb,Step-1,Increment      1: Step Time =    1.000,"PART-1-1",           309,       8.52517,       15.0687,            0.,NA,NA,"",       6.71581,       6.70423,  -394.260E-03,   261.185E-06
C:/temp/dataset/3/18_5.odb,Step-1,Increment      1: Step Time =    1.000,"PART-1-1",           310,       7.25683,       13.8735,            0.,NA,NA,"",       6.47652,       6.47589,  -90.4584E-03,   979.172E-06
C:/temp/dataset/3/18_5.odb,Step-1,Increment      1: Step Time =    1.000,"PART-1-1",           311,       8.36336,       12.6844,            0.,NA,NA,"",       6.19762,       6.19021,  -303.037E-03,   1.71652E-03
C:/temp/dataset/3/18_5.odb,Step-1,Increment      1: Step Time =    1.000,"PART-1-1",           312,       14.0118,       9.82001,            0.,NA,NA,"",       5.61514,       5.42181,      -1.46076,   1.41137E-03
C:/temp/dataset/3/18_5.odb,Step-1,Increment      1: Step Time =    1.000,"PART-1-1",           313,           15.,         11.25,            0.,NA,NA,"",       5.96380,       5.71243,      -1.71317,   242.149E-06
C:/temp/dataset/3/18_5.odb,Step-1,Increment      1: Step Time =    1.000,"PART-1-1",           314,       13.5880,       12.3315,            0.,NA,NA,"",       6.15250,       5.98387,      -1.43059,   528.035E-06
C:/temp/dataset/3/18_5.odb,Step-1,Increment      1: Step Time =    1.000,"PART-1-1",           315,       12.5998,       10.9015,            0.,NA,NA,"",       5.81476,       5.69378,      -1.17996,   1.73022E-03
C:/temp/dataset/3/18_5.odb,Step-1,Increment      1: Step Time =    1.000,"PART-1-1",           316,       4.40482,  -219.892E-03,            0.,NA,NA,"",       3.54257,       3.45160,   797.694E-03,   8.55494E-03
C:/temp/dataset/3/18_5.odb,Step-1,Increment      1: Step Time =    1.000,"PART-1-1",           317,       3.45177,  -757.122E-03,            0.,NA,NA,"",       3.51053,       3.36286,       1.00747,   5.89729E-03
C:/temp/dataset/3/18_5.odb,Step-1,Increment      1: Step Time =    1.000,"PART-1-1",           318,       3.83014,      -1.74448,            0.,NA,NA,"",       3.28125,       3.14264,   943.639E-03,   8.13164E-03
C:/temp/dataset/3/18_5.odb,Step-1,Increment      1: Step Time =    1.000,"PART-1-1",           319,       4.78319,      -1.20725,            0.,NA,NA,"",       3.31227,       3.23023,   732.597E-03,   9.75005E-03
C:/temp/dataset/3/18_5.odb,Step-1,Increment      1: Step Time =    1.000,"PART-1-1",           320,       10.3408,      -10.0251,            0.,NA,NA,"",       1.38610,       1.37162,  -199.830E-03,   10.4405E-03
C:/temp/dataset/3/18_5.odb,Step-1,Increment      1: Step Time =    1.000,"PART-1-1",           321,       11.1792,      -10.4860,            0.,NA,NA,"",       1.32680,       1.28830,  -317.283E-03,   13.4412E-03
C:/temp/dataset/3/18_5.odb,Step-1,Increment      1: Step Time =    1.000,"PART-1-1",           322,       11.5032,      -9.33080,            0.,NA,NA,"",       1.53000,       1.47826,  -394.521E-03,   15.3418E-03
C:/temp/dataset/3/18_5.odb,Step-1,Increment      1: Step Time =    1.000,"PART-1-1",           323,       10.6649,      -8.86986,            0.,NA,NA,"",       1.58888,       1.56556,  -271.252E-03,   11.3920E-03
C:/temp/dataset/3/18_5.odb,Step-1,Increment      1: Step Time =    1.000,"PART-1-1",           324,       9.41034,      -12.1888,            0.,NA,NA,"",       1.04002,       1.03913,  -43.0908E-03,   11.6158E-03
C:/temp/dataset/3/18_5.odb,Step-1,Increment      1: Step Time =    1.000,"PART-1-1",           325,       10.5075,      -13.0214,            0.,NA,NA,"",   924.637E-03,   907.211E-03,  -178.664E-03,   10.4477E-03
C:/temp/dataset/3/18_5.odb,Step-1,Increment      1: Step Time =    1.000,"PART-1-1",           326,       10.8652,      -11.6896,            0.,NA,NA,"",       1.12843,       1.10090,  -247.759E-03,   12.0773E-03
C:/temp/dataset/3/18_5.odb,Step-1,Increment      1: Step Time =    1.000,"PART-1-1",           327,       9.76802,      -10.8570,            0.,NA,NA,"",       1.24626,       1.24193,  -103.722E-03,   10.1953E-03
C:/temp/dataset/3/18_5.odb,Step-1,Increment      1: Step Time =    1.000,"PART-1-1",           328,       6.12016,      -19.7528,            0.,NA,NA,"",   239.880E-03,   173.169E-03,   165.998E-03,   51.7640E-03
C:/temp/dataset/3/18_5.odb,Step-1,Increment      1: Step Time =    1.000,"PART-1-1",           329,       7.15653,      -18.4145,            0.,NA,NA,"",   321.857E-03,   291.028E-03,   137.458E-03,   28.5050E-03
C:/temp/dataset/3/18_5.odb,Step-1,Increment      1: Step Time =    1.000,"PART-1-1",           330,       6.03637,      -17.4116,            0.,NA,NA,"",   489.938E-03,   416.848E-03,   257.443E-03,   48.8293E-03
C:/temp/dataset/3/18_5.odb,Step-1,Increment      1: Step Time =    1.000,"PART-1-1",           331,            5.,        -18.75,            0.,NA,NA,"",   411.774E-03,   303.179E-03,   278.639E-03,   84.2199E-03
C:/temp/dataset/3/18_5.odb,Step-1,Increment      1: Step Time =    1.000,"PART-1-1",           332,       13.3604,      -22.4969,            0.,NA,NA,"",   217.027E-03,   85.6115E-03,  -199.427E-03,   36.3685E-03
C:/temp/dataset/3/18_5.odb,Step-1,Increment      1: Step Time =    1.000,"PART-1-1",           333,           15.,        -21.25,            0.,NA,NA,"",   369.974E-03,   168.014E-03,  -329.624E-03,   53.9259E-03
C:/temp/dataset/3/18_5.odb,Step-1,Increment      1: Step Time =    1.000,"PART-1-1",           334,       13.4842,      -19.7901,            0.,NA,NA,"",   371.619E-03,   217.448E-03,  -301.359E-03,   40.2295E-03
C:/temp/dataset/3/18_5.odb,Step-1,Increment      1: Step Time =    1.000,"PART-1-1",           335,       11.8446,      -21.0370,            0.,NA,NA,"",   203.293E-03,   127.042E-03,  -158.709E-03,   23.4631E-03
C:/temp/dataset/3/18_5.odb,Step-1,Increment      1: Step Time =    1.000,"PART-1-1",           336,       1.65000,            5.,            0.,NA,NA,"",       4.79567,       4.62507,       1.26776,   980.392E-06
C:/temp/dataset/3/18_5.odb,Step-1,Increment      1: Step Time =    1.000,"PART-1-1",           337,   440.654E-03,       4.00571,            0.,NA,NA,"",       4.70472,       4.44442,       1.54324,   624.986E-06
C:/temp/dataset/3/18_5.odb,Step-1,Increment      1: Step Time =    1.000,"PART-1-1",           338,       1.47063,       2.87974,            0.,NA,NA,"",       4.39704,       4.18399,       1.35211,   2.08549E-03
C:/temp/dataset/3/18_5.odb,Step-1,Increment      1: Step Time =    1.000,"PART-1-1",           339,       2.67998,       3.87403,            0.,NA,NA,"",       4.49919,       4.36792,       1.07890,   1.87590E-03
C:/temp/dataset/3/18_5.odb,Step-1,Increment      1: Step Time =    1.000,"PART-1-1",           340,      -1.46180,      -3.99231,            0.,NA,NA,"",       3.50896,       2.79033,       2.12764,   473.933E-06
C:/temp/dataset/3/18_5.odb,Step-1,Increment      1: Step Time =    1.000,"PART-1-1",           341,     -500.E-03,           -5.,            0.,NA,NA,"",       3.20976,       2.55272,       1.94580,   1.31433E-03
C:/temp/dataset/3/18_5.odb,Step-1,Increment      1: Step Time =    1.000,"PART-1-1",           342,   718.491E-03,      -4.10961,            0.,NA,NA,"",       3.18427,       2.71392,       1.66561,   925.980E-06
C:/temp/dataset/3/18_5.odb,Step-1,Increment      1: Step Time =    1.000,"PART-1-1",           343,  -243.313E-03,      -3.10192,            0.,NA,NA,"",       3.48281,       2.95222,       1.84779,   362.263E-06
C:/temp/dataset/3/18_5.odb,Step-1,Increment      1: Step Time =    1.000,"PART-1-1",           344,      -3.82017,      -3.74247,            0.,NA,NA,"",       3.90862,       2.89787,       2.62290,   244.659E-06
C:/temp/dataset/3/18_5.odb,Step-1,Increment      1: Step Time =    1.000,"PART-1-1",           345,      -2.71667,           -5.,            0.,NA,NA,"",       3.55374,       2.60500,       2.41723,   561.944E-06
C:/temp/dataset/3/18_5.odb,Step-1,Increment      1: Step Time =    1.000,"PART-1-1",           346,      -2.56530,      -2.73478,            0.,NA,NA,"",       3.86694,       3.08358,       2.33340,   373.890E-06
C:/temp/dataset/3/18_5.odb,Step-1,Increment      1: Step Time =    1.000,"PART-1-1",           347,      -13.8092,  -21.6491E-03,            0.,NA,NA,"",       6.08548,       3.91573,       4.65835,   1.26525E-06
C:/temp/dataset/3/18_5.odb,Step-1,Increment      1: Step Time =    1.000,"PART-1-1",           348,      -12.6581,       1.21263,            0.,NA,NA,"",       6.03909,       4.15153,       4.38582,   3.58088E-06
C:/temp/dataset/3/18_5.odb,Step-1,Increment      1: Step Time =    1.000,"PART-1-1",           349,      -13.8489,       2.48428,            0.,NA,NA,"",       6.40620,       4.44866,       4.60964,   531.049E-09
C:/temp/dataset/3/18_5.odb,Step-1,Increment      1: Step Time =    1.000,"PART-1-1",           350,          -15.,          1.25,            0.,NA,NA,"",       6.44854,       4.21285,       4.88217,   2.23077E-06
C:/temp/dataset/3/18_5.odb,Step-1,Increment      1: Step Time =    1.000,"PART-1-1",           351,      -8.84172,   345.754E-03,            0.,NA,NA,"",       5.29007,       3.88054,       3.59532,   54.9093E-06
C:/temp/dataset/3/18_5.odb,Step-1,Increment      1: Step Time =    1.000,"PART-1-1",           352,      -9.20019,  -788.270E-03,            0.,NA,NA,"",       5.19400,       3.64794,       3.69732,   41.6123E-06
C:/temp/dataset/3/18_5.odb,Step-1,Increment      1: Step Time =    1.000,"PART-1-1",           353,      -7.61937,      -1.21646,            0.,NA,NA,"",       4.87492,       3.52105,       3.37150,   89.6097E-06
C:/temp/dataset/3/18_5.odb,Step-1,Increment      1: Step Time =    1.000,"PART-1-1",           354,      -7.26090,  -82.4387E-03,            0.,NA,NA,"",       4.97790,       3.75367,       3.26946,   96.5490E-06
C:/temp/dataset/3/18_5.odb,Step-1,Increment      1: Step Time =    1.000,"PART-1-1",           355,      -12.7466,      -3.77621,            0.,NA,NA,"",       5.47638,       3.09440,       4.51835,   875.654E-09
C:/temp/dataset/3/18_5.odb,Step-1,Increment      1: Step Time =    1.000,"PART-1-1",           356,      -13.8633,      -2.52621,            0.,NA,NA,"",       5.81408,       3.38523,       4.72692,   540.134E-09
C:/temp/dataset/3/18_5.odb,Step-1,Increment      1: Step Time =    1.000,"PART-1-1",           357,          -15.,         -3.75,            0.,NA,NA,"",       5.90697,       3.15133,       4.99614,   868.099E-09
C:/temp/dataset/3/18_5.odb,Step-1,Increment      1: Step Time =    1.000,"PART-1-1",           358,      -13.8833,           -5.,            0.,NA,NA,"",       5.57703,       2.86050,       4.78757,   661.231E-09
C:/temp/dataset/3/18_5.odb,Step-1,Increment      1: Step Time =    1.000,"PART-1-1",           359,      -5.03830,      -2.71522,            0.,NA,NA,"",       4.24886,       3.14404,       2.85794,   221.745E-06
C:/temp/dataset/3/18_5.odb,Step-1,Increment      1: Step Time =    1.000,"PART-1-1",           360,      -4.43911,      -1.50749,            0.,NA,NA,"",       4.33345,       3.38708,       2.70305,   235.346E-06
C:/temp/dataset/3/18_5.odb,Step-1,Increment      1: Step Time =    1.000,"PART-1-1",           361,      -5.95808,  -763.119E-03,            0.,NA,NA,"",       4.67591,       3.57959,       3.00844,   173.709E-06
C:/temp/dataset/3/18_5.odb,Step-1,Increment      1: Step Time =    1.000,"PART-1-1",           362,      -6.55726,      -1.97085,            0.,NA,NA,"",       4.59784,       3.33671,       3.16330,   117.056E-06
C:/temp/dataset/3/18_5.odb,Step-1,Increment      1: Step Time =    1.000,"PART-1-1",           363,          6.25,          -30.,            0.,NA,NA,"",            0.,  -3.76096E-39,   10.3938E-39,   6.65416E-03
C:/temp/dataset/3/18_5.odb,Step-1,Increment      1: Step Time =    1.000,"PART-1-1",           364,       7.47038,      -28.9473,            0.,NA,NA,"",   8.91100E-03,  -8.25318E-03,   3.36020E-03,   7.50998E-03
C:/temp/dataset/3/18_5.odb,Step-1,Increment      1: Step Time =    1.000,"PART-1-1",           365,       6.18647,      -27.8786,            0.,NA,NA,"",   15.8883E-03,  -2.53162E-03,   15.6853E-03,   10.8959E-03
C:/temp/dataset/3/18_5.odb,Step-1,Increment      1: Step Time =    1.000,"PART-1-1",           366,       4.96608,      -28.9312,            0.,NA,NA,"",   8.01634E-03,   1.16512E-03,   7.93122E-03,   10.4145E-03
C:/temp/dataset/3/18_5.odb,Step-1,Increment      1: Step Time =    1.000,"PART-1-1",           367,       3.70492,      -27.8047,            0.,NA,NA,"",   23.7659E-03,   13.3602E-03,   19.6551E-03,   13.2294E-03
C:/temp/dataset/3/18_5.odb,Step-1,Increment      1: Step Time =    1.000,"PART-1-1",           368,       2.48883,      -28.8735,            0.,NA,NA,"",   12.6518E-03,   9.65243E-03,   8.17914E-03,   11.4639E-03
C:/temp/dataset/3/18_5.odb,Step-1,Increment      1: Step Time =    1.000,"PART-1-1",           369,          3.75,          -30.,            0.,NA,NA,"",            0.,   2.89973E-39,   15.6812E-39,   8.60637E-03
C:/temp/dataset/3/18_5.odb,Step-1,Increment      1: Step Time =    1.000,"PART-1-1",           370,      -3.72203,      -27.5999,            0.,NA,NA,"",   24.2150E-03,   23.8646E-03,   4.10447E-03,   7.00409E-03
C:/temp/dataset/3/18_5.odb,Step-1,Increment      1: Step Time =    1.000,"PART-1-1",           371,      -4.98725,      -28.7922,            0.,NA,NA,"",   11.9583E-03,   11.8368E-03,   1.70040E-03,   6.53024E-03
C:/temp/dataset/3/18_5.odb,Step-1,Increment      1: Step Time =    1.000,"PART-1-1",           372,         -3.75,          -30.,            0.,NA,NA,"",            0.,   7.18105E-39,   5.83449E-39,   7.95992E-03
C:/temp/dataset/3/18_5.odb,Step-1,Increment      1: Step Time =    1.000,"PART-1-1",           373,      -2.48478,      -28.8077,            0.,NA,NA,"",   14.1130E-03,   13.7038E-03,   3.37379E-03,   8.36323E-03
C:/temp/dataset/3/18_5.odb,Step-1,Increment      1: Step Time =    1.000,"PART-1-1",           374,      -13.7501,      -27.5099,            0.,NA,NA,"",   15.3131E-03,   14.5546E-03,   4.75979E-03,   2.52756E-03
C:/temp/dataset/3/18_5.odb,Step-1,Increment      1: Step Time =    1.000,"PART-1-1",           375,          -15.,        -28.75,            0.,NA,NA,"",   10.3559E-03,   8.46175E-03,   5.97018E-03,   4.57923E-03
C:/temp/dataset/3/18_5.odb,Step-1,Increment      1: Step Time =    1.000,"PART-1-1",           376,        -13.75,          -30.,            0.,NA,NA,"",            0.,   1.30895E-39,   4.96674E-39,   4.99834E-03
C:/temp/dataset/3/18_5.odb,Step-1,Increment      1: Step Time =    1.000,"PART-1-1",           377,      -12.5001,      -28.7599,            0.,NA,NA,"",   6.87810E-03,   6.73701E-03,   1.38602E-03,   3.62479E-03
C:/temp/dataset/3/18_5.odb,Step-1,Increment      1: Step Time =    1.000,"PART-1-1",           378,       8.15833,      -10.8587,            0.,NA,NA,"",       1.27323,       1.26654,   130.383E-03,   18.7526E-03
C:/temp/dataset/3/18_5.odb,Step-1,Increment      1: Step Time =    1.000,"PART-1-1",           379,       9.00498,      -9.90697,            0.,NA,NA,"",       1.40926,       1.40926,   2.02675E-03,   12.8162E-03
C:/temp/dataset/3/18_5.odb,Step-1,Increment      1: Step Time =    1.000,"PART-1-1",           380,       8.08915,      -8.55627,            0.,NA,NA,"",       1.66623,       1.66026,   140.928E-03,   17.0103E-03
C:/temp/dataset/3/18_5.odb,Step-1,Increment      1: Step Time =    1.000,"PART-1-1",           381,       7.24249,      -9.50802,            0.,NA,NA,"",       1.53622,       1.51136,   275.251E-03,   23.7726E-03
C:/temp/dataset/3/18_5.odb,Step-1,Increment      1: Step Time =    1.000,"PART-1-1",           382,       13.9816,      -2.51124,            0.,NA,NA,"",       2.95561,       2.75361,      -1.07389,   17.7269E-03
C:/temp/dataset/3/18_5.odb,Step-1,Increment      1: Step Time =    1.000,"PART-1-1",           383,           15.,         -1.25,            0.,NA,NA,"",       3.28328,       3.00018,      -1.33372,   18.2695E-03
C:/temp/dataset/3/18_5.odb,Step-1,Increment      1: Step Time =    1.000,"PART-1-1",           384,       13.8213,  -48.4001E-03,            0.,NA,NA,"",       3.46016,       3.27101,      -1.12836,   12.5367E-03
C:/temp/dataset/3/18_5.odb,Step-1,Increment      1: Step Time =    1.000,"PART-1-1",           385,       12.8030,      -1.30964,            0.,NA,NA,"",       3.14543,       3.02080,  -876.632E-03,   13.3932E-03
C:/temp/dataset/3/18_5.odb,Step-1,Increment      1: Step Time =    1.000,"PART-1-1",           386,           15.,          1.25,            0.,NA,NA,"",       3.80395,       3.52712,      -1.42459,   12.7344E-03
C:/temp/dataset/3/18_5.odb,Step-1,Increment      1: Step Time =    1.000,"PART-1-1",           387,       13.5709,       2.55070,            0.,NA,NA,"",       4.00561,       3.83406,      -1.15969,   8.47124E-03
C:/temp/dataset/3/18_5.odb,Step-1,Increment      1: Step Time =    1.000,"PART-1-1",           388,       12.3922,       1.25230,            0.,NA,NA,"",       3.68023,       3.57556,  -871.476E-03,   9.79076E-03
C:/temp/dataset/3/18_5.odb,Step-1,Increment      1: Step Time =    1.000,"PART-1-1",           389,      -5.00532,       26.2655,            0.,NA,NA,"",       9.73449,       9.46359,       2.28051,   174.533E-09
C:/temp/dataset/3/18_5.odb,Step-1,Increment      1: Step Time =    1.000,"PART-1-1",           390,      -3.75495,       25.0275,            0.,NA,NA,"",       9.38823,       9.16433,       2.03814,   420.747E-09
C:/temp/dataset/3/18_5.odb,Step-1,Increment      1: Step Time =    1.000,"PART-1-1",           391,      -2.50780,       26.2820,            0.,NA,NA,"",       9.56633,       9.40736,       1.73677,   527.173E-09
C:/temp/dataset/3/18_5.odb,Step-1,Increment      1: Step Time =    1.000,"PART-1-1",           392,      -3.75817,       27.5199,            0.,NA,NA,"",       9.90634,       9.70662,       1.97914,   358.003E-09
C:/temp/dataset/3/18_5.odb,Step-1,Increment      1: Step Time =    1.000,"PART-1-1",           393,      -5.00193,       23.7670,            0.,NA,NA,"",       9.22168,       8.91995,       2.33961,   183.247E-09
C:/temp/dataset/3/18_5.odb,Step-1,Increment      1: Step Time =    1.000,"PART-1-1",           394,      -6.25406,       25.0149,            0.,NA,NA,"",       9.57612,       9.22142,       2.58213,   131.611E-09
C:/temp/dataset/3/18_5.odb,Step-1,Increment      1: Step Time =    1.000,"PART-1-1",           395,      -7.50285,       23.7600,            0.,NA,NA,"",       9.43012,       8.97834,       2.88386,   40.1062E-09
C:/temp/dataset/3/18_5.odb,Step-1,Increment      1: Step Time =    1.000,"PART-1-1",           396,      -6.25071,       22.5121,            0.,NA,NA,"",       9.06999,       8.67687,       2.64134,   108.453E-09
C:/temp/dataset/3/18_5.odb,Step-1,Increment      1: Step Time =    1.000,"PART-1-1",           397,      -12.5007,       23.7543,            0.,NA,NA,"",       9.92587,       9.09681,       3.97128,   3.91645E-09
C:/temp/dataset/3/18_5.odb,Step-1,Increment      1: Step Time =    1.000,"PART-1-1",           398,      -13.7507,       25.0026,            0.,NA,NA,"",       10.2995,       9.39831,       4.21332,   4.07822E-09
C:/temp/dataset/3/18_5.odb,Step-1,Increment      1: Step Time =    1.000,"PART-1-1",           399,          -15.,         23.75,            0.,NA,NA,"",       10.2085,       9.15573,       4.51511,   5.50970E-09
C:/temp/dataset/3/18_5.odb,Step-1,Increment      1: Step Time =    1.000,"PART-1-1",           400,       1.22659,       27.5580,            0.,NA,NA,"",       9.63705,       9.59551,   893.789E-03,   1.00665E-06
C:/temp/dataset/3/18_5.odb,Step-1,Increment      1: Step Time =    1.000,"PART-1-1",           401,       2.48534,       28.7828,            0.,NA,NA,"",       9.84955,       9.83183,   590.612E-03,   1.39864E-06
C:/temp/dataset/3/18_5.odb,Step-1,Increment      1: Step Time =    1.000,"PART-1-1",           402,          1.25,           30.,            0.,NA,NA,"",       10.1602,       10.1262,   830.208E-03,   1.75134E-06
C:/temp/dataset/3/18_5.odb,Step-1,Increment      1: Step Time =    1.000,"PART-1-1",           403,  -8.74824E-03,       28.7751,            0.,NA,NA,"",       9.95463,       9.88990,       1.13339,   840.913E-09
C:/temp/dataset/3/18_5.odb,Step-1,Increment      1: Step Time =    1.000,"PART-1-1",           404,  -16.7069E-03,       26.3073,            0.,NA,NA,"",       9.42913,       9.35320,       1.19423,   939.532E-09
C:/temp/dataset/3/18_5.odb,Step-1,Increment      1: Step Time =    1.000,"PART-1-1",           405,       2.46714,       26.3253,            0.,NA,NA,"",       9.32057,       9.29764,   653.427E-03,   1.11470E-06
C:/temp/dataset/3/18_5.odb,Step-1,Increment      1: Step Time =    1.000,"PART-1-1",           406,       3.70751,       22.5746,            0.,NA,NA,"",       8.46520,       8.45195,   473.410E-03,   5.19872E-06
C:/temp/dataset/3/18_5.odb,Step-1,Increment      1: Step Time =    1.000,"PART-1-1",           407,       2.48879,       21.2797,            0.,NA,NA,"",       8.23546,       8.19942,   769.567E-03,   5.19533E-06
C:/temp/dataset/3/18_5.odb,Step-1,Increment      1: Step Time =    1.000,"PART-1-1",           408,          3.75,           20.,            0.,NA,NA,"",       7.90831,       7.89080,   525.833E-03,   15.4981E-06
C:/temp/dataset/3/18_5.odb,Step-1,Increment      1: Step Time =    1.000,"PART-1-1",           409,       4.96872,       21.2949,            0.,NA,NA,"",       8.14657,       8.14334,   229.667E-03,   31.0494E-06
C:/temp/dataset/3/18_5.odb,Step-1,Increment      1: Step Time =    1.000,"PART-1-1",           410,       10.8479,       12.4309,            0.,NA,NA,"",       6.12976,       6.07243,  -836.411E-03,   1.20402E-03
C:/temp/dataset/3/18_5.odb,Step-1,Increment      1: Step Time =    1.000,"PART-1-1",           411,       9.34812,       11.6387,            0.,NA,NA,"",       5.95691,       5.93651,  -492.495E-03,   2.57112E-03
C:/temp/dataset/3/18_5.odb,Step-1,Increment      1: Step Time =    1.000,"PART-1-1",           412,       9.99050,       10.5520,            0.,NA,NA,"",       5.71335,       5.68111,  -606.079E-03,   3.20880E-03
C:/temp/dataset/3/18_5.odb,Step-1,Increment      1: Step Time =    1.000,"PART-1-1",           413,       11.4903,       11.3442,            0.,NA,NA,"",       5.89518,       5.81817,  -949.769E-03,   1.98995E-03
C:/temp/dataset/3/18_5.odb,Step-1,Increment      1: Step Time =    1.000,"PART-1-1",           414,       7.16850,       11.5014,            0.,NA,NA,"",       5.96386,       5.96383,  -17.4413E-03,   3.92971E-03
C:/temp/dataset/3/18_5.odb,Step-1,Increment      1: Step Time =    1.000,"PART-1-1",           415,       6.10343,       12.5850,            0.,NA,NA,"",       6.22958,       6.22670,   189.410E-03,   2.58225E-03
C:/temp/dataset/3/18_5.odb,Step-1,Increment      1: Step Time =    1.000,"PART-1-1",           416,            5.,         11.25,            0.,NA,NA,"",       5.98667,       5.96926,   456.341E-03,   4.10566E-03
C:/temp/dataset/3/18_5.odb,Step-1,Increment      1: Step Time =    1.000,"PART-1-1",           417,       6.06507,       10.1664,            0.,NA,NA,"",       5.70792,       5.70243,   250.327E-03,   5.29310E-03
C:/temp/dataset/3/18_5.odb,Step-1,Increment      1: Step Time =    1.000,"PART-1-1",           418,       14.0565,       5.06378,            0.,NA,NA,"",       4.57371,       4.37282,      -1.34061,   5.82383E-03
C:/temp/dataset/3/18_5.odb,Step-1,Increment      1: Step Time =    1.000,"PART-1-1",           419,       12.6274,       3.86448,            0.,NA,NA,"",       4.25837,       4.13986,  -997.641E-03,   7.15198E-03
C:/temp/dataset/3/18_5.odb,Step-1,Increment      1: Step Time =    1.000,"PART-1-1",           420,           15.,          3.75,            0.,NA,NA,"",       4.33620,       4.06589,      -1.50702,   8.31005E-03
C:/temp/dataset/3/18_5.odb,Step-1,Increment      1: Step Time =    1.000,"PART-1-1",           421,       10.0280,       5.47301,            0.,NA,NA,"",       4.57806,       4.55175,  -490.115E-03,   7.10725E-03
C:/temp/dataset/3/18_5.odb,Step-1,Increment      1: Step Time =    1.000,"PART-1-1",           422,       11.0614,       5.01383,            0.,NA,NA,"",       4.48118,       4.42666,  -696.904E-03,   6.74721E-03
C:/temp/dataset/3/18_5.odb,Step-1,Increment      1: Step Time =    1.000,"PART-1-1",           423,       11.6033,       6.33570,            0.,NA,NA,"",       4.78293,       4.70725,  -847.458E-03,   5.83172E-03
C:/temp/dataset/3/18_5.odb,Step-1,Increment      1: Step Time =    1.000,"PART-1-1",           424,       10.5698,       6.79489,            0.,NA,NA,"",       4.87496,       4.83292,  -638.785E-03,   6.12353E-03
C:/temp/dataset/3/18_5.odb,Step-1,Increment      1: Step Time =    1.000,"PART-1-1",           425,      -4.94418,       3.17107,            0.,NA,NA,"",       5.15663,       4.39135,       2.70313,   207.680E-06
C:/temp/dataset/3/18_5.odb,Step-1,Increment      1: Step Time =    1.000,"PART-1-1",           426,      -3.90803,       4.11594,            0.,NA,NA,"",       5.18906,       4.56800,       2.46164,   251.290E-06
C:/temp/dataset/3/18_5.odb,Step-1,Increment      1: Step Time =    1.000,"PART-1-1",           427,      -5.05000,            5.,            0.,NA,NA,"",       5.48366,       4.78189,       2.68403,   213.087E-06
C:/temp/dataset/3/18_5.odb,Step-1,Increment      1: Step Time =    1.000,"PART-1-1",           428,      -6.08615,       4.05513,            0.,NA,NA,"",       5.45575,       4.60505,       2.92553,   96.5118E-06
C:/temp/dataset/3/18_5.odb,Step-1,Increment      1: Step Time =    1.000,"PART-1-1",           429,      -3.86135,       2.39128,            0.,NA,NA,"",       4.88425,       4.20132,       2.49094,   255.046E-06
C:/temp/dataset/3/18_5.odb,Step-1,Increment      1: Step Time =    1.000,"PART-1-1",           430,      -5.85027,       2.20434,            0.,NA,NA,"",       5.11964,       4.20694,       2.91761,   145.486E-06
C:/temp/dataset/3/18_5.odb,Step-1,Increment      1: Step Time =    1.000,"PART-1-1",           431,      -4.76744,       1.42454,            0.,NA,NA,"",       4.84305,       4.01692,       2.70546,   235.730E-06
C:/temp/dataset/3/18_5.odb,Step-1,Increment      1: Step Time =    1.000,"PART-1-1",           432,      -9.29397,       2.69508,            0.,NA,NA,"",       5.70100,       4.38957,       3.63773,   36.9095E-06
C:/temp/dataset/3/18_5.odb,Step-1,Increment      1: Step Time =    1.000,"PART-1-1",           433,      -8.28887,       3.92576,            0.,NA,NA,"",       5.74038,       4.62791,       3.39624,   32.5460E-06
C:/temp/dataset/3/18_5.odb,Step-1,Increment      1: Step Time =    1.000,"PART-1-1",           434,          -9.5,            5.,            0.,NA,NA,"",       6.08432,       4.88363,       3.62893,   13.9145E-06
C:/temp/dataset/3/18_5.odb,Step-1,Increment      1: Step Time =    1.000,"PART-1-1",           435,      -10.5051,       3.76932,            0.,NA,NA,"",       6.04635,       4.64525,       3.87040,   7.76882E-06
C:/temp/dataset/3/18_5.odb,Step-1,Increment      1: Step Time =    1.000,"PART-1-1",           436,      -7.92731,       1.84143,            0.,NA,NA,"",       5.36524,       4.17721,       3.36700,   64.0967E-06
C:/temp/dataset/3/18_5.odb,Step-1,Increment      1: Step Time =    1.000,"PART-1-1",           437,      -6.68589,       1.06488,            0.,NA,NA,"",       5.06110,       3.98414,       3.12112,   133.166E-06
C:/temp/dataset/3/18_5.odb,Step-1,Increment      1: Step Time =    1.000,"PART-1-1",           438,      -7.09169,       2.98089,            0.,NA,NA,"",       5.41924,       4.40001,       3.16354,   97.8582E-06
C:/temp/dataset/3/18_5.odb,Step-1,Increment      1: Step Time =    1.000,"PART-1-1",           439,      -13.9000,            5.,            0.,NA,NA,"",       6.75736,       4.98395,       4.56314,   654.701E-09
C:/temp/dataset/3/18_5.odb,Step-1,Increment      1: Step Time =    1.000,"PART-1-1",           440,          -15.,          3.75,            0.,NA,NA,"",       6.76642,       4.74363,       4.82518,   899.696E-09
C:/temp/dataset/3/18_5.odb,Step-1,Increment      1: Step Time =    1.000,"PART-1-1",           441,      -12.7489,       3.73428,            0.,NA,NA,"",       6.39438,       4.68897,       4.34760,   860.532E-09
C:/temp/dataset/3/18_5.odb,Step-1,Increment      1: Step Time =    1.000,"PART-1-1",           442,      -9.48823,      -2.88104,            0.,NA,NA,"",       4.97921,       3.21018,       3.80622,   31.0269E-06
C:/temp/dataset/3/18_5.odb,Step-1,Increment      1: Step Time =    1.000,"PART-1-1",           443,      -8.42388,      -2.23568,            0.,NA,NA,"",       4.87394,       3.32295,       3.56556,   49.0480E-06
C:/temp/dataset/3/18_5.odb,Step-1,Increment      1: Step Time =    1.000,"PART-1-1",           444,      -10.2645,      -1.43363,            0.,NA,NA,"",       5.29200,       3.53517,       3.93800,   19.9146E-06
C:/temp/dataset/3/18_5.odb,Step-1,Increment      1: Step Time =    1.000,"PART-1-1",           445,      -12.6725,      -1.29786,            0.,NA,NA,"",       5.73272,       3.61887,       4.44611,   3.41468E-06
C:/temp/dataset/3/18_5.odb,Step-1,Increment      1: Step Time =    1.000,"PART-1-1",           446,          -15.,         -1.25,            0.,NA,NA,"",       6.16060,       3.68209,       4.93916,   2.15783E-06
C:/temp/dataset/3/18_5.odb,Step-1,Increment      1: Step Time =    1.000,"PART-1-1",           447,      -6.16813,      -3.97275,            0.,NA,NA,"",       4.26614,       2.90266,       3.12642,   94.1869E-06
C:/temp/dataset/3/18_5.odb,Step-1,Increment      1: Step Time =    1.000,"PART-1-1",           448,      -4.95000,           -5.,            0.,NA,NA,"",       3.92649,       2.65665,       2.89129,   229.176E-06
C:/temp/dataset/3/18_5.odb,Step-1,Increment      1: Step Time =    1.000,"PART-1-1",           449,       1.59412,  -355.999E-03,            0.,NA,NA,"",       3.76257,       3.49454,       1.39466,   1.91625E-03
C:/temp/dataset/3/18_5.odb,Step-1,Increment      1: Step Time =    1.000,"PART-1-1",           450,       2.17826,      -1.53992,            0.,NA,NA,"",       3.47873,       3.22888,       1.29455,   3.39965E-03
C:/temp/dataset/3/18_5.odb,Step-1,Increment      1: Step Time =    1.000,"PART-1-1",           451,       2.86763,   426.804E-03,            0.,NA,NA,"",       3.79553,       3.62981,       1.10926,   4.82761E-03
C:/temp/dataset/3/18_5.odb,Step-1,Increment      1: Step Time =    1.000,"PART-1-1",           452,  -387.277E-03,   5.26357E-03,            0.,NA,NA,"",       4.04363,       3.61705,       1.80773,   395.200E-06
C:/temp/dataset/3/18_5.odb,Step-1,Increment      1: Step Time =    1.000,"PART-1-1",           453,   283.611E-03,      -1.19839,            0.,NA,NA,"",       3.74951,       3.34601,       1.69206,   821.377E-06
C:/temp/dataset/3/18_5.odb,Step-1,Increment      1: Step Time =    1.000,"PART-1-1",           454,   923.228E-03,   847.652E-03,            0.,NA,NA,"",       4.05770,       3.76579,       1.51122,   1.36220E-03
C:/temp/dataset/3/18_5.odb,Step-1,Increment      1: Step Time =    1.000,"PART-1-1",           455,       6.35531,      -13.1332,            0.,NA,NA,"",       1.01927,   956.286E-03,   352.733E-03,   36.3252E-03
C:/temp/dataset/3/18_5.odb,Step-1,Increment      1: Step Time =    1.000,"PART-1-1",           456,       7.49455,      -12.2656,            0.,NA,NA,"",       1.08063,       1.05903,   214.988E-03,   25.6662E-03
C:/temp/dataset/3/18_5.odb,Step-1,Increment      1: Step Time =    1.000,"PART-1-1",           457,       6.13925,      -10.3824,            0.,NA,NA,"",       1.45837,       1.39121,   437.466E-03,   33.9332E-03
C:/temp/dataset/3/18_5.odb,Step-1,Increment      1: Step Time =    1.000,"PART-1-1",           458,            5.,        -11.25,            0.,NA,NA,"",       1.41276,       1.28256,   592.400E-03,   45.2080E-03
C:/temp/dataset/3/18_5.odb,Step-1,Increment      1: Step Time =    1.000,"PART-1-1",           459,       13.3376,      -16.9670,            0.,NA,NA,"",   592.334E-03,   440.347E-03,  -396.173E-03,   37.7097E-03
C:/temp/dataset/3/18_5.odb,Step-1,Increment      1: Step Time =    1.000,"PART-1-1",           460,       11.8219,      -18.0071,            0.,NA,NA,"",   400.894E-03,   330.524E-03,  -226.871E-03,   21.7995E-03
C:/temp/dataset/3/18_5.odb,Step-1,Increment      1: Step Time =    1.000,"PART-1-1",           461,           15.,        -18.75,            0.,NA,NA,"",   561.103E-03,   318.461E-03,  -461.973E-03,   56.8477E-03
C:/temp/dataset/3/18_5.odb,Step-1,Increment      1: Step Time =    1.000,"PART-1-1",           462,       8.42876,      -15.2973,            0.,NA,NA,"",   628.888E-03,   624.748E-03,   72.0460E-03,   19.5521E-03
C:/temp/dataset/3/18_5.odb,Step-1,Increment      1: Step Time =    1.000,"PART-1-1",           463,       10.4111,      -16.6310,            0.,NA,NA,"",   473.724E-03,   457.016E-03,  -124.702E-03,   10.5174E-03
C:/temp/dataset/3/18_5.odb,Step-1,Increment      1: Step Time =    1.000,"PART-1-1",           464,       10.7289,      -14.9294,            0.,NA,NA,"",   676.412E-03,   652.400E-03,  -178.625E-03,   11.6141E-03
C:/temp/dataset/3/18_5.odb,Step-1,Increment      1: Step Time =    1.000,"PART-1-1",           465,       8.74656,      -13.5956,            0.,NA,NA,"",   845.337E-03,   844.178E-03,   44.2632E-03,   16.6268E-03
C:/temp/dataset/3/18_5.odb,Step-1,Increment      1: Step Time =    1.000,"PART-1-1",           466,      -8.72016,      -22.5745,            0.,NA,NA,"",   39.1442E-03,   39.1297E-03,  -1.06650E-03,   1.74226E-03
C:/temp/dataset/3/18_5.odb,Step-1,Increment      1: Step Time =    1.000,"PART-1-1",           467,      -7.48342,      -21.2909,            0.,NA,NA,"",   42.9395E-03,   42.8798E-03,  -2.26439E-03,   1.28314E-03
C:/temp/dataset/3/18_5.odb,Step-1,Increment      1: Step Time =    1.000,"PART-1-1",           468,         -8.75,          -20.,            0.,NA,NA,"",   43.5071E-03,   43.4670E-03,  -1.86777E-03,   264.641E-06
C:/temp/dataset/3/18_5.odb,Step-1,Increment      1: Step Time =    1.000,"PART-1-1",           469,      -9.98674,      -21.2836,            0.,NA,NA,"",   41.0709E-03,   41.0707E-03,  -145.986E-06,   623.973E-06
C:/temp/dataset/3/18_5.odb,Step-1,Increment      1: Step Time =    1.000,"PART-1-1",           470,      -4.96670,      -26.3491,            0.,NA,NA,"",   30.9138E-03,   30.7764E-03,   2.91120E-03,   5.59533E-03
C:/temp/dataset/3/18_5.odb,Step-1,Increment      1: Step Time =    1.000,"PART-1-1",           471,      -6.21541,      -25.0985,            0.,NA,NA,"",   34.9082E-03,   34.8949E-03,   965.717E-06,   4.44923E-03
C:/temp/dataset/3/18_5.odb,Step-1,Increment      1: Step Time =    1.000,"PART-1-1",           472,      -7.47738,      -26.3212,            0.,NA,NA,"",   26.0867E-03,   26.0738E-03,   818.754E-06,   4.28439E-03
C:/temp/dataset/3/18_5.odb,Step-1,Increment      1: Step Time =    1.000,"PART-1-1",           473,      -6.22867,      -27.5719,            0.,NA,NA,"",   20.2292E-03,   20.1619E-03,   1.64824E-03,   5.48024E-03
C:/temp/dataset/3/18_5.odb,Step-1,Increment      1: Step Time =    1.000,"PART-1-1",           474,   49.7896E-03,      -26.4387,            0.,NA,NA,"",   41.9903E-03,   37.6864E-03,   18.5181E-03,   11.0583E-03
C:/temp/dataset/3/18_5.odb,Step-1,Increment      1: Step Time =    1.000,"PART-1-1",           475,       1.24862,      -27.7048,            0.,NA,NA,"",   28.2988E-03,   23.7172E-03,   15.4375E-03,   11.6293E-03
C:/temp/dataset/3/18_5.odb,Step-1,Increment      1: Step Time =    1.000,"PART-1-1",           476,       2.52056,      -26.5649,            0.,NA,NA,"",   43.3683E-03,   31.1689E-03,   30.1547E-03,   15.2704E-03
C:/temp/dataset/3/18_5.odb,Step-1,Increment      1: Step Time =    1.000,"PART-1-1",           477,       1.32172,      -25.2988,            0.,NA,NA,"",   58.3998E-03,   48.1711E-03,   33.0164E-03,   14.3597E-03
C:/temp/dataset/3/18_5.odb,Step-1,Increment      1: Step Time =    1.000,"PART-1-1",           478,        -13.75,          -20.,            0.,NA,NA,"",   44.6648E-03,   43.8995E-03,   8.23287E-03,   100.450E-06
C:/temp/dataset/3/18_5.odb,Step-1,Increment      1: Step Time =    1.000,"PART-1-1",           479,          -15.,        -21.25,            0.,NA,NA,"",   42.1883E-03,   40.5200E-03,   11.7463E-03,   86.4735E-06
C:/temp/dataset/3/18_5.odb,Step-1,Increment      1: Step Time =    1.000,"PART-1-1",           480,      -13.7430,      -22.5153,            0.,NA,NA,"",   37.8168E-03,   36.9248E-03,   8.16515E-03,   140.473E-06
C:/temp/dataset/3/18_5.odb,Step-1,Increment      1: Step Time =    1.000,"PART-1-1",           481,      -12.4930,      -21.2653,            0.,NA,NA,"",   40.8229E-03,   40.5334E-03,   4.85290E-03,   125.013E-06
C:/temp/dataset/3/18_5.odb,Step-1,Increment      1: Step Time =    1.000,"PART-1-1",           482,      -11.2297,      -22.5489,            0.,NA,NA,"",   37.3567E-03,   37.2969E-03,   2.11401E-03,   849.358E-06
C:/temp/dataset/3/18_5.odb,Step-1,Increment      1: Step Time =    1.000,"PART-1-1",           483,        -11.25,          -20.,            0.,NA,NA,"",   43.5663E-03,   43.5192E-03,   2.02614E-03,   115.136E-06
C:/temp/dataset/3/18_5.odb,Step-1,Increment      1: Step Time =    1.000,"PART-1-1",           484,      -13.7448,      -25.0201,            0.,NA,NA,"",   28.8348E-03,   27.8137E-03,   7.60540E-03,   905.737E-06
C:/temp/dataset/3/18_5.odb,Step-1,Increment      1: Step Time =    1.000,"PART-1-1",           485,      -12.4878,      -23.7854,            0.,NA,NA,"",   33.0758E-03,   32.7457E-03,   4.66118E-03,   1.03791E-03
C:/temp/dataset/3/18_5.odb,Step-1,Increment      1: Step Time =    1.000,"PART-1-1",           486,          -15.,        -23.75,            0.,NA,NA,"",   34.9957E-03,   32.8412E-03,   12.0896E-03,   32.8547E-06
C:/temp/dataset/3/18_5.odb,Step-1,Increment      1: Step Time =    1.000,"PART-1-1",           487,       13.7335,      -27.5520,            0.,NA,NA,"",   59.6188E-03,   7.59182E-03,  -59.1335E-03,   30.7258E-03
C:/temp/dataset/3/18_5.odb,Step-1,Increment      1: Step Time =    1.000,"PART-1-1",           488,       12.4835,      -28.8020,            0.,NA,NA,"",   20.7593E-03,  -7.53475E-03,  -19.3437E-03,   21.5164E-03
C:/temp/dataset/3/18_5.odb,Step-1,Increment      1: Step Time =    1.000,"PART-1-1",           489,         13.75,          -30.,            0.,NA,NA,"",            0.,  -3.88616E-39,  -41.2524E-39,   24.4440E-03
C:/temp/dataset/3/18_5.odb,Step-1,Increment      1: Step Time =    1.000,"PART-1-1",           490,           15.,        -28.75,            0.,NA,NA,"",   39.7785E-03,   20.7948E-03,  -33.9102E-03,   33.2295E-03
C:/temp/dataset/3/18_5.odb,Step-1,Increment      1: Step Time =    1.000,"PART-1-1",           491,       9.98010,      -28.8907,            0.,NA,NA,"",   14.5258E-03,  -13.2148E-03,  -6.03059E-03,   10.6195E-03
C:/temp/dataset/3/18_5.odb,Step-1,Increment      1: Step Time =    1.000,"PART-1-1",           492,       8.70049,      -27.8380,            0.,NA,NA,"",   15.2794E-03,  -15.2741E-03,   401.014E-06,   6.07100E-03
C:/temp/dataset/3/18_5.odb,Step-1,Increment      1: Step Time =    1.000,"PART-1-1",           493,          8.75,          -30.,            0.,NA,NA,"",            0.,  -9.35044E-39,  -3.90495E-39,   9.14478E-03
C:/temp/dataset/3/18_5.odb,Step-1,Increment      1: Step Time =    1.000,"PART-1-1",           494,       11.2136,      -27.6927,            0.,NA,NA,"",   29.6308E-03,  -14.2987E-03,  -25.9525E-03,   15.9343E-03
C:/temp/dataset/3/18_5.odb,Step-1,Increment      1: Step Time =    1.000,"PART-1-1",           495,       12.3768,      -26.3916,            0.,NA,NA,"",   66.2396E-03,  -963.796E-06,  -66.2325E-03,   24.6476E-03
C:/temp/dataset/3/18_5.odb,Step-1,Increment      1: Step Time =    1.000,"PART-1-1",           496,       11.0556,      -25.4315,            0.,NA,NA,"",   51.5692E-03,  -1.25055E-03,  -51.5540E-03,   16.5875E-03
C:/temp/dataset/3/18_5.odb,Step-1,Increment      1: Step Time =    1.000,"PART-1-1",           497,       9.89242,      -26.7326,            0.,NA,NA,"",   21.5036E-03,  -14.7045E-03,  -15.6902E-03,   9.52306E-03
C:/temp/dataset/3/18_5.odb,Step-1,Increment      1: Step Time =    1.000,"PART-1-1",           498,   9.79186E-03,      -28.8313,            0.,NA,NA,"",   14.9241E-03,   13.7216E-03,   5.86907E-03,   10.2909E-03
C:/temp/dataset/3/18_5.odb,Step-1,Increment      1: Step Time =    1.000,"PART-1-1",           499,          1.25,          -30.,            0.,NA,NA,"",            0.,   7.01639E-39,   13.9376E-39,   9.99240E-03
C:/temp/dataset/3/18_5.odb,Step-1,Increment      1: Step Time =    1.000,"PART-1-1",           500,      -1.18061,      -25.1833,            0.,NA,NA,"",   49.6960E-03,   47.0698E-03,   15.9412E-03,   9.58338E-03
C:/temp/dataset/3/18_5.odb,Step-1,Increment      1: Step Time =    1.000,"PART-1-1",           501,      -2.45538,      -26.3836,            0.,NA,NA,"",   36.6547E-03,   35.6647E-03,   8.46133E-03,   7.73389E-03
C:/temp/dataset/3/18_5.odb,Step-1,Increment      1: Step Time =    1.000,"PART-1-1",           502,      -1.22498,      -27.6390,            0.,NA,NA,"",   27.5713E-03,   26.0967E-03,   8.89611E-03,   9.08463E-03
C:/temp/dataset/3/18_5.odb,Step-1,Increment      1: Step Time =    1.000,"PART-1-1",           503,      -3.70005,      -25.1329,            0.,NA,NA,"",   41.1812E-03,   40.8226E-03,   5.42258E-03,   6.32681E-03
C:/temp/dataset/3/18_5.odb,Step-1,Increment      1: Step Time =    1.000,"PART-1-1",           504,      -7.49141,      -28.7797,            0.,NA,NA,"",   9.72407E-03,   9.68461E-03,   875.178E-06,   5.11982E-03
C:/temp/dataset/3/18_5.odb,Step-1,Increment      1: Step Time =    1.000,"PART-1-1",           505,         -6.25,          -30.,            0.,NA,NA,"",            0.,   5.80975E-39,   3.38030E-39,   6.29800E-03
C:/temp/dataset/3/18_5.odb,Step-1,Increment      1: Step Time =    1.000,"PART-1-1",           506,      -12.4949,      -26.2800,            0.,NA,NA,"",   21.7149E-03,   21.4039E-03,   3.66204E-03,   2.66144E-03
C:/temp/dataset/3/18_5.odb,Step-1,Increment      1: Step Time =    1.000,"PART-1-1",           507,          -15.,        -26.25,            0.,NA,NA,"",   25.3883E-03,   22.5110E-03,   11.7396E-03,   1.25860E-03
C:/temp/dataset/3/18_5.odb,Step-1,Increment      1: Step Time =    1.000,"PART-1-1",           508,       12.0036,      -23.8365,            0.,NA,NA,"",   112.103E-03,   31.6713E-03,  -107.536E-03,   24.2496E-03
C:/temp/dataset/3/18_5.odb,Step-1,Increment      1: Step Time =    1.000,"PART-1-1",           509,       13.6432,      -25.0896,            0.,NA,NA,"",   131.386E-03,   28.6679E-03,  -128.220E-03,   34.0153E-03
C:/temp/dataset/3/18_5.odb,Step-1,Increment      1: Step Time =    1.000,"PART-1-1",           510,           15.,        -23.75,            0.,NA,NA,"",   226.592E-03,   79.1838E-03,  -212.306E-03,   47.2293E-03
C:/temp/dataset/3/18_5.odb,Step-1,Increment      1: Step Time =    1.000,"PART-1-1",           511,         11.25,          -30.,            0.,NA,NA,"",            0.,  -9.58094E-39,  -24.2428E-39,   15.1557E-03
C:/temp/dataset/3/18_5.odb,Step-1,Increment      1: Step Time =    1.000,"PART-1-1",           512,       13.9281,      -14.6298,            0.,NA,NA,"",   896.283E-03,   702.165E-03,  -557.035E-03,   41.2423E-03
C:/temp/dataset/3/18_5.odb,Step-1,Increment      1: Step Time =    1.000,"PART-1-1",           513,       12.2657,      -15.3468,            0.,NA,NA,"",   692.734E-03,   604.179E-03,  -338.894E-03,   24.3565E-03
C:/temp/dataset/3/18_5.odb,Step-1,Increment      1: Step Time =    1.000,"PART-1-1",           514,           15.,        -16.25,            0.,NA,NA,"",   806.852E-03,   538.352E-03,  -600.988E-03,   55.2450E-03
C:/temp/dataset/3/18_5.odb,Step-1,Increment      1: Step Time =    1.000,"PART-1-1",           515,       7.13425,      -14.5121,            0.,NA,NA,"",   781.715E-03,   747.981E-03,   227.162E-03,   32.9032E-03
C:/temp/dataset/3/18_5.odb,Step-1,Increment      1: Step Time =    1.000,"PART-1-1",           516,       6.81531,      -16.2905,            0.,NA,NA,"",   574.058E-03,   529.746E-03,   221.161E-03,   37.8867E-03
C:/temp/dataset/3/18_5.odb,Step-1,Increment      1: Step Time =    1.000,"PART-1-1",           517,       8.10983,      -17.0757,            0.,NA,NA,"",   431.317E-03,   422.716E-03,   85.7057E-03,   24.5467E-03
C:/temp/dataset/3/18_5.odb,Step-1,Increment      1: Step Time =    1.000,"PART-1-1",           518,       13.8641,      -7.41825,            0.,NA,NA,"",       1.99546,       1.80199,  -857.142E-03,   27.6778E-03
C:/temp/dataset/3/18_5.odb,Step-1,Increment      1: Step Time =    1.000,"PART-1-1",           519,       13.0286,      -8.63342,            0.,NA,NA,"",       1.72335,       1.59000,  -664.714E-03,   24.3861E-03
C:/temp/dataset/3/18_5.odb,Step-1,Increment      1: Step Time =    1.000,"PART-1-1",           520,       14.1645,      -9.96517,            0.,NA,NA,"",       1.58277,       1.36606,  -799.410E-03,   34.8383E-03
C:/temp/dataset/3/18_5.odb,Step-1,Increment      1: Step Time =    1.000,"PART-1-1",           521,           15.,         -8.75,            0.,NA,NA,"",       1.86013,       1.56870,  -999.632E-03,   38.8776E-03
C:/temp/dataset/3/18_5.odb,Step-1,Increment      1: Step Time =    1.000,"PART-1-1",           522,       12.0251,      -10.9831,            0.,NA,NA,"",       1.27903,       1.20445,  -430.367E-03,   19.4335E-03
C:/temp/dataset/3/18_5.odb,Step-1,Increment      1: Step Time =    1.000,"PART-1-1",           523,       12.8055,      -11.9581,            0.,NA,NA,"",       1.17309,       1.05504,  -512.855E-03,   26.4447E-03
C:/temp/dataset/3/18_5.odb,Step-1,Increment      1: Step Time =    1.000,"PART-1-1",           524,       13.3751,      -11.0455,            0.,NA,NA,"",       1.34969,       1.19376,  -629.759E-03,   30.1193E-03
C:/temp/dataset/3/18_5.odb,Step-1,Increment      1: Step Time =    1.000,"PART-1-1",           525,       12.5947,      -10.0706,            0.,NA,NA,"",       1.45489,       1.34913,  -544.581E-03,   22.6563E-03
C:/temp/dataset/3/18_5.odb,Step-1,Increment      1: Step Time =    1.000,"PART-1-1",           526,       11.4853,  -434.223E-03,            0.,NA,NA,"",       3.29210,       3.22990,  -636.917E-03,   10.1691E-03
C:/temp/dataset/3/18_5.odb,Step-1,Increment      1: Step Time =    1.000,"PART-1-1",           527,       10.5886,      -1.82652,            0.,NA,NA,"",       2.98024,       2.95019,  -422.174E-03,   11.6245E-03
C:/temp/dataset/3/18_5.odb,Step-1,Increment      1: Step Time =    1.000,"PART-1-1",           528,       11.9063,      -2.70193,            0.,NA,NA,"",       2.82062,       2.74346,  -655.228E-03,   13.2582E-03
C:/temp/dataset/3/18_5.odb,Step-1,Increment      1: Step Time =    1.000,"PART-1-1",           529,       14.1300,       7.44597,            0.,NA,NA,"",       5.09841,       4.89548,      -1.42410,   3.20680E-03
C:/temp/dataset/3/18_5.odb,Step-1,Increment      1: Step Time =    1.000,"PART-1-1",           530,       13.1865,       6.25975,            0.,NA,NA,"",       4.80374,       4.65505,      -1.18594,   4.98748E-03
C:/temp/dataset/3/18_5.odb,Step-1,Increment      1: Step Time =    1.000,"PART-1-1",           531,           15.,          6.25,            0.,NA,NA,"",       4.87615,       4.61239,      -1.58199,   4.64640E-03
C:/temp/dataset/3/18_5.odb,Step-1,Increment      1: Step Time =    1.000,"PART-1-1",           532,       12.4155,       5.33720,            0.,NA,NA,"",       4.57762,       4.46838,  -994.096E-03,   6.04822E-03
C:/temp/dataset/3/18_5.odb,Step-1,Increment      1: Step Time =    1.000,"PART-1-1",           533,       11.2733,       3.54111,            0.,NA,NA,"",       4.15710,       4.09739,  -702.063E-03,   7.44199E-03
C:/temp/dataset/3/18_5.odb,Step-1,Increment      1: Step Time =    1.000,"PART-1-1",           534,       12.2480,       13.5548,            0.,NA,NA,"",       6.39167,       6.28403,      -1.16807,   536.894E-06
C:/temp/dataset/3/18_5.odb,Step-1,Increment      1: Step Time =    1.000,"PART-1-1",           535,           15.,         13.75,            0.,NA,NA,"",       6.50630,       6.26000,      -1.77324,   326.655E-06
C:/temp/dataset/3/18_5.odb,Step-1,Increment      1: Step Time =    1.000,"PART-1-1",           536,       13.6600,       14.9734,            0.,NA,NA,"",       6.73107,       6.55950,      -1.51004,   190.122E-06
C:/temp/dataset/3/18_5.odb,Step-1,Increment      1: Step Time =    1.000,"PART-1-1",           537,       8.15326,       10.4556,            0.,NA,NA,"",       5.71183,       5.70806,  -207.259E-03,   4.44181E-03
C:/temp/dataset/3/18_5.odb,Step-1,Increment      1: Step Time =    1.000,"PART-1-1",           538,       12.3824,       21.2920,            0.,NA,NA,"",       8.08452,       7.96534,      -1.38302,   65.9871E-06
C:/temp/dataset/3/18_5.odb,Step-1,Increment      1: Step Time =    1.000,"PART-1-1",           539,       13.6892,       20.0188,            0.,NA,NA,"",       7.83012,       7.65710,      -1.63692,   67.2547E-06
C:/temp/dataset/3/18_5.odb,Step-1,Increment      1: Step Time =    1.000,"PART-1-1",           540,           15.,         21.25,            0.,NA,NA,"",       8.13115,       7.89349,      -1.95152,   53.4899E-06
C:/temp/dataset/3/18_5.odb,Step-1,Increment      1: Step Time =    1.000,"PART-1-1",           541,       13.6932,       22.5232,            0.,NA,NA,"",       8.37561,       8.20175,      -1.69769,   22.5380E-06
C:/temp/dataset/3/18_5.odb,Step-1,Increment      1: Step Time =    1.000,"PART-1-1",           542,       9.77662,       16.3041,            0.,NA,NA,"",       6.97755,       6.94275,  -696.095E-03,   178.226E-06
C:/temp/dataset/3/18_5.odb,Step-1,Increment      1: Step Time =    1.000,"PART-1-1",           543,       11.0318,       15.0036,            0.,NA,NA,"",       6.69558,       6.62955,  -938.025E-03,   190.982E-06
C:/temp/dataset/3/18_5.odb,Step-1,Increment      1: Step Time =    1.000,"PART-1-1",           544,       12.3430,       16.2301,            0.,NA,NA,"",       6.97849,       6.86506,      -1.25310,   113.721E-06
C:/temp/dataset/3/18_5.odb,Step-1,Increment      1: Step Time =    1.000,"PART-1-1",           545,         13.75,           30.,            0.,NA,NA,"",       10.0068,       9.82683,      -1.88908,   400.736E-09
C:/temp/dataset/3/18_5.odb,Step-1,Increment      1: Step Time =    1.000,"PART-1-1",           546,       12.4862,       28.7548,            0.,NA,NA,"",       9.71626,       9.58622,      -1.58433,   462.716E-09
C:/temp/dataset/3/18_5.odb,Step-1,Increment      1: Step Time =    1.000,"PART-1-1",           547,           15.,         28.75,            0.,NA,NA,"",       9.76046,       9.52497,      -2.13107,   243.720E-09
C:/temp/dataset/3/18_5.odb,Step-1,Increment      1: Step Time =    1.000,"PART-1-1",           548,       12.4064,       23.7898,            0.,NA,NA,"",       8.63043,       8.50808,      -1.44807,   23.3731E-06
C:/temp/dataset/3/18_5.odb,Step-1,Increment      1: Step Time =    1.000,"PART-1-1",           549,           15.,         23.75,            0.,NA,NA,"",       8.67373,       8.43731,      -2.01134,   12.3729E-06
C:/temp/dataset/3/18_5.odb,Step-1,Increment      1: Step Time =    1.000,"PART-1-1",           550,       9.91541,       26.3072,            0.,NA,NA,"",       9.16642,       9.11533,  -966.466E-03,   7.98884E-06
C:/temp/dataset/3/18_5.odb,Step-1,Increment      1: Step Time =    1.000,"PART-1-1",           551,       11.1537,       25.0565,            0.,NA,NA,"",       8.89572,       8.81361,      -1.20589,   10.3381E-06
C:/temp/dataset/3/18_5.odb,Step-1,Increment      1: Step Time =    1.000,"PART-1-1",           552,       11.2110,       27.5221,            0.,NA,NA,"",       9.43547,       9.34860,      -1.27742,   2.11005E-06
C:/temp/dataset/3/18_5.odb,Step-1,Increment      1: Step Time =    1.000,"PART-1-1",           553,       8.69233,       27.5515,            0.,NA,NA,"",       9.44358,       9.41531,  -730.200E-03,   2.65878E-06
C:/temp/dataset/3/18_5.odb,Step-1,Increment      1: Step Time =    1.000,"PART-1-1",           554,       7.41297,       26.3376,            0.,NA,NA,"",       9.19160,       9.18187,  -422.811E-03,   6.38433E-06
C:/temp/dataset/3/18_5.odb,Step-1,Increment      1: Step Time =    1.000,"PART-1-1",           555,       8.63604,       25.0933,            0.,NA,NA,"",       8.90631,       8.88189,  -659.073E-03,   10.3135E-06
C:/temp/dataset/3/18_5.odb,Step-1,Increment      1: Step Time =    1.000,"PART-1-1",           556,      -1.26375,       27.5391,            0.,NA,NA,"",       9.75731,       9.65106,       1.43602,   752.896E-09
C:/temp/dataset/3/18_5.odb,Step-1,Increment      1: Step Time =    1.000,"PART-1-1",           557,         -1.25,           30.,            0.,NA,NA,"",       10.2784,       10.1861,       1.37409,   779.526E-09
C:/temp/dataset/3/18_5.odb,Step-1,Increment      1: Step Time =    1.000,"PART-1-1",           558,      -2.50500,       28.7640,            0.,NA,NA,"",       10.0876,       9.94726,       1.67672,   353.618E-09
C:/temp/dataset/3/18_5.odb,Step-1,Increment      1: Step Time =    1.000,"PART-1-1",           559,      -7.50143,       28.7522,            0.,NA,NA,"",       10.4370,       10.0644,       2.76398,   17.7870E-09
C:/temp/dataset/3/18_5.odb,Step-1,Increment      1: Step Time =    1.000,"PART-1-1",           560,         -8.75,           30.,            0.,NA,NA,"",       10.7927,       10.3657,       3.00572,   8.40834E-09
C:/temp/dataset/3/18_5.odb,Step-1,Increment      1: Step Time =    1.000,"PART-1-1",           561,      -6.25460,       27.5081,            0.,NA,NA,"",       10.0844,       9.76385,       2.52253,   108.489E-09
C:/temp/dataset/3/18_5.odb,Step-1,Increment      1: Step Time =    1.000,"PART-1-1",           562,        -13.75,           30.,            0.,NA,NA,"",       11.2562,       10.4855,       4.09348,   1.53799E-09
C:/temp/dataset/3/18_5.odb,Step-1,Increment      1: Step Time =    1.000,"PART-1-1",           563,          -15.,         28.75,            0.,NA,NA,"",       11.1467,       10.2435,       4.39536,   1.36213E-09
C:/temp/dataset/3/18_5.odb,Step-1,Increment      1: Step Time =    1.000,"PART-1-1",           564,      -13.7509,       27.5010,            0.,NA,NA,"",       10.7746,       9.94184,       4.15354,   4.04548E-09
C:/temp/dataset/3/18_5.odb,Step-1,Increment      1: Step Time =    1.000,"PART-1-1",           565,          -15.,         26.25,            0.,NA,NA,"",       10.6739,       9.69961,       4.45524,   5.48020E-09
C:/temp/dataset/3/18_5.odb,Step-1,Increment      1: Step Time =    1.000,"PART-1-1",           566,      -12.5016,       26.2536,            0.,NA,NA,"",       10.4039,       9.64054,       3.91162,   3.70801E-09
C:/temp/dataset/3/18_5.odb,Step-1,Increment      1: Step Time =    1.000,"PART-1-1",           567,      -7.50093,       21.2547,            0.,NA,NA,"",       8.93218,       8.43326,       2.94345,   22.8067E-09
C:/temp/dataset/3/18_5.odb,Step-1,Increment      1: Step Time =    1.000,"PART-1-1",           568,         -6.25,           20.,            0.,NA,NA,"",       8.56736,       8.13034,       2.70136,   59.9239E-09
C:/temp/dataset/3/18_5.odb,Step-1,Increment      1: Step Time =    1.000,"PART-1-1",           569,      -4.99978,       21.2574,            0.,NA,NA,"",       8.71088,       8.37394,       2.39925,   107.268E-09
C:/temp/dataset/3/18_5.odb,Step-1,Increment      1: Step Time =    1.000,"PART-1-1",           570,      -3.74911,       22.5208,            0.,NA,NA,"",       8.87026,       8.61885,       2.09691,   434.433E-09
C:/temp/dataset/3/18_5.odb,Step-1,Increment      1: Step Time =    1.000,"PART-1-1",           571,         -3.75,           20.,            0.,NA,NA,"",       8.35386,       8.07046,       2.15748,   207.962E-09
C:/temp/dataset/3/18_5.odb,Step-1,Increment      1: Step Time =    1.000,"PART-1-1",           572,      -2.49933,       21.2634,            0.,NA,NA,"",       8.51979,       8.31536,       1.85513,   426.362E-09
C:/temp/dataset/3/18_5.odb,Step-1,Increment      1: Step Time =    1.000,"PART-1-1",           573,         -1.25,           20.,            0.,NA,NA,"",       8.17148,       8.01058,       1.61360,   1.45556E-06
C:/temp/dataset/3/18_5.odb,Step-1,Increment      1: Step Time =    1.000,"PART-1-1",           574,  -2.23348E-03,       21.2694,            0.,NA,NA,"",       8.36040,       8.25685,       1.31174,   1.25036E-06
C:/temp/dataset/3/18_5.odb,Step-1,Increment      1: Step Time =    1.000,"PART-1-1",           575,      -1.25156,       22.5328,            0.,NA,NA,"",       8.70140,       8.56164,       1.55327,   1.08438E-06
C:/temp/dataset/3/18_5.odb,Step-1,Increment      1: Step Time =    1.000,"PART-1-1",           576,         -3.75,           30.,            0.,NA,NA,"",       10.4239,       10.2460,       1.91796,   226.957E-09
C:/temp/dataset/3/18_5.odb,Step-1,Increment      1: Step Time =    1.000,"PART-1-1",           577,      -5.00318,       28.7559,            0.,NA,NA,"",       10.2488,       10.0053,       2.22039,   102.629E-09
C:/temp/dataset/3/18_5.odb,Step-1,Increment      1: Step Time =    1.000,"PART-1-1",           578,       7.36074,       18.8052,            0.,NA,NA,"",       7.54790,       7.54436,  -230.956E-03,   146.818E-06
C:/temp/dataset/3/18_5.odb,Step-1,Increment      1: Step Time =    1.000,"PART-1-1",           579,       8.58169,       17.5494,            0.,NA,NA,"",       7.25706,       7.24207,  -466.198E-03,   171.389E-06
C:/temp/dataset/3/18_5.odb,Step-1,Increment      1: Step Time =    1.000,"PART-1-1",           580,       8.60057,       20.0599,            0.,NA,NA,"",       7.80579,       7.78773,  -530.668E-03,   90.4307E-06
C:/temp/dataset/3/18_5.odb,Step-1,Increment      1: Step Time =    1.000,"PART-1-1",           581,            5.,         18.75,            0.,NA,NA,"",       7.59415,       7.58885,   283.612E-03,   195.765E-06
C:/temp/dataset/3/18_5.odb,Step-1,Increment      1: Step Time =    1.000,"PART-1-1",           582,       6.17685,       17.5255,            0.,NA,NA,"",       7.29449,       7.29426,   56.9541E-03,   182.553E-06
C:/temp/dataset/3/18_5.odb,Step-1,Increment      1: Step Time =    1.000,"PART-1-1",           583,       6.18390,       20.0298,            0.,NA,NA,"",       7.83893,       7.83893,  -4.40842E-03,   70.1433E-06
C:/temp/dataset/3/18_5.odb,Step-1,Increment      1: Step Time =    1.000,"PART-1-1",           584,            5.,         16.25,            0.,NA,NA,"",       7.05352,       7.04518,   342.759E-03,   446.175E-06
C:/temp/dataset/3/18_5.odb,Step-1,Increment      1: Step Time =    1.000,"PART-1-1",           585,       6.15340,       15.0385,            0.,NA,NA,"",       6.75554,       6.75446,   120.999E-03,   475.788E-06
C:/temp/dataset/3/18_5.odb,Step-1,Increment      1: Step Time =    1.000,"PART-1-1",           586,       7.33024,       16.3140,            0.,NA,NA,"",       7.00525,       7.00331,  -164.559E-03,   215.418E-06
C:/temp/dataset/3/18_5.odb,Step-1,Increment      1: Step Time =    1.000,"PART-1-1",           587,           15.,         16.25,            0.,NA,NA,"",       7.04775,       6.80537,      -1.83244,   309.156E-06
C:/temp/dataset/3/18_5.odb,Step-1,Increment      1: Step Time =    1.000,"PART-1-1",           588,       13.6830,       17.5067,            0.,NA,NA,"",       7.28319,       7.11073,      -1.57555,   144.190E-06
C:/temp/dataset/3/18_5.odb,Step-1,Increment      1: Step Time =    1.000,"PART-1-1",           589,           15.,         18.75,            0.,NA,NA,"",       7.58920,       7.34961,      -1.89185,   156.269E-06
C:/temp/dataset/3/18_5.odb,Step-1,Increment      1: Step Time =    1.000,"PART-1-1",           590,       7.36831,       6.81272,            0.,NA,NA,"",       4.91538,       4.91520,   41.7594E-03,   7.90722E-03
C:/temp/dataset/3/18_5.odb,Step-1,Increment      1: Step Time =    1.000,"PART-1-1",           591,       6.10412,       7.73110,            0.,NA,NA,"",       5.16632,       5.15794,   294.174E-03,   7.04823E-03
C:/temp/dataset/3/18_5.odb,Step-1,Increment      1: Step Time =    1.000,"PART-1-1",           592,            5.,          6.25,            0.,NA,NA,"",       4.88910,       4.85629,   565.449E-03,   11.4597E-03
C:/temp/dataset/3/18_5.odb,Step-1,Increment      1: Step Time =    1.000,"PART-1-1",           593,       6.26419,       5.33162,            0.,NA,NA,"",       4.61826,       4.60785,   310.013E-03,   9.94961E-03
C:/temp/dataset/3/18_5.odb,Step-1,Increment      1: Step Time =    1.000,"PART-1-1",           594,           15.,          8.75,            0.,NA,NA,"",       5.41987,       5.16251,      -1.65030,   1.85834E-03
C:/temp/dataset/3/18_5.odb,Step-1,Increment      1: Step Time =    1.000,"PART-1-1",           595,       13.1418,       8.51598,            0.,NA,NA,"",       5.30102,       5.15463,      -1.23717,   3.18234E-03
C:/temp/dataset/3/18_5.odb,Step-1,Increment      1: Step Time =    1.000,"PART-1-1",           596,       6.30252,      -5.49102,            0.,NA,NA,"",       2.32221,       2.27730,   454.496E-03,   21.3946E-03
C:/temp/dataset/3/18_5.odb,Step-1,Increment      1: Step Time =    1.000,"PART-1-1",           597,            5.,         -6.25,            0.,NA,NA,"",       2.28087,       2.17091,   699.657E-03,   40.2823E-03
C:/temp/dataset/3/18_5.odb,Step-1,Increment      1: Step Time =    1.000,"PART-1-1",           598,       6.10325,      -7.87566,            0.,NA,NA,"",       1.89209,       1.83051,   478.799E-03,   29.8799E-03
C:/temp/dataset/3/18_5.odb,Step-1,Increment      1: Step Time =    1.000,"PART-1-1",           599,       7.40577,      -7.11668,            0.,NA,NA,"",       1.95497,       1.93831,   254.689E-03,   17.4228E-03
C:/temp/dataset/3/18_5.odb,Step-1,Increment      1: Step Time =    1.000,"PART-1-1",           600,            5.,         -8.75,            0.,NA,NA,"",       1.82666,       1.70656,   651.438E-03,   40.2396E-03
C:/temp/dataset/3/18_5.odb,Step-1,Increment      1: Step Time =    1.000,"PART-1-1",           601,            5.,        -13.75,            0.,NA,NA,"",       1.04071,   906.150E-03,   511.822E-03,   50.0257E-03
C:/temp/dataset/3/18_5.odb,Step-1,Increment      1: Step Time =    1.000,"PART-1-1",           602,       5.77894,      -15.1288,            0.,NA,NA,"",   791.832E-03,   700.425E-03,   369.327E-03,   46.3263E-03
C:/temp/dataset/3/18_5.odb,Step-1,Increment      1: Step Time =    1.000,"PART-1-1",           603,            5.,        -16.25,            0.,NA,NA,"",   717.163E-03,   584.457E-03,   415.611E-03,   57.1407E-03
C:/temp/dataset/3/18_5.odb,Step-1,Increment      1: Step Time =    1.000,"PART-1-1",           604,       2.77244,      -24.0596,            0.,NA,NA,"",   82.8216E-03,   61.0716E-03,   55.9436E-03,   20.3075E-03
C:/temp/dataset/3/18_5.odb,Step-1,Increment      1: Step Time =    1.000,"PART-1-1",           605,       3.76359,      -25.5842,            0.,NA,NA,"",   58.6716E-03,   35.7176E-03,   46.5468E-03,   18.3830E-03
C:/temp/dataset/3/18_5.odb,Step-1,Increment      1: Step Time =    1.000,"PART-1-1",           606,       5.11162,      -24.8806,            0.,NA,NA,"",   68.5193E-03,   33.8727E-03,   59.5612E-03,   21.9216E-03
C:/temp/dataset/3/18_5.odb,Step-1,Increment      1: Step Time =    1.000,"PART-1-1",           607,       4.12047,      -23.3559,            0.,NA,NA,"",   107.265E-03,   67.3044E-03,   83.5212E-03,   25.7932E-03
C:/temp/dataset/3/18_5.odb,Step-1,Increment      1: Step Time =    1.000,"PART-1-1",           608,       8.48587,      -2.76980,            0.,NA,NA,"",       2.79451,       2.79451,   5.39235E-03,   13.5337E-03
C:/temp/dataset/3/18_5.odb,Step-1,Increment      1: Step Time =    1.000,"PART-1-1",           609,       9.66601,      -3.38468,            0.,NA,NA,"",       2.64829,       2.64005,  -208.704E-03,   12.3925E-03
C:/temp/dataset/3/18_5.odb,Step-1,Increment      1: Step Time =    1.000,"PART-1-1",           610,       9.40849,      -1.21164,            0.,NA,NA,"",       3.11248,       3.10576,  -204.374E-03,   10.9162E-03
C:/temp/dataset/3/18_5.odb,Step-1,Increment      1: Step Time =    1.000,"PART-1-1",           611,       3.88333,            5.,            0.,NA,NA,"",       4.65003,       4.57950,   806.846E-03,   7.14674E-03
C:/temp/dataset/3/18_5.odb,Step-1,Increment      1: Step Time =    1.000,"PART-1-1",           612,       3.93709,       2.49951,            0.,NA,NA,"",       4.13475,       4.04684,   848.073E-03,   6.42280E-03
C:/temp/dataset/3/18_5.odb,Step-1,Increment      1: Step Time =    1.000,"PART-1-1",           613,       5.14044,       3.62548,            0.,NA,NA,"",       4.29964,       4.26025,   580.612E-03,   9.47348E-03
C:/temp/dataset/3/18_5.odb,Step-1,Increment      1: Step Time =    1.000,"PART-1-1",           614,       1.70000,           -5.,            0.,NA,NA,"",       2.90122,       2.49801,       1.47548,   1.60255E-03
C:/temp/dataset/3/18_5.odb,Step-1,Increment      1: Step Time =    1.000,"PART-1-1",           615,       2.88648,      -4.17028,            0.,NA,NA,"",       2.90669,       2.64903,       1.19644,   3.56854E-03
C:/temp/dataset/3/18_5.odb,Step-1,Increment      1: Step Time =    1.000,"PART-1-1",           616,       1.90498,      -3.27989,            0.,NA,NA,"",       3.18387,       2.86410,       1.39066,   2.02864E-03
C:/temp/dataset/3/18_5.odb,Step-1,Increment      1: Step Time =    1.000,"PART-1-1",           617,      -2.82853,       3.20340,            0.,NA,NA,"",       4.89879,       4.34985,       2.25319,   325.745E-06
C:/temp/dataset/3/18_5.odb,Step-1,Increment      1: Step Time =    1.000,"PART-1-1",           618,      -1.73717,       4.08745,            0.,NA,NA,"",       4.93615,       4.51201,       2.00183,   455.827E-06
C:/temp/dataset/3/18_5.odb,Step-1,Increment      1: Step Time =    1.000,"PART-1-1",           619,      -2.81667,            5.,            0.,NA,NA,"",       5.22115,       4.73032,       2.21009,   499.219E-06
C:/temp/dataset/3/18_5.odb,Step-1,Increment      1: Step Time =    1.000,"PART-1-1",           620,      -7.28333,            5.,            0.,NA,NA,"",       5.77345,       4.83303,       3.15824,   62.9167E-06
C:/temp/dataset/3/18_5.odb,Step-1,Increment      1: Step Time =    1.000,"PART-1-1",           621,      -11.7000,            5.,            0.,NA,NA,"",       6.41248,       4.93379,       4.09604,   658.941E-09
C:/temp/dataset/3/18_5.odb,Step-1,Increment      1: Step Time =    1.000,"PART-1-1",           622,      -11.5540,       2.50359,            0.,NA,NA,"",       6.02947,       4.40044,       4.12196,   9.33325E-06
C:/temp/dataset/3/18_5.odb,Step-1,Increment      1: Step Time =    1.000,"PART-1-1",           623,      -8.37698,      -4.01732,            0.,NA,NA,"",       4.64734,       2.94360,       3.59625,   28.9047E-06
C:/temp/dataset/3/18_5.odb,Step-1,Increment      1: Step Time =    1.000,"PART-1-1",           624,      -10.5279,      -3.86372,            0.,NA,NA,"",       5.05462,       3.02525,       4.04933,   7.19600E-06
C:/temp/dataset/3/18_5.odb,Step-1,Increment      1: Step Time =    1.000,"PART-1-1",           625,      -9.41667,           -5.,            0.,NA,NA,"",       4.72767,       2.75869,       3.83933,   13.5922E-06
C:/temp/dataset/3/18_5.odb,Step-1,Increment      1: Step Time =    1.000,"PART-1-1",           626,          3.75,          -20.,            0.,NA,NA,"",   136.421E-03,   101.000E-03,   91.7049E-03,   46.9922E-03
C:/temp/dataset/3/18_5.odb,Step-1,Increment      1: Step Time =    1.000,"PART-1-1",           627,       2.74072,      -21.3682,            0.,NA,NA,"",   116.272E-03,   90.9347E-03,   72.4572E-03,   17.5471E-03
C:/temp/dataset/3/18_5.odb,Step-1,Increment      1: Step Time =    1.000,"PART-1-1",           628,       4.11640,      -22.1674,            0.,NA,NA,"",   138.918E-03,   92.8476E-03,   103.333E-03,   31.8235E-03
C:/temp/dataset/3/18_5.odb,Step-1,Increment      1: Step Time =    1.000,"PART-1-1",           629,       5.12568,      -20.7992,            0.,NA,NA,"",   199.426E-03,   122.818E-03,   157.118E-03,   54.3582E-03
C:/temp/dataset/3/18_5.odb,Step-1,Increment      1: Step Time =    1.000,"PART-1-1",           630,          1.25,          -20.,            0.,NA,NA,"",   67.7432E-03,   59.0921E-03,   33.1249E-03,   10.7872E-03
C:/temp/dataset/3/18_5.odb,Step-1,Increment      1: Step Time =    1.000,"PART-1-1",           631,   73.0809E-03,      -21.3299,            0.,NA,NA,"",   68.1379E-03,   63.8218E-03,   23.8650E-03,   7.68189E-03
C:/temp/dataset/3/18_5.odb,Step-1,Increment      1: Step Time =    1.000,"PART-1-1",           632,       1.56380,      -22.6981,            0.,NA,NA,"",   88.0456E-03,   73.8893E-03,   47.8789E-03,   18.3863E-03
C:/temp/dataset/3/18_5.odb,Step-1,Increment      1: Step Time =    1.000,"PART-1-1",           633,         -1.25,          -20.,            0.,NA,NA,"",   53.3477E-03,   52.0970E-03,   11.4838E-03,   3.46814E-03
C:/temp/dataset/3/18_5.odb,Step-1,Increment      1: Step Time =    1.000,"PART-1-1",           634,      -2.46493,      -21.3147,            0.,NA,NA,"",   53.4288E-03,   52.9934E-03,   6.80697E-03,   3.89885E-03
C:/temp/dataset/3/18_5.odb,Step-1,Increment      1: Step Time =    1.000,"PART-1-1",           635,      -1.14185,      -22.6446,            0.,NA,NA,"",   61.3638E-03,   59.0972E-03,   16.5239E-03,   8.42188E-03
C:/temp/dataset/3/18_5.odb,Step-1,Increment      1: Step Time =    1.000,"PART-1-1",           636,         -3.75,          -20.,            0.,NA,NA,"",   46.7546E-03,   46.7513E-03,   559.318E-06,   1.88808E-03
C:/temp/dataset/3/18_5.odb,Step-1,Increment      1: Step Time =    1.000,"PART-1-1",           637,      -4.97847,      -21.2978,            0.,NA,NA,"",   46.4657E-03,   46.4581E-03,  -837.012E-06,   2.17345E-03
C:/temp/dataset/3/18_5.odb,Step-1,Increment      1: Step Time =    1.000,"PART-1-1",           638,      -3.69340,      -22.6125,            0.,NA,NA,"",   49.2851E-03,   49.1556E-03,   3.57058E-03,   4.60365E-03
C:/temp/dataset/3/18_5.odb,Step-1,Increment      1: Step Time =    1.000,"PART-1-1",           639,      -4.95791,      -23.8547,            0.,NA,NA,"",   42.8072E-03,   42.7711E-03,   1.75846E-03,   4.29311E-03
C:/temp/dataset/3/18_5.odb,Step-1,Increment      1: Step Time =    1.000,"PART-1-1",           640,      -6.21189,      -22.5887,            0.,NA,NA,"",   42.9811E-03,   42.9686E-03,  -1.03389E-03,   2.85579E-03
C:/temp/dataset/3/18_5.odb,Step-1,Increment      1: Step Time =    1.000,"PART-1-1",           641,      -7.46939,      -23.8324,            0.,NA,NA,"",   37.3379E-03,   37.3329E-03,  -610.746E-06,   2.95012E-03
C:/temp/dataset/3/18_5.odb,Step-1,Increment      1: Step Time =    1.000,"PART-1-1",           642,           15.,        -13.75,            0.,NA,NA,"",       1.10767,   825.177E-03,  -738.932E-03,   50.7574E-03
C:/temp/dataset/3/18_5.odb,Step-1,Increment      1: Step Time =    1.000,"PART-1-1",           643,       14.2106,      -12.3304,            0.,NA,NA,"",       1.22617,       1.00739,  -699.045E-03,   39.9858E-03
C:/temp/dataset/3/18_5.odb,Step-1,Increment      1: Step Time =    1.000,"PART-1-1",           644,       13.1387,      -13.2101,            0.,NA,NA,"",       1.01787,   878.454E-03,  -514.182E-03,   30.8099E-03
C:/temp/dataset/3/18_5.odb,Step-1,Increment      1: Step Time =    1.000,"PART-1-1",           645,           15.,        -11.25,            0.,NA,NA,"",       1.46005,       1.17103,  -872.019E-03,   45.0798E-03
C:/temp/dataset/3/18_5.odb,Step-1,Increment      1: Step Time =    1.000,"PART-1-1",           646,           15.,         -6.25,            0.,NA,NA,"",       2.30248,       2.01144,      -1.12051,   32.0957E-03
C:/temp/dataset/3/18_5.odb,Step-1,Increment      1: Step Time =    1.000,"PART-1-1",           647,       14.0624,      -4.92369,            0.,NA,NA,"",       2.47848,       2.26940,  -996.327E-03,   23.6207E-03
C:/temp/dataset/3/18_5.odb,Step-1,Increment      1: Step Time =    1.000,"PART-1-1",           648,       12.9264,      -6.09194,            0.,NA,NA,"",       2.18226,       2.05375,  -737.816E-03,   20.3421E-03
C:/temp/dataset/3/18_5.odb,Step-1,Increment      1: Step Time =    1.000,"PART-1-1",           649,           15.,         -3.75,            0.,NA,NA,"",       2.77993,       2.49181,      -1.23245,   24.9666E-03
C:/temp/dataset/3/18_5.odb,Step-1,Increment      1: Step Time =    1.000,"PART-1-1",           650,       13.0440,      -3.68493,            0.,NA,NA,"",       2.66356,       2.52599,  -844.930E-03,   17.4427E-03
C:/temp/dataset/3/18_5.odb,Step-1,Increment      1: Step Time =    1.000,"PART-1-1",           651,       8.06094,   477.426E-03,            0.,NA,NA,"",       3.50269,       3.50254,   32.8613E-03,   9.10290E-03
C:/temp/dataset/3/18_5.odb,Step-1,Increment      1: Step Time =    1.000,"PART-1-1",           652,       8.76493,       2.31856,            0.,NA,NA,"",       3.88829,       3.88542,  -149.312E-03,   7.60330E-03
C:/temp/dataset/3/18_5.odb,Step-1,Increment      1: Step Time =    1.000,"PART-1-1",           653,       6.73548,       2.80805,            0.,NA,NA,"",       4.05044,       4.04193,   262.417E-03,   7.31460E-03
C:/temp/dataset/3/18_5.odb,Step-1,Increment      1: Step Time =    1.000,"PART-1-1",           654,       6.03149,   966.916E-03,            0.,NA,NA,"",       3.68831,       3.66192,   440.397E-03,   9.76906E-03
C:/temp/dataset/3/18_5.odb,Step-1,Increment      1: Step Time =    1.000,"PART-1-1",           655,            5.,          8.75,            0.,NA,NA,"",       5.44412,       5.41967,   515.312E-03,   5.81311E-03
C:/temp/dataset/3/18_5.odb,Step-1,Increment      1: Step Time =    1.000,"PART-1-1",           656,       7.16919,       9.14751,            0.,NA,NA,"",       5.44536,       5.44526,   33.7813E-03,   6.42222E-03
C:/temp/dataset/3/18_5.odb,Step-1,Increment      1: Step Time =    1.000,"PART-1-1",           657,          3.75,           30.,            0.,NA,NA,"",       10.0704,       10.0663,   286.335E-03,   2.56451E-06
C:/temp/dataset/3/18_5.odb,Step-1,Increment      1: Step Time =    1.000,"PART-1-1",           658,       3.71036,       27.5731,            0.,NA,NA,"",       9.54584,       9.53931,   353.082E-03,   417.389E-09
C:/temp/dataset/3/18_5.odb,Step-1,Increment      1: Step Time =    1.000,"PART-1-1",           659,       7.38617,       23.8490,            0.,NA,NA,"",       8.64850,       8.64111,  -357.370E-03,   20.0968E-06
C:/temp/dataset/3/18_5.odb,Step-1,Increment      1: Step Time =    1.000,"PART-1-1",           660,       6.16255,       25.1024,            0.,NA,NA,"",       8.94391,       8.94309,  -121.208E-03,   6.88789E-06
C:/temp/dataset/3/18_5.odb,Step-1,Increment      1: Step Time =    1.000,"PART-1-1",           661,       4.93576,       23.8439,            0.,NA,NA,"",       8.70045,       8.69867,   175.813E-03,   9.16942E-06
C:/temp/dataset/3/18_5.odb,Step-1,Increment      1: Step Time =    1.000,"PART-1-1",           662,       6.15938,       22.5905,            0.,NA,NA,"",       8.39689,       8.39668,  -60.3565E-03,   18.9931E-06
C:/temp/dataset/3/18_5.odb,Step-1,Increment      1: Step Time =    1.000,"PART-1-1",           663,      -10.0017,       23.7560,            0.,NA,NA,"",       9.66547,       9.03731,       3.42758,   5.22402E-09
C:/temp/dataset/3/18_5.odb,Step-1,Increment      1: Step Time =    1.000,"PART-1-1",           664,      -8.75135,       22.5073,            0.,NA,NA,"",       9.29838,       8.73571,       3.18547,   22.2951E-09
C:/temp/dataset/3/18_5.odb,Step-1,Increment      1: Step Time =    1.000,"PART-1-1",           665,      -10.0004,       21.2526,            0.,NA,NA,"",       9.18076,       8.49266,       3.48726,   5.01019E-09
C:/temp/dataset/3/18_5.odb,Step-1,Increment      1: Step Time =    1.000,"PART-1-1",           666,      -11.2505,       22.5043,            0.,NA,NA,"",       9.55289,       8.79492,       3.72923,   4.46695E-09
C:/temp/dataset/3/18_5.odb,Step-1,Increment      1: Step Time =    1.000,"PART-1-1",           667,        -11.25,           20.,            0.,NA,NA,"",       9.07862,       8.25009,       3.78911,   7.00928E-09
C:/temp/dataset/3/18_5.odb,Step-1,Increment      1: Step Time =    1.000,"PART-1-1",           668,         -8.75,           20.,            0.,NA,NA,"",       8.80972,       8.19022,       3.24523,   12.1258E-09
C:/temp/dataset/3/18_5.odb,Step-1,Increment      1: Step Time =    1.000,"PART-1-1",           669,       7.37456,       21.3253,            0.,NA,NA,"",       8.09768,       8.09233,  -294.372E-03,   69.5148E-06
C:/temp/dataset/3/18_5.odb,Step-1,Increment      1: Step Time =    1.000,"PART-1-1",           670,      -1.26076,       25.0501,            0.,NA,NA,"",       9.23135,       9.10950,       1.49498,   994.805E-09
C:/temp/dataset/3/18_5.odb,Step-1,Increment      1: Step Time =    1.000,"PART-1-1",           671,      -2.50213,       23.7814,            0.,NA,NA,"",       9.04325,       8.86322,       1.79543,   525.557E-09
C:/temp/dataset/3/18_5.odb,Step-1,Increment      1: Step Time =    1.000,"PART-1-1",           672,          1.25,           20.,            0.,NA,NA,"",       8.02234,       7.95070,       1.06972,   2.74124E-06
C:/temp/dataset/3/18_5.odb,Step-1,Increment      1: Step Time =    1.000,"PART-1-1",           673,            5.,         13.75,            0.,NA,NA,"",       6.51523,       6.50292,   400.274E-03,   835.113E-06
C:/temp/dataset/3/18_5.odb,Step-1,Increment      1: Step Time =    1.000,"PART-1-1",           674,       7.85923,       4.51418,            0.,NA,NA,"",       4.38888,       4.38887,  -9.26545E-03,   7.26713E-03
C:/temp/dataset/3/18_5.odb,Step-1,Increment      1: Step Time =    1.000,"PART-1-1",           675,       9.45843,       7.45797,            0.,NA,NA,"",       5.02491,       5.00748,  -418.183E-03,   6.52522E-03
C:/temp/dataset/3/18_5.odb,Step-1,Increment      1: Step Time =    1.000,"PART-1-1",           676,       11.3500,       8.04392,            0.,NA,NA,"",       5.16060,       5.09216,  -837.693E-03,   4.76495E-03
C:/temp/dataset/3/18_5.odb,Step-1,Increment      1: Step Time =    1.000,"PART-1-1",           677,       10.2386,       8.70699,            0.,NA,NA,"",       5.30215,       5.26630,  -615.519E-03,   4.98177E-03
C:/temp/dataset/3/18_5.odb,Step-1,Increment      1: Step Time =    1.000,"PART-1-1",           678,   133.314E-03,       2.02047,            0.,NA,NA,"",       4.35782,       4.03237,       1.65245,   483.170E-06
C:/temp/dataset/3/18_5.odb,Step-1,Increment      1: Step Time =    1.000,"PART-1-1",           679,       2.26054,       1.70692,            0.,NA,NA,"",       4.10010,       3.91709,       1.21131,   2.79130E-03
C:/temp/dataset/3/18_5.odb,Step-1,Increment      1: Step Time =    1.000,"PART-1-1",           680,  -583.333E-03,            5.,            0.,NA,NA,"",       4.99047,       4.67830,       1.73731,   1.03865E-03
C:/temp/dataset/3/18_5.odb,Step-1,Increment      1: Step Time =    1.000,"PART-1-1",           681,  -713.179E-03,       3.09316,            0.,NA,NA,"",       4.64443,       4.27836,       1.80730,   289.732E-06
C:/temp/dataset/3/18_5.odb,Step-1,Increment      1: Step Time =    1.000,"PART-1-1",           682,      -10.2084,       1.19941,            0.,NA,NA,"",       5.63007,       4.09289,       3.86600,   20.2340E-06
C:/temp/dataset/3/18_5.odb,Step-1,Increment      1: Step Time =    1.000,"PART-1-1",           683,      -7.18333,           -5.,            0.,NA,NA,"",       4.31938,       2.70775,       3.36528,   62.2851E-06
C:/temp/dataset/3/18_5.odb,Step-1,Increment      1: Step Time =    1.000,"PART-1-1",           684,      -7.36178,      -2.99006,            0.,NA,NA,"",       4.59591,       3.13857,       3.35735,   86.1457E-06
C:/temp/dataset/3/18_5.odb,Step-1,Increment      1: Step Time =    1.000,"PART-1-1",           685,      -11.3125,  -91.5578E-03,            0.,NA,NA,"",       5.64199,       3.84397,       4.12987,   15.8582E-06
C:/temp/dataset/3/18_5.odb,Step-1,Increment      1: Step Time =    1.000,"PART-1-1",           686,      -11.6500,           -5.,            0.,NA,NA,"",       5.14777,       2.80960,       4.31344,   583.022E-09
C:/temp/dataset/3/18_5.odb,Step-1,Increment      1: Step Time =    1.000,"PART-1-1",           687,      -11.6245,      -2.63993,            0.,NA,NA,"",       5.39026,       3.31006,       4.25423,   8.43954E-06
C:/temp/dataset/3/18_5.odb,Step-1,Increment      1: Step Time =    1.000,"PART-1-1",           688,      -1.03706,       1.18772,            0.,NA,NA,"",       4.33082,       3.88251,       1.91890,   334.268E-06
C:/temp/dataset/3/18_5.odb,Step-1,Increment      1: Step Time =    1.000,"PART-1-1",           689,      -2.26684,   407.252E-03,            0.,NA,NA,"",       4.34197,       3.74469,       2.19773,   374.369E-06
C:/temp/dataset/3/18_5.odb,Step-1,Increment      1: Step Time =    1.000,"PART-1-1",           690,      -1.61706,  -775.207E-03,            0.,NA,NA,"",       4.05689,       3.47901,       2.08683,   366.364E-06
C:/temp/dataset/3/18_5.odb,Step-1,Increment      1: Step Time =    1.000,"PART-1-1",           691,      -4.44627,  -189.662E-03,            0.,NA,NA,"",       4.53868,       3.66713,       2.67428,   268.540E-06
C:/temp/dataset/3/18_5.odb,Step-1,Increment      1: Step Time =    1.000,"PART-1-1",           692,      -3.83065,   850.686E-03,            0.,NA,NA,"",       4.62130,       3.87399,       2.51965,   285.452E-06
C:/temp/dataset/3/18_5.odb,Step-1,Increment      1: Step Time =    1.000,"PART-1-1",           693,      -5.38306,   384.196E-03,            0.,NA,NA,"",       4.76412,       3.81012,       2.86004,   189.602E-06
C:/temp/dataset/3/18_5.odb,Step-1,Increment      1: Step Time =    1.000,"PART-1-1",           694,       3.90000,           -5.,            0.,NA,NA,"",       2.63724,       2.44380,   991.405E-03,   9.91226E-03
C:/temp/dataset/3/18_5.odb,Step-1,Increment      1: Step Time =    1.000,"PART-1-1",           695,       5.25667,      -4.01677,            0.,NA,NA,"",       2.70022,       2.61798,   661.357E-03,   20.7553E-03
C:/temp/dataset/3/18_5.odb,Step-1,Increment      1: Step Time =    1.000,"PART-1-1",           696,       4.24316,      -3.18705,            0.,NA,NA,"",       2.95765,       2.82504,   875.706E-03,   9.58192E-03
C:/temp/dataset/3/18_5.odb,Step-1,Increment      1: Step Time =    1.000,"PART-1-1",           697,       9.51721,      -4.82762,            0.,NA,NA,"",       2.35093,       2.34602,  -151.989E-03,   12.4288E-03
C:/temp/dataset/3/18_5.odb,Step-1,Increment      1: Step Time =    1.000,"PART-1-1",           698,       8.04384,      -4.93500,            0.,NA,NA,"",       2.35509,       2.35193,   121.996E-03,   14.8681E-03
C:/temp/dataset/3/18_5.odb,Step-1,Increment      1: Step Time =    1.000,"PART-1-1",           699,       8.61490,      -6.56470,            0.,NA,NA,"",       2.01964,       2.01930,   37.1844E-03,   11.6145E-03
C:/temp/dataset/3/18_5.odb,Step-1,Increment      1: Step Time =    1.000,"PART-1-1",           700,       10.0883,      -6.45732,            0.,NA,NA,"",       2.02790,       2.01566,  -222.542E-03,   11.4679E-03
C:/temp/dataset/3/18_5.odb,Step-1,Increment      1: Step Time =    1.000,"PART-1-1",           701,       9.29828,      -8.00429,            0.,NA,NA,"",       1.73926,       1.73813,  -62.5289E-03,   10.9044E-03
C:/temp/dataset/3/18_5.odb,Step-1,Increment      1: Step Time =    1.000,"PART-1-1",           702,       6.27674,      -21.4047,            0.,NA,NA,"",   154.899E-03,   97.2041E-03,   120.603E-03,   29.8510E-03
C:/temp/dataset/3/18_5.odb,Step-1,Increment      1: Step Time =    1.000,"PART-1-1",           703,       7.27122,      -20.3583,            0.,NA,NA,"",   173.467E-03,   140.860E-03,   101.238E-03,   21.1380E-03
C:/temp/dataset/3/18_5.odb,Step-1,Increment      1: Step Time =    1.000,"PART-1-1",           704,         -6.25,          -20.,            0.,NA,NA,"",   44.5785E-03,   44.4938E-03,  -2.74653E-03,   808.216E-06
C:/temp/dataset/3/18_5.odb,Step-1,Increment      1: Step Time =    1.000,"PART-1-1",           705,         -1.25,          -30.,            0.,NA,NA,"",            0.,   8.04551E-39,   9.64297E-39,   9.50303E-03
C:/temp/dataset/3/18_5.odb,Step-1,Increment      1: Step Time =    1.000,"PART-1-1",           706,       8.60683,      -25.8105,            0.,NA,NA,"",   8.63040E-03,  -5.43650E-03,   6.70286E-03,   7.61356E-03
C:/temp/dataset/3/18_5.odb,Step-1,Increment      1: Step Time =    1.000,"PART-1-1",           707,       7.41490,      -26.9159,            0.,NA,NA,"",   17.9505E-03,  -6.76200E-03,   16.6282E-03,   10.5989E-03
C:/temp/dataset/3/18_5.odb,Step-1,Increment      1: Step Time =    1.000,"PART-1-1",           708,       6.17638,      -25.8614,            0.,NA,NA,"",   40.9707E-03,   11.7131E-03,   39.2607E-03,   14.8759E-03
C:/temp/dataset/3/18_5.odb,Step-1,Increment      1: Step Time =    1.000,"PART-1-1",           709,       7.37219,      -25.0876,            0.,NA,NA,"",   36.0799E-03,   10.3425E-03,   34.5657E-03,   13.9153E-03
C:/temp/dataset/3/18_5.odb,Step-1,Increment      1: Step Time =    1.000,"PART-1-1",           710,       6.30743,      -24.1068,            0.,NA,NA,"",   73.5451E-03,   34.8960E-03,   64.7390E-03,   18.4842E-03
C:/temp/dataset/3/18_5.odb,Step-1,Increment      1: Step Time =    1.000,"PART-1-1",           711,   113.079E-03,      -23.9373,            0.,NA,NA,"",   65.4019E-03,   59.1330E-03,   27.9409E-03,   12.0506E-03
C:/temp/dataset/3/18_5.odb,Step-1,Increment      1: Step Time =    1.000,"PART-1-1",           712,      -2.43554,      -23.8906,            0.,NA,NA,"",   51.3562E-03,   50.4349E-03,   9.68396E-03,   6.48637E-03
C:/temp/dataset/3/18_5.odb,Step-1,Increment      1: Step Time =    1.000,"PART-1-1",           713,      -8.72529,      -25.0755,            0.,NA,NA,"",   30.3663E-03,   30.3657E-03,   187.698E-06,   3.24588E-03
C:/temp/dataset/3/18_5.odb,Step-1,Increment      1: Step Time =    1.000,"PART-1-1",           714,      -9.97606,      -23.8175,            0.,NA,NA,"",   33.9696E-03,   33.9658E-03,   508.012E-06,   1.98150E-03
C:/temp/dataset/3/18_5.odb,Step-1,Increment      1: Step Time =    1.000,"PART-1-1",           715,      -9.99641,      -28.7682,            0.,NA,NA,"",   7.96499E-03,   7.92819E-03,   764.723E-06,   4.15546E-03
C:/temp/dataset/3/18_5.odb,Step-1,Increment      1: Step Time =    1.000,"PART-1-1",           716,      -11.2465,      -27.5281,            0.,NA,NA,"",   14.8740E-03,   14.7992E-03,   1.48987E-03,   3.68765E-03
C:/temp/dataset/3/18_5.odb,Step-1,Increment      1: Step Time =    1.000,"PART-1-1",           717,        -11.25,          -30.,            0.,NA,NA,"",            0.,   3.56871E-39,   2.54761E-39,   3.89894E-03
C:/temp/dataset/3/18_5.odb,Step-1,Increment      1: Step Time =    1.000,"PART-1-1",           718,         -8.75,          -30.,            0.,NA,NA,"",            0.,   4.51889E-39,   2.25994E-39,   4.91346E-03
C:/temp/dataset/3/18_5.odb,Step-1,Increment      1: Step Time =    1.000,"PART-1-1",           719,      -8.73783,      -27.5479,            0.,NA,NA,"",   16.8711E-03,   16.8486E-03,   870.281E-06,   4.43688E-03
C:/temp/dataset/3/18_5.odb,Step-1,Increment      1: Step Time =    1.000,"PART-1-1",           720,       9.45286,      -20.3748,            0.,NA,NA,"",   148.030E-03,   146.428E-03,  -21.7160E-03,   6.71020E-03
C:/temp/dataset/3/18_5.odb,Step-1,Increment      1: Step Time =    1.000,"PART-1-1",           721,       8.38706,      -19.4374,            0.,NA,NA,"",   209.899E-03,   204.857E-03,   45.7321E-03,   13.1663E-03
C:/temp/dataset/3/18_5.odb,Step-1,Increment      1: Step Time =    1.000,"PART-1-1",           722,       8.33702,      -21.2957,            0.,NA,NA,"",   105.884E-03,   97.8521E-03,   40.4535E-03,   11.1814E-03
C:/temp/dataset/3/18_5.odb,Step-1,Increment      1: Step Time =    1.000,"PART-1-1",           723,       9.34035,      -18.0986,            0.,NA,NA,"",   314.787E-03,   314.068E-03,  -21.2641E-03,   8.00341E-03
C:/temp/dataset/3/18_5.odb,Step-1,Increment      1: Step Time =    1.000,"PART-1-1",           724,       10.7511,      -19.4747,            0.,NA,NA,"",   238.990E-03,   209.033E-03,  -115.850E-03,   14.0573E-03
C:/temp/dataset/3/18_5.odb,Step-1,Increment      1: Step Time =    1.000,"PART-1-1",           725,       9.57777,      -9.07511,            0.,NA,NA,"",       1.54605,       1.54314,  -94.7454E-03,   10.0721E-03
C:/temp/dataset/3/18_5.odb,Step-1,Increment      1: Step Time =    1.000,"PART-1-1",           726,       10.3854,      -7.79904,            0.,NA,NA,"",       1.77732,       1.76011,  -246.758E-03,   11.2068E-03
C:/temp/dataset/3/18_5.odb,Step-1,Increment      1: Step Time =    1.000,"PART-1-1",           727,       11.9371,      -7.89361,            0.,NA,NA,"",       1.79956,       1.72723,  -505.095E-03,   16.7986E-03
C:/temp/dataset/3/18_5.odb,Step-1,Increment      1: Step Time =    1.000,"PART-1-1",           728,       11.6400,      -6.55190,            0.,NA,NA,"",       2.03866,       1.97831,  -492.368E-03,   15.5036E-03
C:/temp/dataset/3/18_5.odb,Step-1,Increment      1: Step Time =    1.000,"PART-1-1",           729,       9.29748,       3.92298,            0.,NA,NA,"",       4.23560,       4.22514,  -297.495E-03,   6.79978E-03
C:/temp/dataset/3/18_5.odb,Step-1,Increment      1: Step Time =    1.000,"PART-1-1",           730,       10.7408,       1.93669,            0.,NA,NA,"",       3.79748,       3.75769,  -548.301E-03,   7.71263E-03
C:/temp/dataset/3/18_5.odb,Step-1,Increment      1: Step Time =    1.000,"PART-1-1",           731,       12.1175,       9.30164,            0.,NA,NA,"",       5.45171,       5.35251,      -1.03522,   3.19051E-03
C:/temp/dataset/3/18_5.odb,Step-1,Increment      1: Step Time =    1.000,"PART-1-1",           732,       12.3743,       7.25826,            0.,NA,NA,"",       5.00294,       4.89415,      -1.03766,   4.61160E-03
C:/temp/dataset/3/18_5.odb,Step-1,Increment      1: Step Time =    1.000,"PART-1-1",           733,       9.86952,       23.8294,            0.,NA,NA,"",       8.62421,       8.57742,  -897.122E-03,   26.5910E-06
C:/temp/dataset/3/18_5.odb,Step-1,Increment      1: Step Time =    1.000,"PART-1-1",           734,       8.61965,       22.5851,            0.,NA,NA,"",       8.35786,       8.33663,  -595.402E-03,   33.5523E-06
C:/temp/dataset/3/18_5.odb,Step-1,Increment      1: Step Time =    1.000,"PART-1-1",           735,         11.25,           30.,            0.,NA,NA,"",       9.97780,       9.88670,      -1.34524,   808.053E-09
C:/temp/dataset/3/18_5.odb,Step-1,Increment      1: Step Time =    1.000,"PART-1-1",           736,       9.97488,       28.7673,            0.,NA,NA,"",       9.70479,       9.64908,      -1.03833,   1.13502E-06
C:/temp/dataset/3/18_5.odb,Step-1,Increment      1: Step Time =    1.000,"PART-1-1",           737,          8.75,           30.,            0.,NA,NA,"",       9.97881,       9.94658,  -801.386E-03,   1.24620E-06
C:/temp/dataset/3/18_5.odb,Step-1,Increment      1: Step Time =    1.000,"PART-1-1",           738,       3.69885,       25.0915,            0.,NA,NA,"",       9.00928,       8.99971,   415.021E-03,   2.08160E-06
C:/temp/dataset/3/18_5.odb,Step-1,Increment      1: Step Time =    1.000,"PART-1-1",           739,       4.94207,       26.3392,            0.,NA,NA,"",       9.24209,       9.24138,   114.679E-03,   2.69706E-06
C:/temp/dataset/3/18_5.odb,Step-1,Increment      1: Step Time =    1.000,"PART-1-1",           740,         -6.25,           30.,            0.,NA,NA,"",       10.5958,       10.3059,       2.46184,   37.2143E-09
C:/temp/dataset/3/18_5.odb,Step-1,Increment      1: Step Time =    1.000,"PART-1-1",           741,      -11.2519,       25.0060,            0.,NA,NA,"",       10.0343,       9.33920,       3.66964,   3.53660E-09
C:/temp/dataset/3/18_5.odb,Step-1,Increment      1: Step Time =    1.000,"PART-1-1",           742,       11.7111,      -12.1867,            0.,NA,NA,"",       1.08157,       1.02206,  -353.806E-03,   17.4874E-03
C:/temp/dataset/3/18_5.odb,Step-1,Increment      1: Step Time =    1.000,"PART-1-1",           743,       12.0443,      -13.4388,            0.,NA,NA,"",   920.156E-03,   844.527E-03,  -365.322E-03,   21.3683E-03
C:/temp/dataset/3/18_5.odb,Step-1,Increment      1: Step Time =    1.000,"PART-1-1",           744,       9.07309,      -22.0228,            0.,NA,NA,"",   70.1857E-03,   70.1394E-03,   2.54998E-03,   8.57022E-03
C:/temp/dataset/3/18_5.odb,Step-1,Increment      1: Step Time =    1.000,"PART-1-1",           745,       9.10959,      -23.2638,            0.,NA,NA,"",   34.0792E-03,   34.0783E-03,  -248.414E-06,   9.65449E-03
C:/temp/dataset/3/18_5.odb,Step-1,Increment      1: Step Time =    1.000,"PART-1-1",           746,       10.5828,      -23.1781,            0.,NA,NA,"",   71.3276E-03,   38.5242E-03,  -60.0292E-03,   14.6045E-03
C:/temp/dataset/3/18_5.odb,Step-1,Increment      1: Step Time =    1.000,"PART-1-1",           747,       10.5463,      -21.9372,            0.,NA,NA,"",   105.738E-03,   77.9480E-03,  -71.4464E-03,   14.5024E-03
C:/temp/dataset/3/18_5.odb,Step-1,Increment      1: Step Time =    1.000,"PART-1-1",           748,      -1.00841,      -2.00181,            0.,NA,NA,"",       3.76962,       3.20432,       1.98554,   333.075E-06
C:/temp/dataset/3/18_5.odb,Step-1,Increment      1: Step Time =    1.000,"PART-1-1",           749,      -3.17395,      -1.50818,            0.,NA,NA,"",       4.14786,       3.35831,       2.43444,   322.042E-06
C:/temp/dataset/3/18_5.odb,Step-1,Increment      1: Step Time =    1.000,"PART-1-1",           750,       8.23699,       8.20647,            0.,NA,NA,"",       5.20906,       5.20612,  -175.028E-03,   6.95154E-03
C:/temp/dataset/3/18_5.odb,Step-1,Increment      1: Step Time =    1.000,"PART-1-1",           751,       8.58975,       6.06422,            0.,NA,NA,"",       4.72166,       4.71742,  -200.071E-03,   7.56837E-03
C:/temp/dataset/3/18_5.odb,Step-1,Increment      1: Step Time =    1.000,"PART-1-1",           752,       1.04870,      -2.29850,            0.,NA,NA,"",       3.46196,       3.09397,       1.55323,   1.12170E-03
C:/temp/dataset/3/18_5.odb,Step-1,Increment      1: Step Time =    1.000,"PART-1-1",           753,      -1.88356,       2.26041,            0.,NA,NA,"",       4.62042,       4.12874,       2.07407,   330.402E-06
C:/temp/dataset/3/18_5.odb,Step-1,Increment      1: Step Time =    1.000,"PART-1-1",           754,      -2.91638,       1.44829,            0.,NA,NA,"",       4.60275,       3.98005,       2.31181,   323.893E-06
C:/temp/dataset/3/18_5.odb,Step-1,Increment      1: Step Time =    1.000,"PART-1-1",           755,       3.03453,      -2.52132,            0.,NA,NA,"",       3.20486,       2.99900,       1.13011,   5.11624E-03
C:/temp/dataset/3/18_5.odb,Step-1,Increment      1: Step Time =    1.000,"PART-1-1",           756,       6.99799,      -3.46075,            0.,NA,NA,"",       2.70209,       2.68483,   304.986E-03,   15.2865E-03
C:/temp/dataset/3/18_5.odb,Step-1,Increment      1: Step Time =    1.000,"PART-1-1",           757,       7.63560,  -984.386E-03,            0.,NA,NA,"",       3.20145,       3.19818,   144.661E-03,   11.7285E-03
C:/temp/dataset/3/18_5.odb,Step-1,Increment      1: Step Time =    1.000,"PART-1-1",           758,       6.14771,      -1.67534,            0.,NA,NA,"",       3.12443,       3.09100,   455.841E-03,   13.1368E-03
C:/temp/dataset/3/18_5.odb,Step-1,Increment      1: Step Time =    1.000,"PART-1-1",           759,       4.94795,      -26.8240,            0.,NA,NA,"",   34.2594E-03,   13.0752E-03,   31.6662E-03,   16.2702E-03
C:/temp/dataset/3/18_5.odb,Step-1,Increment      1: Step Time =    1.000,"PART-1-1",           760,      -11.2341,      -25.0541,            0.,NA,NA,"",   28.0189E-03,   27.9352E-03,   2.16430E-03,   2.23544E-03
C:/temp/dataset/3/18_5.odb,Step-1,Increment      1: Step Time =    1.000,"PART-1-1",           761,      -9.98574,      -26.3021,            0.,NA,NA,"",   22.7515E-03,   22.7291E-03,   1.00995E-03,   3.40139E-03
C:/temp/dataset/3/18_5.odb,Step-1,Increment      1: Step Time =    1.000,"PART-1-1",           762,           15.,        -26.25,            0.,NA,NA,"",   120.521E-03,   37.2984E-03,  -114.604E-03,   39.7993E-03
C:/temp/dataset/3/18_5.odb,Step-1,Increment      1: Step Time =    1.000,"PART-1-1",           763,       9.63478,      -24.7731,            0.,NA,NA,"",   17.2930E-03,   4.44849E-03,  -16.7111E-03,   9.77026E-03
C:/temp/dataset/3/18_5.odb,Step-1,Increment      1: Step Time =    1.000,"PART-1-1",           764,       9.83383,   250.169E-03,            0.,NA,NA,"",       3.42629,       3.41118,  -321.331E-03,   9.56994E-03
C:/temp/dataset/3/18_5.odb,Step-1,Increment      1: Step Time =    1.000,"PART-1-1",           765,       11.1222,       22.5628,            0.,NA,NA,"",       8.34999,       8.27190,      -1.13928,   34.4561E-06
C:/temp/dataset/3/18_5.odb,Step-1,Increment      1: Step Time =    1.000,"PART-1-1",           766,       9.84566,       21.3197,            0.,NA,NA,"",       8.07499,       8.03204,  -831.753E-03,   72.6866E-06
C:/temp/dataset/3/18_5.odb,Step-1,Increment      1: Step Time =    1.000,"PART-1-1",           767,      -3.18112,  -190.353E-03,            0.,NA,NA,"",       4.36181,       3.63845,       2.40562,   347.285E-06
C:/temp/dataset/3/18_5.odb,Step-1,Increment      1: Step Time =    1.000,"PART-1-1",           768,       4.54417,       1.21940,            0.,NA,NA,"",       3.82913,       3.75602,   744.731E-03,   7.76991E-03
C:/temp/dataset/3/18_5.odb,Step-1,Increment      1: Step Time =    1.000,"PART-1-1",           769,       9.22107,       9.51460,            0.,NA,NA,"",       5.48736,       5.47156,  -416.048E-03,   4.88207E-03
C:/temp/dataset/3/18_5.odb,Step-1,Increment      1: Step Time =    1.000,"PART-1-1",           770,       11.1709,      -3.71800,            0.,NA,NA,"",       2.59086,       2.54502,  -485.191E-03,   13.4511E-03
C:/temp/dataset/3/18_5.odb,Step-1,Increment      1: Step Time =    1.000,"PART-1-1",           771,       11.0221,      -5.16095,            0.,NA,NA,"",       2.29440,       2.25578,  -419.153E-03,   13.4662E-03
C:/temp/dataset/3/18_5.odb,Step-1,Increment      1: Step Time =    1.000,"PART-1-1",           772,       12.3085,      -4.70099,            0.,NA,NA,"",       2.42526,       2.33080,  -670.274E-03,   16.3918E-03
C:/temp/dataset/3/18_5.odb,Step-1,Increment      1: Step Time =    1.000,"PART-1-1",           773,       5.03877,      -2.41022,            0.,NA,NA,"",       3.04703,       2.96672,   694.982E-03,   13.2218E-03
C:/temp/dataset/3/18_5.odb,Step-1,Increment      1: Step Time =    1.000,"PART-1-1",           774,       11.0080,       9.74440,            0.,NA,NA,"",       5.53633,       5.47728,  -806.434E-03,   3.44878E-03
C:/temp/dataset/3/18_5.odb,Step-1,Increment      1: Step Time =    1.000,"PART-1-1",           775,       7.33953,      -23.4839,            0.,NA,NA,"",   66.5779E-03,   37.3473E-03,   55.1162E-03,   16.7059E-03
C:/temp/dataset/3/18_5.odb,Step-1,Increment      1: Step Time =    1.000,"PART-1-1",           776,       6.60048,      -22.7490,            0.,NA,NA,"",   103.701E-03,   60.2941E-03,   84.3719E-03,   22.3004E-03
C:/temp/dataset/3/18_5.odb,Step-1,Increment      1: Step Time =    1.000,"PART-1-1",           777,       5.56839,      -23.3719,            0.,NA,NA,"",   101.298E-03,   55.1581E-03,   84.9645E-03,   25.0001E-03
C:/temp/dataset/3/18_5.odb,Step-1,Increment      1: Step Time =    1.000,"PART-1-1",           778,       5.56431,      -22.1833,            0.,NA,NA,"",   138.099E-03,   82.5643E-03,   110.700E-03,   29.9819E-03
C:/temp/dataset/3/18_5.odb,Step-1,Increment      1: Step Time =    1.000,"PART-1-1",           779,       7.31291,      -21.9704,            0.,NA,NA,"",   108.401E-03,   75.1021E-03,   78.1694E-03,   18.7729E-03
C:/temp/dataset/3/18_5.odb,Step-1,Increment      1: Step Time =    1.000,"PART-1-1",           780,       8.04898,      -22.6975,            0.,NA,NA,"",   66.3130E-03,   50.8339E-03,   42.5832E-03,   12.6776E-03
C:/temp/dataset/3/18_5.odb,Step-1,Increment      1: Step Time =    1.000,"PART-1-1",           781,       5.89213,  -472.373E-03,            0.,NA,NA,"",       3.39173,       3.35590,   491.722E-03,   9.91253E-03
C:/temp/dataset/3/18_5.odb,Step-1,Increment      1: Step Time =    1.000,"PART-1-1",           782,       8.40014,      -24.0502,            0.,NA,NA,"",   28.3020E-03,   19.4964E-03,   20.5157E-03,   9.74873E-03
