ODB Name,Step,Frame,Part Instance Name,    êﬂì_ÉâÉxÉã,X,Y,Z,Section Name,Material Name,Section Point,   U-Magnitude,          U-U1,          U-U2,       S-Mises
C:/temp/dataset/3/19_2.odb,Step-1,Increment      1: Step Time =    1.000,"PART-1-1",             1,          -15.,           20.,            0.,NA,NA,"",       1.13917,  -882.497E-03,  -720.354E-03,   15.8603E-12
C:/temp/dataset/3/19_2.odb,Step-1,Increment      1: Step Time =    1.000,"PART-1-1",             2,          -15.,           25.,            0.,NA,NA,"",       1.24912,      -1.01917,  -722.222E-03,   112.162E-12
C:/temp/dataset/3/19_2.odb,Step-1,Increment      1: Step Time =    1.000,"PART-1-1",             3,           -5.,           20.,            0.,NA,NA,"",   992.586E-03,  -886.234E-03,  -447.009E-03,   1.24042E-09
C:/temp/dataset/3/19_2.odb,Step-1,Increment      1: Step Time =    1.000,"PART-1-1",             4,            5.,           20.,            0.,NA,NA,"",   906.755E-03,  -889.970E-03,  -173.664E-03,   622.056E-09
C:/temp/dataset/3/19_2.odb,Step-1,Increment      1: Step Time =    1.000,"PART-1-1",             5,            5.,          12.5,            0.,NA,NA,"",   705.945E-03,  -684.976E-03,  -170.780E-03,   41.1066E-06
C:/temp/dataset/3/19_2.odb,Step-1,Increment      1: Step Time =    1.000,"PART-1-1",             6,            5.,            5.,            0.,NA,NA,"",   513.221E-03,  -484.459E-03,  -169.396E-03,   3.03073E-03
C:/temp/dataset/3/19_2.odb,Step-1,Increment      1: Step Time =    1.000,"PART-1-1",             7,      -1.70000,            5.,            0.,NA,NA,"",   613.592E-03,  -489.551E-03,  -369.912E-03,   1.11925E-03
C:/temp/dataset/3/19_2.odb,Step-1,Increment      1: Step Time =    1.000,"PART-1-1",             8,      -8.40000,            5.,            0.,NA,NA,"",   744.853E-03,  -488.808E-03,  -562.026E-03,   61.7651E-06
C:/temp/dataset/3/19_2.odb,Step-1,Increment      1: Step Time =    1.000,"PART-1-1",             9,          -15.,            5.,            0.,NA,NA,"",   897.621E-03,  -486.075E-03,  -754.622E-03,   1.03066E-06
C:/temp/dataset/3/19_2.odb,Step-1,Increment      1: Step Time =    1.000,"PART-1-1",            10,          -15.,            0.,            0.,NA,NA,"",   825.843E-03,  -340.221E-03,  -752.506E-03,   6.09573E-06
C:/temp/dataset/3/19_2.odb,Step-1,Increment      1: Step Time =    1.000,"PART-1-1",            11,          -15.,           -5.,            0.,NA,NA,"",   775.154E-03,  -194.364E-03,  -750.390E-03,   905.031E-09
C:/temp/dataset/3/19_2.odb,Step-1,Increment      1: Step Time =    1.000,"PART-1-1",            12,      -8.30000,           -5.,            0.,NA,NA,"",   588.973E-03,  -197.134E-03,  -555.002E-03,   55.2623E-06
C:/temp/dataset/3/19_2.odb,Step-1,Increment      1: Step Time =    1.000,"PART-1-1",            13,      -1.60000,           -5.,            0.,NA,NA,"",   409.627E-03,  -198.802E-03,  -358.151E-03,   288.145E-06
C:/temp/dataset/3/19_2.odb,Step-1,Increment      1: Step Time =    1.000,"PART-1-1",            14,            5.,           -5.,            0.,NA,NA,"",   251.333E-03,  -206.871E-03,  -142.733E-03,   10.2978E-03
C:/temp/dataset/3/19_2.odb,Step-1,Increment      1: Step Time =    1.000,"PART-1-1",            15,            5.,         -12.5,            0.,NA,NA,"",   115.097E-03,  -80.3146E-03,  -82.4435E-03,   7.91098E-03
C:/temp/dataset/3/19_2.odb,Step-1,Increment      1: Step Time =    1.000,"PART-1-1",            16,            5.,          -20.,            0.,NA,NA,"",   24.6124E-03,  -3.57137E-03,  -24.3519E-03,   9.27714E-03
C:/temp/dataset/3/19_2.odb,Step-1,Increment      1: Step Time =    1.000,"PART-1-1",            17,           -5.,          -20.,            0.,NA,NA,"",   1.49700E-03,  -1.49317E-03,   106.931E-06,   143.226E-06
C:/temp/dataset/3/19_2.odb,Step-1,Increment      1: Step Time =    1.000,"PART-1-1",            18,          -15.,          -20.,            0.,NA,NA,"",   1.95036E-03,  -1.91252E-03,  -382.338E-06,   2.27662E-06
C:/temp/dataset/3/19_2.odb,Step-1,Increment      1: Step Time =    1.000,"PART-1-1",            19,          -15.,          -25.,            0.,NA,NA,"",   1.33425E-03,  -1.26118E-03,  -435.485E-06,   16.1450E-06
C:/temp/dataset/3/19_2.odb,Step-1,Increment      1: Step Time =    1.000,"PART-1-1",            20,          -15.,          -30.,            0.,NA,NA,"",            0.,  -109.170E-42,  -171.767E-42,   330.057E-06
C:/temp/dataset/3/19_2.odb,Step-1,Increment      1: Step Time =    1.000,"PART-1-1",            21,           15.,          -30.,            0.,NA,NA,"",            0.,   139.711E-42,  -70.9407E-42,   465.028E-06
C:/temp/dataset/3/19_2.odb,Step-1,Increment      1: Step Time =    1.000,"PART-1-1",            22,           15.,         -22.5,            0.,NA,NA,"",   12.2302E-03,   405.308E-06,   12.2235E-03,   3.48028E-03
C:/temp/dataset/3/19_2.odb,Step-1,Increment      1: Step Time =    1.000,"PART-1-1",            23,           15.,          -15.,            0.,NA,NA,"",   62.7100E-03,  -45.0714E-03,   43.6018E-03,   5.33775E-03
C:/temp/dataset/3/19_2.odb,Step-1,Increment      1: Step Time =    1.000,"PART-1-1",            24,           15.,          -7.5,            0.,NA,NA,"",   179.025E-03,  -160.734E-03,   78.8314E-03,   5.17725E-03
C:/temp/dataset/3/19_2.odb,Step-1,Increment      1: Step Time =    1.000,"PART-1-1",            25,           15.,            0.,            0.,NA,NA,"",   358.659E-03,  -343.632E-03,   102.731E-03,   2.07876E-03
C:/temp/dataset/3/19_2.odb,Step-1,Increment      1: Step Time =    1.000,"PART-1-1",            26,           15.,           7.5,            0.,NA,NA,"",   561.327E-03,  -551.486E-03,   104.646E-03,   19.7860E-06
C:/temp/dataset/3/19_2.odb,Step-1,Increment      1: Step Time =    1.000,"PART-1-1",            27,           15.,           15.,            0.,NA,NA,"",   763.835E-03,  -757.053E-03,   101.565E-03,   14.2754E-06
C:/temp/dataset/3/19_2.odb,Step-1,Increment      1: Step Time =    1.000,"PART-1-1",            28,           15.,          22.5,            0.,NA,NA,"",   967.099E-03,  -962.045E-03,   98.7423E-03,   209.758E-09
C:/temp/dataset/3/19_2.odb,Step-1,Increment      1: Step Time =    1.000,"PART-1-1",            29,           15.,           30.,            0.,NA,NA,"",       1.17099,      -1.16705,   95.9407E-03,   9.30533E-09
C:/temp/dataset/3/19_2.odb,Step-1,Increment      1: Step Time =    1.000,"PART-1-1",            30,           7.5,           30.,            0.,NA,NA,"",       1.16935,      -1.16425,  -109.065E-03,   138.424E-09
C:/temp/dataset/3/19_2.odb,Step-1,Increment      1: Step Time =    1.000,"PART-1-1",            31,            0.,           30.,            0.,NA,NA,"",       1.20316,      -1.16145,  -314.073E-03,   14.4186E-09
C:/temp/dataset/3/19_2.odb,Step-1,Increment      1: Step Time =    1.000,"PART-1-1",            32,          -7.5,           30.,            0.,NA,NA,"",       1.26961,      -1.15864,  -519.082E-03,   710.673E-12
C:/temp/dataset/3/19_2.odb,Step-1,Increment      1: Step Time =    1.000,"PART-1-1",            33,          -15.,           30.,            0.,NA,NA,"",       1.36392,      -1.15584,  -724.090E-03,   14.8563E-12
C:/temp/dataset/3/19_2.odb,Step-1,Increment      1: Step Time =    1.000,"PART-1-1",            34,          -15.,          22.5,            0.,NA,NA,"",       1.19346,  -950.833E-03,  -721.288E-03,   49.7537E-12
C:/temp/dataset/3/19_2.odb,Step-1,Increment      1: Step Time =    1.000,"PART-1-1",            35,          -7.5,           20.,            0.,NA,NA,"",       1.02437,  -885.300E-03,  -515.345E-03,   756.638E-12
C:/temp/dataset/3/19_2.odb,Step-1,Increment      1: Step Time =    1.000,"PART-1-1",            36,          -10.,           20.,            0.,NA,NA,"",       1.05962,  -884.365E-03,  -583.681E-03,   299.282E-12
C:/temp/dataset/3/19_2.odb,Step-1,Increment      1: Step Time =    1.000,"PART-1-1",            37,         -12.5,           20.,            0.,NA,NA,"",       1.09799,  -883.431E-03,  -652.017E-03,   64.6795E-12
C:/temp/dataset/3/19_2.odb,Step-1,Increment      1: Step Time =    1.000,"PART-1-1",            38,           2.5,           20.,            0.,NA,NA,"",   921.385E-03,  -889.036E-03,  -242.001E-03,   92.4714E-09
C:/temp/dataset/3/19_2.odb,Step-1,Increment      1: Step Time =    1.000,"PART-1-1",            39,            0.,           20.,            0.,NA,NA,"",   940.763E-03,  -888.102E-03,  -310.337E-03,   25.8728E-09
C:/temp/dataset/3/19_2.odb,Step-1,Increment      1: Step Time =    1.000,"PART-1-1",            40,          -2.5,           20.,            0.,NA,NA,"",   964.604E-03,  -887.168E-03,  -378.673E-03,   2.38806E-09
C:/temp/dataset/3/19_2.odb,Step-1,Increment      1: Step Time =    1.000,"PART-1-1",            41,            5.,           15.,            0.,NA,NA,"",   772.627E-03,  -753.290E-03,  -171.775E-03,   16.5258E-06
C:/temp/dataset/3/19_2.odb,Step-1,Increment      1: Step Time =    1.000,"PART-1-1",            42,            5.,          17.5,            0.,NA,NA,"",   839.588E-03,  -821.629E-03,  -172.726E-03,   3.37534E-06
C:/temp/dataset/3/19_2.odb,Step-1,Increment      1: Step Time =    1.000,"PART-1-1",            43,            5.,           7.5,            0.,NA,NA,"",   574.576E-03,  -549.320E-03,  -168.478E-03,   539.182E-06
C:/temp/dataset/3/19_2.odb,Step-1,Increment      1: Step Time =    1.000,"PART-1-1",            44,            5.,           10.,            0.,NA,NA,"",   639.755E-03,  -616.823E-03,  -169.750E-03,   149.901E-06
C:/temp/dataset/3/19_2.odb,Step-1,Increment      1: Step Time =    1.000,"PART-1-1",            45,   533.333E-03,            5.,            0.,NA,NA,"",   578.043E-03,  -489.929E-03,  -306.762E-03,   2.00433E-03
C:/temp/dataset/3/19_2.odb,Step-1,Increment      1: Step Time =    1.000,"PART-1-1",            46,       2.76667,            5.,            0.,NA,NA,"",   544.326E-03,  -488.769E-03,  -239.574E-03,   2.89186E-03
C:/temp/dataset/3/19_2.odb,Step-1,Increment      1: Step Time =    1.000,"PART-1-1",            47,      -6.16667,            5.,            0.,NA,NA,"",   697.538E-03,  -489.523E-03,  -496.917E-03,   173.982E-06
C:/temp/dataset/3/19_2.odb,Step-1,Increment      1: Step Time =    1.000,"PART-1-1",            48,      -3.93333,            5.,            0.,NA,NA,"",   653.349E-03,  -489.968E-03,  -432.200E-03,   528.379E-06
C:/temp/dataset/3/19_2.odb,Step-1,Increment      1: Step Time =    1.000,"PART-1-1",            49,      -12.8000,            5.,            0.,NA,NA,"",   844.916E-03,  -487.012E-03,  -690.436E-03,   2.07059E-06
C:/temp/dataset/3/19_2.odb,Step-1,Increment      1: Step Time =    1.000,"PART-1-1",            50,      -10.6000,            5.,            0.,NA,NA,"",   793.883E-03,  -487.934E-03,  -626.236E-03,   18.0426E-06
C:/temp/dataset/3/19_2.odb,Step-1,Increment      1: Step Time =    1.000,"PART-1-1",            51,          -15.,           2.5,            0.,NA,NA,"",   859.383E-03,  -413.145E-03,  -753.558E-03,   2.26464E-06
C:/temp/dataset/3/19_2.odb,Step-1,Increment      1: Step Time =    1.000,"PART-1-1",            52,          -15.,          -2.5,            0.,NA,NA,"",   797.575E-03,  -267.290E-03,  -751.454E-03,   2.13920E-06
C:/temp/dataset/3/19_2.odb,Step-1,Increment      1: Step Time =    1.000,"PART-1-1",            53,      -10.5333,           -5.,            0.,NA,NA,"",   650.438E-03,  -196.250E-03,  -620.125E-03,   17.0612E-06
C:/temp/dataset/3/19_2.odb,Step-1,Increment      1: Step Time =    1.000,"PART-1-1",            54,      -12.7667,           -5.,            0.,NA,NA,"",   712.542E-03,  -195.314E-03,  -685.251E-03,   2.23024E-06
C:/temp/dataset/3/19_2.odb,Step-1,Increment      1: Step Time =    1.000,"PART-1-1",            55,      -3.83333,           -5.,            0.,NA,NA,"",   468.457E-03,  -198.456E-03,  -424.343E-03,   251.875E-06
C:/temp/dataset/3/19_2.odb,Step-1,Increment      1: Step Time =    1.000,"PART-1-1",            56,      -6.06667,           -5.,            0.,NA,NA,"",   528.285E-03,  -197.902E-03,  -489.817E-03,   138.066E-06
C:/temp/dataset/3/19_2.odb,Step-1,Increment      1: Step Time =    1.000,"PART-1-1",            57,       2.80000,           -5.,            0.,NA,NA,"",   298.555E-03,  -200.144E-03,  -221.534E-03,   2.56432E-03
C:/temp/dataset/3/19_2.odb,Step-1,Increment      1: Step Time =    1.000,"PART-1-1",            58,   600.000E-03,           -5.,            0.,NA,NA,"",   353.071E-03,  -199.278E-03,  -291.458E-03,   476.689E-06
C:/temp/dataset/3/19_2.odb,Step-1,Increment      1: Step Time =    1.000,"PART-1-1",            59,            5.,          -10.,            0.,NA,NA,"",   154.794E-03,  -117.747E-03,  -100.483E-03,   7.75655E-03
C:/temp/dataset/3/19_2.odb,Step-1,Increment      1: Step Time =    1.000,"PART-1-1",            60,            5.,          -7.5,            0.,NA,NA,"",   199.885E-03,  -161.238E-03,  -118.137E-03,   8.36620E-03
C:/temp/dataset/3/19_2.odb,Step-1,Increment      1: Step Time =    1.000,"PART-1-1",            61,            5.,         -17.5,            0.,NA,NA,"",   53.4736E-03,  -24.9624E-03,  -47.2896E-03,   8.32952E-03
C:/temp/dataset/3/19_2.odb,Step-1,Increment      1: Step Time =    1.000,"PART-1-1",            62,            5.,          -15.,            0.,NA,NA,"",   81.5033E-03,  -49.6388E-03,  -64.6435E-03,   7.63986E-03
C:/temp/dataset/3/19_2.odb,Step-1,Increment      1: Step Time =    1.000,"PART-1-1",            63,          -2.5,          -20.,            0.,NA,NA,"",   1.26375E-03,  -1.09035E-03,  -638.910E-06,   194.202E-06
C:/temp/dataset/3/19_2.odb,Step-1,Increment      1: Step Time =    1.000,"PART-1-1",            64,            0.,          -20.,            0.,NA,NA,"",   2.79261E-03,  -531.791E-06,  -2.74151E-03,   436.980E-06
C:/temp/dataset/3/19_2.odb,Step-1,Increment      1: Step Time =    1.000,"PART-1-1",            65,           2.5,          -20.,            0.,NA,NA,"",   7.91998E-03,   198.617E-06,  -7.91749E-03,   2.04589E-03
C:/temp/dataset/3/19_2.odb,Step-1,Increment      1: Step Time =    1.000,"PART-1-1",            66,         -12.5,          -20.,            0.,NA,NA,"",   1.90324E-03,  -1.90133E-03,  -85.1541E-06,   14.5027E-06
C:/temp/dataset/3/19_2.odb,Step-1,Increment      1: Step Time =    1.000,"PART-1-1",            67,          -10.,          -20.,            0.,NA,NA,"",   1.85106E-03,  -1.84359E-03,   166.145E-06,   37.6807E-06
C:/temp/dataset/3/19_2.odb,Step-1,Increment      1: Step Time =    1.000,"PART-1-1",            68,          -7.5,          -20.,            0.,NA,NA,"",   1.74770E-03,  -1.72502E-03,   280.678E-06,   71.7670E-06
C:/temp/dataset/3/19_2.odb,Step-1,Increment      1: Step Time =    1.000,"PART-1-1",            69,          -15.,         -22.5,            0.,NA,NA,"",   1.67079E-03,  -1.62383E-03,  -393.319E-06,   13.1990E-06
C:/temp/dataset/3/19_2.odb,Step-1,Increment      1: Step Time =    1.000,"PART-1-1",            70,          -15.,         -27.5,            0.,NA,NA,"",   832.226E-06,  -720.644E-06,  -416.259E-06,   85.8061E-06
C:/temp/dataset/3/19_2.odb,Step-1,Increment      1: Step Time =    1.000,"PART-1-1",            71,          12.5,          -30.,            0.,NA,NA,"",            0.,   1.22958E-39,   76.2531E-42,   1.21740E-03
C:/temp/dataset/3/19_2.odb,Step-1,Increment      1: Step Time =    1.000,"PART-1-1",            72,           10.,          -30.,            0.,NA,NA,"",            0.,   1.25092E-39,  -162.186E-42,   1.35256E-03
C:/temp/dataset/3/19_2.odb,Step-1,Increment      1: Step Time =    1.000,"PART-1-1",            73,           7.5,          -30.,            0.,NA,NA,"",            0.,   394.990E-42,  -2.07828E-39,   1.29565E-03
C:/temp/dataset/3/19_2.odb,Step-1,Increment      1: Step Time =    1.000,"PART-1-1",            74,            5.,          -30.,            0.,NA,NA,"",            0.,   702.177E-42,  -2.92728E-39,   1.23568E-03
C:/temp/dataset/3/19_2.odb,Step-1,Increment      1: Step Time =    1.000,"PART-1-1",            75,           2.5,          -30.,            0.,NA,NA,"",            0.,  -65.2262E-42,  -2.06434E-39,   1.15070E-03
C:/temp/dataset/3/19_2.odb,Step-1,Increment      1: Step Time =    1.000,"PART-1-1",            76,            0.,          -30.,            0.,NA,NA,"",            0.,  -445.400E-42,  -1.07079E-39,   967.101E-06
C:/temp/dataset/3/19_2.odb,Step-1,Increment      1: Step Time =    1.000,"PART-1-1",            77,          -2.5,          -30.,            0.,NA,NA,"",            0.,  -1.00857E-39,  -1.22708E-39,   716.481E-06
C:/temp/dataset/3/19_2.odb,Step-1,Increment      1: Step Time =    1.000,"PART-1-1",            78,           -5.,          -30.,            0.,NA,NA,"",            0.,  -439.523E-42,  -47.6624E-42,   497.332E-06
C:/temp/dataset/3/19_2.odb,Step-1,Increment      1: Step Time =    1.000,"PART-1-1",            79,          -7.5,          -30.,            0.,NA,NA,"",            0.,  -332.514E-42,   70.1294E-42,   336.447E-06
C:/temp/dataset/3/19_2.odb,Step-1,Increment      1: Step Time =    1.000,"PART-1-1",            80,          -10.,          -30.,            0.,NA,NA,"",            0.,  -310.417E-42,  -258.224E-42,   234.656E-06
C:/temp/dataset/3/19_2.odb,Step-1,Increment      1: Step Time =    1.000,"PART-1-1",            81,         -12.5,          -30.,            0.,NA,NA,"",            0.,  -263.806E-42,  -218.706E-42,   159.183E-06
C:/temp/dataset/3/19_2.odb,Step-1,Increment      1: Step Time =    1.000,"PART-1-1",            82,           15.,          -25.,            0.,NA,NA,"",   6.39784E-03,   3.14419E-03,   5.57194E-03,   2.42821E-03
C:/temp/dataset/3/19_2.odb,Step-1,Increment      1: Step Time =    1.000,"PART-1-1",            83,           15.,         -27.5,            0.,NA,NA,"",   2.67681E-03,   2.36822E-03,   1.24774E-03,   1.35349E-03
C:/temp/dataset/3/19_2.odb,Step-1,Increment      1: Step Time =    1.000,"PART-1-1",            84,           15.,         -17.5,            0.,NA,NA,"",   39.0576E-03,  -22.3938E-03,   32.0002E-03,   5.08526E-03
C:/temp/dataset/3/19_2.odb,Step-1,Increment      1: Step Time =    1.000,"PART-1-1",            85,           15.,          -20.,            0.,NA,NA,"",   22.4911E-03,  -7.54178E-03,   21.1890E-03,   4.43299E-03
C:/temp/dataset/3/19_2.odb,Step-1,Increment      1: Step Time =    1.000,"PART-1-1",            86,           15.,          -10.,            0.,NA,NA,"",   132.503E-03,  -114.142E-03,   67.2965E-03,   5.41070E-03
C:/temp/dataset/3/19_2.odb,Step-1,Increment      1: Step Time =    1.000,"PART-1-1",            87,           15.,         -12.5,            0.,NA,NA,"",   93.8068E-03,  -75.6522E-03,   55.4658E-03,   5.39879E-03
C:/temp/dataset/3/19_2.odb,Step-1,Increment      1: Step Time =    1.000,"PART-1-1",            88,           15.,          -2.5,            0.,NA,NA,"",   293.704E-03,  -277.044E-03,   97.5104E-03,   3.38290E-03
C:/temp/dataset/3/19_2.odb,Step-1,Increment      1: Step Time =    1.000,"PART-1-1",            89,           15.,           -5.,            0.,NA,NA,"",   233.143E-03,  -215.362E-03,   89.3025E-03,   4.52843E-03
C:/temp/dataset/3/19_2.odb,Step-1,Increment      1: Step Time =    1.000,"PART-1-1",            90,           15.,            5.,            0.,NA,NA,"",   493.614E-03,  -482.235E-03,   105.375E-03,   255.510E-06
C:/temp/dataset/3/19_2.odb,Step-1,Increment      1: Step Time =    1.000,"PART-1-1",            91,           15.,           2.5,            0.,NA,NA,"",   425.777E-03,  -412.621E-03,   105.024E-03,   998.759E-06
C:/temp/dataset/3/19_2.odb,Step-1,Increment      1: Step Time =    1.000,"PART-1-1",            92,           15.,          12.5,            0.,NA,NA,"",   696.291E-03,  -688.698E-03,   102.554E-03,   33.8722E-06
C:/temp/dataset/3/19_2.odb,Step-1,Increment      1: Step Time =    1.000,"PART-1-1",            93,           15.,           10.,            0.,NA,NA,"",   628.829E-03,  -620.236E-03,   103.598E-03,   59.1270E-06
C:/temp/dataset/3/19_2.odb,Step-1,Increment      1: Step Time =    1.000,"PART-1-1",            94,           15.,           20.,            0.,NA,NA,"",   899.254E-03,  -893.713E-03,   99.6763E-03,   522.945E-09
C:/temp/dataset/3/19_2.odb,Step-1,Increment      1: Step Time =    1.000,"PART-1-1",            95,           15.,          17.5,            0.,NA,NA,"",   831.493E-03,  -825.383E-03,   100.614E-03,   3.67468E-06
C:/temp/dataset/3/19_2.odb,Step-1,Increment      1: Step Time =    1.000,"PART-1-1",            96,           15.,          27.5,            0.,NA,NA,"",       1.10298,      -1.09872,   96.8748E-03,   52.1694E-09
C:/temp/dataset/3/19_2.odb,Step-1,Increment      1: Step Time =    1.000,"PART-1-1",            97,           15.,           25.,            0.,NA,NA,"",       1.03501,      -1.03038,   97.8086E-03,   175.820E-09
C:/temp/dataset/3/19_2.odb,Step-1,Increment      1: Step Time =    1.000,"PART-1-1",            98,           10.,           30.,            0.,NA,NA,"",       1.16589,      -1.16518,  -40.7297E-03,   124.224E-09
C:/temp/dataset/3/19_2.odb,Step-1,Increment      1: Step Time =    1.000,"PART-1-1",            99,          12.5,           30.,            0.,NA,NA,"",       1.16644,      -1.16612,   27.6055E-03,   47.1039E-09
C:/temp/dataset/3/19_2.odb,Step-1,Increment      1: Step Time =    1.000,"PART-1-1",           100,           2.5,           30.,            0.,NA,NA,"",       1.18807,      -1.16238,  -245.737E-03,   46.3480E-09
C:/temp/dataset/3/19_2.odb,Step-1,Increment      1: Step Time =    1.000,"PART-1-1",           101,            5.,           30.,            0.,NA,NA,"",       1.17676,      -1.16331,  -177.401E-03,   99.0381E-09
C:/temp/dataset/3/19_2.odb,Step-1,Increment      1: Step Time =    1.000,"PART-1-1",           102,           -5.,           30.,            0.,NA,NA,"",       1.24410,      -1.15958,  -450.746E-03,   809.683E-12
C:/temp/dataset/3/19_2.odb,Step-1,Increment      1: Step Time =    1.000,"PART-1-1",           103,          -2.5,           30.,            0.,NA,NA,"",       1.22189,      -1.16051,  -382.410E-03,   1.68603E-09
C:/temp/dataset/3/19_2.odb,Step-1,Increment      1: Step Time =    1.000,"PART-1-1",           104,         -12.5,           30.,            0.,NA,NA,"",       1.32972,      -1.15678,  -655.754E-03,   63.3268E-12
C:/temp/dataset/3/19_2.odb,Step-1,Increment      1: Step Time =    1.000,"PART-1-1",           105,          -10.,           30.,            0.,NA,NA,"",       1.29821,      -1.15771,  -587.418E-03,   291.477E-12
C:/temp/dataset/3/19_2.odb,Step-1,Increment      1: Step Time =    1.000,"PART-1-1",           106,          -15.,          27.5,            0.,NA,NA,"",       1.30599,      -1.08751,  -723.156E-03,   50.6818E-12
C:/temp/dataset/3/19_2.odb,Step-1,Increment      1: Step Time =    1.000,"PART-1-1",           107,      -12.5013,       25.0052,            0.,NA,NA,"",       1.21182,      -1.02024,  -653.924E-03,   116.757E-12
C:/temp/dataset/3/19_2.odb,Step-1,Increment      1: Step Time =    1.000,"PART-1-1",           108,      -10.0028,       27.5014,            0.,NA,NA,"",       1.23728,      -1.08941,  -586.561E-03,   272.268E-12
C:/temp/dataset/3/19_2.odb,Step-1,Increment      1: Step Time =    1.000,"PART-1-1",           109,      -2.49865,       22.5268,            0.,NA,NA,"",       1.02882,  -956.238E-03,  -379.580E-03,   7.91762E-09
C:/temp/dataset/3/19_2.odb,Step-1,Increment      1: Step Time =    1.000,"PART-1-1",           110,      -2.51000,       27.5279,            0.,NA,NA,"",       1.15769,      -1.09294,  -381.759E-03,   6.64162E-09
C:/temp/dataset/3/19_2.odb,Step-1,Increment      1: Step Time =    1.000,"PART-1-1",           111,       12.3864,       22.5464,            0.,NA,NA,"",   962.723E-03,  -962.336E-03,   27.2844E-03,   320.225E-09
C:/temp/dataset/3/19_2.odb,Step-1,Increment      1: Step Time =    1.000,"PART-1-1",           112,       7.35369,       17.5509,            0.,NA,NA,"",   831.001E-03,  -823.899E-03,  -108.413E-03,   5.65677E-06
C:/temp/dataset/3/19_2.odb,Step-1,Increment      1: Step Time =    1.000,"PART-1-1",           113,       12.3201,       14.9467,            0.,NA,NA,"",   755.129E-03,  -754.598E-03,   28.3024E-03,   14.5592E-06
C:/temp/dataset/3/19_2.odb,Step-1,Increment      1: Step Time =    1.000,"PART-1-1",           114,       13.2599,       7.39194,            0.,NA,NA,"",   550.781E-03,  -547.838E-03,   56.8555E-03,   164.031E-06
C:/temp/dataset/3/19_2.odb,Step-1,Increment      1: Step Time =    1.000,"PART-1-1",           115,       7.60504,      -5.98204,            0.,NA,NA,"",   199.982E-03,  -186.496E-03,  -72.1969E-03,   2.94034E-03
C:/temp/dataset/3/19_2.odb,Step-1,Increment      1: Step Time =    1.000,"PART-1-1",           116,       7.71062,      -13.7665,            0.,NA,NA,"",   69.3984E-03,  -56.7406E-03,  -39.9579E-03,   4.32938E-03
C:/temp/dataset/3/19_2.odb,Step-1,Increment      1: Step Time =    1.000,"PART-1-1",           117,       11.7208,      -22.4938,            0.,NA,NA,"",   4.00565E-03,   3.47296E-03,   1.99594E-03,   1.71391E-03
C:/temp/dataset/3/19_2.odb,Step-1,Increment      1: Step Time =    1.000,"PART-1-1",           118,       2.59328,       2.74806,            0.,NA,NA,"",   486.436E-03,  -423.297E-03,  -239.666E-03,   2.80456E-03
C:/temp/dataset/3/19_2.odb,Step-1,Increment      1: Step Time =    1.000,"PART-1-1",           119,      -1.32361,      -2.98462,            0.,NA,NA,"",   436.119E-03,  -258.934E-03,  -350.931E-03,   258.165E-06
C:/temp/dataset/3/19_2.odb,Step-1,Increment      1: Step Time =    1.000,"PART-1-1",           120,      -6.00563,       3.11026,            0.,NA,NA,"",   656.077E-03,  -434.759E-03,  -491.347E-03,   108.768E-06
C:/temp/dataset/3/19_2.odb,Step-1,Increment      1: Step Time =    1.000,"PART-1-1",           121,      -10.4102,       2.53863,            0.,NA,NA,"",   746.468E-03,  -416.236E-03,  -619.647E-03,   31.7862E-06
C:/temp/dataset/3/19_2.odb,Step-1,Increment      1: Step Time =    1.000,"PART-1-1",           122,      -12.6184,  -43.2983E-03,            0.,NA,NA,"",   762.955E-03,  -339.983E-03,  -683.016E-03,   11.3665E-06
C:/temp/dataset/3/19_2.odb,Step-1,Increment      1: Step Time =    1.000,"PART-1-1",           123,      -3.88272,       3.23189,            0.,NA,NA,"",   614.472E-03,  -439.188E-03,  -429.756E-03,   198.276E-06
C:/temp/dataset/3/19_2.odb,Step-1,Increment      1: Step Time =    1.000,"PART-1-1",           124,       2.98144,      -22.7363,            0.,NA,NA,"",   8.81815E-03,  -3.44400E-03,  -8.11780E-03,   2.90370E-03
C:/temp/dataset/3/19_2.odb,Step-1,Increment      1: Step Time =    1.000,"PART-1-1",           125,      -2.42987,      -22.6294,            0.,NA,NA,"",   2.37558E-03,  -2.28009E-03,  -666.787E-06,   208.777E-06
C:/temp/dataset/3/19_2.odb,Step-1,Increment      1: Step Time =    1.000,"PART-1-1",           126,      -9.97348,      -22.5672,            0.,NA,NA,"",   1.68030E-03,  -1.67181E-03,   168.670E-06,   33.6142E-06
C:/temp/dataset/3/19_2.odb,Step-1,Increment      1: Step Time =    1.000,"PART-1-1",           127,      -12.4895,      -25.0402,            0.,NA,NA,"",   1.27525E-03,  -1.27243E-03,  -84.8071E-06,   57.7885E-06
C:/temp/dataset/3/19_2.odb,Step-1,Increment      1: Step Time =    1.000,"PART-1-1",           128,       12.8561,      -14.2595,            0.,NA,NA,"",   54.1313E-03,  -49.3421E-03,   22.2613E-03,   2.43050E-03
C:/temp/dataset/3/19_2.odb,Step-1,Increment      1: Step Time =    1.000,"PART-1-1",           129,       12.7281,      -7.33650,            0.,NA,NA,"",   163.382E-03,  -159.769E-03,   34.1704E-03,   2.31570E-03
C:/temp/dataset/3/19_2.odb,Step-1,Increment      1: Step Time =    1.000,"PART-1-1",           130,       12.6427,  -96.8002E-03,            0.,NA,NA,"",   341.095E-03,  -338.624E-03,   40.9791E-03,   1.75854E-03
C:/temp/dataset/3/19_2.odb,Step-1,Increment      1: Step Time =    1.000,"PART-1-1",           131,       7.13014,       10.3328,            0.,NA,NA,"",   636.510E-03,  -626.602E-03,  -111.874E-03,   115.805E-06
C:/temp/dataset/3/19_2.odb,Step-1,Increment      1: Step Time =    1.000,"PART-1-1",           132,       4.95005,       27.5805,            0.,NA,NA,"",       1.11148,      -1.09716,  -177.862E-03,   58.5765E-09
C:/temp/dataset/3/19_2.odb,Step-1,Increment      1: Step Time =    1.000,"PART-1-1",           133,      -4.99957,       22.5148,            0.,NA,NA,"",       1.05481,  -954.975E-03,  -447.937E-03,   1.43165E-09
C:/temp/dataset/3/19_2.odb,Step-1,Increment      1: Step Time =    1.000,"PART-1-1",           134,      -7.50186,       22.5094,            0.,NA,NA,"",       1.08467,  -953.892E-03,  -516.334E-03,   330.869E-12
C:/temp/dataset/3/19_2.odb,Step-1,Increment      1: Step Time =    1.000,"PART-1-1",           135,       4.93744,       22.5898,            0.,NA,NA,"",   976.789E-03,  -960.739E-03,  -176.342E-03,   178.733E-09
C:/temp/dataset/3/19_2.odb,Step-1,Increment      1: Step Time =    1.000,"PART-1-1",           136,       2.47758,       22.5593,            0.,NA,NA,"",   989.434E-03,  -958.985E-03,  -243.570E-03,   109.527E-09
C:/temp/dataset/3/19_2.odb,Step-1,Increment      1: Step Time =    1.000,"PART-1-1",           137,  -4.46696E-03,       22.5388,            0.,NA,NA,"",       1.00686,  -957.496E-03,  -311.408E-03,   29.3842E-09
C:/temp/dataset/3/19_2.odb,Step-1,Increment      1: Step Time =    1.000,"PART-1-1",           138,       7.20686,       12.6699,            0.,NA,NA,"",   699.223E-03,  -690.421E-03,  -110.598E-03,   23.5947E-06
C:/temp/dataset/3/19_2.odb,Step-1,Increment      1: Step Time =    1.000,"PART-1-1",           139,       7.30679,       15.0771,            0.,NA,NA,"",   764.035E-03,  -756.252E-03,  -108.776E-03,   14.4898E-06
C:/temp/dataset/3/19_2.odb,Step-1,Increment      1: Step Time =    1.000,"PART-1-1",           140,       7.52839,       5.66323,            0.,NA,NA,"",   509.614E-03,  -500.014E-03,  -98.4524E-03,   1.17425E-03
C:/temp/dataset/3/19_2.odb,Step-1,Increment      1: Step Time =    1.000,"PART-1-1",           141,       7.20823,       7.96221,            0.,NA,NA,"",   572.565E-03,  -562.163E-03,  -108.643E-03,   510.294E-06
C:/temp/dataset/3/19_2.odb,Step-1,Increment      1: Step Time =    1.000,"PART-1-1",           142,      -1.77433,       3.17490,            0.,NA,NA,"",   573.231E-03,  -438.093E-03,  -369.686E-03,   1.05312E-03
C:/temp/dataset/3/19_2.odb,Step-1,Increment      1: Step Time =    1.000,"PART-1-1",           143,   347.975E-03,       3.01142,            0.,NA,NA,"",   530.970E-03,  -432.479E-03,  -308.043E-03,   2.29611E-03
C:/temp/dataset/3/19_2.odb,Step-1,Increment      1: Step Time =    1.000,"PART-1-1",           144,      -8.17775,       2.85153,            0.,NA,NA,"",   699.525E-03,  -426.319E-03,  -554.605E-03,   71.0126E-06
C:/temp/dataset/3/19_2.odb,Step-1,Increment      1: Step Time =    1.000,"PART-1-1",           145,      -8.45397,      -3.03463,            0.,NA,NA,"",   615.427E-03,  -254.470E-03,  -560.353E-03,   56.1729E-06
C:/temp/dataset/3/19_2.odb,Step-1,Increment      1: Step Time =    1.000,"PART-1-1",           146,      -12.6978,       2.46856,            0.,NA,NA,"",   801.161E-03,  -413.212E-03,  -686.378E-03,   10.9780E-06
C:/temp/dataset/3/19_2.odb,Step-1,Increment      1: Step Time =    1.000,"PART-1-1",           147,      -10.5225,      -2.72745,            0.,NA,NA,"",   674.025E-03,  -262.564E-03,  -620.782E-03,   28.8382E-06
C:/temp/dataset/3/19_2.odb,Step-1,Increment      1: Step Time =    1.000,"PART-1-1",           148,      -12.7265,      -2.55241,            0.,NA,NA,"",   735.212E-03,  -266.731E-03,  -685.121E-03,   10.5568E-06
C:/temp/dataset/3/19_2.odb,Step-1,Increment      1: Step Time =    1.000,"PART-1-1",           149,      -3.80700,      -2.48494,            0.,NA,NA,"",   504.739E-03,  -272.583E-03,  -424.805E-03,   62.7215E-06
C:/temp/dataset/3/19_2.odb,Step-1,Increment      1: Step Time =    1.000,"PART-1-1",           150,      -6.26959,      -2.94549,            0.,NA,NA,"",   559.694E-03,  -257.993E-03,  -496.685E-03,   97.5329E-06
C:/temp/dataset/3/19_2.odb,Step-1,Increment      1: Step Time =    1.000,"PART-1-1",           151,       2.97297,      -3.34056,            0.,NA,NA,"",   332.703E-03,  -251.603E-03,  -217.685E-03,   3.34865E-03
C:/temp/dataset/3/19_2.odb,Step-1,Increment      1: Step Time =    1.000,"PART-1-1",           152,   836.982E-03,      -3.21922,            0.,NA,NA,"",   381.452E-03,  -253.436E-03,  -285.089E-03,   1.05466E-03
C:/temp/dataset/3/19_2.odb,Step-1,Increment      1: Step Time =    1.000,"PART-1-1",           153,       7.27849,      -10.7647,            0.,NA,NA,"",   115.557E-03,  -99.3673E-03,  -58.9882E-03,   5.03247E-03
C:/temp/dataset/3/19_2.odb,Step-1,Increment      1: Step Time =    1.000,"PART-1-1",           154,       7.20650,      -8.25133,            0.,NA,NA,"",   159.047E-03,  -142.221E-03,  -71.1992E-03,   5.28522E-03
C:/temp/dataset/3/19_2.odb,Step-1,Increment      1: Step Time =    1.000,"PART-1-1",           155,       7.07274,      -17.3233,            0.,NA,NA,"",   38.2122E-03,  -21.4435E-03,  -31.6282E-03,   5.24736E-03
C:/temp/dataset/3/19_2.odb,Step-1,Increment      1: Step Time =    1.000,"PART-1-1",           156,       6.55788,      -15.2577,            0.,NA,NA,"",   62.5684E-03,  -42.2154E-03,  -46.1808E-03,   6.18132E-03
C:/temp/dataset/3/19_2.odb,Step-1,Increment      1: Step Time =    1.000,"PART-1-1",           157,      -7.46685,      -22.5818,            0.,NA,NA,"",   1.79889E-03,  -1.77695E-03,   280.058E-06,   68.7216E-06
C:/temp/dataset/3/19_2.odb,Step-1,Increment      1: Step Time =    1.000,"PART-1-1",           158,      -4.95694,      -22.5955,            0.,NA,NA,"",   1.98332E-03,  -1.98014E-03,   112.183E-06,   121.682E-06
C:/temp/dataset/3/19_2.odb,Step-1,Increment      1: Step Time =    1.000,"PART-1-1",           159,   146.162E-03,      -22.6598,            0.,NA,NA,"",   4.18768E-03,  -3.04939E-03,  -2.87017E-03,   801.220E-06
C:/temp/dataset/3/19_2.odb,Step-1,Increment      1: Step Time =    1.000,"PART-1-1",           160,      -12.4860,      -22.5306,            0.,NA,NA,"",   1.63376E-03,  -1.63180E-03,  -80.1036E-06,   13.1268E-06
C:/temp/dataset/3/19_2.odb,Step-1,Increment      1: Step Time =    1.000,"PART-1-1",           161,       9.96020,      -27.7814,            0.,NA,NA,"",   3.34735E-03,   3.20555E-03,  -963.956E-06,   1.29491E-03
C:/temp/dataset/3/19_2.odb,Step-1,Increment      1: Step Time =    1.000,"PART-1-1",           162,       7.44077,      -27.8946,            0.,NA,NA,"",   2.91306E-03,   1.80346E-03,  -2.28768E-03,   1.68835E-03
C:/temp/dataset/3/19_2.odb,Step-1,Increment      1: Step Time =    1.000,"PART-1-1",           163,       4.93217,      -27.8625,            0.,NA,NA,"",   2.64945E-03,  -63.5785E-06,  -2.64869E-03,   1.74909E-03
C:/temp/dataset/3/19_2.odb,Step-1,Increment      1: Step Time =    1.000,"PART-1-1",           164,       2.47767,      -27.7470,            0.,NA,NA,"",   2.55439E-03,  -1.46451E-03,  -2.09288E-03,   1.36071E-03
C:/temp/dataset/3/19_2.odb,Step-1,Increment      1: Step Time =    1.000,"PART-1-1",           165,   19.5837E-03,      -27.6625,            0.,NA,NA,"",   2.27023E-03,  -1.94304E-03,  -1.17411E-03,   893.855E-06
C:/temp/dataset/3/19_2.odb,Step-1,Increment      1: Step Time =    1.000,"PART-1-1",           166,      -2.46955,      -27.6154,            0.,NA,NA,"",   1.85282E-03,  -1.78651E-03,  -491.279E-06,   575.017E-06
C:/temp/dataset/3/19_2.odb,Step-1,Increment      1: Step Time =    1.000,"PART-1-1",           167,      -4.97450,      -27.5844,            0.,NA,NA,"",   1.40981E-03,  -1.40370E-03,  -131.173E-06,   390.429E-06
C:/temp/dataset/3/19_2.odb,Step-1,Increment      1: Step Time =    1.000,"PART-1-1",           168,      -7.48283,      -27.5594,            0.,NA,NA,"",   1.05313E-03,  -1.05312E-03,  -2.02819E-06,   276.628E-06
C:/temp/dataset/3/19_2.odb,Step-1,Increment      1: Step Time =    1.000,"PART-1-1",           169,       12.2865,      -25.1793,            0.,NA,NA,"",   5.40807E-03,   5.01761E-03,   2.01762E-03,   1.52487E-03
C:/temp/dataset/3/19_2.odb,Step-1,Increment      1: Step Time =    1.000,"PART-1-1",           170,       11.6753,      -16.4340,            0.,NA,NA,"",   27.1033E-03,  -26.2616E-03,   6.70197E-03,   1.05033E-03
C:/temp/dataset/3/19_2.odb,Step-1,Increment      1: Step Time =    1.000,"PART-1-1",           171,       11.9685,      -19.5802,            0.,NA,NA,"",   7.87012E-03,  -5.37855E-03,   5.74543E-03,   1.68559E-03
C:/temp/dataset/3/19_2.odb,Step-1,Increment      1: Step Time =    1.000,"PART-1-1",           172,       13.3291,      -9.93034,            0.,NA,NA,"",   118.615E-03,  -111.896E-03,   39.3541E-03,   3.08754E-03
C:/temp/dataset/3/19_2.odb,Step-1,Increment      1: Step Time =    1.000,"PART-1-1",           173,       13.4212,      -12.1607,            0.,NA,NA,"",   84.6146E-03,  -77.1626E-03,   34.7214E-03,   3.23262E-03
C:/temp/dataset/3/19_2.odb,Step-1,Increment      1: Step Time =    1.000,"PART-1-1",           174,       12.9633,      -2.52247,            0.,NA,NA,"",   277.522E-03,  -273.507E-03,   47.0356E-03,   2.18797E-03
C:/temp/dataset/3/19_2.odb,Step-1,Increment      1: Step Time =    1.000,"PART-1-1",           175,       13.1247,      -4.84738,            0.,NA,NA,"",   220.622E-03,  -215.510E-03,   47.2155E-03,   2.61455E-03
C:/temp/dataset/3/19_2.odb,Step-1,Increment      1: Step Time =    1.000,"PART-1-1",           176,       13.1131,       5.12757,            0.,NA,NA,"",   487.847E-03,  -484.899E-03,   53.5434E-03,   497.061E-06
C:/temp/dataset/3/19_2.odb,Step-1,Increment      1: Step Time =    1.000,"PART-1-1",           177,       12.1418,       2.60140,            0.,NA,NA,"",   414.725E-03,  -413.773E-03,   28.0921E-03,   1.22856E-03
C:/temp/dataset/3/19_2.odb,Step-1,Increment      1: Step Time =    1.000,"PART-1-1",           178,       12.1760,       12.1629,            0.,NA,NA,"",   678.914E-03,  -678.439E-03,   25.3874E-03,   17.9028E-06
C:/temp/dataset/3/19_2.odb,Step-1,Increment      1: Step Time =    1.000,"PART-1-1",           179,       13.0236,       9.64002,            0.,NA,NA,"",   611.658E-03,  -609.648E-03,   49.5428E-03,   27.8679E-06
C:/temp/dataset/3/19_2.odb,Step-1,Increment      1: Step Time =    1.000,"PART-1-1",           180,       12.3784,       20.0377,            0.,NA,NA,"",   894.201E-03,  -893.762E-03,   28.0027E-03,   1.77102E-06
C:/temp/dataset/3/19_2.odb,Step-1,Increment      1: Step Time =    1.000,"PART-1-1",           181,       12.3660,       17.5135,            0.,NA,NA,"",   825.263E-03,  -824.767E-03,   28.6049E-03,   5.94258E-06
C:/temp/dataset/3/19_2.odb,Step-1,Increment      1: Step Time =    1.000,"PART-1-1",           182,       12.4264,       25.0333,            0.,NA,NA,"",       1.03069,      -1.03033,   27.4490E-03,   79.8451E-09
C:/temp/dataset/3/19_2.odb,Step-1,Increment      1: Step Time =    1.000,"PART-1-1",           183,       7.43491,       27.5684,            0.,NA,NA,"",       1.10325,      -1.09776,  -109.936E-03,   41.6266E-09
C:/temp/dataset/3/19_2.odb,Step-1,Increment      1: Step Time =    1.000,"PART-1-1",           184,  -17.4965E-03,       27.5503,            0.,NA,NA,"",       1.13853,      -1.09448,  -313.636E-03,   22.5400E-09
C:/temp/dataset/3/19_2.odb,Step-1,Increment      1: Step Time =    1.000,"PART-1-1",           185,       2.47067,       27.5656,            0.,NA,NA,"",       1.12302,      -1.09583,  -245.629E-03,   49.4482E-09
C:/temp/dataset/3/19_2.odb,Step-1,Increment      1: Step Time =    1.000,"PART-1-1",           186,      -7.50286,       27.5043,            0.,NA,NA,"",       1.20731,      -1.09043,  -518.227E-03,   314.564E-12
C:/temp/dataset/3/19_2.odb,Step-1,Increment      1: Step Time =    1.000,"PART-1-1",           187,      -5.00635,       27.5119,            0.,NA,NA,"",       1.18068,      -1.09156,  -449.990E-03,   1.25646E-09
C:/temp/dataset/3/19_2.odb,Step-1,Increment      1: Step Time =    1.000,"PART-1-1",           188,      -12.5019,       27.5019,            0.,NA,NA,"",       1.27030,      -1.08849,  -654.872E-03,   145.625E-12
C:/temp/dataset/3/19_2.odb,Step-1,Increment      1: Step Time =    1.000,"PART-1-1",           189,      -12.5001,       22.5034,            0.,NA,NA,"",       1.15429,  -951.862E-03,  -652.955E-03,   147.031E-12
C:/temp/dataset/3/19_2.odb,Step-1,Increment      1: Step Time =    1.000,"PART-1-1",           190,      -5.00429,       25.0191,            0.,NA,NA,"",       1.11759,      -1.02343,  -449.002E-03,   1.60253E-09
C:/temp/dataset/3/19_2.odb,Step-1,Increment      1: Step Time =    1.000,"PART-1-1",           191,  -15.9173E-03,       25.0642,            0.,NA,NA,"",       1.07308,      -1.02652,  -312.664E-03,   27.6611E-09
C:/temp/dataset/3/19_2.odb,Step-1,Increment      1: Step Time =    1.000,"PART-1-1",           192,       9.74355,       15.0604,            0.,NA,NA,"",   757.900E-03,  -756.725E-03,  -42.1862E-03,   15.5174E-06
C:/temp/dataset/3/19_2.odb,Step-1,Increment      1: Step Time =    1.000,"PART-1-1",           193,       9.51986,       12.6989,            0.,NA,NA,"",   693.715E-03,  -692.090E-03,  -47.4456E-03,   23.1197E-06
C:/temp/dataset/3/19_2.odb,Step-1,Increment      1: Step Time =    1.000,"PART-1-1",           194,       12.1898,      -11.7554,            0.,NA,NA,"",   83.4766E-03,  -81.5603E-03,   17.7835E-03,   1.57105E-03
C:/temp/dataset/3/19_2.odb,Step-1,Increment      1: Step Time =    1.000,"PART-1-1",           195,       9.78251,      -13.4248,            0.,NA,NA,"",   60.3904E-03,  -58.4862E-03,  -15.0453E-03,   1.60627E-03
C:/temp/dataset/3/19_2.odb,Step-1,Increment      1: Step Time =    1.000,"PART-1-1",           196,       7.24032,      -19.5057,            0.,NA,NA,"",   22.7116E-03,  -5.83376E-03,  -21.9496E-03,   3.24268E-03
C:/temp/dataset/3/19_2.odb,Step-1,Increment      1: Step Time =    1.000,"PART-1-1",           197,      -10.0066,  -139.817E-03,            0.,NA,NA,"",   694.735E-03,  -338.322E-03,  -606.791E-03,   39.9346E-06
C:/temp/dataset/3/19_2.odb,Step-1,Increment      1: Step Time =    1.000,"PART-1-1",           198,      -8.39380,      -1.43672,            0.,NA,NA,"",   635.203E-03,  -301.199E-03,  -559.251E-03,   62.9291E-06
C:/temp/dataset/3/19_2.odb,Step-1,Increment      1: Step Time =    1.000,"PART-1-1",           199,      -5.07121,  -530.035E-03,            0.,NA,NA,"",   567.917E-03,  -329.317E-03,  -462.688E-03,   98.9655E-06
C:/temp/dataset/3/19_2.odb,Step-1,Increment      1: Step Time =    1.000,"PART-1-1",           200,      -12.5003,      -27.5198,            0.,NA,NA,"",   709.360E-06,  -704.314E-06,  -84.4551E-06,   170.751E-06
C:/temp/dataset/3/19_2.odb,Step-1,Increment      1: Step Time =    1.000,"PART-1-1",           201,       8.97180,      -8.86122,            0.,NA,NA,"",   133.857E-03,  -128.722E-03,  -36.7218E-03,   2.41069E-03
C:/temp/dataset/3/19_2.odb,Step-1,Increment      1: Step Time =    1.000,"PART-1-1",           202,      -2.50561,       25.0360,            0.,NA,NA,"",       1.09325,      -1.02482,  -380.708E-03,   9.05728E-09
C:/temp/dataset/3/19_2.odb,Step-1,Increment      1: Step Time =    1.000,"PART-1-1",           203,      -7.50383,       25.0106,            0.,NA,NA,"",       1.14570,      -1.02226,  -517.322E-03,   387.834E-12
C:/temp/dataset/3/19_2.odb,Step-1,Increment      1: Step Time =    1.000,"PART-1-1",           204,       2.46362,       25.0850,            0.,NA,NA,"",       1.05679,      -1.02802,  -244.895E-03,   72.1575E-09
C:/temp/dataset/3/19_2.odb,Step-1,Increment      1: Step Time =    1.000,"PART-1-1",           205,       9.17638,       10.5785,            0.,NA,NA,"",   636.513E-03,  -634.038E-03,  -56.0775E-03,   39.5004E-06
C:/temp/dataset/3/19_2.odb,Step-1,Increment      1: Step Time =    1.000,"PART-1-1",           206,       9.65111,       6.46520,            0.,NA,NA,"",   523.227E-03,  -521.613E-03,  -41.0662E-03,   547.327E-06
C:/temp/dataset/3/19_2.odb,Step-1,Increment      1: Step Time =    1.000,"PART-1-1",           207,      -1.99278,       1.34592,            0.,NA,NA,"",   536.868E-03,  -385.213E-03,  -373.949E-03,   616.105E-06
C:/temp/dataset/3/19_2.odb,Step-1,Increment      1: Step Time =    1.000,"PART-1-1",           208,      -5.69490,       1.29843,            0.,NA,NA,"",   614.908E-03,  -382.330E-03,  -481.597E-03,   114.545E-06
C:/temp/dataset/3/19_2.odb,Step-1,Increment      1: Step Time =    1.000,"PART-1-1",           209,       1.92780,   665.778E-03,            0.,NA,NA,"",   445.527E-03,  -364.954E-03,  -255.544E-03,   2.41827E-03
C:/temp/dataset/3/19_2.odb,Step-1,Increment      1: Step Time =    1.000,"PART-1-1",           210,       1.26043,      -1.37778,            0.,NA,NA,"",   411.095E-03,  -307.253E-03,  -273.120E-03,   1.63224E-03
C:/temp/dataset/3/19_2.odb,Step-1,Increment      1: Step Time =    1.000,"PART-1-1",           211,       9.14691,      -16.8280,            0.,NA,NA,"",   27.7051E-03,  -22.7526E-03,  -15.8079E-03,   2.05314E-03
C:/temp/dataset/3/19_2.odb,Step-1,Increment      1: Step Time =    1.000,"PART-1-1",           212,   79.9954E-03,      -25.2148,            0.,NA,NA,"",   3.80124E-03,  -3.00314E-03,  -2.33036E-03,   889.516E-06
C:/temp/dataset/3/19_2.odb,Step-1,Increment      1: Step Time =    1.000,"PART-1-1",           213,      -9.97865,      -25.0679,            0.,NA,NA,"",   1.38559E-03,  -1.38221E-03,   96.6738E-06,   112.772E-06
C:/temp/dataset/3/19_2.odb,Step-1,Increment      1: Step Time =    1.000,"PART-1-1",           214,       12.4671,      -27.6040,            0.,NA,NA,"",   3.52190E-03,   3.40903E-03,   884.458E-06,   1.36556E-03
C:/temp/dataset/3/19_2.odb,Step-1,Increment      1: Step Time =    1.000,"PART-1-1",           215,       9.82463,      -25.6838,            0.,NA,NA,"",   5.25287E-03,   4.58531E-03,  -2.56273E-03,   1.67566E-03
C:/temp/dataset/3/19_2.odb,Step-1,Increment      1: Step Time =    1.000,"PART-1-1",           216,       2.56344,      -25.3828,            0.,NA,NA,"",   5.54253E-03,  -2.64899E-03,  -4.86852E-03,   1.71188E-03
C:/temp/dataset/3/19_2.odb,Step-1,Increment      1: Step Time =    1.000,"PART-1-1",           217,      -2.44121,      -25.1518,            0.,NA,NA,"",   2.67633E-03,  -2.57860E-03,  -716.624E-06,   478.325E-06
C:/temp/dataset/3/19_2.odb,Step-1,Increment      1: Step Time =    1.000,"PART-1-1",           218,      -4.95889,      -25.1139,            0.,NA,NA,"",   2.05678E-03,  -2.05634E-03,  -42.8488E-06,   275.758E-06
C:/temp/dataset/3/19_2.odb,Step-1,Increment      1: Step Time =    1.000,"PART-1-1",           219,       10.3279,  -771.646E-03,            0.,NA,NA,"",   319.704E-03,  -319.268E-03,  -16.6889E-03,   2.00979E-03
C:/temp/dataset/3/19_2.odb,Step-1,Increment      1: Step Time =    1.000,"PART-1-1",           220,       10.4049,       4.48083,            0.,NA,NA,"",   466.860E-03,  -466.468E-03,  -19.1402E-03,   974.589E-06
C:/temp/dataset/3/19_2.odb,Step-1,Increment      1: Step Time =    1.000,"PART-1-1",           221,       9.80969,       17.5478,            0.,NA,NA,"",   825.773E-03,  -824.740E-03,  -41.2875E-03,   6.47841E-06
C:/temp/dataset/3/19_2.odb,Step-1,Increment      1: Step Time =    1.000,"PART-1-1",           222,       9.88106,       25.0797,            0.,NA,NA,"",       1.03151,      -1.03065,  -42.1423E-03,   91.8411E-09
C:/temp/dataset/3/19_2.odb,Step-1,Increment      1: Step Time =    1.000,"PART-1-1",           223,       9.94975,       27.5346,            0.,NA,NA,"",       1.09855,      -1.09778,  -41.1819E-03,   63.2511E-09
C:/temp/dataset/3/19_2.odb,Step-1,Increment      1: Step Time =    1.000,"PART-1-1",           224,       7.36779,       20.0596,            0.,NA,NA,"",   899.109E-03,  -892.482E-03,  -108.965E-03,   1.55412E-06
C:/temp/dataset/3/19_2.odb,Step-1,Increment      1: Step Time =    1.000,"PART-1-1",           225,  -693.206E-03,      -1.01900,            0.,NA,NA,"",   459.819E-03,  -316.903E-03,  -333.175E-03,   800.435E-06
C:/temp/dataset/3/19_2.odb,Step-1,Increment      1: Step Time =    1.000,"PART-1-1",           226,      -7.47194,      -25.0831,            0.,NA,NA,"",   1.64831E-03,  -1.64200E-03,   144.109E-06,   183.564E-06
C:/temp/dataset/3/19_2.odb,Step-1,Increment      1: Step Time =    1.000,"PART-1-1",           227,       5.28089,       2.25097,            0.,NA,NA,"",   436.232E-03,  -406.853E-03,  -157.382E-03,   1.69374E-03
C:/temp/dataset/3/19_2.odb,Step-1,Increment      1: Step Time =    1.000,"PART-1-1",           228,       9.26575,       8.45073,            0.,NA,NA,"",   578.406E-03,  -575.995E-03,  -52.7588E-03,   236.317E-06
C:/temp/dataset/3/19_2.odb,Step-1,Increment      1: Step Time =    1.000,"PART-1-1",           229,  -81.3472E-03,       1.02952,            0.,NA,NA,"",   491.862E-03,  -375.974E-03,  -317.131E-03,   1.45132E-03
C:/temp/dataset/3/19_2.odb,Step-1,Increment      1: Step Time =    1.000,"PART-1-1",           230,      -7.67687,   831.326E-03,            0.,NA,NA,"",   652.668E-03,  -367.738E-03,  -539.207E-03,   83.7701E-06
C:/temp/dataset/3/19_2.odb,Step-1,Increment      1: Step Time =    1.000,"PART-1-1",           231,      -2.54090,  -531.417E-03,            0.,NA,NA,"",   510.059E-03,  -330.456E-03,  -388.535E-03,   295.049E-06
C:/temp/dataset/3/19_2.odb,Step-1,Increment      1: Step Time =    1.000,"PART-1-1",           232,      -3.83997,       1.55066,            0.,NA,NA,"",   579.225E-03,  -390.557E-03,  -427.745E-03,   147.837E-06
C:/temp/dataset/3/19_2.odb,Step-1,Increment      1: Step Time =    1.000,"PART-1-1",           233,      -6.84494,  -996.203E-03,            0.,NA,NA,"",   602.966E-03,  -314.805E-03,  -514.262E-03,   94.8173E-06
C:/temp/dataset/3/19_2.odb,Step-1,Increment      1: Step Time =    1.000,"PART-1-1",           234,       5.51335,      -3.03354,            0.,NA,NA,"",   294.039E-03,  -260.582E-03,  -136.220E-03,   4.74821E-03
C:/temp/dataset/3/19_2.odb,Step-1,Increment      1: Step Time =    1.000,"PART-1-1",           235,       9.62476,      -7.14735,            0.,NA,NA,"",   163.688E-03,  -161.400E-03,  -27.2759E-03,   1.41742E-03
C:/temp/dataset/3/19_2.odb,Step-1,Increment      1: Step Time =    1.000,"PART-1-1",           236,       7.38903,      -25.9371,            0.,NA,NA,"",   5.95188E-03,   2.42095E-03,  -5.43726E-03,   2.23232E-03
C:/temp/dataset/3/19_2.odb,Step-1,Increment      1: Step Time =    1.000,"PART-1-1",           237,       4.96373,      -25.7856,            0.,NA,NA,"",   6.36133E-03,  -476.167E-06,  -6.34349E-03,   2.33655E-03
C:/temp/dataset/3/19_2.odb,Step-1,Increment      1: Step Time =    1.000,"PART-1-1",           238,       9.37191,      -21.3805,            0.,NA,NA,"",   8.44563E-03,   1.46747E-03,  -8.31717E-03,   2.00946E-03
C:/temp/dataset/3/19_2.odb,Step-1,Increment      1: Step Time =    1.000,"PART-1-1",           239,       9.53380,      -19.3691,            0.,NA,NA,"",   10.8990E-03,  -5.50037E-03,  -9.40923E-03,   1.55612E-03
C:/temp/dataset/3/19_2.odb,Step-1,Increment      1: Step Time =    1.000,"PART-1-1",           240,       10.5518,      -5.76730,            0.,NA,NA,"",   191.699E-03,  -191.485E-03,  -9.07125E-03,   1.05132E-03
C:/temp/dataset/3/19_2.odb,Step-1,Increment      1: Step Time =    1.000,"PART-1-1",           241,       10.8494,      -2.88140,            0.,NA,NA,"",   262.527E-03,  -262.511E-03,  -2.96995E-03,   1.89857E-03
C:/temp/dataset/3/19_2.odb,Step-1,Increment      1: Step Time =    1.000,"PART-1-1",           242,       9.33979,       1.27198,            0.,NA,NA,"",   379.168E-03,  -376.599E-03,  -44.0696E-03,   1.85446E-03
C:/temp/dataset/3/19_2.odb,Step-1,Increment      1: Step Time =    1.000,"PART-1-1",           243,       9.83335,       20.0603,            0.,NA,NA,"",   894.394E-03,  -893.427E-03,  -41.5731E-03,   1.95010E-06
C:/temp/dataset/3/19_2.odb,Step-1,Increment      1: Step Time =    1.000,"PART-1-1",           244,       7.39102,       25.1069,            0.,NA,NA,"",       1.03634,      -1.03046,  -110.216E-03,   83.8247E-09
C:/temp/dataset/3/19_2.odb,Step-1,Increment      1: Step Time =    1.000,"PART-1-1",           245,       4.93408,       25.0979,            0.,NA,NA,"",       1.04446,      -1.02929,  -177.371E-03,   67.2669E-09
C:/temp/dataset/3/19_2.odb,Step-1,Increment      1: Step Time =    1.000,"PART-1-1",           246,      -10.0026,       25.0068,            0.,NA,NA,"",       1.17722,      -1.02122,  -585.622E-03,   274.550E-12
C:/temp/dataset/3/19_2.odb,Step-1,Increment      1: Step Time =    1.000,"PART-1-1",           247,      -10.0008,       22.5051,            0.,NA,NA,"",       1.11790,  -952.842E-03,  -584.640E-03,   288.495E-12
C:/temp/dataset/3/19_2.odb,Step-1,Increment      1: Step Time =    1.000,"PART-1-1",           248,      -9.99283,      -27.5363,            0.,NA,NA,"",   810.503E-06,  -810.465E-06,   7.88672E-06,   205.765E-06
C:/temp/dataset/3/19_2.odb,Step-1,Increment      1: Step Time =    1.000,"PART-1-1",           249,       3.80746,   187.829E-03,            0.,NA,NA,"",   402.157E-03,  -350.649E-03,  -196.916E-03,   2.74127E-03
C:/temp/dataset/3/19_2.odb,Step-1,Increment      1: Step Time =    1.000,"PART-1-1",           250,       11.4886,       7.12458,            0.,NA,NA,"",   540.005E-03,  -539.937E-03,   8.59849E-03,   315.040E-06
C:/temp/dataset/3/19_2.odb,Step-1,Increment      1: Step Time =    1.000,"PART-1-1",           251,       5.25951,      -23.9756,            0.,NA,NA,"",   10.4257E-03,  -973.578E-06,  -10.3802E-03,   3.15119E-03
C:/temp/dataset/3/19_2.odb,Step-1,Increment      1: Step Time =    1.000,"PART-1-1",           252,       9.85798,       22.5791,            0.,NA,NA,"",   963.195E-03,  -962.286E-03,  -41.8390E-03,   441.548E-09
C:/temp/dataset/3/19_2.odb,Step-1,Increment      1: Step Time =    1.000,"PART-1-1",           253,       7.38133,       22.5911,            0.,NA,NA,"",   967.905E-03,  -961.686E-03,  -109.541E-03,   267.258E-09
C:/temp/dataset/3/19_2.odb,Step-1,Increment      1: Step Time =    1.000,"PART-1-1",           254,       9.03817,      -10.9527,            0.,NA,NA,"",   98.6316E-03,  -93.7925E-03,  -30.5151E-03,   2.56866E-03
C:/temp/dataset/3/19_2.odb,Step-1,Increment      1: Step Time =    1.000,"PART-1-1",           255,       7.30212,      -21.2110,            0.,NA,NA,"",   17.0427E-03,  -163.531E-06,  -17.0419E-03,   3.48568E-03
C:/temp/dataset/3/19_2.odb,Step-1,Increment      1: Step Time =    1.000,"PART-1-1",           256,       8.48263,      -3.88795,            0.,NA,NA,"",   242.834E-03,  -236.099E-03,  -56.7936E-03,   2.59304E-03
C:/temp/dataset/3/19_2.odb,Step-1,Increment      1: Step Time =    1.000,"PART-1-1",           257,       8.48912,      -1.65164,            0.,NA,NA,"",   301.724E-03,  -295.481E-03,  -61.0633E-03,   2.61688E-03
C:/temp/dataset/3/19_2.odb,Step-1,Increment      1: Step Time =    1.000,"PART-1-1",           258,       8.19007,       3.36514,            0.,NA,NA,"",   442.859E-03,  -436.020E-03,  -77.5289E-03,   1.60385E-03
C:/temp/dataset/3/19_2.odb,Step-1,Increment      1: Step Time =    1.000,"PART-1-1",           259,       6.78208,  -317.133E-03,            0.,NA,NA,"",   351.303E-03,  -333.925E-03,  -109.122E-03,   2.38996E-03
C:/temp/dataset/3/19_2.odb,Step-1,Increment      1: Step Time =    1.000,"PART-1-1",           260,       11.8604,      -10.2109,            0.,NA,NA,"",   106.446E-03,  -105.472E-03,   14.3672E-03,   1.18084E-03
C:/temp/dataset/3/19_2.odb,Step-1,Increment      1: Step Time =    1.000,"PART-1-1",           261,       5.00218,  -627.613E-03,            0.,NA,NA,"",   363.758E-03,  -327.093E-03,  -159.156E-03,   2.97714E-03
C:/temp/dataset/3/19_2.odb,Step-1,Increment      1: Step Time =    1.000,"PART-1-1",           262,       11.1460,      -8.45072,            0.,NA,NA,"",   136.305E-03,  -136.277E-03,   2.79717E-03,   530.377E-06
C:/temp/dataset/3/19_2.odb,Step-1,Increment      1: Step Time =    1.000,"PART-1-1",           263,       11.7180,       5.54683,            0.,NA,NA,"",   496.458E-03,  -496.213E-03,   15.6047E-03,   582.241E-06
C:/temp/dataset/3/19_2.odb,Step-1,Increment      1: Step Time =    1.000,"PART-1-1",           264,       5.25136,      -21.5985,            0.,NA,NA,"",   17.7391E-03,  -2.70466E-03,  -17.5317E-03,   4.92548E-03
C:/temp/dataset/3/19_2.odb,Step-1,Increment      1: Step Time =    1.000,"PART-1-1",           265,       12.4723,       27.5096,            0.,NA,NA,"",       1.09838,      -1.09803,   27.7796E-03,   101.977E-09
C:/temp/dataset/3/19_2.odb,Step-1,Increment      1: Step Time =    1.000,"PART-1-1",           266,       5.87727,      -22.7682,            0.,NA,NA,"",   14.1353E-03,  -949.333E-06,  -14.1034E-03,   3.60588E-03
C:/temp/dataset/3/19_2.odb,Step-1,Increment      1: Step Time =    1.000,"PART-1-1",           267,       7.32369,      -22.7299,            0.,NA,NA,"",   12.8712E-03,   1.55515E-03,  -12.7769E-03,   3.26049E-03
C:/temp/dataset/3/19_2.odb,Step-1,Increment      1: Step Time =    1.000,"PART-1-1",           268,       11.4923,      -4.55460,            0.,NA,NA,"",   221.030E-03,  -220.733E-03,   11.4433E-03,   1.69468E-03
C:/temp/dataset/3/19_2.odb,Step-1,Increment      1: Step Time =    1.000,"PART-1-1",           269,       11.2115,       8.96325,            0.,NA,NA,"",   590.460E-03,  -590.460E-03,   217.607E-06,   113.627E-06
C:/temp/dataset/3/19_2.odb,Step-1,Increment      1: Step Time =    1.000,"PART-1-1",           270,       10.8046,       10.5255,            0.,NA,NA,"",   633.240E-03,  -633.135E-03,  -11.5250E-03,   35.3473E-06
C:/temp/dataset/3/19_2.odb,Step-1,Increment      1: Step Time =    1.000,"PART-1-1",           271,       7.35536,      -24.2380,            0.,NA,NA,"",   9.18501E-03,   2.27417E-03,  -8.89902E-03,   2.74741E-03
C:/temp/dataset/3/19_2.odb,Step-1,Increment      1: Step Time =    1.000,"PART-1-1",           272,      -3.82134,   150.711E-03,            0.,NA,NA,"",   551.601E-03,  -349.814E-03,  -426.490E-03,   137.115E-06
C:/temp/dataset/3/19_2.odb,Step-1,Increment      1: Step Time =    1.000,"PART-1-1",           273,       3.09609,      -1.70207,            0.,NA,NA,"",   368.021E-03,  -298.645E-03,  -215.059E-03,   3.03113E-03
C:/temp/dataset/3/19_2.odb,Step-1,Increment      1: Step Time =    1.000,"PART-1-1",           274,       4.56419,      -1.78689,            0.,NA,NA,"",   340.573E-03,  -295.712E-03,  -168.951E-03,   3.42251E-03
C:/temp/dataset/3/19_2.odb,Step-1,Increment      1: Step Time =    1.000,"PART-1-1",           275,       9.44492,      -23.8624,            0.,NA,NA,"",   6.75245E-03,   4.34350E-03,  -5.17006E-03,   2.09185E-03
C:/temp/dataset/3/19_2.odb,Step-1,Increment      1: Step Time =    1.000,"PART-1-1",           276,       8.77427,      -22.6651,            0.,NA,NA,"",   9.37597E-03,   3.05206E-03,  -8.86532E-03,   2.41838E-03
C:/temp/dataset/3/19_2.odb,Step-1,Increment      1: Step Time =    1.000,"PART-1-1",           277,       10.1837,      -9.28900,            0.,NA,NA,"",   121.590E-03,  -120.755E-03,  -14.2220E-03,   916.615E-06
C:/temp/dataset/3/19_2.odb,Step-1,Increment      1: Step Time =    1.000,"PART-1-1",           278,       10.4979,      -10.7612,            0.,NA,NA,"",   96.4009E-03,  -96.0877E-03,  -7.76424E-03,   638.884E-06
C:/temp/dataset/3/19_2.odb,Step-1,Increment      1: Step Time =    1.000,"PART-1-1",           279,       11.2325,      -12.6180,            0.,NA,NA,"",   68.9019E-03,  -68.8082E-03,   3.59209E-03,   315.273E-06
C:/temp/dataset/3/19_2.odb,Step-1,Increment      1: Step Time =    1.000,"PART-1-1",           280,      -13.7500,       22.5017,            0.,NA,NA,"",       1.17354,  -951.347E-03,  -687.121E-03,   87.2089E-12
C:/temp/dataset/3/19_2.odb,Step-1,Increment      1: Step Time =    1.000,"PART-1-1",           281,          -15.,         21.25,            0.,NA,NA,"",       1.16613,  -916.665E-03,  -720.821E-03,   18.9883E-12
C:/temp/dataset/3/19_2.odb,Step-1,Increment      1: Step Time =    1.000,"PART-1-1",           282,        -13.75,           20.,            0.,NA,NA,"",       1.11825,  -882.964E-03,  -686.186E-03,   26.9236E-12
C:/temp/dataset/3/19_2.odb,Step-1,Increment      1: Step Time =    1.000,"PART-1-1",           283,      -12.5000,       21.2517,            0.,NA,NA,"",       1.12597,  -917.646E-03,  -652.486E-03,   84.4147E-12
C:/temp/dataset/3/19_2.odb,Step-1,Increment      1: Step Time =    1.000,"PART-1-1",           284,        -11.25,           30.,            0.,NA,NA,"",       1.31361,      -1.15724,  -621.586E-03,   173.744E-12
C:/temp/dataset/3/19_2.odb,Step-1,Increment      1: Step Time =    1.000,"PART-1-1",           285,      -12.5009,       28.7510,            0.,NA,NA,"",       1.29990,      -1.12263,  -655.313E-03,   86.2210E-12
C:/temp/dataset/3/19_2.odb,Step-1,Increment      1: Step Time =    1.000,"PART-1-1",           286,      -11.2523,       27.5017,            0.,NA,NA,"",       1.25344,      -1.08895,  -620.716E-03,   195.646E-12
C:/temp/dataset/3/19_2.odb,Step-1,Increment      1: Step Time =    1.000,"PART-1-1",           287,      -10.0014,       28.7507,            0.,NA,NA,"",       1.26765,      -1.12356,  -586.989E-03,   207.357E-12
C:/temp/dataset/3/19_2.odb,Step-1,Increment      1: Step Time =    1.000,"PART-1-1",           288,      -8.75282,       27.5029,            0.,NA,NA,"",       1.22191,      -1.08992,  -552.394E-03,   249.878E-12
C:/temp/dataset/3/19_2.odb,Step-1,Increment      1: Step Time =    1.000,"PART-1-1",           289,      -10.0027,       26.2541,            0.,NA,NA,"",       1.20714,      -1.05532,  -586.092E-03,   223.147E-12
C:/temp/dataset/3/19_2.odb,Step-1,Increment      1: Step Time =    1.000,"PART-1-1",           290,      -8.75320,       25.0087,            0.,NA,NA,"",       1.16107,      -1.02174,  -551.472E-03,   248.259E-12
C:/temp/dataset/3/19_2.odb,Step-1,Increment      1: Step Time =    1.000,"PART-1-1",           291,      -7.50334,       26.2575,            0.,NA,NA,"",       1.17641,      -1.05634,  -517.775E-03,   249.418E-12
C:/temp/dataset/3/19_2.odb,Step-1,Increment      1: Step Time =    1.000,"PART-1-1",           292,  -10.1921E-03,       23.8015,            0.,NA,NA,"",       1.03993,  -992.010E-03,  -312.036E-03,   26.6791E-09
C:/temp/dataset/3/19_2.odb,Step-1,Increment      1: Step Time =    1.000,"PART-1-1",           293,       1.23656,       22.5490,            0.,NA,NA,"",   997.610E-03,  -958.241E-03,  -277.489E-03,   65.5254E-09
C:/temp/dataset/3/19_2.odb,Step-1,Increment      1: Step Time =    1.000,"PART-1-1",           294,       2.47060,       23.8222,            0.,NA,NA,"",       1.02308,  -993.502E-03,  -244.233E-03,   60.0434E-09
C:/temp/dataset/3/19_2.odb,Step-1,Increment      1: Step Time =    1.000,"PART-1-1",           295,       1.22385,       25.0746,            0.,NA,NA,"",       1.06443,      -1.02727,  -278.780E-03,   45.6227E-09
C:/temp/dataset/3/19_2.odb,Step-1,Increment      1: Step Time =    1.000,"PART-1-1",           296,       13.7132,       25.0166,            0.,NA,NA,"",       1.03226,      -1.03035,   62.6288E-03,   94.0556E-09
C:/temp/dataset/3/19_2.odb,Step-1,Increment      1: Step Time =    1.000,"PART-1-1",           297,           15.,         26.25,            0.,NA,NA,"",       1.06899,      -1.06455,   97.3417E-03,   108.134E-09
C:/temp/dataset/3/19_2.odb,Step-1,Increment      1: Step Time =    1.000,"PART-1-1",           298,       13.7362,       27.5048,            0.,NA,NA,"",       1.10014,      -1.09837,   62.3272E-03,   66.6872E-09
C:/temp/dataset/3/19_2.odb,Step-1,Increment      1: Step Time =    1.000,"PART-1-1",           299,       12.4494,       26.2714,            0.,NA,NA,"",       1.06454,      -1.06418,   27.6143E-03,   77.3436E-09
C:/temp/dataset/3/19_2.odb,Step-1,Increment      1: Step Time =    1.000,"PART-1-1",           300,       6.19248,       27.5744,            0.,NA,NA,"",       1.10685,      -1.09746,  -143.899E-03,   48.7257E-09
C:/temp/dataset/3/19_2.odb,Step-1,Increment      1: Step Time =    1.000,"PART-1-1",           301,       7.46746,       28.7842,            0.,NA,NA,"",       1.13629,      -1.13100,  -109.500E-03,   83.7496E-09
C:/temp/dataset/3/19_2.odb,Step-1,Increment      1: Step Time =    1.000,"PART-1-1",           302,          6.25,           30.,            0.,NA,NA,"",       1.17256,      -1.16378,  -143.233E-03,   118.149E-09
C:/temp/dataset/3/19_2.odb,Step-1,Increment      1: Step Time =    1.000,"PART-1-1",           303,       4.97503,       28.7903,            0.,NA,NA,"",       1.14411,      -1.13024,  -177.632E-03,   64.7329E-09
C:/temp/dataset/3/19_2.odb,Step-1,Increment      1: Step Time =    1.000,"PART-1-1",           304,       11.0878,       17.5306,            0.,NA,NA,"",   824.779E-03,  -824.755E-03,  -6.34325E-03,   5.38868E-06
C:/temp/dataset/3/19_2.odb,Step-1,Increment      1: Step Time =    1.000,"PART-1-1",           305,       12.3722,       18.7756,            0.,NA,NA,"",   859.730E-03,  -859.264E-03,   28.3041E-03,   3.70122E-06
C:/temp/dataset/3/19_2.odb,Step-1,Increment      1: Step Time =    1.000,"PART-1-1",           306,       11.1059,       20.0490,            0.,NA,NA,"",   893.621E-03,  -893.595E-03,  -6.78526E-03,   1.63392E-06
C:/temp/dataset/3/19_2.odb,Step-1,Increment      1: Step Time =    1.000,"PART-1-1",           307,       9.82152,       18.8041,            0.,NA,NA,"",   860.082E-03,  -859.084E-03,  -41.4291E-03,   4.08391E-06
C:/temp/dataset/3/19_2.odb,Step-1,Increment      1: Step Time =    1.000,"PART-1-1",           308,       9.63171,       13.8797,            0.,NA,NA,"",   725.790E-03,  -724.406E-03,  -44.8139E-03,   18.1469E-06
C:/temp/dataset/3/19_2.odb,Step-1,Increment      1: Step Time =    1.000,"PART-1-1",           309,       8.52517,       15.0687,            0.,NA,NA,"",   760.242E-03,  -756.485E-03,  -75.4821E-03,   12.2153E-06
C:/temp/dataset/3/19_2.odb,Step-1,Increment      1: Step Time =    1.000,"PART-1-1",           310,       7.25683,       13.8735,            0.,NA,NA,"",   731.602E-03,  -723.333E-03,  -109.688E-03,   16.7506E-06
C:/temp/dataset/3/19_2.odb,Step-1,Increment      1: Step Time =    1.000,"PART-1-1",           311,       8.36336,       12.6844,            0.,NA,NA,"",   695.760E-03,  -691.256E-03,  -79.0413E-03,   17.0955E-06
C:/temp/dataset/3/19_2.odb,Step-1,Increment      1: Step Time =    1.000,"PART-1-1",           312,       14.0118,       9.82001,            0.,NA,NA,"",   619.695E-03,  -614.947E-03,   76.5667E-03,   29.4081E-06
C:/temp/dataset/3/19_2.odb,Step-1,Increment      1: Step Time =    1.000,"PART-1-1",           313,           15.,         11.25,            0.,NA,NA,"",   662.555E-03,  -654.489E-03,   103.069E-03,   45.0186E-06
C:/temp/dataset/3/19_2.odb,Step-1,Increment      1: Step Time =    1.000,"PART-1-1",           314,       13.5880,       12.3315,            0.,NA,NA,"",   686.561E-03,  -683.574E-03,   63.9763E-03,   18.2585E-06
C:/temp/dataset/3/19_2.odb,Step-1,Increment      1: Step Time =    1.000,"PART-1-1",           315,       12.5998,       10.9015,            0.,NA,NA,"",   645.160E-03,  -644.072E-03,   37.4610E-03,   11.6060E-06
C:/temp/dataset/3/19_2.odb,Step-1,Increment      1: Step Time =    1.000,"PART-1-1",           316,       4.40482,  -219.892E-03,            0.,NA,NA,"",   382.821E-03,  -338.939E-03,  -177.966E-03,   2.80490E-03
C:/temp/dataset/3/19_2.odb,Step-1,Increment      1: Step Time =    1.000,"PART-1-1",           317,       3.45177,  -757.122E-03,            0.,NA,NA,"",   384.440E-03,  -324.724E-03,  -205.788E-03,   2.78777E-03
C:/temp/dataset/3/19_2.odb,Step-1,Increment      1: Step Time =    1.000,"PART-1-1",           318,       3.83014,      -1.74448,            0.,NA,NA,"",   353.822E-03,  -297.221E-03,  -191.963E-03,   3.29525E-03
C:/temp/dataset/3/19_2.odb,Step-1,Increment      1: Step Time =    1.000,"PART-1-1",           319,       4.78319,      -1.20725,            0.,NA,NA,"",   351.968E-03,  -311.456E-03,  -163.942E-03,   3.10418E-03
C:/temp/dataset/3/19_2.odb,Step-1,Increment      1: Step Time =    1.000,"PART-1-1",           320,       10.3408,      -10.0251,            0.,NA,NA,"",   108.627E-03,  -108.080E-03,  -10.8876E-03,   776.411E-06
C:/temp/dataset/3/19_2.odb,Step-1,Increment      1: Step Time =    1.000,"PART-1-1",           321,       11.1792,      -10.4860,            0.,NA,NA,"",   100.635E-03,  -100.588E-03,   3.08413E-03,   292.025E-06
C:/temp/dataset/3/19_2.odb,Step-1,Increment      1: Step Time =    1.000,"PART-1-1",           322,       11.5032,      -9.33080,            0.,NA,NA,"",   120.712E-03,  -120.381E-03,   8.92501E-03,   804.644E-06
C:/temp/dataset/3/19_2.odb,Step-1,Increment      1: Step Time =    1.000,"PART-1-1",           323,       10.6649,      -8.86986,            0.,NA,NA,"",   128.463E-03,  -128.324E-03,  -5.97352E-03,   377.545E-06
C:/temp/dataset/3/19_2.odb,Step-1,Increment      1: Step Time =    1.000,"PART-1-1",           324,       9.41034,      -12.1888,            0.,NA,NA,"",   78.4287E-03,  -75.2191E-03,  -22.2070E-03,   2.09091E-03
C:/temp/dataset/3/19_2.odb,Step-1,Increment      1: Step Time =    1.000,"PART-1-1",           325,       10.5075,      -13.0214,            0.,NA,NA,"",   63.7199E-03,  -63.4278E-03,  -6.09451E-03,   656.927E-06
C:/temp/dataset/3/19_2.odb,Step-1,Increment      1: Step Time =    1.000,"PART-1-1",           326,       10.8652,      -11.6896,            0.,NA,NA,"",   81.9155E-03,  -81.8978E-03,  -1.70088E-03,   187.064E-06
C:/temp/dataset/3/19_2.odb,Step-1,Increment      1: Step Time =    1.000,"PART-1-1",           327,       9.76802,      -10.8570,            0.,NA,NA,"",   96.6949E-03,  -94.7681E-03,  -19.2073E-03,   1.59541E-03
C:/temp/dataset/3/19_2.odb,Step-1,Increment      1: Step Time =    1.000,"PART-1-1",           328,       6.12016,      -19.7528,            0.,NA,NA,"",   25.7660E-03,  -4.29692E-03,  -25.4051E-03,   5.84897E-03
C:/temp/dataset/3/19_2.odb,Step-1,Increment      1: Step Time =    1.000,"PART-1-1",           329,       7.15653,      -18.4145,            0.,NA,NA,"",   28.6099E-03,  -12.0653E-03,  -25.9414E-03,   3.96592E-03
C:/temp/dataset/3/19_2.odb,Step-1,Increment      1: Step Time =    1.000,"PART-1-1",           330,       6.03637,      -17.4116,            0.,NA,NA,"",   44.7368E-03,  -22.5444E-03,  -38.6410E-03,   6.64041E-03
C:/temp/dataset/3/19_2.odb,Step-1,Increment      1: Step Time =    1.000,"PART-1-1",           331,            5.,        -18.75,            0.,NA,NA,"",   39.4351E-03,  -15.0793E-03,  -36.4382E-03,   9.79044E-03
C:/temp/dataset/3/19_2.odb,Step-1,Increment      1: Step Time =    1.000,"PART-1-1",           332,       13.3604,      -22.4969,            0.,NA,NA,"",   8.20930E-03,   2.43801E-03,   7.83893E-03,   2.24024E-03
C:/temp/dataset/3/19_2.odb,Step-1,Increment      1: Step Time =    1.000,"PART-1-1",           333,           15.,        -21.25,            0.,NA,NA,"",   16.6796E-03,  -2.80435E-03,   16.4422E-03,   3.96352E-03
C:/temp/dataset/3/19_2.odb,Step-1,Increment      1: Step Time =    1.000,"PART-1-1",           334,       13.4842,      -19.7901,            0.,NA,NA,"",   15.4599E-03,  -5.99739E-03,   14.2493E-03,   2.91233E-03
C:/temp/dataset/3/19_2.odb,Step-1,Increment      1: Step Time =    1.000,"PART-1-1",           335,       11.8446,      -21.0370,            0.,NA,NA,"",   3.60846E-03,   174.188E-06,   3.60425E-03,   1.65066E-03
C:/temp/dataset/3/19_2.odb,Step-1,Increment      1: Step Time =    1.000,"PART-1-1",           336,       1.65000,            5.,            0.,NA,NA,"",   560.904E-03,  -489.640E-03,  -273.616E-03,   2.22630E-03
C:/temp/dataset/3/19_2.odb,Step-1,Increment      1: Step Time =    1.000,"PART-1-1",           337,   440.654E-03,       4.00571,            0.,NA,NA,"",   554.108E-03,  -460.977E-03,  -307.467E-03,   2.14328E-03
C:/temp/dataset/3/19_2.odb,Step-1,Increment      1: Step Time =    1.000,"PART-1-1",           338,       1.47063,       2.87974,            0.,NA,NA,"",   508.107E-03,  -427.892E-03,  -274.009E-03,   2.39264E-03
C:/temp/dataset/3/19_2.odb,Step-1,Increment      1: Step Time =    1.000,"PART-1-1",           339,       2.67998,       3.87403,            0.,NA,NA,"",   514.347E-03,  -455.233E-03,  -239.408E-03,   2.63392E-03
C:/temp/dataset/3/19_2.odb,Step-1,Increment      1: Step Time =    1.000,"PART-1-1",           340,      -1.46180,      -3.99231,            0.,NA,NA,"",   422.047E-03,  -228.961E-03,  -354.543E-03,   147.123E-06
C:/temp/dataset/3/19_2.odb,Step-1,Increment      1: Step Time =    1.000,"PART-1-1",           341,     -500.E-03,           -5.,            0.,NA,NA,"",   381.163E-03,  -199.043E-03,  -325.065E-03,   290.543E-06
C:/temp/dataset/3/19_2.odb,Step-1,Increment      1: Step Time =    1.000,"PART-1-1",           342,   718.491E-03,      -4.10961,            0.,NA,NA,"",   366.665E-03,  -226.413E-03,  -288.410E-03,   405.401E-06
C:/temp/dataset/3/19_2.odb,Step-1,Increment      1: Step Time =    1.000,"PART-1-1",           343,  -243.313E-03,      -3.10192,            0.,NA,NA,"",   408.471E-03,  -256.081E-03,  -318.231E-03,   531.591E-06
C:/temp/dataset/3/19_2.odb,Step-1,Increment      1: Step Time =    1.000,"PART-1-1",           344,      -3.82017,      -3.74247,            0.,NA,NA,"",   485.549E-03,  -235.509E-03,  -424.610E-03,   122.143E-06
C:/temp/dataset/3/19_2.odb,Step-1,Increment      1: Step Time =    1.000,"PART-1-1",           345,      -2.71667,           -5.,            0.,NA,NA,"",   438.910E-03,  -198.635E-03,  -391.389E-03,   274.478E-06
C:/temp/dataset/3/19_2.odb,Step-1,Increment      1: Step Time =    1.000,"PART-1-1",           346,      -2.56530,      -2.73478,            0.,NA,NA,"",   470.327E-03,  -265.754E-03,  -388.050E-03,   113.831E-06
C:/temp/dataset/3/19_2.odb,Step-1,Increment      1: Step Time =    1.000,"PART-1-1",           347,      -13.8092,  -21.6491E-03,            0.,NA,NA,"",   794.260E-03,  -340.100E-03,  -717.761E-03,   8.52770E-06
C:/temp/dataset/3/19_2.odb,Step-1,Increment      1: Step Time =    1.000,"PART-1-1",           348,      -12.6581,       1.21263,            0.,NA,NA,"",   781.432E-03,  -376.599E-03,  -684.696E-03,   10.1511E-06
C:/temp/dataset/3/19_2.odb,Step-1,Increment      1: Step Time =    1.000,"PART-1-1",           349,      -13.8489,       2.48428,            0.,NA,NA,"",   830.106E-03,  -413.178E-03,  -719.972E-03,   6.13793E-06
C:/temp/dataset/3/19_2.odb,Step-1,Increment      1: Step Time =    1.000,"PART-1-1",           350,          -15.,          1.25,            0.,NA,NA,"",   841.990E-03,  -376.684E-03,  -753.031E-03,   4.18533E-06
C:/temp/dataset/3/19_2.odb,Step-1,Increment      1: Step Time =    1.000,"PART-1-1",           351,      -8.84172,   345.754E-03,            0.,NA,NA,"",   673.022E-03,  -353.024E-03,  -573.003E-03,   59.9168E-06
C:/temp/dataset/3/19_2.odb,Step-1,Increment      1: Step Time =    1.000,"PART-1-1",           352,      -9.20019,  -788.270E-03,            0.,NA,NA,"",   664.951E-03,  -319.765E-03,  -583.018E-03,   49.6459E-06
C:/temp/dataset/3/19_2.odb,Step-1,Increment      1: Step Time =    1.000,"PART-1-1",           353,      -7.61937,      -1.21646,            0.,NA,NA,"",   618.846E-03,  -307.995E-03,  -536.758E-03,   74.4638E-06
C:/temp/dataset/3/19_2.odb,Step-1,Increment      1: Step Time =    1.000,"PART-1-1",           354,      -7.26090,  -82.4387E-03,            0.,NA,NA,"",   627.640E-03,  -341.293E-03,  -526.735E-03,   81.5510E-06
C:/temp/dataset/3/19_2.odb,Step-1,Increment      1: Step Time =    1.000,"PART-1-1",           355,      -12.7466,      -3.77621,            0.,NA,NA,"",   723.085E-03,  -231.019E-03,  -685.187E-03,   5.26754E-06
C:/temp/dataset/3/19_2.odb,Step-1,Increment      1: Step Time =    1.000,"PART-1-1",           356,      -13.8633,      -2.52621,            0.,NA,NA,"",   766.307E-03,  -267.010E-03,  -718.285E-03,   5.93719E-06
C:/temp/dataset/3/19_2.odb,Step-1,Increment      1: Step Time =    1.000,"PART-1-1",           357,          -15.,         -3.75,            0.,NA,NA,"",   785.599E-03,  -230.826E-03,  -750.923E-03,   815.547E-09
C:/temp/dataset/3/19_2.odb,Step-1,Increment      1: Step Time =    1.000,"PART-1-1",           358,      -13.8833,           -5.,            0.,NA,NA,"",   743.793E-03,  -194.840E-03,  -717.819E-03,   955.810E-09
C:/temp/dataset/3/19_2.odb,Step-1,Increment      1: Step Time =    1.000,"PART-1-1",           359,      -5.03830,      -2.71522,            0.,NA,NA,"",   531.705E-03,  -265.268E-03,  -460.807E-03,   78.8983E-06
C:/temp/dataset/3/19_2.odb,Step-1,Increment      1: Step Time =    1.000,"PART-1-1",           360,      -4.43911,      -1.50749,            0.,NA,NA,"",   536.233E-03,  -301.002E-03,  -443.784E-03,   74.5305E-06
C:/temp/dataset/3/19_2.odb,Step-1,Increment      1: Step Time =    1.000,"PART-1-1",           361,      -5.95808,  -763.119E-03,            0.,NA,NA,"",   585.093E-03,  -322.061E-03,  -488.477E-03,   94.4296E-06
C:/temp/dataset/3/19_2.odb,Step-1,Increment      1: Step Time =    1.000,"PART-1-1",           362,      -6.55726,      -1.97085,            0.,NA,NA,"",   580.992E-03,  -286.422E-03,  -505.484E-03,   81.9342E-06
C:/temp/dataset/3/19_2.odb,Step-1,Increment      1: Step Time =    1.000,"PART-1-1",           363,          6.25,          -30.,            0.,NA,NA,"",            0.,   388.719E-42,  -2.17818E-39,   1.21070E-03
C:/temp/dataset/3/19_2.odb,Step-1,Increment      1: Step Time =    1.000,"PART-1-1",           364,       7.47038,      -28.9473,            0.,NA,NA,"",   1.46332E-03,   1.08683E-03,  -979.847E-06,   1.44220E-03
C:/temp/dataset/3/19_2.odb,Step-1,Increment      1: Step Time =    1.000,"PART-1-1",           365,       6.18647,      -27.8786,            0.,NA,NA,"",   2.77063E-03,   883.707E-06,  -2.62592E-03,   1.68851E-03
C:/temp/dataset/3/19_2.odb,Step-1,Increment      1: Step Time =    1.000,"PART-1-1",           366,       4.96608,      -28.9312,            0.,NA,NA,"",   1.16419E-03,   6.26955E-06,  -1.16417E-03,   1.45635E-03
C:/temp/dataset/3/19_2.odb,Step-1,Increment      1: Step Time =    1.000,"PART-1-1",           367,       3.70492,      -27.8047,            0.,NA,NA,"",   2.61970E-03,  -865.017E-06,  -2.47277E-03,   1.53041E-03
C:/temp/dataset/3/19_2.odb,Step-1,Increment      1: Step Time =    1.000,"PART-1-1",           368,       2.48883,      -28.8735,            0.,NA,NA,"",   1.27392E-03,  -829.233E-06,  -967.079E-06,   1.23709E-03
C:/temp/dataset/3/19_2.odb,Step-1,Increment      1: Step Time =    1.000,"PART-1-1",           369,          3.75,          -30.,            0.,NA,NA,"",            0.,  -301.962E-42,  -2.15467E-39,   1.15624E-03
C:/temp/dataset/3/19_2.odb,Step-1,Increment      1: Step Time =    1.000,"PART-1-1",           370,      -3.72203,      -27.5999,            0.,NA,NA,"",   1.62660E-03,  -1.60340E-03,  -273.723E-06,   475.721E-06
C:/temp/dataset/3/19_2.odb,Step-1,Increment      1: Step Time =    1.000,"PART-1-1",           371,      -4.98725,      -28.7922,            0.,NA,NA,"",   802.341E-06,  -795.296E-06,  -106.094E-06,   430.947E-06
C:/temp/dataset/3/19_2.odb,Step-1,Increment      1: Step Time =    1.000,"PART-1-1",           372,         -3.75,          -30.,            0.,NA,NA,"",            0.,  -534.426E-42,  -474.499E-42,   603.966E-06
C:/temp/dataset/3/19_2.odb,Step-1,Increment      1: Step Time =    1.000,"PART-1-1",           373,      -2.48478,      -28.8077,            0.,NA,NA,"",   1.06956E-03,  -1.03167E-03,  -282.132E-06,   636.563E-06
C:/temp/dataset/3/19_2.odb,Step-1,Increment      1: Step Time =    1.000,"PART-1-1",           374,      -13.7501,      -27.5099,            0.,NA,NA,"",   703.613E-06,  -683.805E-06,  -165.779E-06,   101.582E-06
C:/temp/dataset/3/19_2.odb,Step-1,Increment      1: Step Time =    1.000,"PART-1-1",           375,          -15.,        -28.75,            0.,NA,NA,"",   457.180E-06,  -382.454E-06,  -250.484E-06,   188.243E-06
C:/temp/dataset/3/19_2.odb,Step-1,Increment      1: Step Time =    1.000,"PART-1-1",           376,        -13.75,          -30.,            0.,NA,NA,"",            0.,  -66.1581E-42,  -195.232E-42,   220.440E-06
C:/temp/dataset/3/19_2.odb,Step-1,Increment      1: Step Time =    1.000,"PART-1-1",           377,      -12.5001,      -28.7599,            0.,NA,NA,"",   334.963E-06,  -332.317E-06,  -42.0180E-06,   170.370E-06
C:/temp/dataset/3/19_2.odb,Step-1,Increment      1: Step Time =    1.000,"PART-1-1",           378,       8.15833,      -10.8587,            0.,NA,NA,"",   106.178E-03,  -96.3626E-03,  -44.5877E-03,   3.75910E-03
C:/temp/dataset/3/19_2.odb,Step-1,Increment      1: Step Time =    1.000,"PART-1-1",           379,       9.00498,      -9.90697,            0.,NA,NA,"",   115.683E-03,  -110.707E-03,  -33.5636E-03,   2.58931E-03
C:/temp/dataset/3/19_2.odb,Step-1,Increment      1: Step Time =    1.000,"PART-1-1",           380,       8.08915,      -8.55627,            0.,NA,NA,"",   145.502E-03,  -135.199E-03,  -53.7773E-03,   3.85741E-03
C:/temp/dataset/3/19_2.odb,Step-1,Increment      1: Step Time =    1.000,"PART-1-1",           381,       7.24249,      -9.50802,            0.,NA,NA,"",   136.409E-03,  -119.841E-03,  -65.1579E-03,   4.92868E-03
C:/temp/dataset/3/19_2.odb,Step-1,Increment      1: Step Time =    1.000,"PART-1-1",           382,       13.9816,      -2.51124,            0.,NA,NA,"",   284.300E-03,  -275.074E-03,   71.8387E-03,   2.62891E-03
C:/temp/dataset/3/19_2.odb,Step-1,Increment      1: Step Time =    1.000,"PART-1-1",           383,           15.,         -1.25,            0.,NA,NA,"",   325.765E-03,  -309.878E-03,   100.491E-03,   2.72950E-03
C:/temp/dataset/3/19_2.odb,Step-1,Increment      1: Step Time =    1.000,"PART-1-1",           384,       13.8213,  -48.4001E-03,            0.,NA,NA,"",   348.308E-03,  -340.935E-03,   71.2838E-03,   1.68048E-03
C:/temp/dataset/3/19_2.odb,Step-1,Increment      1: Step Time =    1.000,"PART-1-1",           385,       12.8030,      -1.30964,            0.,NA,NA,"",   308.802E-03,  -305.609E-03,   44.2889E-03,   1.94294E-03
C:/temp/dataset/3/19_2.odb,Step-1,Increment      1: Step Time =    1.000,"PART-1-1",           386,           15.,          1.25,            0.,NA,NA,"",   392.062E-03,  -377.967E-03,   104.180E-03,   1.52602E-03
C:/temp/dataset/3/19_2.odb,Step-1,Increment      1: Step Time =    1.000,"PART-1-1",           387,       13.5709,       2.55070,            0.,NA,NA,"",   418.265E-03,  -413.011E-03,   66.0907E-03,   898.542E-06
C:/temp/dataset/3/19_2.odb,Step-1,Increment      1: Step Time =    1.000,"PART-1-1",           388,       12.3922,       1.25230,            0.,NA,NA,"",   377.628E-03,  -376.021E-03,   34.7948E-03,   1.47950E-03
C:/temp/dataset/3/19_2.odb,Step-1,Increment      1: Step Time =    1.000,"PART-1-1",           389,      -5.00532,       26.2655,            0.,NA,NA,"",       1.14906,      -1.05750,  -449.496E-03,   1.37394E-09
C:/temp/dataset/3/19_2.odb,Step-1,Increment      1: Step Time =    1.000,"PART-1-1",           390,      -3.75495,       25.0275,            0.,NA,NA,"",       1.10496,      -1.02412,  -414.855E-03,   5.30154E-09
C:/temp/dataset/3/19_2.odb,Step-1,Increment      1: Step Time =    1.000,"PART-1-1",           391,      -2.50780,       26.2820,            0.,NA,NA,"",       1.12542,      -1.05888,  -381.234E-03,   6.82836E-09
C:/temp/dataset/3/19_2.odb,Step-1,Increment      1: Step Time =    1.000,"PART-1-1",           392,      -3.75817,       27.5199,            0.,NA,NA,"",       1.16874,      -1.09225,  -415.874E-03,   3.91237E-09
C:/temp/dataset/3/19_2.odb,Step-1,Increment      1: Step Time =    1.000,"PART-1-1",           393,      -5.00193,       23.7670,            0.,NA,NA,"",       1.08611,  -989.201E-03,  -448.469E-03,   1.37940E-09
C:/temp/dataset/3/19_2.odb,Step-1,Increment      1: Step Time =    1.000,"PART-1-1",           394,      -6.25406,       25.0149,            0.,NA,NA,"",       1.13122,      -1.02284,  -483.162E-03,   838.263E-12
C:/temp/dataset/3/19_2.odb,Step-1,Increment      1: Step Time =    1.000,"PART-1-1",           395,      -7.50285,       23.7600,            0.,NA,NA,"",       1.11508,  -988.076E-03,  -516.828E-03,   280.091E-12
C:/temp/dataset/3/19_2.odb,Step-1,Increment      1: Step Time =    1.000,"PART-1-1",           396,      -6.25071,       22.5121,            0.,NA,NA,"",       1.06930,  -954.434E-03,  -482.135E-03,   562.676E-12
C:/temp/dataset/3/19_2.odb,Step-1,Increment      1: Step Time =    1.000,"PART-1-1",           397,      -12.5007,       23.7543,            0.,NA,NA,"",       1.18291,  -986.053E-03,  -653.439E-03,   113.314E-12
C:/temp/dataset/3/19_2.odb,Step-1,Increment      1: Step Time =    1.000,"PART-1-1",           398,      -13.7507,       25.0026,            0.,NA,NA,"",       1.23014,      -1.01971,  -688.073E-03,   105.991E-12
C:/temp/dataset/3/19_2.odb,Step-1,Increment      1: Step Time =    1.000,"PART-1-1",           399,          -15.,         23.75,            0.,NA,NA,"",       1.22113,  -985.001E-03,  -721.755E-03,   86.1170E-12
C:/temp/dataset/3/19_2.odb,Step-1,Increment      1: Step Time =    1.000,"PART-1-1",           400,       1.22659,       27.5580,            0.,NA,NA,"",       1.13029,      -1.09515,  -279.633E-03,   35.2777E-09
C:/temp/dataset/3/19_2.odb,Step-1,Increment      1: Step Time =    1.000,"PART-1-1",           401,       2.48534,       28.7828,            0.,NA,NA,"",       1.15552,      -1.12910,  -245.683E-03,   37.2122E-09
C:/temp/dataset/3/19_2.odb,Step-1,Increment      1: Step Time =    1.000,"PART-1-1",           402,          1.25,           30.,            0.,NA,NA,"",       1.19515,      -1.16191,  -279.905E-03,   29.8666E-09
C:/temp/dataset/3/19_2.odb,Step-1,Increment      1: Step Time =    1.000,"PART-1-1",           403,  -8.74824E-03,       28.7751,            0.,NA,NA,"",       1.17081,      -1.12796,  -313.855E-03,   14.0189E-09
C:/temp/dataset/3/19_2.odb,Step-1,Increment      1: Step Time =    1.000,"PART-1-1",           404,  -16.7069E-03,       26.3073,            0.,NA,NA,"",       1.10577,      -1.06050,  -313.150E-03,   21.7595E-09
C:/temp/dataset/3/19_2.odb,Step-1,Increment      1: Step Time =    1.000,"PART-1-1",           405,       2.46714,       26.3253,            0.,NA,NA,"",       1.08988,      -1.06192,  -245.262E-03,   51.1398E-09
C:/temp/dataset/3/19_2.odb,Step-1,Increment      1: Step Time =    1.000,"PART-1-1",           406,       3.70751,       22.5746,            0.,NA,NA,"",   982.556E-03,  -959.862E-03,  -209.956E-03,   133.791E-09
C:/temp/dataset/3/19_2.odb,Step-1,Increment      1: Step Time =    1.000,"PART-1-1",           407,       2.48879,       21.2797,            0.,NA,NA,"",   955.374E-03,  -924.011E-03,  -242.785E-03,   77.6501E-09
C:/temp/dataset/3/19_2.odb,Step-1,Increment      1: Step Time =    1.000,"PART-1-1",           408,          3.75,           20.,            0.,NA,NA,"",   913.460E-03,  -889.503E-03,  -207.833E-03,   263.955E-09
C:/temp/dataset/3/19_2.odb,Step-1,Increment      1: Step Time =    1.000,"PART-1-1",           409,       4.96872,       21.2949,            0.,NA,NA,"",   941.758E-03,  -925.355E-03,  -175.004E-03,   216.215E-09
C:/temp/dataset/3/19_2.odb,Step-1,Increment      1: Step Time =    1.000,"PART-1-1",           410,       10.8479,       12.4309,            0.,NA,NA,"",   685.358E-03,  -685.269E-03,  -11.0451E-03,   17.8668E-06
C:/temp/dataset/3/19_2.odb,Step-1,Increment      1: Step Time =    1.000,"PART-1-1",           411,       9.34812,       11.6387,            0.,NA,NA,"",   665.071E-03,  -663.054E-03,  -51.7662E-03,   21.4983E-06
C:/temp/dataset/3/19_2.odb,Step-1,Increment      1: Step Time =    1.000,"PART-1-1",           412,       9.99050,       10.5520,            0.,NA,NA,"",   634.491E-03,  -633.590E-03,  -33.8051E-03,   31.7607E-06
C:/temp/dataset/3/19_2.odb,Step-1,Increment      1: Step Time =    1.000,"PART-1-1",           413,       11.4903,       11.3442,            0.,NA,NA,"",   655.822E-03,  -655.785E-03,   6.92611E-03,   19.2870E-06
C:/temp/dataset/3/19_2.odb,Step-1,Increment      1: Step Time =    1.000,"PART-1-1",           414,       7.16850,       11.5014,            0.,NA,NA,"",   667.827E-03,  -658.499E-03,  -111.231E-03,   35.0121E-06
C:/temp/dataset/3/19_2.odb,Step-1,Increment      1: Step Time =    1.000,"PART-1-1",           415,       6.10343,       12.5850,            0.,NA,NA,"",   701.947E-03,  -687.702E-03,  -140.698E-03,   20.6197E-06
C:/temp/dataset/3/19_2.odb,Step-1,Increment      1: Step Time =    1.000,"PART-1-1",           416,            5.,         11.25,            0.,NA,NA,"",   672.768E-03,  -650.861E-03,  -170.282E-03,   73.2880E-06
C:/temp/dataset/3/19_2.odb,Step-1,Increment      1: Step Time =    1.000,"PART-1-1",           417,       6.06507,       10.1664,            0.,NA,NA,"",   637.408E-03,  -621.671E-03,  -140.765E-03,   60.1423E-06
C:/temp/dataset/3/19_2.odb,Step-1,Increment      1: Step Time =    1.000,"PART-1-1",           418,       14.0565,       5.06378,            0.,NA,NA,"",   490.015E-03,  -483.550E-03,   79.3341E-03,   333.078E-06
C:/temp/dataset/3/19_2.odb,Step-1,Increment      1: Step Time =    1.000,"PART-1-1",           419,       12.6274,       3.86448,            0.,NA,NA,"",   451.246E-03,  -449.406E-03,   40.7074E-03,   852.365E-06
C:/temp/dataset/3/19_2.odb,Step-1,Increment      1: Step Time =    1.000,"PART-1-1",           420,           15.,          3.75,            0.,NA,NA,"",   459.690E-03,  -447.437E-03,   105.429E-03,   622.161E-06
C:/temp/dataset/3/19_2.odb,Step-1,Increment      1: Step Time =    1.000,"PART-1-1",           421,       10.0280,       5.47301,            0.,NA,NA,"",   495.017E-03,  -494.103E-03,  -30.0793E-03,   750.080E-06
C:/temp/dataset/3/19_2.odb,Step-1,Increment      1: Step Time =    1.000,"PART-1-1",           422,       11.0614,       5.01383,            0.,NA,NA,"",   481.297E-03,  -481.293E-03,  -1.86066E-03,   735.306E-06
C:/temp/dataset/3/19_2.odb,Step-1,Increment      1: Step Time =    1.000,"PART-1-1",           423,       11.6033,       6.33570,            0.,NA,NA,"",   518.266E-03,  -518.124E-03,   12.1024E-03,   442.311E-06
C:/temp/dataset/3/19_2.odb,Step-1,Increment      1: Step Time =    1.000,"PART-1-1",           424,       10.5698,       6.79489,            0.,NA,NA,"",   530.958E-03,  -530.709E-03,  -16.2476E-03,   409.448E-06
C:/temp/dataset/3/19_2.odb,Step-1,Increment      1: Step Time =    1.000,"PART-1-1",           425,      -4.94418,       3.17107,            0.,NA,NA,"",   634.824E-03,  -436.974E-03,  -460.494E-03,   128.875E-06
C:/temp/dataset/3/19_2.odb,Step-1,Increment      1: Step Time =    1.000,"PART-1-1",           426,      -3.90803,       4.11594,            0.,NA,NA,"",   633.622E-03,  -464.501E-03,  -430.948E-03,   261.599E-06
C:/temp/dataset/3/19_2.odb,Step-1,Increment      1: Step Time =    1.000,"PART-1-1",           427,      -5.05000,            5.,            0.,NA,NA,"",   674.996E-03,  -489.804E-03,  -464.447E-03,   269.844E-06
C:/temp/dataset/3/19_2.odb,Step-1,Increment      1: Step Time =    1.000,"PART-1-1",           428,      -6.08615,       4.05513,            0.,NA,NA,"",   676.538E-03,  -462.123E-03,  -494.111E-03,   117.439E-06
C:/temp/dataset/3/19_2.odb,Step-1,Increment      1: Step Time =    1.000,"PART-1-1",           429,      -3.86135,       2.39128,            0.,NA,NA,"",   596.679E-03,  -414.933E-03,  -428.785E-03,   103.585E-06
C:/temp/dataset/3/19_2.odb,Step-1,Increment      1: Step Time =    1.000,"PART-1-1",           430,      -5.85027,       2.20434,            0.,NA,NA,"",   635.269E-03,  -408.565E-03,  -486.459E-03,   99.1935E-06
C:/temp/dataset/3/19_2.odb,Step-1,Increment      1: Step Time =    1.000,"PART-1-1",           431,      -4.76744,       1.42454,            0.,NA,NA,"",   596.699E-03,  -386.459E-03,  -454.642E-03,   98.1059E-06
C:/temp/dataset/3/19_2.odb,Step-1,Increment      1: Step Time =    1.000,"PART-1-1",           432,      -9.29397,       2.69508,            0.,NA,NA,"",   722.631E-03,  -421.280E-03,  -587.127E-03,   51.6076E-06
C:/temp/dataset/3/19_2.odb,Step-1,Increment      1: Step Time =    1.000,"PART-1-1",           433,      -8.28887,       3.92576,            0.,NA,NA,"",   721.832E-03,  -457.535E-03,  -558.303E-03,   50.1052E-06
C:/temp/dataset/3/19_2.odb,Step-1,Increment      1: Step Time =    1.000,"PART-1-1",           434,          -9.5,            5.,            0.,NA,NA,"",   769.096E-03,  -488.382E-03,  -594.131E-03,   40.0328E-06
C:/temp/dataset/3/19_2.odb,Step-1,Increment      1: Step Time =    1.000,"PART-1-1",           435,      -10.5051,       3.76932,            0.,NA,NA,"",   769.689E-03,  -452.075E-03,  -622.936E-03,   18.5307E-06
C:/temp/dataset/3/19_2.odb,Step-1,Increment      1: Step Time =    1.000,"PART-1-1",           436,      -7.92731,       1.84143,            0.,NA,NA,"",   675.820E-03,  -397.035E-03,  -546.896E-03,   66.0509E-06
C:/temp/dataset/3/19_2.odb,Step-1,Increment      1: Step Time =    1.000,"PART-1-1",           437,      -6.68589,       1.06488,            0.,NA,NA,"",   633.361E-03,  -375.030E-03,  -510.391E-03,   97.0868E-06
C:/temp/dataset/3/19_2.odb,Step-1,Increment      1: Step Time =    1.000,"PART-1-1",           438,      -7.09169,       2.98089,            0.,NA,NA,"",   677.392E-03,  -430.545E-03,  -522.964E-03,   90.6454E-06
C:/temp/dataset/3/19_2.odb,Step-1,Increment      1: Step Time =    1.000,"PART-1-1",           439,      -13.9000,            5.,            0.,NA,NA,"",   871.077E-03,  -486.544E-03,  -722.530E-03,   977.871E-09
C:/temp/dataset/3/19_2.odb,Step-1,Increment      1: Step Time =    1.000,"PART-1-1",           440,          -15.,          3.75,            0.,NA,NA,"",   877.952E-03,  -449.609E-03,  -754.089E-03,   871.747E-09
C:/temp/dataset/3/19_2.odb,Step-1,Increment      1: Step Time =    1.000,"PART-1-1",           441,      -12.7489,       3.73428,            0.,NA,NA,"",   822.496E-03,  -450.108E-03,  -688.406E-03,   5.53537E-06
C:/temp/dataset/3/19_2.odb,Step-1,Increment      1: Step Time =    1.000,"PART-1-1",           442,      -9.48823,      -2.88104,            0.,NA,NA,"",   644.672E-03,  -258.520E-03,  -590.567E-03,   41.5350E-06
C:/temp/dataset/3/19_2.odb,Step-1,Increment      1: Step Time =    1.000,"PART-1-1",           443,      -8.42388,      -2.23568,            0.,NA,NA,"",   624.963E-03,  -277.835E-03,  -559.809E-03,   54.0627E-06
C:/temp/dataset/3/19_2.odb,Step-1,Increment      1: Step Time =    1.000,"PART-1-1",           444,      -10.2645,      -1.43363,            0.,NA,NA,"",   683.383E-03,  -300.447E-03,  -613.795E-03,   29.5557E-06
C:/temp/dataset/3/19_2.odb,Step-1,Increment      1: Step Time =    1.000,"PART-1-1",           445,      -12.6725,      -1.29786,            0.,NA,NA,"",   748.317E-03,  -303.358E-03,  -684.070E-03,   9.89237E-06
C:/temp/dataset/3/19_2.odb,Step-1,Increment      1: Step Time =    1.000,"PART-1-1",           446,          -15.,         -1.25,            0.,NA,NA,"",   811.014E-03,  -303.756E-03,  -751.981E-03,   4.35369E-06
C:/temp/dataset/3/19_2.odb,Step-1,Increment      1: Step Time =    1.000,"PART-1-1",           447,      -6.16813,      -3.97275,            0.,NA,NA,"",   543.379E-03,  -227.923E-03,  -493.266E-03,   93.4335E-06
C:/temp/dataset/3/19_2.odb,Step-1,Increment      1: Step Time =    1.000,"PART-1-1",           448,      -4.95000,           -5.,            0.,NA,NA,"",   498.257E-03,  -198.203E-03,  -457.139E-03,   192.447E-06
C:/temp/dataset/3/19_2.odb,Step-1,Increment      1: Step Time =    1.000,"PART-1-1",           449,       1.59412,  -355.999E-03,            0.,NA,NA,"",   427.622E-03,  -336.328E-03,  -264.092E-03,   1.98174E-03
C:/temp/dataset/3/19_2.odb,Step-1,Increment      1: Step Time =    1.000,"PART-1-1",           450,       2.17826,      -1.53992,            0.,NA,NA,"",   389.232E-03,  -302.954E-03,  -244.378E-03,   2.30832E-03
C:/temp/dataset/3/19_2.odb,Step-1,Increment      1: Step Time =    1.000,"PART-1-1",           451,       2.86763,   426.804E-03,            0.,NA,NA,"",   423.399E-03,  -357.901E-03,  -226.216E-03,   2.58085E-03
C:/temp/dataset/3/19_2.odb,Step-1,Increment      1: Step Time =    1.000,"PART-1-1",           452,  -387.277E-03,   5.26357E-03,            0.,NA,NA,"",   475.106E-03,  -346.593E-03,  -324.960E-03,   1.09600E-03
C:/temp/dataset/3/19_2.odb,Step-1,Increment      1: Step Time =    1.000,"PART-1-1",           453,   283.611E-03,      -1.19839,            0.,NA,NA,"",   435.235E-03,  -312.057E-03,  -303.398E-03,   1.24702E-03
C:/temp/dataset/3/19_2.odb,Step-1,Increment      1: Step Time =    1.000,"PART-1-1",           454,   923.228E-03,   847.652E-03,            0.,NA,NA,"",   468.407E-03,  -370.528E-03,  -286.556E-03,   1.93025E-03
C:/temp/dataset/3/19_2.odb,Step-1,Increment      1: Step Time =    1.000,"PART-1-1",           455,       6.35531,      -13.1332,            0.,NA,NA,"",   90.6560E-03,  -67.7303E-03,  -60.2587E-03,   6.09240E-03
C:/temp/dataset/3/19_2.odb,Step-1,Increment      1: Step Time =    1.000,"PART-1-1",           456,       7.49455,      -12.2656,            0.,NA,NA,"",   91.1128E-03,  -76.7718E-03,  -49.0677E-03,   4.66071E-03
C:/temp/dataset/3/19_2.odb,Step-1,Increment      1: Step Time =    1.000,"PART-1-1",           457,       6.13925,      -10.3824,            0.,NA,NA,"",   134.038E-03,  -108.198E-03,  -79.1158E-03,   6.44027E-03
C:/temp/dataset/3/19_2.odb,Step-1,Increment      1: Step Time =    1.000,"PART-1-1",           458,            5.,        -11.25,            0.,NA,NA,"",   134.216E-03,  -98.2245E-03,  -91.4650E-03,   7.85217E-03
C:/temp/dataset/3/19_2.odb,Step-1,Increment      1: Step Time =    1.000,"PART-1-1",           459,       13.3376,      -16.9670,            0.,NA,NA,"",   31.2002E-03,  -23.4569E-03,   20.5725E-03,   3.01699E-03
C:/temp/dataset/3/19_2.odb,Step-1,Increment      1: Step Time =    1.000,"PART-1-1",           460,       11.8219,      -18.0071,            0.,NA,NA,"",   15.5998E-03,  -14.1991E-03,   6.46052E-03,   1.35336E-03
C:/temp/dataset/3/19_2.odb,Step-1,Increment      1: Step Time =    1.000,"PART-1-1",           461,           15.,        -18.75,            0.,NA,NA,"",   29.9008E-03,  -14.0411E-03,   26.3990E-03,   4.76911E-03
C:/temp/dataset/3/19_2.odb,Step-1,Increment      1: Step Time =    1.000,"PART-1-1",           462,       8.42876,      -15.2973,            0.,NA,NA,"",   46.5015E-03,  -38.2140E-03,  -26.4968E-03,   3.28500E-03
C:/temp/dataset/3/19_2.odb,Step-1,Increment      1: Step Time =    1.000,"PART-1-1",           463,       10.4111,      -16.6310,            0.,NA,NA,"",   24.6007E-03,  -24.1161E-03,  -4.85846E-03,   603.955E-06
C:/temp/dataset/3/19_2.odb,Step-1,Increment      1: Step Time =    1.000,"PART-1-1",           464,       10.7289,      -14.9294,            0.,NA,NA,"",   40.7248E-03,  -40.6516E-03,  -2.44136E-03,   367.428E-06
C:/temp/dataset/3/19_2.odb,Step-1,Increment      1: Step Time =    1.000,"PART-1-1",           465,       8.74656,      -13.5956,            0.,NA,NA,"",   63.6161E-03,  -57.2537E-03,  -27.7313E-03,   2.98371E-03
C:/temp/dataset/3/19_2.odb,Step-1,Increment      1: Step Time =    1.000,"PART-1-1",           466,      -8.72016,      -22.5745,            0.,NA,NA,"",   1.73253E-03,  -1.71470E-03,   247.954E-06,   51.1381E-06
C:/temp/dataset/3/19_2.odb,Step-1,Increment      1: Step Time =    1.000,"PART-1-1",           467,      -7.48342,      -21.2909,            0.,NA,NA,"",   1.77266E-03,  -1.74717E-03,   299.539E-06,   18.0694E-06
C:/temp/dataset/3/19_2.odb,Step-1,Increment      1: Step Time =    1.000,"PART-1-1",           468,         -8.75,          -20.,            0.,NA,NA,"",   1.81105E-03,  -1.79421E-03,   246.379E-06,   54.2665E-06
C:/temp/dataset/3/19_2.odb,Step-1,Increment      1: Step Time =    1.000,"PART-1-1",           469,      -9.98674,      -21.2836,            0.,NA,NA,"",   1.76483E-03,  -1.75581E-03,   178.256E-06,   8.52738E-06
C:/temp/dataset/3/19_2.odb,Step-1,Increment      1: Step Time =    1.000,"PART-1-1",           470,      -4.96670,      -26.3491,            0.,NA,NA,"",   1.82873E-03,  -1.82582E-03,  -103.115E-06,   325.554E-06
C:/temp/dataset/3/19_2.odb,Step-1,Increment      1: Step Time =    1.000,"PART-1-1",           471,      -6.21541,      -25.0985,            0.,NA,NA,"",   1.83252E-03,  -1.83012E-03,   93.7259E-06,   228.600E-06
C:/temp/dataset/3/19_2.odb,Step-1,Increment      1: Step Time =    1.000,"PART-1-1",           472,      -7.47738,      -26.3212,            0.,NA,NA,"",   1.41138E-03,  -1.40996E-03,   63.1806E-06,   223.185E-06
C:/temp/dataset/3/19_2.odb,Step-1,Increment      1: Step Time =    1.000,"PART-1-1",           473,      -6.22867,      -27.5719,            0.,NA,NA,"",   1.21687E-03,  -1.21597E-03,  -46.8825E-06,   331.150E-06
C:/temp/dataset/3/19_2.odb,Step-1,Increment      1: Step Time =    1.000,"PART-1-1",           474,   49.7896E-03,      -26.4387,            0.,NA,NA,"",   3.15837E-03,  -2.59585E-03,  -1.79913E-03,   885.000E-06
C:/temp/dataset/3/19_2.odb,Step-1,Increment      1: Step Time =    1.000,"PART-1-1",           475,       1.24862,      -27.7048,            0.,NA,NA,"",   2.45867E-03,  -1.82488E-03,  -1.64768E-03,   1.09246E-03
C:/temp/dataset/3/19_2.odb,Step-1,Increment      1: Step Time =    1.000,"PART-1-1",           476,       2.52056,      -26.5649,            0.,NA,NA,"",   4.01285E-03,  -2.04557E-03,  -3.45234E-03,   1.52255E-03
C:/temp/dataset/3/19_2.odb,Step-1,Increment      1: Step Time =    1.000,"PART-1-1",           477,       1.32172,      -25.2988,            0.,NA,NA,"",   4.59012E-03,  -2.97813E-03,  -3.49284E-03,   1.25545E-03
C:/temp/dataset/3/19_2.odb,Step-1,Increment      1: Step Time =    1.000,"PART-1-1",           478,        -13.75,          -20.,            0.,NA,NA,"",   1.92552E-03,  -1.91112E-03,  -235.039E-06,   6.38987E-06
C:/temp/dataset/3/19_2.odb,Step-1,Increment      1: Step Time =    1.000,"PART-1-1",           479,          -15.,        -21.25,            0.,NA,NA,"",   1.80975E-03,  -1.76823E-03,  -385.403E-06,   5.10279E-06
C:/temp/dataset/3/19_2.odb,Step-1,Increment      1: Step Time =    1.000,"PART-1-1",           480,      -13.7430,      -22.5153,            0.,NA,NA,"",   1.64347E-03,  -1.62631E-03,  -236.839E-06,   10.9774E-06
C:/temp/dataset/3/19_2.odb,Step-1,Increment      1: Step Time =    1.000,"PART-1-1",           481,      -12.4930,      -21.2653,            0.,NA,NA,"",   1.76706E-03,  -1.76523E-03,  -80.3474E-06,   9.14319E-06
C:/temp/dataset/3/19_2.odb,Step-1,Increment      1: Step Time =    1.000,"PART-1-1",           482,      -11.2297,      -22.5489,            0.,NA,NA,"",   1.64536E-03,  -1.64434E-03,   58.0261E-06,   21.5137E-06
C:/temp/dataset/3/19_2.odb,Step-1,Increment      1: Step Time =    1.000,"PART-1-1",           483,        -11.25,          -20.,            0.,NA,NA,"",   1.88019E-03,  -1.87948E-03,   51.6057E-06,   26.6176E-06
C:/temp/dataset/3/19_2.odb,Step-1,Increment      1: Step Time =    1.000,"PART-1-1",           484,      -13.7448,      -25.0201,            0.,NA,NA,"",   1.29092E-03,  -1.26783E-03,  -243.086E-06,   24.8888E-06
C:/temp/dataset/3/19_2.odb,Step-1,Increment      1: Step Time =    1.000,"PART-1-1",           485,      -12.4878,      -23.7854,            0.,NA,NA,"",   1.47686E-03,  -1.47441E-03,  -84.9108E-06,   23.8820E-06
C:/temp/dataset/3/19_2.odb,Step-1,Increment      1: Step Time =    1.000,"PART-1-1",           486,          -15.,        -23.75,            0.,NA,NA,"",   1.51802E-03,  -1.46022E-03,  -414.906E-06,   13.6953E-06
C:/temp/dataset/3/19_2.odb,Step-1,Increment      1: Step Time =    1.000,"PART-1-1",           487,       13.7335,      -27.5520,            0.,NA,NA,"",   3.38286E-03,   2.96383E-03,   1.63077E-03,   1.22591E-03
C:/temp/dataset/3/19_2.odb,Step-1,Increment      1: Step Time =    1.000,"PART-1-1",           488,       12.4835,      -28.8020,            0.,NA,NA,"",   1.96193E-03,   1.92291E-03,   389.362E-06,   1.27857E-03
C:/temp/dataset/3/19_2.odb,Step-1,Increment      1: Step Time =    1.000,"PART-1-1",           489,         13.75,          -30.,            0.,NA,NA,"",            0.,   614.108E-42,   686.966E-42,   831.598E-06
C:/temp/dataset/3/19_2.odb,Step-1,Increment      1: Step Time =    1.000,"PART-1-1",           490,           15.,        -28.75,            0.,NA,NA,"",   1.10406E-03,   1.07121E-03,   267.319E-06,   790.494E-06
C:/temp/dataset/3/19_2.odb,Step-1,Increment      1: Step Time =    1.000,"PART-1-1",           491,       9.98010,      -28.8907,            0.,NA,NA,"",   1.94649E-03,   1.90278E-03,  -410.198E-06,   1.29240E-03
C:/temp/dataset/3/19_2.odb,Step-1,Increment      1: Step Time =    1.000,"PART-1-1",           492,       8.70049,      -27.8380,            0.,NA,NA,"",   3.16758E-03,   2.63884E-03,  -1.75217E-03,   1.40595E-03
C:/temp/dataset/3/19_2.odb,Step-1,Increment      1: Step Time =    1.000,"PART-1-1",           493,          8.75,          -30.,            0.,NA,NA,"",            0.,   1.05875E-39,  -1.37706E-39,   1.26720E-03
C:/temp/dataset/3/19_2.odb,Step-1,Increment      1: Step Time =    1.000,"PART-1-1",           494,       11.2136,      -27.6927,            0.,NA,NA,"",   3.50095E-03,   3.50091E-03,  -17.1103E-06,   1.13959E-03
C:/temp/dataset/3/19_2.odb,Step-1,Increment      1: Step Time =    1.000,"PART-1-1",           495,       12.3768,      -26.3916,            0.,NA,NA,"",   4.72676E-03,   4.49641E-03,   1.45758E-03,   1.43810E-03
C:/temp/dataset/3/19_2.odb,Step-1,Increment      1: Step Time =    1.000,"PART-1-1",           496,       11.0556,      -25.4315,            0.,NA,NA,"",   5.06311E-03,   5.04731E-03,  -399.612E-06,   1.39596E-03
C:/temp/dataset/3/19_2.odb,Step-1,Increment      1: Step Time =    1.000,"PART-1-1",           497,       9.89242,      -26.7326,            0.,NA,NA,"",   4.40931E-03,   4.07970E-03,  -1.67273E-03,   1.49448E-03
C:/temp/dataset/3/19_2.odb,Step-1,Increment      1: Step Time =    1.000,"PART-1-1",           498,   9.79186E-03,      -28.8313,            0.,NA,NA,"",   1.27883E-03,  -1.13394E-03,  -591.251E-06,   918.464E-06
C:/temp/dataset/3/19_2.odb,Step-1,Increment      1: Step Time =    1.000,"PART-1-1",           499,          1.25,          -30.,            0.,NA,NA,"",            0.,  -652.628E-42,  -1.58265E-39,   1.03946E-03
C:/temp/dataset/3/19_2.odb,Step-1,Increment      1: Step Time =    1.000,"PART-1-1",           500,      -1.18061,      -25.1833,            0.,NA,NA,"",   3.17401E-03,  -2.85521E-03,  -1.38641E-03,   660.217E-06
C:/temp/dataset/3/19_2.odb,Step-1,Increment      1: Step Time =    1.000,"PART-1-1",           501,      -2.45538,      -26.3836,            0.,NA,NA,"",   2.40183E-03,  -2.31413E-03,  -643.125E-06,   516.473E-06
C:/temp/dataset/3/19_2.odb,Step-1,Increment      1: Step Time =    1.000,"PART-1-1",           502,      -1.22498,      -27.6390,            0.,NA,NA,"",   2.07657E-03,  -1.91858E-03,  -794.486E-06,   711.040E-06
C:/temp/dataset/3/19_2.odb,Step-1,Increment      1: Step Time =    1.000,"PART-1-1",           503,      -3.70005,      -25.1329,            0.,NA,NA,"",   2.32465E-03,  -2.30618E-03,  -292.404E-06,   363.981E-06
C:/temp/dataset/3/19_2.odb,Step-1,Increment      1: Step Time =    1.000,"PART-1-1",           504,      -7.49141,      -28.7797,            0.,NA,NA,"",   578.331E-06,  -577.532E-06,  -30.3934E-06,   296.946E-06
C:/temp/dataset/3/19_2.odb,Step-1,Increment      1: Step Time =    1.000,"PART-1-1",           505,         -6.25,          -30.,            0.,NA,NA,"",            0.,  -380.113E-42,  -214.606E-42,   416.401E-06
C:/temp/dataset/3/19_2.odb,Step-1,Increment      1: Step Time =    1.000,"PART-1-1",           506,      -12.4949,      -26.2800,            0.,NA,NA,"",   1.01500E-03,  -1.01124E-03,  -87.2517E-06,   109.878E-06
C:/temp/dataset/3/19_2.odb,Step-1,Increment      1: Step Time =    1.000,"PART-1-1",           507,          -15.,        -26.25,            0.,NA,NA,"",   1.12191E-03,  -1.02705E-03,  -451.491E-06,   32.1025E-06
C:/temp/dataset/3/19_2.odb,Step-1,Increment      1: Step Time =    1.000,"PART-1-1",           508,       12.0036,      -23.8365,            0.,NA,NA,"",   5.25663E-03,   4.79145E-03,   2.16199E-03,   1.62635E-03
C:/temp/dataset/3/19_2.odb,Step-1,Increment      1: Step Time =    1.000,"PART-1-1",           509,       13.6432,      -25.0896,            0.,NA,NA,"",   6.11307E-03,   4.37004E-03,   4.27462E-03,   1.71364E-03
C:/temp/dataset/3/19_2.odb,Step-1,Increment      1: Step Time =    1.000,"PART-1-1",           510,           15.,        -23.75,            0.,NA,NA,"",   8.90423E-03,   2.31542E-03,   8.59791E-03,   2.94146E-03
C:/temp/dataset/3/19_2.odb,Step-1,Increment      1: Step Time =    1.000,"PART-1-1",           511,         11.25,          -30.,            0.,NA,NA,"",            0.,   1.30931E-39,  -86.3886E-42,   1.22563E-03
C:/temp/dataset/3/19_2.odb,Step-1,Increment      1: Step Time =    1.000,"PART-1-1",           512,       13.9281,      -14.6298,            0.,NA,NA,"",   57.5172E-03,  -46.7951E-03,   33.4432E-03,   3.88095E-03
C:/temp/dataset/3/19_2.odb,Step-1,Increment      1: Step Time =    1.000,"PART-1-1",           513,       12.2657,      -15.3468,            0.,NA,NA,"",   39.4835E-03,  -37.0096E-03,   13.7564E-03,   1.70668E-03
C:/temp/dataset/3/19_2.odb,Step-1,Increment      1: Step Time =    1.000,"PART-1-1",           514,           15.,        -16.25,            0.,NA,NA,"",   49.9373E-03,  -32.7394E-03,   37.7076E-03,   5.20369E-03
C:/temp/dataset/3/19_2.odb,Step-1,Increment      1: Step Time =    1.000,"PART-1-1",           515,       7.13425,      -14.5121,            0.,NA,NA,"",   65.7458E-03,  -49.1472E-03,  -43.6698E-03,   5.20699E-03
C:/temp/dataset/3/19_2.odb,Step-1,Increment      1: Step Time =    1.000,"PART-1-1",           516,       6.81531,      -16.2905,            0.,NA,NA,"",   49.2971E-03,  -30.9825E-03,  -38.3443E-03,   5.50131E-03
C:/temp/dataset/3/19_2.odb,Step-1,Increment      1: Step Time =    1.000,"PART-1-1",           517,       8.10983,      -17.0757,            0.,NA,NA,"",   32.4157E-03,  -21.7646E-03,  -24.0224E-03,   3.58925E-03
C:/temp/dataset/3/19_2.odb,Step-1,Increment      1: Step Time =    1.000,"PART-1-1",           518,       13.8641,      -7.41825,            0.,NA,NA,"",   169.574E-03,  -159.905E-03,   56.4431E-03,   3.71575E-03
C:/temp/dataset/3/19_2.odb,Step-1,Increment      1: Step Time =    1.000,"PART-1-1",           519,       13.0286,      -8.63342,            0.,NA,NA,"",   139.747E-03,  -134.696E-03,   37.2322E-03,   2.69652E-03
C:/temp/dataset/3/19_2.odb,Step-1,Increment      1: Step Time =    1.000,"PART-1-1",           520,       14.1645,      -9.96517,            0.,NA,NA,"",   124.792E-03,  -112.809E-03,   53.3594E-03,   4.24341E-03
C:/temp/dataset/3/19_2.odb,Step-1,Increment      1: Step Time =    1.000,"PART-1-1",           521,           15.,         -8.75,            0.,NA,NA,"",   154.797E-03,  -136.415E-03,   73.1649E-03,   5.29245E-03
C:/temp/dataset/3/19_2.odb,Step-1,Increment      1: Step Time =    1.000,"PART-1-1",           522,       12.0251,      -10.9831,            0.,NA,NA,"",   94.5423E-03,  -93.1396E-03,   16.2256E-03,   1.38379E-03
C:/temp/dataset/3/19_2.odb,Step-1,Increment      1: Step Time =    1.000,"PART-1-1",           523,       12.8055,      -11.9581,            0.,NA,NA,"",   83.5277E-03,  -79.2445E-03,   26.4041E-03,   2.39074E-03
C:/temp/dataset/3/19_2.odb,Step-1,Increment      1: Step Time =    1.000,"PART-1-1",           524,       13.3751,      -11.0455,            0.,NA,NA,"",   100.831E-03,  -93.7495E-03,   37.1214E-03,   3.16127E-03
C:/temp/dataset/3/19_2.odb,Step-1,Increment      1: Step Time =    1.000,"PART-1-1",           525,       12.5947,      -10.0706,            0.,NA,NA,"",   111.783E-03,  -108.539E-03,   26.7334E-03,   2.14117E-03
C:/temp/dataset/3/19_2.odb,Step-1,Increment      1: Step Time =    1.000,"PART-1-1",           526,       11.4853,  -434.223E-03,            0.,NA,NA,"",   328.955E-03,  -328.742E-03,   11.8403E-03,   1.73896E-03
C:/temp/dataset/3/19_2.odb,Step-1,Increment      1: Step Time =    1.000,"PART-1-1",           527,       10.5886,      -1.82652,            0.,NA,NA,"",   290.624E-03,  -290.466E-03,  -9.57101E-03,   1.93804E-03
C:/temp/dataset/3/19_2.odb,Step-1,Increment      1: Step Time =    1.000,"PART-1-1",           528,       11.9063,      -2.70193,            0.,NA,NA,"",   268.728E-03,  -267.845E-03,   21.7663E-03,   1.88764E-03
C:/temp/dataset/3/19_2.odb,Step-1,Increment      1: Step Time =    1.000,"PART-1-1",           529,       14.1300,       7.44597,            0.,NA,NA,"",   555.551E-03,  -549.657E-03,   80.7082E-03,   78.6828E-06
C:/temp/dataset/3/19_2.odb,Step-1,Increment      1: Step Time =    1.000,"PART-1-1",           530,       13.1865,       6.25975,            0.,NA,NA,"",   519.396E-03,  -516.452E-03,   55.2279E-03,   322.870E-06
C:/temp/dataset/3/19_2.odb,Step-1,Increment      1: Step Time =    1.000,"PART-1-1",           531,           15.,          6.25,            0.,NA,NA,"",   527.494E-03,  -516.920E-03,   105.091E-03,   124.453E-06
C:/temp/dataset/3/19_2.odb,Step-1,Increment      1: Step Time =    1.000,"PART-1-1",           532,       12.4155,       5.33720,            0.,NA,NA,"",   491.736E-03,  -490.521E-03,   34.5408E-03,   530.317E-06
C:/temp/dataset/3/19_2.odb,Step-1,Increment      1: Step Time =    1.000,"PART-1-1",           533,       11.2733,       3.54111,            0.,NA,NA,"",   440.086E-03,  -440.061E-03,   4.71046E-03,   1.04850E-03
C:/temp/dataset/3/19_2.odb,Step-1,Increment      1: Step Time =    1.000,"PART-1-1",           534,       12.2480,       13.5548,            0.,NA,NA,"",   717.028E-03,  -716.525E-03,   26.8460E-03,   16.7640E-06
C:/temp/dataset/3/19_2.odb,Step-1,Increment      1: Step Time =    1.000,"PART-1-1",           535,           15.,         13.75,            0.,NA,NA,"",   730.051E-03,  -722.882E-03,   102.054E-03,   23.6995E-06
C:/temp/dataset/3/19_2.odb,Step-1,Increment      1: Step Time =    1.000,"PART-1-1",           536,       13.6600,       14.9734,            0.,NA,NA,"",   758.614E-03,  -755.829E-03,   64.9392E-03,   10.1569E-06
C:/temp/dataset/3/19_2.odb,Step-1,Increment      1: Step Time =    1.000,"PART-1-1",           537,       8.15326,       10.4556,            0.,NA,NA,"",   635.883E-03,  -630.316E-03,  -83.9554E-03,   44.2555E-06
C:/temp/dataset/3/19_2.odb,Step-1,Increment      1: Step Time =    1.000,"PART-1-1",           538,       12.3824,       21.2920,            0.,NA,NA,"",   928.460E-03,  -928.049E-03,   27.6437E-03,   1.02629E-06
C:/temp/dataset/3/19_2.odb,Step-1,Increment      1: Step Time =    1.000,"PART-1-1",           539,       13.6892,       20.0188,            0.,NA,NA,"",   896.015E-03,  -893.738E-03,   63.8403E-03,   934.991E-09
C:/temp/dataset/3/19_2.odb,Step-1,Increment      1: Step Time =    1.000,"PART-1-1",           540,           15.,         21.25,            0.,NA,NA,"",   933.167E-03,  -927.879E-03,   99.2090E-03,   218.574E-09
C:/temp/dataset/3/19_2.odb,Step-1,Increment      1: Step Time =    1.000,"PART-1-1",           541,       13.6932,       22.5232,            0.,NA,NA,"",   964.252E-03,  -962.191E-03,   63.0134E-03,   155.804E-09
C:/temp/dataset/3/19_2.odb,Step-1,Increment      1: Step Time =    1.000,"PART-1-1",           542,       9.77662,       16.3041,            0.,NA,NA,"",   791.833E-03,  -790.732E-03,  -41.7347E-03,   10.5628E-06
C:/temp/dataset/3/19_2.odb,Step-1,Increment      1: Step Time =    1.000,"PART-1-1",           543,       11.0318,       15.0036,            0.,NA,NA,"",   755.694E-03,  -755.662E-03,  -6.94564E-03,   12.3220E-06
C:/temp/dataset/3/19_2.odb,Step-1,Increment      1: Step Time =    1.000,"PART-1-1",           544,       12.3430,       16.2301,            0.,NA,NA,"",   790.196E-03,  -789.683E-03,   28.4546E-03,   9.76433E-06
C:/temp/dataset/3/19_2.odb,Step-1,Increment      1: Step Time =    1.000,"PART-1-1",           545,         13.75,           30.,            0.,NA,NA,"",       1.16822,      -1.16658,   61.7731E-03,   18.1414E-09
C:/temp/dataset/3/19_2.odb,Step-1,Increment      1: Step Time =    1.000,"PART-1-1",           546,       12.4862,       28.7548,            0.,NA,NA,"",       1.13241,      -1.13207,   27.6926E-03,   63.2332E-09
C:/temp/dataset/3/19_2.odb,Step-1,Increment      1: Step Time =    1.000,"PART-1-1",           547,           15.,         28.75,            0.,NA,NA,"",       1.13698,      -1.13288,   96.4077E-03,   19.6748E-09
C:/temp/dataset/3/19_2.odb,Step-1,Increment      1: Step Time =    1.000,"PART-1-1",           548,       12.4064,       23.7898,            0.,NA,NA,"",   996.707E-03,  -996.332E-03,   27.3667E-03,   149.572E-09
C:/temp/dataset/3/19_2.odb,Step-1,Increment      1: Step Time =    1.000,"PART-1-1",           549,           15.,         23.75,            0.,NA,NA,"",       1.00105,  -996.212E-03,   98.2754E-03,   162.494E-09
C:/temp/dataset/3/19_2.odb,Step-1,Increment      1: Step Time =    1.000,"PART-1-1",           550,       9.91541,       26.3072,            0.,NA,NA,"",       1.06503,      -1.06421,  -41.6621E-03,   50.6446E-09
C:/temp/dataset/3/19_2.odb,Step-1,Increment      1: Step Time =    1.000,"PART-1-1",           551,       11.1537,       25.0565,            0.,NA,NA,"",       1.03051,      -1.03049,  -7.34661E-03,   66.9842E-09
C:/temp/dataset/3/19_2.odb,Step-1,Increment      1: Step Time =    1.000,"PART-1-1",           552,       11.2110,       27.5221,            0.,NA,NA,"",       1.09792,      -1.09790,  -6.70114E-03,   77.7856E-09
C:/temp/dataset/3/19_2.odb,Step-1,Increment      1: Step Time =    1.000,"PART-1-1",           553,       8.69233,       27.5515,            0.,NA,NA,"",       1.10036,      -1.09777,  -75.5588E-03,   39.9078E-09
C:/temp/dataset/3/19_2.odb,Step-1,Increment      1: Step Time =    1.000,"PART-1-1",           554,       7.41297,       26.3376,            0.,NA,NA,"",       1.06979,      -1.06411,  -110.076E-03,   36.3462E-09
C:/temp/dataset/3/19_2.odb,Step-1,Increment      1: Step Time =    1.000,"PART-1-1",           555,       8.63604,       25.0933,            0.,NA,NA,"",       1.03336,      -1.03055,  -76.1790E-03,   75.2878E-09
C:/temp/dataset/3/19_2.odb,Step-1,Increment      1: Step Time =    1.000,"PART-1-1",           556,      -1.26375,       27.5391,            0.,NA,NA,"",       1.14765,      -1.09371,  -347.698E-03,   14.4466E-09
C:/temp/dataset/3/19_2.odb,Step-1,Increment      1: Step Time =    1.000,"PART-1-1",           557,         -1.25,           30.,            0.,NA,NA,"",       1.21208,      -1.16098,  -348.241E-03,   7.96824E-09
C:/temp/dataset/3/19_2.odb,Step-1,Increment      1: Step Time =    1.000,"PART-1-1",           558,      -2.50500,       28.7640,            0.,NA,NA,"",       1.18975,      -1.12672,  -382.084E-03,   3.58991E-09
C:/temp/dataset/3/19_2.odb,Step-1,Increment      1: Step Time =    1.000,"PART-1-1",           559,      -7.50143,       28.7522,            0.,NA,NA,"",       1.23838,      -1.12453,  -518.655E-03,   330.179E-12
C:/temp/dataset/3/19_2.odb,Step-1,Increment      1: Step Time =    1.000,"PART-1-1",           560,         -8.75,           30.,            0.,NA,NA,"",       1.28353,      -1.15818,  -553.250E-03,   463.626E-12
C:/temp/dataset/3/19_2.odb,Step-1,Increment      1: Step Time =    1.000,"PART-1-1",           561,      -6.25460,       27.5081,            0.,NA,NA,"",       1.19358,      -1.09100,  -484.108E-03,   564.219E-12
C:/temp/dataset/3/19_2.odb,Step-1,Increment      1: Step Time =    1.000,"PART-1-1",           562,        -13.75,           30.,            0.,NA,NA,"",       1.34649,      -1.15631,  -689.922E-03,   24.7980E-12
C:/temp/dataset/3/19_2.odb,Step-1,Increment      1: Step Time =    1.000,"PART-1-1",           563,          -15.,         28.75,            0.,NA,NA,"",       1.33483,      -1.12167,  -723.623E-03,   18.6307E-12
C:/temp/dataset/3/19_2.odb,Step-1,Increment      1: Step Time =    1.000,"PART-1-1",           564,      -13.7509,       27.5010,            0.,NA,NA,"",       1.28782,      -1.08800,  -689.014E-03,   86.7772E-12
C:/temp/dataset/3/19_2.odb,Step-1,Increment      1: Step Time =    1.000,"PART-1-1",           565,          -15.,         26.25,            0.,NA,NA,"",       1.27742,      -1.05334,  -722.689E-03,   85.8906E-12
C:/temp/dataset/3/19_2.odb,Step-1,Increment      1: Step Time =    1.000,"PART-1-1",           566,      -12.5016,       26.2536,            0.,NA,NA,"",       1.24094,      -1.05437,  -654.398E-03,   111.355E-12
C:/temp/dataset/3/19_2.odb,Step-1,Increment      1: Step Time =    1.000,"PART-1-1",           567,      -7.50093,       21.2547,            0.,NA,NA,"",       1.05439,  -919.596E-03,  -515.840E-03,   358.633E-12
C:/temp/dataset/3/19_2.odb,Step-1,Increment      1: Step Time =    1.000,"PART-1-1",           568,         -6.25,           20.,            0.,NA,NA,"",       1.00802,  -885.767E-03,  -481.177E-03,   718.398E-12
C:/temp/dataset/3/19_2.odb,Step-1,Increment      1: Step Time =    1.000,"PART-1-1",           569,      -4.99978,       21.2574,            0.,NA,NA,"",       1.02359,  -920.604E-03,  -447.473E-03,   352.342E-12
C:/temp/dataset/3/19_2.odb,Step-1,Increment      1: Step Time =    1.000,"PART-1-1",           570,      -3.74911,       22.5208,            0.,NA,NA,"",       1.04134,  -955.607E-03,  -413.759E-03,   4.77938E-09
C:/temp/dataset/3/19_2.odb,Step-1,Increment      1: Step Time =    1.000,"PART-1-1",           571,         -3.75,           20.,            0.,NA,NA,"",   978.098E-03,  -886.701E-03,  -412.841E-03,   1.01872E-09
C:/temp/dataset/3/19_2.odb,Step-1,Increment      1: Step Time =    1.000,"PART-1-1",           572,      -2.49933,       21.2634,            0.,NA,NA,"",   996.631E-03,  -921.703E-03,  -379.127E-03,   4.89813E-09
C:/temp/dataset/3/19_2.odb,Step-1,Increment      1: Step Time =    1.000,"PART-1-1",           573,         -1.25,           20.,            0.,NA,NA,"",   952.145E-03,  -887.635E-03,  -344.505E-03,   13.5312E-09
C:/temp/dataset/3/19_2.odb,Step-1,Increment      1: Step Time =    1.000,"PART-1-1",           574,  -2.23348E-03,       21.2694,            0.,NA,NA,"",   973.756E-03,  -922.799E-03,  -310.872E-03,   17.5149E-09
C:/temp/dataset/3/19_2.odb,Step-1,Increment      1: Step Time =    1.000,"PART-1-1",           575,      -1.25156,       22.5328,            0.,NA,NA,"",       1.01733,  -956.867E-03,  -345.494E-03,   15.7163E-09
C:/temp/dataset/3/19_2.odb,Step-1,Increment      1: Step Time =    1.000,"PART-1-1",           576,         -3.75,           30.,            0.,NA,NA,"",       1.23258,      -1.16005,  -416.578E-03,   619.384E-12
C:/temp/dataset/3/19_2.odb,Step-1,Increment      1: Step Time =    1.000,"PART-1-1",           577,      -5.00318,       28.7559,            0.,NA,NA,"",       1.21233,      -1.12557,  -450.368E-03,   580.614E-12
C:/temp/dataset/3/19_2.odb,Step-1,Increment      1: Step Time =    1.000,"PART-1-1",           578,       7.36074,       18.8052,            0.,NA,NA,"",   865.047E-03,  -858.191E-03,  -108.689E-03,   3.52464E-06
C:/temp/dataset/3/19_2.odb,Step-1,Increment      1: Step Time =    1.000,"PART-1-1",           579,       8.58169,       17.5494,            0.,NA,NA,"",   827.710E-03,  -824.319E-03,  -74.8520E-03,   5.22043E-06
C:/temp/dataset/3/19_2.odb,Step-1,Increment      1: Step Time =    1.000,"PART-1-1",           580,       8.60057,       20.0599,            0.,NA,NA,"",   896.121E-03,  -892.954E-03,  -75.2690E-03,   1.52322E-06
C:/temp/dataset/3/19_2.odb,Step-1,Increment      1: Step Time =    1.000,"PART-1-1",           581,            5.,         18.75,            0.,NA,NA,"",   873.149E-03,  -855.799E-03,  -173.196E-03,   2.05294E-06
C:/temp/dataset/3/19_2.odb,Step-1,Increment      1: Step Time =    1.000,"PART-1-1",           582,       6.17685,       17.5255,            0.,NA,NA,"",   834.685E-03,  -822.764E-03,  -140.568E-03,   3.35529E-06
C:/temp/dataset/3/19_2.odb,Step-1,Increment      1: Step Time =    1.000,"PART-1-1",           583,       6.18390,       20.0298,            0.,NA,NA,"",   902.359E-03,  -891.225E-03,  -141.314E-03,   919.016E-09
C:/temp/dataset/3/19_2.odb,Step-1,Increment      1: Step Time =    1.000,"PART-1-1",           584,            5.,         16.25,            0.,NA,NA,"",   806.079E-03,  -787.459E-03,  -172.254E-03,   9.56696E-06
C:/temp/dataset/3/19_2.odb,Step-1,Increment      1: Step Time =    1.000,"PART-1-1",           585,       6.15340,       15.0385,            0.,NA,NA,"",   767.690E-03,  -754.766E-03,  -140.268E-03,   11.3093E-06
C:/temp/dataset/3/19_2.odb,Step-1,Increment      1: Step Time =    1.000,"PART-1-1",           586,       7.33024,       16.3140,            0.,NA,NA,"",   797.504E-03,  -790.076E-03,  -108.594E-03,   9.95732E-06
C:/temp/dataset/3/19_2.odb,Step-1,Increment      1: Step Time =    1.000,"PART-1-1",           587,           15.,         16.25,            0.,NA,NA,"",   797.650E-03,  -791.218E-03,   101.087E-03,   8.83588E-06
C:/temp/dataset/3/19_2.odb,Step-1,Increment      1: Step Time =    1.000,"PART-1-1",           588,       13.6830,       17.5067,            0.,NA,NA,"",   827.602E-03,  -825.076E-03,   64.6114E-03,   3.58693E-06
C:/temp/dataset/3/19_2.odb,Step-1,Increment      1: Step Time =    1.000,"PART-1-1",           589,           15.,         18.75,            0.,NA,NA,"",   865.362E-03,  -859.547E-03,   100.144E-03,   2.10953E-06
C:/temp/dataset/3/19_2.odb,Step-1,Increment      1: Step Time =    1.000,"PART-1-1",           590,       7.36831,       6.81272,            0.,NA,NA,"",   541.461E-03,  -531.398E-03,  -103.905E-03,   641.276E-06
C:/temp/dataset/3/19_2.odb,Step-1,Increment      1: Step Time =    1.000,"PART-1-1",           591,       6.10412,       7.73110,            0.,NA,NA,"",   572.952E-03,  -555.845E-03,  -138.962E-03,   199.505E-06
C:/temp/dataset/3/19_2.odb,Step-1,Increment      1: Step Time =    1.000,"PART-1-1",           592,            5.,          6.25,            0.,NA,NA,"",   542.762E-03,  -515.905E-03,  -168.621E-03,   1.19679E-03
C:/temp/dataset/3/19_2.odb,Step-1,Increment      1: Step Time =    1.000,"PART-1-1",           593,       6.26419,       5.33162,            0.,NA,NA,"",   509.928E-03,  -492.184E-03,  -133.345E-03,   1.58186E-03
C:/temp/dataset/3/19_2.odb,Step-1,Increment      1: Step Time =    1.000,"PART-1-1",           594,           15.,          8.75,            0.,NA,NA,"",   595.094E-03,  -585.911E-03,   104.137E-03,   33.9352E-06
C:/temp/dataset/3/19_2.odb,Step-1,Increment      1: Step Time =    1.000,"PART-1-1",           595,       13.1418,       8.51598,            0.,NA,NA,"",   581.236E-03,  -578.795E-03,   53.2094E-03,   95.9847E-06
C:/temp/dataset/3/19_2.odb,Step-1,Increment      1: Step Time =    1.000,"PART-1-1",           596,       6.30252,      -5.49102,            0.,NA,NA,"",   222.180E-03,  -196.265E-03,  -104.135E-03,   5.92881E-03
C:/temp/dataset/3/19_2.odb,Step-1,Increment      1: Step Time =    1.000,"PART-1-1",           597,            5.,         -6.25,            0.,NA,NA,"",   225.928E-03,  -185.069E-03,  -129.588E-03,   10.1558E-03
C:/temp/dataset/3/19_2.odb,Step-1,Increment      1: Step Time =    1.000,"PART-1-1",           598,       6.10325,      -7.87566,            0.,NA,NA,"",   178.528E-03,  -150.964E-03,  -95.3009E-03,   6.61628E-03
C:/temp/dataset/3/19_2.odb,Step-1,Increment      1: Step Time =    1.000,"PART-1-1",           599,       7.40577,      -7.11668,            0.,NA,NA,"",   178.309E-03,  -162.770E-03,  -72.8026E-03,   3.77777E-03
C:/temp/dataset/3/19_2.odb,Step-1,Increment      1: Step Time =    1.000,"PART-1-1",           600,            5.,         -8.75,            0.,NA,NA,"",   176.823E-03,  -139.163E-03,  -109.087E-03,   8.07456E-03
C:/temp/dataset/3/19_2.odb,Step-1,Increment      1: Step Time =    1.000,"PART-1-1",           601,            5.,        -13.75,            0.,NA,NA,"",   97.5507E-03,  -64.1243E-03,  -73.5133E-03,   7.78111E-03
C:/temp/dataset/3/19_2.odb,Step-1,Increment      1: Step Time =    1.000,"PART-1-1",           602,       5.77894,      -15.1288,            0.,NA,NA,"",   71.9953E-03,  -45.8982E-03,  -55.4678E-03,   6.90230E-03
C:/temp/dataset/3/19_2.odb,Step-1,Increment      1: Step Time =    1.000,"PART-1-1",           603,            5.,        -16.25,            0.,NA,NA,"",   67.2349E-03,  -36.9967E-03,  -56.1406E-03,   7.94154E-03
C:/temp/dataset/3/19_2.odb,Step-1,Increment      1: Step Time =    1.000,"PART-1-1",           604,       2.77244,      -24.0596,            0.,NA,NA,"",   7.22192E-03,  -3.16303E-03,  -6.49241E-03,   1.94601E-03
C:/temp/dataset/3/19_2.odb,Step-1,Increment      1: Step Time =    1.000,"PART-1-1",           605,       3.76359,      -25.5842,            0.,NA,NA,"",   6.02445E-03,  -1.75437E-03,  -5.76335E-03,   2.03409E-03
C:/temp/dataset/3/19_2.odb,Step-1,Increment      1: Step Time =    1.000,"PART-1-1",           606,       5.11162,      -24.8806,            0.,NA,NA,"",   8.20797E-03,  -637.222E-06,  -8.18320E-03,   2.75125E-03
C:/temp/dataset/3/19_2.odb,Step-1,Increment      1: Step Time =    1.000,"PART-1-1",           607,       4.12047,      -23.3559,            0.,NA,NA,"",   10.8842E-03,  -2.71765E-03,  -10.5395E-03,   2.80748E-03
C:/temp/dataset/3/19_2.odb,Step-1,Increment      1: Step Time =    1.000,"PART-1-1",           608,       8.48587,      -2.76980,            0.,NA,NA,"",   271.712E-03,  -265.239E-03,  -58.9534E-03,   2.58061E-03
C:/temp/dataset/3/19_2.odb,Step-1,Increment      1: Step Time =    1.000,"PART-1-1",           609,       9.66601,      -3.38468,            0.,NA,NA,"",   250.891E-03,  -249.073E-03,  -30.1490E-03,   1.95233E-03
C:/temp/dataset/3/19_2.odb,Step-1,Increment      1: Step Time =    1.000,"PART-1-1",           610,       9.40849,      -1.21164,            0.,NA,NA,"",   309.701E-03,  -307.245E-03,  -38.9270E-03,   2.17935E-03
C:/temp/dataset/3/19_2.odb,Step-1,Increment      1: Step Time =    1.000,"PART-1-1",           611,       3.88333,            5.,            0.,NA,NA,"",   528.288E-03,  -486.741E-03,  -205.356E-03,   2.81800E-03
C:/temp/dataset/3/19_2.odb,Step-1,Increment      1: Step Time =    1.000,"PART-1-1",           612,       3.93709,       2.49951,            0.,NA,NA,"",   459.574E-03,  -414.834E-03,  -197.789E-03,   2.34905E-03
C:/temp/dataset/3/19_2.odb,Step-1,Increment      1: Step Time =    1.000,"PART-1-1",           613,       5.14044,       3.62548,            0.,NA,NA,"",   474.558E-03,  -445.547E-03,  -163.381E-03,   2.07479E-03
C:/temp/dataset/3/19_2.odb,Step-1,Increment      1: Step Time =    1.000,"PART-1-1",           614,       1.70000,           -5.,            0.,NA,NA,"",   325.821E-03,  -199.474E-03,  -257.623E-03,   420.687E-06
C:/temp/dataset/3/19_2.odb,Step-1,Increment      1: Step Time =    1.000,"PART-1-1",           615,       2.88648,      -4.17028,            0.,NA,NA,"",   315.682E-03,  -227.088E-03,  -219.286E-03,   1.85975E-03
C:/temp/dataset/3/19_2.odb,Step-1,Increment      1: Step Time =    1.000,"PART-1-1",           616,       1.90498,      -3.27989,            0.,NA,NA,"",   356.317E-03,  -252.474E-03,  -251.433E-03,   1.67361E-03
C:/temp/dataset/3/19_2.odb,Step-1,Increment      1: Step Time =    1.000,"PART-1-1",           617,      -2.82853,       3.20340,            0.,NA,NA,"",   593.497E-03,  -438.769E-03,  -399.650E-03,   415.374E-06
C:/temp/dataset/3/19_2.odb,Step-1,Increment      1: Step Time =    1.000,"PART-1-1",           618,      -1.73717,       4.08745,            0.,NA,NA,"",   593.602E-03,  -464.360E-03,  -369.774E-03,   1.10587E-03
C:/temp/dataset/3/19_2.odb,Step-1,Increment      1: Step Time =    1.000,"PART-1-1",           619,      -2.81667,            5.,            0.,NA,NA,"",   632.491E-03,  -489.796E-03,  -400.180E-03,   458.188E-06
C:/temp/dataset/3/19_2.odb,Step-1,Increment      1: Step Time =    1.000,"PART-1-1",           620,      -7.28333,            5.,            0.,NA,NA,"",   720.849E-03,  -489.195E-03,  -529.444E-03,   117.669E-06
C:/temp/dataset/3/19_2.odb,Step-1,Increment      1: Step Time =    1.000,"PART-1-1",           621,      -11.7000,            5.,            0.,NA,NA,"",   819.172E-03,  -487.477E-03,  -658.338E-03,   10.2170E-06
C:/temp/dataset/3/19_2.odb,Step-1,Increment      1: Step Time =    1.000,"PART-1-1",           622,      -11.5540,       2.50359,            0.,NA,NA,"",   773.579E-03,  -414.723E-03,  -653.016E-03,   20.8574E-06
C:/temp/dataset/3/19_2.odb,Step-1,Increment      1: Step Time =    1.000,"PART-1-1",           623,      -8.37698,      -4.01732,            0.,NA,NA,"",   601.657E-03,  -225.787E-03,  -557.684E-03,   44.8791E-06
C:/temp/dataset/3/19_2.odb,Step-1,Increment      1: Step Time =    1.000,"PART-1-1",           624,      -10.5279,      -3.86372,            0.,NA,NA,"",   661.506E-03,  -229.397E-03,  -620.457E-03,   17.4951E-06
C:/temp/dataset/3/19_2.odb,Step-1,Increment      1: Step Time =    1.000,"PART-1-1",           625,      -9.41667,           -5.,            0.,NA,NA,"",   619.617E-03,  -196.702E-03,  -587.566E-03,   36.4138E-06
C:/temp/dataset/3/19_2.odb,Step-1,Increment      1: Step Time =    1.000,"PART-1-1",           626,          3.75,          -20.,            0.,NA,NA,"",   12.1891E-03,  -1.25608E-03,  -12.1242E-03,   3.57215E-03
C:/temp/dataset/3/19_2.odb,Step-1,Increment      1: Step Time =    1.000,"PART-1-1",           627,       2.74072,      -21.3682,            0.,NA,NA,"",   9.20248E-03,  -3.16742E-03,  -8.64021E-03,   1.25558E-03
C:/temp/dataset/3/19_2.odb,Step-1,Increment      1: Step Time =    1.000,"PART-1-1",           628,       4.11640,      -22.1674,            0.,NA,NA,"",   13.6130E-03,  -3.77517E-03,  -13.0791E-03,   3.47086E-03
C:/temp/dataset/3/19_2.odb,Step-1,Increment      1: Step Time =    1.000,"PART-1-1",           629,       5.12568,      -20.7992,            0.,NA,NA,"",   21.6005E-03,  -3.60433E-03,  -21.2976E-03,   6.00576E-03
C:/temp/dataset/3/19_2.odb,Step-1,Increment      1: Step Time =    1.000,"PART-1-1",           630,          1.25,          -20.,            0.,NA,NA,"",   4.34099E-03,   101.727E-06,  -4.33980E-03,   315.803E-06
C:/temp/dataset/3/19_2.odb,Step-1,Increment      1: Step Time =    1.000,"PART-1-1",           631,   73.0809E-03,      -21.3299,            0.,NA,NA,"",   3.21342E-03,  -1.86581E-03,  -2.61626E-03,   243.349E-06
C:/temp/dataset/3/19_2.odb,Step-1,Increment      1: Step Time =    1.000,"PART-1-1",           632,       1.56380,      -22.6981,            0.,NA,NA,"",   6.25091E-03,  -3.41920E-03,  -5.23287E-03,   1.44389E-03
C:/temp/dataset/3/19_2.odb,Step-1,Increment      1: Step Time =    1.000,"PART-1-1",           633,         -1.25,          -20.,            0.,NA,NA,"",   1.69657E-03,  -845.977E-06,  -1.47060E-03,   256.089E-06
C:/temp/dataset/3/19_2.odb,Step-1,Increment      1: Step Time =    1.000,"PART-1-1",           634,      -2.46493,      -21.3147,            0.,NA,NA,"",   1.86427E-03,  -1.75213E-03,  -636.818E-06,   19.2962E-06
C:/temp/dataset/3/19_2.odb,Step-1,Increment      1: Step Time =    1.000,"PART-1-1",           635,      -1.14185,      -22.6446,            0.,NA,NA,"",   2.98932E-03,  -2.58053E-03,  -1.50893E-03,   425.008E-06
C:/temp/dataset/3/19_2.odb,Step-1,Increment      1: Step Time =    1.000,"PART-1-1",           636,         -3.75,          -20.,            0.,NA,NA,"",   1.30868E-03,  -1.29838E-03,  -163.857E-06,   163.033E-06
C:/temp/dataset/3/19_2.odb,Step-1,Increment      1: Step Time =    1.000,"PART-1-1",           637,      -4.97847,      -21.2978,            0.,NA,NA,"",   1.73567E-03,  -1.72899E-03,   152.178E-06,   29.3204E-06
C:/temp/dataset/3/19_2.odb,Step-1,Increment      1: Step Time =    1.000,"PART-1-1",           638,      -3.69340,      -22.6125,            0.,NA,NA,"",   2.11486E-03,  -2.10863E-03,  -162.236E-06,   159.223E-06
C:/temp/dataset/3/19_2.odb,Step-1,Increment      1: Step Time =    1.000,"PART-1-1",           639,      -4.95791,      -23.8547,            0.,NA,NA,"",   2.08895E-03,  -2.08851E-03,   42.7524E-06,   191.615E-06
C:/temp/dataset/3/19_2.odb,Step-1,Increment      1: Step Time =    1.000,"PART-1-1",           640,      -6.21189,      -22.5887,            0.,NA,NA,"",   1.87872E-03,  -1.86241E-03,   247.041E-06,   94.8370E-06
C:/temp/dataset/3/19_2.odb,Step-1,Increment      1: Step Time =    1.000,"PART-1-1",           641,      -7.46939,      -23.8324,            0.,NA,NA,"",   1.76985E-03,  -1.75575E-03,   222.912E-06,   118.872E-06
C:/temp/dataset/3/19_2.odb,Step-1,Increment      1: Step Time =    1.000,"PART-1-1",           642,           15.,        -13.75,            0.,NA,NA,"",   77.2982E-03,  -59.3557E-03,   49.5168E-03,   5.36409E-03
C:/temp/dataset/3/19_2.odb,Step-1,Increment      1: Step Time =    1.000,"PART-1-1",           643,       14.2106,      -12.3304,            0.,NA,NA,"",   88.6366E-03,  -76.2080E-03,   45.2635E-03,   4.31409E-03
C:/temp/dataset/3/19_2.odb,Step-1,Increment      1: Step Time =    1.000,"PART-1-1",           644,       13.1387,      -13.2101,            0.,NA,NA,"",   68.6112E-03,  -62.5833E-03,   28.1216E-03,   2.83654E-03
C:/temp/dataset/3/19_2.odb,Step-1,Increment      1: Step Time =    1.000,"PART-1-1",           645,           15.,        -11.25,            0.,NA,NA,"",   112.188E-03,  -93.8940E-03,   61.4009E-03,   5.39676E-03
C:/temp/dataset/3/19_2.odb,Step-1,Increment      1: Step Time =    1.000,"PART-1-1",           646,           15.,         -6.25,            0.,NA,NA,"",   205.170E-03,  -187.064E-03,   84.2717E-03,   4.86320E-03
C:/temp/dataset/3/19_2.odb,Step-1,Increment      1: Step Time =    1.000,"PART-1-1",           647,       14.0624,      -4.92369,            0.,NA,NA,"",   225.725E-03,  -215.223E-03,   68.0496E-03,   3.50773E-03
C:/temp/dataset/3/19_2.odb,Step-1,Increment      1: Step Time =    1.000,"PART-1-1",           648,       12.9264,      -6.09194,            0.,NA,NA,"",   191.000E-03,  -186.651E-03,   40.5228E-03,   2.46065E-03
C:/temp/dataset/3/19_2.odb,Step-1,Increment      1: Step Time =    1.000,"PART-1-1",           649,           15.,         -3.75,            0.,NA,NA,"",   262.721E-03,  -245.427E-03,   93.7435E-03,   3.96517E-03
C:/temp/dataset/3/19_2.odb,Step-1,Increment      1: Step Time =    1.000,"PART-1-1",           650,       13.0440,      -3.68493,            0.,NA,NA,"",   248.382E-03,  -243.823E-03,   47.3684E-03,   2.36353E-03
C:/temp/dataset/3/19_2.odb,Step-1,Increment      1: Step Time =    1.000,"PART-1-1",           651,       8.06094,   477.426E-03,            0.,NA,NA,"",   363.086E-03,  -354.955E-03,  -76.4069E-03,   1.94775E-03
C:/temp/dataset/3/19_2.odb,Step-1,Increment      1: Step Time =    1.000,"PART-1-1",           652,       8.76493,       2.31856,            0.,NA,NA,"",   410.798E-03,  -406.303E-03,  -60.6032E-03,   1.63342E-03
C:/temp/dataset/3/19_2.odb,Step-1,Increment      1: Step Time =    1.000,"PART-1-1",           653,       6.73548,       2.80805,            0.,NA,NA,"",   437.329E-03,  -421.490E-03,  -116.633E-03,   1.42418E-03
C:/temp/dataset/3/19_2.odb,Step-1,Increment      1: Step Time =    1.000,"PART-1-1",           654,       6.03149,   966.916E-03,            0.,NA,NA,"",   393.562E-03,  -370.359E-03,  -133.136E-03,   2.08657E-03
C:/temp/dataset/3/19_2.odb,Step-1,Increment      1: Step Time =    1.000,"PART-1-1",           655,            5.,          8.75,            0.,NA,NA,"",   606.820E-03,  -582.798E-03,  -169.047E-03,   127.152E-06
C:/temp/dataset/3/19_2.odb,Step-1,Increment      1: Step Time =    1.000,"PART-1-1",           656,       7.16919,       9.14751,            0.,NA,NA,"",   604.540E-03,  -594.390E-03,  -110.312E-03,   186.878E-06
C:/temp/dataset/3/19_2.odb,Step-1,Increment      1: Step Time =    1.000,"PART-1-1",           657,          3.75,           30.,            0.,NA,NA,"",       1.18194,      -1.16285,  -211.569E-03,   72.1080E-09
C:/temp/dataset/3/19_2.odb,Step-1,Increment      1: Step Time =    1.000,"PART-1-1",           658,       3.71036,       27.5731,            0.,NA,NA,"",       1.11675,      -1.09649,  -211.746E-03,   53.8027E-09
C:/temp/dataset/3/19_2.odb,Step-1,Increment      1: Step Time =    1.000,"PART-1-1",           659,       7.38617,       23.8490,            0.,NA,NA,"",       1.00211,  -996.073E-03,  -109.878E-03,   166.654E-09
C:/temp/dataset/3/19_2.odb,Step-1,Increment      1: Step Time =    1.000,"PART-1-1",           660,       6.16255,       25.1024,            0.,NA,NA,"",       1.03987,      -1.02988,  -143.793E-03,   77.1491E-09
C:/temp/dataset/3/19_2.odb,Step-1,Increment      1: Step Time =    1.000,"PART-1-1",           661,       4.93576,       23.8439,            0.,NA,NA,"",       1.01061,  -995.017E-03,  -176.857E-03,   90.9270E-09
C:/temp/dataset/3/19_2.odb,Step-1,Increment      1: Step Time =    1.000,"PART-1-1",           662,       6.15938,       22.5905,            0.,NA,NA,"",   971.783E-03,  -961.213E-03,  -142.942E-03,   155.482E-09
C:/temp/dataset/3/19_2.odb,Step-1,Increment      1: Step Time =    1.000,"PART-1-1",           663,      -10.0017,       23.7560,            0.,NA,NA,"",       1.14744,  -987.032E-03,  -585.131E-03,   221.565E-12
C:/temp/dataset/3/19_2.odb,Step-1,Increment      1: Step Time =    1.000,"PART-1-1",           664,      -8.75135,       22.5073,            0.,NA,NA,"",       1.10088,  -953.367E-03,  -550.487E-03,   229.359E-12
C:/temp/dataset/3/19_2.odb,Step-1,Increment      1: Step Time =    1.000,"PART-1-1",           665,      -10.0004,       21.2526,            0.,NA,NA,"",       1.08861,  -918.604E-03,  -584.161E-03,   217.941E-12
C:/temp/dataset/3/19_2.odb,Step-1,Increment      1: Step Time =    1.000,"PART-1-1",           666,      -11.2505,       22.5043,            0.,NA,NA,"",       1.13573,  -952.352E-03,  -618.798E-03,   204.649E-12
C:/temp/dataset/3/19_2.odb,Step-1,Increment      1: Step Time =    1.000,"PART-1-1",           667,        -11.25,           20.,            0.,NA,NA,"",       1.07843,  -883.898E-03,  -617.849E-03,   173.060E-12
C:/temp/dataset/3/19_2.odb,Step-1,Increment      1: Step Time =    1.000,"PART-1-1",           668,         -8.75,           20.,            0.,NA,NA,"",       1.04158,  -884.833E-03,  -549.513E-03,   503.518E-12
C:/temp/dataset/3/19_2.odb,Step-1,Increment      1: Step Time =    1.000,"PART-1-1",           669,       7.37456,       21.3253,            0.,NA,NA,"",   933.500E-03,  -927.084E-03,  -109.253E-03,   882.950E-09
C:/temp/dataset/3/19_2.odb,Step-1,Increment      1: Step Time =    1.000,"PART-1-1",           670,      -1.26076,       25.0501,            0.,NA,NA,"",       1.08268,      -1.02567,  -346.686E-03,   17.7572E-09
C:/temp/dataset/3/19_2.odb,Step-1,Increment      1: Step Time =    1.000,"PART-1-1",           671,      -2.50213,       23.7814,            0.,NA,NA,"",       1.06097,  -990.530E-03,  -380.144E-03,   6.89127E-09
C:/temp/dataset/3/19_2.odb,Step-1,Increment      1: Step Time =    1.000,"PART-1-1",           672,          1.25,           20.,            0.,NA,NA,"",   930.497E-03,  -888.569E-03,  -276.169E-03,   38.5376E-09
C:/temp/dataset/3/19_2.odb,Step-1,Increment      1: Step Time =    1.000,"PART-1-1",           673,            5.,         13.75,            0.,NA,NA,"",   739.240E-03,  -719.123E-03,  -171.281E-03,   25.0851E-06
C:/temp/dataset/3/19_2.odb,Step-1,Increment      1: Step Time =    1.000,"PART-1-1",           674,       7.85923,       4.51418,            0.,NA,NA,"",   476.630E-03,  -468.420E-03,  -88.0860E-03,   1.25613E-03
C:/temp/dataset/3/19_2.odb,Step-1,Increment      1: Step Time =    1.000,"PART-1-1",           675,       9.45843,       7.45797,            0.,NA,NA,"",   550.844E-03,  -548.842E-03,  -46.9145E-03,   368.085E-06
C:/temp/dataset/3/19_2.odb,Step-1,Increment      1: Step Time =    1.000,"PART-1-1",           676,       11.3500,       8.04392,            0.,NA,NA,"",   565.267E-03,  -565.250E-03,   4.38910E-03,   206.673E-06
C:/temp/dataset/3/19_2.odb,Step-1,Increment      1: Step Time =    1.000,"PART-1-1",           677,       10.2386,       8.70699,            0.,NA,NA,"",   583.786E-03,  -583.195E-03,  -26.2712E-03,   155.354E-06
C:/temp/dataset/3/19_2.odb,Step-1,Increment      1: Step Time =    1.000,"PART-1-1",           678,   133.314E-03,       2.02047,            0.,NA,NA,"",   510.916E-03,  -404.285E-03,  -312.392E-03,   1.79741E-03
C:/temp/dataset/3/19_2.odb,Step-1,Increment      1: Step Time =    1.000,"PART-1-1",           679,       2.26054,       1.70692,            0.,NA,NA,"",   465.338E-03,  -394.055E-03,  -247.507E-03,   2.55766E-03
C:/temp/dataset/3/19_2.odb,Step-1,Increment      1: Step Time =    1.000,"PART-1-1",           680,  -583.333E-03,            5.,            0.,NA,NA,"",   595.907E-03,  -489.795E-03,  -339.419E-03,   1.69700E-03
C:/temp/dataset/3/19_2.odb,Step-1,Increment      1: Step Time =    1.000,"PART-1-1",           681,  -713.179E-03,       3.09316,            0.,NA,NA,"",   551.972E-03,  -435.466E-03,  -339.178E-03,   1.65133E-03
C:/temp/dataset/3/19_2.odb,Step-1,Increment      1: Step Time =    1.000,"PART-1-1",           682,      -10.2084,       1.19941,            0.,NA,NA,"",   719.983E-03,  -377.288E-03,  -613.212E-03,   30.4365E-06
C:/temp/dataset/3/19_2.odb,Step-1,Increment      1: Step Time =    1.000,"PART-1-1",           683,      -7.18333,           -5.,            0.,NA,NA,"",   558.523E-03,  -197.538E-03,  -522.424E-03,   94.6205E-06
C:/temp/dataset/3/19_2.odb,Step-1,Increment      1: Step Time =    1.000,"PART-1-1",           684,      -7.36178,      -2.99006,            0.,NA,NA,"",   587.365E-03,  -256.230E-03,  -528.530E-03,   74.0373E-06
C:/temp/dataset/3/19_2.odb,Step-1,Increment      1: Step Time =    1.000,"PART-1-1",           685,      -11.3125,  -91.5578E-03,            0.,NA,NA,"",   728.641E-03,  -339.145E-03,  -644.902E-03,   25.0854E-06
C:/temp/dataset/3/19_2.odb,Step-1,Increment      1: Step Time =    1.000,"PART-1-1",           686,      -11.6500,           -5.,            0.,NA,NA,"",   681.419E-03,  -195.786E-03,  -652.686E-03,   9.57385E-06
C:/temp/dataset/3/19_2.odb,Step-1,Increment      1: Step Time =    1.000,"PART-1-1",           687,      -11.6245,      -2.63993,            0.,NA,NA,"",   704.543E-03,  -264.648E-03,  -652.948E-03,   19.2714E-06
C:/temp/dataset/3/19_2.odb,Step-1,Increment      1: Step Time =    1.000,"PART-1-1",           688,      -1.03706,       1.18772,            0.,NA,NA,"",   514.237E-03,  -380.664E-03,  -345.738E-03,   1.02817E-03
C:/temp/dataset/3/19_2.odb,Step-1,Increment      1: Step Time =    1.000,"PART-1-1",           689,      -2.26684,   407.252E-03,            0.,NA,NA,"",   522.833E-03,  -357.884E-03,  -381.148E-03,   443.290E-06
C:/temp/dataset/3/19_2.odb,Step-1,Increment      1: Step Time =    1.000,"PART-1-1",           690,      -1.61706,  -775.207E-03,            0.,NA,NA,"",   484.868E-03,  -323.675E-03,  -361.015E-03,   540.996E-06
C:/temp/dataset/3/19_2.odb,Step-1,Increment      1: Step Time =    1.000,"PART-1-1",           691,      -4.44627,  -189.662E-03,            0.,NA,NA,"",   559.431E-03,  -339.576E-03,  -444.580E-03,   103.429E-06
C:/temp/dataset/3/19_2.odb,Step-1,Increment      1: Step Time =    1.000,"PART-1-1",           692,      -3.83065,   850.686E-03,            0.,NA,NA,"",   565.241E-03,  -370.217E-03,  -427.126E-03,   138.007E-06
C:/temp/dataset/3/19_2.odb,Step-1,Increment      1: Step Time =    1.000,"PART-1-1",           693,      -5.38306,   384.196E-03,            0.,NA,NA,"",   591.239E-03,  -355.857E-03,  -472.154E-03,   97.1385E-06
C:/temp/dataset/3/19_2.odb,Step-1,Increment      1: Step Time =    1.000,"PART-1-1",           694,       3.90000,           -5.,            0.,NA,NA,"",   275.229E-03,  -203.217E-03,  -185.618E-03,   4.32982E-03
C:/temp/dataset/3/19_2.odb,Step-1,Increment      1: Step Time =    1.000,"PART-1-1",           695,       5.25667,      -4.01677,            0.,NA,NA,"",   272.365E-03,  -234.296E-03,  -138.881E-03,   6.24488E-03
C:/temp/dataset/3/19_2.odb,Step-1,Increment      1: Step Time =    1.000,"PART-1-1",           696,       4.24316,      -3.18705,            0.,NA,NA,"",   311.283E-03,  -257.381E-03,  -175.079E-03,   3.52970E-03
C:/temp/dataset/3/19_2.odb,Step-1,Increment      1: Step Time =    1.000,"PART-1-1",           697,       9.51721,      -4.82762,            0.,NA,NA,"",   215.340E-03,  -212.946E-03,  -32.0208E-03,   1.67387E-03
C:/temp/dataset/3/19_2.odb,Step-1,Increment      1: Step Time =    1.000,"PART-1-1",           698,       8.04384,      -4.93500,            0.,NA,NA,"",   219.681E-03,  -209.814E-03,  -65.0983E-03,   2.65961E-03
C:/temp/dataset/3/19_2.odb,Step-1,Increment      1: Step Time =    1.000,"PART-1-1",           699,       8.61490,      -6.56470,            0.,NA,NA,"",   180.421E-03,  -173.702E-03,  -48.7800E-03,   2.16434E-03
C:/temp/dataset/3/19_2.odb,Step-1,Increment      1: Step Time =    1.000,"PART-1-1",           700,       10.0883,      -6.45732,            0.,NA,NA,"",   177.109E-03,  -176.146E-03,  -18.4460E-03,   993.635E-06
C:/temp/dataset/3/19_2.odb,Step-1,Increment      1: Step Time =    1.000,"PART-1-1",           701,       9.29828,      -8.00429,            0.,NA,NA,"",   148.097E-03,  -144.544E-03,  -32.2425E-03,   1.79528E-03
C:/temp/dataset/3/19_2.odb,Step-1,Increment      1: Step Time =    1.000,"PART-1-1",           702,       6.27674,      -21.4047,            0.,NA,NA,"",   18.7091E-03,  -1.05685E-03,  -18.6792E-03,   4.27963E-03
C:/temp/dataset/3/19_2.odb,Step-1,Increment      1: Step Time =    1.000,"PART-1-1",           703,       7.27122,      -20.3583,            0.,NA,NA,"",   19.4933E-03,  -1.96395E-03,  -19.3942E-03,   3.40327E-03
C:/temp/dataset/3/19_2.odb,Step-1,Increment      1: Step Time =    1.000,"PART-1-1",           704,         -6.25,          -20.,            0.,NA,NA,"",   1.64626E-03,  -1.62833E-03,   242.286E-06,   105.458E-06
C:/temp/dataset/3/19_2.odb,Step-1,Increment      1: Step Time =    1.000,"PART-1-1",           705,         -1.25,          -30.,            0.,NA,NA,"",            0.,  -674.551E-42,  -936.404E-42,   834.187E-06
C:/temp/dataset/3/19_2.odb,Step-1,Increment      1: Step Time =    1.000,"PART-1-1",           706,       8.60683,      -25.8105,            0.,NA,NA,"",   5.65308E-03,   3.67704E-03,  -4.29380E-03,   1.84740E-03
C:/temp/dataset/3/19_2.odb,Step-1,Increment      1: Step Time =    1.000,"PART-1-1",           707,       7.41490,      -26.9159,            0.,NA,NA,"",   4.35305E-03,   2.22724E-03,  -3.74011E-03,   1.94343E-03
C:/temp/dataset/3/19_2.odb,Step-1,Increment      1: Step Time =    1.000,"PART-1-1",           708,       6.17638,      -25.8614,            0.,NA,NA,"",   6.28361E-03,   971.062E-06,  -6.20813E-03,   2.20734E-03
C:/temp/dataset/3/19_2.odb,Step-1,Increment      1: Step Time =    1.000,"PART-1-1",           709,       7.37219,      -25.0876,            0.,NA,NA,"",   7.48516E-03,   2.41831E-03,  -7.08375E-03,   2.49374E-03
C:/temp/dataset/3/19_2.odb,Step-1,Increment      1: Step Time =    1.000,"PART-1-1",           710,       6.30743,      -24.1068,            0.,NA,NA,"",   10.2351E-03,   670.907E-06,  -10.2131E-03,   2.78471E-03
C:/temp/dataset/3/19_2.odb,Step-1,Increment      1: Step Time =    1.000,"PART-1-1",           711,   113.079E-03,      -23.9373,            0.,NA,NA,"",   4.21066E-03,  -3.20029E-03,  -2.73639E-03,   845.726E-06
C:/temp/dataset/3/19_2.odb,Step-1,Increment      1: Step Time =    1.000,"PART-1-1",           712,      -2.43554,      -23.8906,            0.,NA,NA,"",   2.69092E-03,  -2.59605E-03,  -708.204E-06,   328.437E-06
C:/temp/dataset/3/19_2.odb,Step-1,Increment      1: Step Time =    1.000,"PART-1-1",           713,      -8.72529,      -25.0755,            0.,NA,NA,"",   1.49831E-03,  -1.49170E-03,   140.568E-06,   148.199E-06
C:/temp/dataset/3/19_2.odb,Step-1,Increment      1: Step Time =    1.000,"PART-1-1",           714,      -9.97606,      -23.8175,            0.,NA,NA,"",   1.56166E-03,  -1.55538E-03,   139.986E-06,   68.1228E-06
C:/temp/dataset/3/19_2.odb,Step-1,Increment      1: Step Time =    1.000,"PART-1-1",           715,      -9.99641,      -28.7682,            0.,NA,NA,"",   425.195E-06,  -424.897E-06,  -15.8934E-06,   215.413E-06
C:/temp/dataset/3/19_2.odb,Step-1,Increment      1: Step Time =    1.000,"PART-1-1",           716,      -11.2465,      -27.5281,            0.,NA,NA,"",   738.703E-06,  -738.508E-06,  -16.9558E-06,   176.261E-06
C:/temp/dataset/3/19_2.odb,Step-1,Increment      1: Step Time =    1.000,"PART-1-1",           717,        -11.25,          -30.,            0.,NA,NA,"",            0.,  -186.772E-42,  -91.6267E-42,   201.301E-06
C:/temp/dataset/3/19_2.odb,Step-1,Increment      1: Step Time =    1.000,"PART-1-1",           718,         -8.75,          -30.,            0.,NA,NA,"",            0.,  -261.224E-42,  -101.241E-42,   285.101E-06
C:/temp/dataset/3/19_2.odb,Step-1,Increment      1: Step Time =    1.000,"PART-1-1",           719,      -8.73783,      -27.5479,            0.,NA,NA,"",   916.163E-06,  -916.055E-06,   14.0634E-06,   238.972E-06
C:/temp/dataset/3/19_2.odb,Step-1,Increment      1: Step Time =    1.000,"PART-1-1",           720,       9.45286,      -20.3748,            0.,NA,NA,"",   9.02434E-03,  -1.40314E-03,  -8.91459E-03,   1.76512E-03
C:/temp/dataset/3/19_2.odb,Step-1,Increment      1: Step Time =    1.000,"PART-1-1",           721,       8.38706,      -19.4374,            0.,NA,NA,"",   17.1327E-03,  -5.52853E-03,  -16.2162E-03,   2.25346E-03
C:/temp/dataset/3/19_2.odb,Step-1,Increment      1: Step Time =    1.000,"PART-1-1",           722,       8.33702,      -21.2957,            0.,NA,NA,"",   12.9856E-03,   771.339E-06,  -12.9627E-03,   2.62110E-03
C:/temp/dataset/3/19_2.odb,Step-1,Increment      1: Step Time =    1.000,"PART-1-1",           723,       9.34035,      -18.0986,            0.,NA,NA,"",   17.8836E-03,  -13.0030E-03,  -12.2778E-03,   1.61092E-03
C:/temp/dataset/3/19_2.odb,Step-1,Increment      1: Step Time =    1.000,"PART-1-1",           724,       10.7511,      -19.4747,            0.,NA,NA,"",   5.50553E-03,  -5.21492E-03,  -1.76508E-03,   1.06020E-03
C:/temp/dataset/3/19_2.odb,Step-1,Increment      1: Step Time =    1.000,"PART-1-1",           725,       9.57777,      -9.07511,            0.,NA,NA,"",   127.187E-03,  -124.648E-03,  -25.2850E-03,   1.63607E-03
C:/temp/dataset/3/19_2.odb,Step-1,Increment      1: Step Time =    1.000,"PART-1-1",           726,       10.3854,      -7.79904,            0.,NA,NA,"",   148.957E-03,  -148.498E-03,  -11.6895E-03,   697.001E-06
C:/temp/dataset/3/19_2.odb,Step-1,Increment      1: Step Time =    1.000,"PART-1-1",           727,       11.9371,      -7.89361,            0.,NA,NA,"",   148.730E-03,  -147.636E-03,   18.0105E-03,   1.39895E-03
C:/temp/dataset/3/19_2.odb,Step-1,Increment      1: Step Time =    1.000,"PART-1-1",           728,       11.6400,      -6.55190,            0.,NA,NA,"",   175.584E-03,  -175.079E-03,   13.3117E-03,   1.36407E-03
C:/temp/dataset/3/19_2.odb,Step-1,Increment      1: Step Time =    1.000,"PART-1-1",           729,       9.29748,       3.92298,            0.,NA,NA,"",   453.715E-03,  -451.136E-03,  -48.3043E-03,   1.24408E-03
C:/temp/dataset/3/19_2.odb,Step-1,Increment      1: Step Time =    1.000,"PART-1-1",           730,       10.7408,       1.93669,            0.,NA,NA,"",   395.012E-03,  -394.925E-03,  -8.27840E-03,   1.44570E-03
C:/temp/dataset/3/19_2.odb,Step-1,Increment      1: Step Time =    1.000,"PART-1-1",           731,       12.1175,       9.30164,            0.,NA,NA,"",   600.556E-03,  -600.041E-03,   24.8655E-03,   66.3641E-06
C:/temp/dataset/3/19_2.odb,Step-1,Increment      1: Step Time =    1.000,"PART-1-1",           732,       12.3743,       7.25826,            0.,NA,NA,"",   544.833E-03,  -543.851E-03,   32.6919E-03,   225.167E-06
C:/temp/dataset/3/19_2.odb,Step-1,Increment      1: Step Time =    1.000,"PART-1-1",           733,       9.86952,       23.8294,            0.,NA,NA,"",   997.351E-03,  -996.466E-03,  -41.9906E-03,   258.812E-09
C:/temp/dataset/3/19_2.odb,Step-1,Increment      1: Step Time =    1.000,"PART-1-1",           734,       8.61965,       22.5851,            0.,NA,NA,"",   964.959E-03,  -961.986E-03,  -75.6898E-03,   337.778E-09
C:/temp/dataset/3/19_2.odb,Step-1,Increment      1: Step Time =    1.000,"PART-1-1",           735,         11.25,           30.,            0.,NA,NA,"",       1.16567,      -1.16565,  -6.56209E-03,   88.5161E-09
C:/temp/dataset/3/19_2.odb,Step-1,Increment      1: Step Time =    1.000,"PART-1-1",           736,       9.97488,       28.7673,            0.,NA,NA,"",       1.13222,      -1.13148,  -40.9558E-03,   81.1795E-09
C:/temp/dataset/3/19_2.odb,Step-1,Increment      1: Step Time =    1.000,"PART-1-1",           737,          8.75,           30.,            0.,NA,NA,"",       1.16712,      -1.16472,  -74.8974E-03,   132.502E-09
C:/temp/dataset/3/19_2.odb,Step-1,Increment      1: Step Time =    1.000,"PART-1-1",           738,       3.69885,       25.0915,            0.,NA,NA,"",       1.05010,      -1.02866,  -211.133E-03,   70.5977E-09
C:/temp/dataset/3/19_2.odb,Step-1,Increment      1: Step Time =    1.000,"PART-1-1",           739,       4.94207,       26.3392,            0.,NA,NA,"",       1.07796,      -1.06323,  -177.617E-03,   56.0654E-09
C:/temp/dataset/3/19_2.odb,Step-1,Increment      1: Step Time =    1.000,"PART-1-1",           740,         -6.25,           30.,            0.,NA,NA,"",       1.25646,      -1.15911,  -484.914E-03,   692.161E-12
C:/temp/dataset/3/19_2.odb,Step-1,Increment      1: Step Time =    1.000,"PART-1-1",           741,      -11.2519,       25.0060,            0.,NA,NA,"",       1.19416,      -1.02073,  -619.773E-03,   182.824E-12
C:/temp/dataset/3/19_2.odb,Step-1,Increment      1: Step Time =    1.000,"PART-1-1",           742,       11.7111,      -12.1867,            0.,NA,NA,"",   75.7279E-03,  -75.0080E-03,   10.4176E-03,   930.125E-06
C:/temp/dataset/3/19_2.odb,Step-1,Increment      1: Step Time =    1.000,"PART-1-1",           743,       12.0443,      -13.4388,            0.,NA,NA,"",   60.1137E-03,  -58.5312E-03,   13.7026E-03,   1.37693E-03
C:/temp/dataset/3/19_2.odb,Step-1,Increment      1: Step Time =    1.000,"PART-1-1",           744,       9.07309,      -22.0228,            0.,NA,NA,"",   9.13229E-03,   2.48970E-03,  -8.78636E-03,   2.23219E-03
C:/temp/dataset/3/19_2.odb,Step-1,Increment      1: Step Time =    1.000,"PART-1-1",           745,       9.10959,      -23.2638,            0.,NA,NA,"",   7.88194E-03,   3.78811E-03,  -6.91196E-03,   2.23547E-03
C:/temp/dataset/3/19_2.odb,Step-1,Increment      1: Step Time =    1.000,"PART-1-1",           746,       10.5828,      -23.1781,            0.,NA,NA,"",   4.90006E-03,   4.37431E-03,  -2.20818E-03,   1.61717E-03
C:/temp/dataset/3/19_2.odb,Step-1,Increment      1: Step Time =    1.000,"PART-1-1",           747,       10.5463,      -21.9372,            0.,NA,NA,"",   3.83762E-03,   2.72378E-03,  -2.70340E-03,   1.61920E-03
C:/temp/dataset/3/19_2.odb,Step-1,Increment      1: Step Time =    1.000,"PART-1-1",           748,      -1.00841,      -2.00181,            0.,NA,NA,"",   447.153E-03,  -288.088E-03,  -341.981E-03,   505.664E-06
C:/temp/dataset/3/19_2.odb,Step-1,Increment      1: Step Time =    1.000,"PART-1-1",           749,      -3.17395,      -1.50818,            0.,NA,NA,"",   506.266E-03,  -301.567E-03,  -406.648E-03,   140.337E-06
C:/temp/dataset/3/19_2.odb,Step-1,Increment      1: Step Time =    1.000,"PART-1-1",           750,       8.23699,       8.20647,            0.,NA,NA,"",   574.781E-03,  -569.079E-03,  -80.7591E-03,   231.646E-06
C:/temp/dataset/3/19_2.odb,Step-1,Increment      1: Step Time =    1.000,"PART-1-1",           751,       8.58975,       6.06422,            0.,NA,NA,"",   515.405E-03,  -510.676E-03,  -69.6612E-03,   765.507E-06
C:/temp/dataset/3/19_2.odb,Step-1,Increment      1: Step Time =    1.000,"PART-1-1",           752,       1.04870,      -2.29850,            0.,NA,NA,"",   395.659E-03,  -280.560E-03,  -278.984E-03,   1.36590E-03
C:/temp/dataset/3/19_2.odb,Step-1,Increment      1: Step Time =    1.000,"PART-1-1",           753,      -1.88356,       2.26041,            0.,NA,NA,"",   554.689E-03,  -411.691E-03,  -371.740E-03,   771.880E-06
C:/temp/dataset/3/19_2.odb,Step-1,Increment      1: Step Time =    1.000,"PART-1-1",           754,      -2.91638,       1.44829,            0.,NA,NA,"",   557.885E-03,  -387.953E-03,  -400.909E-03,   336.791E-06
C:/temp/dataset/3/19_2.odb,Step-1,Increment      1: Step Time =    1.000,"PART-1-1",           755,       3.03453,      -2.52132,            0.,NA,NA,"",   350.186E-03,  -275.501E-03,  -216.169E-03,   2.84497E-03
C:/temp/dataset/3/19_2.odb,Step-1,Increment      1: Step Time =    1.000,"PART-1-1",           756,       6.99799,      -3.46075,            0.,NA,NA,"",   264.779E-03,  -247.457E-03,  -94.1967E-03,   3.40307E-03
C:/temp/dataset/3/19_2.odb,Step-1,Increment      1: Step Time =    1.000,"PART-1-1",           757,       7.63560,  -984.386E-03,            0.,NA,NA,"",   325.862E-03,  -314.682E-03,  -84.6255E-03,   2.47564E-03
C:/temp/dataset/3/19_2.odb,Step-1,Increment      1: Step Time =    1.000,"PART-1-1",           758,       6.14771,      -1.67534,            0.,NA,NA,"",   321.599E-03,  -297.142E-03,  -123.014E-03,   3.26373E-03
C:/temp/dataset/3/19_2.odb,Step-1,Increment      1: Step Time =    1.000,"PART-1-1",           759,       4.94795,      -26.8240,            0.,NA,NA,"",   4.36644E-03,  -210.802E-06,  -4.36135E-03,   2.04147E-03
C:/temp/dataset/3/19_2.odb,Step-1,Increment      1: Step Time =    1.000,"PART-1-1",           760,      -11.2341,      -25.0541,            0.,NA,NA,"",   1.31005E-03,  -1.30990E-03,   19.7785E-06,   85.6353E-06
C:/temp/dataset/3/19_2.odb,Step-1,Increment      1: Step Time =    1.000,"PART-1-1",           761,      -9.98574,      -26.3021,            0.,NA,NA,"",   1.13647E-03,  -1.13541E-03,   48.8496E-06,   156.551E-06
C:/temp/dataset/3/19_2.odb,Step-1,Increment      1: Step Time =    1.000,"PART-1-1",           762,           15.,        -26.25,            0.,NA,NA,"",   4.40709E-03,   3.12992E-03,   3.10259E-03,   1.88619E-03
C:/temp/dataset/3/19_2.odb,Step-1,Increment      1: Step Time =    1.000,"PART-1-1",           763,       9.63478,      -24.7731,            0.,NA,NA,"",   5.94009E-03,   4.61477E-03,  -3.74014E-03,   1.88499E-03
C:/temp/dataset/3/19_2.odb,Step-1,Increment      1: Step Time =    1.000,"PART-1-1",           764,       9.83383,   250.169E-03,            0.,NA,NA,"",   349.009E-03,  -347.708E-03,  -30.0967E-03,   1.89892E-03
C:/temp/dataset/3/19_2.odb,Step-1,Increment      1: Step Time =    1.000,"PART-1-1",           765,       11.1222,       22.5628,            0.,NA,NA,"",   962.339E-03,  -962.311E-03,  -7.27729E-03,   360.668E-09
C:/temp/dataset/3/19_2.odb,Step-1,Increment      1: Step Time =    1.000,"PART-1-1",           766,       9.84566,       21.3197,            0.,NA,NA,"",   928.794E-03,  -927.857E-03,  -41.7057E-03,   1.19077E-06
C:/temp/dataset/3/19_2.odb,Step-1,Increment      1: Step Time =    1.000,"PART-1-1",           767,      -3.18112,  -190.353E-03,            0.,NA,NA,"",   530.858E-03,  -340.138E-03,  -407.574E-03,   203.045E-06
C:/temp/dataset/3/19_2.odb,Step-1,Increment      1: Step Time =    1.000,"PART-1-1",           768,       4.54417,       1.21940,            0.,NA,NA,"",   418.050E-03,  -378.698E-03,  -177.069E-03,   2.30216E-03
C:/temp/dataset/3/19_2.odb,Step-1,Increment      1: Step Time =    1.000,"PART-1-1",           769,       9.22107,       9.51460,            0.,NA,NA,"",   607.428E-03,  -604.985E-03,  -54.4285E-03,   103.379E-06
C:/temp/dataset/3/19_2.odb,Step-1,Increment      1: Step Time =    1.000,"PART-1-1",           770,       11.1709,      -3.71800,            0.,NA,NA,"",   241.256E-03,  -241.214E-03,   4.46655E-03,   1.74709E-03
C:/temp/dataset/3/19_2.odb,Step-1,Increment      1: Step Time =    1.000,"PART-1-1",           771,       11.0221,      -5.16095,            0.,NA,NA,"",   205.881E-03,  -205.878E-03,   943.002E-06,   1.38559E-03
C:/temp/dataset/3/19_2.odb,Step-1,Increment      1: Step Time =    1.000,"PART-1-1",           772,       12.3085,      -4.70099,            0.,NA,NA,"",   219.967E-03,  -218.003E-03,   29.3328E-03,   2.02703E-03
C:/temp/dataset/3/19_2.odb,Step-1,Increment      1: Step Time =    1.000,"PART-1-1",           773,       5.03877,      -2.41022,            0.,NA,NA,"",   317.370E-03,  -278.188E-03,  -152.758E-03,   3.94577E-03
C:/temp/dataset/3/19_2.odb,Step-1,Increment      1: Step Time =    1.000,"PART-1-1",           774,       11.0080,       9.74440,            0.,NA,NA,"",   611.853E-03,  -611.827E-03,  -5.66740E-03,   66.6489E-06
C:/temp/dataset/3/19_2.odb,Step-1,Increment      1: Step Time =    1.000,"PART-1-1",           775,       7.33953,      -23.4839,            0.,NA,NA,"",   10.9321E-03,   1.94708E-03,  -10.7573E-03,   2.99698E-03
C:/temp/dataset/3/19_2.odb,Step-1,Increment      1: Step Time =    1.000,"PART-1-1",           776,       6.60048,      -22.7490,            0.,NA,NA,"",   13.8024E-03,   319.786E-06,  -13.7987E-03,   3.44862E-03
C:/temp/dataset/3/19_2.odb,Step-1,Increment      1: Step Time =    1.000,"PART-1-1",           777,       5.56839,      -23.3719,            0.,NA,NA,"",   12.1910E-03,  -793.729E-06,  -12.1652E-03,   3.34074E-03
C:/temp/dataset/3/19_2.odb,Step-1,Increment      1: Step Time =    1.000,"PART-1-1",           778,       5.56431,      -22.1833,            0.,NA,NA,"",   15.8742E-03,  -1.76441E-03,  -15.7758E-03,   3.99035E-03
C:/temp/dataset/3/19_2.odb,Step-1,Increment      1: Step Time =    1.000,"PART-1-1",           779,       7.31291,      -21.9704,            0.,NA,NA,"",   14.8946E-03,   857.503E-06,  -14.8699E-03,   3.36721E-03
C:/temp/dataset/3/19_2.odb,Step-1,Increment      1: Step Time =    1.000,"PART-1-1",           780,       8.04898,      -22.6975,            0.,NA,NA,"",   11.3098E-03,   2.43628E-03,  -11.0443E-03,   2.74080E-03
C:/temp/dataset/3/19_2.odb,Step-1,Increment      1: Step Time =    1.000,"PART-1-1",           781,       5.89213,  -472.373E-03,            0.,NA,NA,"",   356.522E-03,  -330.530E-03,  -133.632E-03,   2.49776E-03
C:/temp/dataset/3/19_2.odb,Step-1,Increment      1: Step Time =    1.000,"PART-1-1",           782,       8.40014,      -24.0502,            0.,NA,NA,"",   8.26297E-03,   3.50365E-03,  -7.48338E-03,   2.29739E-03
