ODB Name,Step,Frame,Part Instance Name,    êﬂì_ÉâÉxÉã,X,Y,Z,Section Name,Material Name,Section Point,   U-Magnitude,          U-U1,          U-U2,       S-Mises
C:/temp/dataset/3/19_5.odb,Step-1,Increment      1: Step Time =    1.000,"PART-1-1",             1,          -15.,           20.,            0.,NA,NA,"",       2.75652,      -2.09574,      -1.79061,   6.20569E-09
C:/temp/dataset/3/19_5.odb,Step-1,Increment      1: Step Time =    1.000,"PART-1-1",             2,          -15.,           25.,            0.,NA,NA,"",       3.02340,      -2.42796,      -1.80166,   6.45728E-09
C:/temp/dataset/3/19_5.odb,Step-1,Increment      1: Step Time =    1.000,"PART-1-1",             3,           -5.,           20.,            0.,NA,NA,"",       2.39864,      -2.11784,      -1.12616,   22.2319E-09
C:/temp/dataset/3/19_5.odb,Step-1,Increment      1: Step Time =    1.000,"PART-1-1",             4,            5.,           20.,            0.,NA,NA,"",       2.18917,      -2.13993,  -461.706E-03,   1.54067E-06
C:/temp/dataset/3/19_5.odb,Step-1,Increment      1: Step Time =    1.000,"PART-1-1",             5,            5.,          12.5,            0.,NA,NA,"",       1.70087,      -1.64164,  -444.927E-03,   102.916E-06
C:/temp/dataset/3/19_5.odb,Step-1,Increment      1: Step Time =    1.000,"PART-1-1",             6,            5.,            5.,            0.,NA,NA,"",       1.23271,      -1.15439,  -432.385E-03,   7.61050E-03
C:/temp/dataset/3/19_5.odb,Step-1,Increment      1: Step Time =    1.000,"PART-1-1",             7,      -1.70000,            5.,            0.,NA,NA,"",       1.47947,      -1.15694,  -922.115E-03,   2.80190E-03
C:/temp/dataset/3/19_5.odb,Step-1,Increment      1: Step Time =    1.000,"PART-1-1",             8,      -8.40000,            5.,            0.,NA,NA,"",       1.80147,      -1.14560,      -1.39029,   154.098E-06
C:/temp/dataset/3/19_5.odb,Step-1,Increment      1: Step Time =    1.000,"PART-1-1",             9,          -15.,            5.,            0.,NA,NA,"",       2.17556,      -1.12909,      -1.85963,   2.57209E-06
C:/temp/dataset/3/19_5.odb,Step-1,Increment      1: Step Time =    1.000,"PART-1-1",            10,          -15.,            0.,            0.,NA,NA,"",       2.00250,  -773.663E-03,      -1.84701,   15.1769E-06
C:/temp/dataset/3/19_5.odb,Step-1,Increment      1: Step Time =    1.000,"PART-1-1",            11,          -15.,           -5.,            0.,NA,NA,"",       1.88146,  -418.233E-03,      -1.83439,   2.25730E-06
C:/temp/dataset/3/19_5.odb,Step-1,Increment      1: Step Time =    1.000,"PART-1-1",            12,      -8.30000,           -5.,            0.,NA,NA,"",       1.42620,  -434.974E-03,      -1.35825,   137.882E-06
C:/temp/dataset/3/19_5.odb,Step-1,Increment      1: Step Time =    1.000,"PART-1-1",            13,      -1.60000,           -5.,            0.,NA,NA,"",   986.518E-03,  -449.110E-03,  -878.361E-03,   724.787E-06
C:/temp/dataset/3/19_5.odb,Step-1,Increment      1: Step Time =    1.000,"PART-1-1",            14,            5.,           -5.,            0.,NA,NA,"",   596.338E-03,  -481.096E-03,  -352.372E-03,   25.6231E-03
C:/temp/dataset/3/19_5.odb,Step-1,Increment      1: Step Time =    1.000,"PART-1-1",            15,            5.,         -12.5,            0.,NA,NA,"",   271.266E-03,  -183.037E-03,  -200.207E-03,   19.3803E-03
C:/temp/dataset/3/19_5.odb,Step-1,Increment      1: Step Time =    1.000,"PART-1-1",            16,            5.,          -20.,            0.,NA,NA,"",   58.8689E-03,  -5.46118E-03,  -58.6151E-03,   21.8758E-03
C:/temp/dataset/3/19_5.odb,Step-1,Increment      1: Step Time =    1.000,"PART-1-1",            17,           -5.,          -20.,            0.,NA,NA,"",   2.61054E-03,  -2.60218E-03,   208.842E-06,   400.519E-06
C:/temp/dataset/3/19_5.odb,Step-1,Increment      1: Step Time =    1.000,"PART-1-1",            18,          -15.,          -20.,            0.,NA,NA,"",   3.79681E-03,  -3.73825E-03,  -664.255E-06,   5.67863E-06
C:/temp/dataset/3/19_5.odb,Step-1,Increment      1: Step Time =    1.000,"PART-1-1",            19,          -15.,          -25.,            0.,NA,NA,"",   2.62075E-03,  -2.49821E-03,  -792.014E-06,   46.2041E-06
C:/temp/dataset/3/19_5.odb,Step-1,Increment      1: Step Time =    1.000,"PART-1-1",            20,          -15.,          -30.,            0.,NA,NA,"",            0.,  -214.536E-42,  -335.807E-42,   645.878E-06
C:/temp/dataset/3/19_5.odb,Step-1,Increment      1: Step Time =    1.000,"PART-1-1",            21,           15.,          -30.,            0.,NA,NA,"",            0.,   541.180E-42,  -518.727E-42,   1.50647E-03
C:/temp/dataset/3/19_5.odb,Step-1,Increment      1: Step Time =    1.000,"PART-1-1",            22,           15.,         -22.5,            0.,NA,NA,"",   26.9073E-03,   3.73416E-03,   26.6469E-03,   8.06160E-03
C:/temp/dataset/3/19_5.odb,Step-1,Increment      1: Step Time =    1.000,"PART-1-1",            23,           15.,          -15.,            0.,NA,NA,"",   143.355E-03,  -102.106E-03,   100.623E-03,   12.9079E-03
C:/temp/dataset/3/19_5.odb,Step-1,Increment      1: Step Time =    1.000,"PART-1-1",            24,           15.,          -7.5,            0.,NA,NA,"",   421.844E-03,  -379.577E-03,   184.049E-03,   12.8513E-03
C:/temp/dataset/3/19_5.odb,Step-1,Increment      1: Step Time =    1.000,"PART-1-1",            25,           15.,            0.,            0.,NA,NA,"",   857.473E-03,  -824.321E-03,   236.125E-03,   5.21821E-03
C:/temp/dataset/3/19_5.odb,Step-1,Increment      1: Step Time =    1.000,"PART-1-1",            26,           15.,           7.5,            0.,NA,NA,"",       1.35008,      -1.33015,   231.153E-03,   47.8066E-06
C:/temp/dataset/3/19_5.odb,Step-1,Increment      1: Step Time =    1.000,"PART-1-1",            27,           15.,           15.,            0.,NA,NA,"",       1.84231,      -1.82986,   213.832E-03,   35.7322E-06
C:/temp/dataset/3/19_5.odb,Step-1,Increment      1: Step Time =    1.000,"PART-1-1",            28,           15.,          22.5,            0.,NA,NA,"",       2.33649,      -2.32815,   197.208E-03,   560.025E-09
C:/temp/dataset/3/19_5.odb,Step-1,Increment      1: Step Time =    1.000,"PART-1-1",            29,           15.,           30.,            0.,NA,NA,"",       2.83225,      -2.82648,   180.636E-03,   19.5639E-09
C:/temp/dataset/3/19_5.odb,Step-1,Increment      1: Step Time =    1.000,"PART-1-1",            30,           7.5,           30.,            0.,NA,NA,"",       2.82781,      -2.80991,  -317.694E-03,   375.725E-09
C:/temp/dataset/3/19_5.odb,Step-1,Increment      1: Step Time =    1.000,"PART-1-1",            31,            0.,           30.,            0.,NA,NA,"",       2.91009,      -2.79333,  -816.030E-03,   72.5544E-09
C:/temp/dataset/3/19_5.odb,Step-1,Increment      1: Step Time =    1.000,"PART-1-1",            32,          -7.5,           30.,            0.,NA,NA,"",       3.07213,      -2.77676,      -1.31437,   18.3941E-09
C:/temp/dataset/3/19_5.odb,Step-1,Increment      1: Step Time =    1.000,"PART-1-1",            33,          -15.,           30.,            0.,NA,NA,"",       3.30220,      -2.76019,      -1.81271,   5.60450E-09
C:/temp/dataset/3/19_5.odb,Step-1,Increment      1: Step Time =    1.000,"PART-1-1",            34,          -15.,          22.5,            0.,NA,NA,"",       2.88826,      -2.26185,      -1.79613,   9.63127E-09
C:/temp/dataset/3/19_5.odb,Step-1,Increment      1: Step Time =    1.000,"PART-1-1",            35,          -7.5,           20.,            0.,NA,NA,"",       2.47625,      -2.11231,      -1.29227,   16.7973E-09
C:/temp/dataset/3/19_5.odb,Step-1,Increment      1: Step Time =    1.000,"PART-1-1",            36,          -10.,           20.,            0.,NA,NA,"",       2.56231,      -2.10679,      -1.45838,   10.8469E-09
C:/temp/dataset/3/19_5.odb,Step-1,Increment      1: Step Time =    1.000,"PART-1-1",            37,         -12.5,           20.,            0.,NA,NA,"",       2.65599,      -2.10126,      -1.62449,   7.33300E-09
C:/temp/dataset/3/19_5.odb,Step-1,Increment      1: Step Time =    1.000,"PART-1-1",            38,           2.5,           20.,            0.,NA,NA,"",       2.22483,      -2.13441,  -627.819E-03,   219.545E-09
C:/temp/dataset/3/19_5.odb,Step-1,Increment      1: Step Time =    1.000,"PART-1-1",            39,            0.,           20.,            0.,NA,NA,"",       2.27211,      -2.12888,  -793.931E-03,   49.8847E-09
C:/temp/dataset/3/19_5.odb,Step-1,Increment      1: Step Time =    1.000,"PART-1-1",            40,          -2.5,           20.,            0.,NA,NA,"",       2.33031,      -2.12336,  -960.044E-03,   22.7766E-09
C:/temp/dataset/3/19_5.odb,Step-1,Increment      1: Step Time =    1.000,"PART-1-1",            41,            5.,           15.,            0.,NA,NA,"",       1.86301,      -1.80769,  -450.603E-03,   41.5136E-06
C:/temp/dataset/3/19_5.odb,Step-1,Increment      1: Step Time =    1.000,"PART-1-1",            42,            5.,          17.5,            0.,NA,NA,"",       2.02584,      -1.97381,  -456.170E-03,   8.55812E-06
C:/temp/dataset/3/19_5.odb,Step-1,Increment      1: Step Time =    1.000,"PART-1-1",            43,            5.,           7.5,            0.,NA,NA,"",       1.38158,      -1.31201,  -432.898E-03,   1.34949E-03
C:/temp/dataset/3/19_5.odb,Step-1,Increment      1: Step Time =    1.000,"PART-1-1",            44,            5.,           10.,            0.,NA,NA,"",       1.53995,      -1.47600,  -439.181E-03,   374.803E-06
C:/temp/dataset/3/19_5.odb,Step-1,Increment      1: Step Time =    1.000,"PART-1-1",            45,   533.333E-03,            5.,            0.,NA,NA,"",       1.39211,      -1.16092,  -768.264E-03,   5.00907E-03
C:/temp/dataset/3/19_5.odb,Step-1,Increment      1: Step Time =    1.000,"PART-1-1",            46,       2.76667,            5.,            0.,NA,NA,"",       1.30921,      -1.16144,  -604.213E-03,   7.25131E-03
C:/temp/dataset/3/19_5.odb,Step-1,Increment      1: Step Time =    1.000,"PART-1-1",            47,      -6.16667,            5.,            0.,NA,NA,"",       1.68549,      -1.15066,      -1.23161,   434.709E-06
C:/temp/dataset/3/19_5.odb,Step-1,Increment      1: Step Time =    1.000,"PART-1-1",            48,      -3.93333,            5.,            0.,NA,NA,"",       1.57709,      -1.15500,      -1.07387,   1.32184E-03
C:/temp/dataset/3/19_5.odb,Step-1,Increment      1: Step Time =    1.000,"PART-1-1",            49,      -12.8000,            5.,            0.,NA,NA,"",       2.04655,      -1.13465,      -1.70322,   5.14973E-06
C:/temp/dataset/3/19_5.odb,Step-1,Increment      1: Step Time =    1.000,"PART-1-1",            50,      -10.6000,            5.,            0.,NA,NA,"",       1.92159,      -1.14019,      -1.54677,   44.9948E-06
C:/temp/dataset/3/19_5.odb,Step-1,Increment      1: Step Time =    1.000,"PART-1-1",            51,          -15.,           2.5,            0.,NA,NA,"",       2.08323,  -951.368E-03,      -1.85330,   5.63434E-06
C:/temp/dataset/3/19_5.odb,Step-1,Increment      1: Step Time =    1.000,"PART-1-1",            52,          -15.,          -2.5,            0.,NA,NA,"",       1.93478,  -595.940E-03,      -1.84071,   5.32090E-06
C:/temp/dataset/3/19_5.odb,Step-1,Increment      1: Step Time =    1.000,"PART-1-1",            53,      -10.5333,           -5.,            0.,NA,NA,"",       1.57658,  -429.491E-03,      -1.51695,   42.5243E-06
C:/temp/dataset/3/19_5.odb,Step-1,Increment      1: Step Time =    1.000,"PART-1-1",            54,      -12.7667,           -5.,            0.,NA,NA,"",       1.72844,  -423.881E-03,      -1.67566,   5.54751E-06
C:/temp/dataset/3/19_5.odb,Step-1,Increment      1: Step Time =    1.000,"PART-1-1",            55,      -3.83333,           -5.,            0.,NA,NA,"",       1.13095,  -444.866E-03,      -1.03978,   629.977E-06
C:/temp/dataset/3/19_5.odb,Step-1,Increment      1: Step Time =    1.000,"PART-1-1",            56,      -6.06667,           -5.,            0.,NA,NA,"",       1.27761,  -440.171E-03,      -1.19939,   344.797E-06
C:/temp/dataset/3/19_5.odb,Step-1,Increment      1: Step Time =    1.000,"PART-1-1",            57,       2.80000,           -5.,            0.,NA,NA,"",   712.904E-03,  -459.734E-03,  -544.864E-03,   6.41390E-03
C:/temp/dataset/3/19_5.odb,Step-1,Increment      1: Step Time =    1.000,"PART-1-1",            58,   600.000E-03,           -5.,            0.,NA,NA,"",   847.385E-03,  -453.775E-03,  -715.646E-03,   1.20562E-03
C:/temp/dataset/3/19_5.odb,Step-1,Increment      1: Step Time =    1.000,"PART-1-1",            59,            5.,          -10.,            0.,NA,NA,"",   365.684E-03,  -271.093E-03,  -245.425E-03,   19.0979E-03
C:/temp/dataset/3/19_5.odb,Step-1,Increment      1: Step Time =    1.000,"PART-1-1",            60,            5.,          -7.5,            0.,NA,NA,"",   473.304E-03,  -373.902E-03,  -290.197E-03,   20.7487E-03
C:/temp/dataset/3/19_5.odb,Step-1,Increment      1: Step Time =    1.000,"PART-1-1",            61,            5.,         -17.5,            0.,NA,NA,"",   125.941E-03,  -54.2443E-03,  -113.660E-03,   20.1267E-03
C:/temp/dataset/3/19_5.odb,Step-1,Increment      1: Step Time =    1.000,"PART-1-1",            62,            5.,          -15.,            0.,NA,NA,"",   191.790E-03,  -111.369E-03,  -156.142E-03,   18.6166E-03
C:/temp/dataset/3/19_5.odb,Step-1,Increment      1: Step Time =    1.000,"PART-1-1",            63,          -2.5,          -20.,            0.,NA,NA,"",   2.14947E-03,  -1.46427E-03,  -1.57357E-03,   559.435E-06
C:/temp/dataset/3/19_5.odb,Step-1,Increment      1: Step Time =    1.000,"PART-1-1",            64,            0.,          -20.,            0.,NA,NA,"",   6.59286E-03,   164.611E-06,  -6.59080E-03,   1.16964E-03
C:/temp/dataset/3/19_5.odb,Step-1,Increment      1: Step Time =    1.000,"PART-1-1",            65,           2.5,          -20.,            0.,NA,NA,"",   19.1521E-03,   2.39122E-03,  -19.0022E-03,   4.72129E-03
C:/temp/dataset/3/19_5.odb,Step-1,Increment      1: Step Time =    1.000,"PART-1-1",            66,         -12.5,          -20.,            0.,NA,NA,"",   3.71597E-03,  -3.71503E-03,  -83.7838E-06,   32.7233E-06
C:/temp/dataset/3/19_5.odb,Step-1,Increment      1: Step Time =    1.000,"PART-1-1",            67,          -10.,          -20.,            0.,NA,NA,"",   3.59872E-03,  -3.57392E-03,   421.788E-06,   98.1869E-06
C:/temp/dataset/3/19_5.odb,Step-1,Increment      1: Step Time =    1.000,"PART-1-1",            68,          -7.5,          -20.,            0.,NA,NA,"",   3.31457E-03,  -3.25157E-03,   643.167E-06,   200.373E-06
C:/temp/dataset/3/19_5.odb,Step-1,Increment      1: Step Time =    1.000,"PART-1-1",            69,          -15.,         -22.5,            0.,NA,NA,"",   3.26015E-03,  -3.18699E-03,  -686.800E-06,   29.6997E-06
C:/temp/dataset/3/19_5.odb,Step-1,Increment      1: Step Time =    1.000,"PART-1-1",            70,          -15.,         -27.5,            0.,NA,NA,"",   1.64190E-03,  -1.43602E-03,  -796.048E-06,   153.088E-06
C:/temp/dataset/3/19_5.odb,Step-1,Increment      1: Step Time =    1.000,"PART-1-1",            71,          12.5,          -30.,            0.,NA,NA,"",            0.,   3.27230E-39,  -498.603E-42,   2.93092E-03
C:/temp/dataset/3/19_5.odb,Step-1,Increment      1: Step Time =    1.000,"PART-1-1",            72,           10.,          -30.,            0.,NA,NA,"",            0.,   2.87591E-39,  -776.601E-42,   3.34601E-03
C:/temp/dataset/3/19_5.odb,Step-1,Increment      1: Step Time =    1.000,"PART-1-1",            73,           7.5,          -30.,            0.,NA,NA,"",            0.,   909.228E-42,  -5.13404E-39,   3.18574E-03
C:/temp/dataset/3/19_5.odb,Step-1,Increment      1: Step Time =    1.000,"PART-1-1",            74,            5.,          -30.,            0.,NA,NA,"",            0.,   1.71178E-39,  -6.99035E-39,   2.96998E-03
C:/temp/dataset/3/19_5.odb,Step-1,Increment      1: Step Time =    1.000,"PART-1-1",            75,           2.5,          -30.,            0.,NA,NA,"",            0.,  -100.748E-42,  -4.87450E-39,   2.69784E-03
C:/temp/dataset/3/19_5.odb,Step-1,Increment      1: Step Time =    1.000,"PART-1-1",            76,            0.,          -30.,            0.,NA,NA,"",            0.,  -985.226E-42,  -2.50755E-39,   2.22285E-03
C:/temp/dataset/3/19_5.odb,Step-1,Increment      1: Step Time =    1.000,"PART-1-1",            77,          -2.5,          -30.,            0.,NA,NA,"",            0.,  -2.26193E-39,  -2.76836E-39,   1.61424E-03
C:/temp/dataset/3/19_5.odb,Step-1,Increment      1: Step Time =    1.000,"PART-1-1",            78,           -5.,          -30.,            0.,NA,NA,"",            0.,  -960.077E-42,  -111.899E-42,   1.09569E-03
C:/temp/dataset/3/19_5.odb,Step-1,Increment      1: Step Time =    1.000,"PART-1-1",            79,          -7.5,          -30.,            0.,NA,NA,"",            0.,  -714.696E-42,   160.897E-42,   722.502E-06
C:/temp/dataset/3/19_5.odb,Step-1,Increment      1: Step Time =    1.000,"PART-1-1",            80,          -10.,          -30.,            0.,NA,NA,"",            0.,  -646.420E-42,  -520.481E-42,   490.478E-06
C:/temp/dataset/3/19_5.odb,Step-1,Increment      1: Step Time =    1.000,"PART-1-1",            81,         -12.5,          -30.,            0.,NA,NA,"",            0.,  -531.762E-42,  -422.116E-42,   325.260E-06
C:/temp/dataset/3/19_5.odb,Step-1,Increment      1: Step Time =    1.000,"PART-1-1",            82,           15.,          -25.,            0.,NA,NA,"",   14.7515E-03,   9.33767E-03,   11.4199E-03,   5.47878E-03
C:/temp/dataset/3/19_5.odb,Step-1,Increment      1: Step Time =    1.000,"PART-1-1",            83,           15.,         -27.5,            0.,NA,NA,"",   6.91438E-03,   6.65682E-03,   1.86960E-03,   2.81197E-03
C:/temp/dataset/3/19_5.odb,Step-1,Increment      1: Step Time =    1.000,"PART-1-1",            84,           15.,         -17.5,            0.,NA,NA,"",   87.8170E-03,  -48.6989E-03,   73.0770E-03,   12.1511E-03
C:/temp/dataset/3/19_5.odb,Step-1,Increment      1: Step Time =    1.000,"PART-1-1",            85,           15.,          -20.,            0.,NA,NA,"",   49.6441E-03,  -14.2204E-03,   47.5638E-03,   10.4466E-03
C:/temp/dataset/3/19_5.odb,Step-1,Increment      1: Step Time =    1.000,"PART-1-1",            86,           15.,          -10.,            0.,NA,NA,"",   309.819E-03,  -267.127E-03,   156.943E-03,   13.3407E-03
C:/temp/dataset/3/19_5.odb,Step-1,Increment      1: Step Time =    1.000,"PART-1-1",            87,           15.,         -12.5,            0.,NA,NA,"",   217.203E-03,  -174.845E-03,   128.866E-03,   13.1930E-03
C:/temp/dataset/3/19_5.odb,Step-1,Increment      1: Step Time =    1.000,"PART-1-1",            88,           15.,          -2.5,            0.,NA,NA,"",   699.665E-03,  -662.143E-03,   226.049E-03,   8.46935E-03
C:/temp/dataset/3/19_5.odb,Step-1,Increment      1: Step Time =    1.000,"PART-1-1",            89,           15.,           -5.,            0.,NA,NA,"",   552.751E-03,  -512.080E-03,   208.107E-03,   11.2997E-03
C:/temp/dataset/3/19_5.odb,Step-1,Increment      1: Step Time =    1.000,"PART-1-1",            90,           15.,            5.,            0.,NA,NA,"",       1.18551,      -1.16173,   236.242E-03,   647.615E-06
C:/temp/dataset/3/19_5.odb,Step-1,Increment      1: Step Time =    1.000,"PART-1-1",            91,           15.,           2.5,            0.,NA,NA,"",       1.02061,  -992.315E-03,   238.650E-03,   2.51349E-03
C:/temp/dataset/3/19_5.odb,Step-1,Increment      1: Step Time =    1.000,"PART-1-1",            92,           15.,          12.5,            0.,NA,NA,"",       1.67812,      -1.66370,   219.494E-03,   84.5674E-06
C:/temp/dataset/3/19_5.odb,Step-1,Increment      1: Step Time =    1.000,"PART-1-1",            93,           15.,           10.,            0.,NA,NA,"",       1.51414,      -1.49729,   225.307E-03,   147.036E-06
C:/temp/dataset/3/19_5.odb,Step-1,Increment      1: Step Time =    1.000,"PART-1-1",            94,           15.,           20.,            0.,NA,NA,"",       2.17153,      -2.16205,   202.732E-03,   1.27870E-06
C:/temp/dataset/3/19_5.odb,Step-1,Increment      1: Step Time =    1.000,"PART-1-1",            95,           15.,          17.5,            0.,NA,NA,"",       2.00679,      -1.99595,   208.265E-03,   9.18061E-06
C:/temp/dataset/3/19_5.odb,Step-1,Increment      1: Step Time =    1.000,"PART-1-1",            96,           15.,          27.5,            0.,NA,NA,"",       2.66687,      -2.66037,   186.161E-03,   139.757E-09
C:/temp/dataset/3/19_5.odb,Step-1,Increment      1: Step Time =    1.000,"PART-1-1",            97,           15.,           25.,            0.,NA,NA,"",       2.50161,      -2.49426,   191.685E-03,   461.993E-09
C:/temp/dataset/3/19_5.odb,Step-1,Increment      1: Step Time =    1.000,"PART-1-1",            98,           10.,           30.,            0.,NA,NA,"",       2.81951,      -2.81543,  -151.583E-03,   324.922E-09
C:/temp/dataset/3/19_5.odb,Step-1,Increment      1: Step Time =    1.000,"PART-1-1",            99,          12.5,           30.,            0.,NA,NA,"",       2.82099,      -2.82096,   14.5266E-03,   119.631E-09
C:/temp/dataset/3/19_5.odb,Step-1,Increment      1: Step Time =    1.000,"PART-1-1",           100,           2.5,           30.,            0.,NA,NA,"",       2.87333,      -2.79886,  -649.918E-03,   156.623E-09
C:/temp/dataset/3/19_5.odb,Step-1,Increment      1: Step Time =    1.000,"PART-1-1",           101,            5.,           30.,            0.,NA,NA,"",       2.84581,      -2.80438,  -483.806E-03,   286.985E-09
C:/temp/dataset/3/19_5.odb,Step-1,Increment      1: Step Time =    1.000,"PART-1-1",           102,           -5.,           30.,            0.,NA,NA,"",       3.00992,      -2.78228,      -1.14826,   23.6108E-09
C:/temp/dataset/3/19_5.odb,Step-1,Increment      1: Step Time =    1.000,"PART-1-1",           103,          -2.5,           30.,            0.,NA,NA,"",       2.95575,      -2.78781,  -982.143E-03,   34.9286E-09
C:/temp/dataset/3/19_5.odb,Step-1,Increment      1: Step Time =    1.000,"PART-1-1",           104,         -12.5,           30.,            0.,NA,NA,"",       3.21876,      -2.76571,      -1.64659,   11.2935E-09
C:/temp/dataset/3/19_5.odb,Step-1,Increment      1: Step Time =    1.000,"PART-1-1",           105,          -10.,           30.,            0.,NA,NA,"",       3.14191,      -2.77124,      -1.48048,   14.2217E-09
C:/temp/dataset/3/19_5.odb,Step-1,Increment      1: Step Time =    1.000,"PART-1-1",           106,          -15.,          27.5,            0.,NA,NA,"",       3.16151,      -2.59407,      -1.80718,   6.31879E-09
C:/temp/dataset/3/19_5.odb,Step-1,Increment      1: Step Time =    1.000,"PART-1-1",           107,      -12.5013,       25.0052,            0.,NA,NA,"",       2.93238,      -2.43383,      -1.63564,   9.34476E-09
C:/temp/dataset/3/19_5.odb,Step-1,Increment      1: Step Time =    1.000,"PART-1-1",           108,      -10.0028,       27.5014,            0.,NA,NA,"",       2.99386,      -2.60521,      -1.47514,   9.90419E-09
C:/temp/dataset/3/19_5.odb,Step-1,Increment      1: Step Time =    1.000,"PART-1-1",           109,      -2.49865,       22.5268,            0.,NA,NA,"",       2.48639,      -2.29126,  -965.538E-03,   24.2785E-09
C:/temp/dataset/3/19_5.odb,Step-1,Increment      1: Step Time =    1.000,"PART-1-1",           110,      -2.51000,       27.5279,            0.,NA,NA,"",       2.79966,      -2.62353,  -977.344E-03,   27.0740E-09
C:/temp/dataset/3/19_5.odb,Step-1,Increment      1: Step Time =    1.000,"PART-1-1",           111,       12.3864,       22.5464,            0.,NA,NA,"",       2.32557,      -2.32546,   23.4475E-03,   792.765E-09
C:/temp/dataset/3/19_5.odb,Step-1,Increment      1: Step Time =    1.000,"PART-1-1",           112,       7.35369,       17.5509,            0.,NA,NA,"",       2.00495,      -1.98239,  -299.904E-03,   14.1692E-06
C:/temp/dataset/3/19_5.odb,Step-1,Increment      1: Step Time =    1.000,"PART-1-1",           113,       12.3201,       14.9467,            0.,NA,NA,"",       1.82075,      -1.82040,   35.8110E-03,   36.3893E-06
C:/temp/dataset/3/19_5.odb,Step-1,Increment      1: Step Time =    1.000,"PART-1-1",           114,       13.2599,       7.39194,            0.,NA,NA,"",       1.32400,      -1.31898,   115.112E-03,   413.802E-06
C:/temp/dataset/3/19_5.odb,Step-1,Increment      1: Step Time =    1.000,"PART-1-1",           115,       7.60504,      -5.98204,            0.,NA,NA,"",   471.563E-03,  -435.575E-03,  -180.682E-03,   7.24367E-03
C:/temp/dataset/3/19_5.odb,Step-1,Increment      1: Step Time =    1.000,"PART-1-1",           116,       7.71062,      -13.7665,            0.,NA,NA,"",   161.104E-03,  -127.749E-03,  -98.1565E-03,   10.5472E-03
C:/temp/dataset/3/19_5.odb,Step-1,Increment      1: Step Time =    1.000,"PART-1-1",           117,       11.7208,      -22.4938,            0.,NA,NA,"",   11.2583E-03,   10.7696E-03,   3.28089E-03,   4.16977E-03
C:/temp/dataset/3/19_5.odb,Step-1,Increment      1: Step Time =    1.000,"PART-1-1",           118,       2.59328,       2.74806,            0.,NA,NA,"",       1.16847,      -1.00215,  -600.854E-03,   7.01768E-03
C:/temp/dataset/3/19_5.odb,Step-1,Increment      1: Step Time =    1.000,"PART-1-1",           119,      -1.32361,      -2.98462,            0.,NA,NA,"",       1.04963,  -596.134E-03,  -863.910E-03,   638.461E-06
C:/temp/dataset/3/19_5.odb,Step-1,Increment      1: Step Time =    1.000,"PART-1-1",           120,      -6.00563,       3.11026,            0.,NA,NA,"",       1.58495,      -1.01747,      -1.21524,   272.177E-06
C:/temp/dataset/3/19_5.odb,Step-1,Increment      1: Step Time =    1.000,"PART-1-1",           121,      -10.4102,       2.53863,            0.,NA,NA,"",       1.80680,  -965.757E-03,      -1.52704,   79.3520E-06
C:/temp/dataset/3/19_5.odb,Step-1,Increment      1: Step Time =    1.000,"PART-1-1",           122,      -12.6184,  -43.2983E-03,            0.,NA,NA,"",       1.84866,  -776.637E-03,      -1.67761,   28.3587E-06
C:/temp/dataset/3/19_5.odb,Step-1,Increment      1: Step Time =    1.000,"PART-1-1",           123,      -3.88272,       3.23189,            0.,NA,NA,"",       1.48282,      -1.03140,      -1.06534,   495.843E-06
C:/temp/dataset/3/19_5.odb,Step-1,Increment      1: Step Time =    1.000,"PART-1-1",           124,       2.98144,      -22.7363,            0.,NA,NA,"",   20.4635E-03,  -6.81699E-03,  -19.2946E-03,   6.76120E-03
C:/temp/dataset/3/19_5.odb,Step-1,Increment      1: Step Time =    1.000,"PART-1-1",           125,      -2.42987,      -22.6294,            0.,NA,NA,"",   4.69992E-03,  -4.44208E-03,  -1.53531E-03,   405.675E-06
C:/temp/dataset/3/19_5.odb,Step-1,Increment      1: Step Time =    1.000,"PART-1-1",           126,      -9.97348,      -22.5672,            0.,NA,NA,"",   3.31237E-03,  -3.28293E-03,   440.679E-06,   76.3002E-06
C:/temp/dataset/3/19_5.odb,Step-1,Increment      1: Step Time =    1.000,"PART-1-1",           127,      -12.4895,      -25.0402,            0.,NA,NA,"",   2.54076E-03,  -2.53870E-03,  -102.257E-06,   103.446E-06
C:/temp/dataset/3/19_5.odb,Step-1,Increment      1: Step Time =    1.000,"PART-1-1",           128,       12.8561,      -14.2595,            0.,NA,NA,"",   122.374E-03,  -111.567E-03,   50.2813E-03,   5.89657E-03
C:/temp/dataset/3/19_5.odb,Step-1,Increment      1: Step Time =    1.000,"PART-1-1",           129,       12.7281,      -7.33650,            0.,NA,NA,"",   383.238E-03,  -375.465E-03,   76.7949E-03,   5.75671E-03
C:/temp/dataset/3/19_5.odb,Step-1,Increment      1: Step Time =    1.000,"PART-1-1",           130,       12.6427,  -96.8002E-03,            0.,NA,NA,"",   813.841E-03,  -809.227E-03,   86.5356E-03,   4.39067E-03
C:/temp/dataset/3/19_5.odb,Step-1,Increment      1: Step Time =    1.000,"PART-1-1",           131,       7.13014,       10.3328,            0.,NA,NA,"",       1.53196,      -1.50251,  -298.933E-03,   290.409E-06
C:/temp/dataset/3/19_5.odb,Step-1,Increment      1: Step Time =    1.000,"PART-1-1",           132,       4.95005,       27.5805,            0.,NA,NA,"",       2.68705,      -2.64351,  -481.777E-03,   143.989E-09
C:/temp/dataset/3/19_5.odb,Step-1,Increment      1: Step Time =    1.000,"PART-1-1",           133,      -4.99957,       22.5148,            0.,NA,NA,"",       2.54983,      -2.28493,      -1.13168,   10.8269E-09
C:/temp/dataset/3/19_5.odb,Step-1,Increment      1: Step Time =    1.000,"PART-1-1",           134,      -7.50186,       22.5094,            0.,NA,NA,"",       2.62272,      -2.27904,      -1.29794,   8.61297E-09
C:/temp/dataset/3/19_5.odb,Step-1,Increment      1: Step Time =    1.000,"PART-1-1",           135,       4.93744,       22.5898,            0.,NA,NA,"",       2.35949,      -2.31188,  -471.587E-03,   442.343E-09
C:/temp/dataset/3/19_5.odb,Step-1,Increment      1: Step Time =    1.000,"PART-1-1",           136,       2.47758,       22.5593,            0.,NA,NA,"",       2.39029,      -2.30441,  -634.964E-03,   268.938E-09
C:/temp/dataset/3/19_5.odb,Step-1,Increment      1: Step Time =    1.000,"PART-1-1",           137,  -4.46696E-03,       22.5388,            0.,NA,NA,"",       2.43281,      -2.29756,  -799.839E-03,   74.9223E-09
C:/temp/dataset/3/19_5.odb,Step-1,Increment      1: Step Time =    1.000,"PART-1-1",           138,       7.20686,       12.6699,            0.,NA,NA,"",       1.68447,      -1.65774,  -298.861E-03,   58.9566E-06
C:/temp/dataset/3/19_5.odb,Step-1,Increment      1: Step Time =    1.000,"PART-1-1",           139,       7.30679,       15.0771,            0.,NA,NA,"",       1.84209,      -1.81789,  -297.567E-03,   36.2187E-06
C:/temp/dataset/3/19_5.odb,Step-1,Increment      1: Step Time =    1.000,"PART-1-1",           140,       7.52839,       5.66323,            0.,NA,NA,"",       1.22347,      -1.19546,  -260.257E-03,   2.94244E-03
C:/temp/dataset/3/19_5.odb,Step-1,Increment      1: Step Time =    1.000,"PART-1-1",           141,       7.20823,       7.96221,            0.,NA,NA,"",       1.37649,      -1.34602,  -288.009E-03,   1.28069E-03
C:/temp/dataset/3/19_5.odb,Step-1,Increment      1: Step Time =    1.000,"PART-1-1",           142,      -1.77433,       3.17490,            0.,NA,NA,"",       1.38161,      -1.03171,  -918.924E-03,   2.62736E-03
C:/temp/dataset/3/19_5.odb,Step-1,Increment      1: Step Time =    1.000,"PART-1-1",           143,   347.975E-03,       3.01142,            0.,NA,NA,"",       1.27782,      -1.02105,  -768.292E-03,   5.73846E-03
C:/temp/dataset/3/19_5.odb,Step-1,Increment      1: Step Time =    1.000,"PART-1-1",           144,      -8.17775,       2.85153,            0.,NA,NA,"",       1.69161,  -993.664E-03,      -1.36901,   177.428E-06
C:/temp/dataset/3/19_5.odb,Step-1,Increment      1: Step Time =    1.000,"PART-1-1",           145,      -8.45397,      -3.03463,            0.,NA,NA,"",       1.48948,  -574.463E-03,      -1.37424,   140.327E-06
C:/temp/dataset/3/19_5.odb,Step-1,Increment      1: Step Time =    1.000,"PART-1-1",           146,      -12.6978,       2.46856,            0.,NA,NA,"",       1.94076,  -954.969E-03,      -1.68955,   27.3752E-06
C:/temp/dataset/3/19_5.odb,Step-1,Increment      1: Step Time =    1.000,"PART-1-1",           147,      -10.5225,      -2.72745,            0.,NA,NA,"",       1.63271,  -591.103E-03,      -1.52195,   71.9826E-06
C:/temp/dataset/3/19_5.odb,Step-1,Increment      1: Step Time =    1.000,"PART-1-1",           148,      -12.7265,      -2.55241,            0.,NA,NA,"",       1.78230,  -597.971E-03,      -1.67899,   26.3222E-06
C:/temp/dataset/3/19_5.odb,Step-1,Increment      1: Step Time =    1.000,"PART-1-1",           149,      -3.80700,      -2.48494,            0.,NA,NA,"",       1.21772,  -625.567E-03,      -1.04475,   158.091E-06
C:/temp/dataset/3/19_5.odb,Step-1,Increment      1: Step Time =    1.000,"PART-1-1",           150,      -6.26959,      -2.94549,            0.,NA,NA,"",       1.35287,  -586.306E-03,      -1.21922,   243.971E-06
C:/temp/dataset/3/19_5.odb,Step-1,Increment      1: Step Time =    1.000,"PART-1-1",           151,       2.97297,      -3.34056,            0.,NA,NA,"",   795.459E-03,  -585.590E-03,  -538.368E-03,   8.37429E-03
C:/temp/dataset/3/19_5.odb,Step-1,Increment      1: Step Time =    1.000,"PART-1-1",           152,   836.982E-03,      -3.21922,            0.,NA,NA,"",   915.391E-03,  -586.273E-03,  -703.011E-03,   2.62453E-03
C:/temp/dataset/3/19_5.odb,Step-1,Increment      1: Step Time =    1.000,"PART-1-1",           153,       7.27849,      -10.7647,            0.,NA,NA,"",   270.388E-03,  -228.023E-03,  -145.311E-03,   12.3586E-03
C:/temp/dataset/3/19_5.odb,Step-1,Increment      1: Step Time =    1.000,"PART-1-1",           154,       7.20650,      -8.25133,            0.,NA,NA,"",   373.861E-03,  -329.631E-03,  -176.397E-03,   13.0647E-03
C:/temp/dataset/3/19_5.odb,Step-1,Increment      1: Step Time =    1.000,"PART-1-1",           155,       7.07274,      -17.3233,            0.,NA,NA,"",   89.5421E-03,  -45.6732E-03,  -77.0178E-03,   12.5971E-03
C:/temp/dataset/3/19_5.odb,Step-1,Increment      1: Step Time =    1.000,"PART-1-1",           156,       6.55788,      -15.2577,            0.,NA,NA,"",   146.347E-03,  -93.8417E-03,  -112.300E-03,   14.9979E-03
C:/temp/dataset/3/19_5.odb,Step-1,Increment      1: Step Time =    1.000,"PART-1-1",           157,      -7.46685,      -22.5818,            0.,NA,NA,"",   3.54420E-03,  -3.47890E-03,   677.204E-06,   151.741E-06
C:/temp/dataset/3/19_5.odb,Step-1,Increment      1: Step Time =    1.000,"PART-1-1",           158,      -4.95694,      -22.5955,            0.,NA,NA,"",   3.87771E-03,  -3.86715E-03,   285.996E-06,   253.179E-06
C:/temp/dataset/3/19_5.odb,Step-1,Increment      1: Step Time =    1.000,"PART-1-1",           159,   146.162E-03,      -22.6598,            0.,NA,NA,"",   9.07447E-03,  -6.07437E-03,  -6.74151E-03,   1.75188E-03
C:/temp/dataset/3/19_5.odb,Step-1,Increment      1: Step Time =    1.000,"PART-1-1",           160,      -12.4860,      -22.5306,            0.,NA,NA,"",   3.20716E-03,  -3.20633E-03,  -72.8256E-06,   39.3283E-06
C:/temp/dataset/3/19_5.odb,Step-1,Increment      1: Step Time =    1.000,"PART-1-1",           161,       9.96020,      -27.7814,            0.,NA,NA,"",   8.46283E-03,   8.05836E-03,  -2.58502E-03,   3.27667E-03
C:/temp/dataset/3/19_5.odb,Step-1,Increment      1: Step Time =    1.000,"PART-1-1",           162,       7.44077,      -27.8946,            0.,NA,NA,"",   7.25085E-03,   4.61298E-03,  -5.59422E-03,   4.13526E-03
C:/temp/dataset/3/19_5.odb,Step-1,Increment      1: Step Time =    1.000,"PART-1-1",           163,       4.93217,      -27.8625,            0.,NA,NA,"",   6.34953E-03,   131.431E-06,  -6.34816E-03,   4.18059E-03
C:/temp/dataset/3/19_5.odb,Step-1,Increment      1: Step Time =    1.000,"PART-1-1",           164,       2.47767,      -27.7470,            0.,NA,NA,"",   5.88915E-03,  -3.18681E-03,  -4.95241E-03,   3.18356E-03
C:/temp/dataset/3/19_5.odb,Step-1,Increment      1: Step Time =    1.000,"PART-1-1",           165,   19.5837E-03,      -27.6625,            0.,NA,NA,"",   5.09960E-03,  -4.30241E-03,  -2.73774E-03,   2.03783E-03
C:/temp/dataset/3/19_5.odb,Step-1,Increment      1: Step Time =    1.000,"PART-1-1",           166,      -2.46955,      -27.6154,            0.,NA,NA,"",   4.08256E-03,  -3.92662E-03,  -1.11756E-03,   1.27660E-03
C:/temp/dataset/3/19_5.odb,Step-1,Increment      1: Step Time =    1.000,"PART-1-1",           167,      -4.97450,      -27.5844,            0.,NA,NA,"",   3.04503E-03,  -3.03254E-03,  -275.587E-06,   849.006E-06
C:/temp/dataset/3/19_5.odb,Step-1,Increment      1: Step Time =    1.000,"PART-1-1",           168,      -7.48283,      -27.5594,            0.,NA,NA,"",   2.22531E-03,  -2.22521E-03,   21.4374E-06,   587.990E-06
C:/temp/dataset/3/19_5.odb,Step-1,Increment      1: Step Time =    1.000,"PART-1-1",           169,       12.2865,      -25.1793,            0.,NA,NA,"",   13.9161E-03,   13.4033E-03,   3.74278E-03,   3.63545E-03
C:/temp/dataset/3/19_5.odb,Step-1,Increment      1: Step Time =    1.000,"PART-1-1",           170,       11.6753,      -16.4340,            0.,NA,NA,"",   58.6990E-03,  -57.0915E-03,   13.6428E-03,   2.58143E-03
C:/temp/dataset/3/19_5.odb,Step-1,Increment      1: Step Time =    1.000,"PART-1-1",           171,       11.9685,      -19.5802,            0.,NA,NA,"",   14.7142E-03,  -8.89716E-03,   11.7196E-03,   4.07587E-03
C:/temp/dataset/3/19_5.odb,Step-1,Increment      1: Step Time =    1.000,"PART-1-1",           172,       13.3291,      -9.93034,            0.,NA,NA,"",   275.929E-03,  -260.750E-03,   90.2540E-03,   7.62383E-03
C:/temp/dataset/3/19_5.odb,Step-1,Increment      1: Step Time =    1.000,"PART-1-1",           173,       13.4212,      -12.1607,            0.,NA,NA,"",   194.801E-03,  -177.775E-03,   79.6448E-03,   7.91266E-03
C:/temp/dataset/3/19_5.odb,Step-1,Increment      1: Step Time =    1.000,"PART-1-1",           174,       12.9633,      -2.52247,            0.,NA,NA,"",   659.486E-03,  -651.231E-03,   104.019E-03,   5.45786E-03
C:/temp/dataset/3/19_5.odb,Step-1,Increment      1: Step Time =    1.000,"PART-1-1",           175,       13.1247,      -4.84738,            0.,NA,NA,"",   521.606E-03,  -510.600E-03,   106.588E-03,   6.51738E-03
C:/temp/dataset/3/19_5.odb,Step-1,Increment      1: Step Time =    1.000,"PART-1-1",           176,       13.1131,       5.12757,            0.,NA,NA,"",       1.17090,      -1.16572,   110.094E-03,   1.24908E-03
C:/temp/dataset/3/19_5.odb,Step-1,Increment      1: Step Time =    1.000,"PART-1-1",           177,       12.1418,       2.60140,            0.,NA,NA,"",   992.815E-03,  -991.468E-03,   51.6981E-03,   3.07587E-03
C:/temp/dataset/3/19_5.odb,Step-1,Increment      1: Step Time =    1.000,"PART-1-1",           178,       12.1760,       12.1629,            0.,NA,NA,"",       1.63540,      -1.63508,   32.3487E-03,   44.3513E-06
C:/temp/dataset/3/19_5.odb,Step-1,Increment      1: Step Time =    1.000,"PART-1-1",           179,       13.0236,       9.64002,            0.,NA,NA,"",       1.47199,      -1.46896,   94.3667E-03,   71.1832E-06
C:/temp/dataset/3/19_5.odb,Step-1,Increment      1: Step Time =    1.000,"PART-1-1",           180,       12.3784,       20.0377,            0.,NA,NA,"",       2.15894,      -2.15876,   28.4584E-03,   4.44301E-06
C:/temp/dataset/3/19_5.odb,Step-1,Increment      1: Step Time =    1.000,"PART-1-1",           181,       12.3660,       17.5135,            0.,NA,NA,"",       1.99130,      -1.99103,   33.2069E-03,   14.8932E-06
C:/temp/dataset/3/19_5.odb,Step-1,Increment      1: Step Time =    1.000,"PART-1-1",           182,       12.4264,       25.0333,            0.,NA,NA,"",       2.49087,      -2.49078,   20.6108E-03,   214.606E-09
C:/temp/dataset/3/19_5.odb,Step-1,Increment      1: Step Time =    1.000,"PART-1-1",           183,       7.43491,       27.5684,            0.,NA,NA,"",       2.66706,      -2.64820,  -316.645E-03,   109.057E-09
C:/temp/dataset/3/19_5.odb,Step-1,Increment      1: Step Time =    1.000,"PART-1-1",           184,  -17.4965E-03,       27.5503,            0.,NA,NA,"",       2.75293,      -2.63053,  -811.779E-03,   62.2275E-09
C:/temp/dataset/3/19_5.odb,Step-1,Increment      1: Step Time =    1.000,"PART-1-1",           185,       2.47067,       27.5656,            0.,NA,NA,"",       2.71513,      -2.63704,  -646.487E-03,   127.083E-09
C:/temp/dataset/3/19_5.odb,Step-1,Increment      1: Step Time =    1.000,"PART-1-1",           186,      -7.50286,       27.5043,            0.,NA,NA,"",       2.92071,      -2.61093,      -1.30904,   12.6254E-09
C:/temp/dataset/3/19_5.odb,Step-1,Increment      1: Step Time =    1.000,"PART-1-1",           187,      -5.00635,       27.5119,            0.,NA,NA,"",       2.85574,      -2.61695,      -1.14318,   16.3693E-09
C:/temp/dataset/3/19_5.odb,Step-1,Increment      1: Step Time =    1.000,"PART-1-1",           188,      -12.5019,       27.5019,            0.,NA,NA,"",       3.07442,      -2.59972,      -1.64120,   7.57972E-09
C:/temp/dataset/3/19_5.odb,Step-1,Increment      1: Step Time =    1.000,"PART-1-1",           189,      -12.5001,       22.5034,            0.,NA,NA,"",       2.79267,      -2.26760,      -1.63003,   6.37866E-09
C:/temp/dataset/3/19_5.odb,Step-1,Increment      1: Step Time =    1.000,"PART-1-1",           190,      -5.00429,       25.0191,            0.,NA,NA,"",       2.70240,      -2.45132,      -1.13753,   10.4373E-09
C:/temp/dataset/3/19_5.odb,Step-1,Increment      1: Step Time =    1.000,"PART-1-1",           191,  -15.9173E-03,       25.0642,            0.,NA,NA,"",       2.59381,      -2.46534,  -806.180E-03,   70.4970E-09
C:/temp/dataset/3/19_5.odb,Step-1,Increment      1: Step Time =    1.000,"PART-1-1",           192,       9.74355,       15.0604,            0.,NA,NA,"",       1.82726,      -1.82221,  -135.681E-03,   38.7680E-06
C:/temp/dataset/3/19_5.odb,Step-1,Increment      1: Step Time =    1.000,"PART-1-1",           193,       9.51986,       12.6989,            0.,NA,NA,"",       1.67114,      -1.66480,  -145.393E-03,   57.5621E-06
C:/temp/dataset/3/19_5.odb,Step-1,Increment      1: Step Time =    1.000,"PART-1-1",           194,       12.1898,      -11.7554,            0.,NA,NA,"",   191.740E-03,  -187.696E-03,   39.1733E-03,   3.86461E-03
C:/temp/dataset/3/19_5.odb,Step-1,Increment      1: Step Time =    1.000,"PART-1-1",           195,       9.78251,      -13.4248,            0.,NA,NA,"",   137.785E-03,  -132.212E-03,  -38.7901E-03,   3.92457E-03
C:/temp/dataset/3/19_5.odb,Step-1,Increment      1: Step Time =    1.000,"PART-1-1",           196,       7.24032,      -19.5057,            0.,NA,NA,"",   54.4844E-03,  -10.0715E-03,  -53.5454E-03,   7.88880E-03
C:/temp/dataset/3/19_5.odb,Step-1,Increment      1: Step Time =    1.000,"PART-1-1",           197,      -10.0066,  -139.817E-03,            0.,NA,NA,"",       1.68172,  -776.492E-03,      -1.49172,   99.7413E-06
C:/temp/dataset/3/19_5.odb,Step-1,Increment      1: Step Time =    1.000,"PART-1-1",           198,      -8.39380,      -1.43672,            0.,NA,NA,"",       1.53677,  -688.432E-03,      -1.37395,   157.258E-06
C:/temp/dataset/3/19_5.odb,Step-1,Increment      1: Step Time =    1.000,"PART-1-1",           199,      -5.07121,  -530.035E-03,            0.,NA,NA,"",       1.37119,  -761.929E-03,      -1.14001,   248.129E-06
C:/temp/dataset/3/19_5.odb,Step-1,Increment      1: Step Time =    1.000,"PART-1-1",           200,      -12.5003,      -27.5198,            0.,NA,NA,"",   1.43146E-03,  -1.42481E-03,  -137.755E-06,   341.437E-06
C:/temp/dataset/3/19_5.odb,Step-1,Increment      1: Step Time =    1.000,"PART-1-1",           201,       8.97180,      -8.86122,            0.,NA,NA,"",   312.494E-03,  -298.360E-03,  -92.9199E-03,   5.93067E-03
C:/temp/dataset/3/19_5.odb,Step-1,Increment      1: Step Time =    1.000,"PART-1-1",           202,      -2.50561,       25.0360,            0.,NA,NA,"",       2.64301,      -2.45796,  -971.545E-03,   25.4777E-09
C:/temp/dataset/3/19_5.odb,Step-1,Increment      1: Step Time =    1.000,"PART-1-1",           203,      -7.50383,       25.0106,            0.,NA,NA,"",       2.77101,      -2.44523,      -1.30360,   8.90920E-09
C:/temp/dataset/3/19_5.odb,Step-1,Increment      1: Step Time =    1.000,"PART-1-1",           204,       2.46362,       25.0850,            0.,NA,NA,"",       2.55407,      -2.47220,  -641.474E-03,   175.211E-09
C:/temp/dataset/3/19_5.odb,Step-1,Increment      1: Step Time =    1.000,"PART-1-1",           205,       9.17638,       10.5785,            0.,NA,NA,"",       1.53201,      -1.52324,  -163.620E-03,   99.3191E-06
C:/temp/dataset/3/19_5.odb,Step-1,Increment      1: Step Time =    1.000,"PART-1-1",           206,       9.65111,       6.46520,            0.,NA,NA,"",       1.25652,      -1.25061,  -121.716E-03,   1.37437E-03
C:/temp/dataset/3/19_5.odb,Step-1,Increment      1: Step Time =    1.000,"PART-1-1",           207,      -1.99278,       1.34592,            0.,NA,NA,"",       1.29360,  -902.702E-03,  -926.567E-03,   1.53557E-03
C:/temp/dataset/3/19_5.odb,Step-1,Increment      1: Step Time =    1.000,"PART-1-1",           208,      -5.69490,       1.29843,            0.,NA,NA,"",       1.48516,  -890.185E-03,      -1.18881,   286.851E-06
C:/temp/dataset/3/19_5.odb,Step-1,Increment      1: Step Time =    1.000,"PART-1-1",           209,       1.92780,   665.778E-03,            0.,NA,NA,"",       1.06954,  -859.471E-03,  -636.566E-03,   6.04928E-03
C:/temp/dataset/3/19_5.odb,Step-1,Increment      1: Step Time =    1.000,"PART-1-1",           210,       1.26043,      -1.37778,            0.,NA,NA,"",   986.608E-03,  -718.117E-03,  -676.538E-03,   4.07221E-03
C:/temp/dataset/3/19_5.odb,Step-1,Increment      1: Step Time =    1.000,"PART-1-1",           211,       9.14691,      -16.8280,            0.,NA,NA,"",   62.7603E-03,  -48.6176E-03,  -39.6886E-03,   5.01471E-03
C:/temp/dataset/3/19_5.odb,Step-1,Increment      1: Step Time =    1.000,"PART-1-1",           212,   79.9954E-03,      -25.2148,            0.,NA,NA,"",   8.41553E-03,  -6.42095E-03,  -5.43991E-03,   2.00331E-03
C:/temp/dataset/3/19_5.odb,Step-1,Increment      1: Step Time =    1.000,"PART-1-1",           213,      -9.97865,      -25.0679,            0.,NA,NA,"",   2.80173E-03,  -2.78852E-03,   271.750E-06,   227.457E-06
C:/temp/dataset/3/19_5.odb,Step-1,Increment      1: Step Time =    1.000,"PART-1-1",           214,       12.4671,      -27.6040,            0.,NA,NA,"",   8.91764E-03,   8.78094E-03,   1.55546E-03,   3.28496E-03
C:/temp/dataset/3/19_5.odb,Step-1,Increment      1: Step Time =    1.000,"PART-1-1",           215,       9.82463,      -25.6838,            0.,NA,NA,"",   13.7124E-03,   11.9631E-03,  -6.70181E-03,   4.21059E-03
C:/temp/dataset/3/19_5.odb,Step-1,Increment      1: Step Time =    1.000,"PART-1-1",           216,       2.56344,      -25.3828,            0.,NA,NA,"",   12.8070E-03,  -5.56595E-03,  -11.5342E-03,   3.99377E-03
C:/temp/dataset/3/19_5.odb,Step-1,Increment      1: Step Time =    1.000,"PART-1-1",           217,      -2.44121,      -25.1518,            0.,NA,NA,"",   5.70303E-03,  -5.46669E-03,  -1.62479E-03,   1.03971E-03
C:/temp/dataset/3/19_5.odb,Step-1,Increment      1: Step Time =    1.000,"PART-1-1",           218,      -4.95889,      -25.1139,            0.,NA,NA,"",   4.29045E-03,  -4.29010E-03,  -54.2621E-06,   587.508E-06
C:/temp/dataset/3/19_5.odb,Step-1,Increment      1: Step Time =    1.000,"PART-1-1",           219,       10.3279,  -771.646E-03,            0.,NA,NA,"",   761.456E-03,  -759.653E-03,  -52.3760E-03,   5.01055E-03
C:/temp/dataset/3/19_5.odb,Step-1,Increment      1: Step Time =    1.000,"PART-1-1",           220,       10.4049,       4.48083,            0.,NA,NA,"",       1.11945,      -1.11752,  -65.6735E-03,   2.44247E-03
C:/temp/dataset/3/19_5.odb,Step-1,Increment      1: Step Time =    1.000,"PART-1-1",           221,       9.80969,       17.5478,            0.,NA,NA,"",       1.99233,      -1.98763,  -136.732E-03,   16.2387E-06
C:/temp/dataset/3/19_5.odb,Step-1,Increment      1: Step Time =    1.000,"PART-1-1",           222,       9.88106,       25.0797,            0.,NA,NA,"",       2.49268,      -2.48824,  -148.613E-03,   232.588E-09
C:/temp/dataset/3/19_5.odb,Step-1,Increment      1: Step Time =    1.000,"PART-1-1",           223,       9.94975,       27.5346,            0.,NA,NA,"",       2.65572,      -2.65151,  -149.474E-03,   179.531E-09
C:/temp/dataset/3/19_5.odb,Step-1,Increment      1: Step Time =    1.000,"PART-1-1",           224,       7.36779,       20.0596,            0.,NA,NA,"",       2.17059,      -2.14912,  -304.511E-03,   3.92304E-06
C:/temp/dataset/3/19_5.odb,Step-1,Increment      1: Step Time =    1.000,"PART-1-1",           225,  -693.206E-03,      -1.01900,            0.,NA,NA,"",       1.10613,  -738.393E-03,  -823.593E-03,   1.99279E-03
C:/temp/dataset/3/19_5.odb,Step-1,Increment      1: Step Time =    1.000,"PART-1-1",           226,      -7.47194,      -25.0831,            0.,NA,NA,"",   3.38469E-03,  -3.36402E-03,   373.439E-06,   385.740E-06
C:/temp/dataset/3/19_5.odb,Step-1,Increment      1: Step Time =    1.000,"PART-1-1",           227,       5.28089,       2.25097,            0.,NA,NA,"",       1.04544,  -966.265E-03,  -399.096E-03,   4.24857E-03
C:/temp/dataset/3/19_5.odb,Step-1,Increment      1: Step Time =    1.000,"PART-1-1",           228,       9.26575,       8.45073,            0.,NA,NA,"",       1.39070,      -1.38228,  -152.783E-03,   594.089E-06
C:/temp/dataset/3/19_5.odb,Step-1,Increment      1: Step Time =    1.000,"PART-1-1",           229,  -81.3472E-03,       1.02952,            0.,NA,NA,"",       1.18322,  -883.097E-03,  -787.494E-03,   3.62455E-03
C:/temp/dataset/3/19_5.odb,Step-1,Increment      1: Step Time =    1.000,"PART-1-1",           230,      -7.67687,   831.326E-03,            0.,NA,NA,"",       1.57804,  -851.659E-03,      -1.32849,   209.432E-06
C:/temp/dataset/3/19_5.odb,Step-1,Increment      1: Step Time =    1.000,"PART-1-1",           231,      -2.54090,  -531.417E-03,            0.,NA,NA,"",       1.22919,  -768.528E-03,  -959.306E-03,   733.765E-06
C:/temp/dataset/3/19_5.odb,Step-1,Increment      1: Step Time =    1.000,"PART-1-1",           232,      -3.83997,       1.55066,            0.,NA,NA,"",       1.39745,  -912.992E-03,      -1.05798,   368.308E-06
C:/temp/dataset/3/19_5.odb,Step-1,Increment      1: Step Time =    1.000,"PART-1-1",           233,      -6.84494,  -996.203E-03,            0.,NA,NA,"",       1.45747,  -723.904E-03,      -1.26498,   237.210E-06
C:/temp/dataset/3/19_5.odb,Step-1,Increment      1: Step Time =    1.000,"PART-1-1",           234,       5.51335,      -3.03354,            0.,NA,NA,"",   699.921E-03,  -611.964E-03,  -339.691E-03,   11.9042E-03
C:/temp/dataset/3/19_5.odb,Step-1,Increment      1: Step Time =    1.000,"PART-1-1",           235,       9.62476,      -7.14735,            0.,NA,NA,"",   383.655E-03,  -376.976E-03,  -71.2727E-03,   3.46443E-03
C:/temp/dataset/3/19_5.odb,Step-1,Increment      1: Step Time =    1.000,"PART-1-1",           236,       7.38903,      -25.9371,            0.,NA,NA,"",   14.7983E-03,   6.55895E-03,  -13.2654E-03,   5.45758E-03
C:/temp/dataset/3/19_5.odb,Step-1,Increment      1: Step Time =    1.000,"PART-1-1",           237,       4.96373,      -25.7856,            0.,NA,NA,"",   15.2126E-03,  -421.814E-06,  -15.2068E-03,   5.57923E-03
C:/temp/dataset/3/19_5.odb,Step-1,Increment      1: Step Time =    1.000,"PART-1-1",           238,       9.37191,      -21.3805,            0.,NA,NA,"",   21.9993E-03,   6.36294E-03,  -21.0590E-03,   5.08453E-03
C:/temp/dataset/3/19_5.odb,Step-1,Increment      1: Step Time =    1.000,"PART-1-1",           239,       9.53380,      -19.3691,            0.,NA,NA,"",   25.6777E-03,  -9.06876E-03,  -24.0229E-03,   3.99388E-03
C:/temp/dataset/3/19_5.odb,Step-1,Increment      1: Step Time =    1.000,"PART-1-1",           240,       10.5518,      -5.76730,            0.,NA,NA,"",   451.060E-03,  -450.164E-03,  -28.4169E-03,   2.57111E-03
C:/temp/dataset/3/19_5.odb,Step-1,Increment      1: Step Time =    1.000,"PART-1-1",           241,       10.8494,      -2.88140,            0.,NA,NA,"",   622.606E-03,  -622.387E-03,  -16.5140E-03,   4.70911E-03
C:/temp/dataset/3/19_5.odb,Step-1,Increment      1: Step Time =    1.000,"PART-1-1",           242,       9.33979,       1.27198,            0.,NA,NA,"",   906.069E-03,  -897.857E-03,  -121.712E-03,   4.63908E-03
C:/temp/dataset/3/19_5.odb,Step-1,Increment      1: Step Time =    1.000,"PART-1-1",           243,       9.83335,       20.0603,            0.,NA,NA,"",       2.15922,      -2.15463,  -140.696E-03,   4.90791E-06
C:/temp/dataset/3/19_5.odb,Step-1,Increment      1: Step Time =    1.000,"PART-1-1",           244,       7.39102,       25.1069,            0.,NA,NA,"",       2.50433,      -2.48455,  -314.122E-03,   195.169E-09
C:/temp/dataset/3/19_5.odb,Step-1,Increment      1: Step Time =    1.000,"PART-1-1",           245,       4.93408,       25.0979,            0.,NA,NA,"",       2.52407,      -2.47852,  -477.353E-03,   153.090E-09
C:/temp/dataset/3/19_5.odb,Step-1,Increment      1: Step Time =    1.000,"PART-1-1",           246,      -10.0026,       25.0068,            0.,NA,NA,"",       2.84793,      -2.43946,      -1.46962,   8.90574E-09
C:/temp/dataset/3/19_5.odb,Step-1,Increment      1: Step Time =    1.000,"PART-1-1",           247,      -10.0008,       22.5051,            0.,NA,NA,"",       2.70385,      -2.27324,      -1.46397,   7.06030E-09
C:/temp/dataset/3/19_5.odb,Step-1,Increment      1: Step Time =    1.000,"PART-1-1",           248,      -9.99283,      -27.5363,            0.,NA,NA,"",   1.67437E-03,  -1.67371E-03,   46.9968E-06,   424.548E-06
C:/temp/dataset/3/19_5.odb,Step-1,Increment      1: Step Time =    1.000,"PART-1-1",           249,       3.80746,   187.829E-03,            0.,NA,NA,"",   963.240E-03,  -827.727E-03,  -492.645E-03,   6.86224E-03
C:/temp/dataset/3/19_5.odb,Step-1,Increment      1: Step Time =    1.000,"PART-1-1",           250,       11.4886,       7.12458,            0.,NA,NA,"",       1.29749,      -1.29748,  -1.83911E-03,   792.387E-06
C:/temp/dataset/3/19_5.odb,Step-1,Increment      1: Step Time =    1.000,"PART-1-1",           251,       5.25951,      -23.9756,            0.,NA,NA,"",   24.9618E-03,  -1.10263E-03,  -24.9374E-03,   7.56311E-03
C:/temp/dataset/3/19_5.odb,Step-1,Increment      1: Step Time =    1.000,"PART-1-1",           252,       9.85798,       22.5791,            0.,NA,NA,"",       2.32654,      -2.32204,  -144.621E-03,   1.11568E-06
C:/temp/dataset/3/19_5.odb,Step-1,Increment      1: Step Time =    1.000,"PART-1-1",           253,       7.38133,       22.5911,            0.,NA,NA,"",       2.33790,      -2.31736,  -309.206E-03,   689.199E-09
C:/temp/dataset/3/19_5.odb,Step-1,Increment      1: Step Time =    1.000,"PART-1-1",           254,       9.03817,      -10.9527,            0.,NA,NA,"",   228.680E-03,  -215.382E-03,  -76.8441E-03,   6.28048E-03
C:/temp/dataset/3/19_5.odb,Step-1,Increment      1: Step Time =    1.000,"PART-1-1",           255,       7.30212,      -21.2110,            0.,NA,NA,"",   41.6113E-03,   2.29930E-03,  -41.5477E-03,   8.60215E-03
C:/temp/dataset/3/19_5.odb,Step-1,Increment      1: Step Time =    1.000,"PART-1-1",           256,       8.48263,      -3.88795,            0.,NA,NA,"",   574.838E-03,  -556.099E-03,  -145.578E-03,   6.46661E-03
C:/temp/dataset/3/19_5.odb,Step-1,Increment      1: Step Time =    1.000,"PART-1-1",           257,       8.48912,      -1.65164,            0.,NA,NA,"",   717.764E-03,  -699.977E-03,  -158.803E-03,   6.54115E-03
C:/temp/dataset/3/19_5.odb,Step-1,Increment      1: Step Time =    1.000,"PART-1-1",           258,       8.19007,       3.36514,            0.,NA,NA,"",       1.06108,      -1.04086,  -206.115E-03,   4.01738E-03
C:/temp/dataset/3/19_5.odb,Step-1,Increment      1: Step Time =    1.000,"PART-1-1",           259,       6.78208,  -317.133E-03,            0.,NA,NA,"",   838.591E-03,  -791.292E-03,  -277.653E-03,   5.97446E-03
C:/temp/dataset/3/19_5.odb,Step-1,Increment      1: Step Time =    1.000,"PART-1-1",           260,       11.8604,      -10.2109,            0.,NA,NA,"",   246.430E-03,  -244.532E-03,   30.5239E-03,   2.93274E-03
C:/temp/dataset/3/19_5.odb,Step-1,Increment      1: Step Time =    1.000,"PART-1-1",           261,       5.00218,  -627.613E-03,            0.,NA,NA,"",   869.448E-03,  -772.365E-03,  -399.240E-03,   7.44838E-03
C:/temp/dataset/3/19_5.odb,Step-1,Increment      1: Step Time =    1.000,"PART-1-1",           262,       11.1460,      -8.45072,            0.,NA,NA,"",   317.822E-03,  -317.816E-03,   1.95401E-03,   1.32360E-03
C:/temp/dataset/3/19_5.odb,Step-1,Increment      1: Step Time =    1.000,"PART-1-1",           263,       11.7180,       5.54683,            0.,NA,NA,"",       1.19159,      -1.19146,   17.3238E-03,   1.46140E-03
C:/temp/dataset/3/19_5.odb,Step-1,Increment      1: Step Time =    1.000,"PART-1-1",           264,       5.25136,      -21.5985,            0.,NA,NA,"",   42.3934E-03,  -4.36758E-03,  -42.1679E-03,   11.8536E-03
C:/temp/dataset/3/19_5.odb,Step-1,Increment      1: Step Time =    1.000,"PART-1-1",           265,       12.4723,       27.5096,            0.,NA,NA,"",       2.65548,      -2.65542,   18.1914E-03,   269.480E-09
C:/temp/dataset/3/19_5.odb,Step-1,Increment      1: Step Time =    1.000,"PART-1-1",           266,       5.87727,      -22.7682,            0.,NA,NA,"",   34.0297E-03,  -560.840E-06,  -34.0251E-03,   8.70596E-03
C:/temp/dataset/3/19_5.odb,Step-1,Increment      1: Step Time =    1.000,"PART-1-1",           267,       7.32369,      -22.7299,            0.,NA,NA,"",   31.6455E-03,   5.63800E-03,  -31.1392E-03,   7.98978E-03
C:/temp/dataset/3/19_5.odb,Step-1,Increment      1: Step Time =    1.000,"PART-1-1",           268,       11.4923,      -4.55460,            0.,NA,NA,"",   522.114E-03,  -521.730E-03,   20.0351E-03,   4.20331E-03
C:/temp/dataset/3/19_5.odb,Step-1,Increment      1: Step Time =    1.000,"PART-1-1",           269,       11.2115,       8.96325,            0.,NA,NA,"",       1.42017,      -1.41995,  -24.6513E-03,   286.588E-06
C:/temp/dataset/3/19_5.odb,Step-1,Increment      1: Step Time =    1.000,"PART-1-1",           270,       10.8046,       10.5255,            0.,NA,NA,"",       1.52416,      -1.52316,  -55.2449E-03,   88.9070E-06
C:/temp/dataset/3/19_5.odb,Step-1,Increment      1: Step Time =    1.000,"PART-1-1",           271,       7.35536,      -24.2380,            0.,NA,NA,"",   22.7184E-03,   6.74938E-03,  -21.6926E-03,   6.72186E-03
C:/temp/dataset/3/19_5.odb,Step-1,Increment      1: Step Time =    1.000,"PART-1-1",           272,      -3.82134,   150.711E-03,            0.,NA,NA,"",       1.33066,  -813.752E-03,      -1.05283,   341.405E-06
C:/temp/dataset/3/19_5.odb,Step-1,Increment      1: Step Time =    1.000,"PART-1-1",           273,       3.09609,      -1.70207,            0.,NA,NA,"",   880.901E-03,  -700.367E-03,  -534.297E-03,   7.58959E-03
C:/temp/dataset/3/19_5.odb,Step-1,Increment      1: Step Time =    1.000,"PART-1-1",           274,       4.56419,      -1.78689,            0.,NA,NA,"",   813.401E-03,  -695.680E-03,  -421.487E-03,   8.56285E-03
C:/temp/dataset/3/19_5.odb,Step-1,Increment      1: Step Time =    1.000,"PART-1-1",           275,       9.44492,      -23.8624,            0.,NA,NA,"",   17.8322E-03,   12.0388E-03,  -13.1551E-03,   5.23878E-03
C:/temp/dataset/3/19_5.odb,Step-1,Increment      1: Step Time =    1.000,"PART-1-1",           276,       8.77427,      -22.6651,            0.,NA,NA,"",   23.9837E-03,   9.41872E-03,  -22.0569E-03,   6.02892E-03
C:/temp/dataset/3/19_5.odb,Step-1,Increment      1: Step Time =    1.000,"PART-1-1",           277,       10.1837,      -9.28900,            0.,NA,NA,"",   282.716E-03,  -280.078E-03,  -38.5312E-03,   2.22413E-03
C:/temp/dataset/3/19_5.odb,Step-1,Increment      1: Step Time =    1.000,"PART-1-1",           278,       10.4979,      -10.7612,            0.,NA,NA,"",   222.590E-03,  -221.467E-03,  -22.3320E-03,   1.57355E-03
C:/temp/dataset/3/19_5.odb,Step-1,Increment      1: Step Time =    1.000,"PART-1-1",           279,       11.2325,      -12.6180,            0.,NA,NA,"",   157.137E-03,  -157.041E-03,   5.49708E-03,   859.924E-06
C:/temp/dataset/3/19_5.odb,Step-1,Increment      1: Step Time =    1.000,"PART-1-1",           280,      -13.7500,       22.5017,            0.,NA,NA,"",       2.83965,      -2.26473,      -1.71308,   7.91197E-09
C:/temp/dataset/3/19_5.odb,Step-1,Increment      1: Step Time =    1.000,"PART-1-1",           281,          -15.,         21.25,            0.,NA,NA,"",       2.82193,      -2.17879,      -1.79337,   8.14704E-09
C:/temp/dataset/3/19_5.odb,Step-1,Increment      1: Step Time =    1.000,"PART-1-1",           282,        -13.75,           20.,            0.,NA,NA,"",       2.70544,      -2.09850,      -1.70755,   5.71048E-09
C:/temp/dataset/3/19_5.odb,Step-1,Increment      1: Step Time =    1.000,"PART-1-1",           283,      -12.5000,       21.2517,            0.,NA,NA,"",       2.72392,      -2.18443,      -1.62726,   4.05328E-09
C:/temp/dataset/3/19_5.odb,Step-1,Increment      1: Step Time =    1.000,"PART-1-1",           284,        -11.25,           30.,            0.,NA,NA,"",       3.17948,      -2.76847,      -1.56354,   12.2931E-09
C:/temp/dataset/3/19_5.odb,Step-1,Increment      1: Step Time =    1.000,"PART-1-1",           285,      -12.5009,       28.7510,            0.,NA,NA,"",       3.14632,      -2.68272,      -1.64390,   8.18045E-09
C:/temp/dataset/3/19_5.odb,Step-1,Increment      1: Step Time =    1.000,"PART-1-1",           286,      -11.2523,       27.5017,            0.,NA,NA,"",       3.03327,      -2.60247,      -1.55817,   8.56553E-09
C:/temp/dataset/3/19_5.odb,Step-1,Increment      1: Step Time =    1.000,"PART-1-1",           287,      -10.0014,       28.7507,            0.,NA,NA,"",       3.06765,      -2.68822,      -1.47781,   11.4932E-09
C:/temp/dataset/3/19_5.odb,Step-1,Increment      1: Step Time =    1.000,"PART-1-1",           288,      -8.75282,       27.5029,            0.,NA,NA,"",       2.95634,      -2.60807,      -1.39209,   11.2646E-09
C:/temp/dataset/3/19_5.odb,Step-1,Increment      1: Step Time =    1.000,"PART-1-1",           289,      -10.0027,       26.2541,            0.,NA,NA,"",       2.92063,      -2.52233,      -1.47238,   8.91260E-09
C:/temp/dataset/3/19_5.odb,Step-1,Increment      1: Step Time =    1.000,"PART-1-1",           290,      -8.75320,       25.0087,            0.,NA,NA,"",       2.80851,      -2.44234,      -1.38661,   8.86180E-09
C:/temp/dataset/3/19_5.odb,Step-1,Increment      1: Step Time =    1.000,"PART-1-1",           291,      -7.50334,       26.2575,            0.,NA,NA,"",       2.84564,      -2.52808,      -1.30632,   10.0723E-09
C:/temp/dataset/3/19_5.odb,Step-1,Increment      1: Step Time =    1.000,"PART-1-1",           292,  -10.1921E-03,       23.8015,            0.,NA,NA,"",       2.51319,      -2.38145,  -803.010E-03,   69.9930E-09
C:/temp/dataset/3/19_5.odb,Step-1,Increment      1: Step Time =    1.000,"PART-1-1",           293,       1.23656,       22.5490,            0.,NA,NA,"",       2.41023,      -2.30099,  -717.402E-03,   162.479E-09
C:/temp/dataset/3/19_5.odb,Step-1,Increment      1: Step Time =    1.000,"PART-1-1",           294,       2.47060,       23.8222,            0.,NA,NA,"",       2.47211,      -2.38831,  -638.219E-03,   151.682E-09
C:/temp/dataset/3/19_5.odb,Step-1,Increment      1: Step Time =    1.000,"PART-1-1",           295,       1.22385,       25.0746,            0.,NA,NA,"",       2.57270,      -2.46877,  -723.827E-03,   113.110E-09
C:/temp/dataset/3/19_5.odb,Step-1,Increment      1: Step Time =    1.000,"PART-1-1",           296,       13.7132,       25.0166,            0.,NA,NA,"",       2.49478,      -2.49252,   106.148E-03,   254.912E-09
C:/temp/dataset/3/19_5.odb,Step-1,Increment      1: Step Time =    1.000,"PART-1-1",           297,           15.,         26.25,            0.,NA,NA,"",       2.58423,      -2.57731,   188.923E-03,   286.062E-09
C:/temp/dataset/3/19_5.odb,Step-1,Increment      1: Step Time =    1.000,"PART-1-1",           298,       13.7362,       27.5048,            0.,NA,NA,"",       2.65986,      -2.65789,   102.176E-03,   174.825E-09
C:/temp/dataset/3/19_5.odb,Step-1,Increment      1: Step Time =    1.000,"PART-1-1",           299,       12.4494,       26.2714,            0.,NA,NA,"",       2.57317,      -2.57310,   19.4011E-03,   208.412E-09
C:/temp/dataset/3/19_5.odb,Step-1,Increment      1: Step Time =    1.000,"PART-1-1",           300,       6.19248,       27.5744,            0.,NA,NA,"",       2.67580,      -2.64585,  -399.211E-03,   120.914E-09
C:/temp/dataset/3/19_5.odb,Step-1,Increment      1: Step Time =    1.000,"PART-1-1",           301,       7.46746,       28.7842,            0.,NA,NA,"",       2.74742,      -2.72905,  -317.169E-03,   231.119E-09
C:/temp/dataset/3/19_5.odb,Step-1,Increment      1: Step Time =    1.000,"PART-1-1",           302,          6.25,           30.,            0.,NA,NA,"",       2.83561,      -2.80715,  -400.750E-03,   330.056E-09
C:/temp/dataset/3/19_5.odb,Step-1,Increment      1: Step Time =    1.000,"PART-1-1",           303,       4.97503,       28.7903,            0.,NA,NA,"",       2.76640,      -2.72395,  -482.791E-03,   186.338E-09
C:/temp/dataset/3/19_5.odb,Step-1,Increment      1: Step Time =    1.000,"PART-1-1",           304,       11.0878,       17.5306,            0.,NA,NA,"",       1.99001,      -1.98933,  -51.7676E-03,   13.5104E-06
C:/temp/dataset/3/19_5.odb,Step-1,Increment      1: Step Time =    1.000,"PART-1-1",           305,       12.3722,       18.7756,            0.,NA,NA,"",       2.07512,      -2.07489,   30.8335E-03,   9.27592E-06
C:/temp/dataset/3/19_5.odb,Step-1,Increment      1: Step Time =    1.000,"PART-1-1",           306,       11.1059,       20.0490,            0.,NA,NA,"",       2.15742,      -2.15669,  -56.1191E-03,   4.10877E-06
C:/temp/dataset/3/19_5.odb,Step-1,Increment      1: Step Time =    1.000,"PART-1-1",           307,       9.82152,       18.8041,            0.,NA,NA,"",       2.07577,      -2.07113,  -138.711E-03,   10.2452E-06
C:/temp/dataset/3/19_5.odb,Step-1,Increment      1: Step Time =    1.000,"PART-1-1",           308,       9.63171,       13.8797,            0.,NA,NA,"",       1.74916,      -1.74350,  -140.532E-03,   45.1916E-06
C:/temp/dataset/3/19_5.odb,Step-1,Increment      1: Step Time =    1.000,"PART-1-1",           309,       8.52517,       15.0687,            0.,NA,NA,"",       1.83289,      -1.82004,  -216.625E-03,   30.5038E-06
C:/temp/dataset/3/19_5.odb,Step-1,Increment      1: Step Time =    1.000,"PART-1-1",           310,       7.25683,       13.8735,            0.,NA,NA,"",       1.76321,      -1.73781,  -298.216E-03,   41.7198E-06
C:/temp/dataset/3/19_5.odb,Step-1,Increment      1: Step Time =    1.000,"PART-1-1",           311,       8.36336,       12.6844,            0.,NA,NA,"",       1.67606,      -1.66127,  -222.176E-03,   42.4324E-06
C:/temp/dataset/3/19_5.odb,Step-1,Increment      1: Step Time =    1.000,"PART-1-1",           312,       14.0118,       9.82001,            0.,NA,NA,"",       1.49172,      -1.48313,   159.826E-03,   73.2215E-06
C:/temp/dataset/3/19_5.odb,Step-1,Increment      1: Step Time =    1.000,"PART-1-1",           313,           15.,         11.25,            0.,NA,NA,"",       1.59612,      -1.58055,   222.380E-03,   112.097E-06
C:/temp/dataset/3/19_5.odb,Step-1,Increment      1: Step Time =    1.000,"PART-1-1",           314,       13.5880,       12.3315,            0.,NA,NA,"",       1.65421,      -1.64940,   125.935E-03,   45.4691E-06
C:/temp/dataset/3/19_5.odb,Step-1,Increment      1: Step Time =    1.000,"PART-1-1",           315,       12.5998,       10.9015,            0.,NA,NA,"",       1.55338,      -1.55209,   63.3450E-03,   29.4638E-06
C:/temp/dataset/3/19_5.odb,Step-1,Increment      1: Step Time =    1.000,"PART-1-1",           316,       4.40482,  -219.892E-03,            0.,NA,NA,"",   916.011E-03,  -800.227E-03,  -445.773E-03,   7.01879E-03
C:/temp/dataset/3/19_5.odb,Step-1,Increment      1: Step Time =    1.000,"PART-1-1",           317,       3.45177,  -757.122E-03,            0.,NA,NA,"",   920.459E-03,  -764.264E-03,  -512.976E-03,   6.97648E-03
C:/temp/dataset/3/19_5.odb,Step-1,Increment      1: Step Time =    1.000,"PART-1-1",           318,       3.83014,      -1.74448,            0.,NA,NA,"",   845.977E-03,  -698.136E-03,  -477.789E-03,   8.24682E-03
C:/temp/dataset/3/19_5.odb,Step-1,Increment      1: Step Time =    1.000,"PART-1-1",           319,       4.78319,      -1.20725,            0.,NA,NA,"",   840.937E-03,  -734.167E-03,  -410.089E-03,   7.76376E-03
C:/temp/dataset/3/19_5.odb,Step-1,Increment      1: Step Time =    1.000,"PART-1-1",           320,       10.3408,      -10.0251,            0.,NA,NA,"",   251.745E-03,  -249.932E-03,  -30.1557E-03,   1.89240E-03
C:/temp/dataset/3/19_5.odb,Step-1,Increment      1: Step Time =    1.000,"PART-1-1",           321,       11.1792,      -10.4860,            0.,NA,NA,"",   232.542E-03,  -232.515E-03,   3.57610E-03,   776.145E-06
C:/temp/dataset/3/19_5.odb,Step-1,Increment      1: Step Time =    1.000,"PART-1-1",           322,       11.5032,      -9.33080,            0.,NA,NA,"",   280.497E-03,  -279.975E-03,   17.1086E-03,   2.01128E-03
C:/temp/dataset/3/19_5.odb,Step-1,Increment      1: Step Time =    1.000,"PART-1-1",           323,       10.6649,      -8.86986,            0.,NA,NA,"",   299.054E-03,  -298.455E-03,  -18.9196E-03,   904.388E-06
C:/temp/dataset/3/19_5.odb,Step-1,Increment      1: Step Time =    1.000,"PART-1-1",           324,       9.41034,      -12.1888,            0.,NA,NA,"",   180.592E-03,  -171.568E-03,  -56.3734E-03,   5.11610E-03
C:/temp/dataset/3/19_5.odb,Step-1,Increment      1: Step Time =    1.000,"PART-1-1",           325,       10.5075,      -13.0214,            0.,NA,NA,"",   145.133E-03,  -144.070E-03,  -17.5323E-03,   1.63205E-03
C:/temp/dataset/3/19_5.odb,Step-1,Increment      1: Step Time =    1.000,"PART-1-1",           326,       10.8652,      -11.6896,            0.,NA,NA,"",   188.065E-03,  -187.918E-03,  -7.44824E-03,   546.141E-06
C:/temp/dataset/3/19_5.odb,Step-1,Increment      1: Step Time =    1.000,"PART-1-1",           327,       9.76802,      -10.8570,            0.,NA,NA,"",   223.602E-03,  -217.997E-03,  -49.7482E-03,   3.89768E-03
C:/temp/dataset/3/19_5.odb,Step-1,Increment      1: Step Time =    1.000,"PART-1-1",           328,       6.12016,      -19.7528,            0.,NA,NA,"",   61.8796E-03,  -6.72760E-03,  -61.5128E-03,   13.9308E-03
C:/temp/dataset/3/19_5.odb,Step-1,Increment      1: Step Time =    1.000,"PART-1-1",           329,       7.15653,      -18.4145,            0.,NA,NA,"",   67.6975E-03,  -24.1321E-03,  -63.2503E-03,   9.57467E-03
C:/temp/dataset/3/19_5.odb,Step-1,Increment      1: Step Time =    1.000,"PART-1-1",           330,       6.03637,      -17.4116,            0.,NA,NA,"",   105.235E-03,  -48.3799E-03,  -93.4548E-03,   16.0304E-03
C:/temp/dataset/3/19_5.odb,Step-1,Increment      1: Step Time =    1.000,"PART-1-1",           331,            5.,        -18.75,            0.,NA,NA,"",   93.0387E-03,  -31.6433E-03,  -87.4923E-03,   23.3603E-03
C:/temp/dataset/3/19_5.odb,Step-1,Increment      1: Step Time =    1.000,"PART-1-1",           332,       13.3604,      -22.4969,            0.,NA,NA,"",   18.7763E-03,   8.42525E-03,   16.7798E-03,   5.18355E-03
C:/temp/dataset/3/19_5.odb,Step-1,Increment      1: Step Time =    1.000,"PART-1-1",           333,           15.,        -21.25,            0.,NA,NA,"",   36.6110E-03,  -3.42377E-03,   36.4506E-03,   9.26969E-03
C:/temp/dataset/3/19_5.odb,Step-1,Increment      1: Step Time =    1.000,"PART-1-1",           334,       13.4842,      -19.7901,            0.,NA,NA,"",   33.2908E-03,  -10.4823E-03,   31.5975E-03,   6.85754E-03
C:/temp/dataset/3/19_5.odb,Step-1,Increment      1: Step Time =    1.000,"PART-1-1",           335,       11.8446,      -21.0370,            0.,NA,NA,"",   7.74145E-03,   3.60612E-03,   6.85026E-03,   4.00245E-03
C:/temp/dataset/3/19_5.odb,Step-1,Increment      1: Step Time =    1.000,"PART-1-1",           336,       1.65000,            5.,            0.,NA,NA,"",       1.34997,      -1.16187,  -687.382E-03,   5.57532E-03
C:/temp/dataset/3/19_5.odb,Step-1,Increment      1: Step Time =    1.000,"PART-1-1",           337,   440.654E-03,       4.00571,            0.,NA,NA,"",       1.33396,      -1.09041,  -768.414E-03,   5.35796E-03
C:/temp/dataset/3/19_5.odb,Step-1,Increment      1: Step Time =    1.000,"PART-1-1",           338,       1.47063,       2.87974,            0.,NA,NA,"",       1.22168,      -1.01160,  -684.956E-03,   5.98367E-03
C:/temp/dataset/3/19_5.odb,Step-1,Increment      1: Step Time =    1.000,"PART-1-1",           339,       2.67998,       3.87403,            0.,NA,NA,"",       1.23625,      -1.07983,  -601.913E-03,   6.59962E-03
C:/temp/dataset/3/19_5.odb,Step-1,Increment      1: Step Time =    1.000,"PART-1-1",           340,      -1.46180,      -3.99231,            0.,NA,NA,"",       1.01601,  -522.852E-03,  -871.151E-03,   367.005E-06
C:/temp/dataset/3/19_5.odb,Step-1,Increment      1: Step Time =    1.000,"PART-1-1",           341,     -500.E-03,           -5.,            0.,NA,NA,"",   916.539E-03,  -451.427E-03,  -797.657E-03,   735.940E-06
C:/temp/dataset/3/19_5.odb,Step-1,Increment      1: Step Time =    1.000,"PART-1-1",           342,   718.491E-03,      -4.10961,            0.,NA,NA,"",   879.881E-03,  -520.146E-03,  -709.675E-03,   1.00450E-03
C:/temp/dataset/3/19_5.odb,Step-1,Increment      1: Step Time =    1.000,"PART-1-1",           343,  -243.313E-03,      -3.10192,            0.,NA,NA,"",   981.755E-03,  -590.921E-03,  -783.999E-03,   1.31716E-03
C:/temp/dataset/3/19_5.odb,Step-1,Increment      1: Step Time =    1.000,"PART-1-1",           344,      -3.82017,      -3.74247,            0.,NA,NA,"",       1.17172,  -535.186E-03,      -1.04235,   305.998E-06
C:/temp/dataset/3/19_5.odb,Step-1,Increment      1: Step Time =    1.000,"PART-1-1",           345,      -2.71667,           -5.,            0.,NA,NA,"",       1.05844,  -446.990E-03,  -959.428E-03,   688.916E-06
C:/temp/dataset/3/19_5.odb,Step-1,Increment      1: Step Time =    1.000,"PART-1-1",           346,      -2.56530,      -2.73478,            0.,NA,NA,"",       1.13345,  -610.822E-03,  -954.781E-03,   280.260E-06
C:/temp/dataset/3/19_5.odb,Step-1,Increment      1: Step Time =    1.000,"PART-1-1",           347,      -13.8092,  -21.6491E-03,            0.,NA,NA,"",       1.92525,  -775.146E-03,      -1.76231,   21.2624E-06
C:/temp/dataset/3/19_5.odb,Step-1,Increment      1: Step Time =    1.000,"PART-1-1",           348,      -12.6581,       1.21263,            0.,NA,NA,"",       1.89316,  -865.807E-03,      -1.68358,   25.3254E-06
C:/temp/dataset/3/19_5.odb,Step-1,Increment      1: Step Time =    1.000,"PART-1-1",           349,      -13.8489,       2.48428,            0.,NA,NA,"",       2.01159,  -953.167E-03,      -1.77143,   15.3005E-06
C:/temp/dataset/3/19_5.odb,Step-1,Increment      1: Step Time =    1.000,"PART-1-1",           350,          -15.,          1.25,            0.,NA,NA,"",       2.04132,  -862.517E-03,      -1.85015,   10.4136E-06
C:/temp/dataset/3/19_5.odb,Step-1,Increment      1: Step Time =    1.000,"PART-1-1",           351,      -8.84172,   345.754E-03,            0.,NA,NA,"",       1.62822,  -814.060E-03,      -1.41011,   149.740E-06
C:/temp/dataset/3/19_5.odb,Step-1,Increment      1: Step Time =    1.000,"PART-1-1",           352,      -9.20019,  -788.270E-03,            0.,NA,NA,"",       1.60919,  -732.474E-03,      -1.43283,   124.034E-06
C:/temp/dataset/3/19_5.odb,Step-1,Increment      1: Step Time =    1.000,"PART-1-1",           353,      -7.61937,      -1.21646,            0.,NA,NA,"",       1.49654,  -706.149E-03,      -1.31947,   186.250E-06
C:/temp/dataset/3/19_5.odb,Step-1,Increment      1: Step Time =    1.000,"PART-1-1",           354,      -7.26090,  -82.4387E-03,            0.,NA,NA,"",       1.51731,  -787.837E-03,      -1.29674,   203.958E-06
C:/temp/dataset/3/19_5.odb,Step-1,Increment      1: Step Time =    1.000,"PART-1-1",           355,      -12.7466,      -3.77621,            0.,NA,NA,"",       1.75341,  -510.916E-03,      -1.67733,   13.1268E-06
C:/temp/dataset/3/19_5.odb,Step-1,Increment      1: Step Time =    1.000,"PART-1-1",           356,      -13.8633,      -2.52621,            0.,NA,NA,"",       1.85834,  -596.956E-03,      -1.75984,   14.7985E-06
C:/temp/dataset/3/19_5.odb,Step-1,Increment      1: Step Time =    1.000,"PART-1-1",           357,          -15.,         -3.75,            0.,NA,NA,"",       1.90623,  -507.084E-03,      -1.83755,   2.03066E-06
C:/temp/dataset/3/19_5.odb,Step-1,Increment      1: Step Time =    1.000,"PART-1-1",           358,      -13.8833,           -5.,            0.,NA,NA,"",       1.80482,  -421.059E-03,      -1.75502,   2.37778E-06
C:/temp/dataset/3/19_5.odb,Step-1,Increment      1: Step Time =    1.000,"PART-1-1",           359,      -5.03830,      -2.71522,            0.,NA,NA,"",       1.28407,  -605.879E-03,      -1.13214,   198.305E-06
C:/temp/dataset/3/19_5.odb,Step-1,Increment      1: Step Time =    1.000,"PART-1-1",           360,      -4.43911,      -1.50749,            0.,NA,NA,"",       1.29421,  -693.874E-03,      -1.09248,   186.973E-06
C:/temp/dataset/3/19_5.odb,Step-1,Increment      1: Step Time =    1.000,"PART-1-1",           361,      -5.95808,  -763.119E-03,            0.,NA,NA,"",       1.41349,  -742.915E-03,      -1.20250,   236.548E-06
C:/temp/dataset/3/19_5.odb,Step-1,Increment      1: Step Time =    1.000,"PART-1-1",           362,      -6.55726,      -1.97085,            0.,NA,NA,"",       1.40432,  -655.160E-03,      -1.24213,   205.040E-06
C:/temp/dataset/3/19_5.odb,Step-1,Increment      1: Step Time =    1.000,"PART-1-1",           363,          6.25,          -30.,            0.,NA,NA,"",            0.,   980.795E-42,  -5.28756E-39,   2.95369E-03
C:/temp/dataset/3/19_5.odb,Step-1,Increment      1: Step Time =    1.000,"PART-1-1",           364,       7.47038,      -28.9473,            0.,NA,NA,"",   3.62851E-03,   2.71884E-03,  -2.40291E-03,   3.54479E-03
C:/temp/dataset/3/19_5.odb,Step-1,Increment      1: Step Time =    1.000,"PART-1-1",           365,       6.18647,      -27.8786,            0.,NA,NA,"",   6.78327E-03,   2.39964E-03,  -6.34464E-03,   4.08728E-03
C:/temp/dataset/3/19_5.odb,Step-1,Increment      1: Step Time =    1.000,"PART-1-1",           366,       4.96608,      -28.9312,            0.,NA,NA,"",   2.79582E-03,   133.940E-06,  -2.79261E-03,   3.48894E-03
C:/temp/dataset/3/19_5.odb,Step-1,Increment      1: Step Time =    1.000,"PART-1-1",           367,       3.70492,      -27.8047,            0.,NA,NA,"",   6.14924E-03,  -1.77176E-03,  -5.88847E-03,   3.62401E-03
C:/temp/dataset/3/19_5.odb,Step-1,Increment      1: Step Time =    1.000,"PART-1-1",           368,       2.48883,      -28.8735,            0.,NA,NA,"",   2.93737E-03,  -1.84027E-03,  -2.28945E-03,   2.89579E-03
C:/temp/dataset/3/19_5.odb,Step-1,Increment      1: Step Time =    1.000,"PART-1-1",           369,          3.75,          -30.,            0.,NA,NA,"",            0.,  -659.611E-42,  -5.14110E-39,   2.74628E-03
C:/temp/dataset/3/19_5.odb,Step-1,Increment      1: Step Time =    1.000,"PART-1-1",           370,      -3.72203,      -27.5999,            0.,NA,NA,"",   3.54945E-03,  -3.49711E-03,  -607.289E-06,   1.04557E-03
C:/temp/dataset/3/19_5.odb,Step-1,Increment      1: Step Time =    1.000,"PART-1-1",           371,      -4.98725,      -28.7922,            0.,NA,NA,"",   1.75183E-03,  -1.73645E-03,  -231.643E-06,   939.965E-06
C:/temp/dataset/3/19_5.odb,Step-1,Increment      1: Step Time =    1.000,"PART-1-1",           372,         -3.75,          -30.,            0.,NA,NA,"",            0.,  -1.18777E-39,  -1.07755E-39,   1.34796E-03
C:/temp/dataset/3/19_5.odb,Step-1,Increment      1: Step Time =    1.000,"PART-1-1",           373,      -2.48478,      -28.8077,            0.,NA,NA,"",   2.38224E-03,  -2.29334E-03,  -644.717E-06,   1.42313E-03
C:/temp/dataset/3/19_5.odb,Step-1,Increment      1: Step Time =    1.000,"PART-1-1",           374,      -13.7501,      -27.5099,            0.,NA,NA,"",   1.40468E-03,  -1.37278E-03,  -297.637E-06,   196.345E-06
C:/temp/dataset/3/19_5.odb,Step-1,Increment      1: Step Time =    1.000,"PART-1-1",           375,          -15.,        -28.75,            0.,NA,NA,"",   900.424E-06,  -759.056E-06,  -484.353E-06,   361.908E-06
C:/temp/dataset/3/19_5.odb,Step-1,Increment      1: Step Time =    1.000,"PART-1-1",           376,        -13.75,          -30.,            0.,NA,NA,"",            0.,  -136.198E-42,  -368.522E-42,   434.833E-06
C:/temp/dataset/3/19_5.odb,Step-1,Increment      1: Step Time =    1.000,"PART-1-1",           377,      -12.5001,      -28.7599,            0.,NA,NA,"",   680.631E-06,  -676.957E-06,  -70.6255E-06,   343.617E-06
C:/temp/dataset/3/19_5.odb,Step-1,Increment      1: Step Time =    1.000,"PART-1-1",           378,       8.15833,      -10.8587,            0.,NA,NA,"",   247.313E-03,  -221.168E-03,  -110.672E-03,   9.22018E-03
C:/temp/dataset/3/19_5.odb,Step-1,Increment      1: Step Time =    1.000,"PART-1-1",           379,       9.00498,      -9.90697,            0.,NA,NA,"",   269.196E-03,  -255.521E-03,  -84.7108E-03,   6.35355E-03
C:/temp/dataset/3/19_5.odb,Step-1,Increment      1: Step Time =    1.000,"PART-1-1",           380,       8.08915,      -8.55627,            0.,NA,NA,"",   340.863E-03,  -313.328E-03,  -134.214E-03,   9.50006E-03
C:/temp/dataset/3/19_5.odb,Step-1,Increment      1: Step Time =    1.000,"PART-1-1",           381,       7.24249,      -9.50802,            0.,NA,NA,"",   319.910E-03,  -276.473E-03,  -160.951E-03,   12.1270E-03
C:/temp/dataset/3/19_5.odb,Step-1,Increment      1: Step Time =    1.000,"PART-1-1",           382,       13.9816,      -2.51124,            0.,NA,NA,"",   676.333E-03,  -656.152E-03,   163.983E-03,   6.58039E-03
C:/temp/dataset/3/19_5.odb,Step-1,Increment      1: Step Time =    1.000,"PART-1-1",           383,           15.,         -1.25,            0.,NA,NA,"",   777.537E-03,  -742.102E-03,   232.053E-03,   6.84039E-03
C:/temp/dataset/3/19_5.odb,Step-1,Increment      1: Step Time =    1.000,"PART-1-1",           384,       13.8213,  -48.4001E-03,            0.,NA,NA,"",   831.760E-03,  -816.240E-03,   159.929E-03,   4.21284E-03
C:/temp/dataset/3/19_5.odb,Step-1,Increment      1: Step Time =    1.000,"PART-1-1",           385,       12.8030,      -1.30964,            0.,NA,NA,"",   735.399E-03,  -729.102E-03,   96.0268E-03,   4.84487E-03
C:/temp/dataset/3/19_5.odb,Step-1,Increment      1: Step Time =    1.000,"PART-1-1",           386,           15.,          1.25,            0.,NA,NA,"",   938.657E-03,  -907.940E-03,   238.162E-03,   3.83370E-03
C:/temp/dataset/3/19_5.odb,Step-1,Increment      1: Step Time =    1.000,"PART-1-1",           387,       13.5709,       2.55070,            0.,NA,NA,"",       1.00179,  -991.379E-03,   144.026E-03,   2.25518E-03
C:/temp/dataset/3/19_5.odb,Step-1,Increment      1: Step Time =    1.000,"PART-1-1",           388,       12.3922,       1.25230,            0.,NA,NA,"",   902.623E-03,  -899.921E-03,   69.7859E-03,   3.69681E-03
C:/temp/dataset/3/19_5.odb,Step-1,Increment      1: Step Time =    1.000,"PART-1-1",           389,      -5.00532,       26.2655,            0.,NA,NA,"",       2.77889,      -2.53413,      -1.14036,   12.0635E-09
C:/temp/dataset/3/19_5.odb,Step-1,Increment      1: Step Time =    1.000,"PART-1-1",           390,      -3.75495,       25.0275,            0.,NA,NA,"",       2.67158,      -2.45464,      -1.05454,   17.1172E-09
C:/temp/dataset/3/19_5.odb,Step-1,Increment      1: Step Time =    1.000,"PART-1-1",           391,      -2.50780,       26.2820,            0.,NA,NA,"",       2.72120,      -2.54075,  -974.445E-03,   21.4692E-09
C:/temp/dataset/3/19_5.odb,Step-1,Increment      1: Step Time =    1.000,"PART-1-1",           392,      -3.75817,       27.5199,            0.,NA,NA,"",       2.82663,      -2.62024,      -1.06026,   21.4470E-09
C:/temp/dataset/3/19_5.odb,Step-1,Increment      1: Step Time =    1.000,"PART-1-1",           393,      -5.00193,       23.7670,            0.,NA,NA,"",       2.62590,      -2.36813,      -1.13461,   9.03638E-09
C:/temp/dataset/3/19_5.odb,Step-1,Increment      1: Step Time =    1.000,"PART-1-1",           394,      -6.25406,       25.0149,            0.,NA,NA,"",       2.73566,      -2.44828,      -1.22056,   9.46244E-09
C:/temp/dataset/3/19_5.odb,Step-1,Increment      1: Step Time =    1.000,"PART-1-1",           395,      -7.50285,       23.7600,            0.,NA,NA,"",       2.69661,      -2.36214,      -1.30077,   7.57134E-09
C:/temp/dataset/3/19_5.odb,Step-1,Increment      1: Step Time =    1.000,"PART-1-1",           396,      -6.25071,       22.5121,            0.,NA,NA,"",       2.58520,      -2.28199,      -1.21481,   9.65310E-09
C:/temp/dataset/3/19_5.odb,Step-1,Increment      1: Step Time =    1.000,"PART-1-1",           397,      -12.5007,       23.7543,            0.,NA,NA,"",       2.86217,      -2.35071,      -1.63284,   8.08086E-09
C:/temp/dataset/3/19_5.odb,Step-1,Increment      1: Step Time =    1.000,"PART-1-1",           398,      -13.7507,       25.0026,            0.,NA,NA,"",       2.97708,      -2.43089,      -1.71865,   7.91451E-09
C:/temp/dataset/3/19_5.odb,Step-1,Increment      1: Step Time =    1.000,"PART-1-1",           399,          -15.,         23.75,            0.,NA,NA,"",       2.95543,      -2.34490,      -1.79889,   7.33520E-09
C:/temp/dataset/3/19_5.odb,Step-1,Increment      1: Step Time =    1.000,"PART-1-1",           400,       1.22659,       27.5580,            0.,NA,NA,"",       2.73285,      -2.63378,  -729.133E-03,   92.5673E-09
C:/temp/dataset/3/19_5.odb,Step-1,Increment      1: Step Time =    1.000,"PART-1-1",           401,       2.48534,       28.7828,            0.,NA,NA,"",       2.79418,      -2.71795,  -648.202E-03,   116.119E-09
C:/temp/dataset/3/19_5.odb,Step-1,Increment      1: Step Time =    1.000,"PART-1-1",           402,          1.25,           30.,            0.,NA,NA,"",       2.89057,      -2.79610,  -732.974E-03,   113.343E-09
C:/temp/dataset/3/19_5.odb,Step-1,Increment      1: Step Time =    1.000,"PART-1-1",           403,  -8.74824E-03,       28.7751,            0.,NA,NA,"",       2.83143,      -2.71193,  -813.905E-03,   55.2060E-09
C:/temp/dataset/3/19_5.odb,Step-1,Increment      1: Step Time =    1.000,"PART-1-1",           404,  -16.7069E-03,       26.3073,            0.,NA,NA,"",       2.67328,      -2.54793,  -808.980E-03,   54.4836E-09
C:/temp/dataset/3/19_5.odb,Step-1,Increment      1: Step Time =    1.000,"PART-1-1",           405,       2.46714,       26.3253,            0.,NA,NA,"",       2.63454,      -2.55462,  -643.980E-03,   121.770E-09
C:/temp/dataset/3/19_5.odb,Step-1,Increment      1: Step Time =    1.000,"PART-1-1",           406,       3.70751,       22.5746,            0.,NA,NA,"",       2.37353,      -2.30815,  -553.276E-03,   333.894E-09
C:/temp/dataset/3/19_5.odb,Step-1,Increment      1: Step Time =    1.000,"PART-1-1",           407,       2.48879,       21.2797,            0.,NA,NA,"",       2.30748,      -2.21941,  -631.392E-03,   194.851E-09
C:/temp/dataset/3/19_5.odb,Step-1,Increment      1: Step Time =    1.000,"PART-1-1",           408,          3.75,           20.,            0.,NA,NA,"",       2.20551,      -2.13717,  -544.763E-03,   613.015E-09
C:/temp/dataset/3/19_5.odb,Step-1,Increment      1: Step Time =    1.000,"PART-1-1",           409,       4.96872,       21.2949,            0.,NA,NA,"",       2.27430,      -2.22591,  -466.647E-03,   539.302E-09
C:/temp/dataset/3/19_5.odb,Step-1,Increment      1: Step Time =    1.000,"PART-1-1",           410,       10.8479,       12.4309,            0.,NA,NA,"",       1.65092,      -1.64995,  -56.5624E-03,   44.4218E-06
C:/temp/dataset/3/19_5.odb,Step-1,Increment      1: Step Time =    1.000,"PART-1-1",           411,       9.34812,       11.6387,            0.,NA,NA,"",       1.60147,      -1.59400,  -154.517E-03,   53.6512E-06
C:/temp/dataset/3/19_5.odb,Step-1,Increment      1: Step Time =    1.000,"PART-1-1",           412,       9.99050,       10.5520,            0.,NA,NA,"",       1.52714,      -1.52321,  -109.442E-03,   80.4088E-06
C:/temp/dataset/3/19_5.odb,Step-1,Increment      1: Step Time =    1.000,"PART-1-1",           413,       11.4903,       11.3442,            0.,NA,NA,"",       1.57916,      -1.57912,  -11.4607E-03,   48.4364E-06
C:/temp/dataset/3/19_5.odb,Step-1,Increment      1: Step Time =    1.000,"PART-1-1",           414,       7.16850,       11.5014,            0.,NA,NA,"",       1.60812,      -1.58010,  -298.884E-03,   87.5562E-06
C:/temp/dataset/3/19_5.odb,Step-1,Increment      1: Step Time =    1.000,"PART-1-1",           415,       6.10343,       12.5850,            0.,NA,NA,"",       1.69110,      -1.64970,  -371.918E-03,   51.4686E-06
C:/temp/dataset/3/19_5.odb,Step-1,Increment      1: Step Time =    1.000,"PART-1-1",           416,            5.,         11.25,            0.,NA,NA,"",       1.62021,      -1.55872,  -442.094E-03,   183.212E-06
C:/temp/dataset/3/19_5.odb,Step-1,Increment      1: Step Time =    1.000,"PART-1-1",           417,       6.06507,       10.1664,            0.,NA,NA,"",       1.53418,      -1.48916,  -368.935E-03,   150.036E-06
C:/temp/dataset/3/19_5.odb,Step-1,Increment      1: Step Time =    1.000,"PART-1-1",           418,       14.0565,       5.06378,            0.,NA,NA,"",       1.17644,      -1.16367,   172.855E-03,   839.227E-06
C:/temp/dataset/3/19_5.odb,Step-1,Increment      1: Step Time =    1.000,"PART-1-1",           419,       12.6274,       3.86448,            0.,NA,NA,"",       1.08176,      -1.07875,   80.6125E-03,   2.13651E-03
C:/temp/dataset/3/19_5.odb,Step-1,Increment      1: Step Time =    1.000,"PART-1-1",           420,           15.,          3.75,            0.,NA,NA,"",       1.10305,      -1.07706,   238.022E-03,   1.56789E-03
C:/temp/dataset/3/19_5.odb,Step-1,Increment      1: Step Time =    1.000,"PART-1-1",           421,       10.0280,       5.47301,            0.,NA,NA,"",       1.18792,      -1.18422,  -93.6403E-03,   1.88113E-03
C:/temp/dataset/3/19_5.odb,Step-1,Increment      1: Step Time =    1.000,"PART-1-1",           422,       11.0614,       5.01383,            0.,NA,NA,"",       1.15462,      -1.15436,  -24.4024E-03,   1.84459E-03
C:/temp/dataset/3/19_5.odb,Step-1,Increment      1: Step Time =    1.000,"PART-1-1",           423,       11.6033,       6.33570,            0.,NA,NA,"",       1.24462,      -1.24460,   7.73970E-03,   1.11092E-03
C:/temp/dataset/3/19_5.odb,Step-1,Increment      1: Step Time =    1.000,"PART-1-1",           424,       10.5698,       6.79489,            0.,NA,NA,"",       1.27538,      -1.27388,  -61.8051E-03,   1.02845E-03
C:/temp/dataset/3/19_5.odb,Step-1,Increment      1: Step Time =    1.000,"PART-1-1",           425,      -4.94418,       3.17107,            0.,NA,NA,"",       1.53278,      -1.02445,      -1.14015,   322.871E-06
C:/temp/dataset/3/19_5.odb,Step-1,Increment      1: Step Time =    1.000,"PART-1-1",           426,      -3.90803,       4.11594,            0.,NA,NA,"",       1.52924,      -1.09301,      -1.06953,   654.833E-06
C:/temp/dataset/3/19_5.odb,Step-1,Increment      1: Step Time =    1.000,"PART-1-1",           427,      -5.05000,            5.,            0.,NA,NA,"",       1.63020,      -1.15299,      -1.15247,   674.346E-06
C:/temp/dataset/3/19_5.odb,Step-1,Increment      1: Step Time =    1.000,"PART-1-1",           428,      -6.08615,       4.05513,            0.,NA,NA,"",       1.63454,      -1.08402,      -1.22337,   293.599E-06
C:/temp/dataset/3/19_5.odb,Step-1,Increment      1: Step Time =    1.000,"PART-1-1",           429,      -3.86135,       2.39128,            0.,NA,NA,"",       1.43971,  -972.345E-03,      -1.06175,   258.287E-06
C:/temp/dataset/3/19_5.odb,Step-1,Increment      1: Step Time =    1.000,"PART-1-1",           430,      -5.85027,       2.20434,            0.,NA,NA,"",       1.53449,  -953.880E-03,      -1.20199,   248.304E-06
C:/temp/dataset/3/19_5.odb,Step-1,Increment      1: Step Time =    1.000,"PART-1-1",           431,      -4.76744,       1.42454,            0.,NA,NA,"",       1.44041,  -901.629E-03,      -1.12332,   245.461E-06
C:/temp/dataset/3/19_5.odb,Step-1,Increment      1: Step Time =    1.000,"PART-1-1",           432,      -9.29397,       2.69508,            0.,NA,NA,"",       1.74832,  -979.716E-03,      -1.44803,   128.914E-06
C:/temp/dataset/3/19_5.odb,Step-1,Increment      1: Step Time =    1.000,"PART-1-1",           433,      -8.28887,       3.92576,            0.,NA,NA,"",       1.74565,      -1.06956,      -1.37961,   125.124E-06
C:/temp/dataset/3/19_5.odb,Step-1,Increment      1: Step Time =    1.000,"PART-1-1",           434,          -9.5,            5.,            0.,NA,NA,"",       1.86087,      -1.14292,      -1.46853,   99.8805E-06
C:/temp/dataset/3/19_5.odb,Step-1,Increment      1: Step Time =    1.000,"PART-1-1",           435,      -10.5051,       3.76932,            0.,NA,NA,"",       1.86299,      -1.05295,      -1.53689,   46.2475E-06
C:/temp/dataset/3/19_5.odb,Step-1,Increment      1: Step Time =    1.000,"PART-1-1",           436,      -7.92731,       1.84143,            0.,NA,NA,"",       1.63413,  -922.680E-03,      -1.34872,   165.114E-06
C:/temp/dataset/3/19_5.odb,Step-1,Increment      1: Step Time =    1.000,"PART-1-1",           437,      -6.68589,       1.06488,            0.,NA,NA,"",       1.53056,  -870.914E-03,      -1.25862,   243.004E-06
C:/temp/dataset/3/19_5.odb,Step-1,Increment      1: Step Time =    1.000,"PART-1-1",           438,      -7.09169,       2.98089,            0.,NA,NA,"",       1.63729,      -1.00558,      -1.29209,   226.752E-06
C:/temp/dataset/3/19_5.odb,Step-1,Increment      1: Step Time =    1.000,"PART-1-1",           439,      -13.9000,            5.,            0.,NA,NA,"",       2.11059,      -1.13187,      -1.78142,   2.43351E-06
C:/temp/dataset/3/19_5.odb,Step-1,Increment      1: Step Time =    1.000,"PART-1-1",           440,          -15.,          3.75,            0.,NA,NA,"",       2.12803,      -1.04023,      -1.85646,   2.17030E-06
C:/temp/dataset/3/19_5.odb,Step-1,Increment      1: Step Time =    1.000,"PART-1-1",           441,      -12.7489,       3.73428,            0.,NA,NA,"",       1.99231,      -1.04480,      -1.69638,   13.7949E-06
C:/temp/dataset/3/19_5.odb,Step-1,Increment      1: Step Time =    1.000,"PART-1-1",           442,      -9.48823,      -2.88104,            0.,NA,NA,"",       1.56097,  -582.791E-03,      -1.44809,   103.742E-06
C:/temp/dataset/3/19_5.odb,Step-1,Increment      1: Step Time =    1.000,"PART-1-1",           443,      -8.42388,      -2.23568,            0.,NA,NA,"",       1.51225,  -631.448E-03,      -1.37411,   135.094E-06
C:/temp/dataset/3/19_5.odb,Step-1,Increment      1: Step Time =    1.000,"PART-1-1",           444,      -10.2645,      -1.43363,            0.,NA,NA,"",       1.65475,  -683.806E-03,      -1.50686,   73.8052E-06
C:/temp/dataset/3/19_5.odb,Step-1,Increment      1: Step Time =    1.000,"PART-1-1",           445,      -12.6725,      -1.29786,            0.,NA,NA,"",       1.81359,  -687.307E-03,      -1.67831,   24.6778E-06
C:/temp/dataset/3/19_5.odb,Step-1,Increment      1: Step Time =    1.000,"PART-1-1",           446,          -15.,         -1.25,            0.,NA,NA,"",       1.96692,  -684.802E-03,      -1.84386,   10.8346E-06
C:/temp/dataset/3/19_5.odb,Step-1,Increment      1: Step Time =    1.000,"PART-1-1",           447,      -6.16813,      -3.97275,            0.,NA,NA,"",       1.31372,  -513.177E-03,      -1.20934,   233.538E-06
C:/temp/dataset/3/19_5.odb,Step-1,Increment      1: Step Time =    1.000,"PART-1-1",           448,      -4.95000,           -5.,            0.,NA,NA,"",       1.20402,  -442.571E-03,      -1.11973,   481.188E-06
C:/temp/dataset/3/19_5.odb,Step-1,Increment      1: Step Time =    1.000,"PART-1-1",           449,       1.59412,  -355.999E-03,            0.,NA,NA,"",       1.02637,  -789.386E-03,  -655.974E-03,   4.95168E-03
C:/temp/dataset/3/19_5.odb,Step-1,Increment      1: Step Time =    1.000,"PART-1-1",           450,       2.17826,      -1.53992,            0.,NA,NA,"",   932.957E-03,  -709.224E-03,  -606.144E-03,   5.77035E-03
C:/temp/dataset/3/19_5.odb,Step-1,Increment      1: Step Time =    1.000,"PART-1-1",           451,       2.86763,   426.804E-03,            0.,NA,NA,"",       1.01530,  -843.852E-03,  -564.578E-03,   6.45904E-03
C:/temp/dataset/3/19_5.odb,Step-1,Increment      1: Step Time =    1.000,"PART-1-1",           452,  -387.277E-03,   5.26357E-03,            0.,NA,NA,"",       1.14286,  -811.154E-03,  -805.077E-03,   2.73348E-03
C:/temp/dataset/3/19_5.odb,Step-1,Increment      1: Step Time =    1.000,"PART-1-1",           453,   283.611E-03,      -1.19839,            0.,NA,NA,"",       1.04584,  -728.174E-03,  -750.690E-03,   3.11011E-03
C:/temp/dataset/3/19_5.odb,Step-1,Increment      1: Step Time =    1.000,"PART-1-1",           454,   923.228E-03,   847.652E-03,            0.,NA,NA,"",       1.12568,  -871.422E-03,  -712.582E-03,   4.82462E-03
C:/temp/dataset/3/19_5.odb,Step-1,Increment      1: Step Time =    1.000,"PART-1-1",           455,       6.35531,      -13.1332,            0.,NA,NA,"",   212.427E-03,  -153.436E-03,  -146.911E-03,   14.8970E-03
C:/temp/dataset/3/19_5.odb,Step-1,Increment      1: Step Time =    1.000,"PART-1-1",           456,       7.49455,      -12.2656,            0.,NA,NA,"",   212.367E-03,  -174.764E-03,  -120.654E-03,   11.3986E-03
C:/temp/dataset/3/19_5.odb,Step-1,Increment      1: Step Time =    1.000,"PART-1-1",           457,       6.13925,      -10.3824,            0.,NA,NA,"",   315.316E-03,  -248.686E-03,  -193.854E-03,   15.8405E-03
C:/temp/dataset/3/19_5.odb,Step-1,Increment      1: Step Time =    1.000,"PART-1-1",           458,            5.,        -11.25,            0.,NA,NA,"",   316.686E-03,  -225.105E-03,  -222.750E-03,   19.2875E-03
C:/temp/dataset/3/19_5.odb,Step-1,Increment      1: Step Time =    1.000,"PART-1-1",           459,       13.3376,      -16.9670,            0.,NA,NA,"",   68.8735E-03,  -50.8728E-03,   46.4275E-03,   7.21106E-03
C:/temp/dataset/3/19_5.odb,Step-1,Increment      1: Step Time =    1.000,"PART-1-1",           460,       11.8219,      -18.0071,            0.,NA,NA,"",   31.9913E-03,  -29.1177E-03,   13.2517E-03,   3.30021E-03
C:/temp/dataset/3/19_5.odb,Step-1,Increment      1: Step Time =    1.000,"PART-1-1",           461,           15.,        -18.75,            0.,NA,NA,"",   66.5863E-03,  -29.2293E-03,   59.8280E-03,   11.3219E-03
C:/temp/dataset/3/19_5.odb,Step-1,Increment      1: Step Time =    1.000,"PART-1-1",           462,       8.42876,      -15.2973,            0.,NA,NA,"",   106.924E-03,  -84.4998E-03,  -65.5167E-03,   7.99311E-03
C:/temp/dataset/3/19_5.odb,Step-1,Increment      1: Step Time =    1.000,"PART-1-1",           463,       10.4111,      -16.6310,            0.,NA,NA,"",   53.6873E-03,  -51.8999E-03,  -13.7379E-03,   1.60599E-03
C:/temp/dataset/3/19_5.odb,Step-1,Increment      1: Step Time =    1.000,"PART-1-1",           464,       10.7289,      -14.9294,            0.,NA,NA,"",   90.9288E-03,  -90.5465E-03,  -8.32953E-03,   1.06848E-03
C:/temp/dataset/3/19_5.odb,Step-1,Increment      1: Step Time =    1.000,"PART-1-1",           465,       8.74656,      -13.5956,            0.,NA,NA,"",   146.391E-03,  -129.086E-03,  -69.0441E-03,   7.26879E-03
C:/temp/dataset/3/19_5.odb,Step-1,Increment      1: Step Time =    1.000,"PART-1-1",           466,      -8.72016,      -22.5745,            0.,NA,NA,"",   3.41738E-03,  -3.36262E-03,   609.353E-06,   113.426E-06
C:/temp/dataset/3/19_5.odb,Step-1,Increment      1: Step Time =    1.000,"PART-1-1",           467,      -7.48342,      -21.2909,            0.,NA,NA,"",   3.41348E-03,  -3.33966E-03,   706.030E-06,   75.5897E-06
C:/temp/dataset/3/19_5.odb,Step-1,Increment      1: Step Time =    1.000,"PART-1-1",           468,         -8.75,          -20.,            0.,NA,NA,"",   3.49120E-03,  -3.44224E-03,   582.649E-06,   148.365E-06
C:/temp/dataset/3/19_5.odb,Step-1,Increment      1: Step Time =    1.000,"PART-1-1",           469,      -9.98674,      -21.2836,            0.,NA,NA,"",   3.44312E-03,  -3.41271E-03,   456.601E-06,   38.9549E-06
C:/temp/dataset/3/19_5.odb,Step-1,Increment      1: Step Time =    1.000,"PART-1-1",           470,      -4.96670,      -26.3491,            0.,NA,NA,"",   3.89042E-03,  -3.88532E-03,  -199.114E-06,   697.946E-06
C:/temp/dataset/3/19_5.odb,Step-1,Increment      1: Step Time =    1.000,"PART-1-1",           471,      -6.21541,      -25.0985,            0.,NA,NA,"",   3.79222E-03,  -3.78335E-03,   259.232E-06,   483.556E-06
C:/temp/dataset/3/19_5.odb,Step-1,Increment      1: Step Time =    1.000,"PART-1-1",           472,      -7.47738,      -26.3212,            0.,NA,NA,"",   2.94417E-03,  -2.93857E-03,   181.507E-06,   468.286E-06
C:/temp/dataset/3/19_5.odb,Step-1,Increment      1: Step Time =    1.000,"PART-1-1",           473,      -6.22867,      -27.5719,            0.,NA,NA,"",   2.59982E-03,  -2.59855E-03,  -81.1856E-06,   712.557E-06
C:/temp/dataset/3/19_5.odb,Step-1,Increment      1: Step Time =    1.000,"PART-1-1",           474,   49.7896E-03,      -26.4387,            0.,NA,NA,"",   7.04776E-03,  -5.66200E-03,  -4.19673E-03,   2.00515E-03
C:/temp/dataset/3/19_5.odb,Step-1,Increment      1: Step Time =    1.000,"PART-1-1",           475,       1.24862,      -27.7048,            0.,NA,NA,"",   5.59136E-03,  -4.03223E-03,  -3.87356E-03,   2.52771E-03
C:/temp/dataset/3/19_5.odb,Step-1,Increment      1: Step Time =    1.000,"PART-1-1",           476,       2.52056,      -26.5649,            0.,NA,NA,"",   9.26624E-03,  -4.36501E-03,  -8.17374E-03,   3.55573E-03
C:/temp/dataset/3/19_5.odb,Step-1,Increment      1: Step Time =    1.000,"PART-1-1",           477,       1.32172,      -25.2988,            0.,NA,NA,"",   10.3900E-03,  -6.35483E-03,  -8.22002E-03,   2.88864E-03
C:/temp/dataset/3/19_5.odb,Step-1,Increment      1: Step Time =    1.000,"PART-1-1",           478,        -13.75,          -20.,            0.,NA,NA,"",   3.75539E-03,  -3.73627E-03,  -378.452E-06,   14.0684E-06
C:/temp/dataset/3/19_5.odb,Step-1,Increment      1: Step Time =    1.000,"PART-1-1",           479,          -15.,        -21.25,            0.,NA,NA,"",   3.52527E-03,  -3.46108E-03,  -669.697E-06,   11.2099E-06
C:/temp/dataset/3/19_5.odb,Step-1,Increment      1: Step Time =    1.000,"PART-1-1",           480,      -13.7430,      -22.5153,            0.,NA,NA,"",   3.21746E-03,  -3.19430E-03,  -385.355E-06,   30.2071E-06
C:/temp/dataset/3/19_5.odb,Step-1,Increment      1: Step Time =    1.000,"PART-1-1",           481,      -12.4930,      -21.2653,            0.,NA,NA,"",   3.45339E-03,  -3.45263E-03,  -72.3479E-06,   26.6706E-06
C:/temp/dataset/3/19_5.odb,Step-1,Increment      1: Step Time =    1.000,"PART-1-1",           482,      -11.2297,      -22.5489,            0.,NA,NA,"",   3.23748E-03,  -3.23072E-03,   209.180E-06,   53.8337E-06
C:/temp/dataset/3/19_5.odb,Step-1,Increment      1: Step Time =    1.000,"PART-1-1",           483,        -11.25,          -20.,            0.,NA,NA,"",   3.66884E-03,  -3.66392E-03,   190.008E-06,   66.6667E-06
C:/temp/dataset/3/19_5.odb,Step-1,Increment      1: Step Time =    1.000,"PART-1-1",           484,      -13.7448,      -25.0201,            0.,NA,NA,"",   2.55428E-03,  -2.51985E-03,  -418.009E-06,   46.4223E-06
C:/temp/dataset/3/19_5.odb,Step-1,Increment      1: Step Time =    1.000,"PART-1-1",           485,      -12.4878,      -23.7854,            0.,NA,NA,"",   2.91925E-03,  -2.91786E-03,  -89.8884E-06,   37.5784E-06
C:/temp/dataset/3/19_5.odb,Step-1,Increment      1: Step Time =    1.000,"PART-1-1",           486,          -15.,        -23.75,            0.,NA,NA,"",   2.97127E-03,  -2.87826E-03,  -737.611E-06,   36.6472E-06
C:/temp/dataset/3/19_5.odb,Step-1,Increment      1: Step Time =    1.000,"PART-1-1",           487,       13.7335,      -27.5520,            0.,NA,NA,"",   8.46160E-03,   7.85272E-03,   3.15175E-03,   2.69599E-03
C:/temp/dataset/3/19_5.odb,Step-1,Increment      1: Step Time =    1.000,"PART-1-1",           488,       12.4835,      -28.8020,            0.,NA,NA,"",   4.89410E-03,   4.84688E-03,   678.158E-06,   3.08907E-03
C:/temp/dataset/3/19_5.odb,Step-1,Increment      1: Step Time =    1.000,"PART-1-1",           489,         13.75,          -30.,            0.,NA,NA,"",            0.,   1.50342E-39,   1.03078E-39,   2.10276E-03
C:/temp/dataset/3/19_5.odb,Step-1,Increment      1: Step Time =    1.000,"PART-1-1",           490,           15.,        -28.75,            0.,NA,NA,"",   3.15508E-03,   3.15454E-03,   58.6030E-06,   1.55404E-03
C:/temp/dataset/3/19_5.odb,Step-1,Increment      1: Step Time =    1.000,"PART-1-1",           491,       9.98010,      -28.8907,            0.,NA,NA,"",   4.83961E-03,   4.70890E-03,  -1.11718E-03,   3.23362E-03
C:/temp/dataset/3/19_5.odb,Step-1,Increment      1: Step Time =    1.000,"PART-1-1",           492,       8.70049,      -27.8380,            0.,NA,NA,"",   7.96461E-03,   6.64877E-03,  -4.38506E-03,   3.51291E-03
C:/temp/dataset/3/19_5.odb,Step-1,Increment      1: Step Time =    1.000,"PART-1-1",           493,          8.75,          -30.,            0.,NA,NA,"",            0.,   2.58491E-39,  -3.50046E-39,   3.14278E-03
C:/temp/dataset/3/19_5.odb,Step-1,Increment      1: Step Time =    1.000,"PART-1-1",           494,       11.2136,      -27.6927,            0.,NA,NA,"",   8.86878E-03,   8.85845E-03,  -427.814E-06,   2.86267E-03
C:/temp/dataset/3/19_5.odb,Step-1,Increment      1: Step Time =    1.000,"PART-1-1",           495,       12.3768,      -26.3916,            0.,NA,NA,"",   12.0384E-03,   11.7412E-03,   2.65826E-03,   3.43805E-03
C:/temp/dataset/3/19_5.odb,Step-1,Increment      1: Step Time =    1.000,"PART-1-1",           496,       11.0556,      -25.4315,            0.,NA,NA,"",   13.3769E-03,   13.2610E-03,  -1.75676E-03,   3.48299E-03
C:/temp/dataset/3/19_5.odb,Step-1,Increment      1: Step Time =    1.000,"PART-1-1",           497,       9.89242,      -26.7326,            0.,NA,NA,"",   11.3311E-03,   10.4317E-03,  -4.42433E-03,   3.76819E-03
C:/temp/dataset/3/19_5.odb,Step-1,Increment      1: Step Time =    1.000,"PART-1-1",           498,   9.79186E-03,      -28.8313,            0.,NA,NA,"",   2.89544E-03,  -2.54535E-03,  -1.38015E-03,   2.10183E-03
C:/temp/dataset/3/19_5.odb,Step-1,Increment      1: Step Time =    1.000,"PART-1-1",           499,          1.25,          -30.,            0.,NA,NA,"",            0.,  -1.48088E-39,  -3.72797E-39,   2.41359E-03
C:/temp/dataset/3/19_5.odb,Step-1,Increment      1: Step Time =    1.000,"PART-1-1",           500,      -1.18061,      -25.1833,            0.,NA,NA,"",   6.88314E-03,  -6.09324E-03,  -3.20156E-03,   1.46219E-03
C:/temp/dataset/3/19_5.odb,Step-1,Increment      1: Step Time =    1.000,"PART-1-1",           501,      -2.45538,      -26.3836,            0.,NA,NA,"",   5.21699E-03,  -5.00888E-03,  -1.45881E-03,   1.13449E-03
C:/temp/dataset/3/19_5.odb,Step-1,Increment      1: Step Time =    1.000,"PART-1-1",           502,      -1.22498,      -27.6390,            0.,NA,NA,"",   4.61950E-03,  -4.23987E-03,  -1.83390E-03,   1.60118E-03
C:/temp/dataset/3/19_5.odb,Step-1,Increment      1: Step Time =    1.000,"PART-1-1",           503,      -3.70005,      -25.1329,            0.,NA,NA,"",   4.89242E-03,  -4.85137E-03,  -632.427E-06,   780.618E-06
C:/temp/dataset/3/19_5.odb,Step-1,Increment      1: Step Time =    1.000,"PART-1-1",           504,      -7.49141,      -28.7797,            0.,NA,NA,"",   1.23339E-03,  -1.23211E-03,  -56.2588E-06,   631.090E-06
C:/temp/dataset/3/19_5.odb,Step-1,Increment      1: Step Time =    1.000,"PART-1-1",           505,         -6.25,          -30.,            0.,NA,NA,"",            0.,  -826.629E-42,  -467.868E-42,   907.783E-06
C:/temp/dataset/3/19_5.odb,Step-1,Increment      1: Step Time =    1.000,"PART-1-1",           506,      -12.4949,      -26.2800,            0.,NA,NA,"",   2.03648E-03,  -2.03268E-03,  -124.384E-06,   213.787E-06
C:/temp/dataset/3/19_5.odb,Step-1,Increment      1: Step Time =    1.000,"PART-1-1",           507,          -15.,        -26.25,            0.,NA,NA,"",   2.21033E-03,  -2.04281E-03,  -844.091E-06,   49.5049E-06
C:/temp/dataset/3/19_5.odb,Step-1,Increment      1: Step Time =    1.000,"PART-1-1",           508,       12.0036,      -23.8365,            0.,NA,NA,"",   13.9037E-03,   13.3560E-03,   3.86385E-03,   3.91825E-03
C:/temp/dataset/3/19_5.odb,Step-1,Increment      1: Step Time =    1.000,"PART-1-1",           509,       13.6432,      -25.0896,            0.,NA,NA,"",   14.9046E-03,   12.0548E-03,   8.76523E-03,   3.85676E-03
C:/temp/dataset/3/19_5.odb,Step-1,Increment      1: Step Time =    1.000,"PART-1-1",           510,           15.,        -23.75,            0.,NA,NA,"",   19.8949E-03,   7.81185E-03,   18.2970E-03,   6.73868E-03
C:/temp/dataset/3/19_5.odb,Step-1,Increment      1: Step Time =    1.000,"PART-1-1",           511,         11.25,          -30.,            0.,NA,NA,"",            0.,   3.20802E-39,  -586.635E-42,   3.02271E-03
C:/temp/dataset/3/19_5.odb,Step-1,Increment      1: Step Time =    1.000,"PART-1-1",           512,       13.9281,      -14.6298,            0.,NA,NA,"",   130.777E-03,  -105.877E-03,   76.7652E-03,   9.39042E-03
C:/temp/dataset/3/19_5.odb,Step-1,Increment      1: Step Time =    1.000,"PART-1-1",           513,       12.2657,      -15.3468,            0.,NA,NA,"",   87.7402E-03,  -82.3677E-03,   30.2307E-03,   4.13697E-03
C:/temp/dataset/3/19_5.odb,Step-1,Increment      1: Step Time =    1.000,"PART-1-1",           514,           15.,        -16.25,            0.,NA,NA,"",   113.266E-03,  -72.9881E-03,   86.6133E-03,   12.5103E-03
C:/temp/dataset/3/19_5.odb,Step-1,Increment      1: Step Time =    1.000,"PART-1-1",           515,       7.13425,      -14.5121,            0.,NA,NA,"",   153.211E-03,  -109.963E-03,  -106.685E-03,   12.6564E-03
C:/temp/dataset/3/19_5.odb,Step-1,Increment      1: Step Time =    1.000,"PART-1-1",           516,       6.81531,      -16.2905,            0.,NA,NA,"",   115.265E-03,  -67.7267E-03,  -93.2693E-03,   13.3138E-03
C:/temp/dataset/3/19_5.odb,Step-1,Increment      1: Step Time =    1.000,"PART-1-1",           517,       8.10983,      -17.0757,            0.,NA,NA,"",   75.1030E-03,  -46.3311E-03,  -59.1091E-03,   8.65964E-03
C:/temp/dataset/3/19_5.odb,Step-1,Increment      1: Step Time =    1.000,"PART-1-1",           518,       13.8641,      -7.41825,            0.,NA,NA,"",   398.590E-03,  -376.678E-03,   130.337E-03,   9.23388E-03
C:/temp/dataset/3/19_5.odb,Step-1,Increment      1: Step Time =    1.000,"PART-1-1",           519,       13.0286,      -8.63342,            0.,NA,NA,"",   326.497E-03,  -315.308E-03,   84.7442E-03,   6.67811E-03
C:/temp/dataset/3/19_5.odb,Step-1,Increment      1: Step Time =    1.000,"PART-1-1",           520,       14.1645,      -9.96517,            0.,NA,NA,"",   291.042E-03,  -263.436E-03,   123.721E-03,   10.4682E-03
C:/temp/dataset/3/19_5.odb,Step-1,Increment      1: Step Time =    1.000,"PART-1-1",           521,           15.,         -8.75,            0.,NA,NA,"",   363.432E-03,  -320.803E-03,   170.788E-03,   13.0920E-03
C:/temp/dataset/3/19_5.odb,Step-1,Increment      1: Step Time =    1.000,"PART-1-1",           522,       12.0251,      -10.9831,            0.,NA,NA,"",   218.058E-03,  -215.193E-03,   35.2318E-03,   3.41947E-03
C:/temp/dataset/3/19_5.odb,Step-1,Increment      1: Step Time =    1.000,"PART-1-1",           523,       12.8055,      -11.9581,            0.,NA,NA,"",   192.011E-03,  -182.462E-03,   59.7977E-03,   5.86106E-03
C:/temp/dataset/3/19_5.odb,Step-1,Increment      1: Step Time =    1.000,"PART-1-1",           524,       13.3751,      -11.0455,            0.,NA,NA,"",   233.431E-03,  -217.335E-03,   85.1802E-03,   7.76985E-03
C:/temp/dataset/3/19_5.odb,Step-1,Increment      1: Step Time =    1.000,"PART-1-1",           525,       12.5947,      -10.0706,            0.,NA,NA,"",   259.342E-03,  -252.283E-03,   60.0958E-03,   5.29504E-03
C:/temp/dataset/3/19_5.odb,Step-1,Increment      1: Step Time =    1.000,"PART-1-1",           526,       11.4853,  -434.223E-03,            0.,NA,NA,"",   784.077E-03,  -783.907E-03,   16.3403E-03,   4.33982E-03
C:/temp/dataset/3/19_5.odb,Step-1,Increment      1: Step Time =    1.000,"PART-1-1",           527,       10.5886,      -1.82652,            0.,NA,NA,"",   690.801E-03,  -689.975E-03,  -33.7574E-03,   4.81759E-03
C:/temp/dataset/3/19_5.odb,Step-1,Increment      1: Step Time =    1.000,"PART-1-1",           528,       11.9063,      -2.70193,            0.,NA,NA,"",   637.842E-03,  -636.383E-03,   43.1082E-03,   4.69901E-03
C:/temp/dataset/3/19_5.odb,Step-1,Increment      1: Step Time =    1.000,"PART-1-1",           529,       14.1300,       7.44597,            0.,NA,NA,"",       1.33580,      -1.32455,   173.025E-03,   199.012E-06
C:/temp/dataset/3/19_5.odb,Step-1,Increment      1: Step Time =    1.000,"PART-1-1",           530,       13.1865,       6.25975,            0.,NA,NA,"",       1.24766,      -1.24256,   112.666E-03,   812.305E-06
C:/temp/dataset/3/19_5.odb,Step-1,Increment      1: Step Time =    1.000,"PART-1-1",           531,           15.,          6.25,            0.,NA,NA,"",       1.26785,      -1.24609,   233.894E-03,   317.091E-06
C:/temp/dataset/3/19_5.odb,Step-1,Increment      1: Step Time =    1.000,"PART-1-1",           532,       12.4155,       5.33720,            0.,NA,NA,"",       1.18022,      -1.17850,   63.6295E-03,   1.33151E-03
C:/temp/dataset/3/19_5.odb,Step-1,Increment      1: Step Time =    1.000,"PART-1-1",           533,       11.2733,       3.54111,            0.,NA,NA,"",       1.05439,      -1.05437,  -6.39291E-03,   2.62519E-03
C:/temp/dataset/3/19_5.odb,Step-1,Increment      1: Step Time =    1.000,"PART-1-1",           534,       12.2480,       13.5548,            0.,NA,NA,"",       1.72809,      -1.72776,   34.0820E-03,   41.7049E-06
C:/temp/dataset/3/19_5.odb,Step-1,Increment      1: Step Time =    1.000,"PART-1-1",           535,           15.,         13.75,            0.,NA,NA,"",       1.76018,      -1.74680,   216.649E-03,   59.2077E-06
C:/temp/dataset/3/19_5.odb,Step-1,Increment      1: Step Time =    1.000,"PART-1-1",           536,       13.6600,       14.9734,            0.,NA,NA,"",       1.82940,      -1.82514,   124.835E-03,   25.3839E-06
C:/temp/dataset/3/19_5.odb,Step-1,Increment      1: Step Time =    1.000,"PART-1-1",           537,       8.15326,       10.4556,            0.,NA,NA,"",       1.53044,      -1.51287,  -231.225E-03,   111.616E-06
C:/temp/dataset/3/19_5.odb,Step-1,Increment      1: Step Time =    1.000,"PART-1-1",           538,       12.3824,       21.2920,            0.,NA,NA,"",       2.24225,      -2.24210,   25.9533E-03,   2.56923E-06
C:/temp/dataset/3/19_5.odb,Step-1,Increment      1: Step Time =    1.000,"PART-1-1",           539,       13.6892,       20.0188,            0.,NA,NA,"",       2.16349,      -2.16040,   115.597E-03,   2.33606E-06
C:/temp/dataset/3/19_5.odb,Step-1,Increment      1: Step Time =    1.000,"PART-1-1",           540,           15.,         21.25,            0.,NA,NA,"",       2.25399,      -2.24510,   199.970E-03,   516.949E-09
C:/temp/dataset/3/19_5.odb,Step-1,Increment      1: Step Time =    1.000,"PART-1-1",           541,       13.6932,       22.5232,            0.,NA,NA,"",       2.32942,      -2.32680,   110.328E-03,   400.356E-09
C:/temp/dataset/3/19_5.odb,Step-1,Increment      1: Step Time =    1.000,"PART-1-1",           542,       9.77662,       16.3041,            0.,NA,NA,"",       1.90978,      -1.90492,  -136.201E-03,   26.4060E-06
C:/temp/dataset/3/19_5.odb,Step-1,Increment      1: Step Time =    1.000,"PART-1-1",           543,       11.0318,       15.0036,            0.,NA,NA,"",       1.82199,      -1.82131,  -49.9442E-03,   30.7826E-06
C:/temp/dataset/3/19_5.odb,Step-1,Increment      1: Step Time =    1.000,"PART-1-1",           544,       12.3430,       16.2301,            0.,NA,NA,"",       1.90603,      -1.90571,   34.5113E-03,   24.4203E-06
C:/temp/dataset/3/19_5.odb,Step-1,Increment      1: Step Time =    1.000,"PART-1-1",           545,         13.75,           30.,            0.,NA,NA,"",       2.82540,      -2.82372,   97.5815E-03,   45.4048E-09
C:/temp/dataset/3/19_5.odb,Step-1,Increment      1: Step Time =    1.000,"PART-1-1",           546,       12.4862,       28.7548,            0.,NA,NA,"",       2.73824,      -2.73819,   16.3590E-03,   167.424E-09
C:/temp/dataset/3/19_5.odb,Step-1,Increment      1: Step Time =    1.000,"PART-1-1",           547,           15.,         28.75,            0.,NA,NA,"",       2.74955,      -2.74342,   183.399E-03,   54.7286E-09
C:/temp/dataset/3/19_5.odb,Step-1,Increment      1: Step Time =    1.000,"PART-1-1",           548,       12.4064,       23.7898,            0.,NA,NA,"",       2.40822,      -2.40812,   22.0292E-03,   363.711E-09
C:/temp/dataset/3/19_5.odb,Step-1,Increment      1: Step Time =    1.000,"PART-1-1",           549,           15.,         23.75,            0.,NA,NA,"",       2.41903,      -2.41121,   194.447E-03,   436.150E-09
C:/temp/dataset/3/19_5.odb,Step-1,Increment      1: Step Time =    1.000,"PART-1-1",           550,       9.91541,       26.3072,            0.,NA,NA,"",       2.57420,      -2.56988,  -149.043E-03,   140.562E-09
C:/temp/dataset/3/19_5.odb,Step-1,Increment      1: Step Time =    1.000,"PART-1-1",           551,       11.1537,       25.0565,            0.,NA,NA,"",       2.49034,      -2.48951,  -64.0009E-03,   178.130E-09
C:/temp/dataset/3/19_5.odb,Step-1,Increment      1: Step Time =    1.000,"PART-1-1",           552,       11.2110,       27.5221,            0.,NA,NA,"",       2.65428,      -2.65347,  -65.6411E-03,   213.190E-09
C:/temp/dataset/3/19_5.odb,Step-1,Increment      1: Step Time =    1.000,"PART-1-1",           553,       8.69233,       27.5515,            0.,NA,NA,"",       2.66008,      -2.64985,  -233.059E-03,   117.570E-09
C:/temp/dataset/3/19_5.odb,Step-1,Increment      1: Step Time =    1.000,"PART-1-1",           554,       7.41297,       26.3376,            0.,NA,NA,"",       2.58568,      -2.56637,  -315.383E-03,   79.5163E-09
C:/temp/dataset/3/19_5.odb,Step-1,Increment      1: Step Time =    1.000,"PART-1-1",           555,       8.63604,       25.0933,            0.,NA,NA,"",       2.49714,      -2.48640,  -231.367E-03,   184.163E-09
C:/temp/dataset/3/19_5.odb,Step-1,Increment      1: Step Time =    1.000,"PART-1-1",           556,      -1.26375,       27.5391,            0.,NA,NA,"",       2.77516,      -2.62703,  -894.562E-03,   43.7070E-09
C:/temp/dataset/3/19_5.odb,Step-1,Increment      1: Step Time =    1.000,"PART-1-1",           557,         -1.25,           30.,            0.,NA,NA,"",       2.93183,      -2.79057,  -899.086E-03,   53.5452E-09
C:/temp/dataset/3/19_5.odb,Step-1,Increment      1: Step Time =    1.000,"PART-1-1",           558,      -2.50500,       28.7640,            0.,NA,NA,"",       2.87759,      -2.70567,  -979.743E-03,   28.2451E-09
C:/temp/dataset/3/19_5.odb,Step-1,Increment      1: Step Time =    1.000,"PART-1-1",           559,      -7.50143,       28.7522,            0.,NA,NA,"",       2.99623,      -2.69385,      -1.31170,   15.1074E-09
C:/temp/dataset/3/19_5.odb,Step-1,Increment      1: Step Time =    1.000,"PART-1-1",           560,         -8.75,           30.,            0.,NA,NA,"",       3.10610,      -2.77400,      -1.39742,   16.3932E-09
C:/temp/dataset/3/19_5.odb,Step-1,Increment      1: Step Time =    1.000,"PART-1-1",           561,      -6.25460,       27.5081,            0.,NA,NA,"",       2.88722,      -2.61394,      -1.22611,   14.4875E-09
C:/temp/dataset/3/19_5.odb,Step-1,Increment      1: Step Time =    1.000,"PART-1-1",           562,        -13.75,           30.,            0.,NA,NA,"",       3.25969,      -2.76295,      -1.72965,   8.71217E-09
C:/temp/dataset/3/19_5.odb,Step-1,Increment      1: Step Time =    1.000,"PART-1-1",           563,          -15.,         28.75,            0.,NA,NA,"",       3.23155,      -2.67713,      -1.80994,   5.18677E-09
C:/temp/dataset/3/19_5.odb,Step-1,Increment      1: Step Time =    1.000,"PART-1-1",           564,      -13.7509,       27.5010,            0.,NA,NA,"",       3.11716,      -2.59690,      -1.72419,   6.56102E-09
C:/temp/dataset/3/19_5.odb,Step-1,Increment      1: Step Time =    1.000,"PART-1-1",           565,          -15.,         26.25,            0.,NA,NA,"",       3.09211,      -2.51102,      -1.80442,   5.77897E-09
C:/temp/dataset/3/19_5.odb,Step-1,Increment      1: Step Time =    1.000,"PART-1-1",           566,      -12.5016,       26.2536,            0.,NA,NA,"",       3.00309,      -2.51678,      -1.63842,   8.42249E-09
C:/temp/dataset/3/19_5.odb,Step-1,Increment      1: Step Time =    1.000,"PART-1-1",           567,      -7.50093,       21.2547,            0.,NA,NA,"",       2.54917,      -2.19568,      -1.29510,   11.7498E-09
C:/temp/dataset/3/19_5.odb,Step-1,Increment      1: Step Time =    1.000,"PART-1-1",           568,         -6.25,           20.,            0.,NA,NA,"",       2.43633,      -2.11507,      -1.20921,   19.2764E-09
C:/temp/dataset/3/19_5.odb,Step-1,Increment      1: Step Time =    1.000,"PART-1-1",           569,      -4.99978,       21.2574,            0.,NA,NA,"",       2.47398,      -2.20138,      -1.12892,   14.9891E-09
C:/temp/dataset/3/19_5.odb,Step-1,Increment      1: Step Time =    1.000,"PART-1-1",           570,      -3.74911,       22.5208,            0.,NA,NA,"",       2.51694,      -2.28810,      -1.04861,   15.9009E-09
C:/temp/dataset/3/19_5.odb,Step-1,Increment      1: Step Time =    1.000,"PART-1-1",           571,         -3.75,           20.,            0.,NA,NA,"",       2.36326,      -2.12060,      -1.04310,   21.3069E-09
C:/temp/dataset/3/19_5.odb,Step-1,Increment      1: Step Time =    1.000,"PART-1-1",           572,      -2.49933,       21.2634,            0.,NA,NA,"",       2.40815,      -2.20731,  -962.791E-03,   22.5842E-09
C:/temp/dataset/3/19_5.odb,Step-1,Increment      1: Step Time =    1.000,"PART-1-1",           573,         -1.25,           20.,            0.,NA,NA,"",       2.29989,      -2.12612,  -876.988E-03,   22.7886E-09
C:/temp/dataset/3/19_5.odb,Step-1,Increment      1: Step Time =    1.000,"PART-1-1",           574,  -2.23348E-03,       21.2694,            0.,NA,NA,"",       2.35232,      -2.21322,  -796.885E-03,   35.1840E-09
C:/temp/dataset/3/19_5.odb,Step-1,Increment      1: Step Time =    1.000,"PART-1-1",           575,      -1.25156,       22.5328,            0.,NA,NA,"",       2.45835,      -2.29441,  -882.688E-03,   44.8335E-09
C:/temp/dataset/3/19_5.odb,Step-1,Increment      1: Step Time =    1.000,"PART-1-1",           576,         -3.75,           30.,            0.,NA,NA,"",       2.98180,      -2.78505,      -1.06520,   29.5974E-09
C:/temp/dataset/3/19_5.odb,Step-1,Increment      1: Step Time =    1.000,"PART-1-1",           577,      -5.00318,       28.7559,            0.,NA,NA,"",       2.93268,      -2.69962,      -1.14572,   19.2922E-09
C:/temp/dataset/3/19_5.odb,Step-1,Increment      1: Step Time =    1.000,"PART-1-1",           578,       7.36074,       18.8052,            0.,NA,NA,"",       2.08775,      -2.06576,  -302.208E-03,   8.83987E-06
C:/temp/dataset/3/19_5.odb,Step-1,Increment      1: Step Time =    1.000,"PART-1-1",           579,       8.58169,       17.5494,            0.,NA,NA,"",       1.99698,      -1.98501,  -218.322E-03,   13.0738E-06
C:/temp/dataset/3/19_5.odb,Step-1,Increment      1: Step Time =    1.000,"PART-1-1",           580,       8.60057,       20.0599,            0.,NA,NA,"",       2.16336,      -2.15187,  -222.604E-03,   3.84053E-06
C:/temp/dataset/3/19_5.odb,Step-1,Increment      1: Step Time =    1.000,"PART-1-1",           581,            5.,         18.75,            0.,NA,NA,"",       2.10745,      -2.05687,  -458.940E-03,   5.22819E-06
C:/temp/dataset/3/19_5.odb,Step-1,Increment      1: Step Time =    1.000,"PART-1-1",           582,       6.17685,       17.5255,            0.,NA,NA,"",       2.01390,      -1.97810,  -378.034E-03,   8.44046E-06
C:/temp/dataset/3/19_5.odb,Step-1,Increment      1: Step Time =    1.000,"PART-1-1",           583,       6.18390,       20.0298,            0.,NA,NA,"",       2.17848,      -2.14453,  -383.107E-03,   2.31402E-06
C:/temp/dataset/3/19_5.odb,Step-1,Increment      1: Step Time =    1.000,"PART-1-1",           584,            5.,         16.25,            0.,NA,NA,"",       1.94435,      -1.89075,  -453.396E-03,   24.0703E-06
C:/temp/dataset/3/19_5.odb,Step-1,Increment      1: Step Time =    1.000,"PART-1-1",           585,       6.15340,       15.0385,            0.,NA,NA,"",       1.85097,      -1.81278,  -374.066E-03,   28.3417E-06
C:/temp/dataset/3/19_5.odb,Step-1,Increment      1: Step Time =    1.000,"PART-1-1",           586,       7.33024,       16.3140,            0.,NA,NA,"",       1.92348,      -1.90014,  -298.734E-03,   24.9008E-06
C:/temp/dataset/3/19_5.odb,Step-1,Increment      1: Step Time =    1.000,"PART-1-1",           587,           15.,         16.25,            0.,NA,NA,"",       1.92451,      -1.91291,   211.041E-03,   22.0986E-06
C:/temp/dataset/3/19_5.odb,Step-1,Increment      1: Step Time =    1.000,"PART-1-1",           588,       13.6830,       17.5067,            0.,NA,NA,"",       1.99715,      -1.99349,   120.741E-03,   8.97492E-06
C:/temp/dataset/3/19_5.odb,Step-1,Increment      1: Step Time =    1.000,"PART-1-1",           589,           15.,         18.75,            0.,NA,NA,"",       2.08913,      -2.07900,   205.497E-03,   5.25294E-06
C:/temp/dataset/3/19_5.odb,Step-1,Increment      1: Step Time =    1.000,"PART-1-1",           590,       7.36831,       6.81272,            0.,NA,NA,"",       1.30089,      -1.27148,  -275.058E-03,   1.60984E-03
C:/temp/dataset/3/19_5.odb,Step-1,Increment      1: Step Time =    1.000,"PART-1-1",           591,       6.10412,       7.73110,            0.,NA,NA,"",       1.37751,      -1.32924,  -361.472E-03,   499.253E-06
C:/temp/dataset/3/19_5.odb,Step-1,Increment      1: Step Time =    1.000,"PART-1-1",           592,            5.,          6.25,            0.,NA,NA,"",       1.30431,      -1.23078,  -431.752E-03,   3.00970E-03
C:/temp/dataset/3/19_5.odb,Step-1,Increment      1: Step Time =    1.000,"PART-1-1",           593,       6.26419,       5.33162,            0.,NA,NA,"",       1.22442,      -1.17486,  -344.854E-03,   3.96508E-03
C:/temp/dataset/3/19_5.odb,Step-1,Increment      1: Step Time =    1.000,"PART-1-1",           594,           15.,          8.75,            0.,NA,NA,"",       1.43215,      -1.41384,   228.261E-03,   82.9065E-06
C:/temp/dataset/3/19_5.odb,Step-1,Increment      1: Step Time =    1.000,"PART-1-1",           595,       13.1418,       8.51598,            0.,NA,NA,"",       1.39803,      -1.39410,   104.760E-03,   242.647E-06
C:/temp/dataset/3/19_5.odb,Step-1,Increment      1: Step Time =    1.000,"PART-1-1",           596,       6.30252,      -5.49102,            0.,NA,NA,"",   525.396E-03,  -457.526E-03,  -258.286E-03,   14.7218E-03
C:/temp/dataset/3/19_5.odb,Step-1,Increment      1: Step Time =    1.000,"PART-1-1",           597,            5.,         -6.25,            0.,NA,NA,"",   535.730E-03,  -430.185E-03,  -319.293E-03,   25.1428E-03
C:/temp/dataset/3/19_5.odb,Step-1,Increment      1: Step Time =    1.000,"PART-1-1",           598,       6.10325,      -7.87566,            0.,NA,NA,"",   421.329E-03,  -349.777E-03,  -234.892E-03,   16.3663E-03
C:/temp/dataset/3/19_5.odb,Step-1,Increment      1: Step Time =    1.000,"PART-1-1",           599,       7.40577,      -7.11668,            0.,NA,NA,"",   419.658E-03,  -378.533E-03,  -181.179E-03,   9.31263E-03
C:/temp/dataset/3/19_5.odb,Step-1,Increment      1: Step Time =    1.000,"PART-1-1",           600,            5.,         -8.75,            0.,NA,NA,"",   418.242E-03,  -321.754E-03,  -267.208E-03,   19.9439E-03
C:/temp/dataset/3/19_5.odb,Step-1,Increment      1: Step Time =    1.000,"PART-1-1",           601,            5.,        -13.75,            0.,NA,NA,"",   229.702E-03,  -145.139E-03,  -178.039E-03,   19.0124E-03
C:/temp/dataset/3/19_5.odb,Step-1,Increment      1: Step Time =    1.000,"PART-1-1",           602,       5.77894,      -15.1288,            0.,NA,NA,"",   169.014E-03,  -102.513E-03,  -134.376E-03,   16.7861E-03
C:/temp/dataset/3/19_5.odb,Step-1,Increment      1: Step Time =    1.000,"PART-1-1",           603,            5.,        -16.25,            0.,NA,NA,"",   158.204E-03,  -82.0510E-03,  -135.263E-03,   19.2597E-03
C:/temp/dataset/3/19_5.odb,Step-1,Increment      1: Step Time =    1.000,"PART-1-1",           604,       2.77244,      -24.0596,            0.,NA,NA,"",   16.7155E-03,  -6.48674E-03,  -15.4055E-03,   4.53318E-03
C:/temp/dataset/3/19_5.odb,Step-1,Increment      1: Step Time =    1.000,"PART-1-1",           605,       3.76359,      -25.5842,            0.,NA,NA,"",   14.1618E-03,  -3.45542E-03,  -13.7338E-03,   4.81086E-03
C:/temp/dataset/3/19_5.odb,Step-1,Increment      1: Step Time =    1.000,"PART-1-1",           606,       5.11162,      -24.8806,            0.,NA,NA,"",   19.6453E-03,  -571.318E-06,  -19.6370E-03,   6.58371E-03
C:/temp/dataset/3/19_5.odb,Step-1,Increment      1: Step Time =    1.000,"PART-1-1",           607,       4.12047,      -23.3559,            0.,NA,NA,"",   25.7061E-03,  -5.16858E-03,  -25.1812E-03,   6.63639E-03
C:/temp/dataset/3/19_5.odb,Step-1,Increment      1: Step Time =    1.000,"PART-1-1",           608,       8.48587,      -2.76980,            0.,NA,NA,"",   644.860E-03,  -626.646E-03,  -152.182E-03,   6.42343E-03
C:/temp/dataset/3/19_5.odb,Step-1,Increment      1: Step Time =    1.000,"PART-1-1",           609,       9.66601,      -3.38468,            0.,NA,NA,"",   594.297E-03,  -588.656E-03,  -81.6902E-03,   4.83721E-03
C:/temp/dataset/3/19_5.odb,Step-1,Increment      1: Step Time =    1.000,"PART-1-1",           610,       9.40849,      -1.21164,            0.,NA,NA,"",   737.112E-03,  -729.493E-03,  -105.708E-03,   5.44168E-03
C:/temp/dataset/3/19_5.odb,Step-1,Increment      1: Step Time =    1.000,"PART-1-1",           611,       3.88333,            5.,            0.,NA,NA,"",       1.26973,      -1.15814,  -520.489E-03,   7.08509E-03
C:/temp/dataset/3/19_5.odb,Step-1,Increment      1: Step Time =    1.000,"PART-1-1",           612,       3.93709,       2.49951,            0.,NA,NA,"",       1.10261,  -983.682E-03,  -498.107E-03,   5.88210E-03
C:/temp/dataset/3/19_5.odb,Step-1,Increment      1: Step Time =    1.000,"PART-1-1",           613,       5.14044,       3.62548,            0.,NA,NA,"",       1.13867,      -1.06007,  -415.713E-03,   5.20926E-03
C:/temp/dataset/3/19_5.odb,Step-1,Increment      1: Step Time =    1.000,"PART-1-1",           614,       1.70000,           -5.,            0.,NA,NA,"",   780.223E-03,  -456.048E-03,  -633.063E-03,   1.02235E-03
C:/temp/dataset/3/19_5.odb,Step-1,Increment      1: Step Time =    1.000,"PART-1-1",           615,       2.88648,      -4.17028,            0.,NA,NA,"",   754.329E-03,  -525.717E-03,  -540.956E-03,   4.64600E-03
C:/temp/dataset/3/19_5.odb,Step-1,Increment      1: Step Time =    1.000,"PART-1-1",           616,       1.90498,      -3.27989,            0.,NA,NA,"",   853.557E-03,  -585.810E-03,  -620.794E-03,   4.15714E-03
C:/temp/dataset/3/19_5.odb,Step-1,Increment      1: Step Time =    1.000,"PART-1-1",           617,      -2.82853,       3.20340,            0.,NA,NA,"",       1.43136,      -1.03188,  -991.972E-03,   1.03422E-03
C:/temp/dataset/3/19_5.odb,Step-1,Increment      1: Step Time =    1.000,"PART-1-1",           618,      -1.73717,       4.08745,            0.,NA,NA,"",       1.43102,      -1.09567,  -920.510E-03,   2.76380E-03
C:/temp/dataset/3/19_5.odb,Step-1,Increment      1: Step Time =    1.000,"PART-1-1",           619,      -2.81667,            5.,            0.,NA,NA,"",       1.52589,      -1.15615,  -995.811E-03,   1.14638E-03
C:/temp/dataset/3/19_5.odb,Step-1,Increment      1: Step Time =    1.000,"PART-1-1",           620,      -7.28333,            5.,            0.,NA,NA,"",       1.74264,      -1.14821,      -1.31088,   293.891E-06
C:/temp/dataset/3/19_5.odb,Step-1,Increment      1: Step Time =    1.000,"PART-1-1",           621,      -11.7000,            5.,            0.,NA,NA,"",       1.98352,      -1.13743,      -1.62500,   25.4714E-06
C:/temp/dataset/3/19_5.odb,Step-1,Increment      1: Step Time =    1.000,"PART-1-1",           622,      -11.5540,       2.50359,            0.,NA,NA,"",       1.87321,  -960.360E-03,      -1.60830,   52.0569E-06
C:/temp/dataset/3/19_5.odb,Step-1,Increment      1: Step Time =    1.000,"PART-1-1",           623,      -8.37698,      -4.01732,            0.,NA,NA,"",       1.45649,  -504.680E-03,      -1.36626,   112.051E-06
C:/temp/dataset/3/19_5.odb,Step-1,Increment      1: Step Time =    1.000,"PART-1-1",           624,      -10.5279,      -3.86372,            0.,NA,NA,"",       1.60285,  -510.273E-03,      -1.51946,   43.6521E-06
C:/temp/dataset/3/19_5.odb,Step-1,Increment      1: Step Time =    1.000,"PART-1-1",           625,      -9.41667,           -5.,            0.,NA,NA,"",       1.50119,  -432.256E-03,      -1.43761,   90.8405E-06
C:/temp/dataset/3/19_5.odb,Step-1,Increment      1: Step Time =    1.000,"PART-1-1",           626,          3.75,          -20.,            0.,NA,NA,"",   29.0931E-03,  -595.838E-06,  -29.0870E-03,   8.13488E-03
C:/temp/dataset/3/19_5.odb,Step-1,Increment      1: Step Time =    1.000,"PART-1-1",           627,       2.74072,      -21.3682,            0.,NA,NA,"",   21.3575E-03,  -5.77944E-03,  -20.5607E-03,   2.84004E-03
C:/temp/dataset/3/19_5.odb,Step-1,Increment      1: Step Time =    1.000,"PART-1-1",           628,       4.11640,      -22.1674,            0.,NA,NA,"",   32.1118E-03,  -7.30717E-03,  -31.2694E-03,   8.21590E-03
C:/temp/dataset/3/19_5.odb,Step-1,Increment      1: Step Time =    1.000,"PART-1-1",           629,       5.12568,      -20.7992,            0.,NA,NA,"",   51.5948E-03,  -6.17541E-03,  -51.2239E-03,   14.2863E-03
C:/temp/dataset/3/19_5.odb,Step-1,Increment      1: Step Time =    1.000,"PART-1-1",           630,          1.25,          -20.,            0.,NA,NA,"",   10.6065E-03,   1.88024E-03,  -10.4385E-03,   702.068E-06
C:/temp/dataset/3/19_5.odb,Step-1,Increment      1: Step Time =    1.000,"PART-1-1",           631,   73.0809E-03,      -21.3299,            0.,NA,NA,"",   6.93299E-03,  -3.08866E-03,  -6.20697E-03,   463.905E-06
C:/temp/dataset/3/19_5.odb,Step-1,Increment      1: Step Time =    1.000,"PART-1-1",           632,       1.56380,      -22.6981,            0.,NA,NA,"",   14.1327E-03,  -6.84692E-03,  -12.3634E-03,   3.27915E-03
C:/temp/dataset/3/19_5.odb,Step-1,Increment      1: Step Time =    1.000,"PART-1-1",           633,         -1.25,          -20.,            0.,NA,NA,"",   3.63468E-03,  -750.911E-06,  -3.55627E-03,   741.015E-06
C:/temp/dataset/3/19_5.odb,Step-1,Increment      1: Step Time =    1.000,"PART-1-1",           634,      -2.46493,      -21.3147,            0.,NA,NA,"",   3.42877E-03,  -3.07893E-03,  -1.50885E-03,   87.0639E-06
C:/temp/dataset/3/19_5.odb,Step-1,Increment      1: Step Time =    1.000,"PART-1-1",           635,      -1.14185,      -22.6446,            0.,NA,NA,"",   6.16675E-03,  -5.06433E-03,  -3.51870E-03,   885.073E-06
C:/temp/dataset/3/19_5.odb,Step-1,Increment      1: Step Time =    1.000,"PART-1-1",           636,         -3.75,          -20.,            0.,NA,NA,"",   2.10856E-03,  -2.06215E-03,  -439.957E-06,   468.747E-06
C:/temp/dataset/3/19_5.odb,Step-1,Increment      1: Step Time =    1.000,"PART-1-1",           637,      -4.97847,      -21.2978,            0.,NA,NA,"",   3.21318E-03,  -3.19401E-03,   350.501E-06,   126.797E-06
C:/temp/dataset/3/19_5.odb,Step-1,Increment      1: Step Time =    1.000,"PART-1-1",           638,      -3.69340,      -22.6125,            0.,NA,NA,"",   4.12449E-03,  -4.10934E-03,  -353.271E-06,   307.163E-06
C:/temp/dataset/3/19_5.odb,Step-1,Increment      1: Step Time =    1.000,"PART-1-1",           639,      -4.95791,      -23.8547,            0.,NA,NA,"",   4.23664E-03,  -4.23432E-03,   140.212E-06,   394.339E-06
C:/temp/dataset/3/19_5.odb,Step-1,Increment      1: Step Time =    1.000,"PART-1-1",           640,      -6.21189,      -22.5887,            0.,NA,NA,"",   3.68908E-03,  -3.64017E-03,   598.737E-06,   200.042E-06
C:/temp/dataset/3/19_5.odb,Step-1,Increment      1: Step Time =    1.000,"PART-1-1",           641,      -7.46939,      -23.8324,            0.,NA,NA,"",   3.56484E-03,  -3.52156E-03,   553.809E-06,   243.429E-06
C:/temp/dataset/3/19_5.odb,Step-1,Increment      1: Step Time =    1.000,"PART-1-1",           642,           15.,        -13.75,            0.,NA,NA,"",   177.915E-03,  -136.001E-03,   114.706E-03,   13.0399E-03
C:/temp/dataset/3/19_5.odb,Step-1,Increment      1: Step Time =    1.000,"PART-1-1",           643,       14.2106,      -12.3304,            0.,NA,NA,"",   204.656E-03,  -175.842E-03,   104.708E-03,   10.5481E-03
C:/temp/dataset/3/19_5.odb,Step-1,Increment      1: Step Time =    1.000,"PART-1-1",           644,       13.1387,      -13.2101,            0.,NA,NA,"",   156.706E-03,  -143.006E-03,   64.0794E-03,   6.91493E-03
C:/temp/dataset/3/19_5.odb,Step-1,Increment      1: Step Time =    1.000,"PART-1-1",           645,           15.,        -11.25,            0.,NA,NA,"",   261.119E-03,  -218.499E-03,   142.974E-03,   13.2461E-03
C:/temp/dataset/3/19_5.odb,Step-1,Increment      1: Step Time =    1.000,"PART-1-1",           646,           15.,         -6.25,            0.,NA,NA,"",   485.027E-03,  -443.375E-03,   196.645E-03,   12.1011E-03
C:/temp/dataset/3/19_5.odb,Step-1,Increment      1: Step Time =    1.000,"PART-1-1",           647,       14.0624,      -4.92369,            0.,NA,NA,"",   534.346E-03,  -510.803E-03,   156.863E-03,   8.75544E-03
C:/temp/dataset/3/19_5.odb,Step-1,Increment      1: Step Time =    1.000,"PART-1-1",           648,       12.9264,      -6.09194,            0.,NA,NA,"",   449.912E-03,  -440.542E-03,   91.3430E-03,   6.12217E-03
C:/temp/dataset/3/19_5.odb,Step-1,Increment      1: Step Time =    1.000,"PART-1-1",           649,           15.,         -3.75,            0.,NA,NA,"",   624.465E-03,  -585.185E-03,   217.979E-03,   9.90818E-03
C:/temp/dataset/3/19_5.odb,Step-1,Increment      1: Step Time =    1.000,"PART-1-1",           650,       13.0440,      -3.68493,            0.,NA,NA,"",   588.825E-03,  -579.211E-03,   105.969E-03,   5.88936E-03
C:/temp/dataset/3/19_5.odb,Step-1,Increment      1: Step Time =    1.000,"PART-1-1",           651,       8.06094,   477.426E-03,            0.,NA,NA,"",   867.018E-03,  -843.831E-03,  -199.175E-03,   4.86940E-03
C:/temp/dataset/3/19_5.odb,Step-1,Increment      1: Step Time =    1.000,"PART-1-1",           652,       8.76493,       2.31856,            0.,NA,NA,"",   983.040E-03,  -969.362E-03,  -163.418E-03,   4.08747E-03
C:/temp/dataset/3/19_5.odb,Step-1,Increment      1: Step Time =    1.000,"PART-1-1",           653,       6.73548,       2.80805,            0.,NA,NA,"",       1.04781,      -1.00378,  -300.547E-03,   3.56923E-03
C:/temp/dataset/3/19_5.odb,Step-1,Increment      1: Step Time =    1.000,"PART-1-1",           654,       6.03149,   966.916E-03,            0.,NA,NA,"",   941.509E-03,  -878.717E-03,  -338.075E-03,   5.22033E-03
C:/temp/dataset/3/19_5.odb,Step-1,Increment      1: Step Time =    1.000,"PART-1-1",           655,            5.,          8.75,            0.,NA,NA,"",       1.45990,      -1.39333,  -435.845E-03,   318.036E-06
C:/temp/dataset/3/19_5.odb,Step-1,Increment      1: Step Time =    1.000,"PART-1-1",           656,       7.16919,       9.14751,            0.,NA,NA,"",       1.45423,      -1.42428,  -293.607E-03,   470.937E-06
C:/temp/dataset/3/19_5.odb,Step-1,Increment      1: Step Time =    1.000,"PART-1-1",           657,          3.75,           30.,            0.,NA,NA,"",       2.85839,      -2.80162,  -566.862E-03,   220.528E-09
C:/temp/dataset/3/19_5.odb,Step-1,Increment      1: Step Time =    1.000,"PART-1-1",           658,       3.71036,       27.5731,            0.,NA,NA,"",       2.69987,      -2.64028,  -564.132E-03,   135.388E-09
C:/temp/dataset/3/19_5.odb,Step-1,Increment      1: Step Time =    1.000,"PART-1-1",           659,       7.38617,       23.8490,            0.,NA,NA,"",       2.42110,      -2.40096,  -311.664E-03,   430.485E-09
C:/temp/dataset/3/19_5.odb,Step-1,Increment      1: Step Time =    1.000,"PART-1-1",           660,       6.16255,       25.1024,            0.,NA,NA,"",       2.51289,      -2.48153,  -395.737E-03,   177.284E-09
C:/temp/dataset/3/19_5.odb,Step-1,Increment      1: Step Time =    1.000,"PART-1-1",           661,       4.93576,       23.8439,            0.,NA,NA,"",       2.44174,      -2.39520,  -474.470E-03,   219.212E-09
C:/temp/dataset/3/19_5.odb,Step-1,Increment      1: Step Time =    1.000,"PART-1-1",           662,       6.15938,       22.5905,            0.,NA,NA,"",       2.34731,      -2.31462,  -390.396E-03,   397.867E-09
C:/temp/dataset/3/19_5.odb,Step-1,Increment      1: Step Time =    1.000,"PART-1-1",           663,      -10.0017,       23.7560,            0.,NA,NA,"",       2.77558,      -2.35635,      -1.46679,   7.32991E-09
C:/temp/dataset/3/19_5.odb,Step-1,Increment      1: Step Time =    1.000,"PART-1-1",           664,      -8.75135,       22.5073,            0.,NA,NA,"",       2.66230,      -2.27614,      -1.38095,   7.63798E-09
C:/temp/dataset/3/19_5.odb,Step-1,Increment      1: Step Time =    1.000,"PART-1-1",           665,      -10.0004,       21.2526,            0.,NA,NA,"",       2.63271,      -2.19001,      -1.46118,   7.52819E-09
C:/temp/dataset/3/19_5.odb,Step-1,Increment      1: Step Time =    1.000,"PART-1-1",           666,      -11.2505,       22.5043,            0.,NA,NA,"",       2.74737,      -2.27042,      -1.54700,   6.28394E-09
C:/temp/dataset/3/19_5.odb,Step-1,Increment      1: Step Time =    1.000,"PART-1-1",           667,        -11.25,           20.,            0.,NA,NA,"",       2.60825,      -2.10402,      -1.54144,   8.80455E-09
C:/temp/dataset/3/19_5.odb,Step-1,Increment      1: Step Time =    1.000,"PART-1-1",           668,         -8.75,           20.,            0.,NA,NA,"",       2.51828,      -2.10955,      -1.37532,   13.6554E-09
C:/temp/dataset/3/19_5.odb,Step-1,Increment      1: Step Time =    1.000,"PART-1-1",           669,       7.37456,       21.3253,            0.,NA,NA,"",       2.25423,      -2.23324,  -306.859E-03,   2.24253E-06
C:/temp/dataset/3/19_5.odb,Step-1,Increment      1: Step Time =    1.000,"PART-1-1",           670,      -1.26076,       25.0501,            0.,NA,NA,"",       2.61721,      -2.46165,  -888.863E-03,   46.4220E-09
C:/temp/dataset/3/19_5.odb,Step-1,Increment      1: Step Time =    1.000,"PART-1-1",           671,      -2.50213,       23.7814,            0.,NA,NA,"",       2.56454,      -2.37461,  -968.542E-03,   22.2422E-09
C:/temp/dataset/3/19_5.odb,Step-1,Increment      1: Step Time =    1.000,"PART-1-1",           672,          1.25,           20.,            0.,NA,NA,"",       2.24706,      -2.13165,  -710.875E-03,   65.4054E-09
C:/temp/dataset/3/19_5.odb,Step-1,Increment      1: Step Time =    1.000,"PART-1-1",           673,            5.,         13.75,            0.,NA,NA,"",       1.78182,      -1.72464,  -447.773E-03,   62.8442E-06
C:/temp/dataset/3/19_5.odb,Step-1,Increment      1: Step Time =    1.000,"PART-1-1",           674,       7.85923,       4.51418,            0.,NA,NA,"",       1.14325,      -1.11916,  -233.465E-03,   3.14757E-03
C:/temp/dataset/3/19_5.odb,Step-1,Increment      1: Step Time =    1.000,"PART-1-1",           675,       9.45843,       7.45797,            0.,NA,NA,"",       1.32368,      -1.31654,  -137.259E-03,   925.183E-06
C:/temp/dataset/3/19_5.odb,Step-1,Increment      1: Step Time =    1.000,"PART-1-1",           676,       11.3500,       8.04392,            0.,NA,NA,"",       1.35891,      -1.35885,  -13.2977E-03,   520.257E-06
C:/temp/dataset/3/19_5.odb,Step-1,Increment      1: Step Time =    1.000,"PART-1-1",           677,       10.2386,       8.70699,            0.,NA,NA,"",       1.40384,      -1.40104,  -88.7150E-03,   391.190E-06
C:/temp/dataset/3/19_5.odb,Step-1,Increment      1: Step Time =    1.000,"PART-1-1",           678,   133.314E-03,       2.02047,            0.,NA,NA,"",       1.22928,  -952.241E-03,  -777.411E-03,   4.49074E-03
C:/temp/dataset/3/19_5.odb,Step-1,Increment      1: Step Time =    1.000,"PART-1-1",           679,       2.26054,       1.70692,            0.,NA,NA,"",       1.11741,  -930.651E-03,  -618.454E-03,   6.39941E-03
C:/temp/dataset/3/19_5.odb,Step-1,Increment      1: Step Time =    1.000,"PART-1-1",           680,  -583.333E-03,            5.,            0.,NA,NA,"",       1.43601,      -1.15897,  -847.895E-03,   4.24024E-03
C:/temp/dataset/3/19_5.odb,Step-1,Increment      1: Step Time =    1.000,"PART-1-1",           681,  -713.179E-03,       3.09316,            0.,NA,NA,"",       1.32941,      -1.02680,  -844.410E-03,   4.12415E-03
C:/temp/dataset/3/19_5.odb,Step-1,Increment      1: Step Time =    1.000,"PART-1-1",           682,      -10.2084,       1.19941,            0.,NA,NA,"",       1.74272,  -871.147E-03,      -1.50936,   76.0076E-06
C:/temp/dataset/3/19_5.odb,Step-1,Increment      1: Step Time =    1.000,"PART-1-1",           683,      -7.18333,           -5.,            0.,NA,NA,"",       1.35166,  -437.620E-03,      -1.27886,   236.272E-06
C:/temp/dataset/3/19_5.odb,Step-1,Increment      1: Step Time =    1.000,"PART-1-1",           684,      -7.36178,      -2.99006,            0.,NA,NA,"",       1.42071,  -580.379E-03,      -1.29676,   185.139E-06
C:/temp/dataset/3/19_5.odb,Step-1,Increment      1: Step Time =    1.000,"PART-1-1",           685,      -11.3125,  -91.5578E-03,            0.,NA,NA,"",       1.76470,  -776.546E-03,      -1.58466,   62.6405E-06
C:/temp/dataset/3/19_5.odb,Step-1,Increment      1: Step Time =    1.000,"PART-1-1",           686,      -11.6500,           -5.,            0.,NA,NA,"",       1.65235,  -426.696E-03,      -1.59630,   23.8578E-06
C:/temp/dataset/3/19_5.odb,Step-1,Increment      1: Step Time =    1.000,"PART-1-1",           687,      -11.6245,      -2.63993,            0.,NA,NA,"",       1.70733,  -594.539E-03,      -1.60046,   48.0889E-06
C:/temp/dataset/3/19_5.odb,Step-1,Increment      1: Step Time =    1.000,"PART-1-1",           688,      -1.03706,       1.18772,            0.,NA,NA,"",       1.23811,  -893.054E-03,  -857.532E-03,   2.56598E-03
C:/temp/dataset/3/19_5.odb,Step-1,Increment      1: Step Time =    1.000,"PART-1-1",           689,      -2.26684,   407.252E-03,            0.,NA,NA,"",       1.25983,  -835.750E-03,  -942.706E-03,   1.10375E-03
C:/temp/dataset/3/19_5.odb,Step-1,Increment      1: Step Time =    1.000,"PART-1-1",           690,      -1.61706,  -775.207E-03,            0.,NA,NA,"",       1.16750,  -753.431E-03,  -891.849E-03,   1.34702E-03
C:/temp/dataset/3/19_5.odb,Step-1,Increment      1: Step Time =    1.000,"PART-1-1",           691,      -4.44627,  -189.662E-03,            0.,NA,NA,"",       1.35012,  -787.868E-03,      -1.09640,   258.386E-06
C:/temp/dataset/3/19_5.odb,Step-1,Increment      1: Step Time =    1.000,"PART-1-1",           692,      -3.83065,   850.686E-03,            0.,NA,NA,"",       1.36363,  -863.450E-03,      -1.05543,   343.828E-06
C:/temp/dataset/3/19_5.odb,Step-1,Increment      1: Step Time =    1.000,"PART-1-1",           693,      -5.38306,   384.196E-03,            0.,NA,NA,"",       1.42774,  -826.139E-03,      -1.16444,   243.364E-06
C:/temp/dataset/3/19_5.odb,Step-1,Increment      1: Step Time =    1.000,"PART-1-1",           694,       3.90000,           -5.,            0.,NA,NA,"",   655.376E-03,  -469.347E-03,  -457.419E-03,   10.7101E-03
C:/temp/dataset/3/19_5.odb,Step-1,Increment      1: Step Time =    1.000,"PART-1-1",           695,       5.25667,      -4.01677,            0.,NA,NA,"",   647.431E-03,  -548.106E-03,  -344.597E-03,   15.5872E-03
C:/temp/dataset/3/19_5.odb,Step-1,Increment      1: Step Time =    1.000,"PART-1-1",           696,       4.24316,      -3.18705,            0.,NA,NA,"",   742.573E-03,  -602.230E-03,  -434.435E-03,   8.82183E-03
C:/temp/dataset/3/19_5.odb,Step-1,Increment      1: Step Time =    1.000,"PART-1-1",           697,       9.51721,      -4.82762,            0.,NA,NA,"",   508.168E-03,  -501.066E-03,  -84.6599E-03,   4.14711E-03
C:/temp/dataset/3/19_5.odb,Step-1,Increment      1: Step Time =    1.000,"PART-1-1",           698,       8.04384,      -4.93500,            0.,NA,NA,"",   518.820E-03,  -492.058E-03,  -164.478E-03,   6.56254E-03
C:/temp/dataset/3/19_5.odb,Step-1,Increment      1: Step Time =    1.000,"PART-1-1",           699,       8.61490,      -6.56470,            0.,NA,NA,"",   424.146E-03,  -405.738E-03,  -123.596E-03,   5.31838E-03
C:/temp/dataset/3/19_5.odb,Step-1,Increment      1: Step Time =    1.000,"PART-1-1",           700,       10.0883,      -6.45732,            0.,NA,NA,"",   415.896E-03,  -412.818E-03,  -50.5021E-03,   2.41134E-03
C:/temp/dataset/3/19_5.odb,Step-1,Increment      1: Step Time =    1.000,"PART-1-1",           701,       9.29828,      -8.00429,            0.,NA,NA,"",   346.375E-03,  -336.368E-03,  -82.6601E-03,   4.39175E-03
C:/temp/dataset/3/19_5.odb,Step-1,Increment      1: Step Time =    1.000,"PART-1-1",           702,       6.27674,      -21.4047,            0.,NA,NA,"",   45.2095E-03,  -127.011E-06,  -45.2093E-03,   10.3693E-03
C:/temp/dataset/3/19_5.odb,Step-1,Increment      1: Step Time =    1.000,"PART-1-1",           703,       7.27122,      -20.3583,            0.,NA,NA,"",   47.3326E-03,  -1.43454E-03,  -47.3108E-03,   8.33763E-03
C:/temp/dataset/3/19_5.odb,Step-1,Increment      1: Step Time =    1.000,"PART-1-1",           704,         -6.25,          -20.,            0.,NA,NA,"",   3.02951E-03,  -2.98126E-03,   538.558E-06,   295.911E-06
C:/temp/dataset/3/19_5.odb,Step-1,Increment      1: Step Time =    1.000,"PART-1-1",           705,         -1.25,          -30.,            0.,NA,NA,"",            0.,  -1.52244E-39,  -2.17328E-39,   1.90046E-03
C:/temp/dataset/3/19_5.odb,Step-1,Increment      1: Step Time =    1.000,"PART-1-1",           706,       8.60683,      -25.8105,            0.,NA,NA,"",   14.4013E-03,   9.66739E-03,  -10.6743E-03,   4.59277E-03
C:/temp/dataset/3/19_5.odb,Step-1,Increment      1: Step Time =    1.000,"PART-1-1",           707,       7.41490,      -26.9159,            0.,NA,NA,"",   10.8395E-03,   5.83857E-03,  -9.13270E-03,   4.75576E-03
C:/temp/dataset/3/19_5.odb,Step-1,Increment      1: Step Time =    1.000,"PART-1-1",           708,       6.17638,      -25.8614,            0.,NA,NA,"",   15.2977E-03,   3.05747E-03,  -14.9891E-03,   5.33747E-03
C:/temp/dataset/3/19_5.odb,Step-1,Increment      1: Step Time =    1.000,"PART-1-1",           709,       7.37219,      -25.0876,            0.,NA,NA,"",   18.5652E-03,   6.80637E-03,  -17.2725E-03,   6.10008E-03
C:/temp/dataset/3/19_5.odb,Step-1,Increment      1: Step Time =    1.000,"PART-1-1",           710,       6.30743,      -24.1068,            0.,NA,NA,"",   24.8556E-03,   2.87070E-03,  -24.6893E-03,   6.74717E-03
C:/temp/dataset/3/19_5.odb,Step-1,Increment      1: Step Time =    1.000,"PART-1-1",           711,   113.079E-03,      -23.9373,            0.,NA,NA,"",   9.23786E-03,  -6.66094E-03,  -6.40077E-03,   1.88146E-03
C:/temp/dataset/3/19_5.odb,Step-1,Increment      1: Step Time =    1.000,"PART-1-1",           712,      -2.43554,      -23.8906,            0.,NA,NA,"",   5.57546E-03,  -5.33798E-03,  -1.60986E-03,   683.806E-06
C:/temp/dataset/3/19_5.odb,Step-1,Increment      1: Step Time =    1.000,"PART-1-1",           713,      -8.72529,      -25.0755,            0.,NA,NA,"",   3.05291E-03,  -3.03086E-03,   366.228E-06,   306.516E-06
C:/temp/dataset/3/19_5.odb,Step-1,Increment      1: Step Time =    1.000,"PART-1-1",           714,      -9.97606,      -23.8175,            0.,NA,NA,"",   3.11716E-03,  -3.09446E-03,   375.498E-06,   133.150E-06
C:/temp/dataset/3/19_5.odb,Step-1,Increment      1: Step Time =    1.000,"PART-1-1",           715,      -9.99641,      -28.7682,            0.,NA,NA,"",   884.807E-06,  -884.566E-06,  -20.6564E-06,   445.938E-06
C:/temp/dataset/3/19_5.odb,Step-1,Increment      1: Step Time =    1.000,"PART-1-1",           716,      -11.2465,      -27.5281,            0.,NA,NA,"",   1.50840E-03,  -1.50840E-03,  -3.06970E-06,   358.655E-06
C:/temp/dataset/3/19_5.odb,Step-1,Increment      1: Step Time =    1.000,"PART-1-1",           717,        -11.25,          -30.,            0.,NA,NA,"",            0.,  -386.781E-42,  -167.820E-42,   416.219E-06
C:/temp/dataset/3/19_5.odb,Step-1,Increment      1: Step Time =    1.000,"PART-1-1",           718,         -8.75,          -30.,            0.,NA,NA,"",            0.,  -553.883E-42,  -202.324E-42,   605.450E-06
C:/temp/dataset/3/19_5.odb,Step-1,Increment      1: Step Time =    1.000,"PART-1-1",           719,      -8.73783,      -27.5479,            0.,NA,NA,"",   1.91366E-03,  -1.91276E-03,   58.5716E-06,   501.661E-06
C:/temp/dataset/3/19_5.odb,Step-1,Increment      1: Step Time =    1.000,"PART-1-1",           720,       9.45286,      -20.3748,            0.,NA,NA,"",   22.6624E-03,   89.4887E-06,  -22.6622E-03,   4.50624E-03
C:/temp/dataset/3/19_5.odb,Step-1,Increment      1: Step Time =    1.000,"PART-1-1",           721,       8.38706,      -19.4374,            0.,NA,NA,"",   41.1225E-03,  -9.21770E-03,  -40.0761E-03,   5.55935E-03
C:/temp/dataset/3/19_5.odb,Step-1,Increment      1: Step Time =    1.000,"PART-1-1",           722,       8.33702,      -21.2957,            0.,NA,NA,"",   32.3216E-03,   4.63654E-03,  -31.9873E-03,   6.53585E-03
C:/temp/dataset/3/19_5.odb,Step-1,Increment      1: Step Time =    1.000,"PART-1-1",           723,       9.34035,      -18.0986,            0.,NA,NA,"",   40.6049E-03,  -26.1665E-03,  -31.0495E-03,   4.05271E-03
C:/temp/dataset/3/19_5.odb,Step-1,Increment      1: Step Time =    1.000,"PART-1-1",           724,       10.7511,      -19.4747,            0.,NA,NA,"",   10.3371E-03,  -8.44318E-03,  -5.96395E-03,   2.75567E-03
C:/temp/dataset/3/19_5.odb,Step-1,Increment      1: Step Time =    1.000,"PART-1-1",           725,       9.57777,      -9.07511,            0.,NA,NA,"",   296.285E-03,  -289.008E-03,  -65.2588E-03,   4.01282E-03
C:/temp/dataset/3/19_5.odb,Step-1,Increment      1: Step Time =    1.000,"PART-1-1",           726,       10.3854,      -7.79904,            0.,NA,NA,"",   348.185E-03,  -346.591E-03,  -33.2855E-03,   1.69103E-03
C:/temp/dataset/3/19_5.odb,Step-1,Increment      1: Step Time =    1.000,"PART-1-1",           727,       11.9371,      -7.89361,            0.,NA,NA,"",   347.759E-03,  -345.650E-03,   38.2428E-03,   3.48221E-03
C:/temp/dataset/3/19_5.odb,Step-1,Increment      1: Step Time =    1.000,"PART-1-1",           728,       11.6400,      -6.55190,            0.,NA,NA,"",   412.342E-03,  -411.514E-03,   26.1216E-03,   3.38667E-03
C:/temp/dataset/3/19_5.odb,Step-1,Increment      1: Step Time =    1.000,"PART-1-1",           729,       9.29748,       3.92298,            0.,NA,NA,"",       1.08744,      -1.07892,  -135.806E-03,   3.11629E-03
C:/temp/dataset/3/19_5.odb,Step-1,Increment      1: Step Time =    1.000,"PART-1-1",           730,       10.7408,       1.93669,            0.,NA,NA,"",   944.662E-03,  -943.987E-03,  -35.7022E-03,   3.61733E-03
C:/temp/dataset/3/19_5.odb,Step-1,Increment      1: Step Time =    1.000,"PART-1-1",           731,       12.1175,       9.30164,            0.,NA,NA,"",       1.44484,      -1.44442,   34.8220E-03,   167.799E-06
C:/temp/dataset/3/19_5.odb,Step-1,Increment      1: Step Time =    1.000,"PART-1-1",           732,       12.3743,       7.25826,            0.,NA,NA,"",       1.30936,      -1.30814,   56.5523E-03,   566.841E-06
C:/temp/dataset/3/19_5.odb,Step-1,Increment      1: Step Time =    1.000,"PART-1-1",           733,       9.86952,       23.8294,            0.,NA,NA,"",       2.40961,      -2.40514,  -146.617E-03,   653.112E-09
C:/temp/dataset/3/19_5.odb,Step-1,Increment      1: Step Time =    1.000,"PART-1-1",           734,       8.61965,       22.5851,            0.,NA,NA,"",       2.33077,      -2.31970,  -226.913E-03,   860.848E-09
C:/temp/dataset/3/19_5.odb,Step-1,Increment      1: Step Time =    1.000,"PART-1-1",           735,         11.25,           30.,            0.,NA,NA,"",       2.81903,      -2.81819,  -68.5283E-03,   229.188E-09
C:/temp/dataset/3/19_5.odb,Step-1,Increment      1: Step Time =    1.000,"PART-1-1",           736,       9.97488,       28.7673,            0.,NA,NA,"",       2.73761,      -2.73347,  -150.528E-03,   218.775E-09
C:/temp/dataset/3/19_5.odb,Step-1,Increment      1: Step Time =    1.000,"PART-1-1",           737,          8.75,           30.,            0.,NA,NA,"",       2.82244,      -2.81267,  -234.639E-03,   353.363E-09
C:/temp/dataset/3/19_5.odb,Step-1,Increment      1: Step Time =    1.000,"PART-1-1",           738,       3.69885,       25.0915,            0.,NA,NA,"",       2.53779,      -2.47536,  -559.413E-03,   165.705E-09
C:/temp/dataset/3/19_5.odb,Step-1,Increment      1: Step Time =    1.000,"PART-1-1",           739,       4.94207,       26.3392,            0.,NA,NA,"",       2.60553,      -2.56101,  -479.565E-03,   128.040E-09
C:/temp/dataset/3/19_5.odb,Step-1,Increment      1: Step Time =    1.000,"PART-1-1",           740,         -6.25,           30.,            0.,NA,NA,"",       3.04005,      -2.77952,      -1.23131,   21.1396E-09
C:/temp/dataset/3/19_5.odb,Step-1,Increment      1: Step Time =    1.000,"PART-1-1",           741,      -11.2519,       25.0060,            0.,NA,NA,"",       2.88927,      -2.43664,      -1.55263,   9.02695E-09
C:/temp/dataset/3/19_5.odb,Step-1,Increment      1: Step Time =    1.000,"PART-1-1",           742,       11.7111,      -12.1867,            0.,NA,NA,"",   173.285E-03,  -171.922E-03,   21.6882E-03,   2.30508E-03
C:/temp/dataset/3/19_5.odb,Step-1,Increment      1: Step Time =    1.000,"PART-1-1",           743,       12.0443,      -13.4388,            0.,NA,NA,"",   136.317E-03,  -133.017E-03,   29.8140E-03,   3.36232E-03
C:/temp/dataset/3/19_5.odb,Step-1,Increment      1: Step Time =    1.000,"PART-1-1",           744,       9.07309,      -22.0228,            0.,NA,NA,"",   23.5822E-03,   8.42743E-03,  -22.0250E-03,   5.60565E-03
C:/temp/dataset/3/19_5.odb,Step-1,Increment      1: Step Time =    1.000,"PART-1-1",           745,       9.10959,      -23.2638,            0.,NA,NA,"",   20.5164E-03,   10.9385E-03,  -17.3572E-03,   5.58859E-03
C:/temp/dataset/3/19_5.odb,Step-1,Increment      1: Step Time =    1.000,"PART-1-1",           746,       10.5828,      -23.1781,            0.,NA,NA,"",   14.0557E-03,   12.5156E-03,  -6.39693E-03,   4.05745E-03
C:/temp/dataset/3/19_5.odb,Step-1,Increment      1: Step Time =    1.000,"PART-1-1",           747,       10.5463,      -21.9372,            0.,NA,NA,"",   12.0214E-03,   9.16285E-03,  -7.78172E-03,   4.08954E-03
C:/temp/dataset/3/19_5.odb,Step-1,Increment      1: Step Time =    1.000,"PART-1-1",           748,      -1.00841,      -2.00181,            0.,NA,NA,"",       1.07585,  -667.694E-03,  -843.590E-03,   1.25690E-03
C:/temp/dataset/3/19_5.odb,Step-1,Increment      1: Step Time =    1.000,"PART-1-1",           749,      -3.17395,      -1.50818,            0.,NA,NA,"",       1.22066,  -697.167E-03,      -1.00198,   348.356E-06
C:/temp/dataset/3/19_5.odb,Step-1,Increment      1: Step Time =    1.000,"PART-1-1",           750,       8.23699,       8.20647,            0.,NA,NA,"",       1.38186,      -1.36415,  -220.541E-03,   582.138E-06
C:/temp/dataset/3/19_5.odb,Step-1,Increment      1: Step Time =    1.000,"PART-1-1",           751,       8.58975,       6.06422,            0.,NA,NA,"",       1.23749,      -1.22271,  -190.725E-03,   1.91944E-03
C:/temp/dataset/3/19_5.odb,Step-1,Increment      1: Step Time =    1.000,"PART-1-1",           752,       1.04870,      -2.29850,            0.,NA,NA,"",   949.467E-03,  -652.748E-03,  -689.498E-03,   3.40410E-03
C:/temp/dataset/3/19_5.odb,Step-1,Increment      1: Step Time =    1.000,"PART-1-1",           753,      -1.88356,       2.26041,            0.,NA,NA,"",       1.33671,  -967.308E-03,  -922.555E-03,   1.92552E-03
C:/temp/dataset/3/19_5.odb,Step-1,Increment      1: Step Time =    1.000,"PART-1-1",           754,      -2.91638,       1.44829,            0.,NA,NA,"",       1.34514,  -908.009E-03,  -992.434E-03,   838.775E-06
C:/temp/dataset/3/19_5.odb,Step-1,Increment      1: Step Time =    1.000,"PART-1-1",           755,       3.03453,      -2.52132,            0.,NA,NA,"",   837.752E-03,  -643.953E-03,  -535.865E-03,   7.11761E-03
C:/temp/dataset/3/19_5.odb,Step-1,Increment      1: Step Time =    1.000,"PART-1-1",           756,       6.99799,      -3.46075,            0.,NA,NA,"",   628.289E-03,  -581.983E-03,  -236.732E-03,   8.46600E-03
C:/temp/dataset/3/19_5.odb,Step-1,Increment      1: Step Time =    1.000,"PART-1-1",           757,       7.63560,  -984.386E-03,            0.,NA,NA,"",   776.577E-03,  -745.628E-03,  -217.050E-03,   6.18249E-03
C:/temp/dataset/3/19_5.odb,Step-1,Increment      1: Step Time =    1.000,"PART-1-1",           758,       6.14771,      -1.67534,            0.,NA,NA,"",   766.604E-03,  -701.341E-03,  -309.520E-03,   8.16161E-03
C:/temp/dataset/3/19_5.odb,Step-1,Increment      1: Step Time =    1.000,"PART-1-1",           759,       4.94795,      -26.8240,            0.,NA,NA,"",   10.4531E-03,  -22.0613E-06,  -10.4531E-03,   4.87573E-03
C:/temp/dataset/3/19_5.odb,Step-1,Increment      1: Step Time =    1.000,"PART-1-1",           760,      -11.2341,      -25.0541,            0.,NA,NA,"",   2.62835E-03,  -2.62600E-03,   111.076E-06,   167.350E-06
C:/temp/dataset/3/19_5.odb,Step-1,Increment      1: Step Time =    1.000,"PART-1-1",           761,      -9.98574,      -26.3021,            0.,NA,NA,"",   2.32375E-03,  -2.31869E-03,   153.311E-06,   317.379E-06
C:/temp/dataset/3/19_5.odb,Step-1,Increment      1: Step Time =    1.000,"PART-1-1",           762,           15.,        -26.25,            0.,NA,NA,"",   10.6694E-03,   8.89972E-03,   5.88490E-03,   4.14082E-03
C:/temp/dataset/3/19_5.odb,Step-1,Increment      1: Step Time =    1.000,"PART-1-1",           763,       9.63478,      -24.7731,            0.,NA,NA,"",   15.6533E-03,   12.3430E-03,  -9.62682E-03,   4.72836E-03
C:/temp/dataset/3/19_5.odb,Step-1,Increment      1: Step Time =    1.000,"PART-1-1",           764,       9.83383,   250.169E-03,            0.,NA,NA,"",   832.697E-03,  -828.212E-03,  -86.3101E-03,   4.73945E-03
C:/temp/dataset/3/19_5.odb,Step-1,Increment      1: Step Time =    1.000,"PART-1-1",           765,       11.1222,       22.5628,            0.,NA,NA,"",       2.32454,      -2.32375,  -60.5867E-03,   904.585E-09
C:/temp/dataset/3/19_5.odb,Step-1,Increment      1: Step Time =    1.000,"PART-1-1",           766,       9.84566,       21.3197,            0.,NA,NA,"",       2.24288,      -2.23834,  -142.658E-03,   3.00070E-06
C:/temp/dataset/3/19_5.odb,Step-1,Increment      1: Step Time =    1.000,"PART-1-1",           767,      -3.18112,  -190.353E-03,            0.,NA,NA,"",       1.27999,  -791.140E-03,      -1.00622,   505.199E-06
C:/temp/dataset/3/19_5.odb,Step-1,Increment      1: Step Time =    1.000,"PART-1-1",           768,       4.54417,       1.21940,            0.,NA,NA,"",       1.00150,  -896.878E-03,  -445.660E-03,   5.76537E-03
C:/temp/dataset/3/19_5.odb,Step-1,Increment      1: Step Time =    1.000,"PART-1-1",           769,       9.22107,       9.51460,            0.,NA,NA,"",       1.46127,      -1.45268,  -158.225E-03,   260.509E-06
C:/temp/dataset/3/19_5.odb,Step-1,Increment      1: Step Time =    1.000,"PART-1-1",           770,       11.1709,      -3.71800,            0.,NA,NA,"",   571.060E-03,  -571.055E-03,   2.37079E-03,   4.32825E-03
C:/temp/dataset/3/19_5.odb,Step-1,Increment      1: Step Time =    1.000,"PART-1-1",           771,       11.0221,      -5.16095,            0.,NA,NA,"",   485.379E-03,  -485.356E-03,  -4.76805E-03,   3.42652E-03
C:/temp/dataset/3/19_5.odb,Step-1,Increment      1: Step Time =    1.000,"PART-1-1",           772,       12.3085,      -4.70099,            0.,NA,NA,"",   519.748E-03,  -515.875E-03,   63.3358E-03,   5.04854E-03
C:/temp/dataset/3/19_5.odb,Step-1,Increment      1: Step Time =    1.000,"PART-1-1",           773,       5.03877,      -2.41022,            0.,NA,NA,"",   756.825E-03,  -653.914E-03,  -381.026E-03,   9.87103E-03
C:/temp/dataset/3/19_5.odb,Step-1,Increment      1: Step Time =    1.000,"PART-1-1",           774,       11.0080,       9.74440,            0.,NA,NA,"",       1.47217,      -1.47163,  -39.9853E-03,   168.520E-06
C:/temp/dataset/3/19_5.odb,Step-1,Increment      1: Step Time =    1.000,"PART-1-1",           775,       7.33953,      -23.4839,            0.,NA,NA,"",   26.9532E-03,   6.25438E-03,  -26.2175E-03,   7.34015E-03
C:/temp/dataset/3/19_5.odb,Step-1,Increment      1: Step Time =    1.000,"PART-1-1",           776,       6.60048,      -22.7490,            0.,NA,NA,"",   33.5368E-03,   2.57730E-03,  -33.4376E-03,   8.38375E-03
C:/temp/dataset/3/19_5.odb,Step-1,Increment      1: Step Time =    1.000,"PART-1-1",           777,       5.56839,      -23.3719,            0.,NA,NA,"",   29.2943E-03,  -449.548E-06,  -29.2908E-03,   8.04265E-03
C:/temp/dataset/3/19_5.odb,Step-1,Increment      1: Step Time =    1.000,"PART-1-1",           778,       5.56431,      -22.1833,            0.,NA,NA,"",   38.0766E-03,  -2.31849E-03,  -38.0059E-03,   9.61799E-03
C:/temp/dataset/3/19_5.odb,Step-1,Increment      1: Step Time =    1.000,"PART-1-1",           779,       7.31291,      -21.9704,            0.,NA,NA,"",   36.4980E-03,   4.33052E-03,  -36.2402E-03,   8.26479E-03
C:/temp/dataset/3/19_5.odb,Step-1,Increment      1: Step Time =    1.000,"PART-1-1",           780,       8.04898,      -22.6975,            0.,NA,NA,"",   28.2406E-03,   7.84816E-03,  -27.1281E-03,   6.77461E-03
C:/temp/dataset/3/19_5.odb,Step-1,Increment      1: Step Time =    1.000,"PART-1-1",           781,       5.89213,  -472.373E-03,            0.,NA,NA,"",   851.529E-03,  -781.931E-03,  -337.174E-03,   6.24305E-03
C:/temp/dataset/3/19_5.odb,Step-1,Increment      1: Step Time =    1.000,"PART-1-1",           782,       8.40014,      -24.0502,            0.,NA,NA,"",   20.9545E-03,   9.85654E-03,  -18.4916E-03,   5.69503E-03
