ODB Name,Step,Frame,Part Instance Name,    êﬂì_ÉâÉxÉã,X,Y,Z,Section Name,Material Name,Section Point,   U-Magnitude,          U-U1,          U-U2,       S-Mises
C:/temp/dataset/3/19_7.odb,Step-1,Increment      1: Step Time =    1.000,"PART-1-1",             1,          -15.,           20.,            0.,NA,NA,"",       3.77288,      -2.83249,      -2.49231,   8.09950E-09
C:/temp/dataset/3/19_7.odb,Step-1,Increment      1: Step Time =    1.000,"PART-1-1",             2,          -15.,           25.,            0.,NA,NA,"",       4.13889,      -3.28854,      -2.51315,   7.74873E-09
C:/temp/dataset/3/19_7.odb,Step-1,Increment      1: Step Time =    1.000,"PART-1-1",             3,           -5.,           20.,            0.,NA,NA,"",       3.27994,      -2.87418,      -1.58022,   5.53631E-09
C:/temp/dataset/3/19_7.odb,Step-1,Increment      1: Step Time =    1.000,"PART-1-1",             4,            5.,           20.,            0.,NA,NA,"",       2.99142,      -2.91585,  -668.127E-03,   2.20245E-06
C:/temp/dataset/3/19_7.odb,Step-1,Increment      1: Step Time =    1.000,"PART-1-1",             5,            5.,          12.5,            0.,NA,NA,"",       2.32087,      -2.23186,  -636.581E-03,   144.061E-06
C:/temp/dataset/3/19_7.odb,Step-1,Increment      1: Step Time =    1.000,"PART-1-1",             6,            5.,            5.,            0.,NA,NA,"",       1.67847,      -1.56316,  -611.398E-03,   10.6836E-03
C:/temp/dataset/3/19_7.odb,Step-1,Increment      1: Step Time =    1.000,"PART-1-1",             7,      -1.70000,            5.,            0.,NA,NA,"",       2.02007,      -1.55802,      -1.28579,   3.92087E-03
C:/temp/dataset/3/19_7.odb,Step-1,Increment      1: Step Time =    1.000,"PART-1-1",             8,      -8.40000,            5.,            0.,NA,NA,"",       2.46507,      -1.53409,      -1.92955,   215.426E-06
C:/temp/dataset/3/19_7.odb,Step-1,Increment      1: Step Time =    1.000,"PART-1-1",             9,          -15.,            5.,            0.,NA,NA,"",       2.98132,      -1.50273,      -2.57489,   3.58468E-06
C:/temp/dataset/3/19_7.odb,Step-1,Increment      1: Step Time =    1.000,"PART-1-1",            10,          -15.,            0.,            0.,NA,NA,"",       2.74515,      -1.01403,      -2.55099,   21.1762E-06
C:/temp/dataset/3/19_7.odb,Step-1,Increment      1: Step Time =    1.000,"PART-1-1",            11,          -15.,           -5.,            0.,NA,NA,"",       2.58112,  -525.315E-03,      -2.52709,   3.14420E-06
C:/temp/dataset/3/19_7.odb,Step-1,Increment      1: Step Time =    1.000,"PART-1-1",            12,      -8.30000,           -5.,            0.,NA,NA,"",       1.95353,  -557.100E-03,      -1.87241,   192.737E-06
C:/temp/dataset/3/19_7.odb,Step-1,Increment      1: Step Time =    1.000,"PART-1-1",            13,      -1.60000,           -5.,            0.,NA,NA,"",       1.34631,  -585.375E-03,      -1.21238,   1.01956E-03
C:/temp/dataset/3/19_7.odb,Step-1,Increment      1: Step Time =    1.000,"PART-1-1",            14,            5.,           -5.,            0.,NA,NA,"",   805.114E-03,  -640.261E-03,  -488.133E-03,   35.7597E-03
C:/temp/dataset/3/19_7.odb,Step-1,Increment      1: Step Time =    1.000,"PART-1-1",            15,            5.,         -12.5,            0.,NA,NA,"",   364.537E-03,  -239.966E-03,  -274.415E-03,   26.7552E-03
C:/temp/dataset/3/19_7.odb,Step-1,Increment      1: Step Time =    1.000,"PART-1-1",            16,            5.,          -20.,            0.,NA,NA,"",   79.9958E-03,  -4.55576E-03,  -79.8660E-03,   29.4128E-03
C:/temp/dataset/3/19_7.odb,Step-1,Increment      1: Step Time =    1.000,"PART-1-1",            17,           -5.,          -20.,            0.,NA,NA,"",   2.63201E-03,  -2.62123E-03,   238.001E-06,   597.703E-06
C:/temp/dataset/3/19_7.odb,Step-1,Increment      1: Step Time =    1.000,"PART-1-1",            18,          -15.,          -20.,            0.,NA,NA,"",   4.33891E-03,  -4.28744E-03,  -666.314E-06,   7.99330E-06
C:/temp/dataset/3/19_7.odb,Step-1,Increment      1: Step Time =    1.000,"PART-1-1",            19,          -15.,          -25.,            0.,NA,NA,"",   3.02261E-03,  -2.90344E-03,  -840.360E-06,   70.3020E-06
C:/temp/dataset/3/19_7.odb,Step-1,Increment      1: Step Time =    1.000,"PART-1-1",            20,          -15.,          -30.,            0.,NA,NA,"",            0.,  -247.395E-42,  -385.249E-42,   741.767E-06
C:/temp/dataset/3/19_7.odb,Step-1,Increment      1: Step Time =    1.000,"PART-1-1",            21,           15.,          -30.,            0.,NA,NA,"",            0.,   932.916E-42,  -1.03814E-39,   2.54741E-03
C:/temp/dataset/3/19_7.odb,Step-1,Increment      1: Step Time =    1.000,"PART-1-1",            22,           15.,         -22.5,            0.,NA,NA,"",   34.5442E-03,   7.73757E-03,   33.6665E-03,   10.6854E-03
C:/temp/dataset/3/19_7.odb,Step-1,Increment      1: Step Time =    1.000,"PART-1-1",            23,           15.,          -15.,            0.,NA,NA,"",   188.145E-03,  -132.959E-03,   133.119E-03,   17.6530E-03
C:/temp/dataset/3/19_7.odb,Step-1,Increment      1: Step Time =    1.000,"PART-1-1",            24,           15.,          -7.5,            0.,NA,NA,"",   566.358E-03,  -510.170E-03,   245.944E-03,   17.8985E-03
C:/temp/dataset/3/19_7.odb,Step-1,Increment      1: Step Time =    1.000,"PART-1-1",            25,           15.,            0.,            0.,NA,NA,"",       1.16344,      -1.12071,   312.406E-03,   7.32355E-03
C:/temp/dataset/3/19_7.odb,Step-1,Increment      1: Step Time =    1.000,"PART-1-1",            26,           15.,           7.5,            0.,NA,NA,"",       1.83976,      -1.81559,   297.212E-03,   65.4531E-06
C:/temp/dataset/3/19_7.odb,Step-1,Increment      1: Step Time =    1.000,"PART-1-1",            27,           15.,           15.,            0.,NA,NA,"",       2.51554,      -2.50156,   264.861E-03,   50.2137E-06
C:/temp/dataset/3/19_7.odb,Step-1,Increment      1: Step Time =    1.000,"PART-1-1",            28,           15.,          22.5,            0.,NA,NA,"",       3.19412,      -3.18557,   233.530E-03,   726.214E-09
C:/temp/dataset/3/19_7.odb,Step-1,Increment      1: Step Time =    1.000,"PART-1-1",            29,           15.,           30.,            0.,NA,NA,"",       3.87491,      -3.86963,   202.272E-03,   24.9766E-09
C:/temp/dataset/3/19_7.odb,Step-1,Increment      1: Step Time =    1.000,"PART-1-1",            30,           7.5,           30.,            0.,NA,NA,"",       3.86849,      -3.83837,  -481.789E-03,   488.438E-09
C:/temp/dataset/3/19_7.odb,Step-1,Increment      1: Step Time =    1.000,"PART-1-1",            31,            0.,           30.,            0.,NA,NA,"",       3.98162,      -3.80711,      -1.16586,   55.1675E-09
C:/temp/dataset/3/19_7.odb,Step-1,Increment      1: Step Time =    1.000,"PART-1-1",            32,          -7.5,           30.,            0.,NA,NA,"",       4.20467,      -3.77585,      -1.84993,   7.00033E-09
C:/temp/dataset/3/19_7.odb,Step-1,Increment      1: Step Time =    1.000,"PART-1-1",            33,          -15.,           30.,            0.,NA,NA,"",       4.52140,      -3.74458,      -2.53399,   8.08878E-09
C:/temp/dataset/3/19_7.odb,Step-1,Increment      1: Step Time =    1.000,"PART-1-1",            34,          -15.,          22.5,            0.,NA,NA,"",       3.95353,      -3.06052,      -2.50273,   7.90822E-09
C:/temp/dataset/3/19_7.odb,Step-1,Increment      1: Step Time =    1.000,"PART-1-1",            35,          -7.5,           20.,            0.,NA,NA,"",       3.38686,      -2.86375,      -1.80824,   7.13582E-09
C:/temp/dataset/3/19_7.odb,Step-1,Increment      1: Step Time =    1.000,"PART-1-1",            36,          -10.,           20.,            0.,NA,NA,"",       3.50541,      -2.85333,      -2.03627,   7.45853E-09
C:/temp/dataset/3/19_7.odb,Step-1,Increment      1: Step Time =    1.000,"PART-1-1",            37,         -12.5,           20.,            0.,NA,NA,"",       3.63444,      -2.84291,      -2.26429,   7.88097E-09
C:/temp/dataset/3/19_7.odb,Step-1,Increment      1: Step Time =    1.000,"PART-1-1",            38,           2.5,           20.,            0.,NA,NA,"",       3.04050,      -2.90544,  -896.152E-03,   335.179E-09
C:/temp/dataset/3/19_7.odb,Step-1,Increment      1: Step Time =    1.000,"PART-1-1",            39,            0.,           20.,            0.,NA,NA,"",       3.10562,      -2.89502,      -1.12417,   91.6072E-09
C:/temp/dataset/3/19_7.odb,Step-1,Increment      1: Step Time =    1.000,"PART-1-1",            40,          -2.5,           20.,            0.,NA,NA,"",       3.18580,      -2.88460,      -1.35220,   14.9467E-09
C:/temp/dataset/3/19_7.odb,Step-1,Increment      1: Step Time =    1.000,"PART-1-1",            41,            5.,           15.,            0.,NA,NA,"",       2.54351,      -2.45979,  -647.211E-03,   58.1429E-06
C:/temp/dataset/3/19_7.odb,Step-1,Increment      1: Step Time =    1.000,"PART-1-1",            42,            5.,          17.5,            0.,NA,NA,"",       2.76711,      -2.68782,  -657.691E-03,   11.9464E-06
C:/temp/dataset/3/19_7.odb,Step-1,Increment      1: Step Time =    1.000,"PART-1-1",            43,            5.,           7.5,            0.,NA,NA,"",       1.88258,      -1.77948,  -614.464E-03,   1.89029E-03
C:/temp/dataset/3/19_7.odb,Step-1,Increment      1: Step Time =    1.000,"PART-1-1",            44,            5.,           10.,            0.,NA,NA,"",       2.09994,      -2.00450,  -625.869E-03,   524.440E-06
C:/temp/dataset/3/19_7.odb,Step-1,Increment      1: Step Time =    1.000,"PART-1-1",            45,   533.333E-03,            5.,            0.,NA,NA,"",       1.89921,      -1.56617,      -1.07429,   7.01061E-03
C:/temp/dataset/3/19_7.odb,Step-1,Increment      1: Step Time =    1.000,"PART-1-1",            46,       2.76667,            5.,            0.,NA,NA,"",       1.78442,      -1.56983,  -848.417E-03,   10.1691E-03
C:/temp/dataset/3/19_7.odb,Step-1,Increment      1: Step Time =    1.000,"PART-1-1",            47,      -6.16667,            5.,            0.,NA,NA,"",       2.30488,      -1.54395,      -1.71134,   608.147E-06
C:/temp/dataset/3/19_7.odb,Step-1,Increment      1: Step Time =    1.000,"PART-1-1",            48,      -3.93333,            5.,            0.,NA,NA,"",       2.15509,      -1.55277,      -1.49443,   1.85088E-03
C:/temp/dataset/3/19_7.odb,Step-1,Increment      1: Step Time =    1.000,"PART-1-1",            49,      -12.8000,            5.,            0.,NA,NA,"",       2.80335,      -1.51327,      -2.35983,   7.17932E-06
C:/temp/dataset/3/19_7.odb,Step-1,Increment      1: Step Time =    1.000,"PART-1-1",            50,      -10.6000,            5.,            0.,NA,NA,"",       2.63090,      -1.52376,      -2.14471,   62.8470E-06
C:/temp/dataset/3/19_7.odb,Step-1,Increment      1: Step Time =    1.000,"PART-1-1",            51,          -15.,           2.5,            0.,NA,NA,"",       2.85518,      -1.25837,      -2.56292,   7.86162E-06
C:/temp/dataset/3/19_7.odb,Step-1,Increment      1: Step Time =    1.000,"PART-1-1",            52,          -15.,          -2.5,            0.,NA,NA,"",       2.65315,  -769.660E-03,      -2.53906,   7.41857E-06
C:/temp/dataset/3/19_7.odb,Step-1,Increment      1: Step Time =    1.000,"PART-1-1",            53,      -10.5333,           -5.,            0.,NA,NA,"",       2.16091,  -546.642E-03,      -2.09063,   59.3896E-06
C:/temp/dataset/3/19_7.odb,Step-1,Increment      1: Step Time =    1.000,"PART-1-1",            54,      -12.7667,           -5.,            0.,NA,NA,"",       2.37024,  -536.006E-03,      -2.30884,   7.73668E-06
C:/temp/dataset/3/19_7.odb,Step-1,Increment      1: Step Time =    1.000,"PART-1-1",            55,      -3.83333,           -5.,            0.,NA,NA,"",       1.54598,  -576.553E-03,      -1.43445,   882.467E-06
C:/temp/dataset/3/19_7.odb,Step-1,Increment      1: Step Time =    1.000,"PART-1-1",            56,      -6.06667,           -5.,            0.,NA,NA,"",       1.74850,  -567.164E-03,      -1.65396,   482.368E-06
C:/temp/dataset/3/19_7.odb,Step-1,Increment      1: Step Time =    1.000,"PART-1-1",            57,       2.80000,           -5.,            0.,NA,NA,"",   967.067E-03,  -606.456E-03,  -753.279E-03,   8.98002E-03
C:/temp/dataset/3/19_7.odb,Step-1,Increment      1: Step Time =    1.000,"PART-1-1",            58,   600.000E-03,           -5.,            0.,NA,NA,"",       1.15367,  -594.870E-03,  -988.470E-03,   1.70144E-03
C:/temp/dataset/3/19_7.odb,Step-1,Increment      1: Step Time =    1.000,"PART-1-1",            59,            5.,          -10.,            0.,NA,NA,"",   492.204E-03,  -358.127E-03,  -337.653E-03,   26.4572E-03
C:/temp/dataset/3/19_7.odb,Step-1,Increment      1: Step Time =    1.000,"PART-1-1",            60,            5.,          -7.5,            0.,NA,NA,"",   638.076E-03,  -496.560E-03,  -400.710E-03,   28.8853E-03
C:/temp/dataset/3/19_7.odb,Step-1,Increment      1: Step Time =    1.000,"PART-1-1",            61,            5.,         -17.5,            0.,NA,NA,"",   169.224E-03,  -68.5207E-03,  -154.731E-03,   27.5177E-03
C:/temp/dataset/3/19_7.odb,Step-1,Increment      1: Step Time =    1.000,"PART-1-1",            62,            5.,          -15.,            0.,NA,NA,"",   257.481E-03,  -144.273E-03,  -213.265E-03,   25.6084E-03
C:/temp/dataset/3/19_7.odb,Step-1,Increment      1: Step Time =    1.000,"PART-1-1",            63,          -2.5,          -20.,            0.,NA,NA,"",   2.36401E-03,  -914.352E-06,  -2.18002E-03,   849.830E-06
C:/temp/dataset/3/19_7.odb,Step-1,Increment      1: Step Time =    1.000,"PART-1-1",            64,            0.,          -20.,            0.,NA,NA,"",   9.11390E-03,   1.56902E-03,  -8.97782E-03,   1.71005E-03
C:/temp/dataset/3/19_7.odb,Step-1,Increment      1: Step Time =    1.000,"PART-1-1",            65,           2.5,          -20.,            0.,NA,NA,"",   26.3324E-03,   5.03532E-03,  -25.8465E-03,   6.25859E-03
C:/temp/dataset/3/19_7.odb,Step-1,Increment      1: Step Time =    1.000,"PART-1-1",            66,         -12.5,          -20.,            0.,NA,NA,"",   4.25921E-03,  -4.25921E-03,  -1.18599E-06,   42.6003E-06
C:/temp/dataset/3/19_7.odb,Step-1,Increment      1: Step Time =    1.000,"PART-1-1",            67,          -10.,          -20.,            0.,NA,NA,"",   4.10818E-03,  -4.06488E-03,   594.940E-06,   140.805E-06
C:/temp/dataset/3/19_7.odb,Step-1,Increment      1: Step Time =    1.000,"PART-1-1",            68,          -7.5,          -20.,            0.,NA,NA,"",   3.68938E-03,  -3.59117E-03,   845.585E-06,   298.852E-06
C:/temp/dataset/3/19_7.odb,Step-1,Increment      1: Step Time =    1.000,"PART-1-1",            69,          -15.,         -22.5,            0.,NA,NA,"",   3.73521E-03,  -3.67027E-03,  -693.448E-06,   38.6416E-06
C:/temp/dataset/3/19_7.odb,Step-1,Increment      1: Step Time =    1.000,"PART-1-1",            70,          -15.,         -27.5,            0.,NA,NA,"",   1.90136E-03,  -1.67869E-03,  -892.832E-06,   159.122E-06
C:/temp/dataset/3/19_7.odb,Step-1,Increment      1: Step Time =    1.000,"PART-1-1",            71,          12.5,          -30.,            0.,NA,NA,"",            0.,   5.62913E-39,  -1.87209E-39,   4.00938E-03
C:/temp/dataset/3/19_7.odb,Step-1,Increment      1: Step Time =    1.000,"PART-1-1",            72,           10.,          -30.,            0.,NA,NA,"",            0.,   4.47717E-39,  -1.24459E-39,   4.64879E-03
C:/temp/dataset/3/19_7.odb,Step-1,Increment      1: Step Time =    1.000,"PART-1-1",            73,           7.5,          -30.,            0.,NA,NA,"",            0.,   1.21913E-39,  -8.34337E-39,   4.40478E-03
C:/temp/dataset/3/19_7.odb,Step-1,Increment      1: Step Time =    1.000,"PART-1-1",            74,            5.,          -30.,            0.,NA,NA,"",            0.,   3.16587E-39,  -11.4387E-39,   4.04460E-03
C:/temp/dataset/3/19_7.odb,Step-1,Increment      1: Step Time =    1.000,"PART-1-1",            75,           2.5,          -30.,            0.,NA,NA,"",            0.,   179.355E-42,  -7.77616E-39,   3.61045E-03
C:/temp/dataset/3/19_7.odb,Step-1,Increment      1: Step Time =    1.000,"PART-1-1",            76,            0.,          -30.,            0.,NA,NA,"",            0.,  -1.33037E-39,  -3.86216E-39,   2.93162E-03
C:/temp/dataset/3/19_7.odb,Step-1,Increment      1: Step Time =    1.000,"PART-1-1",            77,          -2.5,          -30.,            0.,NA,NA,"",            0.,  -3.64078E-39,  -4.52054E-39,   2.09695E-03
C:/temp/dataset/3/19_7.odb,Step-1,Increment      1: Step Time =    1.000,"PART-1-1",            78,           -5.,          -30.,            0.,NA,NA,"",            0.,  -1.41858E-39,  -57.0637E-42,   1.39858E-03
C:/temp/dataset/3/19_7.odb,Step-1,Increment      1: Step Time =    1.000,"PART-1-1",            79,          -7.5,          -30.,            0.,NA,NA,"",            0.,  -1.05698E-39,   342.442E-42,   903.214E-06
C:/temp/dataset/3/19_7.odb,Step-1,Increment      1: Step Time =    1.000,"PART-1-1",            80,          -10.,          -30.,            0.,NA,NA,"",            0.,  -964.689E-42,  -805.929E-42,   599.314E-06
C:/temp/dataset/3/19_7.odb,Step-1,Increment      1: Step Time =    1.000,"PART-1-1",            81,         -12.5,          -30.,            0.,NA,NA,"",            0.,  -757.838E-42,  -616.651E-42,   389.764E-06
C:/temp/dataset/3/19_7.odb,Step-1,Increment      1: Step Time =    1.000,"PART-1-1",            82,           15.,          -25.,            0.,NA,NA,"",   19.8619E-03,   14.4186E-03,   13.6601E-03,   7.11728E-03
C:/temp/dataset/3/19_7.odb,Step-1,Increment      1: Step Time =    1.000,"PART-1-1",            83,           15.,         -27.5,            0.,NA,NA,"",   10.0913E-03,   9.98446E-03,   1.46472E-03,   3.40779E-03
C:/temp/dataset/3/19_7.odb,Step-1,Increment      1: Step Time =    1.000,"PART-1-1",            84,           15.,         -17.5,            0.,NA,NA,"",   113.812E-03,  -61.3333E-03,   95.8716E-03,   16.4768E-03
C:/temp/dataset/3/19_7.odb,Step-1,Increment      1: Step Time =    1.000,"PART-1-1",            85,           15.,          -20.,            0.,NA,NA,"",   63.4954E-03,  -15.5890E-03,   61.5520E-03,   14.0243E-03
C:/temp/dataset/3/19_7.odb,Step-1,Increment      1: Step Time =    1.000,"PART-1-1",            86,           15.,          -10.,            0.,NA,NA,"",   413.587E-03,  -356.631E-03,   209.448E-03,   18.4943E-03
C:/temp/dataset/3/19_7.odb,Step-1,Increment      1: Step Time =    1.000,"PART-1-1",            87,           15.,         -12.5,            0.,NA,NA,"",   287.840E-03,  -231.230E-03,   171.419E-03,   18.1764E-03
C:/temp/dataset/3/19_7.odb,Step-1,Increment      1: Step Time =    1.000,"PART-1-1",            88,           15.,          -2.5,            0.,NA,NA,"",   946.866E-03,  -897.814E-03,   300.808E-03,   11.8648E-03
C:/temp/dataset/3/19_7.odb,Step-1,Increment      1: Step Time =    1.000,"PART-1-1",            89,           15.,           -5.,            0.,NA,NA,"",   745.454E-03,  -691.737E-03,   277.853E-03,   15.7940E-03
C:/temp/dataset/3/19_7.odb,Step-1,Increment      1: Step Time =    1.000,"PART-1-1",            90,           15.,            5.,            0.,NA,NA,"",       1.61381,      -1.58433,   307.091E-03,   914.993E-06
C:/temp/dataset/3/19_7.odb,Step-1,Increment      1: Step Time =    1.000,"PART-1-1",            91,           15.,           2.5,            0.,NA,NA,"",       1.38741,      -1.35159,   313.236E-03,   3.53381E-03
C:/temp/dataset/3/19_7.odb,Step-1,Increment      1: Step Time =    1.000,"PART-1-1",            92,           15.,          12.5,            0.,NA,NA,"",       2.29011,      -2.27348,   275.475E-03,   118.397E-06
C:/temp/dataset/3/19_7.odb,Step-1,Increment      1: Step Time =    1.000,"PART-1-1",            93,           15.,           10.,            0.,NA,NA,"",       2.06499,      -2.04504,   286.310E-03,   205.139E-06
C:/temp/dataset/3/19_7.odb,Step-1,Increment      1: Step Time =    1.000,"PART-1-1",            94,           15.,           20.,            0.,NA,NA,"",       2.96760,      -2.95756,   243.949E-03,   1.88104E-06
C:/temp/dataset/3/19_7.odb,Step-1,Increment      1: Step Time =    1.000,"PART-1-1",            95,           15.,          17.5,            0.,NA,NA,"",       2.74139,      -2.72956,   254.381E-03,   12.9910E-06
C:/temp/dataset/3/19_7.odb,Step-1,Increment      1: Step Time =    1.000,"PART-1-1",            96,           15.,          27.5,            0.,NA,NA,"",       3.64781,      -3.64161,   212.692E-03,   186.794E-09
C:/temp/dataset/3/19_7.odb,Step-1,Increment      1: Step Time =    1.000,"PART-1-1",            97,           15.,           25.,            0.,NA,NA,"",       3.42087,      -3.41359,   223.111E-03,   616.411E-09
C:/temp/dataset/3/19_7.odb,Step-1,Increment      1: Step Time =    1.000,"PART-1-1",            98,           10.,           30.,            0.,NA,NA,"",       3.85714,      -3.84879,  -253.768E-03,   438.241E-09
C:/temp/dataset/3/19_7.odb,Step-1,Increment      1: Step Time =    1.000,"PART-1-1",            99,          12.5,           30.,            0.,NA,NA,"",       3.85929,      -3.85921,  -25.7480E-03,   168.854E-09
C:/temp/dataset/3/19_7.odb,Step-1,Increment      1: Step Time =    1.000,"PART-1-1",           100,           2.5,           30.,            0.,NA,NA,"",       3.93104,      -3.81753,  -937.833E-03,   167.300E-09
C:/temp/dataset/3/19_7.odb,Step-1,Increment      1: Step Time =    1.000,"PART-1-1",           101,            5.,           30.,            0.,NA,NA,"",       3.89320,      -3.82795,  -709.811E-03,   351.575E-09
C:/temp/dataset/3/19_7.odb,Step-1,Increment      1: Step Time =    1.000,"PART-1-1",           102,           -5.,           30.,            0.,NA,NA,"",       4.11903,      -3.78627,      -1.62190,   6.62139E-09
C:/temp/dataset/3/19_7.odb,Step-1,Increment      1: Step Time =    1.000,"PART-1-1",           103,          -2.5,           30.,            0.,NA,NA,"",       4.04447,      -3.79669,      -1.39388,   11.4213E-09
C:/temp/dataset/3/19_7.odb,Step-1,Increment      1: Step Time =    1.000,"PART-1-1",           104,         -12.5,           30.,            0.,NA,NA,"",       4.40654,      -3.75500,      -2.30597,   7.93696E-09
C:/temp/dataset/3/19_7.odb,Step-1,Increment      1: Step Time =    1.000,"PART-1-1",           105,          -10.,           30.,            0.,NA,NA,"",       4.30073,      -3.76543,      -2.07795,   7.54349E-09
C:/temp/dataset/3/19_7.odb,Step-1,Increment      1: Step Time =    1.000,"PART-1-1",           106,          -15.,          27.5,            0.,NA,NA,"",       4.32835,      -3.51656,      -2.52357,   7.86724E-09
C:/temp/dataset/3/19_7.odb,Step-1,Increment      1: Step Time =    1.000,"PART-1-1",           107,      -12.5013,       25.0052,            0.,NA,NA,"",       4.01356,      -3.29943,      -2.28527,   7.95242E-09
C:/temp/dataset/3/19_7.odb,Step-1,Increment      1: Step Time =    1.000,"PART-1-1",           108,      -10.0028,       27.5014,            0.,NA,NA,"",       4.09753,      -3.53752,      -2.06779,   8.00637E-09
C:/temp/dataset/3/19_7.odb,Step-1,Increment      1: Step Time =    1.000,"PART-1-1",           109,      -2.49865,       22.5268,            0.,NA,NA,"",       3.40005,      -3.11507,      -1.36261,   31.2744E-09
C:/temp/dataset/3/19_7.odb,Step-1,Increment      1: Step Time =    1.000,"PART-1-1",           110,      -2.51000,       27.5279,            0.,NA,NA,"",       3.83015,      -3.57117,      -1.38449,   26.7217E-09
C:/temp/dataset/3/19_7.odb,Step-1,Increment      1: Step Time =    1.000,"PART-1-1",           111,       12.3864,       22.5464,            0.,NA,NA,"",       3.17891,      -3.17890,  -5.04483E-03,   1.13774E-06
C:/temp/dataset/3/19_7.odb,Step-1,Increment      1: Step Time =    1.000,"PART-1-1",           112,       7.35369,       17.5509,            0.,NA,NA,"",       2.73838,      -2.70227,  -443.242E-03,   19.8763E-06
C:/temp/dataset/3/19_7.odb,Step-1,Increment      1: Step Time =    1.000,"PART-1-1",           113,       12.3201,       14.9467,            0.,NA,NA,"",       2.48562,      -2.48553,   20.5478E-03,   50.8934E-06
C:/temp/dataset/3/19_7.odb,Step-1,Increment      1: Step Time =    1.000,"PART-1-1",           114,       13.2599,       7.39194,            0.,NA,NA,"",       1.80355,      -1.79826,   138.034E-03,   582.819E-06
C:/temp/dataset/3/19_7.odb,Step-1,Increment      1: Step Time =    1.000,"PART-1-1",           115,       7.60504,      -5.98204,            0.,NA,NA,"",   633.715E-03,  -581.306E-03,  -252.345E-03,   10.0420E-03
C:/temp/dataset/3/19_7.odb,Step-1,Increment      1: Step Time =    1.000,"PART-1-1",           116,       7.71062,      -13.7665,            0.,NA,NA,"",   214.216E-03,  -165.840E-03,  -135.593E-03,   14.5110E-03
C:/temp/dataset/3/19_7.odb,Step-1,Increment      1: Step Time =    1.000,"PART-1-1",           117,       11.7208,      -22.4938,            0.,NA,NA,"",   17.2397E-03,   16.9758E-03,   3.00513E-03,   5.73528E-03
C:/temp/dataset/3/19_7.odb,Step-1,Increment      1: Step Time =    1.000,"PART-1-1",           118,       2.59328,       2.74806,            0.,NA,NA,"",       1.59123,      -1.35104,  -840.645E-03,   9.82925E-03
C:/temp/dataset/3/19_7.odb,Step-1,Increment      1: Step Time =    1.000,"PART-1-1",           119,      -1.32361,      -2.98462,            0.,NA,NA,"",       1.43163,  -787.967E-03,      -1.19528,   886.469E-06
C:/temp/dataset/3/19_7.odb,Step-1,Increment      1: Step Time =    1.000,"PART-1-1",           120,      -6.00563,       3.11026,            0.,NA,NA,"",       2.16711,      -1.36105,      -1.68639,   381.554E-06
C:/temp/dataset/3/19_7.odb,Step-1,Increment      1: Step Time =    1.000,"PART-1-1",           121,      -10.4102,       2.53863,            0.,NA,NA,"",       2.47379,      -1.28417,      -2.11436,   110.969E-06
C:/temp/dataset/3/19_7.odb,Step-1,Increment      1: Step Time =    1.000,"PART-1-1",           122,      -12.6184,  -43.2983E-03,            0.,NA,NA,"",       2.53301,      -1.02124,      -2.31802,   39.6397E-06
C:/temp/dataset/3/19_7.odb,Step-1,Increment      1: Step Time =    1.000,"PART-1-1",           123,      -3.88272,       3.23189,            0.,NA,NA,"",       2.02591,      -1.38296,      -1.48045,   694.638E-06
C:/temp/dataset/3/19_7.odb,Step-1,Increment      1: Step Time =    1.000,"PART-1-1",           124,       2.98144,      -22.7363,            0.,NA,NA,"",   27.2436E-03,  -7.91469E-03,  -26.0685E-03,   9.00040E-03
C:/temp/dataset/3/19_7.odb,Step-1,Increment      1: Step Time =    1.000,"PART-1-1",           125,      -2.42987,      -22.6294,            0.,NA,NA,"",   5.46897E-03,  -5.07832E-03,  -2.02985E-03,   471.031E-06
C:/temp/dataset/3/19_7.odb,Step-1,Increment      1: Step Time =    1.000,"PART-1-1",           126,      -9.97348,      -22.5672,            0.,NA,NA,"",   3.83529E-03,  -3.78276E-03,   632.617E-06,   110.668E-06
C:/temp/dataset/3/19_7.odb,Step-1,Increment      1: Step Time =    1.000,"PART-1-1",           127,      -12.4895,      -25.0402,            0.,NA,NA,"",   2.97140E-03,  -2.97107E-03,  -44.3989E-06,   110.398E-06
C:/temp/dataset/3/19_7.odb,Step-1,Increment      1: Step Time =    1.000,"PART-1-1",           128,       12.8561,      -14.2595,            0.,NA,NA,"",   159.221E-03,  -145.136E-03,   65.4748E-03,   8.08284E-03
C:/temp/dataset/3/19_7.odb,Step-1,Increment      1: Step Time =    1.000,"PART-1-1",           129,       12.7281,      -7.33650,            0.,NA,NA,"",   512.852E-03,  -503.018E-03,   99.9515E-03,   8.02543E-03
C:/temp/dataset/3/19_7.odb,Step-1,Increment      1: Step Time =    1.000,"PART-1-1",           130,       12.6427,  -96.8002E-03,            0.,NA,NA,"",       1.10271,      -1.09746,   107.542E-03,   6.13940E-03
C:/temp/dataset/3/19_7.odb,Step-1,Increment      1: Step Time =    1.000,"PART-1-1",           131,       7.13014,       10.3328,            0.,NA,NA,"",       2.08881,      -2.04329,  -433.730E-03,   407.439E-06
C:/temp/dataset/3/19_7.odb,Step-1,Increment      1: Step Time =    1.000,"PART-1-1",           132,       4.95005,       27.5805,            0.,NA,NA,"",       3.67517,      -3.60706,  -704.281E-03,   204.517E-09
C:/temp/dataset/3/19_7.odb,Step-1,Increment      1: Step Time =    1.000,"PART-1-1",           133,      -4.99957,       22.5148,            0.,NA,NA,"",       3.48744,      -3.10355,      -1.59066,   11.2968E-09
C:/temp/dataset/3/19_7.odb,Step-1,Increment      1: Step Time =    1.000,"PART-1-1",           134,      -7.50186,       22.5094,            0.,NA,NA,"",       3.58785,      -3.09263,      -1.81887,   8.36675E-09
C:/temp/dataset/3/19_7.odb,Step-1,Increment      1: Step Time =    1.000,"PART-1-1",           135,       4.93744,       22.5898,            0.,NA,NA,"",       3.22532,      -3.15182,  -684.630E-03,   620.438E-09
C:/temp/dataset/3/19_7.odb,Step-1,Increment      1: Step Time =    1.000,"PART-1-1",           136,       2.47758,       22.5593,            0.,NA,NA,"",       3.26771,      -3.13878,  -908.864E-03,   384.337E-09
C:/temp/dataset/3/19_7.odb,Step-1,Increment      1: Step Time =    1.000,"PART-1-1",           137,  -4.46696E-03,       22.5388,            0.,NA,NA,"",       3.32625,      -3.12656,      -1.13516,   105.478E-09
C:/temp/dataset/3/19_7.odb,Step-1,Increment      1: Step Time =    1.000,"PART-1-1",           138,       7.20686,       12.6699,            0.,NA,NA,"",       2.29824,      -2.25645,  -436.271E-03,   82.4757E-06
C:/temp/dataset/3/19_7.odb,Step-1,Increment      1: Step Time =    1.000,"PART-1-1",           139,       7.30679,       15.0771,            0.,NA,NA,"",       2.51471,      -2.47640,  -437.226E-03,   50.7010E-06
C:/temp/dataset/3/19_7.odb,Step-1,Increment      1: Step Time =    1.000,"PART-1-1",           140,       7.52839,       5.66323,            0.,NA,NA,"",       1.66524,      -1.62238,  -375.364E-03,   4.12491E-03
C:/temp/dataset/3/19_7.odb,Step-1,Increment      1: Step Time =    1.000,"PART-1-1",           141,       7.20823,       7.96221,            0.,NA,NA,"",       1.87534,      -1.82861,  -416.058E-03,   1.79758E-03
C:/temp/dataset/3/19_7.odb,Step-1,Increment      1: Step Time =    1.000,"PART-1-1",           142,      -1.77433,       3.17490,            0.,NA,NA,"",       1.88601,      -1.38599,      -1.27909,   3.67200E-03
C:/temp/dataset/3/19_7.odb,Step-1,Increment      1: Step Time =    1.000,"PART-1-1",           143,   347.975E-03,       3.01142,            0.,NA,NA,"",       1.74245,      -1.37397,      -1.07161,   8.03139E-03
C:/temp/dataset/3/19_7.odb,Step-1,Increment      1: Step Time =    1.000,"PART-1-1",           144,      -8.17775,       2.85153,            0.,NA,NA,"",       2.31459,      -1.32547,      -1.89748,   248.339E-06
C:/temp/dataset/3/19_7.odb,Step-1,Increment      1: Step Time =    1.000,"PART-1-1",           145,      -8.45397,      -3.03463,            0.,NA,NA,"",       2.03937,  -748.696E-03,      -1.89697,   196.369E-06
C:/temp/dataset/3/19_7.odb,Step-1,Increment      1: Step Time =    1.000,"PART-1-1",           146,      -12.6978,       2.46856,            0.,NA,NA,"",       2.65868,      -1.26634,      -2.33772,   38.2429E-06
C:/temp/dataset/3/19_7.odb,Step-1,Increment      1: Step Time =    1.000,"PART-1-1",           147,      -10.5225,      -2.72745,            0.,NA,NA,"",       2.23677,  -768.870E-03,      -2.10047,   100.656E-06
C:/temp/dataset/3/19_7.odb,Step-1,Increment      1: Step Time =    1.000,"PART-1-1",           148,      -12.7265,      -2.55241,            0.,NA,NA,"",       2.44297,  -775.430E-03,      -2.31663,   36.7713E-06
C:/temp/dataset/3/19_7.odb,Step-1,Increment      1: Step Time =    1.000,"PART-1-1",           149,      -3.80700,      -2.48494,            0.,NA,NA,"",       1.66366,  -825.075E-03,      -1.44466,   222.864E-06
C:/temp/dataset/3/19_7.odb,Step-1,Increment      1: Step Time =    1.000,"PART-1-1",           150,      -6.26959,      -2.94549,            0.,NA,NA,"",       1.85074,  -767.838E-03,      -1.68395,   341.814E-06
C:/temp/dataset/3/19_7.odb,Step-1,Increment      1: Step Time =    1.000,"PART-1-1",           151,       2.97297,      -3.34056,            0.,NA,NA,"",       1.07988,  -779.923E-03,  -746.902E-03,   11.7244E-03
C:/temp/dataset/3/19_7.odb,Step-1,Increment      1: Step Time =    1.000,"PART-1-1",           152,   836.982E-03,      -3.21922,            0.,NA,NA,"",       1.24600,  -777.521E-03,  -973.641E-03,   3.66136E-03
C:/temp/dataset/3/19_7.odb,Step-1,Increment      1: Step Time =    1.000,"PART-1-1",           153,       7.27849,      -10.7647,            0.,NA,NA,"",   361.438E-03,  -300.377E-03,  -201.026E-03,   17.0937E-03
C:/temp/dataset/3/19_7.odb,Step-1,Increment      1: Step Time =    1.000,"PART-1-1",           154,       7.20650,      -8.25133,            0.,NA,NA,"",   501.338E-03,  -437.468E-03,  -244.870E-03,   18.1526E-03
C:/temp/dataset/3/19_7.odb,Step-1,Increment      1: Step Time =    1.000,"PART-1-1",           155,       7.07274,      -17.3233,            0.,NA,NA,"",   120.049E-03,  -56.6911E-03,  -105.820E-03,   17.1542E-03
C:/temp/dataset/3/19_7.odb,Step-1,Increment      1: Step Time =    1.000,"PART-1-1",           156,       6.55788,      -15.2577,            0.,NA,NA,"",   195.717E-03,  -120.646E-03,  -154.109E-03,   20.5695E-03
C:/temp/dataset/3/19_7.odb,Step-1,Increment      1: Step Time =    1.000,"PART-1-1",           157,      -7.46685,      -22.5818,            0.,NA,NA,"",   4.10231E-03,  -3.99665E-03,   925.057E-06,   208.307E-06
C:/temp/dataset/3/19_7.odb,Step-1,Increment      1: Step Time =    1.000,"PART-1-1",           158,      -4.95694,      -22.5955,            0.,NA,NA,"",   4.45012E-03,  -4.43181E-03,   403.191E-06,   323.267E-06
C:/temp/dataset/3/19_7.odb,Step-1,Increment      1: Step Time =    1.000,"PART-1-1",           159,   146.162E-03,      -22.6598,            0.,NA,NA,"",   11.4895E-03,  -7.09739E-03,  -9.03522E-03,   2.22380E-03
C:/temp/dataset/3/19_7.odb,Step-1,Increment      1: Step Time =    1.000,"PART-1-1",           160,      -12.4860,      -22.5306,            0.,NA,NA,"",   3.69680E-03,  -3.69678E-03,   12.6108E-06,   62.5538E-06
C:/temp/dataset/3/19_7.odb,Step-1,Increment      1: Step Time =    1.000,"PART-1-1",           161,       9.96020,      -27.7814,            0.,NA,NA,"",   11.9197E-03,   11.3055E-03,  -3.77692E-03,   4.61949E-03
C:/temp/dataset/3/19_7.odb,Step-1,Increment      1: Step Time =    1.000,"PART-1-1",           162,       7.44077,      -27.8946,            0.,NA,NA,"",   10.1093E-03,   6.53997E-03,  -7.70882E-03,   5.70472E-03
C:/temp/dataset/3/19_7.odb,Step-1,Increment      1: Step Time =    1.000,"PART-1-1",           163,       4.93217,      -27.8625,            0.,NA,NA,"",   8.63781E-03,   443.634E-06,  -8.62641E-03,   5.67142E-03
C:/temp/dataset/3/19_7.odb,Step-1,Increment      1: Step Time =    1.000,"PART-1-1",           164,       2.47767,      -27.7470,            0.,NA,NA,"",   7.79099E-03,  -4.02697E-03,  -6.66957E-03,   4.25420E-03
C:/temp/dataset/3/19_7.odb,Step-1,Increment      1: Step Time =    1.000,"PART-1-1",           165,   19.5837E-03,      -27.6625,            0.,NA,NA,"",   6.61116E-03,  -5.51304E-03,  -3.64881E-03,   2.67199E-03
C:/temp/dataset/3/19_7.odb,Step-1,Increment      1: Step Time =    1.000,"PART-1-1",           166,      -2.46955,      -27.6154,            0.,NA,NA,"",   5.21159E-03,  -5.00208E-03,  -1.46283E-03,   1.64030E-03
C:/temp/dataset/3/19_7.odb,Step-1,Increment      1: Step Time =    1.000,"PART-1-1",           167,      -4.97450,      -27.5844,            0.,NA,NA,"",   3.82454E-03,  -3.80954E-03,  -338.493E-06,   1.07358E-03
C:/temp/dataset/3/19_7.odb,Step-1,Increment      1: Step Time =    1.000,"PART-1-1",           168,      -7.48283,      -27.5594,            0.,NA,NA,"",   2.74413E-03,  -2.74361E-03,   53.5297E-06,   730.132E-06
C:/temp/dataset/3/19_7.odb,Step-1,Increment      1: Step Time =    1.000,"PART-1-1",           169,       12.2865,      -25.1793,            0.,NA,NA,"",   19.9441E-03,   19.5320E-03,   4.03343E-03,   4.93853E-03
C:/temp/dataset/3/19_7.odb,Step-1,Increment      1: Step Time =    1.000,"PART-1-1",           170,       11.6753,      -16.4340,            0.,NA,NA,"",   73.7727E-03,  -71.9627E-03,   16.2414E-03,   3.58134E-03
C:/temp/dataset/3/19_7.odb,Step-1,Increment      1: Step Time =    1.000,"PART-1-1",           171,       11.9685,      -19.5802,            0.,NA,NA,"",   16.2084E-03,  -8.25560E-03,   13.9484E-03,   5.57969E-03
C:/temp/dataset/3/19_7.odb,Step-1,Increment      1: Step Time =    1.000,"PART-1-1",           172,       13.3291,      -9.93034,            0.,NA,NA,"",   366.962E-03,  -347.110E-03,   119.062E-03,   10.5787E-03
C:/temp/dataset/3/19_7.odb,Step-1,Increment      1: Step Time =    1.000,"PART-1-1",           173,       13.4212,      -12.1607,            0.,NA,NA,"",   257.041E-03,  -234.619E-03,   104.995E-03,   10.9132E-03
C:/temp/dataset/3/19_7.odb,Step-1,Increment      1: Step Time =    1.000,"PART-1-1",           174,       12.9633,      -2.52247,            0.,NA,NA,"",   890.954E-03,  -880.832E-03,   133.917E-03,   7.62706E-03
C:/temp/dataset/3/19_7.odb,Step-1,Increment      1: Step Time =    1.000,"PART-1-1",           175,       13.1247,      -4.84738,            0.,NA,NA,"",   702.068E-03,  -688.121E-03,   139.244E-03,   9.10314E-03
C:/temp/dataset/3/19_7.odb,Step-1,Increment      1: Step Time =    1.000,"PART-1-1",           176,       13.1131,       5.12757,            0.,NA,NA,"",       1.59326,      -1.58763,   133.792E-03,   1.75438E-03
C:/temp/dataset/3/19_7.odb,Step-1,Increment      1: Step Time =    1.000,"PART-1-1",           177,       12.1418,       2.60140,            0.,NA,NA,"",       1.34844,      -1.34725,   56.6666E-03,   4.30903E-03
C:/temp/dataset/3/19_7.odb,Step-1,Increment      1: Step Time =    1.000,"PART-1-1",           178,       12.1760,       12.1629,            0.,NA,NA,"",       2.23106,      -2.23098,   18.9543E-03,   61.6227E-06
C:/temp/dataset/3/19_7.odb,Step-1,Increment      1: Step Time =    1.000,"PART-1-1",           179,       13.0236,       9.64002,            0.,NA,NA,"",       2.00675,      -2.00390,   106.966E-03,   101.158E-06
C:/temp/dataset/3/19_7.odb,Step-1,Increment      1: Step Time =    1.000,"PART-1-1",           180,       12.3784,       20.0377,            0.,NA,NA,"",       2.95007,      -2.95007,   4.68000E-03,   6.25001E-06
C:/temp/dataset/3/19_7.odb,Step-1,Increment      1: Step Time =    1.000,"PART-1-1",           181,       12.3660,       17.5135,            0.,NA,NA,"",       2.71985,      -2.71981,   14.0618E-03,   20.8797E-06
C:/temp/dataset/3/19_7.odb,Step-1,Increment      1: Step Time =    1.000,"PART-1-1",           182,       12.4264,       25.0333,            0.,NA,NA,"",       3.40592,      -3.40589,  -11.7606E-03,   272.692E-09
C:/temp/dataset/3/19_7.odb,Step-1,Increment      1: Step Time =    1.000,"PART-1-1",           183,       7.43491,       27.5684,            0.,NA,NA,"",       3.64771,      -3.61631,  -477.590E-03,   144.127E-09
C:/temp/dataset/3/19_7.odb,Step-1,Increment      1: Step Time =    1.000,"PART-1-1",           184,  -17.4965E-03,       27.5503,            0.,NA,NA,"",       3.76582,      -3.58360,      -1.15724,   81.2271E-09
C:/temp/dataset/3/19_7.odb,Step-1,Increment      1: Step Time =    1.000,"PART-1-1",           185,       2.47067,       27.5656,            0.,NA,NA,"",       3.71379,      -3.59537,  -930.361E-03,   174.318E-09
C:/temp/dataset/3/19_7.odb,Step-1,Increment      1: Step Time =    1.000,"PART-1-1",           186,      -7.50286,       27.5043,            0.,NA,NA,"",       3.99682,      -3.54821,      -1.83978,   8.43890E-09
C:/temp/dataset/3/19_7.odb,Step-1,Increment      1: Step Time =    1.000,"PART-1-1",           187,      -5.00635,       27.5119,            0.,NA,NA,"",       3.90737,      -3.55930,      -1.61211,   10.6713E-09
C:/temp/dataset/3/19_7.odb,Step-1,Increment      1: Step Time =    1.000,"PART-1-1",           188,      -12.5019,       27.5019,            0.,NA,NA,"",       4.20846,      -3.52715,      -2.29573,   7.92858E-09
C:/temp/dataset/3/19_7.odb,Step-1,Increment      1: Step Time =    1.000,"PART-1-1",           189,      -12.5001,       22.5034,            0.,NA,NA,"",       3.82191,      -3.07125,      -2.27473,   7.90893E-09
C:/temp/dataset/3/19_7.odb,Step-1,Increment      1: Step Time =    1.000,"PART-1-1",           190,      -5.00429,       25.0191,            0.,NA,NA,"",       3.69686,      -3.33195,      -1.60153,   11.9831E-09
C:/temp/dataset/3/19_7.odb,Step-1,Increment      1: Step Time =    1.000,"PART-1-1",           191,  -15.9173E-03,       25.0642,            0.,NA,NA,"",       3.54732,      -3.35685,      -1.14673,   97.9274E-09
C:/temp/dataset/3/19_7.odb,Step-1,Increment      1: Step Time =    1.000,"PART-1-1",           192,       9.74355,       15.0604,            0.,NA,NA,"",       2.49438,      -2.48510,  -214.989E-03,   54.2287E-06
C:/temp/dataset/3/19_7.odb,Step-1,Increment      1: Step Time =    1.000,"PART-1-1",           193,       9.51986,       12.6989,            0.,NA,NA,"",       2.27996,      -2.26877,  -225.642E-03,   80.3260E-06
C:/temp/dataset/3/19_7.odb,Step-1,Increment      1: Step Time =    1.000,"PART-1-1",           194,       12.1898,      -11.7554,            0.,NA,NA,"",   252.586E-03,  -247.564E-03,   50.1180E-03,   5.35114E-03
C:/temp/dataset/3/19_7.odb,Step-1,Increment      1: Step Time =    1.000,"PART-1-1",           195,       9.78251,      -13.4248,            0.,NA,NA,"",   180.739E-03,  -172.092E-03,  -55.2340E-03,   5.42519E-03
C:/temp/dataset/3/19_7.odb,Step-1,Increment      1: Step Time =    1.000,"PART-1-1",           196,       7.24032,      -19.5057,            0.,NA,NA,"",   74.3536E-03,  -10.0174E-03,  -73.6757E-03,   10.8540E-03
C:/temp/dataset/3/19_7.odb,Step-1,Increment      1: Step Time =    1.000,"PART-1-1",           197,      -10.0066,  -139.817E-03,            0.,NA,NA,"",       2.30274,      -1.02446,      -2.06230,   139.543E-06
C:/temp/dataset/3/19_7.odb,Step-1,Increment      1: Step Time =    1.000,"PART-1-1",           198,      -8.39380,      -1.43672,            0.,NA,NA,"",       2.10353,  -905.486E-03,      -1.89867,   220.118E-06
C:/temp/dataset/3/19_7.odb,Step-1,Increment      1: Step Time =    1.000,"PART-1-1",           199,      -5.07121,  -530.035E-03,            0.,NA,NA,"",       1.87423,      -1.01091,      -1.57823,   348.295E-06
C:/temp/dataset/3/19_7.odb,Step-1,Increment      1: Step Time =    1.000,"PART-1-1",           200,      -12.5003,      -27.5198,            0.,NA,NA,"",   1.69430E-03,  -1.68956E-03,  -126.657E-06,   401.501E-06
C:/temp/dataset/3/19_7.odb,Step-1,Increment      1: Step Time =    1.000,"PART-1-1",           201,       8.97180,      -8.86122,            0.,NA,NA,"",   416.884E-03,  -395.881E-03,  -130.653E-03,   8.21912E-03
C:/temp/dataset/3/19_7.odb,Step-1,Increment      1: Step Time =    1.000,"PART-1-1",           202,      -2.50561,       25.0360,            0.,NA,NA,"",       3.61507,      -3.34390,      -1.37370,   34.6220E-09
C:/temp/dataset/3/19_7.odb,Step-1,Increment      1: Step Time =    1.000,"PART-1-1",           203,      -7.50383,       25.0106,            0.,NA,NA,"",       3.79136,      -3.32075,      -1.82948,   9.11053E-09
C:/temp/dataset/3/19_7.odb,Step-1,Increment      1: Step Time =    1.000,"PART-1-1",           204,       2.46362,       25.0850,            0.,NA,NA,"",       3.49262,      -3.36909,  -920.665E-03,   251.497E-09
C:/temp/dataset/3/19_7.odb,Step-1,Increment      1: Step Time =    1.000,"PART-1-1",           205,       9.17638,       10.5785,            0.,NA,NA,"",       2.08886,      -2.07406,  -248.261E-03,   139.606E-06
C:/temp/dataset/3/19_7.odb,Step-1,Increment      1: Step Time =    1.000,"PART-1-1",           206,       9.65111,       6.46520,            0.,NA,NA,"",       1.71053,      -1.70038,  -186.015E-03,   1.92947E-03
C:/temp/dataset/3/19_7.odb,Step-1,Increment      1: Step Time =    1.000,"PART-1-1",           207,      -1.99278,       1.34592,            0.,NA,NA,"",       1.76559,      -1.20848,      -1.28719,   2.14411E-03
C:/temp/dataset/3/19_7.odb,Step-1,Increment      1: Step Time =    1.000,"PART-1-1",           208,      -5.69490,       1.29843,            0.,NA,NA,"",       2.03042,      -1.18645,      -1.64771,   402.302E-06
C:/temp/dataset/3/19_7.odb,Step-1,Increment      1: Step Time =    1.000,"PART-1-1",           209,       1.92780,   665.778E-03,            0.,NA,NA,"",       1.45593,      -1.15444,  -887.141E-03,   8.47133E-03
C:/temp/dataset/3/19_7.odb,Step-1,Increment      1: Step Time =    1.000,"PART-1-1",           210,       1.26043,      -1.37778,            0.,NA,NA,"",       1.34289,  -959.428E-03,  -939.602E-03,   5.69182E-03
C:/temp/dataset/3/19_7.odb,Step-1,Increment      1: Step Time =    1.000,"PART-1-1",           211,       9.14691,      -16.8280,            0.,NA,NA,"",   82.1753E-03,  -60.4570E-03,  -55.6573E-03,   6.92831E-03
C:/temp/dataset/3/19_7.odb,Step-1,Increment      1: Step Time =    1.000,"PART-1-1",           212,   79.9954E-03,      -25.2148,            0.,NA,NA,"",   10.7978E-03,  -7.99571E-03,  -7.25686E-03,   2.60256E-03
C:/temp/dataset/3/19_7.odb,Step-1,Increment      1: Step Time =    1.000,"PART-1-1",           213,      -9.97865,      -25.0679,            0.,NA,NA,"",   3.32300E-03,  -3.29804E-03,   406.522E-06,   273.795E-06
C:/temp/dataset/3/19_7.odb,Step-1,Increment      1: Step Time =    1.000,"PART-1-1",           214,       12.4671,      -27.6040,            0.,NA,NA,"",   12.6140E-03,   12.5157E-03,   1.57177E-03,   4.50050E-03
C:/temp/dataset/3/19_7.odb,Step-1,Increment      1: Step Time =    1.000,"PART-1-1",           215,       9.82463,      -25.6838,            0.,NA,NA,"",   19.7024E-03,   17.1787E-03,  -9.64769E-03,   5.90896E-03
C:/temp/dataset/3/19_7.odb,Step-1,Increment      1: Step Time =    1.000,"PART-1-1",           216,       2.56344,      -25.3828,            0.,NA,NA,"",   16.9802E-03,  -6.82798E-03,  -15.5468E-03,   5.32550E-03
C:/temp/dataset/3/19_7.odb,Step-1,Increment      1: Step Time =    1.000,"PART-1-1",           217,      -2.44121,      -25.1518,            0.,NA,NA,"",   7.08441E-03,  -6.75905E-03,  -2.12229E-03,   1.31444E-03
C:/temp/dataset/3/19_7.odb,Step-1,Increment      1: Step Time =    1.000,"PART-1-1",           218,      -4.95889,      -25.1139,            0.,NA,NA,"",   5.23129E-03,  -5.23121E-03,  -29.3666E-06,   733.797E-06
C:/temp/dataset/3/19_7.odb,Step-1,Increment      1: Step Time =    1.000,"PART-1-1",           219,       10.3279,  -771.646E-03,            0.,NA,NA,"",       1.03050,      -1.02723,  -82.0099E-03,   6.99911E-03
C:/temp/dataset/3/19_7.odb,Step-1,Increment      1: Step Time =    1.000,"PART-1-1",           220,       10.4049,       4.48083,            0.,NA,NA,"",       1.52226,      -1.51851,  -106.683E-03,   3.42410E-03
C:/temp/dataset/3/19_7.odb,Step-1,Increment      1: Step Time =    1.000,"PART-1-1",           221,       9.80969,       17.5478,            0.,NA,NA,"",       2.72110,      -2.71225,  -219.253E-03,   22.7541E-06
C:/temp/dataset/3/19_7.odb,Step-1,Increment      1: Step Time =    1.000,"PART-1-1",           222,       9.88106,       25.0797,            0.,NA,NA,"",       3.40827,      -3.39952,  -244.107E-03,   318.319E-09
C:/temp/dataset/3/19_7.odb,Step-1,Increment      1: Step Time =    1.000,"PART-1-1",           223,       9.94975,       27.5346,            0.,NA,NA,"",       3.63220,      -3.62372,  -248.075E-03,   219.887E-09
C:/temp/dataset/3/19_7.odb,Step-1,Increment      1: Step Time =    1.000,"PART-1-1",           224,       7.36779,       20.0596,            0.,NA,NA,"",       2.96586,      -2.93116,  -452.413E-03,   5.49187E-06
C:/temp/dataset/3/19_7.odb,Step-1,Increment      1: Step Time =    1.000,"PART-1-1",           225,  -693.206E-03,      -1.01900,            0.,NA,NA,"",       1.50808,  -984.452E-03,      -1.14243,   2.78081E-03
C:/temp/dataset/3/19_7.odb,Step-1,Increment      1: Step Time =    1.000,"PART-1-1",           226,      -7.47194,      -25.0831,            0.,NA,NA,"",   4.07086E-03,  -4.03579E-03,   533.148E-06,   478.569E-06
C:/temp/dataset/3/19_7.odb,Step-1,Increment      1: Step Time =    1.000,"PART-1-1",           227,       5.28089,       2.25097,            0.,NA,NA,"",       1.42126,      -1.30537,  -562.110E-03,   5.96153E-03
C:/temp/dataset/3/19_7.odb,Step-1,Increment      1: Step Time =    1.000,"PART-1-1",           228,       9.26575,       8.45073,            0.,NA,NA,"",       1.89480,      -1.88067,  -230.969E-03,   834.799E-06
C:/temp/dataset/3/19_7.odb,Step-1,Increment      1: Step Time =    1.000,"PART-1-1",           229,  -81.3472E-03,       1.02952,            0.,NA,NA,"",       1.61307,      -1.18408,      -1.09542,   5.06952E-03
C:/temp/dataset/3/19_7.odb,Step-1,Increment      1: Step Time =    1.000,"PART-1-1",           230,      -7.67687,   831.326E-03,            0.,NA,NA,"",       2.15901,      -1.13087,      -1.83914,   293.266E-06
C:/temp/dataset/3/19_7.odb,Step-1,Increment      1: Step Time =    1.000,"PART-1-1",           231,      -2.54090,  -531.417E-03,            0.,NA,NA,"",       1.67794,      -1.02335,      -1.32975,   1.02280E-03
C:/temp/dataset/3/19_7.odb,Step-1,Increment      1: Step Time =    1.000,"PART-1-1",           232,      -3.83997,       1.55066,            0.,NA,NA,"",       1.90904,      -1.22023,      -1.46815,   514.095E-06
C:/temp/dataset/3/19_7.odb,Step-1,Increment      1: Step Time =    1.000,"PART-1-1",           233,      -6.84494,  -996.203E-03,            0.,NA,NA,"",       1.99374,  -956.294E-03,      -1.74943,   332.368E-06
C:/temp/dataset/3/19_7.odb,Step-1,Increment      1: Step Time =    1.000,"PART-1-1",           234,       5.51335,      -3.03354,            0.,NA,NA,"",   947.050E-03,  -820.161E-03,  -473.539E-03,   16.6965E-03
C:/temp/dataset/3/19_7.odb,Step-1,Increment      1: Step Time =    1.000,"PART-1-1",           235,       9.62476,      -7.14735,            0.,NA,NA,"",   513.238E-03,  -502.988E-03,  -102.061E-03,   4.78095E-03
C:/temp/dataset/3/19_7.odb,Step-1,Increment      1: Step Time =    1.000,"PART-1-1",           236,       7.38903,      -25.9371,            0.,NA,NA,"",   20.6327E-03,   9.62244E-03,  -18.2515E-03,   7.51993E-03
C:/temp/dataset/3/19_7.odb,Step-1,Increment      1: Step Time =    1.000,"PART-1-1",           237,       4.96373,      -25.7856,            0.,NA,NA,"",   20.6670E-03,   100.377E-06,  -20.6668E-03,   7.56326E-03
C:/temp/dataset/3/19_7.odb,Step-1,Increment      1: Step Time =    1.000,"PART-1-1",           238,       9.37191,      -21.3805,            0.,NA,NA,"",   31.8030E-03,   11.3408E-03,  -29.7122E-03,   7.16888E-03
C:/temp/dataset/3/19_7.odb,Step-1,Increment      1: Step Time =    1.000,"PART-1-1",           239,       9.53380,      -19.3691,            0.,NA,NA,"",   35.0990E-03,  -8.41939E-03,  -34.0743E-03,   5.69038E-03
C:/temp/dataset/3/19_7.odb,Step-1,Increment      1: Step Time =    1.000,"PART-1-1",           240,       10.5518,      -5.76730,            0.,NA,NA,"",   605.073E-03,  -603.438E-03,  -44.4430E-03,   3.54793E-03
C:/temp/dataset/3/19_7.odb,Step-1,Increment      1: Step Time =    1.000,"PART-1-1",           241,       10.8494,      -2.88140,            0.,NA,NA,"",   839.977E-03,  -839.419E-03,  -30.6106E-03,   6.55517E-03
C:/temp/dataset/3/19_7.odb,Step-1,Increment      1: Step Time =    1.000,"PART-1-1",           242,       9.33979,       1.27198,            0.,NA,NA,"",       1.22913,      -1.21594,  -179.611E-03,   6.49516E-03
C:/temp/dataset/3/19_7.odb,Step-1,Increment      1: Step Time =    1.000,"PART-1-1",           243,       9.83335,       20.0603,            0.,NA,NA,"",       2.95030,      -2.94151,  -227.545E-03,   6.87780E-06
C:/temp/dataset/3/19_7.odb,Step-1,Increment      1: Step Time =    1.000,"PART-1-1",           244,       7.39102,       25.1069,            0.,NA,NA,"",       3.42422,      -3.39162,  -471.333E-03,   288.800E-09
C:/temp/dataset/3/19_7.odb,Step-1,Increment      1: Step Time =    1.000,"PART-1-1",           245,       4.93408,       25.0979,            0.,NA,NA,"",       3.45134,      -3.38056,  -695.390E-03,   230.197E-09
C:/temp/dataset/3/19_7.odb,Step-1,Increment      1: Step Time =    1.000,"PART-1-1",           246,      -10.0026,       25.0068,            0.,NA,NA,"",       3.89728,      -3.30999,      -2.05737,   8.24589E-09
C:/temp/dataset/3/19_7.odb,Step-1,Increment      1: Step Time =    1.000,"PART-1-1",           247,      -10.0008,       22.5051,            0.,NA,NA,"",       3.69959,      -3.08182,      -2.04678,   8.00814E-09
C:/temp/dataset/3/19_7.odb,Step-1,Increment      1: Step Time =    1.000,"PART-1-1",           248,      -9.99283,      -27.5363,            0.,NA,NA,"",   2.02454E-03,  -2.02254E-03,   90.0555E-06,   513.964E-06
C:/temp/dataset/3/19_7.odb,Step-1,Increment      1: Step Time =    1.000,"PART-1-1",           249,       3.80746,   187.829E-03,            0.,NA,NA,"",       1.30909,      -1.11353,  -688.306E-03,   9.61516E-03
C:/temp/dataset/3/19_7.odb,Step-1,Increment      1: Step Time =    1.000,"PART-1-1",           250,       11.4886,       7.12458,            0.,NA,NA,"",       1.76689,      -1.76675,  -22.1981E-03,   1.11375E-03
C:/temp/dataset/3/19_7.odb,Step-1,Increment      1: Step Time =    1.000,"PART-1-1",           251,       5.25951,      -23.9756,            0.,NA,NA,"",   33.9450E-03,  -345.951E-06,  -33.9433E-03,   10.2882E-03
C:/temp/dataset/3/19_7.odb,Step-1,Increment      1: Step Time =    1.000,"PART-1-1",           252,       9.85798,       22.5791,            0.,NA,NA,"",       3.18011,      -3.17135,  -235.790E-03,   1.56251E-06
C:/temp/dataset/3/19_7.odb,Step-1,Increment      1: Step Time =    1.000,"PART-1-1",           253,       7.38133,       22.5911,            0.,NA,NA,"",       3.19565,      -3.16211,  -461.730E-03,   944.957E-09
C:/temp/dataset/3/19_7.odb,Step-1,Increment      1: Step Time =    1.000,"PART-1-1",           254,       9.03817,      -10.9527,            0.,NA,NA,"",   303.566E-03,  -283.790E-03,  -107.777E-03,   8.66709E-03
C:/temp/dataset/3/19_7.odb,Step-1,Increment      1: Step Time =    1.000,"PART-1-1",           255,       7.30212,      -21.2110,            0.,NA,NA,"",   57.4221E-03,   5.64701E-03,  -57.1437E-03,   11.9301E-03
C:/temp/dataset/3/19_7.odb,Step-1,Increment      1: Step Time =    1.000,"PART-1-1",           256,       8.48263,      -3.88795,            0.,NA,NA,"",   774.592E-03,  -746.644E-03,  -206.193E-03,   9.03761E-03
C:/temp/dataset/3/19_7.odb,Step-1,Increment      1: Step Time =    1.000,"PART-1-1",           257,       8.48912,      -1.65164,            0.,NA,NA,"",   970.592E-03,  -943.716E-03,  -226.824E-03,   9.15485E-03
C:/temp/dataset/3/19_7.odb,Step-1,Increment      1: Step Time =    1.000,"PART-1-1",           258,       8.19007,       3.36514,            0.,NA,NA,"",       1.44216,      -1.41100,  -298.164E-03,   5.62934E-03
C:/temp/dataset/3/19_7.odb,Step-1,Increment      1: Step Time =    1.000,"PART-1-1",           259,       6.78208,  -317.133E-03,            0.,NA,NA,"",       1.13684,      -1.06721,  -391.750E-03,   8.36270E-03
C:/temp/dataset/3/19_7.odb,Step-1,Increment      1: Step Time =    1.000,"PART-1-1",           260,       11.8604,      -10.2109,            0.,NA,NA,"",   326.585E-03,  -324.366E-03,   38.0023E-03,   4.08961E-03
C:/temp/dataset/3/19_7.odb,Step-1,Increment      1: Step Time =    1.000,"PART-1-1",           261,       5.00218,  -627.613E-03,            0.,NA,NA,"",       1.17985,      -1.03921,  -558.644E-03,   10.4323E-03
C:/temp/dataset/3/19_7.odb,Step-1,Increment      1: Step Time =    1.000,"PART-1-1",           262,       11.1460,      -8.45072,            0.,NA,NA,"",   423.487E-03,  -423.484E-03,  -1.52313E-03,   1.86234E-03
C:/temp/dataset/3/19_7.odb,Step-1,Increment      1: Step Time =    1.000,"PART-1-1",           263,       11.7180,       5.54683,            0.,NA,NA,"",       1.62146,      -1.62145,   5.96957E-03,   2.05097E-03
C:/temp/dataset/3/19_7.odb,Step-1,Increment      1: Step Time =    1.000,"PART-1-1",           264,       5.25136,      -21.5985,            0.,NA,NA,"",   57.5754E-03,  -3.96151E-03,  -57.4390E-03,   16.1509E-03
C:/temp/dataset/3/19_7.odb,Step-1,Increment      1: Step Time =    1.000,"PART-1-1",           265,       12.4723,       27.5096,            0.,NA,NA,"",       3.63199,      -3.63195,  -17.8915E-03,   356.352E-09
C:/temp/dataset/3/19_7.odb,Step-1,Increment      1: Step Time =    1.000,"PART-1-1",           266,       5.87727,      -22.7682,            0.,NA,NA,"",   46.4564E-03,   841.645E-06,  -46.4488E-03,   11.8933E-03
C:/temp/dataset/3/19_7.odb,Step-1,Increment      1: Step Time =    1.000,"PART-1-1",           267,       7.32369,      -22.7299,            0.,NA,NA,"",   43.8452E-03,   9.45232E-03,  -42.8142E-03,   11.0265E-03
C:/temp/dataset/3/19_7.odb,Step-1,Increment      1: Step Time =    1.000,"PART-1-1",           268,       11.4923,      -4.55460,            0.,NA,NA,"",   702.355E-03,  -702.045E-03,   20.8361E-03,   5.85145E-03
C:/temp/dataset/3/19_7.odb,Step-1,Increment      1: Step Time =    1.000,"PART-1-1",           269,       11.2115,       8.96325,            0.,NA,NA,"",       1.93537,      -1.93457,  -55.6422E-03,   403.639E-06
C:/temp/dataset/3/19_7.odb,Step-1,Increment      1: Step Time =    1.000,"PART-1-1",           270,       10.8046,       10.5255,            0.,NA,NA,"",       2.07817,      -2.07579,  -99.4261E-03,   124.978E-06
C:/temp/dataset/3/19_7.odb,Step-1,Increment      1: Step Time =    1.000,"PART-1-1",           271,       7.35536,      -24.2380,            0.,NA,NA,"",   31.5877E-03,   10.3903E-03,  -29.8299E-03,   9.26659E-03
C:/temp/dataset/3/19_7.odb,Step-1,Increment      1: Step Time =    1.000,"PART-1-1",           272,      -3.82134,   150.711E-03,            0.,NA,NA,"",       1.81771,      -1.08382,      -1.45926,   476.443E-06
C:/temp/dataset/3/19_7.odb,Step-1,Increment      1: Step Time =    1.000,"PART-1-1",           273,       3.09609,      -1.70207,            0.,NA,NA,"",       1.19673,  -937.873E-03,  -743.342E-03,   10.6355E-03
C:/temp/dataset/3/19_7.odb,Step-1,Increment      1: Step Time =    1.000,"PART-1-1",           274,       4.56419,      -1.78689,            0.,NA,NA,"",       1.10324,  -933.598E-03,  -587.813E-03,   11.9932E-03
C:/temp/dataset/3/19_7.odb,Step-1,Increment      1: Step Time =    1.000,"PART-1-1",           275,       9.44492,      -23.8624,            0.,NA,NA,"",   25.8272E-03,   17.9009E-03,  -18.6172E-03,   7.33502E-03
C:/temp/dataset/3/19_7.odb,Step-1,Increment      1: Step Time =    1.000,"PART-1-1",           276,       8.77427,      -22.6651,            0.,NA,NA,"",   34.1279E-03,   14.7842E-03,  -30.7594E-03,   8.41781E-03
C:/temp/dataset/3/19_7.odb,Step-1,Increment      1: Step Time =    1.000,"PART-1-1",           277,       10.1837,      -9.28900,            0.,NA,NA,"",   375.976E-03,  -371.735E-03,  -56.3148E-03,   3.06421E-03
C:/temp/dataset/3/19_7.odb,Step-1,Increment      1: Step Time =    1.000,"PART-1-1",           278,       10.4979,      -10.7612,            0.,NA,NA,"",   294.476E-03,  -292.542E-03,  -33.6932E-03,   2.20465E-03
C:/temp/dataset/3/19_7.odb,Step-1,Increment      1: Step Time =    1.000,"PART-1-1",           279,       11.2325,      -12.6180,            0.,NA,NA,"",   205.912E-03,  -205.860E-03,   4.62567E-03,   1.29960E-03
C:/temp/dataset/3/19_7.odb,Step-1,Increment      1: Step Time =    1.000,"PART-1-1",           280,      -13.7500,       22.5017,            0.,NA,NA,"",       3.88660,      -3.06588,      -2.38873,   7.91033E-09
C:/temp/dataset/3/19_7.odb,Step-1,Increment      1: Step Time =    1.000,"PART-1-1",           281,          -15.,         21.25,            0.,NA,NA,"",       3.86258,      -2.94650,      -2.49752,   8.00721E-09
C:/temp/dataset/3/19_7.odb,Step-1,Increment      1: Step Time =    1.000,"PART-1-1",           282,        -13.75,           20.,            0.,NA,NA,"",       3.70255,      -2.83770,      -2.37830,   7.97287E-09
C:/temp/dataset/3/19_7.odb,Step-1,Increment      1: Step Time =    1.000,"PART-1-1",           283,      -12.5000,       21.2517,            0.,NA,NA,"",       3.72760,      -2.95708,      -2.26951,   7.89726E-09
C:/temp/dataset/3/19_7.odb,Step-1,Increment      1: Step Time =    1.000,"PART-1-1",           284,        -11.25,           30.,            0.,NA,NA,"",       4.35246,      -3.76022,      -2.19196,   7.74150E-09
C:/temp/dataset/3/19_7.odb,Step-1,Increment      1: Step Time =    1.000,"PART-1-1",           285,      -12.5009,       28.7510,            0.,NA,NA,"",       4.30713,      -3.64108,      -2.30085,   7.92327E-09
C:/temp/dataset/3/19_7.odb,Step-1,Increment      1: Step Time =    1.000,"PART-1-1",           286,      -11.2523,       27.5017,            0.,NA,NA,"",       4.15180,      -3.53233,      -2.18176,   7.96786E-09
C:/temp/dataset/3/19_7.odb,Step-1,Increment      1: Step Time =    1.000,"PART-1-1",           287,      -10.0014,       28.7507,            0.,NA,NA,"",       4.19881,      -3.65147,      -2.07287,   7.77060E-09
C:/temp/dataset/3/19_7.odb,Step-1,Increment      1: Step Time =    1.000,"PART-1-1",           288,      -8.75282,       27.5029,            0.,NA,NA,"",       4.04588,      -3.54286,      -1.95379,   8.23043E-09
C:/temp/dataset/3/19_7.odb,Step-1,Increment      1: Step Time =    1.000,"PART-1-1",           289,      -10.0027,       26.2541,            0.,NA,NA,"",       3.99704,      -3.42375,      -2.06258,   8.12149E-09
C:/temp/dataset/3/19_7.odb,Step-1,Increment      1: Step Time =    1.000,"PART-1-1",           290,      -8.75320,       25.0087,            0.,NA,NA,"",       3.84299,      -3.31537,      -1.94342,   8.60006E-09
C:/temp/dataset/3/19_7.odb,Step-1,Increment      1: Step Time =    1.000,"PART-1-1",           291,      -7.50334,       26.2575,            0.,NA,NA,"",       3.89378,      -3.43448,      -1.83463,   8.63722E-09
C:/temp/dataset/3/19_7.odb,Step-1,Increment      1: Step Time =    1.000,"PART-1-1",           292,  -10.1921E-03,       23.8015,            0.,NA,NA,"",       3.43663,      -3.24170,      -1.14095,   94.7838E-09
C:/temp/dataset/3/19_7.odb,Step-1,Increment      1: Step Time =    1.000,"PART-1-1",           293,       1.23656,       22.5490,            0.,NA,NA,"",       3.29517,      -3.13267,      -1.02201,   230.338E-09
C:/temp/dataset/3/19_7.odb,Step-1,Increment      1: Step Time =    1.000,"PART-1-1",           294,       2.47060,       23.8222,            0.,NA,NA,"",       3.38007,      -3.25393,  -914.765E-03,   211.164E-09
C:/temp/dataset/3/19_7.odb,Step-1,Increment      1: Step Time =    1.000,"PART-1-1",           295,       1.22385,       25.0746,            0.,NA,NA,"",       3.51825,      -3.36297,      -1.03370,   160.095E-09
C:/temp/dataset/3/19_7.odb,Step-1,Increment      1: Step Time =    1.000,"PART-1-1",           296,       13.7132,       25.0166,            0.,NA,NA,"",       3.41138,      -3.40974,   105.675E-03,   328.678E-09
C:/temp/dataset/3/19_7.odb,Step-1,Increment      1: Step Time =    1.000,"PART-1-1",           297,           15.,         26.25,            0.,NA,NA,"",       3.53432,      -3.52760,   217.902E-03,   380.646E-09
C:/temp/dataset/3/19_7.odb,Step-1,Increment      1: Step Time =    1.000,"PART-1-1",           298,       13.7362,       27.5048,            0.,NA,NA,"",       3.63808,      -3.63678,   97.4000E-03,   234.842E-09
C:/temp/dataset/3/19_7.odb,Step-1,Increment      1: Step Time =    1.000,"PART-1-1",           299,       12.4494,       26.2714,            0.,NA,NA,"",       3.51895,      -3.51892,  -14.8261E-03,   266.171E-09
C:/temp/dataset/3/19_7.odb,Step-1,Increment      1: Step Time =    1.000,"PART-1-1",           300,       6.19248,       27.5744,            0.,NA,NA,"",       3.65971,      -3.61169,  -590.935E-03,   169.745E-09
C:/temp/dataset/3/19_7.odb,Step-1,Increment      1: Step Time =    1.000,"PART-1-1",           301,       7.46746,       28.7842,            0.,NA,NA,"",       3.75808,      -3.72734,  -479.689E-03,   295.617E-09
C:/temp/dataset/3/19_7.odb,Step-1,Increment      1: Step Time =    1.000,"PART-1-1",           302,          6.25,           30.,            0.,NA,NA,"",       3.87918,      -3.83316,  -595.800E-03,   417.937E-09
C:/temp/dataset/3/19_7.odb,Step-1,Increment      1: Step Time =    1.000,"PART-1-1",           303,       4.97503,       28.7903,            0.,NA,NA,"",       3.78415,      -3.71750,  -707.046E-03,   229.963E-09
C:/temp/dataset/3/19_7.odb,Step-1,Increment      1: Step Time =    1.000,"PART-1-1",           304,       11.0878,       17.5306,            0.,NA,NA,"",       2.71797,      -2.71603,  -102.603E-03,   18.9217E-06
C:/temp/dataset/3/19_7.odb,Step-1,Increment      1: Step Time =    1.000,"PART-1-1",           305,       12.3722,       18.7756,            0.,NA,NA,"",       2.83495,      -2.83494,   9.37204E-03,   13.0126E-06
C:/temp/dataset/3/19_7.odb,Step-1,Increment      1: Step Time =    1.000,"PART-1-1",           306,       11.1059,       20.0490,            0.,NA,NA,"",       2.94790,      -2.94579,  -111.433E-03,   5.76216E-06
C:/temp/dataset/3/19_7.odb,Step-1,Increment      1: Step Time =    1.000,"PART-1-1",           307,       9.82152,       18.8041,            0.,NA,NA,"",       2.83569,      -2.82688,  -223.395E-03,   14.3523E-06
C:/temp/dataset/3/19_7.odb,Step-1,Increment      1: Step Time =    1.000,"PART-1-1",           308,       9.63171,       13.8797,            0.,NA,NA,"",       2.38711,      -2.37693,  -220.308E-03,   63.0708E-06
C:/temp/dataset/3/19_7.odb,Step-1,Increment      1: Step Time =    1.000,"PART-1-1",           309,       8.52517,       15.0687,            0.,NA,NA,"",       2.50208,      -2.48074,  -326.109E-03,   42.6818E-06
C:/temp/dataset/3/19_7.odb,Step-1,Increment      1: Step Time =    1.000,"PART-1-1",           310,       7.25683,       13.8735,            0.,NA,NA,"",       2.40638,      -2.36641,  -436.752E-03,   58.2218E-06
C:/temp/dataset/3/19_7.odb,Step-1,Increment      1: Step Time =    1.000,"PART-1-1",           311,       8.36336,       12.6844,            0.,NA,NA,"",       2.28669,      -2.26261,  -331.025E-03,   59.0962E-06
C:/temp/dataset/3/19_7.odb,Step-1,Increment      1: Step Time =    1.000,"PART-1-1",           312,       14.0118,       9.82001,            0.,NA,NA,"",       2.03401,      -2.02448,   196.622E-03,   102.307E-06
C:/temp/dataset/3/19_7.odb,Step-1,Increment      1: Step Time =    1.000,"PART-1-1",           313,           15.,         11.25,            0.,NA,NA,"",       2.17753,      -2.15934,   280.862E-03,   156.582E-06
C:/temp/dataset/3/19_7.odb,Step-1,Increment      1: Step Time =    1.000,"PART-1-1",           314,       13.5880,       12.3315,            0.,NA,NA,"",       2.25706,      -2.25225,   147.233E-03,   63.5418E-06
C:/temp/dataset/3/19_7.odb,Step-1,Increment      1: Step Time =    1.000,"PART-1-1",           315,       12.5998,       10.9015,            0.,NA,NA,"",       2.11847,      -2.11754,   62.9398E-03,   41.6696E-06
C:/temp/dataset/3/19_7.odb,Step-1,Increment      1: Step Time =    1.000,"PART-1-1",           316,       4.40482,  -219.892E-03,            0.,NA,NA,"",       1.24401,      -1.07663,  -623.244E-03,   9.83196E-03
C:/temp/dataset/3/19_7.odb,Step-1,Increment      1: Step Time =    1.000,"PART-1-1",           317,       3.45177,  -757.122E-03,            0.,NA,NA,"",       1.25066,      -1.02603,  -715.136E-03,   9.77292E-03
C:/temp/dataset/3/19_7.odb,Step-1,Increment      1: Step Time =    1.000,"PART-1-1",           318,       3.83014,      -1.74448,            0.,NA,NA,"",       1.14835,  -935.898E-03,  -665.435E-03,   11.5527E-03
C:/temp/dataset/3/19_7.odb,Step-1,Increment      1: Step Time =    1.000,"PART-1-1",           319,       4.78319,      -1.20725,            0.,NA,NA,"",       1.14086,  -986.615E-03,  -572.849E-03,   10.8716E-03
C:/temp/dataset/3/19_7.odb,Step-1,Increment      1: Step Time =    1.000,"PART-1-1",           320,       10.3408,      -10.0251,            0.,NA,NA,"",   333.968E-03,  -330.975E-03,  -44.6087E-03,   2.62195E-03
C:/temp/dataset/3/19_7.odb,Step-1,Increment      1: Step Time =    1.000,"PART-1-1",           321,       11.1792,      -10.4860,            0.,NA,NA,"",   307.777E-03,  -307.773E-03,   1.44800E-03,   1.15430E-03
C:/temp/dataset/3/19_7.odb,Step-1,Increment      1: Step Time =    1.000,"PART-1-1",           322,       11.5032,      -9.33080,            0.,NA,NA,"",   372.785E-03,  -372.276E-03,   19.4651E-03,   2.82113E-03
C:/temp/dataset/3/19_7.odb,Step-1,Increment      1: Step Time =    1.000,"PART-1-1",           323,       10.6649,      -8.86986,            0.,NA,NA,"",   398.027E-03,  -396.912E-03,  -29.7827E-03,   1.25458E-03
C:/temp/dataset/3/19_7.odb,Step-1,Increment      1: Step Time =    1.000,"PART-1-1",           324,       9.41034,      -12.1888,            0.,NA,NA,"",   238.518E-03,  -224.886E-03,  -79.4809E-03,   7.06905E-03
C:/temp/dataset/3/19_7.odb,Step-1,Increment      1: Step Time =    1.000,"PART-1-1",           325,       10.5075,      -13.0214,            0.,NA,NA,"",   190.051E-03,  -188.193E-03,  -26.5131E-03,   2.30392E-03
C:/temp/dataset/3/19_7.odb,Step-1,Increment      1: Step Time =    1.000,"PART-1-1",           326,       10.8652,      -11.6896,            0.,NA,NA,"",   247.718E-03,  -247.367E-03,  -13.1749E-03,   885.718E-06
C:/temp/dataset/3/19_7.odb,Step-1,Increment      1: Step Time =    1.000,"PART-1-1",           327,       9.76802,      -10.8570,            0.,NA,NA,"",   296.195E-03,  -287.571E-03,  -70.9517E-03,   5.38261E-03
C:/temp/dataset/3/19_7.odb,Step-1,Increment      1: Step Time =    1.000,"PART-1-1",           328,       6.12016,      -19.7528,            0.,NA,NA,"",   84.3943E-03,  -5.82026E-03,  -84.1934E-03,   18.8700E-03
C:/temp/dataset/3/19_7.odb,Step-1,Increment      1: Step Time =    1.000,"PART-1-1",           329,       7.15653,      -18.4145,            0.,NA,NA,"",   91.4818E-03,  -28.3017E-03,  -86.9939E-03,   13.0973E-03
C:/temp/dataset/3/19_7.odb,Step-1,Increment      1: Step Time =    1.000,"PART-1-1",           330,       6.03637,      -17.4116,            0.,NA,NA,"",   141.373E-03,  -60.4574E-03,  -127.793E-03,   21.9074E-03
C:/temp/dataset/3/19_7.odb,Step-1,Increment      1: Step Time =    1.000,"PART-1-1",           331,            5.,        -18.75,            0.,NA,NA,"",   125.194E-03,  -38.8145E-03,  -119.025E-03,   31.6727E-03
C:/temp/dataset/3/19_7.odb,Step-1,Increment      1: Step Time =    1.000,"PART-1-1",           332,       13.3604,      -22.4969,            0.,NA,NA,"",   25.0929E-03,   13.9334E-03,   20.8689E-03,   6.86772E-03
C:/temp/dataset/3/19_7.odb,Step-1,Increment      1: Step Time =    1.000,"PART-1-1",           333,           15.,        -21.25,            0.,NA,NA,"",   46.7196E-03,  -1.46593E-03,   46.6966E-03,   12.3750E-03
C:/temp/dataset/3/19_7.odb,Step-1,Increment      1: Step Time =    1.000,"PART-1-1",           334,       13.4842,      -19.7901,            0.,NA,NA,"",   41.8218E-03,  -10.4858E-03,   40.4859E-03,   9.19986E-03
C:/temp/dataset/3/19_7.odb,Step-1,Increment      1: Step Time =    1.000,"PART-1-1",           335,       11.8446,      -21.0370,            0.,NA,NA,"",   10.9898E-03,   7.95700E-03,   7.58031E-03,   5.49189E-03
C:/temp/dataset/3/19_7.odb,Step-1,Increment      1: Step Time =    1.000,"PART-1-1",           336,       1.65000,            5.,            0.,NA,NA,"",       1.84087,      -1.56891,  -962.974E-03,   7.81209E-03
C:/temp/dataset/3/19_7.odb,Step-1,Increment      1: Step Time =    1.000,"PART-1-1",           337,   440.654E-03,       4.00571,            0.,NA,NA,"",       1.81942,      -1.46926,      -1.07311,   7.50020E-03
C:/temp/dataset/3/19_7.odb,Step-1,Increment      1: Step Time =    1.000,"PART-1-1",           338,       1.47063,       2.87974,            0.,NA,NA,"",       1.66480,      -1.36249,  -956.659E-03,   8.37815E-03
C:/temp/dataset/3/19_7.odb,Step-1,Increment      1: Step Time =    1.000,"PART-1-1",           339,       2.67998,       3.87403,            0.,NA,NA,"",       1.68420,      -1.45771,  -843.583E-03,   9.25130E-03
C:/temp/dataset/3/19_7.odb,Step-1,Increment      1: Step Time =    1.000,"PART-1-1",           340,      -1.46180,      -3.99231,            0.,NA,NA,"",       1.38609,  -686.990E-03,      -1.20386,   513.288E-06
C:/temp/dataset/3/19_7.odb,Step-1,Increment      1: Step Time =    1.000,"PART-1-1",           341,     -500.E-03,           -5.,            0.,NA,NA,"",       1.24946,  -590.079E-03,      -1.10134,   1.04022E-03
C:/temp/dataset/3/19_7.odb,Step-1,Increment      1: Step Time =    1.000,"PART-1-1",           342,   718.491E-03,      -4.10961,            0.,NA,NA,"",       1.19771,  -686.349E-03,  -981.544E-03,   1.39707E-03
C:/temp/dataset/3/19_7.odb,Step-1,Increment      1: Step Time =    1.000,"PART-1-1",           343,  -243.313E-03,      -3.10192,            0.,NA,NA,"",       1.33779,  -782.329E-03,      -1.08520,   1.83175E-03
C:/temp/dataset/3/19_7.odb,Step-1,Increment      1: Step Time =    1.000,"PART-1-1",           344,      -3.82017,      -3.74247,            0.,NA,NA,"",       1.60117,  -700.767E-03,      -1.43967,   429.238E-06
C:/temp/dataset/3/19_7.odb,Step-1,Increment      1: Step Time =    1.000,"PART-1-1",           345,      -2.71667,           -5.,            0.,NA,NA,"",       1.44577,  -580.955E-03,      -1.32391,   967.518E-06
C:/temp/dataset/3/19_7.odb,Step-1,Increment      1: Step Time =    1.000,"PART-1-1",           346,      -2.56530,      -2.73478,            0.,NA,NA,"",       1.54737,  -806.464E-03,      -1.32059,   387.693E-06
C:/temp/dataset/3/19_7.odb,Step-1,Increment      1: Step Time =    1.000,"PART-1-1",           347,      -13.8092,  -21.6491E-03,            0.,NA,NA,"",       2.63863,      -1.01763,      -2.43450,   29.7037E-06
C:/temp/dataset/3/19_7.odb,Step-1,Increment      1: Step Time =    1.000,"PART-1-1",           348,      -12.6581,       1.21263,            0.,NA,NA,"",       2.59369,      -1.14379,      -2.32787,   35.3962E-06
C:/temp/dataset/3/19_7.odb,Step-1,Increment      1: Step Time =    1.000,"PART-1-1",           349,      -13.8489,       2.48428,            0.,NA,NA,"",       2.75639,      -1.26235,      -2.45033,   21.3695E-06
C:/temp/dataset/3/19_7.odb,Step-1,Increment      1: Step Time =    1.000,"PART-1-1",           350,          -15.,          1.25,            0.,NA,NA,"",       2.79803,      -1.13620,      -2.55695,   14.5234E-06
C:/temp/dataset/3/19_7.odb,Step-1,Increment      1: Step Time =    1.000,"PART-1-1",           351,      -8.84172,   345.754E-03,            0.,NA,NA,"",       2.22860,      -1.07764,      -1.95073,   209.613E-06
C:/temp/dataset/3/19_7.odb,Step-1,Increment      1: Step Time =    1.000,"PART-1-1",           352,      -9.20019,  -788.270E-03,            0.,NA,NA,"",       2.20306,  -964.990E-03,      -1.98048,   173.581E-06
C:/temp/dataset/3/19_7.odb,Step-1,Increment      1: Step Time =    1.000,"PART-1-1",           353,      -7.61937,      -1.21646,            0.,NA,NA,"",       2.04785,  -930.864E-03,      -1.82405,   260.909E-06
C:/temp/dataset/3/19_7.odb,Step-1,Increment      1: Step Time =    1.000,"PART-1-1",           354,      -7.26090,  -82.4387E-03,            0.,NA,NA,"",       2.07574,      -1.04366,      -1.79429,   285.686E-06
C:/temp/dataset/3/19_7.odb,Step-1,Increment      1: Step Time =    1.000,"PART-1-1",           355,      -12.7466,      -3.77621,            0.,NA,NA,"",       2.40390,  -655.704E-03,      -2.31274,   18.3301E-06
C:/temp/dataset/3/19_7.odb,Step-1,Increment      1: Step Time =    1.000,"PART-1-1",           356,      -13.8633,      -2.52621,            0.,NA,NA,"",       2.54779,  -772.545E-03,      -2.42784,   20.6686E-06
C:/temp/dataset/3/19_7.odb,Step-1,Increment      1: Step Time =    1.000,"PART-1-1",           357,          -15.,         -3.75,            0.,NA,NA,"",       2.61452,  -647.484E-03,      -2.53308,   2.83329E-06
C:/temp/dataset/3/19_7.odb,Step-1,Increment      1: Step Time =    1.000,"PART-1-1",           358,      -13.8833,           -5.,            0.,NA,NA,"",       2.47551,  -530.664E-03,      -2.41796,   3.31773E-06
C:/temp/dataset/3/19_7.odb,Step-1,Increment      1: Step Time =    1.000,"PART-1-1",           359,      -5.03830,      -2.71522,            0.,NA,NA,"",       1.75553,  -796.370E-03,      -1.56451,   278.910E-06
C:/temp/dataset/3/19_7.odb,Step-1,Increment      1: Step Time =    1.000,"PART-1-1",           360,      -4.43911,      -1.50749,            0.,NA,NA,"",       1.76859,  -918.167E-03,      -1.51158,   262.541E-06
C:/temp/dataset/3/19_7.odb,Step-1,Increment      1: Step Time =    1.000,"PART-1-1",           361,      -5.95808,  -763.119E-03,            0.,NA,NA,"",       1.93283,  -983.602E-03,      -1.66384,   331.834E-06
C:/temp/dataset/3/19_7.odb,Step-1,Increment      1: Step Time =    1.000,"PART-1-1",           362,      -6.55726,      -1.97085,            0.,NA,NA,"",       1.92106,  -862.142E-03,      -1.71673,   287.371E-06
C:/temp/dataset/3/19_7.odb,Step-1,Increment      1: Step Time =    1.000,"PART-1-1",           363,          6.25,          -30.,            0.,NA,NA,"",            0.,   1.37812E-39,  -7.24980E-39,   4.06301E-03
C:/temp/dataset/3/19_7.odb,Step-1,Increment      1: Step Time =    1.000,"PART-1-1",           364,       7.47038,      -28.9473,            0.,NA,NA,"",   5.04468E-03,   3.80042E-03,  -3.31747E-03,   4.90075E-03
C:/temp/dataset/3/19_7.odb,Step-1,Increment      1: Step Time =    1.000,"PART-1-1",           365,       6.18647,      -27.8786,            0.,NA,NA,"",   9.35907E-03,   3.52344E-03,  -8.67051E-03,   5.59402E-03
C:/temp/dataset/3/19_7.odb,Step-1,Increment      1: Step Time =    1.000,"PART-1-1",           366,       4.96608,      -28.9312,            0.,NA,NA,"",   3.80846E-03,   292.651E-06,  -3.79720E-03,   4.74080E-03
C:/temp/dataset/3/19_7.odb,Step-1,Increment      1: Step Time =    1.000,"PART-1-1",           367,       3.70492,      -27.8047,            0.,NA,NA,"",   8.24420E-03,  -2.12528E-03,  -7.96555E-03,   4.88473E-03
C:/temp/dataset/3/19_7.odb,Step-1,Increment      1: Step Time =    1.000,"PART-1-1",           368,       2.48883,      -28.8735,            0.,NA,NA,"",   3.88516E-03,  -2.36255E-03,  -3.08429E-03,   3.87104E-03
C:/temp/dataset/3/19_7.odb,Step-1,Increment      1: Step Time =    1.000,"PART-1-1",           369,          3.75,          -30.,            0.,NA,NA,"",            0.,  -836.578E-42,  -6.96491E-39,   3.70964E-03
C:/temp/dataset/3/19_7.odb,Step-1,Increment      1: Step Time =    1.000,"PART-1-1",           370,      -3.72203,      -27.5999,            0.,NA,NA,"",   4.49559E-03,  -4.42742E-03,  -779.931E-06,   1.33299E-03
C:/temp/dataset/3/19_7.odb,Step-1,Increment      1: Step Time =    1.000,"PART-1-1",           371,      -4.98725,      -28.7922,            0.,NA,NA,"",   2.21986E-03,  -2.20035E-03,  -293.681E-06,   1.19044E-03
C:/temp/dataset/3/19_7.odb,Step-1,Increment      1: Step Time =    1.000,"PART-1-1",           372,         -3.75,          -30.,            0.,NA,NA,"",            0.,  -1.52659E-39,  -1.40844E-39,   1.73830E-03
C:/temp/dataset/3/19_7.odb,Step-1,Increment      1: Step Time =    1.000,"PART-1-1",           373,      -2.48478,      -28.8077,            0.,NA,NA,"",   3.06696E-03,  -2.94778E-03,  -846.676E-06,   1.83795E-03
C:/temp/dataset/3/19_7.odb,Step-1,Increment      1: Step Time =    1.000,"PART-1-1",           374,      -13.7501,      -27.5099,            0.,NA,NA,"",   1.64585E-03,  -1.61619E-03,  -311.082E-06,   224.388E-06
C:/temp/dataset/3/19_7.odb,Step-1,Increment      1: Step Time =    1.000,"PART-1-1",           375,          -15.,        -28.75,            0.,NA,NA,"",   1.04080E-03,  -883.907E-06,  -549.522E-06,   408.389E-06
C:/temp/dataset/3/19_7.odb,Step-1,Increment      1: Step Time =    1.000,"PART-1-1",           376,        -13.75,          -30.,            0.,NA,NA,"",            0.,  -164.178E-42,  -407.664E-42,   503.664E-06
C:/temp/dataset/3/19_7.odb,Step-1,Increment      1: Step Time =    1.000,"PART-1-1",           377,      -12.5001,      -28.7599,            0.,NA,NA,"",   810.800E-06,  -807.958E-06,  -67.8186E-06,   406.978E-06
C:/temp/dataset/3/19_7.odb,Step-1,Increment      1: Step Time =    1.000,"PART-1-1",           378,       8.15833,      -10.8587,            0.,NA,NA,"",   329.466E-03,  -291.343E-03,  -153.840E-03,   12.7449E-03
C:/temp/dataset/3/19_7.odb,Step-1,Increment      1: Step Time =    1.000,"PART-1-1",           379,       9.00498,      -9.90697,            0.,NA,NA,"",   358.290E-03,  -337.969E-03,  -118.947E-03,   8.78887E-03
C:/temp/dataset/3/19_7.odb,Step-1,Increment      1: Step Time =    1.000,"PART-1-1",           380,       8.08915,      -8.55627,            0.,NA,NA,"",   455.934E-03,  -415.751E-03,  -187.154E-03,   13.1680E-03
C:/temp/dataset/3/19_7.odb,Step-1,Increment      1: Step Time =    1.000,"PART-1-1",           381,       7.24249,      -9.50802,            0.,NA,NA,"",   428.306E-03,  -365.654E-03,  -223.031E-03,   16.7957E-03
C:/temp/dataset/3/19_7.odb,Step-1,Increment      1: Step Time =    1.000,"PART-1-1",           382,       13.9816,      -2.51124,            0.,NA,NA,"",   914.407E-03,  -888.548E-03,   215.923E-03,   9.21706E-03
C:/temp/dataset/3/19_7.odb,Step-1,Increment      1: Step Time =    1.000,"PART-1-1",           383,           15.,         -1.25,            0.,NA,NA,"",       1.05372,      -1.00770,   307.995E-03,   9.58930E-03
C:/temp/dataset/3/19_7.odb,Step-1,Increment      1: Step Time =    1.000,"PART-1-1",           384,       13.8213,  -48.4001E-03,            0.,NA,NA,"",       1.12765,      -1.10829,   208.039E-03,   5.90708E-03
C:/temp/dataset/3/19_7.odb,Step-1,Increment      1: Step Time =    1.000,"PART-1-1",           385,       12.8030,      -1.30964,            0.,NA,NA,"",   995.065E-03,  -987.580E-03,   121.819E-03,   6.76868E-03
C:/temp/dataset/3/19_7.odb,Step-1,Increment      1: Step Time =    1.000,"PART-1-1",           386,           15.,          1.25,            0.,NA,NA,"",       1.27489,      -1.23564,   313.919E-03,   5.38339E-03
C:/temp/dataset/3/19_7.odb,Step-1,Increment      1: Step Time =    1.000,"PART-1-1",           387,       13.5709,       2.55070,            0.,NA,NA,"",       1.36107,      -1.34866,   183.363E-03,   3.16466E-03
C:/temp/dataset/3/19_7.odb,Step-1,Increment      1: Step Time =    1.000,"PART-1-1",           388,       12.3922,       1.25230,            0.,NA,NA,"",       1.22459,      -1.22177,   83.0593E-03,   5.17189E-03
C:/temp/dataset/3/19_7.odb,Step-1,Increment      1: Step Time =    1.000,"PART-1-1",           389,      -5.00532,       26.2655,            0.,NA,NA,"",       3.80187,      -3.44562,      -1.60682,   11.3214E-09
C:/temp/dataset/3/19_7.odb,Step-1,Increment      1: Step Time =    1.000,"PART-1-1",           390,      -3.75495,       25.0275,            0.,NA,NA,"",       3.65441,      -3.33792,      -1.48762,   22.1681E-09
C:/temp/dataset/3/19_7.odb,Step-1,Increment      1: Step Time =    1.000,"PART-1-1",           391,      -2.50780,       26.2820,            0.,NA,NA,"",       3.72242,      -3.45754,      -1.37909,   27.3240E-09
C:/temp/dataset/3/19_7.odb,Step-1,Increment      1: Step Time =    1.000,"PART-1-1",           392,      -3.75817,       27.5199,            0.,NA,NA,"",       3.86727,      -3.56524,      -1.49830,   17.9865E-09
C:/temp/dataset/3/19_7.odb,Step-1,Increment      1: Step Time =    1.000,"PART-1-1",           393,      -5.00193,       23.7670,            0.,NA,NA,"",       3.59186,      -3.21775,      -1.59610,   11.1402E-09
C:/temp/dataset/3/19_7.odb,Step-1,Increment      1: Step Time =    1.000,"PART-1-1",           394,      -6.25406,       25.0149,            0.,NA,NA,"",       3.74267,      -3.32635,      -1.71550,   10.0198E-09
C:/temp/dataset/3/19_7.odb,Step-1,Increment      1: Step Time =    1.000,"PART-1-1",           395,      -7.50285,       23.7600,            0.,NA,NA,"",       3.68924,      -3.20669,      -1.82418,   8.64486E-09
C:/temp/dataset/3/19_7.odb,Step-1,Increment      1: Step Time =    1.000,"PART-1-1",           396,      -6.25071,       22.5121,            0.,NA,NA,"",       3.53615,      -3.09809,      -1.70477,   9.41536E-09
C:/temp/dataset/3/19_7.odb,Step-1,Increment      1: Step Time =    1.000,"PART-1-1",           397,      -12.5007,       23.7543,            0.,NA,NA,"",       3.91724,      -3.18534,      -2.28000,   7.93066E-09
C:/temp/dataset/3/19_7.odb,Step-1,Increment      1: Step Time =    1.000,"PART-1-1",           398,      -13.7507,       25.0026,            0.,NA,NA,"",       4.07511,      -3.29398,      -2.39921,   7.85537E-09
C:/temp/dataset/3/19_7.odb,Step-1,Increment      1: Step Time =    1.000,"PART-1-1",           399,          -15.,         23.75,            0.,NA,NA,"",       4.04566,      -3.17453,      -2.50794,   7.81911E-09
C:/temp/dataset/3/19_7.odb,Step-1,Increment      1: Step Time =    1.000,"PART-1-1",           400,       1.22659,       27.5580,            0.,NA,NA,"",       3.73817,      -3.58948,      -1.04380,   124.950E-09
C:/temp/dataset/3/19_7.odb,Step-1,Increment      1: Step Time =    1.000,"PART-1-1",           401,       2.48534,       28.7828,            0.,NA,NA,"",       3.82234,      -3.70645,  -934.097E-03,   134.042E-09
C:/temp/dataset/3/19_7.odb,Step-1,Increment      1: Step Time =    1.000,"PART-1-1",           402,          1.25,           30.,            0.,NA,NA,"",       3.95476,      -3.81232,      -1.05184,   109.473E-09
C:/temp/dataset/3/19_7.odb,Step-1,Increment      1: Step Time =    1.000,"PART-1-1",           403,  -8.74824E-03,       28.7751,            0.,NA,NA,"",       3.87361,      -3.69535,      -1.16155,   52.9396E-09
C:/temp/dataset/3/19_7.odb,Step-1,Increment      1: Step Time =    1.000,"PART-1-1",           404,  -16.7069E-03,       26.3073,            0.,NA,NA,"",       3.65644,      -3.47023,      -1.15199,   77.8548E-09
C:/temp/dataset/3/19_7.odb,Step-1,Increment      1: Step Time =    1.000,"PART-1-1",           405,       2.46714,       26.3253,            0.,NA,NA,"",       3.60312,      -3.48223,  -925.513E-03,   178.812E-09
C:/temp/dataset/3/19_7.odb,Step-1,Increment      1: Step Time =    1.000,"PART-1-1",           406,       3.70751,       22.5746,            0.,NA,NA,"",       3.24464,      -3.14530,  -796.747E-03,   466.034E-09
C:/temp/dataset/3/19_7.odb,Step-1,Increment      1: Step Time =    1.000,"PART-1-1",           407,       2.48879,       21.2797,            0.,NA,NA,"",       3.15399,      -3.02211,  -902.508E-03,   277.226E-09
C:/temp/dataset/3/19_7.odb,Step-1,Increment      1: Step Time =    1.000,"PART-1-1",           408,          3.75,           20.,            0.,NA,NA,"",       3.01390,      -2.91065,  -782.140E-03,   929.286E-09
C:/temp/dataset/3/19_7.odb,Step-1,Increment      1: Step Time =    1.000,"PART-1-1",           409,       4.96872,       21.2949,            0.,NA,NA,"",       3.10832,      -3.03384,  -676.379E-03,   770.101E-09
C:/temp/dataset/3/19_7.odb,Step-1,Increment      1: Step Time =    1.000,"PART-1-1",           410,       10.8479,       12.4309,            0.,NA,NA,"",       2.25226,      -2.24988,  -103.401E-03,   61.8859E-06
C:/temp/dataset/3/19_7.odb,Step-1,Increment      1: Step Time =    1.000,"PART-1-1",           411,       9.34812,       11.6387,            0.,NA,NA,"",       2.18426,      -2.17137,  -236.966E-03,   75.0138E-06
C:/temp/dataset/3/19_7.odb,Step-1,Increment      1: Step Time =    1.000,"PART-1-1",           412,       9.99050,       10.5520,            0.,NA,NA,"",       2.08221,      -2.07493,  -173.858E-03,   113.566E-06
C:/temp/dataset/3/19_7.odb,Step-1,Increment      1: Step Time =    1.000,"PART-1-1",           413,       11.4903,       11.3442,            0.,NA,NA,"",       2.15375,      -2.15338,  -40.2537E-03,   68.0067E-06
C:/temp/dataset/3/19_7.odb,Step-1,Increment      1: Step Time =    1.000,"PART-1-1",           414,       7.16850,       11.5014,            0.,NA,NA,"",       2.19339,      -2.14983,  -434.981E-03,   122.613E-06
C:/temp/dataset/3/19_7.odb,Step-1,Increment      1: Step Time =    1.000,"PART-1-1",           415,       6.10343,       12.5850,            0.,NA,NA,"",       2.30739,      -2.24417,  -536.460E-03,   71.8364E-06
C:/temp/dataset/3/19_7.odb,Step-1,Increment      1: Step Time =    1.000,"PART-1-1",           416,            5.,         11.25,            0.,NA,NA,"",       2.21012,      -2.11804,  -631.277E-03,   256.233E-06
C:/temp/dataset/3/19_7.odb,Step-1,Increment      1: Step Time =    1.000,"PART-1-1",           417,       6.06507,       10.1664,            0.,NA,NA,"",       2.09191,      -2.02376,  -529.626E-03,   209.598E-06
C:/temp/dataset/3/19_7.odb,Step-1,Increment      1: Step Time =    1.000,"PART-1-1",           418,       14.0565,       5.06378,            0.,NA,NA,"",       1.60107,      -1.58589,   220.004E-03,   1.18089E-03
C:/temp/dataset/3/19_7.odb,Step-1,Increment      1: Step Time =    1.000,"PART-1-1",           419,       12.6274,       3.86448,            0.,NA,NA,"",       1.47071,      -1.46765,   94.8266E-03,   2.99549E-03
C:/temp/dataset/3/19_7.odb,Step-1,Increment      1: Step Time =    1.000,"PART-1-1",           420,           15.,          3.75,            0.,NA,NA,"",       1.50060,      -1.46803,   310.969E-03,   2.20645E-03
C:/temp/dataset/3/19_7.odb,Step-1,Increment      1: Step Time =    1.000,"PART-1-1",           421,       10.0280,       5.47301,            0.,NA,NA,"",       1.61631,      -1.60967,  -146.277E-03,   2.63852E-03
C:/temp/dataset/3/19_7.odb,Step-1,Increment      1: Step Time =    1.000,"PART-1-1",           422,       11.0614,       5.01383,            0.,NA,NA,"",       1.57061,      -1.56980,  -50.6709E-03,   2.58772E-03
C:/temp/dataset/3/19_7.odb,Step-1,Increment      1: Step Time =    1.000,"PART-1-1",           423,       11.6033,       6.33570,            0.,NA,NA,"",       1.69429,      -1.69427,  -8.12218E-03,   1.55985E-03
C:/temp/dataset/3/19_7.odb,Step-1,Increment      1: Step Time =    1.000,"PART-1-1",           424,       10.5698,       6.79489,            0.,NA,NA,"",       1.73646,      -1.73334,  -104.138E-03,   1.44414E-03
C:/temp/dataset/3/19_7.odb,Step-1,Increment      1: Step Time =    1.000,"PART-1-1",           425,      -4.94418,       3.17107,            0.,NA,NA,"",       2.09500,      -1.37202,      -1.58322,   453.391E-06
C:/temp/dataset/3/19_7.odb,Step-1,Increment      1: Step Time =    1.000,"PART-1-1",           426,      -3.90803,       4.11594,            0.,NA,NA,"",       2.08949,      -1.46761,      -1.48732,   917.616E-06
C:/temp/dataset/3/19_7.odb,Step-1,Increment      1: Step Time =    1.000,"PART-1-1",           427,      -5.05000,            5.,            0.,NA,NA,"",       2.22849,      -1.54859,      -1.60251,   944.121E-06
C:/temp/dataset/3/19_7.odb,Step-1,Increment      1: Step Time =    1.000,"PART-1-1",           428,      -6.08615,       4.05513,            0.,NA,NA,"",       2.23505,      -1.45244,      -1.69879,   411.064E-06
C:/temp/dataset/3/19_7.odb,Step-1,Increment      1: Step Time =    1.000,"PART-1-1",           429,      -3.86135,       2.39128,            0.,NA,NA,"",       1.96689,      -1.30180,      -1.47444,   360.560E-06
C:/temp/dataset/3/19_7.odb,Step-1,Increment      1: Step Time =    1.000,"PART-1-1",           430,      -5.85027,       2.20434,            0.,NA,NA,"",       2.09798,      -1.27382,      -1.66700,   348.232E-06
C:/temp/dataset/3/19_7.odb,Step-1,Increment      1: Step Time =    1.000,"PART-1-1",           431,      -4.76744,       1.42454,            0.,NA,NA,"",       1.96851,      -1.20340,      -1.55783,   343.918E-06
C:/temp/dataset/3/19_7.odb,Step-1,Increment      1: Step Time =    1.000,"PART-1-1",           432,      -9.29397,       2.69508,            0.,NA,NA,"",       2.39297,      -1.30483,      -2.00593,   180.390E-06
C:/temp/dataset/3/19_7.odb,Step-1,Increment      1: Step Time =    1.000,"PART-1-1",           433,      -8.28887,       3.92576,            0.,NA,NA,"",       2.38859,      -1.42968,      -1.91347,   175.044E-06
C:/temp/dataset/3/19_7.odb,Step-1,Increment      1: Step Time =    1.000,"PART-1-1",           434,          -9.5,            5.,            0.,NA,NA,"",       2.54709,      -1.52896,      -2.03713,   139.610E-06
C:/temp/dataset/3/19_7.odb,Step-1,Increment      1: Step Time =    1.000,"PART-1-1",           435,      -10.5051,       3.76932,            0.,NA,NA,"",       2.55066,      -1.40393,      -2.12952,   64.6516E-06
C:/temp/dataset/3/19_7.odb,Step-1,Increment      1: Step Time =    1.000,"PART-1-1",           436,      -7.92731,       1.84143,            0.,NA,NA,"",       2.23583,      -1.22820,      -1.86827,   231.181E-06
C:/temp/dataset/3/19_7.odb,Step-1,Increment      1: Step Time =    1.000,"PART-1-1",           437,      -6.68589,       1.06488,            0.,NA,NA,"",       2.09329,      -1.15865,      -1.74338,   340.644E-06
C:/temp/dataset/3/19_7.odb,Step-1,Increment      1: Step Time =    1.000,"PART-1-1",           438,      -7.09169,       2.98089,            0.,NA,NA,"",       2.23949,      -1.34329,      -1.79189,   317.640E-06
C:/temp/dataset/3/19_7.odb,Step-1,Increment      1: Step Time =    1.000,"PART-1-1",           439,      -13.9000,            5.,            0.,NA,NA,"",       2.89171,      -1.50800,      -2.46737,   3.39457E-06
C:/temp/dataset/3/19_7.odb,Step-1,Increment      1: Step Time =    1.000,"PART-1-1",           440,          -15.,          3.75,            0.,NA,NA,"",       2.91637,      -1.38055,      -2.56890,   3.03176E-06
C:/temp/dataset/3/19_7.odb,Step-1,Increment      1: Step Time =    1.000,"PART-1-1",           441,      -12.7489,       3.73428,            0.,NA,NA,"",       2.72915,      -1.38979,      -2.34877,   19.2646E-06
C:/temp/dataset/3/19_7.odb,Step-1,Increment      1: Step Time =    1.000,"PART-1-1",           442,      -9.48823,      -2.88104,            0.,NA,NA,"",       2.13791,  -758.794E-03,      -1.99872,   145.150E-06
C:/temp/dataset/3/19_7.odb,Step-1,Increment      1: Step Time =    1.000,"PART-1-1",           443,      -8.42388,      -2.23568,            0.,NA,NA,"",       2.07024,  -827.091E-03,      -1.89784,   189.090E-06
C:/temp/dataset/3/19_7.odb,Step-1,Increment      1: Step Time =    1.000,"PART-1-1",           444,      -10.2645,      -1.43363,            0.,NA,NA,"",       2.26635,  -896.676E-03,      -2.08142,   103.244E-06
C:/temp/dataset/3/19_7.odb,Step-1,Increment      1: Step Time =    1.000,"PART-1-1",           445,      -12.6725,      -1.29786,            0.,NA,NA,"",       2.48536,  -898.338E-03,      -2.31733,   34.4909E-06
C:/temp/dataset/3/19_7.odb,Step-1,Increment      1: Step Time =    1.000,"PART-1-1",           446,          -15.,         -1.25,            0.,NA,NA,"",       2.69677,  -891.845E-03,      -2.54503,   15.1119E-06
C:/temp/dataset/3/19_7.odb,Step-1,Increment      1: Step Time =    1.000,"PART-1-1",           447,      -6.16813,      -3.97275,            0.,NA,NA,"",       1.79750,  -667.413E-03,      -1.66900,   326.962E-06
C:/temp/dataset/3/19_7.odb,Step-1,Increment      1: Step Time =    1.000,"PART-1-1",           448,      -4.95000,           -5.,            0.,NA,NA,"",       1.64691,  -571.928E-03,      -1.54441,   673.840E-06
C:/temp/dataset/3/19_7.odb,Step-1,Increment      1: Step Time =    1.000,"PART-1-1",           449,       1.59412,  -355.999E-03,            0.,NA,NA,"",       1.39704,      -1.05779,  -912.583E-03,   6.92870E-03
C:/temp/dataset/3/19_7.odb,Step-1,Increment      1: Step Time =    1.000,"PART-1-1",           450,       2.17826,      -1.53992,            0.,NA,NA,"",       1.26871,  -948.597E-03,  -842.495E-03,   8.07685E-03
C:/temp/dataset/3/19_7.odb,Step-1,Increment      1: Step Time =    1.000,"PART-1-1",           451,       2.86763,   426.804E-03,            0.,NA,NA,"",       1.38101,      -1.13434,  -787.693E-03,   9.04838E-03
C:/temp/dataset/3/19_7.odb,Step-1,Increment      1: Step Time =    1.000,"PART-1-1",           452,  -387.277E-03,   5.26357E-03,            0.,NA,NA,"",       1.55804,      -1.08486,      -1.11829,   3.81946E-03
C:/temp/dataset/3/19_7.odb,Step-1,Increment      1: Step Time =    1.000,"PART-1-1",           453,   283.611E-03,      -1.19839,            0.,NA,NA,"",       1.42476,  -971.801E-03,      -1.04189,   4.34583E-03
C:/temp/dataset/3/19_7.odb,Step-1,Increment      1: Step Time =    1.000,"PART-1-1",           454,   923.228E-03,   847.652E-03,            0.,NA,NA,"",       1.53354,      -1.16943,  -992.060E-03,   6.75227E-03
C:/temp/dataset/3/19_7.odb,Step-1,Increment      1: Step Time =    1.000,"PART-1-1",           455,       6.35531,      -13.1332,            0.,NA,NA,"",   284.334E-03,  -200.195E-03,  -201.910E-03,   20.5417E-03
C:/temp/dataset/3/19_7.odb,Step-1,Increment      1: Step Time =    1.000,"PART-1-1",           456,       7.49455,      -12.2656,            0.,NA,NA,"",   283.127E-03,  -228.817E-03,  -166.745E-03,   15.7226E-03
C:/temp/dataset/3/19_7.odb,Step-1,Increment      1: Step Time =    1.000,"PART-1-1",           457,       6.13925,      -10.3824,            0.,NA,NA,"",   423.136E-03,  -328.052E-03,  -267.257E-03,   21.9302E-03
C:/temp/dataset/3/19_7.odb,Step-1,Increment      1: Step Time =    1.000,"PART-1-1",           458,            5.,        -11.25,            0.,NA,NA,"",   425.900E-03,  -296.356E-03,  -305.883E-03,   26.6762E-03
C:/temp/dataset/3/19_7.odb,Step-1,Increment      1: Step Time =    1.000,"PART-1-1",           459,       13.3376,      -16.9670,            0.,NA,NA,"",   87.9387E-03,  -63.9547E-03,   60.3573E-03,   9.77924E-03
C:/temp/dataset/3/19_7.odb,Step-1,Increment      1: Step Time =    1.000,"PART-1-1",           460,       11.8219,      -18.0071,            0.,NA,NA,"",   38.2904E-03,  -34.8483E-03,   15.8668E-03,   4.54736E-03
C:/temp/dataset/3/19_7.odb,Step-1,Increment      1: Step Time =    1.000,"PART-1-1",           461,           15.,        -18.75,            0.,NA,NA,"",   85.6817E-03,  -35.4226E-03,   78.0166E-03,   15.2810E-03
C:/temp/dataset/3/19_7.odb,Step-1,Increment      1: Step Time =    1.000,"PART-1-1",           462,       8.42876,      -15.2973,            0.,NA,NA,"",   141.274E-03,  -108.127E-03,  -90.9236E-03,   10.9943E-03
C:/temp/dataset/3/19_7.odb,Step-1,Increment      1: Step Time =    1.000,"PART-1-1",           463,       10.4111,      -16.6310,            0.,NA,NA,"",   68.1069E-03,  -64.8961E-03,  -20.6651E-03,   2.36341E-03
C:/temp/dataset/3/19_7.odb,Step-1,Increment      1: Step Time =    1.000,"PART-1-1",           464,       10.7289,      -14.9294,            0.,NA,NA,"",   117.260E-03,  -116.463E-03,  -13.6432E-03,   1.65956E-03
C:/temp/dataset/3/19_7.odb,Step-1,Increment      1: Step Time =    1.000,"PART-1-1",           465,       8.74656,      -13.5956,            0.,NA,NA,"",   193.356E-03,  -167.720E-03,  -96.2112E-03,   10.0056E-03
C:/temp/dataset/3/19_7.odb,Step-1,Increment      1: Step Time =    1.000,"PART-1-1",           466,      -8.72016,      -22.5745,            0.,NA,NA,"",   3.95991E-03,  -3.86944E-03,   841.629E-06,   158.093E-06
C:/temp/dataset/3/19_7.odb,Step-1,Increment      1: Step Time =    1.000,"PART-1-1",           467,      -7.48342,      -21.2909,            0.,NA,NA,"",   3.86188E-03,  -3.74384E-03,   947.507E-06,   136.137E-06
C:/temp/dataset/3/19_7.odb,Step-1,Increment      1: Step Time =    1.000,"PART-1-1",           468,         -8.75,          -20.,            0.,NA,NA,"",   3.95200E-03,  -3.87348E-03,   783.895E-06,   218.750E-06
C:/temp/dataset/3/19_7.odb,Step-1,Increment      1: Step Time =    1.000,"PART-1-1",           469,      -9.98674,      -21.2836,            0.,NA,NA,"",   3.94555E-03,  -3.89203E-03,   647.655E-06,   70.6494E-06
C:/temp/dataset/3/19_7.odb,Step-1,Increment      1: Step Time =    1.000,"PART-1-1",           470,      -4.96670,      -26.3491,            0.,NA,NA,"",   4.82475E-03,  -4.81944E-03,  -226.256E-06,   873.324E-06
C:/temp/dataset/3/19_7.odb,Step-1,Increment      1: Step Time =    1.000,"PART-1-1",           471,      -6.21541,      -25.0985,            0.,NA,NA,"",   4.59201E-03,  -4.57594E-03,   383.881E-06,   601.306E-06
C:/temp/dataset/3/19_7.odb,Step-1,Increment      1: Step Time =    1.000,"PART-1-1",           472,      -7.47738,      -26.3212,            0.,NA,NA,"",   3.59055E-03,  -3.58005E-03,   274.410E-06,   576.566E-06
C:/temp/dataset/3/19_7.odb,Step-1,Increment      1: Step Time =    1.000,"PART-1-1",           473,      -6.22867,      -27.5719,            0.,NA,NA,"",   3.23595E-03,  -3.23493E-03,  -81.4124E-06,   893.482E-06
C:/temp/dataset/3/19_7.odb,Step-1,Increment      1: Step Time =    1.000,"PART-1-1",           474,   49.7896E-03,      -26.4387,            0.,NA,NA,"",   9.09316E-03,  -7.16801E-03,  -5.59511E-03,   2.61692E-03
C:/temp/dataset/3/19_7.odb,Step-1,Increment      1: Step Time =    1.000,"PART-1-1",           475,       1.24862,      -27.7048,            0.,NA,NA,"",   7.31918E-03,  -5.15819E-03,  -5.19263E-03,   3.35105E-03
C:/temp/dataset/3/19_7.odb,Step-1,Increment      1: Step Time =    1.000,"PART-1-1",           476,       2.52056,      -26.5649,            0.,NA,NA,"",   12.2765E-03,  -5.42657E-03,  -11.0120E-03,   4.74511E-03
C:/temp/dataset/3/19_7.odb,Step-1,Increment      1: Step Time =    1.000,"PART-1-1",           477,       1.32172,      -25.2988,            0.,NA,NA,"",   13.5658E-03,  -7.89980E-03,  -11.0283E-03,   3.81356E-03
C:/temp/dataset/3/19_7.odb,Step-1,Increment      1: Step Time =    1.000,"PART-1-1",           478,        -13.75,          -20.,            0.,NA,NA,"",   4.29956E-03,  -4.28602E-03,  -341.020E-06,   18.0051E-06
C:/temp/dataset/3/19_7.odb,Step-1,Increment      1: Step Time =    1.000,"PART-1-1",           479,          -15.,        -21.25,            0.,NA,NA,"",   4.03157E-03,  -3.97518E-03,  -671.940E-06,   14.3679E-06
C:/temp/dataset/3/19_7.odb,Step-1,Increment      1: Step Time =    1.000,"PART-1-1",           480,      -13.7430,      -22.5153,            0.,NA,NA,"",   3.69835E-03,  -3.68148E-03,  -352.849E-06,   44.9958E-06
C:/temp/dataset/3/19_7.odb,Step-1,Increment      1: Step Time =    1.000,"PART-1-1",           481,      -12.4930,      -21.2653,            0.,NA,NA,"",   3.96253E-03,  -3.96250E-03,   14.2644E-06,   40.8137E-06
C:/temp/dataset/3/19_7.odb,Step-1,Increment      1: Step Time =    1.000,"PART-1-1",           482,      -11.2297,      -22.5489,            0.,NA,NA,"",   3.74098E-03,  -3.72459E-03,   349.748E-06,   82.3015E-06
C:/temp/dataset/3/19_7.odb,Step-1,Increment      1: Step Time =    1.000,"PART-1-1",           483,        -11.25,          -20.,            0.,NA,NA,"",   4.20313E-03,  -4.19091E-03,   320.170E-06,   93.2981E-06
C:/temp/dataset/3/19_7.odb,Step-1,Increment      1: Step Time =    1.000,"PART-1-1",           484,      -13.7448,      -25.0201,            0.,NA,NA,"",   2.96715E-03,  -2.93815E-03,  -413.803E-06,   56.4729E-06
C:/temp/dataset/3/19_7.odb,Step-1,Increment      1: Step Time =    1.000,"PART-1-1",           485,      -12.4878,      -23.7854,            0.,NA,NA,"",   3.38800E-03,  -3.38797E-03,  -15.7707E-06,   39.9821E-06
C:/temp/dataset/3/19_7.odb,Step-1,Increment      1: Step Time =    1.000,"PART-1-1",           486,          -15.,        -23.75,            0.,NA,NA,"",   3.41498E-03,  -3.32897E-03,  -761.649E-06,   53.3887E-06
C:/temp/dataset/3/19_7.odb,Step-1,Increment      1: Step Time =    1.000,"PART-1-1",           487,       13.7335,      -27.5520,            0.,NA,NA,"",   11.9306E-03,   11.3881E-03,   3.55692E-03,   3.45414E-03
C:/temp/dataset/3/19_7.odb,Step-1,Increment      1: Step Time =    1.000,"PART-1-1",           488,       12.4835,      -28.8020,            0.,NA,NA,"",   6.84728E-03,   6.81373E-03,   676.988E-06,   4.24163E-03
C:/temp/dataset/3/19_7.odb,Step-1,Increment      1: Step Time =    1.000,"PART-1-1",           489,         13.75,          -30.,            0.,NA,NA,"",            0.,   2.07248E-39,   810.437E-42,   3.02617E-03
C:/temp/dataset/3/19_7.odb,Step-1,Increment      1: Step Time =    1.000,"PART-1-1",           490,           15.,        -28.75,            0.,NA,NA,"",   4.87144E-03,   4.84787E-03,  -478.634E-06,   1.86506E-03
C:/temp/dataset/3/19_7.odb,Step-1,Increment      1: Step Time =    1.000,"PART-1-1",           491,       9.98010,      -28.8907,            0.,NA,NA,"",   6.74294E-03,   6.53880E-03,  -1.64662E-03,   4.52576E-03
C:/temp/dataset/3/19_7.odb,Step-1,Increment      1: Step Time =    1.000,"PART-1-1",           492,       8.70049,      -27.8380,            0.,NA,NA,"",   11.1754E-03,   9.33935E-03,  -6.13726E-03,   4.91063E-03
C:/temp/dataset/3/19_7.odb,Step-1,Increment      1: Step Time =    1.000,"PART-1-1",           493,          8.75,          -30.,            0.,NA,NA,"",            0.,   3.55656E-39,  -4.94835E-39,   4.37122E-03
C:/temp/dataset/3/19_7.odb,Step-1,Increment      1: Step Time =    1.000,"PART-1-1",           494,       11.2136,      -27.6927,            0.,NA,NA,"",   12.5192E-03,   12.4828E-03,  -953.069E-06,   4.02767E-03
C:/temp/dataset/3/19_7.odb,Step-1,Increment      1: Step Time =    1.000,"PART-1-1",           495,       12.3768,      -26.3916,            0.,NA,NA,"",   17.1097E-03,   16.8775E-03,   2.80917E-03,   4.68304E-03
C:/temp/dataset/3/19_7.odb,Step-1,Increment      1: Step Time =    1.000,"PART-1-1",           496,       11.0556,      -25.4315,            0.,NA,NA,"",   19.3883E-03,   19.1294E-03,  -3.15816E-03,   4.87324E-03
C:/temp/dataset/3/19_7.odb,Step-1,Increment      1: Step Time =    1.000,"PART-1-1",           497,       9.89242,      -26.7326,            0.,NA,NA,"",   16.1244E-03,   14.7945E-03,  -6.41243E-03,   5.29993E-03
C:/temp/dataset/3/19_7.odb,Step-1,Increment      1: Step Time =    1.000,"PART-1-1",           498,   9.79186E-03,      -28.8313,            0.,NA,NA,"",   3.77566E-03,  -3.29653E-03,  -1.84079E-03,   2.76334E-03
C:/temp/dataset/3/19_7.odb,Step-1,Increment      1: Step Time =    1.000,"PART-1-1",           499,          1.25,          -30.,            0.,NA,NA,"",            0.,  -1.93411E-39,  -5.00467E-39,   3.20750E-03
C:/temp/dataset/3/19_7.odb,Step-1,Increment      1: Step Time =    1.000,"PART-1-1",           500,      -1.18061,      -25.1833,            0.,NA,NA,"",   8.68082E-03,  -7.57594E-03,  -4.23814E-03,   1.87519E-03
C:/temp/dataset/3/19_7.odb,Step-1,Increment      1: Step Time =    1.000,"PART-1-1",           501,      -2.45538,      -26.3836,            0.,NA,NA,"",   6.58364E-03,  -6.30178E-03,  -1.90574E-03,   1.44585E-03
C:/temp/dataset/3/19_7.odb,Step-1,Increment      1: Step Time =    1.000,"PART-1-1",           502,      -1.22498,      -27.6390,            0.,NA,NA,"",   5.94242E-03,  -5.42447E-03,  -2.42643E-03,   2.08008E-03
C:/temp/dataset/3/19_7.odb,Step-1,Increment      1: Step Time =    1.000,"PART-1-1",           503,      -3.70005,      -25.1329,            0.,NA,NA,"",   6.01151E-03,  -5.95850E-03,  -796.541E-06,   977.130E-06
C:/temp/dataset/3/19_7.odb,Step-1,Increment      1: Step Time =    1.000,"PART-1-1",           504,      -7.49141,      -28.7797,            0.,NA,NA,"",   1.53290E-03,  -1.53168E-03,  -61.0019E-06,   782.377E-06
C:/temp/dataset/3/19_7.odb,Step-1,Increment      1: Step Time =    1.000,"PART-1-1",           505,         -6.25,          -30.,            0.,NA,NA,"",            0.,  -1.04412E-39,  -592.367E-42,   1.14896E-03
C:/temp/dataset/3/19_7.odb,Step-1,Increment      1: Step Time =    1.000,"PART-1-1",           506,      -12.4949,      -26.2800,            0.,NA,NA,"",   2.39755E-03,  -2.39588E-03,  -89.6994E-06,   245.443E-06
C:/temp/dataset/3/19_7.odb,Step-1,Increment      1: Step Time =    1.000,"PART-1-1",           507,          -15.,        -26.25,            0.,NA,NA,"",   2.55652E-03,  -2.38371E-03,  -923.988E-06,   44.2472E-06
C:/temp/dataset/3/19_7.odb,Step-1,Increment      1: Step Time =    1.000,"PART-1-1",           508,       12.0036,      -23.8365,            0.,NA,NA,"",   20.3345E-03,   19.9415E-03,   3.97871E-03,   5.35655E-03
C:/temp/dataset/3/19_7.odb,Step-1,Increment      1: Step Time =    1.000,"PART-1-1",           509,       13.6432,      -25.0896,            0.,NA,NA,"",   20.7451E-03,   17.8983E-03,   10.4885E-03,   5.00643E-03
C:/temp/dataset/3/19_7.odb,Step-1,Increment      1: Step Time =    1.000,"PART-1-1",           510,           15.,        -23.75,            0.,NA,NA,"",   26.0080E-03,   12.7915E-03,   22.6449E-03,   8.85775E-03
C:/temp/dataset/3/19_7.odb,Step-1,Increment      1: Step Time =    1.000,"PART-1-1",           511,         11.25,          -30.,            0.,NA,NA,"",            0.,   4.42542E-39,  -1.16080E-39,   4.19709E-03
C:/temp/dataset/3/19_7.odb,Step-1,Increment      1: Step Time =    1.000,"PART-1-1",           512,       13.9281,      -14.6298,            0.,NA,NA,"",   170.919E-03,  -137.766E-03,   101.163E-03,   12.8467E-03
C:/temp/dataset/3/19_7.odb,Step-1,Increment      1: Step Time =    1.000,"PART-1-1",           513,       12.2657,      -15.3468,            0.,NA,NA,"",   112.614E-03,  -105.825E-03,   38.5072E-03,   5.66991E-03
C:/temp/dataset/3/19_7.odb,Step-1,Increment      1: Step Time =    1.000,"PART-1-1",           514,           15.,        -16.25,            0.,NA,NA,"",   147.772E-03,  -93.8335E-03,   114.157E-03,   17.0382E-03
C:/temp/dataset/3/19_7.odb,Step-1,Increment      1: Step Time =    1.000,"PART-1-1",           515,       7.13425,      -14.5121,            0.,NA,NA,"",   204.331E-03,  -142.077E-03,  -146.850E-03,   17.3821E-03
C:/temp/dataset/3/19_7.odb,Step-1,Increment      1: Step Time =    1.000,"PART-1-1",           516,       6.81531,      -16.2905,            0.,NA,NA,"",   154.185E-03,  -85.9060E-03,  -128.036E-03,   18.2312E-03
C:/temp/dataset/3/19_7.odb,Step-1,Increment      1: Step Time =    1.000,"PART-1-1",           517,       8.10983,      -17.0757,            0.,NA,NA,"",   99.9560E-03,  -57.4540E-03,  -81.7939E-03,   11.8412E-03
C:/temp/dataset/3/19_7.odb,Step-1,Increment      1: Step Time =    1.000,"PART-1-1",           518,       13.8641,      -7.41825,            0.,NA,NA,"",   534.186E-03,  -505.438E-03,   172.881E-03,   12.8696E-03
C:/temp/dataset/3/19_7.odb,Step-1,Increment      1: Step Time =    1.000,"PART-1-1",           519,       13.0286,      -8.63342,            0.,NA,NA,"",   435.627E-03,  -421.183E-03,   111.249E-03,   9.28556E-03
C:/temp/dataset/3/19_7.odb,Step-1,Increment      1: Step Time =    1.000,"PART-1-1",           520,       14.1645,      -9.96517,            0.,NA,NA,"",   387.788E-03,  -351.187E-03,   164.461E-03,   14.5167E-03
C:/temp/dataset/3/19_7.odb,Step-1,Increment      1: Step Time =    1.000,"PART-1-1",           521,           15.,         -8.75,            0.,NA,NA,"",   486.631E-03,  -429.841E-03,   228.137E-03,   18.1905E-03
C:/temp/dataset/3/19_7.odb,Step-1,Increment      1: Step Time =    1.000,"PART-1-1",           522,       12.0251,      -10.9831,            0.,NA,NA,"",   288.168E-03,  -284.695E-03,   44.6011E-03,   4.75045E-03
C:/temp/dataset/3/19_7.odb,Step-1,Increment      1: Step Time =    1.000,"PART-1-1",           523,       12.8055,      -11.9581,            0.,NA,NA,"",   253.081E-03,  -240.727E-03,   78.1081E-03,   8.09291E-03
C:/temp/dataset/3/19_7.odb,Step-1,Increment      1: Step Time =    1.000,"PART-1-1",           524,       13.3751,      -11.0455,            0.,NA,NA,"",   309.319E-03,  -288.187E-03,   112.367E-03,   10.7468E-03
C:/temp/dataset/3/19_7.odb,Step-1,Increment      1: Step Time =    1.000,"PART-1-1",           525,       12.5947,      -10.0706,            0.,NA,NA,"",   344.229E-03,  -335.242E-03,   78.1442E-03,   7.35540E-03
C:/temp/dataset/3/19_7.odb,Step-1,Increment      1: Step Time =    1.000,"PART-1-1",           526,       11.4853,  -434.223E-03,            0.,NA,NA,"",       1.06164,      -1.06158,   11.7513E-03,   6.06629E-03
C:/temp/dataset/3/19_7.odb,Step-1,Increment      1: Step Time =    1.000,"PART-1-1",           527,       10.5886,      -1.82652,            0.,NA,NA,"",   933.514E-03,  -931.874E-03,  -55.3111E-03,   6.71627E-03
C:/temp/dataset/3/19_7.odb,Step-1,Increment      1: Step Time =    1.000,"PART-1-1",           528,       11.9063,      -2.70193,            0.,NA,NA,"",   861.017E-03,  -859.518E-03,   50.7711E-03,   6.55719E-03
C:/temp/dataset/3/19_7.odb,Step-1,Increment      1: Step Time =    1.000,"PART-1-1",           529,       14.1300,       7.44597,            0.,NA,NA,"",       1.81994,      -1.80690,   217.473E-03,   280.818E-06
C:/temp/dataset/3/19_7.odb,Step-1,Increment      1: Step Time =    1.000,"PART-1-1",           530,       13.1865,       6.25975,            0.,NA,NA,"",       1.69869,      -1.69324,   135.994E-03,   1.14187E-03
C:/temp/dataset/3/19_7.odb,Step-1,Increment      1: Step Time =    1.000,"PART-1-1",           531,           15.,          6.25,            0.,NA,NA,"",       1.72687,      -1.70018,   302.423E-03,   449.577E-06
C:/temp/dataset/3/19_7.odb,Step-1,Increment      1: Step Time =    1.000,"PART-1-1",           532,       12.4155,       5.33720,            0.,NA,NA,"",       1.60592,      -1.60441,   69.7735E-03,   1.86908E-03
C:/temp/dataset/3/19_7.odb,Step-1,Increment      1: Step Time =    1.000,"PART-1-1",           533,       11.2733,       3.54111,            0.,NA,NA,"",       1.43293,      -1.43272,  -24.1685E-03,   3.67783E-03
C:/temp/dataset/3/19_7.odb,Step-1,Increment      1: Step Time =    1.000,"PART-1-1",           534,       12.2480,       13.5548,            0.,NA,NA,"",       2.35836,      -2.35828,   19.7534E-03,   58.1253E-06
C:/temp/dataset/3/19_7.odb,Step-1,Increment      1: Step Time =    1.000,"PART-1-1",           535,           15.,         13.75,            0.,NA,NA,"",       2.40278,      -2.38755,   270.147E-03,   82.9817E-06
C:/temp/dataset/3/19_7.odb,Step-1,Increment      1: Step Time =    1.000,"PART-1-1",           536,       13.6600,       14.9734,            0.,NA,NA,"",       2.49764,      -2.49356,   142.722E-03,   35.5776E-06
C:/temp/dataset/3/19_7.odb,Step-1,Increment      1: Step Time =    1.000,"PART-1-1",           537,       8.15326,       10.4556,            0.,NA,NA,"",       2.08670,      -2.05866,  -340.924E-03,   157.244E-06
C:/temp/dataset/3/19_7.odb,Step-1,Increment      1: Step Time =    1.000,"PART-1-1",           538,       12.3824,       21.2920,            0.,NA,NA,"",       3.06448,      -3.06448,  -181.950E-06,   3.62564E-06
C:/temp/dataset/3/19_7.odb,Step-1,Increment      1: Step Time =    1.000,"PART-1-1",           539,       13.6892,       20.0188,            0.,NA,NA,"",       2.95643,      -2.95381,   124.317E-03,   3.30594E-06
C:/temp/dataset/3/19_7.odb,Step-1,Increment      1: Step Time =    1.000,"PART-1-1",           540,           15.,         21.25,            0.,NA,NA,"",       3.08083,      -3.07156,   238.739E-03,   796.783E-09
C:/temp/dataset/3/19_7.odb,Step-1,Increment      1: Step Time =    1.000,"PART-1-1",           541,       13.6932,       22.5232,            0.,NA,NA,"",       3.18429,      -3.18224,   114.243E-03,   551.359E-09
C:/temp/dataset/3/19_7.odb,Step-1,Increment      1: Step Time =    1.000,"PART-1-1",           542,       9.77662,       16.3041,            0.,NA,NA,"",       2.60773,      -2.59867,  -217.113E-03,   36.9484E-06
C:/temp/dataset/3/19_7.odb,Step-1,Increment      1: Step Time =    1.000,"PART-1-1",           543,       11.0318,       15.0036,            0.,NA,NA,"",       2.48722,      -2.48532,  -97.2335E-03,   43.0296E-06
C:/temp/dataset/3/19_7.odb,Step-1,Increment      1: Step Time =    1.000,"PART-1-1",           544,       12.3430,       16.2301,            0.,NA,NA,"",       2.60273,      -2.60267,   17.3080E-03,   34.1717E-06
C:/temp/dataset/3/19_7.odb,Step-1,Increment      1: Step Time =    1.000,"PART-1-1",           545,         13.75,           30.,            0.,NA,NA,"",       3.86542,      -3.86442,   88.2617E-03,   66.5478E-09
C:/temp/dataset/3/19_7.odb,Step-1,Increment      1: Step Time =    1.000,"PART-1-1",           546,       12.4862,       28.7548,            0.,NA,NA,"",       3.74564,      -3.74558,  -21.8198E-03,   222.617E-09
C:/temp/dataset/3/19_7.odb,Step-1,Increment      1: Step Time =    1.000,"PART-1-1",           547,           15.,         28.75,            0.,NA,NA,"",       3.76134,      -3.75562,   207.482E-03,   71.7795E-09
C:/temp/dataset/3/19_7.odb,Step-1,Increment      1: Step Time =    1.000,"PART-1-1",           548,       12.4064,       23.7898,            0.,NA,NA,"",       3.29241,      -3.29240,  -8.40265E-03,   531.828E-09
C:/temp/dataset/3/19_7.odb,Step-1,Increment      1: Step Time =    1.000,"PART-1-1",           549,           15.,         23.75,            0.,NA,NA,"",       3.30747,      -3.29958,   228.320E-03,   564.221E-09
C:/temp/dataset/3/19_7.odb,Step-1,Increment      1: Step Time =    1.000,"PART-1-1",           550,       9.91541,       26.3072,            0.,NA,NA,"",       3.52023,      -3.51162,  -246.091E-03,   172.318E-09
C:/temp/dataset/3/19_7.odb,Step-1,Increment      1: Step Time =    1.000,"PART-1-1",           551,       11.1537,       25.0565,            0.,NA,NA,"",       3.40511,      -3.40271,  -127.934E-03,   229.808E-09
C:/temp/dataset/3/19_7.odb,Step-1,Increment      1: Step Time =    1.000,"PART-1-1",           552,       11.2110,       27.5221,            0.,NA,NA,"",       3.63027,      -3.62783,  -132.983E-03,   271.388E-09
C:/temp/dataset/3/19_7.odb,Step-1,Increment      1: Step Time =    1.000,"PART-1-1",           553,       8.69233,       27.5515,            0.,NA,NA,"",       3.63815,      -3.62001,  -362.832E-03,   138.541E-09
C:/temp/dataset/3/19_7.odb,Step-1,Increment      1: Step Time =    1.000,"PART-1-1",           554,       7.41297,       26.3376,            0.,NA,NA,"",       3.53594,      -3.50397,  -474.461E-03,   119.557E-09
C:/temp/dataset/3/19_7.odb,Step-1,Increment      1: Step Time =    1.000,"PART-1-1",           555,       8.63604,       25.0933,            0.,NA,NA,"",       3.41436,      -3.39557,  -357.720E-03,   259.916E-09
C:/temp/dataset/3/19_7.odb,Step-1,Increment      1: Step Time =    1.000,"PART-1-1",           556,      -1.26375,       27.5391,            0.,NA,NA,"",       3.79642,      -3.57739,      -1.27086,   53.1555E-09
C:/temp/dataset/3/19_7.odb,Step-1,Increment      1: Step Time =    1.000,"PART-1-1",           557,         -1.25,           30.,            0.,NA,NA,"",       4.01154,      -3.80190,      -1.27987,   32.5307E-09
C:/temp/dataset/3/19_7.odb,Step-1,Increment      1: Step Time =    1.000,"PART-1-1",           558,      -2.50500,       28.7640,            0.,NA,NA,"",       3.93715,      -3.68393,      -1.38918,   17.2449E-09
C:/temp/dataset/3/19_7.odb,Step-1,Increment      1: Step Time =    1.000,"PART-1-1",           559,      -7.50143,       28.7522,            0.,NA,NA,"",       4.10048,      -3.66203,      -1.84485,   7.64909E-09
C:/temp/dataset/3/19_7.odb,Step-1,Increment      1: Step Time =    1.000,"PART-1-1",           560,         -8.75,           30.,            0.,NA,NA,"",       4.25144,      -3.77064,      -1.96394,   7.34357E-09
C:/temp/dataset/3/19_7.odb,Step-1,Increment      1: Step Time =    1.000,"PART-1-1",           561,      -6.25460,       27.5081,            0.,NA,NA,"",       3.95070,      -3.55375,      -1.72595,   9.29980E-09
C:/temp/dataset/3/19_7.odb,Step-1,Increment      1: Step Time =    1.000,"PART-1-1",           562,        -13.75,           30.,            0.,NA,NA,"",       4.46288,      -3.74979,      -2.41998,   8.01049E-09
C:/temp/dataset/3/19_7.odb,Step-1,Increment      1: Step Time =    1.000,"PART-1-1",           563,          -15.,         28.75,            0.,NA,NA,"",       4.42446,      -3.63057,      -2.52878,   7.98312E-09
C:/temp/dataset/3/19_7.odb,Step-1,Increment      1: Step Time =    1.000,"PART-1-1",           564,      -13.7509,       27.5010,            0.,NA,NA,"",       4.26730,      -3.52186,      -2.40965,   7.89916E-09
C:/temp/dataset/3/19_7.odb,Step-1,Increment      1: Step Time =    1.000,"PART-1-1",           565,          -15.,         26.25,            0.,NA,NA,"",       4.23314,      -3.40255,      -2.51836,   7.80751E-09
C:/temp/dataset/3/19_7.odb,Step-1,Increment      1: Step Time =    1.000,"PART-1-1",           566,      -12.5016,       26.2536,            0.,NA,NA,"",       4.11059,      -3.41329,      -2.29050,   7.93126E-09
C:/temp/dataset/3/19_7.odb,Step-1,Increment      1: Step Time =    1.000,"PART-1-1",           567,      -7.50093,       21.2547,            0.,NA,NA,"",       3.48692,      -2.97819,      -1.81356,   7.73809E-09
C:/temp/dataset/3/19_7.odb,Step-1,Increment      1: Step Time =    1.000,"PART-1-1",           568,         -6.25,           20.,            0.,NA,NA,"",       3.33187,      -2.86896,      -1.69423,   7.23955E-09
C:/temp/dataset/3/19_7.odb,Step-1,Increment      1: Step Time =    1.000,"PART-1-1",           569,      -4.99978,       21.2574,            0.,NA,NA,"",       3.38333,      -2.98886,      -1.58544,   7.79328E-09
C:/temp/dataset/3/19_7.odb,Step-1,Increment      1: Step Time =    1.000,"PART-1-1",           570,      -3.74911,       22.5208,            0.,NA,NA,"",       3.44213,      -3.10931,      -1.47663,   20.4044E-09
C:/temp/dataset/3/19_7.odb,Step-1,Increment      1: Step Time =    1.000,"PART-1-1",           571,         -3.75,           20.,            0.,NA,NA,"",       3.23120,      -2.87939,      -1.46621,   8.18997E-09
C:/temp/dataset/3/19_7.odb,Step-1,Increment      1: Step Time =    1.000,"PART-1-1",           572,      -2.49933,       21.2634,            0.,NA,NA,"",       3.29265,      -2.99983,      -1.35740,   21.6257E-09
C:/temp/dataset/3/19_7.odb,Step-1,Increment      1: Step Time =    1.000,"PART-1-1",           573,         -1.25,           20.,            0.,NA,NA,"",       3.14390,      -2.88981,      -1.23819,   51.4287E-09
C:/temp/dataset/3/19_7.odb,Step-1,Increment      1: Step Time =    1.000,"PART-1-1",           574,  -2.23348E-03,       21.2694,            0.,NA,NA,"",       3.21574,      -3.01079,      -1.12967,   64.2033E-09
C:/temp/dataset/3/19_7.odb,Step-1,Increment      1: Step Time =    1.000,"PART-1-1",           575,      -1.25156,       22.5328,            0.,NA,NA,"",       3.36143,      -3.12081,      -1.24889,   57.7648E-09
C:/temp/dataset/3/19_7.odb,Step-1,Increment      1: Step Time =    1.000,"PART-1-1",           576,         -3.75,           30.,            0.,NA,NA,"",       4.08032,      -3.79148,      -1.50789,   8.69357E-09
C:/temp/dataset/3/19_7.odb,Step-1,Increment      1: Step Time =    1.000,"PART-1-1",           577,      -5.00318,       28.7559,            0.,NA,NA,"",       4.01299,      -3.67278,      -1.61701,   8.40498E-09
C:/temp/dataset/3/19_7.odb,Step-1,Increment      1: Step Time =    1.000,"PART-1-1",           578,       7.36074,       18.8052,            0.,NA,NA,"",       2.85209,      -2.81671,  -447.828E-03,   12.3965E-06
C:/temp/dataset/3/19_7.odb,Step-1,Increment      1: Step Time =    1.000,"PART-1-1",           579,       8.58169,       17.5494,            0.,NA,NA,"",       2.72745,      -2.70725,  -331.253E-03,   18.3326E-06
C:/temp/dataset/3/19_7.odb,Step-1,Increment      1: Step Time =    1.000,"PART-1-1",           580,       8.60057,       20.0599,            0.,NA,NA,"",       2.95595,      -2.93633,  -339.979E-03,   5.37465E-06
C:/temp/dataset/3/19_7.odb,Step-1,Increment      1: Step Time =    1.000,"PART-1-1",           581,            5.,         18.75,            0.,NA,NA,"",       2.87919,      -2.80184,  -662.912E-03,   7.27458E-06
C:/temp/dataset/3/19_7.odb,Step-1,Increment      1: Step Time =    1.000,"PART-1-1",           582,       6.17685,       17.5255,            0.,NA,NA,"",       2.75068,      -2.69504,  -550.462E-03,   11.8117E-06
C:/temp/dataset/3/19_7.odb,Step-1,Increment      1: Step Time =    1.000,"PART-1-1",           583,       6.18390,       20.0298,            0.,NA,NA,"",       2.97671,      -2.92350,  -560.268E-03,   3.25120E-06
C:/temp/dataset/3/19_7.odb,Step-1,Increment      1: Step Time =    1.000,"PART-1-1",           584,            5.,         16.25,            0.,NA,NA,"",       2.65521,      -2.57380,  -652.464E-03,   33.6803E-06
C:/temp/dataset/3/19_7.odb,Step-1,Increment      1: Step Time =    1.000,"PART-1-1",           585,       6.15340,       15.0385,            0.,NA,NA,"",       2.52693,      -2.46808,  -542.191E-03,   39.6566E-06
C:/temp/dataset/3/19_7.odb,Step-1,Increment      1: Step Time =    1.000,"PART-1-1",           586,       7.33024,       16.3140,            0.,NA,NA,"",       2.62649,      -2.58934,  -440.232E-03,   34.8696E-06
C:/temp/dataset/3/19_7.odb,Step-1,Increment      1: Step Time =    1.000,"PART-1-1",           587,           15.,         16.25,            0.,NA,NA,"",       2.62841,      -2.61556,   259.610E-03,   31.0937E-06
C:/temp/dataset/3/19_7.odb,Step-1,Increment      1: Step Time =    1.000,"PART-1-1",           588,       13.6830,       17.5067,            0.,NA,NA,"",       2.72799,      -2.72469,   134.228E-03,   12.6198E-06
C:/temp/dataset/3/19_7.odb,Step-1,Increment      1: Step Time =    1.000,"PART-1-1",           589,           15.,         18.75,            0.,NA,NA,"",       2.85445,      -2.84356,   249.162E-03,   7.46888E-06
C:/temp/dataset/3/19_7.odb,Step-1,Increment      1: Step Time =    1.000,"PART-1-1",           590,       7.36831,       6.81272,            0.,NA,NA,"",       1.77156,      -1.72650,  -397.032E-03,   2.25980E-03
C:/temp/dataset/3/19_7.odb,Step-1,Increment      1: Step Time =    1.000,"PART-1-1",           591,       6.10412,       7.73110,            0.,NA,NA,"",       1.87684,      -1.80432,  -516.698E-03,   699.165E-06
C:/temp/dataset/3/19_7.odb,Step-1,Increment      1: Step Time =    1.000,"PART-1-1",           592,            5.,          6.25,            0.,NA,NA,"",       1.77656,      -1.66796,  -611.598E-03,   4.23041E-03
C:/temp/dataset/3/19_7.odb,Step-1,Increment      1: Step Time =    1.000,"PART-1-1",           593,       6.26419,       5.33162,            0.,NA,NA,"",       1.66678,      -1.59273,  -491.309E-03,   5.55924E-03
C:/temp/dataset/3/19_7.odb,Step-1,Increment      1: Step Time =    1.000,"PART-1-1",           594,           15.,          8.75,            0.,NA,NA,"",       1.95242,      -1.93049,   291.801E-03,   114.228E-06
C:/temp/dataset/3/19_7.odb,Step-1,Increment      1: Step Time =    1.000,"PART-1-1",           595,       13.1418,       8.51598,            0.,NA,NA,"",       1.90521,      -1.90126,   122.525E-03,   342.263E-06
C:/temp/dataset/3/19_7.odb,Step-1,Increment      1: Step Time =    1.000,"PART-1-1",           596,       6.30252,      -5.49102,            0.,NA,NA,"",   707.568E-03,  -609.851E-03,  -358.795E-03,   20.5188E-03
C:/temp/dataset/3/19_7.odb,Step-1,Increment      1: Step Time =    1.000,"PART-1-1",           597,            5.,         -6.25,            0.,NA,NA,"",   722.963E-03,  -572.304E-03,  -441.750E-03,   34.9638E-03
C:/temp/dataset/3/19_7.odb,Step-1,Increment      1: Step Time =    1.000,"PART-1-1",           598,       6.10325,      -7.87566,            0.,NA,NA,"",   566.654E-03,  -464.163E-03,  -325.038E-03,   22.7457E-03
C:/temp/dataset/3/19_7.odb,Step-1,Increment      1: Step Time =    1.000,"PART-1-1",           599,       7.40577,      -7.11668,            0.,NA,NA,"",   563.224E-03,  -503.606E-03,  -252.195E-03,   12.9153E-03
C:/temp/dataset/3/19_7.odb,Step-1,Increment      1: Step Time =    1.000,"PART-1-1",           600,            5.,         -8.75,            0.,NA,NA,"",   563.421E-03,  -426.378E-03,  -368.300E-03,   27.6888E-03
C:/temp/dataset/3/19_7.odb,Step-1,Increment      1: Step Time =    1.000,"PART-1-1",           601,            5.,        -13.75,            0.,NA,NA,"",   308.501E-03,  -189.294E-03,  -243.600E-03,   26.2011E-03
C:/temp/dataset/3/19_7.odb,Step-1,Increment      1: Step Time =    1.000,"PART-1-1",           602,       5.77894,      -15.1288,            0.,NA,NA,"",   226.567E-03,  -132.312E-03,  -183.919E-03,   23.0587E-03
C:/temp/dataset/3/19_7.odb,Step-1,Increment      1: Step Time =    1.000,"PART-1-1",           603,            5.,        -16.25,            0.,NA,NA,"",   212.400E-03,  -105.341E-03,  -184.437E-03,   26.4045E-03
C:/temp/dataset/3/19_7.odb,Step-1,Increment      1: Step Time =    1.000,"PART-1-1",           604,       2.77244,      -24.0596,            0.,NA,NA,"",   22.1994E-03,  -7.78725E-03,  -20.7887E-03,   6.03780E-03
C:/temp/dataset/3/19_7.odb,Step-1,Increment      1: Step Time =    1.000,"PART-1-1",           605,       3.76359,      -25.5842,            0.,NA,NA,"",   19.0112E-03,  -3.99252E-03,  -18.5872E-03,   6.47839E-03
C:/temp/dataset/3/19_7.odb,Step-1,Increment      1: Step Time =    1.000,"PART-1-1",           606,       5.11162,      -24.8806,            0.,NA,NA,"",   26.7075E-03,   118.851E-06,  -26.7072E-03,   8.93806E-03
C:/temp/dataset/3/19_7.odb,Step-1,Increment      1: Step Time =    1.000,"PART-1-1",           607,       4.12047,      -23.3559,            0.,NA,NA,"",   34.6246E-03,  -5.76273E-03,  -34.1416E-03,   8.93295E-03
C:/temp/dataset/3/19_7.odb,Step-1,Increment      1: Step Time =    1.000,"PART-1-1",           608,       8.48587,      -2.76980,            0.,NA,NA,"",   870.554E-03,  -843.221E-03,  -216.432E-03,   8.96455E-03
C:/temp/dataset/3/19_7.odb,Step-1,Increment      1: Step Time =    1.000,"PART-1-1",           609,       9.66601,      -3.38468,            0.,NA,NA,"",   801.135E-03,  -792.205E-03,  -119.282E-03,   6.72907E-03
C:/temp/dataset/3/19_7.odb,Step-1,Increment      1: Step Time =    1.000,"PART-1-1",           610,       9.40849,      -1.21164,            0.,NA,NA,"",   997.077E-03,  -985.022E-03,  -154.575E-03,   7.60989E-03
C:/temp/dataset/3/19_7.odb,Step-1,Increment      1: Step Time =    1.000,"PART-1-1",           611,       3.88333,            5.,            0.,NA,NA,"",       1.72971,      -1.56672,  -732.982E-03,   9.95355E-03
C:/temp/dataset/3/19_7.odb,Step-1,Increment      1: Step Time =    1.000,"PART-1-1",           612,       3.93709,       2.49951,            0.,NA,NA,"",       1.50020,      -1.32754,  -698.739E-03,   8.24340E-03
C:/temp/dataset/3/19_7.odb,Step-1,Increment      1: Step Time =    1.000,"PART-1-1",           613,       5.14044,       3.62548,            0.,NA,NA,"",       1.54931,      -1.43392,  -586.709E-03,   7.31268E-03
C:/temp/dataset/3/19_7.odb,Step-1,Increment      1: Step Time =    1.000,"PART-1-1",           614,       1.70000,           -5.,            0.,NA,NA,"",       1.06054,  -599.573E-03,  -874.794E-03,   1.40219E-03
C:/temp/dataset/3/19_7.odb,Step-1,Increment      1: Step Time =    1.000,"PART-1-1",           615,       2.88648,      -4.17028,            0.,NA,NA,"",       1.02368,  -697.478E-03,  -749.303E-03,   6.49923E-03
C:/temp/dataset/3/19_7.odb,Step-1,Increment      1: Step Time =    1.000,"PART-1-1",           616,       1.90498,      -3.27989,            0.,NA,NA,"",       1.16036,  -778.546E-03,  -860.407E-03,   5.79274E-03
C:/temp/dataset/3/19_7.odb,Step-1,Increment      1: Step Time =    1.000,"PART-1-1",           617,      -2.82853,       3.20340,            0.,NA,NA,"",       1.95480,      -1.38494,      -1.37956,   1.44297E-03
C:/temp/dataset/3/19_7.odb,Step-1,Increment      1: Step Time =    1.000,"PART-1-1",           618,      -1.73717,       4.08745,            0.,NA,NA,"",       1.95373,      -1.47388,      -1.28248,   3.86474E-03
C:/temp/dataset/3/19_7.odb,Step-1,Increment      1: Step Time =    1.000,"PART-1-1",           619,      -2.81667,            5.,            0.,NA,NA,"",       2.08429,      -1.55573,      -1.38706,   1.60709E-03
C:/temp/dataset/3/19_7.odb,Step-1,Increment      1: Step Time =    1.000,"PART-1-1",           620,      -7.28333,            5.,            0.,NA,NA,"",       2.38382,      -1.53913,      -1.82036,   411.098E-06
C:/temp/dataset/3/19_7.odb,Step-1,Increment      1: Step Time =    1.000,"PART-1-1",           621,      -11.7000,            5.,            0.,NA,NA,"",       2.71637,      -1.51853,      -2.25228,   35.5714E-06
C:/temp/dataset/3/19_7.odb,Step-1,Increment      1: Step Time =    1.000,"PART-1-1",           622,      -11.5540,       2.50359,            0.,NA,NA,"",       2.56546,      -1.27525,      -2.22605,   72.7794E-06
C:/temp/dataset/3/19_7.odb,Step-1,Increment      1: Step Time =    1.000,"PART-1-1",           623,      -8.37698,      -4.01732,            0.,NA,NA,"",       1.99458,  -652.843E-03,      -1.88471,   156.723E-06
C:/temp/dataset/3/19_7.odb,Step-1,Increment      1: Step Time =    1.000,"PART-1-1",           624,      -10.5279,      -3.86372,            0.,NA,NA,"",       2.19635,  -657.722E-03,      -2.09556,   61.0203E-06
C:/temp/dataset/3/19_7.odb,Step-1,Increment      1: Step Time =    1.000,"PART-1-1",           625,      -9.41667,           -5.,            0.,NA,NA,"",       2.05695,  -551.904E-03,      -1.98153,   126.964E-06
C:/temp/dataset/3/19_7.odb,Step-1,Increment      1: Step Time =    1.000,"PART-1-1",           626,          3.75,          -20.,            0.,NA,NA,"",   39.5817E-03,   1.43763E-03,  -39.5555E-03,   10.6739E-03
C:/temp/dataset/3/19_7.odb,Step-1,Increment      1: Step Time =    1.000,"PART-1-1",           627,       2.74072,      -21.3682,            0.,NA,NA,"",   28.4777E-03,  -6.15755E-03,  -27.8040E-03,   3.70739E-03
C:/temp/dataset/3/19_7.odb,Step-1,Increment      1: Step Time =    1.000,"PART-1-1",           628,       4.11640,      -22.1674,            0.,NA,NA,"",   43.2196E-03,  -8.29834E-03,  -42.4155E-03,   11.0683E-03
C:/temp/dataset/3/19_7.odb,Step-1,Increment      1: Step Time =    1.000,"PART-1-1",           629,       5.12568,      -20.7992,            0.,NA,NA,"",   70.0282E-03,  -6.09782E-03,  -69.7622E-03,   19.3216E-03
C:/temp/dataset/3/19_7.odb,Step-1,Increment      1: Step Time =    1.000,"PART-1-1",           630,          1.25,          -20.,            0.,NA,NA,"",   14.7966E-03,   4.08237E-03,  -14.2223E-03,   966.677E-06
C:/temp/dataset/3/19_7.odb,Step-1,Increment      1: Step Time =    1.000,"PART-1-1",           631,   73.0809E-03,      -21.3299,            0.,NA,NA,"",   8.86740E-03,  -2.90322E-03,  -8.37867E-03,   541.061E-06
C:/temp/dataset/3/19_7.odb,Step-1,Increment      1: Step Time =    1.000,"PART-1-1",           632,       1.56380,      -22.6981,            0.,NA,NA,"",   18.4763E-03,  -8.03971E-03,  -16.6354E-03,   4.28792E-03
C:/temp/dataset/3/19_7.odb,Step-1,Increment      1: Step Time =    1.000,"PART-1-1",           633,         -1.25,          -20.,            0.,NA,NA,"",   4.86773E-03,   173.918E-06,  -4.86462E-03,   1.12664E-03
C:/temp/dataset/3/19_7.odb,Step-1,Increment      1: Step Time =    1.000,"PART-1-1",           634,      -2.46493,      -21.3147,            0.,NA,NA,"",   3.73835E-03,  -3.13499E-03,  -2.03644E-03,   204.941E-06
C:/temp/dataset/3/19_7.odb,Step-1,Increment      1: Step Time =    1.000,"PART-1-1",           635,      -1.14185,      -22.6446,            0.,NA,NA,"",   7.48563E-03,  -5.83202E-03,  -4.69278E-03,   1.07938E-03
C:/temp/dataset/3/19_7.odb,Step-1,Increment      1: Step Time =    1.000,"PART-1-1",           636,         -3.75,          -20.,            0.,NA,NA,"",   1.92979E-03,  -1.81923E-03,  -643.818E-06,   710.170E-06
C:/temp/dataset/3/19_7.odb,Step-1,Increment      1: Step Time =    1.000,"PART-1-1",           637,      -4.97847,      -21.2978,            0.,NA,NA,"",   3.48130E-03,  -3.45058E-03,   461.484E-06,   229.010E-06
C:/temp/dataset/3/19_7.odb,Step-1,Increment      1: Step Time =    1.000,"PART-1-1",           638,      -3.69340,      -22.6125,            0.,NA,NA,"",   4.72075E-03,  -4.69938E-03,  -448.651E-06,   358.305E-06
C:/temp/dataset/3/19_7.odb,Step-1,Increment      1: Step Time =    1.000,"PART-1-1",           639,      -4.95791,      -23.8547,            0.,NA,NA,"",   5.03618E-03,  -5.03117E-03,   224.589E-06,   481.121E-06
C:/temp/dataset/3/19_7.odb,Step-1,Increment      1: Step Time =    1.000,"PART-1-1",           640,      -6.21189,      -22.5887,            0.,NA,NA,"",   4.25455E-03,  -4.17503E-03,   818.741E-06,   261.136E-06
C:/temp/dataset/3/19_7.odb,Step-1,Increment      1: Step Time =    1.000,"PART-1-1",           641,      -7.46939,      -23.8324,            0.,NA,NA,"",   4.21311E-03,  -4.14212E-03,   770.156E-06,   299.649E-06
C:/temp/dataset/3/19_7.odb,Step-1,Increment      1: Step Time =    1.000,"PART-1-1",           642,           15.,        -13.75,            0.,NA,NA,"",   234.718E-03,  -178.672E-03,   152.214E-03,   17.8997E-03
C:/temp/dataset/3/19_7.odb,Step-1,Increment      1: Step Time =    1.000,"PART-1-1",           643,       14.2106,      -12.3304,            0.,NA,NA,"",   270.639E-03,  -232.297E-03,   138.865E-03,   14.5370E-03
C:/temp/dataset/3/19_7.odb,Step-1,Increment      1: Step Time =    1.000,"PART-1-1",           644,       13.1387,      -13.2101,            0.,NA,NA,"",   205.520E-03,  -187.556E-03,   84.0326E-03,   9.50994E-03
C:/temp/dataset/3/19_7.odb,Step-1,Increment      1: Step Time =    1.000,"PART-1-1",           645,           15.,        -11.25,            0.,NA,NA,"",   347.390E-03,  -290.470E-03,   190.543E-03,   18.3053E-03
C:/temp/dataset/3/19_7.odb,Step-1,Increment      1: Step Time =    1.000,"PART-1-1",           646,           15.,         -6.25,            0.,NA,NA,"",   652.741E-03,  -597.527E-03,   262.740E-03,   16.8817E-03
C:/temp/dataset/3/19_7.odb,Step-1,Increment      1: Step Time =    1.000,"PART-1-1",           647,       14.0624,      -4.92369,            0.,NA,NA,"",   719.853E-03,  -689.176E-03,   207.905E-03,   12.2400E-03
C:/temp/dataset/3/19_7.odb,Step-1,Increment      1: Step Time =    1.000,"PART-1-1",           648,       12.9264,      -6.09194,            0.,NA,NA,"",   603.944E-03,  -592.068E-03,   119.178E-03,   8.53978E-03
C:/temp/dataset/3/19_7.odb,Step-1,Increment      1: Step Time =    1.000,"PART-1-1",           649,           15.,         -3.75,            0.,NA,NA,"",   843.732E-03,  -792.092E-03,   290.643E-03,   13.8623E-03
C:/temp/dataset/3/19_7.odb,Step-1,Increment      1: Step Time =    1.000,"PART-1-1",           650,       13.0440,      -3.68493,            0.,NA,NA,"",   794.105E-03,  -782.100E-03,   137.562E-03,   8.22383E-03
C:/temp/dataset/3/19_7.odb,Step-1,Increment      1: Step Time =    1.000,"PART-1-1",           651,       8.06094,   477.426E-03,            0.,NA,NA,"",       1.17561,      -1.14055,  -284.940E-03,   6.81537E-03
C:/temp/dataset/3/19_7.odb,Step-1,Increment      1: Step Time =    1.000,"PART-1-1",           652,       8.76493,       2.31856,            0.,NA,NA,"",       1.33491,      -1.31348,  -238.189E-03,   5.72396E-03
C:/temp/dataset/3/19_7.odb,Step-1,Increment      1: Step Time =    1.000,"PART-1-1",           653,       6.73548,       2.80805,            0.,NA,NA,"",       1.42416,      -1.35856,  -427.257E-03,   5.00370E-03
C:/temp/dataset/3/19_7.odb,Step-1,Increment      1: Step Time =    1.000,"PART-1-1",           654,       6.03149,   966.916E-03,            0.,NA,NA,"",       1.27835,      -1.18622,  -476.504E-03,   7.31142E-03
C:/temp/dataset/3/19_7.odb,Step-1,Increment      1: Step Time =    1.000,"PART-1-1",           655,            5.,          8.75,            0.,NA,NA,"",       1.99005,      -1.89105,  -619.870E-03,   445.298E-06
C:/temp/dataset/3/19_7.odb,Step-1,Increment      1: Step Time =    1.000,"PART-1-1",           656,       7.16919,       9.14751,            0.,NA,NA,"",       1.98208,      -1.93596,  -425.086E-03,   662.919E-06
C:/temp/dataset/3/19_7.odb,Step-1,Increment      1: Step Time =    1.000,"PART-1-1",           657,          3.75,           30.,            0.,NA,NA,"",       3.91050,      -3.82274,  -823.822E-03,   257.435E-09
C:/temp/dataset/3/19_7.odb,Step-1,Increment      1: Step Time =    1.000,"PART-1-1",           658,       3.71036,       27.5731,            0.,NA,NA,"",       3.69280,      -3.60122,  -817.321E-03,   188.885E-09
C:/temp/dataset/3/19_7.odb,Step-1,Increment      1: Step Time =    1.000,"PART-1-1",           659,       7.38617,       23.8490,            0.,NA,NA,"",       3.30991,      -3.27687,  -466.532E-03,   586.773E-09
C:/temp/dataset/3/19_7.odb,Step-1,Increment      1: Step Time =    1.000,"PART-1-1",           660,       6.16255,       25.1024,            0.,NA,NA,"",       3.43597,      -3.38609,  -583.361E-03,   264.118E-09
C:/temp/dataset/3/19_7.odb,Step-1,Increment      1: Step Time =    1.000,"PART-1-1",           661,       4.93576,       23.8439,            0.,NA,NA,"",       3.33828,      -3.26619,  -690.010E-03,   311.613E-09
C:/temp/dataset/3/19_7.odb,Step-1,Increment      1: Step Time =    1.000,"PART-1-1",           662,       6.15938,       22.5905,            0.,NA,NA,"",       3.20858,      -3.15697,  -573.180E-03,   543.067E-09
C:/temp/dataset/3/19_7.odb,Step-1,Increment      1: Step Time =    1.000,"PART-1-1",           663,      -10.0017,       23.7560,            0.,NA,NA,"",       3.79800,      -3.19591,      -2.05208,   8.08760E-09
C:/temp/dataset/3/19_7.odb,Step-1,Increment      1: Step Time =    1.000,"PART-1-1",           664,      -8.75135,       22.5073,            0.,NA,NA,"",       3.64236,      -3.08722,      -1.93283,   8.15434E-09
C:/temp/dataset/3/19_7.odb,Step-1,Increment      1: Step Time =    1.000,"PART-1-1",           665,      -10.0004,       21.2526,            0.,NA,NA,"",       3.60199,      -2.96758,      -2.04152,   7.68562E-09
C:/temp/dataset/3/19_7.odb,Step-1,Increment      1: Step Time =    1.000,"PART-1-1",           666,      -11.2505,       22.5043,            0.,NA,NA,"",       3.75951,      -3.07654,      -2.16076,   7.95812E-09
C:/temp/dataset/3/19_7.odb,Step-1,Increment      1: Step Time =    1.000,"PART-1-1",           667,        -11.25,           20.,            0.,NA,NA,"",       3.56868,      -2.84812,      -2.15028,   7.71774E-09
C:/temp/dataset/3/19_7.odb,Step-1,Increment      1: Step Time =    1.000,"PART-1-1",           668,         -8.75,           20.,            0.,NA,NA,"",       3.44476,      -2.85854,      -1.92225,   7.17221E-09
C:/temp/dataset/3/19_7.odb,Step-1,Increment      1: Step Time =    1.000,"PART-1-1",           669,       7.37456,       21.3253,            0.,NA,NA,"",       3.08073,      -3.04664,  -457.072E-03,   3.12306E-06
C:/temp/dataset/3/19_7.odb,Step-1,Increment      1: Step Time =    1.000,"PART-1-1",           670,      -1.26076,       25.0501,            0.,NA,NA,"",       3.57955,      -3.35038,      -1.26022,   63.4896E-09
C:/temp/dataset/3/19_7.odb,Step-1,Increment      1: Step Time =    1.000,"PART-1-1",           671,      -2.50213,       23.7814,            0.,NA,NA,"",       3.50734,      -3.22949,      -1.36815,   27.5801E-09
C:/temp/dataset/3/19_7.odb,Step-1,Increment      1: Step Time =    1.000,"PART-1-1",           672,          1.25,           20.,            0.,NA,NA,"",       3.07111,      -2.90023,      -1.01016,   139.933E-09
C:/temp/dataset/3/19_7.odb,Step-1,Increment      1: Step Time =    1.000,"PART-1-1",           673,            5.,         13.75,            0.,NA,NA,"",       2.43203,      -2.34579,  -641.906E-03,   87.9311E-06
C:/temp/dataset/3/19_7.odb,Step-1,Increment      1: Step Time =    1.000,"PART-1-1",           674,       7.85923,       4.51418,            0.,NA,NA,"",       1.55507,      -1.51807,  -337.190E-03,   4.41190E-03
C:/temp/dataset/3/19_7.odb,Step-1,Increment      1: Step Time =    1.000,"PART-1-1",           675,       9.45843,       7.45797,            0.,NA,NA,"",       1.80276,      -1.79066,  -208.508E-03,   1.29979E-03
C:/temp/dataset/3/19_7.odb,Step-1,Increment      1: Step Time =    1.000,"PART-1-1",           676,       11.3500,       8.04392,            0.,NA,NA,"",       1.85125,      -1.85084,  -38.9981E-03,   731.701E-06
C:/temp/dataset/3/19_7.odb,Step-1,Increment      1: Step Time =    1.000,"PART-1-1",           677,       10.2386,       8.70699,            0.,NA,NA,"",       1.91288,      -1.90751,  -143.300E-03,   550.325E-06
C:/temp/dataset/3/19_7.odb,Step-1,Increment      1: Step Time =    1.000,"PART-1-1",           678,   133.314E-03,       2.02047,            0.,NA,NA,"",       1.67604,      -1.27928,      -1.08285,   6.28318E-03
C:/temp/dataset/3/19_7.odb,Step-1,Increment      1: Step Time =    1.000,"PART-1-1",           679,       2.26054,       1.70692,            0.,NA,NA,"",       1.52135,      -1.25253,  -863.527E-03,   8.96303E-03
C:/temp/dataset/3/19_7.odb,Step-1,Increment      1: Step Time =    1.000,"PART-1-1",           680,  -583.333E-03,            5.,            0.,NA,NA,"",       1.95996,      -1.56205,      -1.18383,   5.93292E-03
C:/temp/dataset/3/19_7.odb,Step-1,Increment      1: Step Time =    1.000,"PART-1-1",           681,  -713.179E-03,       3.09316,            0.,NA,NA,"",       1.81384,      -1.38054,      -1.17649,   5.76854E-03
C:/temp/dataset/3/19_7.odb,Step-1,Increment      1: Step Time =    1.000,"PART-1-1",           682,      -10.2084,       1.19941,            0.,NA,NA,"",       2.38612,      -1.15435,      -2.08831,   106.326E-06
C:/temp/dataset/3/19_7.odb,Step-1,Increment      1: Step Time =    1.000,"PART-1-1",           683,      -7.18333,           -5.,            0.,NA,NA,"",       1.85070,  -562.197E-03,      -1.76324,   330.502E-06
C:/temp/dataset/3/19_7.odb,Step-1,Increment      1: Step Time =    1.000,"PART-1-1",           684,      -7.36178,      -2.99006,            0.,NA,NA,"",       1.94444,  -758.258E-03,      -1.79050,   259.304E-06
C:/temp/dataset/3/19_7.odb,Step-1,Increment      1: Step Time =    1.000,"PART-1-1",           685,      -11.3125,  -91.5578E-03,            0.,NA,NA,"",       2.41722,      -1.02282,      -2.19015,   87.6191E-06
C:/temp/dataset/3/19_7.odb,Step-1,Increment      1: Step Time =    1.000,"PART-1-1",           686,      -11.6500,           -5.,            0.,NA,NA,"",       2.26536,  -541.338E-03,      -2.19973,   33.3154E-06
C:/temp/dataset/3/19_7.odb,Step-1,Increment      1: Step Time =    1.000,"PART-1-1",           687,      -11.6245,      -2.63993,            0.,NA,NA,"",       2.33963,  -772.153E-03,      -2.20854,   67.2266E-06
C:/temp/dataset/3/19_7.odb,Step-1,Increment      1: Step Time =    1.000,"PART-1-1",           688,      -1.03706,       1.18772,            0.,NA,NA,"",       1.68892,      -1.19648,      -1.19202,   3.58683E-03
C:/temp/dataset/3/19_7.odb,Step-1,Increment      1: Step Time =    1.000,"PART-1-1",           689,      -2.26684,   407.252E-03,            0.,NA,NA,"",       1.71959,      -1.11611,      -1.30816,   1.54000E-03
C:/temp/dataset/3/19_7.odb,Step-1,Increment      1: Step Time =    1.000,"PART-1-1",           690,      -1.61706,  -775.207E-03,            0.,NA,NA,"",       1.59280,      -1.00384,      -1.23665,   1.87959E-03
C:/temp/dataset/3/19_7.odb,Step-1,Increment      1: Step Time =    1.000,"PART-1-1",           691,      -4.44627,  -189.662E-03,            0.,NA,NA,"",       1.84487,      -1.04740,      -1.51871,   361.637E-06
C:/temp/dataset/3/19_7.odb,Step-1,Increment      1: Step Time =    1.000,"PART-1-1",           692,      -3.83065,   850.686E-03,            0.,NA,NA,"",       1.86278,      -1.15213,      -1.46374,   479.975E-06
C:/temp/dataset/3/19_7.odb,Step-1,Increment      1: Step Time =    1.000,"PART-1-1",           693,      -5.38306,   384.196E-03,            0.,NA,NA,"",       1.95171,      -1.09880,      -1.61302,   341.443E-06
C:/temp/dataset/3/19_7.odb,Step-1,Increment      1: Step Time =    1.000,"PART-1-1",           694,       3.90000,           -5.,            0.,NA,NA,"",   887.213E-03,  -621.551E-03,  -633.104E-03,   14.8833E-03
C:/temp/dataset/3/19_7.odb,Step-1,Increment      1: Step Time =    1.000,"PART-1-1",           695,       5.25667,      -4.01677,            0.,NA,NA,"",   875.197E-03,  -732.557E-03,  -478.885E-03,   21.7978E-03
C:/temp/dataset/3/19_7.odb,Step-1,Increment      1: Step Time =    1.000,"PART-1-1",           696,       4.24316,      -3.18705,            0.,NA,NA,"",       1.00639,  -805.084E-03,  -603.878E-03,   12.3466E-03
C:/temp/dataset/3/19_7.odb,Step-1,Increment      1: Step Time =    1.000,"PART-1-1",           697,       9.51721,      -4.82762,            0.,NA,NA,"",   683.174E-03,  -672.194E-03,  -121.996E-03,   5.77071E-03
C:/temp/dataset/3/19_7.odb,Step-1,Increment      1: Step Time =    1.000,"PART-1-1",           698,       8.04384,      -4.93500,            0.,NA,NA,"",   697.963E-03,  -658.625E-03,  -231.011E-03,   9.10581E-03
C:/temp/dataset/3/19_7.odb,Step-1,Increment      1: Step Time =    1.000,"PART-1-1",           699,       8.61490,      -6.56470,            0.,NA,NA,"",   568.697E-03,  -541.462E-03,  -173.884E-03,   7.36241E-03
C:/temp/dataset/3/19_7.odb,Step-1,Increment      1: Step Time =    1.000,"PART-1-1",           700,       10.0883,      -6.45732,            0.,NA,NA,"",   557.109E-03,  -552.152E-03,  -74.1513E-03,   3.31166E-03
C:/temp/dataset/3/19_7.odb,Step-1,Increment      1: Step Time =    1.000,"PART-1-1",           701,       9.29828,      -8.00429,            0.,NA,NA,"",   462.673E-03,  -447.607E-03,  -117.106E-03,   6.06397E-03
C:/temp/dataset/3/19_7.odb,Step-1,Increment      1: Step Time =    1.000,"PART-1-1",           702,       6.27674,      -21.4047,            0.,NA,NA,"",   61.8899E-03,   2.07147E-03,  -61.8552E-03,   14.2038E-03
C:/temp/dataset/3/19_7.odb,Step-1,Increment      1: Step Time =    1.000,"PART-1-1",           703,       7.27122,      -20.3583,            0.,NA,NA,"",   65.1061E-03,   1.11490E-03,  -65.0966E-03,   11.5193E-03
C:/temp/dataset/3/19_7.odb,Step-1,Increment      1: Step Time =    1.000,"PART-1-1",           704,         -6.25,          -20.,            0.,NA,NA,"",   3.26192E-03,  -3.18781E-03,   691.359E-06,   442.425E-06
C:/temp/dataset/3/19_7.odb,Step-1,Increment      1: Step Time =    1.000,"PART-1-1",           705,         -1.25,          -30.,            0.,NA,NA,"",            0.,  -1.98016E-39,  -2.88668E-39,   2.48990E-03
C:/temp/dataset/3/19_7.odb,Step-1,Increment      1: Step Time =    1.000,"PART-1-1",           706,       8.60683,      -25.8105,            0.,NA,NA,"",   20.3876E-03,   13.9420E-03,  -14.8753E-03,   6.39949E-03
C:/temp/dataset/3/19_7.odb,Step-1,Increment      1: Step Time =    1.000,"PART-1-1",           707,       7.41490,      -26.9159,            0.,NA,NA,"",   15.1221E-03,   8.40271E-03,  -12.5726E-03,   6.55688E-03
C:/temp/dataset/3/19_7.odb,Step-1,Increment      1: Step Time =    1.000,"PART-1-1",           708,       6.17638,      -25.8614,            0.,NA,NA,"",   21.0379E-03,   4.83818E-03,  -20.4740E-03,   7.29979E-03
C:/temp/dataset/3/19_7.odb,Step-1,Increment      1: Step Time =    1.000,"PART-1-1",           709,       7.37219,      -25.0876,            0.,NA,NA,"",   25.8519E-03,   10.1971E-03,  -23.7559E-03,   8.40821E-03
C:/temp/dataset/3/19_7.odb,Step-1,Increment      1: Step Time =    1.000,"PART-1-1",           710,       6.30743,      -24.1068,            0.,NA,NA,"",   34.1335E-03,   5.08331E-03,  -33.7529E-03,   9.24057E-03
C:/temp/dataset/3/19_7.odb,Step-1,Increment      1: Step Time =    1.000,"PART-1-1",           711,   113.079E-03,      -23.9373,            0.,NA,NA,"",   11.7820E-03,  -8.10420E-03,  -8.55203E-03,   2.42114E-03
C:/temp/dataset/3/19_7.odb,Step-1,Increment      1: Step Time =    1.000,"PART-1-1",           712,      -2.43554,      -23.8906,            0.,NA,NA,"",   6.76170E-03,  -6.42485E-03,  -2.10758E-03,   834.467E-06
C:/temp/dataset/3/19_7.odb,Step-1,Increment      1: Step Time =    1.000,"PART-1-1",           713,      -8.72529,      -25.0755,            0.,NA,NA,"",   3.64646E-03,  -3.60851E-03,   524.717E-06,   375.860E-06
C:/temp/dataset/3/19_7.odb,Step-1,Increment      1: Step Time =    1.000,"PART-1-1",           714,      -9.97606,      -23.8175,            0.,NA,NA,"",   3.65281E-03,  -3.61156E-03,   547.402E-06,   159.700E-06
C:/temp/dataset/3/19_7.odb,Step-1,Increment      1: Step Time =    1.000,"PART-1-1",           715,      -9.99641,      -28.7682,            0.,NA,NA,"",   1.07672E-03,  -1.07665E-03,  -11.7900E-06,   540.531E-06
C:/temp/dataset/3/19_7.odb,Step-1,Increment      1: Step Time =    1.000,"PART-1-1",           716,      -11.2465,      -27.5281,            0.,NA,NA,"",   1.80491E-03,  -1.80465E-03,   30.9405E-06,   428.941E-06
C:/temp/dataset/3/19_7.odb,Step-1,Increment      1: Step Time =    1.000,"PART-1-1",           717,        -11.25,          -30.,            0.,NA,NA,"",            0.,  -468.583E-42,  -179.588E-42,   503.866E-06
C:/temp/dataset/3/19_7.odb,Step-1,Increment      1: Step Time =    1.000,"PART-1-1",           718,         -8.75,          -30.,            0.,NA,NA,"",            0.,  -684.998E-42,  -237.262E-42,   749.859E-06
C:/temp/dataset/3/19_7.odb,Step-1,Increment      1: Step Time =    1.000,"PART-1-1",           719,      -8.73783,      -27.5479,            0.,NA,NA,"",   2.33645E-03,  -2.33419E-03,   102.706E-06,   616.458E-06
C:/temp/dataset/3/19_7.odb,Step-1,Increment      1: Step Time =    1.000,"PART-1-1",           720,       9.45286,      -20.3748,            0.,NA,NA,"",   32.2371E-03,   3.39468E-03,  -32.0578E-03,   6.39234E-03
C:/temp/dataset/3/19_7.odb,Step-1,Increment      1: Step Time =    1.000,"PART-1-1",           721,       8.38706,      -19.4374,            0.,NA,NA,"",   56.3172E-03,  -8.72093E-03,  -55.6379E-03,   7.72684E-03
C:/temp/dataset/3/19_7.odb,Step-1,Increment      1: Step Time =    1.000,"PART-1-1",           722,       8.33702,      -21.2957,            0.,NA,NA,"",   45.2521E-03,   8.92647E-03,  -44.3629E-03,   9.12810E-03
C:/temp/dataset/3/19_7.odb,Step-1,Increment      1: Step Time =    1.000,"PART-1-1",           723,       9.34035,      -18.0986,            0.,NA,NA,"",   53.5216E-03,  -30.8148E-03,  -43.7609E-03,   5.71125E-03
C:/temp/dataset/3/19_7.odb,Step-1,Increment      1: Step Time =    1.000,"PART-1-1",           724,       10.7511,      -19.4747,            0.,NA,NA,"",   12.3887E-03,  -7.60139E-03,  -9.78251E-03,   3.95736E-03
C:/temp/dataset/3/19_7.odb,Step-1,Increment      1: Step Time =    1.000,"PART-1-1",           725,       9.57777,      -9.07511,            0.,NA,NA,"",   394.602E-03,  -383.527E-03,  -92.8320E-03,   5.55407E-03
C:/temp/dataset/3/19_7.odb,Step-1,Increment      1: Step Time =    1.000,"PART-1-1",           726,       10.3854,      -7.79904,            0.,NA,NA,"",   464.831E-03,  -462.148E-03,  -49.8727E-03,   2.32996E-03
C:/temp/dataset/3/19_7.odb,Step-1,Increment      1: Step Time =    1.000,"PART-1-1",           727,       11.9371,      -7.89361,            0.,NA,NA,"",   464.301E-03,  -461.847E-03,   47.6773E-03,   4.85999E-03
C:/temp/dataset/3/19_7.odb,Step-1,Increment      1: Step Time =    1.000,"PART-1-1",           728,       11.6400,      -6.55190,            0.,NA,NA,"",   552.312E-03,  -551.470E-03,   30.4804E-03,   4.71869E-03
C:/temp/dataset/3/19_7.odb,Step-1,Increment      1: Step Time =    1.000,"PART-1-1",           729,       9.29748,       3.92298,            0.,NA,NA,"",       1.47829,      -1.46438,  -202.290E-03,   4.36711E-03
C:/temp/dataset/3/19_7.odb,Step-1,Increment      1: Step Time =    1.000,"PART-1-1",           730,       10.7408,       1.93669,            0.,NA,NA,"",       1.28215,      -1.28063,  -62.4193E-03,   5.06533E-03
C:/temp/dataset/3/19_7.odb,Step-1,Increment      1: Step Time =    1.000,"PART-1-1",           731,       12.1175,       9.30164,            0.,NA,NA,"",       1.96935,      -1.96918,   25.6126E-03,   236.766E-06
C:/temp/dataset/3/19_7.odb,Step-1,Increment      1: Step Time =    1.000,"PART-1-1",           732,       12.3743,       7.25826,            0.,NA,NA,"",       1.78331,      -1.78237,   57.8031E-03,   797.225E-06
C:/temp/dataset/3/19_7.odb,Step-1,Increment      1: Step Time =    1.000,"PART-1-1",           733,       9.86952,       23.8294,            0.,NA,NA,"",       3.29419,      -3.28544,  -239.948E-03,   915.920E-09
C:/temp/dataset/3/19_7.odb,Step-1,Increment      1: Step Time =    1.000,"PART-1-1",           734,       8.61965,       22.5851,            0.,NA,NA,"",       3.18588,      -3.16673,  -348.760E-03,   1.19492E-06
C:/temp/dataset/3/19_7.odb,Step-1,Increment      1: Step Time =    1.000,"PART-1-1",           735,         11.25,           30.,            0.,NA,NA,"",       3.85653,      -3.85400,  -139.758E-03,   313.462E-09
C:/temp/dataset/3/19_7.odb,Step-1,Increment      1: Step Time =    1.000,"PART-1-1",           736,       9.97488,       28.7673,            0.,NA,NA,"",       3.74467,      -3.73625,  -250.921E-03,   285.781E-09
C:/temp/dataset/3/19_7.odb,Step-1,Increment      1: Step Time =    1.000,"PART-1-1",           737,          8.75,           30.,            0.,NA,NA,"",       3.86113,      -3.84358,  -367.778E-03,   467.443E-09
C:/temp/dataset/3/19_7.odb,Step-1,Increment      1: Step Time =    1.000,"PART-1-1",           738,       3.69885,       25.0915,            0.,NA,NA,"",       3.47021,      -3.37482,  -808.028E-03,   243.740E-09
C:/temp/dataset/3/19_7.odb,Step-1,Increment      1: Step Time =    1.000,"PART-1-1",           739,       4.94207,       26.3392,            0.,NA,NA,"",       3.56321,      -3.49381,  -699.836E-03,   192.927E-09
C:/temp/dataset/3/19_7.odb,Step-1,Increment      1: Step Time =    1.000,"PART-1-1",           740,         -6.25,           30.,            0.,NA,NA,"",       4.16050,      -3.78106,      -1.73591,   6.92898E-09
C:/temp/dataset/3/19_7.odb,Step-1,Increment      1: Step Time =    1.000,"PART-1-1",           741,      -11.2519,       25.0060,            0.,NA,NA,"",       3.95420,      -3.30471,      -2.17132,   8.08193E-09
C:/temp/dataset/3/19_7.odb,Step-1,Increment      1: Step Time =    1.000,"PART-1-1",           742,       11.7111,      -12.1867,            0.,NA,NA,"",   227.631E-03,  -226.084E-03,   26.4922E-03,   3.21452E-03
C:/temp/dataset/3/19_7.odb,Step-1,Increment      1: Step Time =    1.000,"PART-1-1",           743,       12.0443,      -13.4388,            0.,NA,NA,"",   177.809E-03,  -173.761E-03,   37.7264E-03,   4.63472E-03
C:/temp/dataset/3/19_7.odb,Step-1,Increment      1: Step Time =    1.000,"PART-1-1",           744,       9.07309,      -22.0228,            0.,NA,NA,"",   33.8051E-03,   13.7775E-03,  -30.8702E-03,   7.86406E-03
C:/temp/dataset/3/19_7.odb,Step-1,Increment      1: Step Time =    1.000,"PART-1-1",           745,       9.10959,      -23.2638,            0.,NA,NA,"",   29.4860E-03,   16.6216E-03,  -24.3546E-03,   7.81633E-03
C:/temp/dataset/3/19_7.odb,Step-1,Increment      1: Step Time =    1.000,"PART-1-1",           746,       10.5828,      -23.1781,            0.,NA,NA,"",   21.3095E-03,   18.9413E-03,  -9.76314E-03,   5.69209E-03
C:/temp/dataset/3/19_7.odb,Step-1,Increment      1: Step Time =    1.000,"PART-1-1",           747,       10.5463,      -21.9372,            0.,NA,NA,"",   19.0778E-03,   14.9604E-03,  -11.8384E-03,   5.76132E-03
C:/temp/dataset/3/19_7.odb,Step-1,Increment      1: Step Time =    1.000,"PART-1-1",           748,      -1.00841,      -2.00181,            0.,NA,NA,"",       1.46703,  -886.817E-03,      -1.16865,   1.75185E-03
C:/temp/dataset/3/19_7.odb,Step-1,Increment      1: Step Time =    1.000,"PART-1-1",           749,      -3.17395,      -1.50818,            0.,NA,NA,"",       1.66692,  -924.379E-03,      -1.38714,   484.884E-06
C:/temp/dataset/3/19_7.odb,Step-1,Increment      1: Step Time =    1.000,"PART-1-1",           750,       8.23699,       8.20647,            0.,NA,NA,"",       1.88267,      -1.85463,  -323.716E-03,   817.767E-06
C:/temp/dataset/3/19_7.odb,Step-1,Increment      1: Step Time =    1.000,"PART-1-1",           751,       8.58975,       6.06422,            0.,NA,NA,"",       1.68441,      -1.66093,  -280.309E-03,   2.69189E-03
C:/temp/dataset/3/19_7.odb,Step-1,Increment      1: Step Time =    1.000,"PART-1-1",           752,       1.04870,      -2.29850,            0.,NA,NA,"",       1.29230,  -869.259E-03,  -956.259E-03,   4.75432E-03
C:/temp/dataset/3/19_7.odb,Step-1,Increment      1: Step Time =    1.000,"PART-1-1",           753,      -1.88356,       2.26041,            0.,NA,NA,"",       1.82455,      -1.29738,      -1.28288,   2.69014E-03
C:/temp/dataset/3/19_7.odb,Step-1,Increment      1: Step Time =    1.000,"PART-1-1",           754,      -2.91638,       1.44829,            0.,NA,NA,"",       1.83680,      -1.21458,      -1.37791,   1.17017E-03
C:/temp/dataset/3/19_7.odb,Step-1,Increment      1: Step Time =    1.000,"PART-1-1",           755,       3.03453,      -2.52132,            0.,NA,NA,"",       1.13771,  -860.291E-03,  -744.506E-03,   9.96813E-03
C:/temp/dataset/3/19_7.odb,Step-1,Increment      1: Step Time =    1.000,"PART-1-1",           756,       6.99799,      -3.46075,            0.,NA,NA,"",   848.142E-03,  -780.679E-03,  -331.491E-03,   11.8113E-03
C:/temp/dataset/3/19_7.odb,Step-1,Increment      1: Step Time =    1.000,"PART-1-1",           757,       7.63560,  -984.386E-03,            0.,NA,NA,"",       1.05150,      -1.00550,  -307.631E-03,   8.64767E-03
C:/temp/dataset/3/19_7.odb,Step-1,Increment      1: Step Time =    1.000,"PART-1-1",           758,       6.14771,      -1.67534,            0.,NA,NA,"",       1.03826,  -943.278E-03,  -433.825E-03,   11.4274E-03
C:/temp/dataset/3/19_7.odb,Step-1,Increment      1: Step Time =    1.000,"PART-1-1",           759,       4.94795,      -26.8240,            0.,NA,NA,"",   14.2108E-03,   422.045E-06,  -14.2045E-03,   6.61072E-03
C:/temp/dataset/3/19_7.odb,Step-1,Increment      1: Step Time =    1.000,"PART-1-1",           760,      -11.2341,      -25.0541,            0.,NA,NA,"",   3.09451E-03,  -3.08734E-03,   210.433E-06,   196.069E-06
C:/temp/dataset/3/19_7.odb,Step-1,Increment      1: Step Time =    1.000,"PART-1-1",           761,      -9.98574,      -26.3021,            0.,NA,NA,"",   2.78414E-03,  -2.77359E-03,   242.070E-06,   379.441E-06
C:/temp/dataset/3/19_7.odb,Step-1,Increment      1: Step Time =    1.000,"PART-1-1",           762,           15.,        -26.25,            0.,NA,NA,"",   14.9266E-03,   13.4335E-03,   6.50737E-03,   5.26219E-03
C:/temp/dataset/3/19_7.odb,Step-1,Increment      1: Step Time =    1.000,"PART-1-1",           763,       9.63478,      -24.7731,            0.,NA,NA,"",   22.6249E-03,   17.9877E-03,  -13.7233E-03,   6.62748E-03
C:/temp/dataset/3/19_7.odb,Step-1,Increment      1: Step Time =    1.000,"PART-1-1",           764,       9.83383,   250.169E-03,            0.,NA,NA,"",       1.12833,      -1.12084,  -129.759E-03,   6.62544E-03
C:/temp/dataset/3/19_7.odb,Step-1,Increment      1: Step Time =    1.000,"PART-1-1",           765,       11.1222,       22.5628,            0.,NA,NA,"",       3.17741,      -3.17513,  -120.418E-03,   1.27733E-06
C:/temp/dataset/3/19_7.odb,Step-1,Increment      1: Step Time =    1.000,"PART-1-1",           766,       9.84566,       21.3197,            0.,NA,NA,"",       3.06520,      -3.05643,  -231.666E-03,   4.20297E-06
C:/temp/dataset/3/19_7.odb,Step-1,Increment      1: Step Time =    1.000,"PART-1-1",           767,      -3.18112,  -190.353E-03,            0.,NA,NA,"",       1.74793,      -1.05358,      -1.39472,   704.378E-06
C:/temp/dataset/3/19_7.odb,Step-1,Increment      1: Step Time =    1.000,"PART-1-1",           768,       4.54417,       1.21940,            0.,NA,NA,"",       1.36122,      -1.20930,  -624.904E-03,   8.08070E-03
C:/temp/dataset/3/19_7.odb,Step-1,Increment      1: Step Time =    1.000,"PART-1-1",           769,       9.22107,       9.51460,            0.,NA,NA,"",       1.99172,      -1.97725,  -239.645E-03,   366.672E-06
C:/temp/dataset/3/19_7.odb,Step-1,Increment      1: Step Time =    1.000,"PART-1-1",           770,       11.1709,      -3.71800,            0.,NA,NA,"",   769.354E-03,  -769.344E-03,  -4.00205E-03,   6.02029E-03
C:/temp/dataset/3/19_7.odb,Step-1,Increment      1: Step Time =    1.000,"PART-1-1",           771,       11.0221,      -5.16095,            0.,NA,NA,"",   652.024E-03,  -651.903E-03,  -12.5836E-03,   4.76117E-03
C:/temp/dataset/3/19_7.odb,Step-1,Increment      1: Step Time =    1.000,"PART-1-1",           772,       12.3085,      -4.70099,            0.,NA,NA,"",   699.287E-03,  -694.685E-03,   80.0881E-03,   7.04751E-03
C:/temp/dataset/3/19_7.odb,Step-1,Increment      1: Step Time =    1.000,"PART-1-1",           773,       5.03877,      -2.41022,            0.,NA,NA,"",       1.02538,  -877.001E-03,  -531.292E-03,   13.8245E-03
C:/temp/dataset/3/19_7.odb,Step-1,Increment      1: Step Time =    1.000,"PART-1-1",           774,       11.0080,       9.74440,            0.,NA,NA,"",       2.00678,      -2.00528,  -77.5888E-03,   237.776E-06
C:/temp/dataset/3/19_7.odb,Step-1,Increment      1: Step Time =    1.000,"PART-1-1",           775,       7.33953,      -23.4839,            0.,NA,NA,"",   37.4055E-03,   9.98830E-03,  -36.0473E-03,   10.1263E-03
C:/temp/dataset/3/19_7.odb,Step-1,Increment      1: Step Time =    1.000,"PART-1-1",           776,       6.60048,      -22.7490,            0.,NA,NA,"",   46.0838E-03,   5.19715E-03,  -45.7898E-03,   11.5080E-03
C:/temp/dataset/3/19_7.odb,Step-1,Increment      1: Step Time =    1.000,"PART-1-1",           777,       5.56839,      -23.3719,            0.,NA,NA,"",   39.9377E-03,   748.016E-06,  -39.9307E-03,   10.9648E-03
C:/temp/dataset/3/19_7.odb,Step-1,Increment      1: Step Time =    1.000,"PART-1-1",           778,       5.56431,      -22.1833,            0.,NA,NA,"",   51.8483E-03,  -1.36563E-03,  -51.8303E-03,   13.1229E-03
C:/temp/dataset/3/19_7.odb,Step-1,Increment      1: Step Time =    1.000,"PART-1-1",           779,       7.31291,      -21.9704,            0.,NA,NA,"",   50.4705E-03,   8.01676E-03,  -49.8297E-03,   11.4215E-03
C:/temp/dataset/3/19_7.odb,Step-1,Increment      1: Step Time =    1.000,"PART-1-1",           780,       8.04898,      -22.6975,            0.,NA,NA,"",   39.5490E-03,   12.5538E-03,  -37.5037E-03,   9.40493E-03
C:/temp/dataset/3/19_7.odb,Step-1,Increment      1: Step Time =    1.000,"PART-1-1",           781,       5.89213,  -472.373E-03,            0.,NA,NA,"",       1.15489,      -1.05340,  -473.413E-03,   8.73834E-03
C:/temp/dataset/3/19_7.odb,Step-1,Increment      1: Step Time =    1.000,"PART-1-1",           782,       8.40014,      -24.0502,            0.,NA,NA,"",   29.6123E-03,   14.7683E-03,  -25.6668E-03,   7.92080E-03
