ODB Name,Step,Frame,Part Instance Name,    êﬂì_ÉâÉxÉã,X,Y,Z,Section Name,Material Name,Section Point,   U-Magnitude,          U-U1,          U-U2,       S-Mises
C:/temp/dataset/3/19_8.odb,Step-1,Increment      1: Step Time =    1.000,"PART-1-1",             1,          -15.,           20.,            0.,NA,NA,"",       4.26357,      -3.18069,      -2.83923,   95.3687E-12
C:/temp/dataset/3/19_8.odb,Step-1,Increment      1: Step Time =    1.000,"PART-1-1",             2,          -15.,           25.,            0.,NA,NA,"",       4.67758,      -3.69678,      -2.86594,   435.223E-12
C:/temp/dataset/3/19_8.odb,Step-1,Increment      1: Step Time =    1.000,"PART-1-1",             3,           -5.,           20.,            0.,NA,NA,"",       3.70471,      -3.23410,      -1.80706,   4.90869E-09
C:/temp/dataset/3/19_8.odb,Step-1,Increment      1: Step Time =    1.000,"PART-1-1",             4,            5.,           20.,            0.,NA,NA,"",       3.37760,      -3.28751,  -774.894E-03,   2.52148E-06
C:/temp/dataset/3/19_8.odb,Step-1,Increment      1: Step Time =    1.000,"PART-1-1",             5,            5.,          12.5,            0.,NA,NA,"",       2.61860,      -2.51347,  -734.511E-03,   164.675E-06
C:/temp/dataset/3/19_8.odb,Step-1,Increment      1: Step Time =    1.000,"PART-1-1",             6,            5.,            5.,            0.,NA,NA,"",       1.89175,      -1.75682,  -701.643E-03,   12.2266E-03
C:/temp/dataset/3/19_8.odb,Step-1,Increment      1: Step Time =    1.000,"PART-1-1",             7,      -1.70000,            5.,            0.,NA,NA,"",       2.28003,      -1.74625,      -1.46600,   4.47804E-03
C:/temp/dataset/3/19_8.odb,Step-1,Increment      1: Step Time =    1.000,"PART-1-1",             8,      -8.40000,            5.,            0.,NA,NA,"",       2.78537,      -1.71453,      -2.19514,   245.902E-06
C:/temp/dataset/3/19_8.odb,Step-1,Increment      1: Step Time =    1.000,"PART-1-1",             9,          -15.,            5.,            0.,NA,NA,"",       3.37119,      -1.67425,      -2.92605,   4.10185E-06
C:/temp/dataset/3/19_8.odb,Step-1,Increment      1: Step Time =    1.000,"PART-1-1",            10,          -15.,            0.,            0.,NA,NA,"",       3.10471,      -1.12075,      -2.89537,   24.1437E-06
C:/temp/dataset/3/19_8.odb,Step-1,Increment      1: Step Time =    1.000,"PART-1-1",            11,          -15.,           -5.,            0.,NA,NA,"",       2.92031,  -567.234E-03,      -2.86469,   3.59813E-06
C:/temp/dataset/3/19_8.odb,Step-1,Increment      1: Step Time =    1.000,"PART-1-1",            12,      -8.30000,           -5.,            0.,NA,NA,"",       2.20856,  -608.073E-03,      -2.12320,   220.004E-06
C:/temp/dataset/3/19_8.odb,Step-1,Increment      1: Step Time =    1.000,"PART-1-1",            13,      -1.60000,           -5.,            0.,NA,NA,"",       1.51926,  -644.980E-03,      -1.37556,   1.16762E-03
C:/temp/dataset/3/19_8.odb,Step-1,Increment      1: Step Time =    1.000,"PART-1-1",            14,            5.,           -5.,            0.,NA,NA,"",   903.518E-03,  -713.192E-03,  -554.709E-03,   40.8065E-03
C:/temp/dataset/3/19_8.odb,Step-1,Increment      1: Step Time =    1.000,"PART-1-1",            15,            5.,         -12.5,            0.,NA,NA,"",   408.135E-03,  -265.191E-03,  -310.238E-03,   30.3659E-03
C:/temp/dataset/3/19_8.odb,Step-1,Increment      1: Step Time =    1.000,"PART-1-1",            16,            5.,          -20.,            0.,NA,NA,"",   90.0931E-03,  -3.50969E-03,  -90.0247E-03,   32.9394E-03
C:/temp/dataset/3/19_8.odb,Step-1,Increment      1: Step Time =    1.000,"PART-1-1",            17,           -5.,          -20.,            0.,NA,NA,"",   2.44216E-03,  -2.43020E-03,   241.389E-06,   703.206E-06
C:/temp/dataset/3/19_8.odb,Step-1,Increment      1: Step Time =    1.000,"PART-1-1",            18,          -15.,          -20.,            0.,NA,NA,"",   4.41857E-03,  -4.37548E-03,  -615.568E-06,   9.17757E-06
C:/temp/dataset/3/19_8.odb,Step-1,Increment      1: Step Time =    1.000,"PART-1-1",            19,          -15.,          -25.,            0.,NA,NA,"",   3.09717E-03,  -2.98890E-03,  -811.766E-06,   83.5364E-06
C:/temp/dataset/3/19_8.odb,Step-1,Increment      1: Step Time =    1.000,"PART-1-1",            20,          -15.,          -30.,            0.,NA,NA,"",            0.,  -253.387E-42,  -393.244E-42,   757.736E-06
C:/temp/dataset/3/19_8.odb,Step-1,Increment      1: Step Time =    1.000,"PART-1-1",            21,           15.,          -30.,            0.,NA,NA,"",            0.,   1.16352E-39,  -1.35970E-39,   3.17739E-03
C:/temp/dataset/3/19_8.odb,Step-1,Increment      1: Step Time =    1.000,"PART-1-1",            22,           15.,         -22.5,            0.,NA,NA,"",   37.8537E-03,   10.2457E-03,   36.4407E-03,   11.8747E-03
C:/temp/dataset/3/19_8.odb,Step-1,Increment      1: Step Time =    1.000,"PART-1-1",            23,           15.,          -15.,            0.,NA,NA,"",   207.992E-03,  -146.321E-03,   147.820E-03,   19.9398E-03
C:/temp/dataset/3/19_8.odb,Step-1,Increment      1: Step Time =    1.000,"PART-1-1",            24,           15.,          -7.5,            0.,NA,NA,"",   633.665E-03,  -571.053E-03,   274.646E-03,   20.4036E-03
C:/temp/dataset/3/19_8.odb,Step-1,Increment      1: Step Time =    1.000,"PART-1-1",            25,           15.,            0.,            0.,NA,NA,"",       1.30886,      -1.26198,   347.160E-03,   8.38043E-03
C:/temp/dataset/3/19_8.odb,Step-1,Increment      1: Step Time =    1.000,"PART-1-1",            26,           15.,           7.5,            0.,NA,NA,"",       2.07431,      -2.04863,   325.368E-03,   73.9284E-06
C:/temp/dataset/3/19_8.odb,Step-1,Increment      1: Step Time =    1.000,"PART-1-1",            27,           15.,           15.,            0.,NA,NA,"",       2.83916,      -2.82492,   284.041E-03,   57.4465E-06
C:/temp/dataset/3/19_8.odb,Step-1,Increment      1: Step Time =    1.000,"PART-1-1",            28,           15.,          22.5,            0.,NA,NA,"",       3.60723,      -3.59898,   243.904E-03,   820.595E-09
C:/temp/dataset/3/19_8.odb,Step-1,Increment      1: Step Time =    1.000,"PART-1-1",            29,           15.,           30.,            0.,NA,NA,"",       4.37784,      -4.37309,   203.850E-03,   36.9873E-09
C:/temp/dataset/3/19_8.odb,Step-1,Increment      1: Step Time =    1.000,"PART-1-1",            30,           7.5,           30.,            0.,NA,NA,"",       4.37040,      -4.33303,  -570.266E-03,   553.419E-09
C:/temp/dataset/3/19_8.odb,Step-1,Increment      1: Step Time =    1.000,"PART-1-1",            31,            0.,           30.,            0.,NA,NA,"",       4.49856,      -4.29298,      -1.34439,   58.5462E-09
C:/temp/dataset/3/19_8.odb,Step-1,Increment      1: Step Time =    1.000,"PART-1-1",            32,          -7.5,           30.,            0.,NA,NA,"",       4.75136,      -4.25292,      -2.11852,   2.82986E-09
C:/temp/dataset/3/19_8.odb,Step-1,Increment      1: Step Time =    1.000,"PART-1-1",            33,          -15.,           30.,            0.,NA,NA,"",       5.11034,      -4.21286,      -2.89264,   90.0128E-12
C:/temp/dataset/3/19_8.odb,Step-1,Increment      1: Step Time =    1.000,"PART-1-1",            34,          -15.,          22.5,            0.,NA,NA,"",       4.46790,      -3.43873,      -2.85258,   188.429E-12
C:/temp/dataset/3/19_8.odb,Step-1,Increment      1: Step Time =    1.000,"PART-1-1",            35,          -7.5,           20.,            0.,NA,NA,"",       3.82595,      -3.22075,      -2.06510,   3.00812E-09
C:/temp/dataset/3/19_8.odb,Step-1,Increment      1: Step Time =    1.000,"PART-1-1",            36,          -10.,           20.,            0.,NA,NA,"",       3.96035,      -3.20740,      -2.32315,   1.17990E-09
C:/temp/dataset/3/19_8.odb,Step-1,Increment      1: Step Time =    1.000,"PART-1-1",            37,         -12.5,           20.,            0.,NA,NA,"",       4.10664,      -3.19404,      -2.58119,   248.682E-12
C:/temp/dataset/3/19_8.odb,Step-1,Increment      1: Step Time =    1.000,"PART-1-1",            38,           2.5,           20.,            0.,NA,NA,"",       3.43323,      -3.27416,      -1.03294,   376.924E-09
C:/temp/dataset/3/19_8.odb,Step-1,Increment      1: Step Time =    1.000,"PART-1-1",            39,            0.,           20.,            0.,NA,NA,"",       3.50706,      -3.26081,      -1.29098,   105.381E-09
C:/temp/dataset/3/19_8.odb,Step-1,Increment      1: Step Time =    1.000,"PART-1-1",            40,          -2.5,           20.,            0.,NA,NA,"",       3.59798,      -3.24746,      -1.54902,   9.88788E-09
C:/temp/dataset/3/19_8.odb,Step-1,Increment      1: Step Time =    1.000,"PART-1-1",            41,            5.,           15.,            0.,NA,NA,"",       2.87060,      -2.77140,  -748.102E-03,   66.5198E-06
C:/temp/dataset/3/19_8.odb,Step-1,Increment      1: Step Time =    1.000,"PART-1-1",            42,            5.,          17.5,            0.,NA,NA,"",       3.12370,      -3.02945,  -761.524E-03,   13.6913E-06
C:/temp/dataset/3/19_8.odb,Step-1,Increment      1: Step Time =    1.000,"PART-1-1",            43,            5.,           7.5,            0.,NA,NA,"",       2.12259,      -2.00160,  -706.402E-03,   2.16103E-03
C:/temp/dataset/3/19_8.odb,Step-1,Increment      1: Step Time =    1.000,"PART-1-1",            44,            5.,           10.,            0.,NA,NA,"",       2.36855,      -2.25620,  -720.836E-03,   599.246E-06
C:/temp/dataset/3/19_8.odb,Step-1,Increment      1: Step Time =    1.000,"PART-1-1",            45,   533.333E-03,            5.,            0.,NA,NA,"",       2.14269,      -1.75695,      -1.22649,   8.01405E-03
C:/temp/dataset/3/19_8.odb,Step-1,Increment      1: Step Time =    1.000,"PART-1-1",            46,       2.76667,            5.,            0.,NA,NA,"",       2.01221,      -1.76270,  -970.502E-03,   11.6317E-03
C:/temp/dataset/3/19_8.odb,Step-1,Increment      1: Step Time =    1.000,"PART-1-1",            47,      -6.16667,            5.,            0.,NA,NA,"",       2.60351,      -1.72731,      -1.94799,   694.449E-06
C:/temp/dataset/3/19_8.odb,Step-1,Increment      1: Step Time =    1.000,"PART-1-1",            48,      -3.93333,            5.,            0.,NA,NA,"",       2.43342,      -1.73888,      -1.70230,   2.11345E-03
C:/temp/dataset/3/19_8.odb,Step-1,Increment      1: Step Time =    1.000,"PART-1-1",            49,      -12.8000,            5.,            0.,NA,NA,"",       3.16927,      -1.68777,      -2.68248,   8.18209E-06
C:/temp/dataset/3/19_8.odb,Step-1,Increment      1: Step Time =    1.000,"PART-1-1",            50,      -10.6000,            5.,            0.,NA,NA,"",       2.97358,      -1.70125,      -2.43883,   71.7141E-06
C:/temp/dataset/3/19_8.odb,Step-1,Increment      1: Step Time =    1.000,"PART-1-1",            51,          -15.,           2.5,            0.,NA,NA,"",       3.22879,      -1.39749,      -2.91069,   8.95803E-06
C:/temp/dataset/3/19_8.odb,Step-1,Increment      1: Step Time =    1.000,"PART-1-1",            52,          -15.,          -2.5,            0.,NA,NA,"",       3.00116,  -843.975E-03,      -2.88005,   8.45119E-06
C:/temp/dataset/3/19_8.odb,Step-1,Increment      1: Step Time =    1.000,"PART-1-1",            53,      -10.5333,           -5.,            0.,NA,NA,"",       2.44379,  -594.617E-03,      -2.37035,   67.7586E-06
C:/temp/dataset/3/19_8.odb,Step-1,Increment      1: Step Time =    1.000,"PART-1-1",            54,      -12.7667,           -5.,            0.,NA,NA,"",       2.68119,  -580.957E-03,      -2.61749,   8.81641E-06
C:/temp/dataset/3/19_8.odb,Step-1,Increment      1: Step Time =    1.000,"PART-1-1",            55,      -3.83333,           -5.,            0.,NA,NA,"",       1.74604,  -633.337E-03,      -1.62713,   1.00842E-03
C:/temp/dataset/3/19_8.odb,Step-1,Increment      1: Step Time =    1.000,"PART-1-1",            56,      -6.06667,           -5.,            0.,NA,NA,"",       1.97592,  -621.083E-03,      -1.87577,   550.844E-06
C:/temp/dataset/3/19_8.odb,Step-1,Increment      1: Step Time =    1.000,"PART-1-1",            57,       2.80000,           -5.,            0.,NA,NA,"",       1.08797,  -672.440E-03,  -855.276E-03,   10.2629E-03
C:/temp/dataset/3/19_8.odb,Step-1,Increment      1: Step Time =    1.000,"PART-1-1",            58,   600.000E-03,           -5.,            0.,NA,NA,"",       1.30030,  -657.438E-03,      -1.12185,   1.95229E-03
C:/temp/dataset/3/19_8.odb,Step-1,Increment      1: Step Time =    1.000,"PART-1-1",            59,            5.,          -10.,            0.,NA,NA,"",   551.508E-03,  -397.377E-03,  -382.429E-03,   30.0799E-03
C:/temp/dataset/3/19_8.odb,Step-1,Increment      1: Step Time =    1.000,"PART-1-1",            60,            5.,          -7.5,            0.,NA,NA,"",   715.529E-03,  -552.516E-03,  -454.651E-03,   32.9205E-03
C:/temp/dataset/3/19_8.odb,Step-1,Increment      1: Step Time =    1.000,"PART-1-1",            61,            5.,         -17.5,            0.,NA,NA,"",   189.473E-03,  -74.1966E-03,  -174.341E-03,   31.0780E-03
C:/temp/dataset/3/19_8.odb,Step-1,Increment      1: Step Time =    1.000,"PART-1-1",            62,            5.,          -15.,            0.,NA,NA,"",   288.141E-03,  -158.416E-03,  -240.686E-03,   29.0123E-03
C:/temp/dataset/3/19_8.odb,Step-1,Increment      1: Step Time =    1.000,"PART-1-1",            63,          -2.5,          -20.,            0.,NA,NA,"",   2.51356E-03,  -417.632E-06,  -2.47862E-03,   1.00801E-03
C:/temp/dataset/3/19_8.odb,Step-1,Increment      1: Step Time =    1.000,"PART-1-1",            64,            0.,          -20.,            0.,NA,NA,"",   10.4317E-03,   2.53094E-03,  -10.1200E-03,   1.99531E-03
C:/temp/dataset/3/19_8.odb,Step-1,Increment      1: Step Time =    1.000,"PART-1-1",            65,           2.5,          -20.,            0.,NA,NA,"",   29.8677E-03,   6.68203E-03,  -29.1107E-03,   6.96270E-03
C:/temp/dataset/3/19_8.odb,Step-1,Increment      1: Step Time =    1.000,"PART-1-1",            66,         -12.5,          -20.,            0.,NA,NA,"",   4.34603E-03,  -4.34558E-03,   62.7511E-06,   46.9105E-06
C:/temp/dataset/3/19_8.odb,Step-1,Increment      1: Step Time =    1.000,"PART-1-1",            67,          -10.,          -20.,            0.,NA,NA,"",   4.18134E-03,  -4.12534E-03,   682.020E-06,   162.712E-06
C:/temp/dataset/3/19_8.odb,Step-1,Increment      1: Step Time =    1.000,"PART-1-1",            68,          -7.5,          -20.,            0.,NA,NA,"",   3.69227E-03,  -3.57180E-03,   935.479E-06,   351.543E-06
C:/temp/dataset/3/19_8.odb,Step-1,Increment      1: Step Time =    1.000,"PART-1-1",            69,          -15.,         -22.5,            0.,NA,NA,"",   3.81069E-03,  -3.75586E-03,  -644.130E-06,   42.5614E-06
C:/temp/dataset/3/19_8.odb,Step-1,Increment      1: Step Time =    1.000,"PART-1-1",            70,          -15.,         -27.5,            0.,NA,NA,"",   1.95308E-03,  -1.73461E-03,  -897.589E-06,   151.544E-06
C:/temp/dataset/3/19_8.odb,Step-1,Increment      1: Step Time =    1.000,"PART-1-1",            71,          12.5,          -30.,            0.,NA,NA,"",            0.,   7.58318E-39,  -3.24547E-39,   4.53392E-03
C:/temp/dataset/3/19_8.odb,Step-1,Increment      1: Step Time =    1.000,"PART-1-1",            72,           10.,          -30.,            0.,NA,NA,"",            0.,   5.71932E-39,  -1.46868E-39,   5.29275E-03
C:/temp/dataset/3/19_8.odb,Step-1,Increment      1: Step Time =    1.000,"PART-1-1",            73,           7.5,          -30.,            0.,NA,NA,"",            0.,   1.37010E-39,  -10.8736E-39,   5.00175E-03
C:/temp/dataset/3/19_8.odb,Step-1,Increment      1: Step Time =    1.000,"PART-1-1",            74,            5.,          -30.,            0.,NA,NA,"",            0.,   4.51079E-39,  -15.0862E-39,   4.55832E-03
C:/temp/dataset/3/19_8.odb,Step-1,Increment      1: Step Time =    1.000,"PART-1-1",            75,           2.5,          -30.,            0.,NA,NA,"",            0.,   544.332E-42,  -10.0893E-39,   4.03295E-03
C:/temp/dataset/3/19_8.odb,Step-1,Increment      1: Step Time =    1.000,"PART-1-1",            76,            0.,          -30.,            0.,NA,NA,"",            0.,  -1.51351E-39,  -4.89108E-39,   3.24961E-03
C:/temp/dataset/3/19_8.odb,Step-1,Increment      1: Step Time =    1.000,"PART-1-1",            77,          -2.5,          -30.,            0.,NA,NA,"",            0.,  -4.78078E-39,  -5.98602E-39,   2.30557E-03
C:/temp/dataset/3/19_8.odb,Step-1,Increment      1: Step Time =    1.000,"PART-1-1",            78,           -5.,          -30.,            0.,NA,NA,"",            0.,  -1.75500E-39,   31.6497E-42,   1.52297E-03
C:/temp/dataset/3/19_8.odb,Step-1,Increment      1: Step Time =    1.000,"PART-1-1",            79,          -7.5,          -30.,            0.,NA,NA,"",            0.,  -1.31269E-39,   518.157E-42,   972.062E-06
C:/temp/dataset/3/19_8.odb,Step-1,Increment      1: Step Time =    1.000,"PART-1-1",            80,          -10.,          -30.,            0.,NA,NA,"",            0.,  -1.20844E-39,  -1.03840E-39,   636.527E-06
C:/temp/dataset/3/19_8.odb,Step-1,Increment      1: Step Time =    1.000,"PART-1-1",            81,         -12.5,          -30.,            0.,NA,NA,"",            0.,  -920.884E-42,  -765.553E-42,   409.285E-06
C:/temp/dataset/3/19_8.odb,Step-1,Increment      1: Step Time =    1.000,"PART-1-1",            82,           15.,          -25.,            0.,NA,NA,"",   22.3955E-03,   17.2267E-03,   14.3108E-03,   7.82432E-03
C:/temp/dataset/3/19_8.odb,Step-1,Increment      1: Step Time =    1.000,"PART-1-1",            83,           15.,         -27.5,            0.,NA,NA,"",   11.8238E-03,   11.7787E-03,   1.03102E-03,   3.59969E-03
C:/temp/dataset/3/19_8.odb,Step-1,Increment      1: Step Time =    1.000,"PART-1-1",            84,           15.,         -17.5,            0.,NA,NA,"",   124.974E-03,  -66.2425E-03,   105.974E-03,   18.5299E-03
C:/temp/dataset/3/19_8.odb,Step-1,Increment      1: Step Time =    1.000,"PART-1-1",            85,           15.,          -20.,            0.,NA,NA,"",   69.2602E-03,  -15.3917E-03,   67.5283E-03,   15.6901E-03
C:/temp/dataset/3/19_8.odb,Step-1,Increment      1: Step Time =    1.000,"PART-1-1",            86,           15.,          -10.,            0.,NA,NA,"",   461.355E-03,  -397.782E-03,   233.705E-03,   21.0340E-03
C:/temp/dataset/3/19_8.odb,Step-1,Increment      1: Step Time =    1.000,"PART-1-1",            87,           15.,         -12.5,            0.,NA,NA,"",   319.847E-03,  -256.614E-03,   190.922E-03,   20.6079E-03
C:/temp/dataset/3/19_8.odb,Step-1,Increment      1: Step Time =    1.000,"PART-1-1",            88,           15.,          -2.5,            0.,NA,NA,"",       1.06379,      -1.00958,   335.250E-03,   13.5646E-03
C:/temp/dataset/3/19_8.odb,Step-1,Increment      1: Step Time =    1.000,"PART-1-1",            89,           15.,           -5.,            0.,NA,NA,"",   836.001E-03,  -776.332E-03,   310.171E-03,   18.0365E-03
C:/temp/dataset/3/19_8.odb,Step-1,Increment      1: Step Time =    1.000,"PART-1-1",            90,           15.,            5.,            0.,NA,NA,"",       1.81859,      -1.78688,   338.139E-03,   1.05074E-03
C:/temp/dataset/3/19_8.odb,Step-1,Increment      1: Step Time =    1.000,"PART-1-1",            91,           15.,           2.5,            0.,NA,NA,"",       1.56234,      -1.52340,   346.654E-03,   4.04748E-03
C:/temp/dataset/3/19_8.odb,Step-1,Increment      1: Step Time =    1.000,"PART-1-1",            92,           15.,          12.5,            0.,NA,NA,"",       2.58401,      -2.56681,   297.616E-03,   135.247E-06
C:/temp/dataset/3/19_8.odb,Step-1,Increment      1: Step Time =    1.000,"PART-1-1",            93,           15.,           10.,            0.,NA,NA,"",       2.32922,      -2.30830,   311.448E-03,   233.932E-06
C:/temp/dataset/3/19_8.odb,Step-1,Increment      1: Step Time =    1.000,"PART-1-1",            94,           15.,           20.,            0.,NA,NA,"",       3.35084,      -3.34095,   257.256E-03,   2.16551E-06
C:/temp/dataset/3/19_8.odb,Step-1,Increment      1: Step Time =    1.000,"PART-1-1",            95,           15.,          17.5,            0.,NA,NA,"",       3.09479,      -3.08293,   270.621E-03,   14.8833E-06
C:/temp/dataset/3/19_8.odb,Step-1,Increment      1: Step Time =    1.000,"PART-1-1",            96,           15.,          27.5,            0.,NA,NA,"",       4.12078,      -4.11505,   217.203E-03,   208.712E-09
C:/temp/dataset/3/19_8.odb,Step-1,Increment      1: Step Time =    1.000,"PART-1-1",            97,           15.,           25.,            0.,NA,NA,"",       3.86390,      -3.85701,   230.554E-03,   699.078E-09
C:/temp/dataset/3/19_8.odb,Step-1,Increment      1: Step Time =    1.000,"PART-1-1",            98,           10.,           30.,            0.,NA,NA,"",       4.35758,      -4.34638,  -312.226E-03,   496.115E-09
C:/temp/dataset/3/19_8.odb,Step-1,Increment      1: Step Time =    1.000,"PART-1-1",            99,          12.5,           30.,            0.,NA,NA,"",       4.36007,      -4.35973,  -54.1877E-03,   188.452E-09
C:/temp/dataset/3/19_8.odb,Step-1,Increment      1: Step Time =    1.000,"PART-1-1",           100,           2.5,           30.,            0.,NA,NA,"",       4.44124,      -4.30633,      -1.08635,   186.781E-09
C:/temp/dataset/3/19_8.odb,Step-1,Increment      1: Step Time =    1.000,"PART-1-1",           101,            5.,           30.,            0.,NA,NA,"",       4.39838,      -4.31968,  -828.306E-03,   397.204E-09
C:/temp/dataset/3/19_8.odb,Step-1,Increment      1: Step Time =    1.000,"PART-1-1",           102,           -5.,           30.,            0.,NA,NA,"",       4.65429,      -4.26627,      -1.86047,   3.15236E-09
C:/temp/dataset/3/19_8.odb,Step-1,Increment      1: Step Time =    1.000,"PART-1-1",           103,          -2.5,           30.,            0.,NA,NA,"",       4.56979,      -4.27962,      -1.60243,   7.03822E-09
C:/temp/dataset/3/19_8.odb,Step-1,Increment      1: Step Time =    1.000,"PART-1-1",           104,         -12.5,           30.,            0.,NA,NA,"",       4.98016,      -4.22621,      -2.63460,   247.797E-12
C:/temp/dataset/3/19_8.odb,Step-1,Increment      1: Step Time =    1.000,"PART-1-1",           105,          -10.,           30.,            0.,NA,NA,"",       4.86024,      -4.23956,      -2.37656,   1.16103E-09
C:/temp/dataset/3/19_8.odb,Step-1,Increment      1: Step Time =    1.000,"PART-1-1",           106,          -15.,          27.5,            0.,NA,NA,"",       4.89192,      -3.95482,      -2.87929,   187.807E-12
C:/temp/dataset/3/19_8.odb,Step-1,Increment      1: Step Time =    1.000,"PART-1-1",           107,      -12.5013,       25.0052,            0.,NA,NA,"",       4.53552,      -3.71066,      -2.60806,   466.901E-12
C:/temp/dataset/3/19_8.odb,Step-1,Increment      1: Step Time =    1.000,"PART-1-1",           108,      -10.0028,       27.5014,            0.,NA,NA,"",       4.63030,      -3.98165,      -2.36350,   1.08681E-09
C:/temp/dataset/3/19_8.odb,Step-1,Increment      1: Step Time =    1.000,"PART-1-1",           109,      -2.49865,       22.5268,            0.,NA,NA,"",       3.84045,      -3.50827,      -1.56238,   32.1404E-09
C:/temp/dataset/3/19_8.odb,Step-1,Increment      1: Step Time =    1.000,"PART-1-1",           110,      -2.51000,       27.5279,            0.,NA,NA,"",       4.32722,      -4.02441,      -1.59026,   26.9818E-09
C:/temp/dataset/3/19_8.odb,Step-1,Increment      1: Step Time =    1.000,"PART-1-1",           111,       12.3864,       22.5464,            0.,NA,NA,"",       3.58990,      -3.58980,  -26.1071E-03,   1.30906E-06
C:/temp/dataset/3/19_8.odb,Step-1,Increment      1: Step Time =    1.000,"PART-1-1",           112,       7.35369,       17.5509,            0.,NA,NA,"",       3.09113,      -3.04727,  -518.874E-03,   22.7333E-06
C:/temp/dataset/3/19_8.odb,Step-1,Increment      1: Step Time =    1.000,"PART-1-1",           113,       12.3201,       14.9467,            0.,NA,NA,"",       2.80512,      -2.80511,   7.59658E-03,   58.1356E-06
C:/temp/dataset/3/19_8.odb,Step-1,Increment      1: Step Time =    1.000,"PART-1-1",           114,       13.2599,       7.39194,            0.,NA,NA,"",       2.03312,      -2.02792,   145.296E-03,   668.185E-06
C:/temp/dataset/3/19_8.odb,Step-1,Increment      1: Step Time =    1.000,"PART-1-1",           115,       7.60504,      -5.98204,            0.,NA,NA,"",   709.446E-03,  -648.424E-03,  -287.854E-03,   11.4217E-03
C:/temp/dataset/3/19_8.odb,Step-1,Increment      1: Step Time =    1.000,"PART-1-1",           116,       7.71062,      -13.7665,            0.,NA,NA,"",   238.551E-03,  -182.276E-03,  -153.889E-03,   16.4423E-03
C:/temp/dataset/3/19_8.odb,Step-1,Increment      1: Step Time =    1.000,"PART-1-1",           117,       11.7208,      -22.4938,            0.,NA,NA,"",   20.6143E-03,   20.4563E-03,   2.54722E-03,   6.50024E-03
C:/temp/dataset/3/19_8.odb,Step-1,Increment      1: Step Time =    1.000,"PART-1-1",           118,       2.59328,       2.74806,            0.,NA,NA,"",       1.79358,      -1.51506,  -959.958E-03,   11.2355E-03
C:/temp/dataset/3/19_8.odb,Step-1,Increment      1: Step Time =    1.000,"PART-1-1",           119,      -1.32361,      -2.98462,            0.,NA,NA,"",       1.61506,  -874.673E-03,      -1.35771,   1.00862E-03
C:/temp/dataset/3/19_8.odb,Step-1,Increment      1: Step Time =    1.000,"PART-1-1",           120,      -6.00563,       3.11026,            0.,NA,NA,"",       2.44774,      -1.52029,      -1.91837,   436.116E-06
C:/temp/dataset/3/19_8.odb,Step-1,Increment      1: Step Time =    1.000,"PART-1-1",           121,      -10.4102,       2.53863,            0.,NA,NA,"",       2.79605,      -1.43003,      -2.40268,   126.697E-06
C:/temp/dataset/3/19_8.odb,Step-1,Increment      1: Step Time =    1.000,"PART-1-1",           122,      -12.6184,  -43.2983E-03,            0.,NA,NA,"",       2.86409,      -1.13063,      -2.63147,   45.2443E-06
C:/temp/dataset/3/19_8.odb,Step-1,Increment      1: Step Time =    1.000,"PART-1-1",           123,      -3.88272,       3.23189,            0.,NA,NA,"",       2.28736,      -1.54662,      -1.68522,   792.784E-06
C:/temp/dataset/3/19_8.odb,Step-1,Increment      1: Step Time =    1.000,"PART-1-1",           124,       2.98144,      -22.7363,            0.,NA,NA,"",   30.3725E-03,  -8.14157E-03,  -29.2609E-03,   10.0252E-03
C:/temp/dataset/3/19_8.odb,Step-1,Increment      1: Step Time =    1.000,"PART-1-1",           125,      -2.42987,      -22.6294,            0.,NA,NA,"",   5.64149E-03,  -5.17174E-03,  -2.25380E-03,   489.064E-06
C:/temp/dataset/3/19_8.odb,Step-1,Increment      1: Step Time =    1.000,"PART-1-1",           126,      -9.97348,      -22.5672,            0.,NA,NA,"",   3.94075E-03,  -3.87231E-03,   731.261E-06,   131.906E-06
C:/temp/dataset/3/19_8.odb,Step-1,Increment      1: Step Time =    1.000,"PART-1-1",           127,      -12.4895,      -25.0402,            0.,NA,NA,"",   3.07221E-03,  -3.07220E-03,   3.79887E-06,   108.948E-06
C:/temp/dataset/3/19_8.odb,Step-1,Increment      1: Step Time =    1.000,"PART-1-1",           128,       12.8561,      -14.2595,            0.,NA,NA,"",   175.182E-03,  -159.655E-03,   72.1055E-03,   9.14145E-03
C:/temp/dataset/3/19_8.odb,Step-1,Increment      1: Step Time =    1.000,"PART-1-1",           129,       12.7281,      -7.33650,            0.,NA,NA,"",   572.831E-03,  -562.144E-03,   110.136E-03,   9.15366E-03
C:/temp/dataset/3/19_8.odb,Step-1,Increment      1: Step Time =    1.000,"PART-1-1",           130,       12.6427,  -96.8002E-03,            0.,NA,NA,"",       1.23967,      -1.23427,   115.596E-03,   7.01237E-03
C:/temp/dataset/3/19_8.odb,Step-1,Increment      1: Step Time =    1.000,"PART-1-1",           131,       7.13014,       10.3328,            0.,NA,NA,"",       2.35586,      -2.30140,  -503.611E-03,   466.228E-06
C:/temp/dataset/3/19_8.odb,Step-1,Increment      1: Step Time =    1.000,"PART-1-1",           132,       4.95005,       27.5805,            0.,NA,NA,"",       4.15158,      -4.06968,  -820.539E-03,   232.576E-09
C:/temp/dataset/3/19_8.odb,Step-1,Increment      1: Step Time =    1.000,"PART-1-1",           133,      -4.99957,       22.5148,            0.,NA,NA,"",       3.93952,      -3.49368,      -1.82045,   5.86540E-09
C:/temp/dataset/3/19_8.odb,Step-1,Increment      1: Step Time =    1.000,"PART-1-1",           134,      -7.50186,       22.5094,            0.,NA,NA,"",       4.05335,      -3.47975,      -2.07870,   1.32235E-09
C:/temp/dataset/3/19_8.odb,Step-1,Increment      1: Step Time =    1.000,"PART-1-1",           135,       4.93744,       22.5898,            0.,NA,NA,"",       3.64236,      -3.55450,  -795.186E-03,   713.714E-09
C:/temp/dataset/3/19_8.odb,Step-1,Increment      1: Step Time =    1.000,"PART-1-1",           136,       2.47758,       22.5593,            0.,NA,NA,"",       3.69041,      -3.53821,      -1.04892,   437.967E-09
C:/temp/dataset/3/19_8.odb,Step-1,Increment      1: Step Time =    1.000,"PART-1-1",           137,  -4.46696E-03,       22.5388,            0.,NA,NA,"",       3.75677,      -3.52283,      -1.30500,   118.197E-09
C:/temp/dataset/3/19_8.odb,Step-1,Increment      1: Step Time =    1.000,"PART-1-1",           138,       7.20686,       12.6699,            0.,NA,NA,"",       2.59291,      -2.54268,  -507.939E-03,   94.2238E-06
C:/temp/dataset/3/19_8.odb,Step-1,Increment      1: Step Time =    1.000,"PART-1-1",           139,       7.30679,       15.0771,            0.,NA,NA,"",       2.83794,      -2.79165,  -510.522E-03,   57.9309E-06
C:/temp/dataset/3/19_8.odb,Step-1,Increment      1: Step Time =    1.000,"PART-1-1",           140,       7.52839,       5.66323,            0.,NA,NA,"",       1.87645,      -1.82541,  -434.660E-03,   4.71740E-03
C:/temp/dataset/3/19_8.odb,Step-1,Increment      1: Step Time =    1.000,"PART-1-1",           141,       7.20823,       7.96221,            0.,NA,NA,"",       2.11424,      -2.05853,  -482.141E-03,   2.05739E-03
C:/temp/dataset/3/19_8.odb,Step-1,Increment      1: Step Time =    1.000,"PART-1-1",           142,      -1.77433,       3.17490,            0.,NA,NA,"",       2.12847,      -1.55149,      -1.45715,   4.19047E-03
C:/temp/dataset/3/19_8.odb,Step-1,Increment      1: Step Time =    1.000,"PART-1-1",           143,   347.975E-03,       3.01142,            0.,NA,NA,"",       1.96538,      -1.53934,      -1.22195,   9.17596E-03
C:/temp/dataset/3/19_8.odb,Step-1,Increment      1: Step Time =    1.000,"PART-1-1",           144,      -8.17775,       2.85153,            0.,NA,NA,"",       2.61525,      -1.47842,      -2.15727,   283.642E-06
C:/temp/dataset/3/19_8.odb,Step-1,Increment      1: Step Time =    1.000,"PART-1-1",           145,      -8.45397,      -3.03463,            0.,NA,NA,"",       2.30512,  -824.961E-03,      -2.15244,   224.271E-06
C:/temp/dataset/3/19_8.odb,Step-1,Increment      1: Step Time =    1.000,"PART-1-1",           146,      -12.6978,       2.46856,            0.,NA,NA,"",       3.00586,      -1.40818,      -2.65561,   43.6392E-06
C:/temp/dataset/3/19_8.odb,Step-1,Increment      1: Step Time =    1.000,"PART-1-1",           147,      -10.5225,      -2.72745,            0.,NA,NA,"",       2.52896,  -846.317E-03,      -2.38314,   114.916E-06
C:/temp/dataset/3/19_8.odb,Step-1,Increment      1: Step Time =    1.000,"PART-1-1",           148,      -12.7265,      -2.55241,            0.,NA,NA,"",       2.76280,  -852.154E-03,      -2.62809,   41.9588E-06
C:/temp/dataset/3/19_8.odb,Step-1,Increment      1: Step Time =    1.000,"PART-1-1",           149,      -3.80700,      -2.48494,            0.,NA,NA,"",       1.87839,  -914.844E-03,      -1.64055,   255.507E-06
C:/temp/dataset/3/19_8.odb,Step-1,Increment      1: Step Time =    1.000,"PART-1-1",           150,      -6.26959,      -2.94549,            0.,NA,NA,"",       2.09101,  -848.220E-03,      -1.91124,   390.615E-06
C:/temp/dataset/3/19_8.odb,Step-1,Increment      1: Step Time =    1.000,"PART-1-1",           151,       2.97297,      -3.34056,            0.,NA,NA,"",       1.21532,  -869.136E-03,  -849.473E-03,   13.3986E-03
C:/temp/dataset/3/19_8.odb,Step-1,Increment      1: Step Time =    1.000,"PART-1-1",           152,   836.982E-03,      -3.21922,            0.,NA,NA,"",       1.40419,  -864.564E-03,      -1.10647,   4.17623E-03
C:/temp/dataset/3/19_8.odb,Step-1,Increment      1: Step Time =    1.000,"PART-1-1",           153,       7.27849,      -10.7647,            0.,NA,NA,"",   403.550E-03,  -332.768E-03,  -228.294E-03,   19.4193E-03
C:/temp/dataset/3/19_8.odb,Step-1,Increment      1: Step Time =    1.000,"PART-1-1",           154,       7.20650,      -8.25133,            0.,NA,NA,"",   560.640E-03,  -486.557E-03,  -278.533E-03,   20.6694E-03
C:/temp/dataset/3/19_8.odb,Step-1,Increment      1: Step Time =    1.000,"PART-1-1",           155,       7.07274,      -17.3233,            0.,NA,NA,"",   134.321E-03,  -60.7599E-03,  -119.793E-03,   19.3366E-03
C:/temp/dataset/3/19_8.odb,Step-1,Increment      1: Step Time =    1.000,"PART-1-1",           156,       6.55788,      -15.2577,            0.,NA,NA,"",   218.620E-03,  -131.910E-03,  -174.340E-03,   23.2686E-03
C:/temp/dataset/3/19_8.odb,Step-1,Increment      1: Step Time =    1.000,"PART-1-1",           157,      -7.46685,      -22.5818,            0.,NA,NA,"",   4.21459E-03,  -4.08328E-03,   1.04383E-03,   240.683E-06
C:/temp/dataset/3/19_8.odb,Step-1,Increment      1: Step Time =    1.000,"PART-1-1",           158,      -4.95694,      -22.5955,            0.,NA,NA,"",   4.54410E-03,  -4.52059E-03,   461.645E-06,   358.511E-06
C:/temp/dataset/3/19_8.odb,Step-1,Increment      1: Step Time =    1.000,"PART-1-1",           159,   146.162E-03,      -22.6598,            0.,NA,NA,"",   12.4809E-03,  -7.33117E-03,  -10.1008E-03,   2.41462E-03
C:/temp/dataset/3/19_8.odb,Step-1,Increment      1: Step Time =    1.000,"PART-1-1",           160,      -12.4860,      -22.5306,            0.,NA,NA,"",   3.78661E-03,  -3.78581E-03,   77.6566E-06,   75.9784E-06
C:/temp/dataset/3/19_8.odb,Step-1,Increment      1: Step Time =    1.000,"PART-1-1",           161,       9.96020,      -27.7814,            0.,NA,NA,"",   13.6596E-03,   12.9304E-03,  -4.40335E-03,   5.29663E-03
C:/temp/dataset/3/19_8.odb,Step-1,Increment      1: Step Time =    1.000,"PART-1-1",           162,       7.44077,      -27.8946,            0.,NA,NA,"",   11.5274E-03,   7.51700E-03,  -8.73933E-03,   6.47116E-03
C:/temp/dataset/3/19_8.odb,Step-1,Increment      1: Step Time =    1.000,"PART-1-1",           163,       4.93217,      -27.8625,            0.,NA,NA,"",   9.73266E-03,   650.387E-06,  -9.71091E-03,   6.37951E-03
C:/temp/dataset/3/19_8.odb,Step-1,Increment      1: Step Time =    1.000,"PART-1-1",           164,       2.47767,      -27.7470,            0.,NA,NA,"",   8.65258E-03,  -4.36008E-03,  -7.47374E-03,   4.74856E-03
C:/temp/dataset/3/19_8.odb,Step-1,Increment      1: Step Time =    1.000,"PART-1-1",           165,   19.5837E-03,      -27.6625,            0.,NA,NA,"",   7.26166E-03,  -6.01594E-03,  -4.06696E-03,   2.95294E-03
C:/temp/dataset/3/19_8.odb,Step-1,Increment      1: Step Time =    1.000,"PART-1-1",           166,      -2.46955,      -27.6154,            0.,NA,NA,"",   5.67539E-03,  -5.44072E-03,  -1.61515E-03,   1.79308E-03
C:/temp/dataset/3/19_8.odb,Step-1,Increment      1: Step Time =    1.000,"PART-1-1",           167,      -4.97450,      -27.5844,            0.,NA,NA,"",   4.12697E-03,  -4.11117E-03,  -360.699E-06,   1.16348E-03
C:/temp/dataset/3/19_8.odb,Step-1,Increment      1: Step Time =    1.000,"PART-1-1",           168,      -7.48283,      -27.5594,            0.,NA,NA,"",   2.93000E-03,  -2.92906E-03,   74.0584E-06,   783.368E-06
C:/temp/dataset/3/19_8.odb,Step-1,Increment      1: Step Time =    1.000,"PART-1-1",           169,       12.2865,      -25.1793,            0.,NA,NA,"",   23.0841E-03,   22.7460E-03,   3.93616E-03,   5.56521E-03
C:/temp/dataset/3/19_8.odb,Step-1,Increment      1: Step Time =    1.000,"PART-1-1",           170,       11.6753,      -16.4340,            0.,NA,NA,"",   79.6111E-03,  -77.7800E-03,   16.9763E-03,   4.07951E-03
C:/temp/dataset/3/19_8.odb,Step-1,Increment      1: Step Time =    1.000,"PART-1-1",           171,       11.9685,      -19.5802,            0.,NA,NA,"",   16.1999E-03,  -7.08688E-03,   14.5675E-03,   6.30850E-03
C:/temp/dataset/3/19_8.odb,Step-1,Increment      1: Step Time =    1.000,"PART-1-1",           172,       13.3291,      -9.93034,            0.,NA,NA,"",   408.535E-03,  -386.597E-03,   132.076E-03,   12.0373E-03
C:/temp/dataset/3/19_8.odb,Step-1,Increment      1: Step Time =    1.000,"PART-1-1",           173,       13.4212,      -12.1607,            0.,NA,NA,"",   284.965E-03,  -260.106E-03,   116.405E-03,   12.3800E-03
C:/temp/dataset/3/19_8.odb,Step-1,Increment      1: Step Time =    1.000,"PART-1-1",           174,       12.9633,      -2.52247,            0.,NA,NA,"",       1.00009,  -989.269E-03,   146.741E-03,   8.70925E-03
C:/temp/dataset/3/19_8.odb,Step-1,Increment      1: Step Time =    1.000,"PART-1-1",           175,       13.1247,      -4.84738,            0.,NA,NA,"",   786.550E-03,  -771.378E-03,   153.742E-03,   10.3924E-03
C:/temp/dataset/3/19_8.odb,Step-1,Increment      1: Step Time =    1.000,"PART-1-1",           176,       13.1131,       5.12757,            0.,NA,NA,"",       1.79504,      -1.78942,   141.953E-03,   2.00835E-03
C:/temp/dataset/3/19_8.odb,Step-1,Increment      1: Step Time =    1.000,"PART-1-1",           177,       12.1418,       2.60140,            0.,NA,NA,"",       1.51779,      -1.51675,   56.3459E-03,   4.92626E-03
C:/temp/dataset/3/19_8.odb,Step-1,Increment      1: Step Time =    1.000,"PART-1-1",           178,       12.1760,       12.1629,            0.,NA,NA,"",       2.51696,      -2.51695,   7.53093E-03,   70.1373E-06
C:/temp/dataset/3/19_8.odb,Step-1,Increment      1: Step Time =    1.000,"PART-1-1",           179,       13.0236,       9.64002,            0.,NA,NA,"",       2.26311,      -2.26050,   108.712E-03,   116.528E-06
C:/temp/dataset/3/19_8.odb,Step-1,Increment      1: Step Time =    1.000,"PART-1-1",           180,       12.3784,       20.0377,            0.,NA,NA,"",       3.33086,      -3.33083,  -13.5365E-03,   7.15783E-06
C:/temp/dataset/3/19_8.odb,Step-1,Increment      1: Step Time =    1.000,"PART-1-1",           181,       12.3660,       17.5135,            0.,NA,NA,"",       3.07025,      -3.07025,  -1.34454E-03,   23.8803E-06
C:/temp/dataset/3/19_8.odb,Step-1,Increment      1: Step Time =    1.000,"PART-1-1",           182,       12.4264,       25.0333,            0.,NA,NA,"",       3.84686,      -3.84670,  -35.2591E-03,   313.449E-09
C:/temp/dataset/3/19_8.odb,Step-1,Increment      1: Step Time =    1.000,"PART-1-1",           183,       7.43491,       27.5684,            0.,NA,NA,"",       4.12048,      -4.08170,  -563.996E-03,   163.657E-09
C:/temp/dataset/3/19_8.odb,Step-1,Increment      1: Step Time =    1.000,"PART-1-1",           184,  -17.4965E-03,       27.5503,            0.,NA,NA,"",       4.25430,      -4.04003,      -1.33311,   90.7488E-09
C:/temp/dataset/3/19_8.odb,Step-1,Increment      1: Step Time =    1.000,"PART-1-1",           185,       2.47067,       27.5656,            0.,NA,NA,"",       4.19533,      -4.05490,      -1.07637,   197.915E-09
C:/temp/dataset/3/19_8.odb,Step-1,Increment      1: Step Time =    1.000,"PART-1-1",           186,      -7.50286,       27.5043,            0.,NA,NA,"",       4.51614,      -3.99531,      -2.10548,   1.24743E-09
C:/temp/dataset/3/19_8.odb,Step-1,Increment      1: Step Time =    1.000,"PART-1-1",           187,      -5.00635,       27.5119,            0.,NA,NA,"",       4.41474,      -4.00942,      -1.84784,   5.18180E-09
C:/temp/dataset/3/19_8.odb,Step-1,Increment      1: Step Time =    1.000,"PART-1-1",           188,      -12.5019,       27.5019,            0.,NA,NA,"",       4.75604,      -3.96836,      -2.62145,   584.333E-12
C:/temp/dataset/3/19_8.odb,Step-1,Increment      1: Step Time =    1.000,"PART-1-1",           189,      -12.5001,       22.5034,            0.,NA,NA,"",       4.31870,      -3.45244,      -2.59457,   585.005E-12
C:/temp/dataset/3/19_8.odb,Step-1,Increment      1: Step Time =    1.000,"PART-1-1",           190,      -5.00429,       25.0191,            0.,NA,NA,"",       4.17651,      -3.75213,      -1.83431,   6.56750E-09
C:/temp/dataset/3/19_8.odb,Step-1,Increment      1: Step Time =    1.000,"PART-1-1",           191,  -15.9173E-03,       25.0642,            0.,NA,NA,"",       4.00698,      -3.78343,      -1.31967,   111.255E-09
C:/temp/dataset/3/19_8.odb,Step-1,Increment      1: Step Time =    1.000,"PART-1-1",           192,       9.74355,       15.0604,            0.,NA,NA,"",       2.81495,      -2.80300,  -259.019E-03,   61.9410E-06
C:/temp/dataset/3/19_8.odb,Step-1,Increment      1: Step Time =    1.000,"PART-1-1",           193,       9.51986,       12.6989,            0.,NA,NA,"",       2.57222,      -2.55805,  -269.601E-03,   91.6257E-06
C:/temp/dataset/3/19_8.odb,Step-1,Increment      1: Step Time =    1.000,"PART-1-1",           194,       12.1898,      -11.7554,            0.,NA,NA,"",   279.784E-03,  -274.386E-03,   54.6950E-03,   6.08405E-03
C:/temp/dataset/3/19_8.odb,Step-1,Increment      1: Step Time =    1.000,"PART-1-1",           195,       9.78251,      -13.4248,            0.,NA,NA,"",   199.794E-03,  -189.402E-03,  -63.5966E-03,   6.16624E-03
C:/temp/dataset/3/19_8.odb,Step-1,Increment      1: Step Time =    1.000,"PART-1-1",           196,       7.24032,      -19.5057,            0.,NA,NA,"",   83.9721E-03,  -9.18890E-03,  -83.4679E-03,   12.3027E-03
C:/temp/dataset/3/19_8.odb,Step-1,Increment      1: Step Time =    1.000,"PART-1-1",           197,      -10.0066,  -139.817E-03,            0.,NA,NA,"",       2.60285,      -1.13617,      -2.34179,   159.351E-06
C:/temp/dataset/3/19_8.odb,Step-1,Increment      1: Step Time =    1.000,"PART-1-1",           198,      -8.39380,      -1.43672,            0.,NA,NA,"",       2.37728,      -1.00259,      -2.15552,   251.426E-06
C:/temp/dataset/3/19_8.odb,Step-1,Increment      1: Step Time =    1.000,"PART-1-1",           199,      -5.07121,  -530.035E-03,            0.,NA,NA,"",       2.11662,      -1.12441,      -1.79327,   398.388E-06
C:/temp/dataset/3/19_8.odb,Step-1,Increment      1: Step Time =    1.000,"PART-1-1",           200,      -12.5003,      -27.5198,            0.,NA,NA,"",   1.76499E-03,  -1.76168E-03,  -108.150E-06,   416.982E-06
C:/temp/dataset/3/19_8.odb,Step-1,Increment      1: Step Time =    1.000,"PART-1-1",           201,       8.97180,      -8.86122,            0.,NA,NA,"",   464.922E-03,  -440.227E-03,  -149.509E-03,   9.34806E-03
C:/temp/dataset/3/19_8.odb,Step-1,Increment      1: Step Time =    1.000,"PART-1-1",           202,      -2.50561,       25.0360,            0.,NA,NA,"",       4.08379,      -3.76722,      -1.57650,   36.6697E-09
C:/temp/dataset/3/19_8.odb,Step-1,Increment      1: Step Time =    1.000,"PART-1-1",           203,      -7.50383,       25.0106,            0.,NA,NA,"",       4.28363,      -3.73791,      -2.09226,   1.57676E-09
C:/temp/dataset/3/19_8.odb,Step-1,Increment      1: Step Time =    1.000,"PART-1-1",           204,       2.46362,       25.0850,            0.,NA,NA,"",       3.94498,      -3.79883,      -1.06385,   288.613E-09
C:/temp/dataset/3/19_8.odb,Step-1,Increment      1: Step Time =    1.000,"PART-1-1",           205,       9.17638,       10.5785,            0.,NA,NA,"",       2.35590,      -2.33749,  -293.878E-03,   159.925E-06
C:/temp/dataset/3/19_8.odb,Step-1,Increment      1: Step Time =    1.000,"PART-1-1",           206,       9.65111,       6.46520,            0.,NA,NA,"",       1.92764,      -1.91494,  -220.836E-03,   2.20837E-03
C:/temp/dataset/3/19_8.odb,Step-1,Increment      1: Step Time =    1.000,"PART-1-1",           207,      -1.99278,       1.34592,            0.,NA,NA,"",       1.99242,      -1.35038,      -1.46500,   2.44647E-03
C:/temp/dataset/3/19_8.odb,Step-1,Increment      1: Step Time =    1.000,"PART-1-1",           208,      -5.69490,       1.29843,            0.,NA,NA,"",       2.29322,      -1.32277,      -1.87327,   459.893E-06
C:/temp/dataset/3/19_8.odb,Step-1,Increment      1: Step Time =    1.000,"PART-1-1",           209,       1.92780,   665.778E-03,            0.,NA,NA,"",       1.64078,      -1.29215,      -1.01118,   9.68180E-03
C:/temp/dataset/3/19_8.odb,Step-1,Increment      1: Step Time =    1.000,"PART-1-1",           210,       1.26043,      -1.37778,            0.,NA,NA,"",       1.51332,      -1.07094,      -1.06922,   6.49842E-03
C:/temp/dataset/3/19_8.odb,Step-1,Increment      1: Step Time =    1.000,"PART-1-1",           211,       9.14691,      -16.8280,            0.,NA,NA,"",   90.8632E-03,  -64.8512E-03,  -63.6431E-03,   7.87218E-03
C:/temp/dataset/3/19_8.odb,Step-1,Increment      1: Step Time =    1.000,"PART-1-1",           212,   79.9954E-03,      -25.2148,            0.,NA,NA,"",   11.7981E-03,  -8.58514E-03,  -8.09265E-03,   2.86203E-03
C:/temp/dataset/3/19_8.odb,Step-1,Increment      1: Step Time =    1.000,"PART-1-1",           213,      -9.97865,      -25.0679,            0.,NA,NA,"",   3.46637E-03,  -3.43315E-03,   478.733E-06,   290.512E-06
C:/temp/dataset/3/19_8.odb,Step-1,Increment      1: Step Time =    1.000,"PART-1-1",           214,       12.4671,      -27.6040,            0.,NA,NA,"",   14.4981E-03,   14.4245E-03,   1.45854E-03,   5.09662E-03
C:/temp/dataset/3/19_8.odb,Step-1,Increment      1: Step Time =    1.000,"PART-1-1",           215,       9.82463,      -25.6838,            0.,NA,NA,"",   22.7925E-03,   19.8669E-03,  -11.1716E-03,   6.75994E-03
C:/temp/dataset/3/19_8.odb,Step-1,Increment      1: Step Time =    1.000,"PART-1-1",           216,       2.56344,      -25.3828,            0.,NA,NA,"",   18.8835E-03,  -7.26707E-03,  -17.4292E-03,   5.93763E-03
C:/temp/dataset/3/19_8.odb,Step-1,Increment      1: Step Time =    1.000,"PART-1-1",           217,      -2.44121,      -25.1518,            0.,NA,NA,"",   7.59713E-03,  -7.22749E-03,  -2.34091E-03,   1.42438E-03
C:/temp/dataset/3/19_8.odb,Step-1,Increment      1: Step Time =    1.000,"PART-1-1",           218,      -4.95889,      -25.1139,            0.,NA,NA,"",   5.54818E-03,  -5.54818E-03,  -8.17096E-06,   791.177E-06
C:/temp/dataset/3/19_8.odb,Step-1,Increment      1: Step Time =    1.000,"PART-1-1",           219,       10.3279,  -771.646E-03,            0.,NA,NA,"",       1.15778,      -1.15360,  -98.2790E-03,   7.99050E-03
C:/temp/dataset/3/19_8.odb,Step-1,Increment      1: Step Time =    1.000,"PART-1-1",           220,       10.4049,       4.48083,            0.,NA,NA,"",       1.71450,      -1.70959,  -129.737E-03,   3.91587E-03
C:/temp/dataset/3/19_8.odb,Step-1,Increment      1: Step Time =    1.000,"PART-1-1",           221,       9.80969,       17.5478,            0.,NA,NA,"",       3.07159,      -3.06010,  -265.396E-03,   26.0206E-06
C:/temp/dataset/3/19_8.odb,Step-1,Increment      1: Step Time =    1.000,"PART-1-1",           222,       9.88106,       25.0797,            0.,NA,NA,"",       3.84947,      -3.83790,  -298.223E-03,   372.077E-09
C:/temp/dataset/3/19_8.odb,Step-1,Increment      1: Step Time =    1.000,"PART-1-1",           223,       9.94975,       27.5346,            0.,NA,NA,"",       4.10295,      -4.09165,  -304.245E-03,   250.767E-09
C:/temp/dataset/3/19_8.odb,Step-1,Increment      1: Step Time =    1.000,"PART-1-1",           224,       7.36779,       20.0596,            0.,NA,NA,"",       3.34864,      -3.30630,  -530.819E-03,   6.29170E-06
C:/temp/dataset/3/19_8.odb,Step-1,Increment      1: Step Time =    1.000,"PART-1-1",           225,  -693.206E-03,      -1.01900,            0.,NA,NA,"",       1.70091,      -1.09770,      -1.29929,   3.17208E-03
C:/temp/dataset/3/19_8.odb,Step-1,Increment      1: Step Time =    1.000,"PART-1-1",           226,      -7.47194,      -25.0831,            0.,NA,NA,"",   4.28275E-03,  -4.23842E-03,   614.591E-06,   515.129E-06
C:/temp/dataset/3/19_8.odb,Step-1,Increment      1: Step Time =    1.000,"PART-1-1",           227,       5.28089,       2.25097,            0.,NA,NA,"",       1.60058,      -1.46536,  -643.876E-03,   6.82279E-03
C:/temp/dataset/3/19_8.odb,Step-1,Increment      1: Step Time =    1.000,"PART-1-1",           228,       9.26575,       8.45073,            0.,NA,NA,"",       2.13623,      -2.11871,  -272.979E-03,   955.917E-06
C:/temp/dataset/3/19_8.odb,Step-1,Increment      1: Step Time =    1.000,"PART-1-1",           229,  -81.3472E-03,       1.02952,            0.,NA,NA,"",       1.81924,      -1.32416,      -1.24750,   5.78940E-03
C:/temp/dataset/3/19_8.odb,Step-1,Increment      1: Step Time =    1.000,"PART-1-1",           230,      -7.67687,   831.326E-03,            0.,NA,NA,"",       2.43937,      -1.25839,      -2.08974,   335.029E-06
C:/temp/dataset/3/19_8.odb,Step-1,Increment      1: Step Time =    1.000,"PART-1-1",           231,      -2.54090,  -531.417E-03,            0.,NA,NA,"",       1.89368,      -1.14034,      -1.51184,   1.16610E-03
C:/temp/dataset/3/19_8.odb,Step-1,Increment      1: Step Time =    1.000,"PART-1-1",           232,      -3.83997,       1.55066,            0.,NA,NA,"",       2.15529,      -1.36236,      -1.67010,   586.382E-06
C:/temp/dataset/3/19_8.odb,Step-1,Increment      1: Step Time =    1.000,"PART-1-1",           233,      -6.84494,  -996.203E-03,            0.,NA,NA,"",       2.25249,      -1.06125,      -1.98682,   379.825E-06
C:/temp/dataset/3/19_8.odb,Step-1,Increment      1: Step Time =    1.000,"PART-1-1",           234,       5.51335,      -3.03354,            0.,NA,NA,"",       1.06399,  -916.913E-03,  -539.760E-03,   19.1003E-03
C:/temp/dataset/3/19_8.odb,Step-1,Increment      1: Step Time =    1.000,"PART-1-1",           235,       9.62476,      -7.14735,            0.,NA,NA,"",   573.192E-03,  -560.965E-03,  -117.758E-03,   5.42678E-03
C:/temp/dataset/3/19_8.odb,Step-1,Increment      1: Step Time =    1.000,"PART-1-1",           236,       7.38903,      -25.9371,            0.,NA,NA,"",   23.5320E-03,   11.2369E-03,  -20.6757E-03,   8.52530E-03
C:/temp/dataset/3/19_8.odb,Step-1,Increment      1: Step Time =    1.000,"PART-1-1",           237,       4.96373,      -25.7856,            0.,NA,NA,"",   23.2717E-03,   496.657E-06,  -23.2664E-03,   8.50426E-03
C:/temp/dataset/3/19_8.odb,Step-1,Increment      1: Step Time =    1.000,"PART-1-1",           238,       9.37191,      -21.3805,            0.,NA,NA,"",   36.9620E-03,   14.3077E-03,  -34.0805E-03,   8.22042E-03
C:/temp/dataset/3/19_8.odb,Step-1,Increment      1: Step Time =    1.000,"PART-1-1",           239,       9.53380,      -19.3691,            0.,NA,NA,"",   39.8470E-03,  -7.24352E-03,  -39.1831E-03,   6.56019E-03
C:/temp/dataset/3/19_8.odb,Step-1,Increment      1: Step Time =    1.000,"PART-1-1",           240,       10.5518,      -5.76730,            0.,NA,NA,"",   676.711E-03,  -674.615E-03,  -53.2166E-03,   4.02765E-03
C:/temp/dataset/3/19_8.odb,Step-1,Increment      1: Step Time =    1.000,"PART-1-1",           241,       10.8494,      -2.88140,            0.,NA,NA,"",   942.216E-03,  -941.412E-03,  -38.9254E-03,   7.47089E-03
C:/temp/dataset/3/19_8.odb,Step-1,Increment      1: Step Time =    1.000,"PART-1-1",           242,       9.33979,       1.27198,            0.,NA,NA,"",       1.38266,      -1.36661,  -210.063E-03,   7.42356E-03
C:/temp/dataset/3/19_8.odb,Step-1,Increment      1: Step Time =    1.000,"PART-1-1",           243,       9.83335,       20.0603,            0.,NA,NA,"",       3.33105,      -3.31956,  -276.348E-03,   7.87474E-06
C:/temp/dataset/3/19_8.odb,Step-1,Increment      1: Step Time =    1.000,"PART-1-1",           244,       7.39102,       25.1069,            0.,NA,NA,"",       3.86749,      -3.82741,  -555.379E-03,   336.491E-09
C:/temp/dataset/3/19_8.odb,Step-1,Increment      1: Step Time =    1.000,"PART-1-1",           245,       4.93408,       25.0979,            0.,NA,NA,"",       3.89821,      -3.81335,  -808.928E-03,   266.066E-09
C:/temp/dataset/3/19_8.odb,Step-1,Increment      1: Step Time =    1.000,"PART-1-1",           246,      -10.0026,       25.0068,            0.,NA,NA,"",       4.40371,      -3.72417,      -2.35015,   1.10332E-09
C:/temp/dataset/3/19_8.odb,Step-1,Increment      1: Step Time =    1.000,"PART-1-1",           247,      -10.0008,       22.5051,            0.,NA,NA,"",       4.18003,      -3.46596,      -2.33661,   1.15203E-09
C:/temp/dataset/3/19_8.odb,Step-1,Increment      1: Step Time =    1.000,"PART-1-1",           248,      -9.99283,      -27.5363,            0.,NA,NA,"",   2.13668E-03,  -2.13352E-03,   116.238E-06,   543.409E-06
C:/temp/dataset/3/19_8.odb,Step-1,Increment      1: Step Time =    1.000,"PART-1-1",           249,       3.80746,   187.829E-03,            0.,NA,NA,"",       1.47405,      -1.24734,  -785.463E-03,   10.9932E-03
C:/temp/dataset/3/19_8.odb,Step-1,Increment      1: Step Time =    1.000,"PART-1-1",           250,       11.4886,       7.12458,            0.,NA,NA,"",       1.99149,      -1.99116,  -35.8601E-03,   1.27550E-03
C:/temp/dataset/3/19_8.odb,Step-1,Increment      1: Step Time =    1.000,"PART-1-1",           251,       5.25951,      -23.9756,            0.,NA,NA,"",   38.2440E-03,   266.494E-06,  -38.2431E-03,   11.5882E-03
C:/temp/dataset/3/19_8.odb,Step-1,Increment      1: Step Time =    1.000,"PART-1-1",           252,       9.85798,       22.5791,            0.,NA,NA,"",       3.59118,      -3.57968,  -287.250E-03,   1.79483E-06
C:/temp/dataset/3/19_8.odb,Step-1,Increment      1: Step Time =    1.000,"PART-1-1",           253,       7.38133,       22.5911,            0.,NA,NA,"",       3.60875,      -3.56768,  -542.943E-03,   1.08851E-06
C:/temp/dataset/3/19_8.odb,Step-1,Increment      1: Step Time =    1.000,"PART-1-1",           254,       9.03817,      -10.9527,            0.,NA,NA,"",   337.682E-03,  -314.408E-03,  -123.196E-03,   9.83669E-03
C:/temp/dataset/3/19_8.odb,Step-1,Increment      1: Step Time =    1.000,"PART-1-1",           255,       7.30212,      -21.2110,            0.,NA,NA,"",   65.1926E-03,   7.79268E-03,  -64.7252E-03,   13.5698E-03
C:/temp/dataset/3/19_8.odb,Step-1,Increment      1: Step Time =    1.000,"PART-1-1",           256,       8.48263,      -3.88795,            0.,NA,NA,"",   868.350E-03,  -835.456E-03,  -236.741E-03,   10.3214E-03
C:/temp/dataset/3/19_8.odb,Step-1,Increment      1: Step Time =    1.000,"PART-1-1",           257,       8.48912,      -1.65164,            0.,NA,NA,"",       1.09005,      -1.05823,  -261.447E-03,   10.4622E-03
C:/temp/dataset/3/19_8.odb,Step-1,Increment      1: Step Time =    1.000,"PART-1-1",           258,       8.19007,       3.36514,            0.,NA,NA,"",       1.62389,      -1.58666,  -345.709E-03,   6.43619E-03
C:/temp/dataset/3/19_8.odb,Step-1,Increment      1: Step Time =    1.000,"PART-1-1",           259,       6.78208,  -317.133E-03,            0.,NA,NA,"",       1.27843,      -1.19696,  -449.068E-03,   9.55773E-03
C:/temp/dataset/3/19_8.odb,Step-1,Increment      1: Step Time =    1.000,"PART-1-1",           260,       11.8604,      -10.2109,            0.,NA,NA,"",   362.916E-03,  -360.607E-03,   40.8701E-03,   4.66712E-03
C:/temp/dataset/3/19_8.odb,Step-1,Increment      1: Step Time =    1.000,"PART-1-1",           261,       5.00218,  -627.613E-03,            0.,NA,NA,"",       1.32749,      -1.16416,  -637.930E-03,   11.9257E-03
C:/temp/dataset/3/19_8.odb,Step-1,Increment      1: Step Time =    1.000,"PART-1-1",           262,       11.1460,      -8.45072,            0.,NA,NA,"",   471.956E-03,  -471.939E-03,  -4.00215E-03,   2.13890E-03
C:/temp/dataset/3/19_8.odb,Step-1,Increment      1: Step Time =    1.000,"PART-1-1",           263,       11.7180,       5.54683,            0.,NA,NA,"",       1.82686,      -1.82685,  -2.95857E-03,   2.34693E-03
C:/temp/dataset/3/19_8.odb,Step-1,Increment      1: Step Time =    1.000,"PART-1-1",           264,       5.25136,      -21.5985,            0.,NA,NA,"",   64.8248E-03,  -3.33897E-03,  -64.7388E-03,   18.2057E-03
C:/temp/dataset/3/19_8.odb,Step-1,Increment      1: Step Time =    1.000,"PART-1-1",           265,       12.4723,       27.5096,            0.,NA,NA,"",       4.10277,      -4.10254,  -43.7426E-03,   405.726E-09
C:/temp/dataset/3/19_8.odb,Step-1,Increment      1: Step Time =    1.000,"PART-1-1",           266,       5.87727,      -22.7682,            0.,NA,NA,"",   52.4436E-03,   1.85956E-03,  -52.4106E-03,   13.4255E-03
C:/temp/dataset/3/19_8.odb,Step-1,Increment      1: Step Time =    1.000,"PART-1-1",           267,       7.32369,      -22.7299,            0.,NA,NA,"",   49.8677E-03,   11.6604E-03,  -48.4853E-03,   12.5107E-03
C:/temp/dataset/3/19_8.odb,Step-1,Increment      1: Step Time =    1.000,"PART-1-1",           268,       11.4923,      -4.55460,            0.,NA,NA,"",   786.650E-03,  -786.396E-03,   19.9821E-03,   6.66956E-03
C:/temp/dataset/3/19_8.odb,Step-1,Increment      1: Step Time =    1.000,"PART-1-1",           269,       11.2115,       8.96325,            0.,NA,NA,"",       2.18219,      -2.18091,  -74.8792E-03,   462.761E-06
C:/temp/dataset/3/19_8.odb,Step-1,Increment      1: Step Time =    1.000,"PART-1-1",           270,       10.8046,       10.5255,            0.,NA,NA,"",       2.34383,      -2.34047,  -125.411E-03,   143.141E-06
C:/temp/dataset/3/19_8.odb,Step-1,Increment      1: Step Time =    1.000,"PART-1-1",           271,       7.35536,      -24.2380,            0.,NA,NA,"",   35.9840E-03,   12.3912E-03,  -33.7832E-03,   10.5081E-03
C:/temp/dataset/3/19_8.odb,Step-1,Increment      1: Step Time =    1.000,"PART-1-1",           272,      -3.82134,   150.711E-03,            0.,NA,NA,"",       2.05215,      -1.20789,      -1.65901,   543.464E-06
C:/temp/dataset/3/19_8.odb,Step-1,Increment      1: Step Time =    1.000,"PART-1-1",           273,       3.09609,      -1.70207,            0.,NA,NA,"",       1.34729,      -1.04810,  -846.564E-03,   12.1598E-03
C:/temp/dataset/3/19_8.odb,Step-1,Increment      1: Step Time =    1.000,"PART-1-1",           274,       4.56419,      -1.78689,            0.,NA,NA,"",       1.24099,      -1.04446,  -670.183E-03,   13.7095E-03
C:/temp/dataset/3/19_8.odb,Step-1,Increment      1: Step Time =    1.000,"PART-1-1",           275,       9.44492,      -23.8624,            0.,NA,NA,"",   29.9956E-03,   21.0339E-03,  -21.3849E-03,   8.38176E-03
C:/temp/dataset/3/19_8.odb,Step-1,Increment      1: Step Time =    1.000,"PART-1-1",           276,       8.77427,      -22.6651,            0.,NA,NA,"",   39.3280E-03,   17.7771E-03,  -35.0808E-03,   9.60645E-03
C:/temp/dataset/3/19_8.odb,Step-1,Increment      1: Step Time =    1.000,"PART-1-1",           277,       10.1837,      -9.28900,            0.,NA,NA,"",   418.592E-03,  -413.423E-03,  -65.5764E-03,   3.47817E-03
C:/temp/dataset/3/19_8.odb,Step-1,Increment      1: Step Time =    1.000,"PART-1-1",           278,       10.4979,      -10.7612,            0.,NA,NA,"",   326.950E-03,  -324.521E-03,  -39.7828E-03,   2.52769E-03
C:/temp/dataset/3/19_8.odb,Step-1,Increment      1: Step Time =    1.000,"PART-1-1",           279,       11.2325,      -12.6180,            0.,NA,NA,"",   227.449E-03,  -227.420E-03,   3.62050E-03,   1.54785E-03
C:/temp/dataset/3/19_8.odb,Step-1,Increment      1: Step Time =    1.000,"PART-1-1",           280,      -13.7500,       22.5017,            0.,NA,NA,"",       4.39203,      -3.44559,      -2.72358,   342.263E-12
C:/temp/dataset/3/19_8.odb,Step-1,Increment      1: Step Time =    1.000,"PART-1-1",           281,          -15.,         21.25,            0.,NA,NA,"",       4.36502,      -3.30971,      -2.84591,   77.6362E-12
C:/temp/dataset/3/19_8.odb,Step-1,Increment      1: Step Time =    1.000,"PART-1-1",           282,        -13.75,           20.,            0.,NA,NA,"",       4.18384,      -3.18737,      -2.71021,   102.032E-12
C:/temp/dataset/3/19_8.odb,Step-1,Increment      1: Step Time =    1.000,"PART-1-1",           283,      -12.5000,       21.2517,            0.,NA,NA,"",       4.21201,      -3.32324,      -2.58788,   332.476E-12
C:/temp/dataset/3/19_8.odb,Step-1,Increment      1: Step Time =    1.000,"PART-1-1",           284,        -11.25,           30.,            0.,NA,NA,"",       4.91887,      -4.23289,      -2.50558,   687.875E-12
C:/temp/dataset/3/19_8.odb,Step-1,Increment      1: Step Time =    1.000,"PART-1-1",           285,      -12.5009,       28.7510,            0.,NA,NA,"",       4.86768,      -4.09729,      -2.62803,   340.106E-12
C:/temp/dataset/3/19_8.odb,Step-1,Increment      1: Step Time =    1.000,"PART-1-1",           286,      -11.2523,       27.5017,            0.,NA,NA,"",       4.69181,      -3.97501,      -2.49248,   782.625E-12
C:/temp/dataset/3/19_8.odb,Step-1,Increment      1: Step Time =    1.000,"PART-1-1",           287,      -10.0014,       28.7507,            0.,NA,NA,"",       4.74491,      -4.11061,      -2.37003,   821.718E-12
C:/temp/dataset/3/19_8.odb,Step-1,Increment      1: Step Time =    1.000,"PART-1-1",           288,      -8.75282,       27.5029,            0.,NA,NA,"",       4.57175,      -3.98848,      -2.23449,   993.035E-12
C:/temp/dataset/3/19_8.odb,Step-1,Increment      1: Step Time =    1.000,"PART-1-1",           289,      -10.0027,       26.2541,            0.,NA,NA,"",       4.51659,      -3.85291,      -2.35683,   895.671E-12
C:/temp/dataset/3/19_8.odb,Step-1,Increment      1: Step Time =    1.000,"PART-1-1",           290,      -8.75320,       25.0087,            0.,NA,NA,"",       4.34217,      -3.73104,      -2.22121,   1.00792E-09
C:/temp/dataset/3/19_8.odb,Step-1,Increment      1: Step Time =    1.000,"PART-1-1",           291,      -7.50334,       26.2575,            0.,NA,NA,"",       4.39954,      -3.86661,      -2.09887,   1.01646E-09
C:/temp/dataset/3/19_8.odb,Step-1,Increment      1: Step Time =    1.000,"PART-1-1",           292,  -10.1921E-03,       23.8015,            0.,NA,NA,"",       3.88170,      -3.65313,      -1.31234,   107.300E-09
C:/temp/dataset/3/19_8.odb,Step-1,Increment      1: Step Time =    1.000,"PART-1-1",           293,       1.23656,       22.5490,            0.,NA,NA,"",       3.72153,      -3.53052,      -1.17696,   262.855E-09
C:/temp/dataset/3/19_8.odb,Step-1,Increment      1: Step Time =    1.000,"PART-1-1",           294,       2.47060,       23.8222,            0.,NA,NA,"",       3.81759,      -3.66852,      -1.05639,   240.055E-09
C:/temp/dataset/3/19_8.odb,Step-1,Increment      1: Step Time =    1.000,"PART-1-1",           295,       1.22385,       25.0746,            0.,NA,NA,"",       3.97404,      -3.79113,      -1.19176,   182.999E-09
C:/temp/dataset/3/19_8.odb,Step-1,Increment      1: Step Time =    1.000,"PART-1-1",           296,       13.7132,       25.0166,            0.,NA,NA,"",       3.85309,      -3.85185,   97.6475E-03,   371.860E-09
C:/temp/dataset/3/19_8.odb,Step-1,Increment      1: Step Time =    1.000,"PART-1-1",           297,           15.,         26.25,            0.,NA,NA,"",       3.99231,      -3.98603,   223.878E-03,   430.151E-09
C:/temp/dataset/3/19_8.odb,Step-1,Increment      1: Step Time =    1.000,"PART-1-1",           298,       13.7362,       27.5048,            0.,NA,NA,"",       4.10971,      -4.10879,   86.7299E-03,   265.805E-09
C:/temp/dataset/3/19_8.odb,Step-1,Increment      1: Step Time =    1.000,"PART-1-1",           299,       12.4494,       26.2714,            0.,NA,NA,"",       3.97481,      -3.97462,  -39.5008E-03,   304.188E-09
C:/temp/dataset/3/19_8.odb,Step-1,Increment      1: Step Time =    1.000,"PART-1-1",           300,       6.19248,       27.5744,            0.,NA,NA,"",       4.13407,      -4.07569,  -692.267E-03,   192.651E-09
C:/temp/dataset/3/19_8.odb,Step-1,Increment      1: Step Time =    1.000,"PART-1-1",           301,       7.46746,       28.7842,            0.,NA,NA,"",       4.24542,      -4.20737,  -567.131E-03,   333.639E-09
C:/temp/dataset/3/19_8.odb,Step-1,Increment      1: Step Time =    1.000,"PART-1-1",           302,          6.25,           30.,            0.,NA,NA,"",       4.38251,      -4.32636,  -699.286E-03,   472.978E-09
C:/temp/dataset/3/19_8.odb,Step-1,Increment      1: Step Time =    1.000,"PART-1-1",           303,       4.97503,       28.7903,            0.,NA,NA,"",       4.27493,      -4.19468,  -824.423E-03,   258.836E-09
C:/temp/dataset/3/19_8.odb,Step-1,Increment      1: Step Time =    1.000,"PART-1-1",           304,       11.0878,       17.5306,            0.,NA,NA,"",       3.06808,      -3.06518,  -133.378E-03,   21.6377E-06
C:/temp/dataset/3/19_8.odb,Step-1,Increment      1: Step Time =    1.000,"PART-1-1",           305,       12.3722,       18.7756,            0.,NA,NA,"",       3.20055,      -3.20054,  -7.43916E-03,   14.8856E-06
C:/temp/dataset/3/19_8.odb,Step-1,Increment      1: Step Time =    1.000,"PART-1-1",           306,       11.1059,       20.0490,            0.,NA,NA,"",       3.32835,      -3.32520,  -144.942E-03,   6.59768E-06
C:/temp/dataset/3/19_8.odb,Step-1,Increment      1: Step Time =    1.000,"PART-1-1",           307,       9.82152,       18.8041,            0.,NA,NA,"",       3.20131,      -3.18983,  -270.867E-03,   16.4153E-06
C:/temp/dataset/3/19_8.odb,Step-1,Increment      1: Step Time =    1.000,"PART-1-1",           308,       9.63171,       13.8797,            0.,NA,NA,"",       2.69352,      -2.68052,  -264.302E-03,   71.9466E-06
C:/temp/dataset/3/19_8.odb,Step-1,Increment      1: Step Time =    1.000,"PART-1-1",           309,       8.52517,       15.0687,            0.,NA,NA,"",       2.82365,      -2.79731,  -384.773E-03,   48.7494E-06
C:/temp/dataset/3/19_8.odb,Step-1,Increment      1: Step Time =    1.000,"PART-1-1",           310,       7.25683,       13.8735,            0.,NA,NA,"",       2.71532,      -2.66715,  -509.234E-03,   66.4160E-06
C:/temp/dataset/3/19_8.odb,Step-1,Increment      1: Step Time =    1.000,"PART-1-1",           311,       8.36336,       12.6844,            0.,NA,NA,"",       2.57983,      -2.55036,  -388.848E-03,   67.3292E-06
C:/temp/dataset/3/19_8.odb,Step-1,Increment      1: Step Time =    1.000,"PART-1-1",           312,       14.0118,       9.82001,            0.,NA,NA,"",       2.29405,      -2.28441,   210.061E-03,   116.745E-06
C:/temp/dataset/3/19_8.odb,Step-1,Increment      1: Step Time =    1.000,"PART-1-1",           313,           15.,         11.25,            0.,NA,NA,"",       2.45659,      -2.43764,   304.497E-03,   178.665E-06
C:/temp/dataset/3/19_8.odb,Step-1,Increment      1: Step Time =    1.000,"PART-1-1",           314,       13.5880,       12.3315,            0.,NA,NA,"",       2.54648,      -2.54190,   152.594E-03,   72.5129E-06
C:/temp/dataset/3/19_8.odb,Step-1,Increment      1: Step Time =    1.000,"PART-1-1",           315,       12.5998,       10.9015,            0.,NA,NA,"",       2.38954,      -2.38883,   58.0974E-03,   47.8996E-06
C:/temp/dataset/3/19_8.odb,Step-1,Increment      1: Step Time =    1.000,"PART-1-1",           316,       4.40482,  -219.892E-03,            0.,NA,NA,"",       1.40026,      -1.20606,  -711.436E-03,   11.2401E-03
C:/temp/dataset/3/19_8.odb,Step-1,Increment      1: Step Time =    1.000,"PART-1-1",           317,       3.45177,  -757.122E-03,            0.,NA,NA,"",       1.40811,      -1.14811,  -815.230E-03,   11.1718E-03
C:/temp/dataset/3/19_8.odb,Step-1,Increment      1: Step Time =    1.000,"PART-1-1",           318,       3.83014,      -1.74448,            0.,NA,NA,"",       1.29228,      -1.04647,  -758.213E-03,   13.2068E-03
C:/temp/dataset/3/19_8.odb,Step-1,Increment      1: Step Time =    1.000,"PART-1-1",           319,       4.78319,      -1.20725,            0.,NA,NA,"",       1.28346,      -1.10456,  -653.625E-03,   12.4263E-03
C:/temp/dataset/3/19_8.odb,Step-1,Increment      1: Step Time =    1.000,"PART-1-1",           320,       10.3408,      -10.0251,            0.,NA,NA,"",   371.340E-03,  -367.650E-03,  -52.2231E-03,   2.98659E-03
C:/temp/dataset/3/19_8.odb,Step-1,Increment      1: Step Time =    1.000,"PART-1-1",           321,       11.1792,      -10.4860,            0.,NA,NA,"",   341.785E-03,  -341.785E-03,  -252.175E-06,   1.36546E-03
C:/temp/dataset/3/19_8.odb,Step-1,Increment      1: Step Time =    1.000,"PART-1-1",           322,       11.5032,      -9.33080,            0.,NA,NA,"",   414.880E-03,  -414.406E-03,   19.8384E-03,   3.23062E-03
C:/temp/dataset/3/19_8.odb,Step-1,Increment      1: Step Time =    1.000,"PART-1-1",           323,       10.6649,      -8.86986,            0.,NA,NA,"",   443.324E-03,  -441.879E-03,  -35.7654E-03,   1.43609E-03
C:/temp/dataset/3/19_8.odb,Step-1,Increment      1: Step Time =    1.000,"PART-1-1",           324,       9.41034,      -12.1888,            0.,NA,NA,"",   264.619E-03,  -248.450E-03,  -91.0822E-03,   8.02959E-03
C:/temp/dataset/3/19_8.odb,Step-1,Increment      1: Step Time =    1.000,"PART-1-1",           325,       10.5075,      -13.0214,            0.,NA,NA,"",   209.869E-03,  -207.514E-03,  -31.3525E-03,   2.65224E-03
C:/temp/dataset/3/19_8.odb,Step-1,Increment      1: Step Time =    1.000,"PART-1-1",           326,       10.8652,      -11.6896,            0.,NA,NA,"",   274.392E-03,  -273.894E-03,  -16.5280E-03,   1.09015E-03
C:/temp/dataset/3/19_8.odb,Step-1,Increment      1: Step Time =    1.000,"PART-1-1",           327,       9.76802,      -10.8570,            0.,NA,NA,"",   329.097E-03,  -318.786E-03,  -81.7331E-03,   6.11305E-03
C:/temp/dataset/3/19_8.odb,Step-1,Increment      1: Step Time =    1.000,"PART-1-1",           328,       6.12016,      -19.7528,            0.,NA,NA,"",   95.2438E-03,  -4.66947E-03,  -95.1293E-03,   21.2151E-03
C:/temp/dataset/3/19_8.odb,Step-1,Increment      1: Step Time =    1.000,"PART-1-1",           329,       7.15653,      -18.4145,            0.,NA,NA,"",   102.800E-03,  -29.3039E-03,  -98.5353E-03,   14.7999E-03
C:/temp/dataset/3/19_8.odb,Step-1,Increment      1: Step Time =    1.000,"PART-1-1",           330,       6.03637,      -17.4116,            0.,NA,NA,"",   158.304E-03,  -65.0569E-03,  -144.319E-03,   24.7374E-03
C:/temp/dataset/3/19_8.odb,Step-1,Increment      1: Step Time =    1.000,"PART-1-1",           331,            5.,        -18.75,            0.,NA,NA,"",   140.285E-03,  -41.3232E-03,  -134.061E-03,   35.6228E-03
C:/temp/dataset/3/19_8.odb,Step-1,Increment      1: Step Time =    1.000,"PART-1-1",           332,       13.3604,      -22.4969,            0.,NA,NA,"",   28.1781E-03,   17.1169E-03,   22.3834E-03,   7.63188E-03
C:/temp/dataset/3/19_8.odb,Step-1,Increment      1: Step Time =    1.000,"PART-1-1",           333,           15.,        -21.25,            0.,NA,NA,"",   50.9436E-03,   188.534E-06,   50.9433E-03,   13.8046E-03
C:/temp/dataset/3/19_8.odb,Step-1,Increment      1: Step Time =    1.000,"PART-1-1",           334,       13.4842,      -19.7901,            0.,NA,NA,"",   45.2115E-03,  -9.63576E-03,   44.1727E-03,   10.2893E-03
C:/temp/dataset/3/19_8.odb,Step-1,Increment      1: Step Time =    1.000,"PART-1-1",           335,       11.8446,      -21.0370,            0.,NA,NA,"",   13.1026E-03,   10.7158E-03,   7.53993E-03,   6.21692E-03
C:/temp/dataset/3/19_8.odb,Step-1,Increment      1: Step Time =    1.000,"PART-1-1",           336,       1.65000,            5.,            0.,NA,NA,"",       2.07638,      -1.76085,      -1.10036,   8.93351E-03
C:/temp/dataset/3/19_8.odb,Step-1,Increment      1: Step Time =    1.000,"PART-1-1",           337,   440.654E-03,       4.00571,            0.,NA,NA,"",       2.05242,      -1.64721,      -1.22439,   8.57190E-03
C:/temp/dataset/3/19_8.odb,Step-1,Increment      1: Step Time =    1.000,"PART-1-1",           338,       1.47063,       2.87974,            0.,NA,NA,"",       1.87717,      -1.52717,      -1.09156,   9.57502E-03
C:/temp/dataset/3/19_8.odb,Step-1,Increment      1: Step Time =    1.000,"PART-1-1",           339,       2.67998,       3.87403,            0.,NA,NA,"",       1.89876,      -1.63578,  -964.104E-03,   10.5802E-03
C:/temp/dataset/3/19_8.odb,Step-1,Increment      1: Step Time =    1.000,"PART-1-1",           340,      -1.46180,      -3.99231,            0.,NA,NA,"",       1.56387,  -760.189E-03,      -1.36667,   586.066E-06
C:/temp/dataset/3/19_8.odb,Step-1,Increment      1: Step Time =    1.000,"PART-1-1",           341,     -500.E-03,           -5.,            0.,NA,NA,"",       1.40921,  -651.147E-03,      -1.24975,   1.19427E-03
C:/temp/dataset/3/19_8.odb,Step-1,Increment      1: Step Time =    1.000,"PART-1-1",           342,   718.491E-03,      -4.10961,            0.,NA,NA,"",       1.34981,  -761.166E-03,      -1.11472,   1.59111E-03
C:/temp/dataset/3/19_8.odb,Step-1,Increment      1: Step Time =    1.000,"PART-1-1",           343,  -243.313E-03,      -3.10192,            0.,NA,NA,"",       1.50848,  -869.133E-03,      -1.23293,   2.08591E-03
C:/temp/dataset/3/19_8.odb,Step-1,Increment      1: Step Time =    1.000,"PART-1-1",           344,      -3.82017,      -3.74247,            0.,NA,NA,"",       1.80804,  -774.035E-03,      -1.63398,   490.809E-06
C:/temp/dataset/3/19_8.odb,Step-1,Increment      1: Step Time =    1.000,"PART-1-1",           345,      -2.71667,           -5.,            0.,NA,NA,"",       1.63225,  -639.142E-03,      -1.50191,   1.10708E-03
C:/temp/dataset/3/19_8.odb,Step-1,Increment      1: Step Time =    1.000,"PART-1-1",           346,      -2.56530,      -2.73478,            0.,NA,NA,"",       1.74642,  -894.683E-03,      -1.49985,   440.356E-06
C:/temp/dataset/3/19_8.odb,Step-1,Increment      1: Step Time =    1.000,"PART-1-1",           347,      -13.8092,  -21.6491E-03,            0.,NA,NA,"",       2.98390,      -1.12568,      -2.76342,   33.8925E-06
C:/temp/dataset/3/19_8.odb,Step-1,Increment      1: Step Time =    1.000,"PART-1-1",           348,      -12.6581,       1.21263,            0.,NA,NA,"",       2.93252,      -1.26941,      -2.64354,   40.3991E-06
C:/temp/dataset/3/19_8.odb,Step-1,Increment      1: Step Time =    1.000,"PART-1-1",           349,      -13.8489,       2.48428,            0.,NA,NA,"",       3.11672,      -1.40283,      -2.78316,   24.3793E-06
C:/temp/dataset/3/19_8.odb,Step-1,Increment      1: Step Time =    1.000,"PART-1-1",           350,          -15.,          1.25,            0.,NA,NA,"",       3.16432,      -1.25912,      -2.90303,   16.5530E-06
C:/temp/dataset/3/19_8.odb,Step-1,Increment      1: Step Time =    1.000,"PART-1-1",           351,      -8.84172,   345.754E-03,            0.,NA,NA,"",       2.51855,      -1.19725,      -2.21578,   239.431E-06
C:/temp/dataset/3/19_8.odb,Step-1,Increment      1: Step Time =    1.000,"PART-1-1",           352,      -9.20019,  -788.270E-03,            0.,NA,NA,"",       2.48998,      -1.06940,      -2.24864,   198.251E-06
C:/temp/dataset/3/19_8.odb,Step-1,Increment      1: Step Time =    1.000,"PART-1-1",           353,      -7.61937,      -1.21646,            0.,NA,NA,"",       2.31399,      -1.03189,      -2.07118,   298.133E-06
C:/temp/dataset/3/19_8.odb,Step-1,Increment      1: Step Time =    1.000,"PART-1-1",           354,      -7.26090,  -82.4387E-03,            0.,NA,NA,"",       2.34521,      -1.15991,      -2.03829,   326.428E-06
C:/temp/dataset/3/19_8.odb,Step-1,Increment      1: Step Time =    1.000,"PART-1-1",           355,      -12.7466,      -3.77621,            0.,NA,NA,"",       2.71891,  -716.540E-03,      -2.62280,   20.9090E-06
C:/temp/dataset/3/19_8.odb,Step-1,Increment      1: Step Time =    1.000,"PART-1-1",           356,      -13.8633,      -2.52621,            0.,NA,NA,"",       2.88168,  -848.066E-03,      -2.75406,   23.5791E-06
C:/temp/dataset/3/19_8.odb,Step-1,Increment      1: Step Time =    1.000,"PART-1-1",           357,          -15.,         -3.75,            0.,NA,NA,"",       2.95777,  -705.601E-03,      -2.87237,   3.22898E-06
C:/temp/dataset/3/19_8.odb,Step-1,Increment      1: Step Time =    1.000,"PART-1-1",           358,      -13.8833,           -5.,            0.,NA,NA,"",       2.80056,  -574.099E-03,      -2.74109,   3.78108E-06
C:/temp/dataset/3/19_8.odb,Step-1,Increment      1: Step Time =    1.000,"PART-1-1",           359,      -5.03830,      -2.71522,            0.,NA,NA,"",       1.98282,  -881.430E-03,      -1.77613,   319.343E-06
C:/temp/dataset/3/19_8.odb,Step-1,Increment      1: Step Time =    1.000,"PART-1-1",           360,      -4.43911,      -1.50749,            0.,NA,NA,"",       1.99709,      -1.01982,      -1.71707,   300.391E-06
C:/temp/dataset/3/19_8.odb,Step-1,Increment      1: Step Time =    1.000,"PART-1-1",           361,      -5.95808,  -763.119E-03,            0.,NA,NA,"",       2.18325,      -1.09283,      -1.89005,   379.434E-06
C:/temp/dataset/3/19_8.odb,Step-1,Increment      1: Step Time =    1.000,"PART-1-1",           362,      -6.55726,      -1.97085,            0.,NA,NA,"",       2.17039,  -954.824E-03,      -1.94908,   328.449E-06
C:/temp/dataset/3/19_8.odb,Step-1,Increment      1: Step Time =    1.000,"PART-1-1",           363,          6.25,          -30.,            0.,NA,NA,"",            0.,   1.57718E-39,  -8.19822E-39,   4.60202E-03
C:/temp/dataset/3/19_8.odb,Step-1,Increment      1: Step Time =    1.000,"PART-1-1",           364,       7.47038,      -28.9473,            0.,NA,NA,"",   5.74401E-03,   4.33851E-03,  -3.76444E-03,   5.56487E-03
C:/temp/dataset/3/19_8.odb,Step-1,Increment      1: Step Time =    1.000,"PART-1-1",           365,       6.18647,      -27.8786,            0.,NA,NA,"",   10.6187E-03,   4.11598E-03,  -9.78858E-03,   6.32065E-03
C:/temp/dataset/3/19_8.odb,Step-1,Increment      1: Step Time =    1.000,"PART-1-1",           366,       4.96608,      -28.9312,            0.,NA,NA,"",   4.29390E-03,   392.436E-06,  -4.27593E-03,   5.33705E-03
C:/temp/dataset/3/19_8.odb,Step-1,Increment      1: Step Time =    1.000,"PART-1-1",           367,       3.70492,      -27.8047,            0.,NA,NA,"",   9.22039E-03,  -2.23153E-03,  -8.94628E-03,   5.47668E-03
C:/temp/dataset/3/19_8.odb,Step-1,Increment      1: Step Time =    1.000,"PART-1-1",           368,       2.48883,      -28.8735,            0.,NA,NA,"",   4.31385E-03,  -2.58073E-03,  -3.45675E-03,   4.32162E-03
C:/temp/dataset/3/19_8.odb,Step-1,Increment      1: Step Time =    1.000,"PART-1-1",           369,          3.75,          -30.,            0.,NA,NA,"",            0.,  -907.699E-42,  -7.82842E-39,   4.16370E-03
C:/temp/dataset/3/19_8.odb,Step-1,Increment      1: Step Time =    1.000,"PART-1-1",           370,      -3.72203,      -27.5999,            0.,NA,NA,"",   4.87413E-03,  -4.79902E-03,  -852.357E-06,   1.45096E-03
C:/temp/dataset/3/19_8.odb,Step-1,Increment      1: Step Time =    1.000,"PART-1-1",           371,      -4.98725,      -28.7922,            0.,NA,NA,"",   2.40743E-03,  -2.38625E-03,  -318.646E-06,   1.29078E-03
C:/temp/dataset/3/19_8.odb,Step-1,Increment      1: Step Time =    1.000,"PART-1-1",           372,         -3.75,          -30.,            0.,NA,NA,"",            0.,  -1.66868E-39,  -1.55379E-39,   1.90365E-03
C:/temp/dataset/3/19_8.odb,Step-1,Increment      1: Step Time =    1.000,"PART-1-1",           373,      -2.48478,      -28.8077,            0.,NA,NA,"",   3.35555E-03,  -3.22224E-03,  -936.425E-06,   2.01453E-03
C:/temp/dataset/3/19_8.odb,Step-1,Increment      1: Step Time =    1.000,"PART-1-1",           374,      -13.7501,      -27.5099,            0.,NA,NA,"",   1.70366E-03,  -1.67756E-03,  -297.069E-06,   229.426E-06
C:/temp/dataset/3/19_8.odb,Step-1,Increment      1: Step Time =    1.000,"PART-1-1",           375,          -15.,        -28.75,            0.,NA,NA,"",   1.06776E-03,  -911.093E-06,  -556.786E-06,   412.393E-06
C:/temp/dataset/3/19_8.odb,Step-1,Increment      1: Step Time =    1.000,"PART-1-1",           376,        -13.75,          -30.,            0.,NA,NA,"",            0.,  -172.941E-42,  -405.941E-42,   517.546E-06
C:/temp/dataset/3/19_8.odb,Step-1,Increment      1: Step Time =    1.000,"PART-1-1",           377,      -12.5001,      -28.7599,            0.,NA,NA,"",   847.998E-06,  -845.849E-06,  -60.3338E-06,   424.370E-06
C:/temp/dataset/3/19_8.odb,Step-1,Increment      1: Step Time =    1.000,"PART-1-1",           378,       8.15833,      -10.8587,            0.,NA,NA,"",   367.189E-03,  -322.746E-03,  -175.107E-03,   14.4752E-03
C:/temp/dataset/3/19_8.odb,Step-1,Increment      1: Step Time =    1.000,"PART-1-1",           379,       9.00498,      -9.90697,            0.,NA,NA,"",   399.097E-03,  -375.198E-03,  -136.031E-03,   9.98663E-03
C:/temp/dataset/3/19_8.odb,Step-1,Increment      1: Step Time =    1.000,"PART-1-1",           380,       8.08915,      -8.55627,            0.,NA,NA,"",   509.188E-03,  -462.342E-03,  -213.335E-03,   14.9758E-03
C:/temp/dataset/3/19_8.odb,Step-1,Increment      1: Step Time =    1.000,"PART-1-1",           381,       7.24249,      -9.50802,            0.,NA,NA,"",   478.582E-03,  -405.942E-03,  -253.480E-03,   19.0935E-03
C:/temp/dataset/3/19_8.odb,Step-1,Increment      1: Step Time =    1.000,"PART-1-1",           382,       13.9816,      -2.51124,            0.,NA,NA,"",       1.02682,  -998.526E-03,   239.368E-03,   10.5368E-03
C:/temp/dataset/3/19_8.odb,Step-1,Increment      1: Step Time =    1.000,"PART-1-1",           383,           15.,         -1.25,            0.,NA,NA,"",       1.18469,      -1.13400,   342.811E-03,   10.9669E-03
C:/temp/dataset/3/19_8.odb,Step-1,Increment      1: Step Time =    1.000,"PART-1-1",           384,       13.8213,  -48.4001E-03,            0.,NA,NA,"",       1.26808,      -1.24719,   229.181E-03,   6.75640E-03
C:/temp/dataset/3/19_8.odb,Step-1,Increment      1: Step Time =    1.000,"PART-1-1",           385,       12.8030,      -1.30964,            0.,NA,NA,"",       1.11786,      -1.10999,   132.436E-03,   7.72794E-03
C:/temp/dataset/3/19_8.odb,Step-1,Increment      1: Step Time =    1.000,"PART-1-1",           386,           15.,          1.25,            0.,NA,NA,"",       1.43499,      -1.39212,   348.170E-03,   6.16204E-03
C:/temp/dataset/3/19_8.odb,Step-1,Increment      1: Step Time =    1.000,"PART-1-1",           387,       13.5709,       2.55070,            0.,NA,NA,"",       1.53225,      -1.51918,   199.696E-03,   3.62113E-03
C:/temp/dataset/3/19_8.odb,Step-1,Increment      1: Step Time =    1.000,"PART-1-1",           388,       12.3922,       1.25230,            0.,NA,NA,"",       1.37760,      -1.37485,   87.0728E-03,   5.90876E-03
C:/temp/dataset/3/19_8.odb,Step-1,Increment      1: Step Time =    1.000,"PART-1-1",           389,      -5.00532,       26.2655,            0.,NA,NA,"",       4.29535,      -3.88078,      -1.84108,   5.63879E-09
C:/temp/dataset/3/19_8.odb,Step-1,Increment      1: Step Time =    1.000,"PART-1-1",           390,      -3.75495,       25.0275,            0.,NA,NA,"",       4.12839,      -3.75968,      -1.70541,   21.4990E-09
C:/temp/dataset/3/19_8.odb,Step-1,Increment      1: Step Time =    1.000,"PART-1-1",           391,      -2.50780,       26.2820,            0.,NA,NA,"",       4.20529,      -3.89582,      -1.58338,   27.6894E-09
C:/temp/dataset/3/19_8.odb,Step-1,Increment      1: Step Time =    1.000,"PART-1-1",           392,      -3.75817,       27.5199,            0.,NA,NA,"",       4.36930,      -4.01692,      -1.71905,   15.9159E-09
C:/temp/dataset/3/19_8.odb,Step-1,Increment      1: Step Time =    1.000,"PART-1-1",           393,      -5.00193,       23.7670,            0.,NA,NA,"",       4.05768,      -3.62291,      -1.82738,   5.66537E-09
C:/temp/dataset/3/19_8.odb,Step-1,Increment      1: Step Time =    1.000,"PART-1-1",           394,      -6.25406,       25.0149,            0.,NA,NA,"",       4.22844,      -3.74502,      -1.96329,   3.46250E-09
C:/temp/dataset/3/19_8.odb,Step-1,Increment      1: Step Time =    1.000,"PART-1-1",           395,      -7.50285,       23.7600,            0.,NA,NA,"",       4.16808,      -3.60883,      -2.08548,   1.13962E-09
C:/temp/dataset/3/19_8.odb,Step-1,Increment      1: Step Time =    1.000,"PART-1-1",           396,      -6.25071,       22.5121,            0.,NA,NA,"",       3.99475,      -3.48671,      -1.94958,   2.33414E-09
C:/temp/dataset/3/19_8.odb,Step-1,Increment      1: Step Time =    1.000,"PART-1-1",           397,      -12.5007,       23.7543,            0.,NA,NA,"",       4.42655,      -3.58155,      -2.60131,   449.993E-12
C:/temp/dataset/3/19_8.odb,Step-1,Increment      1: Step Time =    1.000,"PART-1-1",           398,      -13.7507,       25.0026,            0.,NA,NA,"",       4.60529,      -3.70372,      -2.73700,   416.551E-12
C:/temp/dataset/3/19_8.odb,Step-1,Increment      1: Step Time =    1.000,"PART-1-1",           399,          -15.,         23.75,            0.,NA,NA,"",       4.57211,      -3.56775,      -2.85926,   332.176E-12
C:/temp/dataset/3/19_8.odb,Step-1,Increment      1: Step Time =    1.000,"PART-1-1",           400,       1.22659,       27.5580,            0.,NA,NA,"",       4.22296,      -4.04747,      -1.20474,   141.493E-09
C:/temp/dataset/3/19_8.odb,Step-1,Increment      1: Step Time =    1.000,"PART-1-1",           401,       2.48534,       28.7828,            0.,NA,NA,"",       4.31820,      -4.18062,      -1.08136,   149.472E-09
C:/temp/dataset/3/19_8.odb,Step-1,Increment      1: Step Time =    1.000,"PART-1-1",           402,          1.25,           30.,            0.,NA,NA,"",       4.46812,      -4.29965,      -1.21537,   120.603E-09
C:/temp/dataset/3/19_8.odb,Step-1,Increment      1: Step Time =    1.000,"PART-1-1",           403,  -8.74824E-03,       28.7751,            0.,NA,NA,"",       4.37630,      -4.16650,      -1.33875,   56.6042E-09
C:/temp/dataset/3/19_8.odb,Step-1,Increment      1: Step Time =    1.000,"PART-1-1",           404,  -16.7069E-03,       26.3073,            0.,NA,NA,"",       4.13049,      -3.91173,      -1.32639,   87.5187E-09
C:/temp/dataset/3/19_8.odb,Step-1,Increment      1: Step Time =    1.000,"PART-1-1",           405,       2.46714,       26.3253,            0.,NA,NA,"",       4.07006,      -3.92687,      -1.07011,   204.494E-09
C:/temp/dataset/3/19_8.odb,Step-1,Increment      1: Step Time =    1.000,"PART-1-1",           406,       3.70751,       22.5746,            0.,NA,NA,"",       3.66426,      -3.54635,  -922.054E-03,   534.284E-09
C:/temp/dataset/3/19_8.odb,Step-1,Increment      1: Step Time =    1.000,"PART-1-1",           407,       2.48879,       21.2797,            0.,NA,NA,"",       3.56169,      -3.40618,      -1.04093,   313.782E-09
C:/temp/dataset/3/19_8.odb,Step-1,Increment      1: Step Time =    1.000,"PART-1-1",           408,          3.75,           20.,            0.,NA,NA,"",       3.40308,      -3.28084,  -903.917E-03,   1.06037E-06
C:/temp/dataset/3/19_8.odb,Step-1,Increment      1: Step Time =    1.000,"PART-1-1",           409,       4.96872,       21.2949,            0.,NA,NA,"",       3.50992,      -3.42100,  -785.041E-03,   882.693E-09
C:/temp/dataset/3/19_8.odb,Step-1,Increment      1: Step Time =    1.000,"PART-1-1",           410,       10.8479,       12.4309,            0.,NA,NA,"",       2.54090,      -2.53751,  -131.100E-03,   70.5399E-06
C:/temp/dataset/3/19_8.odb,Step-1,Increment      1: Step Time =    1.000,"PART-1-1",           411,       9.34812,       11.6387,            0.,NA,NA,"",       2.46389,      -2.44773,  -281.756E-03,   85.6625E-06
C:/temp/dataset/3/19_8.odb,Step-1,Increment      1: Step Time =    1.000,"PART-1-1",           412,       9.99050,       10.5520,            0.,NA,NA,"",       2.34837,      -2.33899,  -209.660E-03,   130.400E-06
C:/temp/dataset/3/19_8.odb,Step-1,Increment      1: Step Time =    1.000,"PART-1-1",           413,       11.4903,       11.3442,            0.,NA,NA,"",       2.42942,      -2.42870,  -58.9603E-03,   77.8392E-06
C:/temp/dataset/3/19_8.odb,Step-1,Increment      1: Step Time =    1.000,"PART-1-1",           414,       7.16850,       11.5014,            0.,NA,NA,"",       2.47423,      -2.42199,  -505.752E-03,   140.153E-06
C:/temp/dataset/3/19_8.odb,Step-1,Increment      1: Step Time =    1.000,"PART-1-1",           415,       6.10343,       12.5850,            0.,NA,NA,"",       2.60330,      -2.52809,  -621.265E-03,   81.9955E-06
C:/temp/dataset/3/19_8.odb,Step-1,Increment      1: Step Time =    1.000,"PART-1-1",           416,            5.,         11.25,            0.,NA,NA,"",       2.49325,      -2.38468,  -727.731E-03,   292.731E-06
C:/temp/dataset/3/19_8.odb,Step-1,Increment      1: Step Time =    1.000,"PART-1-1",           417,       6.06507,       10.1664,            0.,NA,NA,"",       2.35941,      -2.27865,  -612.023E-03,   239.293E-06
C:/temp/dataset/3/19_8.odb,Step-1,Increment      1: Step Time =    1.000,"PART-1-1",           418,       14.0565,       5.06378,            0.,NA,NA,"",       1.80401,      -1.78804,   239.547E-03,   1.35318E-03
C:/temp/dataset/3/19_8.odb,Step-1,Increment      1: Step Time =    1.000,"PART-1-1",           419,       12.6274,       3.86448,            0.,NA,NA,"",       1.65626,      -1.65332,   98.6861E-03,   3.42599E-03
C:/temp/dataset/3/19_8.odb,Step-1,Increment      1: Step Time =    1.000,"PART-1-1",           420,           15.,          3.75,            0.,NA,NA,"",       1.69046,      -1.65523,   343.318E-03,   2.52848E-03
C:/temp/dataset/3/19_8.odb,Step-1,Increment      1: Step Time =    1.000,"PART-1-1",           421,       10.0280,       5.47301,            0.,NA,NA,"",       1.82097,      -1.81252,  -175.207E-03,   3.01837E-03
C:/temp/dataset/3/19_8.odb,Step-1,Increment      1: Step Time =    1.000,"PART-1-1",           422,       11.0614,       5.01383,            0.,NA,NA,"",       1.76926,      -1.76800,  -66.7043E-03,   2.96050E-03
C:/temp/dataset/3/19_8.odb,Step-1,Increment      1: Step Time =    1.000,"PART-1-1",           423,       11.6033,       6.33570,            0.,NA,NA,"",       1.90930,      -1.90920,  -19.4207E-03,   1.78541E-03
C:/temp/dataset/3/19_8.odb,Step-1,Increment      1: Step Time =    1.000,"PART-1-1",           424,       10.5698,       6.79489,            0.,NA,NA,"",       1.95700,      -1.95279,  -128.381E-03,   1.65301E-03
C:/temp/dataset/3/19_8.odb,Step-1,Increment      1: Step Time =    1.000,"PART-1-1",           425,      -4.94418,       3.17107,            0.,NA,NA,"",       2.36584,      -1.53348,      -1.80157,   518.338E-06
C:/temp/dataset/3/19_8.odb,Step-1,Increment      1: Step Time =    1.000,"PART-1-1",           426,      -3.90803,       4.11594,            0.,NA,NA,"",       2.35924,      -1.64246,      -1.69362,   1.04804E-03
C:/temp/dataset/3/19_8.odb,Step-1,Increment      1: Step Time =    1.000,"PART-1-1",           427,      -5.05000,            5.,            0.,NA,NA,"",       2.51678,      -1.73337,      -1.82472,   1.07825E-03
C:/temp/dataset/3/19_8.odb,Step-1,Increment      1: Step Time =    1.000,"PART-1-1",           428,      -6.08615,       4.05513,            0.,NA,NA,"",       2.52455,      -1.62374,      -1.93309,   469.552E-06
C:/temp/dataset/3/19_8.odb,Step-1,Increment      1: Step Time =    1.000,"PART-1-1",           429,      -3.86135,       2.39128,            0.,NA,NA,"",       2.22065,      -1.45472,      -1.67782,   411.090E-06
C:/temp/dataset/3/19_8.odb,Step-1,Increment      1: Step Time =    1.000,"PART-1-1",           430,      -5.85027,       2.20434,            0.,NA,NA,"",       2.36959,      -1.42161,      -1.89577,   398.070E-06
C:/temp/dataset/3/19_8.odb,Step-1,Increment      1: Step Time =    1.000,"PART-1-1",           431,      -4.76744,       1.42454,            0.,NA,NA,"",       2.22287,      -1.34263,      -1.77158,   392.991E-06
C:/temp/dataset/3/19_8.odb,Step-1,Increment      1: Step Time =    1.000,"PART-1-1",           432,      -9.29397,       2.69508,            0.,NA,NA,"",       2.70428,      -1.45423,      -2.27998,   206.003E-06
C:/temp/dataset/3/19_8.odb,Step-1,Increment      1: Step Time =    1.000,"PART-1-1",           433,      -8.28887,       3.92576,            0.,NA,NA,"",       2.69889,      -1.59637,      -2.17615,   199.874E-06
C:/temp/dataset/3/19_8.odb,Step-1,Increment      1: Step Time =    1.000,"PART-1-1",           434,          -9.5,            5.,            0.,NA,NA,"",       2.87845,      -1.70793,      -2.31699,   159.350E-06
C:/temp/dataset/3/19_8.odb,Step-1,Increment      1: Step Time =    1.000,"PART-1-1",           435,      -10.5051,       3.76932,            0.,NA,NA,"",       2.88289,      -1.56560,      -2.42073,   73.7997E-06
C:/temp/dataset/3/19_8.odb,Step-1,Increment      1: Step Time =    1.000,"PART-1-1",           436,      -7.92731,       1.84143,            0.,NA,NA,"",       2.52621,      -1.36844,      -2.12347,   264.094E-06
C:/temp/dataset/3/19_8.odb,Step-1,Increment      1: Step Time =    1.000,"PART-1-1",           437,      -6.68589,       1.06488,            0.,NA,NA,"",       2.36469,      -1.29057,      -1.98146,   389.335E-06
C:/temp/dataset/3/19_8.odb,Step-1,Increment      1: Step Time =    1.000,"PART-1-1",           438,      -7.09169,       2.98089,            0.,NA,NA,"",       2.52996,      -1.49938,      -2.03777,   362.926E-06
C:/temp/dataset/3/19_8.odb,Step-1,Increment      1: Step Time =    1.000,"PART-1-1",           439,      -13.9000,            5.,            0.,NA,NA,"",       3.26952,      -1.68101,      -2.80427,   3.86835E-06
C:/temp/dataset/3/19_8.odb,Step-1,Increment      1: Step Time =    1.000,"PART-1-1",           440,          -15.,          3.75,            0.,NA,NA,"",       3.29784,      -1.53586,      -2.91837,   3.45565E-06
C:/temp/dataset/3/19_8.odb,Step-1,Increment      1: Step Time =    1.000,"PART-1-1",           441,      -12.7489,       3.73428,            0.,NA,NA,"",       3.08544,      -1.54796,      -2.66904,   21.9755E-06
C:/temp/dataset/3/19_8.odb,Step-1,Increment      1: Step Time =    1.000,"PART-1-1",           442,      -9.48823,      -2.88104,            0.,NA,NA,"",       2.41686,  -835.653E-03,      -2.26779,   165.760E-06
C:/temp/dataset/3/19_8.odb,Step-1,Increment      1: Step Time =    1.000,"PART-1-1",           443,      -8.42388,      -2.23568,            0.,NA,NA,"",       2.33981,  -913.775E-03,      -2.15401,   215.982E-06
C:/temp/dataset/3/19_8.odb,Step-1,Increment      1: Step Time =    1.000,"PART-1-1",           444,      -10.2645,      -1.43363,            0.,NA,NA,"",       2.56203,  -991.257E-03,      -2.36250,   117.891E-06
C:/temp/dataset/3/19_8.odb,Step-1,Increment      1: Step Time =    1.000,"PART-1-1",           445,      -12.6725,      -1.29786,            0.,NA,NA,"",       2.81046,  -991.398E-03,      -2.62979,   39.3647E-06
C:/temp/dataset/3/19_8.odb,Step-1,Increment      1: Step Time =    1.000,"PART-1-1",           446,          -15.,         -1.25,            0.,NA,NA,"",       3.05024,  -982.362E-03,      -2.88772,   17.2249E-06
C:/temp/dataset/3/19_8.odb,Step-1,Increment      1: Step Time =    1.000,"PART-1-1",           447,      -6.16813,      -3.97275,            0.,NA,NA,"",       2.03104,  -734.551E-03,      -1.89355,   373.507E-06
C:/temp/dataset/3/19_8.odb,Step-1,Increment      1: Step Time =    1.000,"PART-1-1",           448,      -4.95000,           -5.,            0.,NA,NA,"",       1.86062,  -627.287E-03,      -1.75169,   769.894E-06
C:/temp/dataset/3/19_8.odb,Step-1,Increment      1: Step Time =    1.000,"PART-1-1",           449,       1.59412,  -355.999E-03,            0.,NA,NA,"",       1.57435,      -1.18254,      -1.03931,   7.91524E-03
C:/temp/dataset/3/19_8.odb,Step-1,Increment      1: Step Time =    1.000,"PART-1-1",           450,       2.17826,      -1.53992,            0.,NA,NA,"",       1.42906,      -1.05944,  -959.064E-03,   9.22874E-03
C:/temp/dataset/3/19_8.odb,Step-1,Increment      1: Step Time =    1.000,"PART-1-1",           451,       2.86763,   426.804E-03,            0.,NA,NA,"",       1.55571,      -1.27016,  -898.292E-03,   10.3436E-03
C:/temp/dataset/3/19_8.odb,Step-1,Increment      1: Step Time =    1.000,"PART-1-1",           452,  -387.277E-03,   5.26357E-03,            0.,NA,NA,"",       1.75719,      -1.21162,      -1.27268,   4.35973E-03
C:/temp/dataset/3/19_8.odb,Step-1,Increment      1: Step Time =    1.000,"PART-1-1",           453,   283.611E-03,      -1.19839,            0.,NA,NA,"",       1.60630,      -1.08414,      -1.18525,   4.96091E-03
C:/temp/dataset/3/19_8.odb,Step-1,Increment      1: Step Time =    1.000,"PART-1-1",           454,   923.228E-03,   847.652E-03,            0.,NA,NA,"",       1.72893,      -1.30834,      -1.13023,   7.71426E-03
C:/temp/dataset/3/19_8.odb,Step-1,Increment      1: Step Time =    1.000,"PART-1-1",           455,       6.35531,      -13.1332,            0.,NA,NA,"",   317.704E-03,  -220.655E-03,  -228.576E-03,   23.3005E-03
C:/temp/dataset/3/19_8.odb,Step-1,Increment      1: Step Time =    1.000,"PART-1-1",           456,       7.49455,      -12.2656,            0.,NA,NA,"",   315.694E-03,  -252.661E-03,  -189.276E-03,   17.8376E-03
C:/temp/dataset/3/19_8.odb,Step-1,Increment      1: Step Time =    1.000,"PART-1-1",           457,       6.13925,      -10.3824,            0.,NA,NA,"",   473.389E-03,  -363.711E-03,  -303.003E-03,   24.9250E-03
C:/temp/dataset/3/19_8.odb,Step-1,Increment      1: Step Time =    1.000,"PART-1-1",           458,            5.,        -11.25,            0.,NA,NA,"",   477.018E-03,  -328.239E-03,  -346.129E-03,   30.3041E-03
C:/temp/dataset/3/19_8.odb,Step-1,Increment      1: Step Time =    1.000,"PART-1-1",           459,       13.3376,      -16.9670,            0.,NA,NA,"",   95.7611E-03,  -69.0089E-03,   66.3924E-03,   10.9987E-03
C:/temp/dataset/3/19_8.odb,Step-1,Increment      1: Step Time =    1.000,"PART-1-1",           460,       11.8219,      -18.0071,            0.,NA,NA,"",   40.1263E-03,  -36.5147E-03,   16.6373E-03,   5.15951E-03
C:/temp/dataset/3/19_8.odb,Step-1,Increment      1: Step Time =    1.000,"PART-1-1",           461,           15.,        -18.75,            0.,NA,NA,"",   93.7337E-03,  -37.3921E-03,   85.9526E-03,   17.1438E-03
C:/temp/dataset/3/19_8.odb,Step-1,Increment      1: Step Time =    1.000,"PART-1-1",           462,       8.42876,      -15.2973,            0.,NA,NA,"",   156.839E-03,  -117.899E-03,  -103.432E-03,   12.4580E-03
C:/temp/dataset/3/19_8.odb,Step-1,Increment      1: Step Time =    1.000,"PART-1-1",           463,       10.4111,      -16.6310,            0.,NA,NA,"",   73.9687E-03,  -69.8272E-03,  -24.4034E-03,   2.77270E-03
C:/temp/dataset/3/19_8.odb,Step-1,Increment      1: Step Time =    1.000,"PART-1-1",           464,       10.7289,      -14.9294,            0.,NA,NA,"",   128.420E-03,  -127.333E-03,  -16.6735E-03,   1.99387E-03
C:/temp/dataset/3/19_8.odb,Step-1,Increment      1: Step Time =    1.000,"PART-1-1",           465,       8.74656,      -13.5956,            0.,NA,NA,"",   214.556E-03,  -184.419E-03,  -109.654E-03,   11.3415E-03
C:/temp/dataset/3/19_8.odb,Step-1,Increment      1: Step Time =    1.000,"PART-1-1",           466,      -8.72016,      -22.5745,            0.,NA,NA,"",   4.07119E-03,  -3.95759E-03,   954.993E-06,   184.442E-06
C:/temp/dataset/3/19_8.odb,Step-1,Increment      1: Step Time =    1.000,"PART-1-1",           467,      -7.48342,      -21.2909,            0.,NA,NA,"",   3.90883E-03,  -3.76248E-03,   1.05959E-03,   172.660E-06
C:/temp/dataset/3/19_8.odb,Step-1,Increment      1: Step Time =    1.000,"PART-1-1",           468,         -8.75,          -20.,            0.,NA,NA,"",   4.00029E-03,  -3.90279E-03,   877.803E-06,   256.005E-06
C:/temp/dataset/3/19_8.odb,Step-1,Increment      1: Step Time =    1.000,"PART-1-1",           469,      -9.98674,      -21.2836,            0.,NA,NA,"",   4.02652E-03,  -3.95711E-03,   744.437E-06,   89.6517E-06
C:/temp/dataset/3/19_8.odb,Step-1,Increment      1: Step Time =    1.000,"PART-1-1",           470,      -4.96670,      -26.3491,            0.,NA,NA,"",   5.16840E-03,  -5.16329E-03,  -229.730E-06,   941.274E-06
C:/temp/dataset/3/19_8.odb,Step-1,Increment      1: Step Time =    1.000,"PART-1-1",           471,      -6.21541,      -25.0985,            0.,NA,NA,"",   4.85046E-03,  -4.82956E-03,   449.856E-06,   647.166E-06
C:/temp/dataset/3/19_8.odb,Step-1,Increment      1: Step Time =    1.000,"PART-1-1",           472,      -7.47738,      -26.3212,            0.,NA,NA,"",   3.80887E-03,  -3.79502E-03,   324.562E-06,   616.254E-06
C:/temp/dataset/3/19_8.odb,Step-1,Increment      1: Step Time =    1.000,"PART-1-1",           473,      -6.22867,      -27.5719,            0.,NA,NA,"",   3.47381E-03,  -3.47300E-03,  -75.3075E-06,   963.782E-06
C:/temp/dataset/3/19_8.odb,Step-1,Increment      1: Step Time =    1.000,"PART-1-1",           474,   49.7896E-03,      -26.4387,            0.,NA,NA,"",   9.96328E-03,  -7.76926E-03,  -6.23743E-03,   2.88491E-03
C:/temp/dataset/3/19_8.odb,Step-1,Increment      1: Step Time =    1.000,"PART-1-1",           475,       1.24862,      -27.7048,            0.,NA,NA,"",   8.08214E-03,  -5.62344E-03,  -5.80499E-03,   3.72511E-03
C:/temp/dataset/3/19_8.odb,Step-1,Increment      1: Step Time =    1.000,"PART-1-1",           476,       2.52056,      -26.5649,            0.,NA,NA,"",   13.6460E-03,  -5.82083E-03,  -12.3422E-03,   5.29272E-03
C:/temp/dataset/3/19_8.odb,Step-1,Increment      1: Step Time =    1.000,"PART-1-1",           477,       1.32172,      -25.2988,            0.,NA,NA,"",   14.9646E-03,  -8.47358E-03,  -12.3344E-03,   4.22986E-03
C:/temp/dataset/3/19_8.odb,Step-1,Increment      1: Step Time =    1.000,"PART-1-1",           478,        -13.75,          -20.,            0.,NA,NA,"",   4.38389E-03,  -4.37460E-03,  -285.302E-06,   19.6592E-06
C:/temp/dataset/3/19_8.odb,Step-1,Increment      1: Step Time =    1.000,"PART-1-1",           479,          -15.,        -21.25,            0.,NA,NA,"",   4.10784E-03,  -4.06064E-03,  -620.898E-06,   15.7198E-06
C:/temp/dataset/3/19_8.odb,Step-1,Increment      1: Step Time =    1.000,"PART-1-1",           480,      -13.7430,      -22.5153,            0.,NA,NA,"",   3.78112E-03,  -3.76920E-03,  -300.016E-06,   52.9788E-06
C:/temp/dataset/3/19_8.odb,Step-1,Increment      1: Step Time =    1.000,"PART-1-1",           481,      -12.4930,      -21.2653,            0.,NA,NA,"",   4.04646E-03,  -4.04567E-03,   80.0911E-06,   48.5750E-06
C:/temp/dataset/3/19_8.odb,Step-1,Increment      1: Step Time =    1.000,"PART-1-1",           482,      -11.2297,      -22.5489,            0.,NA,NA,"",   3.83837E-03,  -3.81410E-03,   430.924E-06,   99.6635E-06
C:/temp/dataset/3/19_8.odb,Step-1,Increment      1: Step Time =    1.000,"PART-1-1",           483,        -11.25,          -20.,            0.,NA,NA,"",   4.28765E-03,  -4.26936E-03,   395.625E-06,   106.575E-06
C:/temp/dataset/3/19_8.odb,Step-1,Increment      1: Step Time =    1.000,"PART-1-1",           484,      -13.7448,      -25.0201,            0.,NA,NA,"",   3.05449E-03,  -3.03100E-03,  -378.073E-06,   62.6642E-06
C:/temp/dataset/3/19_8.odb,Step-1,Increment      1: Step Time =    1.000,"PART-1-1",           485,      -12.4878,      -23.7854,            0.,NA,NA,"",   3.48580E-03,  -3.48554E-03,   42.7510E-06,   43.7704E-06
C:/temp/dataset/3/19_8.odb,Step-1,Increment      1: Step Time =    1.000,"PART-1-1",           486,          -15.,        -23.75,            0.,NA,NA,"",   3.49131E-03,  -3.41617E-03,  -720.430E-06,   62.1478E-06
C:/temp/dataset/3/19_8.odb,Step-1,Increment      1: Step Time =    1.000,"PART-1-1",           487,       13.7335,      -27.5520,            0.,NA,NA,"",   13.7097E-03,   13.2320E-03,   3.58776E-03,   3.77834E-03
C:/temp/dataset/3/19_8.odb,Step-1,Increment      1: Step Time =    1.000,"PART-1-1",           488,       12.4835,      -28.8020,            0.,NA,NA,"",   7.82582E-03,   7.80107E-03,   621.935E-06,   4.80757E-03
C:/temp/dataset/3/19_8.odb,Step-1,Increment      1: Step Time =    1.000,"PART-1-1",           489,         13.75,          -30.,            0.,NA,NA,"",            0.,   2.34980E-39,   573.903E-42,   3.52301E-03
C:/temp/dataset/3/19_8.odb,Step-1,Increment      1: Step Time =    1.000,"PART-1-1",           490,           15.,        -28.75,            0.,NA,NA,"",   5.84281E-03,   5.77927E-03,  -859.359E-06,   1.99898E-03
C:/temp/dataset/3/19_8.odb,Step-1,Increment      1: Step Time =    1.000,"PART-1-1",           491,       9.98010,      -28.8907,            0.,NA,NA,"",   7.68665E-03,   7.44112E-03,  -1.92725E-03,   5.17102E-03
C:/temp/dataset/3/19_8.odb,Step-1,Increment      1: Step Time =    1.000,"PART-1-1",           492,       8.70049,      -27.8380,            0.,NA,NA,"",   12.7821E-03,   10.6876E-03,  -7.01126E-03,   5.60670E-03
C:/temp/dataset/3/19_8.odb,Step-1,Increment      1: Step Time =    1.000,"PART-1-1",           493,          8.75,          -30.,            0.,NA,NA,"",            0.,   4.02885E-39,  -5.68013E-39,   4.97852E-03
C:/temp/dataset/3/19_8.odb,Step-1,Increment      1: Step Time =    1.000,"PART-1-1",           494,       11.2136,      -27.6927,            0.,NA,NA,"",   14.3657E-03,   14.3080E-03,  -1.28609E-03,   4.61719E-03
C:/temp/dataset/3/19_8.odb,Step-1,Increment      1: Step Time =    1.000,"PART-1-1",           495,       12.3768,      -26.3916,            0.,NA,NA,"",   19.7159E-03,   19.5299E-03,   2.70149E-03,   5.28573E-03
C:/temp/dataset/3/19_8.odb,Step-1,Increment      1: Step Time =    1.000,"PART-1-1",           496,       11.0556,      -25.4315,            0.,NA,NA,"",   22.5291E-03,   22.1715E-03,  -3.99824E-03,   5.56978E-03
C:/temp/dataset/3/19_8.odb,Step-1,Increment      1: Step Time =    1.000,"PART-1-1",           497,       9.89242,      -26.7326,            0.,NA,NA,"",   18.5688E-03,   17.0094E-03,  -7.44857E-03,   6.06979E-03
C:/temp/dataset/3/19_8.odb,Step-1,Increment      1: Step Time =    1.000,"PART-1-1",           498,   9.79186E-03,      -28.8313,            0.,NA,NA,"",   4.15994E-03,  -3.61833E-03,  -2.05250E-03,   3.05812E-03
C:/temp/dataset/3/19_8.odb,Step-1,Increment      1: Step Time =    1.000,"PART-1-1",           499,          1.25,          -30.,            0.,NA,NA,"",            0.,  -2.13263E-39,  -5.59897E-39,   3.56981E-03
C:/temp/dataset/3/19_8.odb,Step-1,Increment      1: Step Time =    1.000,"PART-1-1",           500,      -1.18061,      -25.1833,            0.,NA,NA,"",   9.39222E-03,  -8.12729E-03,  -4.70755E-03,   2.04773E-03
C:/temp/dataset/3/19_8.odb,Step-1,Increment      1: Step Time =    1.000,"PART-1-1",           501,      -2.45538,      -26.3836,            0.,NA,NA,"",   7.12370E-03,  -6.80650E-03,  -2.10206E-03,   1.57356E-03
C:/temp/dataset/3/19_8.odb,Step-1,Increment      1: Step Time =    1.000,"PART-1-1",           502,      -1.22498,      -27.6390,            0.,NA,NA,"",   6.49903E-03,  -5.91425E-03,  -2.69427E-03,   2.28744E-03
C:/temp/dataset/3/19_8.odb,Step-1,Increment      1: Step Time =    1.000,"PART-1-1",           503,      -3.70005,      -25.1329,            0.,NA,NA,"",   6.40486E-03,  -6.34667E-03,  -861.366E-06,   1.05340E-03
C:/temp/dataset/3/19_8.odb,Step-1,Increment      1: Step Time =    1.000,"PART-1-1",           504,      -7.49141,      -28.7797,            0.,NA,NA,"",   1.64417E-03,  -1.64308E-03,  -59.9154E-06,   838.100E-06
C:/temp/dataset/3/19_8.odb,Step-1,Increment      1: Step Time =    1.000,"PART-1-1",           505,         -6.25,          -30.,            0.,NA,NA,"",            0.,  -1.13031E-39,  -642.191E-42,   1.24524E-03
C:/temp/dataset/3/19_8.odb,Step-1,Increment      1: Step Time =    1.000,"PART-1-1",           506,      -12.4949,      -26.2800,            0.,NA,NA,"",   2.48930E-03,  -2.48868E-03,  -55.8603E-06,   251.409E-06
C:/temp/dataset/3/19_8.odb,Step-1,Increment      1: Step Time =    1.000,"PART-1-1",           507,          -15.,        -26.25,            0.,NA,NA,"",   2.62426E-03,  -2.46023E-03,  -913.233E-06,   39.5375E-06
C:/temp/dataset/3/19_8.odb,Step-1,Increment      1: Step Time =    1.000,"PART-1-1",           508,       12.0036,      -23.8365,            0.,NA,NA,"",   23.7768E-03,   23.4795E-03,   3.74809E-03,   6.05368E-03
C:/temp/dataset/3/19_8.odb,Step-1,Increment      1: Step Time =    1.000,"PART-1-1",           509,       13.6432,      -25.0896,            0.,NA,NA,"",   23.7217E-03,   21.0219E-03,   10.9908E-03,   5.50427E-03
C:/temp/dataset/3/19_8.odb,Step-1,Increment      1: Step Time =    1.000,"PART-1-1",           510,           15.,        -23.75,            0.,NA,NA,"",   28.8369E-03,   15.6529E-03,   24.2189E-03,   9.80004E-03
C:/temp/dataset/3/19_8.odb,Step-1,Increment      1: Step Time =    1.000,"PART-1-1",           511,         11.25,          -30.,            0.,NA,NA,"",            0.,   5.01980E-39,  -1.51496E-39,   4.77913E-03
C:/temp/dataset/3/19_8.odb,Step-1,Increment      1: Step Time =    1.000,"PART-1-1",           512,       13.9281,      -14.6298,            0.,NA,NA,"",   188.516E-03,  -151.557E-03,   112.110E-03,   14.5134E-03
C:/temp/dataset/3/19_8.odb,Step-1,Increment      1: Step Time =    1.000,"PART-1-1",           513,       12.2657,      -15.3468,            0.,NA,NA,"",   122.974E-03,  -115.618E-03,   41.8940E-03,   6.41329E-03
C:/temp/dataset/3/19_8.odb,Step-1,Increment      1: Step Time =    1.000,"PART-1-1",           514,           15.,        -16.25,            0.,NA,NA,"",   162.840E-03,  -102.534E-03,   126.505E-03,   19.2045E-03
C:/temp/dataset/3/19_8.odb,Step-1,Increment      1: Step Time =    1.000,"PART-1-1",           515,       7.13425,      -14.5121,            0.,NA,NA,"",   227.909E-03,  -155.761E-03,  -166.376E-03,   19.6771E-03
C:/temp/dataset/3/19_8.odb,Step-1,Increment      1: Step Time =    1.000,"PART-1-1",           516,       6.81531,      -16.2905,            0.,NA,NA,"",   172.275E-03,  -93.2221E-03,  -144.874E-03,   20.6082E-03
C:/temp/dataset/3/19_8.odb,Step-1,Increment      1: Step Time =    1.000,"PART-1-1",           517,       8.10983,      -17.0757,            0.,NA,NA,"",   111.451E-03,  -61.5369E-03,  -92.9226E-03,   13.3781E-03
C:/temp/dataset/3/19_8.odb,Step-1,Increment      1: Step Time =    1.000,"PART-1-1",           518,       13.8641,      -7.41825,            0.,NA,NA,"",   597.118E-03,  -565.291E-03,   192.344E-03,   14.6762E-03
C:/temp/dataset/3/19_8.odb,Step-1,Increment      1: Step Time =    1.000,"PART-1-1",           519,       13.0286,      -8.63342,            0.,NA,NA,"",   485.814E-03,  -469.955E-03,   123.116E-03,   10.5768E-03
C:/temp/dataset/3/19_8.odb,Step-1,Increment      1: Step Time =    1.000,"PART-1-1",           520,       14.1645,      -9.96517,            0.,NA,NA,"",   432.148E-03,  -391.420E-03,   183.144E-03,   16.5128E-03
C:/temp/dataset/3/19_8.odb,Step-1,Increment      1: Step Time =    1.000,"PART-1-1",           521,           15.,         -8.75,            0.,NA,NA,"",   543.701E-03,  -480.354E-03,   254.696E-03,   20.7118E-03
C:/temp/dataset/3/19_8.odb,Step-1,Increment      1: Step Time =    1.000,"PART-1-1",           522,       12.0251,      -10.9831,            0.,NA,NA,"",   319.740E-03,  -316.055E-03,   48.4028E-03,   5.41045E-03
C:/temp/dataset/3/19_8.odb,Step-1,Increment      1: Step Time =    1.000,"PART-1-1",           523,       12.8055,      -11.9581,            0.,NA,NA,"",   280.411E-03,  -266.838E-03,   86.1848E-03,   9.18656E-03
C:/temp/dataset/3/19_8.odb,Step-1,Increment      1: Step Time =    1.000,"PART-1-1",           524,       13.3751,      -11.0455,            0.,NA,NA,"",   343.698E-03,  -320.303E-03,   124.636E-03,   12.2087E-03
C:/temp/dataset/3/19_8.odb,Step-1,Increment      1: Step Time =    1.000,"PART-1-1",           525,       12.5947,      -10.0706,            0.,NA,NA,"",   382.833E-03,  -373.038E-03,   86.0421E-03,   8.37468E-03
C:/temp/dataset/3/19_8.odb,Step-1,Increment      1: Step Time =    1.000,"PART-1-1",           526,       11.4853,  -434.223E-03,            0.,NA,NA,"",       1.19308,      -1.19305,   7.51045E-03,   6.92777E-03
C:/temp/dataset/3/19_8.odb,Step-1,Increment      1: Step Time =    1.000,"PART-1-1",           527,       10.5886,      -1.82652,            0.,NA,NA,"",       1.04803,      -1.04586,  -67.4402E-03,   7.66010E-03
C:/temp/dataset/3/19_8.odb,Step-1,Increment      1: Step Time =    1.000,"PART-1-1",           528,       11.9063,      -2.70193,            0.,NA,NA,"",   966.090E-03,  -964.640E-03,   52.9106E-03,   7.48226E-03
C:/temp/dataset/3/19_8.odb,Step-1,Increment      1: Step Time =    1.000,"PART-1-1",           529,       14.1300,       7.44597,            0.,NA,NA,"",       2.05176,      -2.03824,   235.160E-03,   322.274E-06
C:/temp/dataset/3/19_8.odb,Step-1,Increment      1: Step Time =    1.000,"PART-1-1",           530,       13.1865,       6.25975,            0.,NA,NA,"",       1.91441,      -1.90901,   143.714E-03,   1.30776E-03
C:/temp/dataset/3/19_8.odb,Step-1,Increment      1: Step Time =    1.000,"PART-1-1",           531,           15.,          6.25,            0.,NA,NA,"",       1.94654,      -1.91801,   332.062E-03,   517.267E-06
C:/temp/dataset/3/19_8.odb,Step-1,Increment      1: Step Time =    1.000,"PART-1-1",           532,       12.4155,       5.33720,            0.,NA,NA,"",       1.80932,      -1.80799,   69.3768E-03,   2.13901E-03
C:/temp/dataset/3/19_8.odb,Step-1,Increment      1: Step Time =    1.000,"PART-1-1",           533,       11.2733,       3.54111,            0.,NA,NA,"",       1.61339,      -1.61299,  -35.7322E-03,   4.20467E-03
C:/temp/dataset/3/19_8.odb,Step-1,Increment      1: Step Time =    1.000,"PART-1-1",           534,       12.2480,       13.5548,            0.,NA,NA,"",       2.66107,      -2.66106,   7.56605E-03,   66.2696E-06
C:/temp/dataset/3/19_8.odb,Step-1,Increment      1: Step Time =    1.000,"PART-1-1",           535,           15.,         13.75,            0.,NA,NA,"",       2.71153,      -2.69589,   290.805E-03,   94.8314E-06
C:/temp/dataset/3/19_8.odb,Step-1,Increment      1: Step Time =    1.000,"PART-1-1",           536,       13.6600,       14.9734,            0.,NA,NA,"",       2.81880,      -2.81503,   145.839E-03,   40.6632E-06
C:/temp/dataset/3/19_8.odb,Step-1,Increment      1: Step Time =    1.000,"PART-1-1",           537,       8.15326,       10.4556,            0.,NA,NA,"",       2.35345,      -2.31944,  -398.662E-03,   180.311E-06
C:/temp/dataset/3/19_8.odb,Step-1,Increment      1: Step Time =    1.000,"PART-1-1",           538,       12.3824,       21.2920,            0.,NA,NA,"",       3.46037,      -3.46031,  -19.8212E-03,   4.15471E-06
C:/temp/dataset/3/19_8.odb,Step-1,Increment      1: Step Time =    1.000,"PART-1-1",           539,       13.6892,       20.0188,            0.,NA,NA,"",       3.33812,      -3.33589,   121.863E-03,   3.78988E-06
C:/temp/dataset/3/19_8.odb,Step-1,Increment      1: Step Time =    1.000,"PART-1-1",           540,           15.,         21.25,            0.,NA,NA,"",       3.47900,      -3.46996,   250.579E-03,   922.129E-09
C:/temp/dataset/3/19_8.odb,Step-1,Increment      1: Step Time =    1.000,"PART-1-1",           541,       13.6932,       22.5232,            0.,NA,NA,"",       3.59604,      -3.59439,   108.899E-03,   633.140E-09
C:/temp/dataset/3/19_8.odb,Step-1,Increment      1: Step Time =    1.000,"PART-1-1",           542,       9.77662,       16.3041,            0.,NA,NA,"",       2.94325,      -2.93155,  -262.199E-03,   42.2120E-06
C:/temp/dataset/3/19_8.odb,Step-1,Increment      1: Step Time =    1.000,"PART-1-1",           543,       11.0318,       15.0036,            0.,NA,NA,"",       2.80687,      -2.80406,  -125.726E-03,   49.1401E-06
C:/temp/dataset/3/19_8.odb,Step-1,Increment      1: Step Time =    1.000,"PART-1-1",           544,       12.3430,       16.2301,            0.,NA,NA,"",       2.93768,      -2.93768,   3.12970E-03,   39.0453E-06
C:/temp/dataset/3/19_8.odb,Step-1,Increment      1: Step Time =    1.000,"PART-1-1",           545,         13.75,           30.,            0.,NA,NA,"",       4.36705,      -4.36641,   74.8313E-03,   72.6337E-09
C:/temp/dataset/3/19_8.odb,Step-1,Increment      1: Step Time =    1.000,"PART-1-1",           546,       12.4862,       28.7548,            0.,NA,NA,"",       4.23142,      -4.23114,  -48.9651E-03,   251.763E-09
C:/temp/dataset/3/19_8.odb,Step-1,Increment      1: Step Time =    1.000,"PART-1-1",           547,           15.,         28.75,            0.,NA,NA,"",       4.24929,      -4.24407,   210.527E-03,   78.6418E-09
C:/temp/dataset/3/19_8.odb,Step-1,Increment      1: Step Time =    1.000,"PART-1-1",           548,       12.4064,       23.7898,            0.,NA,NA,"",       3.71838,      -3.71825,  -30.6830E-03,   615.889E-09
C:/temp/dataset/3/19_8.odb,Step-1,Increment      1: Step Time =    1.000,"PART-1-1",           549,           15.,         23.75,            0.,NA,NA,"",       3.73553,      -3.72799,   237.229E-03,   637.181E-09
C:/temp/dataset/3/19_8.odb,Step-1,Increment      1: Step Time =    1.000,"PART-1-1",           550,       9.91541,       26.3072,            0.,NA,NA,"",       3.97620,      -3.96478,  -301.234E-03,   202.995E-09
C:/temp/dataset/3/19_8.odb,Step-1,Increment      1: Step Time =    1.000,"PART-1-1",           551,       11.1537,       25.0565,            0.,NA,NA,"",       3.84591,      -3.84230,  -166.741E-03,   268.785E-09
C:/temp/dataset/3/19_8.odb,Step-1,Increment      1: Step Time =    1.000,"PART-1-1",           552,       11.2110,       27.5221,            0.,NA,NA,"",       4.10079,      -4.09709,  -173.993E-03,   308.979E-09
C:/temp/dataset/3/19_8.odb,Step-1,Increment      1: Step Time =    1.000,"PART-1-1",           553,       8.69233,       27.5515,            0.,NA,NA,"",       4.10967,      -4.08668,  -434.120E-03,   157.531E-09
C:/temp/dataset/3/19_8.odb,Step-1,Increment      1: Step Time =    1.000,"PART-1-1",           554,       7.41297,       26.3376,            0.,NA,NA,"",       3.99396,      -3.95455,  -559.688E-03,   144.333E-09
C:/temp/dataset/3/19_8.odb,Step-1,Increment      1: Step Time =    1.000,"PART-1-1",           555,       8.63604,       25.0933,            0.,NA,NA,"",       3.85634,      -3.83265,  -426.801E-03,   305.489E-09
C:/temp/dataset/3/19_8.odb,Step-1,Increment      1: Step Time =    1.000,"PART-1-1",           556,      -1.26375,       27.5391,            0.,NA,NA,"",       4.28898,      -4.03222,      -1.46169,   58.2480E-09
C:/temp/dataset/3/19_8.odb,Step-1,Increment      1: Step Time =    1.000,"PART-1-1",           557,         -1.25,           30.,            0.,NA,NA,"",       4.53247,      -4.28630,      -1.47341,   32.4505E-09
C:/temp/dataset/3/19_8.odb,Step-1,Increment      1: Step Time =    1.000,"PART-1-1",           558,      -2.50500,       28.7640,            0.,NA,NA,"",       4.44832,      -4.15202,      -1.59635,   14.6159E-09
C:/temp/dataset/3/19_8.odb,Step-1,Increment      1: Step Time =    1.000,"PART-1-1",           559,      -7.50143,       28.7522,            0.,NA,NA,"",       4.63345,      -4.12411,      -2.11200,   1.30301E-09
C:/temp/dataset/3/19_8.odb,Step-1,Increment      1: Step Time =    1.000,"PART-1-1",           560,         -8.75,           30.,            0.,NA,NA,"",       4.80437,      -4.24624,      -2.24754,   1.84526E-09
C:/temp/dataset/3/19_8.odb,Step-1,Increment      1: Step Time =    1.000,"PART-1-1",           561,      -6.25460,       27.5081,            0.,NA,NA,"",       4.46387,      -4.00236,      -1.97666,   2.35606E-09
C:/temp/dataset/3/19_8.odb,Step-1,Increment      1: Step Time =    1.000,"PART-1-1",           562,        -13.75,           30.,            0.,NA,NA,"",       5.04401,      -4.21954,      -2.76362,   99.1563E-12
C:/temp/dataset/3/19_8.odb,Step-1,Increment      1: Step Time =    1.000,"PART-1-1",           563,          -15.,         28.75,            0.,NA,NA,"",       5.00065,      -4.08384,      -2.88597,   74.2216E-12
C:/temp/dataset/3/19_8.odb,Step-1,Increment      1: Step Time =    1.000,"PART-1-1",           564,      -13.7509,       27.5010,            0.,NA,NA,"",       4.82273,      -3.96159,      -2.75037,   343.857E-12
C:/temp/dataset/3/19_8.odb,Step-1,Increment      1: Step Time =    1.000,"PART-1-1",           565,          -15.,         26.25,            0.,NA,NA,"",       4.78420,      -3.82580,      -2.87261,   329.518E-12
C:/temp/dataset/3/19_8.odb,Step-1,Increment      1: Step Time =    1.000,"PART-1-1",           566,      -12.5016,       26.2536,            0.,NA,NA,"",       4.64529,      -3.83951,      -2.61475,   445.666E-12
C:/temp/dataset/3/19_8.odb,Step-1,Increment      1: Step Time =    1.000,"PART-1-1",           567,      -7.50093,       21.2547,            0.,NA,NA,"",       3.93916,      -3.35025,      -2.07190,   1.41687E-09
C:/temp/dataset/3/19_8.odb,Step-1,Increment      1: Step Time =    1.000,"PART-1-1",           568,         -6.25,           20.,            0.,NA,NA,"",       3.76360,      -3.22743,      -1.93608,   2.80470E-09
C:/temp/dataset/3/19_8.odb,Step-1,Increment      1: Step Time =    1.000,"PART-1-1",           569,      -4.99978,       21.2574,            0.,NA,NA,"",       3.82171,      -3.36389,      -1.81376,   1.42139E-09
C:/temp/dataset/3/19_8.odb,Step-1,Increment      1: Step Time =    1.000,"PART-1-1",           570,      -3.74911,       22.5208,            0.,NA,NA,"",       3.88815,      -3.50098,      -1.69141,   19.4383E-09
C:/temp/dataset/3/19_8.odb,Step-1,Increment      1: Step Time =    1.000,"PART-1-1",           571,         -3.75,           20.,            0.,NA,NA,"",       3.64945,      -3.24078,      -1.67804,   4.09621E-09
C:/temp/dataset/3/19_8.odb,Step-1,Increment      1: Step Time =    1.000,"PART-1-1",           572,      -2.49933,       21.2634,            0.,NA,NA,"",       3.71889,      -3.37787,      -1.55570,   19.9139E-09
C:/temp/dataset/3/19_8.odb,Step-1,Increment      1: Step Time =    1.000,"PART-1-1",           573,         -1.25,           20.,            0.,NA,NA,"",       3.55046,      -3.25413,      -1.42000,   55.1577E-09
C:/temp/dataset/3/19_8.odb,Step-1,Increment      1: Step Time =    1.000,"PART-1-1",           574,  -2.23348E-03,       21.2694,            0.,NA,NA,"",       3.63169,      -3.39182,      -1.29799,   70.8033E-09
C:/temp/dataset/3/19_8.odb,Step-1,Increment      1: Step Time =    1.000,"PART-1-1",           575,      -1.25156,       22.5328,            0.,NA,NA,"",       3.79665,      -3.51555,      -1.43369,   63.5932E-09
C:/temp/dataset/3/19_8.odb,Step-1,Increment      1: Step Time =    1.000,"PART-1-1",           576,         -3.75,           30.,            0.,NA,NA,"",       4.61042,      -4.27295,      -1.73145,   2.65065E-09
C:/temp/dataset/3/19_8.odb,Step-1,Increment      1: Step Time =    1.000,"PART-1-1",           577,      -5.00318,       28.7559,            0.,NA,NA,"",       4.53428,      -4.13785,      -1.85416,   2.37471E-09
C:/temp/dataset/3/19_8.odb,Step-1,Increment      1: Step Time =    1.000,"PART-1-1",           578,       7.36074,       18.8052,            0.,NA,NA,"",       3.21985,      -3.17679,  -524.846E-03,   14.1822E-06
C:/temp/dataset/3/19_8.odb,Step-1,Increment      1: Step Time =    1.000,"PART-1-1",           579,       8.58169,       17.5494,            0.,NA,NA,"",       3.07876,      -3.05368,  -392.142E-03,   20.9648E-06
C:/temp/dataset/3/19_8.odb,Step-1,Increment      1: Step Time =    1.000,"PART-1-1",           580,       8.60057,       20.0599,            0.,NA,NA,"",       3.33742,      -3.31293,  -403.583E-03,   6.15512E-06
C:/temp/dataset/3/19_8.odb,Step-1,Increment      1: Step Time =    1.000,"PART-1-1",           581,            5.,         18.75,            0.,NA,NA,"",       3.25056,      -3.15848,  -768.212E-03,   8.34097E-06
C:/temp/dataset/3/19_8.odb,Step-1,Increment      1: Step Time =    1.000,"PART-1-1",           582,       6.17685,       17.5255,            0.,NA,NA,"",       3.10507,      -3.03836,  -640.194E-03,   13.5176E-06
C:/temp/dataset/3/19_8.odb,Step-1,Increment      1: Step Time =    1.000,"PART-1-1",           583,       6.18390,       20.0298,            0.,NA,NA,"",       3.36092,      -3.29691,  -652.854E-03,   3.72722E-06
C:/temp/dataset/3/19_8.odb,Step-1,Increment      1: Step Time =    1.000,"PART-1-1",           584,            5.,         16.25,            0.,NA,NA,"",       2.99704,      -2.90042,  -754.828E-03,   38.5388E-06
C:/temp/dataset/3/19_8.odb,Step-1,Increment      1: Step Time =    1.000,"PART-1-1",           585,       6.15340,       15.0385,            0.,NA,NA,"",       2.85180,      -2.78151,  -629.281E-03,   45.3372E-06
C:/temp/dataset/3/19_8.odb,Step-1,Increment      1: Step Time =    1.000,"PART-1-1",           586,       7.33024,       16.3140,            0.,NA,NA,"",       2.96448,      -2.91946,  -514.695E-03,   39.8499E-06
C:/temp/dataset/3/19_8.odb,Step-1,Increment      1: Step Time =    1.000,"PART-1-1",           587,           15.,         16.25,            0.,NA,NA,"",       2.96692,      -2.95393,   277.319E-03,   35.5780E-06
C:/temp/dataset/3/19_8.odb,Step-1,Increment      1: Step Time =    1.000,"PART-1-1",           588,       13.6830,       17.5067,            0.,NA,NA,"",       3.07954,      -3.07660,   134.646E-03,   14.4409E-06
C:/temp/dataset/3/19_8.odb,Step-1,Increment      1: Step Time =    1.000,"PART-1-1",           589,           15.,         18.75,            0.,NA,NA,"",       3.22276,      -3.21194,   263.935E-03,   8.56172E-06
C:/temp/dataset/3/19_8.odb,Step-1,Increment      1: Step Time =    1.000,"PART-1-1",           590,       7.36831,       6.81272,            0.,NA,NA,"",       1.99679,      -1.94310,  -459.924E-03,   2.58637E-03
C:/temp/dataset/3/19_8.odb,Step-1,Increment      1: Step Time =    1.000,"PART-1-1",           591,       6.10412,       7.73110,            0.,NA,NA,"",       2.11601,      -2.03036,  -595.921E-03,   799.092E-06
C:/temp/dataset/3/19_8.odb,Step-1,Increment      1: Step Time =    1.000,"PART-1-1",           592,            5.,          6.25,            0.,NA,NA,"",       2.00264,      -1.87540,  -702.451E-03,   4.84550E-03
C:/temp/dataset/3/19_8.odb,Step-1,Increment      1: Step Time =    1.000,"PART-1-1",           593,       6.26419,       5.33162,            0.,NA,NA,"",       1.87833,      -1.79110,  -565.772E-03,   6.35820E-03
C:/temp/dataset/3/19_8.odb,Step-1,Increment      1: Step Time =    1.000,"PART-1-1",           594,           15.,          8.75,            0.,NA,NA,"",       2.20182,      -2.17867,   318.452E-03,   129.353E-06
C:/temp/dataset/3/19_8.odb,Step-1,Increment      1: Step Time =    1.000,"PART-1-1",           595,       13.1418,       8.51598,            0.,NA,NA,"",       2.14818,      -2.14442,   127.030E-03,   392.708E-06
C:/temp/dataset/3/19_8.odb,Step-1,Increment      1: Step Time =    1.000,"PART-1-1",           596,       6.30252,      -5.49102,            0.,NA,NA,"",   793.014E-03,  -679.850E-03,  -408.258E-03,   23.3999E-03
C:/temp/dataset/3/19_8.odb,Step-1,Increment      1: Step Time =    1.000,"PART-1-1",           597,            5.,         -6.25,            0.,NA,NA,"",   811.138E-03,  -637.376E-03,  -501.694E-03,   39.8255E-03
C:/temp/dataset/3/19_8.odb,Step-1,Increment      1: Step Time =    1.000,"PART-1-1",           598,       6.10325,      -7.87566,            0.,NA,NA,"",   634.659E-03,  -516.240E-03,  -369.171E-03,   25.9014E-03
C:/temp/dataset/3/19_8.odb,Step-1,Increment      1: Step Time =    1.000,"PART-1-1",           599,       7.40577,      -7.11668,            0.,NA,NA,"",   630.112E-03,  -560.837E-03,  -287.233E-03,   14.6924E-03
C:/temp/dataset/3/19_8.odb,Step-1,Increment      1: Step Time =    1.000,"PART-1-1",           600,            5.,         -8.75,            0.,NA,NA,"",   631.573E-03,  -473.886E-03,  -417.513E-03,   31.5138E-03
C:/temp/dataset/3/19_8.odb,Step-1,Increment      1: Step Time =    1.000,"PART-1-1",           601,            5.,        -13.75,            0.,NA,NA,"",   345.298E-03,  -208.609E-03,  -275.160E-03,   29.7111E-03
C:/temp/dataset/3/19_8.odb,Step-1,Increment      1: Step Time =    1.000,"PART-1-1",           602,       5.77894,      -15.1288,            0.,NA,NA,"",   253.369E-03,  -144.983E-03,  -207.787E-03,   26.1055E-03
C:/temp/dataset/3/19_8.odb,Step-1,Increment      1: Step Time =    1.000,"PART-1-1",           603,            5.,        -16.25,            0.,NA,NA,"",   237.703E-03,  -115.100E-03,  -207.977E-03,   29.8634E-03
C:/temp/dataset/3/19_8.odb,Step-1,Increment      1: Step Time =    1.000,"PART-1-1",           604,       2.77244,      -24.0596,            0.,NA,NA,"",   24.7131E-03,  -8.18075E-03,  -23.3197E-03,   6.72761E-03
C:/temp/dataset/3/19_8.odb,Step-1,Increment      1: Step Time =    1.000,"PART-1-1",           605,       3.76359,      -25.5842,            0.,NA,NA,"",   21.2785E-03,  -4.09379E-03,  -20.8810E-03,   7.25984E-03
C:/temp/dataset/3/19_8.odb,Step-1,Increment      1: Step Time =    1.000,"PART-1-1",           606,       5.11162,      -24.8806,            0.,NA,NA,"",   30.0850E-03,   643.560E-06,  -30.0781E-03,   10.0575E-03
C:/temp/dataset/3/19_8.odb,Step-1,Increment      1: Step Time =    1.000,"PART-1-1",           607,       4.12047,      -23.3559,            0.,NA,NA,"",   38.8212E-03,  -5.76941E-03,  -38.3901E-03,   10.0082E-03
C:/temp/dataset/3/19_8.odb,Step-1,Increment      1: Step Time =    1.000,"PART-1-1",           608,       8.48587,      -2.76980,            0.,NA,NA,"",   976.858E-03,  -944.598E-03,  -248.970E-03,   10.2302E-03
C:/temp/dataset/3/19_8.odb,Step-1,Increment      1: Step Time =    1.000,"PART-1-1",           609,       9.66601,      -3.38468,            0.,NA,NA,"",   898.279E-03,  -887.487E-03,  -138.828E-03,   7.66674E-03
C:/temp/dataset/3/19_8.odb,Step-1,Increment      1: Step Time =    1.000,"PART-1-1",           610,       9.40849,      -1.21164,            0.,NA,NA,"",       1.11997,      -1.10540,  -180.040E-03,   8.69297E-03
C:/temp/dataset/3/19_8.odb,Step-1,Increment      1: Step Time =    1.000,"PART-1-1",           611,       3.88333,            5.,            0.,NA,NA,"",       1.94998,      -1.75998,  -839.589E-03,   11.3961E-03
C:/temp/dataset/3/19_8.odb,Step-1,Increment      1: Step Time =    1.000,"PART-1-1",           612,       3.93709,       2.49951,            0.,NA,NA,"",       1.69021,      -1.48949,  -798.891E-03,   9.42638E-03
C:/temp/dataset/3/19_8.odb,Step-1,Increment      1: Step Time =    1.000,"PART-1-1",           613,       5.14044,       3.62548,            0.,NA,NA,"",       1.74554,      -1.61070,  -672.706E-03,   8.36987E-03
C:/temp/dataset/3/19_8.odb,Step-1,Increment      1: Step Time =    1.000,"PART-1-1",           614,       1.70000,           -5.,            0.,NA,NA,"",       1.19438,  -663.636E-03,  -993.037E-03,   1.58547E-03
C:/temp/dataset/3/19_8.odb,Step-1,Increment      1: Step Time =    1.000,"PART-1-1",           615,       2.88648,      -4.17028,            0.,NA,NA,"",       1.15188,  -775.692E-03,  -851.551E-03,   7.42408E-03
C:/temp/dataset/3/19_8.odb,Step-1,Increment      1: Step Time =    1.000,"PART-1-1",           616,       1.90498,      -3.27989,            0.,NA,NA,"",       1.30683,  -866.645E-03,  -978.120E-03,   6.60356E-03
C:/temp/dataset/3/19_8.odb,Step-1,Increment      1: Step Time =    1.000,"PART-1-1",           617,      -2.82853,       3.20340,            0.,NA,NA,"",       2.20660,      -1.54959,      -1.57095,   1.64541E-03
C:/temp/dataset/3/19_8.odb,Step-1,Increment      1: Step Time =    1.000,"PART-1-1",           618,      -1.73717,       4.08745,            0.,NA,NA,"",       2.20504,      -1.65101,      -1.46164,   4.41255E-03
C:/temp/dataset/3/19_8.odb,Step-1,Increment      1: Step Time =    1.000,"PART-1-1",           619,      -2.81667,            5.,            0.,NA,NA,"",       2.35299,      -1.74299,      -1.58068,   1.83578E-03
C:/temp/dataset/3/19_8.odb,Step-1,Increment      1: Step Time =    1.000,"PART-1-1",           620,      -7.28333,            5.,            0.,NA,NA,"",       2.69313,      -1.72105,      -2.07146,   469.393E-06
C:/temp/dataset/3/19_8.odb,Step-1,Increment      1: Step Time =    1.000,"PART-1-1",           621,      -11.7000,            5.,            0.,NA,NA,"",       3.07057,      -1.69453,      -2.56067,   40.5829E-06
C:/temp/dataset/3/19_8.odb,Step-1,Increment      1: Step Time =    1.000,"PART-1-1",           622,      -11.5540,       2.50359,            0.,NA,NA,"",       2.90008,      -1.41910,      -2.52916,   83.0829E-06
C:/temp/dataset/3/19_8.odb,Step-1,Increment      1: Step Time =    1.000,"PART-1-1",           623,      -8.37698,      -4.01732,            0.,NA,NA,"",       2.25470,  -716.454E-03,      -2.13784,   178.945E-06
C:/temp/dataset/3/19_8.odb,Step-1,Increment      1: Step Time =    1.000,"PART-1-1",           624,      -10.5279,      -3.86372,            0.,NA,NA,"",       2.48355,  -720.428E-03,      -2.37676,   69.6501E-06
C:/temp/dataset/3/19_8.odb,Step-1,Increment      1: Step Time =    1.000,"PART-1-1",           625,      -9.41667,           -5.,            0.,NA,NA,"",       2.32588,  -601.382E-03,      -2.24679,   144.915E-06
C:/temp/dataset/3/19_8.odb,Step-1,Increment      1: Step Time =    1.000,"PART-1-1",           626,          3.75,          -20.,            0.,NA,NA,"",   44.6409E-03,   2.89241E-03,  -44.5470E-03,   11.8061E-03
C:/temp/dataset/3/19_8.odb,Step-1,Increment      1: Step Time =    1.000,"PART-1-1",           627,       2.74072,      -21.3682,            0.,NA,NA,"",   31.7889E-03,  -5.96724E-03,  -31.2238E-03,   4.08980E-03
C:/temp/dataset/3/19_8.odb,Step-1,Increment      1: Step Time =    1.000,"PART-1-1",           628,       4.11640,      -22.1674,            0.,NA,NA,"",   48.4407E-03,  -8.41338E-03,  -47.7045E-03,   12.4054E-03
C:/temp/dataset/3/19_8.odb,Step-1,Increment      1: Step Time =    1.000,"PART-1-1",           629,       5.12568,      -20.7992,            0.,NA,NA,"",   78.8147E-03,  -5.56362E-03,  -78.6181E-03,   21.7019E-03
C:/temp/dataset/3/19_8.odb,Step-1,Increment      1: Step Time =    1.000,"PART-1-1",           630,          1.25,          -20.,            0.,NA,NA,"",   16.9380E-03,   5.46299E-03,  -16.0329E-03,   1.11725E-03
C:/temp/dataset/3/19_8.odb,Step-1,Increment      1: Step Time =    1.000,"PART-1-1",           631,   73.0809E-03,      -21.3299,            0.,NA,NA,"",   9.73674E-03,  -2.53256E-03,  -9.40160E-03,   569.695E-06
C:/temp/dataset/3/19_8.odb,Step-1,Increment      1: Step Time =    1.000,"PART-1-1",           632,       1.56380,      -22.6981,            0.,NA,NA,"",   20.4114E-03,  -8.33053E-03,  -18.6340E-03,   4.73221E-03
C:/temp/dataset/3/19_8.odb,Step-1,Increment      1: Step Time =    1.000,"PART-1-1",           633,         -1.25,          -20.,            0.,NA,NA,"",   5.56460E-03,   874.891E-06,  -5.49539E-03,   1.33643E-03
C:/temp/dataset/3/19_8.odb,Step-1,Increment      1: Step Time =    1.000,"PART-1-1",           634,      -2.46493,      -21.3147,            0.,NA,NA,"",   3.71789E-03,  -2.93250E-03,  -2.28543E-03,   282.232E-06
C:/temp/dataset/3/19_8.odb,Step-1,Increment      1: Step Time =    1.000,"PART-1-1",           635,      -1.14185,      -22.6446,            0.,NA,NA,"",   7.93747E-03,  -5.96786E-03,  -5.23335E-03,   1.14572E-03
C:/temp/dataset/3/19_8.odb,Step-1,Increment      1: Step Time =    1.000,"PART-1-1",           636,         -3.75,          -20.,            0.,NA,NA,"",   1.66763E-03,  -1.48869E-03,  -751.537E-06,   841.112E-06
C:/temp/dataset/3/19_8.odb,Step-1,Increment      1: Step Time =    1.000,"PART-1-1",           637,      -4.97847,      -21.2978,            0.,NA,NA,"",   3.41655E-03,  -3.37818E-03,   510.563E-06,   290.491E-06
C:/temp/dataset/3/19_8.odb,Step-1,Increment      1: Step Time =    1.000,"PART-1-1",           638,      -3.69340,      -22.6125,            0.,NA,NA,"",   4.81160E-03,  -4.78681E-03,  -487.868E-06,   375.370E-06
C:/temp/dataset/3/19_8.odb,Step-1,Increment      1: Step Time =    1.000,"PART-1-1",           639,      -4.95791,      -23.8547,            0.,NA,NA,"",   5.25940E-03,  -5.25237E-03,   271.747E-06,   513.311E-06
C:/temp/dataset/3/19_8.odb,Step-1,Increment      1: Step Time =    1.000,"PART-1-1",           640,      -6.21189,      -22.5887,            0.,NA,NA,"",   4.35999E-03,  -4.26091E-03,   924.216E-06,   293.804E-06
C:/temp/dataset/3/19_8.odb,Step-1,Increment      1: Step Time =    1.000,"PART-1-1",           641,      -7.46939,      -23.8324,            0.,NA,NA,"",   4.38536E-03,  -4.29682E-03,   876.750E-06,   323.176E-06
C:/temp/dataset/3/19_8.odb,Step-1,Increment      1: Step Time =    1.000,"PART-1-1",           642,           15.,        -13.75,            0.,NA,NA,"",   260.197E-03,  -197.579E-03,   169.307E-03,   20.2567E-03
C:/temp/dataset/3/19_8.odb,Step-1,Increment      1: Step Time =    1.000,"PART-1-1",           643,       14.2106,      -12.3304,            0.,NA,NA,"",   300.394E-03,  -257.659E-03,   154.429E-03,   16.4844E-03
C:/temp/dataset/3/19_8.odb,Step-1,Increment      1: Step Time =    1.000,"PART-1-1",           644,       13.1387,      -13.2101,            0.,NA,NA,"",   227.103E-03,  -207.233E-03,   92.9001E-03,   10.7728E-03
C:/temp/dataset/3/19_8.odb,Step-1,Increment      1: Step Time =    1.000,"PART-1-1",           645,           15.,        -11.25,            0.,NA,NA,"",   386.816E-03,  -323.255E-03,   212.445E-03,   20.7861E-03
C:/temp/dataset/3/19_8.odb,Step-1,Increment      1: Step Time =    1.000,"PART-1-1",           646,           15.,         -6.25,            0.,NA,NA,"",   731.223E-03,  -669.781E-03,   293.396E-03,   19.2603E-03
C:/temp/dataset/3/19_8.odb,Step-1,Increment      1: Step Time =    1.000,"PART-1-1",           647,       14.0624,      -4.92369,            0.,NA,NA,"",   806.841E-03,  -772.994E-03,   231.241E-03,   13.9793E-03
C:/temp/dataset/3/19_8.odb,Step-1,Increment      1: Step Time =    1.000,"PART-1-1",           648,       12.9264,      -6.09194,            0.,NA,NA,"",   675.670E-03,  -662.751E-03,   131.496E-03,   9.74285E-03
C:/temp/dataset/3/19_8.odb,Step-1,Increment      1: Step Time =    1.000,"PART-1-1",           649,           15.,         -3.75,            0.,NA,NA,"",   947.127E-03,  -889.898E-03,   324.239E-03,   15.8381E-03
C:/temp/dataset/3/19_8.odb,Step-1,Increment      1: Step Time =    1.000,"PART-1-1",           650,       13.0440,      -3.68493,            0.,NA,NA,"",   890.574E-03,  -877.612E-03,   151.391E-03,   9.38721E-03
C:/temp/dataset/3/19_8.odb,Step-1,Increment      1: Step Time =    1.000,"PART-1-1",           651,       8.06094,   477.426E-03,            0.,NA,NA,"",       1.32214,      -1.28063,  -328.702E-03,   7.78882E-03
C:/temp/dataset/3/19_8.odb,Step-1,Increment      1: Step Time =    1.000,"PART-1-1",           652,       8.76493,       2.31856,            0.,NA,NA,"",       1.50243,      -1.47666,  -277.085E-03,   6.54264E-03
C:/temp/dataset/3/19_8.odb,Step-1,Increment      1: Step Time =    1.000,"PART-1-1",           653,       6.73548,       2.80805,            0.,NA,NA,"",       1.60366,      -1.52648,  -491.504E-03,   5.72351E-03
C:/temp/dataset/3/19_8.odb,Step-1,Increment      1: Step Time =    1.000,"PART-1-1",           654,       6.03149,   966.916E-03,            0.,NA,NA,"",       1.43871,      -1.33109,  -545.981E-03,   8.35910E-03
C:/temp/dataset/3/19_8.odb,Step-1,Increment      1: Step Time =    1.000,"PART-1-1",           655,            5.,          8.75,            0.,NA,NA,"",       2.24419,      -2.12782,  -713.266E-03,   509.060E-06
C:/temp/dataset/3/19_8.odb,Step-1,Increment      1: Step Time =    1.000,"PART-1-1",           656,       7.16919,       9.14751,            0.,NA,NA,"",       2.23505,      -2.17998,  -493.096E-03,   759.950E-06
C:/temp/dataset/3/19_8.odb,Step-1,Increment      1: Step Time =    1.000,"PART-1-1",           657,          3.75,           30.,            0.,NA,NA,"",       4.41797,      -4.31300,  -957.327E-03,   289.727E-09
C:/temp/dataset/3/19_8.odb,Step-1,Increment      1: Step Time =    1.000,"PART-1-1",           658,       3.71036,       27.5731,            0.,NA,NA,"",       4.17155,      -4.06229,  -948.456E-03,   214.490E-09
C:/temp/dataset/3/19_8.odb,Step-1,Increment      1: Step Time =    1.000,"PART-1-1",           659,       7.38617,       23.8490,            0.,NA,NA,"",       3.73810,      -3.69754,  -549.161E-03,   678.984E-09
C:/temp/dataset/3/19_8.odb,Step-1,Increment      1: Step Time =    1.000,"PART-1-1",           660,       6.16255,       25.1024,            0.,NA,NA,"",       3.88080,      -3.82038,  -682.154E-03,   308.211E-09
C:/temp/dataset/3/19_8.odb,Step-1,Increment      1: Step Time =    1.000,"PART-1-1",           661,       4.93576,       23.8439,            0.,NA,NA,"",       3.77022,      -3.68392,  -802.057E-03,   361.647E-09
C:/temp/dataset/3/19_8.odb,Step-1,Increment      1: Step Time =    1.000,"PART-1-1",           662,       6.15938,       22.5905,            0.,NA,NA,"",       3.62339,      -3.56109,  -669.064E-03,   628.243E-09
C:/temp/dataset/3/19_8.odb,Step-1,Increment      1: Step Time =    1.000,"PART-1-1",           663,      -10.0017,       23.7560,            0.,NA,NA,"",       4.29138,      -3.59507,      -2.34338,   886.863E-12
C:/temp/dataset/3/19_8.odb,Step-1,Increment      1: Step Time =    1.000,"PART-1-1",           664,      -8.75135,       22.5073,            0.,NA,NA,"",       4.11515,      -3.47286,      -2.20766,   909.009E-12
C:/temp/dataset/3/19_8.odb,Step-1,Increment      1: Step Time =    1.000,"PART-1-1",           665,      -10.0004,       21.2526,            0.,NA,NA,"",       4.06962,      -3.33668,      -2.32988,   857.551E-12
C:/temp/dataset/3/19_8.odb,Step-1,Increment      1: Step Time =    1.000,"PART-1-1",           666,      -11.2505,       22.5043,            0.,NA,NA,"",       4.24797,      -3.45920,      -2.46559,   816.787E-12
C:/temp/dataset/3/19_8.odb,Step-1,Increment      1: Step Time =    1.000,"PART-1-1",           667,        -11.25,           20.,            0.,NA,NA,"",       4.03209,      -3.20072,      -2.45217,   677.216E-12
C:/temp/dataset/3/19_8.odb,Step-1,Increment      1: Step Time =    1.000,"PART-1-1",           668,         -8.75,           20.,            0.,NA,NA,"",       3.89159,      -3.21407,      -2.19413,   1.99338E-09
C:/temp/dataset/3/19_8.odb,Step-1,Increment      1: Step Time =    1.000,"PART-1-1",           669,       7.37456,       21.3253,            0.,NA,NA,"",       3.47867,      -3.43699,  -536.881E-03,   3.58047E-06
C:/temp/dataset/3/19_8.odb,Step-1,Increment      1: Step Time =    1.000,"PART-1-1",           670,      -1.26076,       25.0501,            0.,NA,NA,"",       4.04352,      -3.77533,      -1.44808,   71.6154E-09
C:/temp/dataset/3/19_8.odb,Step-1,Increment      1: Step Time =    1.000,"PART-1-1",           671,      -2.50213,       23.7814,            0.,NA,NA,"",       3.96186,      -3.63775,      -1.56944,   27.9335E-09
C:/temp/dataset/3/19_8.odb,Step-1,Increment      1: Step Time =    1.000,"PART-1-1",           672,          1.25,           20.,            0.,NA,NA,"",       3.46794,      -3.26748,      -1.16196,   155.558E-09
C:/temp/dataset/3/19_8.odb,Step-1,Increment      1: Step Time =    1.000,"PART-1-1",           673,            5.,         13.75,            0.,NA,NA,"",       2.74442,      -2.64240,  -741.318E-03,   100.517E-06
C:/temp/dataset/3/19_8.odb,Step-1,Increment      1: Step Time =    1.000,"PART-1-1",           674,       7.85923,       4.51418,            0.,NA,NA,"",       1.75173,      -1.70760,  -390.691E-03,   5.04518E-03
C:/temp/dataset/3/19_8.odb,Step-1,Increment      1: Step Time =    1.000,"PART-1-1",           675,       9.45843,       7.45797,            0.,NA,NA,"",       2.03204,      -2.01698,  -246.929E-03,   1.48823E-03
C:/temp/dataset/3/19_8.odb,Step-1,Increment      1: Step Time =    1.000,"PART-1-1",           676,       11.3500,       8.04392,            0.,NA,NA,"",       2.08697,      -2.08624,  -55.4612E-03,   838.235E-06
C:/temp/dataset/3/19_8.odb,Step-1,Increment      1: Step Time =    1.000,"PART-1-1",           677,       10.2386,       8.70699,            0.,NA,NA,"",       2.15670,      -2.14968,  -173.921E-03,   630.548E-06
C:/temp/dataset/3/19_8.odb,Step-1,Increment      1: Step Time =    1.000,"PART-1-1",           678,   133.314E-03,       2.02047,            0.,NA,NA,"",       1.89035,      -1.43205,      -1.23396,   7.17733E-03
C:/temp/dataset/3/19_8.odb,Step-1,Increment      1: Step Time =    1.000,"PART-1-1",           679,       2.26054,       1.70692,            0.,NA,NA,"",       1.71463,      -1.40337,  -985.147E-03,   10.2448E-03
C:/temp/dataset/3/19_8.odb,Step-1,Increment      1: Step Time =    1.000,"PART-1-1",           680,  -583.333E-03,            5.,            0.,NA,NA,"",       2.21174,      -1.75149,      -1.35057,   6.77740E-03
C:/temp/dataset/3/19_8.odb,Step-1,Increment      1: Step Time =    1.000,"PART-1-1",           681,  -713.179E-03,       3.09316,            0.,NA,NA,"",       2.04649,      -1.54603,      -1.34085,   6.58814E-03
C:/temp/dataset/3/19_8.odb,Step-1,Increment      1: Step Time =    1.000,"PART-1-1",           682,      -10.2084,       1.19941,            0.,NA,NA,"",       2.69700,      -1.28314,      -2.37221,   121.412E-06
C:/temp/dataset/3/19_8.odb,Step-1,Increment      1: Step Time =    1.000,"PART-1-1",           683,      -7.18333,           -5.,            0.,NA,NA,"",       2.09189,  -614.652E-03,      -1.99955,   377.394E-06
C:/temp/dataset/3/19_8.odb,Step-1,Increment      1: Step Time =    1.000,"PART-1-1",           684,      -7.36178,      -2.99006,            0.,NA,NA,"",       2.19736,  -836.580E-03,      -2.03188,   296.275E-06
C:/temp/dataset/3/19_8.odb,Step-1,Increment      1: Step Time =    1.000,"PART-1-1",           685,      -11.3125,  -91.5578E-03,            0.,NA,NA,"",       2.73273,      -1.13337,      -2.48662,   100.047E-06
C:/temp/dataset/3/19_8.odb,Step-1,Increment      1: Step Time =    1.000,"PART-1-1",           686,      -11.6500,           -5.,            0.,NA,NA,"",       2.56225,  -587.802E-03,      -2.49392,   38.0053E-06
C:/temp/dataset/3/19_8.odb,Step-1,Increment      1: Step Time =    1.000,"PART-1-1",           687,      -11.6245,      -2.63993,            0.,NA,NA,"",       2.64561,  -849.240E-03,      -2.50561,   76.7397E-06
C:/temp/dataset/3/19_8.odb,Step-1,Increment      1: Step Time =    1.000,"PART-1-1",           688,      -1.03706,       1.18772,            0.,NA,NA,"",       1.90538,      -1.33748,      -1.35706,   4.09496E-03
C:/temp/dataset/3/19_8.odb,Step-1,Increment      1: Step Time =    1.000,"PART-1-1",           689,      -2.26684,   407.252E-03,            0.,NA,NA,"",       1.94057,      -1.24559,      -1.48806,   1.75646E-03
C:/temp/dataset/3/19_8.odb,Step-1,Increment      1: Step Time =    1.000,"PART-1-1",           690,      -1.61706,  -775.207E-03,            0.,NA,NA,"",       1.79706,      -1.11894,      -1.40620,   2.14402E-03
C:/temp/dataset/3/19_8.odb,Step-1,Increment      1: Step Time =    1.000,"PART-1-1",           691,      -4.44627,  -189.662E-03,            0.,NA,NA,"",       2.08313,      -1.16619,      -1.72611,   413.089E-06
C:/temp/dataset/3/19_8.odb,Step-1,Increment      1: Step Time =    1.000,"PART-1-1",           692,      -3.83065,   850.686E-03,            0.,NA,NA,"",       2.10303,      -1.28525,      -1.66460,   547.544E-06
C:/temp/dataset/3/19_8.odb,Step-1,Increment      1: Step Time =    1.000,"PART-1-1",           693,      -5.38306,   384.196E-03,            0.,NA,NA,"",       2.20421,      -1.22372,      -1.83332,   390.434E-06
C:/temp/dataset/3/19_8.odb,Step-1,Increment      1: Step Time =    1.000,"PART-1-1",           694,       3.90000,           -5.,            0.,NA,NA,"",   997.070E-03,  -690.574E-03,  -719.206E-03,   16.9451E-03
C:/temp/dataset/3/19_8.odb,Step-1,Increment      1: Step Time =    1.000,"PART-1-1",           695,       5.25667,      -4.01677,            0.,NA,NA,"",   982.794E-03,  -817.812E-03,  -545.038E-03,   24.8992E-03
C:/temp/dataset/3/19_8.odb,Step-1,Increment      1: Step Time =    1.000,"PART-1-1",           696,       4.24316,      -3.18705,            0.,NA,NA,"",       1.13162,  -898.902E-03,  -687.419E-03,   14.1078E-03
C:/temp/dataset/3/19_8.odb,Step-1,Increment      1: Step Time =    1.000,"PART-1-1",           697,       9.51721,      -4.82762,            0.,NA,NA,"",   764.941E-03,  -751.804E-03,  -141.155E-03,   6.57651E-03
C:/temp/dataset/3/19_8.odb,Step-1,Increment      1: Step Time =    1.000,"PART-1-1",           698,       8.04384,      -4.93500,            0.,NA,NA,"",   781.791E-03,  -735.793E-03,  -264.207E-03,   10.3613E-03
C:/temp/dataset/3/19_8.odb,Step-1,Increment      1: Step Time =    1.000,"PART-1-1",           699,       8.61490,      -6.56470,            0.,NA,NA,"",   635.895E-03,  -603.948E-03,  -199.023E-03,   8.36840E-03
C:/temp/dataset/3/19_8.odb,Step-1,Increment      1: Step Time =    1.000,"PART-1-1",           700,       10.0883,      -6.45732,            0.,NA,NA,"",   622.611E-03,  -616.572E-03,  -86.5043E-03,   3.75063E-03
C:/temp/dataset/3/19_8.odb,Step-1,Increment      1: Step Time =    1.000,"PART-1-1",           701,       9.29828,      -8.00429,            0.,NA,NA,"",   516.322E-03,  -498.504E-03,  -134.468E-03,   6.88446E-03
C:/temp/dataset/3/19_8.odb,Step-1,Increment      1: Step Time =    1.000,"PART-1-1",           702,       6.27674,      -21.4047,            0.,NA,NA,"",   69.9670E-03,   3.60585E-03,  -69.8740E-03,   16.0567E-03
C:/temp/dataset/3/19_8.odb,Step-1,Increment      1: Step Time =    1.000,"PART-1-1",           703,       7.27122,      -20.3583,            0.,NA,NA,"",   73.8091E-03,   2.99783E-03,  -73.7482E-03,   13.0817E-03
C:/temp/dataset/3/19_8.odb,Step-1,Increment      1: Step Time =    1.000,"PART-1-1",           704,         -6.25,          -20.,            0.,NA,NA,"",   3.18791E-03,  -3.09724E-03,   754.893E-06,   520.957E-06
C:/temp/dataset/3/19_8.odb,Step-1,Increment      1: Step Time =    1.000,"PART-1-1",           705,         -1.25,          -30.,            0.,NA,NA,"",            0.,  -2.17853E-39,  -3.21173E-39,   2.75025E-03
C:/temp/dataset/3/19_8.odb,Step-1,Increment      1: Step Time =    1.000,"PART-1-1",           706,       8.60683,      -25.8105,            0.,NA,NA,"",   23.4217E-03,   16.1550E-03,  -16.9586E-03,   7.29527E-03
C:/temp/dataset/3/19_8.odb,Step-1,Increment      1: Step Time =    1.000,"PART-1-1",           707,       7.41490,      -26.9159,            0.,NA,NA,"",   17.2502E-03,   9.72651E-03,  -14.2466E-03,   7.43569E-03
C:/temp/dataset/3/19_8.odb,Step-1,Increment      1: Step Time =    1.000,"PART-1-1",           708,       6.17638,      -25.8614,            0.,NA,NA,"",   23.8343E-03,   5.83581E-03,  -23.1088E-03,   8.24502E-03
C:/temp/dataset/3/19_8.odb,Step-1,Increment      1: Step Time =    1.000,"PART-1-1",           709,       7.37219,      -25.0876,            0.,NA,NA,"",   29.4691E-03,   12.0198E-03,  -26.9064E-03,   9.53401E-03
C:/temp/dataset/3/19_8.odb,Step-1,Increment      1: Step Time =    1.000,"PART-1-1",           710,       6.30743,      -24.1068,            0.,NA,NA,"",   38.6460E-03,   6.39552E-03,  -38.1132E-03,   10.4444E-03
C:/temp/dataset/3/19_8.odb,Step-1,Increment      1: Step Time =    1.000,"PART-1-1",           711,   113.079E-03,      -23.9373,            0.,NA,NA,"",   12.8368E-03,  -8.58354E-03,  -9.54500E-03,   2.64877E-03
C:/temp/dataset/3/19_8.odb,Step-1,Increment      1: Step Time =    1.000,"PART-1-1",           712,      -2.43554,      -23.8906,            0.,NA,NA,"",   7.15028E-03,  -6.76078E-03,  -2.32773E-03,   886.420E-06
C:/temp/dataset/3/19_8.odb,Step-1,Increment      1: Step Time =    1.000,"PART-1-1",           713,      -8.72529,      -25.0755,            0.,NA,NA,"",   3.82027E-03,  -3.77191E-03,   605.942E-06,   402.287E-06
C:/temp/dataset/3/19_8.odb,Step-1,Increment      1: Step Time =    1.000,"PART-1-1",           714,      -9.97606,      -23.8175,            0.,NA,NA,"",   3.78200E-03,  -3.72792E-03,   637.252E-06,   171.192E-06
C:/temp/dataset/3/19_8.odb,Step-1,Increment      1: Step Time =    1.000,"PART-1-1",           715,      -9.99641,      -28.7682,            0.,NA,NA,"",   1.14068E-03,  -1.14067E-03,  -4.02805E-06,   571.471E-06
C:/temp/dataset/3/19_8.odb,Step-1,Increment      1: Step Time =    1.000,"PART-1-1",           716,      -11.2465,      -27.5281,            0.,NA,NA,"",   1.89287E-03,  -1.89208E-03,   54.7818E-06,   450.287E-06
C:/temp/dataset/3/19_8.odb,Step-1,Increment      1: Step Time =    1.000,"PART-1-1",           717,        -11.25,          -30.,            0.,NA,NA,"",            0.,  -495.065E-42,  -174.613E-42,   532.252E-06
C:/temp/dataset/3/19_8.odb,Step-1,Increment      1: Step Time =    1.000,"PART-1-1",           718,         -8.75,          -30.,            0.,NA,NA,"",            0.,  -732.614E-42,  -245.695E-42,   802.703E-06
C:/temp/dataset/3/19_8.odb,Step-1,Increment      1: Step Time =    1.000,"PART-1-1",           719,      -8.73783,      -27.5479,            0.,NA,NA,"",   2.48017E-03,  -2.47683E-03,   128.709E-06,   657.470E-06
C:/temp/dataset/3/19_8.odb,Step-1,Increment      1: Step Time =    1.000,"PART-1-1",           720,       9.45286,      -20.3748,            0.,NA,NA,"",   37.2554E-03,   5.69444E-03,  -36.8176E-03,   7.35221E-03
C:/temp/dataset/3/19_8.odb,Step-1,Increment      1: Step Time =    1.000,"PART-1-1",           721,       8.38706,      -19.4374,            0.,NA,NA,"",   63.7750E-03,  -7.64567E-03,  -63.3150E-03,   8.80374E-03
C:/temp/dataset/3/19_8.odb,Step-1,Increment      1: Step Time =    1.000,"PART-1-1",           722,       8.33702,      -21.2957,            0.,NA,NA,"",   51.7631E-03,   11.5470E-03,  -50.4587E-03,   10.4188E-03
C:/temp/dataset/3/19_8.odb,Step-1,Increment      1: Step Time =    1.000,"PART-1-1",           723,       9.34035,      -18.0986,            0.,NA,NA,"",   59.4894E-03,  -31.9757E-03,  -50.1651E-03,   6.55264E-03
C:/temp/dataset/3/19_8.odb,Step-1,Increment      1: Step Time =    1.000,"PART-1-1",           724,       10.7511,      -19.4747,            0.,NA,NA,"",   13.5498E-03,  -6.33469E-03,  -11.9778E-03,   4.58017E-03
C:/temp/dataset/3/19_8.odb,Step-1,Increment      1: Step Time =    1.000,"PART-1-1",           725,       9.57777,      -9.07511,            0.,NA,NA,"",   439.679E-03,  -426.511E-03,  -106.798E-03,   6.31407E-03
C:/temp/dataset/3/19_8.odb,Step-1,Increment      1: Step Time =    1.000,"PART-1-1",           726,       10.3854,      -7.79904,            0.,NA,NA,"",   518.563E-03,  -515.231E-03,  -58.6899E-03,   2.64565E-03
C:/temp/dataset/3/19_8.odb,Step-1,Increment      1: Step Time =    1.000,"PART-1-1",           727,       11.9371,      -7.89361,            0.,NA,NA,"",   517.978E-03,  -515.428E-03,   51.3370E-03,   5.54724E-03
C:/temp/dataset/3/19_8.odb,Step-1,Increment      1: Step Time =    1.000,"PART-1-1",           728,       11.6400,      -6.55190,            0.,NA,NA,"",   617.214E-03,  -616.405E-03,   31.5861E-03,   5.38145E-03
C:/temp/dataset/3/19_8.odb,Step-1,Increment      1: Step Time =    1.000,"PART-1-1",           729,       9.29748,       3.92298,            0.,NA,NA,"",       1.66474,      -1.64770,  -237.564E-03,   4.99351E-03
C:/temp/dataset/3/19_8.odb,Step-1,Increment      1: Step Time =    1.000,"PART-1-1",           730,       10.7408,       1.93669,            0.,NA,NA,"",       1.44267,      -1.44056,  -77.9258E-03,   5.78963E-03
C:/temp/dataset/3/19_8.odb,Step-1,Increment      1: Step Time =    1.000,"PART-1-1",           731,       12.1175,       9.30164,            0.,NA,NA,"",       2.22071,      -2.22064,   16.8610E-03,   271.706E-06
C:/temp/dataset/3/19_8.odb,Step-1,Increment      1: Step Time =    1.000,"PART-1-1",           732,       12.3743,       7.25826,            0.,NA,NA,"",       2.01013,      -2.00938,   54.5889E-03,   913.291E-06
C:/temp/dataset/3/19_8.odb,Step-1,Increment      1: Step Time =    1.000,"PART-1-1",           733,       9.86952,       23.8294,            0.,NA,NA,"",       3.72032,      -3.70879,  -292.736E-03,   1.05432E-06
C:/temp/dataset/3/19_8.odb,Step-1,Increment      1: Step Time =    1.000,"PART-1-1",           734,       8.61965,       22.5851,            0.,NA,NA,"",       3.59770,      -3.57368,  -415.096E-03,   1.37399E-06
C:/temp/dataset/3/19_8.odb,Step-1,Increment      1: Step Time =    1.000,"PART-1-1",           735,         11.25,           30.,            0.,NA,NA,"",       4.35691,      -4.35306,  -183.207E-03,   353.685E-09
C:/temp/dataset/3/19_8.odb,Step-1,Increment      1: Step Time =    1.000,"PART-1-1",           736,       9.97488,       28.7673,            0.,NA,NA,"",       4.23026,      -4.21902,  -308.235E-03,   322.712E-09
C:/temp/dataset/3/19_8.odb,Step-1,Increment      1: Step Time =    1.000,"PART-1-1",           737,          8.75,           30.,            0.,NA,NA,"",       4.36208,      -4.33971,  -441.246E-03,   529.388E-09
C:/temp/dataset/3/19_8.odb,Step-1,Increment      1: Step Time =    1.000,"PART-1-1",           738,       3.69885,       25.0915,            0.,NA,NA,"",       3.91958,      -3.80609,  -936.390E-03,   280.870E-09
C:/temp/dataset/3/19_8.odb,Step-1,Increment      1: Step Time =    1.000,"PART-1-1",           739,       4.94207,       26.3392,            0.,NA,NA,"",       4.02484,      -3.94152,  -814.733E-03,   221.821E-09
C:/temp/dataset/3/19_8.odb,Step-1,Increment      1: Step Time =    1.000,"PART-1-1",           740,         -6.25,           30.,            0.,NA,NA,"",       4.70130,      -4.25959,      -1.98950,   2.71681E-09
C:/temp/dataset/3/19_8.odb,Step-1,Increment      1: Step Time =    1.000,"PART-1-1",           741,      -11.2519,       25.0060,            0.,NA,NA,"",       4.46824,      -3.71741,      -2.47911,   734.737E-12
C:/temp/dataset/3/19_8.odb,Step-1,Increment      1: Step Time =    1.000,"PART-1-1",           742,       11.7111,      -12.1867,            0.,NA,NA,"",   251.764E-03,  -250.184E-03,   28.1669E-03,   3.67047E-03
C:/temp/dataset/3/19_8.odb,Step-1,Increment      1: Step Time =    1.000,"PART-1-1",           743,       12.0443,      -13.4388,            0.,NA,NA,"",   195.907E-03,  -191.588E-03,   40.9101E-03,   5.25877E-03
C:/temp/dataset/3/19_8.odb,Step-1,Increment      1: Step Time =    1.000,"PART-1-1",           744,       9.07309,      -22.0228,            0.,NA,NA,"",   39.1060E-03,   16.8391E-03,  -35.2949E-03,   8.99526E-03
C:/temp/dataset/3/19_8.odb,Step-1,Increment      1: Step Time =    1.000,"PART-1-1",           745,       9.10959,      -23.2638,            0.,NA,NA,"",   34.1305E-03,   19.7162E-03,  -27.8597E-03,   8.92718E-03
C:/temp/dataset/3/19_8.odb,Step-1,Increment      1: Step Time =    1.000,"PART-1-1",           746,       10.5828,      -23.1781,            0.,NA,NA,"",   25.2574E-03,   22.4324E-03,  -11.6071E-03,   6.51222E-03
C:/temp/dataset/3/19_8.odb,Step-1,Increment      1: Step Time =    1.000,"PART-1-1",           747,       10.5463,      -21.9372,            0.,NA,NA,"",   23.0593E-03,   18.2807E-03,  -14.0552E-03,   6.60487E-03
C:/temp/dataset/3/19_8.odb,Step-1,Increment      1: Step Time =    1.000,"PART-1-1",           748,      -1.00841,      -2.00181,            0.,NA,NA,"",       1.65476,  -986.881E-03,      -1.32827,   1.99711E-03
C:/temp/dataset/3/19_8.odb,Step-1,Increment      1: Step Time =    1.000,"PART-1-1",           749,      -3.17395,      -1.50818,            0.,NA,NA,"",       1.88162,      -1.02779,      -1.57612,   552.415E-06
C:/temp/dataset/3/19_8.odb,Step-1,Increment      1: Step Time =    1.000,"PART-1-1",           750,       8.23699,       8.20647,            0.,NA,NA,"",       2.12250,      -2.08861,  -377.792E-03,   936.276E-06
C:/temp/dataset/3/19_8.odb,Step-1,Increment      1: Step Time =    1.000,"PART-1-1",           751,       8.58975,       6.06422,            0.,NA,NA,"",       1.89809,      -1.86966,  -327.305E-03,   3.07917E-03
C:/temp/dataset/3/19_8.odb,Step-1,Increment      1: Step Time =    1.000,"PART-1-1",           752,       1.04870,      -2.29850,            0.,NA,NA,"",       1.45630,  -968.652E-03,      -1.08744,   5.42596E-03
C:/temp/dataset/3/19_8.odb,Step-1,Increment      1: Step Time =    1.000,"PART-1-1",           753,      -1.88356,       2.26041,            0.,NA,NA,"",       2.05902,      -1.45111,      -1.46077,   3.06998E-03
C:/temp/dataset/3/19_8.odb,Step-1,Increment      1: Step Time =    1.000,"PART-1-1",           754,      -2.91638,       1.44829,            0.,NA,NA,"",       2.07328,      -1.35662,      -1.56782,   1.33465E-03
C:/temp/dataset/3/19_8.odb,Step-1,Increment      1: Step Time =    1.000,"PART-1-1",           755,       3.03453,      -2.52132,            0.,NA,NA,"",       1.28063,  -960.227E-03,  -847.336E-03,   11.3932E-03
C:/temp/dataset/3/19_8.odb,Step-1,Increment      1: Step Time =    1.000,"PART-1-1",           756,       6.99799,      -3.46075,            0.,NA,NA,"",   951.706E-03,  -873.151E-03,  -378.617E-03,   13.4760E-03
C:/temp/dataset/3/19_8.odb,Step-1,Increment      1: Step Time =    1.000,"PART-1-1",           757,       7.63560,  -984.386E-03,            0.,NA,NA,"",       1.18173,      -1.12766,  -353.360E-03,   9.87974E-03
C:/temp/dataset/3/19_8.odb,Step-1,Increment      1: Step Time =    1.000,"PART-1-1",           758,       6.14771,      -1.67534,            0.,NA,NA,"",       1.16701,      -1.05647,  -495.759E-03,   13.0617E-03
C:/temp/dataset/3/19_8.odb,Step-1,Increment      1: Step Time =    1.000,"PART-1-1",           759,       4.94795,      -26.8240,            0.,NA,NA,"",   16.0071E-03,   732.629E-06,  -15.9903E-03,   7.43388E-03
C:/temp/dataset/3/19_8.odb,Step-1,Increment      1: Step Time =    1.000,"PART-1-1",           760,      -11.2341,      -25.0541,            0.,NA,NA,"",   3.21317E-03,  -3.20175E-03,   270.688E-06,   205.089E-06
C:/temp/dataset/3/19_8.odb,Step-1,Increment      1: Step Time =    1.000,"PART-1-1",           761,      -9.98574,      -26.3021,            0.,NA,NA,"",   2.92223E-03,  -2.90764E-03,   291.632E-06,   398.813E-06
C:/temp/dataset/3/19_8.odb,Step-1,Increment      1: Step Time =    1.000,"PART-1-1",           762,           15.,        -26.25,            0.,NA,NA,"",   17.1591E-03,   15.8925E-03,   6.47019E-03,   5.71473E-03
C:/temp/dataset/3/19_8.odb,Step-1,Increment      1: Step Time =    1.000,"PART-1-1",           763,       9.63478,      -24.7731,            0.,NA,NA,"",   26.2469E-03,   20.9450E-03,  -15.8180E-03,   7.57727E-03
C:/temp/dataset/3/19_8.odb,Step-1,Increment      1: Step Time =    1.000,"PART-1-1",           764,       9.83383,   250.169E-03,            0.,NA,NA,"",       1.26852,      -1.25927,  -152.956E-03,   7.56669E-03
C:/temp/dataset/3/19_8.odb,Step-1,Increment      1: Step Time =    1.000,"PART-1-1",           765,       11.1222,       22.5628,            0.,NA,NA,"",       3.58816,      -3.58474,  -156.679E-03,   1.46833E-06
C:/temp/dataset/3/19_8.odb,Step-1,Increment      1: Step Time =    1.000,"PART-1-1",           766,       9.84566,       21.3197,            0.,NA,NA,"",       3.46111,      -3.44962,  -281.797E-03,   4.81394E-06
C:/temp/dataset/3/19_8.odb,Step-1,Increment      1: Step Time =    1.000,"PART-1-1",           767,      -3.18112,  -190.353E-03,            0.,NA,NA,"",       1.97304,      -1.17410,      -1.58567,   803.161E-06
C:/temp/dataset/3/19_8.odb,Step-1,Increment      1: Step Time =    1.000,"PART-1-1",           768,       4.54417,       1.21940,            0.,NA,NA,"",       1.53280,      -1.35619,  -714.317E-03,   9.24103E-03
C:/temp/dataset/3/19_8.odb,Step-1,Increment      1: Step Time =    1.000,"PART-1-1",           769,       9.22107,       9.51460,            0.,NA,NA,"",       2.24593,      -2.22797,  -283.462E-03,   420.242E-06
C:/temp/dataset/3/19_8.odb,Step-1,Increment      1: Step Time =    1.000,"PART-1-1",           770,       11.1709,      -3.71800,            0.,NA,NA,"",   862.368E-03,  -862.326E-03,  -8.44309E-03,   6.85882E-03
C:/temp/dataset/3/19_8.odb,Step-1,Increment      1: Step Time =    1.000,"PART-1-1",           771,       11.0221,      -5.16095,            0.,NA,NA,"",   729.750E-03,  -729.540E-03,  -17.4933E-03,   5.42228E-03
C:/temp/dataset/3/19_8.odb,Step-1,Increment      1: Step Time =    1.000,"PART-1-1",           772,       12.3085,      -4.70099,            0.,NA,NA,"",   783.275E-03,  -778.436E-03,   86.9245E-03,   8.04354E-03
C:/temp/dataset/3/19_8.odb,Step-1,Increment      1: Step Time =    1.000,"PART-1-1",           773,       5.03877,      -2.41022,            0.,NA,NA,"",       1.15276,  -980.822E-03,  -605.679E-03,   15.8030E-03
C:/temp/dataset/3/19_8.odb,Step-1,Increment      1: Step Time =    1.000,"PART-1-1",           774,       11.0080,       9.74440,            0.,NA,NA,"",       2.26302,      -2.26080,  -100.209E-03,   272.865E-06
C:/temp/dataset/3/19_8.odb,Step-1,Increment      1: Step Time =    1.000,"PART-1-1",           775,       7.33953,      -23.4839,            0.,NA,NA,"",   42.5754E-03,   12.0926E-03,  -40.8220E-03,   11.4872E-03
C:/temp/dataset/3/19_8.odb,Step-1,Increment      1: Step Time =    1.000,"PART-1-1",           776,       6.60048,      -22.7490,            0.,NA,NA,"",   52.1963E-03,   6.81484E-03,  -51.7495E-03,   13.0219E-03
C:/temp/dataset/3/19_8.odb,Step-1,Increment      1: Step Time =    1.000,"PART-1-1",           777,       5.56839,      -23.3719,            0.,NA,NA,"",   45.0533E-03,   1.61500E-03,  -45.0243E-03,   12.3646E-03
C:/temp/dataset/3/19_8.odb,Step-1,Increment      1: Step Time =    1.000,"PART-1-1",           778,       5.56431,      -22.1833,            0.,NA,NA,"",   58.4547E-03,  -522.975E-06,  -58.4524E-03,   14.8039E-03
C:/temp/dataset/3/19_8.odb,Step-1,Increment      1: Step Time =    1.000,"PART-1-1",           779,       7.31291,      -21.9704,            0.,NA,NA,"",   57.3531E-03,   10.2382E-03,  -56.4319E-03,   12.9686E-03
C:/temp/dataset/3/19_8.odb,Step-1,Increment      1: Step Time =    1.000,"PART-1-1",           780,       8.04898,      -22.6975,            0.,NA,NA,"",   45.2228E-03,   15.2095E-03,  -42.5885E-03,   10.7025E-03
C:/temp/dataset/3/19_8.odb,Step-1,Increment      1: Step Time =    1.000,"PART-1-1",           781,       5.89213,  -472.373E-03,            0.,NA,NA,"",       1.29903,      -1.18080,  -541.459E-03,   9.98644E-03
C:/temp/dataset/3/19_8.odb,Step-1,Increment      1: Step Time =    1.000,"PART-1-1",           782,       8.40014,      -24.0502,            0.,NA,NA,"",   34.0001E-03,   17.4099E-03,  -29.2045E-03,   9.02157E-03
