ODB Name,Step,Frame,Part Instance Name,    êﬂì_ÉâÉxÉã,X,Y,Z,Section Name,Material Name,Section Point,   U-Magnitude,          U-U1,          U-U2,       S-Mises
C:/temp/dataset/3/1_6.odb,Step-1,Increment      1: Step Time =    1.000,"PART-1-1",             1,          -15.,           20.,            0.,NA,NA,"",       10.6595,      -2.95012,      -10.2431,   259.752E-06
C:/temp/dataset/3/1_6.odb,Step-1,Increment      1: Step Time =    1.000,"PART-1-1",             2,          -15.,           25.,            0.,NA,NA,"",       11.8308,      -5.03848,      -10.7043,   3.30503E-03
C:/temp/dataset/3/1_6.odb,Step-1,Increment      1: Step Time =    1.000,"PART-1-1",             3,           -5.,           20.,            0.,NA,NA,"",       7.21555,      -3.91922,      -6.05838,   15.7793E-03
C:/temp/dataset/3/1_6.odb,Step-1,Increment      1: Step Time =    1.000,"PART-1-1",             4,            5.,           20.,            0.,NA,NA,"",       5.45740,      -5.04461,      -2.08210,   87.2431E-03
C:/temp/dataset/3/1_6.odb,Step-1,Increment      1: Step Time =    1.000,"PART-1-1",             5,            5.,          12.5,            0.,NA,NA,"",       3.63593,      -3.32993,      -1.45999,   55.4072E-03
C:/temp/dataset/3/1_6.odb,Step-1,Increment      1: Step Time =    1.000,"PART-1-1",             6,            5.,            5.,            0.,NA,NA,"",       2.17148,      -1.96046,  -933.758E-03,   55.6516E-03
C:/temp/dataset/3/1_6.odb,Step-1,Increment      1: Step Time =    1.000,"PART-1-1",             7,      -1.70000,            5.,            0.,NA,NA,"",       2.55282,      -1.93421,      -1.66605,   1.83342E-03
C:/temp/dataset/3/1_6.odb,Step-1,Increment      1: Step Time =    1.000,"PART-1-1",             8,      -8.40000,            5.,            0.,NA,NA,"",       3.14006,      -1.88434,      -2.51181,   47.8750E-06
C:/temp/dataset/3/1_6.odb,Step-1,Increment      1: Step Time =    1.000,"PART-1-1",             9,          -15.,            5.,            0.,NA,NA,"",       3.81337,      -1.83158,      -3.34471,   583.960E-09
C:/temp/dataset/3/1_6.odb,Step-1,Increment      1: Step Time =    1.000,"PART-1-1",            10,          -15.,            0.,            0.,NA,NA,"",       3.51611,      -1.20073,      -3.30473,   8.21449E-06
C:/temp/dataset/3/1_6.odb,Step-1,Increment      1: Step Time =    1.000,"PART-1-1",            11,          -15.,           -5.,            0.,NA,NA,"",       3.31416,  -570.020E-03,      -3.26477,   523.842E-09
C:/temp/dataset/3/1_6.odb,Step-1,Increment      1: Step Time =    1.000,"PART-1-1",            12,      -8.30000,           -5.,            0.,NA,NA,"",       2.49884,  -623.510E-03,      -2.41980,   46.1234E-06
C:/temp/dataset/3/1_6.odb,Step-1,Increment      1: Step Time =    1.000,"PART-1-1",            13,      -1.60000,           -5.,            0.,NA,NA,"",       1.71180,  -673.134E-03,      -1.57389,   1.91327E-03
C:/temp/dataset/3/1_6.odb,Step-1,Increment      1: Step Time =    1.000,"PART-1-1",            14,            5.,           -5.,            0.,NA,NA,"",   965.389E-03,  -729.029E-03,  -632.846E-03,   50.0847E-03
C:/temp/dataset/3/1_6.odb,Step-1,Increment      1: Step Time =    1.000,"PART-1-1",            15,            5.,         -12.5,            0.,NA,NA,"",   392.330E-03,  -228.398E-03,  -318.994E-03,   35.7378E-03
C:/temp/dataset/3/1_6.odb,Step-1,Increment      1: Step Time =    1.000,"PART-1-1",            16,            5.,          -20.,            0.,NA,NA,"",   85.0843E-03,   13.6173E-03,  -83.9876E-03,   30.2028E-03
C:/temp/dataset/3/1_6.odb,Step-1,Increment      1: Step Time =    1.000,"PART-1-1",            17,           -5.,          -20.,            0.,NA,NA,"",   4.56238E-03,   4.54146E-03,  -436.464E-06,   996.986E-06
C:/temp/dataset/3/1_6.odb,Step-1,Increment      1: Step Time =    1.000,"PART-1-1",            18,          -15.,          -20.,            0.,NA,NA,"",   2.23610E-03,   1.89317E-03,   1.18998E-03,   11.9169E-06
C:/temp/dataset/3/1_6.odb,Step-1,Increment      1: Step Time =    1.000,"PART-1-1",            19,          -15.,          -25.,            0.,NA,NA,"",   1.32317E-03,   870.040E-06,   996.903E-06,   141.316E-06
C:/temp/dataset/3/1_6.odb,Step-1,Increment      1: Step Time =    1.000,"PART-1-1",            20,          -15.,          -30.,            0.,NA,NA,"",            0.,   89.1646E-42,   158.460E-42,   301.441E-06
C:/temp/dataset/3/1_6.odb,Step-1,Increment      1: Step Time =    1.000,"PART-1-1",            21,           15.,          -30.,            0.,NA,NA,"",            0.,   1.48647E-39,  -1.90369E-39,   4.10080E-03
C:/temp/dataset/3/1_6.odb,Step-1,Increment      1: Step Time =    1.000,"PART-1-1",            22,           15.,         -22.5,            0.,NA,NA,"",   42.8522E-03,   23.2148E-03,   36.0192E-03,   12.9598E-03
C:/temp/dataset/3/1_6.odb,Step-1,Increment      1: Step Time =    1.000,"PART-1-1",            23,           15.,          -15.,            0.,NA,NA,"",   205.423E-03,  -116.965E-03,   168.872E-03,   25.8739E-03
C:/temp/dataset/3/1_6.odb,Step-1,Increment      1: Step Time =    1.000,"PART-1-1",            24,           15.,          -7.5,            0.,NA,NA,"",   672.861E-03,  -573.039E-03,   352.659E-03,   31.7794E-03
C:/temp/dataset/3/1_6.odb,Step-1,Increment      1: Step Time =    1.000,"PART-1-1",            25,           15.,            0.,            0.,NA,NA,"",       1.48393,      -1.39171,   514.954E-03,   30.2696E-03
C:/temp/dataset/3/1_6.odb,Step-1,Increment      1: Step Time =    1.000,"PART-1-1",            26,           15.,           7.5,            0.,NA,NA,"",       2.62670,      -2.53806,   676.599E-03,   44.3729E-03
C:/temp/dataset/3/1_6.odb,Step-1,Increment      1: Step Time =    1.000,"PART-1-1",            27,           15.,           15.,            0.,NA,NA,"",       4.26891,      -4.18845,   824.917E-03,   51.3832E-03
C:/temp/dataset/3/1_6.odb,Step-1,Increment      1: Step Time =    1.000,"PART-1-1",            28,           15.,          22.5,            0.,NA,NA,"",       6.48550,      -6.43463,   810.703E-03,   33.4764E-03
C:/temp/dataset/3/1_6.odb,Step-1,Increment      1: Step Time =    1.000,"PART-1-1",            29,           15.,           30.,            0.,NA,NA,"",       8.96551,      -8.95374,   459.325E-03,   1.13914E-03
C:/temp/dataset/3/1_6.odb,Step-1,Increment      1: Step Time =    1.000,"PART-1-1",            30,           7.5,           30.,            0.,NA,NA,"",       8.84808,      -8.61711,      -2.00850,   31.0420E-03
C:/temp/dataset/3/1_6.odb,Step-1,Increment      1: Step Time =    1.000,"PART-1-1",            31,            0.,           30.,            0.,NA,NA,"",       9.63506,      -8.32832,      -4.84494,   32.4579E-03
C:/temp/dataset/3/1_6.odb,Step-1,Increment      1: Step Time =    1.000,"PART-1-1",            32,          -7.5,           30.,            0.,NA,NA,"",       11.1701,      -7.79398,      -8.00153,   11.8321E-03
C:/temp/dataset/3/1_6.odb,Step-1,Increment      1: Step Time =    1.000,"PART-1-1",            33,          -15.,           30.,            0.,NA,NA,"",       13.2593,      -7.12042,      -11.1852,   6.04803E-03
C:/temp/dataset/3/1_6.odb,Step-1,Increment      1: Step Time =    1.000,"PART-1-1",            34,          -15.,          22.5,            0.,NA,NA,"",       11.2095,      -3.99693,      -10.4727,   560.213E-06
C:/temp/dataset/3/1_6.odb,Step-1,Increment      1: Step Time =    1.000,"PART-1-1",            35,          -7.5,           20.,            0.,NA,NA,"",       7.98441,      -3.66356,      -7.09430,   9.44471E-03
C:/temp/dataset/3/1_6.odb,Step-1,Increment      1: Step Time =    1.000,"PART-1-1",            36,          -10.,           20.,            0.,NA,NA,"",       8.83040,      -3.41736,      -8.14234,   3.94292E-03
C:/temp/dataset/3/1_6.odb,Step-1,Increment      1: Step Time =    1.000,"PART-1-1",            37,         -12.5,           20.,            0.,NA,NA,"",       9.72865,      -3.18081,      -9.19397,   564.849E-06
C:/temp/dataset/3/1_6.odb,Step-1,Increment      1: Step Time =    1.000,"PART-1-1",            38,           2.5,           20.,            0.,NA,NA,"",       5.63076,      -4.71408,      -3.07942,   44.1518E-03
C:/temp/dataset/3/1_6.odb,Step-1,Increment      1: Step Time =    1.000,"PART-1-1",            39,            0.,           20.,            0.,NA,NA,"",       6.01642,      -4.44735,      -4.05196,   26.7635E-03
C:/temp/dataset/3/1_6.odb,Step-1,Increment      1: Step Time =    1.000,"PART-1-1",            40,          -2.5,           20.,            0.,NA,NA,"",       6.55121,      -4.18150,      -5.04315,   22.4511E-03
C:/temp/dataset/3/1_6.odb,Step-1,Increment      1: Step Time =    1.000,"PART-1-1",            41,            5.,           15.,            0.,NA,NA,"",       4.21678,      -3.88121,      -1.64847,   54.4219E-03
C:/temp/dataset/3/1_6.odb,Step-1,Increment      1: Step Time =    1.000,"PART-1-1",            42,            5.,          17.5,            0.,NA,NA,"",       4.83862,      -4.47330,      -1.84439,   66.3800E-03
C:/temp/dataset/3/1_6.odb,Step-1,Increment      1: Step Time =    1.000,"PART-1-1",            43,            5.,           7.5,            0.,NA,NA,"",       2.62395,      -2.37220,      -1.12151,   56.3669E-03
C:/temp/dataset/3/1_6.odb,Step-1,Increment      1: Step Time =    1.000,"PART-1-1",            44,            5.,           10.,            0.,NA,NA,"",       3.10550,      -2.82794,      -1.28331,   53.5369E-03
C:/temp/dataset/3/1_6.odb,Step-1,Increment      1: Step Time =    1.000,"PART-1-1",            45,   533.333E-03,            5.,            0.,NA,NA,"",       2.39051,      -1.94546,      -1.38915,   5.12038E-03
C:/temp/dataset/3/1_6.odb,Step-1,Increment      1: Step Time =    1.000,"PART-1-1",            46,       2.76667,            5.,            0.,NA,NA,"",       2.25283,      -1.95003,      -1.12810,   10.5215E-03
C:/temp/dataset/3/1_6.odb,Step-1,Increment      1: Step Time =    1.000,"PART-1-1",            47,      -6.16667,            5.,            0.,NA,NA,"",       2.93075,      -1.90201,      -2.22972,   215.604E-06
C:/temp/dataset/3/1_6.odb,Step-1,Increment      1: Step Time =    1.000,"PART-1-1",            48,      -3.93333,            5.,            0.,NA,NA,"",       2.73413,      -1.91898,      -1.94756,   813.977E-06
C:/temp/dataset/3/1_6.odb,Step-1,Increment      1: Step Time =    1.000,"PART-1-1",            49,      -12.8000,            5.,            0.,NA,NA,"",       3.58144,      -1.84916,      -3.06713,   5.72063E-06
C:/temp/dataset/3/1_6.odb,Step-1,Increment      1: Step Time =    1.000,"PART-1-1",            50,      -10.6000,            5.,            0.,NA,NA,"",       3.35652,      -1.86676,      -2.78952,   3.49685E-06
C:/temp/dataset/3/1_6.odb,Step-1,Increment      1: Step Time =    1.000,"PART-1-1",            51,          -15.,           2.5,            0.,NA,NA,"",       3.65411,      -1.51614,      -3.32473,   6.41074E-06
C:/temp/dataset/3/1_6.odb,Step-1,Increment      1: Step Time =    1.000,"PART-1-1",            52,          -15.,          -2.5,            0.,NA,NA,"",       3.40197,  -885.364E-03,      -3.28475,   6.39242E-06
C:/temp/dataset/3/1_6.odb,Step-1,Increment      1: Step Time =    1.000,"PART-1-1",            53,      -10.5333,           -5.,            0.,NA,NA,"",       2.76847,  -605.712E-03,      -2.70139,   4.81290E-06
C:/temp/dataset/3/1_6.odb,Step-1,Increment      1: Step Time =    1.000,"PART-1-1",            54,      -12.7667,           -5.,            0.,NA,NA,"",       3.04044,  -587.862E-03,      -2.98307,   5.32015E-06
C:/temp/dataset/3/1_6.odb,Step-1,Increment      1: Step Time =    1.000,"PART-1-1",            55,      -3.83333,           -5.,            0.,NA,NA,"",       1.96986,  -657.896E-03,      -1.85675,   850.296E-06
C:/temp/dataset/3/1_6.odb,Step-1,Increment      1: Step Time =    1.000,"PART-1-1",            56,      -6.06667,           -5.,            0.,NA,NA,"",       2.23238,  -641.078E-03,      -2.13835,   220.196E-06
C:/temp/dataset/3/1_6.odb,Step-1,Increment      1: Step Time =    1.000,"PART-1-1",            57,       2.80000,           -5.,            0.,NA,NA,"",       1.20849,  -695.409E-03,  -988.365E-03,   12.3600E-03
C:/temp/dataset/3/1_6.odb,Step-1,Increment      1: Step Time =    1.000,"PART-1-1",            58,   600.000E-03,           -5.,            0.,NA,NA,"",       1.46093,  -685.674E-03,      -1.29003,   4.66030E-03
C:/temp/dataset/3/1_6.odb,Step-1,Increment      1: Step Time =    1.000,"PART-1-1",            59,            5.,          -10.,            0.,NA,NA,"",   547.664E-03,  -366.909E-03,  -406.588E-03,   37.7045E-03
C:/temp/dataset/3/1_6.odb,Step-1,Increment      1: Step Time =    1.000,"PART-1-1",            60,            5.,          -7.5,            0.,NA,NA,"",   733.465E-03,  -537.335E-03,  -499.241E-03,   43.3604E-03
C:/temp/dataset/3/1_6.odb,Step-1,Increment      1: Step Time =    1.000,"PART-1-1",            61,            5.,         -17.5,            0.,NA,NA,"",   173.254E-03,  -44.3936E-03,  -167.470E-03,   32.4113E-03
C:/temp/dataset/3/1_6.odb,Step-1,Increment      1: Step Time =    1.000,"PART-1-1",            62,            5.,          -15.,            0.,NA,NA,"",   268.744E-03,  -122.247E-03,  -239.330E-03,   32.5894E-03
C:/temp/dataset/3/1_6.odb,Step-1,Increment      1: Step Time =    1.000,"PART-1-1",            63,          -2.5,          -20.,            0.,NA,NA,"",   8.00351E-03,   7.38908E-03,  -3.07533E-03,   1.47323E-03
C:/temp/dataset/3/1_6.odb,Step-1,Increment      1: Step Time =    1.000,"PART-1-1",            64,            0.,          -20.,            0.,NA,NA,"",   15.4390E-03,   11.6638E-03,  -10.1153E-03,   2.57006E-03
C:/temp/dataset/3/1_6.odb,Step-1,Increment      1: Step Time =    1.000,"PART-1-1",            65,           2.5,          -20.,            0.,NA,NA,"",   32.6916E-03,   17.7664E-03,  -27.4426E-03,   6.14516E-03
C:/temp/dataset/3/1_6.odb,Step-1,Increment      1: Step Time =    1.000,"PART-1-1",            66,         -12.5,          -20.,            0.,NA,NA,"",   2.08316E-03,   1.89803E-03,   858.514E-06,   33.1031E-06
C:/temp/dataset/3/1_6.odb,Step-1,Increment      1: Step Time =    1.000,"PART-1-1",            67,          -10.,          -20.,            0.,NA,NA,"",   2.23971E-03,   2.12709E-03,   701.265E-06,   206.707E-06
C:/temp/dataset/3/1_6.odb,Step-1,Increment      1: Step Time =    1.000,"PART-1-1",            68,          -7.5,          -20.,            0.,NA,NA,"",   2.93464E-03,   2.89632E-03,   472.708E-06,   510.450E-06
C:/temp/dataset/3/1_6.odb,Step-1,Increment      1: Step Time =    1.000,"PART-1-1",            69,          -15.,         -22.5,            0.,NA,NA,"",   1.87123E-03,   1.44613E-03,   1.18752E-03,   32.3098E-06
C:/temp/dataset/3/1_6.odb,Step-1,Increment      1: Step Time =    1.000,"PART-1-1",            70,          -15.,         -27.5,            0.,NA,NA,"",   690.121E-06,   399.233E-06,   562.920E-06,   235.132E-06
C:/temp/dataset/3/1_6.odb,Step-1,Increment      1: Step Time =    1.000,"PART-1-1",            71,          12.5,          -30.,            0.,NA,NA,"",            0.,   12.1968E-39,  -5.70587E-39,   4.93797E-03
C:/temp/dataset/3/1_6.odb,Step-1,Increment      1: Step Time =    1.000,"PART-1-1",            72,           10.,          -30.,            0.,NA,NA,"",            0.,   10.6405E-39,   2.73703E-39,   5.73994E-03
C:/temp/dataset/3/1_6.odb,Step-1,Increment      1: Step Time =    1.000,"PART-1-1",            73,           7.5,          -30.,            0.,NA,NA,"",            0.,   4.40440E-39,  -11.4774E-39,   5.07147E-03
C:/temp/dataset/3/1_6.odb,Step-1,Increment      1: Step Time =    1.000,"PART-1-1",            74,            5.,          -30.,            0.,NA,NA,"",            0.,   9.19140E-39,  -21.6263E-39,   4.02064E-03
C:/temp/dataset/3/1_6.odb,Step-1,Increment      1: Step Time =    1.000,"PART-1-1",            75,           2.5,          -30.,            0.,NA,NA,"",            0.,   3.25009E-39,  -14.1681E-39,   3.06757E-03
C:/temp/dataset/3/1_6.odb,Step-1,Increment      1: Step Time =    1.000,"PART-1-1",            76,            0.,          -30.,            0.,NA,NA,"",            0.,  -67.1250E-42,  -6.73617E-39,   2.18662E-03
C:/temp/dataset/3/1_6.odb,Step-1,Increment      1: Step Time =    1.000,"PART-1-1",            77,          -2.5,          -30.,            0.,NA,NA,"",            0.,  -5.03724E-39,  -6.78121E-39,   1.34205E-03
C:/temp/dataset/3/1_6.odb,Step-1,Increment      1: Step Time =    1.000,"PART-1-1",            78,           -5.,          -30.,            0.,NA,NA,"",            0.,  -1.13419E-39,  -83.0031E-42,   713.205E-06
C:/temp/dataset/3/1_6.odb,Step-1,Increment      1: Step Time =    1.000,"PART-1-1",            79,          -7.5,          -30.,            0.,NA,NA,"",            0.,  -788.663E-42,   551.309E-42,   315.062E-06
C:/temp/dataset/3/1_6.odb,Step-1,Increment      1: Step Time =    1.000,"PART-1-1",            80,          -10.,          -30.,            0.,NA,NA,"",            0.,  -466.205E-42,  -218.984E-42,   125.560E-06
C:/temp/dataset/3/1_6.odb,Step-1,Increment      1: Step Time =    1.000,"PART-1-1",            81,         -12.5,          -30.,            0.,NA,NA,"",            0.,   388.160E-45,   289.326E-42,   114.021E-06
C:/temp/dataset/3/1_6.odb,Step-1,Increment      1: Step Time =    1.000,"PART-1-1",            82,           15.,          -25.,            0.,NA,NA,"",   27.4423E-03,   24.4284E-03,   12.5032E-03,   8.07139E-03
C:/temp/dataset/3/1_6.odb,Step-1,Increment      1: Step Time =    1.000,"PART-1-1",            83,           15.,         -27.5,            0.,NA,NA,"",   14.5972E-03,   14.5837E-03,  -628.048E-06,   3.19042E-03
C:/temp/dataset/3/1_6.odb,Step-1,Increment      1: Step Time =    1.000,"PART-1-1",            84,           15.,         -17.5,            0.,NA,NA,"",   122.911E-03,  -40.4460E-03,   116.066E-03,   22.5499E-03
C:/temp/dataset/3/1_6.odb,Step-1,Increment      1: Step Time =    1.000,"PART-1-1",            85,           15.,          -20.,            0.,NA,NA,"",   70.8048E-03,   4.17659E-03,   70.6815E-03,   17.9900E-03
C:/temp/dataset/3/1_6.odb,Step-1,Increment      1: Step Time =    1.000,"PART-1-1",            86,           15.,          -10.,            0.,NA,NA,"",   477.660E-03,  -380.025E-03,   289.379E-03,   30.7302E-03
C:/temp/dataset/3/1_6.odb,Step-1,Increment      1: Step Time =    1.000,"PART-1-1",            87,           15.,         -12.5,            0.,NA,NA,"",   322.749E-03,  -229.054E-03,   227.378E-03,   28.4849E-03
C:/temp/dataset/3/1_6.odb,Step-1,Increment      1: Step Time =    1.000,"PART-1-1",            88,           15.,          -2.5,            0.,NA,NA,"",       1.18012,      -1.08391,   466.713E-03,   29.8043E-03
C:/temp/dataset/3/1_6.odb,Step-1,Increment      1: Step Time =    1.000,"PART-1-1",            89,           15.,           -5.,            0.,NA,NA,"",   908.279E-03,  -808.949E-03,   413.003E-03,   31.1901E-03
C:/temp/dataset/3/1_6.odb,Step-1,Increment      1: Step Time =    1.000,"PART-1-1",            90,           15.,            5.,            0.,NA,NA,"",       2.19795,      -2.10932,   617.872E-03,   39.4276E-03
C:/temp/dataset/3/1_6.odb,Step-1,Increment      1: Step Time =    1.000,"PART-1-1",            91,           15.,           2.5,            0.,NA,NA,"",       1.82040,      -1.73093,   563.672E-03,   34.0858E-03
C:/temp/dataset/3/1_6.odb,Step-1,Increment      1: Step Time =    1.000,"PART-1-1",            92,           15.,          12.5,            0.,NA,NA,"",       3.65969,      -3.57460,   784.570E-03,   49.6465E-03
C:/temp/dataset/3/1_6.odb,Step-1,Increment      1: Step Time =    1.000,"PART-1-1",            93,           15.,           10.,            0.,NA,NA,"",       3.11303,      -3.02530,   733.813E-03,   47.4248E-03
C:/temp/dataset/3/1_6.odb,Step-1,Increment      1: Step Time =    1.000,"PART-1-1",            94,           15.,           20.,            0.,NA,NA,"",       5.68703,      -5.62313,   850.140E-03,   45.4720E-03
C:/temp/dataset/3/1_6.odb,Step-1,Increment      1: Step Time =    1.000,"PART-1-1",            95,           15.,          17.5,            0.,NA,NA,"",       4.94449,      -4.87084,   850.263E-03,   51.0051E-03
C:/temp/dataset/3/1_6.odb,Step-1,Increment      1: Step Time =    1.000,"PART-1-1",            96,           15.,          27.5,            0.,NA,NA,"",       8.14809,      -8.12600,   599.626E-03,   3.49204E-03
C:/temp/dataset/3/1_6.odb,Step-1,Increment      1: Step Time =    1.000,"PART-1-1",            97,           15.,           25.,            0.,NA,NA,"",       7.31559,      -7.27962,   724.609E-03,   17.2342E-03
C:/temp/dataset/3/1_6.odb,Step-1,Increment      1: Step Time =    1.000,"PART-1-1",            98,           10.,           30.,            0.,NA,NA,"",       8.78198,      -8.70364,      -1.17041,   16.7825E-03
C:/temp/dataset/3/1_6.odb,Step-1,Increment      1: Step Time =    1.000,"PART-1-1",            99,          12.5,           30.,            0.,NA,NA,"",       8.82434,      -8.81708,  -357.893E-03,   3.46341E-03
C:/temp/dataset/3/1_6.odb,Step-1,Increment      1: Step Time =    1.000,"PART-1-1",           100,           2.5,           30.,            0.,NA,NA,"",       9.28338,      -8.44867,      -3.84723,   38.3421E-03
C:/temp/dataset/3/1_6.odb,Step-1,Increment      1: Step Time =    1.000,"PART-1-1",           101,            5.,           30.,            0.,NA,NA,"",       9.01834,      -8.53990,      -2.89837,   38.7528E-03
C:/temp/dataset/3/1_6.odb,Step-1,Increment      1: Step Time =    1.000,"PART-1-1",           102,           -5.,           30.,            0.,NA,NA,"",       10.5815,      -7.99727,      -6.92912,   18.2081E-03
C:/temp/dataset/3/1_6.odb,Step-1,Increment      1: Step Time =    1.000,"PART-1-1",           103,          -2.5,           30.,            0.,NA,NA,"",       10.0690,      -8.17659,      -5.87615,   25.1630E-03
C:/temp/dataset/3/1_6.odb,Step-1,Increment      1: Step Time =    1.000,"PART-1-1",           104,         -12.5,           30.,            0.,NA,NA,"",       12.5151,      -7.34590,      -10.1324,   6.16607E-03
C:/temp/dataset/3/1_6.odb,Step-1,Increment      1: Step Time =    1.000,"PART-1-1",           105,          -10.,           30.,            0.,NA,NA,"",       11.8171,      -7.57111,      -9.07317,   8.17975E-03
C:/temp/dataset/3/1_6.odb,Step-1,Increment      1: Step Time =    1.000,"PART-1-1",           106,          -15.,          27.5,            0.,NA,NA,"",       12.5172,      -6.07799,      -10.9425,   5.74021E-03
C:/temp/dataset/3/1_6.odb,Step-1,Increment      1: Step Time =    1.000,"PART-1-1",           107,      -12.5013,       25.0052,            0.,NA,NA,"",       10.9984,      -5.26794,      -9.65472,   5.49934E-03
C:/temp/dataset/3/1_6.odb,Step-1,Increment      1: Step Time =    1.000,"PART-1-1",           108,      -10.0028,       27.5014,            0.,NA,NA,"",       10.9813,      -6.52910,      -8.82952,   9.52662E-03
C:/temp/dataset/3/1_6.odb,Step-1,Increment      1: Step Time =    1.000,"PART-1-1",           109,      -2.49865,       22.5268,            0.,NA,NA,"",       7.38884,      -5.20957,      -5.23978,   14.7731E-03
C:/temp/dataset/3/1_6.odb,Step-1,Increment      1: Step Time =    1.000,"PART-1-1",           110,      -2.51000,       27.5279,            0.,NA,NA,"",       9.14549,      -7.18936,      -5.65271,   15.3383E-03
C:/temp/dataset/3/1_6.odb,Step-1,Increment      1: Step Time =    1.000,"PART-1-1",           111,       12.3864,       22.5464,            0.,NA,NA,"",       6.29205,      -6.29205,   4.18617E-03,   25.2861E-03
C:/temp/dataset/3/1_6.odb,Step-1,Increment      1: Step Time =    1.000,"PART-1-1",           112,       7.35369,       17.5509,            0.,NA,NA,"",       4.69771,      -4.53915,      -1.21020,   35.2732E-03
C:/temp/dataset/3/1_6.odb,Step-1,Increment      1: Step Time =    1.000,"PART-1-1",           113,       12.3201,       14.9467,            0.,NA,NA,"",       4.05225,      -4.04862,   171.370E-03,   21.9536E-03
C:/temp/dataset/3/1_6.odb,Step-1,Increment      1: Step Time =    1.000,"PART-1-1",           114,       13.2599,       7.39194,            0.,NA,NA,"",       2.49097,      -2.46329,   370.256E-03,   28.1278E-03
C:/temp/dataset/3/1_6.odb,Step-1,Increment      1: Step Time =    1.000,"PART-1-1",           115,       7.60504,      -5.98204,            0.,NA,NA,"",   714.146E-03,  -644.906E-03,  -306.759E-03,   14.5930E-03
C:/temp/dataset/3/1_6.odb,Step-1,Increment      1: Step Time =    1.000,"PART-1-1",           116,       7.71062,      -13.7665,            0.,NA,NA,"",   207.414E-03,  -141.836E-03,  -151.337E-03,   17.9517E-03
C:/temp/dataset/3/1_6.odb,Step-1,Increment      1: Step Time =    1.000,"PART-1-1",           117,       11.7208,      -22.4938,            0.,NA,NA,"",   35.3092E-03,   34.7054E-03,   6.50175E-03,   8.31880E-03
C:/temp/dataset/3/1_6.odb,Step-1,Increment      1: Step Time =    1.000,"PART-1-1",           118,       2.59328,       2.74806,            0.,NA,NA,"",       2.02388,      -1.68443,      -1.12196,   11.1811E-03
C:/temp/dataset/3/1_6.odb,Step-1,Increment      1: Step Time =    1.000,"PART-1-1",           119,      -1.32361,      -2.98462,            0.,NA,NA,"",       1.81475,  -933.159E-03,      -1.55645,   1.23812E-03
C:/temp/dataset/3/1_6.odb,Step-1,Increment      1: Step Time =    1.000,"PART-1-1",           120,      -6.00563,       3.11026,            0.,NA,NA,"",       2.75442,      -1.66503,      -2.19420,   355.338E-06
C:/temp/dataset/3/1_6.odb,Step-1,Increment      1: Step Time =    1.000,"PART-1-1",           121,      -10.4102,       2.53863,            0.,NA,NA,"",       3.15696,      -1.55770,      -2.74590,   36.1292E-06
C:/temp/dataset/3/1_6.odb,Step-1,Increment      1: Step Time =    1.000,"PART-1-1",           122,      -12.6184,  -43.2983E-03,            0.,NA,NA,"",       3.24009,      -1.21430,      -3.00394,   8.22785E-06
C:/temp/dataset/3/1_6.odb,Step-1,Increment      1: Step Time =    1.000,"PART-1-1",           123,      -3.88272,       3.23189,            0.,NA,NA,"",       2.56773,      -1.69724,      -1.92682,   744.885E-06
C:/temp/dataset/3/1_6.odb,Step-1,Increment      1: Step Time =    1.000,"PART-1-1",           124,       2.98144,      -22.7363,            0.,NA,NA,"",   26.5144E-03,   2.64459E-03,  -26.3822E-03,   8.29359E-03
C:/temp/dataset/3/1_6.odb,Step-1,Increment      1: Step Time =    1.000,"PART-1-1",           125,      -2.42987,      -22.6294,            0.,NA,NA,"",   3.19364E-03,   2.27278E-03,  -2.24361E-03,   436.288E-06
C:/temp/dataset/3/1_6.odb,Step-1,Increment      1: Step Time =    1.000,"PART-1-1",           126,      -9.97348,      -22.5672,            0.,NA,NA,"",   1.68882E-03,   1.46731E-03,   836.120E-06,   295.830E-06
C:/temp/dataset/3/1_6.odb,Step-1,Increment      1: Step Time =    1.000,"PART-1-1",           127,      -12.4895,      -25.0402,            0.,NA,NA,"",   974.195E-06,   699.929E-06,   677.610E-06,   204.919E-06
C:/temp/dataset/3/1_6.odb,Step-1,Increment      1: Step Time =    1.000,"PART-1-1",           128,       12.8561,      -14.2595,            0.,NA,NA,"",   156.479E-03,  -124.853E-03,   94.3252E-03,   13.8141E-03
C:/temp/dataset/3/1_6.odb,Step-1,Increment      1: Step Time =    1.000,"PART-1-1",           129,       12.7281,      -7.33650,            0.,NA,NA,"",   578.787E-03,  -554.451E-03,   166.066E-03,   16.2940E-03
C:/temp/dataset/3/1_6.odb,Step-1,Increment      1: Step Time =    1.000,"PART-1-1",           130,       12.6427,  -96.8002E-03,            0.,NA,NA,"",       1.35412,      -1.33667,   216.709E-03,   15.4249E-03
C:/temp/dataset/3/1_6.odb,Step-1,Increment      1: Step Time =    1.000,"PART-1-1",           131,       7.13014,       10.3328,            0.,NA,NA,"",       3.02188,      -2.89576,  -863.921E-03,   33.0888E-03
C:/temp/dataset/3/1_6.odb,Step-1,Increment      1: Step Time =    1.000,"PART-1-1",           132,       4.95005,       27.5805,            0.,NA,NA,"",       8.15187,      -7.68307,      -2.72460,   21.9161E-03
C:/temp/dataset/3/1_6.odb,Step-1,Increment      1: Step Time =    1.000,"PART-1-1",           133,      -4.99957,       22.5148,            0.,NA,NA,"",       7.99222,      -4.95867,      -6.26794,   12.4461E-03
C:/temp/dataset/3/1_6.odb,Step-1,Increment      1: Step Time =    1.000,"PART-1-1",           134,      -7.50186,       22.5094,            0.,NA,NA,"",       8.70014,      -4.71006,      -7.31490,   9.78730E-03
C:/temp/dataset/3/1_6.odb,Step-1,Increment      1: Step Time =    1.000,"PART-1-1",           135,       4.93744,       22.5898,            0.,NA,NA,"",       6.35763,      -5.91264,      -2.33671,   25.1250E-03
C:/temp/dataset/3/1_6.odb,Step-1,Increment      1: Step Time =    1.000,"PART-1-1",           136,       2.47758,       22.5593,            0.,NA,NA,"",       6.56783,      -5.69717,      -3.26782,   28.5122E-03
C:/temp/dataset/3/1_6.odb,Step-1,Increment      1: Step Time =    1.000,"PART-1-1",           137,  -4.46696E-03,       22.5388,            0.,NA,NA,"",       6.91152,      -5.45921,      -4.23864,   19.8691E-03
C:/temp/dataset/3/1_6.odb,Step-1,Increment      1: Step Time =    1.000,"PART-1-1",           138,       7.20686,       12.6699,            0.,NA,NA,"",       3.51522,      -3.37937,  -967.768E-03,   32.3413E-03
C:/temp/dataset/3/1_6.odb,Step-1,Increment      1: Step Time =    1.000,"PART-1-1",           139,       7.30679,       15.0771,            0.,NA,NA,"",       4.07133,      -3.92555,      -1.07969,   34.0430E-03
C:/temp/dataset/3/1_6.odb,Step-1,Increment      1: Step Time =    1.000,"PART-1-1",           140,       7.52839,       5.66323,            0.,NA,NA,"",       2.15768,      -2.07248,  -600.337E-03,   19.5542E-03
C:/temp/dataset/3/1_6.odb,Step-1,Increment      1: Step Time =    1.000,"PART-1-1",           141,       7.20823,       7.96221,            0.,NA,NA,"",       2.56242,      -2.45257,  -742.214E-03,   30.8002E-03
C:/temp/dataset/3/1_6.odb,Step-1,Increment      1: Step Time =    1.000,"PART-1-1",           142,      -1.77433,       3.17490,            0.,NA,NA,"",       2.38090,      -1.70647,      -1.66032,   1.26230E-03
C:/temp/dataset/3/1_6.odb,Step-1,Increment      1: Step Time =    1.000,"PART-1-1",           143,   347.975E-03,       3.01142,            0.,NA,NA,"",       2.20148,      -1.70342,      -1.39459,   1.96015E-03
C:/temp/dataset/3/1_6.odb,Step-1,Increment      1: Step Time =    1.000,"PART-1-1",           144,      -8.17775,       2.85153,            0.,NA,NA,"",       2.94828,      -1.61505,      -2.46657,   131.856E-06
C:/temp/dataset/3/1_6.odb,Step-1,Increment      1: Step Time =    1.000,"PART-1-1",           145,      -8.45397,      -3.03463,            0.,NA,NA,"",       2.60459,  -870.188E-03,      -2.45492,   106.439E-06
C:/temp/dataset/3/1_6.odb,Step-1,Increment      1: Step Time =    1.000,"PART-1-1",           146,      -12.6978,       2.46856,            0.,NA,NA,"",       3.39821,      -1.53057,      -3.03401,   4.72439E-06
C:/temp/dataset/3/1_6.odb,Step-1,Increment      1: Step Time =    1.000,"PART-1-1",           147,      -10.5225,      -2.72745,            0.,NA,NA,"",       2.86092,  -892.433E-03,      -2.71817,   32.2012E-06
C:/temp/dataset/3/1_6.odb,Step-1,Increment      1: Step Time =    1.000,"PART-1-1",           148,      -12.7265,      -2.55241,            0.,NA,NA,"",       3.12886,  -896.911E-03,      -2.99755,   4.74579E-06
C:/temp/dataset/3/1_6.odb,Step-1,Increment      1: Step Time =    1.000,"PART-1-1",           149,      -3.80700,      -2.48494,            0.,NA,NA,"",       2.11338,  -976.973E-03,      -1.87400,   813.602E-06
C:/temp/dataset/3/1_6.odb,Step-1,Increment      1: Step Time =    1.000,"PART-1-1",           150,      -6.26959,      -2.94549,            0.,NA,NA,"",       2.35842,  -898.831E-03,      -2.18043,   321.321E-06
C:/temp/dataset/3/1_6.odb,Step-1,Increment      1: Step Time =    1.000,"PART-1-1",           151,       2.97297,      -3.34056,            0.,NA,NA,"",       1.35210,  -922.241E-03,  -988.758E-03,   11.8009E-03
C:/temp/dataset/3/1_6.odb,Step-1,Increment      1: Step Time =    1.000,"PART-1-1",           152,   836.982E-03,      -3.21922,            0.,NA,NA,"",       1.57446,  -920.885E-03,      -1.27707,   1.75044E-03
C:/temp/dataset/3/1_6.odb,Step-1,Increment      1: Step Time =    1.000,"PART-1-1",           153,       7.27849,      -10.7647,            0.,NA,NA,"",   376.591E-03,  -295.154E-03,  -233.890E-03,   22.6072E-03
C:/temp/dataset/3/1_6.odb,Step-1,Increment      1: Step Time =    1.000,"PART-1-1",           154,       7.20650,      -8.25133,            0.,NA,NA,"",   546.171E-03,  -460.939E-03,  -292.981E-03,   25.2952E-03
C:/temp/dataset/3/1_6.odb,Step-1,Increment      1: Step Time =    1.000,"PART-1-1",           155,       7.07274,      -17.3233,            0.,NA,NA,"",   119.366E-03,  -28.8179E-03,  -115.835E-03,   19.3309E-03
C:/temp/dataset/3/1_6.odb,Step-1,Increment      1: Step Time =    1.000,"PART-1-1",           156,       6.55788,      -15.2577,            0.,NA,NA,"",   196.754E-03,  -94.3643E-03,  -172.649E-03,   25.0023E-03
C:/temp/dataset/3/1_6.odb,Step-1,Increment      1: Step Time =    1.000,"PART-1-1",           157,      -7.46685,      -22.5818,            0.,NA,NA,"",   1.84068E-03,   1.65312E-03,   809.519E-06,   446.456E-06
C:/temp/dataset/3/1_6.odb,Step-1,Increment      1: Step Time =    1.000,"PART-1-1",           158,      -4.95694,      -22.5955,            0.,NA,NA,"",   1.91926E-03,   1.91103E-03,   177.601E-06,   533.295E-06
C:/temp/dataset/3/1_6.odb,Step-1,Increment      1: Step Time =    1.000,"PART-1-1",           159,   146.162E-03,      -22.6598,            0.,NA,NA,"",   9.34838E-03,   1.68886E-03,  -9.19456E-03,   1.35533E-03
C:/temp/dataset/3/1_6.odb,Step-1,Increment      1: Step Time =    1.000,"PART-1-1",           160,      -12.4860,      -22.5306,            0.,NA,NA,"",   1.65887E-03,   1.41530E-03,   865.327E-06,   151.944E-06
C:/temp/dataset/3/1_6.odb,Step-1,Increment      1: Step Time =    1.000,"PART-1-1",           161,       9.96020,      -27.7814,            0.,NA,NA,"",   16.1009E-03,   15.7772E-03,  -3.21207E-03,   5.81646E-03
C:/temp/dataset/3/1_6.odb,Step-1,Increment      1: Step Time =    1.000,"PART-1-1",           162,       7.44077,      -27.8946,            0.,NA,NA,"",   12.9430E-03,   10.6205E-03,  -7.39774E-03,   6.25489E-03
C:/temp/dataset/3/1_6.odb,Step-1,Increment      1: Step Time =    1.000,"PART-1-1",           163,       4.93217,      -27.8625,            0.,NA,NA,"",   9.33837E-03,   4.10218E-03,  -8.38912E-03,   5.69939E-03
C:/temp/dataset/3/1_6.odb,Step-1,Increment      1: Step Time =    1.000,"PART-1-1",           164,       2.47767,      -27.7470,            0.,NA,NA,"",   6.42360E-03,  -654.493E-06,  -6.39017E-03,   3.88696E-03
C:/temp/dataset/3/1_6.odb,Step-1,Increment      1: Step Time =    1.000,"PART-1-1",           165,   19.5837E-03,      -27.6625,            0.,NA,NA,"",   4.15197E-03,  -2.42852E-03,  -3.36767E-03,   2.04562E-03
C:/temp/dataset/3/1_6.odb,Step-1,Increment      1: Step Time =    1.000,"PART-1-1",           166,      -2.46955,      -27.6154,            0.,NA,NA,"",   2.56059E-03,  -2.24083E-03,  -1.23908E-03,   966.543E-06
C:/temp/dataset/3/1_6.odb,Step-1,Increment      1: Step Time =    1.000,"PART-1-1",           167,      -4.97450,      -27.5844,            0.,NA,NA,"",   1.38570E-03,  -1.37384E-03,  -180.924E-06,   521.143E-06
C:/temp/dataset/3/1_6.odb,Step-1,Increment      1: Step Time =    1.000,"PART-1-1",           168,      -7.48283,      -27.5594,            0.,NA,NA,"",   628.861E-06,  -601.837E-06,   182.370E-06,   316.018E-06
C:/temp/dataset/3/1_6.odb,Step-1,Increment      1: Step Time =    1.000,"PART-1-1",           169,       12.2865,      -25.1793,            0.,NA,NA,"",   30.5819E-03,   30.0513E-03,   5.67191E-03,   6.67789E-03
C:/temp/dataset/3/1_6.odb,Step-1,Increment      1: Step Time =    1.000,"PART-1-1",           170,       11.6753,      -16.4340,            0.,NA,NA,"",   53.6536E-03,  -44.6235E-03,   29.7901E-03,   7.91240E-03
C:/temp/dataset/3/1_6.odb,Step-1,Increment      1: Step Time =    1.000,"PART-1-1",           171,       11.9685,      -19.5802,            0.,NA,NA,"",   27.1463E-03,   16.2350E-03,   21.7565E-03,   9.12857E-03
C:/temp/dataset/3/1_6.odb,Step-1,Increment      1: Step Time =    1.000,"PART-1-1",           172,       13.3291,      -9.93034,            0.,NA,NA,"",   403.749E-03,  -362.311E-03,   178.168E-03,   19.2643E-03
C:/temp/dataset/3/1_6.odb,Step-1,Increment      1: Step Time =    1.000,"PART-1-1",           173,       13.4212,      -12.1607,            0.,NA,NA,"",   273.160E-03,  -228.118E-03,   150.262E-03,   18.5587E-03
C:/temp/dataset/3/1_6.odb,Step-1,Increment      1: Step Time =    1.000,"PART-1-1",           174,       12.9633,      -2.52247,            0.,NA,NA,"",       1.07366,      -1.04700,   237.781E-03,   17.2183E-03
C:/temp/dataset/3/1_6.odb,Step-1,Increment      1: Step Time =    1.000,"PART-1-1",           175,       13.1247,      -4.84738,            0.,NA,NA,"",   827.205E-03,  -794.282E-03,   231.053E-03,   19.0055E-03
C:/temp/dataset/3/1_6.odb,Step-1,Increment      1: Step Time =    1.000,"PART-1-1",           176,       13.1131,       5.12757,            0.,NA,NA,"",       2.10406,      -2.07902,   323.645E-03,   24.8742E-03
C:/temp/dataset/3/1_6.odb,Step-1,Increment      1: Step Time =    1.000,"PART-1-1",           177,       12.1418,       2.60140,            0.,NA,NA,"",       1.69337,      -1.68586,   159.349E-03,   15.1983E-03
C:/temp/dataset/3/1_6.odb,Step-1,Increment      1: Step Time =    1.000,"PART-1-1",           178,       12.1760,       12.1629,            0.,NA,NA,"",       3.38834,      -3.38437,   163.841E-03,   19.6769E-03
C:/temp/dataset/3/1_6.odb,Step-1,Increment      1: Step Time =    1.000,"PART-1-1",           179,       13.0236,       9.64002,            0.,NA,NA,"",       2.90075,      -2.88045,   342.643E-03,   27.4202E-03
C:/temp/dataset/3/1_6.odb,Step-1,Increment      1: Step Time =    1.000,"PART-1-1",           180,       12.3784,       20.0377,            0.,NA,NA,"",       5.48058,      -5.47984,   89.9943E-03,   25.1124E-03
C:/temp/dataset/3/1_6.odb,Step-1,Increment      1: Step Time =    1.000,"PART-1-1",           181,       12.3660,       17.5135,            0.,NA,NA,"",       4.73481,      -4.73259,   145.022E-03,   23.4770E-03
C:/temp/dataset/3/1_6.odb,Step-1,Increment      1: Step Time =    1.000,"PART-1-1",           182,       12.4264,       25.0333,            0.,NA,NA,"",       7.14082,      -7.14010,  -101.314E-03,   22.7971E-03
C:/temp/dataset/3/1_6.odb,Step-1,Increment      1: Step Time =    1.000,"PART-1-1",           183,       7.43491,       27.5684,            0.,NA,NA,"",       8.00568,      -7.78738,      -1.85678,   22.5073E-03
C:/temp/dataset/3/1_6.odb,Step-1,Increment      1: Step Time =    1.000,"PART-1-1",           184,  -17.4965E-03,       27.5503,            0.,NA,NA,"",       8.71627,      -7.38233,      -4.63406,   18.2114E-03
C:/temp/dataset/3/1_6.odb,Step-1,Increment      1: Step Time =    1.000,"PART-1-1",           185,       2.47067,       27.5656,            0.,NA,NA,"",       8.38432,      -7.54722,      -3.65189,   20.2812E-03
C:/temp/dataset/3/1_6.odb,Step-1,Increment      1: Step Time =    1.000,"PART-1-1",           186,      -7.50286,       27.5043,            0.,NA,NA,"",       10.2887,      -6.75557,      -7.76015,   12.4973E-03
C:/temp/dataset/3/1_6.odb,Step-1,Increment      1: Step Time =    1.000,"PART-1-1",           187,      -5.00635,       27.5119,            0.,NA,NA,"",       9.67212,      -6.97827,      -6.69729,   12.4957E-03
C:/temp/dataset/3/1_6.odb,Step-1,Increment      1: Step Time =    1.000,"PART-1-1",           188,      -12.5019,       27.5019,            0.,NA,NA,"",       11.7287,      -6.30368,      -9.89074,   6.16796E-03
C:/temp/dataset/3/1_6.odb,Step-1,Increment      1: Step Time =    1.000,"PART-1-1",           189,      -12.5001,       22.5034,            0.,NA,NA,"",       10.3291,      -4.22887,      -9.42379,   3.38205E-03
C:/temp/dataset/3/1_6.odb,Step-1,Increment      1: Step Time =    1.000,"PART-1-1",           190,      -5.00429,       25.0191,            0.,NA,NA,"",       8.81206,      -5.97254,      -6.47929,   12.3192E-03
C:/temp/dataset/3/1_6.odb,Step-1,Increment      1: Step Time =    1.000,"PART-1-1",           191,  -15.9173E-03,       25.0642,            0.,NA,NA,"",       7.81164,      -6.43271,      -4.43192,   11.9903E-03
C:/temp/dataset/3/1_6.odb,Step-1,Increment      1: Step Time =    1.000,"PART-1-1",           192,       9.74355,       15.0604,            0.,NA,NA,"",       4.00906,      -3.98158,  -468.621E-03,   5.89604E-03
C:/temp/dataset/3/1_6.odb,Step-1,Increment      1: Step Time =    1.000,"PART-1-1",           193,       9.51986,       12.6989,            0.,NA,NA,"",       3.45491,      -3.42658,  -441.602E-03,   8.97155E-03
C:/temp/dataset/3/1_6.odb,Step-1,Increment      1: Step Time =    1.000,"PART-1-1",           194,       12.1898,      -11.7554,            0.,NA,NA,"",   254.213E-03,  -239.877E-03,   84.1641E-03,   11.1870E-03
C:/temp/dataset/3/1_6.odb,Step-1,Increment      1: Step Time =    1.000,"PART-1-1",           195,       9.78251,      -13.4248,            0.,NA,NA,"",   158.107E-03,  -149.384E-03,  -51.7897E-03,   6.63262E-03
C:/temp/dataset/3/1_6.odb,Step-1,Increment      1: Step Time =    1.000,"PART-1-1",           196,       7.24032,      -19.5057,            0.,NA,NA,"",   80.3996E-03,   13.7047E-03,  -79.2230E-03,   13.2157E-03
C:/temp/dataset/3/1_6.odb,Step-1,Increment      1: Step Time =    1.000,"PART-1-1",           197,      -10.0066,  -139.817E-03,            0.,NA,NA,"",       2.94013,      -1.22304,      -2.67368,   63.9612E-06
C:/temp/dataset/3/1_6.odb,Step-1,Increment      1: Step Time =    1.000,"PART-1-1",           198,      -8.39380,      -1.43672,            0.,NA,NA,"",       2.68359,      -1.07236,      -2.46002,   136.261E-06
C:/temp/dataset/3/1_6.odb,Step-1,Increment      1: Step Time =    1.000,"PART-1-1",           199,      -5.07121,  -530.035E-03,            0.,NA,NA,"",       2.38104,      -1.21408,      -2.04826,   603.313E-06
C:/temp/dataset/3/1_6.odb,Step-1,Increment      1: Step Time =    1.000,"PART-1-1",           200,      -12.5003,      -27.5198,            0.,NA,NA,"",   381.312E-06,   182.632E-06,   334.730E-06,   189.185E-06
C:/temp/dataset/3/1_6.odb,Step-1,Increment      1: Step Time =    1.000,"PART-1-1",           201,       8.97180,      -8.86122,            0.,NA,NA,"",   434.837E-03,  -410.889E-03,  -142.315E-03,   10.7026E-03
C:/temp/dataset/3/1_6.odb,Step-1,Increment      1: Step Time =    1.000,"PART-1-1",           202,      -2.50561,       25.0360,            0.,NA,NA,"",       8.25393,      -6.20616,      -5.44160,   12.4806E-03
C:/temp/dataset/3/1_6.odb,Step-1,Increment      1: Step Time =    1.000,"PART-1-1",           203,      -7.50383,       25.0106,            0.,NA,NA,"",       9.46913,      -5.73555,      -7.53444,   11.3664E-03
C:/temp/dataset/3/1_6.odb,Step-1,Increment      1: Step Time =    1.000,"PART-1-1",           204,       2.46362,       25.0850,            0.,NA,NA,"",       7.48093,      -6.63452,      -3.45651,   14.2450E-03
C:/temp/dataset/3/1_6.odb,Step-1,Increment      1: Step Time =    1.000,"PART-1-1",           205,       9.17638,       10.5785,            0.,NA,NA,"",       3.00402,      -2.97024,  -449.250E-03,   11.5477E-03
C:/temp/dataset/3/1_6.odb,Step-1,Increment      1: Step Time =    1.000,"PART-1-1",           206,       9.65111,       6.46520,            0.,NA,NA,"",       2.23888,      -2.22351,  -261.919E-03,   8.20772E-03
C:/temp/dataset/3/1_6.odb,Step-1,Increment      1: Step Time =    1.000,"PART-1-1",           207,      -1.99278,       1.34592,            0.,NA,NA,"",       2.23252,      -1.47699,      -1.67412,   1.27522E-03
C:/temp/dataset/3/1_6.odb,Step-1,Increment      1: Step Time =    1.000,"PART-1-1",           208,      -5.69490,       1.29843,            0.,NA,NA,"",       2.57979,      -1.43948,      -2.14084,   469.617E-06
C:/temp/dataset/3/1_6.odb,Step-1,Increment      1: Step Time =    1.000,"PART-1-1",           209,       1.92780,   665.778E-03,            0.,NA,NA,"",       1.84865,      -1.42381,      -1.17909,   5.43573E-03
C:/temp/dataset/3/1_6.odb,Step-1,Increment      1: Step Time =    1.000,"PART-1-1",           210,       1.26043,      -1.37778,            0.,NA,NA,"",       1.69802,      -1.16133,      -1.23878,   2.70559E-03
C:/temp/dataset/3/1_6.odb,Step-1,Increment      1: Step Time =    1.000,"PART-1-1",           211,       9.14691,      -16.8280,            0.,NA,NA,"",   64.9279E-03,  -31.1957E-03,  -56.9426E-03,   8.47006E-03
C:/temp/dataset/3/1_6.odb,Step-1,Increment      1: Step Time =    1.000,"PART-1-1",           212,   79.9954E-03,      -25.2148,            0.,NA,NA,"",   7.24038E-03,  -1.90072E-03,  -6.98644E-03,   1.94238E-03
C:/temp/dataset/3/1_6.odb,Step-1,Increment      1: Step Time =    1.000,"PART-1-1",           213,      -9.97865,      -25.0679,            0.,NA,NA,"",   798.809E-06,   467.581E-06,   647.660E-06,   301.457E-06
C:/temp/dataset/3/1_6.odb,Step-1,Increment      1: Step Time =    1.000,"PART-1-1",           214,       12.4671,      -27.6040,            0.,NA,NA,"",   17.2481E-03,   17.1333E-03,   1.98717E-03,   5.93941E-03
C:/temp/dataset/3/1_6.odb,Step-1,Increment      1: Step Time =    1.000,"PART-1-1",           215,       9.82463,      -25.6838,            0.,NA,NA,"",   27.8813E-03,   26.5008E-03,  -8.66466E-03,   7.39418E-03
C:/temp/dataset/3/1_6.odb,Step-1,Increment      1: Step Time =    1.000,"PART-1-1",           216,       2.56344,      -25.3828,            0.,NA,NA,"",   15.3210E-03,  -36.4426E-06,  -15.3210E-03,   4.90026E-03
C:/temp/dataset/3/1_6.odb,Step-1,Increment      1: Step Time =    1.000,"PART-1-1",           217,      -2.44121,      -25.1518,            0.,NA,NA,"",   2.43163E-03,  -1.44337E-03,  -1.95691E-03,   671.816E-06
C:/temp/dataset/3/1_6.odb,Step-1,Increment      1: Step Time =    1.000,"PART-1-1",           218,      -4.95889,      -25.1139,            0.,NA,NA,"",   593.202E-06,  -591.361E-06,   46.6980E-06,   453.403E-06
C:/temp/dataset/3/1_6.odb,Step-1,Increment      1: Step Time =    1.000,"PART-1-1",           219,       10.3279,  -771.646E-03,            0.,NA,NA,"",       1.23266,      -1.23035,  -75.3744E-03,   3.73120E-03
C:/temp/dataset/3/1_6.odb,Step-1,Increment      1: Step Time =    1.000,"PART-1-1",           220,       10.4049,       4.48083,            0.,NA,NA,"",       1.93002,      -1.92675,  -112.251E-03,   9.16202E-03
C:/temp/dataset/3/1_6.odb,Step-1,Increment      1: Step Time =    1.000,"PART-1-1",           221,       9.80969,       17.5478,            0.,NA,NA,"",       4.65537,      -4.62377,  -541.504E-03,   7.70846E-03
C:/temp/dataset/3/1_6.odb,Step-1,Increment      1: Step Time =    1.000,"PART-1-1",           222,       9.88106,       25.0797,            0.,NA,NA,"",       7.08637,      -7.02972,  -894.274E-03,   26.3911E-03
C:/temp/dataset/3/1_6.odb,Step-1,Increment      1: Step Time =    1.000,"PART-1-1",           223,       9.94975,       27.5346,            0.,NA,NA,"",       7.94787,      -7.88077,      -1.03056,   21.6743E-03
C:/temp/dataset/3/1_6.odb,Step-1,Increment      1: Step Time =    1.000,"PART-1-1",           224,       7.36779,       20.0596,            0.,NA,NA,"",       5.39723,      -5.22512,      -1.35214,   23.3796E-03
C:/temp/dataset/3/1_6.odb,Step-1,Increment      1: Step Time =    1.000,"PART-1-1",           225,  -693.206E-03,      -1.01900,            0.,NA,NA,"",       1.90866,      -1.19021,      -1.49212,   1.39607E-03
C:/temp/dataset/3/1_6.odb,Step-1,Increment      1: Step Time =    1.000,"PART-1-1",           226,      -7.47194,      -25.0831,            0.,NA,NA,"",   614.242E-06,   79.0485E-06,   609.134E-06,   402.959E-06
C:/temp/dataset/3/1_6.odb,Step-1,Increment      1: Step Time =    1.000,"PART-1-1",           227,       5.28089,       2.25097,            0.,NA,NA,"",       1.80894,      -1.62065,  -803.605E-03,   29.1585E-03
C:/temp/dataset/3/1_6.odb,Step-1,Increment      1: Step Time =    1.000,"PART-1-1",           228,       9.26575,       8.45073,            0.,NA,NA,"",       2.58872,      -2.56183,  -372.153E-03,   8.82479E-03
C:/temp/dataset/3/1_6.odb,Step-1,Increment      1: Step Time =    1.000,"PART-1-1",           229,  -81.3472E-03,       1.02952,            0.,NA,NA,"",       2.04093,      -1.45412,      -1.43211,   1.25166E-03
C:/temp/dataset/3/1_6.odb,Step-1,Increment      1: Step Time =    1.000,"PART-1-1",           230,      -7.67687,   831.326E-03,            0.,NA,NA,"",       2.74977,      -1.36436,      -2.38741,   206.119E-06
C:/temp/dataset/3/1_6.odb,Step-1,Increment      1: Step Time =    1.000,"PART-1-1",           231,      -2.54090,  -531.417E-03,            0.,NA,NA,"",       2.12551,      -1.23579,      -1.72934,   1.18007E-03
C:/temp/dataset/3/1_6.odb,Step-1,Increment      1: Step Time =    1.000,"PART-1-1",           232,      -3.83997,       1.55066,            0.,NA,NA,"",       2.41932,      -1.48677,      -1.90856,   810.984E-06
C:/temp/dataset/3/1_6.odb,Step-1,Increment      1: Step Time =    1.000,"PART-1-1",           233,      -6.84494,  -996.203E-03,            0.,NA,NA,"",       2.53884,      -1.14053,      -2.26824,   310.875E-06
C:/temp/dataset/3/1_6.odb,Step-1,Increment      1: Step Time =    1.000,"PART-1-1",           234,       5.51335,      -3.03354,            0.,NA,NA,"",       1.15419,  -969.401E-03,  -626.436E-03,   29.9197E-03
C:/temp/dataset/3/1_6.odb,Step-1,Increment      1: Step Time =    1.000,"PART-1-1",           235,       9.62476,      -7.14735,            0.,NA,NA,"",   555.340E-03,  -545.802E-03,  -102.481E-03,   4.94836E-03
C:/temp/dataset/3/1_6.odb,Step-1,Increment      1: Step Time =    1.000,"PART-1-1",           236,       7.38903,      -25.9371,            0.,NA,NA,"",   25.2051E-03,   17.6521E-03,  -17.9917E-03,   8.29969E-03
C:/temp/dataset/3/1_6.odb,Step-1,Increment      1: Step Time =    1.000,"PART-1-1",           237,       4.96373,      -25.7856,            0.,NA,NA,"",   21.8384E-03,   7.30530E-03,  -20.5803E-03,   7.69236E-03
C:/temp/dataset/3/1_6.odb,Step-1,Increment      1: Step Time =    1.000,"PART-1-1",           238,       9.37191,      -21.3805,            0.,NA,NA,"",   43.2196E-03,   31.8196E-03,  -29.2480E-03,   9.84401E-03
C:/temp/dataset/3/1_6.odb,Step-1,Increment      1: Step Time =    1.000,"PART-1-1",           239,       9.53380,      -19.3691,            0.,NA,NA,"",   37.6642E-03,   17.2988E-03,  -33.4566E-03,   8.50305E-03
C:/temp/dataset/3/1_6.odb,Step-1,Increment      1: Step Time =    1.000,"PART-1-1",           240,       10.5518,      -5.76730,            0.,NA,NA,"",   676.326E-03,  -675.944E-03,  -22.7369E-03,   3.73551E-03
C:/temp/dataset/3/1_6.odb,Step-1,Increment      1: Step Time =    1.000,"PART-1-1",           241,       10.8494,      -2.88140,            0.,NA,NA,"",   983.586E-03,  -983.586E-03,   227.559E-06,   3.51554E-03
C:/temp/dataset/3/1_6.odb,Step-1,Increment      1: Step Time =    1.000,"PART-1-1",           242,       9.33979,       1.27198,            0.,NA,NA,"",       1.49970,      -1.48157,  -232.476E-03,   12.1800E-03
C:/temp/dataset/3/1_6.odb,Step-1,Increment      1: Step Time =    1.000,"PART-1-1",           243,       9.83335,       20.0603,            0.,NA,NA,"",       5.39096,      -5.35336,  -635.585E-03,   17.0357E-03
C:/temp/dataset/3/1_6.odb,Step-1,Increment      1: Step Time =    1.000,"PART-1-1",           244,       7.39102,       25.1069,            0.,NA,NA,"",       7.12767,      -6.92437,      -1.69017,   23.8546E-03
C:/temp/dataset/3/1_6.odb,Step-1,Increment      1: Step Time =    1.000,"PART-1-1",           245,       4.93408,       25.0979,            0.,NA,NA,"",       7.25522,      -6.79779,      -2.53541,   15.0821E-03
C:/temp/dataset/3/1_6.odb,Step-1,Increment      1: Step Time =    1.000,"PART-1-1",           246,      -10.0026,       25.0068,            0.,NA,NA,"",       10.2050,      -5.50002,      -8.59609,   8.72034E-03
C:/temp/dataset/3/1_6.odb,Step-1,Increment      1: Step Time =    1.000,"PART-1-1",           247,      -10.0008,       22.5051,            0.,NA,NA,"",       9.48623,      -4.46601,      -8.36919,   6.72138E-03
C:/temp/dataset/3/1_6.odb,Step-1,Increment      1: Step Time =    1.000,"PART-1-1",           248,      -9.99283,      -27.5363,            0.,NA,NA,"",   290.218E-06,  -111.408E-06,   267.982E-06,   214.074E-06
C:/temp/dataset/3/1_6.odb,Step-1,Increment      1: Step Time =    1.000,"PART-1-1",           249,       3.80746,   187.829E-03,            0.,NA,NA,"",       1.65743,      -1.36796,  -935.823E-03,   15.6851E-03
C:/temp/dataset/3/1_6.odb,Step-1,Increment      1: Step Time =    1.000,"PART-1-1",           250,       11.4886,       7.12458,            0.,NA,NA,"",       2.37106,      -2.37044,   54.3048E-03,   13.8054E-03
C:/temp/dataset/3/1_6.odb,Step-1,Increment      1: Step Time =    1.000,"PART-1-1",           251,       5.25951,      -23.9756,            0.,NA,NA,"",   35.9017E-03,   10.1232E-03,  -34.4450E-03,   10.8184E-03
C:/temp/dataset/3/1_6.odb,Step-1,Increment      1: Step Time =    1.000,"PART-1-1",           252,       9.85798,       22.5791,            0.,NA,NA,"",       6.21550,      -6.16989,  -751.609E-03,   26.3279E-03
C:/temp/dataset/3/1_6.odb,Step-1,Increment      1: Step Time =    1.000,"PART-1-1",           253,       7.38133,       22.5911,            0.,NA,NA,"",       6.23568,      -6.05020,      -1.50957,   29.1621E-03
C:/temp/dataset/3/1_6.odb,Step-1,Increment      1: Step Time =    1.000,"PART-1-1",           254,       9.03817,      -10.9527,            0.,NA,NA,"",   299.237E-03,  -276.343E-03,  -114.792E-03,   10.5344E-03
C:/temp/dataset/3/1_6.odb,Step-1,Increment      1: Step Time =    1.000,"PART-1-1",           255,       7.30212,      -21.2110,            0.,NA,NA,"",   64.9595E-03,   24.5241E-03,  -60.1524E-03,   14.5212E-03
C:/temp/dataset/3/1_6.odb,Step-1,Increment      1: Step Time =    1.000,"PART-1-1",           256,       8.48263,      -3.88795,            0.,NA,NA,"",   896.917E-03,  -861.649E-03,  -249.042E-03,   12.1808E-03
C:/temp/dataset/3/1_6.odb,Step-1,Increment      1: Step Time =    1.000,"PART-1-1",           257,       8.48912,      -1.65164,            0.,NA,NA,"",       1.15746,      -1.12076,  -289.143E-03,   15.3050E-03
C:/temp/dataset/3/1_6.odb,Step-1,Increment      1: Step Time =    1.000,"PART-1-1",           258,       8.19007,       3.36514,            0.,NA,NA,"",       1.80594,      -1.75135,  -440.657E-03,   21.1054E-03
C:/temp/dataset/3/1_6.odb,Step-1,Increment      1: Step Time =    1.000,"PART-1-1",           259,       6.78208,  -317.133E-03,            0.,NA,NA,"",       1.39840,      -1.29073,  -538.080E-03,   23.5519E-03
C:/temp/dataset/3/1_6.odb,Step-1,Increment      1: Step Time =    1.000,"PART-1-1",           260,       11.8604,      -10.2109,            0.,NA,NA,"",   338.448E-03,  -330.210E-03,   74.2170E-03,   9.84902E-03
C:/temp/dataset/3/1_6.odb,Step-1,Increment      1: Step Time =    1.000,"PART-1-1",           261,       5.00218,  -627.613E-03,            0.,NA,NA,"",       1.47457,      -1.26312,  -760.835E-03,   21.9784E-03
C:/temp/dataset/3/1_6.odb,Step-1,Increment      1: Step Time =    1.000,"PART-1-1",           262,       11.1460,      -8.45072,            0.,NA,NA,"",   450.427E-03,  -449.514E-03,   28.6579E-03,   6.49025E-03
C:/temp/dataset/3/1_6.odb,Step-1,Increment      1: Step Time =    1.000,"PART-1-1",           263,       11.7180,       5.54683,            0.,NA,NA,"",       2.11638,      -2.11416,   97.1074E-03,   15.2037E-03
C:/temp/dataset/3/1_6.odb,Step-1,Increment      1: Step Time =    1.000,"PART-1-1",           264,       5.25136,      -21.5985,            0.,NA,NA,"",   60.6504E-03,   10.6245E-03,  -59.7126E-03,   17.3220E-03
C:/temp/dataset/3/1_6.odb,Step-1,Increment      1: Step Time =    1.000,"PART-1-1",           265,       12.4723,       27.5096,            0.,NA,NA,"",       7.99298,      -7.98984,  -224.020E-03,   14.5865E-03
C:/temp/dataset/3/1_6.odb,Step-1,Increment      1: Step Time =    1.000,"PART-1-1",           266,       5.87727,      -22.7682,            0.,NA,NA,"",   49.9238E-03,   14.0951E-03,  -47.8928E-03,   12.8614E-03
C:/temp/dataset/3/1_6.odb,Step-1,Increment      1: Step Time =    1.000,"PART-1-1",           267,       7.32369,      -22.7299,            0.,NA,NA,"",   50.3981E-03,   24.4991E-03,  -44.0427E-03,   12.7264E-03
C:/temp/dataset/3/1_6.odb,Step-1,Increment      1: Step Time =    1.000,"PART-1-1",           268,       11.4923,      -4.55460,            0.,NA,NA,"",   808.788E-03,  -805.768E-03,   69.8271E-03,   8.59661E-03
C:/temp/dataset/3/1_6.odb,Step-1,Increment      1: Step Time =    1.000,"PART-1-1",           269,       11.2115,       8.96325,            0.,NA,NA,"",       2.69746,      -2.69745,  -8.91797E-03,   10.6285E-03
C:/temp/dataset/3/1_6.odb,Step-1,Increment      1: Step Time =    1.000,"PART-1-1",           270,       10.8046,       10.5255,            0.,NA,NA,"",       2.99703,      -2.99501,  -110.057E-03,   6.19615E-03
C:/temp/dataset/3/1_6.odb,Step-1,Increment      1: Step Time =    1.000,"PART-1-1",           271,       7.35536,      -24.2380,            0.,NA,NA,"",   37.2494E-03,   22.0236E-03,  -30.0412E-03,   10.4326E-03
C:/temp/dataset/3/1_6.odb,Step-1,Increment      1: Step Time =    1.000,"PART-1-1",           272,      -3.82134,   150.711E-03,            0.,NA,NA,"",       2.30480,      -1.31073,      -1.89581,   882.544E-06
C:/temp/dataset/3/1_6.odb,Step-1,Increment      1: Step Time =    1.000,"PART-1-1",           273,       3.09609,      -1.70207,            0.,NA,NA,"",       1.50528,      -1.13266,  -991.443E-03,   11.9433E-03
C:/temp/dataset/3/1_6.odb,Step-1,Increment      1: Step Time =    1.000,"PART-1-1",           274,       4.56419,      -1.78689,            0.,NA,NA,"",       1.37353,      -1.12390,  -789.576E-03,   20.7205E-03
C:/temp/dataset/3/1_6.odb,Step-1,Increment      1: Step Time =    1.000,"PART-1-1",           275,       9.44492,      -23.8624,            0.,NA,NA,"",   36.3207E-03,   31.7247E-03,  -17.6843E-03,   9.25480E-03
C:/temp/dataset/3/1_6.odb,Step-1,Increment      1: Step Time =    1.000,"PART-1-1",           276,       8.77427,      -22.6651,            0.,NA,NA,"",   43.9325E-03,   31.3717E-03,  -30.7552E-03,   10.5590E-03
C:/temp/dataset/3/1_6.odb,Step-1,Increment      1: Step Time =    1.000,"PART-1-1",           277,       10.1837,      -9.28900,            0.,NA,NA,"",   386.206E-03,  -383.534E-03,  -45.3492E-03,   4.00564E-03
C:/temp/dataset/3/1_6.odb,Step-1,Increment      1: Step Time =    1.000,"PART-1-1",           278,       10.4979,      -10.7612,            0.,NA,NA,"",   289.564E-03,  -288.922E-03,  -19.2742E-03,   4.23473E-03
C:/temp/dataset/3/1_6.odb,Step-1,Increment      1: Step Time =    1.000,"PART-1-1",           279,       11.2325,      -12.6180,            0.,NA,NA,"",   191.151E-03,  -189.555E-03,   24.6502E-03,   6.03512E-03
C:/temp/dataset/3/1_6.odb,Step-1,Increment      1: Step Time =    1.000,"PART-1-1",           280,      -13.7500,       22.5017,            0.,NA,NA,"",       10.7656,      -4.11224,      -9.94922,   1.75538E-03
C:/temp/dataset/3/1_6.odb,Step-1,Increment      1: Step Time =    1.000,"PART-1-1",           281,          -15.,         21.25,            0.,NA,NA,"",       10.9250,      -3.47393,      -10.3579,   237.826E-06
C:/temp/dataset/3/1_6.odb,Step-1,Increment      1: Step Time =    1.000,"PART-1-1",           282,        -13.75,           20.,            0.,NA,NA,"",       10.1907,      -3.06514,      -9.71882,   238.869E-06
C:/temp/dataset/3/1_6.odb,Step-1,Increment      1: Step Time =    1.000,"PART-1-1",           283,      -12.5000,       21.2517,            0.,NA,NA,"",       10.0197,      -3.70600,      -9.30915,   1.72293E-03
C:/temp/dataset/3/1_6.odb,Step-1,Increment      1: Step Time =    1.000,"PART-1-1",           284,        -11.25,           30.,            0.,NA,NA,"",       12.1602,      -7.45878,      -9.60395,   6.96344E-03
C:/temp/dataset/3/1_6.odb,Step-1,Increment      1: Step Time =    1.000,"PART-1-1",           285,      -12.5009,       28.7510,            0.,NA,NA,"",       12.1155,      -6.82390,      -10.0110,   6.02933E-03
C:/temp/dataset/3/1_6.odb,Step-1,Increment      1: Step Time =    1.000,"PART-1-1",           286,      -11.2523,       27.5017,            0.,NA,NA,"",       11.3492,      -6.41649,      -9.36127,   7.61607E-03
C:/temp/dataset/3/1_6.odb,Step-1,Increment      1: Step Time =    1.000,"PART-1-1",           287,      -10.0014,       28.7507,            0.,NA,NA,"",       11.3922,      -7.04823,      -8.95017,   8.34958E-03
C:/temp/dataset/3/1_6.odb,Step-1,Increment      1: Step Time =    1.000,"PART-1-1",           288,      -8.75282,       27.5029,            0.,NA,NA,"",       10.6270,      -6.64254,      -8.29514,   11.2032E-03
C:/temp/dataset/3/1_6.odb,Step-1,Increment      1: Step Time =    1.000,"PART-1-1",           289,      -10.0027,       26.2541,            0.,NA,NA,"",       10.5857,      -6.01405,      -8.71142,   8.78951E-03
C:/temp/dataset/3/1_6.odb,Step-1,Increment      1: Step Time =    1.000,"PART-1-1",           290,      -8.75320,       25.0087,            0.,NA,NA,"",       9.82872,      -5.61759,      -8.06513,   10.0148E-03
C:/temp/dataset/3/1_6.odb,Step-1,Increment      1: Step Time =    1.000,"PART-1-1",           291,      -7.50334,       26.2575,            0.,NA,NA,"",       9.87204,      -6.24488,      -7.64582,   11.2466E-03
C:/temp/dataset/3/1_6.odb,Step-1,Increment      1: Step Time =    1.000,"PART-1-1",           292,  -10.1921E-03,       23.8015,            0.,NA,NA,"",       7.35869,      -5.94732,      -4.33355,   14.1706E-03
C:/temp/dataset/3/1_6.odb,Step-1,Increment      1: Step Time =    1.000,"PART-1-1",           293,       1.23656,       22.5490,            0.,NA,NA,"",       6.72332,      -5.58134,      -3.74856,   20.5538E-03
C:/temp/dataset/3/1_6.odb,Step-1,Increment      1: Step Time =    1.000,"PART-1-1",           294,       2.47060,       23.8222,            0.,NA,NA,"",       7.02541,      -6.16978,      -3.36008,   16.2429E-03
C:/temp/dataset/3/1_6.odb,Step-1,Increment      1: Step Time =    1.000,"PART-1-1",           295,       1.22385,       25.0746,            0.,NA,NA,"",       7.63222,      -6.53628,      -3.94054,   12.6311E-03
C:/temp/dataset/3/1_6.odb,Step-1,Increment      1: Step Time =    1.000,"PART-1-1",           296,       13.7132,       25.0166,            0.,NA,NA,"",       7.21247,      -7.20603,   304.781E-03,   17.4667E-03
C:/temp/dataset/3/1_6.odb,Step-1,Increment      1: Step Time =    1.000,"PART-1-1",           297,           15.,         26.25,            0.,NA,NA,"",       7.73310,      -7.70442,   665.430E-03,   10.3431E-03
C:/temp/dataset/3/1_6.odb,Step-1,Increment      1: Step Time =    1.000,"PART-1-1",           298,       13.7362,       27.5048,            0.,NA,NA,"",       8.05741,      -8.05532,   183.504E-03,   7.95755E-03
C:/temp/dataset/3/1_6.odb,Step-1,Increment      1: Step Time =    1.000,"PART-1-1",           299,       12.4494,       26.2714,            0.,NA,NA,"",       7.56818,      -7.56647,  -161.174E-03,   18.3990E-03
C:/temp/dataset/3/1_6.odb,Step-1,Increment      1: Step Time =    1.000,"PART-1-1",           300,       6.19248,       27.5744,            0.,NA,NA,"",       8.06667,      -7.73690,      -2.28288,   21.4055E-03
C:/temp/dataset/3/1_6.odb,Step-1,Increment      1: Step Time =    1.000,"PART-1-1",           301,       7.46746,       28.7842,            0.,NA,NA,"",       8.43227,      -8.20767,      -1.93325,   25.3222E-03
C:/temp/dataset/3/1_6.odb,Step-1,Increment      1: Step Time =    1.000,"PART-1-1",           302,          6.25,           30.,            0.,NA,NA,"",       8.92088,      -8.57898,      -2.44606,   35.0382E-03
C:/temp/dataset/3/1_6.odb,Step-1,Increment      1: Step Time =    1.000,"PART-1-1",           303,       4.97503,       28.7903,            0.,NA,NA,"",       8.58657,      -8.11354,      -2.81063,   29.9697E-03
C:/temp/dataset/3/1_6.odb,Step-1,Increment      1: Step Time =    1.000,"PART-1-1",           304,       11.0878,       17.5306,            0.,NA,NA,"",       4.68033,      -4.67617,  -197.302E-03,   13.1595E-03
C:/temp/dataset/3/1_6.odb,Step-1,Increment      1: Step Time =    1.000,"PART-1-1",           305,       12.3722,       18.7756,            0.,NA,NA,"",       5.09794,      -5.09651,   120.636E-03,   23.7318E-03
C:/temp/dataset/3/1_6.odb,Step-1,Increment      1: Step Time =    1.000,"PART-1-1",           306,       11.1059,       20.0490,            0.,NA,NA,"",       5.42254,      -5.41568,  -272.583E-03,   19.1153E-03
C:/temp/dataset/3/1_6.odb,Step-1,Increment      1: Step Time =    1.000,"PART-1-1",           307,       9.82152,       18.8041,            0.,NA,NA,"",       5.01297,      -4.97861,  -585.984E-03,   11.0980E-03
C:/temp/dataset/3/1_6.odb,Step-1,Increment      1: Step Time =    1.000,"PART-1-1",           308,       9.63171,       13.8797,            0.,NA,NA,"",       3.72524,      -3.69733,  -455.102E-03,   7.48925E-03
C:/temp/dataset/3/1_6.odb,Step-1,Increment      1: Step Time =    1.000,"PART-1-1",           309,       8.52517,       15.0687,            0.,NA,NA,"",       4.02490,      -3.95003,  -772.711E-03,   19.4564E-03
C:/temp/dataset/3/1_6.odb,Step-1,Increment      1: Step Time =    1.000,"PART-1-1",           310,       7.25683,       13.8735,            0.,NA,NA,"",       3.78702,      -3.64641,      -1.02236,   32.7309E-03
C:/temp/dataset/3/1_6.odb,Step-1,Increment      1: Step Time =    1.000,"PART-1-1",           311,       8.36336,       12.6844,            0.,NA,NA,"",       3.47168,      -3.39939,  -704.783E-03,   20.4425E-03
C:/temp/dataset/3/1_6.odb,Step-1,Increment      1: Step Time =    1.000,"PART-1-1",           312,       14.0118,       9.82001,            0.,NA,NA,"",       2.99931,      -2.95068,   537.920E-03,   37.3532E-03
C:/temp/dataset/3/1_6.odb,Step-1,Increment      1: Step Time =    1.000,"PART-1-1",           313,           15.,         11.25,            0.,NA,NA,"",       3.37877,      -3.29212,   760.288E-03,   48.4799E-03
C:/temp/dataset/3/1_6.odb,Step-1,Increment      1: Step Time =    1.000,"PART-1-1",           314,       13.5880,       12.3315,            0.,NA,NA,"",       3.50705,      -3.47489,   473.920E-03,   34.5764E-03
C:/temp/dataset/3/1_6.odb,Step-1,Increment      1: Step Time =    1.000,"PART-1-1",           315,       12.5998,       10.9015,            0.,NA,NA,"",       3.13629,      -3.12554,   259.427E-03,   23.5372E-03
C:/temp/dataset/3/1_6.odb,Step-1,Increment      1: Step Time =    1.000,"PART-1-1",           316,       4.40482,  -219.892E-03,            0.,NA,NA,"",       1.56646,      -1.31609,  -849.533E-03,   19.2160E-03
C:/temp/dataset/3/1_6.odb,Step-1,Increment      1: Step Time =    1.000,"PART-1-1",           317,       3.45177,  -757.122E-03,            0.,NA,NA,"",       1.57776,      -1.25086,  -961.593E-03,   13.0468E-03
C:/temp/dataset/3/1_6.odb,Step-1,Increment      1: Step Time =    1.000,"PART-1-1",           318,       3.83014,      -1.74448,            0.,NA,NA,"",       1.43835,      -1.12884,  -891.389E-03,   16.7380E-03
C:/temp/dataset/3/1_6.odb,Step-1,Increment      1: Step Time =    1.000,"PART-1-1",           319,       4.78319,      -1.20725,            0.,NA,NA,"",       1.42280,      -1.19364,  -774.319E-03,   20.7753E-03
C:/temp/dataset/3/1_6.odb,Step-1,Increment      1: Step Time =    1.000,"PART-1-1",           320,       10.3408,      -10.0251,            0.,NA,NA,"",   335.971E-03,  -334.474E-03,  -31.6866E-03,   4.04978E-03
C:/temp/dataset/3/1_6.odb,Step-1,Increment      1: Step Time =    1.000,"PART-1-1",           321,       11.1792,      -10.4860,            0.,NA,NA,"",   309.674E-03,  -308.535E-03,   26.5399E-03,   5.99192E-03
C:/temp/dataset/3/1_6.odb,Step-1,Increment      1: Step Time =    1.000,"PART-1-1",           322,       11.5032,      -9.33080,            0.,NA,NA,"",   391.070E-03,  -387.417E-03,   53.3273E-03,   8.11140E-03
C:/temp/dataset/3/1_6.odb,Step-1,Increment      1: Step Time =    1.000,"PART-1-1",           323,       10.6649,      -8.86986,            0.,NA,NA,"",   415.568E-03,  -415.456E-03,  -9.63579E-03,   4.14662E-03
C:/temp/dataset/3/1_6.odb,Step-1,Increment      1: Step Time =    1.000,"PART-1-1",           324,       9.41034,      -12.1888,            0.,NA,NA,"",   223.434E-03,  -208.486E-03,  -80.3524E-03,   8.54180E-03
C:/temp/dataset/3/1_6.odb,Step-1,Increment      1: Step Time =    1.000,"PART-1-1",           325,       10.5075,      -13.0214,            0.,NA,NA,"",   168.980E-03,  -168.293E-03,  -15.2254E-03,   4.38788E-03
C:/temp/dataset/3/1_6.odb,Step-1,Increment      1: Step Time =    1.000,"PART-1-1",           326,       10.8652,      -11.6896,            0.,NA,NA,"",   236.660E-03,  -236.614E-03,   4.65660E-03,   4.72423E-03
C:/temp/dataset/3/1_6.odb,Step-1,Increment      1: Step Time =    1.000,"PART-1-1",           327,       9.76802,      -10.8570,            0.,NA,NA,"",   289.693E-03,  -281.754E-03,  -67.3576E-03,   6.36964E-03
C:/temp/dataset/3/1_6.odb,Step-1,Increment      1: Step Time =    1.000,"PART-1-1",           328,       6.12016,      -19.7528,            0.,NA,NA,"",   91.9794E-03,   15.4004E-03,  -90.6809E-03,   20.3200E-03
C:/temp/dataset/3/1_6.odb,Step-1,Increment      1: Step Time =    1.000,"PART-1-1",           329,       7.15653,      -18.4145,            0.,NA,NA,"",   94.6502E-03,  -2.09366E-03,  -94.6271E-03,   15.2456E-03
C:/temp/dataset/3/1_6.odb,Step-1,Increment      1: Step Time =    1.000,"PART-1-1",           330,       6.03637,      -17.4116,            0.,NA,NA,"",   144.236E-03,  -34.1521E-03,  -140.135E-03,   25.5973E-03
C:/temp/dataset/3/1_6.odb,Step-1,Increment      1: Step Time =    1.000,"PART-1-1",           331,            5.,        -18.75,            0.,NA,NA,"",   127.748E-03,  -16.1170E-03,  -126.727E-03,   35.2402E-03
C:/temp/dataset/3/1_6.odb,Step-1,Increment      1: Step Time =    1.000,"PART-1-1",           332,       13.3604,      -22.4969,            0.,NA,NA,"",   39.6570E-03,   30.8217E-03,   24.9539E-03,   8.95574E-03
C:/temp/dataset/3/1_6.odb,Step-1,Increment      1: Step Time =    1.000,"PART-1-1",           333,           15.,        -21.25,            0.,NA,NA,"",   54.4836E-03,   16.4130E-03,   51.9527E-03,   15.4875E-03
C:/temp/dataset/3/1_6.odb,Step-1,Increment      1: Step Time =    1.000,"PART-1-1",           334,       13.4842,      -19.7901,            0.,NA,NA,"",   51.8188E-03,   11.9307E-03,   50.4266E-03,   12.5535E-03
C:/temp/dataset/3/1_6.odb,Step-1,Increment      1: Step Time =    1.000,"PART-1-1",           335,       11.8446,      -21.0370,            0.,NA,NA,"",   32.0500E-03,   29.3559E-03,   12.8621E-03,   8.56187E-03
C:/temp/dataset/3/1_6.odb,Step-1,Increment      1: Step Time =    1.000,"PART-1-1",           336,       1.65000,            5.,            0.,NA,NA,"",       2.31577,      -1.94748,      -1.25304,   3.86895E-03
C:/temp/dataset/3/1_6.odb,Step-1,Increment      1: Step Time =    1.000,"PART-1-1",           337,   440.654E-03,       4.00571,            0.,NA,NA,"",       2.29375,      -1.82403,      -1.39075,   2.20770E-03
C:/temp/dataset/3/1_6.odb,Step-1,Increment      1: Step Time =    1.000,"PART-1-1",           338,       1.47063,       2.87974,            0.,NA,NA,"",       2.11072,      -1.69507,      -1.25773,   3.86526E-03
C:/temp/dataset/3/1_6.odb,Step-1,Increment      1: Step Time =    1.000,"PART-1-1",           339,       2.67998,       3.87403,            0.,NA,NA,"",       2.14353,      -1.82279,      -1.12791,   4.81471E-03
C:/temp/dataset/3/1_6.odb,Step-1,Increment      1: Step Time =    1.000,"PART-1-1",           340,      -1.46180,      -3.99231,            0.,NA,NA,"",       1.75913,  -802.823E-03,      -1.56526,   1.28695E-03
C:/temp/dataset/3/1_6.odb,Step-1,Increment      1: Step Time =    1.000,"PART-1-1",           341,     -500.E-03,           -5.,            0.,NA,NA,"",       1.58632,  -679.927E-03,      -1.43322,   3.14198E-03
C:/temp/dataset/3/1_6.odb,Step-1,Increment      1: Step Time =    1.000,"PART-1-1",           342,   718.491E-03,      -4.10961,            0.,NA,NA,"",       1.51428,  -802.484E-03,      -1.28416,   2.18867E-03
C:/temp/dataset/3/1_6.odb,Step-1,Increment      1: Step Time =    1.000,"PART-1-1",           343,  -243.313E-03,      -3.10192,            0.,NA,NA,"",       1.69364,  -926.821E-03,      -1.41754,   968.031E-06
C:/temp/dataset/3/1_6.odb,Step-1,Increment      1: Step Time =    1.000,"PART-1-1",           344,      -3.82017,      -3.74247,            0.,NA,NA,"",       2.03666,  -817.122E-03,      -1.86555,   618.126E-06
C:/temp/dataset/3/1_6.odb,Step-1,Increment      1: Step Time =    1.000,"PART-1-1",           345,      -2.71667,           -5.,            0.,NA,NA,"",       1.84034,  -665.767E-03,      -1.71570,   1.40103E-03
C:/temp/dataset/3/1_6.odb,Step-1,Increment      1: Step Time =    1.000,"PART-1-1",           346,      -2.56530,      -2.73478,            0.,NA,NA,"",       1.96348,  -955.172E-03,      -1.71549,   1.03788E-03
C:/temp/dataset/3/1_6.odb,Step-1,Increment      1: Step Time =    1.000,"PART-1-1",           347,      -13.8092,  -21.6491E-03,            0.,NA,NA,"",       3.37756,      -1.20751,      -3.15434,   499.047E-09
C:/temp/dataset/3/1_6.odb,Step-1,Increment      1: Step Time =    1.000,"PART-1-1",           348,      -12.6581,       1.21263,            0.,NA,NA,"",       3.31629,      -1.37243,      -3.01897,   6.61434E-06
C:/temp/dataset/3/1_6.odb,Step-1,Increment      1: Step Time =    1.000,"PART-1-1",           349,      -13.8489,       2.48428,            0.,NA,NA,"",       3.52548,      -1.52335,      -3.17937,   1.83536E-06
C:/temp/dataset/3/1_6.odb,Step-1,Increment      1: Step Time =    1.000,"PART-1-1",           350,          -15.,          1.25,            0.,NA,NA,"",       3.58229,      -1.35843,      -3.31473,   7.66619E-06
C:/temp/dataset/3/1_6.odb,Step-1,Increment      1: Step Time =    1.000,"PART-1-1",           351,      -8.84172,   345.754E-03,            0.,NA,NA,"",       2.84208,      -1.29367,      -2.53057,   130.104E-06
C:/temp/dataset/3/1_6.odb,Step-1,Increment      1: Step Time =    1.000,"PART-1-1",           352,      -9.20019,  -788.270E-03,            0.,NA,NA,"",       2.81173,      -1.14770,      -2.56683,   96.6395E-06
C:/temp/dataset/3/1_6.odb,Step-1,Increment      1: Step Time =    1.000,"PART-1-1",           353,      -7.61937,      -1.21646,            0.,NA,NA,"",       2.61022,      -1.10641,      -2.36413,   218.801E-06
C:/temp/dataset/3/1_6.odb,Step-1,Increment      1: Step Time =    1.000,"PART-1-1",           354,      -7.26090,  -82.4387E-03,            0.,NA,NA,"",       2.64336,      -1.25247,      -2.32780,   235.307E-06
C:/temp/dataset/3/1_6.odb,Step-1,Increment      1: Step Time =    1.000,"PART-1-1",           355,      -12.7466,      -3.77621,            0.,NA,NA,"",       3.08108,  -742.385E-03,      -2.99031,   3.37069E-06
C:/temp/dataset/3/1_6.odb,Step-1,Increment      1: Step Time =    1.000,"PART-1-1",           356,      -13.8633,      -2.52621,            0.,NA,NA,"",       3.26511,  -891.137E-03,      -3.14115,   1.92852E-06
C:/temp/dataset/3/1_6.odb,Step-1,Increment      1: Step Time =    1.000,"PART-1-1",           357,          -15.,         -3.75,            0.,NA,NA,"",       3.35464,  -727.692E-03,      -3.27476,   2.49665E-06
C:/temp/dataset/3/1_6.odb,Step-1,Increment      1: Step Time =    1.000,"PART-1-1",           358,      -13.8833,           -5.,            0.,NA,NA,"",       3.17711,  -578.940E-03,      -3.12392,   2.07192E-06
C:/temp/dataset/3/1_6.odb,Step-1,Increment      1: Step Time =    1.000,"PART-1-1",           359,      -5.03830,      -2.71522,            0.,NA,NA,"",       2.23362,  -937.795E-03,      -2.02721,   569.806E-06
C:/temp/dataset/3/1_6.odb,Step-1,Increment      1: Step Time =    1.000,"PART-1-1",           360,      -4.43911,      -1.50749,            0.,NA,NA,"",       2.24652,      -1.09574,      -1.96117,   624.081E-06
C:/temp/dataset/3/1_6.odb,Step-1,Increment      1: Step Time =    1.000,"PART-1-1",           361,      -5.95808,  -763.119E-03,            0.,NA,NA,"",       2.45845,      -1.17725,      -2.15826,   444.670E-06
C:/temp/dataset/3/1_6.odb,Step-1,Increment      1: Step Time =    1.000,"PART-1-1",           362,      -6.55726,      -1.97085,            0.,NA,NA,"",       2.44696,      -1.01971,      -2.22437,   289.072E-06
C:/temp/dataset/3/1_6.odb,Step-1,Increment      1: Step Time =    1.000,"PART-1-1",           363,          6.25,          -30.,            0.,NA,NA,"",            0.,   2.51675E-39,  -6.75041E-39,   4.40544E-03
C:/temp/dataset/3/1_6.odb,Step-1,Increment      1: Step Time =    1.000,"PART-1-1",           364,       7.47038,      -28.9473,            0.,NA,NA,"",   6.61904E-03,   5.83456E-03,  -3.12565E-03,   5.49361E-03
C:/temp/dataset/3/1_6.odb,Step-1,Increment      1: Step Time =    1.000,"PART-1-1",           365,       6.18647,      -27.8786,            0.,NA,NA,"",   11.2184E-03,   7.41193E-03,  -8.42119E-03,   5.87126E-03
C:/temp/dataset/3/1_6.odb,Step-1,Increment      1: Step Time =    1.000,"PART-1-1",           366,       4.96608,      -28.9312,            0.,NA,NA,"",   4.21287E-03,   2.12926E-03,  -3.63518E-03,   4.71256E-03
C:/temp/dataset/3/1_6.odb,Step-1,Increment      1: Step Time =    1.000,"PART-1-1",           367,       3.70492,      -27.8047,            0.,NA,NA,"",   7.83460E-03,   1.38558E-03,  -7.71111E-03,   4.71826E-03
C:/temp/dataset/3/1_6.odb,Step-1,Increment      1: Step Time =    1.000,"PART-1-1",           368,       2.48883,      -28.8735,            0.,NA,NA,"",   2.98295E-03,  -665.189E-06,  -2.90784E-03,   3.39562E-03
C:/temp/dataset/3/1_6.odb,Step-1,Increment      1: Step Time =    1.000,"PART-1-1",           369,          3.75,          -30.,            0.,NA,NA,"",            0.,   161.187E-42,  -6.47799E-39,   3.42040E-03
C:/temp/dataset/3/1_6.odb,Step-1,Increment      1: Step Time =    1.000,"PART-1-1",           370,      -3.72203,      -27.5999,            0.,NA,NA,"",   1.92425E-03,  -1.83100E-03,  -591.759E-06,   704.556E-06
C:/temp/dataset/3/1_6.odb,Step-1,Increment      1: Step Time =    1.000,"PART-1-1",           371,      -4.98725,      -28.7922,            0.,NA,NA,"",   973.180E-06,  -955.778E-06,  -183.219E-06,   547.194E-06
C:/temp/dataset/3/1_6.odb,Step-1,Increment      1: Step Time =    1.000,"PART-1-1",           372,         -3.75,          -30.,            0.,NA,NA,"",            0.,  -827.280E-42,  -1.07564E-39,   1.01859E-03
C:/temp/dataset/3/1_6.odb,Step-1,Increment      1: Step Time =    1.000,"PART-1-1",           373,      -2.48478,      -28.8077,            0.,NA,NA,"",   1.69036E-03,  -1.53787E-03,  -701.605E-06,   1.12527E-03
C:/temp/dataset/3/1_6.odb,Step-1,Increment      1: Step Time =    1.000,"PART-1-1",           374,      -13.7501,      -27.5099,            0.,NA,NA,"",   495.726E-06,   278.881E-06,   409.841E-06,   204.614E-06
C:/temp/dataset/3/1_6.odb,Step-1,Increment      1: Step Time =    1.000,"PART-1-1",           375,          -15.,        -28.75,            0.,NA,NA,"",   371.546E-06,   238.533E-06,   284.866E-06,   246.909E-06
C:/temp/dataset/3/1_6.odb,Step-1,Increment      1: Step Time =    1.000,"PART-1-1",           376,        -13.75,          -30.,            0.,NA,NA,"",            0.,  -10.0207E-42,   305.790E-42,   195.615E-06
C:/temp/dataset/3/1_6.odb,Step-1,Increment      1: Step Time =    1.000,"PART-1-1",           377,      -12.5001,      -28.7599,            0.,NA,NA,"",   150.895E-06,   36.4695E-06,   146.422E-06,   147.200E-06
C:/temp/dataset/3/1_6.odb,Step-1,Increment      1: Step Time =    1.000,"PART-1-1",           378,       8.15833,      -10.8587,            0.,NA,NA,"",   333.434E-03,  -284.590E-03,  -173.744E-03,   16.3592E-03
C:/temp/dataset/3/1_6.odb,Step-1,Increment      1: Step Time =    1.000,"PART-1-1",           379,       9.00498,      -9.90697,            0.,NA,NA,"",   363.957E-03,  -340.680E-03,  -128.069E-03,   10.9919E-03
C:/temp/dataset/3/1_6.odb,Step-1,Increment      1: Step Time =    1.000,"PART-1-1",           380,       8.08915,      -8.55627,            0.,NA,NA,"",   485.488E-03,  -434.427E-03,  -216.729E-03,   17.6281E-03
C:/temp/dataset/3/1_6.odb,Step-1,Increment      1: Step Time =    1.000,"PART-1-1",           381,       7.24249,      -9.50802,            0.,NA,NA,"",   456.405E-03,  -372.939E-03,  -263.101E-03,   22.9771E-03
C:/temp/dataset/3/1_6.odb,Step-1,Increment      1: Step Time =    1.000,"PART-1-1",           382,       13.9816,      -2.51124,            0.,NA,NA,"",       1.12077,      -1.06401,   352.158E-03,   23.5270E-03
C:/temp/dataset/3/1_6.odb,Step-1,Increment      1: Step Time =    1.000,"PART-1-1",           383,           15.,         -1.25,            0.,NA,NA,"",       1.32807,      -1.23394,   491.081E-03,   30.0018E-03
C:/temp/dataset/3/1_6.odb,Step-1,Increment      1: Step Time =    1.000,"PART-1-1",           384,       13.8213,  -48.4001E-03,            0.,NA,NA,"",       1.41065,      -1.36219,   366.572E-03,   22.9007E-03
C:/temp/dataset/3/1_6.odb,Step-1,Increment      1: Step Time =    1.000,"PART-1-1",           385,       12.8030,      -1.30964,            0.,NA,NA,"",       1.21052,      -1.18871,   228.777E-03,   16.2425E-03
C:/temp/dataset/3/1_6.odb,Step-1,Increment      1: Step Time =    1.000,"PART-1-1",           386,           15.,          1.25,            0.,NA,NA,"",       1.64762,      -1.55706,   538.724E-03,   32.0668E-03
C:/temp/dataset/3/1_6.odb,Step-1,Increment      1: Step Time =    1.000,"PART-1-1",           387,       13.5709,       2.55070,            0.,NA,NA,"",       1.74427,      -1.70564,   365.065E-03,   24.1511E-03
C:/temp/dataset/3/1_6.odb,Step-1,Increment      1: Step Time =    1.000,"PART-1-1",           388,       12.3922,       1.25230,            0.,NA,NA,"",       1.51936,      -1.50740,   190.256E-03,   15.1995E-03
C:/temp/dataset/3/1_6.odb,Step-1,Increment      1: Step Time =    1.000,"PART-1-1",           389,      -5.00532,       26.2655,            0.,NA,NA,"",       9.23611,      -6.47463,      -6.58672,   11.7725E-03
C:/temp/dataset/3/1_6.odb,Step-1,Increment      1: Step Time =    1.000,"PART-1-1",           390,      -3.75495,       25.0275,            0.,NA,NA,"",       8.51998,      -6.09047,      -5.95788,   12.3865E-03
C:/temp/dataset/3/1_6.odb,Step-1,Increment      1: Step Time =    1.000,"PART-1-1",           391,      -2.50780,       26.2820,            0.,NA,NA,"",       8.69525,      -6.69767,      -5.54515,   12.2907E-03
C:/temp/dataset/3/1_6.odb,Step-1,Increment      1: Step Time =    1.000,"PART-1-1",           392,      -3.75817,       27.5199,            0.,NA,NA,"",       9.39748,      -7.08607,      -6.17255,   13.7878E-03
C:/temp/dataset/3/1_6.odb,Step-1,Increment      1: Step Time =    1.000,"PART-1-1",           393,      -5.00193,       23.7670,            0.,NA,NA,"",       8.39665,      -5.46704,      -6.37302,   11.5706E-03
C:/temp/dataset/3/1_6.odb,Step-1,Increment      1: Step Time =    1.000,"PART-1-1",           394,      -6.25406,       25.0149,            0.,NA,NA,"",       9.12963,      -5.85445,      -7.00540,   11.8429E-03
C:/temp/dataset/3/1_6.odb,Step-1,Increment      1: Step Time =    1.000,"PART-1-1",           395,      -7.50285,       23.7600,            0.,NA,NA,"",       9.07797,      -5.22413,      -7.42416,   10.0488E-03
C:/temp/dataset/3/1_6.odb,Step-1,Increment      1: Step Time =    1.000,"PART-1-1",           396,      -6.25071,       22.5121,            0.,NA,NA,"",       8.33484,      -4.83412,      -6.78976,   11.0832E-03
C:/temp/dataset/3/1_6.odb,Step-1,Increment      1: Step Time =    1.000,"PART-1-1",           397,      -12.5007,       23.7543,            0.,NA,NA,"",       10.6556,      -4.74905,      -9.53883,   4.37043E-03
C:/temp/dataset/3/1_6.odb,Step-1,Increment      1: Step Time =    1.000,"PART-1-1",           398,      -13.7507,       25.0026,            0.,NA,NA,"",       11.4106,      -5.15248,      -10.1811,   4.00406E-03
C:/temp/dataset/3/1_6.odb,Step-1,Increment      1: Step Time =    1.000,"PART-1-1",           399,          -15.,         23.75,            0.,NA,NA,"",       11.5117,      -4.51829,      -10.5880,   1.90064E-03
C:/temp/dataset/3/1_6.odb,Step-1,Increment      1: Step Time =    1.000,"PART-1-1",           400,       1.22659,       27.5580,            0.,NA,NA,"",       8.53783,      -7.46848,      -4.13719,   19.0377E-03
C:/temp/dataset/3/1_6.odb,Step-1,Increment      1: Step Time =    1.000,"PART-1-1",           401,       2.48534,       28.7828,            0.,NA,NA,"",       8.83153,      -7.99721,      -3.74706,   28.9429E-03
C:/temp/dataset/3/1_6.odb,Step-1,Increment      1: Step Time =    1.000,"PART-1-1",           402,          1.25,           30.,            0.,NA,NA,"",       9.44849,      -8.39221,      -4.34104,   35.3683E-03
C:/temp/dataset/3/1_6.odb,Step-1,Increment      1: Step Time =    1.000,"PART-1-1",           403,  -8.74824E-03,       28.7751,            0.,NA,NA,"",       9.17099,      -7.85327,      -4.73637,   24.5580E-03
C:/temp/dataset/3/1_6.odb,Step-1,Increment      1: Step Time =    1.000,"PART-1-1",           404,  -16.7069E-03,       26.3073,            0.,NA,NA,"",       8.26072,      -6.90741,      -4.53070,   13.5446E-03
C:/temp/dataset/3/1_6.odb,Step-1,Increment      1: Step Time =    1.000,"PART-1-1",           405,       2.46714,       26.3253,            0.,NA,NA,"",       7.93093,      -7.09057,      -3.55294,   15.3464E-03
C:/temp/dataset/3/1_6.odb,Step-1,Increment      1: Step Time =    1.000,"PART-1-1",           406,       3.70751,       22.5746,            0.,NA,NA,"",       6.45291,      -5.81945,      -2.78819,   19.1482E-03
C:/temp/dataset/3/1_6.odb,Step-1,Increment      1: Step Time =    1.000,"PART-1-1",           407,       2.48879,       21.2797,            0.,NA,NA,"",       6.11057,      -5.22307,      -3.17153,   29.5433E-03
C:/temp/dataset/3/1_6.odb,Step-1,Increment      1: Step Time =    1.000,"PART-1-1",           408,          3.75,           20.,            0.,NA,NA,"",       5.52105,      -4.86810,      -2.60453,   55.4435E-03
C:/temp/dataset/3/1_6.odb,Step-1,Increment      1: Step Time =    1.000,"PART-1-1",           409,       4.96872,       21.2949,            0.,NA,NA,"",       5.90198,      -5.47367,      -2.20735,   45.0803E-03
C:/temp/dataset/3/1_6.odb,Step-1,Increment      1: Step Time =    1.000,"PART-1-1",           410,       10.8479,       12.4309,            0.,NA,NA,"",       3.40461,      -3.40193,  -134.959E-03,   6.15522E-03
C:/temp/dataset/3/1_6.odb,Step-1,Increment      1: Step Time =    1.000,"PART-1-1",           411,       9.34812,       11.6387,            0.,NA,NA,"",       3.22407,      -3.19308,  -445.950E-03,   10.2143E-03
C:/temp/dataset/3/1_6.odb,Step-1,Increment      1: Step Time =    1.000,"PART-1-1",           412,       9.99050,       10.5520,            0.,NA,NA,"",       2.99428,      -2.98123,  -279.326E-03,   4.15050E-03
C:/temp/dataset/3/1_6.odb,Step-1,Increment      1: Step Time =    1.000,"PART-1-1",           413,       11.4903,       11.3442,            0.,NA,NA,"",       3.18462,      -3.18454,   22.4851E-03,   12.6263E-03
C:/temp/dataset/3/1_6.odb,Step-1,Increment      1: Step Time =    1.000,"PART-1-1",           414,       7.16850,       11.5014,            0.,NA,NA,"",       3.26249,      -3.13160,  -914.853E-03,   32.4999E-03
C:/temp/dataset/3/1_6.odb,Step-1,Increment      1: Step Time =    1.000,"PART-1-1",           415,       6.10343,       12.5850,            0.,NA,NA,"",       3.56409,      -3.35082,      -1.21438,   43.8394E-03
C:/temp/dataset/3/1_6.odb,Step-1,Increment      1: Step Time =    1.000,"PART-1-1",           416,            5.,         11.25,            0.,NA,NA,"",       3.36422,      -3.07270,      -1.36986,   54.5675E-03
C:/temp/dataset/3/1_6.odb,Step-1,Increment      1: Step Time =    1.000,"PART-1-1",           417,       6.06507,       10.1664,            0.,NA,NA,"",       3.05463,      -2.85886,      -1.07597,   43.4922E-03
C:/temp/dataset/3/1_6.odb,Step-1,Increment      1: Step Time =    1.000,"PART-1-1",           418,       14.0565,       5.06378,            0.,NA,NA,"",       2.14591,      -2.09312,   473.027E-03,   31.9574E-03
C:/temp/dataset/3/1_6.odb,Step-1,Increment      1: Step Time =    1.000,"PART-1-1",           419,       12.6274,       3.86448,            0.,NA,NA,"",       1.89051,      -1.87552,   237.576E-03,   19.9020E-03
C:/temp/dataset/3/1_6.odb,Step-1,Increment      1: Step Time =    1.000,"PART-1-1",           420,           15.,          3.75,            0.,NA,NA,"",       2.00354,      -1.91466,   590.113E-03,   36.7895E-03
C:/temp/dataset/3/1_6.odb,Step-1,Increment      1: Step Time =    1.000,"PART-1-1",           421,       10.0280,       5.47301,            0.,NA,NA,"",       2.08002,      -2.07187,  -184.031E-03,   8.08700E-03
C:/temp/dataset/3/1_6.odb,Step-1,Increment      1: Step Time =    1.000,"PART-1-1",           422,       11.0614,       5.01383,            0.,NA,NA,"",       2.01813,      -2.01811,  -9.79313E-03,   11.2302E-03
C:/temp/dataset/3/1_6.odb,Step-1,Increment      1: Step Time =    1.000,"PART-1-1",           423,       11.6033,       6.33570,            0.,NA,NA,"",       2.24078,      -2.23947,   76.7279E-03,   14.4235E-03
C:/temp/dataset/3/1_6.odb,Step-1,Increment      1: Step Time =    1.000,"PART-1-1",           424,       10.5698,       6.79489,            0.,NA,NA,"",       2.29703,      -2.29458,  -105.995E-03,   7.75962E-03
C:/temp/dataset/3/1_6.odb,Step-1,Increment      1: Step Time =    1.000,"PART-1-1",           425,      -4.94418,       3.17107,            0.,NA,NA,"",       2.65932,      -1.68116,      -2.06051,   544.694E-06
C:/temp/dataset/3/1_6.odb,Step-1,Increment      1: Step Time =    1.000,"PART-1-1",           426,      -3.90803,       4.11594,            0.,NA,NA,"",       2.64965,      -1.80790,      -1.93705,   638.765E-06
C:/temp/dataset/3/1_6.odb,Step-1,Increment      1: Step Time =    1.000,"PART-1-1",           427,      -5.05000,            5.,            0.,NA,NA,"",       2.83072,      -1.91065,      -2.08863,   511.741E-06
C:/temp/dataset/3/1_6.odb,Step-1,Increment      1: Step Time =    1.000,"PART-1-1",           428,      -6.08615,       4.05513,            0.,NA,NA,"",       2.84134,      -1.78342,      -2.21193,   229.115E-06
C:/temp/dataset/3/1_6.odb,Step-1,Increment      1: Step Time =    1.000,"PART-1-1",           429,      -3.86135,       2.39128,            0.,NA,NA,"",       2.49232,      -1.59200,      -1.91760,   703.479E-06
C:/temp/dataset/3/1_6.odb,Step-1,Increment      1: Step Time =    1.000,"PART-1-1",           430,      -5.85027,       2.20434,            0.,NA,NA,"",       2.66597,      -1.55227,      -2.16746,   368.996E-06
C:/temp/dataset/3/1_6.odb,Step-1,Increment      1: Step Time =    1.000,"PART-1-1",           431,      -4.76744,       1.42454,            0.,NA,NA,"",       2.49801,      -1.46309,      -2.02470,   635.102E-06
C:/temp/dataset/3/1_6.odb,Step-1,Increment      1: Step Time =    1.000,"PART-1-1",           432,      -9.29397,       2.69508,            0.,NA,NA,"",       3.05109,      -1.58638,      -2.60626,   83.9107E-06
C:/temp/dataset/3/1_6.odb,Step-1,Increment      1: Step Time =    1.000,"PART-1-1",           433,      -8.28887,       3.92576,            0.,NA,NA,"",       3.04257,      -1.74965,      -2.48917,   72.3877E-06
C:/temp/dataset/3/1_6.odb,Step-1,Increment      1: Step Time =    1.000,"PART-1-1",           434,          -9.5,            5.,            0.,NA,NA,"",       3.24713,      -1.87556,      -2.65068,   24.4600E-06
C:/temp/dataset/3/1_6.odb,Step-1,Increment      1: Step Time =    1.000,"PART-1-1",           435,      -10.5051,       3.76932,            0.,NA,NA,"",       3.25452,      -1.71222,      -2.76770,   15.4191E-06
C:/temp/dataset/3/1_6.odb,Step-1,Increment      1: Step Time =    1.000,"PART-1-1",           436,      -7.92731,       1.84143,            0.,NA,NA,"",       2.84768,      -1.48970,      -2.42695,   153.090E-06
C:/temp/dataset/3/1_6.odb,Step-1,Increment      1: Step Time =    1.000,"PART-1-1",           437,      -6.68589,       1.06488,            0.,NA,NA,"",       2.66302,      -1.40189,      -2.26415,   336.083E-06
C:/temp/dataset/3/1_6.odb,Step-1,Increment      1: Step Time =    1.000,"PART-1-1",           438,      -7.09169,       2.98089,            0.,NA,NA,"",       2.84967,      -1.64005,      -2.33042,   240.809E-06
C:/temp/dataset/3/1_6.odb,Step-1,Increment      1: Step Time =    1.000,"PART-1-1",           439,      -13.9000,            5.,            0.,NA,NA,"",       3.69660,      -1.84037,      -3.20592,   2.04771E-06
C:/temp/dataset/3/1_6.odb,Step-1,Increment      1: Step Time =    1.000,"PART-1-1",           440,          -15.,          3.75,            0.,NA,NA,"",       3.73124,      -1.67386,      -3.33472,   2.55034E-06
C:/temp/dataset/3/1_6.odb,Step-1,Increment      1: Step Time =    1.000,"PART-1-1",           441,      -12.7489,       3.73428,            0.,NA,NA,"",       3.48735,      -1.68987,      -3.05057,   3.20107E-06
C:/temp/dataset/3/1_6.odb,Step-1,Increment      1: Step Time =    1.000,"PART-1-1",           442,      -9.48823,      -2.88104,            0.,NA,NA,"",       2.73255,  -881.316E-03,      -2.58653,   69.8672E-06
C:/temp/dataset/3/1_6.odb,Step-1,Increment      1: Step Time =    1.000,"PART-1-1",           443,      -8.42388,      -2.23568,            0.,NA,NA,"",       2.64246,  -971.262E-03,      -2.45749,   114.591E-06
C:/temp/dataset/3/1_6.odb,Step-1,Increment      1: Step Time =    1.000,"PART-1-1",           444,      -10.2645,      -1.43363,            0.,NA,NA,"",       2.89601,      -1.05773,      -2.69594,   44.2357E-06
C:/temp/dataset/3/1_6.odb,Step-1,Increment      1: Step Time =    1.000,"PART-1-1",           445,      -12.6725,      -1.29786,            0.,NA,NA,"",       3.18100,      -1.05560,      -3.00075,   6.33699E-06
C:/temp/dataset/3/1_6.odb,Step-1,Increment      1: Step Time =    1.000,"PART-1-1",           446,          -15.,         -1.25,            0.,NA,NA,"",       3.45590,      -1.04304,      -3.29474,   7.47894E-06
C:/temp/dataset/3/1_6.odb,Step-1,Increment      1: Step Time =    1.000,"PART-1-1",           447,      -6.16813,      -3.97275,            0.,NA,NA,"",       2.29254,  -769.864E-03,      -2.15940,   223.081E-06
C:/temp/dataset/3/1_6.odb,Step-1,Increment      1: Step Time =    1.000,"PART-1-1",           448,      -4.95000,           -5.,            0.,NA,NA,"",       2.10059,  -649.656E-03,      -1.99761,   537.816E-06
C:/temp/dataset/3/1_6.odb,Step-1,Increment      1: Step Time =    1.000,"PART-1-1",           449,       1.59412,  -355.999E-03,            0.,NA,NA,"",       1.76946,      -1.29305,      -1.20789,   3.95423E-03
C:/temp/dataset/3/1_6.odb,Step-1,Increment      1: Step Time =    1.000,"PART-1-1",           450,       2.17826,      -1.53992,            0.,NA,NA,"",       1.60178,      -1.14756,      -1.11750,   6.83546E-03
C:/temp/dataset/3/1_6.odb,Step-1,Increment      1: Step Time =    1.000,"PART-1-1",           451,       2.86763,   426.804E-03,            0.,NA,NA,"",       1.75204,      -1.39709,      -1.05725,   10.8096E-03
C:/temp/dataset/3/1_6.odb,Step-1,Increment      1: Step Time =    1.000,"PART-1-1",           452,  -387.277E-03,   5.26357E-03,            0.,NA,NA,"",       1.97165,      -1.32288,      -1.46199,   1.06041E-03
C:/temp/dataset/3/1_6.odb,Step-1,Increment      1: Step Time =    1.000,"PART-1-1",           453,   283.611E-03,      -1.19839,            0.,NA,NA,"",       1.80305,      -1.17613,      -1.36665,   1.47890E-03
C:/temp/dataset/3/1_6.odb,Step-1,Increment      1: Step Time =    1.000,"PART-1-1",           454,   923.228E-03,   847.652E-03,            0.,NA,NA,"",       1.94290,      -1.43941,      -1.30498,   2.55040E-03
C:/temp/dataset/3/1_6.odb,Step-1,Increment      1: Step Time =    1.000,"PART-1-1",           455,       6.35531,      -13.1332,            0.,NA,NA,"",   294.210E-03,  -181.042E-03,  -231.913E-03,   26.6530E-03
C:/temp/dataset/3/1_6.odb,Step-1,Increment      1: Step Time =    1.000,"PART-1-1",           456,       7.49455,      -12.2656,            0.,NA,NA,"",   284.875E-03,  -212.287E-03,  -189.967E-03,   20.1458E-03
C:/temp/dataset/3/1_6.odb,Step-1,Increment      1: Step Time =    1.000,"PART-1-1",           457,       6.13925,      -10.3824,            0.,NA,NA,"",   457.328E-03,  -328.819E-03,  -317.848E-03,   30.2724E-03
C:/temp/dataset/3/1_6.odb,Step-1,Increment      1: Step Time =    1.000,"PART-1-1",           458,            5.,        -11.25,            0.,NA,NA,"",   465.953E-03,  -293.550E-03,  -361.857E-03,   36.8339E-03
C:/temp/dataset/3/1_6.odb,Step-1,Increment      1: Step Time =    1.000,"PART-1-1",           459,       13.3376,      -16.9670,            0.,NA,NA,"",   88.9214E-03,  -39.3681E-03,   79.7319E-03,   14.5129E-03
C:/temp/dataset/3/1_6.odb,Step-1,Increment      1: Step Time =    1.000,"PART-1-1",           460,       11.8219,      -18.0071,            0.,NA,NA,"",   27.5777E-03,  -8.00114E-03,   26.3915E-03,   8.51824E-03
C:/temp/dataset/3/1_6.odb,Step-1,Increment      1: Step Time =    1.000,"PART-1-1",           461,           15.,        -18.75,            0.,NA,NA,"",   93.2079E-03,  -14.5334E-03,   92.0678E-03,   20.2984E-03
C:/temp/dataset/3/1_6.odb,Step-1,Increment      1: Step Time =    1.000,"PART-1-1",           462,       8.42876,      -15.2973,            0.,NA,NA,"",   126.348E-03,  -79.8382E-03,  -97.9276E-03,   13.1896E-03
C:/temp/dataset/3/1_6.odb,Step-1,Increment      1: Step Time =    1.000,"PART-1-1",           463,       10.4111,      -16.6310,            0.,NA,NA,"",   38.9729E-03,  -36.1069E-03,  -14.6690E-03,   4.98178E-03
C:/temp/dataset/3/1_6.odb,Step-1,Increment      1: Step Time =    1.000,"PART-1-1",           464,       10.7289,      -14.9294,            0.,NA,NA,"",   89.9744E-03,  -89.9168E-03,  -3.21903E-03,   4.94310E-03
C:/temp/dataset/3/1_6.odb,Step-1,Increment      1: Step Time =    1.000,"PART-1-1",           465,       8.74656,      -13.5956,            0.,NA,NA,"",   176.901E-03,  -143.847E-03,  -102.966E-03,   11.9381E-03
C:/temp/dataset/3/1_6.odb,Step-1,Increment      1: Step Time =    1.000,"PART-1-1",           466,      -8.72016,      -22.5745,            0.,NA,NA,"",   1.76457E-03,   1.54623E-03,   850.239E-06,   368.174E-06
C:/temp/dataset/3/1_6.odb,Step-1,Increment      1: Step Time =    1.000,"PART-1-1",           467,      -7.48342,      -21.2909,            0.,NA,NA,"",   2.53411E-03,   2.43496E-03,   701.891E-06,   400.702E-06
C:/temp/dataset/3/1_6.odb,Step-1,Increment      1: Step Time =    1.000,"PART-1-1",           468,         -8.75,          -20.,            0.,NA,NA,"",   2.50469E-03,   2.42613E-03,   622.372E-06,   358.445E-06
C:/temp/dataset/3/1_6.odb,Step-1,Increment      1: Step Time =    1.000,"PART-1-1",           469,      -9.98674,      -21.2836,            0.,NA,NA,"",   2.06919E-03,   1.90876E-03,   798.862E-06,   211.346E-06
C:/temp/dataset/3/1_6.odb,Step-1,Increment      1: Step Time =    1.000,"PART-1-1",           470,      -4.96670,      -26.3491,            0.,NA,NA,"",   1.23586E-03,  -1.23322E-03,  -80.7539E-06,   419.259E-06
C:/temp/dataset/3/1_6.odb,Step-1,Increment      1: Step Time =    1.000,"PART-1-1",           471,      -6.21541,      -25.0985,            0.,NA,NA,"",   495.616E-06,  -220.211E-06,   444.007E-06,   414.921E-06
C:/temp/dataset/3/1_6.odb,Step-1,Increment      1: Step Time =    1.000,"PART-1-1",           472,      -7.47738,      -26.3212,            0.,NA,NA,"",   572.241E-06,  -413.611E-06,   395.456E-06,   321.307E-06
C:/temp/dataset/3/1_6.odb,Step-1,Increment      1: Step Time =    1.000,"PART-1-1",           473,      -6.22867,      -27.5719,            0.,NA,NA,"",   953.382E-06,  -951.787E-06,   55.1208E-06,   397.487E-06
C:/temp/dataset/3/1_6.odb,Step-1,Increment      1: Step Time =    1.000,"PART-1-1",           474,   49.7896E-03,      -26.4387,            0.,NA,NA,"",   5.85931E-03,  -2.54340E-03,  -5.27851E-03,   1.97131E-03
C:/temp/dataset/3/1_6.odb,Step-1,Increment      1: Step Time =    1.000,"PART-1-1",           475,       1.24862,      -27.7048,            0.,NA,NA,"",   5.27223E-03,  -1.93422E-03,  -4.90461E-03,   2.86876E-03
C:/temp/dataset/3/1_6.odb,Step-1,Increment      1: Step Time =    1.000,"PART-1-1",           476,       2.52056,      -26.5649,            0.,NA,NA,"",   10.7190E-03,  -320.646E-06,  -10.7142E-03,   4.33215E-03
C:/temp/dataset/3/1_6.odb,Step-1,Increment      1: Step Time =    1.000,"PART-1-1",           477,       1.32172,      -25.2988,            0.,NA,NA,"",   10.8551E-03,  -1.46633E-03,  -10.7556E-03,   3.26530E-03
C:/temp/dataset/3/1_6.odb,Step-1,Increment      1: Step Time =    1.000,"PART-1-1",           478,        -13.75,          -20.,            0.,NA,NA,"",   2.13709E-03,   1.88505E-03,   1.00684E-03,   13.3703E-06
C:/temp/dataset/3/1_6.odb,Step-1,Increment      1: Step Time =    1.000,"PART-1-1",           479,          -15.,        -21.25,            0.,NA,NA,"",   2.06793E-03,   1.68583E-03,   1.19762E-03,   12.7228E-06
C:/temp/dataset/3/1_6.odb,Step-1,Increment      1: Step Time =    1.000,"PART-1-1",           480,      -13.7430,      -22.5153,            0.,NA,NA,"",   1.72539E-03,   1.42346E-03,   975.053E-06,   82.6918E-06
C:/temp/dataset/3/1_6.odb,Step-1,Increment      1: Step Time =    1.000,"PART-1-1",           481,      -12.4930,      -21.2653,            0.,NA,NA,"",   1.91931E-03,   1.70856E-03,   874.409E-06,   80.8809E-06
C:/temp/dataset/3/1_6.odb,Step-1,Increment      1: Step Time =    1.000,"PART-1-1",           482,      -11.2297,      -22.5489,            0.,NA,NA,"",   1.64984E-03,   1.42811E-03,   826.119E-06,   221.572E-06
C:/temp/dataset/3/1_6.odb,Step-1,Increment      1: Step Time =    1.000,"PART-1-1",           483,        -11.25,          -20.,            0.,NA,NA,"",   2.10756E-03,   1.96356E-03,   765.670E-06,   120.601E-06
C:/temp/dataset/3/1_6.odb,Step-1,Increment      1: Step Time =    1.000,"PART-1-1",           484,      -13.7448,      -25.0201,            0.,NA,NA,"",   1.11121E-03,   790.704E-06,   780.749E-06,   159.251E-06
C:/temp/dataset/3/1_6.odb,Step-1,Increment      1: Step Time =    1.000,"PART-1-1",           485,      -12.4878,      -23.7854,            0.,NA,NA,"",   1.32532E-03,   1.05896E-03,   796.906E-06,   174.343E-06
C:/temp/dataset/3/1_6.odb,Step-1,Increment      1: Step Time =    1.000,"PART-1-1",           486,          -15.,        -23.75,            0.,NA,NA,"",   1.61442E-03,   1.16242E-03,   1.12033E-03,   86.9164E-06
C:/temp/dataset/3/1_6.odb,Step-1,Increment      1: Step Time =    1.000,"PART-1-1",           487,       13.7335,      -27.5520,            0.,NA,NA,"",   16.1996E-03,   15.8398E-03,   3.39563E-03,   4.09500E-03
C:/temp/dataset/3/1_6.odb,Step-1,Increment      1: Step Time =    1.000,"PART-1-1",           488,       12.4835,      -28.8020,            0.,NA,NA,"",   8.85974E-03,   8.81917E-03,   846.895E-06,   5.44578E-03
C:/temp/dataset/3/1_6.odb,Step-1,Increment      1: Step Time =    1.000,"PART-1-1",           489,         13.75,          -30.,            0.,NA,NA,"",            0.,   2.38015E-39,   248.780E-42,   3.94654E-03
C:/temp/dataset/3/1_6.odb,Step-1,Increment      1: Step Time =    1.000,"PART-1-1",           490,           15.,        -28.75,            0.,NA,NA,"",   7.20854E-03,   6.98013E-03,  -1.80022E-03,   1.96940E-03
C:/temp/dataset/3/1_6.odb,Step-1,Increment      1: Step Time =    1.000,"PART-1-1",           491,       9.98010,      -28.8907,            0.,NA,NA,"",   8.82910E-03,   8.72033E-03,  -1.38160E-03,   5.66874E-03
C:/temp/dataset/3/1_6.odb,Step-1,Increment      1: Step Time =    1.000,"PART-1-1",           492,       8.70049,      -27.8380,            0.,NA,NA,"",   14.8213E-03,   13.6787E-03,  -5.70664E-03,   5.74406E-03
C:/temp/dataset/3/1_6.odb,Step-1,Increment      1: Step Time =    1.000,"PART-1-1",           493,          8.75,          -30.,            0.,NA,NA,"",            0.,   4.77619E-39,  -4.40264E-39,   5.28805E-03
C:/temp/dataset/3/1_6.odb,Step-1,Increment      1: Step Time =    1.000,"PART-1-1",           494,       11.2136,      -27.6927,            0.,NA,NA,"",   17.0703E-03,   17.0678E-03,  -293.685E-06,   5.37697E-03
C:/temp/dataset/3/1_6.odb,Step-1,Increment      1: Step Time =    1.000,"PART-1-1",           495,       12.3768,      -26.3916,            0.,NA,NA,"",   24.6068E-03,   24.3171E-03,   3.76469E-03,   6.24424E-03
C:/temp/dataset/3/1_6.odb,Step-1,Increment      1: Step Time =    1.000,"PART-1-1",           496,       11.0556,      -25.4315,            0.,NA,NA,"",   29.2065E-03,   29.1565E-03,  -1.70850E-03,   6.54786E-03
C:/temp/dataset/3/1_6.odb,Step-1,Increment      1: Step Time =    1.000,"PART-1-1",           497,       9.89242,      -26.7326,            0.,NA,NA,"",   22.3534E-03,   21.6402E-03,  -5.60149E-03,   6.65270E-03
C:/temp/dataset/3/1_6.odb,Step-1,Increment      1: Step Time =    1.000,"PART-1-1",           498,   9.79186E-03,      -28.8313,            0.,NA,NA,"",   2.40479E-03,  -1.73368E-03,  -1.66654E-03,   2.07728E-03
C:/temp/dataset/3/1_6.odb,Step-1,Increment      1: Step Time =    1.000,"PART-1-1",           499,          1.25,          -30.,            0.,NA,NA,"",            0.,  -1.04724E-39,  -4.53451E-39,   2.55758E-03
C:/temp/dataset/3/1_6.odb,Step-1,Increment      1: Step Time =    1.000,"PART-1-1",           500,      -1.18061,      -25.1833,            0.,NA,NA,"",   4.42997E-03,  -1.87799E-03,  -4.01221E-03,   1.20061E-03
C:/temp/dataset/3/1_6.odb,Step-1,Increment      1: Step Time =    1.000,"PART-1-1",           501,      -2.45538,      -26.3836,            0.,NA,NA,"",   2.77256E-03,  -2.21161E-03,  -1.67208E-03,   796.764E-06
C:/temp/dataset/3/1_6.odb,Step-1,Increment      1: Step Time =    1.000,"PART-1-1",           502,      -1.22498,      -27.6390,            0.,NA,NA,"",   3.31184E-03,  -2.50276E-03,  -2.16898E-03,   1.43372E-03
C:/temp/dataset/3/1_6.odb,Step-1,Increment      1: Step Time =    1.000,"PART-1-1",           503,      -3.70005,      -25.1329,            0.,NA,NA,"",   1.20855E-03,  -997.670E-06,  -682.085E-06,   467.094E-06
C:/temp/dataset/3/1_6.odb,Step-1,Increment      1: Step Time =    1.000,"PART-1-1",           504,      -7.49141,      -28.7797,            0.,NA,NA,"",   448.799E-06,  -447.765E-06,   30.4416E-06,   244.469E-06
C:/temp/dataset/3/1_6.odb,Step-1,Increment      1: Step Time =    1.000,"PART-1-1",           505,         -6.25,          -30.,            0.,NA,NA,"",            0.,  -441.014E-42,  -323.701E-42,   509.820E-06
C:/temp/dataset/3/1_6.odb,Step-1,Increment      1: Step Time =    1.000,"PART-1-1",           506,      -12.4949,      -26.2800,            0.,NA,NA,"",   651.999E-06,   399.176E-06,   515.520E-06,   187.869E-06
C:/temp/dataset/3/1_6.odb,Step-1,Increment      1: Step Time =    1.000,"PART-1-1",           507,          -15.,        -26.25,            0.,NA,NA,"",   1.01268E-03,   615.713E-06,   804.002E-06,   188.249E-06
C:/temp/dataset/3/1_6.odb,Step-1,Increment      1: Step Time =    1.000,"PART-1-1",           508,       12.0036,      -23.8365,            0.,NA,NA,"",   34.6436E-03,   34.0246E-03,   6.51961E-03,   7.51094E-03
C:/temp/dataset/3/1_6.odb,Step-1,Increment      1: Step Time =    1.000,"PART-1-1",           509,       13.6432,      -25.0896,            0.,NA,NA,"",   30.4496E-03,   28.2483E-03,   11.3672E-03,   6.15141E-03
C:/temp/dataset/3/1_6.odb,Step-1,Increment      1: Step Time =    1.000,"PART-1-1",           510,           15.,        -23.75,            0.,NA,NA,"",   34.2989E-03,   25.5860E-03,   22.8422E-03,   10.4663E-03
C:/temp/dataset/3/1_6.odb,Step-1,Increment      1: Step Time =    1.000,"PART-1-1",           511,         11.25,          -30.,            0.,NA,NA,"",            0.,   5.52850E-39,  -750.627E-42,   5.24814E-03
C:/temp/dataset/3/1_6.odb,Step-1,Increment      1: Step Time =    1.000,"PART-1-1",           512,       13.9281,      -14.6298,            0.,NA,NA,"",   180.088E-03,  -119.344E-03,   134.865E-03,   19.7055E-03
C:/temp/dataset/3/1_6.odb,Step-1,Increment      1: Step Time =    1.000,"PART-1-1",           513,       12.2657,      -15.3468,            0.,NA,NA,"",   100.119E-03,  -80.9738E-03,   58.8822E-03,   10.5256E-03
C:/temp/dataset/3/1_6.odb,Step-1,Increment      1: Step Time =    1.000,"PART-1-1",           514,           15.,        -16.25,            0.,NA,NA,"",   159.943E-03,  -74.4824E-03,   141.542E-03,   24.1785E-03
C:/temp/dataset/3/1_6.odb,Step-1,Increment      1: Step Time =    1.000,"PART-1-1",           515,       7.13425,      -14.5121,            0.,NA,NA,"",   201.809E-03,  -116.482E-03,  -164.799E-03,   21.2869E-03
C:/temp/dataset/3/1_6.odb,Step-1,Increment      1: Step Time =    1.000,"PART-1-1",           516,       6.81531,      -16.2905,            0.,NA,NA,"",   153.240E-03,  -58.1510E-03,  -141.778E-03,   21.7312E-03
C:/temp/dataset/3/1_6.odb,Step-1,Increment      1: Step Time =    1.000,"PART-1-1",           517,       8.10983,      -17.0757,            0.,NA,NA,"",   92.6710E-03,  -28.5877E-03,  -88.1513E-03,   13.5023E-03
C:/temp/dataset/3/1_6.odb,Step-1,Increment      1: Step Time =    1.000,"PART-1-1",           518,       13.8641,      -7.41825,            0.,NA,NA,"",   619.404E-03,  -562.057E-03,   260.295E-03,   23.9654E-03
C:/temp/dataset/3/1_6.odb,Step-1,Increment      1: Step Time =    1.000,"PART-1-1",           519,       13.0286,      -8.63342,            0.,NA,NA,"",   485.164E-03,  -452.667E-03,   174.575E-03,   17.8189E-03
C:/temp/dataset/3/1_6.odb,Step-1,Increment      1: Step Time =    1.000,"PART-1-1",           520,       14.1645,      -9.96517,            0.,NA,NA,"",   438.278E-03,  -370.247E-03,   234.531E-03,   24.9555E-03
C:/temp/dataset/3/1_6.odb,Step-1,Increment      1: Step Time =    1.000,"PART-1-1",           521,           15.,         -8.75,            0.,NA,NA,"",   570.196E-03,  -471.142E-03,   321.167E-03,   31.2582E-03
C:/temp/dataset/3/1_6.odb,Step-1,Increment      1: Step Time =    1.000,"PART-1-1",           522,       12.0251,      -10.9831,            0.,NA,NA,"",   294.254E-03,  -283.190E-03,   79.9281E-03,   10.5576E-03
C:/temp/dataset/3/1_6.odb,Step-1,Increment      1: Step Time =    1.000,"PART-1-1",           523,       12.8055,      -11.9581,            0.,NA,NA,"",   261.740E-03,  -233.534E-03,   118.193E-03,   14.7700E-03
C:/temp/dataset/3/1_6.odb,Step-1,Increment      1: Step Time =    1.000,"PART-1-1",           524,       13.3751,      -11.0455,            0.,NA,NA,"",   334.517E-03,  -291.301E-03,   164.454E-03,   18.9022E-03
C:/temp/dataset/3/1_6.odb,Step-1,Increment      1: Step Time =    1.000,"PART-1-1",           525,       12.5947,      -10.0706,            0.,NA,NA,"",   367.749E-03,  -345.525E-03,   125.906E-03,   14.5017E-03
C:/temp/dataset/3/1_6.odb,Step-1,Increment      1: Step Time =    1.000,"PART-1-1",           526,       11.4853,  -434.223E-03,            0.,NA,NA,"",       1.28237,      -1.28051,   68.9128E-03,   7.08293E-03
C:/temp/dataset/3/1_6.odb,Step-1,Increment      1: Step Time =    1.000,"PART-1-1",           527,       10.5886,      -1.82652,            0.,NA,NA,"",       1.10517,      -1.10461,  -35.1119E-03,   1.85149E-03
C:/temp/dataset/3/1_6.odb,Step-1,Increment      1: Step Time =    1.000,"PART-1-1",           528,       11.9063,      -2.70193,            0.,NA,NA,"",       1.02033,      -1.01345,   118.241E-03,   10.2287E-03
C:/temp/dataset/3/1_6.odb,Step-1,Increment      1: Step Time =    1.000,"PART-1-1",           529,       14.1300,       7.44597,            0.,NA,NA,"",       2.55376,      -2.49936,   524.262E-03,   36.1417E-03
C:/temp/dataset/3/1_6.odb,Step-1,Increment      1: Step Time =    1.000,"PART-1-1",           530,       13.1865,       6.25975,            0.,NA,NA,"",       2.29183,      -2.26545,   346.710E-03,   26.4924E-03
C:/temp/dataset/3/1_6.odb,Step-1,Increment      1: Step Time =    1.000,"PART-1-1",           531,           15.,          6.25,            0.,NA,NA,"",       2.40539,      -2.31674,   646.997E-03,   41.9223E-03
C:/temp/dataset/3/1_6.odb,Step-1,Increment      1: Step Time =    1.000,"PART-1-1",           532,       12.4155,       5.33720,            0.,NA,NA,"",       2.10676,      -2.09607,   211.992E-03,   19.8103E-03
C:/temp/dataset/3/1_6.odb,Step-1,Increment      1: Step Time =    1.000,"PART-1-1",           533,       11.2733,       3.54111,            0.,NA,NA,"",       1.80430,      -1.80407,   28.9896E-03,   11.5601E-03
C:/temp/dataset/3/1_6.odb,Step-1,Increment      1: Step Time =    1.000,"PART-1-1",           534,       12.2480,       13.5548,            0.,NA,NA,"",       3.71005,      -3.70621,   168.746E-03,   20.7950E-03
C:/temp/dataset/3/1_6.odb,Step-1,Increment      1: Step Time =    1.000,"PART-1-1",           535,           15.,         13.75,            0.,NA,NA,"",       3.95638,      -3.87334,   806.347E-03,   50.4212E-03
C:/temp/dataset/3/1_6.odb,Step-1,Increment      1: Step Time =    1.000,"PART-1-1",           536,       13.6600,       14.9734,            0.,NA,NA,"",       4.14495,      -4.11478,   499.188E-03,   36.5402E-03
C:/temp/dataset/3/1_6.odb,Step-1,Increment      1: Step Time =    1.000,"PART-1-1",           537,       8.15326,       10.4556,            0.,NA,NA,"",       3.00312,      -2.93015,  -658.003E-03,   22.0606E-03
C:/temp/dataset/3/1_6.odb,Step-1,Increment      1: Step Time =    1.000,"PART-1-1",           538,       12.3824,       21.2920,            0.,NA,NA,"",       5.87889,      -5.87867,   51.2106E-03,   24.6317E-03
C:/temp/dataset/3/1_6.odb,Step-1,Increment      1: Step Time =    1.000,"PART-1-1",           539,       13.6892,       20.0188,            0.,NA,NA,"",       5.56748,      -5.54787,   466.900E-03,   34.1979E-03
C:/temp/dataset/3/1_6.odb,Step-1,Increment      1: Step Time =    1.000,"PART-1-1",           540,           15.,         21.25,            0.,NA,NA,"",       6.08045,      -6.02271,   835.913E-03,   39.5884E-03
C:/temp/dataset/3/1_6.odb,Step-1,Increment      1: Step Time =    1.000,"PART-1-1",           541,       13.6932,       22.5232,            0.,NA,NA,"",       6.37171,      -6.35906,   401.337E-03,   26.9340E-03
C:/temp/dataset/3/1_6.odb,Step-1,Increment      1: Step Time =    1.000,"PART-1-1",           542,       9.77662,       16.3041,            0.,NA,NA,"",       4.32485,      -4.29533,  -504.458E-03,   5.91142E-03
C:/temp/dataset/3/1_6.odb,Step-1,Increment      1: Step Time =    1.000,"PART-1-1",           543,       11.0318,       15.0036,            0.,NA,NA,"",       4.01444,      -4.01175,  -146.900E-03,   8.94711E-03
C:/temp/dataset/3/1_6.odb,Step-1,Increment      1: Step Time =    1.000,"PART-1-1",           544,       12.3430,       16.2301,            0.,NA,NA,"",       4.38364,      -4.38071,   160.249E-03,   22.5336E-03
C:/temp/dataset/3/1_6.odb,Step-1,Increment      1: Step Time =    1.000,"PART-1-1",           545,         13.75,           30.,            0.,NA,NA,"",       8.88410,      -8.88396,   49.5234E-03,   1.33225E-03
C:/temp/dataset/3/1_6.odb,Step-1,Increment      1: Step Time =    1.000,"PART-1-1",           546,       12.4862,       28.7548,            0.,NA,NA,"",       8.41338,      -8.40832,  -291.674E-03,   7.98830E-03
C:/temp/dataset/3/1_6.odb,Step-1,Increment      1: Step Time =    1.000,"PART-1-1",           547,           15.,         28.75,            0.,NA,NA,"",       8.55815,      -8.54173,   529.895E-03,   1.34414E-03
C:/temp/dataset/3/1_6.odb,Step-1,Increment      1: Step Time =    1.000,"PART-1-1",           548,       12.4064,       23.7898,            0.,NA,NA,"",       6.71313,      -6.71297,  -45.4282E-03,   23.8010E-03
C:/temp/dataset/3/1_6.odb,Step-1,Increment      1: Step Time =    1.000,"PART-1-1",           549,           15.,         23.75,            0.,NA,NA,"",       6.89832,      -6.85487,   773.079E-03,   25.4049E-03
C:/temp/dataset/3/1_6.odb,Step-1,Increment      1: Step Time =    1.000,"PART-1-1",           550,       9.91541,       26.3072,            0.,NA,NA,"",       7.51862,      -7.45684,  -961.896E-03,   23.4324E-03
C:/temp/dataset/3/1_6.odb,Step-1,Increment      1: Step Time =    1.000,"PART-1-1",           551,       11.1537,       25.0565,            0.,NA,NA,"",       7.10020,      -7.08273,  -497.737E-03,   23.7836E-03
C:/temp/dataset/3/1_6.odb,Step-1,Increment      1: Step Time =    1.000,"PART-1-1",           552,       11.2110,       27.5221,            0.,NA,NA,"",       7.95783,      -7.93309,  -627.065E-03,   17.8151E-03
C:/temp/dataset/3/1_6.odb,Step-1,Increment      1: Step Time =    1.000,"PART-1-1",           553,       8.69233,       27.5515,            0.,NA,NA,"",       7.96468,      -7.83369,      -1.43857,   21.7079E-03
C:/temp/dataset/3/1_6.odb,Step-1,Increment      1: Step Time =    1.000,"PART-1-1",           554,       7.41297,       26.3376,            0.,NA,NA,"",       7.56802,      -7.35709,      -1.77431,   22.5119E-03
C:/temp/dataset/3/1_6.odb,Step-1,Increment      1: Step Time =    1.000,"PART-1-1",           555,       8.63604,       25.0933,            0.,NA,NA,"",       7.09456,      -6.97686,      -1.28693,   24.5318E-03
C:/temp/dataset/3/1_6.odb,Step-1,Increment      1: Step Time =    1.000,"PART-1-1",           556,      -1.26375,       27.5391,            0.,NA,NA,"",       8.91863,      -7.28878,      -5.13961,   16.6910E-03
C:/temp/dataset/3/1_6.odb,Step-1,Increment      1: Step Time =    1.000,"PART-1-1",           557,         -1.25,           30.,            0.,NA,NA,"",       9.84185,      -8.25600,      -5.35727,   28.7235E-03
C:/temp/dataset/3/1_6.odb,Step-1,Increment      1: Step Time =    1.000,"PART-1-1",           558,      -2.50500,       28.7640,            0.,NA,NA,"",       9.60119,      -7.68046,      -5.76136,   19.2256E-03
C:/temp/dataset/3/1_6.odb,Step-1,Increment      1: Step Time =    1.000,"PART-1-1",           559,      -7.50143,       28.7522,            0.,NA,NA,"",       10.7197,      -7.26995,      -7.87777,   11.4413E-03
C:/temp/dataset/3/1_6.odb,Step-1,Increment      1: Step Time =    1.000,"PART-1-1",           560,         -8.75,           30.,            0.,NA,NA,"",       11.4876,      -7.68274,      -8.54052,   9.81139E-03
C:/temp/dataset/3/1_6.odb,Step-1,Increment      1: Step Time =    1.000,"PART-1-1",           561,      -6.25460,       27.5081,            0.,NA,NA,"",       9.97015,      -6.86810,      -7.22724,   12.3018E-03
C:/temp/dataset/3/1_6.odb,Step-1,Increment      1: Step Time =    1.000,"PART-1-1",           562,        -13.75,           30.,            0.,NA,NA,"",       12.8816,      -7.23306,      -10.6592,   6.06664E-03
C:/temp/dataset/3/1_6.odb,Step-1,Increment      1: Step Time =    1.000,"PART-1-1",           563,          -15.,         28.75,            0.,NA,NA,"",       12.8822,      -6.59897,      -11.0636,   5.90390E-03
C:/temp/dataset/3/1_6.odb,Step-1,Increment      1: Step Time =    1.000,"PART-1-1",           564,      -13.7509,       27.5010,            0.,NA,NA,"",       12.1181,      -6.19057,      -10.4176,   5.72396E-03
C:/temp/dataset/3/1_6.odb,Step-1,Increment      1: Step Time =    1.000,"PART-1-1",           565,          -15.,         26.25,            0.,NA,NA,"",       12.1663,      -5.55801,      -10.8225,   4.57818E-03
C:/temp/dataset/3/1_6.odb,Step-1,Increment      1: Step Time =    1.000,"PART-1-1",           566,      -12.5016,       26.2536,            0.,NA,NA,"",       11.3561,      -5.78544,      -9.77188,   5.63869E-03
C:/temp/dataset/3/1_6.odb,Step-1,Increment      1: Step Time =    1.000,"PART-1-1",           567,      -7.50093,       21.2547,            0.,NA,NA,"",       8.33502,      -4.19002,      -7.20530,   8.53709E-03
C:/temp/dataset/3/1_6.odb,Step-1,Increment      1: Step Time =    1.000,"PART-1-1",           568,         -6.25,           20.,            0.,NA,NA,"",       7.58872,      -3.79040,      -6.57430,   12.6135E-03
C:/temp/dataset/3/1_6.odb,Step-1,Increment      1: Step Time =    1.000,"PART-1-1",           569,      -4.99978,       21.2574,            0.,NA,NA,"",       7.59785,      -4.44254,      -6.16370,   12.9991E-03
C:/temp/dataset/3/1_6.odb,Step-1,Increment      1: Step Time =    1.000,"PART-1-1",           570,      -3.74911,       22.5208,            0.,NA,NA,"",       7.67638,      -5.08434,      -5.75120,   13.5761E-03
C:/temp/dataset/3/1_6.odb,Step-1,Increment      1: Step Time =    1.000,"PART-1-1",           571,         -3.75,           20.,            0.,NA,NA,"",       6.86859,      -4.04970,      -5.54774,   19.1259E-03
C:/temp/dataset/3/1_6.odb,Step-1,Increment      1: Step Time =    1.000,"PART-1-1",           572,      -2.49933,       21.2634,            0.,NA,NA,"",       6.96571,      -4.69977,      -5.14133,   17.6967E-03
C:/temp/dataset/3/1_6.odb,Step-1,Increment      1: Step Time =    1.000,"PART-1-1",           573,         -1.25,           20.,            0.,NA,NA,"",       6.26641,      -4.31444,      -4.54461,   24.5912E-03
C:/temp/dataset/3/1_6.odb,Step-1,Increment      1: Step Time =    1.000,"PART-1-1",           574,  -2.23348E-03,       21.2694,            0.,NA,NA,"",       6.46151,      -4.95600,      -4.14599,   22.3691E-03
C:/temp/dataset/3/1_6.odb,Step-1,Increment      1: Step Time =    1.000,"PART-1-1",           575,      -1.25156,       22.5328,            0.,NA,NA,"",       7.13348,      -5.33461,      -4.73587,   16.6420E-03
C:/temp/dataset/3/1_6.odb,Step-1,Increment      1: Step Time =    1.000,"PART-1-1",           576,         -3.75,           30.,            0.,NA,NA,"",       10.3157,      -8.09008,      -6.40039,   21.6020E-03
C:/temp/dataset/3/1_6.odb,Step-1,Increment      1: Step Time =    1.000,"PART-1-1",           577,      -5.00318,       28.7559,            0.,NA,NA,"",       10.1199,      -7.48518,      -6.81060,   13.8961E-03
C:/temp/dataset/3/1_6.odb,Step-1,Increment      1: Step Time =    1.000,"PART-1-1",           578,       7.36074,       18.8052,            0.,NA,NA,"",       5.02576,      -4.85912,      -1.28345,   21.5997E-03
C:/temp/dataset/3/1_6.odb,Step-1,Increment      1: Step Time =    1.000,"PART-1-1",           579,       8.58169,       17.5494,            0.,NA,NA,"",       4.65976,      -4.57671,  -875.865E-03,   17.0864E-03
C:/temp/dataset/3/1_6.odb,Step-1,Increment      1: Step Time =    1.000,"PART-1-1",           580,       8.60057,       20.0599,            0.,NA,NA,"",       5.38324,      -5.29156,  -989.269E-03,   16.8022E-03
C:/temp/dataset/3/1_6.odb,Step-1,Increment      1: Step Time =    1.000,"PART-1-1",           581,            5.,         18.75,            0.,NA,NA,"",       5.16601,      -4.77646,      -1.96800,   74.7094E-03
C:/temp/dataset/3/1_6.odb,Step-1,Increment      1: Step Time =    1.000,"PART-1-1",           582,       6.17685,       17.5255,            0.,NA,NA,"",       4.74919,      -4.49360,      -1.53700,   46.9142E-03
C:/temp/dataset/3/1_6.odb,Step-1,Increment      1: Step Time =    1.000,"PART-1-1",           583,       6.18390,       20.0298,            0.,NA,NA,"",       5.41100,      -5.13583,      -1.70357,   46.1781E-03
C:/temp/dataset/3/1_6.odb,Step-1,Increment      1: Step Time =    1.000,"PART-1-1",           584,            5.,         16.25,            0.,NA,NA,"",       4.52839,      -4.17873,      -1.74487,   57.8396E-03
C:/temp/dataset/3/1_6.odb,Step-1,Increment      1: Step Time =    1.000,"PART-1-1",           585,       6.15340,       15.0385,            0.,NA,NA,"",       4.13291,      -3.90148,      -1.36360,   44.4156E-03
C:/temp/dataset/3/1_6.odb,Step-1,Increment      1: Step Time =    1.000,"PART-1-1",           586,       7.33024,       16.3140,            0.,NA,NA,"",       4.37573,      -4.22333,      -1.14477,   31.8877E-03
C:/temp/dataset/3/1_6.odb,Step-1,Increment      1: Step Time =    1.000,"PART-1-1",           587,           15.,         16.25,            0.,NA,NA,"",       4.59845,      -4.52104,   840.187E-03,   51.1814E-03
C:/temp/dataset/3/1_6.odb,Step-1,Increment      1: Step Time =    1.000,"PART-1-1",           588,       13.6830,       17.5067,            0.,NA,NA,"",       4.82397,      -4.79825,   497.473E-03,   36.9583E-03
C:/temp/dataset/3/1_6.odb,Step-1,Increment      1: Step Time =    1.000,"PART-1-1",           589,           15.,         18.75,            0.,NA,NA,"",       5.30786,      -5.23864,   854.410E-03,   48.3666E-03
C:/temp/dataset/3/1_6.odb,Step-1,Increment      1: Step Time =    1.000,"PART-1-1",           590,       7.36831,       6.81272,            0.,NA,NA,"",       2.34884,      -2.25307,  -663.869E-03,   22.6111E-03
C:/temp/dataset/3/1_6.odb,Step-1,Increment      1: Step Time =    1.000,"PART-1-1",           591,       6.10412,       7.73110,            0.,NA,NA,"",       2.58039,      -2.40793,  -927.519E-03,   42.6035E-03
C:/temp/dataset/3/1_6.odb,Step-1,Increment      1: Step Time =    1.000,"PART-1-1",           592,            5.,          6.25,            0.,NA,NA,"",       2.39745,      -2.16498,      -1.02986,   62.9049E-03
C:/temp/dataset/3/1_6.odb,Step-1,Increment      1: Step Time =    1.000,"PART-1-1",           593,       6.26419,       5.33162,            0.,NA,NA,"",       2.15676,      -2.00799,  -787.155E-03,   35.0481E-03
C:/temp/dataset/3/1_6.odb,Step-1,Increment      1: Step Time =    1.000,"PART-1-1",           594,           15.,          8.75,            0.,NA,NA,"",       2.86251,      -2.77413,   705.809E-03,   45.8691E-03
C:/temp/dataset/3/1_6.odb,Step-1,Increment      1: Step Time =    1.000,"PART-1-1",           595,       13.1418,       8.51598,            0.,NA,NA,"",       2.69007,      -2.66610,   358.277E-03,   27.7744E-03
C:/temp/dataset/3/1_6.odb,Step-1,Increment      1: Step Time =    1.000,"PART-1-1",           596,       6.30252,      -5.49102,            0.,NA,NA,"",   819.655E-03,  -683.965E-03,  -451.692E-03,   30.0826E-03
C:/temp/dataset/3/1_6.odb,Step-1,Increment      1: Step Time =    1.000,"PART-1-1",           597,            5.,         -6.25,            0.,NA,NA,"",   847.583E-03,  -634.412E-03,  -562.066E-03,   52.1748E-03
C:/temp/dataset/3/1_6.odb,Step-1,Increment      1: Step Time =    1.000,"PART-1-1",           598,       6.10325,      -7.87566,            0.,NA,NA,"",   635.858E-03,  -494.623E-03,  -399.579E-03,   33.0481E-03
C:/temp/dataset/3/1_6.odb,Step-1,Increment      1: Step Time =    1.000,"PART-1-1",           599,       7.40577,      -7.11668,            0.,NA,NA,"",   623.714E-03,  -544.481E-03,  -304.237E-03,   18.2975E-03
C:/temp/dataset/3/1_6.odb,Step-1,Increment      1: Step Time =    1.000,"PART-1-1",           600,            5.,         -8.75,            0.,NA,NA,"",   637.195E-03,  -450.077E-03,  -451.052E-03,   40.4462E-03
C:/temp/dataset/3/1_6.odb,Step-1,Increment      1: Step Time =    1.000,"PART-1-1",           601,            5.,        -13.75,            0.,NA,NA,"",   326.938E-03,  -171.448E-03,  -278.377E-03,   34.2077E-03
C:/temp/dataset/3/1_6.odb,Step-1,Increment      1: Step Time =    1.000,"PART-1-1",           602,       5.77894,      -15.1288,            0.,NA,NA,"",   233.095E-03,  -107.895E-03,  -206.620E-03,   28.7186E-03
C:/temp/dataset/3/1_6.odb,Step-1,Increment      1: Step Time =    1.000,"PART-1-1",           603,            5.,        -16.25,            0.,NA,NA,"",   218.917E-03,  -81.3617E-03,  -203.236E-03,   32.3286E-03
C:/temp/dataset/3/1_6.odb,Step-1,Increment      1: Step Time =    1.000,"PART-1-1",           604,       2.77244,      -24.0596,            0.,NA,NA,"",   20.7875E-03,   919.584E-06,  -20.7672E-03,   5.54331E-03
C:/temp/dataset/3/1_6.odb,Step-1,Increment      1: Step Time =    1.000,"PART-1-1",           605,       3.76359,      -25.5842,            0.,NA,NA,"",   18.6714E-03,   3.00051E-03,  -18.4287E-03,   6.34190E-03
C:/temp/dataset/3/1_6.odb,Step-1,Increment      1: Step Time =    1.000,"PART-1-1",           606,       5.11162,      -24.8806,            0.,NA,NA,"",   28.2793E-03,   8.93010E-03,  -26.8323E-03,   9.22754E-03
C:/temp/dataset/3/1_6.odb,Step-1,Increment      1: Step Time =    1.000,"PART-1-1",           607,       4.12047,      -23.3559,            0.,NA,NA,"",   34.9628E-03,   4.78947E-03,  -34.6332E-03,   8.80811E-03
C:/temp/dataset/3/1_6.odb,Step-1,Increment      1: Step Time =    1.000,"PART-1-1",           608,       8.48587,      -2.76980,            0.,NA,NA,"",       1.02456,  -988.713E-03,  -268.632E-03,   13.6427E-03
C:/temp/dataset/3/1_6.odb,Step-1,Increment      1: Step Time =    1.000,"PART-1-1",           609,       9.66601,      -3.38468,            0.,NA,NA,"",   929.158E-03,  -920.404E-03,  -127.245E-03,   4.88666E-03
C:/temp/dataset/3/1_6.odb,Step-1,Increment      1: Step Time =    1.000,"PART-1-1",           610,       9.40849,      -1.21164,            0.,NA,NA,"",       1.18812,      -1.17380,  -183.915E-03,   8.84818E-03
C:/temp/dataset/3/1_6.odb,Step-1,Increment      1: Step Time =    1.000,"PART-1-1",           611,       3.88333,            5.,            0.,NA,NA,"",       2.20233,      -1.95770,      -1.00880,   18.1122E-03
C:/temp/dataset/3/1_6.odb,Step-1,Increment      1: Step Time =    1.000,"PART-1-1",           612,       3.93709,       2.49951,            0.,NA,NA,"",       1.92257,      -1.65904,  -971.533E-03,   16.1248E-03
C:/temp/dataset/3/1_6.odb,Step-1,Increment      1: Step Time =    1.000,"PART-1-1",           613,       5.14044,       3.62548,            0.,NA,NA,"",       1.99609,      -1.79634,  -870.352E-03,   35.1657E-03
C:/temp/dataset/3/1_6.odb,Step-1,Increment      1: Step Time =    1.000,"PART-1-1",           614,       1.70000,           -5.,            0.,NA,NA,"",       1.33696,  -689.860E-03,      -1.14524,   4.04199E-03
C:/temp/dataset/3/1_6.odb,Step-1,Increment      1: Step Time =    1.000,"PART-1-1",           615,       2.88648,      -4.17028,            0.,NA,NA,"",       1.27941,  -813.030E-03,  -987.856E-03,   5.93258E-03
C:/temp/dataset/3/1_6.odb,Step-1,Increment      1: Step Time =    1.000,"PART-1-1",           616,       1.90498,      -3.27989,            0.,NA,NA,"",       1.46115,  -921.676E-03,      -1.13379,   3.68590E-03
C:/temp/dataset/3/1_6.odb,Step-1,Increment      1: Step Time =    1.000,"PART-1-1",           617,      -2.82853,       3.20340,            0.,NA,NA,"",       2.47242,      -1.70191,      -1.79342,   994.100E-06
C:/temp/dataset/3/1_6.odb,Step-1,Increment      1: Step Time =    1.000,"PART-1-1",           618,      -1.73717,       4.08745,            0.,NA,NA,"",       2.46556,      -1.82016,      -1.66312,   1.28059E-03
C:/temp/dataset/3/1_6.odb,Step-1,Increment      1: Step Time =    1.000,"PART-1-1",           619,      -2.81667,            5.,            0.,NA,NA,"",       2.64132,      -1.92686,      -1.80659,   1.28210E-03
C:/temp/dataset/3/1_6.odb,Step-1,Increment      1: Step Time =    1.000,"PART-1-1",           620,      -7.28333,            5.,            0.,NA,NA,"",       3.03396,      -1.89322,      -2.37079,   134.773E-06
C:/temp/dataset/3/1_6.odb,Step-1,Increment      1: Step Time =    1.000,"PART-1-1",           621,      -11.7000,            5.,            0.,NA,NA,"",       3.46802,      -1.85796,      -2.92833,   3.77439E-06
C:/temp/dataset/3/1_6.odb,Step-1,Increment      1: Step Time =    1.000,"PART-1-1",           622,      -11.5540,       2.50359,            0.,NA,NA,"",       3.27662,      -1.54413,      -2.88996,   18.4160E-06
C:/temp/dataset/3/1_6.odb,Step-1,Increment      1: Step Time =    1.000,"PART-1-1",           623,      -8.37698,      -4.01732,            0.,NA,NA,"",       2.54922,  -746.813E-03,      -2.43737,   62.9498E-06
C:/temp/dataset/3/1_6.odb,Step-1,Increment      1: Step Time =    1.000,"PART-1-1",           624,      -10.5279,      -3.86372,            0.,NA,NA,"",       2.81140,  -749.061E-03,      -2.70978,   14.0418E-06
C:/temp/dataset/3/1_6.odb,Step-1,Increment      1: Step Time =    1.000,"PART-1-1",           625,      -9.41667,           -5.,            0.,NA,NA,"",       2.63332,  -614.626E-03,      -2.56058,   23.3200E-06
C:/temp/dataset/3/1_6.odb,Step-1,Increment      1: Step Time =    1.000,"PART-1-1",           626,          3.75,          -20.,            0.,NA,NA,"",   44.7049E-03,   16.4524E-03,  -41.5674E-03,   9.62017E-03
C:/temp/dataset/3/1_6.odb,Step-1,Increment      1: Step Time =    1.000,"PART-1-1",           627,       2.74072,      -21.3682,            0.,NA,NA,"",   29.2271E-03,   6.03227E-03,  -28.5978E-03,   3.16177E-03
C:/temp/dataset/3/1_6.odb,Step-1,Increment      1: Step Time =    1.000,"PART-1-1",           628,       4.11640,      -22.1674,            0.,NA,NA,"",   43.6810E-03,   4.09701E-03,  -43.4885E-03,   11.0583E-03
C:/temp/dataset/3/1_6.odb,Step-1,Increment      1: Step Time =    1.000,"PART-1-1",           629,       5.12568,      -20.7992,            0.,NA,NA,"",   73.5073E-03,   9.79375E-03,  -72.8520E-03,   20.2022E-03
C:/temp/dataset/3/1_6.odb,Step-1,Increment      1: Step Time =    1.000,"PART-1-1",           630,          1.25,          -20.,            0.,NA,NA,"",   21.8418E-03,   15.3177E-03,  -15.5703E-03,   1.73487E-03
C:/temp/dataset/3/1_6.odb,Step-1,Increment      1: Step Time =    1.000,"PART-1-1",           631,   73.0809E-03,      -21.3299,            0.,NA,NA,"",   11.2447E-03,   6.75264E-03,  -8.99134E-03,   778.645E-06
C:/temp/dataset/3/1_6.odb,Step-1,Increment      1: Step Time =    1.000,"PART-1-1",           632,       1.56380,      -22.6981,            0.,NA,NA,"",   16.8700E-03,   1.61943E-03,  -16.7921E-03,   3.54637E-03
C:/temp/dataset/3/1_6.odb,Step-1,Increment      1: Step Time =    1.000,"PART-1-1",           633,         -1.25,          -20.,            0.,NA,NA,"",   10.9763E-03,   9.27929E-03,  -5.86286E-03,   1.91952E-03
C:/temp/dataset/3/1_6.odb,Step-1,Increment      1: Step Time =    1.000,"PART-1-1",           634,      -2.46493,      -21.3147,            0.,NA,NA,"",   5.51350E-03,   4.87941E-03,  -2.56711E-03,   834.100E-06
C:/temp/dataset/3/1_6.odb,Step-1,Increment      1: Step Time =    1.000,"PART-1-1",           635,      -1.14185,      -22.6446,            0.,NA,NA,"",   5.34763E-03,   2.18603E-03,  -4.88041E-03,   381.943E-06
C:/temp/dataset/3/1_6.odb,Step-1,Increment      1: Step Time =    1.000,"PART-1-1",           636,         -3.75,          -20.,            0.,NA,NA,"",   6.01793E-03,   5.84441E-03,  -1.43469E-03,   1.22631E-03
C:/temp/dataset/3/1_6.odb,Step-1,Increment      1: Step Time =    1.000,"PART-1-1",           637,      -4.97847,      -21.2978,            0.,NA,NA,"",   3.43767E-03,   3.43763E-03,   16.8984E-06,   651.631E-06
C:/temp/dataset/3/1_6.odb,Step-1,Increment      1: Step Time =    1.000,"PART-1-1",           638,      -3.69340,      -22.6125,            0.,NA,NA,"",   2.21155E-03,   2.10434E-03,  -680.221E-06,   450.624E-06
C:/temp/dataset/3/1_6.odb,Step-1,Increment      1: Step Time =    1.000,"PART-1-1",           639,      -4.95791,      -23.8547,            0.,NA,NA,"",   574.065E-06,   547.343E-06,   173.110E-06,   394.828E-06
C:/temp/dataset/3/1_6.odb,Step-1,Increment      1: Step Time =    1.000,"PART-1-1",           640,      -6.21189,      -22.5887,            0.,NA,NA,"",   1.88972E-03,   1.78249E-03,   627.527E-06,   484.697E-06
C:/temp/dataset/3/1_6.odb,Step-1,Increment      1: Step Time =    1.000,"PART-1-1",           641,      -7.46939,      -23.8324,            0.,NA,NA,"",   1.11476E-03,   812.127E-06,   763.643E-06,   381.657E-06
C:/temp/dataset/3/1_6.odb,Step-1,Increment      1: Step Time =    1.000,"PART-1-1",           642,           15.,        -13.75,            0.,NA,NA,"",   259.493E-03,  -168.262E-03,   197.546E-03,   27.1667E-03
C:/temp/dataset/3/1_6.odb,Step-1,Increment      1: Step Time =    1.000,"PART-1-1",           643,       14.2106,      -12.3304,            0.,NA,NA,"",   296.737E-03,  -227.783E-03,   190.178E-03,   23.4743E-03
C:/temp/dataset/3/1_6.odb,Step-1,Increment      1: Step Time =    1.000,"PART-1-1",           644,       13.1387,      -13.2101,            0.,NA,NA,"",   210.909E-03,  -173.123E-03,   120.462E-03,   16.1704E-03
C:/temp/dataset/3/1_6.odb,Step-1,Increment      1: Step Time =    1.000,"PART-1-1",           645,           15.,        -11.25,            0.,NA,NA,"",   395.315E-03,  -299.448E-03,   258.079E-03,   29.5763E-03
C:/temp/dataset/3/1_6.odb,Step-1,Increment      1: Step Time =    1.000,"PART-1-1",           646,           15.,         -6.25,            0.,NA,NA,"",   785.643E-03,  -685.707E-03,   383.460E-03,   31.5415E-03
C:/temp/dataset/3/1_6.odb,Step-1,Increment      1: Step Time =    1.000,"PART-1-1",           647,       14.0624,      -4.92369,            0.,NA,NA,"",   862.882E-03,  -800.446E-03,   322.261E-03,   25.1005E-03
C:/temp/dataset/3/1_6.odb,Step-1,Increment      1: Step Time =    1.000,"PART-1-1",           648,       12.9264,      -6.09194,            0.,NA,NA,"",   697.530E-03,  -668.990E-03,   197.483E-03,   17.6533E-03
C:/temp/dataset/3/1_6.odb,Step-1,Increment      1: Step Time =    1.000,"PART-1-1",           649,           15.,         -3.75,            0.,NA,NA,"",       1.03988,  -941.888E-03,   440.676E-03,   30.5391E-03
C:/temp/dataset/3/1_6.odb,Step-1,Increment      1: Step Time =    1.000,"PART-1-1",           650,       13.0440,      -3.68493,            0.,NA,NA,"",   946.732E-03,  -916.959E-03,   235.558E-03,   18.0610E-03
C:/temp/dataset/3/1_6.odb,Step-1,Increment      1: Step Time =    1.000,"PART-1-1",           651,       8.06094,   477.426E-03,            0.,NA,NA,"",       1.43648,      -1.38261,  -389.696E-03,   18.1047E-03
C:/temp/dataset/3/1_6.odb,Step-1,Increment      1: Step Time =    1.000,"PART-1-1",           652,       8.76493,       2.31856,            0.,NA,NA,"",       1.64863,      -1.61482,  -332.179E-03,   16.3294E-03
C:/temp/dataset/3/1_6.odb,Step-1,Increment      1: Step Time =    1.000,"PART-1-1",           653,       6.73548,       2.80805,            0.,NA,NA,"",       1.79559,      -1.68013,  -633.482E-03,   25.4642E-03
C:/temp/dataset/3/1_6.odb,Step-1,Increment      1: Step Time =    1.000,"PART-1-1",           654,       6.03149,   966.916E-03,            0.,NA,NA,"",       1.60230,      -1.45488,  -671.332E-03,   25.2813E-03
C:/temp/dataset/3/1_6.odb,Step-1,Increment      1: Step Time =    1.000,"PART-1-1",           655,            5.,          8.75,            0.,NA,NA,"",       2.86152,      -2.59659,      -1.20250,   54.5956E-03
C:/temp/dataset/3/1_6.odb,Step-1,Increment      1: Step Time =    1.000,"PART-1-1",           656,       7.16919,       9.14751,            0.,NA,NA,"",       2.78520,      -2.66775,  -800.257E-03,   31.1594E-03
C:/temp/dataset/3/1_6.odb,Step-1,Increment      1: Step Time =    1.000,"PART-1-1",           657,          3.75,           30.,            0.,NA,NA,"",       9.13940,      -8.49709,      -3.36573,   38.6872E-03
C:/temp/dataset/3/1_6.odb,Step-1,Increment      1: Step Time =    1.000,"PART-1-1",           658,       3.71036,       27.5731,            0.,NA,NA,"",       8.25605,      -7.61878,      -3.18065,   20.4538E-03
C:/temp/dataset/3/1_6.odb,Step-1,Increment      1: Step Time =    1.000,"PART-1-1",           659,       7.38617,       23.8490,            0.,NA,NA,"",       6.67874,      -6.48444,      -1.59924,   24.9339E-03
C:/temp/dataset/3/1_6.odb,Step-1,Increment      1: Step Time =    1.000,"PART-1-1",           660,       6.16255,       25.1024,            0.,NA,NA,"",       7.17967,      -6.86431,      -2.10451,   18.5472E-03
C:/temp/dataset/3/1_6.odb,Step-1,Increment      1: Step Time =    1.000,"PART-1-1",           661,       4.93576,       23.8439,            0.,NA,NA,"",       6.80291,      -6.35148,      -2.43686,   17.9137E-03
C:/temp/dataset/3/1_6.odb,Step-1,Increment      1: Step Time =    1.000,"PART-1-1",           662,       6.15938,       22.5905,            0.,NA,NA,"",       6.28222,      -5.98602,      -1.90627,   22.8664E-03
C:/temp/dataset/3/1_6.odb,Step-1,Increment      1: Step Time =    1.000,"PART-1-1",           663,      -10.0017,       23.7560,            0.,NA,NA,"",       9.83799,      -4.98400,      -8.48209,   7.39421E-03
C:/temp/dataset/3/1_6.odb,Step-1,Increment      1: Step Time =    1.000,"PART-1-1",           664,      -8.75135,       22.5073,            0.,NA,NA,"",       9.08486,      -4.58743,      -7.84156,   8.23031E-03
C:/temp/dataset/3/1_6.odb,Step-1,Increment      1: Step Time =    1.000,"PART-1-1",           665,      -10.0004,       21.2526,            0.,NA,NA,"",       9.15007,      -3.94399,      -8.25644,   4.62368E-03
C:/temp/dataset/3/1_6.odb,Step-1,Increment      1: Step Time =    1.000,"PART-1-1",           666,      -11.2505,       22.5043,            0.,NA,NA,"",       9.90194,      -4.34664,      -8.89691,   4.99780E-03
C:/temp/dataset/3/1_6.odb,Step-1,Increment      1: Step Time =    1.000,"PART-1-1",           667,        -11.25,           20.,            0.,NA,NA,"",       9.27444,      -3.29802,      -8.66824,   2.23805E-03
C:/temp/dataset/3/1_6.odb,Step-1,Increment      1: Step Time =    1.000,"PART-1-1",           668,         -8.75,           20.,            0.,NA,NA,"",       8.39944,      -3.53922,      -7.61738,   6.69192E-03
C:/temp/dataset/3/1_6.odb,Step-1,Increment      1: Step Time =    1.000,"PART-1-1",           669,       7.37456,       21.3253,            0.,NA,NA,"",       5.80064,      -5.62311,      -1.42407,   23.9588E-03
C:/temp/dataset/3/1_6.odb,Step-1,Increment      1: Step Time =    1.000,"PART-1-1",           670,      -1.26076,       25.0501,            0.,NA,NA,"",       8.01869,      -6.32133,      -4.93357,   12.4082E-03
C:/temp/dataset/3/1_6.odb,Step-1,Increment      1: Step Time =    1.000,"PART-1-1",           671,      -2.50213,       23.7814,            0.,NA,NA,"",       7.81798,      -5.71024,      -5.33984,   12.3441E-03
C:/temp/dataset/3/1_6.odb,Step-1,Increment      1: Step Time =    1.000,"PART-1-1",           672,          1.25,           20.,            0.,NA,NA,"",       5.80268,      -4.57642,      -3.56756,   32.4860E-03
C:/temp/dataset/3/1_6.odb,Step-1,Increment      1: Step Time =    1.000,"PART-1-1",           673,            5.,         13.75,            0.,NA,NA,"",       3.92031,      -3.59953,      -1.55312,   54.8266E-03
C:/temp/dataset/3/1_6.odb,Step-1,Increment      1: Step Time =    1.000,"PART-1-1",           674,       7.85923,       4.51418,            0.,NA,NA,"",       1.97253,      -1.90360,  -516.899E-03,   20.5502E-03
C:/temp/dataset/3/1_6.odb,Step-1,Increment      1: Step Time =    1.000,"PART-1-1",           675,       9.45843,       7.45797,            0.,NA,NA,"",       2.40893,      -2.38826,  -314.931E-03,   7.41203E-03
C:/temp/dataset/3/1_6.odb,Step-1,Increment      1: Step Time =    1.000,"PART-1-1",           676,       11.3500,       8.04392,            0.,NA,NA,"",       2.53019,      -2.53007,   24.6192E-03,   12.1633E-03
C:/temp/dataset/3/1_6.odb,Step-1,Increment      1: Step Time =    1.000,"PART-1-1",           677,       10.2386,       8.70699,            0.,NA,NA,"",       2.63427,      -2.62722,  -192.527E-03,   4.11292E-03
C:/temp/dataset/3/1_6.odb,Step-1,Increment      1: Step Time =    1.000,"PART-1-1",           678,   133.314E-03,       2.02047,            0.,NA,NA,"",       2.11927,      -1.57907,      -1.41345,   1.08846E-03
C:/temp/dataset/3/1_6.odb,Step-1,Increment      1: Step Time =    1.000,"PART-1-1",           679,       2.26054,       1.70692,            0.,NA,NA,"",       1.93414,      -1.55533,      -1.14970,   6.26536E-03
C:/temp/dataset/3/1_6.odb,Step-1,Increment      1: Step Time =    1.000,"PART-1-1",           680,  -583.333E-03,            5.,            0.,NA,NA,"",       2.46904,      -1.94067,      -1.52643,   3.13767E-03
C:/temp/dataset/3/1_6.odb,Step-1,Increment      1: Step Time =    1.000,"PART-1-1",           681,  -713.179E-03,       3.09316,            0.,NA,NA,"",       2.28853,      -1.70475,      -1.52682,   1.25391E-03
C:/temp/dataset/3/1_6.odb,Step-1,Increment      1: Step Time =    1.000,"PART-1-1",           682,      -10.2084,       1.19941,            0.,NA,NA,"",       3.04566,      -1.39037,      -2.70978,   44.9609E-06
C:/temp/dataset/3/1_6.odb,Step-1,Increment      1: Step Time =    1.000,"PART-1-1",           683,      -7.18333,           -5.,            0.,NA,NA,"",       2.36516,  -632.347E-03,      -2.27906,   136.127E-06
C:/temp/dataset/3/1_6.odb,Step-1,Increment      1: Step Time =    1.000,"PART-1-1",           684,      -7.36178,      -2.99006,            0.,NA,NA,"",       2.48069,  -884.511E-03,      -2.31765,   207.192E-06
C:/temp/dataset/3/1_6.odb,Step-1,Increment      1: Step Time =    1.000,"PART-1-1",           685,      -11.3125,  -91.5578E-03,            0.,NA,NA,"",       3.08933,      -1.21866,      -2.83881,   34.8105E-06
C:/temp/dataset/3/1_6.odb,Step-1,Increment      1: Step Time =    1.000,"PART-1-1",           686,      -11.6500,           -5.,            0.,NA,NA,"",       2.90420,  -596.789E-03,      -2.84222,   4.40334E-06
C:/temp/dataset/3/1_6.odb,Step-1,Increment      1: Step Time =    1.000,"PART-1-1",           687,      -11.6245,      -2.63993,            0.,NA,NA,"",       2.99462,  -894.674E-03,      -2.85785,   16.2598E-06
C:/temp/dataset/3/1_6.odb,Step-1,Increment      1: Step Time =    1.000,"PART-1-1",           688,      -1.03706,       1.18772,            0.,NA,NA,"",       2.13531,      -1.46566,      -1.55286,   1.04803E-03
C:/temp/dataset/3/1_6.odb,Step-1,Increment      1: Step Time =    1.000,"PART-1-1",           689,      -2.26684,   407.252E-03,            0.,NA,NA,"",       2.17640,      -1.35673,      -1.70177,   1.12986E-03
C:/temp/dataset/3/1_6.odb,Step-1,Increment      1: Step Time =    1.000,"PART-1-1",           690,      -1.61706,  -775.207E-03,            0.,NA,NA,"",       2.01666,      -1.21303,      -1.61105,   1.08968E-03
C:/temp/dataset/3/1_6.odb,Step-1,Increment      1: Step Time =    1.000,"PART-1-1",           691,      -4.44627,  -189.662E-03,            0.,NA,NA,"",       2.34150,      -1.26239,      -1.97206,   726.186E-06
C:/temp/dataset/3/1_6.odb,Step-1,Increment      1: Step Time =    1.000,"PART-1-1",           692,      -3.83065,   850.686E-03,            0.,NA,NA,"",       2.36113,      -1.39883,      -1.90216,   789.148E-06
C:/temp/dataset/3/1_6.odb,Step-1,Increment      1: Step Time =    1.000,"PART-1-1",           693,      -5.38306,   384.196E-03,            0.,NA,NA,"",       2.47944,      -1.32688,      -2.09452,   492.007E-06
C:/temp/dataset/3/1_6.odb,Step-1,Increment      1: Step Time =    1.000,"PART-1-1",           694,       3.90000,           -5.,            0.,NA,NA,"",       1.09250,  -709.007E-03,  -831.182E-03,   16.2731E-03
C:/temp/dataset/3/1_6.odb,Step-1,Increment      1: Step Time =    1.000,"PART-1-1",           695,       5.25667,      -4.01677,            0.,NA,NA,"",       1.05981,  -854.465E-03,  -626.971E-03,   33.9146E-03
C:/temp/dataset/3/1_6.odb,Step-1,Increment      1: Step Time =    1.000,"PART-1-1",           696,       4.24316,      -3.18705,            0.,NA,NA,"",       1.24569,  -953.568E-03,  -801.535E-03,   18.6133E-03
C:/temp/dataset/3/1_6.odb,Step-1,Increment      1: Step Time =    1.000,"PART-1-1",           697,       9.51721,      -4.82762,            0.,NA,NA,"",   774.487E-03,  -763.612E-03,  -129.334E-03,   4.41642E-03
C:/temp/dataset/3/1_6.odb,Step-1,Increment      1: Step Time =    1.000,"PART-1-1",           698,       8.04384,      -4.93500,            0.,NA,NA,"",   796.953E-03,  -746.105E-03,  -280.109E-03,   13.5637E-03
C:/temp/dataset/3/1_6.odb,Step-1,Increment      1: Step Time =    1.000,"PART-1-1",           699,       8.61490,      -6.56470,            0.,NA,NA,"",   626.222E-03,  -593.617E-03,  -199.431E-03,   10.1369E-03
C:/temp/dataset/3/1_6.odb,Step-1,Increment      1: Step Time =    1.000,"PART-1-1",           700,       10.0883,      -6.45732,            0.,NA,NA,"",   612.603E-03,  -609.229E-03,  -64.2016E-03,   2.55083E-03
C:/temp/dataset/3/1_6.odb,Step-1,Increment      1: Step Time =    1.000,"PART-1-1",           701,       9.29828,      -8.00429,            0.,NA,NA,"",   491.338E-03,  -475.544E-03,  -123.577E-03,   7.45202E-03
C:/temp/dataset/3/1_6.odb,Step-1,Increment      1: Step Time =    1.000,"PART-1-1",           702,       6.27674,      -21.4047,            0.,NA,NA,"",   67.5715E-03,   18.7520E-03,  -64.9174E-03,   15.9542E-03
C:/temp/dataset/3/1_6.odb,Step-1,Increment      1: Step Time =    1.000,"PART-1-1",           703,       7.27122,      -20.3583,            0.,NA,NA,"",   72.8261E-03,   22.4116E-03,  -69.2919E-03,   14.0422E-03
C:/temp/dataset/3/1_6.odb,Step-1,Increment      1: Step Time =    1.000,"PART-1-1",           704,         -6.25,          -20.,            0.,NA,NA,"",   3.58752E-03,   3.58426E-03,   152.877E-06,   749.382E-06
C:/temp/dataset/3/1_6.odb,Step-1,Increment      1: Step Time =    1.000,"PART-1-1",           705,         -1.25,          -30.,            0.,NA,NA,"",            0.,  -1.18618E-39,  -2.47424E-39,   1.74041E-03
C:/temp/dataset/3/1_6.odb,Step-1,Increment      1: Step Time =    1.000,"PART-1-1",           706,       8.60683,      -25.8105,            0.,NA,NA,"",   26.8169E-03,   22.6899E-03,  -14.2939E-03,   7.47743E-03
C:/temp/dataset/3/1_6.odb,Step-1,Increment      1: Step Time =    1.000,"PART-1-1",           707,       7.41490,      -26.9159,            0.,NA,NA,"",   18.9141E-03,   14.4295E-03,  -12.2283E-03,   7.21786E-03
C:/temp/dataset/3/1_6.odb,Step-1,Increment      1: Step Time =    1.000,"PART-1-1",           708,       6.17638,      -25.8614,            0.,NA,NA,"",   23.8780E-03,   12.4727E-03,  -20.3616E-03,   7.74775E-03
C:/temp/dataset/3/1_6.odb,Step-1,Increment      1: Step Time =    1.000,"PART-1-1",           709,       7.37219,      -25.0876,            0.,NA,NA,"",   30.9893E-03,   20.0062E-03,  -23.6663E-03,   9.39405E-03
C:/temp/dataset/3/1_6.odb,Step-1,Increment      1: Step Time =    1.000,"PART-1-1",           710,       6.30743,      -24.1068,            0.,NA,NA,"",   37.8845E-03,   16.1687E-03,  -34.2609E-03,   10.0142E-03
C:/temp/dataset/3/1_6.odb,Step-1,Increment      1: Step Time =    1.000,"PART-1-1",           711,   113.079E-03,      -23.9373,            0.,NA,NA,"",   8.45458E-03,  -585.908E-06,  -8.43425E-03,   1.68035E-03
C:/temp/dataset/3/1_6.odb,Step-1,Increment      1: Step Time =    1.000,"PART-1-1",           712,      -2.43554,      -23.8906,            0.,NA,NA,"",   2.09030E-03,   13.9579E-06,  -2.09025E-03,   293.433E-06
C:/temp/dataset/3/1_6.odb,Step-1,Increment      1: Step Time =    1.000,"PART-1-1",           713,      -8.72529,      -25.0755,            0.,NA,NA,"",   722.903E-06,   303.984E-06,   655.883E-06,   347.256E-06
C:/temp/dataset/3/1_6.odb,Step-1,Increment      1: Step Time =    1.000,"PART-1-1",           714,      -9.97606,      -23.8175,            0.,NA,NA,"",   1.23688E-03,   959.133E-06,   780.977E-06,   282.593E-06
C:/temp/dataset/3/1_6.odb,Step-1,Increment      1: Step Time =    1.000,"PART-1-1",           715,      -9.99641,      -28.7682,            0.,NA,NA,"",   166.080E-06,  -131.450E-06,   101.505E-06,   130.341E-06
C:/temp/dataset/3/1_6.odb,Step-1,Increment      1: Step Time =    1.000,"PART-1-1",           716,      -11.2465,      -27.5281,            0.,NA,NA,"",   293.818E-06,   54.5041E-06,   288.718E-06,   197.857E-06
C:/temp/dataset/3/1_6.odb,Step-1,Increment      1: Step Time =    1.000,"PART-1-1",           717,        -11.25,          -30.,            0.,NA,NA,"",            0.,  -42.5855E-42,   178.368E-42,   109.473E-06
C:/temp/dataset/3/1_6.odb,Step-1,Increment      1: Step Time =    1.000,"PART-1-1",           718,         -8.75,          -30.,            0.,NA,NA,"",            0.,  -177.594E-42,   16.7749E-42,   210.186E-06
C:/temp/dataset/3/1_6.odb,Step-1,Increment      1: Step Time =    1.000,"PART-1-1",           719,      -8.73783,      -27.5479,            0.,NA,NA,"",   400.043E-06,  -318.736E-06,   241.747E-06,   254.094E-06
C:/temp/dataset/3/1_6.odb,Step-1,Increment      1: Step Time =    1.000,"PART-1-1",           720,       9.45286,      -20.3748,            0.,NA,NA,"",   41.3204E-03,   26.6264E-03,  -31.5976E-03,   9.21476E-03
C:/temp/dataset/3/1_6.odb,Step-1,Increment      1: Step Time =    1.000,"PART-1-1",           721,       8.38706,      -19.4374,            0.,NA,NA,"",   60.7516E-03,   16.2972E-03,  -58.5248E-03,   9.77915E-03
C:/temp/dataset/3/1_6.odb,Step-1,Increment      1: Step Time =    1.000,"PART-1-1",           722,       8.33702,      -21.2957,            0.,NA,NA,"",   54.1302E-03,   28.8352E-03,  -45.8106E-03,   11.5722E-03
C:/temp/dataset/3/1_6.odb,Step-1,Increment      1: Step Time =    1.000,"PART-1-1",           723,       9.34035,      -18.0986,            0.,NA,NA,"",   43.9577E-03,  -2.72842E-03,  -43.8729E-03,   7.99933E-03
C:/temp/dataset/3/1_6.odb,Step-1,Increment      1: Step Time =    1.000,"PART-1-1",           724,       10.7511,      -19.4747,            0.,NA,NA,"",   18.5509E-03,   17.7963E-03,  -5.23710E-03,   7.21949E-03
C:/temp/dataset/3/1_6.odb,Step-1,Increment      1: Step Time =    1.000,"PART-1-1",           725,       9.57777,      -9.07511,            0.,NA,NA,"",   407.483E-03,  -396.765E-03,  -92.8447E-03,   6.87774E-03
C:/temp/dataset/3/1_6.odb,Step-1,Increment      1: Step Time =    1.000,"PART-1-1",           726,       10.3854,      -7.79904,            0.,NA,NA,"",   497.002E-03,  -495.853E-03,  -33.7809E-03,   3.32937E-03
C:/temp/dataset/3/1_6.odb,Step-1,Increment      1: Step Time =    1.000,"PART-1-1",           727,       11.9371,      -7.89361,            0.,NA,NA,"",   508.735E-03,  -499.760E-03,   95.1364E-03,   11.1381E-03
C:/temp/dataset/3/1_6.odb,Step-1,Increment      1: Step Time =    1.000,"PART-1-1",           728,       11.6400,      -6.55190,            0.,NA,NA,"",   617.093E-03,  -612.271E-03,   76.9935E-03,   9.78022E-03
C:/temp/dataset/3/1_6.odb,Step-1,Increment      1: Step Time =    1.000,"PART-1-1",           729,       9.29748,       3.92298,            0.,NA,NA,"",       1.85496,      -1.83356,  -280.999E-03,   12.3128E-03
C:/temp/dataset/3/1_6.odb,Step-1,Increment      1: Step Time =    1.000,"PART-1-1",           730,       10.7408,       1.93669,            0.,NA,NA,"",       1.57793,      -1.57737,  -42.0399E-03,   7.45344E-03
C:/temp/dataset/3/1_6.odb,Step-1,Increment      1: Step Time =    1.000,"PART-1-1",           731,       12.1175,       9.30164,            0.,NA,NA,"",       2.79132,      -2.78645,   164.830E-03,   18.8400E-03
C:/temp/dataset/3/1_6.odb,Step-1,Increment      1: Step Time =    1.000,"PART-1-1",           732,       12.3743,       7.25826,            0.,NA,NA,"",       2.42476,      -2.41546,   212.137E-03,   20.8312E-03
C:/temp/dataset/3/1_6.odb,Step-1,Increment      1: Step Time =    1.000,"PART-1-1",           733,       9.86952,       23.8294,            0.,NA,NA,"",       6.64777,      -6.59695,  -820.430E-03,   26.1794E-03
C:/temp/dataset/3/1_6.odb,Step-1,Increment      1: Step Time =    1.000,"PART-1-1",           734,       8.61965,       22.5851,            0.,NA,NA,"",       6.21274,      -6.10997,      -1.12532,   25.7974E-03
C:/temp/dataset/3/1_6.odb,Step-1,Increment      1: Step Time =    1.000,"PART-1-1",           735,         11.25,           30.,            0.,NA,NA,"",       8.79015,      -8.75695,  -763.279E-03,   10.0967E-03
C:/temp/dataset/3/1_6.odb,Step-1,Increment      1: Step Time =    1.000,"PART-1-1",           736,       9.97488,       28.7673,            0.,NA,NA,"",       8.37187,      -8.29903,      -1.10195,   17.0611E-03
C:/temp/dataset/3/1_6.odb,Step-1,Increment      1: Step Time =    1.000,"PART-1-1",           737,          8.75,           30.,            0.,NA,NA,"",       8.80187,      -8.65809,      -1.58441,   23.9917E-03
C:/temp/dataset/3/1_6.odb,Step-1,Increment      1: Step Time =    1.000,"PART-1-1",           738,       3.69885,       25.0915,            0.,NA,NA,"",       7.35426,      -6.71963,      -2.98859,   12.7645E-03
C:/temp/dataset/3/1_6.odb,Step-1,Increment      1: Step Time =    1.000,"PART-1-1",           739,       4.94207,       26.3392,            0.,NA,NA,"",       7.70308,      -7.24017,      -2.63010,   17.4967E-03
C:/temp/dataset/3/1_6.odb,Step-1,Increment      1: Step Time =    1.000,"PART-1-1",           740,         -6.25,           30.,            0.,NA,NA,"",       10.8664,      -7.89937,      -7.46182,   14.8303E-03
C:/temp/dataset/3/1_6.odb,Step-1,Increment      1: Step Time =    1.000,"PART-1-1",           741,      -11.2519,       25.0060,            0.,NA,NA,"",       10.5958,      -5.38354,      -9.12625,   6.97499E-03
C:/temp/dataset/3/1_6.odb,Step-1,Increment      1: Step Time =    1.000,"PART-1-1",           742,       11.7111,      -12.1867,            0.,NA,NA,"",   220.305E-03,  -213.779E-03,   53.2249E-03,   8.34531E-03
C:/temp/dataset/3/1_6.odb,Step-1,Increment      1: Step Time =    1.000,"PART-1-1",           743,       12.0443,      -13.4388,            0.,NA,NA,"",   167.397E-03,  -154.932E-03,   63.3854E-03,   9.68014E-03
C:/temp/dataset/3/1_6.odb,Step-1,Increment      1: Step Time =    1.000,"PART-1-1",           744,       9.07309,      -22.0228,            0.,NA,NA,"",   44.6107E-03,   32.3016E-03,  -30.7689E-03,   10.2482E-03
C:/temp/dataset/3/1_6.odb,Step-1,Increment      1: Step Time =    1.000,"PART-1-1",           745,       9.10959,      -23.2638,            0.,NA,NA,"",   39.7705E-03,   31.8425E-03,  -23.8274E-03,   9.85075E-03
C:/temp/dataset/3/1_6.odb,Step-1,Increment      1: Step Time =    1.000,"PART-1-1",           746,       10.5828,      -23.1781,            0.,NA,NA,"",   35.7509E-03,   34.8977E-03,  -7.76354E-03,   7.86836E-03
C:/temp/dataset/3/1_6.odb,Step-1,Increment      1: Step Time =    1.000,"PART-1-1",           747,       10.5463,      -21.9372,            0.,NA,NA,"",   35.5568E-03,   34.2899E-03,  -9.40694E-03,   8.35278E-03
C:/temp/dataset/3/1_6.odb,Step-1,Increment      1: Step Time =    1.000,"PART-1-1",           748,      -1.00841,      -2.00181,            0.,NA,NA,"",       1.85781,      -1.06199,      -1.52435,   1.06149E-03
C:/temp/dataset/3/1_6.odb,Step-1,Increment      1: Step Time =    1.000,"PART-1-1",           749,      -3.17395,      -1.50818,            0.,NA,NA,"",       2.11433,      -1.10630,      -1.80180,   906.067E-06
C:/temp/dataset/3/1_6.odb,Step-1,Increment      1: Step Time =    1.000,"PART-1-1",           750,       8.23699,       8.20647,            0.,NA,NA,"",       2.56578,      -2.50423,  -558.626E-03,   19.6970E-03
C:/temp/dataset/3/1_6.odb,Step-1,Increment      1: Step Time =    1.000,"PART-1-1",           751,       8.58975,       6.06422,            0.,NA,NA,"",       2.18882,      -2.14484,  -436.550E-03,   11.9817E-03
C:/temp/dataset/3/1_6.odb,Step-1,Increment      1: Step Time =    1.000,"PART-1-1",           752,       1.04870,      -2.29850,            0.,NA,NA,"",       1.63291,      -1.04155,      -1.25761,   1.90547E-03
C:/temp/dataset/3/1_6.odb,Step-1,Increment      1: Step Time =    1.000,"PART-1-1",           753,      -1.88356,       2.26041,            0.,NA,NA,"",       2.30522,      -1.59210,      -1.66712,   1.06438E-03
C:/temp/dataset/3/1_6.odb,Step-1,Increment      1: Step Time =    1.000,"PART-1-1",           754,      -2.91638,       1.44829,            0.,NA,NA,"",       2.32469,      -1.48177,      -1.79125,   987.165E-06
C:/temp/dataset/3/1_6.odb,Step-1,Increment      1: Step Time =    1.000,"PART-1-1",           755,       3.03453,      -2.52132,            0.,NA,NA,"",       1.42736,      -1.02907,  -989.120E-03,   10.1538E-03
C:/temp/dataset/3/1_6.odb,Step-1,Increment      1: Step Time =    1.000,"PART-1-1",           756,       6.99799,      -3.46075,            0.,NA,NA,"",       1.00611,  -910.916E-03,  -427.191E-03,   21.3601E-03
C:/temp/dataset/3/1_6.odb,Step-1,Increment      1: Step Time =    1.000,"PART-1-1",           757,       7.63560,  -984.386E-03,            0.,NA,NA,"",       1.27313,      -1.20489,  -411.215E-03,   19.7951E-03
C:/temp/dataset/3/1_6.odb,Step-1,Increment      1: Step Time =    1.000,"PART-1-1",           758,       6.14771,      -1.67534,            0.,NA,NA,"",       1.27149,      -1.12987,  -583.162E-03,   25.2789E-03
C:/temp/dataset/3/1_6.odb,Step-1,Increment      1: Step Time =    1.000,"PART-1-1",           759,       4.94795,      -26.8240,            0.,NA,NA,"",   15.1630E-03,   5.85607E-03,  -13.9866E-03,   6.66742E-03
C:/temp/dataset/3/1_6.odb,Step-1,Increment      1: Step Time =    1.000,"PART-1-1",           760,      -11.2341,      -25.0541,            0.,NA,NA,"",   881.646E-06,   600.429E-06,   645.589E-06,   249.562E-06
C:/temp/dataset/3/1_6.odb,Step-1,Increment      1: Step Time =    1.000,"PART-1-1",           761,      -9.98574,      -26.3021,            0.,NA,NA,"",   477.926E-06,   104.324E-06,   466.401E-06,   245.185E-06
C:/temp/dataset/3/1_6.odb,Step-1,Increment      1: Step Time =    1.000,"PART-1-1",           762,           15.,        -26.25,            0.,NA,NA,"",   21.2288E-03,   20.7357E-03,   4.54886E-03,   5.65054E-03
C:/temp/dataset/3/1_6.odb,Step-1,Increment      1: Step Time =    1.000,"PART-1-1",           763,       9.63478,      -24.7731,            0.,NA,NA,"",   32.1379E-03,   29.5300E-03,  -12.6816E-03,   8.32039E-03
C:/temp/dataset/3/1_6.odb,Step-1,Increment      1: Step Time =    1.000,"PART-1-1",           764,       9.83383,   250.169E-03,            0.,NA,NA,"",       1.36284,      -1.35454,  -150.144E-03,   7.87034E-03
C:/temp/dataset/3/1_6.odb,Step-1,Increment      1: Step Time =    1.000,"PART-1-1",           765,       11.1222,       22.5628,            0.,NA,NA,"",       6.24095,      -6.22971,  -374.354E-03,   24.6756E-03
C:/temp/dataset/3/1_6.odb,Step-1,Increment      1: Step Time =    1.000,"PART-1-1",           766,       9.84566,       21.3197,            0.,NA,NA,"",       5.79435,      -5.75303,  -690.762E-03,   21.5199E-03
C:/temp/dataset/3/1_6.odb,Step-1,Increment      1: Step Time =    1.000,"PART-1-1",           767,      -3.18112,  -190.353E-03,            0.,NA,NA,"",       2.21510,      -1.27328,      -1.81258,   979.014E-06
C:/temp/dataset/3/1_6.odb,Step-1,Increment      1: Step Time =    1.000,"PART-1-1",           768,       4.54417,       1.21940,            0.,NA,NA,"",       1.72795,      -1.49476,  -866.885E-03,   21.1938E-03
C:/temp/dataset/3/1_6.odb,Step-1,Increment      1: Step Time =    1.000,"PART-1-1",           769,       9.22107,       9.51460,            0.,NA,NA,"",       2.79165,      -2.76151,  -409.146E-03,   10.6523E-03
C:/temp/dataset/3/1_6.odb,Step-1,Increment      1: Step Time =    1.000,"PART-1-1",           770,       11.1709,      -3.71800,            0.,NA,NA,"",   893.476E-03,  -892.703E-03,   37.1399E-03,   5.99418E-03
C:/temp/dataset/3/1_6.odb,Step-1,Increment      1: Step Time =    1.000,"PART-1-1",           771,       11.0221,      -5.16095,            0.,NA,NA,"",   739.961E-03,  -739.628E-03,   22.1729E-03,   6.10719E-03
C:/temp/dataset/3/1_6.odb,Step-1,Increment      1: Step Time =    1.000,"PART-1-1",           772,       12.3085,      -4.70099,            0.,NA,NA,"",   813.432E-03,  -799.249E-03,   151.240E-03,   13.6679E-03
C:/temp/dataset/3/1_6.odb,Step-1,Increment      1: Step Time =    1.000,"PART-1-1",           773,       5.03877,      -2.41022,            0.,NA,NA,"",       1.26452,      -1.04680,  -709.376E-03,   24.7206E-03
C:/temp/dataset/3/1_6.odb,Step-1,Increment      1: Step Time =    1.000,"PART-1-1",           774,       11.0080,       9.74440,            0.,NA,NA,"",       2.84406,      -2.84348,  -57.4016E-03,   8.46036E-03
C:/temp/dataset/3/1_6.odb,Step-1,Increment      1: Step Time =    1.000,"PART-1-1",           775,       7.33953,      -23.4839,            0.,NA,NA,"",   43.4570E-03,   23.2984E-03,  -36.6837E-03,   11.5649E-03
C:/temp/dataset/3/1_6.odb,Step-1,Increment      1: Step Time =    1.000,"PART-1-1",           776,       6.60048,      -22.7490,            0.,NA,NA,"",   51.0345E-03,   19.3490E-03,  -47.2243E-03,   12.8134E-03
C:/temp/dataset/3/1_6.odb,Step-1,Increment      1: Step Time =    1.000,"PART-1-1",           777,       5.56839,      -23.3719,            0.,NA,NA,"",   42.7460E-03,   12.5393E-03,  -40.8655E-03,   11.6994E-03
C:/temp/dataset/3/1_6.odb,Step-1,Increment      1: Step Time =    1.000,"PART-1-1",           778,       5.56431,      -22.1833,            0.,NA,NA,"",   55.1675E-03,   12.6150E-03,  -53.7058E-03,   14.1790E-03
C:/temp/dataset/3/1_6.odb,Step-1,Increment      1: Step Time =    1.000,"PART-1-1",           779,       7.31291,      -21.9704,            0.,NA,NA,"",   57.4821E-03,   24.8868E-03,  -51.8155E-03,   13.4922E-03
C:/temp/dataset/3/1_6.odb,Step-1,Increment      1: Step Time =    1.000,"PART-1-1",           780,       8.04898,      -22.6975,            0.,NA,NA,"",   47.6398E-03,   28.4357E-03,  -38.2224E-03,   11.2560E-03
C:/temp/dataset/3/1_6.odb,Step-1,Increment      1: Step Time =    1.000,"PART-1-1",           781,       5.89213,  -472.373E-03,            0.,NA,NA,"",       1.43316,      -1.27760,  -649.366E-03,   22.0173E-03
C:/temp/dataset/3/1_6.odb,Step-1,Increment      1: Step Time =    1.000,"PART-1-1",           782,       8.40014,      -24.0502,            0.,NA,NA,"",   37.5308E-03,   27.5677E-03,  -25.4673E-03,   9.38792E-03
