ODB Name,Step,Frame,Part Instance Name,    êﬂì_ÉâÉxÉã,X,Y,Z,Section Name,Material Name,Section Point,   U-Magnitude,          U-U1,          U-U2,       S-Mises
C:/temp/dataset/3/20_3.odb,Step-1,Increment      1: Step Time =    1.000,"PART-1-1",             1,          -15.,           20.,            0.,NA,NA,"",       3.03041,      -2.33990,      -1.92569,   12.5144E-09
C:/temp/dataset/3/20_3.odb,Step-1,Increment      1: Step Time =    1.000,"PART-1-1",             2,          -15.,           25.,            0.,NA,NA,"",       3.32715,      -2.70377,      -1.93895,   12.1438E-09
C:/temp/dataset/3/20_3.odb,Step-1,Increment      1: Step Time =    1.000,"PART-1-1",             3,           -5.,           20.,            0.,NA,NA,"",       2.65236,      -2.36641,      -1.19795,   26.9296E-09
C:/temp/dataset/3/20_3.odb,Step-1,Increment      1: Step Time =    1.000,"PART-1-1",             4,            5.,           20.,            0.,NA,NA,"",       2.43869,      -2.39293,  -470.211E-03,   1.88319E-06
C:/temp/dataset/3/20_3.odb,Step-1,Increment      1: Step Time =    1.000,"PART-1-1",             5,            5.,          12.5,            0.,NA,NA,"",       1.90111,      -1.84706,  -450.073E-03,   145.349E-06
C:/temp/dataset/3/20_3.odb,Step-1,Increment      1: Step Time =    1.000,"PART-1-1",             6,            5.,            5.,            0.,NA,NA,"",       1.38731,      -1.31895,  -430.122E-03,   10.0119E-03
C:/temp/dataset/3/20_3.odb,Step-1,Increment      1: Step Time =    1.000,"PART-1-1",             7,      -1.70000,            5.,            0.,NA,NA,"",       1.69714,      -1.35040,      -1.02796,   5.12372E-03
C:/temp/dataset/3/20_3.odb,Step-1,Increment      1: Step Time =    1.000,"PART-1-1",             8,      -8.40000,            5.,            0.,NA,NA,"",       2.11618,      -1.33081,      -1.64535,   1.65771E-03
C:/temp/dataset/3/20_3.odb,Step-1,Increment      1: Step Time =    1.000,"PART-1-1",             9,          -15.,            5.,            0.,NA,NA,"",       2.58963,      -1.30650,      -2.23590,   13.4697E-06
C:/temp/dataset/3/20_3.odb,Step-1,Increment      1: Step Time =    1.000,"PART-1-1",            10,          -15.,            0.,            0.,NA,NA,"",       2.37570,  -856.038E-03,      -2.21611,   208.586E-06
C:/temp/dataset/3/20_3.odb,Step-1,Increment      1: Step Time =    1.000,"PART-1-1",            11,          -15.,           -5.,            0.,NA,NA,"",       2.23285,  -403.695E-03,      -2.19605,   12.1584E-06
C:/temp/dataset/3/20_3.odb,Step-1,Increment      1: Step Time =    1.000,"PART-1-1",            12,      -8.30000,           -5.,            0.,NA,NA,"",       1.64598,  -430.391E-03,      -1.58872,   193.730E-06
C:/temp/dataset/3/20_3.odb,Step-1,Increment      1: Step Time =    1.000,"PART-1-1",            13,      -1.60000,           -5.,            0.,NA,NA,"",       1.07825,  -465.476E-03,  -972.604E-03,   3.62583E-03
C:/temp/dataset/3/20_3.odb,Step-1,Increment      1: Step Time =    1.000,"PART-1-1",            14,            5.,           -5.,            0.,NA,NA,"",   647.621E-03,  -543.181E-03,  -352.657E-03,   28.5360E-03
C:/temp/dataset/3/20_3.odb,Step-1,Increment      1: Step Time =    1.000,"PART-1-1",            15,            5.,         -12.5,            0.,NA,NA,"",   294.177E-03,  -215.139E-03,  -200.637E-03,   19.3842E-03
C:/temp/dataset/3/20_3.odb,Step-1,Increment      1: Step Time =    1.000,"PART-1-1",            16,            5.,          -20.,            0.,NA,NA,"",   58.5448E-03,  -11.2359E-03,  -57.4565E-03,   22.6648E-03
C:/temp/dataset/3/20_3.odb,Step-1,Increment      1: Step Time =    1.000,"PART-1-1",            17,           -5.,          -20.,            0.,NA,NA,"",   3.94188E-03,  -3.93914E-03,   146.838E-06,   290.636E-06
C:/temp/dataset/3/20_3.odb,Step-1,Increment      1: Step Time =    1.000,"PART-1-1",            18,          -15.,          -20.,            0.,NA,NA,"",   4.94476E-03,  -4.84103E-03,  -1.00752E-03,   5.30391E-06
C:/temp/dataset/3/20_3.odb,Step-1,Increment      1: Step Time =    1.000,"PART-1-1",            19,          -15.,          -25.,            0.,NA,NA,"",   3.39331E-03,  -3.19777E-03,  -1.13528E-03,   36.0970E-06
C:/temp/dataset/3/20_3.odb,Step-1,Increment      1: Step Time =    1.000,"PART-1-1",            20,          -15.,          -30.,            0.,NA,NA,"",            0.,  -278.790E-42,  -438.967E-42,   843.540E-06
C:/temp/dataset/3/20_3.odb,Step-1,Increment      1: Step Time =    1.000,"PART-1-1",            21,           15.,          -30.,            0.,NA,NA,"",            0.,  -447.736E-42,   1.18646E-39,   2.37182E-03
C:/temp/dataset/3/20_3.odb,Step-1,Increment      1: Step Time =    1.000,"PART-1-1",            22,           15.,         -22.5,            0.,NA,NA,"",   44.1161E-03,  -5.69700E-03,   43.7467E-03,   10.7827E-03
C:/temp/dataset/3/20_3.odb,Step-1,Increment      1: Step Time =    1.000,"PART-1-1",            23,           15.,          -15.,            0.,NA,NA,"",   189.523E-03,  -131.507E-03,   136.473E-03,   15.7441E-03
C:/temp/dataset/3/20_3.odb,Step-1,Increment      1: Step Time =    1.000,"PART-1-1",            24,           15.,          -7.5,            0.,NA,NA,"",   504.742E-03,  -445.259E-03,   237.715E-03,   15.7503E-03
C:/temp/dataset/3/20_3.odb,Step-1,Increment      1: Step Time =    1.000,"PART-1-1",            25,           15.,            0.,            0.,NA,NA,"",   993.110E-03,  -946.225E-03,   301.540E-03,   6.19086E-03
C:/temp/dataset/3/20_3.odb,Step-1,Increment      1: Step Time =    1.000,"PART-1-1",            26,           15.,           7.5,            0.,NA,NA,"",       1.53636,      -1.50831,   292.272E-03,   352.822E-06
C:/temp/dataset/3/20_3.odb,Step-1,Increment      1: Step Time =    1.000,"PART-1-1",            27,           15.,           15.,            0.,NA,NA,"",       2.07343,      -2.05567,   270.822E-03,   45.0951E-06
C:/temp/dataset/3/20_3.odb,Step-1,Increment      1: Step Time =    1.000,"PART-1-1",            28,           15.,          22.5,            0.,NA,NA,"",       2.61346,      -2.60138,   250.889E-03,   1.49116E-06
C:/temp/dataset/3/20_3.odb,Step-1,Increment      1: Step Time =    1.000,"PART-1-1",            29,           15.,           30.,            0.,NA,NA,"",       3.15565,      -3.14718,   231.007E-03,   32.8923E-09
C:/temp/dataset/3/20_3.odb,Step-1,Increment      1: Step Time =    1.000,"PART-1-1",            30,           7.5,           30.,            0.,NA,NA,"",       3.14310,      -3.12730,  -314.791E-03,   579.321E-09
C:/temp/dataset/3/20_3.odb,Step-1,Increment      1: Step Time =    1.000,"PART-1-1",            31,            0.,           30.,            0.,NA,NA,"",       3.22438,      -3.10741,  -860.597E-03,   71.7302E-09
C:/temp/dataset/3/20_3.odb,Step-1,Increment      1: Step Time =    1.000,"PART-1-1",            32,          -7.5,           30.,            0.,NA,NA,"",       3.39275,      -3.08753,      -1.40640,   23.5366E-09
C:/temp/dataset/3/20_3.odb,Step-1,Increment      1: Step Time =    1.000,"PART-1-1",            33,          -15.,           30.,            0.,NA,NA,"",       3.63614,      -3.06764,      -1.95221,   11.7839E-09
C:/temp/dataset/3/20_3.odb,Step-1,Increment      1: Step Time =    1.000,"PART-1-1",            34,          -15.,          22.5,            0.,NA,NA,"",       3.17703,      -2.52183,      -1.93232,   15.6472E-09
C:/temp/dataset/3/20_3.odb,Step-1,Increment      1: Step Time =    1.000,"PART-1-1",            35,          -7.5,           20.,            0.,NA,NA,"",       2.73362,      -2.35978,      -1.37989,   17.9665E-09
C:/temp/dataset/3/20_3.odb,Step-1,Increment      1: Step Time =    1.000,"PART-1-1",            36,          -10.,           20.,            0.,NA,NA,"",       2.82429,      -2.35315,      -1.56182,   12.8036E-09
C:/temp/dataset/3/20_3.odb,Step-1,Increment      1: Step Time =    1.000,"PART-1-1",            37,         -12.5,           20.,            0.,NA,NA,"",       2.92350,      -2.34653,      -1.74376,   10.6951E-09
C:/temp/dataset/3/20_3.odb,Step-1,Increment      1: Step Time =    1.000,"PART-1-1",            38,           2.5,           20.,            0.,NA,NA,"",       2.47381,      -2.38630,  -652.146E-03,   227.685E-09
C:/temp/dataset/3/20_3.odb,Step-1,Increment      1: Step Time =    1.000,"PART-1-1",            39,            0.,           20.,            0.,NA,NA,"",       2.52161,      -2.37967,  -834.081E-03,   55.9911E-09
C:/temp/dataset/3/20_3.odb,Step-1,Increment      1: Step Time =    1.000,"PART-1-1",            40,          -2.5,           20.,            0.,NA,NA,"",       2.58140,      -2.37304,      -1.01602,   25.6341E-09
C:/temp/dataset/3/20_3.odb,Step-1,Increment      1: Step Time =    1.000,"PART-1-1",            41,            5.,           15.,            0.,NA,NA,"",       2.07981,      -2.02900,  -456.891E-03,   52.4223E-06
C:/temp/dataset/3/20_3.odb,Step-1,Increment      1: Step Time =    1.000,"PART-1-1",            42,            5.,          17.5,            0.,NA,NA,"",       2.25904,      -2.21097,  -463.576E-03,   7.21798E-06
C:/temp/dataset/3/20_3.odb,Step-1,Increment      1: Step Time =    1.000,"PART-1-1",            43,            5.,           7.5,            0.,NA,NA,"",       1.54854,      -1.48617,  -435.051E-03,   1.95390E-03
C:/temp/dataset/3/20_3.odb,Step-1,Increment      1: Step Time =    1.000,"PART-1-1",            44,            5.,           10.,            0.,NA,NA,"",       1.72353,      -1.66566,  -442.868E-03,   583.840E-06
C:/temp/dataset/3/20_3.odb,Step-1,Increment      1: Step Time =    1.000,"PART-1-1",            45,   533.333E-03,            5.,            0.,NA,NA,"",       1.57558,      -1.34664,  -817.936E-03,   7.74960E-03
C:/temp/dataset/3/20_3.odb,Step-1,Increment      1: Step Time =    1.000,"PART-1-1",            46,       2.76667,            5.,            0.,NA,NA,"",       1.47384,      -1.33768,  -618.714E-03,   10.9233E-03
C:/temp/dataset/3/20_3.odb,Step-1,Increment      1: Step Time =    1.000,"PART-1-1",            47,      -6.16667,            5.,            0.,NA,NA,"",       1.97138,      -1.33966,      -1.44625,   2.97894E-03
C:/temp/dataset/3/20_3.odb,Step-1,Increment      1: Step Time =    1.000,"PART-1-1",            48,      -3.93333,            5.,            0.,NA,NA,"",       1.83035,      -1.34635,      -1.23997,   3.56127E-03
C:/temp/dataset/3/20_3.odb,Step-1,Increment      1: Step Time =    1.000,"PART-1-1",            49,      -12.8000,            5.,            0.,NA,NA,"",       2.42541,      -1.31535,      -2.03776,   149.188E-06
C:/temp/dataset/3/20_3.odb,Step-1,Increment      1: Step Time =    1.000,"PART-1-1",            50,      -10.6000,            5.,            0.,NA,NA,"",       2.26663,      -1.32377,      -1.83991,   591.728E-06
C:/temp/dataset/3/20_3.odb,Step-1,Increment      1: Step Time =    1.000,"PART-1-1",            51,          -15.,           2.5,            0.,NA,NA,"",       2.47466,      -1.08145,      -2.22585,   129.135E-06
C:/temp/dataset/3/20_3.odb,Step-1,Increment      1: Step Time =    1.000,"PART-1-1",            52,          -15.,          -2.5,            0.,NA,NA,"",       2.29442,  -629.966E-03,      -2.20624,   100.516E-06
C:/temp/dataset/3/20_3.odb,Step-1,Increment      1: Step Time =    1.000,"PART-1-1",            53,      -10.5333,           -5.,            0.,NA,NA,"",       1.84073,  -421.646E-03,      -1.79179,   231.053E-06
C:/temp/dataset/3/20_3.odb,Step-1,Increment      1: Step Time =    1.000,"PART-1-1",            54,      -12.7667,           -5.,            0.,NA,NA,"",       2.03629,  -412.806E-03,      -1.99401,   81.8327E-06
C:/temp/dataset/3/20_3.odb,Step-1,Increment      1: Step Time =    1.000,"PART-1-1",            55,      -3.83333,           -5.,            0.,NA,NA,"",       1.26185,  -451.105E-03,      -1.17846,   1.66924E-03
C:/temp/dataset/3/20_3.odb,Step-1,Increment      1: Step Time =    1.000,"PART-1-1",            56,      -6.06667,           -5.,            0.,NA,NA,"",       1.45243,  -439.805E-03,      -1.38424,   364.947E-06
C:/temp/dataset/3/20_3.odb,Step-1,Increment      1: Step Time =    1.000,"PART-1-1",            57,       2.80000,           -5.,            0.,NA,NA,"",   760.193E-03,  -504.831E-03,  -568.365E-03,   12.2952E-03
C:/temp/dataset/3/20_3.odb,Step-1,Increment      1: Step Time =    1.000,"PART-1-1",            58,   600.000E-03,           -5.,            0.,NA,NA,"",   910.118E-03,  -483.704E-03,  -770.938E-03,   5.40420E-03
C:/temp/dataset/3/20_3.odb,Step-1,Increment      1: Step Time =    1.000,"PART-1-1",            59,            5.,          -10.,            0.,NA,NA,"",   399.166E-03,  -314.326E-03,  -246.033E-03,   18.8729E-03
C:/temp/dataset/3/20_3.odb,Step-1,Increment      1: Step Time =    1.000,"PART-1-1",            60,            5.,          -7.5,            0.,NA,NA,"",   518.348E-03,  -429.133E-03,  -290.740E-03,   20.5927E-03
C:/temp/dataset/3/20_3.odb,Step-1,Increment      1: Step Time =    1.000,"PART-1-1",            61,            5.,         -17.5,            0.,NA,NA,"",   132.178E-03,  -67.9232E-03,  -113.391E-03,   20.3077E-03
C:/temp/dataset/3/20_3.odb,Step-1,Increment      1: Step Time =    1.000,"PART-1-1",            62,            5.,          -15.,            0.,NA,NA,"",   205.540E-03,  -133.571E-03,  -156.223E-03,   18.6417E-03
C:/temp/dataset/3/20_3.odb,Step-1,Increment      1: Step Time =    1.000,"PART-1-1",            63,          -2.5,          -20.,            0.,NA,NA,"",   3.56284E-03,  -3.14937E-03,  -1.66592E-03,   365.715E-06
C:/temp/dataset/3/20_3.odb,Step-1,Increment      1: Step Time =    1.000,"PART-1-1",            64,            0.,          -20.,            0.,NA,NA,"",   6.99071E-03,  -2.16008E-03,  -6.64862E-03,   917.236E-06
C:/temp/dataset/3/20_3.odb,Step-1,Increment      1: Step Time =    1.000,"PART-1-1",            65,           2.5,          -20.,            0.,NA,NA,"",   18.7797E-03,  -1.01951E-03,  -18.7520E-03,   5.21545E-03
C:/temp/dataset/3/20_3.odb,Step-1,Increment      1: Step Time =    1.000,"PART-1-1",            66,         -12.5,          -20.,            0.,NA,NA,"",   4.81997E-03,  -4.81253E-03,  -267.606E-06,   35.8237E-06
C:/temp/dataset/3/20_3.odb,Step-1,Increment      1: Step Time =    1.000,"PART-1-1",            67,          -10.,          -20.,            0.,NA,NA,"",   4.68845E-03,  -4.67585E-03,   343.491E-06,   85.4567E-06
C:/temp/dataset/3/20_3.odb,Step-1,Increment      1: Step Time =    1.000,"PART-1-1",            68,          -7.5,          -20.,            0.,NA,NA,"",   4.45778E-03,  -4.41716E-03,   600.396E-06,   150.885E-06
C:/temp/dataset/3/20_3.odb,Step-1,Increment      1: Step Time =    1.000,"PART-1-1",            69,          -15.,         -22.5,            0.,NA,NA,"",   4.24541E-03,  -4.11714E-03,  -1.03570E-03,   32.7167E-06
C:/temp/dataset/3/20_3.odb,Step-1,Increment      1: Step Time =    1.000,"PART-1-1",            70,          -15.,         -27.5,            0.,NA,NA,"",   2.11877E-03,  -1.82862E-03,  -1.07021E-03,   224.643E-06
C:/temp/dataset/3/20_3.odb,Step-1,Increment      1: Step Time =    1.000,"PART-1-1",            71,          12.5,          -30.,            0.,NA,NA,"",            0.,   1.81963E-39,   3.23739E-39,   3.53425E-03
C:/temp/dataset/3/20_3.odb,Step-1,Increment      1: Step Time =    1.000,"PART-1-1",            72,           10.,          -30.,            0.,NA,NA,"",            0.,   3.90291E-39,   1.90788E-39,   3.36651E-03
C:/temp/dataset/3/20_3.odb,Step-1,Increment      1: Step Time =    1.000,"PART-1-1",            73,           7.5,          -30.,            0.,NA,NA,"",            0.,   1.75823E-39,  -3.34506E-39,   2.95757E-03
C:/temp/dataset/3/20_3.odb,Step-1,Increment      1: Step Time =    1.000,"PART-1-1",            74,            5.,          -30.,            0.,NA,NA,"",            0.,   1.86114E-39,  -6.47819E-39,   2.69756E-03
C:/temp/dataset/3/20_3.odb,Step-1,Increment      1: Step Time =    1.000,"PART-1-1",            75,           2.5,          -30.,            0.,NA,NA,"",            0.,   533.895E-45,  -4.78361E-39,   2.56099E-03
C:/temp/dataset/3/20_3.odb,Step-1,Increment      1: Step Time =    1.000,"PART-1-1",            76,            0.,          -30.,            0.,NA,NA,"",            0.,  -968.443E-42,  -2.56606E-39,   2.22263E-03
C:/temp/dataset/3/20_3.odb,Step-1,Increment      1: Step Time =    1.000,"PART-1-1",            77,          -2.5,          -30.,            0.,NA,NA,"",            0.,  -2.36075E-39,  -2.92219E-39,   1.68991E-03
C:/temp/dataset/3/20_3.odb,Step-1,Increment      1: Step Time =    1.000,"PART-1-1",            78,           -5.,          -30.,            0.,NA,NA,"",            0.,  -1.04495E-39,  -154.891E-42,   1.19903E-03
C:/temp/dataset/3/20_3.odb,Step-1,Increment      1: Step Time =    1.000,"PART-1-1",            79,          -7.5,          -30.,            0.,NA,NA,"",            0.,  -806.601E-42,   141.279E-42,   826.592E-06
C:/temp/dataset/3/20_3.odb,Step-1,Increment      1: Step Time =    1.000,"PART-1-1",            80,          -10.,          -30.,            0.,NA,NA,"",            0.,  -778.036E-42,  -664.619E-42,   586.051E-06
C:/temp/dataset/3/20_3.odb,Step-1,Increment      1: Step Time =    1.000,"PART-1-1",            81,         -12.5,          -30.,            0.,NA,NA,"",            0.,  -671.371E-42,  -569.244E-42,   402.165E-06
C:/temp/dataset/3/20_3.odb,Step-1,Increment      1: Step Time =    1.000,"PART-1-1",            82,           15.,          -25.,            0.,NA,NA,"",   22.8471E-03,   3.17535E-03,   22.6253E-03,   7.98906E-03
C:/temp/dataset/3/20_3.odb,Step-1,Increment      1: Step Time =    1.000,"PART-1-1",            83,           15.,         -27.5,            0.,NA,NA,"",   8.21129E-03,   2.87646E-03,   7.69098E-03,   5.33217E-03
C:/temp/dataset/3/20_3.odb,Step-1,Increment      1: Step Time =    1.000,"PART-1-1",            84,           15.,         -17.5,            0.,NA,NA,"",   124.077E-03,  -69.5955E-03,   102.721E-03,   15.0135E-03
C:/temp/dataset/3/20_3.odb,Step-1,Increment      1: Step Time =    1.000,"PART-1-1",            85,           15.,          -20.,            0.,NA,NA,"",   76.3876E-03,  -28.4601E-03,   70.8878E-03,   13.2749E-03
C:/temp/dataset/3/20_3.odb,Step-1,Increment      1: Step Time =    1.000,"PART-1-1",            86,           15.,          -10.,            0.,NA,NA,"",   378.874E-03,  -318.783E-03,   204.751E-03,   16.2192E-03
C:/temp/dataset/3/20_3.odb,Step-1,Increment      1: Step Time =    1.000,"PART-1-1",            87,           15.,         -12.5,            0.,NA,NA,"",   274.165E-03,  -214.502E-03,   170.750E-03,   16.0184E-03
C:/temp/dataset/3/20_3.odb,Step-1,Increment      1: Step Time =    1.000,"PART-1-1",            88,           15.,          -2.5,            0.,NA,NA,"",   816.408E-03,  -763.377E-03,   289.444E-03,   10.4924E-03
C:/temp/dataset/3/20_3.odb,Step-1,Increment      1: Step Time =    1.000,"PART-1-1",            89,           15.,           -5.,            0.,NA,NA,"",   651.582E-03,  -594.247E-03,   267.263E-03,   14.0090E-03
C:/temp/dataset/3/20_3.odb,Step-1,Increment      1: Step Time =    1.000,"PART-1-1",            90,           15.,            5.,            0.,NA,NA,"",       1.35629,      -1.32283,   299.383E-03,   285.218E-06
C:/temp/dataset/3/20_3.odb,Step-1,Increment      1: Step Time =    1.000,"PART-1-1",            91,           15.,           2.5,            0.,NA,NA,"",       1.17452,      -1.13460,   303.624E-03,   2.63114E-03
C:/temp/dataset/3/20_3.odb,Step-1,Increment      1: Step Time =    1.000,"PART-1-1",            92,           15.,          12.5,            0.,NA,NA,"",       1.89421,      -1.87375,   277.641E-03,   140.309E-06
C:/temp/dataset/3/20_3.odb,Step-1,Increment      1: Step Time =    1.000,"PART-1-1",            93,           15.,           10.,            0.,NA,NA,"",       1.71534,      -1.69154,   284.763E-03,   306.942E-06
C:/temp/dataset/3/20_3.odb,Step-1,Increment      1: Step Time =    1.000,"PART-1-1",            94,           15.,           20.,            0.,NA,NA,"",       2.43313,      -2.41946,   257.514E-03,   813.933E-09
C:/temp/dataset/3/20_3.odb,Step-1,Increment      1: Step Time =    1.000,"PART-1-1",            95,           15.,          17.5,            0.,NA,NA,"",       2.25309,      -2.23755,   264.147E-03,   8.55593E-06
C:/temp/dataset/3/20_3.odb,Step-1,Increment      1: Step Time =    1.000,"PART-1-1",            96,           15.,          27.5,            0.,NA,NA,"",       2.97475,      -2.96525,   237.636E-03,   215.897E-09
C:/temp/dataset/3/20_3.odb,Step-1,Increment      1: Step Time =    1.000,"PART-1-1",            97,           15.,           25.,            0.,NA,NA,"",       2.79401,      -2.78332,   244.263E-03,   836.642E-09
C:/temp/dataset/3/20_3.odb,Step-1,Increment      1: Step Time =    1.000,"PART-1-1",            98,           10.,           30.,            0.,NA,NA,"",       3.13674,      -3.13392,  -132.857E-03,   524.150E-09
C:/temp/dataset/3/20_3.odb,Step-1,Increment      1: Step Time =    1.000,"PART-1-1",            99,          12.5,           30.,            0.,NA,NA,"",       3.14093,      -3.14055,   49.0752E-03,   186.896E-09
C:/temp/dataset/3/20_3.odb,Step-1,Increment      1: Step Time =    1.000,"PART-1-1",           100,           2.5,           30.,            0.,NA,NA,"",       3.18713,      -3.11404,  -678.661E-03,   184.096E-09
C:/temp/dataset/3/20_3.odb,Step-1,Increment      1: Step Time =    1.000,"PART-1-1",           101,            5.,           30.,            0.,NA,NA,"",       3.15995,      -3.12067,  -496.725E-03,   396.448E-09
C:/temp/dataset/3/20_3.odb,Step-1,Increment      1: Step Time =    1.000,"PART-1-1",           102,           -5.,           30.,            0.,NA,NA,"",       3.32763,      -3.09415,      -1.22447,   26.5269E-09
C:/temp/dataset/3/20_3.odb,Step-1,Increment      1: Step Time =    1.000,"PART-1-1",           103,          -2.5,           30.,            0.,NA,NA,"",       3.27135,      -3.10078,      -1.04253,   33.3932E-09
C:/temp/dataset/3/20_3.odb,Step-1,Increment      1: Step Time =    1.000,"PART-1-1",           104,         -12.5,           30.,            0.,NA,NA,"",       3.54753,      -3.07427,      -1.77027,   17.3389E-09
C:/temp/dataset/3/20_3.odb,Step-1,Increment      1: Step Time =    1.000,"PART-1-1",           105,          -10.,           30.,            0.,NA,NA,"",       3.46623,      -3.08090,      -1.58834,   20.0403E-09
C:/temp/dataset/3/20_3.odb,Step-1,Increment      1: Step Time =    1.000,"PART-1-1",           106,          -15.,          27.5,            0.,NA,NA,"",       3.48031,      -2.88570,      -1.94558,   10.5854E-09
C:/temp/dataset/3/20_3.odb,Step-1,Increment      1: Step Time =    1.000,"PART-1-1",           107,      -12.5013,       25.0052,            0.,NA,NA,"",       3.23044,      -2.71077,      -1.75713,   14.2127E-09
C:/temp/dataset/3/20_3.odb,Step-1,Increment      1: Step Time =    1.000,"PART-1-1",           108,      -10.0028,       27.5014,            0.,NA,NA,"",       3.30257,      -2.89906,      -1.58192,   15.6989E-09
C:/temp/dataset/3/20_3.odb,Step-1,Increment      1: Step Time =    1.000,"PART-1-1",           109,      -2.49865,       22.5268,            0.,NA,NA,"",       2.75384,      -2.55693,      -1.02262,   26.1774E-09
C:/temp/dataset/3/20_3.odb,Step-1,Increment      1: Step Time =    1.000,"PART-1-1",           110,      -2.51000,       27.5279,            0.,NA,NA,"",       3.09938,      -2.92085,      -1.03670,   30.8015E-09
C:/temp/dataset/3/20_3.odb,Step-1,Increment      1: Step Time =    1.000,"PART-1-1",           111,       12.3864,       22.5464,            0.,NA,NA,"",       2.59853,      -2.59783,   60.5689E-03,   504.098E-09
C:/temp/dataset/3/20_3.odb,Step-1,Increment      1: Step Time =    1.000,"PART-1-1",           112,       7.35369,       17.5509,            0.,NA,NA,"",       2.24008,      -2.22091,  -292.427E-03,   18.9167E-06
C:/temp/dataset/3/20_3.odb,Step-1,Increment      1: Step Time =    1.000,"PART-1-1",           113,       12.3201,       14.9467,            0.,NA,NA,"",       2.04609,      -2.04469,   75.8573E-03,   60.5119E-06
C:/temp/dataset/3/20_3.odb,Step-1,Increment      1: Step Time =    1.000,"PART-1-1",           114,       13.2599,       7.39194,            0.,NA,NA,"",       1.50482,      -1.49578,   164.690E-03,   314.865E-06
C:/temp/dataset/3/20_3.odb,Step-1,Increment      1: Step Time =    1.000,"PART-1-1",           115,       7.60504,      -5.98204,            0.,NA,NA,"",   527.473E-03,  -500.340E-03,  -166.996E-03,   6.60297E-03
C:/temp/dataset/3/20_3.odb,Step-1,Increment      1: Step Time =    1.000,"PART-1-1",           116,       7.71062,      -13.7665,            0.,NA,NA,"",   178.434E-03,  -155.415E-03,  -87.6642E-03,   9.85826E-03
C:/temp/dataset/3/20_3.odb,Step-1,Increment      1: Step Time =    1.000,"PART-1-1",           117,       11.7208,      -22.4938,            0.,NA,NA,"",   15.6420E-03,   4.79674E-03,   14.8883E-03,   5.25390E-03
C:/temp/dataset/3/20_3.odb,Step-1,Increment      1: Step Time =    1.000,"PART-1-1",           118,       2.59328,       2.74806,            0.,NA,NA,"",       1.30598,      -1.15005,  -618.855E-03,   5.77362E-03
C:/temp/dataset/3/20_3.odb,Step-1,Increment      1: Step Time =    1.000,"PART-1-1",           119,      -1.32361,      -2.98462,            0.,NA,NA,"",       1.15304,  -649.682E-03,  -952.586E-03,   3.98232E-03
C:/temp/dataset/3/20_3.odb,Step-1,Increment      1: Step Time =    1.000,"PART-1-1",           120,      -6.00563,       3.11026,            0.,NA,NA,"",       1.83880,      -1.16942,      -1.41903,   3.41791E-03
C:/temp/dataset/3/20_3.odb,Step-1,Increment      1: Step Time =    1.000,"PART-1-1",           121,      -10.4102,       2.53863,            0.,NA,NA,"",       2.12225,      -1.10382,      -1.81260,   325.943E-06
C:/temp/dataset/3/20_3.odb,Step-1,Increment      1: Step Time =    1.000,"PART-1-1",           122,      -12.6184,  -43.2983E-03,            0.,NA,NA,"",       2.17873,  -862.006E-03,      -2.00095,   88.4840E-06
C:/temp/dataset/3/20_3.odb,Step-1,Increment      1: Step Time =    1.000,"PART-1-1",           123,      -3.88272,       3.23189,            0.,NA,NA,"",       1.70261,      -1.18505,      -1.22252,   4.51898E-03
C:/temp/dataset/3/20_3.odb,Step-1,Increment      1: Step Time =    1.000,"PART-1-1",           124,       2.98144,      -22.7363,            0.,NA,NA,"",   21.1947E-03,  -8.78846E-03,  -19.2867E-03,   7.15483E-03
C:/temp/dataset/3/20_3.odb,Step-1,Increment      1: Step Time =    1.000,"PART-1-1",           125,      -2.42987,      -22.6294,            0.,NA,NA,"",   6.10336E-03,  -5.82722E-03,  -1.81507E-03,   570.329E-06
C:/temp/dataset/3/20_3.odb,Step-1,Increment      1: Step Time =    1.000,"PART-1-1",           126,      -9.97348,      -22.5672,            0.,NA,NA,"",   4.25375E-03,  -4.23983E-03,   343.875E-06,   85.6516E-06
C:/temp/dataset/3/20_3.odb,Step-1,Increment      1: Step Time =    1.000,"PART-1-1",           127,      -12.4895,      -25.0402,            0.,NA,NA,"",   3.22823E-03,  -3.21815E-03,  -254.929E-06,   153.235E-06
C:/temp/dataset/3/20_3.odb,Step-1,Increment      1: Step Time =    1.000,"PART-1-1",           128,       12.8561,      -14.2595,            0.,NA,NA,"",   162.198E-03,  -141.181E-03,   79.8505E-03,   8.08122E-03
C:/temp/dataset/3/20_3.odb,Step-1,Increment      1: Step Time =    1.000,"PART-1-1",           129,       12.7281,      -7.33650,            0.,NA,NA,"",   454.423E-03,  -438.896E-03,   117.774E-03,   7.85883E-03
C:/temp/dataset/3/20_3.odb,Step-1,Increment      1: Step Time =    1.000,"PART-1-1",           130,       12.6427,  -96.8002E-03,            0.,NA,NA,"",   937.854E-03,  -928.125E-03,   134.736E-03,   6.08478E-03
C:/temp/dataset/3/20_3.odb,Step-1,Increment      1: Step Time =    1.000,"PART-1-1",           131,       7.13014,       10.3328,            0.,NA,NA,"",       1.71965,      -1.69507,  -289.698E-03,   304.841E-06
C:/temp/dataset/3/20_3.odb,Step-1,Increment      1: Step Time =    1.000,"PART-1-1",           132,       4.95005,       27.5805,            0.,NA,NA,"",       2.98560,      -2.94446,  -493.945E-03,   277.476E-09
C:/temp/dataset/3/20_3.odb,Step-1,Increment      1: Step Time =    1.000,"PART-1-1",           133,      -4.99957,       22.5148,            0.,NA,NA,"",       2.81968,      -2.54943,      -1.20459,   13.1754E-09
C:/temp/dataset/3/20_3.odb,Step-1,Increment      1: Step Time =    1.000,"PART-1-1",           134,      -7.50186,       22.5094,            0.,NA,NA,"",       2.89597,      -2.54240,      -1.38668,   12.0163E-09
C:/temp/dataset/3/20_3.odb,Step-1,Increment      1: Step Time =    1.000,"PART-1-1",           135,       4.93744,       22.5898,            0.,NA,NA,"",       2.62579,      -2.58124,  -481.631E-03,   810.335E-09
C:/temp/dataset/3/20_3.odb,Step-1,Increment      1: Step Time =    1.000,"PART-1-1",           136,       2.47758,       22.5593,            0.,NA,NA,"",       2.65595,      -2.57249,  -660.563E-03,   435.613E-09
C:/temp/dataset/3/20_3.odb,Step-1,Increment      1: Step Time =    1.000,"PART-1-1",           137,  -4.46696E-03,       22.5388,            0.,NA,NA,"",       2.69884,      -2.56441,  -841.138E-03,   97.7380E-09
C:/temp/dataset/3/20_3.odb,Step-1,Increment      1: Step Time =    1.000,"PART-1-1",           138,       7.20686,       12.6699,            0.,NA,NA,"",       1.88764,      -1.86520,  -290.163E-03,   119.959E-06
C:/temp/dataset/3/20_3.odb,Step-1,Increment      1: Step Time =    1.000,"PART-1-1",           139,       7.30679,       15.0771,            0.,NA,NA,"",       2.06111,      -2.04071,  -289.293E-03,   56.7257E-06
C:/temp/dataset/3/20_3.odb,Step-1,Increment      1: Step Time =    1.000,"PART-1-1",           140,       7.52839,       5.66323,            0.,NA,NA,"",       1.38215,      -1.35993,  -246.830E-03,   3.50413E-03
C:/temp/dataset/3/20_3.odb,Step-1,Increment      1: Step Time =    1.000,"PART-1-1",           141,       7.20823,       7.96221,            0.,NA,NA,"",       1.54871,      -1.52366,  -277.445E-03,   1.25545E-03
C:/temp/dataset/3/20_3.odb,Step-1,Increment      1: Step Time =    1.000,"PART-1-1",           142,      -1.77433,       3.17490,            0.,NA,NA,"",       1.56380,      -1.18346,      -1.02220,   5.68292E-03
C:/temp/dataset/3/20_3.odb,Step-1,Increment      1: Step Time =    1.000,"PART-1-1",           143,   347.975E-03,       3.01142,            0.,NA,NA,"",       1.43096,      -1.17144,  -821.822E-03,   5.43089E-03
C:/temp/dataset/3/20_3.odb,Step-1,Increment      1: Step Time =    1.000,"PART-1-1",           144,      -8.17775,       2.85153,            0.,NA,NA,"",       1.97626,      -1.14012,      -1.61422,   1.84404E-03
C:/temp/dataset/3/20_3.odb,Step-1,Increment      1: Step Time =    1.000,"PART-1-1",           145,      -8.45397,      -3.03463,            0.,NA,NA,"",       1.72207,  -608.457E-03,      -1.61100,   367.207E-06
C:/temp/dataset/3/20_3.odb,Step-1,Increment      1: Step Time =    1.000,"PART-1-1",           146,      -12.6978,       2.46856,            0.,NA,NA,"",       2.29289,      -1.08808,      -2.01827,   176.710E-06
C:/temp/dataset/3/20_3.odb,Step-1,Increment      1: Step Time =    1.000,"PART-1-1",           147,      -10.5225,      -2.72745,            0.,NA,NA,"",       1.90662,  -627.763E-03,      -1.80031,   67.1806E-06
C:/temp/dataset/3/20_3.odb,Step-1,Increment      1: Step Time =    1.000,"PART-1-1",           148,      -12.7265,      -2.55241,            0.,NA,NA,"",       2.09871,  -634.592E-03,      -2.00047,   147.540E-06
C:/temp/dataset/3/20_3.odb,Step-1,Increment      1: Step Time =    1.000,"PART-1-1",           149,      -3.80700,      -2.48494,            0.,NA,NA,"",       1.36601,  -679.506E-03,      -1.18501,   2.77705E-03
C:/temp/dataset/3/20_3.odb,Step-1,Increment      1: Step Time =    1.000,"PART-1-1",           150,      -6.26959,      -2.94549,            0.,NA,NA,"",       1.54380,  -626.040E-03,      -1.41116,   1.20611E-03
C:/temp/dataset/3/20_3.odb,Step-1,Increment      1: Step Time =    1.000,"PART-1-1",           151,       2.97297,      -3.34056,            0.,NA,NA,"",   858.762E-03,  -652.973E-03,  -557.762E-03,   10.7089E-03
C:/temp/dataset/3/20_3.odb,Step-1,Increment      1: Step Time =    1.000,"PART-1-1",           152,   836.982E-03,      -3.21922,            0.,NA,NA,"",   991.781E-03,  -645.624E-03,  -752.861E-03,   6.13655E-03
C:/temp/dataset/3/20_3.odb,Step-1,Increment      1: Step Time =    1.000,"PART-1-1",           153,       7.27849,      -10.7647,            0.,NA,NA,"",   300.784E-03,  -268.557E-03,  -135.456E-03,   11.8442E-03
C:/temp/dataset/3/20_3.odb,Step-1,Increment      1: Step Time =    1.000,"PART-1-1",           154,       7.20650,      -8.25133,            0.,NA,NA,"",   416.918E-03,  -382.470E-03,  -165.943E-03,   12.7794E-03
C:/temp/dataset/3/20_3.odb,Step-1,Increment      1: Step Time =    1.000,"PART-1-1",           155,       7.07274,      -17.3233,            0.,NA,NA,"",   92.6845E-03,  -60.3605E-03,  -70.3351E-03,   12.2107E-03
C:/temp/dataset/3/20_3.odb,Step-1,Increment      1: Step Time =    1.000,"PART-1-1",           156,       6.55788,      -15.2577,            0.,NA,NA,"",   157.134E-03,  -115.388E-03,  -106.662E-03,   14.6761E-03
C:/temp/dataset/3/20_3.odb,Step-1,Increment      1: Step Time =    1.000,"PART-1-1",           157,      -7.46685,      -22.5818,            0.,NA,NA,"",   4.55128E-03,  -4.51423E-03,   579.536E-06,   172.709E-06
C:/temp/dataset/3/20_3.odb,Step-1,Increment      1: Step Time =    1.000,"PART-1-1",           158,      -4.95694,      -22.5955,            0.,NA,NA,"",   5.04573E-03,  -5.04438E-03,   116.562E-06,   314.016E-06
C:/temp/dataset/3/20_3.odb,Step-1,Increment      1: Step Time =    1.000,"PART-1-1",           159,   146.162E-03,      -22.6598,            0.,NA,NA,"",   10.5253E-03,  -7.78179E-03,  -7.08693E-03,   2.06296E-03
C:/temp/dataset/3/20_3.odb,Step-1,Increment      1: Step Time =    1.000,"PART-1-1",           160,      -12.4860,      -22.5306,            0.,NA,NA,"",   4.14424E-03,  -4.13641E-03,  -254.730E-06,   28.7232E-06
C:/temp/dataset/3/20_3.odb,Step-1,Increment      1: Step Time =    1.000,"PART-1-1",           161,       9.96020,      -27.7814,            0.,NA,NA,"",   8.02581E-03,   8.01301E-03,  -453.106E-06,   2.90621E-03
C:/temp/dataset/3/20_3.odb,Step-1,Increment      1: Step Time =    1.000,"PART-1-1",           162,       7.44077,      -27.8946,            0.,NA,NA,"",   6.75524E-03,   5.03547E-03,  -4.50304E-03,   3.68096E-03
C:/temp/dataset/3/20_3.odb,Step-1,Increment      1: Step Time =    1.000,"PART-1-1",           163,       4.93217,      -27.8625,            0.,NA,NA,"",   5.95675E-03,   522.794E-06,  -5.93376E-03,   4.01401E-03
C:/temp/dataset/3/20_3.odb,Step-1,Increment      1: Step Time =    1.000,"PART-1-1",           164,       2.47767,      -27.7470,            0.,NA,NA,"",   5.78977E-03,  -3.05694E-03,  -4.91697E-03,   3.21147E-03
C:/temp/dataset/3/20_3.odb,Step-1,Increment      1: Step Time =    1.000,"PART-1-1",           165,   19.5837E-03,      -27.6625,            0.,NA,NA,"",   5.27093E-03,  -4.43411E-03,  -2.84980E-03,   2.13486E-03
C:/temp/dataset/3/20_3.odb,Step-1,Increment      1: Step Time =    1.000,"PART-1-1",           166,      -2.46955,      -27.6154,            0.,NA,NA,"",   4.40262E-03,  -4.22302E-03,  -1.24465E-03,   1.38331E-03
C:/temp/dataset/3/20_3.odb,Step-1,Increment      1: Step Time =    1.000,"PART-1-1",           167,      -4.97450,      -27.5844,            0.,NA,NA,"",   3.41542E-03,  -3.39527E-03,  -370.486E-06,   947.015E-06
C:/temp/dataset/3/20_3.odb,Step-1,Increment      1: Step Time =    1.000,"PART-1-1",           168,      -7.48283,      -27.5594,            0.,NA,NA,"",   2.59436E-03,  -2.59401E-03,  -42.9409E-06,   680.789E-06
C:/temp/dataset/3/20_3.odb,Step-1,Increment      1: Step Time =    1.000,"PART-1-1",           169,       12.2865,      -25.1793,            0.,NA,NA,"",   15.3075E-03,   10.1546E-03,   11.4545E-03,   4.85539E-03
C:/temp/dataset/3/20_3.odb,Step-1,Increment      1: Step Time =    1.000,"PART-1-1",           170,       11.6753,      -16.4340,            0.,NA,NA,"",   85.2915E-03,  -77.6206E-03,   35.3509E-03,   4.33076E-03
C:/temp/dataset/3/20_3.odb,Step-1,Increment      1: Step Time =    1.000,"PART-1-1",           171,       11.9685,      -19.5802,            0.,NA,NA,"",   35.5629E-03,  -20.7058E-03,   28.9135E-03,   5.72401E-03
C:/temp/dataset/3/20_3.odb,Step-1,Increment      1: Step Time =    1.000,"PART-1-1",           172,       13.3291,      -9.93034,            0.,NA,NA,"",   336.570E-03,  -310.480E-03,   129.929E-03,   9.94123E-03
C:/temp/dataset/3/20_3.odb,Step-1,Increment      1: Step Time =    1.000,"PART-1-1",           173,       13.4212,      -12.1607,            0.,NA,NA,"",   245.719E-03,  -216.884E-03,   115.496E-03,   10.2660E-03
C:/temp/dataset/3/20_3.odb,Step-1,Increment      1: Step Time =    1.000,"PART-1-1",           174,       12.9633,      -2.52247,            0.,NA,NA,"",   765.102E-03,  -749.659E-03,   152.945E-03,   7.38412E-03
C:/temp/dataset/3/20_3.odb,Step-1,Increment      1: Step Time =    1.000,"PART-1-1",           175,       13.1247,      -4.84738,            0.,NA,NA,"",   610.786E-03,  -591.111E-03,   153.777E-03,   8.64975E-03
C:/temp/dataset/3/20_3.odb,Step-1,Increment      1: Step Time =    1.000,"PART-1-1",           176,       13.1131,       5.12757,            0.,NA,NA,"",       1.33658,      -1.32698,   159.919E-03,   1.38891E-03
C:/temp/dataset/3/20_3.odb,Step-1,Increment      1: Step Time =    1.000,"PART-1-1",           177,       12.1418,       2.60140,            0.,NA,NA,"",       1.13718,      -1.13310,   96.2339E-03,   4.15701E-03
C:/temp/dataset/3/20_3.odb,Step-1,Increment      1: Step Time =    1.000,"PART-1-1",           178,       12.1760,       12.1629,            0.,NA,NA,"",       1.84319,      -1.84175,   72.6681E-03,   120.287E-06
C:/temp/dataset/3/20_3.odb,Step-1,Increment      1: Step Time =    1.000,"PART-1-1",           179,       13.0236,       9.64002,            0.,NA,NA,"",       1.66611,      -1.66011,   141.252E-03,   82.7789E-06
C:/temp/dataset/3/20_3.odb,Step-1,Increment      1: Step Time =    1.000,"PART-1-1",           180,       12.3784,       20.0377,            0.,NA,NA,"",       2.41617,      -2.41525,   66.6372E-03,   4.64369E-06
C:/temp/dataset/3/20_3.odb,Step-1,Increment      1: Step Time =    1.000,"PART-1-1",           181,       12.3660,       17.5135,            0.,NA,NA,"",       2.23272,      -2.23155,   72.4200E-03,   19.7388E-06
C:/temp/dataset/3/20_3.odb,Step-1,Increment      1: Step Time =    1.000,"PART-1-1",           182,       12.4264,       25.0333,            0.,NA,NA,"",       2.77949,      -2.77891,   56.8870E-03,   570.896E-09
C:/temp/dataset/3/20_3.odb,Step-1,Increment      1: Step Time =    1.000,"PART-1-1",           183,       7.43491,       27.5684,            0.,NA,NA,"",       2.96673,      -2.95017,  -313.079E-03,   255.192E-09
C:/temp/dataset/3/20_3.odb,Step-1,Increment      1: Step Time =    1.000,"PART-1-1",           184,  -17.4965E-03,       27.5503,            0.,NA,NA,"",       3.05143,      -2.92909,  -855.374E-03,   78.6800E-09
C:/temp/dataset/3/20_3.odb,Step-1,Increment      1: Step Time =    1.000,"PART-1-1",           185,       2.47067,       27.5656,            0.,NA,NA,"",       3.01323,      -2.93680,  -674.340E-03,   191.678E-09
C:/temp/dataset/3/20_3.odb,Step-1,Increment      1: Step Time =    1.000,"PART-1-1",           186,      -7.50286,       27.5043,            0.,NA,NA,"",       3.22556,      -2.90590,      -1.39999,   18.2683E-09
C:/temp/dataset/3/20_3.odb,Step-1,Increment      1: Step Time =    1.000,"PART-1-1",           187,      -5.00635,       27.5119,            0.,NA,NA,"",       3.15758,      -2.91307,      -1.21833,   21.7327E-09
C:/temp/dataset/3/20_3.odb,Step-1,Increment      1: Step Time =    1.000,"PART-1-1",           188,      -12.5019,       27.5019,            0.,NA,NA,"",       3.38782,      -2.89247,      -1.76379,   13.4842E-09
C:/temp/dataset/3/20_3.odb,Step-1,Increment      1: Step Time =    1.000,"PART-1-1",           189,      -12.5001,       22.5034,            0.,NA,NA,"",       3.07543,      -2.52871,      -1.75040,   11.5953E-09
C:/temp/dataset/3/20_3.odb,Step-1,Increment      1: Step Time =    1.000,"PART-1-1",           190,      -5.00429,       25.0191,            0.,NA,NA,"",       2.98829,      -2.73166,      -1.21157,   15.8611E-09
C:/temp/dataset/3/20_3.odb,Step-1,Increment      1: Step Time =    1.000,"PART-1-1",           191,  -15.9173E-03,       25.0642,            0.,NA,NA,"",       2.87623,      -2.74817,  -848.668E-03,   91.9368E-09
C:/temp/dataset/3/20_3.odb,Step-1,Increment      1: Step Time =    1.000,"PART-1-1",           192,       9.74355,       15.0604,            0.,NA,NA,"",       2.04910,      -2.04603,  -112.007E-03,   63.6661E-06
C:/temp/dataset/3/20_3.odb,Step-1,Increment      1: Step Time =    1.000,"PART-1-1",           193,       9.51986,       12.6989,            0.,NA,NA,"",       1.87754,      -1.87356,  -122.170E-03,   129.082E-06
C:/temp/dataset/3/20_3.odb,Step-1,Increment      1: Step Time =    1.000,"PART-1-1",           194,       12.1898,      -11.7554,            0.,NA,NA,"",   237.890E-03,  -227.258E-03,   70.3242E-03,   5.81970E-03
C:/temp/dataset/3/20_3.odb,Step-1,Increment      1: Step Time =    1.000,"PART-1-1",           195,       9.78251,      -13.4248,            0.,NA,NA,"",   163.647E-03,  -162.429E-03,  -19.9269E-03,   2.67625E-03
C:/temp/dataset/3/20_3.odb,Step-1,Increment      1: Step Time =    1.000,"PART-1-1",           196,       7.24032,      -19.5057,            0.,NA,NA,"",   50.9154E-03,  -18.4687E-03,  -47.4477E-03,   7.31172E-03
C:/temp/dataset/3/20_3.odb,Step-1,Increment      1: Step Time =    1.000,"PART-1-1",           197,      -10.0066,  -139.817E-03,            0.,NA,NA,"",       1.96476,  -863.925E-03,      -1.76463,   339.965E-06
C:/temp/dataset/3/20_3.odb,Step-1,Increment      1: Step Time =    1.000,"PART-1-1",           198,      -8.39380,      -1.43672,            0.,NA,NA,"",       1.77966,  -753.243E-03,      -1.61239,   693.936E-06
C:/temp/dataset/3/20_3.odb,Step-1,Increment      1: Step Time =    1.000,"PART-1-1",           199,      -5.07121,  -530.035E-03,            0.,NA,NA,"",       1.56119,  -847.663E-03,      -1.31103,   2.81851E-03
C:/temp/dataset/3/20_3.odb,Step-1,Increment      1: Step Time =    1.000,"PART-1-1",           200,      -12.5003,      -27.5198,            0.,NA,NA,"",   1.79253E-03,  -1.77736E-03,  -232.714E-06,   433.794E-06
C:/temp/dataset/3/20_3.odb,Step-1,Increment      1: Step Time =    1.000,"PART-1-1",           201,       8.97180,      -8.86122,            0.,NA,NA,"",   356.892E-03,  -349.143E-03,  -73.9645E-03,   4.96840E-03
C:/temp/dataset/3/20_3.odb,Step-1,Increment      1: Step Time =    1.000,"PART-1-1",           202,      -2.50561,       25.0360,            0.,NA,NA,"",       2.92667,      -2.73951,      -1.02978,   29.9768E-09
C:/temp/dataset/3/20_3.odb,Step-1,Increment      1: Step Time =    1.000,"PART-1-1",           203,      -7.50383,       25.0106,            0.,NA,NA,"",       3.06009,      -2.72442,      -1.39345,   14.3545E-09
C:/temp/dataset/3/20_3.odb,Step-1,Increment      1: Step Time =    1.000,"PART-1-1",           204,       2.46362,       25.0850,            0.,NA,NA,"",       2.83612,      -2.75626,  -668.277E-03,   274.229E-09
C:/temp/dataset/3/20_3.odb,Step-1,Increment      1: Step Time =    1.000,"PART-1-1",           205,       9.17638,       10.5785,            0.,NA,NA,"",       1.72424,      -1.71840,  -141.789E-03,   150.728E-06
C:/temp/dataset/3/20_3.odb,Step-1,Increment      1: Step Time =    1.000,"PART-1-1",           206,       9.65111,       6.46520,            0.,NA,NA,"",       1.42329,      -1.42008,  -95.5230E-03,   1.56312E-03
C:/temp/dataset/3/20_3.odb,Step-1,Increment      1: Step Time =    1.000,"PART-1-1",           207,      -1.99278,       1.34592,            0.,NA,NA,"",       1.45320,      -1.02300,      -1.03211,   5.26895E-03
C:/temp/dataset/3/20_3.odb,Step-1,Increment      1: Step Time =    1.000,"PART-1-1",           208,      -5.69490,       1.29843,            0.,NA,NA,"",       1.70805,      -1.00816,      -1.37879,   3.04785E-03
C:/temp/dataset/3/20_3.odb,Step-1,Increment      1: Step Time =    1.000,"PART-1-1",           209,       1.92780,   665.778E-03,            0.,NA,NA,"",       1.18307,  -977.352E-03,  -666.662E-03,   5.04547E-03
C:/temp/dataset/3/20_3.odb,Step-1,Increment      1: Step Time =    1.000,"PART-1-1",           210,       1.26043,      -1.37778,            0.,NA,NA,"",       1.07941,  -805.547E-03,  -718.482E-03,   5.47123E-03
C:/temp/dataset/3/20_3.odb,Step-1,Increment      1: Step Time =    1.000,"PART-1-1",           211,       9.14691,      -16.8280,            0.,NA,NA,"",   70.9321E-03,  -65.8479E-03,  -26.3710E-03,   3.91634E-03
C:/temp/dataset/3/20_3.odb,Step-1,Increment      1: Step Time =    1.000,"PART-1-1",           212,   79.9954E-03,      -25.2148,            0.,NA,NA,"",   9.17004E-03,  -7.14670E-03,  -5.74581E-03,   2.20433E-03
C:/temp/dataset/3/20_3.odb,Step-1,Increment      1: Step Time =    1.000,"PART-1-1",           213,      -9.97865,      -25.0679,            0.,NA,NA,"",   3.48305E-03,  -3.47835E-03,   180.983E-06,   286.573E-06
C:/temp/dataset/3/20_3.odb,Step-1,Increment      1: Step Time =    1.000,"PART-1-1",           214,       12.4671,      -27.6040,            0.,NA,NA,"",   8.97740E-03,   7.27226E-03,   5.26383E-03,   4.26547E-03
C:/temp/dataset/3/20_3.odb,Step-1,Increment      1: Step Time =    1.000,"PART-1-1",           215,       9.82463,      -25.6838,            0.,NA,NA,"",   11.0986E-03,   10.8569E-03,  -2.30399E-03,   3.77049E-03
C:/temp/dataset/3/20_3.odb,Step-1,Increment      1: Step Time =    1.000,"PART-1-1",           216,       2.56344,      -25.3828,            0.,NA,NA,"",   13.0736E-03,  -6.05723E-03,  -11.5858E-03,   4.13494E-03
C:/temp/dataset/3/20_3.odb,Step-1,Increment      1: Step Time =    1.000,"PART-1-1",           217,      -2.44121,      -25.1518,            0.,NA,NA,"",   6.54200E-03,  -6.26215E-03,  -1.89295E-03,   1.18936E-03
C:/temp/dataset/3/20_3.odb,Step-1,Increment      1: Step Time =    1.000,"PART-1-1",           218,      -4.95889,      -25.1139,            0.,NA,NA,"",   5.07627E-03,  -5.07105E-03,  -229.980E-06,   682.286E-06
C:/temp/dataset/3/20_3.odb,Step-1,Increment      1: Step Time =    1.000,"PART-1-1",           219,       10.3279,  -771.646E-03,            0.,NA,NA,"",   870.829E-03,  -870.634E-03,  -18.3996E-03,   7.20398E-03
C:/temp/dataset/3/20_3.odb,Step-1,Increment      1: Step Time =    1.000,"PART-1-1",           220,       10.4049,       4.48083,            0.,NA,NA,"",       1.27399,      -1.27355,  -33.4443E-03,   3.18728E-03
C:/temp/dataset/3/20_3.odb,Step-1,Increment      1: Step Time =    1.000,"PART-1-1",           221,       9.80969,       17.5478,            0.,NA,NA,"",       2.23013,      -2.22723,  -113.713E-03,   22.3085E-06
C:/temp/dataset/3/20_3.odb,Step-1,Increment      1: Step Time =    1.000,"PART-1-1",           222,       9.88106,       25.0797,            0.,NA,NA,"",       2.77852,      -2.77554,  -128.466E-03,   375.320E-09
C:/temp/dataset/3/20_3.odb,Step-1,Increment      1: Step Time =    1.000,"PART-1-1",           223,       9.94975,       27.5346,            0.,NA,NA,"",       2.95724,      -2.95438,  -129.977E-03,   343.324E-09
C:/temp/dataset/3/20_3.odb,Step-1,Increment      1: Step Time =    1.000,"PART-1-1",           224,       7.36779,       20.0596,            0.,NA,NA,"",       2.42195,      -2.40354,  -298.054E-03,   3.82563E-06
C:/temp/dataset/3/20_3.odb,Step-1,Increment      1: Step Time =    1.000,"PART-1-1",           225,  -693.206E-03,      -1.01900,            0.,NA,NA,"",       1.22090,  -824.880E-03,  -900.090E-03,   5.04810E-03
C:/temp/dataset/3/20_3.odb,Step-1,Increment      1: Step Time =    1.000,"PART-1-1",           226,      -7.47194,      -25.0831,            0.,NA,NA,"",   4.10665E-03,  -4.09795E-03,   267.021E-06,   456.841E-06
C:/temp/dataset/3/20_3.odb,Step-1,Increment      1: Step Time =    1.000,"PART-1-1",           227,       5.28089,       2.25097,            0.,NA,NA,"",       1.17585,      -1.10775,  -394.341E-03,   4.91221E-03
C:/temp/dataset/3/20_3.odb,Step-1,Increment      1: Step Time =    1.000,"PART-1-1",           228,       9.26575,       8.45073,            0.,NA,NA,"",       1.56943,      -1.56406,  -129.748E-03,   521.401E-06
C:/temp/dataset/3/20_3.odb,Step-1,Increment      1: Step Time =    1.000,"PART-1-1",           229,  -81.3472E-03,       1.02952,            0.,NA,NA,"",       1.31474,      -1.00177,  -851.465E-03,   5.45574E-03
C:/temp/dataset/3/20_3.odb,Step-1,Increment      1: Step Time =    1.000,"PART-1-1",           230,      -7.67687,   831.326E-03,            0.,NA,NA,"",       1.83005,  -960.139E-03,      -1.55795,   1.50999E-03
C:/temp/dataset/3/20_3.odb,Step-1,Increment      1: Step Time =    1.000,"PART-1-1",           231,      -2.54090,  -531.417E-03,            0.,NA,NA,"",       1.37515,  -858.044E-03,      -1.07461,   4.34933E-03
C:/temp/dataset/3/20_3.odb,Step-1,Increment      1: Step Time =    1.000,"PART-1-1",           232,      -3.83997,       1.55066,            0.,NA,NA,"",       1.59074,      -1.03572,      -1.20736,   4.39508E-03
C:/temp/dataset/3/20_3.odb,Step-1,Increment      1: Step Time =    1.000,"PART-1-1",           233,      -6.84494,  -996.203E-03,            0.,NA,NA,"",       1.67549,  -799.065E-03,      -1.47267,   1.55449E-03
C:/temp/dataset/3/20_3.odb,Step-1,Increment      1: Step Time =    1.000,"PART-1-1",           234,       5.51335,      -3.03354,            0.,NA,NA,"",   768.994E-03,  -692.224E-03,  -334.930E-03,   10.1748E-03
C:/temp/dataset/3/20_3.odb,Step-1,Increment      1: Step Time =    1.000,"PART-1-1",           235,       9.62476,      -7.14735,            0.,NA,NA,"",   440.192E-03,  -437.632E-03,  -47.3985E-03,   2.71307E-03
C:/temp/dataset/3/20_3.odb,Step-1,Increment      1: Step Time =    1.000,"PART-1-1",           236,       7.38903,      -25.9371,            0.,NA,NA,"",   12.8101E-03,   6.39755E-03,  -11.0982E-03,   4.93500E-03
C:/temp/dataset/3/20_3.odb,Step-1,Increment      1: Step Time =    1.000,"PART-1-1",           237,       4.96373,      -25.7856,            0.,NA,NA,"",   14.4777E-03,  -534.399E-06,  -14.4678E-03,   5.46274E-03
C:/temp/dataset/3/20_3.odb,Step-1,Increment      1: Step Time =    1.000,"PART-1-1",           238,       9.37191,      -21.3805,            0.,NA,NA,"",   12.2114E-03,   509.254E-06,  -12.2008E-03,   4.57518E-03
C:/temp/dataset/3/20_3.odb,Step-1,Increment      1: Step Time =    1.000,"PART-1-1",           239,       9.53380,      -19.3691,            0.,NA,NA,"",   22.9048E-03,  -19.2675E-03,  -12.3852E-03,   3.28487E-03
C:/temp/dataset/3/20_3.odb,Step-1,Increment      1: Step Time =    1.000,"PART-1-1",           240,       10.5518,      -5.76730,            0.,NA,NA,"",   520.620E-03,  -520.615E-03,   2.27085E-03,   3.65190E-03
C:/temp/dataset/3/20_3.odb,Step-1,Increment      1: Step Time =    1.000,"PART-1-1",           241,       10.8494,      -2.88140,            0.,NA,NA,"",   715.393E-03,  -715.137E-03,   19.1306E-03,   6.68602E-03
C:/temp/dataset/3/20_3.odb,Step-1,Increment      1: Step Time =    1.000,"PART-1-1",           242,       9.33979,       1.27198,            0.,NA,NA,"",       1.03185,      -1.02759,  -93.6029E-03,   6.94829E-03
C:/temp/dataset/3/20_3.odb,Step-1,Increment      1: Step Time =    1.000,"PART-1-1",           243,       9.83335,       20.0603,            0.,NA,NA,"",       2.41306,      -2.41014,  -118.633E-03,   5.30995E-06
C:/temp/dataset/3/20_3.odb,Step-1,Increment      1: Step Time =    1.000,"PART-1-1",           244,       7.39102,       25.1069,            0.,NA,NA,"",       2.78818,      -2.77092,  -309.747E-03,   356.242E-09
C:/temp/dataset/3/20_3.odb,Step-1,Increment      1: Step Time =    1.000,"PART-1-1",           245,       4.93408,       25.0979,            0.,NA,NA,"",       2.80659,      -2.76375,  -488.525E-03,   353.901E-09
C:/temp/dataset/3/20_3.odb,Step-1,Increment      1: Step Time =    1.000,"PART-1-1",           246,      -10.0026,       25.0068,            0.,NA,NA,"",       3.14108,      -2.71751,      -1.57529,   13.9406E-09
C:/temp/dataset/3/20_3.odb,Step-1,Increment      1: Step Time =    1.000,"PART-1-1",           247,      -10.0008,       22.5051,            0.,NA,NA,"",       2.98142,      -2.53546,      -1.56853,   11.1427E-09
C:/temp/dataset/3/20_3.odb,Step-1,Increment      1: Step Time =    1.000,"PART-1-1",           248,      -9.99283,      -27.5363,            0.,NA,NA,"",   2.02480E-03,  -2.02479E-03,  -7.32334E-06,   515.023E-06
C:/temp/dataset/3/20_3.odb,Step-1,Increment      1: Step Time =    1.000,"PART-1-1",           249,       3.80746,   187.829E-03,            0.,NA,NA,"",       1.06751,  -942.860E-03,  -500.585E-03,   4.03753E-03
C:/temp/dataset/3/20_3.odb,Step-1,Increment      1: Step Time =    1.000,"PART-1-1",           250,       11.4886,       7.12458,            0.,NA,NA,"",       1.47223,      -1.47179,   36.0578E-03,   787.981E-06
C:/temp/dataset/3/20_3.odb,Step-1,Increment      1: Step Time =    1.000,"PART-1-1",           251,       5.25951,      -23.9756,            0.,NA,NA,"",   23.8296E-03,  -2.25878E-03,  -23.7223E-03,   7.42056E-03
C:/temp/dataset/3/20_3.odb,Step-1,Increment      1: Step Time =    1.000,"PART-1-1",           252,       9.85798,       22.5791,            0.,NA,NA,"",       2.59645,      -2.59351,  -123.515E-03,   986.420E-09
C:/temp/dataset/3/20_3.odb,Step-1,Increment      1: Step Time =    1.000,"PART-1-1",           253,       7.38133,       22.5911,            0.,NA,NA,"",       2.60558,      -2.58781,  -303.781E-03,   687.772E-09
C:/temp/dataset/3/20_3.odb,Step-1,Increment      1: Step Time =    1.000,"PART-1-1",           254,       9.03817,      -10.9527,            0.,NA,NA,"",   262.694E-03,  -255.976E-03,  -59.0262E-03,   5.25290E-03
C:/temp/dataset/3/20_3.odb,Step-1,Increment      1: Step Time =    1.000,"PART-1-1",           255,       7.30212,      -21.2110,            0.,NA,NA,"",   36.5908E-03,  -2.51281E-03,  -36.5044E-03,   8.01352E-03
C:/temp/dataset/3/20_3.odb,Step-1,Increment      1: Step Time =    1.000,"PART-1-1",           256,       8.48263,      -3.88795,            0.,NA,NA,"",   648.592E-03,  -636.541E-03,  -124.450E-03,   7.11924E-03
C:/temp/dataset/3/20_3.odb,Step-1,Increment      1: Step Time =    1.000,"PART-1-1",           257,       8.48912,      -1.65164,            0.,NA,NA,"",   811.887E-03,  -800.525E-03,  -135.357E-03,   8.05115E-03
C:/temp/dataset/3/20_3.odb,Step-1,Increment      1: Step Time =    1.000,"PART-1-1",           258,       8.19007,       3.36514,            0.,NA,NA,"",       1.20417,      -1.18962,  -186.674E-03,   6.27994E-03
C:/temp/dataset/3/20_3.odb,Step-1,Increment      1: Step Time =    1.000,"PART-1-1",           259,       6.78208,  -317.133E-03,            0.,NA,NA,"",   941.535E-03,  -903.938E-03,  -263.410E-03,   6.58716E-03
C:/temp/dataset/3/20_3.odb,Step-1,Increment      1: Step Time =    1.000,"PART-1-1",           260,       11.8604,      -10.2109,            0.,NA,NA,"",   297.763E-03,  -291.129E-03,   62.5002E-03,   4.78158E-03
C:/temp/dataset/3/20_3.odb,Step-1,Increment      1: Step Time =    1.000,"PART-1-1",           261,       5.00218,  -627.613E-03,            0.,NA,NA,"",   964.624E-03,  -879.124E-03,  -397.041E-03,   5.30258E-03
C:/temp/dataset/3/20_3.odb,Step-1,Increment      1: Step Time =    1.000,"PART-1-1",           262,       11.1460,      -8.45072,            0.,NA,NA,"",   374.307E-03,  -372.879E-03,   32.6560E-03,   2.89842E-03
C:/temp/dataset/3/20_3.odb,Step-1,Increment      1: Step Time =    1.000,"PART-1-1",           263,       11.7180,       5.54683,            0.,NA,NA,"",       1.35645,      -1.35523,   57.5333E-03,   1.71495E-03
C:/temp/dataset/3/20_3.odb,Step-1,Increment      1: Step Time =    1.000,"PART-1-1",           264,       5.25136,      -21.5985,            0.,NA,NA,"",   41.4077E-03,  -7.78028E-03,  -40.6702E-03,   11.7864E-03
C:/temp/dataset/3/20_3.odb,Step-1,Increment      1: Step Time =    1.000,"PART-1-1",           265,       12.4723,       27.5096,            0.,NA,NA,"",       2.95973,      -2.95924,   53.6647E-03,   480.085E-09
C:/temp/dataset/3/20_3.odb,Step-1,Increment      1: Step Time =    1.000,"PART-1-1",           266,       5.87727,      -22.7682,            0.,NA,NA,"",   32.0790E-03,  -2.84829E-03,  -31.9523E-03,   8.40349E-03
C:/temp/dataset/3/20_3.odb,Step-1,Increment      1: Step Time =    1.000,"PART-1-1",           267,       7.32369,      -22.7299,            0.,NA,NA,"",   27.2588E-03,   2.92134E-03,  -27.1018E-03,   7.40415E-03
C:/temp/dataset/3/20_3.odb,Step-1,Increment      1: Step Time =    1.000,"PART-1-1",           268,       11.4923,      -4.55460,            0.,NA,NA,"",   604.946E-03,  -602.189E-03,   57.6926E-03,   6.04049E-03
C:/temp/dataset/3/20_3.odb,Step-1,Increment      1: Step Time =    1.000,"PART-1-1",           269,       11.2115,       8.96325,            0.,NA,NA,"",       1.60599,      -1.60595,   10.7038E-03,   218.803E-06
C:/temp/dataset/3/20_3.odb,Step-1,Increment      1: Step Time =    1.000,"PART-1-1",           270,       10.8046,       10.5255,            0.,NA,NA,"",       1.71899,      -1.71883,  -23.0638E-03,   144.244E-06
C:/temp/dataset/3/20_3.odb,Step-1,Increment      1: Step Time =    1.000,"PART-1-1",           271,       7.35536,      -24.2380,            0.,NA,NA,"",   19.3389E-03,   5.48634E-03,  -18.5444E-03,   6.16024E-03
C:/temp/dataset/3/20_3.odb,Step-1,Increment      1: Step Time =    1.000,"PART-1-1",           272,      -3.82134,   150.711E-03,            0.,NA,NA,"",       1.50584,  -912.551E-03,      -1.19783,   3.87371E-03
C:/temp/dataset/3/20_3.odb,Step-1,Increment      1: Step Time =    1.000,"PART-1-1",           273,       3.09609,      -1.70207,            0.,NA,NA,"",   962.679E-03,  -789.312E-03,  -551.124E-03,   6.72593E-03
C:/temp/dataset/3/20_3.odb,Step-1,Increment      1: Step Time =    1.000,"PART-1-1",           274,       4.56419,      -1.78689,            0.,NA,NA,"",   894.047E-03,  -787.470E-03,  -423.333E-03,   6.45928E-03
C:/temp/dataset/3/20_3.odb,Step-1,Increment      1: Step Time =    1.000,"PART-1-1",           275,       9.44492,      -23.8624,            0.,NA,NA,"",   11.8720E-03,   9.53234E-03,  -7.07667E-03,   4.71636E-03
C:/temp/dataset/3/20_3.odb,Step-1,Increment      1: Step Time =    1.000,"PART-1-1",           276,       8.77427,      -22.6651,            0.,NA,NA,"",   16.7667E-03,   5.90301E-03,  -15.6932E-03,   5.38781E-03
C:/temp/dataset/3/20_3.odb,Step-1,Increment      1: Step Time =    1.000,"PART-1-1",           277,       10.1837,      -9.28900,            0.,NA,NA,"",   330.011E-03,  -329.725E-03,  -13.7510E-03,   1.04766E-03
C:/temp/dataset/3/20_3.odb,Step-1,Increment      1: Step Time =    1.000,"PART-1-1",           278,       10.4979,      -10.7612,            0.,NA,NA,"",   264.094E-03,  -264.083E-03,   2.42460E-03,   455.692E-06
C:/temp/dataset/3/20_3.odb,Step-1,Increment      1: Step Time =    1.000,"PART-1-1",           279,       11.2325,      -12.6180,            0.,NA,NA,"",   194.349E-03,  -191.822E-03,   31.2380E-03,   2.43655E-03
C:/temp/dataset/3/20_3.odb,Step-1,Increment      1: Step Time =    1.000,"PART-1-1",           280,      -13.7500,       22.5017,            0.,NA,NA,"",       3.12532,      -2.52527,      -1.84136,   13.6018E-09
C:/temp/dataset/3/20_3.odb,Step-1,Increment      1: Step Time =    1.000,"PART-1-1",           281,          -15.,         21.25,            0.,NA,NA,"",       3.10325,      -2.43086,      -1.92901,   14.3841E-09
C:/temp/dataset/3/20_3.odb,Step-1,Increment      1: Step Time =    1.000,"PART-1-1",           282,        -13.75,           20.,            0.,NA,NA,"",       2.97605,      -2.34321,      -1.83473,   10.6699E-09
C:/temp/dataset/3/20_3.odb,Step-1,Increment      1: Step Time =    1.000,"PART-1-1",           283,      -12.5000,       21.2517,            0.,NA,NA,"",       2.99905,      -2.43762,      -1.74708,   9.41141E-09
C:/temp/dataset/3/20_3.odb,Step-1,Increment      1: Step Time =    1.000,"PART-1-1",           284,        -11.25,           30.,            0.,NA,NA,"",       3.50594,      -3.07758,      -1.67931,   18.1631E-09
C:/temp/dataset/3/20_3.odb,Step-1,Increment      1: Step Time =    1.000,"PART-1-1",           285,      -12.5009,       28.7510,            0.,NA,NA,"",       3.46740,      -2.98337,      -1.76703,   14.5576E-09
C:/temp/dataset/3/20_3.odb,Step-1,Increment      1: Step Time =    1.000,"PART-1-1",           286,      -11.2523,       27.5017,            0.,NA,NA,"",       3.34423,      -2.89576,      -1.67285,   14.4736E-09
C:/temp/dataset/3/20_3.odb,Step-1,Increment      1: Step Time =    1.000,"PART-1-1",           287,      -10.0014,       28.7507,            0.,NA,NA,"",       3.38417,      -2.98998,      -1.58513,   17.4583E-09
C:/temp/dataset/3/20_3.odb,Step-1,Increment      1: Step Time =    1.000,"PART-1-1",           288,      -8.75282,       27.5029,            0.,NA,NA,"",       3.26302,      -2.90248,      -1.49096,   16.9697E-09
C:/temp/dataset/3/20_3.odb,Step-1,Increment      1: Step Time =    1.000,"PART-1-1",           289,      -10.0027,       26.2541,            0.,NA,NA,"",       3.22156,      -2.80828,      -1.57860,   14.4986E-09
C:/temp/dataset/3/20_3.odb,Step-1,Increment      1: Step Time =    1.000,"PART-1-1",           290,      -8.75320,       25.0087,            0.,NA,NA,"",       3.09952,      -2.72097,      -1.48437,   14.0590E-09
C:/temp/dataset/3/20_3.odb,Step-1,Increment      1: Step Time =    1.000,"PART-1-1",           291,      -7.50334,       26.2575,            0.,NA,NA,"",       3.14260,      -2.81516,      -1.39672,   15.7893E-09
C:/temp/dataset/3/20_3.odb,Step-1,Increment      1: Step Time =    1.000,"PART-1-1",           292,  -10.1921E-03,       23.8015,            0.,NA,NA,"",       2.78743,      -2.65629,  -844.903E-03,   90.8255E-09
C:/temp/dataset/3/20_3.odb,Step-1,Increment      1: Step Time =    1.000,"PART-1-1",           293,       1.23656,       22.5490,            0.,NA,NA,"",       2.67595,      -2.56845,  -750.851E-03,   233.692E-09
C:/temp/dataset/3/20_3.odb,Step-1,Increment      1: Step Time =    1.000,"PART-1-1",           294,       2.47060,       23.8222,            0.,NA,NA,"",       2.74597,      -2.66438,  -664.420E-03,   244.164E-09
C:/temp/dataset/3/20_3.odb,Step-1,Increment      1: Step Time =    1.000,"PART-1-1",           295,       1.22385,       25.0746,            0.,NA,NA,"",       2.85482,      -2.75222,  -758.472E-03,   162.715E-09
C:/temp/dataset/3/20_3.odb,Step-1,Increment      1: Step Time =    1.000,"PART-1-1",           296,       13.7132,       25.0166,            0.,NA,NA,"",       2.78519,      -2.78111,   150.575E-03,   537.671E-09
C:/temp/dataset/3/20_3.odb,Step-1,Increment      1: Step Time =    1.000,"PART-1-1",           297,           15.,         26.25,            0.,NA,NA,"",       2.88436,      -2.87428,   240.950E-03,   512.416E-09
C:/temp/dataset/3/20_3.odb,Step-1,Increment      1: Step Time =    1.000,"PART-1-1",           298,       13.7362,       27.5048,            0.,NA,NA,"",       2.96582,      -2.96225,   145.650E-03,   298.081E-09
C:/temp/dataset/3/20_3.odb,Step-1,Increment      1: Step Time =    1.000,"PART-1-1",           299,       12.4494,       26.2714,            0.,NA,NA,"",       2.86961,      -2.86908,   55.2759E-03,   489.141E-09
C:/temp/dataset/3/20_3.odb,Step-1,Increment      1: Step Time =    1.000,"PART-1-1",           300,       6.19248,       27.5744,            0.,NA,NA,"",       2.97481,      -2.94731,  -403.512E-03,   257.062E-09
C:/temp/dataset/3/20_3.odb,Step-1,Increment      1: Step Time =    1.000,"PART-1-1",           301,       7.46746,       28.7842,            0.,NA,NA,"",       3.05490,      -3.03873,  -313.935E-03,   392.217E-09
C:/temp/dataset/3/20_3.odb,Step-1,Increment      1: Step Time =    1.000,"PART-1-1",           302,          6.25,           30.,            0.,NA,NA,"",       3.15022,      -3.12398,  -405.758E-03,   486.471E-09
C:/temp/dataset/3/20_3.odb,Step-1,Increment      1: Step Time =    1.000,"PART-1-1",           303,       4.97503,       28.7903,            0.,NA,NA,"",       3.07275,      -3.03256,  -495.335E-03,   281.760E-09
C:/temp/dataset/3/20_3.odb,Step-1,Increment      1: Step Time =    1.000,"PART-1-1",           304,       11.0878,       17.5306,            0.,NA,NA,"",       2.22949,      -2.22939,  -20.6516E-03,   18.5118E-06
C:/temp/dataset/3/20_3.odb,Step-1,Increment      1: Step Time =    1.000,"PART-1-1",           305,       12.3722,       18.7756,            0.,NA,NA,"",       2.32444,      -2.32340,   69.5298E-03,   11.9108E-06
C:/temp/dataset/3/20_3.odb,Step-1,Increment      1: Step Time =    1.000,"PART-1-1",           306,       11.1059,       20.0490,            0.,NA,NA,"",       2.41284,      -2.41270,  -25.9977E-03,   4.49061E-06
C:/temp/dataset/3/20_3.odb,Step-1,Increment      1: Step Time =    1.000,"PART-1-1",           307,       9.82152,       18.8041,            0.,NA,NA,"",       2.32159,      -2.31869,  -116.169E-03,   13.6240E-06
C:/temp/dataset/3/20_3.odb,Step-1,Increment      1: Step Time =    1.000,"PART-1-1",           308,       9.63171,       13.8797,            0.,NA,NA,"",       1.96329,      -1.95979,  -117.070E-03,   93.6203E-06
C:/temp/dataset/3/20_3.odb,Step-1,Increment      1: Step Time =    1.000,"PART-1-1",           309,       8.52517,       15.0687,            0.,NA,NA,"",       2.05319,      -2.04336,  -200.654E-03,   51.8437E-06
C:/temp/dataset/3/20_3.odb,Step-1,Increment      1: Step Time =    1.000,"PART-1-1",           310,       7.25683,       13.8735,            0.,NA,NA,"",       1.97432,      -1.95295,  -289.732E-03,   88.6294E-06
C:/temp/dataset/3/20_3.odb,Step-1,Increment      1: Step Time =    1.000,"PART-1-1",           311,       8.36336,       12.6844,            0.,NA,NA,"",       1.88071,      -1.86937,  -206.225E-03,   100.535E-06
C:/temp/dataset/3/20_3.odb,Step-1,Increment      1: Step Time =    1.000,"PART-1-1",           312,       14.0118,       9.82001,            0.,NA,NA,"",       1.68934,      -1.67586,   213.045E-03,   171.280E-06
C:/temp/dataset/3/20_3.odb,Step-1,Increment      1: Step Time =    1.000,"PART-1-1",           313,           15.,         11.25,            0.,NA,NA,"",       1.80474,      -1.78271,   281.154E-03,   216.715E-06
C:/temp/dataset/3/20_3.odb,Step-1,Increment      1: Step Time =    1.000,"PART-1-1",           314,       13.5880,       12.3315,            0.,NA,NA,"",       1.86603,      -1.85779,   175.199E-03,   90.5673E-06
C:/temp/dataset/3/20_3.odb,Step-1,Increment      1: Step Time =    1.000,"PART-1-1",           315,       12.5998,       10.9015,            0.,NA,NA,"",       1.75428,      -1.75102,   106.921E-03,   98.1493E-06
C:/temp/dataset/3/20_3.odb,Step-1,Increment      1: Step Time =    1.000,"PART-1-1",           316,       4.40482,  -219.892E-03,            0.,NA,NA,"",       1.01543,  -911.089E-03,  -448.342E-03,   4.42535E-03
C:/temp/dataset/3/20_3.odb,Step-1,Increment      1: Step Time =    1.000,"PART-1-1",           317,       3.45177,  -757.122E-03,            0.,NA,NA,"",       1.01315,  -866.375E-03,  -525.224E-03,   4.88373E-03
C:/temp/dataset/3/20_3.odb,Step-1,Increment      1: Step Time =    1.000,"PART-1-1",           318,       3.83014,      -1.74448,            0.,NA,NA,"",   926.617E-03,  -788.561E-03,  -486.611E-03,   6.51524E-03
C:/temp/dataset/3/20_3.odb,Step-1,Increment      1: Step Time =    1.000,"PART-1-1",           319,       4.78319,      -1.20725,            0.,NA,NA,"",   928.824E-03,  -833.501E-03,  -409.866E-03,   5.49042E-03
C:/temp/dataset/3/20_3.odb,Step-1,Increment      1: Step Time =    1.000,"PART-1-1",           320,       10.3408,      -10.0251,            0.,NA,NA,"",   296.044E-03,  -295.996E-03,  -5.36224E-03,   675.201E-06
C:/temp/dataset/3/20_3.odb,Step-1,Increment      1: Step Time =    1.000,"PART-1-1",           321,       11.1792,      -10.4860,            0.,NA,NA,"",   278.900E-03,  -277.072E-03,   31.8840E-03,   2.37182E-03
C:/temp/dataset/3/20_3.odb,Step-1,Increment      1: Step Time =    1.000,"PART-1-1",           322,       11.5032,      -9.33080,            0.,NA,NA,"",   334.249E-03,  -330.707E-03,   48.5312E-03,   3.75631E-03
C:/temp/dataset/3/20_3.odb,Step-1,Increment      1: Step Time =    1.000,"PART-1-1",           323,       10.6649,      -8.86986,            0.,NA,NA,"",   350.862E-03,  -350.752E-03,   8.75552E-03,   1.28611E-03
C:/temp/dataset/3/20_3.odb,Step-1,Increment      1: Step Time =    1.000,"PART-1-1",           324,       9.41034,      -12.1888,            0.,NA,NA,"",   210.243E-03,  -206.800E-03,  -37.8929E-03,   3.98205E-03
C:/temp/dataset/3/20_3.odb,Step-1,Increment      1: Step Time =    1.000,"PART-1-1",           325,       10.5075,      -13.0214,            0.,NA,NA,"",   176.579E-03,  -176.517E-03,   4.68697E-03,   376.354E-06
C:/temp/dataset/3/20_3.odb,Step-1,Increment      1: Step Time =    1.000,"PART-1-1",           326,       10.8652,      -11.6896,            0.,NA,NA,"",   227.212E-03,  -226.505E-03,   17.9018E-03,   1.22001E-03
C:/temp/dataset/3/20_3.odb,Step-1,Increment      1: Step Time =    1.000,"PART-1-1",           327,       9.76802,      -10.8570,            0.,NA,NA,"",   261.122E-03,  -259.564E-03,  -28.4870E-03,   2.66919E-03
C:/temp/dataset/3/20_3.odb,Step-1,Increment      1: Step Time =    1.000,"PART-1-1",           328,       6.12016,      -19.7528,            0.,NA,NA,"",   59.5933E-03,  -13.7613E-03,  -57.9827E-03,   13.9012E-03
C:/temp/dataset/3/20_3.odb,Step-1,Increment      1: Step Time =    1.000,"PART-1-1",           329,       7.15653,      -18.4145,            0.,NA,NA,"",   66.8599E-03,  -35.3962E-03,  -56.7217E-03,   9.02233E-03
C:/temp/dataset/3/20_3.odb,Step-1,Increment      1: Step Time =    1.000,"PART-1-1",           330,       6.03637,      -17.4116,            0.,NA,NA,"",   109.442E-03,  -62.4497E-03,  -89.8760E-03,   15.8808E-03
C:/temp/dataset/3/20_3.odb,Step-1,Increment      1: Step Time =    1.000,"PART-1-1",           331,            5.,        -18.75,            0.,NA,NA,"",   96.3089E-03,  -41.5898E-03,  -86.8660E-03,   23.7244E-03
C:/temp/dataset/3/20_3.odb,Step-1,Increment      1: Step Time =    1.000,"PART-1-1",           332,       13.3604,      -22.4969,            0.,NA,NA,"",   31.2213E-03,   855.920E-06,   31.2095E-03,   7.37426E-03
C:/temp/dataset/3/20_3.odb,Step-1,Increment      1: Step Time =    1.000,"PART-1-1",           333,           15.,        -21.25,            0.,NA,NA,"",   58.6014E-03,  -15.0402E-03,   56.6385E-03,   12.0470E-03
C:/temp/dataset/3/20_3.odb,Step-1,Increment      1: Step Time =    1.000,"PART-1-1",           334,       13.4842,      -19.7901,            0.,NA,NA,"",   56.9887E-03,  -23.3941E-03,   51.9656E-03,   9.22910E-03
C:/temp/dataset/3/20_3.odb,Step-1,Increment      1: Step Time =    1.000,"PART-1-1",           335,       11.8446,      -21.0370,            0.,NA,NA,"",   21.7813E-03,  -4.96605E-03,   21.2077E-03,   5.37559E-03
C:/temp/dataset/3/20_3.odb,Step-1,Increment      1: Step Time =    1.000,"PART-1-1",           336,       1.65000,            5.,            0.,NA,NA,"",       1.52259,      -1.34299,  -717.394E-03,   9.16486E-03
C:/temp/dataset/3/20_3.odb,Step-1,Increment      1: Step Time =    1.000,"PART-1-1",           337,   440.654E-03,       4.00571,            0.,NA,NA,"",       1.50171,      -1.25838,  -819.506E-03,   6.06474E-03
C:/temp/dataset/3/20_3.odb,Step-1,Increment      1: Step Time =    1.000,"PART-1-1",           338,       1.47063,       2.87974,            0.,NA,NA,"",       1.36531,      -1.16078,  -718.790E-03,   5.53340E-03
C:/temp/dataset/3/20_3.odb,Step-1,Increment      1: Step Time =    1.000,"PART-1-1",           339,       2.67998,       3.87403,            0.,NA,NA,"",       1.38710,      -1.24204,  -617.564E-03,   7.82849E-03
C:/temp/dataset/3/20_3.odb,Step-1,Increment      1: Step Time =    1.000,"PART-1-1",           340,      -1.46180,      -3.99231,            0.,NA,NA,"",       1.11292,  -558.696E-03,  -962.519E-03,   3.46019E-03
C:/temp/dataset/3/20_3.odb,Step-1,Increment      1: Step Time =    1.000,"PART-1-1",           341,     -500.E-03,           -5.,            0.,NA,NA,"",   992.278E-03,  -474.254E-03,  -871.607E-03,   4.40765E-03
C:/temp/dataset/3/20_3.odb,Step-1,Increment      1: Step Time =    1.000,"PART-1-1",           342,   718.491E-03,      -4.10961,            0.,NA,NA,"",   948.839E-03,  -565.167E-03,  -762.156E-03,   5.46312E-03
C:/temp/dataset/3/20_3.odb,Step-1,Increment      1: Step Time =    1.000,"PART-1-1",           343,  -243.313E-03,      -3.10192,            0.,NA,NA,"",       1.07018,  -647.125E-03,  -852.365E-03,   4.76466E-03
C:/temp/dataset/3/20_3.odb,Step-1,Increment      1: Step Time =    1.000,"PART-1-1",           344,      -3.82017,      -3.74247,            0.,NA,NA,"",       1.31036,  -566.253E-03,      -1.18169,   1.91070E-03
C:/temp/dataset/3/20_3.odb,Step-1,Increment      1: Step Time =    1.000,"PART-1-1",           345,      -2.71667,           -5.,            0.,NA,NA,"",       1.16890,  -457.835E-03,      -1.07551,   2.60694E-03
C:/temp/dataset/3/20_3.odb,Step-1,Increment      1: Step Time =    1.000,"PART-1-1",           346,      -2.56530,      -2.73478,            0.,NA,NA,"",       1.25819,  -664.114E-03,      -1.06864,   3.34266E-03
C:/temp/dataset/3/20_3.odb,Step-1,Increment      1: Step Time =    1.000,"PART-1-1",           347,      -13.8092,  -21.6491E-03,            0.,NA,NA,"",       2.27680,  -859.037E-03,      -2.10853,   121.269E-06
C:/temp/dataset/3/20_3.odb,Step-1,Increment      1: Step Time =    1.000,"PART-1-1",           348,      -12.6581,       1.21263,            0.,NA,NA,"",       2.23372,  -975.160E-03,      -2.00962,   87.7798E-06
C:/temp/dataset/3/20_3.odb,Step-1,Increment      1: Step Time =    1.000,"PART-1-1",           349,      -13.8489,       2.48428,            0.,NA,NA,"",       2.38328,      -1.08477,      -2.12210,   127.261E-06
C:/temp/dataset/3/20_3.odb,Step-1,Increment      1: Step Time =    1.000,"PART-1-1",           350,          -15.,          1.25,            0.,NA,NA,"",       2.42309,  -968.836E-03,      -2.22097,   182.793E-06
C:/temp/dataset/3/20_3.odb,Step-1,Increment      1: Step Time =    1.000,"PART-1-1",           351,      -8.84172,   345.754E-03,            0.,NA,NA,"",       1.89535,  -912.251E-03,      -1.66137,   886.274E-06
C:/temp/dataset/3/20_3.odb,Step-1,Increment      1: Step Time =    1.000,"PART-1-1",           352,      -9.20019,  -788.270E-03,            0.,NA,NA,"",       1.87228,  -808.570E-03,      -1.68869,   490.183E-06
C:/temp/dataset/3/20_3.odb,Step-1,Increment      1: Step Time =    1.000,"PART-1-1",           353,      -7.61937,      -1.21646,            0.,NA,NA,"",       1.72694,  -776.205E-03,      -1.54267,   1.10179E-03
C:/temp/dataset/3/20_3.odb,Step-1,Increment      1: Step Time =    1.000,"PART-1-1",           354,      -7.26090,  -82.4387E-03,            0.,NA,NA,"",       1.75205,  -879.527E-03,      -1.51529,   1.45419E-03
C:/temp/dataset/3/20_3.odb,Step-1,Increment      1: Step Time =    1.000,"PART-1-1",           355,      -12.7466,      -3.77621,            0.,NA,NA,"",       2.06476,  -523.662E-03,      -1.99725,   102.642E-06
C:/temp/dataset/3/20_3.odb,Step-1,Increment      1: Step Time =    1.000,"PART-1-1",           356,      -13.8633,      -2.52621,            0.,NA,NA,"",       2.19631,  -632.294E-03,      -2.10332,   100.058E-06
C:/temp/dataset/3/20_3.odb,Step-1,Increment      1: Step Time =    1.000,"PART-1-1",           357,          -15.,         -3.75,            0.,NA,NA,"",       2.26103,  -516.817E-03,      -2.20117,   37.6569E-06
C:/temp/dataset/3/20_3.odb,Step-1,Increment      1: Step Time =    1.000,"PART-1-1",           358,      -13.8833,           -5.,            0.,NA,NA,"",       2.13443,  -408.269E-03,      -2.09502,   34.2190E-06
C:/temp/dataset/3/20_3.odb,Step-1,Increment      1: Step Time =    1.000,"PART-1-1",           359,      -5.03830,      -2.71522,            0.,NA,NA,"",       1.45318,  -652.626E-03,      -1.29839,   1.98349E-03
C:/temp/dataset/3/20_3.odb,Step-1,Increment      1: Step Time =    1.000,"PART-1-1",           360,      -4.43911,      -1.50749,            0.,NA,NA,"",       1.46279,  -763.452E-03,      -1.24775,   2.67302E-03
C:/temp/dataset/3/20_3.odb,Step-1,Increment      1: Step Time =    1.000,"PART-1-1",           361,      -5.95808,  -763.119E-03,            0.,NA,NA,"",       1.61738,  -823.442E-03,      -1.39207,   2.17488E-03
C:/temp/dataset/3/20_3.odb,Step-1,Increment      1: Step Time =    1.000,"PART-1-1",           362,      -6.55726,      -1.97085,            0.,NA,NA,"",       1.60832,  -712.688E-03,      -1.44180,   1.33265E-03
C:/temp/dataset/3/20_3.odb,Step-1,Increment      1: Step Time =    1.000,"PART-1-1",           363,          6.25,          -30.,            0.,NA,NA,"",            0.,   1.29775E-39,  -4.37535E-39,   2.65867E-03
C:/temp/dataset/3/20_3.odb,Step-1,Increment      1: Step Time =    1.000,"PART-1-1",           364,       7.47038,      -28.9473,            0.,NA,NA,"",   3.61674E-03,   3.09984E-03,  -1.86328E-03,   3.17242E-03
C:/temp/dataset/3/20_3.odb,Step-1,Increment      1: Step Time =    1.000,"PART-1-1",           365,       6.18647,      -27.8786,            0.,NA,NA,"",   6.30718E-03,   2.85349E-03,  -5.62477E-03,   3.75129E-03
C:/temp/dataset/3/20_3.odb,Step-1,Increment      1: Step Time =    1.000,"PART-1-1",           366,       4.96608,      -28.9312,            0.,NA,NA,"",   2.60333E-03,   463.305E-06,  -2.56177E-03,   3.25281E-03
C:/temp/dataset/3/20_3.odb,Step-1,Increment      1: Step Time =    1.000,"PART-1-1",           367,       3.70492,      -27.8047,            0.,NA,NA,"",   5.88899E-03,  -1.49722E-03,  -5.69549E-03,   3.54899E-03
C:/temp/dataset/3/20_3.odb,Step-1,Increment      1: Step Time =    1.000,"PART-1-1",           368,       2.48883,      -28.8735,            0.,NA,NA,"",   2.80296E-03,  -1.68151E-03,  -2.24256E-03,   2.83376E-03
C:/temp/dataset/3/20_3.odb,Step-1,Increment      1: Step Time =    1.000,"PART-1-1",           369,          3.75,          -30.,            0.,NA,NA,"",            0.,  -450.159E-42,  -4.76983E-39,   2.52292E-03
C:/temp/dataset/3/20_3.odb,Step-1,Increment      1: Step Time =    1.000,"PART-1-1",           370,      -3.72203,      -27.5999,            0.,NA,NA,"",   3.90512E-03,  -3.83815E-03,  -720.115E-06,   1.14787E-03
C:/temp/dataset/3/20_3.odb,Step-1,Increment      1: Step Time =    1.000,"PART-1-1",           371,      -4.98725,      -28.7922,            0.,NA,NA,"",   1.93502E-03,  -1.91506E-03,  -277.222E-06,   1.04585E-03
C:/temp/dataset/3/20_3.odb,Step-1,Increment      1: Step Time =    1.000,"PART-1-1",           372,         -3.75,          -30.,            0.,NA,NA,"",            0.,  -1.26871E-39,  -1.16207E-39,   1.43718E-03
C:/temp/dataset/3/20_3.odb,Step-1,Increment      1: Step Time =    1.000,"PART-1-1",           373,      -2.48478,      -28.8077,            0.,NA,NA,"",   2.52217E-03,  -2.42353E-03,  -698.460E-06,   1.51796E-03
C:/temp/dataset/3/20_3.odb,Step-1,Increment      1: Step Time =    1.000,"PART-1-1",           374,      -13.7501,      -27.5099,            0.,NA,NA,"",   1.78522E-03,  -1.73099E-03,  -436.697E-06,   261.321E-06
C:/temp/dataset/3/20_3.odb,Step-1,Increment      1: Step Time =    1.000,"PART-1-1",           375,          -15.,        -28.75,            0.,NA,NA,"",   1.16577E-03,  -973.042E-06,  -642.041E-06,   483.255E-06
C:/temp/dataset/3/20_3.odb,Step-1,Increment      1: Step Time =    1.000,"PART-1-1",           376,        -13.75,          -30.,            0.,NA,NA,"",            0.,  -167.136E-42,  -506.323E-42,   563.002E-06
C:/temp/dataset/3/20_3.odb,Step-1,Increment      1: Step Time =    1.000,"PART-1-1",           377,      -12.5001,      -28.7599,            0.,NA,NA,"",   845.757E-06,  -837.954E-06,  -114.620E-06,   431.907E-06
C:/temp/dataset/3/20_3.odb,Step-1,Increment      1: Step Time =    1.000,"PART-1-1",           378,       8.15833,      -10.8587,            0.,NA,NA,"",   279.023E-03,  -261.694E-03,  -96.7980E-03,   8.44064E-03
C:/temp/dataset/3/20_3.odb,Step-1,Increment      1: Step Time =    1.000,"PART-1-1",           379,       9.00498,      -9.90697,            0.,NA,NA,"",   308.341E-03,  -301.133E-03,  -66.2822E-03,   5.37718E-03
C:/temp/dataset/3/20_3.odb,Step-1,Increment      1: Step Time =    1.000,"PART-1-1",           380,       8.08915,      -8.55627,            0.,NA,NA,"",   384.169E-03,  -365.094E-03,  -119.550E-03,   8.80895E-03
C:/temp/dataset/3/20_3.odb,Step-1,Increment      1: Step Time =    1.000,"PART-1-1",           381,       7.24249,      -9.50802,            0.,NA,NA,"",   356.479E-03,  -322.997E-03,  -150.831E-03,   11.5413E-03
C:/temp/dataset/3/20_3.odb,Step-1,Increment      1: Step Time =    1.000,"PART-1-1",           382,       13.9816,      -2.51124,            0.,NA,NA,"",   787.240E-03,  -755.926E-03,   219.825E-03,   8.47777E-03
C:/temp/dataset/3/20_3.odb,Step-1,Increment      1: Step Time =    1.000,"PART-1-1",           383,           15.,         -1.25,            0.,NA,NA,"",   903.677E-03,  -853.561E-03,   296.759E-03,   8.34875E-03
C:/temp/dataset/3/20_3.odb,Step-1,Increment      1: Step Time =    1.000,"PART-1-1",           384,       13.8213,  -48.4001E-03,            0.,NA,NA,"",   961.219E-03,  -936.584E-03,   216.225E-03,   5.41938E-03
C:/temp/dataset/3/20_3.odb,Step-1,Increment      1: Step Time =    1.000,"PART-1-1",           385,       12.8030,      -1.30964,            0.,NA,NA,"",   850.055E-03,  -837.632E-03,   144.795E-03,   6.61276E-03
C:/temp/dataset/3/20_3.odb,Step-1,Increment      1: Step Time =    1.000,"PART-1-1",           386,           15.,          1.25,            0.,NA,NA,"",       1.08357,      -1.04018,   303.575E-03,   4.36042E-03
C:/temp/dataset/3/20_3.odb,Step-1,Increment      1: Step Time =    1.000,"PART-1-1",           387,       13.5709,       2.55070,            0.,NA,NA,"",       1.15047,      -1.13325,   198.334E-03,   2.80384E-03
C:/temp/dataset/3/20_3.odb,Step-1,Increment      1: Step Time =    1.000,"PART-1-1",           388,       12.3922,       1.25230,            0.,NA,NA,"",       1.03692,      -1.03037,   116.366E-03,   5.07780E-03
C:/temp/dataset/3/20_3.odb,Step-1,Increment      1: Step Time =    1.000,"PART-1-1",           389,      -5.00532,       26.2655,            0.,NA,NA,"",       3.07276,      -2.82236,      -1.21495,   17.9771E-09
C:/temp/dataset/3/20_3.odb,Step-1,Increment      1: Step Time =    1.000,"PART-1-1",           390,      -3.75495,       25.0275,            0.,NA,NA,"",       2.95624,      -2.73559,      -1.12068,   21.2489E-09
C:/temp/dataset/3/20_3.odb,Step-1,Increment      1: Step Time =    1.000,"PART-1-1",           391,      -2.50780,       26.2820,            0.,NA,NA,"",       3.01289,      -2.83018,      -1.03324,   26.4231E-09
C:/temp/dataset/3/20_3.odb,Step-1,Increment      1: Step Time =    1.000,"PART-1-1",           392,      -3.75817,       27.5199,            0.,NA,NA,"",       3.12729,      -2.91696,      -1.12752,   26.3895E-09
C:/temp/dataset/3/20_3.odb,Step-1,Increment      1: Step Time =    1.000,"PART-1-1",           393,      -5.00193,       23.7670,            0.,NA,NA,"",       2.90378,      -2.64054,      -1.20808,   12.9260E-09
C:/temp/dataset/3/20_3.odb,Step-1,Increment      1: Step Time =    1.000,"PART-1-1",           394,      -6.25406,       25.0149,            0.,NA,NA,"",       3.02303,      -2.72804,      -1.30251,   14.9050E-09
C:/temp/dataset/3/20_3.odb,Step-1,Increment      1: Step Time =    1.000,"PART-1-1",           395,      -7.50285,       23.7600,            0.,NA,NA,"",       2.97777,      -2.63341,      -1.39006,   12.0747E-09
C:/temp/dataset/3/20_3.odb,Step-1,Increment      1: Step Time =    1.000,"PART-1-1",           396,      -6.25071,       22.5121,            0.,NA,NA,"",       2.85663,      -2.54591,      -1.29563,   12.5060E-09
C:/temp/dataset/3/20_3.odb,Step-1,Increment      1: Step Time =    1.000,"PART-1-1",           397,      -12.5007,       23.7543,            0.,NA,NA,"",       3.15258,      -2.61974,      -1.75376,   13.0627E-09
C:/temp/dataset/3/20_3.odb,Step-1,Increment      1: Step Time =    1.000,"PART-1-1",           398,      -13.7507,       25.0026,            0.,NA,NA,"",       3.27789,      -2.70727,      -1.84804,   13.1410E-09
C:/temp/dataset/3/20_3.odb,Step-1,Increment      1: Step Time =    1.000,"PART-1-1",           399,          -15.,         23.75,            0.,NA,NA,"",       3.25168,      -2.61280,      -1.93564,   13.3013E-09
C:/temp/dataset/3/20_3.odb,Step-1,Increment      1: Step Time =    1.000,"PART-1-1",           400,       1.22659,       27.5580,            0.,NA,NA,"",       3.03104,      -2.93295,  -764.857E-03,   130.616E-09
C:/temp/dataset/3/20_3.odb,Step-1,Increment      1: Step Time =    1.000,"PART-1-1",           401,       2.48534,       28.7828,            0.,NA,NA,"",       3.10013,      -3.02542,  -676.501E-03,   150.586E-09
C:/temp/dataset/3/20_3.odb,Step-1,Increment      1: Step Time =    1.000,"PART-1-1",           402,          1.25,           30.,            0.,NA,NA,"",       3.20452,      -3.11073,  -769.629E-03,   125.735E-09
C:/temp/dataset/3/20_3.odb,Step-1,Increment      1: Step Time =    1.000,"PART-1-1",           403,  -8.74824E-03,       28.7751,            0.,NA,NA,"",       3.13783,      -3.01825,  -857.985E-03,   61.6038E-09
C:/temp/dataset/3/20_3.odb,Step-1,Increment      1: Step Time =    1.000,"PART-1-1",           404,  -16.7069E-03,       26.3073,            0.,NA,NA,"",       2.96374,      -2.83863,  -852.021E-03,   72.1563E-09
C:/temp/dataset/3/20_3.odb,Step-1,Increment      1: Step Time =    1.000,"PART-1-1",           405,       2.46714,       26.3253,            0.,NA,NA,"",       2.92462,      -2.84653,  -671.308E-03,   193.751E-09
C:/temp/dataset/3/20_3.odb,Step-1,Increment      1: Step Time =    1.000,"PART-1-1",           406,       3.70751,       22.5746,            0.,NA,NA,"",       2.63939,      -2.57686,  -571.097E-03,   550.860E-09
C:/temp/dataset/3/20_3.odb,Step-1,Increment      1: Step Time =    1.000,"PART-1-1",           407,       2.48879,       21.2797,            0.,NA,NA,"",       2.56480,      -2.47939,  -656.355E-03,   215.444E-09
C:/temp/dataset/3/20_3.odb,Step-1,Increment      1: Step Time =    1.000,"PART-1-1",           408,          3.75,           20.,            0.,NA,NA,"",       2.45462,      -2.38961,  -561.179E-03,   893.334E-09
C:/temp/dataset/3/20_3.odb,Step-1,Increment      1: Step Time =    1.000,"PART-1-1",           409,       4.96872,       21.2949,            0.,NA,NA,"",       2.53221,      -2.48708,  -475.921E-03,   451.785E-09
C:/temp/dataset/3/20_3.odb,Step-1,Increment      1: Step Time =    1.000,"PART-1-1",           410,       10.8479,       12.4309,            0.,NA,NA,"",       1.85784,      -1.85767,  -24.8189E-03,   105.175E-06
C:/temp/dataset/3/20_3.odb,Step-1,Increment      1: Step Time =    1.000,"PART-1-1",           411,       9.34812,       11.6387,            0.,NA,NA,"",       1.80079,      -1.79595,  -131.979E-03,   135.317E-06
C:/temp/dataset/3/20_3.odb,Step-1,Increment      1: Step Time =    1.000,"PART-1-1",           412,       9.99050,       10.5520,            0.,NA,NA,"",       1.72060,      -1.71862,  -82.4629E-03,   111.257E-06
C:/temp/dataset/3/20_3.odb,Step-1,Increment      1: Step Time =    1.000,"PART-1-1",           413,       11.4903,       11.3442,            0.,NA,NA,"",       1.78047,      -1.78030,   24.8032E-03,   110.313E-06
C:/temp/dataset/3/20_3.odb,Step-1,Increment      1: Step Time =    1.000,"PART-1-1",           414,       7.16850,       11.5014,            0.,NA,NA,"",       1.80356,      -1.78011,  -289.908E-03,   162.207E-06
C:/temp/dataset/3/20_3.odb,Step-1,Increment      1: Step Time =    1.000,"PART-1-1",           415,       6.10343,       12.5850,            0.,NA,NA,"",       1.89268,      -1.85614,  -370.099E-03,   98.0696E-06
C:/temp/dataset/3/20_3.odb,Step-1,Increment      1: Step Time =    1.000,"PART-1-1",           416,            5.,         11.25,            0.,NA,NA,"",       1.81209,      -1.75620,  -446.560E-03,   307.601E-06
C:/temp/dataset/3/20_3.odb,Step-1,Increment      1: Step Time =    1.000,"PART-1-1",           417,       6.06507,       10.1664,            0.,NA,NA,"",       1.71964,      -1.68020,  -366.198E-03,   255.766E-06
C:/temp/dataset/3/20_3.odb,Step-1,Increment      1: Step Time =    1.000,"PART-1-1",           418,       14.0565,       5.06378,            0.,NA,NA,"",       1.34457,      -1.32487,   229.294E-03,   777.648E-06
C:/temp/dataset/3/20_3.odb,Step-1,Increment      1: Step Time =    1.000,"PART-1-1",           419,       12.6274,       3.86448,            0.,NA,NA,"",       1.23715,      -1.23053,   127.799E-03,   2.75064E-03
C:/temp/dataset/3/20_3.odb,Step-1,Increment      1: Step Time =    1.000,"PART-1-1",           420,           15.,          3.75,            0.,NA,NA,"",       1.26562,      -1.22901,   302.227E-03,   1.42420E-03
C:/temp/dataset/3/20_3.odb,Step-1,Increment      1: Step Time =    1.000,"PART-1-1",           421,       10.0280,       5.47301,            0.,NA,NA,"",       1.34873,      -1.34719,  -64.4759E-03,   2.32376E-03
C:/temp/dataset/3/20_3.odb,Step-1,Increment      1: Step Time =    1.000,"PART-1-1",           422,       11.0614,       5.01383,            0.,NA,NA,"",       1.31429,      -1.31423,   11.7366E-03,   2.34503E-03
C:/temp/dataset/3/20_3.odb,Step-1,Increment      1: Step Time =    1.000,"PART-1-1",           423,       11.6033,       6.33570,            0.,NA,NA,"",       1.41449,      -1.41372,   46.7690E-03,   1.23724E-03
C:/temp/dataset/3/20_3.odb,Step-1,Increment      1: Step Time =    1.000,"PART-1-1",           424,       10.5698,       6.79489,            0.,NA,NA,"",       1.44602,      -1.44571,  -29.8005E-03,   1.13029E-03
C:/temp/dataset/3/20_3.odb,Step-1,Increment      1: Step Time =    1.000,"PART-1-1",           425,      -4.94418,       3.17107,            0.,NA,NA,"",       1.76973,      -1.17739,      -1.32124,   3.80247E-03
C:/temp/dataset/3/20_3.odb,Step-1,Increment      1: Step Time =    1.000,"PART-1-1",           426,      -3.90803,       4.11594,            0.,NA,NA,"",       1.76539,      -1.26518,      -1.23123,   3.86546E-03
C:/temp/dataset/3/20_3.odb,Step-1,Increment      1: Step Time =    1.000,"PART-1-1",           427,      -5.05000,            5.,            0.,NA,NA,"",       1.90001,      -1.34329,      -1.34374,   2.98447E-03
C:/temp/dataset/3/20_3.odb,Step-1,Increment      1: Step Time =    1.000,"PART-1-1",           428,      -6.08615,       4.05513,            0.,NA,NA,"",       1.90402,      -1.25410,      -1.43267,   3.09722E-03
C:/temp/dataset/3/20_3.odb,Step-1,Increment      1: Step Time =    1.000,"PART-1-1",           429,      -3.86135,       2.39128,            0.,NA,NA,"",       1.64550,      -1.11004,      -1.21470,   4.40735E-03
C:/temp/dataset/3/20_3.odb,Step-1,Increment      1: Step Time =    1.000,"PART-1-1",           430,      -5.85027,       2.20434,            0.,NA,NA,"",       1.77245,      -1.08862,      -1.39875,   3.12109E-03
C:/temp/dataset/3/20_3.odb,Step-1,Increment      1: Step Time =    1.000,"PART-1-1",           431,      -4.76744,       1.42454,            0.,NA,NA,"",       1.64846,      -1.02202,      -1.29340,   3.68485E-03
C:/temp/dataset/3/20_3.odb,Step-1,Increment      1: Step Time =    1.000,"PART-1-1",           432,      -9.29397,       2.69508,            0.,NA,NA,"",       2.04818,      -1.12222,      -1.71339,   874.020E-06
C:/temp/dataset/3/20_3.odb,Step-1,Increment      1: Step Time =    1.000,"PART-1-1",           433,      -8.28887,       3.92576,            0.,NA,NA,"",       2.04594,      -1.23645,      -1.63005,   1.79505E-03
C:/temp/dataset/3/20_3.odb,Step-1,Increment      1: Step Time =    1.000,"PART-1-1",           434,          -9.5,            5.,            0.,NA,NA,"",       2.18966,      -1.32745,      -1.74141,   454.706E-06
C:/temp/dataset/3/20_3.odb,Step-1,Increment      1: Step Time =    1.000,"PART-1-1",           435,      -10.5051,       3.76932,            0.,NA,NA,"",       2.19280,      -1.21378,      -1.82623,   248.933E-06
C:/temp/dataset/3/20_3.odb,Step-1,Increment      1: Step Time =    1.000,"PART-1-1",           436,      -7.92731,       1.84143,            0.,NA,NA,"",       1.90223,      -1.05012,      -1.58611,   1.52829E-03
C:/temp/dataset/3/20_3.odb,Step-1,Increment      1: Step Time =    1.000,"PART-1-1",           437,      -6.68589,       1.06488,            0.,NA,NA,"",       1.76803,  -984.319E-03,      -1.46868,   2.27490E-03
C:/temp/dataset/3/20_3.odb,Step-1,Increment      1: Step Time =    1.000,"PART-1-1",           438,      -7.09169,       2.98089,            0.,NA,NA,"",       1.90672,      -1.15498,      -1.51710,   2.65931E-03
C:/temp/dataset/3/20_3.odb,Step-1,Increment      1: Step Time =    1.000,"PART-1-1",           439,      -13.9000,            5.,            0.,NA,NA,"",       2.50693,      -1.31095,      -2.13685,   58.0311E-06
C:/temp/dataset/3/20_3.odb,Step-1,Increment      1: Step Time =    1.000,"PART-1-1",           440,          -15.,          3.75,            0.,NA,NA,"",       2.53026,      -1.19396,      -2.23085,   52.6946E-06
C:/temp/dataset/3/20_3.odb,Step-1,Increment      1: Step Time =    1.000,"PART-1-1",           441,      -12.7489,       3.73428,            0.,NA,NA,"",       2.35728,      -1.20170,      -2.02798,   136.369E-06
C:/temp/dataset/3/20_3.odb,Step-1,Increment      1: Step Time =    1.000,"PART-1-1",           442,      -9.48823,      -2.88104,            0.,NA,NA,"",       1.81433,  -618.086E-03,      -1.70580,   191.444E-06
C:/temp/dataset/3/20_3.odb,Step-1,Increment      1: Step Time =    1.000,"PART-1-1",           443,      -8.42388,      -2.23568,            0.,NA,NA,"",       1.74959,  -680.932E-03,      -1.61165,   524.140E-06
C:/temp/dataset/3/20_3.odb,Step-1,Increment      1: Step Time =    1.000,"PART-1-1",           444,      -10.2645,      -1.43363,            0.,NA,NA,"",       1.93219,  -745.956E-03,      -1.78239,   194.355E-06
C:/temp/dataset/3/20_3.odb,Step-1,Increment      1: Step Time =    1.000,"PART-1-1",           445,      -12.6725,      -1.29786,            0.,NA,NA,"",       2.13611,  -748.370E-03,      -2.00073,   102.903E-06
C:/temp/dataset/3/20_3.odb,Step-1,Increment      1: Step Time =    1.000,"PART-1-1",           446,          -15.,         -1.25,            0.,NA,NA,"",       2.33272,  -743.072E-03,      -2.21121,   158.422E-06
C:/temp/dataset/3/20_3.odb,Step-1,Increment      1: Step Time =    1.000,"PART-1-1",           447,      -6.16813,      -3.97275,            0.,NA,NA,"",       1.49598,  -533.290E-03,      -1.39769,   709.336E-06
C:/temp/dataset/3/20_3.odb,Step-1,Increment      1: Step Time =    1.000,"PART-1-1",           448,      -4.95000,           -5.,            0.,NA,NA,"",       1.35656,  -445.093E-03,      -1.28146,   998.501E-06
C:/temp/dataset/3/20_3.odb,Step-1,Increment      1: Step Time =    1.000,"PART-1-1",           449,       1.59412,  -355.999E-03,            0.,NA,NA,"",       1.12909,  -892.172E-03,  -692.009E-03,   5.02907E-03
C:/temp/dataset/3/20_3.odb,Step-1,Increment      1: Step Time =    1.000,"PART-1-1",           450,       2.17826,      -1.53992,            0.,NA,NA,"",       1.01914,  -797.414E-03,  -634.654E-03,   6.05086E-03
C:/temp/dataset/3/20_3.odb,Step-1,Increment      1: Step Time =    1.000,"PART-1-1",           451,       2.86763,   426.804E-03,            0.,NA,NA,"",       1.12327,  -960.424E-03,  -582.505E-03,   4.36243E-03
C:/temp/dataset/3/20_3.odb,Step-1,Increment      1: Step Time =    1.000,"PART-1-1",           452,  -387.277E-03,   5.26357E-03,            0.,NA,NA,"",       1.26550,  -913.783E-03,  -875.501E-03,   5.12680E-03
C:/temp/dataset/3/20_3.odb,Step-1,Increment      1: Step Time =    1.000,"PART-1-1",           453,   283.611E-03,      -1.19839,            0.,NA,NA,"",       1.14833,  -815.005E-03,  -808.973E-03,   5.34353E-03
C:/temp/dataset/3/20_3.odb,Step-1,Increment      1: Step Time =    1.000,"PART-1-1",           454,   923.228E-03,   847.652E-03,            0.,NA,NA,"",       1.24671,  -989.638E-03,  -758.218E-03,   5.17794E-03
C:/temp/dataset/3/20_3.odb,Step-1,Increment      1: Step Time =    1.000,"PART-1-1",           455,       6.35531,      -13.1332,            0.,NA,NA,"",   231.542E-03,  -183.171E-03,  -141.634E-03,   14.5480E-03
C:/temp/dataset/3/20_3.odb,Step-1,Increment      1: Step Time =    1.000,"PART-1-1",           456,       7.49455,      -12.2656,            0.,NA,NA,"",   236.002E-03,  -208.602E-03,  -110.374E-03,   10.7841E-03
C:/temp/dataset/3/20_3.odb,Step-1,Increment      1: Step Time =    1.000,"PART-1-1",           457,       6.13925,      -10.3824,            0.,NA,NA,"",   346.709E-03,  -290.591E-03,  -189.113E-03,   15.4788E-03
C:/temp/dataset/3/20_3.odb,Step-1,Increment      1: Step Time =    1.000,"PART-1-1",           458,            5.,        -11.25,            0.,NA,NA,"",   344.770E-03,  -262.670E-03,  -223.317E-03,   19.1841E-03
C:/temp/dataset/3/20_3.odb,Step-1,Increment      1: Step Time =    1.000,"PART-1-1",           459,       13.3376,      -16.9670,            0.,NA,NA,"",   101.629E-03,  -71.3913E-03,   72.3301E-03,   9.56439E-03
C:/temp/dataset/3/20_3.odb,Step-1,Increment      1: Step Time =    1.000,"PART-1-1",           460,       11.8219,      -18.0071,            0.,NA,NA,"",   55.6101E-03,  -44.9122E-03,   32.7930E-03,   4.99456E-03
C:/temp/dataset/3/20_3.odb,Step-1,Increment      1: Step Time =    1.000,"PART-1-1",           461,           15.,        -18.75,            0.,NA,NA,"",   98.0677E-03,  -46.5645E-03,   86.3077E-03,   14.1683E-03
C:/temp/dataset/3/20_3.odb,Step-1,Increment      1: Step Time =    1.000,"PART-1-1",           462,       8.42876,      -15.2973,            0.,NA,NA,"",   119.212E-03,  -106.635E-03,  -53.2964E-03,   7.10033E-03
C:/temp/dataset/3/20_3.odb,Step-1,Increment      1: Step Time =    1.000,"PART-1-1",           463,       10.4111,      -16.6310,            0.,NA,NA,"",   70.7753E-03,  -70.6780E-03,   3.71095E-03,   1.00547E-03
C:/temp/dataset/3/20_3.odb,Step-1,Increment      1: Step Time =    1.000,"PART-1-1",           464,       10.7289,      -14.9294,            0.,NA,NA,"",   116.232E-03,  -115.571E-03,   12.3771E-03,   1.04556E-03
C:/temp/dataset/3/20_3.odb,Step-1,Increment      1: Step Time =    1.000,"PART-1-1",           465,       8.74656,      -13.5956,            0.,NA,NA,"",   167.061E-03,  -157.952E-03,  -54.4112E-03,   6.30060E-03
C:/temp/dataset/3/20_3.odb,Step-1,Increment      1: Step Time =    1.000,"PART-1-1",           466,      -8.72016,      -22.5745,            0.,NA,NA,"",   4.38288E-03,  -4.35161E-03,   522.652E-06,   129.461E-06
C:/temp/dataset/3/20_3.odb,Step-1,Increment      1: Step Time =    1.000,"PART-1-1",           467,      -7.48342,      -21.2909,            0.,NA,NA,"",   4.51432E-03,  -4.46961E-03,   633.751E-06,   26.5036E-06
C:/temp/dataset/3/20_3.odb,Step-1,Increment      1: Step Time =    1.000,"PART-1-1",           468,         -8.75,          -20.,            0.,NA,NA,"",   4.59613E-03,  -4.56545E-03,   530.171E-06,   116.931E-06
C:/temp/dataset/3/20_3.odb,Step-1,Increment      1: Step Time =    1.000,"PART-1-1",           469,      -9.98674,      -21.2836,            0.,NA,NA,"",   4.47532E-03,  -4.46006E-03,   369.287E-06,   10.4998E-06
C:/temp/dataset/3/20_3.odb,Step-1,Increment      1: Step Time =    1.000,"PART-1-1",           470,      -4.96670,      -26.3491,            0.,NA,NA,"",   4.46633E-03,  -4.45329E-03,  -341.072E-06,   800.210E-06
C:/temp/dataset/3/20_3.odb,Step-1,Increment      1: Step Time =    1.000,"PART-1-1",           471,      -6.21541,      -25.0985,            0.,NA,NA,"",   4.54429E-03,  -4.54261E-03,   123.720E-06,   567.191E-06
C:/temp/dataset/3/20_3.odb,Step-1,Increment      1: Step Time =    1.000,"PART-1-1",           472,      -7.47738,      -26.3212,            0.,NA,NA,"",   3.49457E-03,  -3.49337E-03,   91.4440E-06,   554.253E-06
C:/temp/dataset/3/20_3.odb,Step-1,Increment      1: Step Time =    1.000,"PART-1-1",           473,      -6.22867,      -27.5719,            0.,NA,NA,"",   2.97437E-03,  -2.97010E-03,  -159.359E-06,   808.118E-06
C:/temp/dataset/3/20_3.odb,Step-1,Increment      1: Step Time =    1.000,"PART-1-1",           474,   49.7896E-03,      -26.4387,            0.,NA,NA,"",   7.47413E-03,  -6.03518E-03,  -4.40898E-03,   2.15062E-03
C:/temp/dataset/3/20_3.odb,Step-1,Increment      1: Step Time =    1.000,"PART-1-1",           475,       1.24862,      -27.7048,            0.,NA,NA,"",   5.64318E-03,  -4.04315E-03,  -3.93680E-03,   2.58893E-03
C:/temp/dataset/3/20_3.odb,Step-1,Increment      1: Step Time =    1.000,"PART-1-1",           476,       2.52056,      -26.5649,            0.,NA,NA,"",   9.30839E-03,  -4.44943E-03,  -8.17611E-03,   3.63377E-03
C:/temp/dataset/3/20_3.odb,Step-1,Increment      1: Step Time =    1.000,"PART-1-1",           477,       1.32172,      -25.2988,            0.,NA,NA,"",   10.9544E-03,  -6.97499E-03,  -8.44678E-03,   3.06140E-03
C:/temp/dataset/3/20_3.odb,Step-1,Increment      1: Step Time =    1.000,"PART-1-1",           478,        -13.75,          -20.,            0.,NA,NA,"",   4.87914E-03,  -4.83698E-03,  -639.983E-06,   15.9213E-06
C:/temp/dataset/3/20_3.odb,Step-1,Increment      1: Step Time =    1.000,"PART-1-1",           479,          -15.,        -21.25,            0.,NA,NA,"",   4.59372E-03,  -4.48001E-03,  -1.01574E-03,   12.8410E-06
C:/temp/dataset/3/20_3.odb,Step-1,Increment      1: Step Time =    1.000,"PART-1-1",           480,      -13.7430,      -22.5153,            0.,NA,NA,"",   4.17257E-03,  -4.12273E-03,  -643.010E-06,   24.5239E-06
C:/temp/dataset/3/20_3.odb,Step-1,Increment      1: Step Time =    1.000,"PART-1-1",           481,      -12.4930,      -21.2653,            0.,NA,NA,"",   4.48098E-03,  -4.47366E-03,  -256.040E-06,   19.8266E-06
C:/temp/dataset/3/20_3.odb,Step-1,Increment      1: Step Time =    1.000,"PART-1-1",           482,      -11.2297,      -22.5489,            0.,NA,NA,"",   4.16939E-03,  -4.16858E-03,   81.8905E-06,   52.8965E-06
C:/temp/dataset/3/20_3.odb,Step-1,Increment      1: Step Time =    1.000,"PART-1-1",           483,        -11.25,          -20.,            0.,NA,NA,"",   4.75978E-03,  -4.75930E-03,   67.7751E-06,   61.8518E-06
C:/temp/dataset/3/20_3.odb,Step-1,Increment      1: Step Time =    1.000,"PART-1-1",           484,      -13.7448,      -25.0201,            0.,NA,NA,"",   3.27633E-03,  -3.21132E-03,  -649.445E-06,   66.1607E-06
C:/temp/dataset/3/20_3.odb,Step-1,Increment      1: Step Time =    1.000,"PART-1-1",           485,      -12.4878,      -23.7854,            0.,NA,NA,"",   3.74346E-03,  -3.73424E-03,  -262.579E-06,   66.6925E-06
C:/temp/dataset/3/20_3.odb,Step-1,Increment      1: Step Time =    1.000,"PART-1-1",           486,          -15.,        -23.75,            0.,NA,NA,"",   3.85943E-03,  -3.70293E-03,  -1.08789E-03,   31.5372E-06
C:/temp/dataset/3/20_3.odb,Step-1,Increment      1: Step Time =    1.000,"PART-1-1",           487,       13.7335,      -27.5520,            0.,NA,NA,"",   9.40696E-03,   5.41057E-03,   7.69524E-03,   4.62101E-03
C:/temp/dataset/3/20_3.odb,Step-1,Increment      1: Step Time =    1.000,"PART-1-1",           488,       12.4835,      -28.8020,            0.,NA,NA,"",   4.92938E-03,   4.34009E-03,   2.33718E-03,   3.83192E-03
C:/temp/dataset/3/20_3.odb,Step-1,Increment      1: Step Time =    1.000,"PART-1-1",           489,         13.75,          -30.,            0.,NA,NA,"",            0.,   1.44211E-39,   4.51036E-39,   2.68181E-03
C:/temp/dataset/3/20_3.odb,Step-1,Increment      1: Step Time =    1.000,"PART-1-1",           490,           15.,        -28.75,            0.,NA,NA,"",   3.03317E-03,   593.150E-06,   2.97461E-03,   3.80464E-03
C:/temp/dataset/3/20_3.odb,Step-1,Increment      1: Step Time =    1.000,"PART-1-1",           491,       9.98010,      -28.8907,            0.,NA,NA,"",   4.87755E-03,   4.87654E-03,  -99.5329E-06,   3.08513E-03
C:/temp/dataset/3/20_3.odb,Step-1,Increment      1: Step Time =    1.000,"PART-1-1",           492,       8.70049,      -27.8380,            0.,NA,NA,"",   7.47350E-03,   6.92286E-03,  -2.81555E-03,   2.96367E-03
C:/temp/dataset/3/20_3.odb,Step-1,Increment      1: Step Time =    1.000,"PART-1-1",           493,          8.75,          -30.,            0.,NA,NA,"",            0.,   2.89563E-39,  -1.82909E-39,   2.98920E-03
C:/temp/dataset/3/20_3.odb,Step-1,Increment      1: Step Time =    1.000,"PART-1-1",           494,       11.2136,      -27.6927,            0.,NA,NA,"",   8.57901E-03,   8.24367E-03,   2.37513E-03,   3.08933E-03
C:/temp/dataset/3/20_3.odb,Step-1,Increment      1: Step Time =    1.000,"PART-1-1",           495,       12.3768,      -26.3916,            0.,NA,NA,"",   12.6268E-03,   9.46774E-03,   8.35453E-03,   4.53987E-03
C:/temp/dataset/3/20_3.odb,Step-1,Increment      1: Step Time =    1.000,"PART-1-1",           496,       11.0556,      -25.4315,            0.,NA,NA,"",   11.9633E-03,   11.1947E-03,   4.21903E-03,   3.74807E-03
C:/temp/dataset/3/20_3.odb,Step-1,Increment      1: Step Time =    1.000,"PART-1-1",           497,       9.89242,      -26.7326,            0.,NA,NA,"",   10.0049E-03,   9.93573E-03,  -1.17457E-03,   3.35662E-03
C:/temp/dataset/3/20_3.odb,Step-1,Increment      1: Step Time =    1.000,"PART-1-1",           498,   9.79186E-03,      -28.8313,            0.,NA,NA,"",   2.92753E-03,  -2.56238E-03,  -1.41586E-03,   2.14860E-03
C:/temp/dataset/3/20_3.odb,Step-1,Increment      1: Step Time =    1.000,"PART-1-1",           499,          1.25,          -30.,            0.,NA,NA,"",            0.,  -1.40874E-39,  -3.65885E-39,   2.34026E-03
C:/temp/dataset/3/20_3.odb,Step-1,Increment      1: Step Time =    1.000,"PART-1-1",           500,      -1.18061,      -25.1833,            0.,NA,NA,"",   7.71461E-03,  -6.87194E-03,  -3.50596E-03,   1.64392E-03
C:/temp/dataset/3/20_3.odb,Step-1,Increment      1: Step Time =    1.000,"PART-1-1",           501,      -2.45538,      -26.3836,            0.,NA,NA,"",   5.77934E-03,  -5.53420E-03,  -1.66535E-03,   1.26311E-03
C:/temp/dataset/3/20_3.odb,Step-1,Increment      1: Step Time =    1.000,"PART-1-1",           502,      -1.22498,      -27.6390,            0.,NA,NA,"",   4.88173E-03,  -4.46879E-03,  -1.96500E-03,   1.70251E-03
C:/temp/dataset/3/20_3.odb,Step-1,Increment      1: Step Time =    1.000,"PART-1-1",           503,      -3.70005,      -25.1329,            0.,NA,NA,"",   5.71102E-03,  -5.64666E-03,  -854.922E-06,   905.525E-06
C:/temp/dataset/3/20_3.odb,Step-1,Increment      1: Step Time =    1.000,"PART-1-1",           504,      -7.49141,      -28.7797,            0.,NA,NA,"",   1.42100E-03,  -1.41814E-03,  -90.1420E-06,   732.722E-06
C:/temp/dataset/3/20_3.odb,Step-1,Increment      1: Step Time =    1.000,"PART-1-1",           505,         -6.25,          -30.,            0.,NA,NA,"",            0.,  -923.205E-42,  -545.315E-42,   1.01168E-03
C:/temp/dataset/3/20_3.odb,Step-1,Increment      1: Step Time =    1.000,"PART-1-1",           506,      -12.4949,      -26.2800,            0.,NA,NA,"",   2.56658E-03,  -2.55428E-03,  -250.990E-06,   282.227E-06
C:/temp/dataset/3/20_3.odb,Step-1,Increment      1: Step Time =    1.000,"PART-1-1",           507,          -15.,        -26.25,            0.,NA,NA,"",   2.85436E-03,  -2.60434E-03,  -1.16822E-03,   87.2144E-06
C:/temp/dataset/3/20_3.odb,Step-1,Increment      1: Step Time =    1.000,"PART-1-1",           508,       12.0036,      -23.8365,            0.,NA,NA,"",   16.2655E-03,   8.92896E-03,   13.5955E-03,   5.06921E-03
C:/temp/dataset/3/20_3.odb,Step-1,Increment      1: Step Time =    1.000,"PART-1-1",           509,       13.6432,      -25.0896,            0.,NA,NA,"",   19.7243E-03,   7.40074E-03,   18.2833E-03,   5.99369E-03
C:/temp/dataset/3/20_3.odb,Step-1,Increment      1: Step Time =    1.000,"PART-1-1",           510,           15.,        -23.75,            0.,NA,NA,"",   32.3942E-03,   181.603E-06,   32.3937E-03,   9.35365E-03
C:/temp/dataset/3/20_3.odb,Step-1,Increment      1: Step Time =    1.000,"PART-1-1",           511,         11.25,          -30.,            0.,NA,NA,"",            0.,   3.28817E-39,   2.00762E-39,   3.23838E-03
C:/temp/dataset/3/20_3.odb,Step-1,Increment      1: Step Time =    1.000,"PART-1-1",           512,       13.9281,      -14.6298,            0.,NA,NA,"",   174.109E-03,  -135.305E-03,   109.574E-03,   11.9028E-03
C:/temp/dataset/3/20_3.odb,Step-1,Increment      1: Step Time =    1.000,"PART-1-1",           513,       12.2657,      -15.3468,            0.,NA,NA,"",   120.868E-03,  -107.264E-03,   55.7092E-03,   6.13671E-03
C:/temp/dataset/3/20_3.odb,Step-1,Increment      1: Step Time =    1.000,"PART-1-1",           514,           15.,        -16.25,            0.,NA,NA,"",   154.394E-03,  -97.9127E-03,   119.376E-03,   15.3581E-03
C:/temp/dataset/3/20_3.odb,Step-1,Increment      1: Step Time =    1.000,"PART-1-1",           515,       7.13425,      -14.5121,            0.,NA,NA,"",   166.838E-03,  -134.487E-03,  -98.7328E-03,   12.1435E-03
C:/temp/dataset/3/20_3.odb,Step-1,Increment      1: Step Time =    1.000,"PART-1-1",           516,       6.81531,      -16.2905,            0.,NA,NA,"",   122.120E-03,  -85.6885E-03,  -87.0104E-03,   12.9027E-03
C:/temp/dataset/3/20_3.odb,Step-1,Increment      1: Step Time =    1.000,"PART-1-1",           517,       8.10983,      -17.0757,            0.,NA,NA,"",   79.2877E-03,  -62.2098E-03,  -49.1577E-03,   7.88496E-03
C:/temp/dataset/3/20_3.odb,Step-1,Increment      1: Step Time =    1.000,"PART-1-1",           518,       13.8641,      -7.41825,            0.,NA,NA,"",   475.584E-03,  -441.158E-03,   177.651E-03,   11.7399E-03
C:/temp/dataset/3/20_3.odb,Step-1,Increment      1: Step Time =    1.000,"PART-1-1",           519,       13.0286,      -8.63342,            0.,NA,NA,"",   392.118E-03,  -371.590E-03,   125.209E-03,   8.89758E-03
C:/temp/dataset/3/20_3.odb,Step-1,Increment      1: Step Time =    1.000,"PART-1-1",           520,       14.1645,      -9.96517,            0.,NA,NA,"",   355.951E-03,  -314.083E-03,   167.490E-03,   13.0651E-03
C:/temp/dataset/3/20_3.odb,Step-1,Increment      1: Step Time =    1.000,"PART-1-1",           521,           15.,         -8.75,            0.,NA,NA,"",   439.173E-03,  -379.191E-03,   221.557E-03,   15.9772E-03
C:/temp/dataset/3/20_3.odb,Step-1,Increment      1: Step Time =    1.000,"PART-1-1",           522,       12.0251,      -10.9831,            0.,NA,NA,"",   266.708E-03,  -258.198E-03,   66.8378E-03,   5.32772E-03
C:/temp/dataset/3/20_3.odb,Step-1,Increment      1: Step Time =    1.000,"PART-1-1",           523,       12.8055,      -11.9581,            0.,NA,NA,"",   240.612E-03,  -221.773E-03,   93.3334E-03,   8.01232E-03
C:/temp/dataset/3/20_3.odb,Step-1,Increment      1: Step Time =    1.000,"PART-1-1",           524,       13.3751,      -11.0455,            0.,NA,NA,"",   289.045E-03,  -261.579E-03,   122.978E-03,   10.1048E-03
C:/temp/dataset/3/20_3.odb,Step-1,Increment      1: Step Time =    1.000,"PART-1-1",           525,       12.5947,      -10.0706,            0.,NA,NA,"",   315.345E-03,  -300.413E-03,   95.8869E-03,   7.38158E-03
C:/temp/dataset/3/20_3.odb,Step-1,Increment      1: Step Time =    1.000,"PART-1-1",           526,       11.4853,  -434.223E-03,            0.,NA,NA,"",   900.721E-03,  -898.905E-03,   57.1648E-03,   6.33734E-03
C:/temp/dataset/3/20_3.odb,Step-1,Increment      1: Step Time =    1.000,"PART-1-1",           527,       10.5886,      -1.82652,            0.,NA,NA,"",   791.597E-03,  -791.596E-03,   1.21532E-03,   6.87648E-03
C:/temp/dataset/3/20_3.odb,Step-1,Increment      1: Step Time =    1.000,"PART-1-1",           528,       11.9063,      -2.70193,            0.,NA,NA,"",   736.978E-03,  -732.035E-03,   85.2145E-03,   6.73232E-03
C:/temp/dataset/3/20_3.odb,Step-1,Increment      1: Step Time =    1.000,"PART-1-1",           529,       14.1300,       7.44597,            0.,NA,NA,"",       1.51931,      -1.50204,   228.400E-03,   211.381E-06
C:/temp/dataset/3/20_3.odb,Step-1,Increment      1: Step Time =    1.000,"PART-1-1",           530,       13.1865,       6.25975,            0.,NA,NA,"",       1.42106,      -1.41175,   162.371E-03,   826.326E-06
C:/temp/dataset/3/20_3.odb,Step-1,Increment      1: Step Time =    1.000,"PART-1-1",           531,           15.,          6.25,            0.,NA,NA,"",       1.44650,      -1.41589,   296.007E-03,   49.8581E-06
C:/temp/dataset/3/20_3.odb,Step-1,Increment      1: Step Time =    1.000,"PART-1-1",           532,       12.4155,       5.33720,            0.,NA,NA,"",       1.34538,      -1.34099,   108.596E-03,   1.55155E-03
C:/temp/dataset/3/20_3.odb,Step-1,Increment      1: Step Time =    1.000,"PART-1-1",           533,       11.2733,       3.54111,            0.,NA,NA,"",       1.20374,      -1.20332,   32.0000E-03,   3.51025E-03
C:/temp/dataset/3/20_3.odb,Step-1,Increment      1: Step Time =    1.000,"PART-1-1",           534,       12.2480,       13.5548,            0.,NA,NA,"",       1.94465,      -1.94323,   74.2719E-03,   90.4185E-06
C:/temp/dataset/3/20_3.odb,Step-1,Increment      1: Step Time =    1.000,"PART-1-1",           535,           15.,         13.75,            0.,NA,NA,"",       1.98376,      -1.96472,   274.203E-03,   91.1718E-06
C:/temp/dataset/3/20_3.odb,Step-1,Increment      1: Step Time =    1.000,"PART-1-1",           536,       13.6600,       14.9734,            0.,NA,NA,"",       2.05751,      -2.05019,   173.361E-03,   38.5408E-06
C:/temp/dataset/3/20_3.odb,Step-1,Increment      1: Step Time =    1.000,"PART-1-1",           537,       8.15326,       10.4556,            0.,NA,NA,"",       1.72030,      -1.70671,  -215.731E-03,   140.882E-06
C:/temp/dataset/3/20_3.odb,Step-1,Increment      1: Step Time =    1.000,"PART-1-1",           538,       12.3824,       21.2920,            0.,NA,NA,"",       2.50734,      -2.50654,   63.6035E-03,   2.47514E-06
C:/temp/dataset/3/20_3.odb,Step-1,Increment      1: Step Time =    1.000,"PART-1-1",           539,       13.6892,       20.0188,            0.,NA,NA,"",       2.42278,      -2.41736,   162.078E-03,   2.19093E-06
C:/temp/dataset/3/20_3.odb,Step-1,Increment      1: Step Time =    1.000,"PART-1-1",           540,           15.,         21.25,            0.,NA,NA,"",       2.52326,      -2.51042,   254.201E-03,   788.941E-09
C:/temp/dataset/3/20_3.odb,Step-1,Increment      1: Step Time =    1.000,"PART-1-1",           541,       13.6932,       22.5232,            0.,NA,NA,"",       2.60427,      -2.59961,   155.729E-03,   641.559E-09
C:/temp/dataset/3/20_3.odb,Step-1,Increment      1: Step Time =    1.000,"PART-1-1",           542,       9.77662,       16.3041,            0.,NA,NA,"",       2.13961,      -2.13663,  -112.850E-03,   42.0467E-06
C:/temp/dataset/3/20_3.odb,Step-1,Increment      1: Step Time =    1.000,"PART-1-1",           543,       11.0318,       15.0036,            0.,NA,NA,"",       2.04544,      -2.04536,  -18.0883E-03,   52.9128E-06
C:/temp/dataset/3/20_3.odb,Step-1,Increment      1: Step Time =    1.000,"PART-1-1",           544,       12.3430,       16.2301,            0.,NA,NA,"",       2.13940,      -2.13812,   74.1429E-03,   38.5541E-06
C:/temp/dataset/3/20_3.odb,Step-1,Increment      1: Step Time =    1.000,"PART-1-1",           545,         13.75,           30.,            0.,NA,NA,"",       3.14698,      -3.14387,   140.041E-03,   70.7371E-09
C:/temp/dataset/3/20_3.odb,Step-1,Increment      1: Step Time =    1.000,"PART-1-1",           546,       12.4862,       28.7548,            0.,NA,NA,"",       3.05033,      -3.04990,   51.3700E-03,   293.062E-09
C:/temp/dataset/3/20_3.odb,Step-1,Increment      1: Step Time =    1.000,"PART-1-1",           547,           15.,         28.75,            0.,NA,NA,"",       3.06518,      -3.05621,   234.322E-03,   86.9500E-09
C:/temp/dataset/3/20_3.odb,Step-1,Increment      1: Step Time =    1.000,"PART-1-1",           548,       12.4064,       23.7898,            0.,NA,NA,"",       2.68901,      -2.68837,   58.7280E-03,   294.426E-09
C:/temp/dataset/3/20_3.odb,Step-1,Increment      1: Step Time =    1.000,"PART-1-1",           549,           15.,         23.75,            0.,NA,NA,"",       2.70371,      -2.69235,   247.577E-03,   1.07030E-06
C:/temp/dataset/3/20_3.odb,Step-1,Increment      1: Step Time =    1.000,"PART-1-1",           550,       9.91541,       26.3072,            0.,NA,NA,"",       2.86787,      -2.86496,  -129.221E-03,   302.527E-09
C:/temp/dataset/3/20_3.odb,Step-1,Increment      1: Step Time =    1.000,"PART-1-1",           551,       11.1537,       25.0565,            0.,NA,NA,"",       2.77746,      -2.77723,  -35.7892E-03,   385.147E-09
C:/temp/dataset/3/20_3.odb,Step-1,Increment      1: Step Time =    1.000,"PART-1-1",           552,       11.2110,       27.5221,            0.,NA,NA,"",       2.95706,      -2.95681,  -38.1558E-03,   392.108E-09
C:/temp/dataset/3/20_3.odb,Step-1,Increment      1: Step Time =    1.000,"PART-1-1",           553,       8.69233,       27.5515,            0.,NA,NA,"",       2.96057,      -2.95227,  -221.528E-03,   242.770E-09
C:/temp/dataset/3/20_3.odb,Step-1,Increment      1: Step Time =    1.000,"PART-1-1",           554,       7.41297,       26.3376,            0.,NA,NA,"",       2.87744,      -2.86054,  -311.413E-03,   231.821E-09
C:/temp/dataset/3/20_3.odb,Step-1,Increment      1: Step Time =    1.000,"PART-1-1",           555,       8.63604,       25.0933,            0.,NA,NA,"",       2.78187,      -2.77323,  -219.106E-03,   271.574E-09
C:/temp/dataset/3/20_3.odb,Step-1,Increment      1: Step Time =    1.000,"PART-1-1",           556,      -1.26375,       27.5391,            0.,NA,NA,"",       3.07416,      -2.92497,  -946.040E-03,   53.0300E-09
C:/temp/dataset/3/20_3.odb,Step-1,Increment      1: Step Time =    1.000,"PART-1-1",           557,         -1.25,           30.,            0.,NA,NA,"",       3.24667,      -3.10410,  -951.564E-03,   52.9173E-09
C:/temp/dataset/3/20_3.odb,Step-1,Increment      1: Step Time =    1.000,"PART-1-1",           558,      -2.50500,       28.7640,            0.,NA,NA,"",       3.18525,      -3.01082,      -1.03962,   30.9442E-09
C:/temp/dataset/3/20_3.odb,Step-1,Increment      1: Step Time =    1.000,"PART-1-1",           559,      -7.50143,       28.7522,            0.,NA,NA,"",       3.30896,      -2.99671,      -1.40320,   20.6239E-09
C:/temp/dataset/3/20_3.odb,Step-1,Increment      1: Step Time =    1.000,"PART-1-1",           560,         -8.75,           30.,            0.,NA,NA,"",       3.42848,      -3.08421,      -1.49737,   21.8881E-09
C:/temp/dataset/3/20_3.odb,Step-1,Increment      1: Step Time =    1.000,"PART-1-1",           561,      -6.25460,       27.5081,            0.,NA,NA,"",       3.19045,      -2.90948,      -1.30916,   19.9814E-09
C:/temp/dataset/3/20_3.odb,Step-1,Increment      1: Step Time =    1.000,"PART-1-1",           562,        -13.75,           30.,            0.,NA,NA,"",       3.59096,      -3.07095,      -1.86124,   14.8610E-09
C:/temp/dataset/3/20_3.odb,Step-1,Increment      1: Step Time =    1.000,"PART-1-1",           563,          -15.,         28.75,            0.,NA,NA,"",       3.55792,      -2.97667,      -1.94890,   10.4719E-09
C:/temp/dataset/3/20_3.odb,Step-1,Increment      1: Step Time =    1.000,"PART-1-1",           564,      -13.7509,       27.5010,            0.,NA,NA,"",       3.43317,      -2.88909,      -1.85468,   11.8363E-09
C:/temp/dataset/3/20_3.odb,Step-1,Increment      1: Step Time =    1.000,"PART-1-1",           565,          -15.,         26.25,            0.,NA,NA,"",       3.40337,      -2.79474,      -1.94227,   11.1787E-09
C:/temp/dataset/3/20_3.odb,Step-1,Increment      1: Step Time =    1.000,"PART-1-1",           566,      -12.5016,       26.2536,            0.,NA,NA,"",       3.30882,      -2.80162,      -1.76046,   13.7513E-09
C:/temp/dataset/3/20_3.odb,Step-1,Increment      1: Step Time =    1.000,"PART-1-1",           567,      -7.50093,       21.2547,            0.,NA,NA,"",       2.81448,      -2.45109,      -1.38328,   13.4748E-09
C:/temp/dataset/3/20_3.odb,Step-1,Increment      1: Step Time =    1.000,"PART-1-1",           568,         -6.25,           20.,            0.,NA,NA,"",       2.69175,      -2.36310,      -1.28892,   22.3319E-09
C:/temp/dataset/3/20_3.odb,Step-1,Increment      1: Step Time =    1.000,"PART-1-1",           569,      -4.99978,       21.2574,            0.,NA,NA,"",       2.73577,      -2.45792,      -1.20127,   17.3128E-09
C:/temp/dataset/3/20_3.odb,Step-1,Increment      1: Step Time =    1.000,"PART-1-1",           570,      -3.74911,       22.5208,            0.,NA,NA,"",       2.78547,      -2.55318,      -1.11360,   17.5009E-09
C:/temp/dataset/3/20_3.odb,Step-1,Increment      1: Step Time =    1.000,"PART-1-1",           571,         -3.75,           20.,            0.,NA,NA,"",       2.61553,      -2.36973,      -1.10698,   24.9805E-09
C:/temp/dataset/3/20_3.odb,Step-1,Increment      1: Step Time =    1.000,"PART-1-1",           572,      -2.49933,       21.2634,            0.,NA,NA,"",       2.66743,      -2.46499,      -1.01932,   24.1164E-09
C:/temp/dataset/3/20_3.odb,Step-1,Increment      1: Step Time =    1.000,"PART-1-1",           573,         -1.25,           20.,            0.,NA,NA,"",       2.55006,      -2.37636,  -925.049E-03,   36.1327E-09
C:/temp/dataset/3/20_3.odb,Step-1,Increment      1: Step Time =    1.000,"PART-1-1",           574,  -2.23348E-03,       21.2694,            0.,NA,NA,"",       2.61009,      -2.47204,  -837.610E-03,   40.0571E-09
C:/temp/dataset/3/20_3.odb,Step-1,Increment      1: Step Time =    1.000,"PART-1-1",           575,      -1.25156,       22.5328,            0.,NA,NA,"",       2.72497,      -2.56067,  -931.878E-03,   45.7957E-09
C:/temp/dataset/3/20_3.odb,Step-1,Increment      1: Step Time =    1.000,"PART-1-1",           576,         -3.75,           30.,            0.,NA,NA,"",       3.29835,      -3.09747,      -1.13350,   30.9061E-09
C:/temp/dataset/3/20_3.odb,Step-1,Increment      1: Step Time =    1.000,"PART-1-1",           577,      -5.00318,       28.7559,            0.,NA,NA,"",       3.24245,      -3.00361,      -1.22140,   23.8432E-09
C:/temp/dataset/3/20_3.odb,Step-1,Increment      1: Step Time =    1.000,"PART-1-1",           578,       7.36074,       18.8052,            0.,NA,NA,"",       2.33100,      -2.31223,  -295.240E-03,   11.3441E-06
C:/temp/dataset/3/20_3.odb,Step-1,Increment      1: Step Time =    1.000,"PART-1-1",           579,       8.58169,       17.5494,            0.,NA,NA,"",       2.23332,      -2.22407,  -203.074E-03,   17.7619E-06
C:/temp/dataset/3/20_3.odb,Step-1,Increment      1: Step Time =    1.000,"PART-1-1",           580,       8.60057,       20.0599,            0.,NA,NA,"",       2.41584,      -2.40684,  -208.343E-03,   4.08875E-06
C:/temp/dataset/3/20_3.odb,Step-1,Increment      1: Step Time =    1.000,"PART-1-1",           581,            5.,         18.75,            0.,NA,NA,"",       2.34882,      -2.30195,  -466.896E-03,   3.83322E-06
C:/temp/dataset/3/20_3.odb,Step-1,Increment      1: Step Time =    1.000,"PART-1-1",           582,       6.17685,       17.5255,            0.,NA,NA,"",       2.24795,      -2.21594,  -377.995E-03,   10.4821E-06
C:/temp/dataset/3/20_3.odb,Step-1,Increment      1: Step Time =    1.000,"PART-1-1",           583,       6.18390,       20.0298,            0.,NA,NA,"",       2.42880,      -2.39823,  -384.131E-03,   1.95610E-06
C:/temp/dataset/3/20_3.odb,Step-1,Increment      1: Step Time =    1.000,"PART-1-1",           584,            5.,         16.25,            0.,NA,NA,"",       2.16937,      -2.11998,  -460.247E-03,   29.3272E-06
C:/temp/dataset/3/20_3.odb,Step-1,Increment      1: Step Time =    1.000,"PART-1-1",           585,       6.15340,       15.0385,            0.,NA,NA,"",       2.06876,      -2.03484,  -373.070E-03,   40.2905E-06
C:/temp/dataset/3/20_3.odb,Step-1,Increment      1: Step Time =    1.000,"PART-1-1",           586,       7.33024,       16.3140,            0.,NA,NA,"",       2.15057,      -2.13081,  -290.858E-03,   37.4125E-06
C:/temp/dataset/3/20_3.odb,Step-1,Increment      1: Step Time =    1.000,"PART-1-1",           587,           15.,         16.25,            0.,NA,NA,"",       2.16321,      -2.14661,   267.473E-03,   27.0537E-06
C:/temp/dataset/3/20_3.odb,Step-1,Increment      1: Step Time =    1.000,"PART-1-1",           588,       13.6830,       17.5067,            0.,NA,NA,"",       2.24088,      -2.23456,   168.290E-03,   11.1511E-06
C:/temp/dataset/3/20_3.odb,Step-1,Increment      1: Step Time =    1.000,"PART-1-1",           589,           15.,         18.75,            0.,NA,NA,"",       2.34307,      -2.32851,   260.828E-03,   4.38203E-06
C:/temp/dataset/3/20_3.odb,Step-1,Increment      1: Step Time =    1.000,"PART-1-1",           590,       7.36831,       6.81272,            0.,NA,NA,"",       1.46646,      -1.44265,  -263.158E-03,   1.51513E-03
C:/temp/dataset/3/20_3.odb,Step-1,Increment      1: Step Time =    1.000,"PART-1-1",           591,       6.10412,       7.73110,            0.,NA,NA,"",       1.54694,      -1.50519,  -356.986E-03,   816.873E-06
C:/temp/dataset/3/20_3.odb,Step-1,Increment      1: Step Time =    1.000,"PART-1-1",           592,            5.,          6.25,            0.,NA,NA,"",       1.46317,      -1.39803,  -431.704E-03,   2.76600E-03
C:/temp/dataset/3/20_3.odb,Step-1,Increment      1: Step Time =    1.000,"PART-1-1",           593,       6.26419,       5.33162,            0.,NA,NA,"",       1.38048,      -1.33823,  -338.902E-03,   5.53025E-03
C:/temp/dataset/3/20_3.odb,Step-1,Increment      1: Step Time =    1.000,"PART-1-1",           594,           15.,          8.75,            0.,NA,NA,"",       1.62592,      -1.60012,   288.503E-03,   317.319E-06
C:/temp/dataset/3/20_3.odb,Step-1,Increment      1: Step Time =    1.000,"PART-1-1",           595,       13.1418,       8.51598,            0.,NA,NA,"",       1.58554,      -1.57814,   152.966E-03,   135.538E-06
C:/temp/dataset/3/20_3.odb,Step-1,Increment      1: Step Time =    1.000,"PART-1-1",           596,       6.30252,      -5.49102,            0.,NA,NA,"",   579.547E-03,  -521.871E-03,  -252.042E-03,   15.1654E-03
C:/temp/dataset/3/20_3.odb,Step-1,Increment      1: Step Time =    1.000,"PART-1-1",           597,            5.,         -6.25,            0.,NA,NA,"",   585.862E-03,  -491.019E-03,  -319.585E-03,   25.3105E-03
C:/temp/dataset/3/20_3.odb,Step-1,Increment      1: Step Time =    1.000,"PART-1-1",           598,       6.10325,      -7.87566,            0.,NA,NA,"",   464.534E-03,  -403.557E-03,  -230.074E-03,   16.0303E-03
C:/temp/dataset/3/20_3.odb,Step-1,Increment      1: Step Time =    1.000,"PART-1-1",           599,       7.40577,      -7.11668,            0.,NA,NA,"",   468.475E-03,  -436.742E-03,  -169.488E-03,   8.65569E-03
C:/temp/dataset/3/20_3.odb,Step-1,Increment      1: Step Time =    1.000,"PART-1-1",           600,            5.,         -8.75,            0.,NA,NA,"",   457.562E-03,  -371.046E-03,  -267.746E-03,   19.7670E-03
C:/temp/dataset/3/20_3.odb,Step-1,Increment      1: Step Time =    1.000,"PART-1-1",           601,            5.,        -13.75,            0.,NA,NA,"",   247.811E-03,  -172.107E-03,  -178.297E-03,   19.0280E-03
C:/temp/dataset/3/20_3.odb,Step-1,Increment      1: Step Time =    1.000,"PART-1-1",           602,       5.77894,      -15.1288,            0.,NA,NA,"",   181.054E-03,  -124.373E-03,  -131.574E-03,   16.6329E-03
C:/temp/dataset/3/20_3.odb,Step-1,Increment      1: Step Time =    1.000,"PART-1-1",           603,            5.,        -16.25,            0.,NA,NA,"",   168.091E-03,  -99.8797E-03,  -135.198E-03,   19.3482E-03
C:/temp/dataset/3/20_3.odb,Step-1,Increment      1: Step Time =    1.000,"PART-1-1",           604,       2.77244,      -24.0596,            0.,NA,NA,"",   17.2207E-03,  -7.61807E-03,  -15.4440E-03,   4.73062E-03
C:/temp/dataset/3/20_3.odb,Step-1,Increment      1: Step Time =    1.000,"PART-1-1",           605,       3.76359,      -25.5842,            0.,NA,NA,"",   13.9649E-03,  -3.74401E-03,  -13.4537E-03,   4.82002E-03
C:/temp/dataset/3/20_3.odb,Step-1,Increment      1: Step Time =    1.000,"PART-1-1",           606,       5.11162,      -24.8806,            0.,NA,NA,"",   18.7079E-03,  -1.12574E-03,  -18.6739E-03,   6.45326E-03
C:/temp/dataset/3/20_3.odb,Step-1,Increment      1: Step Time =    1.000,"PART-1-1",           607,       4.12047,      -23.3559,            0.,NA,NA,"",   25.6359E-03,  -6.75638E-03,  -24.7296E-03,   6.71141E-03
C:/temp/dataset/3/20_3.odb,Step-1,Increment      1: Step Time =    1.000,"PART-1-1",           608,       8.48587,      -2.76980,            0.,NA,NA,"",   728.169E-03,  -716.533E-03,  -129.656E-03,   7.37572E-03
C:/temp/dataset/3/20_3.odb,Step-1,Increment      1: Step Time =    1.000,"PART-1-1",           609,       9.66601,      -3.38468,            0.,NA,NA,"",   677.502E-03,  -675.403E-03,  -53.2835E-03,   6.05903E-03
C:/temp/dataset/3/20_3.odb,Step-1,Increment      1: Step Time =    1.000,"PART-1-1",           610,       9.40849,      -1.21164,            0.,NA,NA,"",   838.993E-03,  -835.450E-03,  -77.0254E-03,   7.41147E-03
C:/temp/dataset/3/20_3.odb,Step-1,Increment      1: Step Time =    1.000,"PART-1-1",           611,       3.88333,            5.,            0.,NA,NA,"",       1.42753,      -1.32838,  -522.751E-03,   11.7776E-03
C:/temp/dataset/3/20_3.odb,Step-1,Increment      1: Step Time =    1.000,"PART-1-1",           612,       3.93709,       2.49951,            0.,NA,NA,"",       1.23564,      -1.12864,  -502.953E-03,   3.95452E-03
C:/temp/dataset/3/20_3.odb,Step-1,Increment      1: Step Time =    1.000,"PART-1-1",           613,       5.14044,       3.62548,            0.,NA,NA,"",       1.28445,      -1.21648,  -412.292E-03,   6.82724E-03
C:/temp/dataset/3/20_3.odb,Step-1,Increment      1: Step Time =    1.000,"PART-1-1",           614,       1.70000,           -5.,            0.,NA,NA,"",   833.364E-03,  -493.335E-03,  -671.652E-03,   7.15368E-03
C:/temp/dataset/3/20_3.odb,Step-1,Increment      1: Step Time =    1.000,"PART-1-1",           615,       2.88648,      -4.17028,            0.,NA,NA,"",   809.542E-03,  -582.633E-03,  -562.047E-03,   9.09894E-03
C:/temp/dataset/3/20_3.odb,Step-1,Increment      1: Step Time =    1.000,"PART-1-1",           616,       1.90498,      -3.27989,            0.,NA,NA,"",   921.731E-03,  -649.249E-03,  -654.266E-03,   7.00323E-03
C:/temp/dataset/3/20_3.odb,Step-1,Increment      1: Step Time =    1.000,"PART-1-1",           617,      -2.82853,       3.20340,            0.,NA,NA,"",       1.63183,      -1.18435,      -1.12258,   5.18854E-03
C:/temp/dataset/3/20_3.odb,Step-1,Increment      1: Step Time =    1.000,"PART-1-1",           618,      -1.73717,       4.08745,            0.,NA,NA,"",       1.62805,      -1.26508,      -1.02475,   5.16004E-03
C:/temp/dataset/3/20_3.odb,Step-1,Increment      1: Step Time =    1.000,"PART-1-1",           619,      -2.81667,            5.,            0.,NA,NA,"",       1.76315,      -1.34891,      -1.13540,   4.24037E-03
C:/temp/dataset/3/20_3.odb,Step-1,Increment      1: Step Time =    1.000,"PART-1-1",           620,      -7.28333,            5.,            0.,NA,NA,"",       2.04387,      -1.33513,      -1.54753,   2.52752E-03
C:/temp/dataset/3/20_3.odb,Step-1,Increment      1: Step Time =    1.000,"PART-1-1",           621,      -11.7000,            5.,            0.,NA,NA,"",       2.34521,      -1.31962,      -1.93871,   250.341E-06
C:/temp/dataset/3/20_3.odb,Step-1,Increment      1: Step Time =    1.000,"PART-1-1",           622,      -11.5540,       2.50359,            0.,NA,NA,"",       2.20673,      -1.09596,      -1.91534,   136.050E-06
C:/temp/dataset/3/20_3.odb,Step-1,Increment      1: Step Time =    1.000,"PART-1-1",           623,      -8.37698,      -4.01732,            0.,NA,NA,"",       1.68212,  -519.558E-03,      -1.59987,   187.145E-06
C:/temp/dataset/3/20_3.odb,Step-1,Increment      1: Step Time =    1.000,"PART-1-1",           624,      -10.5279,      -3.86372,            0.,NA,NA,"",       1.87114,  -524.707E-03,      -1.79607,   113.341E-06
C:/temp/dataset/3/20_3.odb,Step-1,Increment      1: Step Time =    1.000,"PART-1-1",           625,      -9.41667,           -5.,            0.,NA,NA,"",       1.74325,  -425.992E-03,      -1.69040,   205.154E-06
C:/temp/dataset/3/20_3.odb,Step-1,Increment      1: Step Time =    1.000,"PART-1-1",           626,          3.75,          -20.,            0.,NA,NA,"",   28.8815E-03,  -5.05507E-03,  -28.4356E-03,   8.96451E-03
C:/temp/dataset/3/20_3.odb,Step-1,Increment      1: Step Time =    1.000,"PART-1-1",           627,       2.74072,      -21.3682,            0.,NA,NA,"",   22.3684E-03,  -8.74983E-03,  -20.5860E-03,   3.19871E-03
C:/temp/dataset/3/20_3.odb,Step-1,Increment      1: Step Time =    1.000,"PART-1-1",           628,       4.11640,      -22.1674,            0.,NA,NA,"",   32.3748E-03,  -9.95484E-03,  -30.8063E-03,   8.37362E-03
C:/temp/dataset/3/20_3.odb,Step-1,Increment      1: Step Time =    1.000,"PART-1-1",           629,       5.12568,      -20.7992,            0.,NA,NA,"",   51.0365E-03,  -10.5780E-03,  -49.9282E-03,   14.5177E-03
C:/temp/dataset/3/20_3.odb,Step-1,Increment      1: Step Time =    1.000,"PART-1-1",           630,          1.25,          -20.,            0.,NA,NA,"",   10.3851E-03,  -891.406E-06,  -10.3468E-03,   903.829E-06
C:/temp/dataset/3/20_3.odb,Step-1,Increment      1: Step Time =    1.000,"PART-1-1",           631,   73.0809E-03,      -21.3299,            0.,NA,NA,"",   8.26596E-03,  -5.19625E-03,  -6.42846E-03,   717.919E-06
C:/temp/dataset/3/20_3.odb,Step-1,Increment      1: Step Time =    1.000,"PART-1-1",           632,       1.56380,      -22.6981,            0.,NA,NA,"",   15.3712E-03,  -8.71918E-03,  -12.6590E-03,   3.60833E-03
C:/temp/dataset/3/20_3.odb,Step-1,Increment      1: Step Time =    1.000,"PART-1-1",           633,         -1.25,          -20.,            0.,NA,NA,"",   4.54764E-03,  -2.71405E-03,  -3.64898E-03,   470.767E-06
C:/temp/dataset/3/20_3.odb,Step-1,Increment      1: Step Time =    1.000,"PART-1-1",           634,      -2.46493,      -21.3147,            0.,NA,NA,"",   4.99249E-03,  -4.68776E-03,  -1.71753E-03,   125.581E-06
C:/temp/dataset/3/20_3.odb,Step-1,Increment      1: Step Time =    1.000,"PART-1-1",           635,      -1.14185,      -22.6446,            0.,NA,NA,"",   7.63757E-03,  -6.59718E-03,  -3.84834E-03,   1.12234E-03
C:/temp/dataset/3/20_3.odb,Step-1,Increment      1: Step Time =    1.000,"PART-1-1",           636,         -3.75,          -20.,            0.,NA,NA,"",   3.58044E-03,  -3.54263E-03,  -518.948E-06,   310.866E-06
C:/temp/dataset/3/20_3.odb,Step-1,Increment      1: Step Time =    1.000,"PART-1-1",           637,      -4.97847,      -21.2978,            0.,NA,NA,"",   4.50110E-03,  -4.49529E-03,   228.610E-06,   34.5981E-06
C:/temp/dataset/3/20_3.odb,Step-1,Increment      1: Step Time =    1.000,"PART-1-1",           638,      -3.69340,      -22.6125,            0.,NA,NA,"",   5.41220E-03,  -5.38145E-03,  -576.088E-06,   432.984E-06
C:/temp/dataset/3/20_3.odb,Step-1,Increment      1: Step Time =    1.000,"PART-1-1",           639,      -4.95791,      -23.8547,            0.,NA,NA,"",   5.22780E-03,  -5.22760E-03,  -45.6090E-06,   487.771E-06
C:/temp/dataset/3/20_3.odb,Step-1,Increment      1: Step Time =    1.000,"PART-1-1",           640,      -6.21189,      -22.5887,            0.,NA,NA,"",   4.76118E-03,  -4.73762E-03,   473.080E-06,   243.173E-06
C:/temp/dataset/3/20_3.odb,Step-1,Increment      1: Step Time =    1.000,"PART-1-1",           641,      -7.46939,      -23.8324,            0.,NA,NA,"",   4.44316E-03,  -4.42084E-03,   444.838E-06,   301.830E-06
C:/temp/dataset/3/20_3.odb,Step-1,Increment      1: Step Time =    1.000,"PART-1-1",           642,           15.,        -13.75,            0.,NA,NA,"",   229.341E-03,  -170.314E-03,   153.592E-03,   15.8691E-03
C:/temp/dataset/3/20_3.odb,Step-1,Increment      1: Step Time =    1.000,"PART-1-1",           643,       14.2106,      -12.3304,            0.,NA,NA,"",   258.711E-03,  -215.188E-03,   143.616E-03,   13.1387E-03
C:/temp/dataset/3/20_3.odb,Step-1,Increment      1: Step Time =    1.000,"PART-1-1",           644,       13.1387,      -13.2101,            0.,NA,NA,"",   201.896E-03,  -177.222E-03,   96.7185E-03,   9.18574E-03
C:/temp/dataset/3/20_3.odb,Step-1,Increment      1: Step Time =    1.000,"PART-1-1",           645,           15.,        -11.25,            0.,NA,NA,"",   323.941E-03,  -263.927E-03,   187.829E-03,   16.0934E-03
C:/temp/dataset/3/20_3.odb,Step-1,Increment      1: Step Time =    1.000,"PART-1-1",           646,           15.,         -6.25,            0.,NA,NA,"",   575.619E-03,  -516.964E-03,   253.149E-03,   14.9095E-03
C:/temp/dataset/3/20_3.odb,Step-1,Increment      1: Step Time =    1.000,"PART-1-1",           647,       14.0624,      -4.92369,            0.,NA,NA,"",   628.198E-03,  -592.086E-03,   209.919E-03,   11.1589E-03
C:/temp/dataset/3/20_3.odb,Step-1,Increment      1: Step Time =    1.000,"PART-1-1",           648,       12.9264,      -6.09194,            0.,NA,NA,"",   529.756E-03,  -512.150E-03,   135.439E-03,   8.22754E-03
C:/temp/dataset/3/20_3.odb,Step-1,Increment      1: Step Time =    1.000,"PART-1-1",           649,           15.,         -3.75,            0.,NA,NA,"",   732.040E-03,  -676.589E-03,   279.482E-03,   12.2858E-03
C:/temp/dataset/3/20_3.odb,Step-1,Increment      1: Step Time =    1.000,"PART-1-1",           650,       13.0440,      -3.68493,            0.,NA,NA,"",   685.945E-03,  -668.392E-03,   154.184E-03,   7.88788E-03
C:/temp/dataset/3/20_3.odb,Step-1,Increment      1: Step Time =    1.000,"PART-1-1",           651,       8.06094,   477.426E-03,            0.,NA,NA,"",   981.865E-03,  -965.632E-03,  -177.803E-03,   6.63670E-03
C:/temp/dataset/3/20_3.odb,Step-1,Increment      1: Step Time =    1.000,"PART-1-1",           652,       8.76493,       2.31856,            0.,NA,NA,"",       1.11757,      -1.10884,  -139.377E-03,   6.29239E-03
C:/temp/dataset/3/20_3.odb,Step-1,Increment      1: Step Time =    1.000,"PART-1-1",           653,       6.73548,       2.80805,            0.,NA,NA,"",       1.18520,      -1.14965,  -288.093E-03,   6.07694E-03
C:/temp/dataset/3/20_3.odb,Step-1,Increment      1: Step Time =    1.000,"PART-1-1",           654,       6.03149,   966.916E-03,            0.,NA,NA,"",       1.05778,      -1.00548,  -328.502E-03,   5.64153E-03
C:/temp/dataset/3/20_3.odb,Step-1,Increment      1: Step Time =    1.000,"PART-1-1",           655,            5.,          8.75,            0.,NA,NA,"",       1.63517,      -1.57519,  -438.812E-03,   493.344E-06
C:/temp/dataset/3/20_3.odb,Step-1,Increment      1: Step Time =    1.000,"PART-1-1",           656,       7.16919,       9.14751,            0.,NA,NA,"",       1.63415,      -1.60934,  -283.698E-03,   327.013E-06
C:/temp/dataset/3/20_3.odb,Step-1,Increment      1: Step Time =    1.000,"PART-1-1",           657,          3.75,           30.,            0.,NA,NA,"",       3.17227,      -3.11735,  -587.693E-03,   286.022E-09
C:/temp/dataset/3/20_3.odb,Step-1,Increment      1: Step Time =    1.000,"PART-1-1",           658,       3.71036,       27.5731,            0.,NA,NA,"",       2.99809,      -2.94063,  -584.142E-03,   231.573E-09
C:/temp/dataset/3/20_3.odb,Step-1,Increment      1: Step Time =    1.000,"PART-1-1",           659,       7.38617,       23.8490,            0.,NA,NA,"",       2.69687,      -2.67936,  -306.764E-03,   423.852E-09
C:/temp/dataset/3/20_3.odb,Step-1,Increment      1: Step Time =    1.000,"PART-1-1",           660,       6.16255,       25.1024,            0.,NA,NA,"",       2.79597,      -2.76733,  -399.136E-03,   344.534E-09
C:/temp/dataset/3/20_3.odb,Step-1,Increment      1: Step Time =    1.000,"PART-1-1",           661,       4.93576,       23.8439,            0.,NA,NA,"",       2.71616,      -2.67249,  -485.078E-03,   464.329E-09
C:/temp/dataset/3/20_3.odb,Step-1,Increment      1: Step Time =    1.000,"PART-1-1",           662,       6.15938,       22.5905,            0.,NA,NA,"",       2.61419,      -2.58452,  -392.706E-03,   600.098E-09
C:/temp/dataset/3/20_3.odb,Step-1,Increment      1: Step Time =    1.000,"PART-1-1",           663,      -10.0017,       23.7560,            0.,NA,NA,"",       3.06094,      -2.62649,      -1.57191,   12.0968E-09
C:/temp/dataset/3/20_3.odb,Step-1,Increment      1: Step Time =    1.000,"PART-1-1",           664,      -8.75135,       22.5073,            0.,NA,NA,"",       2.93760,      -2.53893,      -1.47760,   11.4051E-09
C:/temp/dataset/3/20_3.odb,Step-1,Increment      1: Step Time =    1.000,"PART-1-1",           665,      -10.0004,       21.2526,            0.,NA,NA,"",       2.90248,      -2.44431,      -1.56517,   10.4871E-09
C:/temp/dataset/3/20_3.odb,Step-1,Increment      1: Step Time =    1.000,"PART-1-1",           666,      -11.2505,       22.5043,            0.,NA,NA,"",       3.02742,      -2.53209,      -1.65946,   11.0394E-09
C:/temp/dataset/3/20_3.odb,Step-1,Increment      1: Step Time =    1.000,"PART-1-1",           667,        -11.25,           20.,            0.,NA,NA,"",       2.87288,      -2.34984,      -1.65279,   11.6178E-09
C:/temp/dataset/3/20_3.odb,Step-1,Increment      1: Step Time =    1.000,"PART-1-1",           668,         -8.75,           20.,            0.,NA,NA,"",       2.77783,      -2.35647,      -1.47086,   15.0371E-09
C:/temp/dataset/3/20_3.odb,Step-1,Increment      1: Step Time =    1.000,"PART-1-1",           669,       7.37456,       21.3253,            0.,NA,NA,"",       2.51375,      -2.49567,  -300.917E-03,   1.97312E-06
C:/temp/dataset/3/20_3.odb,Step-1,Increment      1: Step Time =    1.000,"PART-1-1",           670,      -1.26076,       25.0501,            0.,NA,NA,"",       2.90014,      -2.74384,  -939.223E-03,   55.6104E-09
C:/temp/dataset/3/20_3.odb,Step-1,Increment      1: Step Time =    1.000,"PART-1-1",           671,      -2.50213,       23.7814,            0.,NA,NA,"",       2.84010,      -2.64822,      -1.02620,   24.2237E-09
C:/temp/dataset/3/20_3.odb,Step-1,Increment      1: Step Time =    1.000,"PART-1-1",           672,          1.25,           20.,            0.,NA,NA,"",       2.49616,      -2.38298,  -743.114E-03,   84.8405E-09
C:/temp/dataset/3/20_3.odb,Step-1,Increment      1: Step Time =    1.000,"PART-1-1",           673,            5.,         13.75,            0.,NA,NA,"",       1.99037,      -1.93802,  -453.502E-03,   87.6963E-06
C:/temp/dataset/3/20_3.odb,Step-1,Increment      1: Step Time =    1.000,"PART-1-1",           674,       7.85923,       4.51418,            0.,NA,NA,"",       1.29464,      -1.27629,  -217.176E-03,   4.52906E-03
C:/temp/dataset/3/20_3.odb,Step-1,Increment      1: Step Time =    1.000,"PART-1-1",           675,       9.45843,       7.45797,            0.,NA,NA,"",       1.49645,      -1.49220,  -112.700E-03,   943.476E-06
C:/temp/dataset/3/20_3.odb,Step-1,Increment      1: Step Time =    1.000,"PART-1-1",           676,       11.3500,       8.04392,            0.,NA,NA,"",       1.53923,      -1.53905,   23.3118E-03,   469.579E-06
C:/temp/dataset/3/20_3.odb,Step-1,Increment      1: Step Time =    1.000,"PART-1-1",           677,       10.2386,       8.70699,            0.,NA,NA,"",       1.58605,      -1.58493,  -59.5582E-03,   321.981E-06
C:/temp/dataset/3/20_3.odb,Step-1,Increment      1: Step Time =    1.000,"PART-1-1",           678,   133.314E-03,       2.02047,            0.,NA,NA,"",       1.37108,      -1.08643,  -836.370E-03,   5.32181E-03
C:/temp/dataset/3/20_3.odb,Step-1,Increment      1: Step Time =    1.000,"PART-1-1",           679,       2.26054,       1.70692,            0.,NA,NA,"",       1.24272,      -1.06381,  -642.397E-03,   4.77697E-03
C:/temp/dataset/3/20_3.odb,Step-1,Increment      1: Step Time =    1.000,"PART-1-1",           680,  -583.333E-03,            5.,            0.,NA,NA,"",       1.63372,      -1.34938,  -920.987E-03,   6.34082E-03
C:/temp/dataset/3/20_3.odb,Step-1,Increment      1: Step Time =    1.000,"PART-1-1",           681,  -713.179E-03,       3.09316,            0.,NA,NA,"",       1.49515,      -1.17761,  -921.266E-03,   5.35207E-03
C:/temp/dataset/3/20_3.odb,Step-1,Increment      1: Step Time =    1.000,"PART-1-1",           682,      -10.2084,       1.19941,            0.,NA,NA,"",       2.04151,  -983.987E-03,      -1.78873,   277.231E-06
C:/temp/dataset/3/20_3.odb,Step-1,Increment      1: Step Time =    1.000,"PART-1-1",           683,      -7.18333,           -5.,            0.,NA,NA,"",       1.54897,  -434.930E-03,      -1.48666,   94.2565E-06
C:/temp/dataset/3/20_3.odb,Step-1,Increment      1: Step Time =    1.000,"PART-1-1",           684,      -7.36178,      -2.99006,            0.,NA,NA,"",       1.63248,  -617.153E-03,      -1.51133,   777.670E-06
C:/temp/dataset/3/20_3.odb,Step-1,Increment      1: Step Time =    1.000,"PART-1-1",           685,      -11.3125,  -91.5578E-03,            0.,NA,NA,"",       2.07122,  -863.020E-03,      -1.88286,   153.283E-06
C:/temp/dataset/3/20_3.odb,Step-1,Increment      1: Step Time =    1.000,"PART-1-1",           686,      -11.6500,           -5.,            0.,NA,NA,"",       1.93840,  -417.255E-03,      -1.89296,   157.005E-06
C:/temp/dataset/3/20_3.odb,Step-1,Increment      1: Step Time =    1.000,"PART-1-1",           687,      -11.6245,      -2.63993,            0.,NA,NA,"",       2.00253,  -631.167E-03,      -1.90047,   84.0736E-06
C:/temp/dataset/3/20_3.odb,Step-1,Increment      1: Step Time =    1.000,"PART-1-1",           688,      -1.03706,       1.18772,            0.,NA,NA,"",       1.38235,      -1.01223,  -941.415E-03,   5.35243E-03
C:/temp/dataset/3/20_3.odb,Step-1,Increment      1: Step Time =    1.000,"PART-1-1",           689,      -2.26684,   407.252E-03,            0.,NA,NA,"",       1.41212,  -940.688E-03,      -1.05318,   4.74203E-03
C:/temp/dataset/3/20_3.odb,Step-1,Increment      1: Step Time =    1.000,"PART-1-1",           690,      -1.61706,  -775.207E-03,            0.,NA,NA,"",       1.29692,  -841.153E-03,  -987.149E-03,   4.68394E-03
C:/temp/dataset/3/20_3.odb,Step-1,Increment      1: Step Time =    1.000,"PART-1-1",           691,      -4.44627,  -189.662E-03,            0.,NA,NA,"",       1.53251,  -880.199E-03,      -1.25452,   3.36428E-03
C:/temp/dataset/3/20_3.odb,Step-1,Increment      1: Step Time =    1.000,"PART-1-1",           692,      -3.83065,   850.686E-03,            0.,NA,NA,"",       1.54746,  -974.079E-03,      -1.20241,   4.06407E-03
C:/temp/dataset/3/20_3.odb,Step-1,Increment      1: Step Time =    1.000,"PART-1-1",           693,      -5.38306,   384.196E-03,            0.,NA,NA,"",       1.63369,  -927.764E-03,      -1.34469,   2.84544E-03
C:/temp/dataset/3/20_3.odb,Step-1,Increment      1: Step Time =    1.000,"PART-1-1",           694,       3.90000,           -5.,            0.,NA,NA,"",   702.136E-03,  -523.224E-03,  -468.222E-03,   16.2938E-03
C:/temp/dataset/3/20_3.odb,Step-1,Increment      1: Step Time =    1.000,"PART-1-1",           695,       5.25667,      -4.01677,            0.,NA,NA,"",   706.299E-03,  -617.952E-03,  -342.043E-03,   15.6488E-03
C:/temp/dataset/3/20_3.odb,Step-1,Increment      1: Step Time =    1.000,"PART-1-1",           696,       4.24316,      -3.18705,            0.,NA,NA,"",   807.150E-03,  -676.797E-03,  -439.813E-03,   7.91087E-03
C:/temp/dataset/3/20_3.odb,Step-1,Increment      1: Step Time =    1.000,"PART-1-1",           697,       9.51721,      -4.82762,            0.,NA,NA,"",   579.393E-03,  -576.403E-03,  -58.7909E-03,   4.92667E-03
C:/temp/dataset/3/20_3.odb,Step-1,Increment      1: Step Time =    1.000,"PART-1-1",           698,       8.04384,      -4.93500,            0.,NA,NA,"",   582.777E-03,  -563.875E-03,  -147.221E-03,   5.83341E-03
C:/temp/dataset/3/20_3.odb,Step-1,Increment      1: Step Time =    1.000,"PART-1-1",           699,       8.61490,      -6.56470,            0.,NA,NA,"",   480.145E-03,  -468.590E-03,  -104.701E-03,   4.39144E-03
C:/temp/dataset/3/20_3.odb,Step-1,Increment      1: Step Time =    1.000,"PART-1-1",           700,       10.0883,      -6.45732,            0.,NA,NA,"",   478.834E-03,  -478.268E-03,  -23.2702E-03,   2.53496E-03
C:/temp/dataset/3/20_3.odb,Step-1,Increment      1: Step Time =    1.000,"PART-1-1",           701,       9.29828,      -8.00429,            0.,NA,NA,"",   396.720E-03,  -391.957E-03,  -61.2909E-03,   3.29542E-03
C:/temp/dataset/3/20_3.odb,Step-1,Increment      1: Step Time =    1.000,"PART-1-1",           702,       6.27674,      -21.4047,            0.,NA,NA,"",   42.3375E-03,  -4.10978E-03,  -42.1375E-03,   9.94866E-03
C:/temp/dataset/3/20_3.odb,Step-1,Increment      1: Step Time =    1.000,"PART-1-1",           703,       7.27122,      -20.3583,            0.,NA,NA,"",   42.4434E-03,  -7.82324E-03,  -41.7161E-03,   7.67669E-03
C:/temp/dataset/3/20_3.odb,Step-1,Increment      1: Step Time =    1.000,"PART-1-1",           704,         -6.25,          -20.,            0.,NA,NA,"",   4.24360E-03,  -4.21508E-03,   491.158E-06,   215.617E-06
C:/temp/dataset/3/20_3.odb,Step-1,Increment      1: Step Time =    1.000,"PART-1-1",           705,         -1.25,          -30.,            0.,NA,NA,"",            0.,  -1.55231E-39,  -2.22869E-39,   1.93700E-03
C:/temp/dataset/3/20_3.odb,Step-1,Increment      1: Step Time =    1.000,"PART-1-1",           706,       8.60683,      -25.8105,            0.,NA,NA,"",   11.8094E-03,   9.14438E-03,  -7.47278E-03,   3.94816E-03
C:/temp/dataset/3/20_3.odb,Step-1,Increment      1: Step Time =    1.000,"PART-1-1",           707,       7.41490,      -26.9159,            0.,NA,NA,"",   9.66138E-03,   6.07526E-03,  -7.51222E-03,   4.26881E-03
C:/temp/dataset/3/20_3.odb,Step-1,Increment      1: Step Time =    1.000,"PART-1-1",           708,       6.17638,      -25.8614,            0.,NA,NA,"",   13.9224E-03,   2.98625E-03,  -13.5984E-03,   4.98656E-03
C:/temp/dataset/3/20_3.odb,Step-1,Increment      1: Step Time =    1.000,"PART-1-1",           709,       7.37219,      -25.0876,            0.,NA,NA,"",   15.8673E-03,   6.16345E-03,  -14.6213E-03,   5.56129E-03
C:/temp/dataset/3/20_3.odb,Step-1,Increment      1: Step Time =    1.000,"PART-1-1",           710,       6.30743,      -24.1068,            0.,NA,NA,"",   22.6440E-03,   1.71666E-03,  -22.5789E-03,   6.33770E-03
C:/temp/dataset/3/20_3.odb,Step-1,Increment      1: Step Time =    1.000,"PART-1-1",           711,   113.079E-03,      -23.9373,            0.,NA,NA,"",   10.3658E-03,  -7.85448E-03,  -6.76438E-03,   2.12978E-03
C:/temp/dataset/3/20_3.odb,Step-1,Increment      1: Step Time =    1.000,"PART-1-1",           712,      -2.43554,      -23.8906,            0.,NA,NA,"",   6.71864E-03,  -6.44221E-03,  -1.90737E-03,   845.153E-06
C:/temp/dataset/3/20_3.odb,Step-1,Increment      1: Step Time =    1.000,"PART-1-1",           713,      -8.72529,      -25.0755,            0.,NA,NA,"",   3.75043E-03,  -3.74029E-03,   275.576E-06,   372.082E-06
C:/temp/dataset/3/20_3.odb,Step-1,Increment      1: Step Time =    1.000,"PART-1-1",           714,      -9.97606,      -23.8175,            0.,NA,NA,"",   3.94068E-03,  -3.93089E-03,   277.714E-06,   176.889E-06
C:/temp/dataset/3/20_3.odb,Step-1,Increment      1: Step Time =    1.000,"PART-1-1",           715,      -9.99641,      -28.7682,            0.,NA,NA,"",   1.06092E-03,  -1.05968E-03,  -51.2242E-06,   539.425E-06
C:/temp/dataset/3/20_3.odb,Step-1,Increment      1: Step Time =    1.000,"PART-1-1",           716,      -11.2465,      -27.5281,            0.,NA,NA,"",   1.85670E-03,  -1.85555E-03,  -65.3683E-06,   444.430E-06
C:/temp/dataset/3/20_3.odb,Step-1,Increment      1: Step Time =    1.000,"PART-1-1",           717,        -11.25,          -30.,            0.,NA,NA,"",            0.,  -468.569E-42,  -245.950E-42,   505.543E-06
C:/temp/dataset/3/20_3.odb,Step-1,Increment      1: Step Time =    1.000,"PART-1-1",           718,         -8.75,          -30.,            0.,NA,NA,"",            0.,  -646.206E-42,  -269.758E-42,   705.229E-06
C:/temp/dataset/3/20_3.odb,Step-1,Increment      1: Step Time =    1.000,"PART-1-1",           719,      -8.73783,      -27.5479,            0.,NA,NA,"",   2.27407E-03,  -2.27407E-03,   2.72761E-06,   592.346E-06
C:/temp/dataset/3/20_3.odb,Step-1,Increment      1: Step Time =    1.000,"PART-1-1",           720,       9.45286,      -20.3748,            0.,NA,NA,"",   14.6481E-03,  -7.76632E-03,  -12.4198E-03,   3.93043E-03
C:/temp/dataset/3/20_3.odb,Step-1,Increment      1: Step Time =    1.000,"PART-1-1",           721,       8.38706,      -19.4374,            0.,NA,NA,"",   36.3036E-03,  -18.4584E-03,  -31.2608E-03,   4.69090E-03
C:/temp/dataset/3/20_3.odb,Step-1,Increment      1: Step Time =    1.000,"PART-1-1",           722,       8.33702,      -21.2957,            0.,NA,NA,"",   25.0576E-03,  -662.965E-06,  -25.0488E-03,   5.85118E-03
C:/temp/dataset/3/20_3.odb,Step-1,Increment      1: Step Time =    1.000,"PART-1-1",           723,       9.34035,      -18.0986,            0.,NA,NA,"",   43.7245E-03,  -39.6310E-03,  -18.4721E-03,   2.98674E-03
C:/temp/dataset/3/20_3.odb,Step-1,Increment      1: Step Time =    1.000,"PART-1-1",           724,       10.7511,      -19.4747,            0.,NA,NA,"",   21.1526E-03,  -19.3814E-03,   8.47326E-03,   3.33984E-03
C:/temp/dataset/3/20_3.odb,Step-1,Increment      1: Step Time =    1.000,"PART-1-1",           725,       9.57777,      -9.07511,            0.,NA,NA,"",   341.968E-03,  -339.208E-03,  -43.3577E-03,   2.87384E-03
C:/temp/dataset/3/20_3.odb,Step-1,Increment      1: Step Time =    1.000,"PART-1-1",           726,       10.3854,      -7.79904,            0.,NA,NA,"",   404.473E-03,  -404.430E-03,  -5.90244E-03,   1.68663E-03
C:/temp/dataset/3/20_3.odb,Step-1,Increment      1: Step Time =    1.000,"PART-1-1",           727,       11.9371,      -7.89361,            0.,NA,NA,"",   411.478E-03,  -404.775E-03,   73.9679E-03,   5.34772E-03
C:/temp/dataset/3/20_3.odb,Step-1,Increment      1: Step Time =    1.000,"PART-1-1",           728,       11.6400,      -6.55190,            0.,NA,NA,"",   482.404E-03,  -478.398E-03,   62.0404E-03,   5.24875E-03
C:/temp/dataset/3/20_3.odb,Step-1,Increment      1: Step Time =    1.000,"PART-1-1",           729,       9.29748,       3.92298,            0.,NA,NA,"",       1.23602,      -1.23110,  -110.162E-03,   4.40682E-03
C:/temp/dataset/3/20_3.odb,Step-1,Increment      1: Step Time =    1.000,"PART-1-1",           730,       10.7408,       1.93669,            0.,NA,NA,"",       1.07976,      -1.07976,   264.178E-06,   5.34932E-03
C:/temp/dataset/3/20_3.odb,Step-1,Increment      1: Step Time =    1.000,"PART-1-1",           731,       12.1175,       9.30164,            0.,NA,NA,"",       1.63477,      -1.63301,   75.9495E-03,   110.258E-06
C:/temp/dataset/3/20_3.odb,Step-1,Increment      1: Step Time =    1.000,"PART-1-1",           732,       12.3743,       7.25826,            0.,NA,NA,"",       1.48707,      -1.48369,   100.276E-03,   531.204E-06
C:/temp/dataset/3/20_3.odb,Step-1,Increment      1: Step Time =    1.000,"PART-1-1",           733,       9.86952,       23.8294,            0.,NA,NA,"",       2.68748,      -2.68453,  -125.990E-03,   522.729E-09
C:/temp/dataset/3/20_3.odb,Step-1,Increment      1: Step Time =    1.000,"PART-1-1",           734,       8.61965,       22.5851,            0.,NA,NA,"",       2.59945,      -2.59066,  -213.648E-03,   762.291E-09
C:/temp/dataset/3/20_3.odb,Step-1,Increment      1: Step Time =    1.000,"PART-1-1",           735,         11.25,           30.,            0.,NA,NA,"",       3.13752,      -3.13724,  -41.8909E-03,   366.438E-09
C:/temp/dataset/3/20_3.odb,Step-1,Increment      1: Step Time =    1.000,"PART-1-1",           736,       9.97488,       28.7673,            0.,NA,NA,"",       3.04699,      -3.04415,  -131.417E-03,   395.296E-09
C:/temp/dataset/3/20_3.odb,Step-1,Increment      1: Step Time =    1.000,"PART-1-1",           737,          8.75,           30.,            0.,NA,NA,"",       3.13860,      -3.13061,  -223.824E-03,   559.602E-09
C:/temp/dataset/3/20_3.odb,Step-1,Increment      1: Step Time =    1.000,"PART-1-1",           738,       3.69885,       25.0915,            0.,NA,NA,"",       2.81996,      -2.76001,  -578.401E-03,   313.421E-09
C:/temp/dataset/3/20_3.odb,Step-1,Increment      1: Step Time =    1.000,"PART-1-1",           739,       4.94207,       26.3392,            0.,NA,NA,"",       2.89607,      -2.85410,  -491.235E-03,   282.635E-09
C:/temp/dataset/3/20_3.odb,Step-1,Increment      1: Step Time =    1.000,"PART-1-1",           740,         -6.25,           30.,            0.,NA,NA,"",       3.35912,      -3.09084,      -1.31544,   25.2130E-09
C:/temp/dataset/3/20_3.odb,Step-1,Increment      1: Step Time =    1.000,"PART-1-1",           741,      -11.2519,       25.0060,            0.,NA,NA,"",       3.18478,      -2.71414,      -1.66621,   14.0037E-09
C:/temp/dataset/3/20_3.odb,Step-1,Increment      1: Step Time =    1.000,"PART-1-1",           742,       11.7111,      -12.1867,            0.,NA,NA,"",   214.966E-03,  -209.052E-03,   50.0725E-03,   4.10934E-03
C:/temp/dataset/3/20_3.odb,Step-1,Increment      1: Step Time =    1.000,"PART-1-1",           743,       12.0443,      -13.4388,            0.,NA,NA,"",   174.880E-03,  -165.104E-03,   57.6520E-03,   5.28412E-03
C:/temp/dataset/3/20_3.odb,Step-1,Increment      1: Step Time =    1.000,"PART-1-1",           744,       9.07309,      -22.0228,            0.,NA,NA,"",   14.9596E-03,   3.82004E-03,  -14.4637E-03,   4.99011E-03
C:/temp/dataset/3/20_3.odb,Step-1,Increment      1: Step Time =    1.000,"PART-1-1",           745,       9.10959,      -23.2638,            0.,NA,NA,"",   13.6525E-03,   7.95847E-03,  -11.0929E-03,   5.00135E-03
C:/temp/dataset/3/20_3.odb,Step-1,Increment      1: Step Time =    1.000,"PART-1-1",           746,       10.5828,      -23.1781,            0.,NA,NA,"",   8.73344E-03,   8.44201E-03,   2.23728E-03,   4.16199E-03
C:/temp/dataset/3/20_3.odb,Step-1,Increment      1: Step Time =    1.000,"PART-1-1",           747,       10.5463,      -21.9372,            0.,NA,NA,"",   4.21497E-03,   3.32988E-03,   2.58416E-03,   4.25673E-03
C:/temp/dataset/3/20_3.odb,Step-1,Increment      1: Step Time =    1.000,"PART-1-1",           748,      -1.00841,      -2.00181,            0.,NA,NA,"",       1.18437,  -738.175E-03,  -926.193E-03,   4.33814E-03
C:/temp/dataset/3/20_3.odb,Step-1,Increment      1: Step Time =    1.000,"PART-1-1",           749,      -3.17395,      -1.50818,            0.,NA,NA,"",       1.36689,  -769.368E-03,      -1.12980,   3.48354E-03
C:/temp/dataset/3/20_3.odb,Step-1,Increment      1: Step Time =    1.000,"PART-1-1",           750,       8.23699,       8.20647,            0.,NA,NA,"",       1.55724,      -1.54384,  -203.841E-03,   554.402E-06
C:/temp/dataset/3/20_3.odb,Step-1,Increment      1: Step Time =    1.000,"PART-1-1",           751,       8.58975,       6.06422,            0.,NA,NA,"",       1.39998,      -1.38949,  -171.068E-03,   2.34498E-03
C:/temp/dataset/3/20_3.odb,Step-1,Increment      1: Step Time =    1.000,"PART-1-1",           752,       1.04870,      -2.29850,            0.,NA,NA,"",       1.03361,  -726.368E-03,  -735.350E-03,   5.68635E-03
C:/temp/dataset/3/20_3.odb,Step-1,Increment      1: Step Time =    1.000,"PART-1-1",           753,      -1.88356,       2.26041,            0.,NA,NA,"",       1.50687,      -1.10277,      -1.02692,   5.27145E-03
C:/temp/dataset/3/20_3.odb,Step-1,Increment      1: Step Time =    1.000,"PART-1-1",           754,      -2.91638,       1.44829,            0.,NA,NA,"",       1.52095,      -1.02925,      -1.11979,   4.81251E-03
C:/temp/dataset/3/20_3.odb,Step-1,Increment      1: Step Time =    1.000,"PART-1-1",           755,       3.03453,      -2.52132,            0.,NA,NA,"",   910.102E-03,  -722.074E-03,  -553.981E-03,   7.77717E-03
C:/temp/dataset/3/20_3.odb,Step-1,Increment      1: Step Time =    1.000,"PART-1-1",           756,       6.99799,      -3.46075,            0.,NA,NA,"",   698.846E-03,  -662.227E-03,  -223.252E-03,   7.73624E-03
C:/temp/dataset/3/20_3.odb,Step-1,Increment      1: Step Time =    1.000,"PART-1-1",           757,       7.63560,  -984.386E-03,            0.,NA,NA,"",   874.565E-03,  -851.844E-03,  -198.058E-03,   7.24679E-03
C:/temp/dataset/3/20_3.odb,Step-1,Increment      1: Step Time =    1.000,"PART-1-1",           758,       6.14771,      -1.67534,            0.,NA,NA,"",   852.206E-03,  -797.785E-03,  -299.656E-03,   7.03816E-03
C:/temp/dataset/3/20_3.odb,Step-1,Increment      1: Step Time =    1.000,"PART-1-1",           759,       4.94795,      -26.8240,            0.,NA,NA,"",   9.87153E-03,   215.161E-06,  -9.86919E-03,   4.72946E-03
C:/temp/dataset/3/20_3.odb,Step-1,Increment      1: Step Time =    1.000,"PART-1-1",           760,      -11.2341,      -25.0541,            0.,NA,NA,"",   3.30614E-03,  -3.30614E-03,  -149.727E-09,   220.722E-06
C:/temp/dataset/3/20_3.odb,Step-1,Increment      1: Step Time =    1.000,"PART-1-1",           761,      -9.98574,      -26.3021,            0.,NA,NA,"",   2.84750E-03,  -2.84645E-03,   77.4411E-06,   395.588E-06
C:/temp/dataset/3/20_3.odb,Step-1,Increment      1: Step Time =    1.000,"PART-1-1",           762,           15.,        -26.25,            0.,NA,NA,"",   14.9003E-03,   3.89166E-03,   14.3831E-03,   6.62497E-03
C:/temp/dataset/3/20_3.odb,Step-1,Increment      1: Step Time =    1.000,"PART-1-1",           763,       9.63478,      -24.7731,            0.,NA,NA,"",   11.4663E-03,   10.6032E-03,  -4.36450E-03,   4.23490E-03
C:/temp/dataset/3/20_3.odb,Step-1,Increment      1: Step Time =    1.000,"PART-1-1",           764,       9.83383,   250.169E-03,            0.,NA,NA,"",   950.035E-03,  -948.437E-03,  -55.0714E-03,   6.92765E-03
C:/temp/dataset/3/20_3.odb,Step-1,Increment      1: Step Time =    1.000,"PART-1-1",           765,       11.1222,       22.5628,            0.,NA,NA,"",       2.59586,      -2.59567,  -31.4727E-03,   689.078E-09
C:/temp/dataset/3/20_3.odb,Step-1,Increment      1: Step Time =    1.000,"PART-1-1",           766,       9.84566,       21.3197,            0.,NA,NA,"",       2.50475,      -2.50182,  -121.073E-03,   3.08797E-06
C:/temp/dataset/3/20_3.odb,Step-1,Increment      1: Step Time =    1.000,"PART-1-1",           767,      -3.18112,  -190.353E-03,            0.,NA,NA,"",       1.44022,  -885.066E-03,      -1.13617,   4.07889E-03
C:/temp/dataset/3/20_3.odb,Step-1,Increment      1: Step Time =    1.000,"PART-1-1",           768,       4.54417,       1.21940,            0.,NA,NA,"",       1.11894,      -1.02607,  -446.309E-03,   3.75049E-03
C:/temp/dataset/3/20_3.odb,Step-1,Increment      1: Step Time =    1.000,"PART-1-1",           769,       9.22107,       9.51460,            0.,NA,NA,"",       1.64674,      -1.64113,  -135.767E-03,   231.914E-06
C:/temp/dataset/3/20_3.odb,Step-1,Increment      1: Step Time =    1.000,"PART-1-1",           770,       11.1709,      -3.71800,            0.,NA,NA,"",   658.581E-03,  -657.422E-03,   39.0678E-03,   6.17042E-03
C:/temp/dataset/3/20_3.odb,Step-1,Increment      1: Step Time =    1.000,"PART-1-1",           771,       11.0221,      -5.16095,            0.,NA,NA,"",   561.434E-03,  -560.665E-03,   29.3786E-03,   5.00898E-03
C:/temp/dataset/3/20_3.odb,Step-1,Increment      1: Step Time =    1.000,"PART-1-1",           772,       12.3085,      -4.70099,            0.,NA,NA,"",   605.647E-03,  -596.354E-03,   105.691E-03,   7.08135E-03
C:/temp/dataset/3/20_3.odb,Step-1,Increment      1: Step Time =    1.000,"PART-1-1",           773,       5.03877,      -2.41022,            0.,NA,NA,"",   831.207E-03,  -739.601E-03,  -379.334E-03,   7.95515E-03
C:/temp/dataset/3/20_3.odb,Step-1,Increment      1: Step Time =    1.000,"PART-1-1",           774,       11.0080,       9.74440,            0.,NA,NA,"",       1.66249,      -1.66247,  -6.22806E-03,   116.008E-06
C:/temp/dataset/3/20_3.odb,Step-1,Increment      1: Step Time =    1.000,"PART-1-1",           775,       7.33953,      -23.4839,            0.,NA,NA,"",   23.0398E-03,   4.32011E-03,  -22.6312E-03,   6.75980E-03
C:/temp/dataset/3/20_3.odb,Step-1,Increment      1: Step Time =    1.000,"PART-1-1",           776,       6.60048,      -22.7490,            0.,NA,NA,"",   30.4416E-03,   110.609E-06,  -30.4414E-03,   7.91490E-03
C:/temp/dataset/3/20_3.odb,Step-1,Increment      1: Step Time =    1.000,"PART-1-1",           777,       5.56839,      -23.3719,            0.,NA,NA,"",   27.7613E-03,  -2.09784E-03,  -27.6819E-03,   7.81435E-03
C:/temp/dataset/3/20_3.odb,Step-1,Increment      1: Step Time =    1.000,"PART-1-1",           778,       5.56431,      -22.1833,            0.,NA,NA,"",   36.5333E-03,  -5.14018E-03,  -36.1699E-03,   9.40768E-03
C:/temp/dataset/3/20_3.odb,Step-1,Increment      1: Step Time =    1.000,"PART-1-1",           779,       7.31291,      -21.9704,            0.,NA,NA,"",   31.7248E-03,   663.993E-06,  -31.7179E-03,   7.65055E-03
C:/temp/dataset/3/20_3.odb,Step-1,Increment      1: Step Time =    1.000,"PART-1-1",           780,       8.04898,      -22.6975,            0.,NA,NA,"",   22.4666E-03,   4.76899E-03,  -21.9546E-03,   6.09679E-03
C:/temp/dataset/3/20_3.odb,Step-1,Increment      1: Step Time =    1.000,"PART-1-1",           781,       5.89213,  -472.373E-03,            0.,NA,NA,"",   950.419E-03,  -891.809E-03,  -328.593E-03,   5.28963E-03
C:/temp/dataset/3/20_3.odb,Step-1,Increment      1: Step Time =    1.000,"PART-1-1",           782,       8.40014,      -24.0502,            0.,NA,NA,"",   16.1372E-03,   8.06663E-03,  -13.9763E-03,   5.01387E-03
