ODB Name,Step,Frame,Part Instance Name,    êﬂì_ÉâÉxÉã,X,Y,Z,Section Name,Material Name,Section Point,   U-Magnitude,          U-U1,          U-U2,       S-Mises
C:/temp/dataset/3/24_7.odb,Step-1,Increment      1: Step Time =    1.000,"PART-1-1",             1,          -15.,           20.,            0.,NA,NA,"",       11.9566,       10.4732,       5.76824,   1.91037E-09
C:/temp/dataset/3/24_7.odb,Step-1,Increment      1: Step Time =    1.000,"PART-1-1",             2,          -15.,           25.,            0.,NA,NA,"",       13.1021,       11.8579,       5.57267,   2.80071E-09
C:/temp/dataset/3/24_7.odb,Step-1,Increment      1: Step Time =    1.000,"PART-1-1",             3,           -5.,           20.,            0.,NA,NA,"",       10.5185,       10.0820,       2.99880,   28.9857E-09
C:/temp/dataset/3/24_7.odb,Step-1,Increment      1: Step Time =    1.000,"PART-1-1",             4,            5.,           20.,            0.,NA,NA,"",       9.69359,       9.69087,   229.371E-03,   7.57132E-06
C:/temp/dataset/3/24_7.odb,Step-1,Increment      1: Step Time =    1.000,"PART-1-1",             5,            5.,          12.5,            0.,NA,NA,"",       7.63106,       7.61318,   522.005E-03,   536.374E-06
C:/temp/dataset/3/24_7.odb,Step-1,Increment      1: Step Time =    1.000,"PART-1-1",             6,            5.,            5.,            0.,NA,NA,"",       5.65258,       5.59734,   788.332E-03,   37.0644E-03
C:/temp/dataset/3/24_7.odb,Step-1,Increment      1: Step Time =    1.000,"PART-1-1",             7,      -1.70000,            5.,            0.,NA,NA,"",       6.85307,       6.20227,       2.91487,   28.9252E-03
C:/temp/dataset/3/24_7.odb,Step-1,Increment      1: Step Time =    1.000,"PART-1-1",             8,      -8.40000,            5.,            0.,NA,NA,"",       8.59903,       6.76313,       5.31069,   8.52341E-03
C:/temp/dataset/3/24_7.odb,Step-1,Increment      1: Step Time =    1.000,"PART-1-1",             9,          -15.,            5.,            0.,NA,NA,"",       10.6059,       7.24416,       7.74642,   277.935E-06
C:/temp/dataset/3/24_7.odb,Step-1,Increment      1: Step Time =    1.000,"PART-1-1",            10,          -15.,            0.,            0.,NA,NA,"",       9.74122,       5.41319,       8.09869,   3.95312E-03
C:/temp/dataset/3/24_7.odb,Step-1,Increment      1: Step Time =    1.000,"PART-1-1",            11,          -15.,           -5.,            0.,NA,NA,"",       9.20294,       3.58746,       8.47492,   7.11169E-03
C:/temp/dataset/3/24_7.odb,Step-1,Increment      1: Step Time =    1.000,"PART-1-1",            12,      -8.30000,           -5.,            0.,NA,NA,"",       6.74230,       3.13267,       5.97035,   11.3175E-03
C:/temp/dataset/3/24_7.odb,Step-1,Increment      1: Step Time =    1.000,"PART-1-1",            13,      -1.60000,           -5.,            0.,NA,NA,"",       4.45580,       2.78005,       3.48216,   27.7830E-03
C:/temp/dataset/3/24_7.odb,Step-1,Increment      1: Step Time =    1.000,"PART-1-1",            14,            5.,           -5.,            0.,NA,NA,"",       2.81811,       2.59547,       1.09786,   100.947E-03
C:/temp/dataset/3/24_7.odb,Step-1,Increment      1: Step Time =    1.000,"PART-1-1",            15,            5.,         -12.5,            0.,NA,NA,"",       1.30906,       1.09354,   719.576E-03,   72.2799E-03
C:/temp/dataset/3/24_7.odb,Step-1,Increment      1: Step Time =    1.000,"PART-1-1",            16,            5.,          -20.,            0.,NA,NA,"",   247.105E-03,   113.773E-03,   219.355E-03,   101.314E-03
C:/temp/dataset/3/24_7.odb,Step-1,Increment      1: Step Time =    1.000,"PART-1-1",            17,           -5.,          -20.,            0.,NA,NA,"",   34.6084E-03,   34.5897E-03,  -1.13992E-03,   167.792E-06
C:/temp/dataset/3/24_7.odb,Step-1,Increment      1: Step Time =    1.000,"PART-1-1",            18,          -15.,          -20.,            0.,NA,NA,"",   36.5941E-03,   35.5081E-03,   8.84899E-03,   23.3340E-06
C:/temp/dataset/3/24_7.odb,Step-1,Increment      1: Step Time =    1.000,"PART-1-1",            19,          -15.,          -25.,            0.,NA,NA,"",   24.7002E-03,   22.8549E-03,   9.36771E-03,   119.081E-06
C:/temp/dataset/3/24_7.odb,Step-1,Increment      1: Step Time =    1.000,"PART-1-1",            20,          -15.,          -30.,            0.,NA,NA,"",            0.,   2.02045E-39,   3.21706E-39,   6.17608E-03
C:/temp/dataset/3/24_7.odb,Step-1,Increment      1: Step Time =    1.000,"PART-1-1",            21,           15.,          -30.,            0.,NA,NA,"",            0.,   5.80051E-39,  -11.7610E-39,   22.0690E-03
C:/temp/dataset/3/24_7.odb,Step-1,Increment      1: Step Time =    1.000,"PART-1-1",            22,           15.,         -22.5,            0.,NA,NA,"",   241.209E-03,   67.8913E-03,  -231.457E-03,   49.7735E-03
C:/temp/dataset/3/24_7.odb,Step-1,Increment      1: Step Time =    1.000,"PART-1-1",            23,           15.,          -15.,            0.,NA,NA,"",   895.601E-03,   608.376E-03,  -657.251E-03,   63.3188E-03
C:/temp/dataset/3/24_7.odb,Step-1,Increment      1: Step Time =    1.000,"PART-1-1",            24,           15.,          -7.5,            0.,NA,NA,"",       2.17828,       1.83274,      -1.17726,   57.1918E-03
C:/temp/dataset/3/24_7.odb,Step-1,Increment      1: Step Time =    1.000,"PART-1-1",            25,           15.,            0.,            0.,NA,NA,"",       4.07902,       3.70359,      -1.70934,   20.9625E-03
C:/temp/dataset/3/24_7.odb,Step-1,Increment      1: Step Time =    1.000,"PART-1-1",            26,           15.,           7.5,            0.,NA,NA,"",       6.18278,       5.83116,      -2.05533,   1.58909E-03
C:/temp/dataset/3/24_7.odb,Step-1,Increment      1: Step Time =    1.000,"PART-1-1",            27,           15.,           15.,            0.,NA,NA,"",       8.25531,       7.91533,      -2.34473,   159.215E-06
C:/temp/dataset/3/24_7.odb,Step-1,Increment      1: Step Time =    1.000,"PART-1-1",            28,           15.,          22.5,            0.,NA,NA,"",       10.3344,       9.99213,      -2.63782,   5.94657E-06
C:/temp/dataset/3/24_7.odb,Step-1,Increment      1: Step Time =    1.000,"PART-1-1",            29,           15.,           30.,            0.,NA,NA,"",       12.4200,       12.0692,      -2.93118,   163.609E-09
C:/temp/dataset/3/24_7.odb,Step-1,Increment      1: Step Time =    1.000,"PART-1-1",            30,           7.5,           30.,            0.,NA,NA,"",       12.3920,       12.3625,  -854.132E-03,   2.03296E-06
C:/temp/dataset/3/24_7.odb,Step-1,Increment      1: Step Time =    1.000,"PART-1-1",            31,            0.,           30.,            0.,NA,NA,"",       12.7148,       12.6559,       1.22294,   88.1588E-09
C:/temp/dataset/3/24_7.odb,Step-1,Increment      1: Step Time =    1.000,"PART-1-1",            32,          -7.5,           30.,            0.,NA,NA,"",       13.3631,       12.9492,       3.30002,   11.9129E-09
C:/temp/dataset/3/24_7.odb,Step-1,Increment      1: Step Time =    1.000,"PART-1-1",            33,          -15.,           30.,            0.,NA,NA,"",       14.2926,       13.2426,       5.37710,   1.97818E-09
C:/temp/dataset/3/24_7.odb,Step-1,Increment      1: Step Time =    1.000,"PART-1-1",            34,          -15.,          22.5,            0.,NA,NA,"",       12.5229,       11.1655,       5.67046,   2.32041E-09
C:/temp/dataset/3/24_7.odb,Step-1,Increment      1: Step Time =    1.000,"PART-1-1",            35,          -7.5,           20.,            0.,NA,NA,"",       10.8283,       10.1798,       3.69116,   11.7947E-09
C:/temp/dataset/3/24_7.odb,Step-1,Increment      1: Step Time =    1.000,"PART-1-1",            36,          -10.,           20.,            0.,NA,NA,"",       11.1734,       10.2776,       4.38352,   4.77010E-09
C:/temp/dataset/3/24_7.odb,Step-1,Increment      1: Step Time =    1.000,"PART-1-1",            37,         -12.5,           20.,            0.,NA,NA,"",       11.5504,       10.3754,       5.07588,   2.36281E-09
C:/temp/dataset/3/24_7.odb,Step-1,Increment      1: Step Time =    1.000,"PART-1-1",            38,           2.5,           20.,            0.,NA,NA,"",       9.83196,       9.78866,   921.727E-03,   1.09531E-06
C:/temp/dataset/3/24_7.odb,Step-1,Increment      1: Step Time =    1.000,"PART-1-1",            39,            0.,           20.,            0.,NA,NA,"",       10.0173,       9.88645,       1.61408,   217.605E-09
C:/temp/dataset/3/24_7.odb,Step-1,Increment      1: Step Time =    1.000,"PART-1-1",            40,          -2.5,           20.,            0.,NA,NA,"",       10.2472,       9.98423,       2.30644,   45.4926E-09
C:/temp/dataset/3/24_7.odb,Step-1,Increment      1: Step Time =    1.000,"PART-1-1",            41,            5.,           15.,            0.,NA,NA,"",       8.31672,       8.30587,   424.822E-03,   185.698E-06
C:/temp/dataset/3/24_7.odb,Step-1,Increment      1: Step Time =    1.000,"PART-1-1",            42,            5.,          17.5,            0.,NA,NA,"",       9.00437,       8.99842,   327.176E-03,   21.8052E-06
C:/temp/dataset/3/24_7.odb,Step-1,Increment      1: Step Time =    1.000,"PART-1-1",            43,            5.,           7.5,            0.,NA,NA,"",       6.27583,       6.23583,   707.430E-03,   7.58469E-03
C:/temp/dataset/3/24_7.odb,Step-1,Increment      1: Step Time =    1.000,"PART-1-1",            44,            5.,           10.,            0.,NA,NA,"",       6.94918,       6.92173,   617.019E-03,   2.22537E-03
C:/temp/dataset/3/24_7.odb,Step-1,Increment      1: Step Time =    1.000,"PART-1-1",            45,   533.333E-03,            5.,            0.,NA,NA,"",       6.38242,       6.00363,       2.16602,   35.3320E-03
C:/temp/dataset/3/24_7.odb,Step-1,Increment      1: Step Time =    1.000,"PART-1-1",            46,       2.76667,            5.,            0.,NA,NA,"",       5.98487,       5.80570,       1.45346,   44.3948E-03
C:/temp/dataset/3/24_7.odb,Step-1,Increment      1: Step Time =    1.000,"PART-1-1",            47,      -6.16667,            5.,            0.,NA,NA,"",       7.97166,       6.58388,       4.49442,   14.7820E-03
C:/temp/dataset/3/24_7.odb,Step-1,Increment      1: Step Time =    1.000,"PART-1-1",            48,      -3.93333,            5.,            0.,NA,NA,"",       7.38608,       6.39630,       3.69343,   21.5948E-03
C:/temp/dataset/3/24_7.odb,Step-1,Increment      1: Step Time =    1.000,"PART-1-1",            49,      -12.8000,            5.,            0.,NA,NA,"",       9.91813,       7.08958,       6.93594,   512.541E-06
C:/temp/dataset/3/24_7.odb,Step-1,Increment      1: Step Time =    1.000,"PART-1-1",            50,      -10.6000,            5.,            0.,NA,NA,"",       9.24764,       6.93049,       6.12267,   3.50061E-03
C:/temp/dataset/3/24_7.odb,Step-1,Increment      1: Step Time =    1.000,"PART-1-1",            51,          -15.,           2.5,            0.,NA,NA,"",       10.1370,       6.32571,       7.92114,   659.745E-06
C:/temp/dataset/3/24_7.odb,Step-1,Increment      1: Step Time =    1.000,"PART-1-1",            52,          -15.,          -2.5,            0.,NA,NA,"",       9.42864,       4.50231,       8.28422,   6.82492E-03
C:/temp/dataset/3/24_7.odb,Step-1,Increment      1: Step Time =    1.000,"PART-1-1",            53,      -10.5333,           -5.,            0.,NA,NA,"",       7.56548,       3.28391,       6.81560,   8.74855E-03
C:/temp/dataset/3/24_7.odb,Step-1,Increment      1: Step Time =    1.000,"PART-1-1",            54,      -12.7667,           -5.,            0.,NA,NA,"",       8.38439,       3.43580,       7.64809,   7.07223E-03
C:/temp/dataset/3/24_7.odb,Step-1,Increment      1: Step Time =    1.000,"PART-1-1",            55,      -3.83333,           -5.,            0.,NA,NA,"",       5.17156,       2.88039,       4.29516,   22.0316E-03
C:/temp/dataset/3/24_7.odb,Step-1,Increment      1: Step Time =    1.000,"PART-1-1",            56,      -6.06667,           -5.,            0.,NA,NA,"",       5.93649,       2.99781,       5.12396,   16.8176E-03
C:/temp/dataset/3/24_7.odb,Step-1,Increment      1: Step Time =    1.000,"PART-1-1",            57,       2.80000,           -5.,            0.,NA,NA,"",       3.25403,       2.62537,       1.92253,   49.9641E-03
C:/temp/dataset/3/24_7.odb,Step-1,Increment      1: Step Time =    1.000,"PART-1-1",            58,   600.000E-03,           -5.,            0.,NA,NA,"",       3.81564,       2.69850,       2.69763,   31.3042E-03
C:/temp/dataset/3/24_7.odb,Step-1,Increment      1: Step Time =    1.000,"PART-1-1",            59,            5.,          -10.,            0.,NA,NA,"",       1.75912,       1.54560,   840.019E-03,   68.6197E-03
C:/temp/dataset/3/24_7.odb,Step-1,Increment      1: Step Time =    1.000,"PART-1-1",            60,            5.,          -7.5,            0.,NA,NA,"",       2.26330,       2.05865,   940.472E-03,   71.5729E-03
C:/temp/dataset/3/24_7.odb,Step-1,Increment      1: Step Time =    1.000,"PART-1-1",            61,            5.,         -17.5,            0.,NA,NA,"",   592.516E-03,   397.904E-03,   439.030E-03,   79.8927E-03
C:/temp/dataset/3/24_7.odb,Step-1,Increment      1: Step Time =    1.000,"PART-1-1",            62,            5.,          -15.,            0.,NA,NA,"",   921.342E-03,   712.564E-03,   584.058E-03,   71.6289E-03
C:/temp/dataset/3/24_7.odb,Step-1,Increment      1: Step Time =    1.000,"PART-1-1",            63,          -2.5,          -20.,            0.,NA,NA,"",   35.6540E-03,   35.0895E-03,   6.31938E-03,   1.26865E-03
C:/temp/dataset/3/24_7.odb,Step-1,Increment      1: Step Time =    1.000,"PART-1-1",            64,            0.,          -20.,            0.,NA,NA,"",   45.9229E-03,   37.4683E-03,   26.5525E-03,   3.30457E-03
C:/temp/dataset/3/24_7.odb,Step-1,Increment      1: Step Time =    1.000,"PART-1-1",            65,           2.5,          -20.,            0.,NA,NA,"",   85.6854E-03,   43.6147E-03,   73.7546E-03,   25.2044E-03
C:/temp/dataset/3/24_7.odb,Step-1,Increment      1: Step Time =    1.000,"PART-1-1",            66,         -12.5,          -20.,            0.,NA,NA,"",   35.4826E-03,   35.3180E-03,   3.41366E-03,   185.024E-06
C:/temp/dataset/3/24_7.odb,Step-1,Increment      1: Step Time =    1.000,"PART-1-1",            67,          -10.,          -20.,            0.,NA,NA,"",   34.8339E-03,   34.8244E-03,  -810.533E-06,   184.749E-06
C:/temp/dataset/3/24_7.odb,Step-1,Increment      1: Step Time =    1.000,"PART-1-1",            68,          -7.5,          -20.,            0.,NA,NA,"",   34.6727E-03,   34.5637E-03,  -2.74722E-03,   110.551E-06
C:/temp/dataset/3/24_7.odb,Step-1,Increment      1: Step Time =    1.000,"PART-1-1",            69,          -15.,         -22.5,            0.,NA,NA,"",   31.2962E-03,   29.9615E-03,   9.04212E-03,   173.597E-06
C:/temp/dataset/3/24_7.odb,Step-1,Increment      1: Step Time =    1.000,"PART-1-1",            70,          -15.,         -27.5,            0.,NA,NA,"",   15.2733E-03,   12.9184E-03,   8.14805E-03,   1.91727E-03
C:/temp/dataset/3/24_7.odb,Step-1,Increment      1: Step Time =    1.000,"PART-1-1",            71,          12.5,          -30.,            0.,NA,NA,"",            0.,   1.72827E-39,  -44.4399E-39,   16.8619E-03
C:/temp/dataset/3/24_7.odb,Step-1,Increment      1: Step Time =    1.000,"PART-1-1",            72,           10.,          -30.,            0.,NA,NA,"",            0.,  -33.2901E-39,  -32.7551E-39,   13.2195E-03
C:/temp/dataset/3/24_7.odb,Step-1,Increment      1: Step Time =    1.000,"PART-1-1",            73,           7.5,          -30.,            0.,NA,NA,"",            0.,  -12.8101E-39,   13.7956E-39,   10.3722E-03
C:/temp/dataset/3/24_7.odb,Step-1,Increment      1: Step Time =    1.000,"PART-1-1",            74,            5.,          -30.,            0.,NA,NA,"",            0.,  -14.5747E-39,   44.3318E-39,   10.1586E-03
C:/temp/dataset/3/24_7.odb,Step-1,Increment      1: Step Time =    1.000,"PART-1-1",            75,           2.5,          -30.,            0.,NA,NA,"",            0.,  -1.03779E-39,   33.1777E-39,   11.0162E-03
C:/temp/dataset/3/24_7.odb,Step-1,Increment      1: Step Time =    1.000,"PART-1-1",            76,            0.,          -30.,            0.,NA,NA,"",            0.,   7.20598E-39,   17.0612E-39,   10.4599E-03
C:/temp/dataset/3/24_7.odb,Step-1,Increment      1: Step Time =    1.000,"PART-1-1",            77,          -2.5,          -30.,            0.,NA,NA,"",            0.,   22.9870E-39,   28.7241E-39,   8.59234E-03
C:/temp/dataset/3/24_7.odb,Step-1,Increment      1: Step Time =    1.000,"PART-1-1",            78,           -5.,          -30.,            0.,NA,NA,"",            0.,   9.67729E-39,  -921.495E-42,   6.57600E-03
C:/temp/dataset/3/24_7.odb,Step-1,Increment      1: Step Time =    1.000,"PART-1-1",            79,          -7.5,          -30.,            0.,NA,NA,"",            0.,   8.01515E-39,  -2.88203E-39,   4.89450E-03
C:/temp/dataset/3/24_7.odb,Step-1,Increment      1: Step Time =    1.000,"PART-1-1",            80,          -10.,          -30.,            0.,NA,NA,"",            0.,   9.34162E-39,   9.63157E-39,   3.73048E-03
C:/temp/dataset/3/24_7.odb,Step-1,Increment      1: Step Time =    1.000,"PART-1-1",            81,         -12.5,          -30.,            0.,NA,NA,"",            0.,   8.34672E-39,   8.66336E-39,   2.70950E-03
C:/temp/dataset/3/24_7.odb,Step-1,Increment      1: Step Time =    1.000,"PART-1-1",            82,           15.,          -25.,            0.,NA,NA,"",   131.485E-03,   18.3524E-03,  -130.198E-03,   39.4678E-03
C:/temp/dataset/3/24_7.odb,Step-1,Increment      1: Step Time =    1.000,"PART-1-1",            83,           15.,         -27.5,            0.,NA,NA,"",   53.5594E-03,   6.63840E-03,  -53.1464E-03,   30.3465E-03
C:/temp/dataset/3/24_7.odb,Step-1,Increment      1: Step Time =    1.000,"PART-1-1",            84,           15.,         -17.5,            0.,NA,NA,"",   612.168E-03,   351.525E-03,  -501.178E-03,   62.8342E-03
C:/temp/dataset/3/24_7.odb,Step-1,Increment      1: Step Time =    1.000,"PART-1-1",            85,           15.,          -20.,            0.,NA,NA,"",   396.306E-03,   173.607E-03,  -356.257E-03,   58.1884E-03
C:/temp/dataset/3/24_7.odb,Step-1,Increment      1: Step Time =    1.000,"PART-1-1",            86,           15.,          -10.,            0.,NA,NA,"",       1.67664,       1.34987,  -994.479E-03,   60.6381E-03
C:/temp/dataset/3/24_7.odb,Step-1,Increment      1: Step Time =    1.000,"PART-1-1",            87,           15.,         -12.5,            0.,NA,NA,"",       1.24990,   941.982E-03,  -821.538E-03,   62.0388E-03
C:/temp/dataset/3/24_7.odb,Step-1,Increment      1: Step Time =    1.000,"PART-1-1",            88,           15.,          -2.5,            0.,NA,NA,"",       3.39448,       3.02122,      -1.54749,   36.5141E-03
C:/temp/dataset/3/24_7.odb,Step-1,Increment      1: Step Time =    1.000,"PART-1-1",            89,           15.,           -5.,            0.,NA,NA,"",       2.75402,       2.39153,      -1.36572,   49.6720E-03
C:/temp/dataset/3/24_7.odb,Step-1,Increment      1: Step Time =    1.000,"PART-1-1",            90,           15.,            5.,            0.,NA,NA,"",       5.48595,       5.12554,      -1.95564,   513.390E-06
C:/temp/dataset/3/24_7.odb,Step-1,Increment      1: Step Time =    1.000,"PART-1-1",            91,           15.,           2.5,            0.,NA,NA,"",       4.78193,       4.41239,      -1.84328,   8.43074E-03
C:/temp/dataset/3/24_7.odb,Step-1,Increment      1: Step Time =    1.000,"PART-1-1",            92,           15.,          12.5,            0.,NA,NA,"",       7.56449,       7.22285,      -2.24763,   529.512E-06
C:/temp/dataset/3/24_7.odb,Step-1,Increment      1: Step Time =    1.000,"PART-1-1",            93,           15.,           10.,            0.,NA,NA,"",       6.87434,       6.52904,      -2.15131,   1.21104E-03
C:/temp/dataset/3/24_7.odb,Step-1,Increment      1: Step Time =    1.000,"PART-1-1",            94,           15.,           20.,            0.,NA,NA,"",       9.64046,       9.29982,      -2.54004,   4.10664E-06
C:/temp/dataset/3/24_7.odb,Step-1,Increment      1: Step Time =    1.000,"PART-1-1",            95,           15.,          17.5,            0.,NA,NA,"",       8.94734,       8.60756,      -2.44230,   27.3974E-06
C:/temp/dataset/3/24_7.odb,Step-1,Increment      1: Step Time =    1.000,"PART-1-1",            96,           15.,          27.5,            0.,NA,NA,"",       11.7243,       11.3768,      -2.83340,   756.467E-09
C:/temp/dataset/3/24_7.odb,Step-1,Increment      1: Step Time =    1.000,"PART-1-1",            97,           15.,           25.,            0.,NA,NA,"",       11.0291,       10.6845,      -2.73561,   3.12176E-06
C:/temp/dataset/3/24_7.odb,Step-1,Increment      1: Step Time =    1.000,"PART-1-1",            98,           10.,           30.,            0.,NA,NA,"",       12.3619,       12.2647,      -1.54648,   1.90297E-06
C:/temp/dataset/3/24_7.odb,Step-1,Increment      1: Step Time =    1.000,"PART-1-1",            99,          12.5,           30.,            0.,NA,NA,"",       12.3712,       12.1670,      -2.23883,   677.920E-09
C:/temp/dataset/3/24_7.odb,Step-1,Increment      1: Step Time =    1.000,"PART-1-1",           100,           2.5,           30.,            0.,NA,NA,"",       12.5693,       12.5581,   530.584E-03,   474.625E-09
C:/temp/dataset/3/24_7.odb,Step-1,Increment      1: Step Time =    1.000,"PART-1-1",           101,            5.,           30.,            0.,NA,NA,"",       12.4614,       12.4603,  -161.775E-03,   1.27909E-06
C:/temp/dataset/3/24_7.odb,Step-1,Increment      1: Step Time =    1.000,"PART-1-1",           102,           -5.,           30.,            0.,NA,NA,"",       13.1133,       12.8515,       2.60766,   23.6973E-09
C:/temp/dataset/3/24_7.odb,Step-1,Increment      1: Step Time =    1.000,"PART-1-1",           103,          -2.5,           30.,            0.,NA,NA,"",       12.8967,       12.7537,       1.91530,   26.2642E-09
C:/temp/dataset/3/24_7.odb,Step-1,Increment      1: Step Time =    1.000,"PART-1-1",           104,         -12.5,           30.,            0.,NA,NA,"",       13.9547,       13.1448,       4.68474,   2.27618E-09
C:/temp/dataset/3/24_7.odb,Step-1,Increment      1: Step Time =    1.000,"PART-1-1",           105,          -10.,           30.,            0.,NA,NA,"",       13.6442,       13.0470,       3.99238,   4.73596E-09
C:/temp/dataset/3/24_7.odb,Step-1,Increment      1: Step Time =    1.000,"PART-1-1",           106,          -15.,          27.5,            0.,NA,NA,"",       13.6924,       12.5502,       5.47489,   2.34168E-09
C:/temp/dataset/3/24_7.odb,Step-1,Increment      1: Step Time =    1.000,"PART-1-1",           107,      -12.5013,       25.0052,            0.,NA,NA,"",       12.7340,       11.7616,       4.88047,   2.84880E-09
C:/temp/dataset/3/24_7.odb,Step-1,Increment      1: Step Time =    1.000,"PART-1-1",           108,      -10.0028,       27.5014,            0.,NA,NA,"",       13.0148,       12.3552,       4.09089,   5.16212E-09
C:/temp/dataset/3/24_7.odb,Step-1,Increment      1: Step Time =    1.000,"PART-1-1",           109,      -2.49865,       22.5268,            0.,NA,NA,"",       10.9096,       10.6840,       2.20724,   56.5570E-09
C:/temp/dataset/3/24_7.odb,Step-1,Increment      1: Step Time =    1.000,"PART-1-1",           110,      -2.51000,       27.5279,            0.,NA,NA,"",       12.2364,       12.0694,       2.01477,   42.4474E-09
C:/temp/dataset/3/24_7.odb,Step-1,Increment      1: Step Time =    1.000,"PART-1-1",           111,       12.3864,       22.5464,            0.,NA,NA,"",       10.2872,       10.1072,      -1.91583,   1.82420E-06
C:/temp/dataset/3/24_7.odb,Step-1,Increment      1: Step Time =    1.000,"PART-1-1",           112,       7.35369,       17.5509,            0.,NA,NA,"",       8.92644,       8.92047,  -326.655E-03,   67.7556E-06
C:/temp/dataset/3/24_7.odb,Step-1,Increment      1: Step Time =    1.000,"PART-1-1",           113,       12.3201,       14.9467,            0.,NA,NA,"",       8.16386,       8.00550,      -1.60022,   228.615E-06
C:/temp/dataset/3/24_7.odb,Step-1,Increment      1: Step Time =    1.000,"PART-1-1",           114,       13.2599,       7.39194,            0.,NA,NA,"",       6.07585,       5.87092,      -1.56468,   889.134E-06
C:/temp/dataset/3/24_7.odb,Step-1,Increment      1: Step Time =    1.000,"PART-1-1",           115,       7.60504,      -5.98204,            0.,NA,NA,"",       2.32683,       2.29147,   404.102E-03,   22.8509E-03
C:/temp/dataset/3/24_7.odb,Step-1,Increment      1: Step Time =    1.000,"PART-1-1",           116,       7.71062,      -13.7665,            0.,NA,NA,"",   847.151E-03,   799.227E-03,   280.892E-03,   37.8808E-03
C:/temp/dataset/3/24_7.odb,Step-1,Increment      1: Step Time =    1.000,"PART-1-1",           117,       11.7208,      -22.4938,            0.,NA,NA,"",   94.5757E-03,   21.3115E-03,  -92.1433E-03,   22.3517E-03
C:/temp/dataset/3/24_7.odb,Step-1,Increment      1: Step Time =    1.000,"PART-1-1",           118,       2.59328,       2.74806,            0.,NA,NA,"",       5.34150,       5.09768,       1.59538,   21.0035E-03
C:/temp/dataset/3/24_7.odb,Step-1,Increment      1: Step Time =    1.000,"PART-1-1",           119,      -1.32361,      -2.98462,            0.,NA,NA,"",       4.73902,       3.45907,       3.23932,   18.8905E-03
C:/temp/dataset/3/24_7.odb,Step-1,Increment      1: Step Time =    1.000,"PART-1-1",           120,      -6.00563,       3.11026,            0.,NA,NA,"",       7.43966,       5.88277,       4.55429,   12.7108E-03
C:/temp/dataset/3/24_7.odb,Step-1,Increment      1: Step Time =    1.000,"PART-1-1",           121,      -10.4102,       2.53863,            0.,NA,NA,"",       8.65165,       6.01231,       6.22118,   7.09077E-03
C:/temp/dataset/3/24_7.odb,Step-1,Increment      1: Step Time =    1.000,"PART-1-1",           122,      -12.6184,  -43.2983E-03,            0.,NA,NA,"",       8.91966,       5.23376,       7.22275,   6.28724E-03
C:/temp/dataset/3/24_7.odb,Step-1,Increment      1: Step Time =    1.000,"PART-1-1",           123,      -3.88272,       3.23189,            0.,NA,NA,"",       6.88650,       5.75774,       3.77788,   16.2175E-03
C:/temp/dataset/3/24_7.odb,Step-1,Increment      1: Step Time =    1.000,"PART-1-1",           124,       2.98144,      -22.7363,            0.,NA,NA,"",   101.301E-03,   62.5709E-03,   79.6661E-03,   32.2143E-03
C:/temp/dataset/3/24_7.odb,Step-1,Increment      1: Step Time =    1.000,"PART-1-1",           125,      -2.42987,      -22.6294,            0.,NA,NA,"",   43.9305E-03,   42.9890E-03,   9.04587E-03,   4.49793E-03
C:/temp/dataset/3/24_7.odb,Step-1,Increment      1: Step Time =    1.000,"PART-1-1",           126,      -9.97348,      -22.5672,            0.,NA,NA,"",   30.8197E-03,   30.8147E-03,  -556.499E-06,   886.034E-06
C:/temp/dataset/3/24_7.odb,Step-1,Increment      1: Step Time =    1.000,"PART-1-1",           127,      -12.4895,      -25.0402,            0.,NA,NA,"",   22.8578E-03,   22.6609E-03,   2.99324E-03,   1.34869E-03
C:/temp/dataset/3/24_7.odb,Step-1,Increment      1: Step Time =    1.000,"PART-1-1",           128,       12.8561,      -14.2595,            0.,NA,NA,"",   788.179E-03,   672.231E-03,  -411.499E-03,   32.0001E-03
C:/temp/dataset/3/24_7.odb,Step-1,Increment      1: Step Time =    1.000,"PART-1-1",           129,       12.7281,      -7.33650,            0.,NA,NA,"",       1.99972,       1.87787,  -687.357E-03,   28.5318E-03
C:/temp/dataset/3/24_7.odb,Step-1,Increment      1: Step Time =    1.000,"PART-1-1",           130,       12.6427,  -96.8002E-03,            0.,NA,NA,"",       3.89506,       3.74914,      -1.05614,   22.2721E-03
C:/temp/dataset/3/24_7.odb,Step-1,Increment      1: Step Time =    1.000,"PART-1-1",           131,       7.13014,       10.3328,            0.,NA,NA,"",       6.93028,       6.93025,   18.0964E-03,   1.14090E-03
C:/temp/dataset/3/24_7.odb,Step-1,Increment      1: Step Time =    1.000,"PART-1-1",           132,       4.95005,       27.5805,            0.,NA,NA,"",       11.7923,       11.7922,  -53.3088E-03,   1.08839E-06
C:/temp/dataset/3/24_7.odb,Step-1,Increment      1: Step Time =    1.000,"PART-1-1",           133,      -4.99957,       22.5148,            0.,NA,NA,"",       11.1619,       10.7785,       2.90032,   15.6652E-09
C:/temp/dataset/3/24_7.odb,Step-1,Increment      1: Step Time =    1.000,"PART-1-1",           134,      -7.50186,       22.5094,            0.,NA,NA,"",       11.4532,       10.8748,       3.59353,   9.16558E-09
C:/temp/dataset/3/24_7.odb,Step-1,Increment      1: Step Time =    1.000,"PART-1-1",           135,       4.93744,       22.5898,            0.,NA,NA,"",       10.4116,       10.4106,   145.392E-03,   3.30358E-06
C:/temp/dataset/3/24_7.odb,Step-1,Increment      1: Step Time =    1.000,"PART-1-1",           136,       2.47758,       22.5593,            0.,NA,NA,"",       10.5309,       10.4983,   827.829E-03,   1.69721E-06
C:/temp/dataset/3/24_7.odb,Step-1,Increment      1: Step Time =    1.000,"PART-1-1",           137,  -4.46696E-03,       22.5388,            0.,NA,NA,"",       10.6977,       10.5897,       1.51602,   369.377E-09
C:/temp/dataset/3/24_7.odb,Step-1,Increment      1: Step Time =    1.000,"PART-1-1",           138,       7.20686,       12.6699,            0.,NA,NA,"",       7.57456,       7.57396,  -94.9233E-03,   479.594E-06
C:/temp/dataset/3/24_7.odb,Step-1,Increment      1: Step Time =    1.000,"PART-1-1",           139,       7.30679,       15.0771,            0.,NA,NA,"",       8.23985,       8.23700,  -216.793E-03,   212.675E-06
C:/temp/dataset/3/24_7.odb,Step-1,Increment      1: Step Time =    1.000,"PART-1-1",           140,       7.52839,       5.66323,            0.,NA,NA,"",       5.63281,       5.63222,   81.4879E-03,   12.4536E-03
C:/temp/dataset/3/24_7.odb,Step-1,Increment      1: Step Time =    1.000,"PART-1-1",           141,       7.20823,       7.96221,            0.,NA,NA,"",       6.27375,       6.27314,   87.4096E-03,   4.49220E-03
C:/temp/dataset/3/24_7.odb,Step-1,Increment      1: Step Time =    1.000,"PART-1-1",           142,      -1.77433,       3.17490,            0.,NA,NA,"",       6.34336,       5.56989,       3.03555,   19.4218E-03
C:/temp/dataset/3/24_7.odb,Step-1,Increment      1: Step Time =    1.000,"PART-1-1",           143,   347.975E-03,       3.01142,            0.,NA,NA,"",       5.82824,       5.34750,       2.31787,   22.4447E-03
C:/temp/dataset/3/24_7.odb,Step-1,Increment      1: Step Time =    1.000,"PART-1-1",           144,      -8.17775,       2.85153,            0.,NA,NA,"",       8.02162,       5.95803,       5.37105,   9.76725E-03
C:/temp/dataset/3/24_7.odb,Step-1,Increment      1: Step Time =    1.000,"PART-1-1",           145,      -8.45397,      -3.03463,            0.,NA,NA,"",       7.03467,       3.86532,       5.87757,   12.5639E-03
C:/temp/dataset/3/24_7.odb,Step-1,Increment      1: Step Time =    1.000,"PART-1-1",           146,      -12.6978,       2.46856,            0.,NA,NA,"",       9.37619,       6.15270,       7.07512,   3.70744E-03
C:/temp/dataset/3/24_7.odb,Step-1,Increment      1: Step Time =    1.000,"PART-1-1",           147,      -10.5225,      -2.72745,            0.,NA,NA,"",       7.80900,       4.11631,       6.63600,   10.2289E-03
C:/temp/dataset/3/24_7.odb,Step-1,Increment      1: Step Time =    1.000,"PART-1-1",           148,      -12.7265,      -2.55241,            0.,NA,NA,"",       8.61389,       4.32944,       7.44681,   6.99396E-03
C:/temp/dataset/3/24_7.odb,Step-1,Increment      1: Step Time =    1.000,"PART-1-1",           149,      -3.80700,      -2.48494,            0.,NA,NA,"",       5.56968,       3.76541,       4.10402,   14.2171E-03
C:/temp/dataset/3/24_7.odb,Step-1,Increment      1: Step Time =    1.000,"PART-1-1",           150,      -6.26959,      -2.94549,            0.,NA,NA,"",       6.29012,       3.75336,       5.04757,   11.7991E-03
C:/temp/dataset/3/24_7.odb,Step-1,Increment      1: Step Time =    1.000,"PART-1-1",           151,       2.97297,      -3.34056,            0.,NA,NA,"",       3.61680,       3.15964,       1.76009,   37.4514E-03
C:/temp/dataset/3/24_7.odb,Step-1,Increment      1: Step Time =    1.000,"PART-1-1",           152,   836.982E-03,      -3.21922,            0.,NA,NA,"",       4.12191,       3.28438,       2.49059,   25.8633E-03
C:/temp/dataset/3/24_7.odb,Step-1,Increment      1: Step Time =    1.000,"PART-1-1",           153,       7.27849,      -10.7647,            0.,NA,NA,"",       1.37451,       1.30984,   416.672E-03,   43.4281E-03
C:/temp/dataset/3/24_7.odb,Step-1,Increment      1: Step Time =    1.000,"PART-1-1",           154,       7.20650,      -8.25133,            0.,NA,NA,"",       1.86667,       1.80588,   472.496E-03,   44.9732E-03
C:/temp/dataset/3/24_7.odb,Step-1,Increment      1: Step Time =    1.000,"PART-1-1",           155,       7.07274,      -17.3233,            0.,NA,NA,"",   440.296E-03,   361.373E-03,   251.537E-03,   50.1402E-03
C:/temp/dataset/3/24_7.odb,Step-1,Increment      1: Step Time =    1.000,"PART-1-1",           156,       6.55788,      -15.2577,            0.,NA,NA,"",   730.187E-03,   622.984E-03,   380.874E-03,   57.0745E-03
C:/temp/dataset/3/24_7.odb,Step-1,Increment      1: Step Time =    1.000,"PART-1-1",           157,      -7.46685,      -22.5818,            0.,NA,NA,"",   33.0618E-03,   33.0038E-03,  -1.95764E-03,   1.56879E-03
C:/temp/dataset/3/24_7.odb,Step-1,Increment      1: Step Time =    1.000,"PART-1-1",           158,      -4.95694,      -22.5955,            0.,NA,NA,"",   37.0518E-03,   37.0507E-03,   279.705E-06,   2.63827E-03
C:/temp/dataset/3/24_7.odb,Step-1,Increment      1: Step Time =    1.000,"PART-1-1",           159,   146.162E-03,      -22.6598,            0.,NA,NA,"",   63.2160E-03,   54.8018E-03,   31.5123E-03,   11.6650E-03
C:/temp/dataset/3/24_7.odb,Step-1,Increment      1: Step Time =    1.000,"PART-1-1",           160,      -12.4860,      -22.5306,            0.,NA,NA,"",   30.2137E-03,   30.0279E-03,   3.34501E-03,   240.979E-06
C:/temp/dataset/3/24_7.odb,Step-1,Increment      1: Step Time =    1.000,"PART-1-1",           161,       9.96020,      -27.7814,            0.,NA,NA,"",   26.7424E-03,  -26.3494E-03,  -4.56801E-03,   10.0226E-03
C:/temp/dataset/3/24_7.odb,Step-1,Increment      1: Step Time =    1.000,"PART-1-1",           162,       7.44077,      -27.8946,            0.,NA,NA,"",   21.7164E-03,  -15.6899E-03,   15.0142E-03,   12.8310E-03
C:/temp/dataset/3/24_7.odb,Step-1,Increment      1: Step Time =    1.000,"PART-1-1",           163,       4.93217,      -27.8625,            0.,NA,NA,"",   23.2169E-03,   2.38833E-03,   23.0937E-03,   15.9922E-03
C:/temp/dataset/3/24_7.odb,Step-1,Increment      1: Step Time =    1.000,"PART-1-1",           164,       2.47767,      -27.7470,            0.,NA,NA,"",   27.0128E-03,   17.5219E-03,   20.5591E-03,   14.1562E-03
C:/temp/dataset/3/24_7.odb,Step-1,Increment      1: Step Time =    1.000,"PART-1-1",           165,   19.5837E-03,      -27.6625,            0.,NA,NA,"",   27.0711E-03,   23.8393E-03,   12.8270E-03,   10.4626E-03
C:/temp/dataset/3/24_7.odb,Step-1,Increment      1: Step Time =    1.000,"PART-1-1",           166,      -2.46955,      -27.6154,            0.,NA,NA,"",   24.0917E-03,   23.2752E-03,   6.21865E-03,   7.46440E-03
C:/temp/dataset/3/24_7.odb,Step-1,Increment      1: Step Time =    1.000,"PART-1-1",           167,      -4.97450,      -27.5844,            0.,NA,NA,"",   19.8667E-03,   19.7294E-03,   2.33137E-03,   5.48501E-03
C:/temp/dataset/3/24_7.odb,Step-1,Increment      1: Step Time =    1.000,"PART-1-1",           168,      -7.48283,      -27.5594,            0.,NA,NA,"",   16.0373E-03,   16.0197E-03,   751.814E-06,   4.21566E-03
C:/temp/dataset/3/24_7.odb,Step-1,Increment      1: Step Time =    1.000,"PART-1-1",           169,       12.2865,      -25.1793,            0.,NA,NA,"",   71.8496E-03,  -18.1088E-03,  -69.5301E-03,   22.9926E-03
C:/temp/dataset/3/24_7.odb,Step-1,Increment      1: Step Time =    1.000,"PART-1-1",           170,       11.6753,      -16.4340,            0.,NA,NA,"",   458.441E-03,   410.577E-03,  -203.948E-03,   17.3160E-03
C:/temp/dataset/3/24_7.odb,Step-1,Increment      1: Step Time =    1.000,"PART-1-1",           171,       11.9685,      -19.5802,            0.,NA,NA,"",   220.239E-03,   149.144E-03,  -162.054E-03,   23.7526E-03
C:/temp/dataset/3/24_7.odb,Step-1,Increment      1: Step Time =    1.000,"PART-1-1",           172,       13.3291,      -9.93034,            0.,NA,NA,"",       1.51599,       1.35538,  -679.110E-03,   36.9265E-03
C:/temp/dataset/3/24_7.odb,Step-1,Increment      1: Step Time =    1.000,"PART-1-1",           173,       13.4212,      -12.1607,            0.,NA,NA,"",       1.13903,   977.106E-03,  -585.357E-03,   39.4147E-03
C:/temp/dataset/3/24_7.odb,Step-1,Increment      1: Step Time =    1.000,"PART-1-1",           174,       12.9633,      -2.52247,            0.,NA,NA,"",       3.22159,       3.06034,      -1.00644,   26.8737E-03
C:/temp/dataset/3/24_7.odb,Step-1,Increment      1: Step Time =    1.000,"PART-1-1",           175,       13.1247,      -4.84738,            0.,NA,NA,"",       2.61607,       2.45176,  -912.520E-03,   31.1431E-03
C:/temp/dataset/3/24_7.odb,Step-1,Increment      1: Step Time =    1.000,"PART-1-1",           176,       13.1131,       5.12757,            0.,NA,NA,"",       5.42912,       5.23721,      -1.43073,   4.61650E-03
C:/temp/dataset/3/24_7.odb,Step-1,Increment      1: Step Time =    1.000,"PART-1-1",           177,       12.1418,       2.60140,            0.,NA,NA,"",       4.66893,       4.54857,      -1.05329,   14.8988E-03
C:/temp/dataset/3/24_7.odb,Step-1,Increment      1: Step Time =    1.000,"PART-1-1",           178,       12.1760,       12.1629,            0.,NA,NA,"",       7.38449,       7.24049,      -1.45119,   494.652E-06
C:/temp/dataset/3/24_7.odb,Step-1,Increment      1: Step Time =    1.000,"PART-1-1",           179,       13.0236,       9.64002,            0.,NA,NA,"",       6.69847,       6.50759,      -1.58771,   437.453E-06
C:/temp/dataset/3/24_7.odb,Step-1,Increment      1: Step Time =    1.000,"PART-1-1",           180,       12.3784,       20.0377,            0.,NA,NA,"",       9.58626,       9.41277,      -1.81550,   15.4679E-06
C:/temp/dataset/3/24_7.odb,Step-1,Increment      1: Step Time =    1.000,"PART-1-1",           181,       12.3660,       17.5135,            0.,NA,NA,"",       8.88115,       8.71431,      -1.71335,   70.7009E-06
C:/temp/dataset/3/24_7.odb,Step-1,Increment      1: Step Time =    1.000,"PART-1-1",           182,       12.4264,       25.0333,            0.,NA,NA,"",       10.9825,       10.7943,      -2.02418,   2.29066E-06
C:/temp/dataset/3/24_7.odb,Step-1,Increment      1: Step Time =    1.000,"PART-1-1",           183,       7.43491,       27.5684,            0.,NA,NA,"",       11.7151,       11.6917,  -740.998E-03,   1.01645E-06
C:/temp/dataset/3/24_7.odb,Step-1,Increment      1: Step Time =    1.000,"PART-1-1",           184,  -17.4965E-03,       27.5503,            0.,NA,NA,"",       12.0510,       11.9781,       1.32361,   245.776E-09
C:/temp/dataset/3/24_7.odb,Step-1,Increment      1: Step Time =    1.000,"PART-1-1",           185,       2.47067,       27.5656,            0.,NA,NA,"",       11.9020,       11.8851,   633.924E-03,   695.893E-09
C:/temp/dataset/3/24_7.odb,Step-1,Increment      1: Step Time =    1.000,"PART-1-1",           186,      -7.50286,       27.5043,            0.,NA,NA,"",       12.7206,       12.2582,       3.39843,   9.03074E-09
C:/temp/dataset/3/24_7.odb,Step-1,Increment      1: Step Time =    1.000,"PART-1-1",           187,      -5.00635,       27.5119,            0.,NA,NA,"",       12.4602,       12.1626,       2.70674,   6.01441E-09
C:/temp/dataset/3/24_7.odb,Step-1,Increment      1: Step Time =    1.000,"PART-1-1",           188,      -12.5019,       27.5019,            0.,NA,NA,"",       13.3400,       12.4531,       4.78298,   2.91203E-09
C:/temp/dataset/3/24_7.odb,Step-1,Increment      1: Step Time =    1.000,"PART-1-1",           189,      -12.5001,       22.5034,            0.,NA,NA,"",       12.1366,       11.0687,       4.97798,   2.95199E-09
C:/temp/dataset/3/24_7.odb,Step-1,Increment      1: Step Time =    1.000,"PART-1-1",           190,      -5.00429,       25.0191,            0.,NA,NA,"",       11.8098,       11.4722,       2.80367,   11.8793E-09
C:/temp/dataset/3/24_7.odb,Step-1,Increment      1: Step Time =    1.000,"PART-1-1",           191,  -15.9173E-03,       25.0642,            0.,NA,NA,"",       11.3786,       11.2896,       1.42041,   317.635E-09
C:/temp/dataset/3/24_7.odb,Step-1,Increment      1: Step Time =    1.000,"PART-1-1",           192,       9.74355,       15.0604,            0.,NA,NA,"",       8.18609,       8.13748,  -890.781E-03,   240.997E-06
C:/temp/dataset/3/24_7.odb,Step-1,Increment      1: Step Time =    1.000,"PART-1-1",           193,       9.51986,       12.6989,            0.,NA,NA,"",       7.52838,       7.49233,  -735.890E-03,   521.094E-06
C:/temp/dataset/3/24_7.odb,Step-1,Increment      1: Step Time =    1.000,"PART-1-1",           194,       12.1898,      -11.7554,            0.,NA,NA,"",       1.11644,       1.04208,  -400.652E-03,   22.2538E-03
C:/temp/dataset/3/24_7.odb,Step-1,Increment      1: Step Time =    1.000,"PART-1-1",           195,       9.78251,      -13.4248,            0.,NA,NA,"",   806.041E-03,   806.037E-03,  -2.50542E-03,   10.7049E-03
C:/temp/dataset/3/24_7.odb,Step-1,Increment      1: Step Time =    1.000,"PART-1-1",           196,       7.24032,      -19.5057,            0.,NA,NA,"",   228.853E-03,   153.751E-03,   169.512E-03,   28.7268E-03
C:/temp/dataset/3/24_7.odb,Step-1,Increment      1: Step Time =    1.000,"PART-1-1",           197,      -10.0066,  -139.817E-03,            0.,NA,NA,"",       8.01690,       5.01498,       6.25465,   10.0187E-03
C:/temp/dataset/3/24_7.odb,Step-1,Increment      1: Step Time =    1.000,"PART-1-1",           198,      -8.39380,      -1.43672,            0.,NA,NA,"",       7.25426,       4.43615,       5.73977,   11.9603E-03
C:/temp/dataset/3/24_7.odb,Step-1,Increment      1: Step Time =    1.000,"PART-1-1",           199,      -5.07121,  -530.035E-03,            0.,NA,NA,"",       6.34130,       4.52816,       4.43935,   12.5590E-03
C:/temp/dataset/3/24_7.odb,Step-1,Increment      1: Step Time =    1.000,"PART-1-1",           200,      -12.5003,      -27.5198,            0.,NA,NA,"",   12.3539E-03,   12.1582E-03,   2.19058E-03,   3.07348E-03
C:/temp/dataset/3/24_7.odb,Step-1,Increment      1: Step Time =    1.000,"PART-1-1",           201,       8.97180,      -8.86122,            0.,NA,NA,"",       1.62752,       1.62271,   125.088E-03,   17.7073E-03
C:/temp/dataset/3/24_7.odb,Step-1,Increment      1: Step Time =    1.000,"PART-1-1",           202,      -2.50561,       25.0360,            0.,NA,NA,"",       11.5733,       11.3791,       2.11102,   75.8065E-09
C:/temp/dataset/3/24_7.odb,Step-1,Increment      1: Step Time =    1.000,"PART-1-1",           203,      -7.50383,       25.0106,            0.,NA,NA,"",       12.0844,       11.5676,       3.49624,   8.88751E-09
C:/temp/dataset/3/24_7.odb,Step-1,Increment      1: Step Time =    1.000,"PART-1-1",           204,       2.46362,       25.0850,            0.,NA,NA,"",       11.2223,       11.1984,   732.904E-03,   1.05046E-06
C:/temp/dataset/3/24_7.odb,Step-1,Increment      1: Step Time =    1.000,"PART-1-1",           205,       9.17638,       10.5785,            0.,NA,NA,"",       6.94140,       6.91902,  -556.930E-03,   655.228E-06
C:/temp/dataset/3/24_7.odb,Step-1,Increment      1: Step Time =    1.000,"PART-1-1",           206,       9.65111,       6.46520,            0.,NA,NA,"",       5.78424,       5.75999,  -529.148E-03,   5.34161E-03
C:/temp/dataset/3/24_7.odb,Step-1,Increment      1: Step Time =    1.000,"PART-1-1",           207,      -1.99278,       1.34592,            0.,NA,NA,"",       5.91025,       4.96134,       3.21188,   13.9437E-03
C:/temp/dataset/3/24_7.odb,Step-1,Increment      1: Step Time =    1.000,"PART-1-1",           208,      -5.69490,       1.29843,            0.,NA,NA,"",       6.92252,       5.21448,       4.55308,   12.6385E-03
C:/temp/dataset/3/24_7.odb,Step-1,Increment      1: Step Time =    1.000,"PART-1-1",           209,       1.92780,   665.778E-03,            0.,NA,NA,"",       4.86497,       4.47692,       1.90399,   11.9383E-03
C:/temp/dataset/3/24_7.odb,Step-1,Increment      1: Step Time =    1.000,"PART-1-1",           210,       1.26043,      -1.37778,            0.,NA,NA,"",       4.45997,       3.86138,       2.23184,   15.0373E-03
C:/temp/dataset/3/24_7.odb,Step-1,Increment      1: Step Time =    1.000,"PART-1-1",           211,       9.14691,      -16.8280,            0.,NA,NA,"",   382.909E-03,   377.912E-03,   61.6596E-03,   15.4615E-03
C:/temp/dataset/3/24_7.odb,Step-1,Increment      1: Step Time =    1.000,"PART-1-1",           212,   79.9954E-03,      -25.2148,            0.,NA,NA,"",   49.9864E-03,   42.7376E-03,   25.9256E-03,   11.3316E-03
C:/temp/dataset/3/24_7.odb,Step-1,Increment      1: Step Time =    1.000,"PART-1-1",           213,      -9.97865,      -25.0679,            0.,NA,NA,"",   23.9362E-03,   23.9358E-03,   140.301E-06,   2.13947E-03
C:/temp/dataset/3/24_7.odb,Step-1,Increment      1: Step Time =    1.000,"PART-1-1",           214,       12.4671,      -27.6040,            0.,NA,NA,"",   38.2931E-03,  -18.9377E-03,  -33.2825E-03,   21.1254E-03
C:/temp/dataset/3/24_7.odb,Step-1,Increment      1: Step Time =    1.000,"PART-1-1",           215,       9.82463,      -25.6838,            0.,NA,NA,"",   27.5131E-03,  -27.3040E-03,  -3.38561E-03,   12.6211E-03
C:/temp/dataset/3/24_7.odb,Step-1,Increment      1: Step Time =    1.000,"PART-1-1",           216,       2.56344,      -25.3828,            0.,NA,NA,"",   61.6307E-03,   38.1628E-03,   48.3937E-03,   18.5541E-03
C:/temp/dataset/3/24_7.odb,Step-1,Increment      1: Step Time =    1.000,"PART-1-1",           217,      -2.44121,      -25.1518,            0.,NA,NA,"",   39.5341E-03,   38.3248E-03,   9.70333E-03,   6.91858E-03
C:/temp/dataset/3/24_7.odb,Step-1,Increment      1: Step Time =    1.000,"PART-1-1",           218,      -4.95889,      -25.1139,            0.,NA,NA,"",   32.4089E-03,   32.3379E-03,   2.14463E-03,   4.35848E-03
C:/temp/dataset/3/24_7.odb,Step-1,Increment      1: Step Time =    1.000,"PART-1-1",           219,       10.3279,  -771.646E-03,            0.,NA,NA,"",       3.65276,       3.62772,  -426.953E-03,   26.7806E-03
C:/temp/dataset/3/24_7.odb,Step-1,Increment      1: Step Time =    1.000,"PART-1-1",           220,       10.4049,       4.48083,            0.,NA,NA,"",       5.20664,       5.16446,  -661.378E-03,   11.3257E-03
C:/temp/dataset/3/24_7.odb,Step-1,Increment      1: Step Time =    1.000,"PART-1-1",           221,       9.80969,       17.5478,            0.,NA,NA,"",       8.88092,       8.82368,      -1.00666,   80.6233E-06
C:/temp/dataset/3/24_7.odb,Step-1,Increment      1: Step Time =    1.000,"PART-1-1",           222,       9.88106,       25.0797,            0.,NA,NA,"",       10.9865,       10.9068,      -1.32110,   1.56181E-06
C:/temp/dataset/3/24_7.odb,Step-1,Increment      1: Step Time =    1.000,"PART-1-1",           223,       9.94975,       27.5346,            0.,NA,NA,"",       11.6726,       11.5839,      -1.43614,   1.26468E-06
C:/temp/dataset/3/24_7.odb,Step-1,Increment      1: Step Time =    1.000,"PART-1-1",           224,       7.36779,       20.0596,            0.,NA,NA,"",       9.62430,       9.61475,  -428.711E-03,   12.3986E-06
C:/temp/dataset/3/24_7.odb,Step-1,Increment      1: Step Time =    1.000,"PART-1-1",           225,  -693.206E-03,      -1.01900,            0.,NA,NA,"",       5.00379,       4.08479,       2.89006,   13.8211E-03
C:/temp/dataset/3/24_7.odb,Step-1,Increment      1: Step Time =    1.000,"PART-1-1",           226,      -7.47194,      -25.0831,            0.,NA,NA,"",   27.2724E-03,   27.2703E-03,  -344.000E-06,   3.09642E-03
C:/temp/dataset/3/24_7.odb,Step-1,Increment      1: Step Time =    1.000,"PART-1-1",           227,       5.28089,       2.25097,            0.,NA,NA,"",       4.83814,       4.77048,   806.295E-03,   20.8045E-03
C:/temp/dataset/3/24_7.odb,Step-1,Increment      1: Step Time =    1.000,"PART-1-1",           228,       9.26575,       8.45073,            0.,NA,NA,"",       6.34699,       6.32742,  -498.088E-03,   1.72080E-03
C:/temp/dataset/3/24_7.odb,Step-1,Increment      1: Step Time =    1.000,"PART-1-1",           229,  -81.3472E-03,       1.02952,            0.,NA,NA,"",       5.37365,       4.72348,       2.56218,   13.3357E-03
C:/temp/dataset/3/24_7.odb,Step-1,Increment      1: Step Time =    1.000,"PART-1-1",           230,      -7.67687,   831.326E-03,            0.,NA,NA,"",       7.43371,       5.19484,       5.31730,   11.7383E-03
C:/temp/dataset/3/24_7.odb,Step-1,Increment      1: Step Time =    1.000,"PART-1-1",           231,      -2.54090,  -531.417E-03,            0.,NA,NA,"",       5.60265,       4.36066,       3.51772,   12.7592E-03
C:/temp/dataset/3/24_7.odb,Step-1,Increment      1: Step Time =    1.000,"PART-1-1",           232,      -3.83997,       1.55066,            0.,NA,NA,"",       6.44898,       5.16556,       3.86087,   13.5374E-03
C:/temp/dataset/3/24_7.odb,Step-1,Increment      1: Step Time =    1.000,"PART-1-1",           233,      -6.84494,  -996.203E-03,            0.,NA,NA,"",       6.81344,       4.48568,       5.12851,   12.5367E-03
C:/temp/dataset/3/24_7.odb,Step-1,Increment      1: Step Time =    1.000,"PART-1-1",           234,       5.51335,      -3.03354,            0.,NA,NA,"",       3.27202,       3.14246,   911.613E-03,   30.0523E-03
C:/temp/dataset/3/24_7.odb,Step-1,Increment      1: Step Time =    1.000,"PART-1-1",           235,       9.62476,      -7.14735,            0.,NA,NA,"",       1.96967,       1.96946,  -28.9192E-03,   9.55720E-03
C:/temp/dataset/3/24_7.odb,Step-1,Increment      1: Step Time =    1.000,"PART-1-1",           236,       7.38903,      -25.9371,            0.,NA,NA,"",   40.4236E-03,  -12.5727E-03,   38.4187E-03,   17.4940E-03
C:/temp/dataset/3/24_7.odb,Step-1,Increment      1: Step Time =    1.000,"PART-1-1",           237,       4.96373,      -25.7856,            0.,NA,NA,"",   58.4708E-03,   14.7994E-03,   56.5669E-03,   22.0320E-03
C:/temp/dataset/3/24_7.odb,Step-1,Increment      1: Step Time =    1.000,"PART-1-1",           238,       9.37191,      -21.3805,            0.,NA,NA,"",   55.9790E-03,   50.1845E-03,   24.8023E-03,   13.6130E-03
C:/temp/dataset/3/24_7.odb,Step-1,Increment      1: Step Time =    1.000,"PART-1-1",           239,       9.53380,      -19.3691,            0.,NA,NA,"",   154.551E-03,   153.552E-03,   17.5467E-03,   8.26220E-03
C:/temp/dataset/3/24_7.odb,Step-1,Increment      1: Step Time =    1.000,"PART-1-1",           240,       10.5518,      -5.76730,            0.,NA,NA,"",       2.28611,       2.26975,  -273.044E-03,   13.7158E-03
C:/temp/dataset/3/24_7.odb,Step-1,Increment      1: Step Time =    1.000,"PART-1-1",           241,       10.8494,      -2.88140,            0.,NA,NA,"",       3.04743,       3.01211,  -462.634E-03,   25.1663E-03
C:/temp/dataset/3/24_7.odb,Step-1,Increment      1: Step Time =    1.000,"PART-1-1",           242,       9.33979,       1.27198,            0.,NA,NA,"",       4.27808,       4.27041,  -256.073E-03,   25.8273E-03
C:/temp/dataset/3/24_7.odb,Step-1,Increment      1: Step Time =    1.000,"PART-1-1",           243,       9.83335,       20.0603,            0.,NA,NA,"",       9.58324,       9.51856,      -1.11155,   17.9377E-06
C:/temp/dataset/3/24_7.odb,Step-1,Increment      1: Step Time =    1.000,"PART-1-1",           244,       7.39102,       25.1069,            0.,NA,NA,"",       11.0298,       11.0117,  -632.569E-03,   1.55952E-06
C:/temp/dataset/3/24_7.odb,Step-1,Increment      1: Step Time =    1.000,"PART-1-1",           245,       4.93408,       25.0979,            0.,NA,NA,"",       11.1054,       11.1053,   48.2209E-03,   1.48655E-06
C:/temp/dataset/3/24_7.odb,Step-1,Increment      1: Step Time =    1.000,"PART-1-1",           246,      -10.0026,       25.0068,            0.,NA,NA,"",       12.3935,       11.6643,       4.18840,   4.98681E-09
C:/temp/dataset/3/24_7.odb,Step-1,Increment      1: Step Time =    1.000,"PART-1-1",           247,      -10.0008,       22.5051,            0.,NA,NA,"",       11.7788,       10.9714,       4.28577,   5.10856E-09
C:/temp/dataset/3/24_7.odb,Step-1,Increment      1: Step Time =    1.000,"PART-1-1",           248,      -9.99283,      -27.5363,            0.,NA,NA,"",   13.2409E-03,   13.2268E-03,   611.986E-06,   3.42714E-03
C:/temp/dataset/3/24_7.odb,Step-1,Increment      1: Step Time =    1.000,"PART-1-1",           249,       3.80746,   187.829E-03,            0.,NA,NA,"",       4.41905,       4.21638,       1.32291,   10.5939E-03
C:/temp/dataset/3/24_7.odb,Step-1,Increment      1: Step Time =    1.000,"PART-1-1",           250,       11.4886,       7.12458,            0.,NA,NA,"",       5.96268,       5.86739,      -1.06175,   2.54968E-03
C:/temp/dataset/3/24_7.odb,Step-1,Increment      1: Step Time =    1.000,"PART-1-1",           251,       5.25951,      -23.9756,            0.,NA,NA,"",   97.4667E-03,   32.1383E-03,   92.0157E-03,   29.2037E-03
C:/temp/dataset/3/24_7.odb,Step-1,Increment      1: Step Time =    1.000,"PART-1-1",           252,       9.85798,       22.5791,            0.,NA,NA,"",       10.2874,       10.2152,      -1.21691,   3.37508E-06
C:/temp/dataset/3/24_7.odb,Step-1,Increment      1: Step Time =    1.000,"PART-1-1",           253,       7.38133,       22.5911,            0.,NA,NA,"",       10.3290,       10.3153,  -531.481E-03,   2.77717E-06
C:/temp/dataset/3/24_7.odb,Step-1,Increment      1: Step Time =    1.000,"PART-1-1",           254,       9.03817,      -10.9527,            0.,NA,NA,"",       1.22964,       1.22435,   113.962E-03,   19.8710E-03
C:/temp/dataset/3/24_7.odb,Step-1,Increment      1: Step Time =    1.000,"PART-1-1",           255,       7.30212,      -21.2110,            0.,NA,NA,"",   145.412E-03,   63.7138E-03,   130.710E-03,   27.3662E-03
C:/temp/dataset/3/24_7.odb,Step-1,Increment      1: Step Time =    1.000,"PART-1-1",           256,       8.48263,      -3.88795,            0.,NA,NA,"",       2.80105,       2.79707,   149.220E-03,   23.7124E-03
C:/temp/dataset/3/24_7.odb,Step-1,Increment      1: Step Time =    1.000,"PART-1-1",           257,       8.48912,      -1.65164,            0.,NA,NA,"",       3.43297,       3.43219,   73.0961E-03,   28.4758E-03
C:/temp/dataset/3/24_7.odb,Step-1,Increment      1: Step Time =    1.000,"PART-1-1",           258,       8.19007,       3.36514,            0.,NA,NA,"",       4.94582,       4.94575,  -24.8589E-03,   23.4456E-03
C:/temp/dataset/3/24_7.odb,Step-1,Increment      1: Step Time =    1.000,"PART-1-1",           259,       6.78208,  -317.133E-03,            0.,NA,NA,"",       3.93440,       3.90539,   476.952E-03,   24.4626E-03
C:/temp/dataset/3/24_7.odb,Step-1,Increment      1: Step Time =    1.000,"PART-1-1",           260,       11.8604,      -10.2109,            0.,NA,NA,"",       1.36969,       1.31157,  -394.776E-03,   17.8706E-03
C:/temp/dataset/3/24_7.odb,Step-1,Increment      1: Step Time =    1.000,"PART-1-1",           261,       5.00218,  -627.613E-03,            0.,NA,NA,"",       4.02293,       3.89858,   992.480E-03,   16.7336E-03
C:/temp/dataset/3/24_7.odb,Step-1,Increment      1: Step Time =    1.000,"PART-1-1",           262,       11.1460,      -8.45072,            0.,NA,NA,"",       1.69121,       1.66201,  -312.911E-03,   10.8878E-03
C:/temp/dataset/3/24_7.odb,Step-1,Increment      1: Step Time =    1.000,"PART-1-1",           263,       11.7180,       5.54683,            0.,NA,NA,"",       5.51607,       5.41276,      -1.06255,   5.85372E-03
C:/temp/dataset/3/24_7.odb,Step-1,Increment      1: Step Time =    1.000,"PART-1-1",           264,       5.25136,      -21.5985,            0.,NA,NA,"",   173.559E-03,   74.1885E-03,   156.904E-03,   45.5315E-03
C:/temp/dataset/3/24_7.odb,Step-1,Increment      1: Step Time =    1.000,"PART-1-1",           265,       12.4723,       27.5096,            0.,NA,NA,"",       11.6750,       11.4783,      -2.13376,   1.78216E-06
C:/temp/dataset/3/24_7.odb,Step-1,Increment      1: Step Time =    1.000,"PART-1-1",           266,       5.87727,      -22.7682,            0.,NA,NA,"",   129.218E-03,   44.8743E-03,   121.176E-03,   32.2747E-03
C:/temp/dataset/3/24_7.odb,Step-1,Increment      1: Step Time =    1.000,"PART-1-1",           267,       7.32369,      -22.7299,            0.,NA,NA,"",   99.5395E-03,   25.1214E-03,   96.3174E-03,   26.1205E-03
C:/temp/dataset/3/24_7.odb,Step-1,Increment      1: Step Time =    1.000,"PART-1-1",           268,       11.4923,      -4.55460,            0.,NA,NA,"",       2.61057,       2.55402,  -540.427E-03,   22.4328E-03
C:/temp/dataset/3/24_7.odb,Step-1,Increment      1: Step Time =    1.000,"PART-1-1",           269,       11.2115,       8.96325,            0.,NA,NA,"",       6.47816,       6.39129,      -1.05734,   700.404E-06
C:/temp/dataset/3/24_7.odb,Step-1,Increment      1: Step Time =    1.000,"PART-1-1",           270,       10.8046,       10.5255,            0.,NA,NA,"",       6.91422,       6.84062,      -1.00613,   623.854E-06
C:/temp/dataset/3/24_7.odb,Step-1,Increment      1: Step Time =    1.000,"PART-1-1",           271,       7.35536,      -24.2380,            0.,NA,NA,"",   65.3499E-03,   1.87429E-03,   65.3230E-03,   21.8396E-03
C:/temp/dataset/3/24_7.odb,Step-1,Increment      1: Step Time =    1.000,"PART-1-1",           272,      -3.82134,   150.711E-03,            0.,NA,NA,"",       6.11638,       4.67932,       3.93879,   12.4766E-03
C:/temp/dataset/3/24_7.odb,Step-1,Increment      1: Step Time =    1.000,"PART-1-1",           273,       3.09609,      -1.70207,            0.,NA,NA,"",       4.01246,       3.66689,       1.62905,   17.9113E-03
C:/temp/dataset/3/24_7.odb,Step-1,Increment      1: Step Time =    1.000,"PART-1-1",           274,       4.56419,      -1.78689,            0.,NA,NA,"",       3.75012,       3.56548,       1.16222,   18.0561E-03
C:/temp/dataset/3/24_7.odb,Step-1,Increment      1: Step Time =    1.000,"PART-1-1",           275,       9.44492,      -23.8624,            0.,NA,NA,"",   14.9928E-03,  -9.65126E-03,   11.4733E-03,   15.1468E-03
C:/temp/dataset/3/24_7.odb,Step-1,Increment      1: Step Time =    1.000,"PART-1-1",           276,       8.77427,      -22.6651,            0.,NA,NA,"",   47.5648E-03,   15.0080E-03,   45.1350E-03,   17.3751E-03
C:/temp/dataset/3/24_7.odb,Step-1,Increment      1: Step Time =    1.000,"PART-1-1",           277,       10.1837,      -9.28900,            0.,NA,NA,"",       1.51424,       1.51058,  -105.200E-03,   4.62018E-03
C:/temp/dataset/3/24_7.odb,Step-1,Increment      1: Step Time =    1.000,"PART-1-1",           278,       10.4979,      -10.7612,            0.,NA,NA,"",       1.23726,       1.22947,  -138.643E-03,   2.94684E-03
C:/temp/dataset/3/24_7.odb,Step-1,Increment      1: Step Time =    1.000,"PART-1-1",           279,       11.2325,      -12.6180,            0.,NA,NA,"",   938.076E-03,   910.572E-03,  -225.489E-03,   9.61135E-03
C:/temp/dataset/3/24_7.odb,Step-1,Increment      1: Step Time =    1.000,"PART-1-1",           280,      -13.7500,       22.5017,            0.,NA,NA,"",       12.3263,       11.1171,       5.32422,   2.53518E-09
C:/temp/dataset/3/24_7.odb,Step-1,Increment      1: Step Time =    1.000,"PART-1-1",           281,          -15.,         21.25,            0.,NA,NA,"",       12.2380,       10.8193,       5.71935,   2.12694E-09
C:/temp/dataset/3/24_7.odb,Step-1,Increment      1: Step Time =    1.000,"PART-1-1",           282,        -13.75,           20.,            0.,NA,NA,"",       11.7501,       10.4243,       5.42206,   2.18263E-09
C:/temp/dataset/3/24_7.odb,Step-1,Increment      1: Step Time =    1.000,"PART-1-1",           283,      -12.5000,       21.2517,            0.,NA,NA,"",       11.8420,       10.7220,       5.02693,   2.49848E-09
C:/temp/dataset/3/24_7.odb,Step-1,Increment      1: Step Time =    1.000,"PART-1-1",           284,        -11.25,           30.,            0.,NA,NA,"",       13.7959,       13.0959,       4.33856,   3.45723E-09
C:/temp/dataset/3/24_7.odb,Step-1,Increment      1: Step Time =    1.000,"PART-1-1",           285,      -12.5009,       28.7510,            0.,NA,NA,"",       13.6463,       12.7989,       4.73386,   2.52720E-09
C:/temp/dataset/3/24_7.odb,Step-1,Increment      1: Step Time =    1.000,"PART-1-1",           286,      -11.2523,       27.5017,            0.,NA,NA,"",       13.1738,       12.4041,       4.43693,   3.82187E-09
C:/temp/dataset/3/24_7.odb,Step-1,Increment      1: Step Time =    1.000,"PART-1-1",           287,      -10.0014,       28.7507,            0.,NA,NA,"",       13.3286,       12.7011,       4.04163,   4.14451E-09
C:/temp/dataset/3/24_7.odb,Step-1,Increment      1: Step Time =    1.000,"PART-1-1",           288,      -8.75282,       27.5029,            0.,NA,NA,"",       12.8638,       12.3067,       3.74466,   6.52083E-09
C:/temp/dataset/3/24_7.odb,Step-1,Increment      1: Step Time =    1.000,"PART-1-1",           289,      -10.0027,       26.2541,            0.,NA,NA,"",       12.7032,       12.0097,       4.13964,   4.40905E-09
C:/temp/dataset/3/24_7.odb,Step-1,Increment      1: Step Time =    1.000,"PART-1-1",           290,      -8.75320,       25.0087,            0.,NA,NA,"",       12.2349,       11.6159,       3.84232,   6.15481E-09
C:/temp/dataset/3/24_7.odb,Step-1,Increment      1: Step Time =    1.000,"PART-1-1",           291,      -7.50334,       26.2575,            0.,NA,NA,"",       12.4017,       11.9129,       3.44733,   7.10105E-09
C:/temp/dataset/3/24_7.odb,Step-1,Increment      1: Step Time =    1.000,"PART-1-1",           292,  -10.1921E-03,       23.8015,            0.,NA,NA,"",       11.0377,       10.9396,       1.46822,   310.327E-09
C:/temp/dataset/3/24_7.odb,Step-1,Increment      1: Step Time =    1.000,"PART-1-1",           293,       1.23656,       22.5490,            0.,NA,NA,"",       10.6089,       10.5440,       1.17192,   859.149E-09
C:/temp/dataset/3/24_7.odb,Step-1,Increment      1: Step Time =    1.000,"PART-1-1",           294,       2.47060,       23.8222,            0.,NA,NA,"",       10.8764,       10.8483,   780.366E-03,   926.088E-09
C:/temp/dataset/3/24_7.odb,Step-1,Increment      1: Step Time =    1.000,"PART-1-1",           295,       1.22385,       25.0746,            0.,NA,NA,"",       11.2954,       11.2440,       1.07666,   596.632E-09
C:/temp/dataset/3/24_7.odb,Step-1,Increment      1: Step Time =    1.000,"PART-1-1",           296,       13.7132,       25.0166,            0.,NA,NA,"",       10.9999,       10.7394,      -2.37990,   2.04858E-06
C:/temp/dataset/3/24_7.odb,Step-1,Increment      1: Step Time =    1.000,"PART-1-1",           297,           15.,         26.25,            0.,NA,NA,"",       11.3767,       11.0306,      -2.78451,   1.89566E-06
C:/temp/dataset/3/24_7.odb,Step-1,Increment      1: Step Time =    1.000,"PART-1-1",           298,       13.7362,       27.5048,            0.,NA,NA,"",       11.6943,       11.4276,      -2.48358,   1.09548E-06
C:/temp/dataset/3/24_7.odb,Step-1,Increment      1: Step Time =    1.000,"PART-1-1",           299,       12.4494,       26.2714,            0.,NA,NA,"",       11.3287,       11.1363,      -2.07897,   1.90638E-06
C:/temp/dataset/3/24_7.odb,Step-1,Increment      1: Step Time =    1.000,"PART-1-1",           300,       6.19248,       27.5744,            0.,NA,NA,"",       11.7486,       11.7419,  -397.154E-03,   1.01908E-06
C:/temp/dataset/3/24_7.odb,Step-1,Increment      1: Step Time =    1.000,"PART-1-1",           301,       7.46746,       28.7842,            0.,NA,NA,"",       12.0535,       12.0271,  -797.565E-03,   1.40690E-06
C:/temp/dataset/3/24_7.odb,Step-1,Increment      1: Step Time =    1.000,"PART-1-1",           302,          6.25,           30.,            0.,NA,NA,"",       12.4218,       12.4114,  -507.954E-03,   1.65024E-06
C:/temp/dataset/3/24_7.odb,Step-1,Increment      1: Step Time =    1.000,"PART-1-1",           303,       4.97503,       28.7903,            0.,NA,NA,"",       12.1267,       12.1263,  -107.542E-03,   956.422E-09
C:/temp/dataset/3/24_7.odb,Step-1,Increment      1: Step Time =    1.000,"PART-1-1",           304,       11.0878,       17.5306,            0.,NA,NA,"",       8.87385,       8.76901,      -1.35999,   66.8174E-06
C:/temp/dataset/3/24_7.odb,Step-1,Increment      1: Step Time =    1.000,"PART-1-1",           305,       12.3722,       18.7756,            0.,NA,NA,"",       9.23367,       9.06353,      -1.76442,   42.2642E-06
C:/temp/dataset/3/24_7.odb,Step-1,Increment      1: Step Time =    1.000,"PART-1-1",           306,       11.1059,       20.0490,            0.,NA,NA,"",       9.57814,       9.46567,      -1.46353,   15.1511E-06
C:/temp/dataset/3/24_7.odb,Step-1,Increment      1: Step Time =    1.000,"PART-1-1",           307,       9.82152,       18.8041,            0.,NA,NA,"",       9.23207,       9.17112,      -1.05912,   48.7584E-06
C:/temp/dataset/3/24_7.odb,Step-1,Increment      1: Step Time =    1.000,"PART-1-1",           308,       9.63171,       13.8797,            0.,NA,NA,"",       7.85708,       7.81487,  -813.404E-03,   370.946E-06
C:/temp/dataset/3/24_7.odb,Step-1,Increment      1: Step Time =    1.000,"PART-1-1",           309,       8.52517,       15.0687,            0.,NA,NA,"",       8.20591,       8.18720,  -553.759E-03,   196.751E-06
C:/temp/dataset/3/24_7.odb,Step-1,Increment      1: Step Time =    1.000,"PART-1-1",           310,       7.25683,       13.8735,            0.,NA,NA,"",       7.90702,       7.90548,  -155.844E-03,   349.690E-06
C:/temp/dataset/3/24_7.odb,Step-1,Increment      1: Step Time =    1.000,"PART-1-1",           311,       8.36336,       12.6844,            0.,NA,NA,"",       7.54459,       7.53316,  -415.187E-03,   406.356E-06
C:/temp/dataset/3/24_7.odb,Step-1,Increment      1: Step Time =    1.000,"PART-1-1",           312,       14.0118,       9.82001,            0.,NA,NA,"",       6.78123,       6.51837,      -1.86973,   708.419E-06
C:/temp/dataset/3/24_7.odb,Step-1,Increment      1: Step Time =    1.000,"PART-1-1",           313,           15.,         11.25,            0.,NA,NA,"",       7.21940,       6.87623,      -2.19937,   844.358E-06
C:/temp/dataset/3/24_7.odb,Step-1,Increment      1: Step Time =    1.000,"PART-1-1",           314,       13.5880,       12.3315,            0.,NA,NA,"",       7.46452,       7.23173,      -1.84963,   356.744E-06
C:/temp/dataset/3/24_7.odb,Step-1,Increment      1: Step Time =    1.000,"PART-1-1",           315,       12.5998,       10.9015,            0.,NA,NA,"",       7.04028,       6.87437,      -1.51940,   455.197E-06
C:/temp/dataset/3/24_7.odb,Step-1,Increment      1: Step Time =    1.000,"PART-1-1",           316,       4.40482,  -219.892E-03,            0.,NA,NA,"",       4.21822,       4.05670,       1.15607,   13.1669E-03
C:/temp/dataset/3/24_7.odb,Step-1,Increment      1: Step Time =    1.000,"PART-1-1",           317,       3.45177,  -757.122E-03,            0.,NA,NA,"",       4.20813,       3.94178,       1.47334,   11.2965E-03
C:/temp/dataset/3/24_7.odb,Step-1,Increment      1: Step Time =    1.000,"PART-1-1",           318,       3.83014,      -1.74448,            0.,NA,NA,"",       3.87489,       3.61575,       1.39323,   17.4492E-03
C:/temp/dataset/3/24_7.odb,Step-1,Increment      1: Step Time =    1.000,"PART-1-1",           319,       4.78319,      -1.20725,            0.,NA,NA,"",       3.88434,       3.73236,       1.07594,   15.8582E-03
C:/temp/dataset/3/24_7.odb,Step-1,Increment      1: Step Time =    1.000,"PART-1-1",           320,       10.3408,      -10.0251,            0.,NA,NA,"",       1.37207,       1.36661,  -122.305E-03,   3.55234E-03
C:/temp/dataset/3/24_7.odb,Step-1,Increment      1: Step Time =    1.000,"PART-1-1",           321,       11.1792,      -10.4860,            0.,NA,NA,"",       1.29624,       1.26905,  -264.091E-03,   9.11572E-03
C:/temp/dataset/3/24_7.odb,Step-1,Increment      1: Step Time =    1.000,"PART-1-1",           322,       11.5032,      -9.33080,            0.,NA,NA,"",       1.52366,       1.48144,  -356.187E-03,   14.0266E-03
C:/temp/dataset/3/24_7.odb,Step-1,Increment      1: Step Time =    1.000,"PART-1-1",           323,       10.6649,      -8.86986,            0.,NA,NA,"",       1.59832,       1.58498,  -206.087E-03,   5.18864E-03
C:/temp/dataset/3/24_7.odb,Step-1,Increment      1: Step Time =    1.000,"PART-1-1",           324,       9.41034,      -12.1888,            0.,NA,NA,"",       1.00645,       1.00512,   51.6857E-03,   15.2011E-03
C:/temp/dataset/3/24_7.odb,Step-1,Increment      1: Step Time =    1.000,"PART-1-1",           325,       10.5075,      -13.0214,            0.,NA,NA,"",   863.757E-03,   856.741E-03,  -109.873E-03,   3.03300E-03
C:/temp/dataset/3/24_7.odb,Step-1,Increment      1: Step Time =    1.000,"PART-1-1",           326,       10.8652,      -11.6896,            0.,NA,NA,"",       1.07996,       1.06400,  -184.928E-03,   5.31502E-03
C:/temp/dataset/3/24_7.odb,Step-1,Increment      1: Step Time =    1.000,"PART-1-1",           327,       9.76802,      -10.8570,            0.,NA,NA,"",       1.22546,       1.22541,  -11.3549E-03,   10.3920E-03
C:/temp/dataset/3/24_7.odb,Step-1,Increment      1: Step Time =    1.000,"PART-1-1",           328,       6.12016,      -19.7528,            0.,NA,NA,"",   254.601E-03,   132.069E-03,   217.667E-03,   59.8956E-03
C:/temp/dataset/3/24_7.odb,Step-1,Increment      1: Step Time =    1.000,"PART-1-1",           329,       7.15653,      -18.4145,            0.,NA,NA,"",   314.886E-03,   240.800E-03,   202.900E-03,   36.5948E-03
C:/temp/dataset/3/24_7.odb,Step-1,Increment      1: Step Time =    1.000,"PART-1-1",           330,       6.03637,      -17.4116,            0.,NA,NA,"",   502.239E-03,   372.632E-03,   336.734E-03,   63.2073E-03
C:/temp/dataset/3/24_7.odb,Step-1,Increment      1: Step Time =    1.000,"PART-1-1",           331,            5.,        -18.75,            0.,NA,NA,"",   429.718E-03,   265.379E-03,   337.981E-03,   100.982E-03
C:/temp/dataset/3/24_7.odb,Step-1,Increment      1: Step Time =    1.000,"PART-1-1",           332,       13.3604,      -22.4969,            0.,NA,NA,"",   172.684E-03,   38.0927E-03,  -168.430E-03,   34.2828E-03
C:/temp/dataset/3/24_7.odb,Step-1,Increment      1: Step Time =    1.000,"PART-1-1",           333,           15.,        -21.25,            0.,NA,NA,"",   312.180E-03,   112.623E-03,  -291.157E-03,   54.0441E-03
C:/temp/dataset/3/24_7.odb,Step-1,Increment      1: Step Time =    1.000,"PART-1-1",           334,       13.4842,      -19.7901,            0.,NA,NA,"",   307.927E-03,   154.810E-03,  -266.182E-03,   40.3024E-03
C:/temp/dataset/3/24_7.odb,Step-1,Increment      1: Step Time =    1.000,"PART-1-1",           335,       11.8446,      -21.0370,            0.,NA,NA,"",   143.878E-03,   72.8005E-03,  -124.100E-03,   22.7606E-03
C:/temp/dataset/3/24_7.odb,Step-1,Increment      1: Step Time =    1.000,"PART-1-1",           336,       1.65000,            5.,            0.,NA,NA,"",       6.17532,       5.90543,       1.80569,   39.3216E-03
C:/temp/dataset/3/24_7.odb,Step-1,Increment      1: Step Time =    1.000,"PART-1-1",           337,   440.654E-03,       4.00571,            0.,NA,NA,"",       6.10035,       5.67380,       2.24105,   28.3680E-03
C:/temp/dataset/3/24_7.odb,Step-1,Increment      1: Step Time =    1.000,"PART-1-1",           338,       1.47063,       2.87974,            0.,NA,NA,"",       5.57232,       5.21948,       1.95135,   21.6121E-03
C:/temp/dataset/3/24_7.odb,Step-1,Increment      1: Step Time =    1.000,"PART-1-1",           339,       2.67998,       3.87403,            0.,NA,NA,"",       5.65390,       5.44521,       1.52191,   31.5956E-03
C:/temp/dataset/3/24_7.odb,Step-1,Increment      1: Step Time =    1.000,"PART-1-1",           340,      -1.46180,      -3.99231,            0.,NA,NA,"",       4.58547,       3.12218,       3.35834,   22.7822E-03
C:/temp/dataset/3/24_7.odb,Step-1,Increment      1: Step Time =    1.000,"PART-1-1",           341,     -500.E-03,           -5.,            0.,NA,NA,"",       4.12663,       2.73771,       3.08771,   29.3125E-03
C:/temp/dataset/3/24_7.odb,Step-1,Increment      1: Step Time =    1.000,"PART-1-1",           342,   718.491E-03,      -4.10961,            0.,NA,NA,"",       3.96016,       2.99242,       2.59390,   28.4071E-03
C:/temp/dataset/3/24_7.odb,Step-1,Increment      1: Step Time =    1.000,"PART-1-1",           343,  -243.313E-03,      -3.10192,            0.,NA,NA,"",       4.42104,       3.36895,       2.86282,   21.7607E-03
C:/temp/dataset/3/24_7.odb,Step-1,Increment      1: Step Time =    1.000,"PART-1-1",           344,      -3.82017,      -3.74247,            0.,NA,NA,"",       5.35491,       3.32555,       4.19711,   17.2192E-03
C:/temp/dataset/3/24_7.odb,Step-1,Increment      1: Step Time =    1.000,"PART-1-1",           345,      -2.71667,           -5.,            0.,NA,NA,"",       4.80668,       2.82800,       3.88673,   24.8314E-03
C:/temp/dataset/3/24_7.odb,Step-1,Increment      1: Step Time =    1.000,"PART-1-1",           346,      -2.56530,      -2.73478,            0.,NA,NA,"",       5.14634,       3.60877,       3.66900,   16.4121E-03
C:/temp/dataset/3/24_7.odb,Step-1,Increment      1: Step Time =    1.000,"PART-1-1",           347,      -13.8092,  -21.6491E-03,            0.,NA,NA,"",       9.33057,       5.32415,       7.66244,   4.65736E-03
C:/temp/dataset/3/24_7.odb,Step-1,Increment      1: Step Time =    1.000,"PART-1-1",           348,      -12.6581,       1.21263,            0.,NA,NA,"",       9.13809,       5.69255,       7.14840,   4.93693E-03
C:/temp/dataset/3/24_7.odb,Step-1,Increment      1: Step Time =    1.000,"PART-1-1",           349,      -13.8489,       2.48428,            0.,NA,NA,"",       9.75562,       6.23978,       7.49915,   1.95662E-03
C:/temp/dataset/3/24_7.odb,Step-1,Increment      1: Step Time =    1.000,"PART-1-1",           350,          -15.,          1.25,            0.,NA,NA,"",       9.92929,       5.86882,       8.00923,   2.28076E-03
C:/temp/dataset/3/24_7.odb,Step-1,Increment      1: Step Time =    1.000,"PART-1-1",           351,      -8.84172,   345.754E-03,            0.,NA,NA,"",       7.71592,       5.10593,       5.78488,   10.7310E-03
C:/temp/dataset/3/24_7.odb,Step-1,Increment      1: Step Time =    1.000,"PART-1-1",           352,      -9.20019,  -788.270E-03,            0.,NA,NA,"",       7.63510,       4.72494,       5.99748,   10.9337E-03
C:/temp/dataset/3/24_7.odb,Step-1,Increment      1: Step Time =    1.000,"PART-1-1",           353,      -7.61937,      -1.21646,            0.,NA,NA,"",       7.03020,       4.46112,       5.43343,   12.1856E-03
C:/temp/dataset/3/24_7.odb,Step-1,Increment      1: Step Time =    1.000,"PART-1-1",           354,      -7.26090,  -82.4387E-03,            0.,NA,NA,"",       7.12012,       4.83941,       5.22267,   11.8695E-03
C:/temp/dataset/3/24_7.odb,Step-1,Increment      1: Step Time =    1.000,"PART-1-1",           355,      -12.7466,      -3.77621,            0.,NA,NA,"",       8.48752,       3.88355,       7.54692,   6.90233E-03
C:/temp/dataset/3/24_7.odb,Step-1,Increment      1: Step Time =    1.000,"PART-1-1",           356,      -13.8633,      -2.52621,            0.,NA,NA,"",       9.02126,       4.41609,       7.86646,   6.68813E-03
C:/temp/dataset/3/24_7.odb,Step-1,Increment      1: Step Time =    1.000,"PART-1-1",           357,          -15.,         -3.75,            0.,NA,NA,"",       9.30470,       4.04523,       8.37935,   6.97066E-03
C:/temp/dataset/3/24_7.odb,Step-1,Increment      1: Step Time =    1.000,"PART-1-1",           358,      -13.8833,           -5.,            0.,NA,NA,"",       8.79342,       3.51171,       8.06177,   7.05192E-03
C:/temp/dataset/3/24_7.odb,Step-1,Increment      1: Step Time =    1.000,"PART-1-1",           359,      -5.03830,      -2.71522,            0.,NA,NA,"",       5.91953,       3.75836,       4.57336,   12.9917E-03
C:/temp/dataset/3/24_7.odb,Step-1,Increment      1: Step Time =    1.000,"PART-1-1",           360,      -4.43911,      -1.50749,            0.,NA,NA,"",       5.95117,       4.14480,       4.27048,   12.4124E-03
C:/temp/dataset/3/24_7.odb,Step-1,Increment      1: Step Time =    1.000,"PART-1-1",           361,      -5.95808,  -763.119E-03,            0.,NA,NA,"",       6.57167,       4.50703,       4.78263,   12.4995E-03
C:/temp/dataset/3/24_7.odb,Step-1,Increment      1: Step Time =    1.000,"PART-1-1",           362,      -6.55726,      -1.97085,            0.,NA,NA,"",       6.54644,       4.12012,       5.08729,   11.9176E-03
C:/temp/dataset/3/24_7.odb,Step-1,Increment      1: Step Time =    1.000,"PART-1-1",           363,          6.25,          -30.,            0.,NA,NA,"",            0.,  -4.67857E-39,   15.3043E-39,   9.30140E-03
C:/temp/dataset/3/24_7.odb,Step-1,Increment      1: Step Time =    1.000,"PART-1-1",           364,       7.47038,      -28.9473,            0.,NA,NA,"",   12.3777E-03,  -10.8578E-03,   5.94264E-03,   10.8177E-03
C:/temp/dataset/3/24_7.odb,Step-1,Increment      1: Step Time =    1.000,"PART-1-1",           365,       6.18647,      -27.8786,            0.,NA,NA,"",   21.9059E-03,  -7.02711E-03,   20.7483E-03,   13.9636E-03
C:/temp/dataset/3/24_7.odb,Step-1,Increment      1: Step Time =    1.000,"PART-1-1",           366,       4.96608,      -28.9312,            0.,NA,NA,"",   9.86896E-03,  -143.596E-06,   9.86791E-03,   12.6418E-03
C:/temp/dataset/3/24_7.odb,Step-1,Increment      1: Step Time =    1.000,"PART-1-1",           367,       3.70492,      -27.8047,            0.,NA,NA,"",   25.4359E-03,   10.8301E-03,   23.0151E-03,   14.8142E-03
C:/temp/dataset/3/24_7.odb,Step-1,Increment      1: Step Time =    1.000,"PART-1-1",           368,       2.48883,      -28.8735,            0.,NA,NA,"",   12.9667E-03,   9.00579E-03,   9.32903E-03,   12.3758E-03
C:/temp/dataset/3/24_7.odb,Step-1,Increment      1: Step Time =    1.000,"PART-1-1",           369,          3.75,          -30.,            0.,NA,NA,"",            0.,   2.65454E-39,   18.9576E-39,   10.1285E-03
C:/temp/dataset/3/24_7.odb,Step-1,Increment      1: Step Time =    1.000,"PART-1-1",           370,      -3.72203,      -27.5999,            0.,NA,NA,"",   22.0270E-03,   21.6749E-03,   3.92296E-03,   6.40881E-03
C:/temp/dataset/3/24_7.odb,Step-1,Increment      1: Step Time =    1.000,"PART-1-1",           371,      -4.98725,      -28.7922,            0.,NA,NA,"",   10.8976E-03,   10.7830E-03,   1.57660E-03,   5.93583E-03
C:/temp/dataset/3/24_7.odb,Step-1,Increment      1: Step Time =    1.000,"PART-1-1",           372,         -3.75,          -30.,            0.,NA,NA,"",            0.,   6.75569E-39,   5.80381E-39,   7.55420E-03
C:/temp/dataset/3/24_7.odb,Step-1,Increment      1: Step Time =    1.000,"PART-1-1",           373,      -2.48478,      -28.8077,            0.,NA,NA,"",   13.3136E-03,   12.8687E-03,   3.41305E-03,   7.95379E-03
C:/temp/dataset/3/24_7.odb,Step-1,Increment      1: Step Time =    1.000,"PART-1-1",           374,      -13.7501,      -27.5099,            0.,NA,NA,"",   12.5828E-03,   12.0349E-03,   3.67248E-03,   2.00251E-03
C:/temp/dataset/3/24_7.odb,Step-1,Increment      1: Step Time =    1.000,"PART-1-1",           375,          -15.,        -28.75,            0.,NA,NA,"",   8.42955E-03,   6.93145E-03,   4.79713E-03,   3.66088E-03
C:/temp/dataset/3/24_7.odb,Step-1,Increment      1: Step Time =    1.000,"PART-1-1",           376,        -13.75,          -30.,            0.,NA,NA,"",            0.,   1.10902E-39,   3.93579E-39,   4.06968E-03
C:/temp/dataset/3/24_7.odb,Step-1,Increment      1: Step Time =    1.000,"PART-1-1",           377,      -12.5001,      -28.7599,            0.,NA,NA,"",   5.74271E-03,   5.64666E-03,   1.04593E-03,   2.99572E-03
C:/temp/dataset/3/24_7.odb,Step-1,Increment      1: Step Time =    1.000,"PART-1-1",           378,       8.15833,      -10.8587,            0.,NA,NA,"",       1.29217,       1.26492,   263.983E-03,   31.1617E-03
C:/temp/dataset/3/24_7.odb,Step-1,Increment      1: Step Time =    1.000,"PART-1-1",           379,       9.00498,      -9.90697,            0.,NA,NA,"",       1.42321,       1.41813,   120.123E-03,   19.7327E-03
C:/temp/dataset/3/24_7.odb,Step-1,Increment      1: Step Time =    1.000,"PART-1-1",           380,       8.08915,      -8.55627,            0.,NA,NA,"",       1.73722,       1.71155,   297.528E-03,   31.5941E-03
C:/temp/dataset/3/24_7.odb,Step-1,Increment      1: Step Time =    1.000,"PART-1-1",           381,       7.24249,      -9.50802,            0.,NA,NA,"",       1.61220,       1.54889,   447.334E-03,   41.7961E-03
C:/temp/dataset/3/24_7.odb,Step-1,Increment      1: Step Time =    1.000,"PART-1-1",           382,       13.9816,      -2.51124,            0.,NA,NA,"",       3.29548,       3.04047,      -1.27111,   29.8273E-03
C:/temp/dataset/3/24_7.odb,Step-1,Increment      1: Step Time =    1.000,"PART-1-1",           383,           15.,         -1.25,            0.,NA,NA,"",       3.73270,       3.35734,      -1.63136,   28.7688E-03
C:/temp/dataset/3/24_7.odb,Step-1,Increment      1: Step Time =    1.000,"PART-1-1",           384,       13.8213,  -48.4001E-03,            0.,NA,NA,"",       3.97263,       3.72697,      -1.37529,   18.9886E-03
C:/temp/dataset/3/24_7.odb,Step-1,Increment      1: Step Time =    1.000,"PART-1-1",           385,       12.8030,      -1.30964,            0.,NA,NA,"",       3.55341,       3.39996,      -1.03296,   24.2523E-03
C:/temp/dataset/3/24_7.odb,Step-1,Increment      1: Step Time =    1.000,"PART-1-1",           386,           15.,          1.25,            0.,NA,NA,"",       4.42962,       4.05650,      -1.77942,   14.5180E-03
C:/temp/dataset/3/24_7.odb,Step-1,Increment      1: Step Time =    1.000,"PART-1-1",           387,       13.5709,       2.55070,            0.,NA,NA,"",       4.70702,       4.48066,      -1.44212,   9.71800E-03
C:/temp/dataset/3/24_7.odb,Step-1,Increment      1: Step Time =    1.000,"PART-1-1",           388,       12.3922,       1.25230,            0.,NA,NA,"",       4.28018,       4.14750,      -1.05742,   18.4714E-03
C:/temp/dataset/3/24_7.odb,Step-1,Increment      1: Step Time =    1.000,"PART-1-1",           389,      -5.00532,       26.2655,            0.,NA,NA,"",       12.1343,       11.8174,       2.75521,   6.73131E-09
C:/temp/dataset/3/24_7.odb,Step-1,Increment      1: Step Time =    1.000,"PART-1-1",           390,      -3.75495,       25.0275,            0.,NA,NA,"",       11.6869,       11.4257,       2.45735,   38.8925E-09
C:/temp/dataset/3/24_7.odb,Step-1,Increment      1: Step Time =    1.000,"PART-1-1",           391,      -2.50780,       26.2820,            0.,NA,NA,"",       11.9044,       11.7243,       2.06289,   48.7943E-09
C:/temp/dataset/3/24_7.odb,Step-1,Increment      1: Step Time =    1.000,"PART-1-1",           392,      -3.75817,       27.5199,            0.,NA,NA,"",       12.3439,       12.1160,       2.36075,   21.0901E-09
C:/temp/dataset/3/24_7.odb,Step-1,Increment      1: Step Time =    1.000,"PART-1-1",           393,      -5.00193,       23.7670,            0.,NA,NA,"",       11.4851,       11.1253,       2.85200,   7.60034E-09
C:/temp/dataset/3/24_7.odb,Step-1,Increment      1: Step Time =    1.000,"PART-1-1",           394,      -6.25406,       25.0149,            0.,NA,NA,"",       11.9428,       11.5199,       3.14996,   7.02542E-09
C:/temp/dataset/3/24_7.odb,Step-1,Increment      1: Step Time =    1.000,"PART-1-1",           395,      -7.50285,       23.7600,            0.,NA,NA,"",       11.7678,       11.2212,       3.54488,   7.17942E-09
C:/temp/dataset/3/24_7.odb,Step-1,Increment      1: Step Time =    1.000,"PART-1-1",           396,      -6.25071,       22.5121,            0.,NA,NA,"",       11.3030,       10.8266,       3.24692,   8.29061E-09
C:/temp/dataset/3/24_7.odb,Step-1,Increment      1: Step Time =    1.000,"PART-1-1",           397,      -12.5007,       23.7543,            0.,NA,NA,"",       12.4339,       11.4151,       4.92923,   2.76402E-09
C:/temp/dataset/3/24_7.odb,Step-1,Increment      1: Step Time =    1.000,"PART-1-1",           398,      -13.7507,       25.0026,            0.,NA,NA,"",       12.9146,       11.8097,       5.22657,   2.76144E-09
C:/temp/dataset/3/24_7.odb,Step-1,Increment      1: Step Time =    1.000,"PART-1-1",           399,          -15.,         23.75,            0.,NA,NA,"",       12.8110,       11.5117,       5.62156,   2.57587E-09
C:/temp/dataset/3/24_7.odb,Step-1,Increment      1: Step Time =    1.000,"PART-1-1",           400,       1.22659,       27.5580,            0.,NA,NA,"",       11.9717,       11.9316,   978.766E-03,   454.772E-09
C:/temp/dataset/3/24_7.odb,Step-1,Increment      1: Step Time =    1.000,"PART-1-1",           401,       2.48534,       28.7828,            0.,NA,NA,"",       12.2354,       12.2216,   582.254E-03,   454.109E-09
C:/temp/dataset/3/24_7.odb,Step-1,Increment      1: Step Time =    1.000,"PART-1-1",           402,          1.25,           30.,            0.,NA,NA,"",       12.6374,       12.6070,   876.764E-03,   272.045E-09
C:/temp/dataset/3/24_7.odb,Step-1,Increment      1: Step Time =    1.000,"PART-1-1",           403,  -8.74824E-03,       28.7751,            0.,NA,NA,"",       12.3826,       12.3170,       1.27328,   131.930E-09
C:/temp/dataset/3/24_7.odb,Step-1,Increment      1: Step Time =    1.000,"PART-1-1",           404,  -16.7069E-03,       26.3073,            0.,NA,NA,"",       11.7145,       11.6339,       1.37201,   249.502E-09
C:/temp/dataset/3/24_7.odb,Step-1,Increment      1: Step Time =    1.000,"PART-1-1",           405,       2.46714,       26.3253,            0.,NA,NA,"",       11.5619,       11.5417,   683.414E-03,   746.763E-09
C:/temp/dataset/3/24_7.odb,Step-1,Increment      1: Step Time =    1.000,"PART-1-1",           406,       3.70751,       22.5746,            0.,NA,NA,"",       10.4658,       10.4544,   486.611E-03,   2.10772E-06
C:/temp/dataset/3/24_7.odb,Step-1,Increment      1: Step Time =    1.000,"PART-1-1",           407,       2.48879,       21.2797,            0.,NA,NA,"",       10.1811,       10.1435,   874.778E-03,   746.197E-09
C:/temp/dataset/3/24_7.odb,Step-1,Increment      1: Step Time =    1.000,"PART-1-1",           408,          3.75,           20.,            0.,NA,NA,"",       9.75676,       9.73977,   575.549E-03,   3.53498E-06
C:/temp/dataset/3/24_7.odb,Step-1,Increment      1: Step Time =    1.000,"PART-1-1",           409,       4.96872,       21.2949,            0.,NA,NA,"",       10.0525,       10.0507,   187.382E-03,   2.17754E-06
C:/temp/dataset/3/24_7.odb,Step-1,Increment      1: Step Time =    1.000,"PART-1-1",           410,       10.8479,       12.4309,            0.,NA,NA,"",       7.44724,       7.36655,      -1.09331,   427.899E-06
C:/temp/dataset/3/24_7.odb,Step-1,Increment      1: Step Time =    1.000,"PART-1-1",           411,       9.34812,       11.6387,            0.,NA,NA,"",       7.23450,       7.20557,  -646.390E-03,   578.419E-06
C:/temp/dataset/3/24_7.odb,Step-1,Increment      1: Step Time =    1.000,"PART-1-1",           412,       9.99050,       10.5520,            0.,NA,NA,"",       6.92414,       6.87990,  -781.398E-03,   497.023E-06
C:/temp/dataset/3/24_7.odb,Step-1,Increment      1: Step Time =    1.000,"PART-1-1",           413,       11.4903,       11.3442,            0.,NA,NA,"",       7.14699,       7.04058,      -1.22869,   484.028E-06
C:/temp/dataset/3/24_7.odb,Step-1,Increment      1: Step Time =    1.000,"PART-1-1",           414,       7.16850,       11.5014,            0.,NA,NA,"",       7.25211,       7.25201,  -38.4683E-03,   672.470E-06
C:/temp/dataset/3/24_7.odb,Step-1,Increment      1: Step Time =    1.000,"PART-1-1",           415,       6.10343,       12.5850,            0.,NA,NA,"",       7.59655,       7.59355,   213.442E-03,   380.739E-06
C:/temp/dataset/3/24_7.odb,Step-1,Increment      1: Step Time =    1.000,"PART-1-1",           416,            5.,         11.25,            0.,NA,NA,"",       7.28935,       7.26703,   570.051E-03,   1.18184E-03
C:/temp/dataset/3/24_7.odb,Step-1,Increment      1: Step Time =    1.000,"PART-1-1",           417,       6.06507,       10.1664,            0.,NA,NA,"",       6.93257,       6.92530,   317.496E-03,   1.01550E-03
C:/temp/dataset/3/24_7.odb,Step-1,Increment      1: Step Time =    1.000,"PART-1-1",           418,       14.0565,       5.06378,            0.,NA,NA,"",       5.45099,       5.18173,      -1.69206,   2.41804E-03
C:/temp/dataset/3/24_7.odb,Step-1,Increment      1: Step Time =    1.000,"PART-1-1",           419,       12.6274,       3.86448,            0.,NA,NA,"",       5.05020,       4.89512,      -1.24191,   9.68219E-03
C:/temp/dataset/3/24_7.odb,Step-1,Increment      1: Step Time =    1.000,"PART-1-1",           420,           15.,          3.75,            0.,NA,NA,"",       5.13471,       4.76934,      -1.90227,   4.26253E-03
C:/temp/dataset/3/24_7.odb,Step-1,Increment      1: Step Time =    1.000,"PART-1-1",           421,       10.0280,       5.47301,            0.,NA,NA,"",       5.49595,       5.46356,  -595.764E-03,   8.13946E-03
C:/temp/dataset/3/24_7.odb,Step-1,Increment      1: Step Time =    1.000,"PART-1-1",           422,       11.0614,       5.01383,            0.,NA,NA,"",       5.35807,       5.28849,  -860.701E-03,   8.23304E-03
C:/temp/dataset/3/24_7.odb,Step-1,Increment      1: Step Time =    1.000,"PART-1-1",           423,       11.6033,       6.33570,            0.,NA,NA,"",       5.74001,       5.64085,      -1.06232,   4.15768E-03
C:/temp/dataset/3/24_7.odb,Step-1,Increment      1: Step Time =    1.000,"PART-1-1",           424,       10.5698,       6.79489,            0.,NA,NA,"",       5.86712,       5.81303,  -794.899E-03,   3.81543E-03
C:/temp/dataset/3/24_7.odb,Step-1,Increment      1: Step Time =    1.000,"PART-1-1",           425,      -4.94418,       3.17107,            0.,NA,NA,"",       7.15675,       5.82064,       4.16404,   14.4032E-03
C:/temp/dataset/3/24_7.odb,Step-1,Increment      1: Step Time =    1.000,"PART-1-1",           426,      -3.90803,       4.11594,            0.,NA,NA,"",       7.13136,       6.07456,       3.73579,   18.2998E-03
C:/temp/dataset/3/24_7.odb,Step-1,Increment      1: Step Time =    1.000,"PART-1-1",           427,      -5.05000,            5.,            0.,NA,NA,"",       7.67294,       6.49099,       4.09158,   18.1981E-03
C:/temp/dataset/3/24_7.odb,Step-1,Increment      1: Step Time =    1.000,"PART-1-1",           428,      -6.08615,       4.05513,            0.,NA,NA,"",       7.70034,       6.23068,       4.52480,   12.9704E-03
C:/temp/dataset/3/24_7.odb,Step-1,Increment      1: Step Time =    1.000,"PART-1-1",           429,      -3.86135,       2.39128,            0.,NA,NA,"",       6.66341,       5.46035,       3.81910,   14.3455E-03
C:/temp/dataset/3/24_7.odb,Step-1,Increment      1: Step Time =    1.000,"PART-1-1",           430,      -5.85027,       2.20434,            0.,NA,NA,"",       7.17669,       5.54698,       4.55366,   12.1923E-03
C:/temp/dataset/3/24_7.odb,Step-1,Increment      1: Step Time =    1.000,"PART-1-1",           431,      -4.76744,       1.42454,            0.,NA,NA,"",       6.68002,       5.19013,       4.20539,   13.0276E-03
C:/temp/dataset/3/24_7.odb,Step-1,Increment      1: Step Time =    1.000,"PART-1-1",           432,      -9.29397,       2.69508,            0.,NA,NA,"",       8.33195,       5.98593,       5.79570,   8.38560E-03
C:/temp/dataset/3/24_7.odb,Step-1,Increment      1: Step Time =    1.000,"PART-1-1",           433,      -8.28887,       3.92576,            0.,NA,NA,"",       8.30386,       6.35783,       5.34154,   8.21684E-03
C:/temp/dataset/3/24_7.odb,Step-1,Increment      1: Step Time =    1.000,"PART-1-1",           434,          -9.5,            5.,            0.,NA,NA,"",       8.92011,       6.84791,       5.71616,   6.01686E-03
C:/temp/dataset/3/24_7.odb,Step-1,Increment      1: Step Time =    1.000,"PART-1-1",           435,      -10.5051,       3.76932,            0.,NA,NA,"",       8.94141,       6.46900,       6.17259,   4.60152E-03
C:/temp/dataset/3/24_7.odb,Step-1,Increment      1: Step Time =    1.000,"PART-1-1",           436,      -7.92731,       1.84143,            0.,NA,NA,"",       7.72266,       5.57482,       5.34423,   10.3824E-03
C:/temp/dataset/3/24_7.odb,Step-1,Increment      1: Step Time =    1.000,"PART-1-1",           437,      -6.68589,       1.06488,            0.,NA,NA,"",       7.17185,       5.20506,       4.93384,   12.1200E-03
C:/temp/dataset/3/24_7.odb,Step-1,Increment      1: Step Time =    1.000,"PART-1-1",           438,      -7.09169,       2.98089,            0.,NA,NA,"",       7.72487,       5.92106,       4.96132,   11.1482E-03
C:/temp/dataset/3/24_7.odb,Step-1,Increment      1: Step Time =    1.000,"PART-1-1",           439,      -13.9000,            5.,            0.,NA,NA,"",       10.2598,       7.16710,       7.34140,   257.509E-06
C:/temp/dataset/3/24_7.odb,Step-1,Increment      1: Step Time =    1.000,"PART-1-1",           440,          -15.,          3.75,            0.,NA,NA,"",       10.3632,       6.78441,       7.83377,   248.084E-06
C:/temp/dataset/3/24_7.odb,Step-1,Increment      1: Step Time =    1.000,"PART-1-1",           441,      -12.7489,       3.73428,            0.,NA,NA,"",       9.63862,       6.61987,       7.00573,   1.81929E-03
C:/temp/dataset/3/24_7.odb,Step-1,Increment      1: Step Time =    1.000,"PART-1-1",           442,      -9.48823,      -2.88104,            0.,NA,NA,"",       7.42161,       3.99062,       6.25742,   11.6092E-03
C:/temp/dataset/3/24_7.odb,Step-1,Increment      1: Step Time =    1.000,"PART-1-1",           443,      -8.42388,      -2.23568,            0.,NA,NA,"",       7.13915,       4.15157,       5.80792,   11.7966E-03
C:/temp/dataset/3/24_7.odb,Step-1,Increment      1: Step Time =    1.000,"PART-1-1",           444,      -10.2645,      -1.43363,            0.,NA,NA,"",       7.89778,       4.56694,       6.44345,   9.66392E-03
C:/temp/dataset/3/24_7.odb,Step-1,Increment      1: Step Time =    1.000,"PART-1-1",           445,      -12.6725,      -1.29786,            0.,NA,NA,"",       8.75522,       4.78215,       7.33382,   6.42486E-03
C:/temp/dataset/3/24_7.odb,Step-1,Increment      1: Step Time =    1.000,"PART-1-1",           446,          -15.,         -1.25,            0.,NA,NA,"",       9.57428,       4.95809,       8.19049,   5.45183E-03
C:/temp/dataset/3/24_7.odb,Step-1,Increment      1: Step Time =    1.000,"PART-1-1",           447,      -6.16813,      -3.97275,            0.,NA,NA,"",       6.10361,       3.37716,       5.08418,   13.1378E-03
C:/temp/dataset/3/24_7.odb,Step-1,Increment      1: Step Time =    1.000,"PART-1-1",           448,      -4.95000,           -5.,            0.,NA,NA,"",       5.54867,       2.93692,       4.70768,   19.4016E-03
C:/temp/dataset/3/24_7.odb,Step-1,Increment      1: Step Time =    1.000,"PART-1-1",           449,       1.59412,  -355.999E-03,            0.,NA,NA,"",       4.65390,       4.17091,       2.06452,   11.2687E-03
C:/temp/dataset/3/24_7.odb,Step-1,Increment      1: Step Time =    1.000,"PART-1-1",           450,       2.17826,      -1.53992,            0.,NA,NA,"",       4.22903,       3.76340,       1.92912,   16.4812E-03
C:/temp/dataset/3/24_7.odb,Step-1,Increment      1: Step Time =    1.000,"PART-1-1",           451,       2.86763,   426.804E-03,            0.,NA,NA,"",       4.63391,       4.34551,       1.60923,   10.3105E-03
C:/temp/dataset/3/24_7.odb,Step-1,Increment      1: Step Time =    1.000,"PART-1-1",           452,  -387.277E-03,   5.26357E-03,            0.,NA,NA,"",       5.17955,       4.40564,       2.72362,   12.0526E-03
C:/temp/dataset/3/24_7.odb,Step-1,Increment      1: Step Time =    1.000,"PART-1-1",           453,   283.611E-03,      -1.19839,            0.,NA,NA,"",       4.72444,       3.97137,       2.55901,   14.6053E-03
C:/temp/dataset/3/24_7.odb,Step-1,Increment      1: Step Time =    1.000,"PART-1-1",           454,   923.228E-03,   847.652E-03,            0.,NA,NA,"",       5.11070,       4.59870,       2.22962,   12.5162E-03
C:/temp/dataset/3/24_7.odb,Step-1,Increment      1: Step Time =    1.000,"PART-1-1",           455,       6.35531,      -13.1332,            0.,NA,NA,"",       1.05863,   937.849E-03,   491.066E-03,   54.7648E-03
C:/temp/dataset/3/24_7.odb,Step-1,Increment      1: Step Time =    1.000,"PART-1-1",           456,       7.49455,      -12.2656,            0.,NA,NA,"",       1.09741,       1.04093,   347.535E-03,   40.5016E-03
C:/temp/dataset/3/24_7.odb,Step-1,Increment      1: Step Time =    1.000,"PART-1-1",           457,       6.13925,      -10.3824,            0.,NA,NA,"",       1.55392,       1.42377,   622.532E-03,   56.4468E-03
C:/temp/dataset/3/24_7.odb,Step-1,Increment      1: Step Time =    1.000,"PART-1-1",           458,            5.,        -11.25,            0.,NA,NA,"",       1.52681,       1.31134,   782.014E-03,   70.6000E-03
C:/temp/dataset/3/24_7.odb,Step-1,Increment      1: Step Time =    1.000,"PART-1-1",           459,       13.3376,      -16.9670,            0.,NA,NA,"",   517.610E-03,   369.113E-03,  -362.871E-03,   39.7727E-03
C:/temp/dataset/3/24_7.odb,Step-1,Increment      1: Step Time =    1.000,"PART-1-1",           460,       11.8219,      -18.0071,            0.,NA,NA,"",   320.718E-03,   262.325E-03,  -184.516E-03,   20.3755E-03
C:/temp/dataset/3/24_7.odb,Step-1,Increment      1: Step Time =    1.000,"PART-1-1",           461,           15.,        -18.75,            0.,NA,NA,"",   495.946E-03,   253.041E-03,  -426.536E-03,   60.6139E-03
C:/temp/dataset/3/24_7.odb,Step-1,Increment      1: Step Time =    1.000,"PART-1-1",           462,       8.42876,      -15.2973,            0.,NA,NA,"",   592.834E-03,   571.050E-03,   159.228E-03,   27.7054E-03
C:/temp/dataset/3/24_7.odb,Step-1,Increment      1: Step Time =    1.000,"PART-1-1",           463,       10.4111,      -16.6310,            0.,NA,NA,"",   396.179E-03,   390.429E-03,  -67.2531E-03,   2.84599E-03
C:/temp/dataset/3/24_7.odb,Step-1,Increment      1: Step Time =    1.000,"PART-1-1",           464,       10.7289,      -14.9294,            0.,NA,NA,"",   599.965E-03,   588.098E-03,  -118.740E-03,   4.24786E-03
C:/temp/dataset/3/24_7.odb,Step-1,Increment      1: Step Time =    1.000,"PART-1-1",           465,       8.74656,      -13.5956,            0.,NA,NA,"",   812.050E-03,   799.591E-03,   141.701E-03,   24.3762E-03
C:/temp/dataset/3/24_7.odb,Step-1,Increment      1: Step Time =    1.000,"PART-1-1",           466,      -8.72016,      -22.5745,            0.,NA,NA,"",   31.7526E-03,   31.7110E-03,  -1.62523E-03,   1.22805E-03
C:/temp/dataset/3/24_7.odb,Step-1,Increment      1: Step Time =    1.000,"PART-1-1",           467,      -7.48342,      -21.2909,            0.,NA,NA,"",   34.2294E-03,   34.1363E-03,  -2.52333E-03,   749.764E-06
C:/temp/dataset/3/24_7.odb,Step-1,Increment      1: Step Time =    1.000,"PART-1-1",           468,         -8.75,          -20.,            0.,NA,NA,"",   34.7147E-03,   34.6505E-03,  -2.10976E-03,   115.126E-06
C:/temp/dataset/3/24_7.odb,Step-1,Increment      1: Step Time =    1.000,"PART-1-1",           469,      -9.98674,      -21.2836,            0.,NA,NA,"",   33.0621E-03,   33.0525E-03,  -796.548E-06,   350.036E-06
C:/temp/dataset/3/24_7.odb,Step-1,Increment      1: Step Time =    1.000,"PART-1-1",           470,      -4.96670,      -26.3491,            0.,NA,NA,"",   27.1055E-03,   26.9913E-03,   2.48572E-03,   4.87966E-03
C:/temp/dataset/3/24_7.odb,Step-1,Increment      1: Step Time =    1.000,"PART-1-1",           471,      -6.21541,      -25.0985,            0.,NA,NA,"",   29.6135E-03,   29.6107E-03,   410.444E-06,   3.71955E-03
C:/temp/dataset/3/24_7.odb,Step-1,Increment      1: Step Time =    1.000,"PART-1-1",           472,      -7.47738,      -26.3212,            0.,NA,NA,"",   22.3326E-03,   22.3299E-03,   343.608E-06,   3.61051E-03
C:/temp/dataset/3/24_7.odb,Step-1,Increment      1: Step Time =    1.000,"PART-1-1",           473,      -6.22867,      -27.5719,            0.,NA,NA,"",   17.8467E-03,   17.7972E-03,   1.32801E-03,   4.82884E-03
C:/temp/dataset/3/24_7.odb,Step-1,Increment      1: Step Time =    1.000,"PART-1-1",           474,   49.7896E-03,      -26.4387,            0.,NA,NA,"",   39.4319E-03,   34.0544E-03,   19.8789E-03,   10.8118E-03
C:/temp/dataset/3/24_7.odb,Step-1,Increment      1: Step Time =    1.000,"PART-1-1",           475,       1.24862,      -27.7048,            0.,NA,NA,"",   27.7380E-03,   21.9013E-03,   17.0215E-03,   11.9784E-03
C:/temp/dataset/3/24_7.odb,Step-1,Increment      1: Step Time =    1.000,"PART-1-1",           476,       2.52056,      -26.5649,            0.,NA,NA,"",   43.5704E-03,   27.0197E-03,   34.1807E-03,   16.1925E-03
C:/temp/dataset/3/24_7.odb,Step-1,Increment      1: Step Time =    1.000,"PART-1-1",           477,       1.32172,      -25.2988,            0.,NA,NA,"",   55.6794E-03,   41.9815E-03,   36.5752E-03,   14.5557E-03
C:/temp/dataset/3/24_7.odb,Step-1,Increment      1: Step Time =    1.000,"PART-1-1",           478,        -13.75,          -20.,            0.,NA,NA,"",   35.9850E-03,   35.4617E-03,   6.11436E-03,   90.6266E-06
C:/temp/dataset/3/24_7.odb,Step-1,Increment      1: Step Time =    1.000,"PART-1-1",           479,          -15.,        -21.25,            0.,NA,NA,"",   33.9645E-03,   32.7717E-03,   8.92222E-03,   75.7575E-06
C:/temp/dataset/3/24_7.odb,Step-1,Increment      1: Step Time =    1.000,"PART-1-1",           480,      -13.7430,      -22.5153,            0.,NA,NA,"",   30.5654E-03,   29.9543E-03,   6.08159E-03,   85.4705E-06
C:/temp/dataset/3/24_7.odb,Step-1,Increment      1: Step Time =    1.000,"PART-1-1",           481,      -12.4930,      -21.2653,            0.,NA,NA,"",   32.9385E-03,   32.7658E-03,   3.36856E-03,   55.3753E-06
C:/temp/dataset/3/24_7.odb,Step-1,Increment      1: Step Time =    1.000,"PART-1-1",           482,      -11.2297,      -22.5489,            0.,NA,NA,"",   30.2846E-03,   30.2649E-03,   1.09260E-03,   562.120E-06
C:/temp/dataset/3/24_7.odb,Step-1,Increment      1: Step Time =    1.000,"PART-1-1",           483,        -11.25,          -20.,            0.,NA,NA,"",   35.0944E-03,   35.0780E-03,   1.07027E-03,   190.639E-06
C:/temp/dataset/3/24_7.odb,Step-1,Increment      1: Step Time =    1.000,"PART-1-1",           484,      -13.7448,      -25.0201,            0.,NA,NA,"",   23.5097E-03,   22.7911E-03,   5.76800E-03,   651.342E-06
C:/temp/dataset/3/24_7.odb,Step-1,Increment      1: Step Time =    1.000,"PART-1-1",           485,      -12.4878,      -23.7854,            0.,NA,NA,"",   26.9294E-03,   26.7302E-03,   3.26915E-03,   737.763E-06
C:/temp/dataset/3/24_7.odb,Step-1,Increment      1: Step Time =    1.000,"PART-1-1",           486,          -15.,        -23.75,            0.,NA,NA,"",   28.2859E-03,   26.7229E-03,   9.27254E-03,   52.7079E-06
C:/temp/dataset/3/24_7.odb,Step-1,Increment      1: Step Time =    1.000,"PART-1-1",           487,       13.7335,      -27.5520,            0.,NA,NA,"",   47.4697E-03,  -8.50728E-03,  -46.7012E-03,   25.4359E-03
C:/temp/dataset/3/24_7.odb,Step-1,Increment      1: Step Time =    1.000,"PART-1-1",           488,       12.4835,      -28.8020,            0.,NA,NA,"",   20.1270E-03,  -13.5274E-03,  -14.9031E-03,   18.6968E-03
C:/temp/dataset/3/24_7.odb,Step-1,Increment      1: Step Time =    1.000,"PART-1-1",           489,         13.75,          -30.,            0.,NA,NA,"",            0.,  -5.11001E-39,  -30.4812E-39,   17.4351E-03
C:/temp/dataset/3/24_7.odb,Step-1,Increment      1: Step Time =    1.000,"PART-1-1",           490,           15.,        -28.75,            0.,NA,NA,"",   25.1332E-03,   9.07089E-03,  -23.4392E-03,   24.8868E-03
C:/temp/dataset/3/24_7.odb,Step-1,Increment      1: Step Time =    1.000,"PART-1-1",           491,       9.98010,      -28.8907,            0.,NA,NA,"",   17.6946E-03,  -17.4757E-03,  -2.77425E-03,   11.4477E-03
C:/temp/dataset/3/24_7.odb,Step-1,Increment      1: Step Time =    1.000,"PART-1-1",           492,       8.70049,      -27.8380,            0.,NA,NA,"",   23.7545E-03,  -22.7855E-03,   6.71558E-03,   9.36723E-03
C:/temp/dataset/3/24_7.odb,Step-1,Increment      1: Step Time =    1.000,"PART-1-1",           493,          8.75,          -30.,            0.,NA,NA,"",            0.,  -11.1292E-39,   2.27839E-39,   10.8134E-03
C:/temp/dataset/3/24_7.odb,Step-1,Increment      1: Step Time =    1.000,"PART-1-1",           494,       11.2136,      -27.6927,            0.,NA,NA,"",   31.4411E-03,  -25.6433E-03,  -18.1924E-03,   13.8323E-03
C:/temp/dataset/3/24_7.odb,Step-1,Increment      1: Step Time =    1.000,"PART-1-1",           495,       12.3768,      -26.3916,            0.,NA,NA,"",   56.0677E-03,  -22.0523E-03,  -51.5489E-03,   21.8682E-03
C:/temp/dataset/3/24_7.odb,Step-1,Increment      1: Step Time =    1.000,"PART-1-1",           496,       11.0556,      -25.4315,            0.,NA,NA,"",   43.0338E-03,  -25.7417E-03,  -34.4859E-03,   15.6269E-03
C:/temp/dataset/3/24_7.odb,Step-1,Increment      1: Step Time =    1.000,"PART-1-1",           497,       9.89242,      -26.7326,            0.,NA,NA,"",   29.6737E-03,  -29.2823E-03,  -4.80343E-03,   11.3340E-03
C:/temp/dataset/3/24_7.odb,Step-1,Increment      1: Step Time =    1.000,"PART-1-1",           498,   9.79186E-03,      -28.8313,            0.,NA,NA,"",   14.5672E-03,   13.1260E-03,   6.31768E-03,   10.3337E-03
C:/temp/dataset/3/24_7.odb,Step-1,Increment      1: Step Time =    1.000,"PART-1-1",           499,          1.25,          -30.,            0.,NA,NA,"",            0.,   6.93667E-39,   15.6147E-39,   10.5422E-03
C:/temp/dataset/3/24_7.odb,Step-1,Increment      1: Step Time =    1.000,"PART-1-1",           500,      -1.18061,      -25.1833,            0.,NA,NA,"",   44.5343E-03,   41.3017E-03,   16.6574E-03,   8.94385E-03
C:/temp/dataset/3/24_7.odb,Step-1,Increment      1: Step Time =    1.000,"PART-1-1",           501,      -2.45538,      -26.3836,            0.,NA,NA,"",   33.0666E-03,   31.9669E-03,   8.45691E-03,   7.07964E-03
C:/temp/dataset/3/24_7.odb,Step-1,Increment      1: Step Time =    1.000,"PART-1-1",           502,      -1.22498,      -27.6390,            0.,NA,NA,"",   25.8979E-03,   24.1888E-03,   9.25227E-03,   8.74016E-03
C:/temp/dataset/3/24_7.odb,Step-1,Increment      1: Step Time =    1.000,"PART-1-1",           503,      -3.70005,      -25.1329,            0.,NA,NA,"",   35.6339E-03,   35.2709E-03,   5.07316E-03,   5.52629E-03
C:/temp/dataset/3/24_7.odb,Step-1,Increment      1: Step Time =    1.000,"PART-1-1",           504,      -7.49141,      -28.7797,            0.,NA,NA,"",   8.56679E-03,   8.53752E-03,   707.517E-06,   4.47981E-03
C:/temp/dataset/3/24_7.odb,Step-1,Increment      1: Step Time =    1.000,"PART-1-1",           505,         -6.25,          -30.,            0.,NA,NA,"",            0.,   5.26673E-39,   3.10928E-39,   5.73251E-03
C:/temp/dataset/3/24_7.odb,Step-1,Increment      1: Step Time =    1.000,"PART-1-1",           506,      -12.4949,      -26.2800,            0.,NA,NA,"",   17.9093E-03,   17.7109E-03,   2.65844E-03,   2.12555E-03
C:/temp/dataset/3/24_7.odb,Step-1,Increment      1: Step Time =    1.000,"PART-1-1",           507,          -15.,        -26.25,            0.,NA,NA,"",   20.6435E-03,   18.4621E-03,   9.23590E-03,   909.536E-06
C:/temp/dataset/3/24_7.odb,Step-1,Increment      1: Step Time =    1.000,"PART-1-1",           508,       12.0036,      -23.8365,            0.,NA,NA,"",   83.1269E-03,  -5.06077E-03,  -82.9727E-03,   22.7128E-03
C:/temp/dataset/3/24_7.odb,Step-1,Increment      1: Step Time =    1.000,"PART-1-1",           509,       13.6432,      -25.0896,            0.,NA,NA,"",   104.616E-03,  -3.29591E-03,  -104.564E-03,   30.1712E-03
C:/temp/dataset/3/24_7.odb,Step-1,Increment      1: Step Time =    1.000,"PART-1-1",           510,           15.,        -23.75,            0.,NA,NA,"",   181.654E-03,   37.2013E-03,  -177.804E-03,   44.5105E-03
C:/temp/dataset/3/24_7.odb,Step-1,Increment      1: Step Time =    1.000,"PART-1-1",           511,         11.25,          -30.,            0.,NA,NA,"",            0.,  -12.1328E-39,  -16.5437E-39,   14.1014E-03
C:/temp/dataset/3/24_7.odb,Step-1,Increment      1: Step Time =    1.000,"PART-1-1",           512,       13.9281,      -14.6298,            0.,NA,NA,"",   832.135E-03,   634.751E-03,  -538.088E-03,   47.6429E-03
C:/temp/dataset/3/24_7.odb,Step-1,Increment      1: Step Time =    1.000,"PART-1-1",           513,       12.2657,      -15.3468,            0.,NA,NA,"",   612.442E-03,   534.469E-03,  -299.044E-03,   24.5176E-03
C:/temp/dataset/3/24_7.odb,Step-1,Increment      1: Step Time =    1.000,"PART-1-1",           514,           15.,        -16.25,            0.,NA,NA,"",   744.765E-03,   470.118E-03,  -577.636E-03,   62.9816E-03
C:/temp/dataset/3/24_7.odb,Step-1,Increment      1: Step Time =    1.000,"PART-1-1",           515,       7.13425,      -14.5121,            0.,NA,NA,"",   784.741E-03,   708.572E-03,   337.260E-03,   46.9690E-03
C:/temp/dataset/3/24_7.odb,Step-1,Increment      1: Step Time =    1.000,"PART-1-1",           516,       6.81531,      -16.2905,            0.,NA,NA,"",   574.866E-03,   482.861E-03,   311.956E-03,   51.1280E-03
C:/temp/dataset/3/24_7.odb,Step-1,Increment      1: Step Time =    1.000,"PART-1-1",           517,       8.10983,      -17.0757,            0.,NA,NA,"",   399.879E-03,   366.562E-03,   159.798E-03,   32.1142E-03
C:/temp/dataset/3/24_7.odb,Step-1,Increment      1: Step Time =    1.000,"PART-1-1",           518,       13.8641,      -7.41825,            0.,NA,NA,"",       2.07222,       1.85175,  -930.111E-03,   42.4924E-03
C:/temp/dataset/3/24_7.odb,Step-1,Increment      1: Step Time =    1.000,"PART-1-1",           519,       13.0286,      -8.63342,            0.,NA,NA,"",       1.74527,       1.60498,  -685.565E-03,   32.7202E-03
C:/temp/dataset/3/24_7.odb,Step-1,Increment      1: Step Time =    1.000,"PART-1-1",           520,       14.1645,      -9.96517,            0.,NA,NA,"",       1.58817,       1.35018,  -836.246E-03,   48.7058E-03
C:/temp/dataset/3/24_7.odb,Step-1,Increment      1: Step Time =    1.000,"PART-1-1",           521,           15.,         -8.75,            0.,NA,NA,"",       1.91809,       1.58170,      -1.08504,   58.8710E-03
C:/temp/dataset/3/24_7.odb,Step-1,Increment      1: Step Time =    1.000,"PART-1-1",           522,       12.0251,      -10.9831,            0.,NA,NA,"",       1.23880,       1.17293,  -398.581E-03,   20.1479E-03
C:/temp/dataset/3/24_7.odb,Step-1,Increment      1: Step Time =    1.000,"PART-1-1",           523,       12.8055,      -11.9581,            0.,NA,NA,"",       1.12260,       1.00802,  -494.096E-03,   30.6956E-03
C:/temp/dataset/3/24_7.odb,Step-1,Increment      1: Step Time =    1.000,"PART-1-1",           524,       13.3751,      -11.0455,            0.,NA,NA,"",       1.31981,       1.15873,  -631.870E-03,   38.1968E-03
C:/temp/dataset/3/24_7.odb,Step-1,Increment      1: Step Time =    1.000,"PART-1-1",           525,       12.5947,      -10.0706,            0.,NA,NA,"",       1.43564,       1.33218,  -535.145E-03,   27.4410E-03
C:/temp/dataset/3/24_7.odb,Step-1,Increment      1: Step Time =    1.000,"PART-1-1",           526,       11.4853,  -434.223E-03,            0.,NA,NA,"",       3.76116,       3.68815,  -737.454E-03,   23.4799E-03
C:/temp/dataset/3/24_7.odb,Step-1,Increment      1: Step Time =    1.000,"PART-1-1",           527,       10.5886,      -1.82652,            0.,NA,NA,"",       3.34487,       3.31500,  -446.066E-03,   25.7945E-03
C:/temp/dataset/3/24_7.odb,Step-1,Increment      1: Step Time =    1.000,"PART-1-1",           528,       11.9063,      -2.70193,            0.,NA,NA,"",       3.12275,       3.03595,  -731.129E-03,   24.9708E-03
C:/temp/dataset/3/24_7.odb,Step-1,Increment      1: Step Time =    1.000,"PART-1-1",           529,       14.1300,       7.44597,            0.,NA,NA,"",       6.12465,       5.85115,      -1.80980,   876.954E-06
C:/temp/dataset/3/24_7.odb,Step-1,Increment      1: Step Time =    1.000,"PART-1-1",           530,       13.1865,       6.25975,            0.,NA,NA,"",       5.75387,       5.55533,      -1.49843,   2.64926E-03
C:/temp/dataset/3/24_7.odb,Step-1,Increment      1: Step Time =    1.000,"PART-1-1",           531,           15.,          6.25,            0.,NA,NA,"",       5.83514,       5.47934,      -2.00643,   619.049E-06
C:/temp/dataset/3/24_7.odb,Step-1,Increment      1: Step Time =    1.000,"PART-1-1",           532,       12.4155,       5.33720,            0.,NA,NA,"",       5.46864,       5.32480,      -1.24604,   5.27105E-03
C:/temp/dataset/3/24_7.odb,Step-1,Increment      1: Step Time =    1.000,"PART-1-1",           533,       11.2733,       3.54111,            0.,NA,NA,"",       4.93136,       4.85593,  -859.192E-03,   12.5774E-03
C:/temp/dataset/3/24_7.odb,Step-1,Increment      1: Step Time =    1.000,"PART-1-1",           534,       12.2480,       13.5548,            0.,NA,NA,"",       7.77420,       7.62301,      -1.52575,   360.096E-06
C:/temp/dataset/3/24_7.odb,Step-1,Increment      1: Step Time =    1.000,"PART-1-1",           535,           15.,         13.75,            0.,NA,NA,"",       7.90976,       7.56917,      -2.29609,   339.105E-06
C:/temp/dataset/3/24_7.odb,Step-1,Increment      1: Step Time =    1.000,"PART-1-1",           536,       13.6600,       14.9734,            0.,NA,NA,"",       8.20119,       7.96043,      -1.97257,   142.989E-06
C:/temp/dataset/3/24_7.odb,Step-1,Increment      1: Step Time =    1.000,"PART-1-1",           537,       8.15326,       10.4556,            0.,NA,NA,"",       6.92979,       6.92455,  -269.404E-03,   594.656E-06
C:/temp/dataset/3/24_7.odb,Step-1,Increment      1: Step Time =    1.000,"PART-1-1",           538,       12.3824,       21.2920,            0.,NA,NA,"",       9.93669,       9.75998,      -1.86567,   8.01203E-06
C:/temp/dataset/3/24_7.odb,Step-1,Increment      1: Step Time =    1.000,"PART-1-1",           539,       13.6892,       20.0188,            0.,NA,NA,"",       9.60640,       9.35630,      -2.17778,   7.13250E-06
C:/temp/dataset/3/24_7.odb,Step-1,Increment      1: Step Time =    1.000,"PART-1-1",           540,           15.,         21.25,            0.,NA,NA,"",       9.98736,       9.64597,      -2.58893,   3.99723E-06
C:/temp/dataset/3/24_7.odb,Step-1,Increment      1: Step Time =    1.000,"PART-1-1",           541,       13.6932,       22.5232,            0.,NA,NA,"",       10.3043,       10.0497,      -2.27683,   2.56070E-06
C:/temp/dataset/3/24_7.odb,Step-1,Increment      1: Step Time =    1.000,"PART-1-1",           542,       9.77662,       16.3041,            0.,NA,NA,"",       8.53347,       8.48057,  -948.759E-03,   157.879E-06
C:/temp/dataset/3/24_7.odb,Step-1,Increment      1: Step Time =    1.000,"PART-1-1",           543,       11.0318,       15.0036,            0.,NA,NA,"",       8.16704,       8.07152,      -1.24546,   201.476E-06
C:/temp/dataset/3/24_7.odb,Step-1,Increment      1: Step Time =    1.000,"PART-1-1",           544,       12.3430,       16.2301,            0.,NA,NA,"",       8.52248,       8.35988,      -1.65679,   144.044E-06
C:/temp/dataset/3/24_7.odb,Step-1,Increment      1: Step Time =    1.000,"PART-1-1",           545,         13.75,           30.,            0.,NA,NA,"",       12.3907,       12.1181,      -2.58501,   255.278E-09
C:/temp/dataset/3/24_7.odb,Step-1,Increment      1: Step Time =    1.000,"PART-1-1",           546,       12.4862,       28.7548,            0.,NA,NA,"",       12.0231,       11.8226,      -2.18630,   1.07734E-06
C:/temp/dataset/3/24_7.odb,Step-1,Increment      1: Step Time =    1.000,"PART-1-1",           547,           15.,         28.75,            0.,NA,NA,"",       12.0721,       11.7230,      -2.88229,   294.858E-09
C:/temp/dataset/3/24_7.odb,Step-1,Increment      1: Step Time =    1.000,"PART-1-1",           548,       12.4064,       23.7898,            0.,NA,NA,"",       10.6348,       10.4508,      -1.97001,   1.33846E-06
C:/temp/dataset/3/24_7.odb,Step-1,Increment      1: Step Time =    1.000,"PART-1-1",           549,           15.,         23.75,            0.,NA,NA,"",       10.6817,       10.3383,      -2.68672,   4.19499E-06
C:/temp/dataset/3/24_7.odb,Step-1,Increment      1: Step Time =    1.000,"PART-1-1",           550,       9.91541,       26.3072,            0.,NA,NA,"",       11.3295,       11.2454,      -1.37862,   1.22250E-06
C:/temp/dataset/3/24_7.odb,Step-1,Increment      1: Step Time =    1.000,"PART-1-1",           551,       11.1537,       25.0565,            0.,NA,NA,"",       10.9787,       10.8506,      -1.67264,   1.56344E-06
C:/temp/dataset/3/24_7.odb,Step-1,Increment      1: Step Time =    1.000,"PART-1-1",           552,       11.2110,       27.5221,            0.,NA,NA,"",       11.6685,       11.5311,      -1.78495,   1.44201E-06
C:/temp/dataset/3/24_7.odb,Step-1,Increment      1: Step Time =    1.000,"PART-1-1",           553,       8.69233,       27.5515,            0.,NA,NA,"",       11.6886,       11.6378,      -1.08857,   909.038E-09
C:/temp/dataset/3/24_7.odb,Step-1,Increment      1: Step Time =    1.000,"PART-1-1",           554,       7.41297,       26.3376,            0.,NA,NA,"",       11.3724,       11.3517,  -686.783E-03,   1.05700E-06
C:/temp/dataset/3/24_7.odb,Step-1,Increment      1: Step Time =    1.000,"PART-1-1",           555,       8.63604,       25.0933,            0.,NA,NA,"",       11.0027,       10.9592,  -976.835E-03,   1.19175E-06
C:/temp/dataset/3/24_7.odb,Step-1,Increment      1: Step Time =    1.000,"PART-1-1",           556,      -1.26375,       27.5391,            0.,NA,NA,"",       12.1391,       12.0238,       1.66919,   145.260E-09
C:/temp/dataset/3/24_7.odb,Step-1,Increment      1: Step Time =    1.000,"PART-1-1",           557,         -1.25,           30.,            0.,NA,NA,"",       12.8013,       12.7048,       1.56912,   34.8455E-09
C:/temp/dataset/3/24_7.odb,Step-1,Increment      1: Step Time =    1.000,"PART-1-1",           558,      -2.50500,       28.7640,            0.,NA,NA,"",       12.5661,       12.4116,       1.96503,   22.5644E-09
C:/temp/dataset/3/24_7.odb,Step-1,Increment      1: Step Time =    1.000,"PART-1-1",           559,      -7.50143,       28.7522,            0.,NA,NA,"",       13.0411,       12.6037,       3.34923,   7.73536E-09
C:/temp/dataset/3/24_7.odb,Step-1,Increment      1: Step Time =    1.000,"PART-1-1",           560,         -8.75,           30.,            0.,NA,NA,"",       13.4999,       12.9981,       3.64620,   7.86710E-09
C:/temp/dataset/3/24_7.odb,Step-1,Increment      1: Step Time =    1.000,"PART-1-1",           561,      -6.25460,       27.5081,            0.,NA,NA,"",       12.5862,       12.2104,       3.05259,   5.62853E-09
C:/temp/dataset/3/24_7.odb,Step-1,Increment      1: Step Time =    1.000,"PART-1-1",           562,        -13.75,           30.,            0.,NA,NA,"",       14.1203,       13.1937,       5.03092,   2.14940E-09
C:/temp/dataset/3/24_7.odb,Step-1,Increment      1: Step Time =    1.000,"PART-1-1",           563,          -15.,         28.75,            0.,NA,NA,"",       13.9914,       12.8964,       5.42600,   2.11594E-09
C:/temp/dataset/3/24_7.odb,Step-1,Increment      1: Step Time =    1.000,"PART-1-1",           564,      -13.7509,       27.5010,            0.,NA,NA,"",       13.5128,       12.5016,       5.12893,   2.52651E-09
C:/temp/dataset/3/24_7.odb,Step-1,Increment      1: Step Time =    1.000,"PART-1-1",           565,          -15.,         26.25,            0.,NA,NA,"",       13.3959,       12.2041,       5.52378,   2.57465E-09
C:/temp/dataset/3/24_7.odb,Step-1,Increment      1: Step Time =    1.000,"PART-1-1",           566,      -12.5016,       26.2536,            0.,NA,NA,"",       13.0358,       12.1073,       4.83172,   2.76864E-09
C:/temp/dataset/3/24_7.odb,Step-1,Increment      1: Step Time =    1.000,"PART-1-1",           567,      -7.50093,       21.2547,            0.,NA,NA,"",       11.1396,       10.5273,       3.64234,   7.35522E-09
C:/temp/dataset/3/24_7.odb,Step-1,Increment      1: Step Time =    1.000,"PART-1-1",           568,         -6.25,           20.,            0.,NA,NA,"",       10.6688,       10.1309,       3.34498,   18.4222E-09
C:/temp/dataset/3/24_7.odb,Step-1,Increment      1: Step Time =    1.000,"PART-1-1",           569,      -4.99978,       21.2574,            0.,NA,NA,"",       10.8393,       10.4302,       2.94956,   13.3113E-09
C:/temp/dataset/3/24_7.odb,Step-1,Increment      1: Step Time =    1.000,"PART-1-1",           570,      -3.74911,       22.5208,            0.,NA,NA,"",       11.0309,       10.7312,       2.55378,   26.5252E-09
C:/temp/dataset/3/24_7.odb,Step-1,Increment      1: Step Time =    1.000,"PART-1-1",           571,         -3.75,           20.,            0.,NA,NA,"",       10.3779,       10.0331,       2.65262,   28.8362E-09
C:/temp/dataset/3/24_7.odb,Step-1,Increment      1: Step Time =    1.000,"PART-1-1",           572,      -2.49933,       21.2634,            0.,NA,NA,"",       10.5777,       10.3341,       2.25684,   28.5329E-09
C:/temp/dataset/3/24_7.odb,Step-1,Increment      1: Step Time =    1.000,"PART-1-1",           573,         -1.25,           20.,            0.,NA,NA,"",       10.1269,       9.93534,       1.96026,   97.2669E-09
C:/temp/dataset/3/24_7.odb,Step-1,Increment      1: Step Time =    1.000,"PART-1-1",           574,  -2.23348E-03,       21.2694,            0.,NA,NA,"",       10.3570,       10.2381,       1.56505,   163.874E-09
C:/temp/dataset/3/24_7.odb,Step-1,Increment      1: Step Time =    1.000,"PART-1-1",           575,      -1.25156,       22.5328,            0.,NA,NA,"",       10.7985,       10.6368,       1.86163,   132.463E-09
C:/temp/dataset/3/24_7.odb,Step-1,Increment      1: Step Time =    1.000,"PART-1-1",           576,         -3.75,           30.,            0.,NA,NA,"",       13.0008,       12.8026,       2.26148,   20.4034E-09
C:/temp/dataset/3/24_7.odb,Step-1,Increment      1: Step Time =    1.000,"PART-1-1",           577,      -5.00318,       28.7559,            0.,NA,NA,"",       12.7862,       12.5070,       2.65720,   11.4111E-09
C:/temp/dataset/3/24_7.odb,Step-1,Increment      1: Step Time =    1.000,"PART-1-1",           578,       7.36074,       18.8052,            0.,NA,NA,"",       9.27531,       9.26762,  -377.689E-03,   40.1009E-06
C:/temp/dataset/3/24_7.odb,Step-1,Increment      1: Step Time =    1.000,"PART-1-1",           579,       8.58169,       17.5494,            0.,NA,NA,"",       8.89708,       8.87207,  -666.642E-03,   64.0553E-06
C:/temp/dataset/3/24_7.odb,Step-1,Increment      1: Step Time =    1.000,"PART-1-1",           580,       8.60057,       20.0599,            0.,NA,NA,"",       9.59760,       9.56665,  -770.134E-03,   13.6351E-06
C:/temp/dataset/3/24_7.odb,Step-1,Increment      1: Step Time =    1.000,"PART-1-1",           581,            5.,         18.75,            0.,NA,NA,"",       9.34880,       9.34466,   278.279E-03,   10.6501E-06
C:/temp/dataset/3/24_7.odb,Step-1,Increment      1: Step Time =    1.000,"PART-1-1",           582,       6.17685,       17.5255,            0.,NA,NA,"",       8.95944,       8.95944,   237.456E-06,   36.7166E-06
C:/temp/dataset/3/24_7.odb,Step-1,Increment      1: Step Time =    1.000,"PART-1-1",           583,       6.18390,       20.0298,            0.,NA,NA,"",       9.65332,       9.65281,  -99.6722E-03,   6.04509E-06
C:/temp/dataset/3/24_7.odb,Step-1,Increment      1: Step Time =    1.000,"PART-1-1",           584,            5.,         16.25,            0.,NA,NA,"",       8.66033,       8.65216,   376.045E-03,   102.278E-06
C:/temp/dataset/3/24_7.odb,Step-1,Increment      1: Step Time =    1.000,"PART-1-1",           585,       6.15340,       15.0385,            0.,NA,NA,"",       8.27201,       8.27136,   103.959E-03,   147.469E-06
C:/temp/dataset/3/24_7.odb,Step-1,Increment      1: Step Time =    1.000,"PART-1-1",           586,       7.33024,       16.3140,            0.,NA,NA,"",       8.58305,       8.57875,  -271.739E-03,   138.853E-06
C:/temp/dataset/3/24_7.odb,Step-1,Increment      1: Step Time =    1.000,"PART-1-1",           587,           15.,         16.25,            0.,NA,NA,"",       8.60118,       8.26145,      -2.39347,   94.8208E-06
C:/temp/dataset/3/24_7.odb,Step-1,Increment      1: Step Time =    1.000,"PART-1-1",           588,       13.6830,       17.5067,            0.,NA,NA,"",       8.90670,       8.66094,      -2.07785,   39.2786E-06
C:/temp/dataset/3/24_7.odb,Step-1,Increment      1: Step Time =    1.000,"PART-1-1",           589,           15.,         18.75,            0.,NA,NA,"",       9.29378,       8.95368,      -2.49115,   13.3158E-06
C:/temp/dataset/3/24_7.odb,Step-1,Increment      1: Step Time =    1.000,"PART-1-1",           590,       7.36831,       6.81272,            0.,NA,NA,"",       5.95754,       5.95690,   86.8056E-03,   5.01445E-03
C:/temp/dataset/3/24_7.odb,Step-1,Increment      1: Step Time =    1.000,"PART-1-1",           591,       6.10412,       7.73110,            0.,NA,NA,"",       6.26890,       6.25618,   399.279E-03,   3.21581E-03
C:/temp/dataset/3/24_7.odb,Step-1,Increment      1: Step Time =    1.000,"PART-1-1",           592,            5.,          6.25,            0.,NA,NA,"",       5.94649,       5.89887,   751.031E-03,   9.47810E-03
C:/temp/dataset/3/24_7.odb,Step-1,Increment      1: Step Time =    1.000,"PART-1-1",           593,       6.26419,       5.33162,            0.,NA,NA,"",       5.62804,       5.61085,   439.554E-03,   20.4438E-03
C:/temp/dataset/3/24_7.odb,Step-1,Increment      1: Step Time =    1.000,"PART-1-1",           594,           15.,          8.75,            0.,NA,NA,"",       6.52895,       6.18083,      -2.10347,   1.35287E-03
C:/temp/dataset/3/24_7.odb,Step-1,Increment      1: Step Time =    1.000,"PART-1-1",           595,       13.1418,       8.51598,            0.,NA,NA,"",       6.38753,       6.18995,      -1.57641,   323.902E-06
C:/temp/dataset/3/24_7.odb,Step-1,Increment      1: Step Time =    1.000,"PART-1-1",           596,       6.30252,      -5.49102,            0.,NA,NA,"",       2.54166,       2.43673,   722.755E-03,   52.3113E-03
C:/temp/dataset/3/24_7.odb,Step-1,Increment      1: Step Time =    1.000,"PART-1-1",           597,            5.,         -6.25,            0.,NA,NA,"",       2.54645,       2.33890,       1.00695,   89.7747E-03
C:/temp/dataset/3/24_7.odb,Step-1,Increment      1: Step Time =    1.000,"PART-1-1",           598,       6.10325,      -7.87566,            0.,NA,NA,"",       2.05439,       1.92683,   712.630E-03,   56.3713E-03
C:/temp/dataset/3/24_7.odb,Step-1,Increment      1: Step Time =    1.000,"PART-1-1",           599,       7.40577,      -7.11668,            0.,NA,NA,"",       2.08637,       2.03673,   452.377E-03,   30.5735E-03
C:/temp/dataset/3/24_7.odb,Step-1,Increment      1: Step Time =    1.000,"PART-1-1",           600,            5.,         -8.75,            0.,NA,NA,"",       2.00589,       1.79782,   889.625E-03,   70.5393E-03
C:/temp/dataset/3/24_7.odb,Step-1,Increment      1: Step Time =    1.000,"PART-1-1",           601,            5.,        -13.75,            0.,NA,NA,"",       1.10731,   893.904E-03,   653.509E-03,   72.0166E-03
C:/temp/dataset/3/24_7.odb,Step-1,Increment      1: Step Time =    1.000,"PART-1-1",           602,       5.77894,      -15.1288,            0.,NA,NA,"",   823.901E-03,   667.735E-03,   482.643E-03,   64.2672E-03
C:/temp/dataset/3/24_7.odb,Step-1,Increment      1: Step Time =    1.000,"PART-1-1",           603,            5.,        -16.25,            0.,NA,NA,"",   754.169E-03,   551.487E-03,   514.425E-03,   75.6952E-03
C:/temp/dataset/3/24_7.odb,Step-1,Increment      1: Step Time =    1.000,"PART-1-1",           604,       2.77244,      -24.0596,            0.,NA,NA,"",   81.7814E-03,   50.6665E-03,   64.1958E-03,   21.3568E-03
C:/temp/dataset/3/24_7.odb,Step-1,Increment      1: Step Time =    1.000,"PART-1-1",           605,       3.76359,      -25.5842,            0.,NA,NA,"",   61.3131E-03,   28.1982E-03,   54.4441E-03,   20.3794E-03
C:/temp/dataset/3/24_7.odb,Step-1,Increment      1: Step Time =    1.000,"PART-1-1",           606,       5.11162,      -24.8806,            0.,NA,NA,"",   75.9937E-03,   21.8930E-03,   72.7718E-03,   25.7723E-03
C:/temp/dataset/3/24_7.odb,Step-1,Increment      1: Step Time =    1.000,"PART-1-1",           607,       4.12047,      -23.3559,            0.,NA,NA,"",   111.933E-03,   52.5299E-03,   98.8409E-03,   28.5474E-03
C:/temp/dataset/3/24_7.odb,Step-1,Increment      1: Step Time =    1.000,"PART-1-1",           608,       8.48587,      -2.76980,            0.,NA,NA,"",       3.11001,       3.10795,   113.068E-03,   25.9127E-03
C:/temp/dataset/3/24_7.odb,Step-1,Increment      1: Step Time =    1.000,"PART-1-1",           609,       9.66601,      -3.38468,            0.,NA,NA,"",       2.90770,       2.90362,  -154.138E-03,   22.1876E-03
C:/temp/dataset/3/24_7.odb,Step-1,Increment      1: Step Time =    1.000,"PART-1-1",           610,       9.40849,      -1.21164,            0.,NA,NA,"",       3.53418,       3.52977,  -176.414E-03,   27.0379E-03
C:/temp/dataset/3/24_7.odb,Step-1,Increment      1: Step Time =    1.000,"PART-1-1",           611,       3.88333,            5.,            0.,NA,NA,"",       5.80654,       5.69845,       1.11514,   45.2874E-03
C:/temp/dataset/3/24_7.odb,Step-1,Increment      1: Step Time =    1.000,"PART-1-1",           612,       3.93709,       2.49951,            0.,NA,NA,"",       5.06908,       4.92763,       1.18914,   16.2142E-03
C:/temp/dataset/3/24_7.odb,Step-1,Increment      1: Step Time =    1.000,"PART-1-1",           613,       5.14044,       3.62548,            0.,NA,NA,"",       5.25614,       5.19608,   792.300E-03,   26.2322E-03
C:/temp/dataset/3/24_7.odb,Step-1,Increment      1: Step Time =    1.000,"PART-1-1",           614,       1.70000,           -5.,            0.,NA,NA,"",       3.52761,       2.66153,       2.31523,   36.2891E-03
C:/temp/dataset/3/24_7.odb,Step-1,Increment      1: Step Time =    1.000,"PART-1-1",           615,       2.88648,      -4.17028,            0.,NA,NA,"",       3.43220,       2.90186,       1.83280,   37.6071E-03
C:/temp/dataset/3/24_7.odb,Step-1,Increment      1: Step Time =    1.000,"PART-1-1",           616,       1.90498,      -3.27989,            0.,NA,NA,"",       3.85599,       3.22024,       2.12102,   27.5751E-03
C:/temp/dataset/3/24_7.odb,Step-1,Increment      1: Step Time =    1.000,"PART-1-1",           617,      -2.82853,       3.20340,            0.,NA,NA,"",       6.60790,       5.66359,       3.40413,   17.8126E-03
C:/temp/dataset/3/24_7.odb,Step-1,Increment      1: Step Time =    1.000,"PART-1-1",           618,      -1.73717,       4.08745,            0.,NA,NA,"",       6.59263,       5.88331,       2.97481,   23.6163E-03
C:/temp/dataset/3/24_7.odb,Step-1,Increment      1: Step Time =    1.000,"PART-1-1",           619,      -2.81667,            5.,            0.,NA,NA,"",       7.11239,       6.30000,       3.30093,   25.2374E-03
C:/temp/dataset/3/24_7.odb,Step-1,Increment      1: Step Time =    1.000,"PART-1-1",           620,      -7.28333,            5.,            0.,NA,NA,"",       8.28076,       6.67460,       4.90110,   11.6578E-03
C:/temp/dataset/3/24_7.odb,Step-1,Increment      1: Step Time =    1.000,"PART-1-1",           621,      -11.7000,            5.,            0.,NA,NA,"",       9.58058,       7.01090,       6.52954,   1.99176E-03
C:/temp/dataset/3/24_7.odb,Step-1,Increment      1: Step Time =    1.000,"PART-1-1",           622,      -11.5540,       2.50359,            0.,NA,NA,"",       9.01169,       6.08330,       6.64861,   5.33002E-03
C:/temp/dataset/3/24_7.odb,Step-1,Increment      1: Step Time =    1.000,"PART-1-1",           623,      -8.37698,      -4.01732,            0.,NA,NA,"",       6.88055,       3.50303,       5.92205,   11.4737E-03
C:/temp/dataset/3/24_7.odb,Step-1,Increment      1: Step Time =    1.000,"PART-1-1",           624,      -10.5279,      -3.86372,            0.,NA,NA,"",       7.67646,       3.70189,       6.72488,   9.00210E-03
C:/temp/dataset/3/24_7.odb,Step-1,Increment      1: Step Time =    1.000,"PART-1-1",           625,      -9.41667,           -5.,            0.,NA,NA,"",       7.15578,       3.20837,       6.39621,   9.84483E-03
C:/temp/dataset/3/24_7.odb,Step-1,Increment      1: Step Time =    1.000,"PART-1-1",           626,          3.75,          -20.,            0.,NA,NA,"",   132.665E-03,   71.0966E-03,   112.005E-03,   46.9061E-03
C:/temp/dataset/3/24_7.odb,Step-1,Increment      1: Step Time =    1.000,"PART-1-1",           627,       2.74072,      -21.3682,            0.,NA,NA,"",   110.607E-03,   71.0093E-03,   84.8034E-03,   16.5950E-03
C:/temp/dataset/3/24_7.odb,Step-1,Increment      1: Step Time =    1.000,"PART-1-1",           628,       4.11640,      -22.1674,            0.,NA,NA,"",   143.321E-03,   73.9159E-03,   122.790E-03,   35.3275E-03
C:/temp/dataset/3/24_7.odb,Step-1,Increment      1: Step Time =    1.000,"PART-1-1",           629,       5.12568,      -20.7992,            0.,NA,NA,"",   213.524E-03,   94.0905E-03,   191.675E-03,   61.3447E-03
C:/temp/dataset/3/24_7.odb,Step-1,Increment      1: Step Time =    1.000,"PART-1-1",           630,          1.25,          -20.,            0.,NA,NA,"",   54.9778E-03,   36.9037E-03,   40.7514E-03,   8.13914E-03
C:/temp/dataset/3/24_7.odb,Step-1,Increment      1: Step Time =    1.000,"PART-1-1",           631,   73.0809E-03,      -21.3299,            0.,NA,NA,"",   55.3746E-03,   48.0633E-03,   27.5002E-03,   6.00962E-03
C:/temp/dataset/3/24_7.odb,Step-1,Increment      1: Step Time =    1.000,"PART-1-1",           632,       1.56380,      -22.6981,            0.,NA,NA,"",   81.3052E-03,   60.6366E-03,   54.1640E-03,   18.1743E-03
C:/temp/dataset/3/24_7.odb,Step-1,Increment      1: Step Time =    1.000,"PART-1-1",           633,         -1.25,          -20.,            0.,NA,NA,"",   38.8848E-03,   36.1040E-03,   14.4404E-03,   1.50506E-03
C:/temp/dataset/3/24_7.odb,Step-1,Increment      1: Step Time =    1.000,"PART-1-1",           634,      -2.46493,      -21.3147,            0.,NA,NA,"",   41.3122E-03,   40.5747E-03,   7.77124E-03,   2.58265E-03
C:/temp/dataset/3/24_7.odb,Step-1,Increment      1: Step Time =    1.000,"PART-1-1",           635,      -1.14185,      -22.6446,            0.,NA,NA,"",   51.1688E-03,   47.9432E-03,   17.8802E-03,   7.27477E-03
C:/temp/dataset/3/24_7.odb,Step-1,Increment      1: Step Time =    1.000,"PART-1-1",           636,         -3.75,          -20.,            0.,NA,NA,"",   34.5832E-03,   34.5467E-03,   1.58924E-03,   665.142E-06
C:/temp/dataset/3/24_7.odb,Step-1,Increment      1: Step Time =    1.000,"PART-1-1",           637,      -4.97847,      -21.2978,            0.,NA,NA,"",   36.3164E-03,   36.3080E-03,  -781.391E-06,   1.28438E-03
C:/temp/dataset/3/24_7.odb,Step-1,Increment      1: Step Time =    1.000,"PART-1-1",           638,      -3.69340,      -22.6125,            0.,NA,NA,"",   39.8389E-03,   39.6854E-03,   3.49396E-03,   3.57718E-03
C:/temp/dataset/3/24_7.odb,Step-1,Increment      1: Step Time =    1.000,"PART-1-1",           639,      -4.95791,      -23.8547,            0.,NA,NA,"",   35.6349E-03,   35.6119E-03,   1.28117E-03,   3.47889E-03
C:/temp/dataset/3/24_7.odb,Step-1,Increment      1: Step Time =    1.000,"PART-1-1",           640,      -6.21189,      -22.5887,            0.,NA,NA,"",   34.7768E-03,   34.7471E-03,  -1.43849E-03,   2.10927E-03
C:/temp/dataset/3/24_7.odb,Step-1,Increment      1: Step Time =    1.000,"PART-1-1",           641,      -7.46939,      -23.8324,            0.,NA,NA,"",   30.8264E-03,   30.8039E-03,  -1.17820E-03,   2.30202E-03
C:/temp/dataset/3/24_7.odb,Step-1,Increment      1: Step Time =    1.000,"PART-1-1",           642,           15.,        -13.75,            0.,NA,NA,"",       1.06357,   765.605E-03,  -738.256E-03,   62.6222E-03
C:/temp/dataset/3/24_7.odb,Step-1,Increment      1: Step Time =    1.000,"PART-1-1",           643,       14.2106,      -12.3304,            0.,NA,NA,"",       1.18820,   956.945E-03,  -704.324E-03,   50.7081E-03
C:/temp/dataset/3/24_7.odb,Step-1,Increment      1: Step Time =    1.000,"PART-1-1",           644,       13.1387,      -13.2101,            0.,NA,NA,"",   956.168E-03,   818.838E-03,  -493.721E-03,   35.7534E-03
C:/temp/dataset/3/24_7.odb,Step-1,Increment      1: Step Time =    1.000,"PART-1-1",           645,           15.,        -11.25,            0.,NA,NA,"",       1.45405,       1.13661,  -906.846E-03,   61.2455E-03
C:/temp/dataset/3/24_7.odb,Step-1,Increment      1: Step Time =    1.000,"PART-1-1",           646,           15.,         -6.25,            0.,NA,NA,"",       2.45703,       2.10254,      -1.27135,   53.5285E-03
C:/temp/dataset/3/24_7.odb,Step-1,Increment      1: Step Time =    1.000,"PART-1-1",           647,       14.0624,      -4.92369,            0.,NA,NA,"",       2.67341,       2.42016,      -1.13574,   39.6376E-03
C:/temp/dataset/3/24_7.odb,Step-1,Increment      1: Step Time =    1.000,"PART-1-1",           648,       12.9264,      -6.09194,            0.,NA,NA,"",       2.29823,       2.15598,  -795.988E-03,   29.8171E-03
C:/temp/dataset/3/24_7.odb,Step-1,Increment      1: Step Time =    1.000,"PART-1-1",           649,           15.,         -3.75,            0.,NA,NA,"",       3.06710,       2.69829,      -1.45819,   43.2040E-03
C:/temp/dataset/3/24_7.odb,Step-1,Increment      1: Step Time =    1.000,"PART-1-1",           650,       13.0440,      -3.68493,            0.,NA,NA,"",       2.91180,       2.74898,  -960.054E-03,   28.6842E-03
C:/temp/dataset/3/24_7.odb,Step-1,Increment      1: Step Time =    1.000,"PART-1-1",           651,       8.06094,   477.426E-03,            0.,NA,NA,"",       4.08868,       4.08725,   108.415E-03,   24.9853E-03
C:/temp/dataset/3/24_7.odb,Step-1,Increment      1: Step Time =    1.000,"PART-1-1",           652,       8.76493,       2.31856,            0.,NA,NA,"",       4.61041,       4.60818,  -143.400E-03,   23.4894E-03
C:/temp/dataset/3/24_7.odb,Step-1,Increment      1: Step Time =    1.000,"PART-1-1",           653,       6.73548,       2.80805,            0.,NA,NA,"",       4.87382,       4.85882,   382.127E-03,   23.9434E-03
C:/temp/dataset/3/24_7.odb,Step-1,Increment      1: Step Time =    1.000,"PART-1-1",           654,       6.03149,   966.916E-03,            0.,NA,NA,"",       4.38265,       4.33557,   640.703E-03,   21.8269E-03
C:/temp/dataset/3/24_7.odb,Step-1,Increment      1: Step Time =    1.000,"PART-1-1",           655,            5.,          8.75,            0.,NA,NA,"",       6.60952,       6.57621,   662.706E-03,   1.99466E-03
C:/temp/dataset/3/24_7.odb,Step-1,Increment      1: Step Time =    1.000,"PART-1-1",           656,       7.16919,       9.14751,            0.,NA,NA,"",       6.60197,       6.60176,   53.1818E-03,   1.10801E-03
C:/temp/dataset/3/24_7.odb,Step-1,Increment      1: Step Time =    1.000,"PART-1-1",           657,          3.75,           30.,            0.,NA,NA,"",       12.5106,       12.5092,   184.405E-03,   858.457E-09
C:/temp/dataset/3/24_7.odb,Step-1,Increment      1: Step Time =    1.000,"PART-1-1",           658,       3.71036,       27.5731,            0.,NA,NA,"",       11.8422,       11.8386,   290.307E-03,   875.770E-09
C:/temp/dataset/3/24_7.odb,Step-1,Increment      1: Step Time =    1.000,"PART-1-1",           659,       7.38617,       23.8490,            0.,NA,NA,"",       10.6794,       10.6635,  -582.025E-03,   1.72479E-06
C:/temp/dataset/3/24_7.odb,Step-1,Increment      1: Step Time =    1.000,"PART-1-1",           660,       6.16255,       25.1024,            0.,NA,NA,"",       11.0623,       11.0585,  -292.174E-03,   1.47751E-06
C:/temp/dataset/3/24_7.odb,Step-1,Increment      1: Step Time =    1.000,"PART-1-1",           661,       4.93576,       23.8439,            0.,NA,NA,"",       10.7584,       10.7579,   96.8059E-03,   1.95423E-06
C:/temp/dataset/3/24_7.odb,Step-1,Increment      1: Step Time =    1.000,"PART-1-1",           662,       6.15938,       22.5905,            0.,NA,NA,"",       10.3647,       10.3629,  -193.045E-03,   2.47900E-06
C:/temp/dataset/3/24_7.odb,Step-1,Increment      1: Step Time =    1.000,"PART-1-1",           663,      -10.0017,       23.7560,            0.,NA,NA,"",       12.0850,       11.3178,       4.23708,   4.43675E-09
C:/temp/dataset/3/24_7.odb,Step-1,Increment      1: Step Time =    1.000,"PART-1-1",           664,      -8.75135,       22.5073,            0.,NA,NA,"",       11.6119,       10.9231,       3.93965,   6.46946E-09
C:/temp/dataset/3/24_7.odb,Step-1,Increment      1: Step Time =    1.000,"PART-1-1",           665,      -10.0004,       21.2526,            0.,NA,NA,"",       11.4747,       10.6245,       4.33464,   4.30527E-09
C:/temp/dataset/3/24_7.odb,Step-1,Increment      1: Step Time =    1.000,"PART-1-1",           666,      -11.2505,       22.5043,            0.,NA,NA,"",       11.9539,       11.0200,       4.63188,   3.82616E-09
C:/temp/dataset/3/24_7.odb,Step-1,Increment      1: Step Time =    1.000,"PART-1-1",           667,        -11.25,           20.,            0.,NA,NA,"",       11.3581,       10.3265,       4.72970,   3.40001E-09
C:/temp/dataset/3/24_7.odb,Step-1,Increment      1: Step Time =    1.000,"PART-1-1",           668,         -8.75,           20.,            0.,NA,NA,"",       10.9966,       10.2287,       4.03734,   8.14200E-09
C:/temp/dataset/3/24_7.odb,Step-1,Increment      1: Step Time =    1.000,"PART-1-1",           669,       7.37456,       21.3253,            0.,NA,NA,"",       9.97660,       9.96504,  -480.098E-03,   6.10379E-06
C:/temp/dataset/3/24_7.odb,Step-1,Increment      1: Step Time =    1.000,"PART-1-1",           670,      -1.26076,       25.0501,            0.,NA,NA,"",       11.4711,       11.3344,       1.76572,   177.582E-09
C:/temp/dataset/3/24_7.odb,Step-1,Increment      1: Step Time =    1.000,"PART-1-1",           671,      -2.50213,       23.7814,            0.,NA,NA,"",       11.2409,       11.0316,       2.15913,   49.6519E-09
C:/temp/dataset/3/24_7.odb,Step-1,Increment      1: Step Time =    1.000,"PART-1-1",           672,          1.25,           20.,            0.,NA,NA,"",       9.91893,       9.83755,       1.26790,   426.173E-09
C:/temp/dataset/3/24_7.odb,Step-1,Increment      1: Step Time =    1.000,"PART-1-1",           673,            5.,         13.75,            0.,NA,NA,"",       7.97359,       7.95952,   473.500E-03,   320.710E-06
C:/temp/dataset/3/24_7.odb,Step-1,Increment      1: Step Time =    1.000,"PART-1-1",           674,       7.85923,       4.51418,            0.,NA,NA,"",       5.29514,       5.29507,   27.8028E-03,   16.5426E-03
C:/temp/dataset/3/24_7.odb,Step-1,Increment      1: Step Time =    1.000,"PART-1-1",           675,       9.45843,       7.45797,            0.,NA,NA,"",       6.06598,       6.04420,  -513.566E-03,   3.10981E-03
C:/temp/dataset/3/24_7.odb,Step-1,Increment      1: Step Time =    1.000,"PART-1-1",           676,       11.3500,       8.04392,            0.,NA,NA,"",       6.22095,       6.13005,      -1.05954,   1.46606E-03
C:/temp/dataset/3/24_7.odb,Step-1,Increment      1: Step Time =    1.000,"PART-1-1",           677,       10.2386,       8.70699,            0.,NA,NA,"",       6.40654,       6.35919,  -777.470E-03,   1.03091E-03
C:/temp/dataset/3/24_7.odb,Step-1,Increment      1: Step Time =    1.000,"PART-1-1",           678,   133.314E-03,       2.02047,            0.,NA,NA,"",       5.59475,       5.03557,       2.43809,   16.8696E-03
C:/temp/dataset/3/24_7.odb,Step-1,Increment      1: Step Time =    1.000,"PART-1-1",           679,       2.26054,       1.70692,            0.,NA,NA,"",       5.09711,       4.78809,       1.74777,   14.8348E-03
C:/temp/dataset/3/24_7.odb,Step-1,Increment      1: Step Time =    1.000,"PART-1-1",           680,  -583.333E-03,            5.,            0.,NA,NA,"",       6.60917,       6.10311,       2.53636,   32.1435E-03
C:/temp/dataset/3/24_7.odb,Step-1,Increment      1: Step Time =    1.000,"PART-1-1",           681,  -713.179E-03,       3.09316,            0.,NA,NA,"",       6.07740,       5.45785,       2.67331,   20.6755E-03
C:/temp/dataset/3/24_7.odb,Step-1,Increment      1: Step Time =    1.000,"PART-1-1",           682,      -10.2084,       1.19941,            0.,NA,NA,"",       8.32406,       5.51222,       6.23742,   8.24635E-03
C:/temp/dataset/3/24_7.odb,Step-1,Increment      1: Step Time =    1.000,"PART-1-1",           683,      -7.18333,           -5.,            0.,NA,NA,"",       6.33307,       3.06220,       5.54352,   13.7817E-03
C:/temp/dataset/3/24_7.odb,Step-1,Increment      1: Step Time =    1.000,"PART-1-1",           684,      -7.36178,      -2.99006,            0.,NA,NA,"",       6.65826,       3.80863,       5.46139,   11.9356E-03
C:/temp/dataset/3/24_7.odb,Step-1,Increment      1: Step Time =    1.000,"PART-1-1",           685,      -11.3125,  -91.5578E-03,            0.,NA,NA,"",       8.46689,       5.12478,       6.73979,   8.01547E-03
C:/temp/dataset/3/24_7.odb,Step-1,Increment      1: Step Time =    1.000,"PART-1-1",           686,      -11.6500,           -5.,            0.,NA,NA,"",       7.97512,       3.35973,       7.23290,   7.72934E-03
C:/temp/dataset/3/24_7.odb,Step-1,Increment      1: Step Time =    1.000,"PART-1-1",           687,      -11.6245,      -2.63993,            0.,NA,NA,"",       8.21150,       4.22270,       7.04255,   8.40734E-03
C:/temp/dataset/3/24_7.odb,Step-1,Increment      1: Step Time =    1.000,"PART-1-1",           688,      -1.03706,       1.18772,            0.,NA,NA,"",       5.63531,       4.84092,       2.88482,   13.6543E-03
C:/temp/dataset/3/24_7.odb,Step-1,Increment      1: Step Time =    1.000,"PART-1-1",           689,      -2.26684,   407.252E-03,            0.,NA,NA,"",       5.74823,       4.66157,       3.36330,   12.3508E-03
C:/temp/dataset/3/24_7.odb,Step-1,Increment      1: Step Time =    1.000,"PART-1-1",           690,      -1.61706,  -775.207E-03,            0.,NA,NA,"",       5.29805,       4.22075,       3.20228,   13.1443E-03
C:/temp/dataset/3/24_7.odb,Step-1,Increment      1: Step Time =    1.000,"PART-1-1",           691,      -4.44627,  -189.662E-03,            0.,NA,NA,"",       6.22395,       4.60408,       4.18808,   12.5263E-03
C:/temp/dataset/3/24_7.odb,Step-1,Increment      1: Step Time =    1.000,"PART-1-1",           692,      -3.83065,   850.686E-03,            0.,NA,NA,"",       6.27956,       4.92210,       3.89946,   12.5953E-03
C:/temp/dataset/3/24_7.odb,Step-1,Increment      1: Step Time =    1.000,"PART-1-1",           693,      -5.38306,   384.196E-03,            0.,NA,NA,"",       6.62798,       4.87007,       4.49584,   12.2500E-03
C:/temp/dataset/3/24_7.odb,Step-1,Increment      1: Step Time =    1.000,"PART-1-1",           694,       3.90000,           -5.,            0.,NA,NA,"",       3.03043,       2.61532,       1.53089,   65.5777E-03
C:/temp/dataset/3/24_7.odb,Step-1,Increment      1: Step Time =    1.000,"PART-1-1",           695,       5.25667,      -4.01677,            0.,NA,NA,"",       3.03348,       2.86360,       1.00089,   52.1608E-03
C:/temp/dataset/3/24_7.odb,Step-1,Increment      1: Step Time =    1.000,"PART-1-1",           696,       4.24316,      -3.18705,            0.,NA,NA,"",       3.41733,       3.15591,       1.31086,   24.6059E-03
C:/temp/dataset/3/24_7.odb,Step-1,Increment      1: Step Time =    1.000,"PART-1-1",           697,       9.51721,      -4.82762,            0.,NA,NA,"",       2.52594,       2.52504,  -67.1598E-03,   17.3836E-03
C:/temp/dataset/3/24_7.odb,Step-1,Increment      1: Step Time =    1.000,"PART-1-1",           698,       8.04384,      -4.93500,            0.,NA,NA,"",       2.54800,       2.53181,   286.855E-03,   19.6851E-03
C:/temp/dataset/3/24_7.odb,Step-1,Increment      1: Step Time =    1.000,"PART-1-1",           699,       8.61490,      -6.56470,            0.,NA,NA,"",       2.13421,       2.12667,   179.250E-03,   15.0741E-03
C:/temp/dataset/3/24_7.odb,Step-1,Increment      1: Step Time =    1.000,"PART-1-1",           700,       10.0883,      -6.45732,            0.,NA,NA,"",       2.12231,       2.11716,  -147.772E-03,   9.48395E-03
C:/temp/dataset/3/24_7.odb,Step-1,Increment      1: Step Time =    1.000,"PART-1-1",           701,       9.29828,      -8.00429,            0.,NA,NA,"",       1.79250,       1.79176,   51.6438E-03,   11.9037E-03
C:/temp/dataset/3/24_7.odb,Step-1,Increment      1: Step Time =    1.000,"PART-1-1",           702,       6.27674,      -21.4047,            0.,NA,NA,"",   170.487E-03,   65.8237E-03,   157.268E-03,   38.0028E-03
C:/temp/dataset/3/24_7.odb,Step-1,Increment      1: Step Time =    1.000,"PART-1-1",           703,       7.27122,      -20.3583,            0.,NA,NA,"",   178.335E-03,   97.9837E-03,   149.005E-03,   28.5914E-03
C:/temp/dataset/3/24_7.odb,Step-1,Increment      1: Step Time =    1.000,"PART-1-1",           704,         -6.25,          -20.,            0.,NA,NA,"",   34.6353E-03,   34.5460E-03,  -2.48567E-03,   120.416E-06
C:/temp/dataset/3/24_7.odb,Step-1,Increment      1: Step Time =    1.000,"PART-1-1",           705,         -1.25,          -30.,            0.,NA,NA,"",            0.,   7.82038E-39,   10.1974E-39,   9.44872E-03
C:/temp/dataset/3/24_7.odb,Step-1,Increment      1: Step Time =    1.000,"PART-1-1",           706,       8.60683,      -25.8105,            0.,NA,NA,"",   30.4419E-03,  -22.1374E-03,   20.8960E-03,   12.7152E-03
C:/temp/dataset/3/24_7.odb,Step-1,Increment      1: Step Time =    1.000,"PART-1-1",           707,       7.41490,      -26.9159,            0.,NA,NA,"",   30.2586E-03,  -16.1059E-03,   25.6161E-03,   14.9900E-03
C:/temp/dataset/3/24_7.odb,Step-1,Increment      1: Step Time =    1.000,"PART-1-1",           708,       6.17638,      -25.8614,            0.,NA,NA,"",   50.9198E-03,   808.395E-06,   50.9134E-03,   18.8573E-03
C:/temp/dataset/3/24_7.odb,Step-1,Increment      1: Step Time =    1.000,"PART-1-1",           709,       7.37219,      -25.0876,            0.,NA,NA,"",   51.5672E-03,  -6.68097E-03,   51.1326E-03,   19.6888E-03
C:/temp/dataset/3/24_7.odb,Step-1,Increment      1: Step Time =    1.000,"PART-1-1",           710,       6.30743,      -24.1068,            0.,NA,NA,"",   85.9911E-03,   16.7142E-03,   84.3511E-03,   23.8229E-03
C:/temp/dataset/3/24_7.odb,Step-1,Increment      1: Step Time =    1.000,"PART-1-1",           711,   113.079E-03,      -23.9373,            0.,NA,NA,"",   58.7746E-03,   50.2960E-03,   30.4099E-03,   11.4117E-03
C:/temp/dataset/3/24_7.odb,Step-1,Increment      1: Step Time =    1.000,"PART-1-1",           712,      -2.43554,      -23.8906,            0.,NA,NA,"",   43.6294E-03,   42.5131E-03,   9.80610E-03,   5.53403E-03
C:/temp/dataset/3/24_7.odb,Step-1,Increment      1: Step Time =    1.000,"PART-1-1",           713,      -8.72529,      -25.0755,            0.,NA,NA,"",   25.3533E-03,   25.3501E-03,  -402.541E-06,   2.62267E-03
C:/temp/dataset/3/24_7.odb,Step-1,Increment      1: Step Time =    1.000,"PART-1-1",           714,      -9.97606,      -23.8175,            0.,NA,NA,"",   27.8432E-03,   27.8422E-03,  -230.942E-06,   1.49540E-03
C:/temp/dataset/3/24_7.odb,Step-1,Increment      1: Step Time =    1.000,"PART-1-1",           715,      -9.99641,      -28.7682,            0.,NA,NA,"",   6.81412E-03,   6.79125E-03,   557.896E-06,   3.52499E-03
C:/temp/dataset/3/24_7.odb,Step-1,Increment      1: Step Time =    1.000,"PART-1-1",           716,      -11.2465,      -27.5281,            0.,NA,NA,"",   12.4699E-03,   12.4286E-03,   1.01326E-03,   3.05255E-03
C:/temp/dataset/3/24_7.odb,Step-1,Increment      1: Step Time =    1.000,"PART-1-1",           717,        -11.25,          -30.,            0.,NA,NA,"",            0.,   3.04211E-39,   1.99734E-39,   3.30812E-03
C:/temp/dataset/3/24_7.odb,Step-1,Increment      1: Step Time =    1.000,"PART-1-1",           718,         -8.75,          -30.,            0.,NA,NA,"",            0.,   3.95634E-39,   1.88530E-39,   4.30664E-03
C:/temp/dataset/3/24_7.odb,Step-1,Increment      1: Step Time =    1.000,"PART-1-1",           719,      -8.73783,      -27.5479,            0.,NA,NA,"",   14.4785E-03,   14.4690E-03,   525.105E-06,   3.78569E-03
C:/temp/dataset/3/24_7.odb,Step-1,Increment      1: Step Time =    1.000,"PART-1-1",           720,       9.45286,      -20.3748,            0.,NA,NA,"",   97.3064E-03,   94.7775E-03,   22.0400E-03,   10.7731E-03
C:/temp/dataset/3/24_7.odb,Step-1,Increment      1: Step Time =    1.000,"PART-1-1",           721,       8.38706,      -19.4374,            0.,NA,NA,"",   181.952E-03,   152.578E-03,   99.1293E-03,   17.0657E-03
C:/temp/dataset/3/24_7.odb,Step-1,Increment      1: Step Time =    1.000,"PART-1-1",           722,       8.33702,      -21.2957,            0.,NA,NA,"",   98.1255E-03,   56.0537E-03,   80.5394E-03,   18.5840E-03
C:/temp/dataset/3/24_7.odb,Step-1,Increment      1: Step Time =    1.000,"PART-1-1",           723,       9.34035,      -18.0986,            0.,NA,NA,"",   255.929E-03,   253.249E-03,   36.9390E-03,   9.16912E-03
C:/temp/dataset/3/24_7.odb,Step-1,Increment      1: Step Time =    1.000,"PART-1-1",           724,       10.7511,      -19.4747,            0.,NA,NA,"",   165.382E-03,   148.678E-03,  -72.4288E-03,   11.7055E-03
C:/temp/dataset/3/24_7.odb,Step-1,Increment      1: Step Time =    1.000,"PART-1-1",           725,       9.57777,      -9.07511,            0.,NA,NA,"",       1.56545,       1.56543,   8.41887E-03,   10.3678E-03
C:/temp/dataset/3/24_7.odb,Step-1,Increment      1: Step Time =    1.000,"PART-1-1",           726,       10.3854,      -7.79904,            0.,NA,NA,"",       1.82000,       1.81153,  -175.426E-03,   6.26192E-03
C:/temp/dataset/3/24_7.odb,Step-1,Increment      1: Step Time =    1.000,"PART-1-1",           727,       11.9371,      -7.89361,            0.,NA,NA,"",       1.83513,       1.76727,  -494.427E-03,   19.5612E-03
C:/temp/dataset/3/24_7.odb,Step-1,Increment      1: Step Time =    1.000,"PART-1-1",           728,       11.6400,      -6.55190,            0.,NA,NA,"",       2.12353,       2.06728,  -485.530E-03,   19.4275E-03
C:/temp/dataset/3/24_7.odb,Step-1,Increment      1: Step Time =    1.000,"PART-1-1",           729,       9.29748,       3.92298,            0.,NA,NA,"",       5.06520,       5.05365,  -341.810E-03,   16.1394E-03
C:/temp/dataset/3/24_7.odb,Step-1,Increment      1: Step Time =    1.000,"PART-1-1",           730,       10.7408,       1.93669,            0.,NA,NA,"",       4.45683,       4.40915,  -650.176E-03,   19.7214E-03
C:/temp/dataset/3/24_7.odb,Step-1,Increment      1: Step Time =    1.000,"PART-1-1",           731,       12.1175,       9.30164,            0.,NA,NA,"",       6.58360,       6.44941,      -1.32243,   398.195E-06
C:/temp/dataset/3/24_7.odb,Step-1,Increment      1: Step Time =    1.000,"PART-1-1",           732,       12.3743,       7.25826,            0.,NA,NA,"",       6.01400,       5.86897,      -1.31278,   1.66455E-03
C:/temp/dataset/3/24_7.odb,Step-1,Increment      1: Step Time =    1.000,"PART-1-1",           733,       9.86952,       23.8294,            0.,NA,NA,"",       10.6369,       10.5610,      -1.26900,   1.81345E-06
C:/temp/dataset/3/24_7.odb,Step-1,Increment      1: Step Time =    1.000,"PART-1-1",           734,       8.61965,       22.5851,            0.,NA,NA,"",       10.3024,       10.2652,  -874.195E-03,   2.71445E-06
C:/temp/dataset/3/24_7.odb,Step-1,Increment      1: Step Time =    1.000,"PART-1-1",           735,         11.25,           30.,            0.,NA,NA,"",       12.3616,       12.2158,      -1.89266,   1.33210E-06
C:/temp/dataset/3/24_7.odb,Step-1,Increment      1: Step Time =    1.000,"PART-1-1",           736,       9.97488,       28.7673,            0.,NA,NA,"",       12.0172,       11.9243,      -1.49131,   1.45331E-06
C:/temp/dataset/3/24_7.odb,Step-1,Increment      1: Step Time =    1.000,"PART-1-1",           737,          8.75,           30.,            0.,NA,NA,"",       12.3720,       12.3136,      -1.20031,   1.99912E-06
C:/temp/dataset/3/24_7.odb,Step-1,Increment      1: Step Time =    1.000,"PART-1-1",           738,       3.69885,       25.0915,            0.,NA,NA,"",       11.1587,       11.1518,   390.563E-03,   1.25958E-06
C:/temp/dataset/3/24_7.odb,Step-1,Increment      1: Step Time =    1.000,"PART-1-1",           739,       4.94207,       26.3392,            0.,NA,NA,"",       11.4487,       11.4487,  -2.54415E-03,   1.17211E-06
C:/temp/dataset/3/24_7.odb,Step-1,Increment      1: Step Time =    1.000,"PART-1-1",           740,         -6.25,           30.,            0.,NA,NA,"",       13.2342,       12.9003,       2.95384,   17.0836E-09
C:/temp/dataset/3/24_7.odb,Step-1,Increment      1: Step Time =    1.000,"PART-1-1",           741,      -11.2519,       25.0060,            0.,NA,NA,"",       12.5600,       11.7129,       4.53444,   3.67465E-09
C:/temp/dataset/3/24_7.odb,Step-1,Increment      1: Step Time =    1.000,"PART-1-1",           742,       11.7111,      -12.1867,            0.,NA,NA,"",       1.02313,   975.052E-03,  -309.952E-03,   15.8350E-03
C:/temp/dataset/3/24_7.odb,Step-1,Increment      1: Step Time =    1.000,"PART-1-1",           743,       12.0443,      -13.4388,            0.,NA,NA,"",   849.311E-03,   784.546E-03,  -325.294E-03,   20.8348E-03
C:/temp/dataset/3/24_7.odb,Step-1,Increment      1: Step Time =    1.000,"PART-1-1",           744,       9.07309,      -22.0228,            0.,NA,NA,"",   47.7028E-03,   29.9291E-03,   37.1458E-03,   15.3337E-03
C:/temp/dataset/3/24_7.odb,Step-1,Increment      1: Step Time =    1.000,"PART-1-1",           745,       9.10959,      -23.2638,            0.,NA,NA,"",   27.0650E-03,   1.50788E-03,   27.0229E-03,   15.9484E-03
C:/temp/dataset/3/24_7.odb,Step-1,Increment      1: Step Time =    1.000,"PART-1-1",           746,       10.5828,      -23.1781,            0.,NA,NA,"",   32.8970E-03,   882.366E-06,  -32.8852E-03,   15.4872E-03
C:/temp/dataset/3/24_7.odb,Step-1,Increment      1: Step Time =    1.000,"PART-1-1",           747,       10.5463,      -21.9372,            0.,NA,NA,"",   50.2193E-03,   32.3534E-03,  -38.4088E-03,   15.0851E-03
C:/temp/dataset/3/24_7.odb,Step-1,Increment      1: Step Time =    1.000,"PART-1-1",           748,      -1.00841,      -2.00181,            0.,NA,NA,"",       4.86051,       3.77459,       3.06219,   15.6130E-03
C:/temp/dataset/3/24_7.odb,Step-1,Increment      1: Step Time =    1.000,"PART-1-1",           749,      -3.17395,      -1.50818,            0.,NA,NA,"",       5.57072,       4.06563,       3.80835,   12.8366E-03
C:/temp/dataset/3/24_7.odb,Step-1,Increment      1: Step Time =    1.000,"PART-1-1",           750,       8.23699,       8.20647,            0.,NA,NA,"",       6.30387,       6.30055,  -204.412E-03,   1.85914E-03
C:/temp/dataset/3/24_7.odb,Step-1,Increment      1: Step Time =    1.000,"PART-1-1",           751,       8.58975,       6.06422,            0.,NA,NA,"",       5.69858,       5.69421,  -223.303E-03,   8.25380E-03
C:/temp/dataset/3/24_7.odb,Step-1,Increment      1: Step Time =    1.000,"PART-1-1",           752,       1.04870,      -2.29850,            0.,NA,NA,"",       4.28262,       3.57451,       2.35875,   19.8578E-03
C:/temp/dataset/3/24_7.odb,Step-1,Increment      1: Step Time =    1.000,"PART-1-1",           753,      -1.88356,       2.26041,            0.,NA,NA,"",       6.12103,       5.26446,       3.12288,   15.8831E-03
C:/temp/dataset/3/24_7.odb,Step-1,Increment      1: Step Time =    1.000,"PART-1-1",           754,      -2.91638,       1.44829,            0.,NA,NA,"",       6.17446,       5.06257,       3.53473,   13.7451E-03
C:/temp/dataset/3/24_7.odb,Step-1,Increment      1: Step Time =    1.000,"PART-1-1",           755,       3.03453,      -2.52132,            0.,NA,NA,"",       3.81087,       3.41465,       1.69200,   25.1914E-03
C:/temp/dataset/3/24_7.odb,Step-1,Increment      1: Step Time =    1.000,"PART-1-1",           756,       6.99799,      -3.46075,            0.,NA,NA,"",       3.00234,       2.95812,   513.411E-03,   25.4187E-03
C:/temp/dataset/3/24_7.odb,Step-1,Increment      1: Step Time =    1.000,"PART-1-1",           757,       7.63560,  -984.386E-03,            0.,NA,NA,"",       3.67551,       3.66545,   271.720E-03,   26.3345E-03
C:/temp/dataset/3/24_7.odb,Step-1,Increment      1: Step Time =    1.000,"PART-1-1",           758,       6.14771,      -1.67534,            0.,NA,NA,"",       3.59047,       3.52244,   695.633E-03,   22.5419E-03
C:/temp/dataset/3/24_7.odb,Step-1,Increment      1: Step Time =    1.000,"PART-1-1",           759,       4.94795,      -26.8240,            0.,NA,NA,"",   39.2093E-03,   7.24419E-03,   38.5343E-03,   18.9773E-03
C:/temp/dataset/3/24_7.odb,Step-1,Increment      1: Step Time =    1.000,"PART-1-1",           760,      -11.2341,      -25.0541,            0.,NA,NA,"",   23.0885E-03,   23.0527E-03,   1.28427E-03,   1.74042E-03
C:/temp/dataset/3/24_7.odb,Step-1,Increment      1: Step Time =    1.000,"PART-1-1",           761,      -9.98574,      -26.3021,            0.,NA,NA,"",   19.0801E-03,   19.0746E-03,   456.577E-06,   2.78034E-03
C:/temp/dataset/3/24_7.odb,Step-1,Increment      1: Step Time =    1.000,"PART-1-1",           762,           15.,        -26.25,            0.,NA,NA,"",   89.4163E-03,   9.40088E-03,  -88.9207E-03,   34.6016E-03
C:/temp/dataset/3/24_7.odb,Step-1,Increment      1: Step Time =    1.000,"PART-1-1",           763,       9.63478,      -24.7731,            0.,NA,NA,"",   20.7495E-03,  -20.5758E-03,   2.67922E-03,   13.7648E-03
C:/temp/dataset/3/24_7.odb,Step-1,Increment      1: Step Time =    1.000,"PART-1-1",           764,       9.83383,   250.169E-03,            0.,NA,NA,"",       3.96091,       3.94597,  -343.686E-03,   25.8340E-03
C:/temp/dataset/3/24_7.odb,Step-1,Increment      1: Step Time =    1.000,"PART-1-1",           765,       11.1222,       22.5628,            0.,NA,NA,"",       10.2812,       10.1612,      -1.56637,   2.25101E-06
C:/temp/dataset/3/24_7.odb,Step-1,Increment      1: Step Time =    1.000,"PART-1-1",           766,       9.84566,       21.3197,            0.,NA,NA,"",       9.93530,       9.86686,      -1.16423,   10.2351E-06
C:/temp/dataset/3/24_7.odb,Step-1,Increment      1: Step Time =    1.000,"PART-1-1",           767,      -3.18112,  -190.353E-03,            0.,NA,NA,"",       5.85781,       4.51861,       3.72775,   12.4947E-03
C:/temp/dataset/3/24_7.odb,Step-1,Increment      1: Step Time =    1.000,"PART-1-1",           768,       4.54417,       1.21940,            0.,NA,NA,"",       4.61831,       4.49520,       1.05923,   13.8298E-03
C:/temp/dataset/3/24_7.odb,Step-1,Increment      1: Step Time =    1.000,"PART-1-1",           769,       9.22107,       9.51460,            0.,NA,NA,"",       6.64383,       6.62286,  -527.431E-03,   833.624E-06
C:/temp/dataset/3/24_7.odb,Step-1,Increment      1: Step Time =    1.000,"PART-1-1",           770,       11.1709,      -3.71800,            0.,NA,NA,"",       2.82339,       2.77837,  -502.207E-03,   23.2012E-03
C:/temp/dataset/3/24_7.odb,Step-1,Increment      1: Step Time =    1.000,"PART-1-1",           771,       11.0221,      -5.16095,            0.,NA,NA,"",       2.44353,       2.40995,  -403.714E-03,   18.6195E-03
C:/temp/dataset/3/24_7.odb,Step-1,Increment      1: Step Time =    1.000,"PART-1-1",           772,       12.3085,      -4.70099,            0.,NA,NA,"",       2.60502,       2.50188,  -725.734E-03,   25.8275E-03
C:/temp/dataset/3/24_7.odb,Step-1,Increment      1: Step Time =    1.000,"PART-1-1",           773,       5.03877,      -2.41022,            0.,NA,NA,"",       3.50965,       3.35267,       1.03790,   23.3406E-03
C:/temp/dataset/3/24_7.odb,Step-1,Increment      1: Step Time =    1.000,"PART-1-1",           774,       11.0080,       9.74440,            0.,NA,NA,"",       6.69624,       6.61629,      -1.03167,   429.001E-06
C:/temp/dataset/3/24_7.odb,Step-1,Increment      1: Step Time =    1.000,"PART-1-1",           775,       7.33953,      -23.4839,            0.,NA,NA,"",   81.1131E-03,   12.5592E-03,   80.1349E-03,   23.8723E-03
C:/temp/dataset/3/24_7.odb,Step-1,Increment      1: Step Time =    1.000,"PART-1-1",           776,       6.60048,      -22.7490,            0.,NA,NA,"",   117.707E-03,   34.7856E-03,   112.449E-03,   29.2955E-03
C:/temp/dataset/3/24_7.odb,Step-1,Increment      1: Step Time =    1.000,"PART-1-1",           777,       5.56839,      -23.3719,            0.,NA,NA,"",   112.168E-03,   36.3215E-03,   106.125E-03,   30.3965E-03
C:/temp/dataset/3/24_7.odb,Step-1,Increment      1: Step Time =    1.000,"PART-1-1",           778,       5.56431,      -22.1833,            0.,NA,NA,"",   150.295E-03,   58.6819E-03,   138.365E-03,   36.4455E-03
C:/temp/dataset/3/24_7.odb,Step-1,Increment      1: Step Time =    1.000,"PART-1-1",           779,       7.31291,      -21.9704,            0.,NA,NA,"",   120.807E-03,   42.0374E-03,   113.257E-03,   27.0326E-03
C:/temp/dataset/3/24_7.odb,Step-1,Increment      1: Step Time =    1.000,"PART-1-1",           780,       8.04898,      -22.6975,            0.,NA,NA,"",   75.5749E-03,   18.7869E-03,   73.2026E-03,   20.4294E-03
C:/temp/dataset/3/24_7.odb,Step-1,Increment      1: Step Time =    1.000,"PART-1-1",           781,       5.89213,  -472.373E-03,            0.,NA,NA,"",       3.96867,       3.90108,   729.326E-03,   19.0622E-03
C:/temp/dataset/3/24_7.odb,Step-1,Increment      1: Step Time =    1.000,"PART-1-1",           782,       8.40014,      -24.0502,            0.,NA,NA,"",   43.6929E-03,  -6.02441E-03,   43.2756E-03,   16.4419E-03
