ODB Name,Step,Frame,Part Instance Name,    êﬂì_ÉâÉxÉã,X,Y,Z,Section Name,Material Name,Section Point,   U-Magnitude,          U-U1,          U-U2,       S-Mises
C:/temp/dataset/3/25_8.odb,Step-1,Increment      1: Step Time =    1.000,"PART-1-1",             1,          -15.,           20.,            0.,NA,NA,"",       9.31747,       8.00068,       4.77540,   1.14029E-09
C:/temp/dataset/3/25_8.odb,Step-1,Increment      1: Step Time =    1.000,"PART-1-1",             2,          -15.,           25.,            0.,NA,NA,"",       10.2096,       9.08604,       4.65618,   1.41586E-09
C:/temp/dataset/3/25_8.odb,Step-1,Increment      1: Step Time =    1.000,"PART-1-1",             3,           -5.,           20.,            0.,NA,NA,"",       8.18759,       7.76223,       2.60468,   19.1570E-09
C:/temp/dataset/3/25_8.odb,Step-1,Increment      1: Step Time =    1.000,"PART-1-1",             4,            5.,           20.,            0.,NA,NA,"",       7.53629,       7.52378,   433.964E-03,   5.12698E-06
C:/temp/dataset/3/25_8.odb,Step-1,Increment      1: Step Time =    1.000,"PART-1-1",             5,            5.,          12.5,            0.,NA,NA,"",       5.92709,       5.89539,   612.232E-03,   376.836E-06
C:/temp/dataset/3/25_8.odb,Step-1,Increment      1: Step Time =    1.000,"PART-1-1",             6,            5.,            5.,            0.,NA,NA,"",       4.38052,       4.31108,   776.835E-03,   25.4996E-03
C:/temp/dataset/3/25_8.odb,Step-1,Increment      1: Step Time =    1.000,"PART-1-1",             7,      -1.70000,            5.,            0.,NA,NA,"",       5.26764,       4.66595,       2.44477,   10.8234E-03
C:/temp/dataset/3/25_8.odb,Step-1,Increment      1: Step Time =    1.000,"PART-1-1",             8,      -8.40000,            5.,            0.,NA,NA,"",       6.48356,       4.92521,       4.21650,   484.414E-06
C:/temp/dataset/3/25_8.odb,Step-1,Increment      1: Step Time =    1.000,"PART-1-1",             9,          -15.,            5.,            0.,NA,NA,"",       7.86651,       5.15288,       5.94389,   30.4930E-06
C:/temp/dataset/3/25_8.odb,Step-1,Increment      1: Step Time =    1.000,"PART-1-1",            10,          -15.,            0.,            0.,NA,NA,"",       7.22536,       3.84659,       6.11633,   544.044E-06
C:/temp/dataset/3/25_8.odb,Step-1,Increment      1: Step Time =    1.000,"PART-1-1",            11,          -15.,           -5.,            0.,NA,NA,"",       6.78283,       2.54503,       6.28726,   32.4928E-06
C:/temp/dataset/3/25_8.odb,Step-1,Increment      1: Step Time =    1.000,"PART-1-1",            12,      -8.30000,           -5.,            0.,NA,NA,"",       5.11147,       2.32277,       4.55322,   4.09816E-03
C:/temp/dataset/3/25_8.odb,Step-1,Increment      1: Step Time =    1.000,"PART-1-1",            13,      -1.60000,           -5.,            0.,NA,NA,"",       3.47767,       2.10159,       2.77083,   12.0963E-03
C:/temp/dataset/3/25_8.odb,Step-1,Increment      1: Step Time =    1.000,"PART-1-1",            14,            5.,           -5.,            0.,NA,NA,"",       2.19526,       1.99068,   925.378E-03,   78.4399E-03
C:/temp/dataset/3/25_8.odb,Step-1,Increment      1: Step Time =    1.000,"PART-1-1",            15,            5.,         -12.5,            0.,NA,NA,"",       1.02312,   834.903E-03,   591.362E-03,   57.9213E-03
C:/temp/dataset/3/25_8.odb,Step-1,Increment      1: Step Time =    1.000,"PART-1-1",            16,            5.,          -20.,            0.,NA,NA,"",   198.146E-03,   83.0465E-03,   179.903E-03,   80.0717E-03
C:/temp/dataset/3/25_8.odb,Step-1,Increment      1: Step Time =    1.000,"PART-1-1",            17,           -5.,          -20.,            0.,NA,NA,"",   26.3942E-03,   26.3727E-03,  -1.06529E-03,   166.269E-06
C:/temp/dataset/3/25_8.odb,Step-1,Increment      1: Step Time =    1.000,"PART-1-1",            18,          -15.,          -20.,            0.,NA,NA,"",   28.2405E-03,   27.4207E-03,   6.75486E-03,   18.3977E-06
C:/temp/dataset/3/25_8.odb,Step-1,Increment      1: Step Time =    1.000,"PART-1-1",            19,          -15.,          -25.,            0.,NA,NA,"",   19.0515E-03,   17.6506E-03,   7.17053E-03,   88.3600E-06
C:/temp/dataset/3/25_8.odb,Step-1,Increment      1: Step Time =    1.000,"PART-1-1",            20,          -15.,          -30.,            0.,NA,NA,"",            0.,   1.55737E-39,   2.47794E-39,   4.75652E-03
C:/temp/dataset/3/25_8.odb,Step-1,Increment      1: Step Time =    1.000,"PART-1-1",            21,           15.,          -30.,            0.,NA,NA,"",            0.,   3.64537E-39,  -7.64598E-39,   14.4063E-03
C:/temp/dataset/3/25_8.odb,Step-1,Increment      1: Step Time =    1.000,"PART-1-1",            22,           15.,         -22.5,            0.,NA,NA,"",   174.428E-03,   47.0325E-03,  -167.968E-03,   37.1265E-03
C:/temp/dataset/3/25_8.odb,Step-1,Increment      1: Step Time =    1.000,"PART-1-1",            23,           15.,          -15.,            0.,NA,NA,"",   675.688E-03,   470.171E-03,  -485.277E-03,   47.8306E-03
C:/temp/dataset/3/25_8.odb,Step-1,Increment      1: Step Time =    1.000,"PART-1-1",            24,           15.,          -7.5,            0.,NA,NA,"",       1.67365,       1.43461,  -861.979E-03,   43.0486E-03
C:/temp/dataset/3/25_8.odb,Step-1,Increment      1: Step Time =    1.000,"PART-1-1",            25,           15.,            0.,            0.,NA,NA,"",       3.15208,       2.90409,      -1.22552,   15.7750E-03
C:/temp/dataset/3/25_8.odb,Step-1,Increment      1: Step Time =    1.000,"PART-1-1",            26,           15.,           7.5,            0.,NA,NA,"",       4.78936,       4.56721,      -1.44172,   996.994E-06
C:/temp/dataset/3/25_8.odb,Step-1,Increment      1: Step Time =    1.000,"PART-1-1",            27,           15.,           15.,            0.,NA,NA,"",       6.40776,       6.20020,      -1.61769,   115.146E-06
C:/temp/dataset/3/25_8.odb,Step-1,Increment      1: Step Time =    1.000,"PART-1-1",            28,           15.,          22.5,            0.,NA,NA,"",       8.03151,       7.82805,      -1.79635,   3.90735E-06
C:/temp/dataset/3/25_8.odb,Step-1,Increment      1: Step Time =    1.000,"PART-1-1",            29,           15.,           30.,            0.,NA,NA,"",       9.66014,       9.45606,      -1.97518,   110.456E-09
C:/temp/dataset/3/25_8.odb,Step-1,Increment      1: Step Time =    1.000,"PART-1-1",            30,           7.5,           30.,            0.,NA,NA,"",       9.64114,       9.63489,  -347.163E-03,   1.42044E-06
C:/temp/dataset/3/25_8.odb,Step-1,Increment      1: Step Time =    1.000,"PART-1-1",            31,            0.,           30.,            0.,NA,NA,"",       9.89697,       9.81373,       1.28088,   72.3893E-09
C:/temp/dataset/3/25_8.odb,Step-1,Increment      1: Step Time =    1.000,"PART-1-1",            32,          -7.5,           30.,            0.,NA,NA,"",       10.4074,       9.99256,       2.90892,   7.58260E-09
C:/temp/dataset/3/25_8.odb,Step-1,Increment      1: Step Time =    1.000,"PART-1-1",            33,          -15.,           30.,            0.,NA,NA,"",       11.1374,       10.1714,       4.53696,   1.20047E-09
C:/temp/dataset/3/25_8.odb,Step-1,Increment      1: Step Time =    1.000,"PART-1-1",            34,          -15.,          22.5,            0.,NA,NA,"",       9.75846,       8.54336,       4.71579,   1.03258E-09
C:/temp/dataset/3/25_8.odb,Step-1,Increment      1: Step Time =    1.000,"PART-1-1",            35,          -7.5,           20.,            0.,NA,NA,"",       8.43132,       7.82184,       3.14736,   8.02040E-09
C:/temp/dataset/3/25_8.odb,Step-1,Increment      1: Step Time =    1.000,"PART-1-1",            36,          -10.,           20.,            0.,NA,NA,"",       8.70251,       7.88145,       3.69004,   3.20988E-09
C:/temp/dataset/3/25_8.odb,Step-1,Increment      1: Step Time =    1.000,"PART-1-1",            37,         -12.5,           20.,            0.,NA,NA,"",       8.99869,       7.94106,       4.23272,   1.28001E-09
C:/temp/dataset/3/25_8.odb,Step-1,Increment      1: Step Time =    1.000,"PART-1-1",            38,           2.5,           20.,            0.,NA,NA,"",       7.64603,       7.58340,   976.641E-03,   724.800E-09
C:/temp/dataset/3/25_8.odb,Step-1,Increment      1: Step Time =    1.000,"PART-1-1",            39,            0.,           20.,            0.,NA,NA,"",       7.79256,       7.64301,       1.51932,   151.547E-09
C:/temp/dataset/3/25_8.odb,Step-1,Increment      1: Step Time =    1.000,"PART-1-1",            40,          -2.5,           20.,            0.,NA,NA,"",       7.97385,       7.70262,       2.06200,   27.3527E-09
C:/temp/dataset/3/25_8.odb,Step-1,Increment      1: Step Time =    1.000,"PART-1-1",            41,            5.,           15.,            0.,NA,NA,"",       6.46195,       6.43824,   553.079E-03,   133.070E-06
C:/temp/dataset/3/25_8.odb,Step-1,Increment      1: Step Time =    1.000,"PART-1-1",            42,            5.,          17.5,            0.,NA,NA,"",       6.99847,       6.98104,   493.580E-03,   17.3427E-06
C:/temp/dataset/3/25_8.odb,Step-1,Increment      1: Step Time =    1.000,"PART-1-1",            43,            5.,           7.5,            0.,NA,NA,"",       4.87018,       4.81595,   724.758E-03,   5.12060E-03
C:/temp/dataset/3/25_8.odb,Step-1,Increment      1: Step Time =    1.000,"PART-1-1",            44,            5.,           10.,            0.,NA,NA,"",       5.39531,       5.35355,   670.002E-03,   1.51992E-03
C:/temp/dataset/3/25_8.odb,Step-1,Increment      1: Step Time =    1.000,"PART-1-1",            45,   533.333E-03,            5.,            0.,NA,NA,"",       4.92598,       4.55923,       1.86512,   17.8934E-03
C:/temp/dataset/3/25_8.odb,Step-1,Increment      1: Step Time =    1.000,"PART-1-1",            46,       2.76667,            5.,            0.,NA,NA,"",       4.63121,       4.44346,       1.30525,   27.2588E-03
C:/temp/dataset/3/25_8.odb,Step-1,Increment      1: Step Time =    1.000,"PART-1-1",            47,      -6.16667,            5.,            0.,NA,NA,"",       6.05291,       4.84597,       3.62688,   996.255E-06
C:/temp/dataset/3/25_8.odb,Step-1,Increment      1: Step Time =    1.000,"PART-1-1",            48,      -3.93333,            5.,            0.,NA,NA,"",       5.64578,       4.76078,       3.03478,   4.62757E-03
C:/temp/dataset/3/25_8.odb,Step-1,Increment      1: Step Time =    1.000,"PART-1-1",            49,      -12.8000,            5.,            0.,NA,NA,"",       7.38921,       5.07662,       5.36920,   219.274E-06
C:/temp/dataset/3/25_8.odb,Step-1,Increment      1: Step Time =    1.000,"PART-1-1",            50,      -10.6000,            5.,            0.,NA,NA,"",       6.92760,       5.00096,       4.79396,   583.224E-06
C:/temp/dataset/3/25_8.odb,Step-1,Increment      1: Step Time =    1.000,"PART-1-1",            51,          -15.,           2.5,            0.,NA,NA,"",       7.52422,       4.49955,       6.03058,   269.619E-06
C:/temp/dataset/3/25_8.odb,Step-1,Increment      1: Step Time =    1.000,"PART-1-1",            52,          -15.,          -2.5,            0.,NA,NA,"",       6.97625,       3.19527,       6.20147,   341.758E-06
C:/temp/dataset/3/25_8.odb,Step-1,Increment      1: Step Time =    1.000,"PART-1-1",            53,      -10.5333,           -5.,            0.,NA,NA,"",       5.65657,       2.39291,       5.12550,   1.56864E-03
C:/temp/dataset/3/25_8.odb,Step-1,Increment      1: Step Time =    1.000,"PART-1-1",            54,      -12.7667,           -5.,            0.,NA,NA,"",       6.21712,       2.46838,       5.70611,   399.739E-06
C:/temp/dataset/3/25_8.odb,Step-1,Increment      1: Step Time =    1.000,"PART-1-1",            55,      -3.83333,           -5.,            0.,NA,NA,"",       4.02065,       2.17351,       3.38253,   9.40295E-03
C:/temp/dataset/3/25_8.odb,Step-1,Increment      1: Step Time =    1.000,"PART-1-1",            56,      -6.06667,           -5.,            0.,NA,NA,"",       4.56869,       2.24748,       3.97766,   7.96858E-03
C:/temp/dataset/3/25_8.odb,Step-1,Increment      1: Step Time =    1.000,"PART-1-1",            57,       2.80000,           -5.,            0.,NA,NA,"",       2.54160,       2.00096,       1.56713,   33.3433E-03
C:/temp/dataset/3/25_8.odb,Step-1,Increment      1: Step Time =    1.000,"PART-1-1",            58,   600.000E-03,           -5.,            0.,NA,NA,"",       2.97980,       2.04754,       2.16490,   16.5888E-03
C:/temp/dataset/3/25_8.odb,Step-1,Increment      1: Step Time =    1.000,"PART-1-1",            59,            5.,          -10.,            0.,NA,NA,"",       1.37185,       1.18209,   696.157E-03,   55.2090E-03
C:/temp/dataset/3/25_8.odb,Step-1,Increment      1: Step Time =    1.000,"PART-1-1",            60,            5.,          -7.5,            0.,NA,NA,"",       1.76266,       1.57686,   787.707E-03,   57.8252E-03
C:/temp/dataset/3/25_8.odb,Step-1,Increment      1: Step Time =    1.000,"PART-1-1",            61,            5.,         -17.5,            0.,NA,NA,"",   467.436E-03,   301.301E-03,   357.371E-03,   64.0234E-03
C:/temp/dataset/3/25_8.odb,Step-1,Increment      1: Step Time =    1.000,"PART-1-1",            62,            5.,          -15.,            0.,NA,NA,"",   722.697E-03,   542.753E-03,   477.190E-03,   57.2671E-03
C:/temp/dataset/3/25_8.odb,Step-1,Increment      1: Step Time =    1.000,"PART-1-1",            63,          -2.5,          -20.,            0.,NA,NA,"",   26.7551E-03,   26.3025E-03,   4.90058E-03,   821.850E-06
C:/temp/dataset/3/25_8.odb,Step-1,Increment      1: Step Time =    1.000,"PART-1-1",            64,            0.,          -20.,            0.,NA,NA,"",   34.6485E-03,   27.3231E-03,   21.3064E-03,   2.48152E-03
C:/temp/dataset/3/25_8.odb,Step-1,Increment      1: Step Time =    1.000,"PART-1-1",            65,           2.5,          -20.,            0.,NA,NA,"",   67.4175E-03,   30.6936E-03,   60.0252E-03,   19.6897E-03
C:/temp/dataset/3/25_8.odb,Step-1,Increment      1: Step Time =    1.000,"PART-1-1",            66,         -12.5,          -20.,            0.,NA,NA,"",   27.3927E-03,   27.2748E-03,   2.53820E-03,   145.462E-06
C:/temp/dataset/3/25_8.odb,Step-1,Increment      1: Step Time =    1.000,"PART-1-1",            67,          -10.,          -20.,            0.,NA,NA,"",   26.8819E-03,   26.8709E-03,  -767.260E-06,   165.129E-06
C:/temp/dataset/3/25_8.odb,Step-1,Increment      1: Step Time =    1.000,"PART-1-1",            68,          -7.5,          -20.,            0.,NA,NA,"",   26.6786E-03,   26.5782E-03,  -2.31304E-03,   114.258E-06
C:/temp/dataset/3/25_8.odb,Step-1,Increment      1: Step Time =    1.000,"PART-1-1",            69,          -15.,         -22.5,            0.,NA,NA,"",   24.1386E-03,   23.1306E-03,   6.90261E-03,   136.002E-06
C:/temp/dataset/3/25_8.odb,Step-1,Increment      1: Step Time =    1.000,"PART-1-1",            70,          -15.,         -27.5,            0.,NA,NA,"",   11.7802E-03,   9.97638E-03,   6.26465E-03,   1.46452E-03
C:/temp/dataset/3/25_8.odb,Step-1,Increment      1: Step Time =    1.000,"PART-1-1",            71,          12.5,          -30.,            0.,NA,NA,"",            0.,  -2.00633E-39,  -23.0807E-39,   12.2883E-03
C:/temp/dataset/3/25_8.odb,Step-1,Increment      1: Step Time =    1.000,"PART-1-1",            72,           10.,          -30.,            0.,NA,NA,"",            0.,  -18.9015E-39,  -15.3037E-39,   10.0821E-03
C:/temp/dataset/3/25_8.odb,Step-1,Increment      1: Step Time =    1.000,"PART-1-1",            73,           7.5,          -30.,            0.,NA,NA,"",            0.,  -6.87813E-39,   12.4743E-39,   8.49176E-03
C:/temp/dataset/3/25_8.odb,Step-1,Increment      1: Step Time =    1.000,"PART-1-1",            74,            5.,          -30.,            0.,NA,NA,"",            0.,  -8.47191E-39,   29.1278E-39,   8.59495E-03
C:/temp/dataset/3/25_8.odb,Step-1,Increment      1: Step Time =    1.000,"PART-1-1",            75,           2.5,          -30.,            0.,NA,NA,"",            0.,   151.848E-42,   21.7047E-39,   9.13219E-03
C:/temp/dataset/3/25_8.odb,Step-1,Increment      1: Step Time =    1.000,"PART-1-1",            76,            0.,          -30.,            0.,NA,NA,"",            0.,   5.13618E-39,   11.3466E-39,   8.49992E-03
C:/temp/dataset/3/25_8.odb,Step-1,Increment      1: Step Time =    1.000,"PART-1-1",            77,          -2.5,          -30.,            0.,NA,NA,"",            0.,   14.1428E-39,   17.4206E-39,   6.88092E-03
C:/temp/dataset/3/25_8.odb,Step-1,Increment      1: Step Time =    1.000,"PART-1-1",            78,           -5.,          -30.,            0.,NA,NA,"",            0.,   6.20328E-39,  -164.612E-42,   5.20506E-03
C:/temp/dataset/3/25_8.odb,Step-1,Increment      1: Step Time =    1.000,"PART-1-1",            79,          -7.5,          -30.,            0.,NA,NA,"",            0.,   5.05222E-39,  -1.46659E-39,   3.83692E-03
C:/temp/dataset/3/25_8.odb,Step-1,Increment      1: Step Time =    1.000,"PART-1-1",            80,          -10.,          -30.,            0.,NA,NA,"",            0.,   5.59519E-39,   5.51477E-39,   2.90173E-03
C:/temp/dataset/3/25_8.odb,Step-1,Increment      1: Step Time =    1.000,"PART-1-1",            81,         -12.5,          -30.,            0.,NA,NA,"",            0.,   5.03844E-39,   4.99927E-39,   2.09654E-03
C:/temp/dataset/3/25_8.odb,Step-1,Increment      1: Step Time =    1.000,"PART-1-1",            82,           15.,          -25.,            0.,NA,NA,"",   93.4022E-03,   9.26159E-03,  -92.9419E-03,   29.0655E-03
C:/temp/dataset/3/25_8.odb,Step-1,Increment      1: Step Time =    1.000,"PART-1-1",            83,           15.,         -27.5,            0.,NA,NA,"",   36.6942E-03,   1.57048E-03,  -36.6606E-03,   21.7280E-03
C:/temp/dataset/3/25_8.odb,Step-1,Increment      1: Step Time =    1.000,"PART-1-1",            84,           15.,         -17.5,            0.,NA,NA,"",   456.688E-03,   268.462E-03,  -369.448E-03,   47.4496E-03
C:/temp/dataset/3/25_8.odb,Step-1,Increment      1: Step Time =    1.000,"PART-1-1",            85,           15.,          -20.,            0.,NA,NA,"",   291.403E-03,   129.199E-03,  -261.196E-03,   43.7610E-03
C:/temp/dataset/3/25_8.odb,Step-1,Increment      1: Step Time =    1.000,"PART-1-1",            86,           15.,          -10.,            0.,NA,NA,"",       1.28287,       1.05398,  -731.347E-03,   45.7338E-03
C:/temp/dataset/3/25_8.odb,Step-1,Increment      1: Step Time =    1.000,"PART-1-1",            87,           15.,         -12.5,            0.,NA,NA,"",   950.753E-03,   732.657E-03,  -605.925E-03,   46.8334E-03
C:/temp/dataset/3/25_8.odb,Step-1,Increment      1: Step Time =    1.000,"PART-1-1",            88,           15.,          -2.5,            0.,NA,NA,"",       2.62024,       2.36958,      -1.11836,   27.3182E-03
C:/temp/dataset/3/25_8.odb,Step-1,Increment      1: Step Time =    1.000,"PART-1-1",            89,           15.,           -5.,            0.,NA,NA,"",       2.12206,       1.87479,  -994.141E-03,   37.2553E-03
C:/temp/dataset/3/25_8.odb,Step-1,Increment      1: Step Time =    1.000,"PART-1-1",            90,           15.,            5.,            0.,NA,NA,"",       4.24609,       4.01525,      -1.38093,   560.337E-06
C:/temp/dataset/3/25_8.odb,Step-1,Increment      1: Step Time =    1.000,"PART-1-1",            91,           15.,           2.5,            0.,NA,NA,"",       3.69826,       3.45804,      -1.31113,   6.51469E-03
C:/temp/dataset/3/25_8.odb,Step-1,Increment      1: Step Time =    1.000,"PART-1-1",            92,           15.,          12.5,            0.,NA,NA,"",       5.86819,       5.65744,      -1.55857,   367.414E-06
C:/temp/dataset/3/25_8.odb,Step-1,Increment      1: Step Time =    1.000,"PART-1-1",            93,           15.,           10.,            0.,NA,NA,"",       5.32920,       5.11374,      -1.50000,   818.810E-06
C:/temp/dataset/3/25_8.odb,Step-1,Increment      1: Step Time =    1.000,"PART-1-1",            94,           15.,           20.,            0.,NA,NA,"",       7.48955,       7.28540,      -1.73673,   2.16417E-06
C:/temp/dataset/3/25_8.odb,Step-1,Increment      1: Step Time =    1.000,"PART-1-1",            95,           15.,          17.5,            0.,NA,NA,"",       6.94824,       6.74279,      -1.67715,   21.1934E-06
C:/temp/dataset/3/25_8.odb,Step-1,Increment      1: Step Time =    1.000,"PART-1-1",            96,           15.,          27.5,            0.,NA,NA,"",       9.11690,       8.91339,      -1.91557,   529.695E-09
C:/temp/dataset/3/25_8.odb,Step-1,Increment      1: Step Time =    1.000,"PART-1-1",            97,           15.,           25.,            0.,NA,NA,"",       8.57400,       8.37071,      -1.85596,   2.13517E-06
C:/temp/dataset/3/25_8.odb,Step-1,Increment      1: Step Time =    1.000,"PART-1-1",            98,           10.,           30.,            0.,NA,NA,"",       9.61654,       9.57528,  -889.838E-03,   1.32280E-06
C:/temp/dataset/3/25_8.odb,Step-1,Increment      1: Step Time =    1.000,"PART-1-1",            99,          12.5,           30.,            0.,NA,NA,"",       9.62289,       9.51567,      -1.43251,   475.051E-09
C:/temp/dataset/3/25_8.odb,Step-1,Increment      1: Step Time =    1.000,"PART-1-1",           100,           2.5,           30.,            0.,NA,NA,"",       9.78201,       9.75412,   738.195E-03,   349.683E-09
C:/temp/dataset/3/25_8.odb,Step-1,Increment      1: Step Time =    1.000,"PART-1-1",           101,            5.,           30.,            0.,NA,NA,"",       9.69648,       9.69451,   195.515E-03,   908.664E-09
C:/temp/dataset/3/25_8.odb,Step-1,Increment      1: Step Time =    1.000,"PART-1-1",           102,           -5.,           30.,            0.,NA,NA,"",       10.2109,       9.93295,       2.36624,   14.7970E-09
C:/temp/dataset/3/25_8.odb,Step-1,Increment      1: Step Time =    1.000,"PART-1-1",           103,          -2.5,           30.,            0.,NA,NA,"",       10.0403,       9.87334,       1.82356,   13.6759E-09
C:/temp/dataset/3/25_8.odb,Step-1,Increment      1: Step Time =    1.000,"PART-1-1",           104,         -12.5,           30.,            0.,NA,NA,"",       10.8721,       10.1118,       3.99428,   1.05957E-09
C:/temp/dataset/3/25_8.odb,Step-1,Increment      1: Step Time =    1.000,"PART-1-1",           105,          -10.,           30.,            0.,NA,NA,"",       10.6283,       10.0522,       3.45160,   2.75502E-09
C:/temp/dataset/3/25_8.odb,Step-1,Increment      1: Step Time =    1.000,"PART-1-1",           106,          -15.,          27.5,            0.,NA,NA,"",       10.6696,       9.62872,       4.59657,   1.18752E-09
C:/temp/dataset/3/25_8.odb,Step-1,Increment      1: Step Time =    1.000,"PART-1-1",           107,      -12.5013,       25.0052,            0.,NA,NA,"",       9.92066,       9.02758,       4.11366,   1.50513E-09
C:/temp/dataset/3/25_8.odb,Step-1,Increment      1: Step Time =    1.000,"PART-1-1",           108,      -10.0028,       27.5014,            0.,NA,NA,"",       10.1376,       9.50986,       3.51178,   3.18321E-09
C:/temp/dataset/3/25_8.odb,Step-1,Increment      1: Step Time =    1.000,"PART-1-1",           109,      -2.49865,       22.5268,            0.,NA,NA,"",       8.49037,       8.25109,       2.00146,   43.4395E-09
C:/temp/dataset/3/25_8.odb,Step-1,Increment      1: Step Time =    1.000,"PART-1-1",           110,      -2.51000,       27.5279,            0.,NA,NA,"",       9.52528,       9.33696,       1.88467,   34.2224E-09
C:/temp/dataset/3/25_8.odb,Step-1,Increment      1: Step Time =    1.000,"PART-1-1",           111,       12.3864,       22.5464,            0.,NA,NA,"",       7.99562,       7.90043,      -1.23012,   1.25981E-06
C:/temp/dataset/3/25_8.odb,Step-1,Increment      1: Step Time =    1.000,"PART-1-1",           112,       7.35369,       17.5509,            0.,NA,NA,"",       6.93600,       6.93597,  -18.5482E-03,   48.5263E-06
C:/temp/dataset/3/25_8.odb,Step-1,Increment      1: Step Time =    1.000,"PART-1-1",           113,       12.3201,       14.9467,            0.,NA,NA,"",       6.33760,       6.25260,      -1.03450,   158.311E-06
C:/temp/dataset/3/25_8.odb,Step-1,Increment      1: Step Time =    1.000,"PART-1-1",           114,       13.2599,       7.39194,            0.,NA,NA,"",       4.70661,       4.58610,      -1.05825,   739.535E-06
C:/temp/dataset/3/25_8.odb,Step-1,Increment      1: Step Time =    1.000,"PART-1-1",           115,       7.60504,      -5.98204,            0.,NA,NA,"",       1.80506,       1.76543,   376.185E-03,   18.9926E-03
C:/temp/dataset/3/25_8.odb,Step-1,Increment      1: Step Time =    1.000,"PART-1-1",           116,       7.71062,      -13.7665,            0.,NA,NA,"",   657.900E-03,   610.747E-03,   244.583E-03,   30.9224E-03
C:/temp/dataset/3/25_8.odb,Step-1,Increment      1: Step Time =    1.000,"PART-1-1",           117,       11.7208,      -22.4938,            0.,NA,NA,"",   62.8552E-03,   12.5094E-03,  -61.5978E-03,   16.3854E-03
C:/temp/dataset/3/25_8.odb,Step-1,Increment      1: Step Time =    1.000,"PART-1-1",           118,       2.59328,       2.74806,            0.,NA,NA,"",       4.14172,       3.89832,       1.39889,   15.2799E-03
C:/temp/dataset/3/25_8.odb,Step-1,Increment      1: Step Time =    1.000,"PART-1-1",           119,      -1.32361,      -2.98462,            0.,NA,NA,"",       3.70075,       2.62449,       2.60914,   14.1421E-03
C:/temp/dataset/3/25_8.odb,Step-1,Increment      1: Step Time =    1.000,"PART-1-1",           120,      -6.00563,       3.11026,            0.,NA,NA,"",       5.67306,       4.34302,       3.64990,   3.58170E-03
C:/temp/dataset/3/25_8.odb,Step-1,Increment      1: Step Time =    1.000,"PART-1-1",           121,      -10.4102,       2.53863,            0.,NA,NA,"",       6.50062,       4.35019,       4.83051,   231.546E-06
C:/temp/dataset/3/25_8.odb,Step-1,Increment      1: Step Time =    1.000,"PART-1-1",           122,      -12.6184,  -43.2983E-03,            0.,NA,NA,"",       6.65572,       3.75252,       5.49702,   228.478E-06
C:/temp/dataset/3/25_8.odb,Step-1,Increment      1: Step Time =    1.000,"PART-1-1",           123,      -3.88272,       3.23189,            0.,NA,NA,"",       5.28434,       4.29369,       3.08033,   6.73756E-03
C:/temp/dataset/3/25_8.odb,Step-1,Increment      1: Step Time =    1.000,"PART-1-1",           124,       2.98144,      -22.7363,            0.,NA,NA,"",   80.5584E-03,   48.3149E-03,   64.4618E-03,   25.6337E-03
C:/temp/dataset/3/25_8.odb,Step-1,Increment      1: Step Time =    1.000,"PART-1-1",           125,      -2.42987,      -22.6294,            0.,NA,NA,"",   33.8122E-03,   33.1084E-03,   6.86256E-03,   3.37727E-03
C:/temp/dataset/3/25_8.odb,Step-1,Increment      1: Step Time =    1.000,"PART-1-1",           126,      -9.97348,      -22.5672,            0.,NA,NA,"",   23.7967E-03,   23.7895E-03,  -585.384E-06,   657.020E-06
C:/temp/dataset/3/25_8.odb,Step-1,Increment      1: Step Time =    1.000,"PART-1-1",           127,      -12.4895,      -25.0402,            0.,NA,NA,"",   17.6624E-03,   17.5206E-03,   2.23422E-03,   1.02437E-03
C:/temp/dataset/3/25_8.odb,Step-1,Increment      1: Step Time =    1.000,"PART-1-1",           128,       12.8561,      -14.2595,            0.,NA,NA,"",   596.076E-03,   518.444E-03,  -294.148E-03,   23.5963E-03
C:/temp/dataset/3/25_8.odb,Step-1,Increment      1: Step Time =    1.000,"PART-1-1",           129,       12.7281,      -7.33650,            0.,NA,NA,"",       1.53909,       1.46172,  -481.839E-03,   20.9759E-03
C:/temp/dataset/3/25_8.odb,Step-1,Increment      1: Step Time =    1.000,"PART-1-1",           130,       12.6427,  -96.8002E-03,            0.,NA,NA,"",       3.01117,       2.92440,  -717.643E-03,   16.1681E-03
C:/temp/dataset/3/25_8.odb,Step-1,Increment      1: Step Time =    1.000,"PART-1-1",           131,       7.13014,       10.3328,            0.,NA,NA,"",       5.37840,       5.37458,   202.422E-03,   785.677E-06
C:/temp/dataset/3/25_8.odb,Step-1,Increment      1: Step Time =    1.000,"PART-1-1",           132,       4.95005,       27.5805,            0.,NA,NA,"",       9.17430,       9.17050,   264.047E-03,   741.346E-09
C:/temp/dataset/3/25_8.odb,Step-1,Increment      1: Step Time =    1.000,"PART-1-1",           133,      -4.99957,       22.5148,            0.,NA,NA,"",       8.68907,       8.30812,       2.54462,   10.8950E-09
C:/temp/dataset/3/25_8.odb,Step-1,Increment      1: Step Time =    1.000,"PART-1-1",           134,      -7.50186,       22.5094,            0.,NA,NA,"",       8.91827,       8.36661,       3.08793,   5.87712E-09
C:/temp/dataset/3/25_8.odb,Step-1,Increment      1: Step Time =    1.000,"PART-1-1",           135,       4.93744,       22.5898,            0.,NA,NA,"",       8.09666,       8.08747,   385.787E-03,   2.20713E-06
C:/temp/dataset/3/25_8.odb,Step-1,Increment      1: Step Time =    1.000,"PART-1-1",           136,       2.47758,       22.5593,            0.,NA,NA,"",       8.19137,       8.13949,   920.481E-03,   1.17045E-06
C:/temp/dataset/3/25_8.odb,Step-1,Increment      1: Step Time =    1.000,"PART-1-1",           137,  -4.46696E-03,       22.5388,            0.,NA,NA,"",       8.32322,       8.19421,       1.45975,   259.215E-09
C:/temp/dataset/3/25_8.odb,Step-1,Increment      1: Step Time =    1.000,"PART-1-1",           138,       7.20686,       12.6699,            0.,NA,NA,"",       5.88107,       5.87964,   129.784E-03,   319.603E-06
C:/temp/dataset/3/25_8.odb,Step-1,Increment      1: Step Time =    1.000,"PART-1-1",           139,       7.30679,       15.0771,            0.,NA,NA,"",       6.40017,       6.39996,   50.6897E-03,   148.021E-06
C:/temp/dataset/3/25_8.odb,Step-1,Increment      1: Step Time =    1.000,"PART-1-1",           140,       7.52839,       5.66323,            0.,NA,NA,"",       4.36497,       4.35937,   221.061E-03,   9.01531E-03
C:/temp/dataset/3/25_8.odb,Step-1,Increment      1: Step Time =    1.000,"PART-1-1",           141,       7.20823,       7.96221,            0.,NA,NA,"",       4.86604,       4.86008,   240.722E-03,   3.19949E-03
C:/temp/dataset/3/25_8.odb,Step-1,Increment      1: Step Time =    1.000,"PART-1-1",           142,      -1.77433,       3.17490,            0.,NA,NA,"",       4.89219,       4.19305,       2.52028,   10.5123E-03
C:/temp/dataset/3/25_8.odb,Step-1,Increment      1: Step Time =    1.000,"PART-1-1",           143,   347.975E-03,       3.01142,            0.,NA,NA,"",       4.51060,       4.05954,       1.96612,   14.3213E-03
C:/temp/dataset/3/25_8.odb,Step-1,Increment      1: Step Time =    1.000,"PART-1-1",           144,      -8.17775,       2.85153,            0.,NA,NA,"",       6.07279,       4.35383,       4.23355,   1.35915E-03
C:/temp/dataset/3/25_8.odb,Step-1,Increment      1: Step Time =    1.000,"PART-1-1",           145,      -8.45397,      -3.03463,            0.,NA,NA,"",       5.33440,       2.83249,       4.52026,   4.16447E-03
C:/temp/dataset/3/25_8.odb,Step-1,Increment      1: Step Time =    1.000,"PART-1-1",           146,      -12.6978,       2.46856,            0.,NA,NA,"",       6.99653,       4.41132,       5.43063,   387.897E-06
C:/temp/dataset/3/25_8.odb,Step-1,Increment      1: Step Time =    1.000,"PART-1-1",           147,      -10.5225,      -2.72745,            0.,NA,NA,"",       5.85944,       2.98133,       5.04428,   753.874E-06
C:/temp/dataset/3/25_8.odb,Step-1,Increment      1: Step Time =    1.000,"PART-1-1",           148,      -12.7265,      -2.55241,            0.,NA,NA,"",       6.41231,       3.10302,       5.61150,   459.764E-06
C:/temp/dataset/3/25_8.odb,Step-1,Increment      1: Step Time =    1.000,"PART-1-1",           149,      -3.80700,      -2.48494,            0.,NA,NA,"",       4.32264,       2.82944,       3.26795,   12.1413E-03
C:/temp/dataset/3/25_8.odb,Step-1,Increment      1: Step Time =    1.000,"PART-1-1",           150,      -6.26959,      -2.94549,            0.,NA,NA,"",       4.83170,       2.78694,       3.94693,   8.61786E-03
C:/temp/dataset/3/25_8.odb,Step-1,Increment      1: Step Time =    1.000,"PART-1-1",           151,       2.97297,      -3.34056,            0.,NA,NA,"",       2.82709,       2.42032,       1.46098,   27.7171E-03
C:/temp/dataset/3/25_8.odb,Step-1,Increment      1: Step Time =    1.000,"PART-1-1",           152,   836.982E-03,      -3.21922,            0.,NA,NA,"",       3.22268,       2.50400,       2.02871,   15.7467E-03
C:/temp/dataset/3/25_8.odb,Step-1,Increment      1: Step Time =    1.000,"PART-1-1",           153,       7.27849,      -10.7647,            0.,NA,NA,"",       1.06727,       1.00411,   361.688E-03,   35.3205E-03
C:/temp/dataset/3/25_8.odb,Step-1,Increment      1: Step Time =    1.000,"PART-1-1",           154,       7.20650,      -8.25133,            0.,NA,NA,"",       1.44867,       1.38732,   417.147E-03,   36.5492E-03
C:/temp/dataset/3/25_8.odb,Step-1,Increment      1: Step Time =    1.000,"PART-1-1",           155,       7.07274,      -17.3233,            0.,NA,NA,"",   345.702E-03,   273.074E-03,   211.991E-03,   40.4892E-03
C:/temp/dataset/3/25_8.odb,Step-1,Increment      1: Step Time =    1.000,"PART-1-1",           156,       6.55788,      -15.2577,            0.,NA,NA,"",   570.951E-03,   474.263E-03,   317.899E-03,   46.0459E-03
C:/temp/dataset/3/25_8.odb,Step-1,Increment      1: Step Time =    1.000,"PART-1-1",           157,      -7.46685,      -22.5818,            0.,NA,NA,"",   25.5229E-03,   25.4633E-03,  -1.74379E-03,   1.16921E-03
C:/temp/dataset/3/25_8.odb,Step-1,Increment      1: Step Time =    1.000,"PART-1-1",           158,      -4.95694,      -22.5955,            0.,NA,NA,"",   28.5614E-03,   28.5613E-03,  -55.1864E-06,   1.97538E-03
C:/temp/dataset/3/25_8.odb,Step-1,Increment      1: Step Time =    1.000,"PART-1-1",           159,   146.162E-03,      -22.6598,            0.,NA,NA,"",   49.1015E-03,   42.2964E-03,   24.9394E-03,   9.02784E-03
C:/temp/dataset/3/25_8.odb,Step-1,Increment      1: Step Time =    1.000,"PART-1-1",           160,      -12.4860,      -22.5306,            0.,NA,NA,"",   23.3182E-03,   23.1856E-03,   2.48391E-03,   174.310E-06
C:/temp/dataset/3/25_8.odb,Step-1,Increment      1: Step Time =    1.000,"PART-1-1",           161,       9.96020,      -27.7814,            0.,NA,NA,"",   21.0182E-03,  -20.9836E-03,  -1.20464E-03,   7.80929E-03
C:/temp/dataset/3/25_8.odb,Step-1,Increment      1: Step Time =    1.000,"PART-1-1",           162,       7.44077,      -27.8946,            0.,NA,NA,"",   18.0356E-03,  -11.9867E-03,   13.4759E-03,   10.8570E-03
C:/temp/dataset/3/25_8.odb,Step-1,Increment      1: Step Time =    1.000,"PART-1-1",           163,       4.93217,      -27.8625,            0.,NA,NA,"",   19.4049E-03,   2.53925E-03,   19.2381E-03,   13.1642E-03
C:/temp/dataset/3/25_8.odb,Step-1,Increment      1: Step Time =    1.000,"PART-1-1",           164,       2.47767,      -27.7470,            0.,NA,NA,"",   22.1029E-03,   14.4660E-03,   16.7114E-03,   11.4468E-03
C:/temp/dataset/3/25_8.odb,Step-1,Increment      1: Step Time =    1.000,"PART-1-1",           165,   19.5837E-03,      -27.6625,            0.,NA,NA,"",   21.7914E-03,   19.2363E-03,   10.2386E-03,   8.35842E-03
C:/temp/dataset/3/25_8.odb,Step-1,Increment      1: Step Time =    1.000,"PART-1-1",           166,      -2.46955,      -27.6154,            0.,NA,NA,"",   19.1671E-03,   18.5413E-03,   4.85780E-03,   5.90945E-03
C:/temp/dataset/3/25_8.odb,Step-1,Increment      1: Step Time =    1.000,"PART-1-1",           167,      -4.97450,      -27.5844,            0.,NA,NA,"",   15.6571E-03,   15.5588E-03,   1.75207E-03,   4.31255E-03
C:/temp/dataset/3/25_8.odb,Step-1,Increment      1: Step Time =    1.000,"PART-1-1",           168,      -7.48283,      -27.5594,            0.,NA,NA,"",   12.5411E-03,   12.5304E-03,   517.577E-06,   3.29068E-03
C:/temp/dataset/3/25_8.odb,Step-1,Increment      1: Step Time =    1.000,"PART-1-1",           169,       12.2865,      -25.1793,            0.,NA,NA,"",   50.5051E-03,  -17.0820E-03,  -47.5286E-03,   16.6082E-03
C:/temp/dataset/3/25_8.odb,Step-1,Increment      1: Step Time =    1.000,"PART-1-1",           170,       11.6753,      -16.4340,            0.,NA,NA,"",   342.756E-03,   313.437E-03,  -138.704E-03,   12.2233E-03
C:/temp/dataset/3/25_8.odb,Step-1,Increment      1: Step Time =    1.000,"PART-1-1",           171,       11.9685,      -19.5802,            0.,NA,NA,"",   157.240E-03,   110.716E-03,  -111.653E-03,   17.3041E-03
C:/temp/dataset/3/25_8.odb,Step-1,Increment      1: Step Time =    1.000,"PART-1-1",           172,       13.3291,      -9.93034,            0.,NA,NA,"",       1.16130,       1.05412,  -487.305E-03,   27.4361E-03
C:/temp/dataset/3/25_8.odb,Step-1,Increment      1: Step Time =    1.000,"PART-1-1",           173,       13.4212,      -12.1607,            0.,NA,NA,"",   867.693E-03,   757.806E-03,  -422.634E-03,   29.3434E-03
C:/temp/dataset/3/25_8.odb,Step-1,Increment      1: Step Time =    1.000,"PART-1-1",           174,       12.9633,      -2.52247,            0.,NA,NA,"",       2.48836,       2.38835,  -698.387E-03,   19.6795E-03
C:/temp/dataset/3/25_8.odb,Step-1,Increment      1: Step Time =    1.000,"PART-1-1",           175,       13.1247,      -4.84738,            0.,NA,NA,"",       2.01779,       1.91294,  -641.981E-03,   22.9922E-03
C:/temp/dataset/3/25_8.odb,Step-1,Increment      1: Step Time =    1.000,"PART-1-1",           176,       13.1131,       5.12757,            0.,NA,NA,"",       4.20250,       4.08914,  -969.496E-03,   3.47538E-03
C:/temp/dataset/3/25_8.odb,Step-1,Increment      1: Step Time =    1.000,"PART-1-1",           177,       12.1418,       2.60140,            0.,NA,NA,"",       3.61196,       3.54479,  -693.333E-03,   10.8105E-03
C:/temp/dataset/3/25_8.odb,Step-1,Increment      1: Step Time =    1.000,"PART-1-1",           178,       12.1760,       12.1629,            0.,NA,NA,"",       5.72901,       5.65193,  -936.661E-03,   325.772E-06
C:/temp/dataset/3/25_8.odb,Step-1,Increment      1: Step Time =    1.000,"PART-1-1",           179,       13.0236,       9.64002,            0.,NA,NA,"",       5.19277,       5.08325,      -1.06083,   249.860E-06
C:/temp/dataset/3/25_8.odb,Step-1,Increment      1: Step Time =    1.000,"PART-1-1",           180,       12.3784,       20.0377,            0.,NA,NA,"",       7.44832,       7.35608,      -1.16857,   11.6109E-06
C:/temp/dataset/3/25_8.odb,Step-1,Increment      1: Step Time =    1.000,"PART-1-1",           181,       12.3660,       17.5135,            0.,NA,NA,"",       6.89771,       6.80852,      -1.10569,   50.6501E-06
C:/temp/dataset/3/25_8.odb,Step-1,Increment      1: Step Time =    1.000,"PART-1-1",           182,       12.4264,       25.0333,            0.,NA,NA,"",       8.53855,       8.43930,      -1.29810,   1.49622E-06
C:/temp/dataset/3/25_8.odb,Step-1,Increment      1: Step Time =    1.000,"PART-1-1",           183,       7.43491,       27.5684,            0.,NA,NA,"",       9.11276,       9.10861,  -275.055E-03,   676.147E-09
C:/temp/dataset/3/25_8.odb,Step-1,Increment      1: Step Time =    1.000,"PART-1-1",           184,  -17.4965E-03,       27.5503,            0.,NA,NA,"",       9.37905,       9.28238,       1.34309,   178.901E-09
C:/temp/dataset/3/25_8.odb,Step-1,Increment      1: Step Time =    1.000,"PART-1-1",           185,       2.47067,       27.5656,            0.,NA,NA,"",       9.26123,       9.22638,   802.607E-03,   488.426E-09
C:/temp/dataset/3/25_8.odb,Step-1,Increment      1: Step Time =    1.000,"PART-1-1",           186,      -7.50286,       27.5043,            0.,NA,NA,"",       9.90629,       9.45089,       2.96904,   5.70809E-09
C:/temp/dataset/3/25_8.odb,Step-1,Increment      1: Step Time =    1.000,"PART-1-1",           187,      -5.00635,       27.5119,            0.,NA,NA,"",       9.70147,       9.39300,       2.42694,   3.82190E-09
C:/temp/dataset/3/25_8.odb,Step-1,Increment      1: Step Time =    1.000,"PART-1-1",           188,      -12.5019,       27.5019,            0.,NA,NA,"",       10.3930,       9.56957,       4.05425,   1.57250E-09
C:/temp/dataset/3/25_8.odb,Step-1,Increment      1: Step Time =    1.000,"PART-1-1",           189,      -12.5001,       22.5034,            0.,NA,NA,"",       9.45521,       8.48449,       4.17304,   1.73452E-09
C:/temp/dataset/3/25_8.odb,Step-1,Increment      1: Step Time =    1.000,"PART-1-1",           190,      -5.00429,       25.0191,            0.,NA,NA,"",       9.19429,       8.85184,       2.48593,   8.56590E-09
C:/temp/dataset/3/25_8.odb,Step-1,Increment      1: Step Time =    1.000,"PART-1-1",           191,  -15.9173E-03,       25.0642,            0.,NA,NA,"",       8.85439,       8.74269,       1.40202,   229.357E-09
C:/temp/dataset/3/25_8.odb,Step-1,Increment      1: Step Time =    1.000,"PART-1-1",           192,       9.74355,       15.0604,            0.,NA,NA,"",       6.35649,       6.33851,  -477.701E-03,   166.951E-06
C:/temp/dataset/3/25_8.odb,Step-1,Increment      1: Step Time =    1.000,"PART-1-1",           193,       9.51986,       12.6989,            0.,NA,NA,"",       5.84316,       5.83128,  -372.445E-03,   345.748E-06
C:/temp/dataset/3/25_8.odb,Step-1,Increment      1: Step Time =    1.000,"PART-1-1",           194,       12.1898,      -11.7554,            0.,NA,NA,"",   852.983E-03,   806.296E-03,  -278.328E-03,   16.0328E-03
C:/temp/dataset/3/25_8.odb,Step-1,Increment      1: Step Time =    1.000,"PART-1-1",           195,       9.78251,      -13.4248,            0.,NA,NA,"",   618.982E-03,   618.469E-03,   25.1906E-03,   9.56428E-03
C:/temp/dataset/3/25_8.odb,Step-1,Increment      1: Step Time =    1.000,"PART-1-1",           196,       7.24032,      -19.5057,            0.,NA,NA,"",   183.344E-03,   113.611E-03,   143.901E-03,   23.5064E-03
C:/temp/dataset/3/25_8.odb,Step-1,Increment      1: Step Time =    1.000,"PART-1-1",           197,      -10.0066,  -139.817E-03,            0.,NA,NA,"",       6.03769,       3.63711,       4.81925,   951.482E-06
C:/temp/dataset/3/25_8.odb,Step-1,Increment      1: Step Time =    1.000,"PART-1-1",           198,      -8.39380,      -1.43672,            0.,NA,NA,"",       5.50360,       3.24520,       4.44503,   3.13596E-03
C:/temp/dataset/3/25_8.odb,Step-1,Increment      1: Step Time =    1.000,"PART-1-1",           199,      -5.07121,  -530.035E-03,            0.,NA,NA,"",       4.88150,       3.37041,       3.53121,   8.57728E-03
C:/temp/dataset/3/25_8.odb,Step-1,Increment      1: Step Time =    1.000,"PART-1-1",           200,      -12.5003,      -27.5198,            0.,NA,NA,"",   9.55725E-03,   9.41273E-03,   1.65578E-03,   2.37111E-03
C:/temp/dataset/3/25_8.odb,Step-1,Increment      1: Step Time =    1.000,"PART-1-1",           201,       8.97180,      -8.86122,            0.,NA,NA,"",       1.25828,       1.25018,   142.523E-03,   15.1136E-03
C:/temp/dataset/3/25_8.odb,Step-1,Increment      1: Step Time =    1.000,"PART-1-1",           202,      -2.50561,       25.0360,            0.,NA,NA,"",       9.00800,       8.79592,       1.94314,   57.3974E-09
C:/temp/dataset/3/25_8.odb,Step-1,Increment      1: Step Time =    1.000,"PART-1-1",           203,      -7.50383,       25.0106,            0.,NA,NA,"",       9.41031,       8.90960,       3.02872,   5.82061E-09
C:/temp/dataset/3/25_8.odb,Step-1,Increment      1: Step Time =    1.000,"PART-1-1",           204,       2.46362,       25.0850,            0.,NA,NA,"",       8.73087,       8.68809,   863.287E-03,   731.848E-09
C:/temp/dataset/3/25_8.odb,Step-1,Increment      1: Step Time =    1.000,"PART-1-1",           205,       9.17638,       10.5785,            0.,NA,NA,"",       5.38516,       5.37951,  -246.728E-03,   418.430E-06
C:/temp/dataset/3/25_8.odb,Step-1,Increment      1: Step Time =    1.000,"PART-1-1",           206,       9.65111,       6.46520,            0.,NA,NA,"",       4.48141,       4.47425,  -253.311E-03,   3.93774E-03
C:/temp/dataset/3/25_8.odb,Step-1,Increment      1: Step Time =    1.000,"PART-1-1",           207,      -1.99278,       1.34592,            0.,NA,NA,"",       4.57370,       3.73768,       2.63600,   11.8106E-03
C:/temp/dataset/3/25_8.odb,Step-1,Increment      1: Step Time =    1.000,"PART-1-1",           208,      -5.69490,       1.29843,            0.,NA,NA,"",       5.30045,       3.86170,       3.63071,   5.79348E-03
C:/temp/dataset/3/25_8.odb,Step-1,Increment      1: Step Time =    1.000,"PART-1-1",           209,       1.92780,   665.778E-03,            0.,NA,NA,"",       3.78452,       3.42050,       1.61948,   13.3446E-03
C:/temp/dataset/3/25_8.odb,Step-1,Increment      1: Step Time =    1.000,"PART-1-1",           210,       1.26043,      -1.37778,            0.,NA,NA,"",       3.48139,       2.94828,       1.85142,   14.3373E-03
C:/temp/dataset/3/25_8.odb,Step-1,Increment      1: Step Time =    1.000,"PART-1-1",           211,       9.14691,      -16.8280,            0.,NA,NA,"",   293.917E-03,   286.441E-03,   65.8695E-03,   13.3038E-03
C:/temp/dataset/3/25_8.odb,Step-1,Increment      1: Step Time =    1.000,"PART-1-1",           212,   79.9954E-03,      -25.2148,            0.,NA,NA,"",   39.5877E-03,   33.8314E-03,   20.5577E-03,   8.91467E-03
C:/temp/dataset/3/25_8.odb,Step-1,Increment      1: Step Time =    1.000,"PART-1-1",           213,      -9.97865,      -25.0679,            0.,NA,NA,"",   18.5424E-03,   18.5424E-03,  -10.8088E-06,   1.63889E-03
C:/temp/dataset/3/25_8.odb,Step-1,Increment      1: Step Time =    1.000,"PART-1-1",           214,       12.4671,      -27.6040,            0.,NA,NA,"",   28.0610E-03,  -16.5007E-03,  -22.6968E-03,   15.1187E-03
C:/temp/dataset/3/25_8.odb,Step-1,Increment      1: Step Time =    1.000,"PART-1-1",           215,       9.82463,      -25.6838,            0.,NA,NA,"",   22.7608E-03,  -22.6470E-03,   2.27257E-03,   10.1415E-03
C:/temp/dataset/3/25_8.odb,Step-1,Increment      1: Step Time =    1.000,"PART-1-1",           216,       2.56344,      -25.3828,            0.,NA,NA,"",   49.6008E-03,   30.4712E-03,   39.1375E-03,   14.8503E-03
C:/temp/dataset/3/25_8.odb,Step-1,Increment      1: Step Time =    1.000,"PART-1-1",           217,      -2.44121,      -25.1518,            0.,NA,NA,"",   31.0274E-03,   30.1182E-03,   7.45627E-03,   5.39298E-03
C:/temp/dataset/3/25_8.odb,Step-1,Increment      1: Step Time =    1.000,"PART-1-1",           218,      -4.95889,      -25.1139,            0.,NA,NA,"",   25.2975E-03,   25.2548E-03,   1.46914E-03,   3.37602E-03
C:/temp/dataset/3/25_8.odb,Step-1,Increment      1: Step Time =    1.000,"PART-1-1",           219,       10.3279,  -771.646E-03,            0.,NA,NA,"",       2.82712,       2.81766,  -231.132E-03,   19.2461E-03
C:/temp/dataset/3/25_8.odb,Step-1,Increment      1: Step Time =    1.000,"PART-1-1",           220,       10.4049,       4.48083,            0.,NA,NA,"",       4.03104,       4.01390,  -371.327E-03,   8.22311E-03
C:/temp/dataset/3/25_8.odb,Step-1,Increment      1: Step Time =    1.000,"PART-1-1",           221,       9.80969,       17.5478,            0.,NA,NA,"",       6.89892,       6.87683,  -551.559E-03,   57.3492E-06
C:/temp/dataset/3/25_8.odb,Step-1,Increment      1: Step Time =    1.000,"PART-1-1",           222,       9.88106,       25.0797,            0.,NA,NA,"",       8.54277,       8.51007,  -746.703E-03,   1.01182E-06
C:/temp/dataset/3/25_8.odb,Step-1,Increment      1: Step Time =    1.000,"PART-1-1",           223,       9.94975,       27.5346,            0.,NA,NA,"",       9.07845,       9.04132,  -820.148E-03,   853.444E-09
C:/temp/dataset/3/25_8.odb,Step-1,Increment      1: Step Time =    1.000,"PART-1-1",           224,       7.36779,       20.0596,            0.,NA,NA,"",       7.48069,       7.48025,  -81.4421E-03,   9.43290E-06
C:/temp/dataset/3/25_8.odb,Step-1,Increment      1: Step Time =    1.000,"PART-1-1",           225,  -693.206E-03,      -1.01900,            0.,NA,NA,"",       3.89928,       3.10047,       2.36463,   14.3769E-03
C:/temp/dataset/3/25_8.odb,Step-1,Increment      1: Step Time =    1.000,"PART-1-1",           226,      -7.47194,      -25.0831,            0.,NA,NA,"",   21.1987E-03,   21.1942E-03,  -438.443E-06,   2.38782E-03
C:/temp/dataset/3/25_8.odb,Step-1,Increment      1: Step Time =    1.000,"PART-1-1",           227,       5.28089,       2.25097,            0.,NA,NA,"",       3.75245,       3.67245,   770.709E-03,   12.7104E-03
C:/temp/dataset/3/25_8.odb,Step-1,Increment      1: Step Time =    1.000,"PART-1-1",           228,       9.26575,       8.45073,            0.,NA,NA,"",       4.92098,       4.91627,  -215.238E-03,   1.29826E-03
C:/temp/dataset/3/25_8.odb,Step-1,Increment      1: Step Time =    1.000,"PART-1-1",           229,  -81.3472E-03,       1.02952,            0.,NA,NA,"",       4.17301,       3.58546,       2.13507,   13.5948E-03
C:/temp/dataset/3/25_8.odb,Step-1,Increment      1: Step Time =    1.000,"PART-1-1",           230,      -7.67687,   831.326E-03,            0.,NA,NA,"",       5.65082,       3.80992,       4.17328,   3.03002E-03
C:/temp/dataset/3/25_8.odb,Step-1,Increment      1: Step Time =    1.000,"PART-1-1",           231,      -2.54090,  -531.417E-03,            0.,NA,NA,"",       4.34789,       3.28510,       2.84820,   12.7663E-03
C:/temp/dataset/3/25_8.odb,Step-1,Increment      1: Step Time =    1.000,"PART-1-1",           232,      -3.83997,       1.55066,            0.,NA,NA,"",       4.96598,       3.85916,       3.12535,   8.73754E-03
C:/temp/dataset/3/25_8.odb,Step-1,Increment      1: Step Time =    1.000,"PART-1-1",           233,      -6.84494,  -996.203E-03,            0.,NA,NA,"",       5.20765,       3.30864,       4.02151,   5.55847E-03
C:/temp/dataset/3/25_8.odb,Step-1,Increment      1: Step Time =    1.000,"PART-1-1",           234,       5.51335,      -3.03354,            0.,NA,NA,"",       2.54965,       2.42137,   798.557E-03,   25.9864E-03
C:/temp/dataset/3/25_8.odb,Step-1,Increment      1: Step Time =    1.000,"PART-1-1",           235,       9.62476,      -7.14735,            0.,NA,NA,"",       1.52235,       1.52203,   31.2036E-03,   8.33181E-03
C:/temp/dataset/3/25_8.odb,Step-1,Increment      1: Step Time =    1.000,"PART-1-1",           236,       7.38903,      -25.9371,            0.,NA,NA,"",   35.1160E-03,  -10.0365E-03,   33.6512E-03,   14.7192E-03
C:/temp/dataset/3/25_8.odb,Step-1,Increment      1: Step Time =    1.000,"PART-1-1",           237,       4.96373,      -25.7856,            0.,NA,NA,"",   48.2789E-03,   12.0271E-03,   46.7568E-03,   17.9773E-03
C:/temp/dataset/3/25_8.odb,Step-1,Increment      1: Step Time =    1.000,"PART-1-1",           238,       9.37191,      -21.3805,            0.,NA,NA,"",   45.7346E-03,   34.7441E-03,   29.7406E-03,   11.3691E-03
C:/temp/dataset/3/25_8.odb,Step-1,Increment      1: Step Time =    1.000,"PART-1-1",           239,       9.53380,      -19.3691,            0.,NA,NA,"",   116.791E-03,   113.619E-03,   27.0382E-03,   7.41615E-03
C:/temp/dataset/3/25_8.odb,Step-1,Increment      1: Step Time =    1.000,"PART-1-1",           240,       10.5518,      -5.76730,            0.,NA,NA,"",       1.76625,       1.75982,  -150.669E-03,   9.93538E-03
C:/temp/dataset/3/25_8.odb,Step-1,Increment      1: Step Time =    1.000,"PART-1-1",           241,       10.8494,      -2.88140,            0.,NA,NA,"",       2.35698,       2.34061,  -277.315E-03,   18.2151E-03
C:/temp/dataset/3/25_8.odb,Step-1,Increment      1: Step Time =    1.000,"PART-1-1",           242,       9.33979,       1.27198,            0.,NA,NA,"",       3.31264,       3.31171,  -78.4187E-03,   18.2780E-03
C:/temp/dataset/3/25_8.odb,Step-1,Increment      1: Step Time =    1.000,"PART-1-1",           243,       9.83335,       20.0603,            0.,NA,NA,"",       7.44723,       7.42165,  -616.656E-03,   13.3294E-06
C:/temp/dataset/3/25_8.odb,Step-1,Increment      1: Step Time =    1.000,"PART-1-1",           244,       7.39102,       25.1069,            0.,NA,NA,"",       8.57784,       8.57535,  -206.837E-03,   1.02780E-06
C:/temp/dataset/3/25_8.odb,Step-1,Increment      1: Step Time =    1.000,"PART-1-1",           245,       4.93408,       25.0979,            0.,NA,NA,"",       8.63815,       8.63197,   326.712E-03,   992.947E-09
C:/temp/dataset/3/25_8.odb,Step-1,Increment      1: Step Time =    1.000,"PART-1-1",           246,      -10.0026,       25.0068,            0.,NA,NA,"",       9.65324,       8.96835,       3.57121,   3.17657E-09
C:/temp/dataset/3/25_8.odb,Step-1,Increment      1: Step Time =    1.000,"PART-1-1",           247,      -10.0008,       22.5051,            0.,NA,NA,"",       9.17418,       8.42527,       3.63049,   3.29016E-09
C:/temp/dataset/3/25_8.odb,Step-1,Increment      1: Step Time =    1.000,"PART-1-1",           248,      -9.99283,      -27.5363,            0.,NA,NA,"",   10.2916E-03,   10.2829E-03,   422.730E-06,   2.65708E-03
C:/temp/dataset/3/25_8.odb,Step-1,Increment      1: Step Time =    1.000,"PART-1-1",           249,       3.80746,   187.829E-03,            0.,NA,NA,"",       3.43846,       3.23751,       1.15826,   10.7988E-03
C:/temp/dataset/3/25_8.odb,Step-1,Increment      1: Step Time =    1.000,"PART-1-1",           250,       11.4886,       7.12458,            0.,NA,NA,"",       4.61935,       4.57105,  -666.246E-03,   1.94938E-03
C:/temp/dataset/3/25_8.odb,Step-1,Increment      1: Step Time =    1.000,"PART-1-1",           251,       5.25951,      -23.9756,            0.,NA,NA,"",   79.9308E-03,   24.7190E-03,   76.0125E-03,   23.8221E-03
C:/temp/dataset/3/25_8.odb,Step-1,Increment      1: Step Time =    1.000,"PART-1-1",           252,       9.85798,       22.5791,            0.,NA,NA,"",       7.99696,       7.96782,  -682.071E-03,   2.48406E-06
C:/temp/dataset/3/25_8.odb,Step-1,Increment      1: Step Time =    1.000,"PART-1-1",           253,       7.38133,       22.5911,            0.,NA,NA,"",       8.03076,       8.02946,  -144.745E-03,   1.85387E-06
C:/temp/dataset/3/25_8.odb,Step-1,Increment      1: Step Time =    1.000,"PART-1-1",           254,       9.03817,      -10.9527,            0.,NA,NA,"",   949.639E-03,   941.421E-03,   124.668E-03,   16.7832E-03
C:/temp/dataset/3/25_8.odb,Step-1,Increment      1: Step Time =    1.000,"PART-1-1",           255,       7.30212,      -21.2110,            0.,NA,NA,"",   120.269E-03,   45.5551E-03,   111.307E-03,   22.8119E-03
C:/temp/dataset/3/25_8.odb,Step-1,Increment      1: Step Time =    1.000,"PART-1-1",           256,       8.48263,      -3.88795,            0.,NA,NA,"",       2.17210,       2.16356,   192.363E-03,   18.3852E-03
C:/temp/dataset/3/25_8.odb,Step-1,Increment      1: Step Time =    1.000,"PART-1-1",           257,       8.48912,      -1.65164,            0.,NA,NA,"",       2.66197,       2.65756,   153.129E-03,   21.0485E-03
C:/temp/dataset/3/25_8.odb,Step-1,Increment      1: Step Time =    1.000,"PART-1-1",           258,       8.19007,       3.36514,            0.,NA,NA,"",       3.83040,       3.82847,   121.374E-03,   16.3944E-03
C:/temp/dataset/3/25_8.odb,Step-1,Increment      1: Step Time =    1.000,"PART-1-1",           259,       6.78208,  -317.133E-03,            0.,NA,NA,"",       3.05485,       3.01610,   484.966E-03,   17.4293E-03
C:/temp/dataset/3/25_8.odb,Step-1,Increment      1: Step Time =    1.000,"PART-1-1",           260,       11.8604,      -10.2109,            0.,NA,NA,"",       1.05075,       1.01599,  -268.029E-03,   12.6570E-03
C:/temp/dataset/3/25_8.odb,Step-1,Increment      1: Step Time =    1.000,"PART-1-1",           261,       5.00218,  -627.613E-03,            0.,NA,NA,"",       3.13055,       3.00173,   888.779E-03,   14.0286E-03
C:/temp/dataset/3/25_8.odb,Step-1,Increment      1: Step Time =    1.000,"PART-1-1",           262,       11.1460,      -8.45072,            0.,NA,NA,"",       1.30241,       1.28748,  -196.636E-03,   7.32597E-03
C:/temp/dataset/3/25_8.odb,Step-1,Increment      1: Step Time =    1.000,"PART-1-1",           263,       11.7180,       5.54683,            0.,NA,NA,"",       4.27103,       4.21685,  -678.128E-03,   4.34480E-03
C:/temp/dataset/3/25_8.odb,Step-1,Increment      1: Step Time =    1.000,"PART-1-1",           264,       5.25136,      -21.5985,            0.,NA,NA,"",   140.448E-03,   55.4403E-03,   129.043E-03,   37.0552E-03
C:/temp/dataset/3/25_8.odb,Step-1,Increment      1: Step Time =    1.000,"PART-1-1",           265,       12.4723,       27.5096,            0.,NA,NA,"",       9.07925,       8.97573,      -1.36712,   1.22065E-06
C:/temp/dataset/3/25_8.odb,Step-1,Increment      1: Step Time =    1.000,"PART-1-1",           266,       5.87727,      -22.7682,            0.,NA,NA,"",   106.058E-03,   33.4832E-03,   100.634E-03,   26.4507E-03
C:/temp/dataset/3/25_8.odb,Step-1,Increment      1: Step Time =    1.000,"PART-1-1",           267,       7.32369,      -22.7299,            0.,NA,NA,"",   84.3130E-03,   17.1744E-03,   82.5453E-03,   21.7854E-03
C:/temp/dataset/3/25_8.odb,Step-1,Increment      1: Step Time =    1.000,"PART-1-1",           268,       11.4923,      -4.55460,            0.,NA,NA,"",       2.01640,       1.98568,  -350.644E-03,   16.2856E-03
C:/temp/dataset/3/25_8.odb,Step-1,Increment      1: Step Time =    1.000,"PART-1-1",           269,       11.2115,       8.96325,            0.,NA,NA,"",       5.02188,       4.97964,  -650.009E-03,   534.771E-06
C:/temp/dataset/3/25_8.odb,Step-1,Increment      1: Step Time =    1.000,"PART-1-1",           270,       10.8046,       10.5255,            0.,NA,NA,"",       5.36267,       5.32909,  -599.127E-03,   397.290E-06
C:/temp/dataset/3/25_8.odb,Step-1,Increment      1: Step Time =    1.000,"PART-1-1",           271,       7.35536,      -24.2380,            0.,NA,NA,"",   56.4973E-03,   315.871E-06,   56.4964E-03,   18.2865E-03
C:/temp/dataset/3/25_8.odb,Step-1,Increment      1: Step Time =    1.000,"PART-1-1",           272,      -3.82134,   150.711E-03,            0.,NA,NA,"",       4.72321,       3.50172,       3.16965,   10.1582E-03
C:/temp/dataset/3/25_8.odb,Step-1,Increment      1: Step Time =    1.000,"PART-1-1",           273,       3.09609,      -1.70207,            0.,NA,NA,"",       3.13195,       2.81278,       1.37746,   17.1373E-03
C:/temp/dataset/3/25_8.odb,Step-1,Increment      1: Step Time =    1.000,"PART-1-1",           274,       4.56419,      -1.78689,            0.,NA,NA,"",       2.92357,       2.74367,       1.00973,   16.7805E-03
C:/temp/dataset/3/25_8.odb,Step-1,Increment      1: Step Time =    1.000,"PART-1-1",           275,       9.44492,      -23.8624,            0.,NA,NA,"",   18.8627E-03,  -9.86469E-03,   16.0776E-03,   12.5255E-03
C:/temp/dataset/3/25_8.odb,Step-1,Increment      1: Step Time =    1.000,"PART-1-1",           276,       8.77427,      -22.6651,            0.,NA,NA,"",   44.4063E-03,   8.66582E-03,   43.5525E-03,   14.6150E-03
C:/temp/dataset/3/25_8.odb,Step-1,Increment      1: Step Time =    1.000,"PART-1-1",           277,       10.1837,      -9.28900,            0.,NA,NA,"",       1.16721,       1.16656,  -38.9578E-03,   4.49939E-03
C:/temp/dataset/3/25_8.odb,Step-1,Increment      1: Step Time =    1.000,"PART-1-1",           278,       10.4979,      -10.7612,            0.,NA,NA,"",   951.311E-03,   948.640E-03,  -71.2327E-03,   2.62680E-03
C:/temp/dataset/3/25_8.odb,Step-1,Increment      1: Step Time =    1.000,"PART-1-1",           279,       11.2325,      -12.6180,            0.,NA,NA,"",   716.863E-03,   701.966E-03,  -145.382E-03,   6.21045E-03
C:/temp/dataset/3/25_8.odb,Step-1,Increment      1: Step Time =    1.000,"PART-1-1",           280,      -13.7500,       22.5017,            0.,NA,NA,"",       9.60415,       8.51392,       4.44442,   1.31251E-09
C:/temp/dataset/3/25_8.odb,Step-1,Increment      1: Step Time =    1.000,"PART-1-1",           281,          -15.,         21.25,            0.,NA,NA,"",       9.53661,       8.27202,       4.74559,   1.07309E-09
C:/temp/dataset/3/25_8.odb,Step-1,Increment      1: Step Time =    1.000,"PART-1-1",           282,        -13.75,           20.,            0.,NA,NA,"",       9.15540,       7.97087,       4.50406,   1.23567E-09
C:/temp/dataset/3/25_8.odb,Step-1,Increment      1: Step Time =    1.000,"PART-1-1",           283,      -12.5000,       21.2517,            0.,NA,NA,"",       9.22572,       8.21278,       4.20288,   1.33931E-09
C:/temp/dataset/3/25_8.odb,Step-1,Increment      1: Step Time =    1.000,"PART-1-1",           284,        -11.25,           30.,            0.,NA,NA,"",       10.7474,       10.0820,       3.72294,   1.87634E-09
C:/temp/dataset/3/25_8.odb,Step-1,Increment      1: Step Time =    1.000,"PART-1-1",           285,      -12.5009,       28.7510,            0.,NA,NA,"",       10.6317,       9.84068,       4.02426,   1.27588E-09
C:/temp/dataset/3/25_8.odb,Step-1,Increment      1: Step Time =    1.000,"PART-1-1",           286,      -11.2523,       27.5017,            0.,NA,NA,"",       10.2624,       9.53972,       3.78302,   2.22907E-09
C:/temp/dataset/3/25_8.odb,Step-1,Increment      1: Step Time =    1.000,"PART-1-1",           287,      -10.0014,       28.7507,            0.,NA,NA,"",       10.3822,       9.78102,       3.48169,   2.36204E-09
C:/temp/dataset/3/25_8.odb,Step-1,Increment      1: Step Time =    1.000,"PART-1-1",           288,      -8.75282,       27.5029,            0.,NA,NA,"",       10.0189,       9.48038,       3.24041,   4.05745E-09
C:/temp/dataset/3/25_8.odb,Step-1,Increment      1: Step Time =    1.000,"PART-1-1",           289,      -10.0027,       26.2541,            0.,NA,NA,"",       9.89461,       9.23911,       3.54150,   2.68747E-09
C:/temp/dataset/3/25_8.odb,Step-1,Increment      1: Step Time =    1.000,"PART-1-1",           290,      -8.75320,       25.0087,            0.,NA,NA,"",       9.52864,       8.93898,       3.29997,   3.93436E-09
C:/temp/dataset/3/25_8.odb,Step-1,Increment      1: Step Time =    1.000,"PART-1-1",           291,      -7.50334,       26.2575,            0.,NA,NA,"",       9.65765,       9.18024,       2.99888,   4.47113E-09
C:/temp/dataset/3/25_8.odb,Step-1,Increment      1: Step Time =    1.000,"PART-1-1",           292,  -10.1921E-03,       23.8015,            0.,NA,NA,"",       8.58848,       8.46845,       1.43089,   223.188E-09
C:/temp/dataset/3/25_8.odb,Step-1,Increment      1: Step Time =    1.000,"PART-1-1",           293,       1.23656,       22.5490,            0.,NA,NA,"",       8.25311,       8.16685,       1.19012,   607.519E-09
C:/temp/dataset/3/25_8.odb,Step-1,Increment      1: Step Time =    1.000,"PART-1-1",           294,       2.47060,       23.8222,            0.,NA,NA,"",       8.46093,       8.41379,   891.884E-03,   640.506E-09
C:/temp/dataset/3/25_8.odb,Step-1,Increment      1: Step Time =    1.000,"PART-1-1",           295,       1.22385,       25.0746,            0.,NA,NA,"",       8.78868,       8.71539,       1.13265,   421.932E-09
C:/temp/dataset/3/25_8.odb,Step-1,Increment      1: Step Time =    1.000,"PART-1-1",           296,       13.7132,       25.0166,            0.,NA,NA,"",       8.55167,       8.40501,      -1.57703,   1.37306E-06
C:/temp/dataset/3/25_8.odb,Step-1,Increment      1: Step Time =    1.000,"PART-1-1",           297,           15.,         26.25,            0.,NA,NA,"",       8.84540,       8.64205,      -1.88577,   1.29855E-06
C:/temp/dataset/3/25_8.odb,Step-1,Increment      1: Step Time =    1.000,"PART-1-1",           298,       13.7362,       27.5048,            0.,NA,NA,"",       9.09391,       8.94456,      -1.64135,   755.392E-09
C:/temp/dataset/3/25_8.odb,Step-1,Increment      1: Step Time =    1.000,"PART-1-1",           299,       12.4494,       26.2714,            0.,NA,NA,"",       8.80890,       8.70752,      -1.33261,   1.26582E-06
C:/temp/dataset/3/25_8.odb,Step-1,Increment      1: Step Time =    1.000,"PART-1-1",           300,       6.19248,       27.5744,            0.,NA,NA,"",       9.13956,       9.13955,  -5.50441E-03,   686.507E-09
C:/temp/dataset/3/25_8.odb,Step-1,Increment      1: Step Time =    1.000,"PART-1-1",           301,       7.46746,       28.7842,            0.,NA,NA,"",       9.37691,       9.37175,  -311.109E-03,   968.175E-09
C:/temp/dataset/3/25_8.odb,Step-1,Increment      1: Step Time =    1.000,"PART-1-1",           302,          6.25,           30.,            0.,NA,NA,"",       9.66500,       9.66470,  -75.8242E-03,   1.16041E-06
C:/temp/dataset/3/25_8.odb,Step-1,Increment      1: Step Time =    1.000,"PART-1-1",           303,       4.97503,       28.7903,            0.,NA,NA,"",       9.43530,       9.43250,   229.781E-03,   667.684E-09
C:/temp/dataset/3/25_8.odb,Step-1,Increment      1: Step Time =    1.000,"PART-1-1",           304,       11.0878,       17.5306,            0.,NA,NA,"",       6.89267,       6.84269,  -828.618E-03,   47.5970E-06
C:/temp/dataset/3/25_8.odb,Step-1,Increment      1: Step Time =    1.000,"PART-1-1",           305,       12.3722,       18.7756,            0.,NA,NA,"",       7.17300,       7.08229,      -1.13713,   30.4669E-06
C:/temp/dataset/3/25_8.odb,Step-1,Increment      1: Step Time =    1.000,"PART-1-1",           306,       11.1059,       20.0490,            0.,NA,NA,"",       7.44259,       7.38887,  -892.615E-03,   11.2685E-06
C:/temp/dataset/3/25_8.odb,Step-1,Increment      1: Step Time =    1.000,"PART-1-1",           307,       9.82152,       18.8041,            0.,NA,NA,"",       7.17306,       7.14924,  -584.119E-03,   34.9054E-06
C:/temp/dataset/3/25_8.odb,Step-1,Increment      1: Step Time =    1.000,"PART-1-1",           308,       9.63171,       13.8797,            0.,NA,NA,"",       6.09971,       6.08487,  -425.118E-03,   249.406E-06
C:/temp/dataset/3/25_8.odb,Step-1,Increment      1: Step Time =    1.000,"PART-1-1",           309,       8.52517,       15.0687,            0.,NA,NA,"",       6.37279,       6.36921,  -213.487E-03,   135.866E-06
C:/temp/dataset/3/25_8.odb,Step-1,Increment      1: Step Time =    1.000,"PART-1-1",           310,       7.25683,       13.8735,            0.,NA,NA,"",       6.14046,       6.13980,   90.2477E-03,   235.328E-06
C:/temp/dataset/3/25_8.odb,Step-1,Increment      1: Step Time =    1.000,"PART-1-1",           311,       8.36336,       12.6844,            0.,NA,NA,"",       5.85672,       5.85547,  -121.176E-03,   270.339E-06
C:/temp/dataset/3/25_8.odb,Step-1,Increment      1: Step Time =    1.000,"PART-1-1",           312,       14.0118,       9.82001,            0.,NA,NA,"",       5.25690,       5.09855,      -1.28055,   465.349E-06
C:/temp/dataset/3/25_8.odb,Step-1,Increment      1: Step Time =    1.000,"PART-1-1",           313,           15.,         11.25,            0.,NA,NA,"",       5.59868,       5.38579,      -1.52921,   575.064E-06
C:/temp/dataset/3/25_8.odb,Step-1,Increment      1: Step Time =    1.000,"PART-1-1",           314,       13.5880,       12.3315,            0.,NA,NA,"",       5.79076,       5.65473,      -1.24776,   241.004E-06
C:/temp/dataset/3/25_8.odb,Step-1,Increment      1: Step Time =    1.000,"PART-1-1",           315,       12.5998,       10.9015,            0.,NA,NA,"",       5.45994,       5.36783,  -998.705E-03,   279.932E-06
C:/temp/dataset/3/25_8.odb,Step-1,Increment      1: Step Time =    1.000,"PART-1-1",           316,       4.40482,  -219.892E-03,            0.,NA,NA,"",       3.28271,       3.11946,       1.02231,   11.7730E-03
C:/temp/dataset/3/25_8.odb,Step-1,Increment      1: Step Time =    1.000,"PART-1-1",           317,       3.45177,  -757.122E-03,            0.,NA,NA,"",       3.27966,       3.02544,       1.26607,   12.7532E-03
C:/temp/dataset/3/25_8.odb,Step-1,Increment      1: Step Time =    1.000,"PART-1-1",           318,       3.83014,      -1.74448,            0.,NA,NA,"",       3.02297,       2.77807,       1.19193,   16.8516E-03
C:/temp/dataset/3/25_8.odb,Step-1,Increment      1: Step Time =    1.000,"PART-1-1",           319,       4.78319,      -1.20725,            0.,NA,NA,"",       3.02546,       2.87302,   948.251E-03,   14.4172E-03
C:/temp/dataset/3/25_8.odb,Step-1,Increment      1: Step Time =    1.000,"PART-1-1",           320,       10.3408,      -10.0251,            0.,NA,NA,"",       1.05640,       1.05494,  -55.5055E-03,   3.48657E-03
C:/temp/dataset/3/25_8.odb,Step-1,Increment      1: Step Time =    1.000,"PART-1-1",           321,       11.1792,      -10.4860,            0.,NA,NA,"",   995.319E-03,   981.097E-03,  -167.652E-03,   5.85478E-03
C:/temp/dataset/3/25_8.odb,Step-1,Increment      1: Step Time =    1.000,"PART-1-1",           322,       11.5032,      -9.33080,            0.,NA,NA,"",       1.17132,       1.14764,  -234.341E-03,   9.68663E-03
C:/temp/dataset/3/25_8.odb,Step-1,Increment      1: Step Time =    1.000,"PART-1-1",           323,       10.6649,      -8.86986,            0.,NA,NA,"",       1.23133,       1.22590,  -115.537E-03,   3.32375E-03
C:/temp/dataset/3/25_8.odb,Step-1,Increment      1: Step Time =    1.000,"PART-1-1",           324,       9.41034,      -12.1888,            0.,NA,NA,"",   775.520E-03,   772.219E-03,   71.4749E-03,   13.1177E-03
C:/temp/dataset/3/25_8.odb,Step-1,Increment      1: Step Time =    1.000,"PART-1-1",           325,       10.5075,      -13.0214,            0.,NA,NA,"",   661.350E-03,   658.895E-03,  -56.9279E-03,   2.73241E-03
C:/temp/dataset/3/25_8.odb,Step-1,Increment      1: Step Time =    1.000,"PART-1-1",           326,       10.8652,      -11.6896,            0.,NA,NA,"",   828.129E-03,   820.695E-03,  -110.713E-03,   3.02256E-03
C:/temp/dataset/3/25_8.odb,Step-1,Increment      1: Step Time =    1.000,"PART-1-1",           327,       9.76802,      -10.8570,            0.,NA,NA,"",   944.218E-03,   943.819E-03,   27.4325E-03,   9.31638E-03
C:/temp/dataset/3/25_8.odb,Step-1,Increment      1: Step Time =    1.000,"PART-1-1",           328,       6.12016,      -19.7528,            0.,NA,NA,"",   204.477E-03,   96.6125E-03,   180.213E-03,   47.8128E-03
C:/temp/dataset/3/25_8.odb,Step-1,Increment      1: Step Time =    1.000,"PART-1-1",           329,       7.15653,      -18.4145,            0.,NA,NA,"",   248.811E-03,   180.119E-03,   171.651E-03,   29.7408E-03
C:/temp/dataset/3/25_8.odb,Step-1,Increment      1: Step Time =    1.000,"PART-1-1",           330,       6.03637,      -17.4116,            0.,NA,NA,"",   395.540E-03,   281.665E-03,   277.699E-03,   50.8011E-03
C:/temp/dataset/3/25_8.odb,Step-1,Increment      1: Step Time =    1.000,"PART-1-1",           331,            5.,        -18.75,            0.,NA,NA,"",   340.371E-03,   199.985E-03,   275.425E-03,   80.1985E-03
C:/temp/dataset/3/25_8.odb,Step-1,Increment      1: Step Time =    1.000,"PART-1-1",           332,       13.3604,      -22.4969,            0.,NA,NA,"",   122.536E-03,   24.8886E-03,  -119.982E-03,   25.2076E-03
C:/temp/dataset/3/25_8.odb,Step-1,Increment      1: Step Time =    1.000,"PART-1-1",           333,           15.,        -21.25,            0.,NA,NA,"",   227.677E-03,   81.6914E-03,  -212.516E-03,   40.5004E-03
C:/temp/dataset/3/25_8.odb,Step-1,Increment      1: Step Time =    1.000,"PART-1-1",           334,       13.4842,      -19.7901,            0.,NA,NA,"",   223.809E-03,   115.116E-03,  -191.934E-03,   29.9722E-03
C:/temp/dataset/3/25_8.odb,Step-1,Increment      1: Step Time =    1.000,"PART-1-1",           335,       11.8446,      -21.0370,            0.,NA,NA,"",   99.0144E-03,   51.8564E-03,  -84.3491E-03,   16.5751E-03
C:/temp/dataset/3/25_8.odb,Step-1,Increment      1: Step Time =    1.000,"PART-1-1",           336,       1.65000,            5.,            0.,NA,NA,"",       4.77307,       4.50298,       1.58284,   22.1735E-03
C:/temp/dataset/3/25_8.odb,Step-1,Increment      1: Step Time =    1.000,"PART-1-1",           337,   440.654E-03,       4.00571,            0.,NA,NA,"",       4.71392,       4.30718,       1.91553,   15.1078E-03
C:/temp/dataset/3/25_8.odb,Step-1,Increment      1: Step Time =    1.000,"PART-1-1",           338,       1.47063,       2.87974,            0.,NA,NA,"",       4.31768,       3.97776,       1.67923,   14.6855E-03
C:/temp/dataset/3/25_8.odb,Step-1,Increment      1: Step Time =    1.000,"PART-1-1",           339,       2.67998,       3.87403,            0.,NA,NA,"",       4.37866,       4.16513,       1.35069,   19.7869E-03
C:/temp/dataset/3/25_8.odb,Step-1,Increment      1: Step Time =    1.000,"PART-1-1",           340,      -1.46180,      -3.99231,            0.,NA,NA,"",       3.58222,       2.36841,       2.68755,   12.3967E-03
C:/temp/dataset/3/25_8.odb,Step-1,Increment      1: Step Time =    1.000,"PART-1-1",           341,     -500.E-03,           -5.,            0.,NA,NA,"",       3.21964,       2.07223,       2.46414,   13.8361E-03
C:/temp/dataset/3/25_8.odb,Step-1,Increment      1: Step Time =    1.000,"PART-1-1",           342,   718.491E-03,      -4.10961,            0.,NA,NA,"",       3.09542,       2.27699,       2.09688,   15.2362E-03
C:/temp/dataset/3/25_8.odb,Step-1,Increment      1: Step Time =    1.000,"PART-1-1",           343,  -243.313E-03,      -3.10192,            0.,NA,NA,"",       3.45548,       2.56283,       2.31781,   13.6199E-03
C:/temp/dataset/3/25_8.odb,Step-1,Increment      1: Step Time =    1.000,"PART-1-1",           344,      -3.82017,      -3.74247,            0.,NA,NA,"",       4.16203,       2.50394,       3.32458,   10.1898E-03
C:/temp/dataset/3/25_8.odb,Step-1,Increment      1: Step Time =    1.000,"PART-1-1",           345,      -2.71667,           -5.,            0.,NA,NA,"",       3.74988,       2.13747,       3.08104,   10.6601E-03
C:/temp/dataset/3/25_8.odb,Step-1,Increment      1: Step Time =    1.000,"PART-1-1",           346,      -2.56530,      -2.73478,            0.,NA,NA,"",       4.00942,       2.72672,       2.93947,   13.4701E-03
C:/temp/dataset/3/25_8.odb,Step-1,Increment      1: Step Time =    1.000,"PART-1-1",           347,      -13.8092,  -21.6491E-03,            0.,NA,NA,"",       6.93928,       3.79951,       5.80666,   325.297E-06
C:/temp/dataset/3/25_8.odb,Step-1,Increment      1: Step Time =    1.000,"PART-1-1",           348,      -12.6581,       1.21263,            0.,NA,NA,"",       6.82018,       4.08174,       5.46391,   264.520E-06
C:/temp/dataset/3/25_8.odb,Step-1,Increment      1: Step Time =    1.000,"PART-1-1",           349,      -13.8489,       2.48428,            0.,NA,NA,"",       7.25874,       4.45538,       5.73052,   262.679E-06
C:/temp/dataset/3/25_8.odb,Step-1,Increment      1: Step Time =    1.000,"PART-1-1",           350,          -15.,          1.25,            0.,NA,NA,"",       7.36894,       4.17290,       6.07357,   422.041E-06
C:/temp/dataset/3/25_8.odb,Step-1,Increment      1: Step Time =    1.000,"PART-1-1",           351,      -8.84172,   345.754E-03,            0.,NA,NA,"",       5.83867,       3.72365,       4.49717,   1.83401E-03
C:/temp/dataset/3/25_8.odb,Step-1,Increment      1: Step Time =    1.000,"PART-1-1",           352,      -9.20019,  -788.270E-03,            0.,NA,NA,"",       5.77003,       3.44074,       4.63191,   1.96166E-03
C:/temp/dataset/3/25_8.odb,Step-1,Increment      1: Step Time =    1.000,"PART-1-1",           353,      -7.61937,      -1.21646,            0.,NA,NA,"",       5.35390,       3.27693,       4.23391,   4.25372E-03
C:/temp/dataset/3/25_8.odb,Step-1,Increment      1: Step Time =    1.000,"PART-1-1",           354,      -7.26090,  -82.4387E-03,            0.,NA,NA,"",       5.42681,       3.55881,       4.09697,   4.21498E-03
C:/temp/dataset/3/25_8.odb,Step-1,Increment      1: Step Time =    1.000,"PART-1-1",           355,      -12.7466,      -3.77621,            0.,NA,NA,"",       6.30723,       2.78572,       5.65870,   362.158E-06
C:/temp/dataset/3/25_8.odb,Step-1,Increment      1: Step Time =    1.000,"PART-1-1",           356,      -13.8633,      -2.52621,            0.,NA,NA,"",       6.69365,       3.14916,       5.90659,   332.990E-06
C:/temp/dataset/3/25_8.odb,Step-1,Increment      1: Step Time =    1.000,"PART-1-1",           357,          -15.,         -3.75,            0.,NA,NA,"",       6.87234,       2.87018,       6.24428,   141.975E-06
C:/temp/dataset/3/25_8.odb,Step-1,Increment      1: Step Time =    1.000,"PART-1-1",           358,      -13.8833,           -5.,            0.,NA,NA,"",       6.49954,       2.50663,       5.99673,   161.604E-06
C:/temp/dataset/3/25_8.odb,Step-1,Increment      1: Step Time =    1.000,"PART-1-1",           359,      -5.03830,      -2.71522,            0.,NA,NA,"",       4.57316,       2.80822,       3.60940,   9.86744E-03
C:/temp/dataset/3/25_8.odb,Step-1,Increment      1: Step Time =    1.000,"PART-1-1",           360,      -4.43911,      -1.50749,            0.,NA,NA,"",       4.60032,       3.09960,       3.39933,   10.2595E-03
C:/temp/dataset/3/25_8.odb,Step-1,Increment      1: Step Time =    1.000,"PART-1-1",           361,      -5.95808,  -763.119E-03,            0.,NA,NA,"",       5.04197,       3.33983,       3.77717,   6.97978E-03
C:/temp/dataset/3/25_8.odb,Step-1,Increment      1: Step Time =    1.000,"PART-1-1",           362,      -6.55726,      -1.97085,            0.,NA,NA,"",       5.01563,       3.04770,       3.98347,   6.84571E-03
C:/temp/dataset/3/25_8.odb,Step-1,Increment      1: Step Time =    1.000,"PART-1-1",           363,          6.25,          -30.,            0.,NA,NA,"",            0.,  -3.35082E-39,   13.5420E-39,   7.85478E-03
C:/temp/dataset/3/25_8.odb,Step-1,Increment      1: Step Time =    1.000,"PART-1-1",           364,       7.47038,      -28.9473,            0.,NA,NA,"",   9.88301E-03,  -8.22623E-03,   5.47751E-03,   9.11051E-03
C:/temp/dataset/3/25_8.odb,Step-1,Increment      1: Step Time =    1.000,"PART-1-1",           365,       6.18647,      -27.8786,            0.,NA,NA,"",   18.3862E-03,  -4.98552E-03,   17.6973E-03,   11.6928E-03
C:/temp/dataset/3/25_8.odb,Step-1,Increment      1: Step Time =    1.000,"PART-1-1",           366,       4.96608,      -28.9312,            0.,NA,NA,"",   8.29865E-03,   353.055E-06,   8.29113E-03,   10.5563E-03
C:/temp/dataset/3/25_8.odb,Step-1,Increment      1: Step Time =    1.000,"PART-1-1",           367,       3.70492,      -27.8047,            0.,NA,NA,"",   21.0353E-03,   9.22588E-03,   18.9041E-03,   12.1026E-03
C:/temp/dataset/3/25_8.odb,Step-1,Increment      1: Step Time =    1.000,"PART-1-1",           368,       2.48883,      -28.8735,            0.,NA,NA,"",   10.7317E-03,   7.55268E-03,   7.62401E-03,   10.1295E-03
C:/temp/dataset/3/25_8.odb,Step-1,Increment      1: Step Time =    1.000,"PART-1-1",           369,          3.75,          -30.,            0.,NA,NA,"",            0.,   2.44671E-39,   15.8367E-39,   8.52371E-03
C:/temp/dataset/3/25_8.odb,Step-1,Increment      1: Step Time =    1.000,"PART-1-1",           370,      -3.72203,      -27.5999,            0.,NA,NA,"",   17.4371E-03,   17.1742E-03,   3.01657E-03,   5.05844E-03
C:/temp/dataset/3/25_8.odb,Step-1,Increment      1: Step Time =    1.000,"PART-1-1",           371,      -4.98725,      -28.7922,            0.,NA,NA,"",   8.61504E-03,   8.52908E-03,   1.21397E-03,   4.67800E-03
C:/temp/dataset/3/25_8.odb,Step-1,Increment      1: Step Time =    1.000,"PART-1-1",           372,         -3.75,          -30.,            0.,NA,NA,"",            0.,   5.38363E-39,   4.58765E-39,   6.01913E-03
C:/temp/dataset/3/25_8.odb,Step-1,Increment      1: Step Time =    1.000,"PART-1-1",           373,      -2.48478,      -28.8077,            0.,NA,NA,"",   10.6415E-03,   10.2955E-03,   2.69145E-03,   6.33213E-03
C:/temp/dataset/3/25_8.odb,Step-1,Increment      1: Step Time =    1.000,"PART-1-1",           374,      -13.7501,      -27.5099,            0.,NA,NA,"",   9.71818E-03,   9.30519E-03,   2.80293E-03,   1.53611E-03
C:/temp/dataset/3/25_8.odb,Step-1,Increment      1: Step Time =    1.000,"PART-1-1",           375,          -15.,        -28.75,            0.,NA,NA,"",   6.49816E-03,   5.34769E-03,   3.69165E-03,   2.81388E-03
C:/temp/dataset/3/25_8.odb,Step-1,Increment      1: Step Time =    1.000,"PART-1-1",           376,        -13.75,          -30.,            0.,NA,NA,"",            0.,   857.488E-42,   3.01912E-39,   3.13485E-03
C:/temp/dataset/3/25_8.odb,Step-1,Increment      1: Step Time =    1.000,"PART-1-1",           377,      -12.5001,      -28.7599,            0.,NA,NA,"",   4.44529E-03,   4.37420E-03,   791.853E-06,   2.31410E-03
C:/temp/dataset/3/25_8.odb,Step-1,Increment      1: Step Time =    1.000,"PART-1-1",           378,       8.15833,      -10.8587,            0.,NA,NA,"",       1.00078,   971.068E-03,   242.067E-03,   25.6784E-03
C:/temp/dataset/3/25_8.odb,Step-1,Increment      1: Step Time =    1.000,"PART-1-1",           379,       9.00498,      -9.90697,            0.,NA,NA,"",       1.09977,       1.09159,   133.888E-03,   16.6924E-03
C:/temp/dataset/3/25_8.odb,Step-1,Increment      1: Step Time =    1.000,"PART-1-1",           380,       8.08915,      -8.55627,            0.,NA,NA,"",       1.34578,       1.31660,   278.715E-03,   26.0293E-03
C:/temp/dataset/3/25_8.odb,Step-1,Increment      1: Step Time =    1.000,"PART-1-1",           381,       7.24249,      -9.50802,            0.,NA,NA,"",       1.25138,       1.18865,   391.245E-03,   34.0978E-03
C:/temp/dataset/3/25_8.odb,Step-1,Increment      1: Step Time =    1.000,"PART-1-1",           382,       13.9816,      -2.51124,            0.,NA,NA,"",       2.54445,       2.37841,  -904.080E-03,   22.0960E-03
C:/temp/dataset/3/25_8.odb,Step-1,Increment      1: Step Time =    1.000,"PART-1-1",           383,           15.,         -1.25,            0.,NA,NA,"",       2.88307,       2.63306,      -1.17433,   21.5624E-03
C:/temp/dataset/3/25_8.odb,Step-1,Increment      1: Step Time =    1.000,"PART-1-1",           384,       13.8213,  -48.4001E-03,            0.,NA,NA,"",       3.07021,       2.91424,  -966.120E-03,   13.9917E-03
C:/temp/dataset/3/25_8.odb,Step-1,Increment      1: Step Time =    1.000,"PART-1-1",           385,       12.8030,      -1.30964,            0.,NA,NA,"",       2.74601,       2.65278,  -709.485E-03,   17.6830E-03
C:/temp/dataset/3/25_8.odb,Step-1,Increment      1: Step Time =    1.000,"PART-1-1",           386,           15.,          1.25,            0.,NA,NA,"",       3.42443,       3.17996,      -1.27067,   11.0140E-03
C:/temp/dataset/3/25_8.odb,Step-1,Increment      1: Step Time =    1.000,"PART-1-1",           387,       13.5709,       2.55070,            0.,NA,NA,"",       3.64058,       3.50118,  -997.769E-03,   7.16044E-03
C:/temp/dataset/3/25_8.odb,Step-1,Increment      1: Step Time =    1.000,"PART-1-1",           388,       12.3922,       1.25230,            0.,NA,NA,"",       3.31007,       3.23358,  -707.499E-03,   13.4027E-03
C:/temp/dataset/3/25_8.odb,Step-1,Increment      1: Step Time =    1.000,"PART-1-1",           389,      -5.00532,       26.2655,            0.,NA,NA,"",       9.44736,       9.12242,       2.45644,   5.47153E-09
C:/temp/dataset/3/25_8.odb,Step-1,Increment      1: Step Time =    1.000,"PART-1-1",           390,      -3.75495,       25.0275,            0.,NA,NA,"",       9.09753,       8.82388,       2.21454,   30.4775E-09
C:/temp/dataset/3/25_8.odb,Step-1,Increment      1: Step Time =    1.000,"PART-1-1",           391,      -2.50780,       26.2820,            0.,NA,NA,"",       9.26625,       9.06644,       1.91390,   38.5824E-09
C:/temp/dataset/3/25_8.odb,Step-1,Increment      1: Step Time =    1.000,"PART-1-1",           392,      -3.75817,       27.5199,            0.,NA,NA,"",       9.60991,       9.36498,       2.15581,   18.1429E-09
C:/temp/dataset/3/25_8.odb,Step-1,Increment      1: Step Time =    1.000,"PART-1-1",           393,      -5.00193,       23.7670,            0.,NA,NA,"",       8.94107,       8.57998,       2.51528,   5.82218E-09
C:/temp/dataset/3/25_8.odb,Step-1,Increment      1: Step Time =    1.000,"PART-1-1",           394,      -6.25406,       25.0149,            0.,NA,NA,"",       9.29892,       8.88072,       2.75732,   4.67698E-09
C:/temp/dataset/3/25_8.odb,Step-1,Increment      1: Step Time =    1.000,"PART-1-1",           395,      -7.50285,       23.7600,            0.,NA,NA,"",       9.16352,       8.63810,       3.05832,   4.55089E-09
C:/temp/dataset/3/25_8.odb,Step-1,Increment      1: Step Time =    1.000,"PART-1-1",           396,      -6.25071,       22.5121,            0.,NA,NA,"",       8.80017,       8.33736,       2.81628,   5.41711E-09
C:/temp/dataset/3/25_8.odb,Step-1,Increment      1: Step Time =    1.000,"PART-1-1",           397,      -12.5007,       23.7543,            0.,NA,NA,"",       9.68688,       8.75604,       4.14335,   1.51268E-09
C:/temp/dataset/3/25_8.odb,Step-1,Increment      1: Step Time =    1.000,"PART-1-1",           398,      -13.7507,       25.0026,            0.,NA,NA,"",       10.0625,       9.05681,       4.38492,   1.41239E-09
C:/temp/dataset/3/25_8.odb,Step-1,Increment      1: Step Time =    1.000,"PART-1-1",           399,          -15.,         23.75,            0.,NA,NA,"",       9.98285,       8.81470,       4.68598,   1.24725E-09
C:/temp/dataset/3/25_8.odb,Step-1,Increment      1: Step Time =    1.000,"PART-1-1",           400,       1.22659,       27.5580,            0.,NA,NA,"",       9.31636,       9.25438,       1.07285,   322.986E-09
C:/temp/dataset/3/25_8.odb,Step-1,Increment      1: Step Time =    1.000,"PART-1-1",           401,       2.48534,       28.7828,            0.,NA,NA,"",       9.52147,       9.49025,   770.401E-03,   325.040E-09
C:/temp/dataset/3/25_8.odb,Step-1,Increment      1: Step Time =    1.000,"PART-1-1",           402,          1.25,           30.,            0.,NA,NA,"",       9.83587,       9.78392,       1.00954,   204.841E-09
C:/temp/dataset/3/25_8.odb,Step-1,Increment      1: Step Time =    1.000,"PART-1-1",           403,  -8.74824E-03,       28.7751,            0.,NA,NA,"",       9.63777,       9.54806,       1.31198,   98.5826E-09
C:/temp/dataset/3/25_8.odb,Step-1,Increment      1: Step Time =    1.000,"PART-1-1",           404,  -16.7069E-03,       26.3073,            0.,NA,NA,"",       9.11645,       9.01254,       1.37255,   180.166E-09
C:/temp/dataset/3/25_8.odb,Step-1,Increment      1: Step Time =    1.000,"PART-1-1",           405,       2.46714,       26.3253,            0.,NA,NA,"",       8.99588,       8.95724,   832.947E-03,   521.156E-09
C:/temp/dataset/3/25_8.odb,Step-1,Increment      1: Step Time =    1.000,"PART-1-1",           406,       3.70751,       22.5746,            0.,NA,NA,"",       8.13972,       8.11348,   653.135E-03,   1.45485E-06
C:/temp/dataset/3/25_8.odb,Step-1,Increment      1: Step Time =    1.000,"PART-1-1",           407,       2.48879,       21.2797,            0.,NA,NA,"",       7.91846,       7.86144,   948.562E-03,   546.823E-09
C:/temp/dataset/3/25_8.odb,Step-1,Increment      1: Step Time =    1.000,"PART-1-1",           408,          3.75,           20.,            0.,NA,NA,"",       7.58645,       7.55359,   705.302E-03,   2.46649E-06
C:/temp/dataset/3/25_8.odb,Step-1,Increment      1: Step Time =    1.000,"PART-1-1",           409,       4.96872,       21.2949,            0.,NA,NA,"",       7.81638,       7.80563,   409.876E-03,   1.31797E-06
C:/temp/dataset/3/25_8.odb,Step-1,Increment      1: Step Time =    1.000,"PART-1-1",           410,       10.8479,       12.4309,            0.,NA,NA,"",       5.77886,       5.74169,  -654.392E-03,   283.162E-06
C:/temp/dataset/3/25_8.odb,Step-1,Increment      1: Step Time =    1.000,"PART-1-1",           411,       9.34812,       11.6387,            0.,NA,NA,"",       5.61386,       5.60532,  -309.571E-03,   372.214E-06
C:/temp/dataset/3/25_8.odb,Step-1,Increment      1: Step Time =    1.000,"PART-1-1",           412,       9.99050,       10.5520,            0.,NA,NA,"",       5.37102,       5.35435,  -422.838E-03,   311.967E-06
C:/temp/dataset/3/25_8.odb,Step-1,Increment      1: Step Time =    1.000,"PART-1-1",           413,       11.4903,       11.3442,            0.,NA,NA,"",       5.54397,       5.49053,  -767.907E-03,   306.538E-06
C:/temp/dataset/3/25_8.odb,Step-1,Increment      1: Step Time =    1.000,"PART-1-1",           414,       7.16850,       11.5014,            0.,NA,NA,"",       5.62948,       5.62703,   166.066E-03,   438.959E-06
C:/temp/dataset/3/25_8.odb,Step-1,Increment      1: Step Time =    1.000,"PART-1-1",           415,       6.10343,       12.5850,            0.,NA,NA,"",       5.89918,       5.88751,   370.952E-03,   259.301E-06
C:/temp/dataset/3/25_8.odb,Step-1,Increment      1: Step Time =    1.000,"PART-1-1",           416,            5.,         11.25,            0.,NA,NA,"",       5.66061,       5.62414,   641.460E-03,   804.463E-06
C:/temp/dataset/3/25_8.odb,Step-1,Increment      1: Step Time =    1.000,"PART-1-1",           417,       6.06507,       10.1664,            0.,NA,NA,"",       5.38129,       5.36359,   436.122E-03,   682.056E-06
C:/temp/dataset/3/25_8.odb,Step-1,Increment      1: Step Time =    1.000,"PART-1-1",           418,       14.0565,       5.06378,            0.,NA,NA,"",       4.21912,       4.05239,      -1.17434,   1.89166E-03
C:/temp/dataset/3/25_8.odb,Step-1,Increment      1: Step Time =    1.000,"PART-1-1",           419,       12.6274,       3.86448,            0.,NA,NA,"",       3.90786,       3.81846,  -831.122E-03,   7.07953E-03
C:/temp/dataset/3/25_8.odb,Step-1,Increment      1: Step Time =    1.000,"PART-1-1",           420,           15.,          3.75,            0.,NA,NA,"",       3.97265,       3.73693,      -1.34805,   3.44002E-03
C:/temp/dataset/3/25_8.odb,Step-1,Increment      1: Step Time =    1.000,"PART-1-1",           421,       10.0280,       5.47301,            0.,NA,NA,"",       4.25650,       4.24501,  -312.606E-03,   5.94296E-03
C:/temp/dataset/3/25_8.odb,Step-1,Increment      1: Step Time =    1.000,"PART-1-1",           422,       11.0614,       5.01383,            0.,NA,NA,"",       4.14841,       4.11521,  -523.834E-03,   5.99480E-03
C:/temp/dataset/3/25_8.odb,Step-1,Increment      1: Step Time =    1.000,"PART-1-1",           423,       11.6033,       6.33570,            0.,NA,NA,"",       4.44562,       4.39450,  -672.273E-03,   3.11281E-03
C:/temp/dataset/3/25_8.odb,Step-1,Increment      1: Step Time =    1.000,"PART-1-1",           424,       10.5698,       6.79489,            0.,NA,NA,"",       4.54542,       4.52215,  -459.430E-03,   2.83992E-03
C:/temp/dataset/3/25_8.odb,Step-1,Increment      1: Step Time =    1.000,"PART-1-1",           425,      -4.94418,       3.17107,            0.,NA,NA,"",       5.47540,       4.31902,       3.36542,   5.12397E-03
C:/temp/dataset/3/25_8.odb,Step-1,Increment      1: Step Time =    1.000,"PART-1-1",           426,      -3.90803,       4.11594,            0.,NA,NA,"",       5.46186,       4.52568,       3.05781,   5.07846E-03
C:/temp/dataset/3/25_8.odb,Step-1,Increment      1: Step Time =    1.000,"PART-1-1",           427,      -5.05000,            5.,            0.,NA,NA,"",       5.84611,       4.80435,       3.33096,   2.79273E-03
C:/temp/dataset/3/25_8.odb,Step-1,Increment      1: Step Time =    1.000,"PART-1-1",           428,      -6.08615,       4.05513,            0.,NA,NA,"",       5.86002,       4.59353,       3.63859,   2.05364E-03
C:/temp/dataset/3/25_8.odb,Step-1,Increment      1: Step Time =    1.000,"PART-1-1",           429,      -3.86135,       2.39128,            0.,NA,NA,"",       5.12215,       4.07557,       3.10261,   7.49951E-03
C:/temp/dataset/3/25_8.odb,Step-1,Increment      1: Step Time =    1.000,"PART-1-1",           430,      -5.85027,       2.20434,            0.,NA,NA,"",       5.48392,       4.10160,       3.64009,   4.55322E-03
C:/temp/dataset/3/25_8.odb,Step-1,Increment      1: Step Time =    1.000,"PART-1-1",           431,      -4.76744,       1.42454,            0.,NA,NA,"",       5.13029,       3.86088,       3.37838,   7.21972E-03
C:/temp/dataset/3/25_8.odb,Step-1,Increment      1: Step Time =    1.000,"PART-1-1",           432,      -9.29397,       2.69508,            0.,NA,NA,"",       6.28372,       4.35220,       4.53249,   709.967E-06
C:/temp/dataset/3/25_8.odb,Step-1,Increment      1: Step Time =    1.000,"PART-1-1",           433,      -8.28887,       3.92576,            0.,NA,NA,"",       6.27480,       4.63911,       4.22513,   629.926E-06
C:/temp/dataset/3/25_8.odb,Step-1,Increment      1: Step Time =    1.000,"PART-1-1",           434,          -9.5,            5.,            0.,NA,NA,"",       6.70328,       4.96321,       4.50560,   520.465E-06
C:/temp/dataset/3/25_8.odb,Step-1,Increment      1: Step Time =    1.000,"PART-1-1",           435,      -10.5051,       3.76932,            0.,NA,NA,"",       6.70962,       4.67559,       4.81226,   296.520E-06
C:/temp/dataset/3/25_8.odb,Step-1,Increment      1: Step Time =    1.000,"PART-1-1",           436,      -7.92731,       1.84143,            0.,NA,NA,"",       5.85868,       4.08138,       4.20315,   2.12639E-03
C:/temp/dataset/3/25_8.odb,Step-1,Increment      1: Step Time =    1.000,"PART-1-1",           437,      -6.68589,       1.06488,            0.,NA,NA,"",       5.47238,       3.83617,       3.90266,   4.34079E-03
C:/temp/dataset/3/25_8.odb,Step-1,Increment      1: Step Time =    1.000,"PART-1-1",           438,      -7.09169,       2.98089,            0.,NA,NA,"",       5.86977,       4.34885,       3.94229,   2.45087E-03
C:/temp/dataset/3/25_8.odb,Step-1,Increment      1: Step Time =    1.000,"PART-1-1",           439,      -13.9000,            5.,            0.,NA,NA,"",       7.62603,       5.11470,       5.65652,   89.5219E-06
C:/temp/dataset/3/25_8.odb,Step-1,Increment      1: Step Time =    1.000,"PART-1-1",           440,          -15.,          3.75,            0.,NA,NA,"",       7.69028,       4.82626,       5.98729,   99.3360E-06
C:/temp/dataset/3/25_8.odb,Step-1,Increment      1: Step Time =    1.000,"PART-1-1",           441,      -12.7489,       3.73428,            0.,NA,NA,"",       7.18786,       4.74407,       5.39992,   272.782E-06
C:/temp/dataset/3/25_8.odb,Step-1,Increment      1: Step Time =    1.000,"PART-1-1",           442,      -9.48823,      -2.88104,            0.,NA,NA,"",       5.59605,       2.90647,       4.78208,   1.87422E-03
C:/temp/dataset/3/25_8.odb,Step-1,Increment      1: Step Time =    1.000,"PART-1-1",           443,      -8.42388,      -2.23568,            0.,NA,NA,"",       5.41556,       3.03880,       4.48263,   3.30917E-03
C:/temp/dataset/3/25_8.odb,Step-1,Increment      1: Step Time =    1.000,"PART-1-1",           444,      -10.2645,      -1.43363,            0.,NA,NA,"",       5.93932,       3.30894,       4.93219,   657.823E-06
C:/temp/dataset/3/25_8.odb,Step-1,Increment      1: Step Time =    1.000,"PART-1-1",           445,      -12.6725,      -1.29786,            0.,NA,NA,"",       6.52672,       3.42749,       5.55432,   245.282E-06
C:/temp/dataset/3/25_8.odb,Step-1,Increment      1: Step Time =    1.000,"PART-1-1",           446,          -15.,         -1.25,            0.,NA,NA,"",       7.09419,       3.52069,       6.15892,   475.945E-06
C:/temp/dataset/3/25_8.odb,Step-1,Increment      1: Step Time =    1.000,"PART-1-1",           447,      -6.16813,      -3.97275,            0.,NA,NA,"",       4.69482,       2.51834,       3.96224,   8.13083E-03
C:/temp/dataset/3/25_8.odb,Step-1,Increment      1: Step Time =    1.000,"PART-1-1",           448,      -4.95000,           -5.,            0.,NA,NA,"",       4.29429,       2.20995,       3.68199,   7.80027E-03
C:/temp/dataset/3/25_8.odb,Step-1,Increment      1: Step Time =    1.000,"PART-1-1",           449,       1.59412,  -355.999E-03,            0.,NA,NA,"",       3.62685,       3.18586,       1.73331,   13.2168E-03
C:/temp/dataset/3/25_8.odb,Step-1,Increment      1: Step Time =    1.000,"PART-1-1",           450,       2.17826,      -1.53992,            0.,NA,NA,"",       3.30163,       2.88032,       1.61387,   15.5604E-03
C:/temp/dataset/3/25_8.odb,Step-1,Increment      1: Step Time =    1.000,"PART-1-1",           451,       2.86763,   426.804E-03,            0.,NA,NA,"",       3.60586,       3.32886,       1.38599,   11.6111E-03
C:/temp/dataset/3/25_8.odb,Step-1,Increment      1: Step Time =    1.000,"PART-1-1",           452,  -387.277E-03,   5.26357E-03,            0.,NA,NA,"",       4.02949,       3.34393,       2.24831,   13.5937E-03
C:/temp/dataset/3/25_8.odb,Step-1,Increment      1: Step Time =    1.000,"PART-1-1",           453,   283.611E-03,      -1.19839,            0.,NA,NA,"",       3.68571,       3.02387,       2.10728,   14.5022E-03
C:/temp/dataset/3/25_8.odb,Step-1,Increment      1: Step Time =    1.000,"PART-1-1",           454,   923.228E-03,   847.652E-03,            0.,NA,NA,"",       3.97319,       3.50273,       1.87540,   13.2928E-03
C:/temp/dataset/3/25_8.odb,Step-1,Increment      1: Step Time =    1.000,"PART-1-1",           455,       6.35531,      -13.1332,            0.,NA,NA,"",   825.630E-03,   716.284E-03,   410.613E-03,   44.1740E-03
C:/temp/dataset/3/25_8.odb,Step-1,Increment      1: Step Time =    1.000,"PART-1-1",           456,       7.49455,      -12.2656,            0.,NA,NA,"",   852.154E-03,   796.945E-03,   301.739E-03,   33.0010E-03
C:/temp/dataset/3/25_8.odb,Step-1,Increment      1: Step Time =    1.000,"PART-1-1",           457,       6.13925,      -10.3824,            0.,NA,NA,"",       1.20962,       1.09010,   524.273E-03,   45.6039E-03
C:/temp/dataset/3/25_8.odb,Step-1,Increment      1: Step Time =    1.000,"PART-1-1",           458,            5.,        -11.25,            0.,NA,NA,"",       1.19182,       1.00209,   645.183E-03,   56.6826E-03
C:/temp/dataset/3/25_8.odb,Step-1,Increment      1: Step Time =    1.000,"PART-1-1",           459,       13.3376,      -16.9670,            0.,NA,NA,"",   385.186E-03,   282.065E-03,  -262.311E-03,   29.6012E-03
C:/temp/dataset/3/25_8.odb,Step-1,Increment      1: Step Time =    1.000,"PART-1-1",           460,       11.8219,      -18.0071,            0.,NA,NA,"",   235.324E-03,   198.369E-03,  -126.598E-03,   14.6135E-03
C:/temp/dataset/3/25_8.odb,Step-1,Increment      1: Step Time =    1.000,"PART-1-1",           461,           15.,        -18.75,            0.,NA,NA,"",   367.445E-03,   191.300E-03,  -313.720E-03,   45.6900E-03
C:/temp/dataset/3/25_8.odb,Step-1,Increment      1: Step Time =    1.000,"PART-1-1",           462,       8.42876,      -15.2973,            0.,NA,NA,"",   458.858E-03,   435.214E-03,   145.394E-03,   22.9370E-03
C:/temp/dataset/3/25_8.odb,Step-1,Increment      1: Step Time =    1.000,"PART-1-1",           463,       10.4111,      -16.6310,            0.,NA,NA,"",   298.799E-03,   296.920E-03,  -33.4638E-03,   2.09367E-03
C:/temp/dataset/3/25_8.odb,Step-1,Increment      1: Step Time =    1.000,"PART-1-1",           464,       10.7289,      -14.9294,            0.,NA,NA,"",   455.827E-03,   450.526E-03,  -69.3123E-03,   2.17680E-03
C:/temp/dataset/3/25_8.odb,Step-1,Increment      1: Step Time =    1.000,"PART-1-1",           465,       8.74656,      -13.5956,            0.,NA,NA,"",   627.221E-03,   612.127E-03,   136.773E-03,   20.3353E-03
C:/temp/dataset/3/25_8.odb,Step-1,Increment      1: Step Time =    1.000,"PART-1-1",           466,      -8.72016,      -22.5745,            0.,NA,NA,"",   24.5178E-03,   24.4750E-03,  -1.44836E-03,   913.491E-06
C:/temp/dataset/3/25_8.odb,Step-1,Increment      1: Step Time =    1.000,"PART-1-1",           467,      -7.48342,      -21.2909,            0.,NA,NA,"",   26.3565E-03,   26.2670E-03,  -2.17006E-03,   526.670E-06
C:/temp/dataset/3/25_8.odb,Step-1,Increment      1: Step Time =    1.000,"PART-1-1",           468,         -8.75,          -20.,            0.,NA,NA,"",   26.7638E-03,   26.7034E-03,  -1.79718E-03,   126.426E-06
C:/temp/dataset/3/25_8.odb,Step-1,Increment      1: Step Time =    1.000,"PART-1-1",           469,      -9.98674,      -21.2836,            0.,NA,NA,"",   25.5072E-03,   25.4956E-03,  -767.642E-06,   245.610E-06
C:/temp/dataset/3/25_8.odb,Step-1,Increment      1: Step Time =    1.000,"PART-1-1",           470,      -4.96670,      -26.3491,            0.,NA,NA,"",   21.2674E-03,   21.1908E-03,   1.80309E-03,   3.80711E-03
C:/temp/dataset/3/25_8.odb,Step-1,Increment      1: Step Time =    1.000,"PART-1-1",           471,      -6.21541,      -25.0985,            0.,NA,NA,"",   23.0642E-03,   23.0639E-03,   125.896E-06,   2.87575E-03
C:/temp/dataset/3/25_8.odb,Step-1,Increment      1: Step Time =    1.000,"PART-1-1",           472,      -7.47738,      -26.3212,            0.,NA,NA,"",   17.4145E-03,   17.4139E-03,   146.708E-06,   2.80087E-03
C:/temp/dataset/3/25_8.odb,Step-1,Increment      1: Step Time =    1.000,"PART-1-1",           473,      -6.22867,      -27.5719,            0.,NA,NA,"",   14.0064E-03,   13.9733E-03,   963.588E-06,   3.78439E-03
C:/temp/dataset/3/25_8.odb,Step-1,Increment      1: Step Time =    1.000,"PART-1-1",           474,   49.7896E-03,      -26.4387,            0.,NA,NA,"",   31.4900E-03,   27.2353E-03,   15.8068E-03,   8.57117E-03
C:/temp/dataset/3/25_8.odb,Step-1,Increment      1: Step Time =    1.000,"PART-1-1",           475,       1.24862,      -27.7048,            0.,NA,NA,"",   22.4934E-03,   17.8313E-03,   13.7114E-03,   9.63475E-03
C:/temp/dataset/3/25_8.odb,Step-1,Increment      1: Step Time =    1.000,"PART-1-1",           476,       2.52056,      -26.5649,            0.,NA,NA,"",   35.3287E-03,   21.9306E-03,   27.6977E-03,   13.0251E-03
C:/temp/dataset/3/25_8.odb,Step-1,Increment      1: Step Time =    1.000,"PART-1-1",           477,       1.32172,      -25.2988,            0.,NA,NA,"",   44.4189E-03,   33.3796E-03,   29.3060E-03,   11.5647E-03
C:/temp/dataset/3/25_8.odb,Step-1,Increment      1: Step Time =    1.000,"PART-1-1",           478,        -13.75,          -20.,            0.,NA,NA,"",   27.7760E-03,   27.3865E-03,   4.63537E-03,   70.6632E-06
C:/temp/dataset/3/25_8.odb,Step-1,Increment      1: Step Time =    1.000,"PART-1-1",           479,          -15.,        -21.25,            0.,NA,NA,"",   26.2028E-03,   25.3024E-03,   6.80998E-03,   58.6929E-06
C:/temp/dataset/3/25_8.odb,Step-1,Increment      1: Step Time =    1.000,"PART-1-1",           480,      -13.7430,      -22.5153,            0.,NA,NA,"",   23.5829E-03,   23.1275E-03,   4.61232E-03,   65.1016E-06
C:/temp/dataset/3/25_8.odb,Step-1,Increment      1: Step Time =    1.000,"PART-1-1",           481,      -12.4930,      -21.2653,            0.,NA,NA,"",   25.4196E-03,   25.2962E-03,   2.50132E-03,   39.1200E-06
C:/temp/dataset/3/25_8.odb,Step-1,Increment      1: Step Time =    1.000,"PART-1-1",           482,      -11.2297,      -22.5489,            0.,NA,NA,"",   23.3792E-03,   23.3681E-03,   720.564E-06,   414.338E-06
C:/temp/dataset/3/25_8.odb,Step-1,Increment      1: Step Time =    1.000,"PART-1-1",           483,        -11.25,          -20.,            0.,NA,NA,"",   27.0934E-03,   27.0841E-03,   709.692E-06,   159.945E-06
C:/temp/dataset/3/25_8.odb,Step-1,Increment      1: Step Time =    1.000,"PART-1-1",           484,      -13.7448,      -25.0201,            0.,NA,NA,"",   18.1490E-03,   17.6103E-03,   4.38920E-03,   490.320E-06
C:/temp/dataset/3/25_8.odb,Step-1,Increment      1: Step Time =    1.000,"PART-1-1",           485,      -12.4878,      -23.7854,            0.,NA,NA,"",   20.7936E-03,   20.6507E-03,   2.43339E-03,   553.119E-06
C:/temp/dataset/3/25_8.odb,Step-1,Increment      1: Step Time =    1.000,"PART-1-1",           486,          -15.,        -23.75,            0.,NA,NA,"",   21.8159E-03,   20.6329E-03,   7.08627E-03,   48.5109E-06
C:/temp/dataset/3/25_8.odb,Step-1,Increment      1: Step Time =    1.000,"PART-1-1",           487,       13.7335,      -27.5520,            0.,NA,NA,"",   33.9214E-03,  -9.12761E-03,  -32.6703E-03,   18.1146E-03
C:/temp/dataset/3/25_8.odb,Step-1,Increment      1: Step Time =    1.000,"PART-1-1",           488,       12.4835,      -28.8020,            0.,NA,NA,"",   15.1771E-03,  -11.2780E-03,  -10.1564E-03,   13.4666E-03
C:/temp/dataset/3/25_8.odb,Step-1,Increment      1: Step Time =    1.000,"PART-1-1",           489,         13.75,          -30.,            0.,NA,NA,"",            0.,  -4.21019E-39,  -20.8634E-39,   11.8636E-03
C:/temp/dataset/3/25_8.odb,Step-1,Increment      1: Step Time =    1.000,"PART-1-1",           490,           15.,        -28.75,            0.,NA,NA,"",   16.4627E-03,   4.60145E-03,  -15.8066E-03,   17.3055E-03
C:/temp/dataset/3/25_8.odb,Step-1,Increment      1: Step Time =    1.000,"PART-1-1",           491,       9.98010,      -28.8907,            0.,NA,NA,"",   13.7874E-03,  -13.7485E-03,  -1.03473E-03,   8.79128E-03
C:/temp/dataset/3/25_8.odb,Step-1,Increment      1: Step Time =    1.000,"PART-1-1",           492,       8.70049,      -27.8380,            0.,NA,NA,"",   19.2595E-03,  -17.8229E-03,   7.29874E-03,   7.94926E-03
C:/temp/dataset/3/25_8.odb,Step-1,Increment      1: Step Time =    1.000,"PART-1-1",           493,          8.75,          -30.,            0.,NA,NA,"",            0.,  -8.56266E-39,   3.88196E-39,   8.52043E-03
C:/temp/dataset/3/25_8.odb,Step-1,Increment      1: Step Time =    1.000,"PART-1-1",           494,       11.2136,      -27.6927,            0.,NA,NA,"",   23.9043E-03,  -20.9676E-03,  -11.4793E-03,   9.87620E-03
C:/temp/dataset/3/25_8.odb,Step-1,Increment      1: Step Time =    1.000,"PART-1-1",           495,       12.3768,      -26.3916,            0.,NA,NA,"",   40.2870E-03,  -19.5449E-03,  -35.2283E-03,   15.7476E-03
C:/temp/dataset/3/25_8.odb,Step-1,Increment      1: Step Time =    1.000,"PART-1-1",           496,       11.0556,      -25.4315,            0.,NA,NA,"",   30.6350E-03,  -22.1872E-03,  -21.1241E-03,   11.4394E-03
C:/temp/dataset/3/25_8.odb,Step-1,Increment      1: Step Time =    1.000,"PART-1-1",           497,       9.89242,      -26.7326,            0.,NA,NA,"",   23.6995E-03,  -23.6991E-03,  -135.874E-06,   8.99363E-03
C:/temp/dataset/3/25_8.odb,Step-1,Increment      1: Step Time =    1.000,"PART-1-1",           498,   9.79186E-03,      -28.8313,            0.,NA,NA,"",   11.8087E-03,   10.6639E-03,   5.07211E-03,   8.32874E-03
C:/temp/dataset/3/25_8.odb,Step-1,Increment      1: Step Time =    1.000,"PART-1-1",           499,          1.25,          -30.,            0.,NA,NA,"",            0.,   5.73953E-39,   12.7425E-39,   8.66233E-03
C:/temp/dataset/3/25_8.odb,Step-1,Increment      1: Step Time =    1.000,"PART-1-1",           500,      -1.18061,      -25.1833,            0.,NA,NA,"",   35.0881E-03,   32.5747E-03,   13.0408E-03,   7.00317E-03
C:/temp/dataset/3/25_8.odb,Step-1,Increment      1: Step Time =    1.000,"PART-1-1",           501,      -2.45538,      -26.3836,            0.,NA,NA,"",   26.1415E-03,   25.3077E-03,   6.54966E-03,   5.56137E-03
C:/temp/dataset/3/25_8.odb,Step-1,Increment      1: Step Time =    1.000,"PART-1-1",           502,      -1.22498,      -27.6390,            0.,NA,NA,"",   20.7160E-03,   19.3822E-03,   7.31325E-03,   6.95350E-03
C:/temp/dataset/3/25_8.odb,Step-1,Increment      1: Step Time =    1.000,"PART-1-1",           503,      -3.70005,      -25.1329,            0.,NA,NA,"",   27.8814E-03,   27.6252E-03,   3.77100E-03,   4.29346E-03
C:/temp/dataset/3/25_8.odb,Step-1,Increment      1: Step Time =    1.000,"PART-1-1",           504,      -7.49141,      -28.7797,            0.,NA,NA,"",   6.71178E-03,   6.69110E-03,   526.487E-06,   3.50093E-03
C:/temp/dataset/3/25_8.odb,Step-1,Increment      1: Step Time =    1.000,"PART-1-1",           505,         -6.25,          -30.,            0.,NA,NA,"",            0.,   4.15121E-39,   2.41440E-39,   4.51870E-03
C:/temp/dataset/3/25_8.odb,Step-1,Increment      1: Step Time =    1.000,"PART-1-1",           506,      -12.4949,      -26.2800,            0.,NA,NA,"",   13.8479E-03,   13.7034E-03,   1.99523E-03,   1.63199E-03
C:/temp/dataset/3/25_8.odb,Step-1,Increment      1: Step Time =    1.000,"PART-1-1",           507,          -15.,        -26.25,            0.,NA,NA,"",   15.9238E-03,   14.2602E-03,   7.08620E-03,   687.603E-06
C:/temp/dataset/3/25_8.odb,Step-1,Increment      1: Step Time =    1.000,"PART-1-1",           508,       12.0036,      -23.8365,            0.,NA,NA,"",   56.6834E-03,  -7.45028E-03,  -56.1917E-03,   16.5358E-03
C:/temp/dataset/3/25_8.odb,Step-1,Increment      1: Step Time =    1.000,"PART-1-1",           509,       13.6432,      -25.0896,            0.,NA,NA,"",   74.1638E-03,  -6.53662E-03,  -73.8751E-03,   21.8759E-03
C:/temp/dataset/3/25_8.odb,Step-1,Increment      1: Step Time =    1.000,"PART-1-1",           510,           15.,        -23.75,            0.,NA,NA,"",   130.240E-03,   23.4669E-03,  -128.108E-03,   33.0072E-03
C:/temp/dataset/3/25_8.odb,Step-1,Increment      1: Step Time =    1.000,"PART-1-1",           511,         11.25,          -30.,            0.,NA,NA,"",            0.,  -9.64776E-39,  -10.3624E-39,   10.4017E-03
C:/temp/dataset/3/25_8.odb,Step-1,Increment      1: Step Time =    1.000,"PART-1-1",           512,       13.9281,      -14.6298,            0.,NA,NA,"",   628.119E-03,   490.186E-03,  -392.749E-03,   35.7021E-03
C:/temp/dataset/3/25_8.odb,Step-1,Increment      1: Step Time =    1.000,"PART-1-1",           513,       12.2657,      -15.3468,            0.,NA,NA,"",   460.882E-03,   410.343E-03,  -209.836E-03,   17.7920E-03
C:/temp/dataset/3/25_8.odb,Step-1,Increment      1: Step Time =    1.000,"PART-1-1",           514,           15.,        -16.25,            0.,NA,NA,"",   558.973E-03,   361.530E-03,  -426.318E-03,   47.5716E-03
C:/temp/dataset/3/25_8.odb,Step-1,Increment      1: Step Time =    1.000,"PART-1-1",           515,       7.13425,      -14.5121,            0.,NA,NA,"",   611.502E-03,   540.402E-03,   286.184E-03,   38.0838E-03
C:/temp/dataset/3/25_8.odb,Step-1,Increment      1: Step Time =    1.000,"PART-1-1",           516,       6.81531,      -16.2905,            0.,NA,NA,"",   450.109E-03,   366.452E-03,   261.363E-03,   41.2821E-03
C:/temp/dataset/3/25_8.odb,Step-1,Increment      1: Step Time =    1.000,"PART-1-1",           517,       8.10983,      -17.0757,            0.,NA,NA,"",   311.223E-03,   277.267E-03,   141.360E-03,   26.3464E-03
C:/temp/dataset/3/25_8.odb,Step-1,Increment      1: Step Time =    1.000,"PART-1-1",           518,       13.8641,      -7.41825,            0.,NA,NA,"",       1.59332,       1.44542,  -670.414E-03,   31.7218E-03
C:/temp/dataset/3/25_8.odb,Step-1,Increment      1: Step Time =    1.000,"PART-1-1",           519,       13.0286,      -8.63342,            0.,NA,NA,"",       1.34043,       1.24892,  -486.782E-03,   24.1882E-03
C:/temp/dataset/3/25_8.odb,Step-1,Increment      1: Step Time =    1.000,"PART-1-1",           520,       14.1645,      -9.96517,            0.,NA,NA,"",       1.21574,       1.05221,  -608.994E-03,   36.5273E-03
C:/temp/dataset/3/25_8.odb,Step-1,Increment      1: Step Time =    1.000,"PART-1-1",           521,           15.,         -8.75,            0.,NA,NA,"",       1.47095,       1.23674,  -796.349E-03,   44.3650E-03
C:/temp/dataset/3/25_8.odb,Step-1,Increment      1: Step Time =    1.000,"PART-1-1",           522,       12.0251,      -10.9831,            0.,NA,NA,"",   948.559E-03,   908.133E-03,  -273.967E-03,   14.4061E-03
C:/temp/dataset/3/25_8.odb,Step-1,Increment      1: Step Time =    1.000,"PART-1-1",           523,       12.8055,      -11.9581,            0.,NA,NA,"",   856.300E-03,   780.884E-03,  -351.383E-03,   22.5811E-03
C:/temp/dataset/3/25_8.odb,Step-1,Increment      1: Step Time =    1.000,"PART-1-1",           524,       13.3751,      -11.0455,            0.,NA,NA,"",       1.00849,   900.064E-03,  -454.907E-03,   28.4099E-03
C:/temp/dataset/3/25_8.odb,Step-1,Increment      1: Step Time =    1.000,"PART-1-1",           525,       12.5947,      -10.0706,            0.,NA,NA,"",       1.10037,       1.03402,  -376.329E-03,   20.0773E-03
C:/temp/dataset/3/25_8.odb,Step-1,Increment      1: Step Time =    1.000,"PART-1-1",           526,       11.4853,  -434.223E-03,            0.,NA,NA,"",       2.90893,       2.87048,  -471.406E-03,   16.8591E-03
C:/temp/dataset/3/25_8.odb,Step-1,Increment      1: Step Time =    1.000,"PART-1-1",           527,       10.5886,      -1.82652,            0.,NA,NA,"",       2.58812,       2.57549,  -255.429E-03,   18.6011E-03
C:/temp/dataset/3/25_8.odb,Step-1,Increment      1: Step Time =    1.000,"PART-1-1",           528,       11.9063,      -2.70193,            0.,NA,NA,"",       2.41331,       2.36401,  -485.326E-03,   18.0712E-03
C:/temp/dataset/3/25_8.odb,Step-1,Increment      1: Step Time =    1.000,"PART-1-1",           529,       14.1300,       7.44597,            0.,NA,NA,"",       4.74430,       4.57672,      -1.24981,   569.520E-06
C:/temp/dataset/3/25_8.odb,Step-1,Increment      1: Step Time =    1.000,"PART-1-1",           530,       13.1865,       6.25975,            0.,NA,NA,"",       4.45552,       4.33852,      -1.01433,   2.03639E-03
C:/temp/dataset/3/25_8.odb,Step-1,Increment      1: Step Time =    1.000,"PART-1-1",           531,           15.,          6.25,            0.,NA,NA,"",       4.51822,       4.29193,      -1.41199,   241.238E-06
C:/temp/dataset/3/25_8.odb,Step-1,Increment      1: Step Time =    1.000,"PART-1-1",           532,       12.4155,       5.33720,            0.,NA,NA,"",       4.23366,       4.15282,  -823.395E-03,   3.92014E-03
C:/temp/dataset/3/25_8.odb,Step-1,Increment      1: Step Time =    1.000,"PART-1-1",           533,       11.2733,       3.54111,            0.,NA,NA,"",       3.81645,       3.77893,  -533.793E-03,   9.11325E-03
C:/temp/dataset/3/25_8.odb,Step-1,Increment      1: Step Time =    1.000,"PART-1-1",           534,       12.2480,       13.5548,            0.,NA,NA,"",       6.03333,       5.95228,  -985.614E-03,   241.716E-06
C:/temp/dataset/3/25_8.odb,Step-1,Increment      1: Step Time =    1.000,"PART-1-1",           535,           15.,         13.75,            0.,NA,NA,"",       6.13787,       5.92887,      -1.58806,   237.475E-06
C:/temp/dataset/3/25_8.odb,Step-1,Increment      1: Step Time =    1.000,"PART-1-1",           536,       13.6600,       14.9734,            0.,NA,NA,"",       6.36608,       6.22642,      -1.32616,   100.247E-06
C:/temp/dataset/3/25_8.odb,Step-1,Increment      1: Step Time =    1.000,"PART-1-1",           537,       8.15326,       10.4556,            0.,NA,NA,"",       5.37703,       5.37699,  -22.1578E-03,   380.804E-06
C:/temp/dataset/3/25_8.odb,Step-1,Increment      1: Step Time =    1.000,"PART-1-1",           538,       12.3824,       21.2920,            0.,NA,NA,"",       7.72195,       7.62825,      -1.19935,   6.14435E-06
C:/temp/dataset/3/25_8.odb,Step-1,Increment      1: Step Time =    1.000,"PART-1-1",           539,       13.6892,       20.0188,            0.,NA,NA,"",       7.46347,       7.32074,      -1.45266,   5.42982E-06
C:/temp/dataset/3/25_8.odb,Step-1,Increment      1: Step Time =    1.000,"PART-1-1",           540,           15.,         21.25,            0.,NA,NA,"",       7.76046,       7.55672,      -1.76654,   2.24241E-06
C:/temp/dataset/3/25_8.odb,Step-1,Increment      1: Step Time =    1.000,"PART-1-1",           541,       13.6932,       22.5232,            0.,NA,NA,"",       8.00850,       7.86424,      -1.51323,   1.65383E-06
C:/temp/dataset/3/25_8.odb,Step-1,Increment      1: Step Time =    1.000,"PART-1-1",           542,       9.77662,       16.3041,            0.,NA,NA,"",       6.62768,       6.60767,  -514.657E-03,   109.857E-06
C:/temp/dataset/3/25_8.odb,Step-1,Increment      1: Step Time =    1.000,"PART-1-1",           543,       11.0318,       15.0036,            0.,NA,NA,"",       6.34081,       6.29558,  -756.070E-03,   138.963E-06
C:/temp/dataset/3/25_8.odb,Step-1,Increment      1: Step Time =    1.000,"PART-1-1",           544,       12.3430,       16.2301,            0.,NA,NA,"",       6.61764,       6.53055,      -1.07011,   100.484E-06
C:/temp/dataset/3/25_8.odb,Step-1,Increment      1: Step Time =    1.000,"PART-1-1",           545,         13.75,           30.,            0.,NA,NA,"",       9.63767,       9.48586,      -1.70385,   179.457E-09
C:/temp/dataset/3/25_8.odb,Step-1,Increment      1: Step Time =    1.000,"PART-1-1",           546,       12.4862,       28.7548,            0.,NA,NA,"",       9.35107,       9.24570,      -1.39982,   740.260E-09
C:/temp/dataset/3/25_8.odb,Step-1,Increment      1: Step Time =    1.000,"PART-1-1",           547,           15.,         28.75,            0.,NA,NA,"",       9.38848,       9.18472,      -1.94538,   205.958E-09
C:/temp/dataset/3/25_8.odb,Step-1,Increment      1: Step Time =    1.000,"PART-1-1",           548,       12.4064,       23.7898,            0.,NA,NA,"",       8.26708,       8.16986,      -1.26411,   810.995E-09
C:/temp/dataset/3/25_8.odb,Step-1,Increment      1: Step Time =    1.000,"PART-1-1",           549,           15.,         23.75,            0.,NA,NA,"",       8.30270,       8.09938,      -1.82615,   2.78035E-06
C:/temp/dataset/3/25_8.odb,Step-1,Increment      1: Step Time =    1.000,"PART-1-1",           550,       9.91541,       26.3072,            0.,NA,NA,"",       8.81060,       8.77570,  -783.425E-03,   788.449E-09
C:/temp/dataset/3/25_8.odb,Step-1,Increment      1: Step Time =    1.000,"PART-1-1",           551,       11.1537,       25.0565,            0.,NA,NA,"",       8.53613,       8.47468,      -1.02240,   1.00921E-06
C:/temp/dataset/3/25_8.odb,Step-1,Increment      1: Step Time =    1.000,"PART-1-1",           552,       11.2110,       27.5221,            0.,NA,NA,"",       9.07467,       9.00853,      -1.09363,   981.747E-09
C:/temp/dataset/3/25_8.odb,Step-1,Increment      1: Step Time =    1.000,"PART-1-1",           553,       8.69233,       27.5515,            0.,NA,NA,"",       9.09147,       9.07497,  -547.602E-03,   606.678E-09
C:/temp/dataset/3/25_8.odb,Step-1,Increment      1: Step Time =    1.000,"PART-1-1",           554,       7.41297,       26.3376,            0.,NA,NA,"",       8.84526,       8.84198,  -240.946E-03,   679.823E-09
C:/temp/dataset/3/25_8.odb,Step-1,Increment      1: Step Time =    1.000,"PART-1-1",           555,       8.63604,       25.0933,            0.,NA,NA,"",       8.55600,       8.54271,  -476.771E-03,   774.117E-09
C:/temp/dataset/3/25_8.odb,Step-1,Increment      1: Step Time =    1.000,"PART-1-1",           556,      -1.26375,       27.5391,            0.,NA,NA,"",       9.44853,       9.30967,       1.61388,   107.272E-09
C:/temp/dataset/3/25_8.odb,Step-1,Increment      1: Step Time =    1.000,"PART-1-1",           557,         -1.25,           30.,            0.,NA,NA,"",       9.96517,       9.84354,       1.55222,   31.7779E-09
C:/temp/dataset/3/25_8.odb,Step-1,Increment      1: Step Time =    1.000,"PART-1-1",           558,      -2.50500,       28.7640,            0.,NA,NA,"",       9.78247,       9.60515,       1.85411,   17.6565E-09
C:/temp/dataset/3/25_8.odb,Step-1,Increment      1: Step Time =    1.000,"PART-1-1",           559,      -7.50143,       28.7522,            0.,NA,NA,"",       10.1563,       9.72173,       2.93898,   4.63166E-09
C:/temp/dataset/3/25_8.odb,Step-1,Increment      1: Step Time =    1.000,"PART-1-1",           560,         -8.75,           30.,            0.,NA,NA,"",       10.5148,       10.0224,       3.18026,   4.85605E-09
C:/temp/dataset/3/25_8.odb,Step-1,Increment      1: Step Time =    1.000,"PART-1-1",           561,      -6.25460,       27.5081,            0.,NA,NA,"",       9.80063,       9.42195,       2.69799,   2.98880E-09
C:/temp/dataset/3/25_8.odb,Step-1,Increment      1: Step Time =    1.000,"PART-1-1",           562,        -13.75,           30.,            0.,NA,NA,"",       11.0022,       10.1416,       4.26562,   1.11553E-09
C:/temp/dataset/3/25_8.odb,Step-1,Increment      1: Step Time =    1.000,"PART-1-1",           563,          -15.,         28.75,            0.,NA,NA,"",       10.9026,       9.90006,       4.56676,   1.15921E-09
C:/temp/dataset/3/25_8.odb,Step-1,Increment      1: Step Time =    1.000,"PART-1-1",           564,      -13.7509,       27.5010,            0.,NA,NA,"",       10.5287,       9.59914,       4.32541,   1.27450E-09
C:/temp/dataset/3/25_8.odb,Step-1,Increment      1: Step Time =    1.000,"PART-1-1",           565,          -15.,         26.25,            0.,NA,NA,"",       10.4386,       9.35738,       4.62637,   1.30960E-09
C:/temp/dataset/3/25_8.odb,Step-1,Increment      1: Step Time =    1.000,"PART-1-1",           566,      -12.5016,       26.2536,            0.,NA,NA,"",       10.1559,       9.29858,       4.08396,   1.41018E-09
C:/temp/dataset/3/25_8.odb,Step-1,Increment      1: Step Time =    1.000,"PART-1-1",           567,      -7.50093,       21.2547,            0.,NA,NA,"",       8.67388,       8.09423,       3.11764,   4.73715E-09
C:/temp/dataset/3/25_8.odb,Step-1,Increment      1: Step Time =    1.000,"PART-1-1",           568,         -6.25,           20.,            0.,NA,NA,"",       8.30586,       7.79204,       2.87602,   12.2610E-09
C:/temp/dataset/3/25_8.odb,Step-1,Increment      1: Step Time =    1.000,"PART-1-1",           569,      -4.99978,       21.2574,            0.,NA,NA,"",       8.43759,       8.03517,       2.57465,   8.07573E-09
C:/temp/dataset/3/25_8.odb,Step-1,Increment      1: Step Time =    1.000,"PART-1-1",           570,      -3.74911,       22.5208,            0.,NA,NA,"",       8.58595,       8.27961,       2.27304,   22.3361E-09
C:/temp/dataset/3/25_8.odb,Step-1,Increment      1: Step Time =    1.000,"PART-1-1",           571,         -3.75,           20.,            0.,NA,NA,"",       8.07681,       7.73243,       2.33334,   17.8160E-09
C:/temp/dataset/3/25_8.odb,Step-1,Increment      1: Step Time =    1.000,"PART-1-1",           572,      -2.49933,       21.2634,            0.,NA,NA,"",       8.23154,       7.97686,       2.03173,   23.6489E-09
C:/temp/dataset/3/25_8.odb,Step-1,Increment      1: Step Time =    1.000,"PART-1-1",           573,         -1.25,           20.,            0.,NA,NA,"",       7.87899,       7.67282,       1.79066,   70.9633E-09
C:/temp/dataset/3/25_8.odb,Step-1,Increment      1: Step Time =    1.000,"PART-1-1",           574,  -2.23348E-03,       21.2694,            0.,NA,NA,"",       8.05749,       7.91861,       1.48954,   120.602E-09
C:/temp/dataset/3/25_8.odb,Step-1,Increment      1: Step Time =    1.000,"PART-1-1",           575,      -1.25156,       22.5328,            0.,NA,NA,"",       8.40280,       8.22265,       1.73061,   100.466E-09
C:/temp/dataset/3/25_8.odb,Step-1,Increment      1: Step Time =    1.000,"PART-1-1",           576,         -3.75,           30.,            0.,NA,NA,"",       10.1223,       9.90315,       2.09490,   11.0767E-09
C:/temp/dataset/3/25_8.odb,Step-1,Increment      1: Step Time =    1.000,"PART-1-1",           577,      -5.00318,       28.7559,            0.,NA,NA,"",       9.95574,       9.66298,       2.39659,   6.59276E-09
C:/temp/dataset/3/25_8.odb,Step-1,Increment      1: Step Time =    1.000,"PART-1-1",           578,       7.36074,       18.8052,            0.,NA,NA,"",       7.20830,       7.20812,  -49.9982E-03,   28.9339E-06
C:/temp/dataset/3/25_8.odb,Step-1,Increment      1: Step Time =    1.000,"PART-1-1",           579,       8.58169,       17.5494,            0.,NA,NA,"",       6.91228,       6.90640,  -285.043E-03,   45.7045E-06
C:/temp/dataset/3/25_8.odb,Step-1,Increment      1: Step Time =    1.000,"PART-1-1",           580,       8.60057,       20.0599,            0.,NA,NA,"",       7.45912,       7.45095,  -349.049E-03,   10.1957E-06
C:/temp/dataset/3/25_8.odb,Step-1,Increment      1: Step Time =    1.000,"PART-1-1",           581,            5.,         18.75,            0.,NA,NA,"",       7.26723,       7.25242,   463.777E-03,   8.97465E-06
C:/temp/dataset/3/25_8.odb,Step-1,Increment      1: Step Time =    1.000,"PART-1-1",           582,       6.17685,       17.5255,            0.,NA,NA,"",       6.96255,       6.95850,   237.500E-03,   26.6324E-06
C:/temp/dataset/3/25_8.odb,Step-1,Increment      1: Step Time =    1.000,"PART-1-1",           583,       6.18390,       20.0298,            0.,NA,NA,"",       7.50409,       7.50201,   176.259E-03,   4.77250E-06
C:/temp/dataset/3/25_8.odb,Step-1,Increment      1: Step Time =    1.000,"PART-1-1",           584,            5.,         16.25,            0.,NA,NA,"",       6.73003,       6.70965,   523.363E-03,   74.1294E-06
C:/temp/dataset/3/25_8.odb,Step-1,Increment      1: Step Time =    1.000,"PART-1-1",           585,       6.15340,       15.0385,            0.,NA,NA,"",       6.42614,       6.41905,   301.841E-03,   104.079E-06
C:/temp/dataset/3/25_8.odb,Step-1,Increment      1: Step Time =    1.000,"PART-1-1",           586,       7.33024,       16.3140,            0.,NA,NA,"",       6.66800,       6.66798,   16.0619E-03,   97.3197E-06
C:/temp/dataset/3/25_8.odb,Step-1,Increment      1: Step Time =    1.000,"PART-1-1",           587,           15.,         16.25,            0.,NA,NA,"",       6.67789,       6.47150,      -1.64739,   68.9704E-06
C:/temp/dataset/3/25_8.odb,Step-1,Increment      1: Step Time =    1.000,"PART-1-1",           588,       13.6830,       17.5067,            0.,NA,NA,"",       6.91705,       6.77566,      -1.39144,   28.4619E-06
C:/temp/dataset/3/25_8.odb,Step-1,Increment      1: Step Time =    1.000,"PART-1-1",           589,           15.,         18.75,            0.,NA,NA,"",       7.21880,       7.01409,      -1.70693,   10.7107E-06
C:/temp/dataset/3/25_8.odb,Step-1,Increment      1: Step Time =    1.000,"PART-1-1",           590,       7.36831,       6.81272,            0.,NA,NA,"",       4.61846,       4.61259,   232.798E-03,   3.81744E-03
C:/temp/dataset/3/25_8.odb,Step-1,Increment      1: Step Time =    1.000,"PART-1-1",           591,       6.10412,       7.73110,            0.,NA,NA,"",       4.86333,       4.83916,   484.296E-03,   2.15011E-03
C:/temp/dataset/3/25_8.odb,Step-1,Increment      1: Step Time =    1.000,"PART-1-1",           592,            5.,          6.25,            0.,NA,NA,"",       4.61315,       4.55144,   751.981E-03,   6.84661E-03
C:/temp/dataset/3/25_8.odb,Step-1,Increment      1: Step Time =    1.000,"PART-1-1",           593,       6.26419,       5.33162,            0.,NA,NA,"",       4.36149,       4.33258,   501.295E-03,   14.1958E-03
C:/temp/dataset/3/25_8.odb,Step-1,Increment      1: Step Time =    1.000,"PART-1-1",           594,           15.,          8.75,            0.,NA,NA,"",       5.05953,       4.84098,      -1.47096,   874.830E-06
C:/temp/dataset/3/25_8.odb,Step-1,Increment      1: Step Time =    1.000,"PART-1-1",           595,       13.1418,       8.51598,            0.,NA,NA,"",       4.94993,       4.83517,      -1.05967,   298.656E-06
C:/temp/dataset/3/25_8.odb,Step-1,Increment      1: Step Time =    1.000,"PART-1-1",           596,       6.30252,      -5.49102,            0.,NA,NA,"",       1.97541,       1.87294,   627.956E-03,   41.8152E-03
C:/temp/dataset/3/25_8.odb,Step-1,Increment      1: Step Time =    1.000,"PART-1-1",           597,            5.,         -6.25,            0.,NA,NA,"",       1.98291,       1.79258,   847.705E-03,   72.0414E-03
C:/temp/dataset/3/25_8.odb,Step-1,Increment      1: Step Time =    1.000,"PART-1-1",           598,       6.10325,      -7.87566,            0.,NA,NA,"",       1.59749,       1.47759,   607.199E-03,   45.7072E-03
C:/temp/dataset/3/25_8.odb,Step-1,Increment      1: Step Time =    1.000,"PART-1-1",           599,       7.40577,      -7.11668,            0.,NA,NA,"",       1.61856,       1.56649,   407.205E-03,   25.2160E-03
C:/temp/dataset/3/25_8.odb,Step-1,Increment      1: Step Time =    1.000,"PART-1-1",           600,            5.,         -8.75,            0.,NA,NA,"",       1.56315,       1.37624,   741.214E-03,   56.8320E-03
C:/temp/dataset/3/25_8.odb,Step-1,Increment      1: Step Time =    1.000,"PART-1-1",           601,            5.,        -13.75,            0.,NA,NA,"",   866.809E-03,   681.760E-03,   535.314E-03,   57.6415E-03
C:/temp/dataset/3/25_8.odb,Step-1,Increment      1: Step Time =    1.000,"PART-1-1",           602,       5.77894,      -15.1288,            0.,NA,NA,"",   645.542E-03,   508.480E-03,   397.709E-03,   51.5914E-03
C:/temp/dataset/3/25_8.odb,Step-1,Increment      1: Step Time =    1.000,"PART-1-1",           603,            5.,        -16.25,            0.,NA,NA,"",   593.113E-03,   419.322E-03,   419.466E-03,   60.5304E-03
C:/temp/dataset/3/25_8.odb,Step-1,Increment      1: Step Time =    1.000,"PART-1-1",           604,       2.77244,      -24.0596,            0.,NA,NA,"",   65.4080E-03,   39.7866E-03,   51.9157E-03,   17.0505E-03
C:/temp/dataset/3/25_8.odb,Step-1,Increment      1: Step Time =    1.000,"PART-1-1",           605,       3.76359,      -25.5842,            0.,NA,NA,"",   49.9085E-03,   22.6602E-03,   44.4677E-03,   16.4861E-03
C:/temp/dataset/3/25_8.odb,Step-1,Increment      1: Step Time =    1.000,"PART-1-1",           606,       5.11162,      -24.8806,            0.,NA,NA,"",   62.5494E-03,   17.2180E-03,   60.1329E-03,   21.0226E-03
C:/temp/dataset/3/25_8.odb,Step-1,Increment      1: Step Time =    1.000,"PART-1-1",           607,       4.12047,      -23.3559,            0.,NA,NA,"",   90.3478E-03,   40.6645E-03,   80.6791E-03,   22.9979E-03
C:/temp/dataset/3/25_8.odb,Step-1,Increment      1: Step Time =    1.000,"PART-1-1",           608,       8.48587,      -2.76980,            0.,NA,NA,"",       2.41195,       2.40568,   173.910E-03,   19.5737E-03
C:/temp/dataset/3/25_8.odb,Step-1,Increment      1: Step Time =    1.000,"PART-1-1",           609,       9.66601,      -3.38468,            0.,NA,NA,"",       2.25149,       2.25112,  -40.4750E-03,   16.4056E-03
C:/temp/dataset/3/25_8.odb,Step-1,Increment      1: Step Time =    1.000,"PART-1-1",           610,       9.40849,      -1.21164,            0.,NA,NA,"",       2.73755,       2.73727,  -38.5922E-03,   19.5630E-03
C:/temp/dataset/3/25_8.odb,Step-1,Increment      1: Step Time =    1.000,"PART-1-1",           611,       3.88333,            5.,            0.,NA,NA,"",       4.49727,       4.37609,       1.03693,   29.4722E-03
C:/temp/dataset/3/25_8.odb,Step-1,Increment      1: Step Time =    1.000,"PART-1-1",           612,       3.93709,       2.49951,            0.,NA,NA,"",       3.93208,       3.78195,       1.07617,   10.3745E-03
C:/temp/dataset/3/25_8.odb,Step-1,Increment      1: Step Time =    1.000,"PART-1-1",           613,       5.14044,       3.62548,            0.,NA,NA,"",       4.07314,       3.99942,   771.447E-03,   17.5137E-03
C:/temp/dataset/3/25_8.odb,Step-1,Increment      1: Step Time =    1.000,"PART-1-1",           614,       1.70000,           -5.,            0.,NA,NA,"",       2.75579,       2.02350,       1.87078,   20.8679E-03
C:/temp/dataset/3/25_8.odb,Step-1,Increment      1: Step Time =    1.000,"PART-1-1",           615,       2.88648,      -4.17028,            0.,NA,NA,"",       2.68287,       2.21893,       1.50801,   24.5675E-03
C:/temp/dataset/3/25_8.odb,Step-1,Increment      1: Step Time =    1.000,"PART-1-1",           616,       1.90498,      -3.27989,            0.,NA,NA,"",       3.01513,       2.46094,       1.74206,   18.3794E-03
C:/temp/dataset/3/25_8.odb,Step-1,Increment      1: Step Time =    1.000,"PART-1-1",           617,      -2.82853,       3.20340,            0.,NA,NA,"",       5.08445,       4.24401,       2.80000,   8.59755E-03
C:/temp/dataset/3/25_8.odb,Step-1,Increment      1: Step Time =    1.000,"PART-1-1",           618,      -1.73717,       4.08745,            0.,NA,NA,"",       5.07566,       4.42707,       2.48261,   9.77697E-03
C:/temp/dataset/3/25_8.odb,Step-1,Increment      1: Step Time =    1.000,"PART-1-1",           619,      -2.81667,            5.,            0.,NA,NA,"",       5.45267,       4.71476,       2.73910,   7.69596E-03
C:/temp/dataset/3/25_8.odb,Step-1,Increment      1: Step Time =    1.000,"PART-1-1",           620,      -7.28333,            5.,            0.,NA,NA,"",       6.26555,       4.88609,       3.92214,   264.367E-06
C:/temp/dataset/3/25_8.odb,Step-1,Increment      1: Step Time =    1.000,"PART-1-1",           621,      -11.7000,            5.,            0.,NA,NA,"",       7.15633,       5.03874,       5.08175,   407.017E-06
C:/temp/dataset/3/25_8.odb,Step-1,Increment      1: Step Time =    1.000,"PART-1-1",           622,      -11.5540,       2.50359,            0.,NA,NA,"",       6.74659,       4.38082,       5.13078,   209.284E-06
C:/temp/dataset/3/25_8.odb,Step-1,Increment      1: Step Time =    1.000,"PART-1-1",           623,      -8.37698,      -4.01732,            0.,NA,NA,"",       5.21709,       2.57518,       4.53723,   4.26936E-03
C:/temp/dataset/3/25_8.odb,Step-1,Increment      1: Step Time =    1.000,"PART-1-1",           624,      -10.5279,      -3.86372,            0.,NA,NA,"",       5.75123,       2.68722,       5.08483,   698.283E-06
C:/temp/dataset/3/25_8.odb,Step-1,Increment      1: Step Time =    1.000,"PART-1-1",           625,      -9.41667,           -5.,            0.,NA,NA,"",       5.37996,       2.35691,       4.83621,   1.26204E-03
C:/temp/dataset/3/25_8.odb,Step-1,Increment      1: Step Time =    1.000,"PART-1-1",           626,          3.75,          -20.,            0.,NA,NA,"",   104.839E-03,   51.2645E-03,   91.4503E-03,   36.2819E-03
C:/temp/dataset/3/25_8.odb,Step-1,Increment      1: Step Time =    1.000,"PART-1-1",           627,       2.74072,      -21.3682,            0.,NA,NA,"",   87.0484E-03,   53.6702E-03,   68.5341E-03,   12.9145E-03
C:/temp/dataset/3/25_8.odb,Step-1,Increment      1: Step Time =    1.000,"PART-1-1",           628,       4.11640,      -22.1674,            0.,NA,NA,"",   114.974E-03,   56.5214E-03,   100.122E-03,   28.4008E-03
C:/temp/dataset/3/25_8.odb,Step-1,Increment      1: Step Time =    1.000,"PART-1-1",           629,       5.12568,      -20.7992,            0.,NA,NA,"",   172.197E-03,   69.9217E-03,   157.362E-03,   49.0478E-03
C:/temp/dataset/3/25_8.odb,Step-1,Increment      1: Step Time =    1.000,"PART-1-1",           630,          1.25,          -20.,            0.,NA,NA,"",   42.1325E-03,   26.1944E-03,   33.0000E-03,   5.86302E-03
C:/temp/dataset/3/25_8.odb,Step-1,Increment      1: Step Time =    1.000,"PART-1-1",           631,   73.0809E-03,      -21.3299,            0.,NA,NA,"",   42.3015E-03,   36.2322E-03,   21.8322E-03,   4.44022E-03
C:/temp/dataset/3/25_8.odb,Step-1,Increment      1: Step Time =    1.000,"PART-1-1",           632,       1.56380,      -22.6981,            0.,NA,NA,"",   63.8478E-03,   46.8473E-03,   43.3807E-03,   14.2494E-03
C:/temp/dataset/3/25_8.odb,Step-1,Increment      1: Step Time =    1.000,"PART-1-1",           633,         -1.25,          -20.,            0.,NA,NA,"",   29.0904E-03,   26.7374E-03,   11.4614E-03,   898.502E-06
C:/temp/dataset/3/25_8.odb,Step-1,Increment      1: Step Time =    1.000,"PART-1-1",           634,      -2.46493,      -21.3147,            0.,NA,NA,"",   31.4078E-03,   30.8452E-03,   5.91814E-03,   1.82729E-03
C:/temp/dataset/3/25_8.odb,Step-1,Increment      1: Step Time =    1.000,"PART-1-1",           635,      -1.14185,      -22.6446,            0.,NA,NA,"",   39.4814E-03,   36.9413E-03,   13.9327E-03,   5.55678E-03
C:/temp/dataset/3/25_8.odb,Step-1,Increment      1: Step Time =    1.000,"PART-1-1",           636,         -3.75,          -20.,            0.,NA,NA,"",   26.1671E-03,   26.1437E-03,   1.10618E-03,   385.944E-06
C:/temp/dataset/3/25_8.odb,Step-1,Increment      1: Step Time =    1.000,"PART-1-1",           637,      -4.97847,      -21.2978,            0.,NA,NA,"",   27.8135E-03,   27.8004E-03,  -854.943E-06,   891.304E-06
C:/temp/dataset/3/25_8.odb,Step-1,Increment      1: Step Time =    1.000,"PART-1-1",           638,      -3.69340,      -22.6125,            0.,NA,NA,"",   30.6735E-03,   30.5746E-03,   2.46034E-03,   2.68120E-03
C:/temp/dataset/3/25_8.odb,Step-1,Increment      1: Step Time =    1.000,"PART-1-1",           639,      -4.95791,      -23.8547,            0.,NA,NA,"",   27.6439E-03,   27.6339E-03,   743.741E-06,   2.65957E-03
C:/temp/dataset/3/25_8.odb,Step-1,Increment      1: Step Time =    1.000,"PART-1-1",           640,      -6.21189,      -22.5887,            0.,NA,NA,"",   26.8317E-03,   26.7966E-03,  -1.37339E-03,   1.57689E-03
C:/temp/dataset/3/25_8.odb,Step-1,Increment      1: Step Time =    1.000,"PART-1-1",           641,      -7.46939,      -23.8324,            0.,NA,NA,"",   23.8768E-03,   23.8503E-03,  -1.12332E-03,   1.75355E-03
C:/temp/dataset/3/25_8.odb,Step-1,Increment      1: Step Time =    1.000,"PART-1-1",           642,           15.,        -13.75,            0.,NA,NA,"",   805.976E-03,   593.829E-03,  -544.944E-03,   47.2929E-03
C:/temp/dataset/3/25_8.odb,Step-1,Increment      1: Step Time =    1.000,"PART-1-1",           643,       14.2106,      -12.3304,            0.,NA,NA,"",   904.305E-03,   743.300E-03,  -515.046E-03,   38.0748E-03
C:/temp/dataset/3/25_8.odb,Step-1,Increment      1: Step Time =    1.000,"PART-1-1",           644,       13.1387,      -13.2101,            0.,NA,NA,"",   726.078E-03,   633.436E-03,  -354.892E-03,   26.5091E-03
C:/temp/dataset/3/25_8.odb,Step-1,Increment      1: Step Time =    1.000,"PART-1-1",           645,           15.,        -11.25,            0.,NA,NA,"",       1.10956,   885.939E-03,  -668.004E-03,   46.2179E-03
C:/temp/dataset/3/25_8.odb,Step-1,Increment      1: Step Time =    1.000,"PART-1-1",           646,           15.,         -6.25,            0.,NA,NA,"",       1.89082,       1.64724,  -928.334E-03,   40.2308E-03
C:/temp/dataset/3/25_8.odb,Step-1,Increment      1: Step Time =    1.000,"PART-1-1",           647,       14.0624,      -4.92369,            0.,NA,NA,"",       2.06087,       1.89260,  -815.628E-03,   29.5385E-03
C:/temp/dataset/3/25_8.odb,Step-1,Increment      1: Step Time =    1.000,"PART-1-1",           648,       12.9264,      -6.09194,            0.,NA,NA,"",       1.77095,       1.68034,  -559.216E-03,   21.9687E-03
C:/temp/dataset/3/25_8.odb,Step-1,Increment      1: Step Time =    1.000,"PART-1-1",           649,           15.,         -3.75,            0.,NA,NA,"",       2.36568,       2.11602,      -1.05779,   32.3718E-03
C:/temp/dataset/3/25_8.odb,Step-1,Increment      1: Step Time =    1.000,"PART-1-1",           650,       13.0440,      -3.68493,            0.,NA,NA,"",       2.24771,       2.14524,  -670.937E-03,   21.0766E-03
C:/temp/dataset/3/25_8.odb,Step-1,Increment      1: Step Time =    1.000,"PART-1-1",           651,       8.06094,   477.426E-03,            0.,NA,NA,"",       3.16936,       3.16293,   201.699E-03,   17.5210E-03
C:/temp/dataset/3/25_8.odb,Step-1,Increment      1: Step Time =    1.000,"PART-1-1",           652,       8.76493,       2.31856,            0.,NA,NA,"",       3.57029,       3.57024,   19.4414E-03,   16.5135E-03
C:/temp/dataset/3/25_8.odb,Step-1,Increment      1: Step Time =    1.000,"PART-1-1",           653,       6.73548,       2.80805,            0.,NA,NA,"",       3.77669,       3.75105,   439.327E-03,   15.8208E-03
C:/temp/dataset/3/25_8.odb,Step-1,Increment      1: Step Time =    1.000,"PART-1-1",           654,       6.03149,   966.916E-03,            0.,NA,NA,"",       3.40155,       3.34320,   627.350E-03,   14.8193E-03
C:/temp/dataset/3/25_8.odb,Step-1,Increment      1: Step Time =    1.000,"PART-1-1",           655,            5.,          8.75,            0.,NA,NA,"",       5.13050,       5.08286,   697.585E-03,   1.32427E-03
C:/temp/dataset/3/25_8.odb,Step-1,Increment      1: Step Time =    1.000,"PART-1-1",           656,       7.16919,       9.14751,            0.,NA,NA,"",       5.12216,       5.11736,   221.888E-03,   797.409E-06
C:/temp/dataset/3/25_8.odb,Step-1,Increment      1: Step Time =    1.000,"PART-1-1",           657,          3.75,           30.,            0.,NA,NA,"",       9.73551,       9.72431,   466.855E-03,   617.159E-09
C:/temp/dataset/3/25_8.odb,Step-1,Increment      1: Step Time =    1.000,"PART-1-1",           658,       3.71036,       27.5731,            0.,NA,NA,"",       9.21389,       9.19844,   533.327E-03,   604.541E-09
C:/temp/dataset/3/25_8.odb,Step-1,Increment      1: Step Time =    1.000,"PART-1-1",           659,       7.38617,       23.8490,            0.,NA,NA,"",       8.30427,       8.30240,  -175.792E-03,   1.15729E-06
C:/temp/dataset/3/25_8.odb,Step-1,Increment      1: Step Time =    1.000,"PART-1-1",           660,       6.16255,       25.1024,            0.,NA,NA,"",       8.60387,       8.60366,   59.9370E-03,   985.195E-09
C:/temp/dataset/3/25_8.odb,Step-1,Increment      1: Step Time =    1.000,"PART-1-1",           661,       4.93576,       23.8439,            0.,NA,NA,"",       8.36731,       8.35972,   356.249E-03,   1.29180E-06
C:/temp/dataset/3/25_8.odb,Step-1,Increment      1: Step Time =    1.000,"PART-1-1",           662,       6.15938,       22.5905,            0.,NA,NA,"",       8.05936,       8.05846,   120.521E-03,   1.63929E-06
C:/temp/dataset/3/25_8.odb,Step-1,Increment      1: Step Time =    1.000,"PART-1-1",           663,      -10.0017,       23.7560,            0.,NA,NA,"",       9.41279,       8.69681,       3.60085,   2.76736E-09
C:/temp/dataset/3/25_8.odb,Step-1,Increment      1: Step Time =    1.000,"PART-1-1",           664,      -8.75135,       22.5073,            0.,NA,NA,"",       9.04301,       8.39594,       3.35921,   4.08739E-09
C:/temp/dataset/3/25_8.odb,Step-1,Increment      1: Step Time =    1.000,"PART-1-1",           665,      -10.0004,       21.2526,            0.,NA,NA,"",       8.93727,       8.15336,       3.66026,   2.66244E-09
C:/temp/dataset/3/25_8.odb,Step-1,Increment      1: Step Time =    1.000,"PART-1-1",           666,      -11.2505,       22.5043,            0.,NA,NA,"",       9.31176,       8.45488,       3.90177,   2.37164E-09
C:/temp/dataset/3/25_8.odb,Step-1,Increment      1: Step Time =    1.000,"PART-1-1",           667,        -11.25,           20.,            0.,NA,NA,"",       8.84763,       7.91126,       3.96138,   2.14876E-09
C:/temp/dataset/3/25_8.odb,Step-1,Increment      1: Step Time =    1.000,"PART-1-1",           668,         -8.75,           20.,            0.,NA,NA,"",       8.56364,       7.85165,       3.41870,   5.48481E-09
C:/temp/dataset/3/25_8.odb,Step-1,Increment      1: Step Time =    1.000,"PART-1-1",           669,       7.37456,       21.3253,            0.,NA,NA,"",       7.75568,       7.75486,  -113.094E-03,   4.77070E-06
C:/temp/dataset/3/25_8.odb,Step-1,Increment      1: Step Time =    1.000,"PART-1-1",           670,      -1.26076,       25.0501,            0.,NA,NA,"",       8.92739,       8.76930,       1.67258,   131.013E-09
C:/temp/dataset/3/25_8.odb,Step-1,Increment      1: Step Time =    1.000,"PART-1-1",           671,      -2.50213,       23.7814,            0.,NA,NA,"",       8.74872,       8.52351,       1.97230,   39.2973E-09
C:/temp/dataset/3/25_8.odb,Step-1,Increment      1: Step Time =    1.000,"PART-1-1",           672,          1.25,           20.,            0.,NA,NA,"",       7.71481,       7.61320,       1.24798,   305.510E-09
C:/temp/dataset/3/25_8.odb,Step-1,Increment      1: Step Time =    1.000,"PART-1-1",           673,            5.,         13.75,            0.,NA,NA,"",       6.19427,       6.16680,   582.716E-03,   227.381E-06
C:/temp/dataset/3/25_8.odb,Step-1,Increment      1: Step Time =    1.000,"PART-1-1",           674,       7.85923,       4.51418,            0.,NA,NA,"",       4.10171,       4.09814,   171.160E-03,   11.7197E-03
C:/temp/dataset/3/25_8.odb,Step-1,Increment      1: Step Time =    1.000,"PART-1-1",           675,       9.45843,       7.45797,            0.,NA,NA,"",       4.70146,       4.69562,  -234.218E-03,   2.34740E-03
C:/temp/dataset/3/25_8.odb,Step-1,Increment      1: Step Time =    1.000,"PART-1-1",           676,       11.3500,       8.04392,            0.,NA,NA,"",       4.82097,       4.77585,  -658.090E-03,   1.14653E-03
C:/temp/dataset/3/25_8.odb,Step-1,Increment      1: Step Time =    1.000,"PART-1-1",           677,       10.2386,       8.70699,            0.,NA,NA,"",       4.96667,       4.94781,  -432.472E-03,   790.876E-06
C:/temp/dataset/3/25_8.odb,Step-1,Increment      1: Step Time =    1.000,"PART-1-1",           678,   133.314E-03,       2.02047,            0.,NA,NA,"",       4.33696,       3.82210,       2.04958,   13.3153E-03
C:/temp/dataset/3/25_8.odb,Step-1,Increment      1: Step Time =    1.000,"PART-1-1",           679,       2.26054,       1.70692,            0.,NA,NA,"",       3.95810,       3.65948,       1.50825,   12.8217E-03
C:/temp/dataset/3/25_8.odb,Step-1,Increment      1: Step Time =    1.000,"PART-1-1",           680,  -583.333E-03,            5.,            0.,NA,NA,"",       5.09153,       4.61388,       2.15310,   14.3793E-03
C:/temp/dataset/3/25_8.odb,Step-1,Increment      1: Step Time =    1.000,"PART-1-1",           681,  -713.179E-03,       3.09316,            0.,NA,NA,"",       4.69631,       4.12667,       2.24186,   12.1802E-03
C:/temp/dataset/3/25_8.odb,Step-1,Increment      1: Step Time =    1.000,"PART-1-1",           682,      -10.2084,       1.19941,            0.,NA,NA,"",       6.26293,       3.99331,       4.82471,   581.986E-06
C:/temp/dataset/3/25_8.odb,Step-1,Increment      1: Step Time =    1.000,"PART-1-1",           683,      -7.18333,           -5.,            0.,NA,NA,"",       4.84332,       2.28599,       4.26990,   6.68359E-03
C:/temp/dataset/3/25_8.odb,Step-1,Increment      1: Step Time =    1.000,"PART-1-1",           684,      -7.36178,      -2.99006,            0.,NA,NA,"",       5.08219,       2.80931,       4.23513,   6.30849E-03
C:/temp/dataset/3/25_8.odb,Step-1,Increment      1: Step Time =    1.000,"PART-1-1",           685,      -11.3125,  -91.5578E-03,            0.,NA,NA,"",       6.34493,       3.69467,       5.15825,   428.731E-06
C:/temp/dataset/3/25_8.odb,Step-1,Increment      1: Step Time =    1.000,"PART-1-1",           686,      -11.6500,           -5.,            0.,NA,NA,"",       5.93589,       2.43041,       5.41552,   668.326E-06
C:/temp/dataset/3/25_8.odb,Step-1,Increment      1: Step Time =    1.000,"PART-1-1",           687,      -11.6245,      -2.63993,            0.,NA,NA,"",       6.13501,       3.04211,       5.32765,   368.661E-06
C:/temp/dataset/3/25_8.odb,Step-1,Increment      1: Step Time =    1.000,"PART-1-1",           688,      -1.03706,       1.18772,            0.,NA,NA,"",       4.36961,       3.66136,       2.38494,   12.6970E-03
C:/temp/dataset/3/25_8.odb,Step-1,Increment      1: Step Time =    1.000,"PART-1-1",           689,      -2.26684,   407.252E-03,            0.,NA,NA,"",       4.45477,       3.51161,       2.74109,   11.9768E-03
C:/temp/dataset/3/25_8.odb,Step-1,Increment      1: Step Time =    1.000,"PART-1-1",           690,      -1.61706,  -775.207E-03,            0.,NA,NA,"",       4.12117,       3.19236,       2.60632,   13.6409E-03
C:/temp/dataset/3/25_8.odb,Step-1,Increment      1: Step Time =    1.000,"PART-1-1",           691,      -4.44627,  -189.662E-03,            0.,NA,NA,"",       4.79955,       3.43643,       3.35063,   9.32399E-03
C:/temp/dataset/3/25_8.odb,Step-1,Increment      1: Step Time =    1.000,"PART-1-1",           692,      -3.83065,   850.686E-03,            0.,NA,NA,"",       4.84237,       3.68020,       3.14717,   9.29766E-03
C:/temp/dataset/3/25_8.odb,Step-1,Increment      1: Step Time =    1.000,"PART-1-1",           693,      -5.38306,   384.196E-03,            0.,NA,NA,"",       5.08838,       3.61542,       3.58054,   7.03489E-03
C:/temp/dataset/3/25_8.odb,Step-1,Increment      1: Step Time =    1.000,"PART-1-1",           694,       3.90000,           -5.,            0.,NA,NA,"",       2.36523,       1.99885,       1.26448,   46.0935E-03
C:/temp/dataset/3/25_8.odb,Step-1,Increment      1: Step Time =    1.000,"PART-1-1",           695,       5.25667,      -4.01677,            0.,NA,NA,"",       2.36489,       2.20369,   858.151E-03,   41.8853E-03
C:/temp/dataset/3/25_8.odb,Step-1,Increment      1: Step Time =    1.000,"PART-1-1",           696,       4.24316,      -3.18705,            0.,NA,NA,"",       2.66810,       2.42577,       1.11103,   20.6286E-03
C:/temp/dataset/3/25_8.odb,Step-1,Increment      1: Step Time =    1.000,"PART-1-1",           697,       9.51721,      -4.82762,            0.,NA,NA,"",       1.95514,       1.95508,   16.1566E-03,   13.0930E-03
C:/temp/dataset/3/25_8.odb,Step-1,Increment      1: Step Time =    1.000,"PART-1-1",           698,       8.04384,      -4.93500,            0.,NA,NA,"",       1.97608,       1.95445,   291.577E-03,   16.4567E-03
C:/temp/dataset/3/25_8.odb,Step-1,Increment      1: Step Time =    1.000,"PART-1-1",           699,       8.61490,      -6.56470,            0.,NA,NA,"",       1.65274,       1.64096,   196.999E-03,   13.0234E-03
C:/temp/dataset/3/25_8.odb,Step-1,Increment      1: Step Time =    1.000,"PART-1-1",           700,       10.0883,      -6.45732,            0.,NA,NA,"",       1.63996,       1.63896,  -57.3271E-03,   7.27169E-03
C:/temp/dataset/3/25_8.odb,Step-1,Increment      1: Step Time =    1.000,"PART-1-1",           701,       9.29828,      -8.00429,            0.,NA,NA,"",       1.38550,       1.38261,   89.4587E-03,   10.5613E-03
C:/temp/dataset/3/25_8.odb,Step-1,Increment      1: Step Time =    1.000,"PART-1-1",           702,       6.27674,      -21.4047,            0.,NA,NA,"",   139.455E-03,   47.8603E-03,   130.985E-03,   31.1048E-03
C:/temp/dataset/3/25_8.odb,Step-1,Increment      1: Step Time =    1.000,"PART-1-1",           703,       7.27122,      -20.3583,            0.,NA,NA,"",   145.257E-03,   71.0151E-03,   126.714E-03,   23.5784E-03
C:/temp/dataset/3/25_8.odb,Step-1,Increment      1: Step Time =    1.000,"PART-1-1",           704,         -6.25,          -20.,            0.,NA,NA,"",   26.5596E-03,   26.4748E-03,  -2.12080E-03,   114.995E-06
C:/temp/dataset/3/25_8.odb,Step-1,Increment      1: Step Time =    1.000,"PART-1-1",           705,         -1.25,          -30.,            0.,NA,NA,"",            0.,   6.31988E-39,   8.18753E-39,   7.62894E-03
C:/temp/dataset/3/25_8.odb,Step-1,Increment      1: Step Time =    1.000,"PART-1-1",           706,       8.60683,      -25.8105,            0.,NA,NA,"",   27.3731E-03,  -18.0234E-03,   20.6021E-03,   10.8491E-03
C:/temp/dataset/3/25_8.odb,Step-1,Increment      1: Step Time =    1.000,"PART-1-1",           707,       7.41490,      -26.9159,            0.,NA,NA,"",   25.8730E-03,  -12.4686E-03,   22.6704E-03,   12.6535E-03
C:/temp/dataset/3/25_8.odb,Step-1,Increment      1: Step Time =    1.000,"PART-1-1",           708,       6.17638,      -25.8614,            0.,NA,NA,"",   42.9134E-03,   801.017E-06,   42.9059E-03,   15.6520E-03
C:/temp/dataset/3/25_8.odb,Step-1,Increment      1: Step Time =    1.000,"PART-1-1",           709,       7.37219,      -25.0876,            0.,NA,NA,"",   44.8555E-03,  -5.83210E-03,   44.4748E-03,   16.5203E-03
C:/temp/dataset/3/25_8.odb,Step-1,Increment      1: Step Time =    1.000,"PART-1-1",           710,       6.30743,      -24.1068,            0.,NA,NA,"",   71.8631E-03,   12.2976E-03,   70.8031E-03,   19.7224E-03
C:/temp/dataset/3/25_8.odb,Step-1,Increment      1: Step Time =    1.000,"PART-1-1",           711,   113.079E-03,      -23.9373,            0.,NA,NA,"",   46.1281E-03,   39.3474E-03,   24.0745E-03,   8.91308E-03
C:/temp/dataset/3/25_8.odb,Step-1,Increment      1: Step Time =    1.000,"PART-1-1",           712,      -2.43554,      -23.8906,            0.,NA,NA,"",   33.9383E-03,   33.1050E-03,   7.47411E-03,   4.25060E-03
C:/temp/dataset/3/25_8.odb,Step-1,Increment      1: Step Time =    1.000,"PART-1-1",           713,      -8.72529,      -25.0755,            0.,NA,NA,"",   19.6710E-03,   19.6657E-03,  -457.544E-06,   2.01659E-03
C:/temp/dataset/3/25_8.odb,Step-1,Increment      1: Step Time =    1.000,"PART-1-1",           714,      -9.97606,      -23.8175,            0.,NA,NA,"",   21.5299E-03,   21.5275E-03,  -322.108E-06,   1.13347E-03
C:/temp/dataset/3/25_8.odb,Step-1,Increment      1: Step Time =    1.000,"PART-1-1",           715,      -9.99641,      -28.7682,            0.,NA,NA,"",   5.30162E-03,   5.28562E-03,   411.561E-06,   2.73663E-03
C:/temp/dataset/3/25_8.odb,Step-1,Increment      1: Step Time =    1.000,"PART-1-1",           716,      -11.2465,      -27.5281,            0.,NA,NA,"",   9.66800E-03,   9.63963E-03,   740.183E-06,   2.35989E-03
C:/temp/dataset/3/25_8.odb,Step-1,Increment      1: Step Time =    1.000,"PART-1-1",           717,        -11.25,          -30.,            0.,NA,NA,"",            0.,   2.36244E-39,   1.51895E-39,   2.56649E-03
C:/temp/dataset/3/25_8.odb,Step-1,Increment      1: Step Time =    1.000,"PART-1-1",           718,         -8.75,          -30.,            0.,NA,NA,"",            0.,   3.09144E-39,   1.43820E-39,   3.36470E-03
C:/temp/dataset/3/25_8.odb,Step-1,Increment      1: Step Time =    1.000,"PART-1-1",           719,      -8.73783,      -27.5479,            0.,NA,NA,"",   11.2845E-03,   11.2792E-03,   347.696E-06,   2.94605E-03
C:/temp/dataset/3/25_8.odb,Step-1,Increment      1: Step Time =    1.000,"PART-1-1",           720,       9.45286,      -20.3748,            0.,NA,NA,"",   74.5333E-03,   68.6595E-03,   29.0015E-03,   9.19252E-03
C:/temp/dataset/3/25_8.odb,Step-1,Increment      1: Step Time =    1.000,"PART-1-1",           721,       8.38706,      -19.4374,            0.,NA,NA,"",   144.175E-03,   112.739E-03,   89.8681E-03,   14.4934E-03
C:/temp/dataset/3/25_8.odb,Step-1,Increment      1: Step Time =    1.000,"PART-1-1",           722,       8.33702,      -21.2957,            0.,NA,NA,"",   82.7342E-03,   39.4259E-03,   72.7362E-03,   15.7800E-03
C:/temp/dataset/3/25_8.odb,Step-1,Increment      1: Step Time =    1.000,"PART-1-1",           723,       9.34035,      -18.0986,            0.,NA,NA,"",   195.390E-03,   190.324E-03,   44.2027E-03,   8.43692E-03
C:/temp/dataset/3/25_8.odb,Step-1,Increment      1: Step Time =    1.000,"PART-1-1",           724,       10.7511,      -19.4747,            0.,NA,NA,"",   118.057E-03,   110.151E-03,  -42.4774E-03,   8.30182E-03
C:/temp/dataset/3/25_8.odb,Step-1,Increment      1: Step Time =    1.000,"PART-1-1",           725,       9.57777,      -9.07511,            0.,NA,NA,"",       1.20852,       1.20746,   50.5295E-03,   9.34482E-03
C:/temp/dataset/3/25_8.odb,Step-1,Increment      1: Step Time =    1.000,"PART-1-1",           726,       10.3854,      -7.79904,            0.,NA,NA,"",       1.40426,       1.40160,  -86.3957E-03,   4.70863E-03
C:/temp/dataset/3/25_8.odb,Step-1,Increment      1: Step Time =    1.000,"PART-1-1",           727,       11.9371,      -7.89361,            0.,NA,NA,"",       1.41261,       1.37233,  -334.940E-03,   14.0181E-03
C:/temp/dataset/3/25_8.odb,Step-1,Increment      1: Step Time =    1.000,"PART-1-1",           728,       11.6400,      -6.55190,            0.,NA,NA,"",       1.63754,       1.60582,  -320.757E-03,   13.8976E-03
C:/temp/dataset/3/25_8.odb,Step-1,Increment      1: Step Time =    1.000,"PART-1-1",           729,       9.29748,       3.92298,            0.,NA,NA,"",       3.92204,       3.92007,  -124.329E-03,   11.4409E-03
C:/temp/dataset/3/25_8.odb,Step-1,Increment      1: Step Time =    1.000,"PART-1-1",           730,       10.7408,       1.93669,            0.,NA,NA,"",       3.44882,       3.42753,  -382.675E-03,   14.0248E-03
C:/temp/dataset/3/25_8.odb,Step-1,Increment      1: Step Time =    1.000,"PART-1-1",           731,       12.1175,       9.30164,            0.,NA,NA,"",       5.10360,       5.03141,  -855.338E-03,   276.815E-06
C:/temp/dataset/3/25_8.odb,Step-1,Increment      1: Step Time =    1.000,"PART-1-1",           732,       12.3743,       7.25826,            0.,NA,NA,"",       4.65884,       4.57841,  -861.939E-03,   1.29632E-03
C:/temp/dataset/3/25_8.odb,Step-1,Increment      1: Step Time =    1.000,"PART-1-1",           733,       9.86952,       23.8294,            0.,NA,NA,"",       8.26986,       8.23895,  -714.387E-03,   1.32305E-06
C:/temp/dataset/3/25_8.odb,Step-1,Increment      1: Step Time =    1.000,"PART-1-1",           734,       8.61965,       22.5851,            0.,NA,NA,"",       8.00932,       7.99864,  -413.409E-03,   1.94837E-06
C:/temp/dataset/3/25_8.odb,Step-1,Increment      1: Step Time =    1.000,"PART-1-1",           735,         11.25,           30.,            0.,NA,NA,"",       9.61584,       9.54547,      -1.16117,   928.062E-09
C:/temp/dataset/3/25_8.odb,Step-1,Increment      1: Step Time =    1.000,"PART-1-1",           736,       9.97488,       28.7673,            0.,NA,NA,"",       9.34749,       9.30830,  -854.993E-03,   993.941E-09
C:/temp/dataset/3/25_8.odb,Step-1,Increment      1: Step Time =    1.000,"PART-1-1",           737,          8.75,           30.,            0.,NA,NA,"",       9.62498,       9.60509,  -618.501E-03,   1.39235E-06
C:/temp/dataset/3/25_8.odb,Step-1,Increment      1: Step Time =    1.000,"PART-1-1",           738,       3.69885,       25.0915,            0.,NA,NA,"",       8.68044,       8.66003,   595.000E-03,   859.294E-09
C:/temp/dataset/3/25_8.odb,Step-1,Increment      1: Step Time =    1.000,"PART-1-1",           739,       4.94207,       26.3392,            0.,NA,NA,"",       8.90613,       8.90123,   295.379E-03,   788.067E-09
C:/temp/dataset/3/25_8.odb,Step-1,Increment      1: Step Time =    1.000,"PART-1-1",           740,         -6.25,           30.,            0.,NA,NA,"",       10.3060,       9.96276,       2.63758,   10.6672E-09
C:/temp/dataset/3/25_8.odb,Step-1,Increment      1: Step Time =    1.000,"PART-1-1",           741,      -11.2519,       25.0060,            0.,NA,NA,"",       9.78406,       8.99797,       3.84244,   2.18772E-09
C:/temp/dataset/3/25_8.odb,Step-1,Increment      1: Step Time =    1.000,"PART-1-1",           742,       11.7111,      -12.1867,            0.,NA,NA,"",   781.651E-03,   753.061E-03,  -209.470E-03,   11.0352E-03
C:/temp/dataset/3/25_8.odb,Step-1,Increment      1: Step Time =    1.000,"PART-1-1",           743,       12.0443,      -13.4388,            0.,NA,NA,"",   645.622E-03,   605.058E-03,  -225.239E-03,   14.9119E-03
C:/temp/dataset/3/25_8.odb,Step-1,Increment      1: Step Time =    1.000,"PART-1-1",           744,       9.07309,      -22.0228,            0.,NA,NA,"",   43.0600E-03,   19.6116E-03,   38.3347E-03,   12.9284E-03
C:/temp/dataset/3/25_8.odb,Step-1,Increment      1: Step Time =    1.000,"PART-1-1",           745,       9.10959,      -23.2638,            0.,NA,NA,"",   28.8686E-03,  -1.49054E-03,   28.8301E-03,   13.3438E-03
C:/temp/dataset/3/25_8.odb,Step-1,Increment      1: Step Time =    1.000,"PART-1-1",           746,       10.5828,      -23.1781,            0.,NA,NA,"",   17.2035E-03,  -2.58597E-03,  -17.0081E-03,   11.6982E-03
C:/temp/dataset/3/25_8.odb,Step-1,Increment      1: Step Time =    1.000,"PART-1-1",           747,       10.5463,      -21.9372,            0.,NA,NA,"",   28.8194E-03,   21.0971E-03,  -19.6334E-03,   11.4181E-03
C:/temp/dataset/3/25_8.odb,Step-1,Increment      1: Step Time =    1.000,"PART-1-1",           748,      -1.00841,      -2.00181,            0.,NA,NA,"",       3.79245,       2.86473,       2.48515,   13.6777E-03
C:/temp/dataset/3/25_8.odb,Step-1,Increment      1: Step Time =    1.000,"PART-1-1",           749,      -3.17395,      -1.50818,            0.,NA,NA,"",       4.32434,       3.05876,       3.05679,   12.0970E-03
C:/temp/dataset/3/25_8.odb,Step-1,Increment      1: Step Time =    1.000,"PART-1-1",           750,       8.23699,       8.20647,            0.,NA,NA,"",       4.88834,       4.88832,   13.3634E-03,   1.38585E-03
C:/temp/dataset/3/25_8.odb,Step-1,Increment      1: Step Time =    1.000,"PART-1-1",           751,       8.58975,       6.06422,            0.,NA,NA,"",       4.41547,       4.41544,  -15.9248E-03,   5.97733E-03
C:/temp/dataset/3/25_8.odb,Step-1,Increment      1: Step Time =    1.000,"PART-1-1",           752,       1.04870,      -2.29850,            0.,NA,NA,"",       3.34669,       2.72807,       1.93855,   14.9035E-03
C:/temp/dataset/3/25_8.odb,Step-1,Increment      1: Step Time =    1.000,"PART-1-1",           753,      -1.88356,       2.26041,            0.,NA,NA,"",       4.72863,       3.96429,       2.57768,   10.6768E-03
C:/temp/dataset/3/25_8.odb,Step-1,Increment      1: Step Time =    1.000,"PART-1-1",           754,      -2.91638,       1.44829,            0.,NA,NA,"",       4.76734,       3.79853,       2.88076,   10.2643E-03
C:/temp/dataset/3/25_8.odb,Step-1,Increment      1: Step Time =    1.000,"PART-1-1",           755,       3.03453,      -2.52132,            0.,NA,NA,"",       2.97728,       2.61833,       1.41724,   19.9145E-03
C:/temp/dataset/3/25_8.odb,Step-1,Increment      1: Step Time =    1.000,"PART-1-1",           756,       6.99799,      -3.46075,            0.,NA,NA,"",       2.33369,       2.28355,   481.167E-03,   20.6593E-03
C:/temp/dataset/3/25_8.odb,Step-1,Increment      1: Step Time =    1.000,"PART-1-1",           757,       7.63560,  -984.386E-03,            0.,NA,NA,"",       2.85242,       2.83484,   316.161E-03,   19.1350E-03
C:/temp/dataset/3/25_8.odb,Step-1,Increment      1: Step Time =    1.000,"PART-1-1",           758,       6.14771,      -1.67534,            0.,NA,NA,"",       2.79301,       2.71794,   643.185E-03,   18.3249E-03
C:/temp/dataset/3/25_8.odb,Step-1,Increment      1: Step Time =    1.000,"PART-1-1",           759,       4.94795,      -26.8240,            0.,NA,NA,"",   32.5769E-03,   6.32533E-03,   31.9569E-03,   15.5526E-03
C:/temp/dataset/3/25_8.odb,Step-1,Increment      1: Step Time =    1.000,"PART-1-1",           760,      -11.2341,      -25.0541,            0.,NA,NA,"",   17.8603E-03,   17.8378E-03,   896.422E-06,   1.32868E-03
C:/temp/dataset/3/25_8.odb,Step-1,Increment      1: Step Time =    1.000,"PART-1-1",           761,      -9.98574,      -26.3021,            0.,NA,NA,"",   14.8056E-03,   14.8032E-03,   266.788E-06,   2.14394E-03
C:/temp/dataset/3/25_8.odb,Step-1,Increment      1: Step Time =    1.000,"PART-1-1",           762,           15.,        -26.25,            0.,NA,NA,"",   62.6734E-03,   2.80908E-03,  -62.6105E-03,   25.1907E-03
C:/temp/dataset/3/25_8.odb,Step-1,Increment      1: Step Time =    1.000,"PART-1-1",           763,       9.63478,      -24.7731,            0.,NA,NA,"",   19.6037E-03,  -17.8483E-03,   8.10814E-03,   11.2705E-03
C:/temp/dataset/3/25_8.odb,Step-1,Increment      1: Step Time =    1.000,"PART-1-1",           764,       9.83383,   250.169E-03,            0.,NA,NA,"",       3.06651,       3.06251,  -156.543E-03,   18.4405E-03
C:/temp/dataset/3/25_8.odb,Step-1,Increment      1: Step Time =    1.000,"PART-1-1",           765,       11.1222,       22.5628,            0.,NA,NA,"",       7.99152,       7.93412,  -956.097E-03,   1.71240E-06
C:/temp/dataset/3/25_8.odb,Step-1,Increment      1: Step Time =    1.000,"PART-1-1",           766,       9.84566,       21.3197,            0.,NA,NA,"",       7.72209,       7.69474,  -649.366E-03,   7.69610E-06
C:/temp/dataset/3/25_8.odb,Step-1,Increment      1: Step Time =    1.000,"PART-1-1",           767,      -3.18112,  -190.353E-03,            0.,NA,NA,"",       4.53524,       3.39302,       3.00930,   11.3733E-03
C:/temp/dataset/3/25_8.odb,Step-1,Increment      1: Step Time =    1.000,"PART-1-1",           768,       4.54417,       1.21940,            0.,NA,NA,"",       3.58702,       3.45587,   961.069E-03,   10.0470E-03
C:/temp/dataset/3/25_8.odb,Step-1,Increment      1: Step Time =    1.000,"PART-1-1",           769,       9.22107,       9.51460,            0.,NA,NA,"",       5.15282,       5.14764,  -230.923E-03,   590.300E-06
C:/temp/dataset/3/25_8.odb,Step-1,Increment      1: Step Time =    1.000,"PART-1-1",           770,       11.1709,      -3.71800,            0.,NA,NA,"",       2.18243,       2.15961,  -314.779E-03,   16.8184E-03
C:/temp/dataset/3/25_8.odb,Step-1,Increment      1: Step Time =    1.000,"PART-1-1",           771,       11.0221,      -5.16095,            0.,NA,NA,"",       1.88762,       1.87120,  -248.411E-03,   13.4691E-03
C:/temp/dataset/3/25_8.odb,Step-1,Increment      1: Step Time =    1.000,"PART-1-1",           772,       12.3085,      -4.70099,            0.,NA,NA,"",       2.01058,       1.94848,  -495.857E-03,   18.8383E-03
C:/temp/dataset/3/25_8.odb,Step-1,Increment      1: Step Time =    1.000,"PART-1-1",           773,       5.03877,      -2.41022,            0.,NA,NA,"",       2.73591,       2.58192,   904.922E-03,   20.7074E-03
C:/temp/dataset/3/25_8.odb,Step-1,Increment      1: Step Time =    1.000,"PART-1-1",           774,       11.0080,       9.74440,            0.,NA,NA,"",       5.19230,       5.15460,  -624.511E-03,   294.079E-06
C:/temp/dataset/3/25_8.odb,Step-1,Increment      1: Step Time =    1.000,"PART-1-1",           775,       7.33953,      -23.4839,            0.,NA,NA,"",   69.4359E-03,   8.08643E-03,   68.9634E-03,   19.9566E-03
C:/temp/dataset/3/25_8.odb,Step-1,Increment      1: Step Time =    1.000,"PART-1-1",           776,       6.60048,      -22.7490,            0.,NA,NA,"",   97.8223E-03,   25.1620E-03,   94.5308E-03,   24.2171E-03
C:/temp/dataset/3/25_8.odb,Step-1,Increment      1: Step Time =    1.000,"PART-1-1",           777,       5.56839,      -23.3719,            0.,NA,NA,"",   92.0761E-03,   27.4124E-03,   87.9009E-03,   24.8589E-03
C:/temp/dataset/3/25_8.odb,Step-1,Increment      1: Step Time =    1.000,"PART-1-1",           778,       5.56431,      -22.1833,            0.,NA,NA,"",   122.441E-03,   43.8236E-03,   114.330E-03,   29.7329E-03
C:/temp/dataset/3/25_8.odb,Step-1,Increment      1: Step Time =    1.000,"PART-1-1",           779,       7.31291,      -21.9704,            0.,NA,NA,"",   101.134E-03,   29.5643E-03,   96.7167E-03,   22.5055E-03
C:/temp/dataset/3/25_8.odb,Step-1,Increment      1: Step Time =    1.000,"PART-1-1",           780,       8.04898,      -22.6975,            0.,NA,NA,"",   66.0644E-03,   11.8922E-03,   64.9852E-03,   17.2355E-03
C:/temp/dataset/3/25_8.odb,Step-1,Increment      1: Step Time =    1.000,"PART-1-1",           781,       5.89213,  -472.373E-03,            0.,NA,NA,"",       3.08486,       3.00838,   682.639E-03,   14.0865E-03
C:/temp/dataset/3/25_8.odb,Step-1,Increment      1: Step Time =    1.000,"PART-1-1",           782,       8.40014,      -24.0502,            0.,NA,NA,"",   40.6315E-03,  -6.45188E-03,   40.1160E-03,   13.9661E-03
