ODB Name,Step,Frame,Part Instance Name,    êﬂì_ÉâÉxÉã,X,Y,Z,Section Name,Material Name,Section Point,   U-Magnitude,          U-U1,          U-U2,       S-Mises
C:/temp/dataset/3/26_1.odb,Step-1,Increment      1: Step Time =    1.000,"PART-1-1",             1,          -15.,           20.,            0.,NA,NA,"",   564.366E-03,   447.295E-03,   344.145E-03,   46.6744E-09
C:/temp/dataset/3/26_1.odb,Step-1,Increment      1: Step Time =    1.000,"PART-1-1",             2,          -15.,           25.,            0.,NA,NA,"",   618.504E-03,   514.218E-03,   343.697E-03,   48.9472E-09
C:/temp/dataset/3/26_1.odb,Step-1,Increment      1: Step Time =    1.000,"PART-1-1",             3,           -5.,           20.,            0.,NA,NA,"",   493.457E-03,   446.400E-03,   210.301E-03,   125.021E-09
C:/temp/dataset/3/26_1.odb,Step-1,Increment      1: Step Time =    1.000,"PART-1-1",             4,            5.,           20.,            0.,NA,NA,"",   452.019E-03,   445.506E-03,   76.4583E-03,   428.306E-09
C:/temp/dataset/3/26_1.odb,Step-1,Increment      1: Step Time =    1.000,"PART-1-1",             5,            5.,          12.5,            0.,NA,NA,"",   353.634E-03,   345.127E-03,   77.0967E-03,   16.9636E-06
C:/temp/dataset/3/26_1.odb,Step-1,Increment      1: Step Time =    1.000,"PART-1-1",             6,            5.,            5.,            0.,NA,NA,"",   258.606E-03,   246.643E-03,   77.7451E-03,   1.01560E-03
C:/temp/dataset/3/26_1.odb,Step-1,Increment      1: Step Time =    1.000,"PART-1-1",             7,      -1.70000,            5.,            0.,NA,NA,"",   306.554E-03,   250.628E-03,   176.524E-03,   14.2889E-06
C:/temp/dataset/3/26_1.odb,Step-1,Increment      1: Step Time =    1.000,"PART-1-1",             8,      -8.40000,            5.,            0.,NA,NA,"",   371.588E-03,   251.070E-03,   273.937E-03,   22.8557E-06
C:/temp/dataset/3/26_1.odb,Step-1,Increment      1: Step Time =    1.000,"PART-1-1",             9,          -15.,            5.,            0.,NA,NA,"",   446.911E-03,   251.724E-03,   369.276E-03,   492.990E-09
C:/temp/dataset/3/26_1.odb,Step-1,Increment      1: Step Time =    1.000,"PART-1-1",            10,          -15.,            0.,            0.,NA,NA,"",   411.048E-03,   179.486E-03,   369.791E-03,   3.51446E-06
C:/temp/dataset/3/26_1.odb,Step-1,Increment      1: Step Time =    1.000,"PART-1-1",            11,          -15.,           -5.,            0.,NA,NA,"",   385.527E-03,   107.260E-03,   370.305E-03,   529.654E-09
C:/temp/dataset/3/26_1.odb,Step-1,Increment      1: Step Time =    1.000,"PART-1-1",            12,      -8.30000,           -5.,            0.,NA,NA,"",   293.545E-03,   106.601E-03,   273.506E-03,   24.8803E-06
C:/temp/dataset/3/26_1.odb,Step-1,Increment      1: Step Time =    1.000,"PART-1-1",            13,      -1.60000,           -5.,            0.,NA,NA,"",   207.819E-03,   106.605E-03,   178.393E-03,   577.940E-06
C:/temp/dataset/3/26_1.odb,Step-1,Increment      1: Step Time =    1.000,"PART-1-1",            14,            5.,           -5.,            0.,NA,NA,"",   129.915E-03,   108.551E-03,   71.3767E-03,   5.40548E-03
C:/temp/dataset/3/26_1.odb,Step-1,Increment      1: Step Time =    1.000,"PART-1-1",            15,            5.,         -12.5,            0.,NA,NA,"",   59.8489E-03,   43.0412E-03,   41.5854E-03,   3.96176E-03
C:/temp/dataset/3/26_1.odb,Step-1,Increment      1: Step Time =    1.000,"PART-1-1",            16,            5.,          -20.,            0.,NA,NA,"",   12.6488E-03,   2.48274E-03,   12.4027E-03,   4.82660E-03
C:/temp/dataset/3/26_1.odb,Step-1,Increment      1: Step Time =    1.000,"PART-1-1",            17,           -5.,          -20.,            0.,NA,NA,"",   970.734E-06,   968.581E-06,  -64.6162E-06,   61.2928E-06
C:/temp/dataset/3/26_1.odb,Step-1,Increment      1: Step Time =    1.000,"PART-1-1",            18,          -15.,          -20.,            0.,NA,NA,"",   1.18203E-03,   1.15564E-03,   248.383E-06,   1.13809E-06
C:/temp/dataset/3/26_1.odb,Step-1,Increment      1: Step Time =    1.000,"PART-1-1",            19,          -15.,          -25.,            0.,NA,NA,"",   803.840E-06,   755.149E-06,   275.515E-06,   6.89051E-06
C:/temp/dataset/3/26_1.odb,Step-1,Increment      1: Step Time =    1.000,"PART-1-1",            20,          -15.,          -30.,            0.,NA,NA,"",            0.,   65.7209E-42,   103.779E-42,   199.299E-06
C:/temp/dataset/3/26_1.odb,Step-1,Increment      1: Step Time =    1.000,"PART-1-1",            21,           15.,          -30.,            0.,NA,NA,"",            0.,  -30.5693E-42,  -33.0468E-42,   220.412E-06
C:/temp/dataset/3/26_1.odb,Step-1,Increment      1: Step Time =    1.000,"PART-1-1",            22,           15.,         -22.5,            0.,NA,NA,"",   6.77971E-03,   343.958E-06,  -6.77098E-03,   1.83329E-03
C:/temp/dataset/3/26_1.odb,Step-1,Increment      1: Step Time =    1.000,"PART-1-1",            23,           15.,          -15.,            0.,NA,NA,"",   33.4427E-03,   24.2100E-03,  -23.0714E-03,   2.70327E-03
C:/temp/dataset/3/26_1.odb,Step-1,Increment      1: Step Time =    1.000,"PART-1-1",            24,           15.,          -7.5,            0.,NA,NA,"",   93.0013E-03,   83.3193E-03,  -41.3175E-03,   2.52366E-03
C:/temp/dataset/3/26_1.odb,Step-1,Increment      1: Step Time =    1.000,"PART-1-1",            25,           15.,            0.,            0.,NA,NA,"",   183.198E-03,   175.049E-03,  -54.0312E-03,   864.543E-06
C:/temp/dataset/3/26_1.odb,Step-1,Increment      1: Step Time =    1.000,"PART-1-1",            26,           15.,           7.5,            0.,NA,NA,"",   282.807E-03,   277.125E-03,  -56.4082E-03,   31.7757E-06
C:/temp/dataset/3/26_1.odb,Step-1,Increment      1: Step Time =    1.000,"PART-1-1",            27,           15.,           15.,            0.,NA,NA,"",   381.971E-03,   377.704E-03,  -56.9323E-03,   4.92142E-06
C:/temp/dataset/3/26_1.odb,Step-1,Increment      1: Step Time =    1.000,"PART-1-1",            28,           15.,          22.5,            0.,NA,NA,"",   481.529E-03,   478.071E-03,  -57.6000E-03,   444.959E-09
C:/temp/dataset/3/26_1.odb,Step-1,Increment      1: Step Time =    1.000,"PART-1-1",            29,           15.,           30.,            0.,NA,NA,"",   581.376E-03,   578.448E-03,  -58.2731E-03,   34.0881E-09
C:/temp/dataset/3/26_1.odb,Step-1,Increment      1: Step Time =    1.000,"PART-1-1",            30,           7.5,           30.,            0.,NA,NA,"",   580.649E-03,   579.121E-03,   42.1040E-03,   265.973E-09
C:/temp/dataset/3/26_1.odb,Step-1,Increment      1: Step Time =    1.000,"PART-1-1",            31,            0.,           30.,            0.,NA,NA,"",   597.045E-03,   579.794E-03,   142.484E-03,   250.010E-09
C:/temp/dataset/3/26_1.odb,Step-1,Increment      1: Step Time =    1.000,"PART-1-1",            32,          -7.5,           30.,            0.,NA,NA,"",   629.227E-03,   580.467E-03,   242.866E-03,   132.920E-09
C:/temp/dataset/3/26_1.odb,Step-1,Increment      1: Step Time =    1.000,"PART-1-1",            33,          -15.,           30.,            0.,NA,NA,"",   674.940E-03,   581.140E-03,   343.249E-03,   42.6858E-09
C:/temp/dataset/3/26_1.odb,Step-1,Increment      1: Step Time =    1.000,"PART-1-1",            34,          -15.,          22.5,            0.,NA,NA,"",   591.108E-03,   480.757E-03,   343.921E-03,   68.3917E-09
C:/temp/dataset/3/26_1.odb,Step-1,Increment      1: Step Time =    1.000,"PART-1-1",            35,          -7.5,           20.,            0.,NA,NA,"",   508.815E-03,   446.624E-03,   243.762E-03,   94.2813E-09
C:/temp/dataset/3/26_1.odb,Step-1,Increment      1: Step Time =    1.000,"PART-1-1",            36,          -10.,           20.,            0.,NA,NA,"",   525.857E-03,   446.848E-03,   277.223E-03,   64.4064E-09
C:/temp/dataset/3/26_1.odb,Step-1,Increment      1: Step Time =    1.000,"PART-1-1",            37,         -12.5,           20.,            0.,NA,NA,"",   544.424E-03,   447.071E-03,   310.684E-03,   47.9303E-09
C:/temp/dataset/3/26_1.odb,Step-1,Increment      1: Step Time =    1.000,"PART-1-1",            38,           2.5,           20.,            0.,NA,NA,"",   459.083E-03,   445.729E-03,   109.919E-03,   264.589E-09
C:/temp/dataset/3/26_1.odb,Step-1,Increment      1: Step Time =    1.000,"PART-1-1",            39,            0.,           20.,            0.,NA,NA,"",   468.435E-03,   445.953E-03,   143.379E-03,   171.284E-09
C:/temp/dataset/3/26_1.odb,Step-1,Increment      1: Step Time =    1.000,"PART-1-1",            40,          -2.5,           20.,            0.,NA,NA,"",   479.944E-03,   446.176E-03,   176.840E-03,   157.605E-09
C:/temp/dataset/3/26_1.odb,Step-1,Increment      1: Step Time =    1.000,"PART-1-1",            41,            5.,           15.,            0.,NA,NA,"",   386.315E-03,   378.584E-03,   76.8967E-03,   6.55310E-06
C:/temp/dataset/3/26_1.odb,Step-1,Increment      1: Step Time =    1.000,"PART-1-1",            42,            5.,          17.5,            0.,NA,NA,"",   419.120E-03,   412.045E-03,   76.6802E-03,   1.43342E-06
C:/temp/dataset/3/26_1.odb,Step-1,Increment      1: Step Time =    1.000,"PART-1-1",            43,            5.,           7.5,            0.,NA,NA,"",   289.089E-03,   278.556E-03,   77.3249E-03,   196.646E-06
C:/temp/dataset/3/26_1.odb,Step-1,Increment      1: Step Time =    1.000,"PART-1-1",            44,            5.,           10.,            0.,NA,NA,"",   321.160E-03,   311.729E-03,   77.2557E-03,   61.7768E-06
C:/temp/dataset/3/26_1.odb,Step-1,Increment      1: Step Time =    1.000,"PART-1-1",            45,   533.333E-03,            5.,            0.,NA,NA,"",   288.418E-03,   250.178E-03,   143.513E-03,   225.826E-06
C:/temp/dataset/3/26_1.odb,Step-1,Increment      1: Step Time =    1.000,"PART-1-1",            46,       2.76667,            5.,            0.,NA,NA,"",   272.490E-03,   249.129E-03,   110.388E-03,   738.063E-06
C:/temp/dataset/3/26_1.odb,Step-1,Increment      1: Step Time =    1.000,"PART-1-1",            47,      -6.16667,            5.,            0.,NA,NA,"",   348.339E-03,   250.904E-03,   241.634E-03,   46.7762E-06
C:/temp/dataset/3/26_1.odb,Step-1,Increment      1: Step Time =    1.000,"PART-1-1",            48,      -3.93333,            5.,            0.,NA,NA,"",   326.588E-03,   250.782E-03,   209.208E-03,   62.3620E-06
C:/temp/dataset/3/26_1.odb,Step-1,Increment      1: Step Time =    1.000,"PART-1-1",            49,      -12.8000,            5.,            0.,NA,NA,"",   420.895E-03,   251.494E-03,   337.495E-03,   1.31359E-06
C:/temp/dataset/3/26_1.odb,Step-1,Increment      1: Step Time =    1.000,"PART-1-1",            50,      -10.6000,            5.,            0.,NA,NA,"",   395.729E-03,   251.272E-03,   305.719E-03,   8.28464E-06
C:/temp/dataset/3/26_1.odb,Step-1,Increment      1: Step Time =    1.000,"PART-1-1",            51,          -15.,           2.5,            0.,NA,NA,"",   427.835E-03,   215.605E-03,   369.537E-03,   1.47792E-06
C:/temp/dataset/3/26_1.odb,Step-1,Increment      1: Step Time =    1.000,"PART-1-1",            52,          -15.,          -2.5,            0.,NA,NA,"",   396.849E-03,   143.374E-03,   370.045E-03,   1.38451E-06
C:/temp/dataset/3/26_1.odb,Step-1,Increment      1: Step Time =    1.000,"PART-1-1",            53,      -10.5333,           -5.,            0.,NA,NA,"",   323.887E-03,   106.803E-03,   305.771E-03,   9.23415E-06
C:/temp/dataset/3/26_1.odb,Step-1,Increment      1: Step Time =    1.000,"PART-1-1",            54,      -12.7667,           -5.,            0.,NA,NA,"",   354.579E-03,   107.027E-03,   338.040E-03,   1.36691E-06
C:/temp/dataset/3/26_1.odb,Step-1,Increment      1: Step Time =    1.000,"PART-1-1",            55,      -3.83333,           -5.,            0.,NA,NA,"",   234.778E-03,   106.404E-03,   209.282E-03,   181.448E-06
C:/temp/dataset/3/26_1.odb,Step-1,Increment      1: Step Time =    1.000,"PART-1-1",            56,      -6.06667,           -5.,            0.,NA,NA,"",   263.732E-03,   106.460E-03,   241.289E-03,   69.8633E-06
C:/temp/dataset/3/26_1.odb,Step-1,Increment      1: Step Time =    1.000,"PART-1-1",            57,       2.80000,           -5.,            0.,NA,NA,"",   154.480E-03,   105.920E-03,   112.450E-03,   2.14277E-03
C:/temp/dataset/3/26_1.odb,Step-1,Increment      1: Step Time =    1.000,"PART-1-1",            58,   600.000E-03,           -5.,            0.,NA,NA,"",   181.435E-03,   106.105E-03,   147.174E-03,   993.523E-06
C:/temp/dataset/3/26_1.odb,Step-1,Increment      1: Step Time =    1.000,"PART-1-1",            59,            5.,          -10.,            0.,NA,NA,"",   80.2861E-03,   62.5007E-03,   50.3936E-03,   3.86416E-03
C:/temp/dataset/3/26_1.odb,Step-1,Increment      1: Step Time =    1.000,"PART-1-1",            60,            5.,          -7.5,            0.,NA,NA,"",   103.325E-03,   84.9237E-03,   58.8568E-03,   4.19734E-03
C:/temp/dataset/3/26_1.odb,Step-1,Increment      1: Step Time =    1.000,"PART-1-1",            61,            5.,         -17.5,            0.,NA,NA,"",   27.8559E-03,   13.9390E-03,   24.1176E-03,   4.22913E-03
C:/temp/dataset/3/26_1.odb,Step-1,Increment      1: Step Time =    1.000,"PART-1-1",            62,            5.,          -15.,            0.,NA,NA,"",   42.4655E-03,   26.9765E-03,   32.7962E-03,   3.84606E-03
C:/temp/dataset/3/26_1.odb,Step-1,Increment      1: Step Time =    1.000,"PART-1-1",            63,          -2.5,          -20.,            0.,NA,NA,"",   859.699E-06,   798.674E-06,   318.122E-06,   80.5947E-06
C:/temp/dataset/3/26_1.odb,Step-1,Increment      1: Step Time =    1.000,"PART-1-1",            64,            0.,          -20.,            0.,NA,NA,"",   1.51170E-03,   573.798E-06,   1.39857E-03,   200.464E-06
C:/temp/dataset/3/26_1.odb,Step-1,Increment      1: Step Time =    1.000,"PART-1-1",            65,           2.5,          -20.,            0.,NA,NA,"",   4.05617E-03,   300.263E-06,   4.04505E-03,   1.08691E-03
C:/temp/dataset/3/26_1.odb,Step-1,Increment      1: Step Time =    1.000,"PART-1-1",            66,         -12.5,          -20.,            0.,NA,NA,"",   1.15121E-03,   1.14916E-03,   68.7339E-06,   7.85335E-06
C:/temp/dataset/3/26_1.odb,Step-1,Increment      1: Step Time =    1.000,"PART-1-1",            67,          -10.,          -20.,            0.,NA,NA,"",   1.12305E-03,   1.12019E-03,  -80.0838E-06,   17.6271E-06
C:/temp/dataset/3/26_1.odb,Step-1,Increment      1: Step Time =    1.000,"PART-1-1",            68,          -7.5,          -20.,            0.,NA,NA,"",   1.07799E-03,   1.06753E-03,  -149.788E-06,   30.7928E-06
C:/temp/dataset/3/26_1.odb,Step-1,Increment      1: Step Time =    1.000,"PART-1-1",            69,          -15.,         -22.5,            0.,NA,NA,"",   1.01112E-03,   978.484E-06,   254.802E-06,   7.17751E-06
C:/temp/dataset/3/26_1.odb,Step-1,Increment      1: Step Time =    1.000,"PART-1-1",            70,          -15.,         -27.5,            0.,NA,NA,"",   499.777E-06,   429.716E-06,   255.189E-06,   54.9557E-06
C:/temp/dataset/3/26_1.odb,Step-1,Increment      1: Step Time =    1.000,"PART-1-1",            71,          12.5,          -30.,            0.,NA,NA,"",            0.,  -372.939E-42,  -202.406E-42,   622.862E-06
C:/temp/dataset/3/26_1.odb,Step-1,Increment      1: Step Time =    1.000,"PART-1-1",            72,           10.,          -30.,            0.,NA,NA,"",            0.,  -425.360E-42,   119.455E-42,   671.176E-06
C:/temp/dataset/3/26_1.odb,Step-1,Increment      1: Step Time =    1.000,"PART-1-1",            73,           7.5,          -30.,            0.,NA,NA,"",            0.,  -196.678E-42,   679.669E-42,   646.454E-06
C:/temp/dataset/3/26_1.odb,Step-1,Increment      1: Step Time =    1.000,"PART-1-1",            74,            5.,          -30.,            0.,NA,NA,"",            0.,  -114.981E-42,   906.459E-42,   631.205E-06
C:/temp/dataset/3/26_1.odb,Step-1,Increment      1: Step Time =    1.000,"PART-1-1",            75,           2.5,          -30.,            0.,NA,NA,"",            0.,   113.610E-42,   692.338E-42,   601.892E-06
C:/temp/dataset/3/26_1.odb,Step-1,Increment      1: Step Time =    1.000,"PART-1-1",            76,            0.,          -30.,            0.,NA,NA,"",            0.,   207.919E-42,   401.989E-42,   514.937E-06
C:/temp/dataset/3/26_1.odb,Step-1,Increment      1: Step Time =    1.000,"PART-1-1",            77,          -2.5,          -30.,            0.,NA,NA,"",            0.,   292.856E-42,   334.524E-42,   388.200E-06
C:/temp/dataset/3/26_1.odb,Step-1,Increment      1: Step Time =    1.000,"PART-1-1",            78,           -5.,          -30.,            0.,NA,NA,"",            0.,   164.382E-42,   62.5596E-42,   274.616E-06
C:/temp/dataset/3/26_1.odb,Step-1,Increment      1: Step Time =    1.000,"PART-1-1",            79,          -7.5,          -30.,            0.,NA,NA,"",            0.,   121.320E-42,   12.7490E-42,   189.705E-06
C:/temp/dataset/3/26_1.odb,Step-1,Increment      1: Step Time =    1.000,"PART-1-1",            80,          -10.,          -30.,            0.,NA,NA,"",            0.,   100.238E-42,   64.3182E-42,   135.157E-06
C:/temp/dataset/3/26_1.odb,Step-1,Increment      1: Step Time =    1.000,"PART-1-1",            81,         -12.5,          -30.,            0.,NA,NA,"",            0.,   93.1485E-42,   61.9780E-42,   93.3069E-06
C:/temp/dataset/3/26_1.odb,Step-1,Increment      1: Step Time =    1.000,"PART-1-1",            82,           15.,          -25.,            0.,NA,NA,"",   3.46281E-03,  -1.24762E-03,  -3.23025E-03,   1.30823E-03
C:/temp/dataset/3/26_1.odb,Step-1,Increment      1: Step Time =    1.000,"PART-1-1",            83,           15.,         -27.5,            0.,NA,NA,"",   1.33027E-03,  -1.01526E-03,  -859.577E-06,   777.495E-06
C:/temp/dataset/3/26_1.odb,Step-1,Increment      1: Step Time =    1.000,"PART-1-1",            84,           15.,         -17.5,            0.,NA,NA,"",   21.1243E-03,   12.4333E-03,  -17.0777E-03,   2.60449E-03
C:/temp/dataset/3/26_1.odb,Step-1,Increment      1: Step Time =    1.000,"PART-1-1",            85,           15.,          -20.,            0.,NA,NA,"",   12.3640E-03,   4.62229E-03,  -11.4674E-03,   2.29960E-03
C:/temp/dataset/3/26_1.odb,Step-1,Increment      1: Step Time =    1.000,"PART-1-1",            86,           15.,          -10.,            0.,NA,NA,"",   69.3052E-03,   59.6320E-03,  -35.3162E-03,   2.68258E-03
C:/temp/dataset/3/26_1.odb,Step-1,Increment      1: Step Time =    1.000,"PART-1-1",            87,           15.,         -12.5,            0.,NA,NA,"",   49.4818E-03,   39.9526E-03,  -29.1931E-03,   2.70603E-03
C:/temp/dataset/3/26_1.odb,Step-1,Increment      1: Step Time =    1.000,"PART-1-1",            88,           15.,          -2.5,            0.,NA,NA,"",   150.839E-03,   141.900E-03,  -51.1543E-03,   1.52590E-03
C:/temp/dataset/3/26_1.odb,Step-1,Increment      1: Step Time =    1.000,"PART-1-1",            89,           15.,           -5.,            0.,NA,NA,"",   120.402E-03,   110.933E-03,  -46.8037E-03,   2.14519E-03
C:/temp/dataset/3/26_1.odb,Step-1,Increment      1: Step Time =    1.000,"PART-1-1",            90,           15.,            5.,            0.,NA,NA,"",   249.654E-03,   243.253E-03,  -56.1711E-03,   53.0120E-06
C:/temp/dataset/3/26_1.odb,Step-1,Increment      1: Step Time =    1.000,"PART-1-1",            91,           15.,           2.5,            0.,NA,NA,"",   216.351E-03,   209.105E-03,  -55.5219E-03,   363.616E-06
C:/temp/dataset/3/26_1.odb,Step-1,Increment      1: Step Time =    1.000,"PART-1-1",            92,           15.,          12.5,            0.,NA,NA,"",   348.888E-03,   344.245E-03,  -56.7295E-03,   15.2525E-06
C:/temp/dataset/3/26_1.odb,Step-1,Increment      1: Step Time =    1.000,"PART-1-1",            93,           15.,           10.,            0.,NA,NA,"",   315.851E-03,   310.746E-03,  -56.5563E-03,   32.5723E-06
C:/temp/dataset/3/26_1.odb,Step-1,Increment      1: Step Time =    1.000,"PART-1-1",            94,           15.,           20.,            0.,NA,NA,"",   448.300E-03,   444.614E-03,  -57.3751E-03,   402.391E-09
C:/temp/dataset/3/26_1.odb,Step-1,Increment      1: Step Time =    1.000,"PART-1-1",            95,           15.,          17.5,            0.,NA,NA,"",   415.111E-03,   411.158E-03,  -57.1512E-03,   728.263E-09
C:/temp/dataset/3/26_1.odb,Step-1,Increment      1: Step Time =    1.000,"PART-1-1",            96,           15.,          27.5,            0.,NA,NA,"",   548.072E-03,   544.989E-03,  -58.0490E-03,   108.450E-09
C:/temp/dataset/3/26_1.odb,Step-1,Increment      1: Step Time =    1.000,"PART-1-1",            97,           15.,           25.,            0.,NA,NA,"",   514.788E-03,   511.530E-03,  -57.8247E-03,   263.328E-09
C:/temp/dataset/3/26_1.odb,Step-1,Increment      1: Step Time =    1.000,"PART-1-1",            98,           10.,           30.,            0.,NA,NA,"",   578.961E-03,   578.896E-03,   8.64492E-03,   161.805E-09
C:/temp/dataset/3/26_1.odb,Step-1,Increment      1: Step Time =    1.000,"PART-1-1",            99,          12.5,           30.,            0.,NA,NA,"",   579.204E-03,   578.672E-03,  -24.8140E-03,   53.3986E-09
C:/temp/dataset/3/26_1.odb,Step-1,Increment      1: Step Time =    1.000,"PART-1-1",           100,           2.5,           30.,            0.,NA,NA,"",   589.735E-03,   579.570E-03,   109.023E-03,   290.651E-09
C:/temp/dataset/3/26_1.odb,Step-1,Increment      1: Step Time =    1.000,"PART-1-1",           101,            5.,           30.,            0.,NA,NA,"",   584.252E-03,   579.345E-03,   75.5634E-03,   306.391E-09
C:/temp/dataset/3/26_1.odb,Step-1,Increment      1: Step Time =    1.000,"PART-1-1",           102,           -5.,           30.,            0.,NA,NA,"",   616.873E-03,   580.243E-03,   209.405E-03,   168.273E-09
C:/temp/dataset/3/26_1.odb,Step-1,Increment      1: Step Time =    1.000,"PART-1-1",           103,          -2.5,           30.,            0.,NA,NA,"",   606.117E-03,   580.019E-03,   175.944E-03,   207.057E-09
C:/temp/dataset/3/26_1.odb,Step-1,Increment      1: Step Time =    1.000,"PART-1-1",           104,         -12.5,           30.,            0.,NA,NA,"",   658.355E-03,   580.916E-03,   309.788E-03,   78.5889E-09
C:/temp/dataset/3/26_1.odb,Step-1,Increment      1: Step Time =    1.000,"PART-1-1",           105,          -10.,           30.,            0.,NA,NA,"",   643.086E-03,   580.692E-03,   276.327E-03,   100.428E-09
C:/temp/dataset/3/26_1.odb,Step-1,Increment      1: Step Time =    1.000,"PART-1-1",           106,          -15.,          27.5,            0.,NA,NA,"",   646.472E-03,   547.679E-03,   343.473E-03,   43.7395E-09
C:/temp/dataset/3/26_1.odb,Step-1,Increment      1: Step Time =    1.000,"PART-1-1",           107,      -12.5013,       25.0052,            0.,NA,NA,"",   600.431E-03,   514.063E-03,   310.253E-03,   64.2497E-09
C:/temp/dataset/3/26_1.odb,Step-1,Increment      1: Step Time =    1.000,"PART-1-1",           108,      -10.0028,       27.5014,            0.,NA,NA,"",   613.174E-03,   547.250E-03,   276.588E-03,   71.2561E-09
C:/temp/dataset/3/26_1.odb,Step-1,Increment      1: Step Time =    1.000,"PART-1-1",           109,      -2.49865,       22.5268,            0.,NA,NA,"",   511.451E-03,   479.996E-03,   176.595E-03,   80.6081E-09
C:/temp/dataset/3/26_1.odb,Step-1,Increment      1: Step Time =    1.000,"PART-1-1",           110,      -2.51000,       27.5279,            0.,NA,NA,"",   574.645E-03,   546.933E-03,   176.299E-03,   119.707E-09
C:/temp/dataset/3/26_1.odb,Step-1,Increment      1: Step Time =    1.000,"PART-1-1",           111,       12.3864,       22.5464,            0.,NA,NA,"",   479.460E-03,   478.925E-03,  -22.6251E-03,   195.271E-09
C:/temp/dataset/3/26_1.odb,Step-1,Increment      1: Step Time =    1.000,"PART-1-1",           112,       7.35369,       17.5509,            0.,NA,NA,"",   414.982E-03,   412.516E-03,   45.1764E-03,   2.19411E-06
C:/temp/dataset/3/26_1.odb,Step-1,Increment      1: Step Time =    1.000,"PART-1-1",           113,       12.3201,       14.9467,            0.,NA,NA,"",   377.819E-03,   377.232E-03,  -21.0523E-03,   6.80162E-06
C:/temp/dataset/3/26_1.odb,Step-1,Increment      1: Step Time =    1.000,"PART-1-1",           114,       13.2599,       7.39194,            0.,NA,NA,"",   277.799E-03,   275.835E-03,  -32.9749E-03,   45.5754E-06
C:/temp/dataset/3/26_1.odb,Step-1,Increment      1: Step Time =    1.000,"PART-1-1",           115,       7.60504,      -5.98204,            0.,NA,NA,"",   103.790E-03,   97.6666E-03,   35.1229E-03,   1.41735E-03
C:/temp/dataset/3/26_1.odb,Step-1,Increment      1: Step Time =    1.000,"PART-1-1",           116,       7.71062,      -13.7665,            0.,NA,NA,"",   36.6215E-03,   30.7154E-03,   19.9424E-03,   2.18366E-03
C:/temp/dataset/3/26_1.odb,Step-1,Increment      1: Step Time =    1.000,"PART-1-1",           117,       11.7208,      -22.4938,            0.,NA,NA,"",   1.83038E-03,  -1.28023E-03,  -1.30816E-03,   864.448E-06
C:/temp/dataset/3/26_1.odb,Step-1,Increment      1: Step Time =    1.000,"PART-1-1",           118,       2.59328,       2.74806,            0.,NA,NA,"",   244.535E-03,   216.962E-03,   112.804E-03,   737.733E-06
C:/temp/dataset/3/26_1.odb,Step-1,Increment      1: Step Time =    1.000,"PART-1-1",           119,      -1.32361,      -2.98462,            0.,NA,NA,"",   219.917E-03,   135.170E-03,   173.472E-03,   661.853E-06
C:/temp/dataset/3/26_1.odb,Step-1,Increment      1: Step Time =    1.000,"PART-1-1",           120,      -6.00563,       3.11026,            0.,NA,NA,"",   327.602E-03,   223.498E-03,   239.524E-03,   18.7600E-06
C:/temp/dataset/3/26_1.odb,Step-1,Increment      1: Step Time =    1.000,"PART-1-1",           121,      -10.4102,       2.53863,            0.,NA,NA,"",   372.116E-03,   215.680E-03,   303.237E-03,   11.8092E-06
C:/temp/dataset/3/26_1.odb,Step-1,Increment      1: Step Time =    1.000,"PART-1-1",           122,      -12.6184,  -43.2983E-03,            0.,NA,NA,"",   379.983E-03,   178.607E-03,   335.390E-03,   4.87201E-06
C:/temp/dataset/3/26_1.odb,Step-1,Increment      1: Step Time =    1.000,"PART-1-1",           123,      -3.88272,       3.23189,            0.,NA,NA,"",   306.921E-03,   225.055E-03,   208.687E-03,   29.3620E-06
C:/temp/dataset/3/26_1.odb,Step-1,Increment      1: Step Time =    1.000,"PART-1-1",           124,       2.98144,      -22.7363,            0.,NA,NA,"",   4.66757E-03,   2.06291E-03,   4.18695E-03,   1.52634E-03
C:/temp/dataset/3/26_1.odb,Step-1,Increment      1: Step Time =    1.000,"PART-1-1",           125,      -2.42987,      -22.6294,            0.,NA,NA,"",   1.42557E-03,   1.38083E-03,   354.361E-06,   127.926E-06
C:/temp/dataset/3/26_1.odb,Step-1,Increment      1: Step Time =    1.000,"PART-1-1",           126,      -9.97348,      -22.5672,            0.,NA,NA,"",   1.01008E-03,   1.00701E-03,  -78.6749E-06,   20.5768E-06
C:/temp/dataset/3/26_1.odb,Step-1,Increment      1: Step Time =    1.000,"PART-1-1",           127,      -12.4895,      -25.0402,            0.,NA,NA,"",   760.795E-06,   758.053E-06,   64.5350E-06,   37.2333E-06
C:/temp/dataset/3/26_1.odb,Step-1,Increment      1: Step Time =    1.000,"PART-1-1",           128,       12.8561,      -14.2595,            0.,NA,NA,"",   29.1516E-03,   26.5703E-03,  -11.9930E-03,   1.22464E-03
C:/temp/dataset/3/26_1.odb,Step-1,Increment      1: Step Time =    1.000,"PART-1-1",           129,       12.7281,      -7.33650,            0.,NA,NA,"",   85.2948E-03,   83.2513E-03,  -18.5587E-03,   1.14365E-03
C:/temp/dataset/3/26_1.odb,Step-1,Increment      1: Step Time =    1.000,"PART-1-1",           130,       12.6427,  -96.8002E-03,            0.,NA,NA,"",   174.848E-03,   173.292E-03,  -23.2769E-03,   837.762E-06
C:/temp/dataset/3/26_1.odb,Step-1,Increment      1: Step Time =    1.000,"PART-1-1",           131,       7.13014,       10.3328,            0.,NA,NA,"",   319.701E-03,   315.950E-03,   48.8271E-03,   32.3997E-06
C:/temp/dataset/3/26_1.odb,Step-1,Increment      1: Step Time =    1.000,"PART-1-1",           132,       4.95005,       27.5805,            0.,NA,NA,"",   552.284E-03,   546.968E-03,   76.4484E-03,   164.555E-09
C:/temp/dataset/3/26_1.odb,Step-1,Increment      1: Step Time =    1.000,"PART-1-1",           133,      -4.99957,       22.5148,            0.,NA,NA,"",   524.010E-03,   480.059E-03,   210.070E-03,   67.4772E-09
C:/temp/dataset/3/26_1.odb,Step-1,Increment      1: Step Time =    1.000,"PART-1-1",           134,      -7.50186,       22.5094,            0.,NA,NA,"",   538.447E-03,   480.211E-03,   243.562E-03,   55.2933E-09
C:/temp/dataset/3/26_1.odb,Step-1,Increment      1: Step Time =    1.000,"PART-1-1",           135,       4.93744,       22.5898,            0.,NA,NA,"",   486.319E-03,   480.174E-03,   77.0640E-03,   92.7232E-09
C:/temp/dataset/3/26_1.odb,Step-1,Increment      1: Step Time =    1.000,"PART-1-1",           136,       2.47758,       22.5593,            0.,NA,NA,"",   492.426E-03,   479.985E-03,   109.990E-03,   130.344E-09
C:/temp/dataset/3/26_1.odb,Step-1,Increment      1: Step Time =    1.000,"PART-1-1",           137,  -4.46696E-03,       22.5388,            0.,NA,NA,"",   500.844E-03,   479.933E-03,   143.212E-03,   106.991E-09
C:/temp/dataset/3/26_1.odb,Step-1,Increment      1: Step Time =    1.000,"PART-1-1",           138,       7.20686,       12.6699,            0.,NA,NA,"",   350.441E-03,   347.196E-03,   47.5777E-03,   12.3342E-06
C:/temp/dataset/3/26_1.odb,Step-1,Increment      1: Step Time =    1.000,"PART-1-1",           139,       7.30679,       15.0771,            0.,NA,NA,"",   382.188E-03,   379.407E-03,   46.0271E-03,   6.35047E-06
C:/temp/dataset/3/26_1.odb,Step-1,Increment      1: Step Time =    1.000,"PART-1-1",           140,       7.52839,       5.66323,            0.,NA,NA,"",   257.567E-03,   253.837E-03,   43.6756E-03,   416.099E-06
C:/temp/dataset/3/26_1.odb,Step-1,Increment      1: Step Time =    1.000,"PART-1-1",           141,       7.20823,       7.96221,            0.,NA,NA,"",   288.348E-03,   284.333E-03,   47.9483E-03,   144.081E-06
C:/temp/dataset/3/26_1.odb,Step-1,Increment      1: Step Time =    1.000,"PART-1-1",           142,      -1.77433,       3.17490,            0.,NA,NA,"",   285.996E-03,   224.003E-03,   177.811E-03,   163.859E-06
C:/temp/dataset/3/26_1.odb,Step-1,Increment      1: Step Time =    1.000,"PART-1-1",           143,   347.975E-03,       3.01142,            0.,NA,NA,"",   265.287E-03,   221.269E-03,   146.347E-03,   424.314E-06
C:/temp/dataset/3/26_1.odb,Step-1,Increment      1: Step Time =    1.000,"PART-1-1",           144,      -8.17775,       2.85153,            0.,NA,NA,"",   349.008E-03,   219.970E-03,   270.961E-03,   19.6539E-06
C:/temp/dataset/3/26_1.odb,Step-1,Increment      1: Step Time =    1.000,"PART-1-1",           145,      -8.45397,      -3.03463,            0.,NA,NA,"",   306.797E-03,   134.968E-03,   275.515E-03,   21.5218E-06
C:/temp/dataset/3/26_1.odb,Step-1,Increment      1: Step Time =    1.000,"PART-1-1",           146,      -12.6978,       2.46856,            0.,NA,NA,"",   399.089E-03,   214.909E-03,   336.283E-03,   5.05682E-06
C:/temp/dataset/3/26_1.odb,Step-1,Increment      1: Step Time =    1.000,"PART-1-1",           147,      -10.5225,      -2.72745,            0.,NA,NA,"",   335.778E-03,   139.618E-03,   305.374E-03,   11.8792E-06
C:/temp/dataset/3/26_1.odb,Step-1,Increment      1: Step Time =    1.000,"PART-1-1",           148,      -12.7265,      -2.55241,            0.,NA,NA,"",   366.031E-03,   142.378E-03,   337.205E-03,   5.14487E-06
C:/temp/dataset/3/26_1.odb,Step-1,Increment      1: Step Time =    1.000,"PART-1-1",           149,      -3.80700,      -2.48494,            0.,NA,NA,"",   252.481E-03,   142.357E-03,   208.521E-03,   113.974E-06
C:/temp/dataset/3/26_1.odb,Step-1,Increment      1: Step Time =    1.000,"PART-1-1",           150,      -6.26959,      -2.94549,            0.,NA,NA,"",   279.326E-03,   136.021E-03,   243.970E-03,   33.5117E-06
C:/temp/dataset/3/26_1.odb,Step-1,Increment      1: Step Time =    1.000,"PART-1-1",           151,       2.97297,      -3.34056,            0.,NA,NA,"",   170.811E-03,   131.747E-03,   108.715E-03,   2.01815E-03
C:/temp/dataset/3/26_1.odb,Step-1,Increment      1: Step Time =    1.000,"PART-1-1",           152,   836.982E-03,      -3.21922,            0.,NA,NA,"",   194.347E-03,   132.577E-03,   142.106E-03,   1.23511E-03
C:/temp/dataset/3/26_1.odb,Step-1,Increment      1: Step Time =    1.000,"PART-1-1",           153,       7.27849,      -10.7647,            0.,NA,NA,"",   60.4758E-03,   52.8860E-03,   29.3324E-03,   2.52009E-03
C:/temp/dataset/3/26_1.odb,Step-1,Increment      1: Step Time =    1.000,"PART-1-1",           154,       7.20650,      -8.25133,            0.,NA,NA,"",   82.7992E-03,   74.9844E-03,   35.1147E-03,   2.64625E-03
C:/temp/dataset/3/26_1.odb,Step-1,Increment      1: Step Time =    1.000,"PART-1-1",           155,       7.07274,      -17.3233,            0.,NA,NA,"",   20.0443E-03,   12.1545E-03,   15.9388E-03,   2.68416E-03
C:/temp/dataset/3/26_1.odb,Step-1,Increment      1: Step Time =    1.000,"PART-1-1",           156,       6.55788,      -15.2577,            0.,NA,NA,"",   32.8094E-03,   23.1127E-03,   23.2864E-03,   3.12844E-03
C:/temp/dataset/3/26_1.odb,Step-1,Increment      1: Step Time =    1.000,"PART-1-1",           157,      -7.46685,      -22.5818,            0.,NA,NA,"",   1.08191E-03,   1.07255E-03,  -142.020E-06,   40.9085E-06
C:/temp/dataset/3/26_1.odb,Step-1,Increment      1: Step Time =    1.000,"PART-1-1",           158,      -4.95694,      -22.5955,            0.,NA,NA,"",   1.19841E-03,   1.19720E-03,  -53.7747E-06,   73.1463E-06
C:/temp/dataset/3/26_1.odb,Step-1,Increment      1: Step Time =    1.000,"PART-1-1",           159,   146.162E-03,      -22.6598,            0.,NA,NA,"",   2.35558E-03,   1.81846E-03,   1.49731E-03,   445.156E-06
C:/temp/dataset/3/26_1.odb,Step-1,Increment      1: Step Time =    1.000,"PART-1-1",           160,      -12.4860,      -22.5306,            0.,NA,NA,"",   984.702E-06,   982.494E-06,   65.9194E-06,   5.88368E-06
C:/temp/dataset/3/26_1.odb,Step-1,Increment      1: Step Time =    1.000,"PART-1-1",           161,       9.96020,      -27.7814,            0.,NA,NA,"",   1.62222E-03,  -1.56126E-03,   440.535E-06,   627.934E-06
C:/temp/dataset/3/26_1.odb,Step-1,Increment      1: Step Time =    1.000,"PART-1-1",           162,       7.44077,      -27.8946,            0.,NA,NA,"",   1.43558E-03,  -859.962E-06,   1.14950E-03,   846.476E-06
C:/temp/dataset/3/26_1.odb,Step-1,Increment      1: Step Time =    1.000,"PART-1-1",           163,       4.93217,      -27.8625,            0.,NA,NA,"",   1.35909E-03,   93.8451E-06,   1.35584E-03,   897.960E-06
C:/temp/dataset/3/26_1.odb,Step-1,Increment      1: Step Time =    1.000,"PART-1-1",           164,       2.47767,      -27.7470,            0.,NA,NA,"",   1.35808E-03,   818.029E-06,   1.08407E-03,   712.788E-06
C:/temp/dataset/3/26_1.odb,Step-1,Increment      1: Step Time =    1.000,"PART-1-1",           165,   19.5837E-03,      -27.6625,            0.,NA,NA,"",   1.23385E-03,   1.06876E-03,   616.554E-06,   479.421E-06
C:/temp/dataset/3/26_1.odb,Step-1,Increment      1: Step Time =    1.000,"PART-1-1",           166,      -2.46955,      -27.6154,            0.,NA,NA,"",   1.02310E-03,   988.501E-06,   263.823E-06,   315.653E-06
C:/temp/dataset/3/26_1.odb,Step-1,Increment      1: Step Time =    1.000,"PART-1-1",           167,      -4.97450,      -27.5844,            0.,NA,NA,"",   791.240E-06,   787.657E-06,   75.2148E-06,   218.187E-06
C:/temp/dataset/3/26_1.odb,Step-1,Increment      1: Step Time =    1.000,"PART-1-1",           168,      -7.48283,      -27.5594,            0.,NA,NA,"",   601.430E-06,   601.395E-06,   6.54112E-06,   157.523E-06
C:/temp/dataset/3/26_1.odb,Step-1,Increment      1: Step Time =    1.000,"PART-1-1",           169,       12.2865,      -25.1793,            0.,NA,NA,"",   2.60351E-03,  -2.28752E-03,  -1.24320E-03,   786.067E-06
C:/temp/dataset/3/26_1.odb,Step-1,Increment      1: Step Time =    1.000,"PART-1-1",           170,       11.6753,      -16.4340,            0.,NA,NA,"",   15.1207E-03,   14.6103E-03,  -3.89564E-03,   523.369E-06
C:/temp/dataset/3/26_1.odb,Step-1,Increment      1: Step Time =    1.000,"PART-1-1",           171,       11.9685,      -19.5802,            0.,NA,NA,"",   4.87270E-03,   3.55690E-03,  -3.33042E-03,   853.335E-06
C:/temp/dataset/3/26_1.odb,Step-1,Increment      1: Step Time =    1.000,"PART-1-1",           172,       13.3291,      -9.93034,            0.,NA,NA,"",   62.3481E-03,   58.7171E-03,  -20.9664E-03,   1.52550E-03
C:/temp/dataset/3/26_1.odb,Step-1,Increment      1: Step Time =    1.000,"PART-1-1",           173,       13.4212,      -12.1607,            0.,NA,NA,"",   44.8688E-03,   40.8864E-03,  -18.4802E-03,   1.61507E-03
C:/temp/dataset/3/26_1.odb,Step-1,Increment      1: Step Time =    1.000,"PART-1-1",           174,       12.9633,      -2.52247,            0.,NA,NA,"",   143.059E-03,   140.713E-03,  -25.8033E-03,   1.06232E-03
C:/temp/dataset/3/26_1.odb,Step-1,Increment      1: Step Time =    1.000,"PART-1-1",           175,       13.1247,      -4.84738,            0.,NA,NA,"",   114.345E-03,   111.465E-03,  -25.5020E-03,   1.27522E-03
C:/temp/dataset/3/26_1.odb,Step-1,Increment      1: Step Time =    1.000,"PART-1-1",           176,       13.1131,       5.12757,            0.,NA,NA,"",   247.041E-03,   245.120E-03,  -30.7498E-03,   181.183E-06
C:/temp/dataset/3/26_1.odb,Step-1,Increment      1: Step Time =    1.000,"PART-1-1",           177,       12.1418,       2.60140,            0.,NA,NA,"",   211.271E-03,   210.542E-03,  -17.5400E-03,   538.093E-06
C:/temp/dataset/3/26_1.odb,Step-1,Increment      1: Step Time =    1.000,"PART-1-1",           178,       12.1760,       12.1629,            0.,NA,NA,"",   340.515E-03,   339.992E-03,  -18.8650E-03,   12.2997E-06
C:/temp/dataset/3/26_1.odb,Step-1,Increment      1: Step Time =    1.000,"PART-1-1",           179,       13.0236,       9.64002,            0.,NA,NA,"",   307.577E-03,   306.111E-03,  -30.0014E-03,   6.22169E-06
C:/temp/dataset/3/26_1.odb,Step-1,Increment      1: Step Time =    1.000,"PART-1-1",           180,       12.3784,       20.0377,            0.,NA,NA,"",   445.909E-03,   445.352E-03,  -22.2929E-03,   568.446E-09
C:/temp/dataset/3/26_1.odb,Step-1,Increment      1: Step Time =    1.000,"PART-1-1",           181,       12.3660,       17.5135,            0.,NA,NA,"",   412.156E-03,   411.574E-03,  -21.8996E-03,   2.33594E-06
C:/temp/dataset/3/26_1.odb,Step-1,Increment      1: Step Time =    1.000,"PART-1-1",           182,       12.4264,       25.0333,            0.,NA,NA,"",   512.739E-03,   512.206E-03,  -23.3836E-03,   222.747E-09
C:/temp/dataset/3/26_1.odb,Step-1,Increment      1: Step Time =    1.000,"PART-1-1",           183,       7.43491,       27.5684,            0.,NA,NA,"",   548.286E-03,   546.582E-03,   43.1927E-03,   183.698E-09
C:/temp/dataset/3/26_1.odb,Step-1,Increment      1: Step Time =    1.000,"PART-1-1",           184,  -17.4965E-03,       27.5503,            0.,NA,NA,"",   565.376E-03,   547.009E-03,   142.937E-03,   136.555E-09
C:/temp/dataset/3/26_1.odb,Step-1,Increment      1: Step Time =    1.000,"PART-1-1",           185,       2.47067,       27.5656,            0.,NA,NA,"",   557.870E-03,   546.991E-03,   109.634E-03,   151.934E-09
C:/temp/dataset/3/26_1.odb,Step-1,Increment      1: Step Time =    1.000,"PART-1-1",           186,      -7.50286,       27.5043,            0.,NA,NA,"",   598.658E-03,   547.065E-03,   243.127E-03,   86.6146E-09
C:/temp/dataset/3/26_1.odb,Step-1,Increment      1: Step Time =    1.000,"PART-1-1",           187,      -5.00635,       27.5119,            0.,NA,NA,"",   585.769E-03,   546.942E-03,   209.713E-03,   102.621E-09
C:/temp/dataset/3/26_1.odb,Step-1,Increment      1: Step Time =    1.000,"PART-1-1",           188,      -12.5019,       27.5019,            0.,NA,NA,"",   629.173E-03,   547.481E-03,   310.037E-03,   56.7644E-09
C:/temp/dataset/3/26_1.odb,Step-1,Increment      1: Step Time =    1.000,"PART-1-1",           189,      -12.5001,       22.5034,            0.,NA,NA,"",   572.138E-03,   480.579E-03,   310.461E-03,   45.3403E-09
C:/temp/dataset/3/26_1.odb,Step-1,Increment      1: Step Time =    1.000,"PART-1-1",           190,      -5.00429,       25.0191,            0.,NA,NA,"",   554.818E-03,   513.578E-03,   209.908E-03,   60.1498E-09
C:/temp/dataset/3/26_1.odb,Step-1,Increment      1: Step Time =    1.000,"PART-1-1",           191,  -15.9173E-03,       25.0642,            0.,NA,NA,"",   533.303E-03,   513.734E-03,   143.139E-03,   58.5599E-09
C:/temp/dataset/3/26_1.odb,Step-1,Increment      1: Step Time =    1.000,"PART-1-1",           192,       9.74355,       15.0604,            0.,NA,NA,"",   379.212E-03,   378.975E-03,   13.4271E-03,   7.13307E-06
C:/temp/dataset/3/26_1.odb,Step-1,Increment      1: Step Time =    1.000,"PART-1-1",           193,       9.51986,       12.6989,            0.,NA,NA,"",   347.789E-03,   347.390E-03,   16.6479E-03,   13.1774E-06
C:/temp/dataset/3/26_1.odb,Step-1,Increment      1: Step Time =    1.000,"PART-1-1",           194,       12.1898,      -11.7554,            0.,NA,NA,"",   44.3715E-03,   43.2760E-03,  -9.79874E-03,   781.440E-06
C:/temp/dataset/3/26_1.odb,Step-1,Increment      1: Step Time =    1.000,"PART-1-1",           195,       9.78251,      -13.4248,            0.,NA,NA,"",   32.3314E-03,   31.5328E-03,   7.14185E-03,   812.308E-06
C:/temp/dataset/3/26_1.odb,Step-1,Increment      1: Step Time =    1.000,"PART-1-1",           196,       7.24032,      -19.5057,            0.,NA,NA,"",   11.6832E-03,   3.79819E-03,   11.0485E-03,   1.64081E-03
C:/temp/dataset/3/26_1.odb,Step-1,Increment      1: Step Time =    1.000,"PART-1-1",           197,      -10.0066,  -139.817E-03,            0.,NA,NA,"",   346.277E-03,   176.923E-03,   297.668E-03,   14.1914E-06
C:/temp/dataset/3/26_1.odb,Step-1,Increment      1: Step Time =    1.000,"PART-1-1",           198,      -8.39380,      -1.43672,            0.,NA,NA,"",   316.720E-03,   158.007E-03,   274.492E-03,   23.0570E-06
C:/temp/dataset/3/26_1.odb,Step-1,Increment      1: Step Time =    1.000,"PART-1-1",           199,      -5.07121,  -530.035E-03,            0.,NA,NA,"",   283.562E-03,   170.689E-03,   226.435E-03,   36.2122E-06
C:/temp/dataset/3/26_1.odb,Step-1,Increment      1: Step Time =    1.000,"PART-1-1",           200,      -12.5003,      -27.5198,            0.,NA,NA,"",   419.346E-06,   415.488E-06,   56.7519E-06,   101.734E-06
C:/temp/dataset/3/26_1.odb,Step-1,Increment      1: Step Time =    1.000,"PART-1-1",           201,       8.97180,      -8.86122,            0.,NA,NA,"",   70.1446E-03,   67.8753E-03,   17.6977E-03,   1.17768E-03
C:/temp/dataset/3/26_1.odb,Step-1,Increment      1: Step Time =    1.000,"PART-1-1",           202,      -2.50561,       25.0360,            0.,NA,NA,"",   543.050E-03,   513.580E-03,   176.464E-03,   60.2107E-09
C:/temp/dataset/3/26_1.odb,Step-1,Increment      1: Step Time =    1.000,"PART-1-1",           203,      -7.50383,       25.0106,            0.,NA,NA,"",   568.420E-03,   513.688E-03,   243.364E-03,   60.0873E-09
C:/temp/dataset/3/26_1.odb,Step-1,Increment      1: Step Time =    1.000,"PART-1-1",           204,       2.46362,       25.0850,            0.,NA,NA,"",   525.424E-03,   513.791E-03,   109.950E-03,   57.8078E-09
C:/temp/dataset/3/26_1.odb,Step-1,Increment      1: Step Time =    1.000,"PART-1-1",           205,       9.17638,       10.5785,            0.,NA,NA,"",   319.774E-03,   319.054E-03,   21.4574E-03,   14.5819E-06
C:/temp/dataset/3/26_1.odb,Step-1,Increment      1: Step Time =    1.000,"PART-1-1",           206,       9.65111,       6.46520,            0.,NA,NA,"",   264.372E-03,   263.926E-03,   15.3479E-03,   193.764E-06
C:/temp/dataset/3/26_1.odb,Step-1,Increment      1: Step Time =    1.000,"PART-1-1",           207,      -1.99278,       1.34592,            0.,NA,NA,"",   268.210E-03,   197.606E-03,   181.351E-03,   236.418E-06
C:/temp/dataset/3/26_1.odb,Step-1,Increment      1: Step Time =    1.000,"PART-1-1",           208,      -5.69490,       1.29843,            0.,NA,NA,"",   306.960E-03,   197.211E-03,   235.228E-03,   20.5652E-06
C:/temp/dataset/3/26_1.odb,Step-1,Increment      1: Step Time =    1.000,"PART-1-1",           209,       1.92780,   665.778E-03,            0.,NA,NA,"",   224.598E-03,   187.913E-03,   123.017E-03,   842.059E-06
C:/temp/dataset/3/26_1.odb,Step-1,Increment      1: Step Time =    1.000,"PART-1-1",           210,       1.26043,      -1.37778,            0.,NA,NA,"",   208.087E-03,   159.179E-03,   134.023E-03,   1.00847E-03
C:/temp/dataset/3/26_1.odb,Step-1,Increment      1: Step Time =    1.000,"PART-1-1",           211,       9.14691,      -16.8280,            0.,NA,NA,"",   14.9987E-03,   12.8491E-03,   7.73699E-03,   1.03909E-03
C:/temp/dataset/3/26_1.odb,Step-1,Increment      1: Step Time =    1.000,"PART-1-1",           212,   79.9954E-03,      -25.2148,            0.,NA,NA,"",   2.09340E-03,   1.69942E-03,   1.22242E-03,   482.102E-06
C:/temp/dataset/3/26_1.odb,Step-1,Increment      1: Step Time =    1.000,"PART-1-1",           213,      -9.97865,      -25.0679,            0.,NA,NA,"",   818.031E-06,   816.999E-06,  -41.0740E-06,   67.4805E-06
C:/temp/dataset/3/26_1.odb,Step-1,Increment      1: Step Time =    1.000,"PART-1-1",           214,       12.4671,      -27.6040,            0.,NA,NA,"",   1.71510E-03,  -1.62031E-03,  -562.283E-06,   700.827E-06
C:/temp/dataset/3/26_1.odb,Step-1,Increment      1: Step Time =    1.000,"PART-1-1",           215,       9.82463,      -25.6838,            0.,NA,NA,"",   2.45904E-03,  -2.14385E-03,   1.20450E-03,   818.308E-06
C:/temp/dataset/3/26_1.odb,Step-1,Increment      1: Step Time =    1.000,"PART-1-1",           216,       2.56344,      -25.3828,            0.,NA,NA,"",   2.94186E-03,   1.52017E-03,   2.51865E-03,   898.815E-06
C:/temp/dataset/3/26_1.odb,Step-1,Increment      1: Step Time =    1.000,"PART-1-1",           217,      -2.44121,      -25.1518,            0.,NA,NA,"",   1.51866E-03,   1.46879E-03,   385.990E-06,   267.367E-06
C:/temp/dataset/3/26_1.odb,Step-1,Increment      1: Step Time =    1.000,"PART-1-1",           218,      -4.95889,      -25.1139,            0.,NA,NA,"",   1.18624E-03,   1.18581E-03,   32.0566E-06,   157.291E-06
C:/temp/dataset/3/26_1.odb,Step-1,Increment      1: Step Time =    1.000,"PART-1-1",           219,       10.3279,  -771.646E-03,            0.,NA,NA,"",   164.379E-03,   164.283E-03,   5.61542E-03,   1.00864E-03
C:/temp/dataset/3/26_1.odb,Step-1,Increment      1: Step Time =    1.000,"PART-1-1",           220,       10.4049,       4.48083,            0.,NA,NA,"",   236.872E-03,   236.814E-03,   5.22529E-03,   400.014E-06
C:/temp/dataset/3/26_1.odb,Step-1,Increment      1: Step Time =    1.000,"PART-1-1",           221,       9.80969,       17.5478,            0.,NA,NA,"",   412.441E-03,   412.258E-03,   12.3105E-03,   2.64254E-06
C:/temp/dataset/3/26_1.odb,Step-1,Increment      1: Step Time =    1.000,"PART-1-1",           222,       9.88106,       25.0797,            0.,NA,NA,"",   513.166E-03,   513.055E-03,   10.6774E-03,   214.080E-09
C:/temp/dataset/3/26_1.odb,Step-1,Increment      1: Step Time =    1.000,"PART-1-1",           223,       9.94975,       27.5346,            0.,NA,NA,"",   545.989E-03,   545.905E-03,   9.53815E-03,   204.078E-09
C:/temp/dataset/3/26_1.odb,Step-1,Increment      1: Step Time =    1.000,"PART-1-1",           224,       7.36779,       20.0596,            0.,NA,NA,"",   448.331E-03,   446.091E-03,   44.7632E-03,   598.887E-09
C:/temp/dataset/3/26_1.odb,Step-1,Increment      1: Step Time =    1.000,"PART-1-1",           225,  -693.206E-03,      -1.01900,            0.,NA,NA,"",   231.108E-03,   163.709E-03,   163.127E-03,   599.216E-06
C:/temp/dataset/3/26_1.odb,Step-1,Increment      1: Step Time =    1.000,"PART-1-1",           226,      -7.47194,      -25.0831,            0.,NA,NA,"",   962.189E-06,   959.794E-06,  -67.8516E-06,   106.249E-06
C:/temp/dataset/3/26_1.odb,Step-1,Increment      1: Step Time =    1.000,"PART-1-1",           227,       5.28089,       2.25097,            0.,NA,NA,"",   221.433E-03,   208.851E-03,   73.5771E-03,   460.676E-06
C:/temp/dataset/3/26_1.odb,Step-1,Increment      1: Step Time =    1.000,"PART-1-1",           228,       9.26575,       8.45073,            0.,NA,NA,"",   291.322E-03,   290.604E-03,   20.4498E-03,   67.0396E-06
C:/temp/dataset/3/26_1.odb,Step-1,Increment      1: Step Time =    1.000,"PART-1-1",           229,  -81.3472E-03,       1.02952,            0.,NA,NA,"",   246.415E-03,   193.050E-03,   153.141E-03,   531.931E-06
C:/temp/dataset/3/26_1.odb,Step-1,Increment      1: Step Time =    1.000,"PART-1-1",           230,      -7.67687,   831.326E-03,            0.,NA,NA,"",   325.602E-03,   190.683E-03,   263.925E-03,   23.6886E-06
C:/temp/dataset/3/26_1.odb,Step-1,Increment      1: Step Time =    1.000,"PART-1-1",           231,      -2.54090,  -531.417E-03,            0.,NA,NA,"",   255.211E-03,   170.530E-03,   189.874E-03,   243.700E-06
C:/temp/dataset/3/26_1.odb,Step-1,Increment      1: Step Time =    1.000,"PART-1-1",           232,      -3.83997,       1.55066,            0.,NA,NA,"",   289.238E-03,   200.677E-03,   208.296E-03,   65.5044E-06
C:/temp/dataset/3/26_1.odb,Step-1,Increment      1: Step Time =    1.000,"PART-1-1",           233,      -6.84494,  -996.203E-03,            0.,NA,NA,"",   300.832E-03,   164.180E-03,   252.081E-03,   26.6053E-06
C:/temp/dataset/3/26_1.odb,Step-1,Increment      1: Step Time =    1.000,"PART-1-1",           234,       5.51335,      -3.03354,            0.,NA,NA,"",   151.414E-03,   135.944E-03,   66.6752E-03,   2.15977E-03
C:/temp/dataset/3/26_1.odb,Step-1,Increment      1: Step Time =    1.000,"PART-1-1",           235,       9.62476,      -7.14735,            0.,NA,NA,"",   85.4868E-03,   84.5551E-03,   12.5870E-03,   705.182E-06
C:/temp/dataset/3/26_1.odb,Step-1,Increment      1: Step Time =    1.000,"PART-1-1",           236,       7.38903,      -25.9371,            0.,NA,NA,"",   2.94250E-03,  -1.07834E-03,   2.73779E-03,   1.12116E-03
C:/temp/dataset/3/26_1.odb,Step-1,Increment      1: Step Time =    1.000,"PART-1-1",           237,       4.96373,      -25.7856,            0.,NA,NA,"",   3.27003E-03,   396.464E-06,   3.24591E-03,   1.20038E-03
C:/temp/dataset/3/26_1.odb,Step-1,Increment      1: Step Time =    1.000,"PART-1-1",           238,       9.37191,      -21.3805,            0.,NA,NA,"",   4.04552E-03,  -163.806E-06,   4.04220E-03,   974.067E-06
C:/temp/dataset/3/26_1.odb,Step-1,Increment      1: Step Time =    1.000,"PART-1-1",           239,       9.53380,      -19.3691,            0.,NA,NA,"",   5.82561E-03,   3.65764E-03,   4.53425E-03,   745.602E-06
C:/temp/dataset/3/26_1.odb,Step-1,Increment      1: Step Time =    1.000,"PART-1-1",           240,       10.5518,      -5.76730,            0.,NA,NA,"",   99.8202E-03,   99.7727E-03,   3.07832E-03,   589.201E-06
C:/temp/dataset/3/26_1.odb,Step-1,Increment      1: Step Time =    1.000,"PART-1-1",           241,       10.8494,      -2.88140,            0.,NA,NA,"",   135.702E-03,   135.701E-03,  -670.620E-06,   997.691E-06
C:/temp/dataset/3/26_1.odb,Step-1,Increment      1: Step Time =    1.000,"PART-1-1",           242,       9.33979,       1.27198,            0.,NA,NA,"",   193.883E-03,   192.992E-03,   18.5696E-03,   879.982E-06
C:/temp/dataset/3/26_1.odb,Step-1,Increment      1: Step Time =    1.000,"PART-1-1",           243,       9.83335,       20.0603,            0.,NA,NA,"",   446.037E-03,   445.882E-03,   11.7663E-03,   732.331E-09
C:/temp/dataset/3/26_1.odb,Step-1,Increment      1: Step Time =    1.000,"PART-1-1",           244,       7.39102,       25.1069,            0.,NA,NA,"",   515.524E-03,   513.642E-03,   44.0005E-03,   157.031E-09
C:/temp/dataset/3/26_1.odb,Step-1,Increment      1: Step Time =    1.000,"PART-1-1",           245,       4.93408,       25.0979,            0.,NA,NA,"",   519.463E-03,   513.742E-03,   76.8845E-03,   77.6199E-09
C:/temp/dataset/3/26_1.odb,Step-1,Increment      1: Step Time =    1.000,"PART-1-1",           246,      -10.0026,       25.0068,            0.,NA,NA,"",   583.675E-03,   513.861E-03,   276.809E-03,   61.4614E-09
C:/temp/dataset/3/26_1.odb,Step-1,Increment      1: Step Time =    1.000,"PART-1-1",           247,      -10.0008,       22.5051,            0.,NA,NA,"",   554.524E-03,   480.377E-03,   277.009E-03,   46.6871E-09
C:/temp/dataset/3/26_1.odb,Step-1,Increment      1: Step Time =    1.000,"PART-1-1",           248,      -9.99283,      -27.5363,            0.,NA,NA,"",   470.948E-06,   470.945E-06,   1.84963E-06,   119.886E-06
C:/temp/dataset/3/26_1.odb,Step-1,Increment      1: Step Time =    1.000,"PART-1-1",           249,       3.80746,   187.829E-03,            0.,NA,NA,"",   204.252E-03,   181.029E-03,   94.5895E-03,   889.214E-06
C:/temp/dataset/3/26_1.odb,Step-1,Increment      1: Step Time =    1.000,"PART-1-1",           250,       11.4886,       7.12458,            0.,NA,NA,"",   272.598E-03,   272.442E-03,  -9.21829E-03,   103.411E-06
C:/temp/dataset/3/26_1.odb,Step-1,Increment      1: Step Time =    1.000,"PART-1-1",           251,       5.25951,      -23.9756,            0.,NA,NA,"",   5.35420E-03,   757.701E-06,   5.30032E-03,   1.61047E-03
C:/temp/dataset/3/26_1.odb,Step-1,Increment      1: Step Time =    1.000,"PART-1-1",           252,       9.85798,       22.5791,            0.,NA,NA,"",   479.721E-03,   479.590E-03,   11.2103E-03,   232.266E-09
C:/temp/dataset/3/26_1.odb,Step-1,Increment      1: Step Time =    1.000,"PART-1-1",           253,       7.38133,       22.5911,            0.,NA,NA,"",   482.017E-03,   479.971E-03,   44.3554E-03,   209.372E-09
C:/temp/dataset/3/26_1.odb,Step-1,Increment      1: Step Time =    1.000,"PART-1-1",           254,       9.03817,      -10.9527,            0.,NA,NA,"",   52.0352E-03,   49.8800E-03,   14.8207E-03,   1.28446E-03
C:/temp/dataset/3/26_1.odb,Step-1,Increment      1: Step Time =    1.000,"PART-1-1",           255,       7.30212,      -21.2110,            0.,NA,NA,"",   8.60906E-03,   646.113E-06,   8.58478E-03,   1.73399E-03
C:/temp/dataset/3/26_1.odb,Step-1,Increment      1: Step Time =    1.000,"PART-1-1",           256,       8.48263,      -3.88795,            0.,NA,NA,"",   125.700E-03,   122.846E-03,   26.6329E-03,   1.31012E-03
C:/temp/dataset/3/26_1.odb,Step-1,Increment      1: Step Time =    1.000,"PART-1-1",           257,       8.48912,      -1.65164,            0.,NA,NA,"",   155.379E-03,   152.828E-03,   28.0378E-03,   1.24875E-03
C:/temp/dataset/3/26_1.odb,Step-1,Increment      1: Step Time =    1.000,"PART-1-1",           258,       8.19007,       3.36514,            0.,NA,NA,"",   225.134E-03,   222.500E-03,   34.3352E-03,   721.062E-06
C:/temp/dataset/3/26_1.odb,Step-1,Increment      1: Step Time =    1.000,"PART-1-1",           259,       6.78208,  -317.133E-03,            0.,NA,NA,"",   179.961E-03,   172.452E-03,   51.4422E-03,   951.317E-06
C:/temp/dataset/3/26_1.odb,Step-1,Increment      1: Step Time =    1.000,"PART-1-1",           260,       11.8604,      -10.2109,            0.,NA,NA,"",   56.2078E-03,   55.6113E-03,  -8.16728E-03,   588.159E-06
C:/temp/dataset/3/26_1.odb,Step-1,Increment      1: Step Time =    1.000,"PART-1-1",           261,       5.00218,  -627.613E-03,            0.,NA,NA,"",   185.801E-03,   169.301E-03,   76.5442E-03,   1.06147E-03
C:/temp/dataset/3/26_1.odb,Step-1,Increment      1: Step Time =    1.000,"PART-1-1",           262,       11.1460,      -8.45072,            0.,NA,NA,"",   71.5398E-03,   71.4972E-03,  -2.46976E-03,   294.894E-06
C:/temp/dataset/3/26_1.odb,Step-1,Increment      1: Step Time =    1.000,"PART-1-1",           263,       11.7180,       5.54683,            0.,NA,NA,"",   251.322E-03,   251.025E-03,  -12.1986E-03,   220.348E-06
C:/temp/dataset/3/26_1.odb,Step-1,Increment      1: Step Time =    1.000,"PART-1-1",           264,       5.25136,      -21.5985,            0.,NA,NA,"",   9.12452E-03,   1.82835E-03,   8.93946E-03,   2.50930E-03
C:/temp/dataset/3/26_1.odb,Step-1,Increment      1: Step Time =    1.000,"PART-1-1",           265,       12.4723,       27.5096,            0.,NA,NA,"",   545.881E-03,   545.344E-03,  -24.2205E-03,   165.679E-09
C:/temp/dataset/3/26_1.odb,Step-1,Increment      1: Step Time =    1.000,"PART-1-1",           266,       5.87727,      -22.7682,            0.,NA,NA,"",   7.22229E-03,   846.309E-06,   7.17253E-03,   1.83277E-03
C:/temp/dataset/3/26_1.odb,Step-1,Increment      1: Step Time =    1.000,"PART-1-1",           267,       7.32369,      -22.7299,            0.,NA,NA,"",   6.45044E-03,  -395.020E-06,   6.43833E-03,   1.63328E-03
C:/temp/dataset/3/26_1.odb,Step-1,Increment      1: Step Time =    1.000,"PART-1-1",           268,       11.4923,      -4.55460,            0.,NA,NA,"",   114.701E-03,   114.454E-03,  -7.52383E-03,   902.318E-06
C:/temp/dataset/3/26_1.odb,Step-1,Increment      1: Step Time =    1.000,"PART-1-1",           269,       11.2115,       8.96325,            0.,NA,NA,"",   297.263E-03,   297.209E-03,  -5.64414E-03,   30.2920E-06
C:/temp/dataset/3/26_1.odb,Step-1,Increment      1: Step Time =    1.000,"PART-1-1",           270,       10.8046,       10.5255,            0.,NA,NA,"",   318.190E-03,   318.190E-03,  -336.654E-06,   14.4885E-06
C:/temp/dataset/3/26_1.odb,Step-1,Increment      1: Step Time =    1.000,"PART-1-1",           271,       7.35536,      -24.2380,            0.,NA,NA,"",   4.57161E-03,  -890.354E-06,   4.48407E-03,   1.37862E-03
C:/temp/dataset/3/26_1.odb,Step-1,Increment      1: Step Time =    1.000,"PART-1-1",           272,      -3.82134,   150.711E-03,            0.,NA,NA,"",   275.559E-03,   180.422E-03,   208.280E-03,   89.0549E-06
C:/temp/dataset/3/26_1.odb,Step-1,Increment      1: Step Time =    1.000,"PART-1-1",           273,       3.09609,      -1.70207,            0.,NA,NA,"",   187.622E-03,   155.145E-03,   105.508E-03,   1.45250E-03
C:/temp/dataset/3/26_1.odb,Step-1,Increment      1: Step Time =    1.000,"PART-1-1",           274,       4.56419,      -1.78689,            0.,NA,NA,"",   174.390E-03,   153.698E-03,   82.3935E-03,   1.41654E-03
C:/temp/dataset/3/26_1.odb,Step-1,Increment      1: Step Time =    1.000,"PART-1-1",           275,       9.44492,      -23.8624,            0.,NA,NA,"",   3.13108E-03,  -1.88479E-03,   2.50025E-03,   1.02476E-03
C:/temp/dataset/3/26_1.odb,Step-1,Increment      1: Step Time =    1.000,"PART-1-1",           276,       8.77427,      -22.6651,            0.,NA,NA,"",   4.52434E-03,  -1.12457E-03,   4.38235E-03,   1.19079E-03
C:/temp/dataset/3/26_1.odb,Step-1,Increment      1: Step Time =    1.000,"PART-1-1",           277,       10.1837,      -9.28900,            0.,NA,NA,"",   63.9670E-03,   63.6558E-03,   6.30210E-03,   455.623E-06
C:/temp/dataset/3/26_1.odb,Step-1,Increment      1: Step Time =    1.000,"PART-1-1",           278,       10.4979,      -10.7612,            0.,NA,NA,"",   51.0334E-03,   50.9339E-03,   3.18560E-03,   321.456E-06
C:/temp/dataset/3/26_1.odb,Step-1,Increment      1: Step Time =    1.000,"PART-1-1",           279,       11.2325,      -12.6180,            0.,NA,NA,"",   36.8635E-03,   36.7808E-03,  -2.46815E-03,   149.449E-06
C:/temp/dataset/3/26_1.odb,Step-1,Increment      1: Step Time =    1.000,"PART-1-1",           280,      -13.7500,       22.5017,            0.,NA,NA,"",   581.459E-03,   480.668E-03,   327.191E-03,   56.5928E-09
C:/temp/dataset/3/26_1.odb,Step-1,Increment      1: Step Time =    1.000,"PART-1-1",           281,          -15.,         21.25,            0.,NA,NA,"",   577.649E-03,   464.026E-03,   344.033E-03,   59.0681E-09
C:/temp/dataset/3/26_1.odb,Step-1,Increment      1: Step Time =    1.000,"PART-1-1",           282,        -13.75,           20.,            0.,NA,NA,"",   554.232E-03,   447.183E-03,   327.414E-03,   41.0571E-09
C:/temp/dataset/3/26_1.odb,Step-1,Increment      1: Step Time =    1.000,"PART-1-1",           283,      -12.5000,       21.2517,            0.,NA,NA,"",   558.201E-03,   463.825E-03,   310.572E-03,   32.3738E-09
C:/temp/dataset/3/26_1.odb,Step-1,Increment      1: Step Time =    1.000,"PART-1-1",           284,        -11.25,           30.,            0.,NA,NA,"",   650.550E-03,   580.804E-03,   293.057E-03,   86.5572E-09
C:/temp/dataset/3/26_1.odb,Step-1,Increment      1: Step Time =    1.000,"PART-1-1",           285,      -12.5009,       28.7510,            0.,NA,NA,"",   643.712E-03,   564.198E-03,   309.912E-03,   60.3901E-09
C:/temp/dataset/3/26_1.odb,Step-1,Increment      1: Step Time =    1.000,"PART-1-1",           286,      -11.2523,       27.5017,            0.,NA,NA,"",   621.000E-03,   547.365E-03,   293.312E-03,   62.9982E-09
C:/temp/dataset/3/26_1.odb,Step-1,Increment      1: Step Time =    1.000,"PART-1-1",           287,      -10.0014,       28.7507,            0.,NA,NA,"",   628.086E-03,   563.971E-03,   276.457E-03,   81.9097E-09
C:/temp/dataset/3/26_1.odb,Step-1,Increment      1: Step Time =    1.000,"PART-1-1",           288,      -8.75282,       27.5029,            0.,NA,NA,"",   605.729E-03,   547.157E-03,   259.858E-03,   78.7300E-09
C:/temp/dataset/3/26_1.odb,Step-1,Increment      1: Step Time =    1.000,"PART-1-1",           289,      -10.0027,       26.2541,            0.,NA,NA,"",   598.373E-03,   530.555E-03,   276.698E-03,   63.6416E-09
C:/temp/dataset/3/26_1.odb,Step-1,Increment      1: Step Time =    1.000,"PART-1-1",           290,      -8.75320,       25.0087,            0.,NA,NA,"",   575.855E-03,   513.774E-03,   260.086E-03,   60.6737E-09
C:/temp/dataset/3/26_1.odb,Step-1,Increment      1: Step Time =    1.000,"PART-1-1",           291,      -7.50334,       26.2575,            0.,NA,NA,"",   583.496E-03,   530.376E-03,   243.246E-03,   69.1758E-09
C:/temp/dataset/3/26_1.odb,Step-1,Increment      1: Step Time =    1.000,"PART-1-1",           292,  -10.1921E-03,       23.8015,            0.,NA,NA,"",   517.052E-03,   496.834E-03,   143.175E-03,   62.9972E-09
C:/temp/dataset/3/26_1.odb,Step-1,Increment      1: Step Time =    1.000,"PART-1-1",           293,       1.23656,       22.5490,            0.,NA,NA,"",   496.375E-03,   479.959E-03,   126.601E-03,   100.383E-09
C:/temp/dataset/3/26_1.odb,Step-1,Increment      1: Step Time =    1.000,"PART-1-1",           294,       2.47060,       23.8222,            0.,NA,NA,"",   508.912E-03,   496.888E-03,   109.970E-03,   65.0011E-09
C:/temp/dataset/3/26_1.odb,Step-1,Increment      1: Step Time =    1.000,"PART-1-1",           295,       1.22385,       25.0746,            0.,NA,NA,"",   529.118E-03,   513.763E-03,   126.544E-03,   55.1865E-09
C:/temp/dataset/3/26_1.odb,Step-1,Increment      1: Step Time =    1.000,"PART-1-1",           296,       13.7132,       25.0166,            0.,NA,NA,"",   513.476E-03,   511.868E-03,  -40.6041E-03,   209.617E-09
C:/temp/dataset/3/26_1.odb,Step-1,Increment      1: Step Time =    1.000,"PART-1-1",           297,           15.,         26.25,            0.,NA,NA,"",   531.427E-03,   528.260E-03,  -57.9369E-03,   180.400E-09
C:/temp/dataset/3/26_1.odb,Step-1,Increment      1: Step Time =    1.000,"PART-1-1",           298,       13.7362,       27.5048,            0.,NA,NA,"",   546.716E-03,   545.166E-03,  -41.1347E-03,   107.570E-09
C:/temp/dataset/3/26_1.odb,Step-1,Increment      1: Step Time =    1.000,"PART-1-1",           299,       12.4494,       26.2714,            0.,NA,NA,"",   529.310E-03,   528.775E-03,  -23.8021E-03,   187.430E-09
C:/temp/dataset/3/26_1.odb,Step-1,Increment      1: Step Time =    1.000,"PART-1-1",           300,       6.19248,       27.5744,            0.,NA,NA,"",   550.038E-03,   546.775E-03,   59.8205E-03,   169.004E-09
C:/temp/dataset/3/26_1.odb,Step-1,Increment      1: Step Time =    1.000,"PART-1-1",           301,       7.46746,       28.7842,            0.,NA,NA,"",   564.465E-03,   562.852E-03,   42.6483E-03,   215.310E-09
C:/temp/dataset/3/26_1.odb,Step-1,Increment      1: Step Time =    1.000,"PART-1-1",           302,          6.25,           30.,            0.,NA,NA,"",   582.213E-03,   579.233E-03,   58.8336E-03,   286.977E-09
C:/temp/dataset/3/26_1.odb,Step-1,Increment      1: Step Time =    1.000,"PART-1-1",           303,       4.97503,       28.7903,            0.,NA,NA,"",   568.262E-03,   563.156E-03,   76.0059E-03,   233.589E-09
C:/temp/dataset/3/26_1.odb,Step-1,Increment      1: Step Time =    1.000,"PART-1-1",           304,       11.0878,       17.5306,            0.,NA,NA,"",   411.944E-03,   411.916E-03,  -4.79395E-03,   2.23143E-06
C:/temp/dataset/3/26_1.odb,Step-1,Increment      1: Step Time =    1.000,"PART-1-1",           305,       12.3722,       18.7756,            0.,NA,NA,"",   429.032E-03,   428.462E-03,  -22.0963E-03,   1.40746E-06
C:/temp/dataset/3/26_1.odb,Step-1,Increment      1: Step Time =    1.000,"PART-1-1",           306,       11.1059,       20.0490,            0.,NA,NA,"",   445.648E-03,   445.617E-03,  -5.26331E-03,   607.330E-09
C:/temp/dataset/3/26_1.odb,Step-1,Increment      1: Step Time =    1.000,"PART-1-1",           307,       9.82152,       18.8041,            0.,NA,NA,"",   429.238E-03,   429.070E-03,   12.0379E-03,   1.66610E-06
C:/temp/dataset/3/26_1.odb,Step-1,Increment      1: Step Time =    1.000,"PART-1-1",           308,       9.63171,       13.8797,            0.,NA,NA,"",   363.493E-03,   363.182E-03,   15.0358E-03,   9.85747E-06
C:/temp/dataset/3/26_1.odb,Step-1,Increment      1: Step Time =    1.000,"PART-1-1",           309,       8.52517,       15.0687,            0.,NA,NA,"",   380.353E-03,   379.189E-03,   29.7278E-03,   5.68008E-06
C:/temp/dataset/3/26_1.odb,Step-1,Increment      1: Step Time =    1.000,"PART-1-1",           310,       7.25683,       13.8735,            0.,NA,NA,"",   366.303E-03,   363.301E-03,   46.8028E-03,   9.30943E-06
C:/temp/dataset/3/26_1.odb,Step-1,Increment      1: Step Time =    1.000,"PART-1-1",           311,       8.36336,       12.6844,            0.,NA,NA,"",   348.774E-03,   347.292E-03,   32.1195E-03,   10.3256E-06
C:/temp/dataset/3/26_1.odb,Step-1,Increment      1: Step Time =    1.000,"PART-1-1",           312,       14.0118,       9.82001,            0.,NA,NA,"",   311.453E-03,   308.431E-03,  -43.2819E-03,   17.0528E-06
C:/temp/dataset/3/26_1.odb,Step-1,Increment      1: Step Time =    1.000,"PART-1-1",           313,           15.,         11.25,            0.,NA,NA,"",   332.365E-03,   327.504E-03,  -56.6385E-03,   23.1096E-06
C:/temp/dataset/3/26_1.odb,Step-1,Increment      1: Step Time =    1.000,"PART-1-1",           314,       13.5880,       12.3315,            0.,NA,NA,"",   344.204E-03,   342.121E-03,  -37.8019E-03,   9.46170E-06
C:/temp/dataset/3/26_1.odb,Step-1,Increment      1: Step Time =    1.000,"PART-1-1",           315,       12.5998,       10.9015,            0.,NA,NA,"",   323.984E-03,   323.062E-03,  -24.4302E-03,   8.59347E-06
C:/temp/dataset/3/26_1.odb,Step-1,Increment      1: Step Time =    1.000,"PART-1-1",           316,       4.40482,  -219.892E-03,            0.,NA,NA,"",   194.997E-03,   175.220E-03,   85.5687E-03,   928.203E-06
C:/temp/dataset/3/26_1.odb,Step-1,Increment      1: Step Time =    1.000,"PART-1-1",           317,       3.45177,  -757.122E-03,            0.,NA,NA,"",   195.571E-03,   168.130E-03,   99.9017E-03,   1.10471E-03
C:/temp/dataset/3/26_1.odb,Step-1,Increment      1: Step Time =    1.000,"PART-1-1",           318,       3.83014,      -1.74448,            0.,NA,NA,"",   180.801E-03,   154.469E-03,   93.9588E-03,   1.41266E-03
C:/temp/dataset/3/26_1.odb,Step-1,Increment      1: Step Time =    1.000,"PART-1-1",           319,       4.78319,      -1.20725,            0.,NA,NA,"",   179.980E-03,   161.524E-03,   79.3904E-03,   1.17410E-03
C:/temp/dataset/3/26_1.odb,Step-1,Increment      1: Step Time =    1.000,"PART-1-1",           320,       10.3408,      -10.0251,            0.,NA,NA,"",   57.3168E-03,   57.1240E-03,   4.69794E-03,   387.315E-06
C:/temp/dataset/3/26_1.odb,Step-1,Increment      1: Step Time =    1.000,"PART-1-1",           321,       11.1792,      -10.4860,            0.,NA,NA,"",   53.2325E-03,   53.1793E-03,  -2.38025E-03,   149.448E-06
C:/temp/dataset/3/26_1.odb,Step-1,Increment      1: Step Time =    1.000,"PART-1-1",           322,       11.5032,      -9.33080,            0.,NA,NA,"",   63.5425E-03,   63.3058E-03,  -5.48012E-03,   410.499E-06
C:/temp/dataset/3/26_1.odb,Step-1,Increment      1: Step Time =    1.000,"PART-1-1",           323,       10.6649,      -8.86986,            0.,NA,NA,"",   67.5152E-03,   67.4842E-03,   2.04864E-03,   208.412E-06
C:/temp/dataset/3/26_1.odb,Step-1,Increment      1: Step Time =    1.000,"PART-1-1",           324,       9.41034,      -12.1888,            0.,NA,NA,"",   41.6422E-03,   40.2425E-03,   10.7056E-03,   1.04961E-03
C:/temp/dataset/3/26_1.odb,Step-1,Increment      1: Step Time =    1.000,"PART-1-1",           325,       10.5075,      -13.0214,            0.,NA,NA,"",   34.1439E-03,   34.0504E-03,   2.52460E-03,   333.875E-06
C:/temp/dataset/3/26_1.odb,Step-1,Increment      1: Step Time =    1.000,"PART-1-1",           326,       10.8652,      -11.6896,            0.,NA,NA,"",   43.5793E-03,   43.5790E-03,   173.467E-06,   94.6088E-06
C:/temp/dataset/3/26_1.odb,Step-1,Increment      1: Step Time =    1.000,"PART-1-1",           327,       9.76802,      -10.8570,            0.,NA,NA,"",   51.1267E-03,   50.3216E-03,   9.03731E-03,   797.793E-06
C:/temp/dataset/3/26_1.odb,Step-1,Increment      1: Step Time =    1.000,"PART-1-1",           328,       6.12016,      -19.7528,            0.,NA,NA,"",   13.2087E-03,   2.94880E-03,   12.8753E-03,   3.01633E-03
C:/temp/dataset/3/26_1.odb,Step-1,Increment      1: Step Time =    1.000,"PART-1-1",           329,       7.15653,      -18.4145,            0.,NA,NA,"",   14.8984E-03,   7.16579E-03,   13.0619E-03,   2.02004E-03
C:/temp/dataset/3/26_1.odb,Step-1,Increment      1: Step Time =    1.000,"PART-1-1",           330,       6.03637,      -17.4116,            0.,NA,NA,"",   23.3560E-03,   12.7093E-03,   19.5953E-03,   3.37598E-03
C:/temp/dataset/3/26_1.odb,Step-1,Increment      1: Step Time =    1.000,"PART-1-1",           331,            5.,        -18.75,            0.,NA,NA,"",   20.5187E-03,   8.65717E-03,   18.6030E-03,   5.03587E-03
C:/temp/dataset/3/26_1.odb,Step-1,Increment      1: Step Time =    1.000,"PART-1-1",           332,       13.3604,      -22.4969,            0.,NA,NA,"",   4.45823E-03,  -728.597E-06,  -4.39829E-03,   1.18097E-03
C:/temp/dataset/3/26_1.odb,Step-1,Increment      1: Step Time =    1.000,"PART-1-1",           333,           15.,        -21.25,            0.,NA,NA,"",   9.22817E-03,   2.09060E-03,  -8.98825E-03,   2.07013E-03
C:/temp/dataset/3/26_1.odb,Step-1,Increment      1: Step Time =    1.000,"PART-1-1",           334,       13.4842,      -19.7901,            0.,NA,NA,"",   8.67992E-03,   3.84513E-03,  -7.78178E-03,   1.51070E-03
C:/temp/dataset/3/26_1.odb,Step-1,Increment      1: Step Time =    1.000,"PART-1-1",           335,       11.8446,      -21.0370,            0.,NA,NA,"",   2.25453E-03,   556.084E-06,  -2.18488E-03,   834.433E-06
C:/temp/dataset/3/26_1.odb,Step-1,Increment      1: Step Time =    1.000,"PART-1-1",           336,       1.65000,            5.,            0.,NA,NA,"",   280.198E-03,   249.777E-03,   126.974E-03,   459.186E-06
C:/temp/dataset/3/26_1.odb,Step-1,Increment      1: Step Time =    1.000,"PART-1-1",           337,   440.654E-03,       4.00571,            0.,NA,NA,"",   276.628E-03,   235.629E-03,   144.921E-03,   278.166E-06
C:/temp/dataset/3/26_1.odb,Step-1,Increment      1: Step Time =    1.000,"PART-1-1",           338,       1.47063,       2.87974,            0.,NA,NA,"",   254.558E-03,   219.123E-03,   129.557E-03,   571.172E-06
C:/temp/dataset/3/26_1.odb,Step-1,Increment      1: Step Time =    1.000,"PART-1-1",           339,       2.67998,       3.87403,            0.,NA,NA,"",   258.058E-03,   232.728E-03,   111.497E-03,   613.522E-06
C:/temp/dataset/3/26_1.odb,Step-1,Increment      1: Step Time =    1.000,"PART-1-1",           340,      -1.46180,      -3.99231,            0.,NA,NA,"",   213.335E-03,   120.561E-03,   176.003E-03,   623.024E-06
C:/temp/dataset/3/26_1.odb,Step-1,Increment      1: Step Time =    1.000,"PART-1-1",           341,     -500.E-03,           -5.,            0.,NA,NA,"",   195.006E-03,   106.412E-03,   163.413E-03,   774.895E-06
C:/temp/dataset/3/26_1.odb,Step-1,Increment      1: Step Time =    1.000,"PART-1-1",           342,   718.491E-03,      -4.10961,            0.,NA,NA,"",   187.617E-03,   119.377E-03,   144.738E-03,   1.05005E-03
C:/temp/dataset/3/26_1.odb,Step-1,Increment      1: Step Time =    1.000,"PART-1-1",           343,  -243.313E-03,      -3.10192,            0.,NA,NA,"",   207.029E-03,   133.784E-03,   157.997E-03,   925.328E-06
C:/temp/dataset/3/26_1.odb,Step-1,Increment      1: Step Time =    1.000,"PART-1-1",           344,      -3.82017,      -3.74247,            0.,NA,NA,"",   243.117E-03,   124.365E-03,   208.901E-03,   75.2946E-06
C:/temp/dataset/3/26_1.odb,Step-1,Increment      1: Step Time =    1.000,"PART-1-1",           345,      -2.71667,           -5.,            0.,NA,NA,"",   220.799E-03,   106.500E-03,   193.417E-03,   112.021E-06
C:/temp/dataset/3/26_1.odb,Step-1,Increment      1: Step Time =    1.000,"PART-1-1",           346,      -2.56530,      -2.73478,            0.,NA,NA,"",   236.005E-03,   138.677E-03,   190.963E-03,   330.564E-06
C:/temp/dataset/3/26_1.odb,Step-1,Increment      1: Step Time =    1.000,"PART-1-1",           347,      -13.8092,  -21.6491E-03,            0.,NA,NA,"",   395.446E-03,   179.047E-03,   352.590E-03,   4.03679E-06
C:/temp/dataset/3/26_1.odb,Step-1,Increment      1: Step Time =    1.000,"PART-1-1",           348,      -12.6581,       1.21263,            0.,NA,NA,"",   389.230E-03,   196.757E-03,   335.837E-03,   4.34748E-06
C:/temp/dataset/3/26_1.odb,Step-1,Increment      1: Step Time =    1.000,"PART-1-1",           349,      -13.8489,       2.48428,            0.,NA,NA,"",   413.376E-03,   215.257E-03,   352.908E-03,   2.94775E-06
C:/temp/dataset/3/26_1.odb,Step-1,Increment      1: Step Time =    1.000,"PART-1-1",           350,          -15.,          1.25,            0.,NA,NA,"",   419.137E-03,   197.545E-03,   369.664E-03,   2.62937E-06
C:/temp/dataset/3/26_1.odb,Step-1,Increment      1: Step Time =    1.000,"PART-1-1",           351,      -8.84172,   345.754E-03,            0.,NA,NA,"",   335.604E-03,   183.803E-03,   280.796E-03,   18.2253E-06
C:/temp/dataset/3/26_1.odb,Step-1,Increment      1: Step Time =    1.000,"PART-1-1",           352,      -9.20019,  -788.270E-03,            0.,NA,NA,"",   331.490E-03,   167.464E-03,   286.080E-03,   17.9342E-06
C:/temp/dataset/3/26_1.odb,Step-1,Increment      1: Step Time =    1.000,"PART-1-1",           353,      -7.61937,      -1.21646,            0.,NA,NA,"",   308.659E-03,   161.094E-03,   263.286E-03,   21.2855E-06
C:/temp/dataset/3/26_1.odb,Step-1,Increment      1: Step Time =    1.000,"PART-1-1",           354,      -7.26090,  -82.4387E-03,            0.,NA,NA,"",   313.120E-03,   177.423E-03,   258.002E-03,   22.8348E-06
C:/temp/dataset/3/26_1.odb,Step-1,Increment      1: Step Time =    1.000,"PART-1-1",           355,      -12.7466,      -3.77621,            0.,NA,NA,"",   359.917E-03,   124.704E-03,   337.622E-03,   2.76390E-06
C:/temp/dataset/3/26_1.odb,Step-1,Increment      1: Step Time =    1.000,"PART-1-1",           356,      -13.8633,      -2.52621,            0.,NA,NA,"",   381.399E-03,   142.876E-03,   353.626E-03,   3.02627E-06
C:/temp/dataset/3/26_1.odb,Step-1,Increment      1: Step Time =    1.000,"PART-1-1",           357,          -15.,         -3.75,            0.,NA,NA,"",   390.811E-03,   125.317E-03,   370.174E-03,   436.319E-09
C:/temp/dataset/3/26_1.odb,Step-1,Increment      1: Step Time =    1.000,"PART-1-1",           358,      -13.8833,           -5.,            0.,NA,NA,"",   370.025E-03,   107.143E-03,   354.173E-03,   600.021E-09
C:/temp/dataset/3/26_1.odb,Step-1,Increment      1: Step Time =    1.000,"PART-1-1",           359,      -5.03830,      -2.71522,            0.,NA,NA,"",   265.610E-03,   139.190E-03,   226.219E-03,   31.2697E-06
C:/temp/dataset/3/26_1.odb,Step-1,Increment      1: Step Time =    1.000,"PART-1-1",           360,      -4.43911,      -1.50749,            0.,NA,NA,"",   267.926E-03,   156.517E-03,   217.455E-03,   57.3161E-06
C:/temp/dataset/3/26_1.odb,Step-1,Increment      1: Step Time =    1.000,"PART-1-1",           361,      -5.95808,  -763.119E-03,            0.,NA,NA,"",   292.025E-03,   167.429E-03,   239.262E-03,   23.4024E-06
C:/temp/dataset/3/26_1.odb,Step-1,Increment      1: Step Time =    1.000,"PART-1-1",           362,      -6.55726,      -1.97085,            0.,NA,NA,"",   289.901E-03,   150.085E-03,   248.027E-03,   23.2548E-06
C:/temp/dataset/3/26_1.odb,Step-1,Increment      1: Step Time =    1.000,"PART-1-1",           363,          6.25,          -30.,            0.,NA,NA,"",            0.,  -187.662E-42,   1.10242E-39,   609.184E-06
C:/temp/dataset/3/26_1.odb,Step-1,Increment      1: Step Time =    1.000,"PART-1-1",           364,       7.47038,      -28.9473,            0.,NA,NA,"",   723.150E-06,  -530.873E-06,   491.040E-06,   720.218E-06
C:/temp/dataset/3/26_1.odb,Step-1,Increment      1: Step Time =    1.000,"PART-1-1",           365,       6.18647,      -27.8786,            0.,NA,NA,"",   1.39036E-03,  -391.072E-06,   1.33423E-03,   856.505E-06
C:/temp/dataset/3/26_1.odb,Step-1,Increment      1: Step Time =    1.000,"PART-1-1",           366,       4.96608,      -28.9312,            0.,NA,NA,"",   595.976E-06,   22.9112E-06,   595.535E-06,   746.186E-06
C:/temp/dataset/3/26_1.odb,Step-1,Increment      1: Step Time =    1.000,"PART-1-1",           367,       3.70492,      -27.8047,            0.,NA,NA,"",   1.37064E-03,   507.207E-06,   1.27334E-03,   792.774E-06
C:/temp/dataset/3/26_1.odb,Step-1,Increment      1: Step Time =    1.000,"PART-1-1",           368,       2.48883,      -28.8735,            0.,NA,NA,"",   677.134E-06,   455.774E-06,   500.780E-06,   647.899E-06
C:/temp/dataset/3/26_1.odb,Step-1,Increment      1: Step Time =    1.000,"PART-1-1",           369,          3.75,          -30.,            0.,NA,NA,"",            0.,   168.614E-42,   1.10814E-39,   597.555E-06
C:/temp/dataset/3/26_1.odb,Step-1,Increment      1: Step Time =    1.000,"PART-1-1",           370,      -3.72203,      -27.5999,            0.,NA,NA,"",   905.351E-06,   892.803E-06,   150.210E-06,   263.411E-06
C:/temp/dataset/3/26_1.odb,Step-1,Increment      1: Step Time =    1.000,"PART-1-1",           371,      -4.98725,      -28.7922,            0.,NA,NA,"",   446.342E-06,   442.425E-06,   59.0053E-06,   240.000E-06
C:/temp/dataset/3/26_1.odb,Step-1,Increment      1: Step Time =    1.000,"PART-1-1",           372,         -3.75,          -30.,            0.,NA,NA,"",            0.,   292.948E-42,   255.266E-42,   329.896E-06
C:/temp/dataset/3/26_1.odb,Step-1,Increment      1: Step Time =    1.000,"PART-1-1",           373,      -2.48478,      -28.8077,            0.,NA,NA,"",   585.225E-06,   565.435E-06,   150.903E-06,   347.252E-06
C:/temp/dataset/3/26_1.odb,Step-1,Increment      1: Step Time =    1.000,"PART-1-1",           374,      -13.7501,      -27.5099,            0.,NA,NA,"",   419.148E-06,   405.601E-06,   105.701E-06,   62.1012E-06
C:/temp/dataset/3/26_1.odb,Step-1,Increment      1: Step Time =    1.000,"PART-1-1",           375,          -15.,        -28.75,            0.,NA,NA,"",   274.854E-06,   228.699E-06,   152.450E-06,   115.047E-06
C:/temp/dataset/3/26_1.odb,Step-1,Increment      1: Step Time =    1.000,"PART-1-1",           376,        -13.75,          -30.,            0.,NA,NA,"",            0.,   38.5469E-42,   120.694E-42,   132.431E-06
C:/temp/dataset/3/26_1.odb,Step-1,Increment      1: Step Time =    1.000,"PART-1-1",           377,      -12.5001,      -28.7599,            0.,NA,NA,"",   197.028E-06,   195.057E-06,   27.8005E-06,   100.831E-06
C:/temp/dataset/3/26_1.odb,Step-1,Increment      1: Step Time =    1.000,"PART-1-1",           378,       8.15833,      -10.8587,            0.,NA,NA,"",   55.7918E-03,   51.2752E-03,   21.9903E-03,   1.87760E-03
C:/temp/dataset/3/26_1.odb,Step-1,Increment      1: Step Time =    1.000,"PART-1-1",           379,       9.00498,      -9.90697,            0.,NA,NA,"",   60.8176E-03,   58.6090E-03,   16.2410E-03,   1.28696E-03
C:/temp/dataset/3/26_1.odb,Step-1,Increment      1: Step Time =    1.000,"PART-1-1",           380,       8.08915,      -8.55627,            0.,NA,NA,"",   75.9970E-03,   71.2936E-03,   26.3206E-03,   1.91757E-03
C:/temp/dataset/3/26_1.odb,Step-1,Increment      1: Step Time =    1.000,"PART-1-1",           381,       7.24249,      -9.50802,            0.,NA,NA,"",   71.1957E-03,   63.4584E-03,   32.2778E-03,   2.45606E-03
C:/temp/dataset/3/26_1.odb,Step-1,Increment      1: Step Time =    1.000,"PART-1-1",           382,       13.9816,      -2.51124,            0.,NA,NA,"",   146.309E-03,   141.222E-03,  -38.2462E-03,   1.20609E-03
C:/temp/dataset/3/26_1.odb,Step-1,Increment      1: Step Time =    1.000,"PART-1-1",           383,           15.,         -1.25,            0.,NA,NA,"",   166.848E-03,   158.283E-03,  -52.7706E-03,   1.19388E-03
C:/temp/dataset/3/26_1.odb,Step-1,Increment      1: Step Time =    1.000,"PART-1-1",           384,       13.8213,  -48.4001E-03,            0.,NA,NA,"",   178.275E-03,   174.097E-03,  -38.3711E-03,   734.498E-06
C:/temp/dataset/3/26_1.odb,Step-1,Increment      1: Step Time =    1.000,"PART-1-1",           385,       12.8030,      -1.30964,            0.,NA,NA,"",   158.743E-03,   156.815E-03,  -24.6660E-03,   936.936E-06
C:/temp/dataset/3/26_1.odb,Step-1,Increment      1: Step Time =    1.000,"PART-1-1",           386,           15.,          1.25,            0.,NA,NA,"",   199.730E-03,   192.032E-03,  -54.9140E-03,   606.737E-06
C:/temp/dataset/3/26_1.odb,Step-1,Increment      1: Step Time =    1.000,"PART-1-1",           387,       13.5709,       2.55070,            0.,NA,NA,"",   212.875E-03,   209.754E-03,  -36.3183E-03,   365.519E-06
C:/temp/dataset/3/26_1.odb,Step-1,Increment      1: Step Time =    1.000,"PART-1-1",           388,       12.3922,       1.25230,            0.,NA,NA,"",   192.972E-03,   191.878E-03,  -20.5203E-03,   683.669E-06
C:/temp/dataset/3/26_1.odb,Step-1,Increment      1: Step Time =    1.000,"PART-1-1",           389,      -5.00532,       26.2655,            0.,NA,NA,"",   570.260E-03,   530.260E-03,   209.810E-03,   75.6484E-09
C:/temp/dataset/3/26_1.odb,Step-1,Increment      1: Step Time =    1.000,"PART-1-1",           390,      -3.75495,       25.0275,            0.,NA,NA,"",   548.711E-03,   513.579E-03,   193.186E-03,   60.2914E-09
C:/temp/dataset/3/26_1.odb,Step-1,Increment      1: Step Time =    1.000,"PART-1-1",           391,      -2.50780,       26.2820,            0.,NA,NA,"",   558.822E-03,   530.256E-03,   176.381E-03,   82.1736E-09
C:/temp/dataset/3/26_1.odb,Step-1,Increment      1: Step Time =    1.000,"PART-1-1",           392,      -3.75817,       27.5199,            0.,NA,NA,"",   579.993E-03,   546.938E-03,   193.006E-03,   110.991E-09
C:/temp/dataset/3/26_1.odb,Step-1,Increment      1: Step Time =    1.000,"PART-1-1",           393,      -5.00193,       23.7670,            0.,NA,NA,"",   539.374E-03,   496.818E-03,   209.989E-03,   52.9915E-09
C:/temp/dataset/3/26_1.odb,Step-1,Increment      1: Step Time =    1.000,"PART-1-1",           394,      -6.25406,       25.0149,            0.,NA,NA,"",   561.411E-03,   513.633E-03,   226.636E-03,   60.1221E-09
C:/temp/dataset/3/26_1.odb,Step-1,Increment      1: Step Time =    1.000,"PART-1-1",           395,      -7.50285,       23.7600,            0.,NA,NA,"",   553.383E-03,   496.949E-03,   243.463E-03,   50.9415E-09
C:/temp/dataset/3/26_1.odb,Step-1,Increment      1: Step Time =    1.000,"PART-1-1",           396,      -6.25071,       22.5121,            0.,NA,NA,"",   531.013E-03,   480.135E-03,   226.816E-03,   60.9955E-09
C:/temp/dataset/3/26_1.odb,Step-1,Increment      1: Step Time =    1.000,"PART-1-1",           397,      -12.5007,       23.7543,            0.,NA,NA,"",   586.216E-03,   497.321E-03,   310.357E-03,   55.8628E-09
C:/temp/dataset/3/26_1.odb,Step-1,Increment      1: Step Time =    1.000,"PART-1-1",           398,      -13.7507,       25.0026,            0.,NA,NA,"",   609.305E-03,   514.140E-03,   326.975E-03,   56.4689E-09
C:/temp/dataset/3/26_1.odb,Step-1,Increment      1: Step Time =    1.000,"PART-1-1",           399,          -15.,         23.75,            0.,NA,NA,"",   604.730E-03,   497.487E-03,   343.809E-03,   54.8287E-09
C:/temp/dataset/3/26_1.odb,Step-1,Increment      1: Step Time =    1.000,"PART-1-1",           400,       1.22659,       27.5580,            0.,NA,NA,"",   561.388E-03,   547.000E-03,   126.285E-03,   143.654E-09
C:/temp/dataset/3/26_1.odb,Step-1,Increment      1: Step Time =    1.000,"PART-1-1",           401,       2.48534,       28.7828,            0.,NA,NA,"",   573.792E-03,   563.280E-03,   109.328E-03,   219.643E-09
C:/temp/dataset/3/26_1.odb,Step-1,Increment      1: Step Time =    1.000,"PART-1-1",           402,          1.25,           30.,            0.,NA,NA,"",   593.166E-03,   579.682E-03,   125.753E-03,   269.920E-09
C:/temp/dataset/3/26_1.odb,Step-1,Increment      1: Step Time =    1.000,"PART-1-1",           403,  -8.74824E-03,       28.7751,            0.,NA,NA,"",   581.195E-03,   563.402E-03,   142.710E-03,   190.593E-09
C:/temp/dataset/3/26_1.odb,Step-1,Increment      1: Step Time =    1.000,"PART-1-1",           404,  -16.7069E-03,       26.3073,            0.,NA,NA,"",   549.321E-03,   530.372E-03,   143.038E-03,   89.4947E-09
C:/temp/dataset/3/26_1.odb,Step-1,Increment      1: Step Time =    1.000,"PART-1-1",           405,       2.46714,       26.3253,            0.,NA,NA,"",   541.635E-03,   530.391E-03,   109.792E-03,   97.1824E-09
C:/temp/dataset/3/26_1.odb,Step-1,Increment      1: Step Time =    1.000,"PART-1-1",           406,       3.70751,       22.5746,            0.,NA,NA,"",   489.105E-03,   480.080E-03,   93.5267E-03,   83.6320E-09
C:/temp/dataset/3/26_1.odb,Step-1,Increment      1: Step Time =    1.000,"PART-1-1",           407,       2.48879,       21.2797,            0.,NA,NA,"",   475.738E-03,   462.857E-03,   109.954E-03,   174.990E-09
C:/temp/dataset/3/26_1.odb,Step-1,Increment      1: Step Time =    1.000,"PART-1-1",           408,          3.75,           20.,            0.,NA,NA,"",   455.257E-03,   445.618E-03,   93.1888E-03,   237.255E-09
C:/temp/dataset/3/26_1.odb,Step-1,Increment      1: Step Time =    1.000,"PART-1-1",           409,       4.96872,       21.2949,            0.,NA,NA,"",   469.162E-03,   462.840E-03,   76.7612E-03,   221.359E-09
C:/temp/dataset/3/26_1.odb,Step-1,Increment      1: Step Time =    1.000,"PART-1-1",           410,       10.8479,       12.4309,            0.,NA,NA,"",   343.695E-03,   343.693E-03,  -1.10122E-03,   10.8384E-06
C:/temp/dataset/3/26_1.odb,Step-1,Increment      1: Step Time =    1.000,"PART-1-1",           411,       9.34812,       11.6387,            0.,NA,NA,"",   333.763E-03,   333.218E-03,   19.0534E-03,   13.0194E-06
C:/temp/dataset/3/26_1.odb,Step-1,Increment      1: Step Time =    1.000,"PART-1-1",           412,       9.99050,       10.5520,            0.,NA,NA,"",   318.798E-03,   318.623E-03,   10.5642E-03,   11.1532E-06
C:/temp/dataset/3/26_1.odb,Step-1,Increment      1: Step Time =    1.000,"PART-1-1",           413,       11.4903,       11.3442,            0.,NA,NA,"",   329.231E-03,   329.091E-03,  -9.60033E-03,   10.6389E-06
C:/temp/dataset/3/26_1.odb,Step-1,Increment      1: Step Time =    1.000,"PART-1-1",           414,       7.16850,       11.5014,            0.,NA,NA,"",   335.054E-03,   331.569E-03,   48.2006E-03,   15.7259E-06
C:/temp/dataset/3/26_1.odb,Step-1,Increment      1: Step Time =    1.000,"PART-1-1",           415,       6.10343,       12.5850,            0.,NA,NA,"",   351.730E-03,   346.162E-03,   62.3362E-03,   10.9036E-06
C:/temp/dataset/3/26_1.odb,Step-1,Increment      1: Step Time =    1.000,"PART-1-1",           416,            5.,         11.25,            0.,NA,NA,"",   337.361E-03,   328.412E-03,   77.1861E-03,   32.9444E-06
C:/temp/dataset/3/26_1.odb,Step-1,Increment      1: Step Time =    1.000,"PART-1-1",           417,       6.06507,       10.1664,            0.,NA,NA,"",   320.090E-03,   313.823E-03,   63.0323E-03,   26.8519E-06
C:/temp/dataset/3/26_1.odb,Step-1,Increment      1: Step Time =    1.000,"PART-1-1",           418,       14.0565,       5.06378,            0.,NA,NA,"",   248.015E-03,   244.185E-03,  -43.4146E-03,   106.554E-06
C:/temp/dataset/3/26_1.odb,Step-1,Increment      1: Step Time =    1.000,"PART-1-1",           419,       12.6274,       3.86448,            0.,NA,NA,"",   229.156E-03,   227.885E-03,  -24.1027E-03,   354.088E-06
C:/temp/dataset/3/26_1.odb,Step-1,Increment      1: Step Time =    1.000,"PART-1-1",           420,           15.,          3.75,            0.,NA,NA,"",   233.019E-03,   226.204E-03,  -55.9456E-03,   205.812E-06
C:/temp/dataset/3/26_1.odb,Step-1,Increment      1: Step Time =    1.000,"PART-1-1",           421,       10.0280,       5.47301,            0.,NA,NA,"",   250.623E-03,   250.412E-03,   10.2837E-03,   290.058E-06
C:/temp/dataset/3/26_1.odb,Step-1,Increment      1: Step Time =    1.000,"PART-1-1",           422,       11.0614,       5.01383,            0.,NA,NA,"",   243.924E-03,   243.900E-03,  -3.44829E-03,   292.063E-06
C:/temp/dataset/3/26_1.odb,Step-1,Increment      1: Step Time =    1.000,"PART-1-1",           423,       11.6033,       6.33570,            0.,NA,NA,"",   261.977E-03,   261.758E-03,  -10.7069E-03,   160.016E-06
C:/temp/dataset/3/26_1.odb,Step-1,Increment      1: Step Time =    1.000,"PART-1-1",           424,       10.5698,       6.79489,            0.,NA,NA,"",   268.175E-03,   268.157E-03,   3.07404E-03,   142.480E-06
C:/temp/dataset/3/26_1.odb,Step-1,Increment      1: Step Time =    1.000,"PART-1-1",           425,      -4.94418,       3.17107,            0.,NA,NA,"",   317.072E-03,   224.277E-03,   224.130E-03,   11.3245E-06
C:/temp/dataset/3/26_1.odb,Step-1,Increment      1: Step Time =    1.000,"PART-1-1",           426,      -3.90803,       4.11594,            0.,NA,NA,"",   316.644E-03,   237.913E-03,   208.951E-03,   34.0057E-06
C:/temp/dataset/3/26_1.odb,Step-1,Increment      1: Step Time =    1.000,"PART-1-1",           427,      -5.05000,            5.,            0.,NA,NA,"",   337.263E-03,   250.841E-03,   225.444E-03,   53.1709E-06
C:/temp/dataset/3/26_1.odb,Step-1,Increment      1: Step Time =    1.000,"PART-1-1",           428,      -6.08615,       4.05513,            0.,NA,NA,"",   337.856E-03,   237.207E-03,   240.583E-03,   28.5499E-06
C:/temp/dataset/3/26_1.odb,Step-1,Increment      1: Step Time =    1.000,"PART-1-1",           429,      -3.86135,       2.39128,            0.,NA,NA,"",   297.951E-03,   212.859E-03,   208.485E-03,   48.8078E-06
C:/temp/dataset/3/26_1.odb,Step-1,Increment      1: Step Time =    1.000,"PART-1-1",           430,      -5.85027,       2.20434,            0.,NA,NA,"",   317.166E-03,   210.351E-03,   237.375E-03,   15.6966E-06
C:/temp/dataset/3/26_1.odb,Step-1,Increment      1: Step Time =    1.000,"PART-1-1",           431,      -4.76744,       1.42454,            0.,NA,NA,"",   297.931E-03,   198.937E-03,   221.782E-03,   36.5302E-06
C:/temp/dataset/3/26_1.odb,Step-1,Increment      1: Step Time =    1.000,"PART-1-1",           432,      -9.29397,       2.69508,            0.,NA,NA,"",   360.380E-03,   217.824E-03,   287.100E-03,   15.3828E-06
C:/temp/dataset/3/26_1.odb,Step-1,Increment      1: Step Time =    1.000,"PART-1-1",           433,      -8.28887,       3.92576,            0.,NA,NA,"",   360.143E-03,   235.527E-03,   272.452E-03,   16.5112E-06
C:/temp/dataset/3/26_1.odb,Step-1,Increment      1: Step Time =    1.000,"PART-1-1",           434,          -9.5,            5.,            0.,NA,NA,"",   383.518E-03,   251.167E-03,   289.830E-03,   15.4038E-06
C:/temp/dataset/3/26_1.odb,Step-1,Increment      1: Step Time =    1.000,"PART-1-1",           435,      -10.5051,       3.76932,            0.,NA,NA,"",   383.694E-03,   233.480E-03,   304.480E-03,   7.44362E-06
C:/temp/dataset/3/26_1.odb,Step-1,Increment      1: Step Time =    1.000,"PART-1-1",           436,      -7.92731,       1.84143,            0.,NA,NA,"",   337.172E-03,   205.325E-03,   267.445E-03,   18.4424E-06
C:/temp/dataset/3/26_1.odb,Step-1,Increment      1: Step Time =    1.000,"PART-1-1",           437,      -6.68589,       1.06488,            0.,NA,NA,"",   316.079E-03,   193.944E-03,   249.583E-03,   17.7818E-06
C:/temp/dataset/3/26_1.odb,Step-1,Increment      1: Step Time =    1.000,"PART-1-1",           438,      -7.09169,       2.98089,            0.,NA,NA,"",   338.110E-03,   221.732E-03,   255.252E-03,   18.4509E-06
C:/temp/dataset/3/26_1.odb,Step-1,Increment      1: Step Time =    1.000,"PART-1-1",           439,      -13.9000,            5.,            0.,NA,NA,"",   433.806E-03,   251.608E-03,   353.385E-03,   548.023E-09
C:/temp/dataset/3/26_1.odb,Step-1,Increment      1: Step Time =    1.000,"PART-1-1",           440,          -15.,          3.75,            0.,NA,NA,"",   437.105E-03,   233.665E-03,   369.407E-03,   555.930E-09
C:/temp/dataset/3/26_1.odb,Step-1,Increment      1: Step Time =    1.000,"PART-1-1",           441,      -12.7489,       3.73428,            0.,NA,NA,"",   409.730E-03,   233.203E-03,   336.890E-03,   2.73089E-06
C:/temp/dataset/3/26_1.odb,Step-1,Increment      1: Step Time =    1.000,"PART-1-1",           442,      -9.48823,      -2.88104,            0.,NA,NA,"",   321.258E-03,   137.292E-03,   290.444E-03,   16.4341E-06
C:/temp/dataset/3/26_1.odb,Step-1,Increment      1: Step Time =    1.000,"PART-1-1",           443,      -8.42388,      -2.23568,            0.,NA,NA,"",   311.582E-03,   146.486E-03,   275.000E-03,   19.0735E-06
C:/temp/dataset/3/26_1.odb,Step-1,Increment      1: Step Time =    1.000,"PART-1-1",           444,      -10.2645,      -1.43363,            0.,NA,NA,"",   340.532E-03,   158.267E-03,   301.519E-03,   10.9795E-06
C:/temp/dataset/3/26_1.odb,Step-1,Increment      1: Step Time =    1.000,"PART-1-1",           445,      -12.6725,      -1.29786,            0.,NA,NA,"",   372.630E-03,   160.491E-03,   336.297E-03,   4.41744E-06
C:/temp/dataset/3/26_1.odb,Step-1,Increment      1: Step Time =    1.000,"PART-1-1",           446,          -15.,         -1.25,            0.,NA,NA,"",   403.606E-03,   161.429E-03,   369.917E-03,   2.59366E-06
C:/temp/dataset/3/26_1.odb,Step-1,Increment      1: Step Time =    1.000,"PART-1-1",           447,      -6.16813,      -3.97275,            0.,NA,NA,"",   271.226E-03,   121.243E-03,   242.619E-03,   36.3373E-06
C:/temp/dataset/3/26_1.odb,Step-1,Increment      1: Step Time =    1.000,"PART-1-1",           448,      -4.95000,           -5.,            0.,NA,NA,"",   249.107E-03,   106.427E-03,   225.228E-03,   79.5840E-06
C:/temp/dataset/3/26_1.odb,Step-1,Increment      1: Step Time =    1.000,"PART-1-1",           449,       1.59412,  -355.999E-03,            0.,NA,NA,"",   215.953E-03,   173.639E-03,   128.394E-03,   888.355E-06
C:/temp/dataset/3/26_1.odb,Step-1,Increment      1: Step Time =    1.000,"PART-1-1",           450,       2.17826,      -1.53992,            0.,NA,NA,"",   197.746E-03,   157.190E-03,   119.979E-03,   1.18681E-03
C:/temp/dataset/3/26_1.odb,Step-1,Increment      1: Step Time =    1.000,"PART-1-1",           451,       2.86763,   426.804E-03,            0.,NA,NA,"",   214.223E-03,   184.544E-03,   108.790E-03,   858.608E-06
C:/temp/dataset/3/26_1.odb,Step-1,Increment      1: Step Time =    1.000,"PART-1-1",           452,  -387.277E-03,   5.26357E-03,            0.,NA,NA,"",   238.392E-03,   178.436E-03,   158.087E-03,   537.819E-06
C:/temp/dataset/3/26_1.odb,Step-1,Increment      1: Step Time =    1.000,"PART-1-1",           453,   283.611E-03,      -1.19839,            0.,NA,NA,"",   219.481E-03,   161.407E-03,   148.727E-03,   802.179E-06
C:/temp/dataset/3/26_1.odb,Step-1,Increment      1: Step Time =    1.000,"PART-1-1",           454,   923.228E-03,   847.652E-03,            0.,NA,NA,"",   235.306E-03,   190.493E-03,   138.134E-03,   664.567E-06
C:/temp/dataset/3/26_1.odb,Step-1,Increment      1: Step Time =    1.000,"PART-1-1",           455,       6.35531,      -13.1332,            0.,NA,NA,"",   47.4154E-03,   36.4783E-03,   30.2911E-03,   3.05810E-03
C:/temp/dataset/3/26_1.odb,Step-1,Increment      1: Step Time =    1.000,"PART-1-1",           456,       7.49455,      -12.2656,            0.,NA,NA,"",   47.8745E-03,   41.1575E-03,   24.4545E-03,   2.33952E-03
C:/temp/dataset/3/26_1.odb,Step-1,Increment      1: Step Time =    1.000,"PART-1-1",           457,       6.13925,      -10.3824,            0.,NA,NA,"",   69.7942E-03,   57.5140E-03,   39.5395E-03,   3.21829E-03
C:/temp/dataset/3/26_1.odb,Step-1,Increment      1: Step Time =    1.000,"PART-1-1",           458,            5.,        -11.25,            0.,NA,NA,"",   69.7042E-03,   52.3675E-03,   46.0035E-03,   3.92481E-03
C:/temp/dataset/3/26_1.odb,Step-1,Increment      1: Step Time =    1.000,"PART-1-1",           459,       13.3376,      -16.9670,            0.,NA,NA,"",   17.1292E-03,   13.0619E-03,  -11.0813E-03,   1.54318E-03
C:/temp/dataset/3/26_1.odb,Step-1,Increment      1: Step Time =    1.000,"PART-1-1",           460,       11.8219,      -18.0071,            0.,NA,NA,"",   9.05760E-03,   8.25294E-03,  -3.73217E-03,   679.336E-06
C:/temp/dataset/3/26_1.odb,Step-1,Increment      1: Step Time =    1.000,"PART-1-1",           461,           15.,        -18.75,            0.,NA,NA,"",   16.3057E-03,   8.05601E-03,  -14.1766E-03,   2.45730E-03
C:/temp/dataset/3/26_1.odb,Step-1,Increment      1: Step Time =    1.000,"PART-1-1",           462,       8.42876,      -15.2973,            0.,NA,NA,"",   24.7785E-03,   21.0008E-03,   13.1507E-03,   1.66113E-03
C:/temp/dataset/3/26_1.odb,Step-1,Increment      1: Step Time =    1.000,"PART-1-1",           463,       10.4111,      -16.6310,            0.,NA,NA,"",   13.6930E-03,   13.5339E-03,   2.08090E-03,   287.791E-06
C:/temp/dataset/3/26_1.odb,Step-1,Increment      1: Step Time =    1.000,"PART-1-1",           464,       10.7289,      -14.9294,            0.,NA,NA,"",   22.1989E-03,   22.1859E-03,   761.143E-06,   162.325E-06
C:/temp/dataset/3/26_1.odb,Step-1,Increment      1: Step Time =    1.000,"PART-1-1",           465,       8.74656,      -13.5956,            0.,NA,NA,"",   33.8255E-03,   30.9456E-03,   13.6576E-03,   1.50682E-03
C:/temp/dataset/3/26_1.odb,Step-1,Increment      1: Step Time =    1.000,"PART-1-1",           466,      -8.72016,      -22.5745,            0.,NA,NA,"",   1.04117E-03,   1.03380E-03,  -123.702E-06,   30.7687E-06
C:/temp/dataset/3/26_1.odb,Step-1,Increment      1: Step Time =    1.000,"PART-1-1",           467,      -7.48342,      -21.2909,            0.,NA,NA,"",   1.08279E-03,   1.07153E-03,  -155.733E-06,   6.55108E-06
C:/temp/dataset/3/26_1.odb,Step-1,Increment      1: Step Time =    1.000,"PART-1-1",           468,         -8.75,          -20.,            0.,NA,NA,"",   1.10512E-03,   1.09772E-03,  -127.709E-06,   23.9358E-06
C:/temp/dataset/3/26_1.odb,Step-1,Increment      1: Step Time =    1.000,"PART-1-1",           469,      -9.98674,      -21.2836,            0.,NA,NA,"",   1.06837E-03,   1.06497E-03,  -85.0622E-06,   1.60927E-06
C:/temp/dataset/3/26_1.odb,Step-1,Increment      1: Step Time =    1.000,"PART-1-1",           470,      -4.96670,      -26.3491,            0.,NA,NA,"",   1.03882E-03,   1.03692E-03,   62.7939E-06,   184.216E-06
C:/temp/dataset/3/26_1.odb,Step-1,Increment      1: Step Time =    1.000,"PART-1-1",           471,      -6.21541,      -25.0985,            0.,NA,NA,"",   1.06343E-03,   1.06265E-03,  -40.7043E-06,   131.296E-06
C:/temp/dataset/3/26_1.odb,Step-1,Increment      1: Step Time =    1.000,"PART-1-1",           472,      -7.47738,      -26.3212,            0.,NA,NA,"",   814.103E-06,   813.687E-06,  -26.0259E-06,   128.643E-06
C:/temp/dataset/3/26_1.odb,Step-1,Increment      1: Step Time =    1.000,"PART-1-1",           473,      -6.22867,      -27.5719,            0.,NA,NA,"",   688.935E-06,   688.259E-06,   30.5054E-06,   186.675E-06
C:/temp/dataset/3/26_1.odb,Step-1,Increment      1: Step Time =    1.000,"PART-1-1",           474,   49.7896E-03,      -26.4387,            0.,NA,NA,"",   1.72680E-03,   1.44568E-03,   944.384E-06,   477.227E-06
C:/temp/dataset/3/26_1.odb,Step-1,Increment      1: Step Time =    1.000,"PART-1-1",           475,       1.24862,      -27.7048,            0.,NA,NA,"",   1.32251E-03,   1.00585E-03,   858.669E-06,   578.243E-06
C:/temp/dataset/3/26_1.odb,Step-1,Increment      1: Step Time =    1.000,"PART-1-1",           476,       2.52056,      -26.5649,            0.,NA,NA,"",   2.13081E-03,   1.16032E-03,   1.78718E-03,   798.773E-06
C:/temp/dataset/3/26_1.odb,Step-1,Increment      1: Step Time =    1.000,"PART-1-1",           477,       1.32172,      -25.2988,            0.,NA,NA,"",   2.48120E-03,   1.68816E-03,   1.81837E-03,   667.660E-06
C:/temp/dataset/3/26_1.odb,Step-1,Increment      1: Step Time =    1.000,"PART-1-1",           478,        -13.75,          -20.,            0.,NA,NA,"",   1.16552E-03,   1.15463E-03,   158.940E-06,   3.54130E-06
C:/temp/dataset/3/26_1.odb,Step-1,Increment      1: Step Time =    1.000,"PART-1-1",           479,          -15.,        -21.25,            0.,NA,NA,"",   1.09641E-03,   1.06744E-03,   250.356E-06,   2.84259E-06
C:/temp/dataset/3/26_1.odb,Step-1,Increment      1: Step Time =    1.000,"PART-1-1",           480,      -13.7430,      -22.5153,            0.,NA,NA,"",   992.333E-06,   979.458E-06,   159.328E-06,   4.91249E-06
C:/temp/dataset/3/26_1.odb,Step-1,Increment      1: Step Time =    1.000,"PART-1-1",           481,      -12.4930,      -21.2653,            0.,NA,NA,"",   1.06822E-03,   1.06617E-03,   66.2619E-06,   3.73292E-06
C:/temp/dataset/3/26_1.odb,Step-1,Increment      1: Step Time =    1.000,"PART-1-1",           482,      -11.2297,      -22.5489,            0.,NA,NA,"",   990.209E-06,   990.095E-06,  -15.0194E-06,   12.5226E-06
C:/temp/dataset/3/26_1.odb,Step-1,Increment      1: Step Time =    1.000,"PART-1-1",           483,        -11.25,          -20.,            0.,NA,NA,"",   1.13778E-03,   1.13771E-03,  -12.5381E-06,   13.0191E-06
C:/temp/dataset/3/26_1.odb,Step-1,Increment      1: Step Time =    1.000,"PART-1-1",           484,      -13.7448,      -25.0201,            0.,NA,NA,"",   773.816E-06,   757.341E-06,   158.829E-06,   16.3122E-06
C:/temp/dataset/3/26_1.odb,Step-1,Increment      1: Step Time =    1.000,"PART-1-1",           485,      -12.4878,      -23.7854,            0.,NA,NA,"",   885.934E-06,   883.380E-06,   67.2238E-06,   16.9594E-06
C:/temp/dataset/3/26_1.odb,Step-1,Increment      1: Step Time =    1.000,"PART-1-1",           486,          -15.,        -23.75,            0.,NA,NA,"",   916.755E-06,   877.302E-06,   266.046E-06,   6.20511E-06
C:/temp/dataset/3/26_1.odb,Step-1,Increment      1: Step Time =    1.000,"PART-1-1",           487,       13.7335,      -27.5520,            0.,NA,NA,"",   1.68245E-03,  -1.36570E-03,  -982.604E-06,   678.406E-06
C:/temp/dataset/3/26_1.odb,Step-1,Increment      1: Step Time =    1.000,"PART-1-1",           488,       12.4835,      -28.8020,            0.,NA,NA,"",   967.895E-06,  -935.337E-06,  -248.927E-06,   653.108E-06
C:/temp/dataset/3/26_1.odb,Step-1,Increment      1: Step Time =    1.000,"PART-1-1",           489,         13.75,          -30.,            0.,NA,NA,"",            0.,  -307.621E-42,  -472.221E-42,   420.451E-06
C:/temp/dataset/3/26_1.odb,Step-1,Increment      1: Step Time =    1.000,"PART-1-1",           490,           15.,        -28.75,            0.,NA,NA,"",   499.113E-06,  -430.876E-06,  -251.913E-06,   482.776E-06
C:/temp/dataset/3/26_1.odb,Step-1,Increment      1: Step Time =    1.000,"PART-1-1",           491,       9.98010,      -28.8907,            0.,NA,NA,"",   959.761E-06,  -941.952E-06,   184.030E-06,   633.954E-06
C:/temp/dataset/3/26_1.odb,Step-1,Increment      1: Step Time =    1.000,"PART-1-1",           492,       8.70049,      -27.8380,            0.,NA,NA,"",   1.54348E-03,  -1.28094E-03,   861.129E-06,   690.804E-06
C:/temp/dataset/3/26_1.odb,Step-1,Increment      1: Step Time =    1.000,"PART-1-1",           493,          8.75,          -30.,            0.,NA,NA,"",            0.,  -530.952E-42,   666.316E-42,   626.780E-06
C:/temp/dataset/3/26_1.odb,Step-1,Increment      1: Step Time =    1.000,"PART-1-1",           494,       11.2136,      -27.6927,            0.,NA,NA,"",   1.69610E-03,  -1.69482E-03,  -65.8766E-06,   559.089E-06
C:/temp/dataset/3/26_1.odb,Step-1,Increment      1: Step Time =    1.000,"PART-1-1",           495,       12.3768,      -26.3916,            0.,NA,NA,"",   2.29198E-03,  -2.10464E-03,  -907.546E-06,   740.463E-06
C:/temp/dataset/3/26_1.odb,Step-1,Increment      1: Step Time =    1.000,"PART-1-1",           496,       11.0556,      -25.4315,            0.,NA,NA,"",   2.34418E-03,  -2.34362E-03,   51.2985E-06,   687.954E-06
C:/temp/dataset/3/26_1.odb,Step-1,Increment      1: Step Time =    1.000,"PART-1-1",           497,       9.89242,      -26.7326,            0.,NA,NA,"",   2.09988E-03,  -1.95105E-03,   776.471E-06,   727.286E-06
C:/temp/dataset/3/26_1.odb,Step-1,Increment      1: Step Time =    1.000,"PART-1-1",           498,   9.79186E-03,      -28.8313,            0.,NA,NA,"",   690.144E-06,   616.507E-06,   310.189E-06,   490.975E-06
C:/temp/dataset/3/26_1.odb,Step-1,Increment      1: Step Time =    1.000,"PART-1-1",           499,          1.25,          -30.,            0.,NA,NA,"",            0.,   351.698E-42,   823.686E-42,   548.542E-06
C:/temp/dataset/3/26_1.odb,Step-1,Increment      1: Step Time =    1.000,"PART-1-1",           500,      -1.18061,      -25.1833,            0.,NA,NA,"",   1.77691E-03,   1.61797E-03,   734.562E-06,   363.061E-06
C:/temp/dataset/3/26_1.odb,Step-1,Increment      1: Step Time =    1.000,"PART-1-1",           501,      -2.45538,      -26.3836,            0.,NA,NA,"",   1.34206E-03,   1.29663E-03,   346.237E-06,   286.109E-06
C:/temp/dataset/3/26_1.odb,Step-1,Increment      1: Step Time =    1.000,"PART-1-1",           502,      -1.22498,      -27.6390,            0.,NA,NA,"",   1.13766E-03,   1.05687E-03,   421.083E-06,   385.574E-06
C:/temp/dataset/3/26_1.odb,Step-1,Increment      1: Step Time =    1.000,"PART-1-1",           503,      -3.70005,      -25.1329,            0.,NA,NA,"",   1.33164E-03,   1.32152E-03,   163.892E-06,   205.890E-06
C:/temp/dataset/3/26_1.odb,Step-1,Increment      1: Step Time =    1.000,"PART-1-1",           504,      -7.49141,      -28.7797,            0.,NA,NA,"",   327.877E-06,   327.325E-06,   19.0191E-06,   168.877E-06
C:/temp/dataset/3/26_1.odb,Step-1,Increment      1: Step Time =    1.000,"PART-1-1",           505,         -6.25,          -30.,            0.,NA,NA,"",            0.,   212.151E-42,   119.525E-42,   231.937E-06
C:/temp/dataset/3/26_1.odb,Step-1,Increment      1: Step Time =    1.000,"PART-1-1",           506,      -12.4949,      -26.2800,            0.,NA,NA,"",   602.523E-06,   599.285E-06,   62.3839E-06,   66.8066E-06
C:/temp/dataset/3/26_1.odb,Step-1,Increment      1: Step Time =    1.000,"PART-1-1",           507,          -15.,        -26.25,            0.,NA,NA,"",   674.456E-06,   613.208E-06,   280.832E-06,   22.3904E-06
C:/temp/dataset/3/26_1.odb,Step-1,Increment      1: Step Time =    1.000,"PART-1-1",           508,       12.0036,      -23.8365,            0.,NA,NA,"",   2.47735E-03,  -2.07125E-03,  -1.35912E-03,   828.905E-06
C:/temp/dataset/3/26_1.odb,Step-1,Increment      1: Step Time =    1.000,"PART-1-1",           509,       13.6432,      -25.0896,            0.,NA,NA,"",   3.13107E-03,  -1.91758E-03,  -2.47517E-03,   925.815E-06
C:/temp/dataset/3/26_1.odb,Step-1,Increment      1: Step Time =    1.000,"PART-1-1",           510,           15.,        -23.75,            0.,NA,NA,"",   4.90581E-03,  -731.995E-06,  -4.85089E-03,   1.56440E-03
C:/temp/dataset/3/26_1.odb,Step-1,Increment      1: Step Time =    1.000,"PART-1-1",           511,         11.25,          -30.,            0.,NA,NA,"",            0.,  -655.008E-42,  -29.4833E-42,   611.475E-06
C:/temp/dataset/3/26_1.odb,Step-1,Increment      1: Step Time =    1.000,"PART-1-1",           512,       13.9281,      -14.6298,            0.,NA,NA,"",   30.8168E-03,   25.1737E-03,  -17.7753E-03,   1.96292E-03
C:/temp/dataset/3/26_1.odb,Step-1,Increment      1: Step Time =    1.000,"PART-1-1",           513,       12.2657,      -15.3468,            0.,NA,NA,"",   21.5707E-03,   20.1983E-03,  -7.57122E-03,   860.306E-06
C:/temp/dataset/3/26_1.odb,Step-1,Increment      1: Step Time =    1.000,"PART-1-1",           514,           15.,        -16.25,            0.,NA,NA,"",   26.8086E-03,   17.8205E-03,  -20.0283E-03,   2.64988E-03
C:/temp/dataset/3/26_1.odb,Step-1,Increment      1: Step Time =    1.000,"PART-1-1",           515,       7.13425,      -14.5121,            0.,NA,NA,"",   34.5856E-03,   26.7531E-03,   21.9188E-03,   2.63108E-03
C:/temp/dataset/3/26_1.odb,Step-1,Increment      1: Step Time =    1.000,"PART-1-1",           516,       6.81531,      -16.2905,            0.,NA,NA,"",   25.8799E-03,   17.2005E-03,   19.3368E-03,   2.79196E-03
C:/temp/dataset/3/26_1.odb,Step-1,Increment      1: Step Time =    1.000,"PART-1-1",           517,       8.10983,      -17.0757,            0.,NA,NA,"",   17.2007E-03,   12.3345E-03,   11.9884E-03,   1.83021E-03
C:/temp/dataset/3/26_1.odb,Step-1,Increment      1: Step Time =    1.000,"PART-1-1",           518,       13.8641,      -7.41825,            0.,NA,NA,"",   88.3244E-03,   83.1155E-03,  -29.8833E-03,   1.81326E-03
C:/temp/dataset/3/26_1.odb,Step-1,Increment      1: Step Time =    1.000,"PART-1-1",           519,       13.0286,      -8.63342,            0.,NA,NA,"",   73.1946E-03,   70.4147E-03,  -19.9805E-03,   1.32987E-03
C:/temp/dataset/3/26_1.odb,Step-1,Increment      1: Step Time =    1.000,"PART-1-1",           520,       14.1645,      -9.96517,            0.,NA,NA,"",   65.4314E-03,   59.0677E-03,  -28.1475E-03,   2.10052E-03
C:/temp/dataset/3/26_1.odb,Step-1,Increment      1: Step Time =    1.000,"PART-1-1",           521,           15.,         -8.75,            0.,NA,NA,"",   80.6775E-03,   70.9714E-03,  -38.3657E-03,   2.60266E-03
C:/temp/dataset/3/26_1.odb,Step-1,Increment      1: Step Time =    1.000,"PART-1-1",           522,       12.0251,      -10.9831,            0.,NA,NA,"",   50.0799E-03,   49.2548E-03,  -9.05350E-03,   688.085E-06
C:/temp/dataset/3/26_1.odb,Step-1,Increment      1: Step Time =    1.000,"PART-1-1",           523,       12.8055,      -11.9581,            0.,NA,NA,"",   44.3582E-03,   42.0201E-03,  -14.2111E-03,   1.19263E-03
C:/temp/dataset/3/26_1.odb,Step-1,Increment      1: Step Time =    1.000,"PART-1-1",           524,       13.3751,      -11.0455,            0.,NA,NA,"",   53.2167E-03,   49.4122E-03,  -19.7599E-03,   1.57125E-03
C:/temp/dataset/3/26_1.odb,Step-1,Increment      1: Step Time =    1.000,"PART-1-1",           525,       12.5947,      -10.0706,            0.,NA,NA,"",   58.9059E-03,   57.0939E-03,  -14.4980E-03,   1.06004E-03
C:/temp/dataset/3/26_1.odb,Step-1,Increment      1: Step Time =    1.000,"PART-1-1",           526,       11.4853,  -434.223E-03,            0.,NA,NA,"",   168.920E-03,   168.697E-03,  -8.68928E-03,   860.061E-06
C:/temp/dataset/3/26_1.odb,Step-1,Increment      1: Step Time =    1.000,"PART-1-1",           527,       10.5886,      -1.82652,            0.,NA,NA,"",   149.827E-03,   149.809E-03,   2.35516E-03,   996.162E-06
C:/temp/dataset/3/26_1.odb,Step-1,Increment      1: Step Time =    1.000,"PART-1-1",           528,       11.9063,      -2.70193,            0.,NA,NA,"",   138.756E-03,   138.135E-03,  -13.1036E-03,   963.031E-06
C:/temp/dataset/3/26_1.odb,Step-1,Increment      1: Step Time =    1.000,"PART-1-1",           529,       14.1300,       7.44597,            0.,NA,NA,"",   280.067E-03,   276.480E-03,  -44.6795E-03,   23.4744E-06
C:/temp/dataset/3/26_1.odb,Step-1,Increment      1: Step Time =    1.000,"PART-1-1",           530,       13.1865,       6.25975,            0.,NA,NA,"",   262.463E-03,   260.520E-03,  -31.8748E-03,   109.778E-06
C:/temp/dataset/3/26_1.odb,Step-1,Increment      1: Step Time =    1.000,"PART-1-1",           531,           15.,          6.25,            0.,NA,NA,"",   266.248E-03,   260.223E-03,  -56.3170E-03,   13.1428E-06
C:/temp/dataset/3/26_1.odb,Step-1,Increment      1: Step Time =    1.000,"PART-1-1",           532,       12.4155,       5.33720,            0.,NA,NA,"",   248.985E-03,   248.059E-03,  -21.4578E-03,   199.405E-06
C:/temp/dataset/3/26_1.odb,Step-1,Increment      1: Step Time =    1.000,"PART-1-1",           533,       11.2733,       3.54111,            0.,NA,NA,"",   223.760E-03,   223.673E-03,  -6.24311E-03,   446.736E-06
C:/temp/dataset/3/26_1.odb,Step-1,Increment      1: Step Time =    1.000,"PART-1-1",           534,       12.2480,       13.5548,            0.,NA,NA,"",   359.169E-03,   358.614E-03,  -19.9597E-03,   9.60353E-06
C:/temp/dataset/3/26_1.odb,Step-1,Increment      1: Step Time =    1.000,"PART-1-1",           535,           15.,         13.75,            0.,NA,NA,"",   365.422E-03,   360.977E-03,  -56.8280E-03,   9.90701E-06
C:/temp/dataset/3/26_1.odb,Step-1,Increment      1: Step Time =    1.000,"PART-1-1",           536,       13.6600,       14.9734,            0.,NA,NA,"",   379.479E-03,   377.470E-03,  -38.9948E-03,   4.23774E-06
C:/temp/dataset/3/26_1.odb,Step-1,Increment      1: Step Time =    1.000,"PART-1-1",           537,       8.15326,       10.4556,            0.,NA,NA,"",   319.439E-03,   317.500E-03,   35.1411E-03,   13.6527E-06
C:/temp/dataset/3/26_1.odb,Step-1,Increment      1: Step Time =    1.000,"PART-1-1",           538,       12.3824,       21.2920,            0.,NA,NA,"",   462.684E-03,   462.138E-03,  -22.4590E-03,   307.505E-09
C:/temp/dataset/3/26_1.odb,Step-1,Increment      1: Step Time =    1.000,"PART-1-1",           539,       13.6892,       20.0188,            0.,NA,NA,"",   446.762E-03,   444.983E-03,  -39.8342E-03,   375.912E-09
C:/temp/dataset/3/26_1.odb,Step-1,Increment      1: Step Time =    1.000,"PART-1-1",           540,           15.,         21.25,            0.,NA,NA,"",   464.910E-03,   461.342E-03,  -57.4875E-03,   395.743E-09
C:/temp/dataset/3/26_1.odb,Step-1,Increment      1: Step Time =    1.000,"PART-1-1",           541,       13.6932,       22.5232,            0.,NA,NA,"",   480.177E-03,   478.498E-03,  -40.1125E-03,   293.443E-09
C:/temp/dataset/3/26_1.odb,Step-1,Increment      1: Step Time =    1.000,"PART-1-1",           542,       9.77662,       16.3041,            0.,NA,NA,"",   395.825E-03,   395.616E-03,   12.8677E-03,   4.75425E-06
C:/temp/dataset/3/26_1.odb,Step-1,Increment      1: Step Time =    1.000,"PART-1-1",           543,       11.0318,       15.0036,            0.,NA,NA,"",   378.123E-03,   378.104E-03,  -3.81101E-03,   5.94686E-06
C:/temp/dataset/3/26_1.odb,Step-1,Increment      1: Step Time =    1.000,"PART-1-1",           544,       12.3430,       16.2301,            0.,NA,NA,"",   394.987E-03,   394.403E-03,  -21.4764E-03,   4.39139E-06
C:/temp/dataset/3/26_1.odb,Step-1,Increment      1: Step Time =    1.000,"PART-1-1",           545,         13.75,           30.,            0.,NA,NA,"",   580.050E-03,   578.560E-03,  -41.5435E-03,   36.4603E-09
C:/temp/dataset/3/26_1.odb,Step-1,Increment      1: Step Time =    1.000,"PART-1-1",           546,       12.4862,       28.7548,            0.,NA,NA,"",   562.543E-03,   562.008E-03,  -24.5172E-03,   108.606E-09
C:/temp/dataset/3/26_1.odb,Step-1,Increment      1: Step Time =    1.000,"PART-1-1",           547,           15.,         28.75,            0.,NA,NA,"",   564.722E-03,   561.719E-03,  -58.1611E-03,   71.5847E-09
C:/temp/dataset/3/26_1.odb,Step-1,Increment      1: Step Time =    1.000,"PART-1-1",           548,       12.4064,       23.7898,            0.,NA,NA,"",   496.099E-03,   495.565E-03,  -23.0044E-03,   194.524E-09
C:/temp/dataset/3/26_1.odb,Step-1,Increment      1: Step Time =    1.000,"PART-1-1",           549,           15.,         23.75,            0.,NA,NA,"",   498.155E-03,   494.800E-03,  -57.7124E-03,   343.945E-09
C:/temp/dataset/3/26_1.odb,Step-1,Increment      1: Step Time =    1.000,"PART-1-1",           550,       9.91541,       26.3072,            0.,NA,NA,"",   529.577E-03,   529.480E-03,   10.1078E-03,   203.930E-09
C:/temp/dataset/3/26_1.odb,Step-1,Increment      1: Step Time =    1.000,"PART-1-1",           551,       11.1537,       25.0565,            0.,NA,NA,"",   512.670E-03,   512.630E-03,  -6.35314E-03,   208.283E-09
C:/temp/dataset/3/26_1.odb,Step-1,Increment      1: Step Time =    1.000,"PART-1-1",           552,       11.2110,       27.5221,            0.,NA,NA,"",   545.674E-03,   545.624E-03,  -7.34116E-03,   183.515E-09
C:/temp/dataset/3/26_1.odb,Step-1,Increment      1: Step Time =    1.000,"PART-1-1",           553,       8.69233,       27.5515,            0.,NA,NA,"",   546.880E-03,   546.244E-03,   26.3654E-03,   190.620E-09
C:/temp/dataset/3/26_1.odb,Step-1,Increment      1: Step Time =    1.000,"PART-1-1",           554,       7.41297,       26.3376,            0.,NA,NA,"",   531.902E-03,   530.112E-03,   43.5966E-03,   168.162E-09
C:/temp/dataset/3/26_1.odb,Step-1,Increment      1: Step Time =    1.000,"PART-1-1",           555,       8.63604,       25.0933,            0.,NA,NA,"",   514.076E-03,   513.349E-03,   27.3389E-03,   183.736E-09
C:/temp/dataset/3/26_1.odb,Step-1,Increment      1: Step Time =    1.000,"PART-1-1",           556,      -1.26375,       27.5391,            0.,NA,NA,"",   569.785E-03,   546.971E-03,   159.618E-03,   128.337E-09
C:/temp/dataset/3/26_1.odb,Step-1,Increment      1: Step Time =    1.000,"PART-1-1",           557,         -1.25,           30.,            0.,NA,NA,"",   601.366E-03,   579.907E-03,   159.214E-03,   227.996E-09
C:/temp/dataset/3/26_1.odb,Step-1,Increment      1: Step Time =    1.000,"PART-1-1",           558,      -2.50500,       28.7640,            0.,NA,NA,"",   590.359E-03,   563.476E-03,   176.122E-03,   160.455E-09
C:/temp/dataset/3/26_1.odb,Step-1,Increment      1: Step Time =    1.000,"PART-1-1",           559,      -7.50143,       28.7522,            0.,NA,NA,"",   613.905E-03,   563.766E-03,   242.997E-03,   106.528E-09
C:/temp/dataset/3/26_1.odb,Step-1,Increment      1: Step Time =    1.000,"PART-1-1",           560,         -8.75,           30.,            0.,NA,NA,"",   635.974E-03,   580.580E-03,   259.596E-03,   116.563E-09
C:/temp/dataset/3/26_1.odb,Step-1,Increment      1: Step Time =    1.000,"PART-1-1",           561,      -6.25460,       27.5081,            0.,NA,NA,"",   592.013E-03,   547.003E-03,   226.420E-03,   94.5010E-09
C:/temp/dataset/3/26_1.odb,Step-1,Increment      1: Step Time =    1.000,"PART-1-1",           562,        -13.75,           30.,            0.,NA,NA,"",   666.489E-03,   581.028E-03,   326.518E-03,   62.3427E-09
C:/temp/dataset/3/26_1.odb,Step-1,Increment      1: Step Time =    1.000,"PART-1-1",           563,          -15.,         28.75,            0.,NA,NA,"",   660.647E-03,   564.409E-03,   343.361E-03,   38.5769E-09
C:/temp/dataset/3/26_1.odb,Step-1,Increment      1: Step Time =    1.000,"PART-1-1",           564,      -13.7509,       27.5010,            0.,NA,NA,"",   637.662E-03,   547.580E-03,   326.755E-03,   48.5276E-09
C:/temp/dataset/3/26_1.odb,Step-1,Increment      1: Step Time =    1.000,"PART-1-1",           565,          -15.,         26.25,            0.,NA,NA,"",   632.421E-03,   530.948E-03,   343.585E-03,   43.4641E-09
C:/temp/dataset/3/26_1.odb,Step-1,Increment      1: Step Time =    1.000,"PART-1-1",           566,      -12.5016,       26.2536,            0.,NA,NA,"",   614.743E-03,   530.772E-03,   310.145E-03,   60.2656E-09
C:/temp/dataset/3/26_1.odb,Step-1,Increment      1: Step Time =    1.000,"PART-1-1",           567,      -7.50093,       21.2547,            0.,NA,NA,"",   523.571E-03,   463.417E-03,   243.662E-03,   68.8670E-09
C:/temp/dataset/3/26_1.odb,Step-1,Increment      1: Step Time =    1.000,"PART-1-1",           568,         -6.25,           20.,            0.,NA,NA,"",   500.915E-03,   446.512E-03,   227.031E-03,   109.456E-09
C:/temp/dataset/3/26_1.odb,Step-1,Increment      1: Step Time =    1.000,"PART-1-1",           569,      -4.99978,       21.2574,            0.,NA,NA,"",   508.684E-03,   463.230E-03,   210.185E-03,   91.7498E-09
C:/temp/dataset/3/26_1.odb,Step-1,Increment      1: Step Time =    1.000,"PART-1-1",           570,      -3.74911,       22.5208,            0.,NA,NA,"",   517.498E-03,   480.028E-03,   193.332E-03,   73.6069E-09
C:/temp/dataset/3/26_1.odb,Step-1,Increment      1: Step Time =    1.000,"PART-1-1",           571,         -3.75,           20.,            0.,NA,NA,"",   486.459E-03,   446.288E-03,   193.570E-03,   141.137E-09
C:/temp/dataset/3/26_1.odb,Step-1,Increment      1: Step Time =    1.000,"PART-1-1",           572,      -2.49933,       21.2634,            0.,NA,NA,"",   495.659E-03,   463.086E-03,   176.718E-03,   115.648E-09
C:/temp/dataset/3/26_1.odb,Step-1,Increment      1: Step Time =    1.000,"PART-1-1",           573,         -1.25,           20.,            0.,NA,NA,"",   473.929E-03,   446.065E-03,   160.110E-03,   163.080E-09
C:/temp/dataset/3/26_1.odb,Step-1,Increment      1: Step Time =    1.000,"PART-1-1",           574,  -2.23348E-03,       21.2694,            0.,NA,NA,"",   484.613E-03,   462.943E-03,   143.295E-03,   137.321E-09
C:/temp/dataset/3/26_1.odb,Step-1,Increment      1: Step Time =    1.000,"PART-1-1",           575,      -1.25156,       22.5328,            0.,NA,NA,"",   505.900E-03,   479.964E-03,   159.903E-03,   91.8622E-09
C:/temp/dataset/3/26_1.odb,Step-1,Increment      1: Step Time =    1.000,"PART-1-1",           576,         -3.75,           30.,            0.,NA,NA,"",   611.290E-03,   580.131E-03,   192.674E-03,   187.390E-09
C:/temp/dataset/3/26_1.odb,Step-1,Increment      1: Step Time =    1.000,"PART-1-1",           577,      -5.00318,       28.7559,            0.,NA,NA,"",   601.292E-03,   563.593E-03,   209.559E-03,   132.536E-09
C:/temp/dataset/3/26_1.odb,Step-1,Increment      1: Step Time =    1.000,"PART-1-1",           578,       7.36074,       18.8052,            0.,NA,NA,"",   431.652E-03,   429.304E-03,   44.9698E-03,   1.37234E-06
C:/temp/dataset/3/26_1.odb,Step-1,Increment      1: Step Time =    1.000,"PART-1-1",           579,       8.58169,       17.5494,            0.,NA,NA,"",   413.387E-03,   412.386E-03,   28.7440E-03,   2.05514E-06
C:/temp/dataset/3/26_1.odb,Step-1,Increment      1: Step Time =    1.000,"PART-1-1",           580,       8.60057,       20.0599,            0.,NA,NA,"",   446.881E-03,   445.986E-03,   28.2647E-03,   602.675E-09
C:/temp/dataset/3/26_1.odb,Step-1,Increment      1: Step Time =    1.000,"PART-1-1",           581,            5.,         18.75,            0.,NA,NA,"",   435.559E-03,   428.776E-03,   76.5696E-03,   996.023E-09
C:/temp/dataset/3/26_1.odb,Step-1,Increment      1: Step Time =    1.000,"PART-1-1",           582,       6.17685,       17.5255,            0.,NA,NA,"",   416.758E-03,   412.280E-03,   60.9277E-03,   1.41619E-06
C:/temp/dataset/3/26_1.odb,Step-1,Increment      1: Step Time =    1.000,"PART-1-1",           583,       6.18390,       20.0298,            0.,NA,NA,"",   449.900E-03,   445.798E-03,   60.6105E-03,   361.769E-09
C:/temp/dataset/3/26_1.odb,Step-1,Increment      1: Step Time =    1.000,"PART-1-1",           584,            5.,         16.25,            0.,NA,NA,"",   402.704E-03,   395.315E-03,   76.7900E-03,   3.95087E-06
C:/temp/dataset/3/26_1.odb,Step-1,Increment      1: Step Time =    1.000,"PART-1-1",           585,       6.15340,       15.0385,            0.,NA,NA,"",   383.944E-03,   378.993E-03,   61.4595E-03,   4.84518E-06
C:/temp/dataset/3/26_1.odb,Step-1,Increment      1: Step Time =    1.000,"PART-1-1",           586,       7.33024,       16.3140,            0.,NA,NA,"",   398.579E-03,   395.961E-03,   45.6016E-03,   4.24011E-06
C:/temp/dataset/3/26_1.odb,Step-1,Increment      1: Step Time =    1.000,"PART-1-1",           587,           15.,         16.25,            0.,NA,NA,"",   398.534E-03,   394.431E-03,  -57.0405E-03,   2.81002E-06
C:/temp/dataset/3/26_1.odb,Step-1,Increment      1: Step Time =    1.000,"PART-1-1",           588,       13.6830,       17.5067,            0.,NA,NA,"",   413.261E-03,   411.366E-03,  -39.5262E-03,   1.24700E-06
C:/temp/dataset/3/26_1.odb,Step-1,Increment      1: Step Time =    1.000,"PART-1-1",           589,           15.,         18.75,            0.,NA,NA,"",   431.700E-03,   427.885E-03,  -57.2628E-03,   269.495E-09
C:/temp/dataset/3/26_1.odb,Step-1,Increment      1: Step Time =    1.000,"PART-1-1",           590,       7.36831,       6.81272,            0.,NA,NA,"",   273.073E-03,   269.183E-03,   45.9239E-03,   198.016E-06
C:/temp/dataset/3/26_1.odb,Step-1,Increment      1: Step Time =    1.000,"PART-1-1",           591,       6.10412,       7.73110,            0.,NA,NA,"",   288.383E-03,   281.478E-03,   62.7298E-03,   81.7752E-06
C:/temp/dataset/3/26_1.odb,Step-1,Increment      1: Step Time =    1.000,"PART-1-1",           592,            5.,          6.25,            0.,NA,NA,"",   273.346E-03,   262.141E-03,   77.4600E-03,   315.376E-06
C:/temp/dataset/3/26_1.odb,Step-1,Increment      1: Step Time =    1.000,"PART-1-1",           593,       6.26419,       5.33162,            0.,NA,NA,"",   257.426E-03,   250.161E-03,   60.7257E-03,   586.242E-06
C:/temp/dataset/3/26_1.odb,Step-1,Increment      1: Step Time =    1.000,"PART-1-1",           594,           15.,          8.75,            0.,NA,NA,"",   299.336E-03,   293.958E-03,  -56.4843E-03,   30.6335E-06
C:/temp/dataset/3/26_1.odb,Step-1,Increment      1: Step Time =    1.000,"PART-1-1",           595,       13.1418,       8.51598,            0.,NA,NA,"",   292.695E-03,   290.996E-03,  -31.4905E-03,   22.2970E-06
C:/temp/dataset/3/26_1.odb,Step-1,Increment      1: Step Time =    1.000,"PART-1-1",           596,       6.30252,      -5.49102,            0.,NA,NA,"",   114.884E-03,   102.796E-03,   51.2982E-03,   2.96519E-03
C:/temp/dataset/3/26_1.odb,Step-1,Increment      1: Step Time =    1.000,"PART-1-1",           597,            5.,         -6.25,            0.,NA,NA,"",   116.739E-03,   97.2302E-03,   64.6092E-03,   5.26605E-03
C:/temp/dataset/3/26_1.odb,Step-1,Increment      1: Step Time =    1.000,"PART-1-1",           598,       6.10325,      -7.87566,            0.,NA,NA,"",   92.6179E-03,   79.5768E-03,   47.3878E-03,   3.29491E-03
C:/temp/dataset/3/26_1.odb,Step-1,Increment      1: Step Time =    1.000,"PART-1-1",           599,       7.40577,      -7.11668,            0.,NA,NA,"",   92.6887E-03,   85.5191E-03,   35.7447E-03,   1.79809E-03
C:/temp/dataset/3/26_1.odb,Step-1,Increment      1: Step Time =    1.000,"PART-1-1",           600,            5.,         -8.75,            0.,NA,NA,"",   91.5696E-03,   73.5778E-03,   54.5097E-03,   4.03330E-03
C:/temp/dataset/3/26_1.odb,Step-1,Increment      1: Step Time =    1.000,"PART-1-1",           601,            5.,        -13.75,            0.,NA,NA,"",   50.7812E-03,   34.5791E-03,   37.1888E-03,   3.90655E-03
C:/temp/dataset/3/26_1.odb,Step-1,Increment      1: Step Time =    1.000,"PART-1-1",           602,       5.77894,      -15.1288,            0.,NA,NA,"",   37.6080E-03,   25.0349E-03,   28.0645E-03,   3.48322E-03
C:/temp/dataset/3/26_1.odb,Step-1,Increment      1: Step Time =    1.000,"PART-1-1",           603,            5.,        -16.25,            0.,NA,NA,"",   35.0426E-03,   20.3081E-03,   28.5581E-03,   4.01780E-03
C:/temp/dataset/3/26_1.odb,Step-1,Increment      1: Step Time =    1.000,"PART-1-1",           604,       2.77244,      -24.0596,            0.,NA,NA,"",   3.82928E-03,   1.84791E-03,   3.35389E-03,   1.02299E-03
C:/temp/dataset/3/26_1.odb,Step-1,Increment      1: Step Time =    1.000,"PART-1-1",           605,       3.76359,      -25.5842,            0.,NA,NA,"",   3.14790E-03,   1.05604E-03,   2.96548E-03,   1.05457E-03
C:/temp/dataset/3/26_1.odb,Step-1,Increment      1: Step Time =    1.000,"PART-1-1",           606,       5.11162,      -24.8806,            0.,NA,NA,"",   4.21643E-03,   528.268E-06,   4.18321E-03,   1.41032E-03
C:/temp/dataset/3/26_1.odb,Step-1,Increment      1: Step Time =    1.000,"PART-1-1",           607,       4.12047,      -23.3559,            0.,NA,NA,"",   5.66146E-03,   1.67299E-03,   5.40863E-03,   1.45608E-03
C:/temp/dataset/3/26_1.odb,Step-1,Increment      1: Step Time =    1.000,"PART-1-1",           608,       8.48587,      -2.76980,            0.,NA,NA,"",   140.316E-03,   137.619E-03,   27.3771E-03,   1.25637E-03
C:/temp/dataset/3/26_1.odb,Step-1,Increment      1: Step Time =    1.000,"PART-1-1",           609,       9.66601,      -3.38468,            0.,NA,NA,"",   129.841E-03,   129.179E-03,   13.0937E-03,   1.01266E-03
C:/temp/dataset/3/26_1.odb,Step-1,Increment      1: Step Time =    1.000,"PART-1-1",           610,       9.40849,      -1.21164,            0.,NA,NA,"",   159.393E-03,   158.502E-03,   16.8270E-03,   1.06889E-03
C:/temp/dataset/3/26_1.odb,Step-1,Increment      1: Step Time =    1.000,"PART-1-1",           611,       3.88333,            5.,            0.,NA,NA,"",   265.143E-03,   247.939E-03,   93.9512E-03,   987.267E-06
C:/temp/dataset/3/26_1.odb,Step-1,Increment      1: Step Time =    1.000,"PART-1-1",           612,       3.93709,       2.49951,            0.,NA,NA,"",   232.287E-03,   212.905E-03,   92.8911E-03,   525.165E-06
C:/temp/dataset/3/26_1.odb,Step-1,Increment      1: Step Time =    1.000,"PART-1-1",           613,       5.14044,       3.62548,            0.,NA,NA,"",   240.182E-03,   227.950E-03,   75.6715E-03,   682.295E-06
C:/temp/dataset/3/26_1.odb,Step-1,Increment      1: Step Time =    1.000,"PART-1-1",           614,       1.70000,           -5.,            0.,NA,NA,"",   168.141E-03,   105.929E-03,   130.577E-03,   1.03321E-03
C:/temp/dataset/3/26_1.odb,Step-1,Increment      1: Step Time =    1.000,"PART-1-1",           615,       2.88648,      -4.17028,            0.,NA,NA,"",   162.661E-03,   119.450E-03,   110.409E-03,   1.50708E-03
C:/temp/dataset/3/26_1.odb,Step-1,Increment      1: Step Time =    1.000,"PART-1-1",           616,       1.90498,      -3.27989,            0.,NA,NA,"",   182.262E-03,   132.151E-03,   125.520E-03,   1.24330E-03
C:/temp/dataset/3/26_1.odb,Step-1,Increment      1: Step Time =    1.000,"PART-1-1",           617,      -2.82853,       3.20340,            0.,NA,NA,"",   296.276E-03,   224.537E-03,   193.293E-03,   93.8283E-06
C:/temp/dataset/3/26_1.odb,Step-1,Increment      1: Step Time =    1.000,"PART-1-1",           618,      -1.73717,       4.08745,            0.,NA,NA,"",   296.108E-03,   237.264E-03,   177.161E-03,   84.2975E-06
C:/temp/dataset/3/26_1.odb,Step-1,Increment      1: Step Time =    1.000,"PART-1-1",           619,      -2.81667,            5.,            0.,NA,NA,"",   316.348E-03,   250.725E-03,   192.906E-03,   29.3657E-06
C:/temp/dataset/3/26_1.odb,Step-1,Increment      1: Step Time =    1.000,"PART-1-1",           620,      -7.28333,            5.,            0.,NA,NA,"",   359.791E-03,   250.982E-03,   257.794E-03,   34.1462E-06
C:/temp/dataset/3/26_1.odb,Step-1,Increment      1: Step Time =    1.000,"PART-1-1",           621,      -11.7000,            5.,            0.,NA,NA,"",   408.195E-03,   251.381E-03,   321.607E-03,   4.74041E-06
C:/temp/dataset/3/26_1.odb,Step-1,Increment      1: Step Time =    1.000,"PART-1-1",           622,      -11.5540,       2.50359,            0.,NA,NA,"",   385.484E-03,   215.295E-03,   319.759E-03,   8.19607E-06
C:/temp/dataset/3/26_1.odb,Step-1,Increment      1: Step Time =    1.000,"PART-1-1",           623,      -8.37698,      -4.01732,            0.,NA,NA,"",   299.908E-03,   120.791E-03,   274.507E-03,   18.8801E-06
C:/temp/dataset/3/26_1.odb,Step-1,Increment      1: Step Time =    1.000,"PART-1-1",           624,      -10.5279,      -3.86372,            0.,NA,NA,"",   329.477E-03,   123.214E-03,   305.570E-03,   7.71866E-06
C:/temp/dataset/3/26_1.odb,Step-1,Increment      1: Step Time =    1.000,"PART-1-1",           625,      -9.41667,           -5.,            0.,NA,NA,"",   308.665E-03,   106.698E-03,   289.637E-03,   17.0431E-06
C:/temp/dataset/3/26_1.odb,Step-1,Increment      1: Step Time =    1.000,"PART-1-1",           626,          3.75,          -20.,            0.,NA,NA,"",   6.30349E-03,   1.14971E-03,   6.19775E-03,   1.92071E-03
C:/temp/dataset/3/26_1.odb,Step-1,Increment      1: Step Time =    1.000,"PART-1-1",           627,       2.74072,      -21.3682,            0.,NA,NA,"",   4.87994E-03,   1.99965E-03,   4.45143E-03,   679.016E-06
C:/temp/dataset/3/26_1.odb,Step-1,Increment      1: Step Time =    1.000,"PART-1-1",           628,       4.11640,      -22.1674,            0.,NA,NA,"",   7.08939E-03,   2.29621E-03,   6.70722E-03,   1.79720E-03
C:/temp/dataset/3/26_1.odb,Step-1,Increment      1: Step Time =    1.000,"PART-1-1",           629,       5.12568,      -20.7992,            0.,NA,NA,"",   11.1108E-03,   2.36235E-03,   10.8567E-03,   3.09751E-03
C:/temp/dataset/3/26_1.odb,Step-1,Increment      1: Step Time =    1.000,"PART-1-1",           630,          1.25,          -20.,            0.,NA,NA,"",   2.23195E-03,   291.349E-06,   2.21286E-03,   186.903E-06
C:/temp/dataset/3/26_1.odb,Step-1,Increment      1: Step Time =    1.000,"PART-1-1",           631,   73.0809E-03,      -21.3299,            0.,NA,NA,"",   1.83762E-03,   1.24444E-03,   1.35212E-03,   152.694E-06
C:/temp/dataset/3/26_1.odb,Step-1,Increment      1: Step Time =    1.000,"PART-1-1",           632,       1.56380,      -22.6981,            0.,NA,NA,"",   3.39034E-03,   2.03135E-03,   2.71441E-03,   776.876E-06
C:/temp/dataset/3/26_1.odb,Step-1,Increment      1: Step Time =    1.000,"PART-1-1",           633,         -1.25,          -20.,            0.,NA,NA,"",   1.02319E-03,   700.411E-06,   745.889E-06,   104.978E-06
C:/temp/dataset/3/26_1.odb,Step-1,Increment      1: Step Time =    1.000,"PART-1-1",           634,      -2.46493,      -21.3147,            0.,NA,NA,"",   1.17826E-03,   1.13123E-03,   329.554E-06,   27.7188E-06
C:/temp/dataset/3/26_1.odb,Step-1,Increment      1: Step Time =    1.000,"PART-1-1",           635,      -1.14185,      -22.6446,            0.,NA,NA,"",   1.74529E-03,   1.55496E-03,   792.562E-06,   245.629E-06
C:/temp/dataset/3/26_1.odb,Step-1,Increment      1: Step Time =    1.000,"PART-1-1",           636,         -3.75,          -20.,            0.,NA,NA,"",   887.373E-06,   884.283E-06,   73.9922E-06,   67.2962E-06
C:/temp/dataset/3/26_1.odb,Step-1,Increment      1: Step Time =    1.000,"PART-1-1",           637,      -4.97847,      -21.2978,            0.,NA,NA,"",   1.08666E-03,   1.08365E-03,  -80.7962E-06,   9.30808E-06
C:/temp/dataset/3/26_1.odb,Step-1,Increment      1: Step Time =    1.000,"PART-1-1",           638,      -3.69340,      -22.6125,            0.,NA,NA,"",   1.27993E-03,   1.27673E-03,   90.5007E-06,   98.6469E-06
C:/temp/dataset/3/26_1.odb,Step-1,Increment      1: Step Time =    1.000,"PART-1-1",           639,      -4.95791,      -23.8547,            0.,NA,NA,"",   1.23020E-03,   1.23013E-03,  -13.9545E-06,   112.710E-06
C:/temp/dataset/3/26_1.odb,Step-1,Increment      1: Step Time =    1.000,"PART-1-1",           640,      -6.21189,      -22.5887,            0.,NA,NA,"",   1.13232E-03,   1.12541E-03,  -124.979E-06,   57.0688E-06
C:/temp/dataset/3/26_1.odb,Step-1,Increment      1: Step Time =    1.000,"PART-1-1",           641,      -7.46939,      -23.8324,            0.,NA,NA,"",   1.04790E-03,   1.04211E-03,  -109.944E-06,   70.8599E-06
C:/temp/dataset/3/26_1.odb,Step-1,Increment      1: Step Time =    1.000,"PART-1-1",           642,           15.,        -13.75,            0.,NA,NA,"",   40.9829E-03,   31.5788E-03,  -26.1223E-03,   2.70241E-03
C:/temp/dataset/3/26_1.odb,Step-1,Increment      1: Step Time =    1.000,"PART-1-1",           643,       14.2106,      -12.3304,            0.,NA,NA,"",   46.8741E-03,   40.3155E-03,  -23.9131E-03,   2.15973E-03
C:/temp/dataset/3/26_1.odb,Step-1,Increment      1: Step Time =    1.000,"PART-1-1",           644,       13.1387,      -13.2101,            0.,NA,NA,"",   36.6310E-03,   33.3981E-03,  -15.0464E-03,   1.42264E-03
C:/temp/dataset/3/26_1.odb,Step-1,Increment      1: Step Time =    1.000,"PART-1-1",           645,           15.,        -11.25,            0.,NA,NA,"",   58.9134E-03,   49.2948E-03,  -32.2616E-03,   2.69018E-03
C:/temp/dataset/3/26_1.odb,Step-1,Increment      1: Step Time =    1.000,"PART-1-1",           646,           15.,         -6.25,            0.,NA,NA,"",   106.261E-03,   96.6494E-03,  -44.1616E-03,   2.34070E-03
C:/temp/dataset/3/26_1.odb,Step-1,Increment      1: Step Time =    1.000,"PART-1-1",           647,       14.0624,      -4.92369,            0.,NA,NA,"",   116.796E-03,   111.101E-03,  -36.0250E-03,   1.67026E-03
C:/temp/dataset/3/26_1.odb,Step-1,Increment      1: Step Time =    1.000,"PART-1-1",           648,       12.9264,      -6.09194,            0.,NA,NA,"",   99.3373E-03,   96.8841E-03,  -21.9400E-03,   1.20688E-03
C:/temp/dataset/3/26_1.odb,Step-1,Increment      1: Step Time =    1.000,"PART-1-1",           649,           15.,         -3.75,            0.,NA,NA,"",   135.299E-03,   126.058E-03,  -49.1455E-03,   1.84023E-03
C:/temp/dataset/3/26_1.odb,Step-1,Increment      1: Step Time =    1.000,"PART-1-1",           650,       13.0440,      -3.68493,            0.,NA,NA,"",   128.384E-03,   125.772E-03,  -25.7637E-03,   1.14934E-03
C:/temp/dataset/3/26_1.odb,Step-1,Increment      1: Step Time =    1.000,"PART-1-1",           651,       8.06094,   477.426E-03,            0.,NA,NA,"",   185.909E-03,   182.613E-03,   34.8538E-03,   851.644E-06
C:/temp/dataset/3/26_1.odb,Step-1,Increment      1: Step Time =    1.000,"PART-1-1",           652,       8.76493,       2.31856,            0.,NA,NA,"",   209.446E-03,   207.780E-03,   26.3678E-03,   760.172E-06
C:/temp/dataset/3/26_1.odb,Step-1,Increment      1: Step Time =    1.000,"PART-1-1",           653,       6.73548,       2.80805,            0.,NA,NA,"",   222.314E-03,   215.758E-03,   53.5910E-03,   601.690E-06
C:/temp/dataset/3/26_1.odb,Step-1,Increment      1: Step Time =    1.000,"PART-1-1",           654,       6.03149,   966.916E-03,            0.,NA,NA,"",   200.697E-03,   190.690E-03,   62.5839E-03,   726.173E-06
C:/temp/dataset/3/26_1.odb,Step-1,Increment      1: Step Time =    1.000,"PART-1-1",           655,            5.,          8.75,            0.,NA,NA,"",   305.007E-03,   295.055E-03,   77.2792E-03,   50.1784E-06
C:/temp/dataset/3/26_1.odb,Step-1,Increment      1: Step Time =    1.000,"PART-1-1",           656,       7.16919,       9.14751,            0.,NA,NA,"",   304.016E-03,   300.139E-03,   48.4021E-03,   41.4360E-06
C:/temp/dataset/3/26_1.odb,Step-1,Increment      1: Step Time =    1.000,"PART-1-1",           657,          3.75,           30.,            0.,NA,NA,"",   586.762E-03,   579.458E-03,   92.2933E-03,   299.064E-09
C:/temp/dataset/3/26_1.odb,Step-1,Increment      1: Step Time =    1.000,"PART-1-1",           658,       3.71036,       27.5731,            0.,NA,NA,"",   554.836E-03,   546.979E-03,   93.0410E-03,   155.735E-09
C:/temp/dataset/3/26_1.odb,Step-1,Increment      1: Step Time =    1.000,"PART-1-1",           659,       7.38617,       23.8490,            0.,NA,NA,"",   498.767E-03,   496.807E-03,   44.1779E-03,   181.850E-09
C:/temp/dataset/3/26_1.odb,Step-1,Increment      1: Step Time =    1.000,"PART-1-1",           660,       6.16255,       25.1024,            0.,NA,NA,"",   517.236E-03,   513.692E-03,   60.4424E-03,   112.966E-09
C:/temp/dataset/3/26_1.odb,Step-1,Increment      1: Step Time =    1.000,"PART-1-1",           661,       4.93576,       23.8439,            0.,NA,NA,"",   502.884E-03,   496.958E-03,   76.9742E-03,   65.9975E-09
C:/temp/dataset/3/26_1.odb,Step-1,Increment      1: Step Time =    1.000,"PART-1-1",           662,       6.15938,       22.5905,            0.,NA,NA,"",   483.896E-03,   480.073E-03,   60.7096E-03,   135.147E-09
C:/temp/dataset/3/26_1.odb,Step-1,Increment      1: Step Time =    1.000,"PART-1-1",           663,      -10.0017,       23.7560,            0.,NA,NA,"",   569.040E-03,   497.119E-03,   276.909E-03,   50.7806E-09
C:/temp/dataset/3/26_1.odb,Step-1,Increment      1: Step Time =    1.000,"PART-1-1",           664,      -8.75135,       22.5073,            0.,NA,NA,"",   546.288E-03,   480.294E-03,   260.285E-03,   50.3753E-09
C:/temp/dataset/3/26_1.odb,Step-1,Increment      1: Step Time =    1.000,"PART-1-1",           665,      -10.0004,       21.2526,            0.,NA,NA,"",   540.120E-03,   463.613E-03,   277.116E-03,   47.8754E-09
C:/temp/dataset/3/26_1.odb,Step-1,Increment      1: Step Time =    1.000,"PART-1-1",           666,      -11.2505,       22.5043,            0.,NA,NA,"",   563.151E-03,   480.478E-03,   293.735E-03,   43.5516E-09
C:/temp/dataset/3/26_1.odb,Step-1,Increment      1: Step Time =    1.000,"PART-1-1",           667,        -11.25,           20.,            0.,NA,NA,"",   534.959E-03,   446.959E-03,   293.953E-03,   54.7246E-09
C:/temp/dataset/3/26_1.odb,Step-1,Increment      1: Step Time =    1.000,"PART-1-1",           668,         -8.75,           20.,            0.,NA,NA,"",   517.135E-03,   446.736E-03,   260.492E-03,   78.9290E-09
C:/temp/dataset/3/26_1.odb,Step-1,Increment      1: Step Time =    1.000,"PART-1-1",           669,       7.37456,       21.3253,            0.,NA,NA,"",   465.170E-03,   463.031E-03,   44.5593E-03,   403.695E-09
C:/temp/dataset/3/26_1.odb,Step-1,Increment      1: Step Time =    1.000,"PART-1-1",           670,      -1.26076,       25.0501,            0.,NA,NA,"",   537.940E-03,   513.657E-03,   159.801E-03,   59.9211E-09
C:/temp/dataset/3/26_1.odb,Step-1,Increment      1: Step Time =    1.000,"PART-1-1",           671,      -2.50213,       23.7814,            0.,NA,NA,"",   527.220E-03,   496.788E-03,   176.530E-03,   57.0957E-09
C:/temp/dataset/3/26_1.odb,Step-1,Increment      1: Step Time =    1.000,"PART-1-1",           672,          1.25,           20.,            0.,NA,NA,"",   463.481E-03,   445.841E-03,   126.649E-03,   198.954E-09
C:/temp/dataset/3/26_1.odb,Step-1,Increment      1: Step Time =    1.000,"PART-1-1",           673,            5.,         13.75,            0.,NA,NA,"",   369.955E-03,   361.854E-03,   76.9991E-03,   10.7356E-06
C:/temp/dataset/3/26_1.odb,Step-1,Increment      1: Step Time =    1.000,"PART-1-1",           674,       7.85923,       4.51418,            0.,NA,NA,"",   241.515E-03,   238.337E-03,   39.0532E-03,   528.008E-06
C:/temp/dataset/3/26_1.odb,Step-1,Increment      1: Step Time =    1.000,"PART-1-1",           675,       9.45843,       7.45797,            0.,NA,NA,"",   277.858E-03,   277.280E-03,   17.9056E-03,   121.325E-06
C:/temp/dataset/3/26_1.odb,Step-1,Increment      1: Step Time =    1.000,"PART-1-1",           676,       11.3500,       8.04392,            0.,NA,NA,"",   284.944E-03,   284.847E-03,  -7.42495E-03,   63.6597E-06
C:/temp/dataset/3/26_1.odb,Step-1,Increment      1: Step Time =    1.000,"PART-1-1",           677,       10.2386,       8.70699,            0.,NA,NA,"",   293.990E-03,   293.897E-03,   7.40644E-03,   43.3028E-06
C:/temp/dataset/3/26_1.odb,Step-1,Increment      1: Step Time =    1.000,"PART-1-1",           678,   133.314E-03,       2.02047,            0.,NA,NA,"",   255.575E-03,   207.152E-03,   149.689E-03,   457.956E-06
C:/temp/dataset/3/26_1.odb,Step-1,Increment      1: Step Time =    1.000,"PART-1-1",           679,       2.26054,       1.70692,            0.,NA,NA,"",   234.226E-03,   202.423E-03,   117.842E-03,   714.240E-06
C:/temp/dataset/3/26_1.odb,Step-1,Increment      1: Step Time =    1.000,"PART-1-1",           680,  -583.333E-03,            5.,            0.,NA,NA,"",   297.233E-03,   250.459E-03,   160.054E-03,   116.320E-06
C:/temp/dataset/3/26_1.odb,Step-1,Increment      1: Step Time =    1.000,"PART-1-1",           681,  -713.179E-03,       3.09316,            0.,NA,NA,"",   275.433E-03,   222.660E-03,   162.129E-03,   281.247E-06
C:/temp/dataset/3/26_1.odb,Step-1,Increment      1: Step Time =    1.000,"PART-1-1",           682,      -10.2084,       1.19941,            0.,NA,NA,"",   358.896E-03,   196.298E-03,   300.455E-03,   10.9651E-06
C:/temp/dataset/3/26_1.odb,Step-1,Increment      1: Step Time =    1.000,"PART-1-1",           683,      -7.18333,           -5.,            0.,NA,NA,"",   278.555E-03,   106.520E-03,   257.384E-03,   44.8229E-06
C:/temp/dataset/3/26_1.odb,Step-1,Increment      1: Step Time =    1.000,"PART-1-1",           684,      -7.36178,      -2.99006,            0.,NA,NA,"",   292.954E-03,   135.498E-03,   259.735E-03,   26.4152E-06
C:/temp/dataset/3/26_1.odb,Step-1,Increment      1: Step Time =    1.000,"PART-1-1",           685,      -11.3125,  -91.5578E-03,            0.,NA,NA,"",   363.032E-03,   177.767E-03,   316.529E-03,   9.31918E-06
C:/temp/dataset/3/26_1.odb,Step-1,Increment      1: Step Time =    1.000,"PART-1-1",           686,      -11.6500,           -5.,            0.,NA,NA,"",   339.196E-03,   106.913E-03,   321.906E-03,   5.28096E-06
C:/temp/dataset/3/26_1.odb,Step-1,Increment      1: Step Time =    1.000,"PART-1-1",           687,      -11.6245,      -2.63993,            0.,NA,NA,"",   350.868E-03,   140.998E-03,   321.291E-03,   8.37162E-06
C:/temp/dataset/3/26_1.odb,Step-1,Increment      1: Step Time =    1.000,"PART-1-1",           688,      -1.03706,       1.18772,            0.,NA,NA,"",   257.167E-03,   195.307E-03,   167.302E-03,   375.474E-06
C:/temp/dataset/3/26_1.odb,Step-1,Increment      1: Step Time =    1.000,"PART-1-1",           689,      -2.26684,   407.252E-03,            0.,NA,NA,"",   261.410E-03,   184.072E-03,   185.614E-03,   217.948E-06
C:/temp/dataset/3/26_1.odb,Step-1,Increment      1: Step Time =    1.000,"PART-1-1",           690,      -1.61706,  -775.207E-03,            0.,NA,NA,"",   243.069E-03,   167.066E-03,   176.554E-03,   402.402E-06
C:/temp/dataset/3/26_1.odb,Step-1,Increment      1: Step Time =    1.000,"PART-1-1",           691,      -4.44627,  -189.662E-03,            0.,NA,NA,"",   279.397E-03,   175.550E-03,   217.359E-03,   62.2709E-06
C:/temp/dataset/3/26_1.odb,Step-1,Increment      1: Step Time =    1.000,"PART-1-1",           692,      -3.83065,   850.686E-03,            0.,NA,NA,"",   282.290E-03,   190.545E-03,   208.280E-03,   78.6544E-06
C:/temp/dataset/3/26_1.odb,Step-1,Increment      1: Step Time =    1.000,"PART-1-1",           693,      -5.38306,   384.196E-03,            0.,NA,NA,"",   295.156E-03,   183.946E-03,   230.827E-03,   25.7898E-06
C:/temp/dataset/3/26_1.odb,Step-1,Increment      1: Step Time =    1.000,"PART-1-1",           694,       3.90000,           -5.,            0.,NA,NA,"",   142.665E-03,   107.158E-03,   94.1828E-03,   2.21372E-03
C:/temp/dataset/3/26_1.odb,Step-1,Increment      1: Step Time =    1.000,"PART-1-1",           695,       5.25667,      -4.01677,            0.,NA,NA,"",   140.593E-03,   122.693E-03,   68.6498E-03,   3.12248E-03
C:/temp/dataset/3/26_1.odb,Step-1,Increment      1: Step Time =    1.000,"PART-1-1",           696,       4.24316,      -3.18705,            0.,NA,NA,"",   160.091E-03,   134.561E-03,   86.7324E-03,   1.71411E-03
C:/temp/dataset/3/26_1.odb,Step-1,Increment      1: Step Time =    1.000,"PART-1-1",           697,       9.51721,      -4.82762,            0.,NA,NA,"",   111.812E-03,   110.877E-03,   14.4325E-03,   869.374E-06
C:/temp/dataset/3/26_1.odb,Step-1,Increment      1: Step Time =    1.000,"PART-1-1",           698,       8.04384,      -4.93500,            0.,NA,NA,"",   113.871E-03,   109.512E-03,   31.2060E-03,   1.29662E-03
C:/temp/dataset/3/26_1.odb,Step-1,Increment      1: Step Time =    1.000,"PART-1-1",           699,       8.61490,      -6.56470,            0.,NA,NA,"",   93.9326E-03,   90.9819E-03,   23.3586E-03,   1.02380E-03
C:/temp/dataset/3/26_1.odb,Step-1,Increment      1: Step Time =    1.000,"PART-1-1",           700,       10.0883,      -6.45732,            0.,NA,NA,"",   92.3730E-03,   92.0292E-03,   7.96160E-03,   526.592E-06
C:/temp/dataset/3/26_1.odb,Step-1,Increment      1: Step Time =    1.000,"PART-1-1",           701,       9.29828,      -8.00429,            0.,NA,NA,"",   77.4796E-03,   75.9615E-03,   15.2624E-03,   869.035E-06
C:/temp/dataset/3/26_1.odb,Step-1,Increment      1: Step Time =    1.000,"PART-1-1",           702,       6.27674,      -21.4047,            0.,NA,NA,"",   9.52804E-03,   1.04664E-03,   9.47038E-03,   2.16835E-03
C:/temp/dataset/3/26_1.odb,Step-1,Increment      1: Step Time =    1.000,"PART-1-1",           703,       7.27122,      -20.3583,            0.,NA,NA,"",   9.90809E-03,   1.68820E-03,   9.76321E-03,   1.70880E-03
C:/temp/dataset/3/26_1.odb,Step-1,Increment      1: Step Time =    1.000,"PART-1-1",           704,         -6.25,          -20.,            0.,NA,NA,"",   1.03471E-03,   1.02616E-03,  -132.773E-06,   44.9200E-06
C:/temp/dataset/3/26_1.odb,Step-1,Increment      1: Step Time =    1.000,"PART-1-1",           705,         -1.25,          -30.,            0.,NA,NA,"",            0.,   364.978E-42,   494.024E-42,   447.661E-06
C:/temp/dataset/3/26_1.odb,Step-1,Increment      1: Step Time =    1.000,"PART-1-1",           706,       8.60683,      -25.8105,            0.,NA,NA,"",   2.72183E-03,  -1.70184E-03,   2.12417E-03,   912.397E-06
C:/temp/dataset/3/26_1.odb,Step-1,Increment      1: Step Time =    1.000,"PART-1-1",           707,       7.41490,      -26.9159,            0.,NA,NA,"",   2.14654E-03,  -1.03268E-03,   1.88181E-03,   975.180E-06
C:/temp/dataset/3/26_1.odb,Step-1,Increment      1: Step Time =    1.000,"PART-1-1",           708,       6.17638,      -25.8614,            0.,NA,NA,"",   3.17449E-03,  -341.609E-06,   3.15606E-03,   1.12069E-03
C:/temp/dataset/3/26_1.odb,Step-1,Increment      1: Step Time =    1.000,"PART-1-1",           709,       7.37219,      -25.0876,            0.,NA,NA,"",   3.71266E-03,  -1.02414E-03,   3.56861E-03,   1.25161E-03
C:/temp/dataset/3/26_1.odb,Step-1,Increment      1: Step Time =    1.000,"PART-1-1",           710,       6.30743,      -24.1068,            0.,NA,NA,"",   5.18590E-03,  -76.8915E-06,   5.18533E-03,   1.41089E-03
C:/temp/dataset/3/26_1.odb,Step-1,Increment      1: Step Time =    1.000,"PART-1-1",           711,   113.079E-03,      -23.9373,            0.,NA,NA,"",   2.33896E-03,   1.84874E-03,   1.43280E-03,   463.167E-06
C:/temp/dataset/3/26_1.odb,Step-1,Increment      1: Step Time =    1.000,"PART-1-1",           712,      -2.43554,      -23.8906,            0.,NA,NA,"",   1.56055E-03,   1.51341E-03,   380.658E-06,   190.039E-06
C:/temp/dataset/3/26_1.odb,Step-1,Increment      1: Step Time =    1.000,"PART-1-1",           713,      -8.72529,      -25.0755,            0.,NA,NA,"",   879.684E-06,   877.221E-06,  -65.7734E-06,   86.9090E-06
C:/temp/dataset/3/26_1.odb,Step-1,Increment      1: Step Time =    1.000,"PART-1-1",           714,      -9.97606,      -23.8175,            0.,NA,NA,"",   930.608E-06,   928.456E-06,  -63.2489E-06,   42.2491E-06
C:/temp/dataset/3/26_1.odb,Step-1,Increment      1: Step Time =    1.000,"PART-1-1",           715,      -9.99641,      -28.7682,            0.,NA,NA,"",   245.692E-06,   245.409E-06,   11.7828E-06,   125.028E-06
C:/temp/dataset/3/26_1.odb,Step-1,Increment      1: Step Time =    1.000,"PART-1-1",           716,      -11.2465,      -27.5281,            0.,NA,NA,"",   432.951E-06,   432.635E-06,   16.5449E-06,   103.773E-06
C:/temp/dataset/3/26_1.odb,Step-1,Increment      1: Step Time =    1.000,"PART-1-1",           717,        -11.25,          -30.,            0.,NA,NA,"",            0.,   108.305E-42,   57.7223E-42,   116.924E-06
C:/temp/dataset/3/26_1.odb,Step-1,Increment      1: Step Time =    1.000,"PART-1-1",           718,         -8.75,          -30.,            0.,NA,NA,"",            0.,   148.769E-42,   60.2376E-42,   162.188E-06
C:/temp/dataset/3/26_1.odb,Step-1,Increment      1: Step Time =    1.000,"PART-1-1",           719,      -8.73783,      -27.5479,            0.,NA,NA,"",   527.905E-06,   527.901E-06,  -1.98846E-06,   137.415E-06
C:/temp/dataset/3/26_1.odb,Step-1,Increment      1: Step Time =    1.000,"PART-1-1",           720,       9.45286,      -20.3748,            0.,NA,NA,"",   4.54535E-03,   1.42768E-03,   4.31531E-03,   848.283E-06
C:/temp/dataset/3/26_1.odb,Step-1,Increment      1: Step Time =    1.000,"PART-1-1",           721,       8.38706,      -19.4374,            0.,NA,NA,"",   8.85756E-03,   3.66167E-03,   8.06527E-03,   1.12686E-03
C:/temp/dataset/3/26_1.odb,Step-1,Increment      1: Step Time =    1.000,"PART-1-1",           722,       8.33702,      -21.2957,            0.,NA,NA,"",   6.45997E-03,   184.352E-06,   6.45733E-03,   1.29058E-03
C:/temp/dataset/3/26_1.odb,Step-1,Increment      1: Step Time =    1.000,"PART-1-1",           723,       9.34035,      -18.0986,            0.,NA,NA,"",   9.72421E-03,   7.67559E-03,   5.97038E-03,   791.996E-06
C:/temp/dataset/3/26_1.odb,Step-1,Increment      1: Step Time =    1.000,"PART-1-1",           724,       10.7511,      -19.4747,            0.,NA,NA,"",   3.53942E-03,   3.49259E-03,   573.893E-06,   499.009E-06
C:/temp/dataset/3/26_1.odb,Step-1,Increment      1: Step Time =    1.000,"PART-1-1",           725,       9.57777,      -9.07511,            0.,NA,NA,"",   66.7902E-03,   65.7206E-03,   11.9054E-03,   798.900E-06
C:/temp/dataset/3/26_1.odb,Step-1,Increment      1: Step Time =    1.000,"PART-1-1",           726,       10.3854,      -7.79904,            0.,NA,NA,"",   77.9988E-03,   77.8516E-03,   4.79087E-03,   370.472E-06
C:/temp/dataset/3/26_1.odb,Step-1,Increment      1: Step Time =    1.000,"PART-1-1",           727,       11.9371,      -7.89361,            0.,NA,NA,"",   77.8717E-03,   77.1906E-03,  -10.2773E-03,   705.104E-06
C:/temp/dataset/3/26_1.odb,Step-1,Increment      1: Step Time =    1.000,"PART-1-1",           728,       11.6400,      -6.55190,            0.,NA,NA,"",   91.5946E-03,   91.2363E-03,  -8.09288E-03,   713.769E-06
C:/temp/dataset/3/26_1.odb,Step-1,Increment      1: Step Time =    1.000,"PART-1-1",           729,       9.29748,       3.92298,            0.,NA,NA,"",   230.447E-03,   229.597E-03,   19.7699E-03,   521.505E-06
C:/temp/dataset/3/26_1.odb,Step-1,Increment      1: Step Time =    1.000,"PART-1-1",           730,       10.7408,       1.93669,            0.,NA,NA,"",   201.658E-03,   201.657E-03,   645.730E-06,   670.708E-06
C:/temp/dataset/3/26_1.odb,Step-1,Increment      1: Step Time =    1.000,"PART-1-1",           731,       12.1175,       9.30164,            0.,NA,NA,"",   302.182E-03,   301.657E-03,  -17.8184E-03,   15.2460E-06
C:/temp/dataset/3/26_1.odb,Step-1,Increment      1: Step Time =    1.000,"PART-1-1",           732,       12.3743,       7.25826,            0.,NA,NA,"",   274.937E-03,   274.127E-03,  -21.0830E-03,   70.9224E-06
C:/temp/dataset/3/26_1.odb,Step-1,Increment      1: Step Time =    1.000,"PART-1-1",           733,       9.86952,       23.8294,            0.,NA,NA,"",   496.443E-03,   496.323E-03,   10.9438E-03,   208.135E-09
C:/temp/dataset/3/26_1.odb,Step-1,Increment      1: Step Time =    1.000,"PART-1-1",           734,       8.61965,       22.5851,            0.,NA,NA,"",   480.585E-03,   479.781E-03,   27.7828E-03,   214.695E-09
C:/temp/dataset/3/26_1.odb,Step-1,Increment      1: Step Time =    1.000,"PART-1-1",           735,         11.25,           30.,            0.,NA,NA,"",   578.841E-03,   578.784E-03,  -8.08452E-03,   103.005E-09
C:/temp/dataset/3/26_1.odb,Step-1,Increment      1: Step Time =    1.000,"PART-1-1",           736,       9.97488,       28.7673,            0.,NA,NA,"",   562.474E-03,   562.401E-03,   9.09153E-03,   168.568E-09
C:/temp/dataset/3/26_1.odb,Step-1,Increment      1: Step Time =    1.000,"PART-1-1",           737,          8.75,           30.,            0.,NA,NA,"",   579.564E-03,   579.009E-03,   25.3744E-03,   214.900E-09
C:/temp/dataset/3/26_1.odb,Step-1,Increment      1: Step Time =    1.000,"PART-1-1",           738,       3.69885,       25.0915,            0.,NA,NA,"",   522.190E-03,   513.766E-03,   93.4173E-03,   54.7858E-09
C:/temp/dataset/3/26_1.odb,Step-1,Increment      1: Step Time =    1.000,"PART-1-1",           739,       4.94207,       26.3392,            0.,NA,NA,"",   535.867E-03,   530.355E-03,   76.6664E-03,   118.200E-09
C:/temp/dataset/3/26_1.odb,Step-1,Increment      1: Step Time =    1.000,"PART-1-1",           740,         -6.25,           30.,            0.,NA,NA,"",   622.856E-03,   580.355E-03,   226.135E-03,   150.571E-09
C:/temp/dataset/3/26_1.odb,Step-1,Increment      1: Step Time =    1.000,"PART-1-1",           741,      -11.2519,       25.0060,            0.,NA,NA,"",   591.876E-03,   513.962E-03,   293.531E-03,   62.3231E-09
C:/temp/dataset/3/26_1.odb,Step-1,Increment      1: Step Time =    1.000,"PART-1-1",           742,       11.7111,      -12.1867,            0.,NA,NA,"",   40.3904E-03,   39.9430E-03,  -5.99515E-03,   460.808E-06
C:/temp/dataset/3/26_1.odb,Step-1,Increment      1: Step Time =    1.000,"PART-1-1",           743,       12.0443,      -13.4388,            0.,NA,NA,"",   32.3035E-03,   31.3938E-03,  -7.61240E-03,   690.235E-06
C:/temp/dataset/3/26_1.odb,Step-1,Increment      1: Step Time =    1.000,"PART-1-1",           744,       9.07309,      -22.0228,            0.,NA,NA,"",   4.37952E-03,  -764.607E-06,   4.31226E-03,   1.09064E-03
C:/temp/dataset/3/26_1.odb,Step-1,Increment      1: Step Time =    1.000,"PART-1-1",           745,       9.10959,      -23.2638,            0.,NA,NA,"",   3.72517E-03,  -1.55231E-03,   3.38633E-03,   1.09728E-03
C:/temp/dataset/3/26_1.odb,Step-1,Increment      1: Step Time =    1.000,"PART-1-1",           746,       10.5828,      -23.1781,            0.,NA,NA,"",   2.04041E-03,  -1.82139E-03,   919.669E-06,   790.976E-06
C:/temp/dataset/3/26_1.odb,Step-1,Increment      1: Step Time =    1.000,"PART-1-1",           747,       10.5463,      -21.9372,            0.,NA,NA,"",   1.42138E-03,  -854.344E-06,   1.13597E-03,   786.060E-06
C:/temp/dataset/3/26_1.odb,Step-1,Increment      1: Step Time =    1.000,"PART-1-1",           748,      -1.00841,      -2.00181,            0.,NA,NA,"",   225.116E-03,   149.470E-03,   168.333E-03,   569.828E-06
C:/temp/dataset/3/26_1.odb,Step-1,Increment      1: Step Time =    1.000,"PART-1-1",           749,      -3.17395,      -1.50818,            0.,NA,NA,"",   253.334E-03,   156.402E-03,   199.290E-03,   150.530E-06
C:/temp/dataset/3/26_1.odb,Step-1,Increment      1: Step Time =    1.000,"PART-1-1",           750,       8.23699,       8.20647,            0.,NA,NA,"",   289.499E-03,   287.470E-03,   34.2218E-03,   69.7718E-06
C:/temp/dataset/3/26_1.odb,Step-1,Increment      1: Step Time =    1.000,"PART-1-1",           751,       8.58975,       6.06422,            0.,NA,NA,"",   260.500E-03,   258.824E-03,   29.4998E-03,   278.687E-06
C:/temp/dataset/3/26_1.odb,Step-1,Increment      1: Step Time =    1.000,"PART-1-1",           752,       1.04870,      -2.29850,            0.,NA,NA,"",   200.862E-03,   145.950E-03,   138.001E-03,   1.05164E-03
C:/temp/dataset/3/26_1.odb,Step-1,Increment      1: Step Time =    1.000,"PART-1-1",           753,      -1.88356,       2.26041,            0.,NA,NA,"",   276.894E-03,   210.782E-03,   179.558E-03,   190.042E-06
C:/temp/dataset/3/26_1.odb,Step-1,Increment      1: Step Time =    1.000,"PART-1-1",           754,      -2.91638,       1.44829,            0.,NA,NA,"",   278.604E-03,   199.126E-03,   194.857E-03,   146.339E-06
C:/temp/dataset/3/26_1.odb,Step-1,Increment      1: Step Time =    1.000,"PART-1-1",           755,       3.03453,      -2.52132,            0.,NA,NA,"",   179.118E-03,   143.656E-03,   106.986E-03,   1.64465E-03
C:/temp/dataset/3/26_1.odb,Step-1,Increment      1: Step Time =    1.000,"PART-1-1",           756,       6.99799,      -3.46075,            0.,NA,NA,"",   136.729E-03,   128.950E-03,   45.4612E-03,   1.55047E-03
C:/temp/dataset/3/26_1.odb,Step-1,Increment      1: Step Time =    1.000,"PART-1-1",           757,       7.63560,  -984.386E-03,            0.,NA,NA,"",   167.405E-03,   162.663E-03,   39.5617E-03,   1.09639E-03
C:/temp/dataset/3/26_1.odb,Step-1,Increment      1: Step Time =    1.000,"PART-1-1",           758,       6.14771,      -1.67534,            0.,NA,NA,"",   165.160E-03,   154.203E-03,   59.1549E-03,   1.35971E-03
C:/temp/dataset/3/26_1.odb,Step-1,Increment      1: Step Time =    1.000,"PART-1-1",           759,       4.94795,      -26.8240,            0.,NA,NA,"",   2.24225E-03,   211.199E-06,   2.23228E-03,   1.04867E-03
C:/temp/dataset/3/26_1.odb,Step-1,Increment      1: Step Time =    1.000,"PART-1-1",           760,      -11.2341,      -25.0541,            0.,NA,NA,"",   777.748E-06,   777.742E-06,   3.21085E-06,   52.3947E-06
C:/temp/dataset/3/26_1.odb,Step-1,Increment      1: Step Time =    1.000,"PART-1-1",           761,      -9.98574,      -26.3021,            0.,NA,NA,"",   665.465E-06,   665.237E-06,  -17.4039E-06,   92.6080E-06
C:/temp/dataset/3/26_1.odb,Step-1,Increment      1: Step Time =    1.000,"PART-1-1",           762,           15.,        -26.25,            0.,NA,NA,"",   2.30809E-03,  -1.32112E-03,  -1.89259E-03,   1.03908E-03
C:/temp/dataset/3/26_1.odb,Step-1,Increment      1: Step Time =    1.000,"PART-1-1",           763,       9.63478,      -24.7731,            0.,NA,NA,"",   2.75404E-03,  -2.09505E-03,   1.78760E-03,   921.996E-06
C:/temp/dataset/3/26_1.odb,Step-1,Increment      1: Step Time =    1.000,"PART-1-1",           764,       9.83383,   250.169E-03,            0.,NA,NA,"",   178.959E-03,   178.558E-03,   11.9734E-03,   927.590E-06
C:/temp/dataset/3/26_1.odb,Step-1,Increment      1: Step Time =    1.000,"PART-1-1",           765,       11.1222,       22.5628,            0.,NA,NA,"",   479.292E-03,   479.258E-03,  -5.70742E-03,   199.568E-09
C:/temp/dataset/3/26_1.odb,Step-1,Increment      1: Step Time =    1.000,"PART-1-1",           766,       9.84566,       21.3197,            0.,NA,NA,"",   462.878E-03,   462.736E-03,   11.4881E-03,   467.069E-09
C:/temp/dataset/3/26_1.odb,Step-1,Increment      1: Step Time =    1.000,"PART-1-1",           767,      -3.18112,  -190.353E-03,            0.,NA,NA,"",   265.352E-03,   175.460E-03,   199.062E-03,   163.073E-06
C:/temp/dataset/3/26_1.odb,Step-1,Increment      1: Step Time =    1.000,"PART-1-1",           768,       4.54417,       1.21940,            0.,NA,NA,"",   212.258E-03,   194.968E-03,   83.9113E-03,   653.589E-06
C:/temp/dataset/3/26_1.odb,Step-1,Increment      1: Step Time =    1.000,"PART-1-1",           769,       9.22107,       9.51460,            0.,NA,NA,"",   305.538E-03,   304.818E-03,   20.9566E-03,   29.1836E-06
C:/temp/dataset/3/26_1.odb,Step-1,Increment      1: Step Time =    1.000,"PART-1-1",           770,       11.1709,      -3.71800,            0.,NA,NA,"",   124.956E-03,   124.886E-03,  -4.19903E-03,   930.096E-06
C:/temp/dataset/3/26_1.odb,Step-1,Increment      1: Step Time =    1.000,"PART-1-1",           771,       11.0221,      -5.16095,            0.,NA,NA,"",   107.033E-03,   107.013E-03,  -2.10742E-03,   758.286E-06
C:/temp/dataset/3/26_1.odb,Step-1,Increment      1: Step Time =    1.000,"PART-1-1",           772,       12.3085,      -4.70099,            0.,NA,NA,"",   114.102E-03,   112.902E-03,  -16.5049E-03,   1.02417E-03
C:/temp/dataset/3/26_1.odb,Step-1,Increment      1: Step Time =    1.000,"PART-1-1",           773,       5.03877,      -2.41022,            0.,NA,NA,"",   163.006E-03,   144.887E-03,   74.6907E-03,   1.66303E-03
C:/temp/dataset/3/26_1.odb,Step-1,Increment      1: Step Time =    1.000,"PART-1-1",           774,       11.0080,       9.74440,            0.,NA,NA,"",   307.724E-03,   307.710E-03,  -2.98590E-03,   15.9279E-06
C:/temp/dataset/3/26_1.odb,Step-1,Increment      1: Step Time =    1.000,"PART-1-1",           775,       7.33953,      -23.4839,            0.,NA,NA,"",   5.46141E-03,  -662.883E-06,   5.42103E-03,   1.50220E-03
C:/temp/dataset/3/26_1.odb,Step-1,Increment      1: Step Time =    1.000,"PART-1-1",           776,       6.60048,      -22.7490,            0.,NA,NA,"",   6.99287E-03,   216.904E-06,   6.98950E-03,   1.74129E-03
C:/temp/dataset/3/26_1.odb,Step-1,Increment      1: Step Time =    1.000,"PART-1-1",           777,       5.56839,      -23.3719,            0.,NA,NA,"",   6.23938E-03,   712.268E-06,   6.19860E-03,   1.70260E-03
C:/temp/dataset/3/26_1.odb,Step-1,Increment      1: Step Time =    1.000,"PART-1-1",           778,       5.56431,      -22.1833,            0.,NA,NA,"",   8.13818E-03,   1.30443E-03,   8.03296E-03,   2.03108E-03
C:/temp/dataset/3/26_1.odb,Step-1,Increment      1: Step Time =    1.000,"PART-1-1",           779,       7.31291,      -21.9704,            0.,NA,NA,"",   7.49311E-03,   37.6607E-06,   7.49301E-03,   1.68459E-03
C:/temp/dataset/3/26_1.odb,Step-1,Increment      1: Step Time =    1.000,"PART-1-1",           780,       8.04898,      -22.6975,            0.,NA,NA,"",   5.58726E-03,  -827.043E-06,   5.52571E-03,   1.36139E-03
C:/temp/dataset/3/26_1.odb,Step-1,Increment      1: Step Time =    1.000,"PART-1-1",           781,       5.89213,  -472.373E-03,            0.,NA,NA,"",   182.402E-03,   170.908E-03,   63.7256E-03,   877.956E-06
C:/temp/dataset/3/26_1.odb,Step-1,Increment      1: Step Time =    1.000,"PART-1-1",           782,       8.40014,      -24.0502,            0.,NA,NA,"",   4.00954E-03,  -1.48767E-03,   3.72334E-03,   1.13786E-03
