ODB Name,Step,Frame,Part Instance Name,    êﬂì_ÉâÉxÉã,X,Y,Z,Section Name,Material Name,Section Point,   U-Magnitude,          U-U1,          U-U2,       S-Mises
C:/temp/dataset/3/26_9.odb,Step-1,Increment      1: Step Time =    1.000,"PART-1-1",             1,          -15.,           20.,            0.,NA,NA,"",       5.57862,       4.63380,       3.10626,   800.489E-12
C:/temp/dataset/3/26_9.odb,Step-1,Increment      1: Step Time =    1.000,"PART-1-1",             2,          -15.,           25.,            0.,NA,NA,"",       6.10879,       5.28501,       3.06367,   1.09159E-09
C:/temp/dataset/3/26_9.odb,Step-1,Increment      1: Step Time =    1.000,"PART-1-1",             3,           -5.,           20.,            0.,NA,NA,"",       4.89325,       4.54863,       1.80385,   6.89379E-09
C:/temp/dataset/3/26_9.odb,Step-1,Increment      1: Step Time =    1.000,"PART-1-1",             4,            5.,           20.,            0.,NA,NA,"",       4.49153,       4.46345,   501.448E-03,   1.92130E-06
C:/temp/dataset/3/26_9.odb,Step-1,Increment      1: Step Time =    1.000,"PART-1-1",             5,            5.,          12.5,            0.,NA,NA,"",       3.53206,       3.48656,   565.071E-03,   147.487E-06
C:/temp/dataset/3/26_9.odb,Step-1,Increment      1: Step Time =    1.000,"PART-1-1",             6,            5.,            5.,            0.,NA,NA,"",       2.60295,       2.52638,   626.704E-03,   8.98107E-03
C:/temp/dataset/3/26_9.odb,Step-1,Increment      1: Step Time =    1.000,"PART-1-1",             7,      -1.70000,            5.,            0.,NA,NA,"",       3.05947,       2.62278,       1.57525,   119.968E-06
C:/temp/dataset/3/26_9.odb,Step-1,Increment      1: Step Time =    1.000,"PART-1-1",             8,      -8.40000,            5.,            0.,NA,NA,"",       3.68019,       2.68658,       2.51518,   205.938E-06
C:/temp/dataset/3/26_9.odb,Step-1,Increment      1: Step Time =    1.000,"PART-1-1",             9,          -15.,            5.,            0.,NA,NA,"",       4.40091,       2.75072,       3.43533,   3.93444E-06
C:/temp/dataset/3/26_9.odb,Step-1,Increment      1: Step Time =    1.000,"PART-1-1",            10,          -15.,            0.,            0.,NA,NA,"",       4.04427,       2.05355,       3.48411,   31.4629E-06
C:/temp/dataset/3/26_9.odb,Step-1,Increment      1: Step Time =    1.000,"PART-1-1",            11,          -15.,           -5.,            0.,NA,NA,"",       3.78434,       1.35649,       3.53287,   4.26073E-06
C:/temp/dataset/3/26_9.odb,Step-1,Increment      1: Step Time =    1.000,"PART-1-1",            12,      -8.30000,           -5.,            0.,NA,NA,"",       2.90181,       1.29139,       2.59862,   220.814E-06
C:/temp/dataset/3/26_9.odb,Step-1,Increment      1: Step Time =    1.000,"PART-1-1",            13,      -1.60000,           -5.,            0.,NA,NA,"",       2.08340,       1.23407,       1.67858,   5.19223E-03
C:/temp/dataset/3/26_9.odb,Step-1,Increment      1: Step Time =    1.000,"PART-1-1",            14,            5.,           -5.,            0.,NA,NA,"",       1.34930,       1.18129,   652.052E-03,   49.4626E-03
C:/temp/dataset/3/26_9.odb,Step-1,Increment      1: Step Time =    1.000,"PART-1-1",            15,            5.,         -12.5,            0.,NA,NA,"",   632.397E-03,   488.689E-03,   401.384E-03,   37.9216E-03
C:/temp/dataset/3/26_9.odb,Step-1,Increment      1: Step Time =    1.000,"PART-1-1",            16,            5.,          -20.,            0.,NA,NA,"",   130.372E-03,   43.2325E-03,   122.996E-03,   51.1268E-03
C:/temp/dataset/3/26_9.odb,Step-1,Increment      1: Step Time =    1.000,"PART-1-1",            17,           -5.,          -20.,            0.,NA,NA,"",   15.2636E-03,   15.2375E-03,  -892.396E-06,   292.778E-06
C:/temp/dataset/3/26_9.odb,Step-1,Increment      1: Step Time =    1.000,"PART-1-1",            18,          -15.,          -20.,            0.,NA,NA,"",   16.8308E-03,   16.3703E-03,   3.90995E-03,   11.7707E-06
C:/temp/dataset/3/26_9.odb,Step-1,Increment      1: Step Time =    1.000,"PART-1-1",            19,          -15.,          -25.,            0.,NA,NA,"",   11.3434E-03,   10.5438E-03,   4.18327E-03,   53.0111E-06
C:/temp/dataset/3/26_9.odb,Step-1,Increment      1: Step Time =    1.000,"PART-1-1",            20,          -15.,          -30.,            0.,NA,NA,"",            0.,   925.678E-42,   1.47062E-39,   2.82243E-03
C:/temp/dataset/3/26_9.odb,Step-1,Increment      1: Step Time =    1.000,"PART-1-1",            21,           15.,          -30.,            0.,NA,NA,"",            0.,   789.766E-42,  -2.21222E-39,   4.47067E-03
C:/temp/dataset/3/26_9.odb,Step-1,Increment      1: Step Time =    1.000,"PART-1-1",            22,           15.,         -22.5,            0.,NA,NA,"",   84.3957E-03,   17.7665E-03,  -82.5045E-03,   19.9789E-03
C:/temp/dataset/3/26_9.odb,Step-1,Increment      1: Step Time =    1.000,"PART-1-1",            23,           15.,          -15.,            0.,NA,NA,"",   374.225E-03,   273.359E-03,  -255.577E-03,   26.6939E-03
C:/temp/dataset/3/26_9.odb,Step-1,Increment      1: Step Time =    1.000,"PART-1-1",            24,           15.,          -7.5,            0.,NA,NA,"",   977.040E-03,   866.515E-03,  -451.396E-03,   23.2012E-03
C:/temp/dataset/3/26_9.odb,Step-1,Increment      1: Step Time =    1.000,"PART-1-1",            25,           15.,            0.,            0.,NA,NA,"",       1.86230,       1.75775,  -615.205E-03,   7.65100E-03
C:/temp/dataset/3/26_9.odb,Step-1,Increment      1: Step Time =    1.000,"PART-1-1",            26,           15.,           7.5,            0.,NA,NA,"",       2.83504,       2.74836,  -695.689E-03,   300.429E-06
C:/temp/dataset/3/26_9.odb,Step-1,Increment      1: Step Time =    1.000,"PART-1-1",            27,           15.,           15.,            0.,NA,NA,"",       3.80354,       3.72715,  -758.430E-03,   48.0373E-06
C:/temp/dataset/3/26_9.odb,Step-1,Increment      1: Step Time =    1.000,"PART-1-1",            28,           15.,          22.5,            0.,NA,NA,"",       4.77521,       4.70389,  -822.242E-03,   1.31256E-06
C:/temp/dataset/3/26_9.odb,Step-1,Increment      1: Step Time =    1.000,"PART-1-1",            29,           15.,           30.,            0.,NA,NA,"",       5.74938,       5.68068,  -886.126E-03,   41.6814E-09
C:/temp/dataset/3/26_9.odb,Step-1,Increment      1: Step Time =    1.000,"PART-1-1",            30,           7.5,           30.,            0.,NA,NA,"",       5.74528,       5.74456,   90.6701E-03,   551.601E-09
C:/temp/dataset/3/26_9.odb,Step-1,Increment      1: Step Time =    1.000,"PART-1-1",            31,            0.,           30.,            0.,NA,NA,"",       5.90572,       5.80845,       1.06747,   36.3360E-09
C:/temp/dataset/3/26_9.odb,Step-1,Increment      1: Step Time =    1.000,"PART-1-1",            32,          -7.5,           30.,            0.,NA,NA,"",       6.21798,       5.87233,       2.04428,   3.31974E-09
C:/temp/dataset/3/26_9.odb,Step-1,Increment      1: Step Time =    1.000,"PART-1-1",            33,          -15.,           30.,            0.,NA,NA,"",       6.66075,       5.93621,       3.02108,   819.246E-12
C:/temp/dataset/3/26_9.odb,Step-1,Increment      1: Step Time =    1.000,"PART-1-1",            34,          -15.,          22.5,            0.,NA,NA,"",       5.84061,       4.95940,       3.08497,   923.624E-12
C:/temp/dataset/3/26_9.odb,Step-1,Increment      1: Step Time =    1.000,"PART-1-1",            35,          -7.5,           20.,            0.,NA,NA,"",       5.04170,       4.56992,       2.12945,   3.52164E-09
C:/temp/dataset/3/26_9.odb,Step-1,Increment      1: Step Time =    1.000,"PART-1-1",            36,          -10.,           20.,            0.,NA,NA,"",       5.20640,       4.59122,       2.45506,   1.68041E-09
C:/temp/dataset/3/26_9.odb,Step-1,Increment      1: Step Time =    1.000,"PART-1-1",            37,         -12.5,           20.,            0.,NA,NA,"",       5.38584,       4.61251,       2.78066,   974.323E-12
C:/temp/dataset/3/26_9.odb,Step-1,Increment      1: Step Time =    1.000,"PART-1-1",            38,           2.5,           20.,            0.,NA,NA,"",       4.56037,       4.48475,   827.049E-03,   271.325E-09
C:/temp/dataset/3/26_9.odb,Step-1,Increment      1: Step Time =    1.000,"PART-1-1",            39,            0.,           20.,            0.,NA,NA,"",       4.65113,       4.50604,       1.15265,   64.5187E-09
C:/temp/dataset/3/26_9.odb,Step-1,Increment      1: Step Time =    1.000,"PART-1-1",            40,          -2.5,           20.,            0.,NA,NA,"",       4.76256,       4.52733,       1.47825,   8.48922E-09
C:/temp/dataset/3/26_9.odb,Step-1,Increment      1: Step Time =    1.000,"PART-1-1",            41,            5.,           15.,            0.,NA,NA,"",       3.85080,       3.81219,   543.980E-03,   53.9955E-06
C:/temp/dataset/3/26_9.odb,Step-1,Increment      1: Step Time =    1.000,"PART-1-1",            42,            5.,          17.5,            0.,NA,NA,"",       4.17071,       4.13782,   522.738E-03,   8.64549E-06
C:/temp/dataset/3/26_9.odb,Step-1,Increment      1: Step Time =    1.000,"PART-1-1",            43,            5.,           7.5,            0.,NA,NA,"",       2.90198,       2.83814,   605.369E-03,   1.75276E-03
C:/temp/dataset/3/26_9.odb,Step-1,Increment      1: Step Time =    1.000,"PART-1-1",            44,            5.,           10.,            0.,NA,NA,"",       3.21521,       3.16141,   585.739E-03,   546.976E-06
C:/temp/dataset/3/26_9.odb,Step-1,Increment      1: Step Time =    1.000,"PART-1-1",            45,   533.333E-03,            5.,            0.,NA,NA,"",       2.88656,       2.59828,       1.25745,   1.96351E-03
C:/temp/dataset/3/26_9.odb,Step-1,Increment      1: Step Time =    1.000,"PART-1-1",            46,       2.76667,            5.,            0.,NA,NA,"",       2.73472,       2.56838,   939.220E-03,   6.51914E-03
C:/temp/dataset/3/26_9.odb,Step-1,Increment      1: Step Time =    1.000,"PART-1-1",            47,      -6.16667,            5.,            0.,NA,NA,"",       3.45816,       2.66533,       2.20338,   421.854E-06
C:/temp/dataset/3/26_9.odb,Step-1,Increment      1: Step Time =    1.000,"PART-1-1",            48,      -3.93333,            5.,            0.,NA,NA,"",       3.25058,       2.64433,       1.89044,   567.540E-06
C:/temp/dataset/3/26_9.odb,Step-1,Increment      1: Step Time =    1.000,"PART-1-1",            49,      -12.8000,            5.,            0.,NA,NA,"",       4.15174,       2.72924,       3.12862,   12.2850E-06
C:/temp/dataset/3/26_9.odb,Step-1,Increment      1: Step Time =    1.000,"PART-1-1",            50,      -10.6000,            5.,            0.,NA,NA,"",       3.91096,       2.70782,       2.82193,   74.9896E-06
C:/temp/dataset/3/26_9.odb,Step-1,Increment      1: Step Time =    1.000,"PART-1-1",            51,          -15.,           2.5,            0.,NA,NA,"",       4.21191,       2.40214,       3.45975,   12.8132E-06
C:/temp/dataset/3/26_9.odb,Step-1,Increment      1: Step Time =    1.000,"PART-1-1",            52,          -15.,          -2.5,            0.,NA,NA,"",       3.90082,       1.70502,       3.50846,   13.0106E-06
C:/temp/dataset/3/26_9.odb,Step-1,Increment      1: Step Time =    1.000,"PART-1-1",            53,      -10.5333,           -5.,            0.,NA,NA,"",       3.19252,       1.31294,       2.91005,   81.4106E-06
C:/temp/dataset/3/26_9.odb,Step-1,Increment      1: Step Time =    1.000,"PART-1-1",            54,      -12.7667,           -5.,            0.,NA,NA,"",       3.48702,       1.33468,       3.22149,   11.7787E-06
C:/temp/dataset/3/26_9.odb,Step-1,Increment      1: Step Time =    1.000,"PART-1-1",            55,      -3.83333,           -5.,            0.,NA,NA,"",       2.34034,       1.25049,       1.97824,   1.63277E-03
C:/temp/dataset/3/26_9.odb,Step-1,Increment      1: Step Time =    1.000,"PART-1-1",            56,      -6.06667,           -5.,            0.,NA,NA,"",       2.61667,       1.27045,       2.28756,   624.300E-06
C:/temp/dataset/3/26_9.odb,Step-1,Increment      1: Step Time =    1.000,"PART-1-1",            57,       2.80000,           -5.,            0.,NA,NA,"",       1.58090,       1.18696,       1.04422,   19.2096E-03
C:/temp/dataset/3/26_9.odb,Step-1,Increment      1: Step Time =    1.000,"PART-1-1",            58,   600.000E-03,           -5.,            0.,NA,NA,"",       1.83378,       1.21096,       1.37707,   8.86171E-03
C:/temp/dataset/3/26_9.odb,Step-1,Increment      1: Step Time =    1.000,"PART-1-1",            59,            5.,          -10.,            0.,NA,NA,"",   842.987E-03,   694.772E-03,   477.410E-03,   36.4795E-03
C:/temp/dataset/3/26_9.odb,Step-1,Increment      1: Step Time =    1.000,"PART-1-1",            60,            5.,          -7.5,            0.,NA,NA,"",       1.07843,   929.416E-03,   546.982E-03,   38.7293E-03
C:/temp/dataset/3/26_9.odb,Step-1,Increment      1: Step Time =    1.000,"PART-1-1",            61,            5.,         -17.5,            0.,NA,NA,"",   295.950E-03,   172.794E-03,   240.267E-03,   41.9133E-03
C:/temp/dataset/3/26_9.odb,Step-1,Increment      1: Step Time =    1.000,"PART-1-1",            62,            5.,          -15.,            0.,NA,NA,"",   450.935E-03,   315.817E-03,   321.873E-03,   37.3998E-03
C:/temp/dataset/3/26_9.odb,Step-1,Increment      1: Step Time =    1.000,"PART-1-1",            63,          -2.5,          -20.,            0.,NA,NA,"",   14.8283E-03,   14.5221E-03,   2.99791E-03,   450.053E-06
C:/temp/dataset/3/26_9.odb,Step-1,Increment      1: Step Time =    1.000,"PART-1-1",            64,            0.,          -20.,            0.,NA,NA,"",   19.7514E-03,   13.9449E-03,   13.9877E-03,   1.61123E-03
C:/temp/dataset/3/26_9.odb,Step-1,Increment      1: Step Time =    1.000,"PART-1-1",            65,           2.5,          -20.,            0.,NA,NA,"",   42.8458E-03,   13.9796E-03,   40.5011E-03,   12.1135E-03
C:/temp/dataset/3/26_9.odb,Step-1,Increment      1: Step Time =    1.000,"PART-1-1",            66,         -12.5,          -20.,            0.,NA,NA,"",   16.3410E-03,   16.2838E-03,   1.36645E-03,   90.9378E-06
C:/temp/dataset/3/26_9.odb,Step-1,Increment      1: Step Time =    1.000,"PART-1-1",            67,          -10.,          -20.,            0.,NA,NA,"",   16.0215E-03,   16.0076E-03,  -667.966E-06,   132.702E-06
C:/temp/dataset/3/26_9.odb,Step-1,Increment      1: Step Time =    1.000,"PART-1-1",            68,          -7.5,          -20.,            0.,NA,NA,"",   15.7831E-03,   15.6957E-03,  -1.65916E-03,   152.421E-06
C:/temp/dataset/3/26_9.odb,Step-1,Increment      1: Step Time =    1.000,"PART-1-1",            69,          -15.,         -22.5,            0.,NA,NA,"",   14.3688E-03,   13.8016E-03,   3.99698E-03,   84.3492E-06
C:/temp/dataset/3/26_9.odb,Step-1,Increment      1: Step Time =    1.000,"PART-1-1",            70,          -15.,         -27.5,            0.,NA,NA,"",   7.01470E-03,   5.96062E-03,   3.69825E-03,   850.261E-06
C:/temp/dataset/3/26_9.odb,Step-1,Increment      1: Step Time =    1.000,"PART-1-1",            71,          12.5,          -30.,            0.,NA,NA,"",            0.,  -5.07951E-39,  -6.18169E-39,   6.48006E-03
C:/temp/dataset/3/26_9.odb,Step-1,Increment      1: Step Time =    1.000,"PART-1-1",            72,           10.,          -30.,            0.,NA,NA,"",            0.,  -9.53912E-39,  -3.21556E-39,   6.26443E-03
C:/temp/dataset/3/26_9.odb,Step-1,Increment      1: Step Time =    1.000,"PART-1-1",            73,           7.5,          -30.,            0.,NA,NA,"",            0.,  -2.16463E-39,   13.0425E-39,   6.05578E-03
C:/temp/dataset/3/26_9.odb,Step-1,Increment      1: Step Time =    1.000,"PART-1-1",            74,            5.,          -30.,            0.,NA,NA,"",            0.,  -5.34304E-39,   20.7036E-39,   6.31528E-03
C:/temp/dataset/3/26_9.odb,Step-1,Increment      1: Step Time =    1.000,"PART-1-1",            75,           2.5,          -30.,            0.,NA,NA,"",            0.,   360.087E-42,   14.6834E-39,   6.40050E-03
C:/temp/dataset/3/26_9.odb,Step-1,Increment      1: Step Time =    1.000,"PART-1-1",            76,            0.,          -30.,            0.,NA,NA,"",            0.,   3.50335E-39,   7.39661E-39,   5.71107E-03
C:/temp/dataset/3/26_9.odb,Step-1,Increment      1: Step Time =    1.000,"PART-1-1",            77,          -2.5,          -30.,            0.,NA,NA,"",            0.,   9.19442E-39,   11.2276E-39,   4.47806E-03
C:/temp/dataset/3/26_9.odb,Step-1,Increment      1: Step Time =    1.000,"PART-1-1",            78,           -5.,          -30.,            0.,NA,NA,"",            0.,   3.94737E-39,  -206.847E-42,   3.29928E-03
C:/temp/dataset/3/26_9.odb,Step-1,Increment      1: Step Time =    1.000,"PART-1-1",            79,          -7.5,          -30.,            0.,NA,NA,"",            0.,   3.15280E-39,  -1.00464E-39,   2.37816E-03
C:/temp/dataset/3/26_9.odb,Step-1,Increment      1: Step Time =    1.000,"PART-1-1",            80,          -10.,          -30.,            0.,NA,NA,"",            0.,   3.37769E-39,   3.26735E-39,   1.76539E-03
C:/temp/dataset/3/26_9.odb,Step-1,Increment      1: Step Time =    1.000,"PART-1-1",            81,         -12.5,          -30.,            0.,NA,NA,"",            0.,   2.99755E-39,   2.92601E-39,   1.25930E-03
C:/temp/dataset/3/26_9.odb,Step-1,Increment      1: Step Time =    1.000,"PART-1-1",            82,           15.,          -25.,            0.,NA,NA,"",   43.0164E-03,  -3.11584E-03,  -42.9034E-03,   15.0174E-03
C:/temp/dataset/3/26_9.odb,Step-1,Increment      1: Step Time =    1.000,"PART-1-1",            83,           15.,         -27.5,            0.,NA,NA,"",   15.4809E-03,  -5.01223E-03,  -14.6471E-03,   10.1653E-03
C:/temp/dataset/3/26_9.odb,Step-1,Increment      1: Step Time =    1.000,"PART-1-1",            84,           15.,         -17.5,            0.,NA,NA,"",   244.263E-03,   150.297E-03,  -192.550E-03,   26.4777E-03
C:/temp/dataset/3/26_9.odb,Step-1,Increment      1: Step Time =    1.000,"PART-1-1",            85,           15.,          -20.,            0.,NA,NA,"",   148.743E-03,   66.2421E-03,  -133.179E-03,   24.1461E-03
C:/temp/dataset/3/26_9.odb,Step-1,Increment      1: Step Time =    1.000,"PART-1-1",            86,           15.,          -10.,            0.,NA,NA,"",   740.422E-03,   632.160E-03,  -385.484E-03,   25.1559E-03
C:/temp/dataset/3/26_9.odb,Step-1,Increment      1: Step Time =    1.000,"PART-1-1",            87,           15.,         -12.5,            0.,NA,NA,"",   539.582E-03,   434.406E-03,  -320.063E-03,   26.0084E-03
C:/temp/dataset/3/26_9.odb,Step-1,Increment      1: Step Time =    1.000,"PART-1-1",            88,           15.,          -2.5,            0.,NA,NA,"",       1.54610,       1.43690,  -570.723E-03,   13.6413E-03
C:/temp/dataset/3/26_9.odb,Step-1,Increment      1: Step Time =    1.000,"PART-1-1",            89,           15.,           -5.,            0.,NA,NA,"",       1.24765,       1.13643,  -514.945E-03,   19.3977E-03
C:/temp/dataset/3/26_9.odb,Step-1,Increment      1: Step Time =    1.000,"PART-1-1",            90,           15.,            5.,            0.,NA,NA,"",       2.51118,       2.41906,  -673.900E-03,   435.896E-06
C:/temp/dataset/3/26_9.odb,Step-1,Increment      1: Step Time =    1.000,"PART-1-1",            91,           15.,           2.5,            0.,NA,NA,"",       2.18600,       2.08768,  -648.219E-03,   3.18154E-03
C:/temp/dataset/3/26_9.odb,Step-1,Increment      1: Step Time =    1.000,"PART-1-1",            92,           15.,          12.5,            0.,NA,NA,"",       3.48051,       3.40151,  -737.330E-03,   141.138E-06
C:/temp/dataset/3/26_9.odb,Step-1,Increment      1: Step Time =    1.000,"PART-1-1",            93,           15.,           10.,            0.,NA,NA,"",       3.15784,       3.07549,  -716.456E-03,   298.607E-06
C:/temp/dataset/3/26_9.odb,Step-1,Increment      1: Step Time =    1.000,"PART-1-1",            94,           15.,           20.,            0.,NA,NA,"",       4.45096,       4.37830,  -800.947E-03,   880.429E-09
C:/temp/dataset/3/26_9.odb,Step-1,Increment      1: Step Time =    1.000,"PART-1-1",            95,           15.,          17.5,            0.,NA,NA,"",       4.12704,       4.05272,  -779.665E-03,   10.0008E-06
C:/temp/dataset/3/26_9.odb,Step-1,Increment      1: Step Time =    1.000,"PART-1-1",            96,           15.,          27.5,            0.,NA,NA,"",       5.42447,       5.35508,  -864.832E-03,   206.217E-09
C:/temp/dataset/3/26_9.odb,Step-1,Increment      1: Step Time =    1.000,"PART-1-1",            97,           15.,           25.,            0.,NA,NA,"",       5.09973,       5.02948,  -843.538E-03,   791.079E-09
C:/temp/dataset/3/26_9.odb,Step-1,Increment      1: Step Time =    1.000,"PART-1-1",            98,           10.,           30.,            0.,NA,NA,"",       5.72809,       5.72327,  -234.929E-03,   507.814E-09
C:/temp/dataset/3/26_9.odb,Step-1,Increment      1: Step Time =    1.000,"PART-1-1",            99,          12.5,           30.,            0.,NA,NA,"",       5.72946,       5.70197,  -560.528E-03,   184.965E-09
C:/temp/dataset/3/26_9.odb,Step-1,Increment      1: Step Time =    1.000,"PART-1-1",           100,           2.5,           30.,            0.,NA,NA,"",       5.83451,       5.78715,   741.872E-03,   150.049E-09
C:/temp/dataset/3/26_9.odb,Step-1,Increment      1: Step Time =    1.000,"PART-1-1",           101,            5.,           30.,            0.,NA,NA,"",       5.78086,       5.76586,   416.271E-03,   364.912E-09
C:/temp/dataset/3/26_9.odb,Step-1,Increment      1: Step Time =    1.000,"PART-1-1",           102,           -5.,           30.,            0.,NA,NA,"",       6.09823,       5.85103,       1.71868,   5.43866E-09
C:/temp/dataset/3/26_9.odb,Step-1,Increment      1: Step Time =    1.000,"PART-1-1",           103,          -2.5,           30.,            0.,NA,NA,"",       5.99387,       5.82974,       1.39308,   3.82144E-09
C:/temp/dataset/3/26_9.odb,Step-1,Increment      1: Step Time =    1.000,"PART-1-1",           104,         -12.5,           30.,            0.,NA,NA,"",       6.50014,       5.91492,       2.69548,   908.538E-12
C:/temp/dataset/3/26_9.odb,Step-1,Increment      1: Step Time =    1.000,"PART-1-1",           105,          -10.,           30.,            0.,NA,NA,"",       6.35225,       5.89362,       2.36988,   1.56488E-09
C:/temp/dataset/3/26_9.odb,Step-1,Increment      1: Step Time =    1.000,"PART-1-1",           106,          -15.,          27.5,            0.,NA,NA,"",       6.38240,       5.61061,       3.04238,   963.839E-12
C:/temp/dataset/3/26_9.odb,Step-1,Increment      1: Step Time =    1.000,"PART-1-1",           107,      -12.5013,       25.0052,            0.,NA,NA,"",       5.93394,       5.26440,       2.73820,   1.02282E-09
C:/temp/dataset/3/26_9.odb,Step-1,Increment      1: Step Time =    1.000,"PART-1-1",           108,      -10.0028,       27.5014,            0.,NA,NA,"",       6.06008,       5.56823,       2.39153,   1.49568E-09
C:/temp/dataset/3/26_9.odb,Step-1,Increment      1: Step Time =    1.000,"PART-1-1",           109,      -2.49865,       22.5268,            0.,NA,NA,"",       5.07014,       4.85642,       1.45655,   20.6832E-09
C:/temp/dataset/3/26_9.odb,Step-1,Increment      1: Step Time =    1.000,"PART-1-1",           110,      -2.51000,       27.5279,            0.,NA,NA,"",       5.68683,       5.50786,       1.41543,   16.7687E-09
C:/temp/dataset/3/26_9.odb,Step-1,Increment      1: Step Time =    1.000,"PART-1-1",           111,       12.3864,       22.5464,            0.,NA,NA,"",       4.75669,       4.73218,  -482.243E-03,   644.588E-09
C:/temp/dataset/3/26_9.odb,Step-1,Increment      1: Step Time =    1.000,"PART-1-1",           112,       7.35369,       17.5509,            0.,NA,NA,"",       4.13005,       4.12441,   215.765E-03,   19.8672E-06
C:/temp/dataset/3/26_9.odb,Step-1,Increment      1: Step Time =    1.000,"PART-1-1",           113,       12.3201,       14.9467,            0.,NA,NA,"",       3.76533,       3.74306,  -408.859E-03,   60.4284E-06
C:/temp/dataset/3/26_9.odb,Step-1,Increment      1: Step Time =    1.000,"PART-1-1",           114,       13.2599,       7.39194,            0.,NA,NA,"",       2.78863,       2.74927,  -466.917E-03,   393.075E-06
C:/temp/dataset/3/26_9.odb,Step-1,Increment      1: Step Time =    1.000,"PART-1-1",           115,       7.60504,      -5.98204,            0.,NA,NA,"",       1.09213,       1.04924,   303.053E-03,   13.3203E-03
C:/temp/dataset/3/26_9.odb,Step-1,Increment      1: Step Time =    1.000,"PART-1-1",           116,       7.71062,      -13.7665,            0.,NA,NA,"",   401.203E-03,   355.585E-03,   185.803E-03,   21.2763E-03
C:/temp/dataset/3/26_9.odb,Step-1,Increment      1: Step Time =    1.000,"PART-1-1",           117,       11.7208,      -22.4938,            0.,NA,NA,"",   21.1337E-03,   49.2529E-06,  -21.1336E-03,   8.54562E-03
C:/temp/dataset/3/26_9.odb,Step-1,Increment      1: Step Time =    1.000,"PART-1-1",           118,       2.59328,       2.74806,            0.,NA,NA,"",       2.46294,       2.25861,   982.215E-03,   6.56654E-03
C:/temp/dataset/3/26_9.odb,Step-1,Increment      1: Step Time =    1.000,"PART-1-1",           119,      -1.32361,      -2.98462,            0.,NA,NA,"",       2.20852,       1.50692,       1.61454,   5.90747E-03
C:/temp/dataset/3/26_9.odb,Step-1,Increment      1: Step Time =    1.000,"PART-1-1",           120,      -6.00563,       3.11026,            0.,NA,NA,"",       3.25517,       2.39951,       2.19966,   172.031E-06
C:/temp/dataset/3/26_9.odb,Step-1,Increment      1: Step Time =    1.000,"PART-1-1",           121,      -10.4102,       2.53863,            0.,NA,NA,"",       3.67860,       2.36268,       2.81955,   106.048E-06
C:/temp/dataset/3/26_9.odb,Step-1,Increment      1: Step Time =    1.000,"PART-1-1",           122,      -12.6184,  -43.2983E-03,            0.,NA,NA,"",       3.74642,       2.02421,       3.15250,   43.5666E-06
C:/temp/dataset/3/26_9.odb,Step-1,Increment      1: Step Time =    1.000,"PART-1-1",           123,      -3.88272,       3.23189,            0.,NA,NA,"",       3.05840,       2.39576,       1.90109,   253.749E-06
C:/temp/dataset/3/26_9.odb,Step-1,Increment      1: Step Time =    1.000,"PART-1-1",           124,       2.98144,      -22.7363,            0.,NA,NA,"",   51.7627E-03,   28.8310E-03,   42.9901E-03,   16.4376E-03
C:/temp/dataset/3/26_9.odb,Step-1,Increment      1: Step Time =    1.000,"PART-1-1",           125,      -2.42987,      -22.6294,            0.,NA,NA,"",   20.0364E-03,   19.6417E-03,   3.95736E-03,   1.88992E-03
C:/temp/dataset/3/26_9.odb,Step-1,Increment      1: Step Time =    1.000,"PART-1-1",           126,      -9.97348,      -22.5672,            0.,NA,NA,"",   14.2065E-03,   14.1946E-03,  -580.407E-06,   355.144E-06
C:/temp/dataset/3/26_9.odb,Step-1,Increment      1: Step Time =    1.000,"PART-1-1",           127,      -12.4895,      -25.0402,            0.,NA,NA,"",   10.5652E-03,   10.4948E-03,   1.21755E-03,   586.861E-06
C:/temp/dataset/3/26_9.odb,Step-1,Increment      1: Step Time =    1.000,"PART-1-1",           128,       12.8561,      -14.2595,            0.,NA,NA,"",   333.085E-03,   302.431E-03,  -139.573E-03,   12.0265E-03
C:/temp/dataset/3/26_9.odb,Step-1,Increment      1: Step Time =    1.000,"PART-1-1",           129,       12.7281,      -7.33650,            0.,NA,NA,"",   905.688E-03,   877.799E-03,  -223.023E-03,   10.5281E-03
C:/temp/dataset/3/26_9.odb,Step-1,Increment      1: Step Time =    1.000,"PART-1-1",           130,       12.6427,  -96.8002E-03,            0.,NA,NA,"",       1.78621,       1.75849,  -313.481E-03,   7.55090E-03
C:/temp/dataset/3/26_9.odb,Step-1,Increment      1: Step Time =    1.000,"PART-1-1",           131,       7.13014,       10.3328,            0.,NA,NA,"",       3.20106,       3.18636,   306.472E-03,   288.619E-06
C:/temp/dataset/3/26_9.odb,Step-1,Increment      1: Step Time =    1.000,"PART-1-1",           132,       4.95005,       27.5805,            0.,NA,NA,"",       5.46917,       5.45117,   443.384E-03,   272.424E-09
C:/temp/dataset/3/26_9.odb,Step-1,Increment      1: Step Time =    1.000,"PART-1-1",           133,      -4.99957,       22.5148,            0.,NA,NA,"",       5.19170,       4.87615,       1.78238,   4.10764E-09
C:/temp/dataset/3/26_9.odb,Step-1,Increment      1: Step Time =    1.000,"PART-1-1",           134,      -7.50186,       22.5094,            0.,NA,NA,"",       5.33135,       4.89676,       2.10832,   2.06140E-09
C:/temp/dataset/3/26_9.odb,Step-1,Increment      1: Step Time =    1.000,"PART-1-1",           135,       4.93744,       22.5898,            0.,NA,NA,"",       4.82598,       4.80129,   487.536E-03,   778.447E-09
C:/temp/dataset/3/26_9.odb,Step-1,Increment      1: Step Time =    1.000,"PART-1-1",           136,       2.47758,       22.5593,            0.,NA,NA,"",       4.88557,       4.81826,   808.169E-03,   447.393E-09
C:/temp/dataset/3/26_9.odb,Step-1,Increment      1: Step Time =    1.000,"PART-1-1",           137,  -4.46696E-03,       22.5388,            0.,NA,NA,"",       4.96734,       4.83673,       1.13161,   104.010E-09
C:/temp/dataset/3/26_9.odb,Step-1,Increment      1: Step Time =    1.000,"PART-1-1",           138,       7.20686,       12.6699,            0.,NA,NA,"",       3.50080,       3.48987,   276.476E-03,   110.964E-06
C:/temp/dataset/3/26_9.odb,Step-1,Increment      1: Step Time =    1.000,"PART-1-1",           139,       7.30679,       15.0771,            0.,NA,NA,"",       3.81032,       3.80257,   242.968E-03,   57.0779E-06
C:/temp/dataset/3/26_9.odb,Step-1,Increment      1: Step Time =    1.000,"PART-1-1",           140,       7.52839,       5.66323,            0.,NA,NA,"",       2.59466,       2.57819,   291.861E-03,   3.68820E-03
C:/temp/dataset/3/26_9.odb,Step-1,Increment      1: Step Time =    1.000,"PART-1-1",           141,       7.20823,       7.96221,            0.,NA,NA,"",       2.89519,       2.87789,   315.984E-03,   1.27109E-03
C:/temp/dataset/3/26_9.odb,Step-1,Increment      1: Step Time =    1.000,"PART-1-1",           142,      -1.77433,       3.17490,            0.,NA,NA,"",       2.85899,       2.36668,       1.60395,   1.44285E-03
C:/temp/dataset/3/26_9.odb,Step-1,Increment      1: Step Time =    1.000,"PART-1-1",           143,   347.975E-03,       3.01142,            0.,NA,NA,"",       2.66142,       2.32090,       1.30253,   3.76380E-03
C:/temp/dataset/3/26_9.odb,Step-1,Increment      1: Step Time =    1.000,"PART-1-1",           144,      -8.17775,       2.85153,            0.,NA,NA,"",       3.45870,       2.38454,       2.50531,   177.193E-06
C:/temp/dataset/3/26_9.odb,Step-1,Increment      1: Step Time =    1.000,"PART-1-1",           145,      -8.45397,      -3.03463,            0.,NA,NA,"",       3.03619,       1.56654,       2.60085,   192.800E-06
C:/temp/dataset/3/26_9.odb,Step-1,Increment      1: Step Time =    1.000,"PART-1-1",           146,      -12.6978,       2.46856,            0.,NA,NA,"",       3.93647,       2.37526,       3.13910,   45.6116E-06
C:/temp/dataset/3/26_9.odb,Step-1,Increment      1: Step Time =    1.000,"PART-1-1",           147,      -10.5225,      -2.72745,            0.,NA,NA,"",       3.31457,       1.62955,       2.88634,   105.996E-06
C:/temp/dataset/3/26_9.odb,Step-1,Increment      1: Step Time =    1.000,"PART-1-1",           148,      -12.7265,      -2.55241,            0.,NA,NA,"",       3.60501,       1.67549,       3.19200,   45.4824E-06
C:/temp/dataset/3/26_9.odb,Step-1,Increment      1: Step Time =    1.000,"PART-1-1",           149,      -3.80700,      -2.48494,            0.,NA,NA,"",       2.52027,       1.59740,       1.94938,   1.01381E-03
C:/temp/dataset/3/26_9.odb,Step-1,Increment      1: Step Time =    1.000,"PART-1-1",           150,      -6.26959,      -2.94549,            0.,NA,NA,"",       2.77416,       1.55759,       2.29562,   302.981E-06
C:/temp/dataset/3/26_9.odb,Step-1,Increment      1: Step Time =    1.000,"PART-1-1",           151,       2.97297,      -3.34056,            0.,NA,NA,"",       1.74173,       1.43154,   992.139E-03,   17.9893E-03
C:/temp/dataset/3/26_9.odb,Step-1,Increment      1: Step Time =    1.000,"PART-1-1",           152,   836.982E-03,      -3.21922,            0.,NA,NA,"",       1.96492,       1.46203,       1.31278,   11.0874E-03
C:/temp/dataset/3/26_9.odb,Step-1,Increment      1: Step Time =    1.000,"PART-1-1",           153,       7.27849,      -10.7647,            0.,NA,NA,"",   648.949E-03,   590.269E-03,   269.661E-03,   23.9564E-03
C:/temp/dataset/3/26_9.odb,Step-1,Increment      1: Step Time =    1.000,"PART-1-1",           154,       7.20650,      -8.25133,            0.,NA,NA,"",   878.319E-03,   819.631E-03,   315.673E-03,   24.6616E-03
C:/temp/dataset/3/26_9.odb,Step-1,Increment      1: Step Time =    1.000,"PART-1-1",           155,       7.07274,      -17.3233,            0.,NA,NA,"",   217.904E-03,   154.625E-03,   153.536E-03,   27.1553E-03
C:/temp/dataset/3/26_9.odb,Step-1,Increment      1: Step Time =    1.000,"PART-1-1",           156,       6.55788,      -15.2577,            0.,NA,NA,"",   354.480E-03,   274.409E-03,   224.401E-03,   30.7269E-03
C:/temp/dataset/3/26_9.odb,Step-1,Increment      1: Step Time =    1.000,"PART-1-1",           157,      -7.46685,      -22.5818,            0.,NA,NA,"",   15.2329E-03,   15.1703E-03,  -1.37942E-03,   643.750E-06
C:/temp/dataset/3/26_9.odb,Step-1,Increment      1: Step Time =    1.000,"PART-1-1",           158,      -4.95694,      -22.5955,            0.,NA,NA,"",   16.9868E-03,   16.9817E-03,  -416.893E-06,   1.10157E-03
C:/temp/dataset/3/26_9.odb,Step-1,Increment      1: Step Time =    1.000,"PART-1-1",           159,   146.162E-03,      -22.6598,            0.,NA,NA,"",   29.7980E-03,   25.2195E-03,   15.8712E-03,   5.43279E-03
C:/temp/dataset/3/26_9.odb,Step-1,Increment      1: Step Time =    1.000,"PART-1-1",           160,      -12.4860,      -22.5306,            0.,NA,NA,"",   13.9034E-03,   13.8394E-03,   1.33270E-03,   88.7955E-06
C:/temp/dataset/3/26_9.odb,Step-1,Increment      1: Step Time =    1.000,"PART-1-1",           161,       9.96020,      -27.7814,            0.,NA,NA,"",   14.0150E-03,  -13.6975E-03,   2.96602E-03,   5.43619E-03
C:/temp/dataset/3/26_9.odb,Step-1,Increment      1: Step Time =    1.000,"PART-1-1",           162,       7.44077,      -27.8946,            0.,NA,NA,"",   13.0286E-03,  -7.03044E-03,   10.9689E-03,   8.06036E-03
C:/temp/dataset/3/26_9.odb,Step-1,Increment      1: Step Time =    1.000,"PART-1-1",           163,       4.93217,      -27.8625,            0.,NA,NA,"",   13.8670E-03,   2.54656E-03,   13.6312E-03,   9.12258E-03
C:/temp/dataset/3/26_9.odb,Step-1,Increment      1: Step Time =    1.000,"PART-1-1",           164,       2.47767,      -27.7470,            0.,NA,NA,"",   15.0685E-03,   10.0311E-03,   11.2445E-03,   7.62028E-03
C:/temp/dataset/3/26_9.odb,Step-1,Increment      1: Step Time =    1.000,"PART-1-1",           165,   19.5837E-03,      -27.6625,            0.,NA,NA,"",   14.3384E-03,   12.7165E-03,   6.62419E-03,   5.41762E-03
C:/temp/dataset/3/26_9.odb,Step-1,Increment      1: Step Time =    1.000,"PART-1-1",           166,      -2.46955,      -27.6154,            0.,NA,NA,"",   12.2862E-03,   11.9161E-03,   2.99288E-03,   3.75323E-03
C:/temp/dataset/3/26_9.odb,Step-1,Increment      1: Step Time =    1.000,"PART-1-1",           167,      -4.97450,      -27.5844,            0.,NA,NA,"",   9.82234E-03,   9.77334E-03,   979.921E-06,   2.69543E-03
C:/temp/dataset/3/26_9.odb,Step-1,Increment      1: Step Time =    1.000,"PART-1-1",           168,      -7.48283,      -27.5594,            0.,NA,NA,"",   7.72519E-03,   7.72212E-03,   217.862E-06,   2.02108E-03
C:/temp/dataset/3/26_9.odb,Step-1,Increment      1: Step Time =    1.000,"PART-1-1",           169,       12.2865,      -25.1793,            0.,NA,NA,"",   24.2034E-03,  -15.7870E-03,  -18.3460E-03,   8.30571E-03
C:/temp/dataset/3/26_9.odb,Step-1,Increment      1: Step Time =    1.000,"PART-1-1",           170,       11.6753,      -16.4340,            0.,NA,NA,"",   185.885E-03,   178.130E-03,  -53.1338E-03,   5.18607E-03
C:/temp/dataset/3/26_9.odb,Step-1,Increment      1: Step Time =    1.000,"PART-1-1",           171,       11.9685,      -19.5802,            0.,NA,NA,"",   72.2842E-03,   56.8716E-03,  -44.6165E-03,   8.51696E-03
C:/temp/dataset/3/26_9.odb,Step-1,Increment      1: Step Time =    1.000,"PART-1-1",           172,       13.3291,      -9.93034,            0.,NA,NA,"",   673.677E-03,   629.834E-03,  -239.060E-03,   14.2646E-03
C:/temp/dataset/3/26_9.odb,Step-1,Increment      1: Step Time =    1.000,"PART-1-1",           173,       13.4212,      -12.1607,            0.,NA,NA,"",   495.118E-03,   448.699E-03,  -209.312E-03,   15.4616E-03
C:/temp/dataset/3/26_9.odb,Step-1,Increment      1: Step Time =    1.000,"PART-1-1",           174,       12.9633,      -2.52247,            0.,NA,NA,"",       1.47523,       1.43993,  -320.781E-03,   9.63568E-03
C:/temp/dataset/3/26_9.odb,Step-1,Increment      1: Step Time =    1.000,"PART-1-1",           175,       13.1247,      -4.84738,            0.,NA,NA,"",       1.19293,       1.15361,  -303.764E-03,   11.6147E-03
C:/temp/dataset/3/26_9.odb,Step-1,Increment      1: Step Time =    1.000,"PART-1-1",           176,       13.1131,       5.12757,            0.,NA,NA,"",       2.48889,       2.45189,  -427.566E-03,   1.59216E-03
C:/temp/dataset/3/26_9.odb,Step-1,Increment      1: Step Time =    1.000,"PART-1-1",           177,       12.1418,       2.60140,            0.,NA,NA,"",       2.14168,       2.12347,  -278.745E-03,   4.79827E-03
C:/temp/dataset/3/26_9.odb,Step-1,Increment      1: Step Time =    1.000,"PART-1-1",           178,       12.1760,       12.1629,            0.,NA,NA,"",       3.40154,       3.38176,  -366.304E-03,   110.880E-06
C:/temp/dataset/3/26_9.odb,Step-1,Increment      1: Step Time =    1.000,"PART-1-1",           179,       13.0236,       9.64002,            0.,NA,NA,"",       3.07942,       3.04557,  -455.341E-03,   58.8877E-06
C:/temp/dataset/3/26_9.odb,Step-1,Increment      1: Step Time =    1.000,"PART-1-1",           180,       12.3784,       20.0377,            0.,NA,NA,"",       4.42946,       4.40553,  -459.834E-03,   5.19219E-06
C:/temp/dataset/3/26_9.odb,Step-1,Increment      1: Step Time =    1.000,"PART-1-1",           181,       12.3660,       17.5135,            0.,NA,NA,"",       4.10024,       4.07691,  -436.716E-03,   20.7644E-06
C:/temp/dataset/3/26_9.odb,Step-1,Increment      1: Step Time =    1.000,"PART-1-1",           182,       12.4264,       25.0333,            0.,NA,NA,"",       5.08126,       5.05574,  -508.636E-03,   497.960E-09
C:/temp/dataset/3/26_9.odb,Step-1,Increment      1: Step Time =    1.000,"PART-1-1",           183,       7.43491,       27.5684,            0.,NA,NA,"",       5.42975,       5.42842,   119.858E-03,   234.355E-09
C:/temp/dataset/3/26_9.odb,Step-1,Increment      1: Step Time =    1.000,"PART-1-1",           184,  -17.4965E-03,       27.5503,            0.,NA,NA,"",       5.59683,       5.48954,       1.09062,   75.2713E-09
C:/temp/dataset/3/26_9.odb,Step-1,Increment      1: Step Time =    1.000,"PART-1-1",           185,       2.47067,       27.5656,            0.,NA,NA,"",       5.52378,       5.47035,   766.427E-03,   191.772E-09
C:/temp/dataset/3/26_9.odb,Step-1,Increment      1: Step Time =    1.000,"PART-1-1",           186,      -7.50286,       27.5043,            0.,NA,NA,"",       5.91952,       5.54732,       2.06591,   2.00525E-09
C:/temp/dataset/3/26_9.odb,Step-1,Increment      1: Step Time =    1.000,"PART-1-1",           187,      -5.00635,       27.5119,            0.,NA,NA,"",       5.79466,       5.52703,       1.74070,   1.55995E-09
C:/temp/dataset/3/26_9.odb,Step-1,Increment      1: Step Time =    1.000,"PART-1-1",           188,      -12.5019,       27.5019,            0.,NA,NA,"",       6.21495,       5.58958,       2.71701,   1.05139E-09
C:/temp/dataset/3/26_9.odb,Step-1,Increment      1: Step Time =    1.000,"PART-1-1",           189,      -12.5001,       22.5034,            0.,NA,NA,"",       5.65715,       4.93856,       2.75934,   1.09442E-09
C:/temp/dataset/3/26_9.odb,Step-1,Increment      1: Step Time =    1.000,"PART-1-1",           190,      -5.00429,       25.0191,            0.,NA,NA,"",       5.49254,       5.20235,       1.76166,   3.21031E-09
C:/temp/dataset/3/26_9.odb,Step-1,Increment      1: Step Time =    1.000,"PART-1-1",           191,  -15.9173E-03,       25.0642,            0.,NA,NA,"",       5.28399,       5.16574,       1.11159,   95.9038E-09
C:/temp/dataset/3/26_9.odb,Step-1,Increment      1: Step Time =    1.000,"PART-1-1",           192,       9.74355,       15.0604,            0.,NA,NA,"",       3.78046,       3.77974,  -74.1796E-03,   63.8538E-06
C:/temp/dataset/3/26_9.odb,Step-1,Increment      1: Step Time =    1.000,"PART-1-1",           193,       9.51986,       12.6989,            0.,NA,NA,"",       3.47418,       3.47409,  -24.7903E-03,   119.189E-06
C:/temp/dataset/3/26_9.odb,Step-1,Increment      1: Step Time =    1.000,"PART-1-1",           194,       12.1898,      -11.7554,            0.,NA,NA,"",   492.187E-03,   477.002E-03,  -121.312E-03,   7.47681E-03
C:/temp/dataset/3/26_9.odb,Step-1,Increment      1: Step Time =    1.000,"PART-1-1",           195,       9.78251,      -13.4248,            0.,NA,NA,"",   365.257E-03,   361.125E-03,   54.7831E-03,   8.08442E-03
C:/temp/dataset/3/26_9.odb,Step-1,Increment      1: Step Time =    1.000,"PART-1-1",           196,       7.24032,      -19.5057,            0.,NA,NA,"",   122.199E-03,   60.3391E-03,   106.263E-03,   16.2661E-03
C:/temp/dataset/3/26_9.odb,Step-1,Increment      1: Step Time =    1.000,"PART-1-1",           197,      -10.0066,  -139.817E-03,            0.,NA,NA,"",       3.42357,       1.98509,       2.78931,   127.205E-06
C:/temp/dataset/3/26_9.odb,Step-1,Increment      1: Step Time =    1.000,"PART-1-1",           198,      -8.39380,      -1.43672,            0.,NA,NA,"",       3.13678,       1.78840,       2.57702,   207.110E-06
C:/temp/dataset/3/26_9.odb,Step-1,Increment      1: Step Time =    1.000,"PART-1-1",           199,      -5.07121,  -530.035E-03,            0.,NA,NA,"",       2.82374,       1.88178,       2.10533,   320.325E-06
C:/temp/dataset/3/26_9.odb,Step-1,Increment      1: Step Time =    1.000,"PART-1-1",           200,      -12.5003,      -27.5198,            0.,NA,NA,"",   5.73473E-03,   5.65800E-03,   934.958E-06,   1.41329E-03
C:/temp/dataset/3/26_9.odb,Step-1,Increment      1: Step Time =    1.000,"PART-1-1",           201,       8.97180,      -8.86122,            0.,NA,NA,"",   754.601E-03,   740.473E-03,   145.334E-03,   11.2073E-03
C:/temp/dataset/3/26_9.odb,Step-1,Increment      1: Step Time =    1.000,"PART-1-1",           202,      -2.50561,       25.0360,            0.,NA,NA,"",       5.37853,       5.18327,       1.43609,   25.7956E-09
C:/temp/dataset/3/26_9.odb,Step-1,Increment      1: Step Time =    1.000,"PART-1-1",           203,      -7.50383,       25.0106,            0.,NA,NA,"",       5.62420,       5.22254,       2.08728,   1.77405E-09
C:/temp/dataset/3/26_9.odb,Step-1,Increment      1: Step Time =    1.000,"PART-1-1",           204,       2.46362,       25.0850,            0.,NA,NA,"",       5.20737,       5.14734,   788.475E-03,   283.823E-09
C:/temp/dataset/3/26_9.odb,Step-1,Increment      1: Step Time =    1.000,"PART-1-1",           205,       9.17638,       10.5785,            0.,NA,NA,"",       3.20119,       3.20096,   38.2030E-03,   132.906E-06
C:/temp/dataset/3/26_9.odb,Step-1,Increment      1: Step Time =    1.000,"PART-1-1",           206,       9.65111,       6.46520,            0.,NA,NA,"",       2.66075,       2.66073,   10.3833E-03,   1.70867E-03
C:/temp/dataset/3/26_9.odb,Step-1,Increment      1: Step Time =    1.000,"PART-1-1",           207,      -1.99278,       1.34592,            0.,NA,NA,"",       2.68415,       2.11401,       1.65399,   2.09215E-03
C:/temp/dataset/3/26_9.odb,Step-1,Increment      1: Step Time =    1.000,"PART-1-1",           208,      -5.69490,       1.29843,            0.,NA,NA,"",       3.05287,       2.14316,       2.17415,   184.452E-06
C:/temp/dataset/3/26_9.odb,Step-1,Increment      1: Step Time =    1.000,"PART-1-1",           209,       1.92780,   665.778E-03,            0.,NA,NA,"",       2.26709,       1.98363,       1.09769,   7.50189E-03
C:/temp/dataset/3/26_9.odb,Step-1,Increment      1: Step Time =    1.000,"PART-1-1",           210,       1.26043,      -1.37778,            0.,NA,NA,"",       2.10297,       1.71288,       1.22006,   8.99555E-03
C:/temp/dataset/3/26_9.odb,Step-1,Increment      1: Step Time =    1.000,"PART-1-1",           211,       9.14691,      -16.8280,            0.,NA,NA,"",   175.453E-03,   161.859E-03,   67.7158E-03,   10.3526E-03
C:/temp/dataset/3/26_9.odb,Step-1,Increment      1: Step Time =    1.000,"PART-1-1",           212,   79.9954E-03,      -25.2148,            0.,NA,NA,"",   25.1191E-03,   21.4250E-03,   13.1126E-03,   5.58053E-03
C:/temp/dataset/3/26_9.odb,Step-1,Increment      1: Step Time =    1.000,"PART-1-1",           213,      -9.97865,      -25.0679,            0.,NA,NA,"",   11.1625E-03,   11.1610E-03,  -182.727E-06,   962.110E-06
C:/temp/dataset/3/26_9.odb,Step-1,Increment      1: Step Time =    1.000,"PART-1-1",           214,       12.4671,      -27.6040,            0.,NA,NA,"",   15.7225E-03,  -13.1031E-03,  -8.68950E-03,   7.44274E-03
C:/temp/dataset/3/26_9.odb,Step-1,Increment      1: Step Time =    1.000,"PART-1-1",           215,       9.82463,      -25.6838,            0.,NA,NA,"",   18.7167E-03,  -16.3153E-03,   9.17204E-03,   7.22626E-03
C:/temp/dataset/3/26_9.odb,Step-1,Increment      1: Step Time =    1.000,"PART-1-1",           216,       2.56344,      -25.3828,            0.,NA,NA,"",   32.6442E-03,   19.6679E-03,   26.0541E-03,   9.66569E-03
C:/temp/dataset/3/26_9.odb,Step-1,Increment      1: Step Time =    1.000,"PART-1-1",           217,      -2.44121,      -25.1518,            0.,NA,NA,"",   19.2749E-03,   18.7607E-03,   4.42278E-03,   3.30779E-03
C:/temp/dataset/3/26_9.odb,Step-1,Increment      1: Step Time =    1.000,"PART-1-1",           218,      -4.95889,      -25.1139,            0.,NA,NA,"",   15.5151E-03,   15.5030E-03,   612.478E-06,   2.04251E-03
C:/temp/dataset/3/26_9.odb,Step-1,Increment      1: Step Time =    1.000,"PART-1-1",           219,       10.3279,  -771.646E-03,            0.,NA,NA,"",       1.68673,       1.68654,  -25.1076E-03,   9.13707E-03
C:/temp/dataset/3/26_9.odb,Step-1,Increment      1: Step Time =    1.000,"PART-1-1",           220,       10.4049,       4.48083,            0.,NA,NA,"",       2.39242,       2.39133,  -72.2449E-03,   3.55409E-03
C:/temp/dataset/3/26_9.odb,Step-1,Increment      1: Step Time =    1.000,"PART-1-1",           221,       9.80969,       17.5478,            0.,NA,NA,"",       4.10444,       4.10312,  -104.056E-03,   23.1524E-06
C:/temp/dataset/3/26_9.odb,Step-1,Increment      1: Step Time =    1.000,"PART-1-1",           222,       9.88106,       25.0797,            0.,NA,NA,"",       5.08656,       5.08347,  -177.531E-03,   344.879E-09
C:/temp/dataset/3/26_9.odb,Step-1,Increment      1: Step Time =    1.000,"PART-1-1",           223,       9.94975,       27.5346,            0.,NA,NA,"",       5.40659,       5.40261,  -207.387E-03,   307.321E-09
C:/temp/dataset/3/26_9.odb,Step-1,Increment      1: Step Time =    1.000,"PART-1-1",           224,       7.36779,       20.0596,            0.,NA,NA,"",       4.45520,       4.45104,   192.557E-03,   4.34306E-06
C:/temp/dataset/3/26_9.odb,Step-1,Increment      1: Step Time =    1.000,"PART-1-1",           225,  -693.206E-03,      -1.01900,            0.,NA,NA,"",       2.32303,       1.77545,       1.49808,   5.33871E-03
C:/temp/dataset/3/26_9.odb,Step-1,Increment      1: Step Time =    1.000,"PART-1-1",           226,      -7.47194,      -25.0831,            0.,NA,NA,"",   12.8697E-03,   12.8594E-03,  -513.446E-06,   1.42785E-03
C:/temp/dataset/3/26_9.odb,Step-1,Increment      1: Step Time =    1.000,"PART-1-1",           227,       5.28089,       2.25097,            0.,NA,NA,"",       2.24102,       2.15674,   608.777E-03,   4.10991E-03
C:/temp/dataset/3/26_9.odb,Step-1,Increment      1: Step Time =    1.000,"PART-1-1",           228,       9.26575,       8.45073,            0.,NA,NA,"",       2.92371,       2.92337,   44.6476E-03,   587.066E-06
C:/temp/dataset/3/26_9.odb,Step-1,Increment      1: Step Time =    1.000,"PART-1-1",           229,  -81.3472E-03,       1.02952,            0.,NA,NA,"",       2.47584,       2.05238,       1.38475,   4.72717E-03
C:/temp/dataset/3/26_9.odb,Step-1,Increment      1: Step Time =    1.000,"PART-1-1",           230,      -7.67687,   831.326E-03,            0.,NA,NA,"",       3.22916,       2.09752,       2.45517,   213.506E-06
C:/temp/dataset/3/26_9.odb,Step-1,Increment      1: Step Time =    1.000,"PART-1-1",           231,      -2.54090,  -531.417E-03,            0.,NA,NA,"",       2.55396,       1.85795,       1.75235,   2.16109E-03
C:/temp/dataset/3/26_9.odb,Step-1,Increment      1: Step Time =    1.000,"PART-1-1",           232,      -3.83997,       1.55066,            0.,NA,NA,"",       2.88490,       2.16022,       1.91210,   574.421E-06
C:/temp/dataset/3/26_9.odb,Step-1,Increment      1: Step Time =    1.000,"PART-1-1",           233,      -6.84494,  -996.203E-03,            0.,NA,NA,"",       2.98666,       1.83444,       2.35690,   240.097E-06
C:/temp/dataset/3/26_9.odb,Step-1,Increment      1: Step Time =    1.000,"PART-1-1",           234,       5.51335,      -3.03354,            0.,NA,NA,"",       1.55877,       1.44373,   587.697E-03,   19.3013E-03
C:/temp/dataset/3/26_9.odb,Step-1,Increment      1: Step Time =    1.000,"PART-1-1",           235,       9.62476,      -7.14735,            0.,NA,NA,"",   910.781E-03,   906.652E-03,   86.6250E-03,   6.87521E-03
C:/temp/dataset/3/26_9.odb,Step-1,Increment      1: Step Time =    1.000,"PART-1-1",           236,       7.38903,      -25.9371,            0.,NA,NA,"",   27.1323E-03,  -6.62603E-03,   26.3108E-03,   10.7385E-03
C:/temp/dataset/3/26_9.odb,Step-1,Increment      1: Step Time =    1.000,"PART-1-1",           237,       4.96373,      -25.7856,            0.,NA,NA,"",   33.5917E-03,   8.04792E-03,   32.6133E-03,   12.2208E-03
C:/temp/dataset/3/26_9.odb,Step-1,Increment      1: Step Time =    1.000,"PART-1-1",           238,       9.37191,      -21.3805,            0.,NA,NA,"",   37.5263E-03,   13.9659E-03,   34.8307E-03,   8.41207E-03
C:/temp/dataset/3/26_9.odb,Step-1,Increment      1: Step Time =    1.000,"PART-1-1",           239,       9.53380,      -19.3691,            0.,NA,NA,"",   70.3615E-03,   59.3217E-03,   37.8376E-03,   6.30800E-03
C:/temp/dataset/3/26_9.odb,Step-1,Increment      1: Step Time =    1.000,"PART-1-1",           240,       10.5518,      -5.76730,            0.,NA,NA,"",       1.05354,       1.05343,  -14.9631E-03,   5.72082E-03
C:/temp/dataset/3/26_9.odb,Step-1,Increment      1: Step Time =    1.000,"PART-1-1",           241,       10.8494,      -2.88140,            0.,NA,NA,"",       1.40637,       1.40460,  -70.5312E-03,   9.18791E-03
C:/temp/dataset/3/26_9.odb,Step-1,Increment      1: Step Time =    1.000,"PART-1-1",           242,       9.33979,       1.27198,            0.,NA,NA,"",       1.97435,       1.97255,   84.2155E-03,   7.88426E-03
C:/temp/dataset/3/26_9.odb,Step-1,Increment      1: Step Time =    1.000,"PART-1-1",           243,       9.83335,       20.0603,            0.,NA,NA,"",       4.43201,       4.43015,  -128.560E-03,   5.88267E-06
C:/temp/dataset/3/26_9.odb,Step-1,Increment      1: Step Time =    1.000,"PART-1-1",           244,       7.39102,       25.1069,            0.,NA,NA,"",       5.11032,       5.10822,   146.540E-03,   357.198E-09
C:/temp/dataset/3/26_9.odb,Step-1,Increment      1: Step Time =    1.000,"PART-1-1",           245,       4.93408,       25.0979,            0.,NA,NA,"",       5.14915,       5.12797,   466.610E-03,   350.144E-09
C:/temp/dataset/3/26_9.odb,Step-1,Increment      1: Step Time =    1.000,"PART-1-1",           246,      -10.0026,       25.0068,            0.,NA,NA,"",       5.77181,       5.24333,       2.41275,   1.38628E-09
C:/temp/dataset/3/26_9.odb,Step-1,Increment      1: Step Time =    1.000,"PART-1-1",           247,      -10.0008,       22.5051,            0.,NA,NA,"",       5.48683,       4.91749,       2.43383,   1.53599E-09
C:/temp/dataset/3/26_9.odb,Step-1,Increment      1: Step Time =    1.000,"PART-1-1",           248,      -9.99283,      -27.5363,            0.,NA,NA,"",   6.24735E-03,   6.24478E-03,   178.998E-06,   1.60435E-03
C:/temp/dataset/3/26_9.odb,Step-1,Increment      1: Step Time =    1.000,"PART-1-1",           249,       3.80746,   187.829E-03,            0.,NA,NA,"",       2.07177,       1.89902,   828.220E-03,   7.96047E-03
C:/temp/dataset/3/26_9.odb,Step-1,Increment      1: Step Time =    1.000,"PART-1-1",           250,       11.4886,       7.12458,            0.,NA,NA,"",       2.73978,       2.72979,  -233.693E-03,   906.691E-06
C:/temp/dataset/3/26_9.odb,Step-1,Increment      1: Step Time =    1.000,"PART-1-1",           251,       5.25951,      -23.9756,            0.,NA,NA,"",   54.9510E-03,   14.5960E-03,   52.9770E-03,   16.1703E-03
C:/temp/dataset/3/26_9.odb,Step-1,Increment      1: Step Time =    1.000,"PART-1-1",           252,       9.85798,       22.5791,            0.,NA,NA,"",       4.76045,       4.75799,  -153.227E-03,   1.12921E-06
C:/temp/dataset/3/26_9.odb,Step-1,Increment      1: Step Time =    1.000,"PART-1-1",           253,       7.38133,       22.5911,            0.,NA,NA,"",       4.78363,       4.78063,   169.231E-03,   720.948E-09
C:/temp/dataset/3/26_9.odb,Step-1,Increment      1: Step Time =    1.000,"PART-1-1",           254,       9.03817,      -10.9527,            0.,NA,NA,"",   568.572E-03,   554.691E-03,   124.865E-03,   12.4492E-03
C:/temp/dataset/3/26_9.odb,Step-1,Increment      1: Step Time =    1.000,"PART-1-1",           255,       7.30212,      -21.2110,            0.,NA,NA,"",   85.5682E-03,   21.7416E-03,   82.7600E-03,   16.2317E-03
C:/temp/dataset/3/26_9.odb,Step-1,Increment      1: Step Time =    1.000,"PART-1-1",           256,       8.48263,      -3.88795,            0.,NA,NA,"",       1.30947,       1.29323,   205.578E-03,   11.9031E-03
C:/temp/dataset/3/26_9.odb,Step-1,Increment      1: Step Time =    1.000,"PART-1-1",           257,       8.48912,      -1.65164,            0.,NA,NA,"",       1.59968,       1.58694,   201.487E-03,   11.2411E-03
C:/temp/dataset/3/26_9.odb,Step-1,Increment      1: Step Time =    1.000,"PART-1-1",           258,       8.19007,       3.36514,            0.,NA,NA,"",       2.27855,       2.26793,   219.721E-03,   6.42423E-03
C:/temp/dataset/3/26_9.odb,Step-1,Increment      1: Step Time =    1.000,"PART-1-1",           259,       6.78208,  -317.133E-03,            0.,NA,NA,"",       1.83837,       1.79046,   416.964E-03,   8.56815E-03
C:/temp/dataset/3/26_9.odb,Step-1,Increment      1: Step Time =    1.000,"PART-1-1",           260,       11.8604,      -10.2109,            0.,NA,NA,"",   613.871E-03,   604.161E-03,  -108.752E-03,   5.55632E-03
C:/temp/dataset/3/26_9.odb,Step-1,Increment      1: Step Time =    1.000,"PART-1-1",           261,       5.00218,  -627.613E-03,            0.,NA,NA,"",       1.89349,       1.77417,   661.556E-03,   9.55033E-03
C:/temp/dataset/3/26_9.odb,Step-1,Increment      1: Step Time =    1.000,"PART-1-1",           262,       11.1460,      -8.45072,            0.,NA,NA,"",   770.065E-03,   767.908E-03,  -57.5995E-03,   3.00745E-03
C:/temp/dataset/3/26_9.odb,Step-1,Increment      1: Step Time =    1.000,"PART-1-1",           263,       11.7180,       5.54683,            0.,NA,NA,"",       2.53220,       2.51980,  -250.292E-03,   1.94711E-03
C:/temp/dataset/3/26_9.odb,Step-1,Increment      1: Step Time =    1.000,"PART-1-1",           264,       5.25136,      -21.5985,            0.,NA,NA,"",   94.0935E-03,   30.5267E-03,   89.0040E-03,   24.9614E-03
C:/temp/dataset/3/26_9.odb,Step-1,Increment      1: Step Time =    1.000,"PART-1-1",           265,       12.4723,       27.5096,            0.,NA,NA,"",       5.40447,       5.37786,  -535.712E-03,   454.013E-09
C:/temp/dataset/3/26_9.odb,Step-1,Increment      1: Step Time =    1.000,"PART-1-1",           266,       5.87727,      -22.7682,            0.,NA,NA,"",   73.2418E-03,   18.2708E-03,   70.9263E-03,   18.1620E-03
C:/temp/dataset/3/26_9.odb,Step-1,Increment      1: Step Time =    1.000,"PART-1-1",           267,       7.32369,      -22.7299,            0.,NA,NA,"",   62.4469E-03,   6.81159E-03,   62.0743E-03,   15.5461E-03
C:/temp/dataset/3/26_9.odb,Step-1,Increment      1: Step Time =    1.000,"PART-1-1",           268,       11.4923,      -4.55460,            0.,NA,NA,"",       1.19946,       1.19270,  -127.113E-03,   8.35639E-03
C:/temp/dataset/3/26_9.odb,Step-1,Increment      1: Step Time =    1.000,"PART-1-1",           269,       11.2115,       8.96325,            0.,NA,NA,"",       2.98048,       2.97285,  -213.141E-03,   262.861E-06
C:/temp/dataset/3/26_9.odb,Step-1,Increment      1: Step Time =    1.000,"PART-1-1",           270,       10.8046,       10.5255,            0.,NA,NA,"",       3.18484,       3.18011,  -173.477E-03,   130.223E-06
C:/temp/dataset/3/26_9.odb,Step-1,Increment      1: Step Time =    1.000,"PART-1-1",           271,       7.35536,      -24.2380,            0.,NA,NA,"",   43.2428E-03,  -1.67402E-03,   43.2104E-03,   13.1778E-03
C:/temp/dataset/3/26_9.odb,Step-1,Increment      1: Step Time =    1.000,"PART-1-1",           272,      -3.82134,   150.711E-03,            0.,NA,NA,"",       2.74998,       1.96470,       1.92414,   785.116E-06
C:/temp/dataset/3/26_9.odb,Step-1,Increment      1: Step Time =    1.000,"PART-1-1",           273,       3.09609,      -1.70207,            0.,NA,NA,"",       1.90731,       1.65485,   948.329E-03,   12.9588E-03
C:/temp/dataset/3/26_9.odb,Step-1,Increment      1: Step Time =    1.000,"PART-1-1",           274,       4.56419,      -1.78689,            0.,NA,NA,"",       1.78122,       1.62589,   727.472E-03,   12.7458E-03
C:/temp/dataset/3/26_9.odb,Step-1,Increment      1: Step Time =    1.000,"PART-1-1",           275,       9.44492,      -23.8624,            0.,NA,NA,"",   23.4539E-03,  -10.0824E-03,   21.1762E-03,   9.12249E-03
C:/temp/dataset/3/26_9.odb,Step-1,Increment      1: Step Time =    1.000,"PART-1-1",           276,       8.77427,      -22.6651,            0.,NA,NA,"",   39.9048E-03,   310.649E-06,   39.9036E-03,   10.7848E-03
C:/temp/dataset/3/26_9.odb,Step-1,Increment      1: Step Time =    1.000,"PART-1-1",           277,       10.1837,      -9.28900,            0.,NA,NA,"",   693.295E-03,   692.490E-03,   33.3946E-03,   4.69530E-03
C:/temp/dataset/3/26_9.odb,Step-1,Increment      1: Step Time =    1.000,"PART-1-1",           278,       10.4979,      -10.7612,            0.,NA,NA,"",   561.162E-03,   561.114E-03,   7.30952E-03,   3.43294E-03
C:/temp/dataset/3/26_9.odb,Step-1,Increment      1: Step Time =    1.000,"PART-1-1",           279,       11.2325,      -12.6180,            0.,NA,NA,"",   415.098E-03,   412.674E-03,  -44.8000E-03,   1.81487E-03
C:/temp/dataset/3/26_9.odb,Step-1,Increment      1: Step Time =    1.000,"PART-1-1",           280,      -13.7500,       22.5017,            0.,NA,NA,"",       5.74730,       4.94898,       2.92216,   983.415E-12
C:/temp/dataset/3/26_9.odb,Step-1,Increment      1: Step Time =    1.000,"PART-1-1",           281,          -15.,         21.25,            0.,NA,NA,"",       5.70879,       4.79660,       3.09561,   859.761E-12
C:/temp/dataset/3/26_9.odb,Step-1,Increment      1: Step Time =    1.000,"PART-1-1",           282,        -13.75,           20.,            0.,NA,NA,"",       5.48065,       4.62316,       2.94346,   900.050E-12
C:/temp/dataset/3/26_9.odb,Step-1,Increment      1: Step Time =    1.000,"PART-1-1",           283,      -12.5000,       21.2517,            0.,NA,NA,"",       5.52075,       4.77553,       2.77000,   987.996E-12
C:/temp/dataset/3/26_9.odb,Step-1,Increment      1: Step Time =    1.000,"PART-1-1",           284,        -11.25,           30.,            0.,NA,NA,"",       6.42455,       5.90427,       2.53268,   1.21441E-09
C:/temp/dataset/3/26_9.odb,Step-1,Increment      1: Step Time =    1.000,"PART-1-1",           285,      -12.5009,       28.7510,            0.,NA,NA,"",       6.35705,       5.75225,       2.70624,   968.712E-12
C:/temp/dataset/3/26_9.odb,Step-1,Increment      1: Step Time =    1.000,"PART-1-1",           286,      -11.2523,       27.5017,            0.,NA,NA,"",       6.13583,       5.57890,       2.55427,   1.21479E-09
C:/temp/dataset/3/26_9.odb,Step-1,Increment      1: Step Time =    1.000,"PART-1-1",           287,      -10.0014,       28.7507,            0.,NA,NA,"",       6.20574,       5.73092,       2.38070,   1.34096E-09
C:/temp/dataset/3/26_9.odb,Step-1,Increment      1: Step Time =    1.000,"PART-1-1",           288,      -8.75282,       27.5029,            0.,NA,NA,"",       5.98799,       5.55777,       2.22872,   1.58625E-09
C:/temp/dataset/3/26_9.odb,Step-1,Increment      1: Step Time =    1.000,"PART-1-1",           289,      -10.0027,       26.2541,            0.,NA,NA,"",       5.91546,       5.40578,       2.40214,   1.27320E-09
C:/temp/dataset/3/26_9.odb,Step-1,Increment      1: Step Time =    1.000,"PART-1-1",           290,      -8.75320,       25.0087,            0.,NA,NA,"",       5.69615,       5.23293,       2.25001,   1.33906E-09
C:/temp/dataset/3/26_9.odb,Step-1,Increment      1: Step Time =    1.000,"PART-1-1",           291,      -7.50334,       26.2575,            0.,NA,NA,"",       5.77145,       5.38493,       2.07659,   1.44916E-09
C:/temp/dataset/3/26_9.odb,Step-1,Increment      1: Step Time =    1.000,"PART-1-1",           292,  -10.1921E-03,       23.8015,            0.,NA,NA,"",       5.12546,       5.00123,       1.12160,   92.3099E-09
C:/temp/dataset/3/26_9.odb,Step-1,Increment      1: Step Time =    1.000,"PART-1-1",           293,       1.23656,       22.5490,            0.,NA,NA,"",       4.92396,       4.82750,   969.888E-03,   243.680E-09
C:/temp/dataset/3/26_9.odb,Step-1,Increment      1: Step Time =    1.000,"PART-1-1",           294,       2.47060,       23.8222,            0.,NA,NA,"",       5.04635,       4.98280,   798.322E-03,   245.112E-09
C:/temp/dataset/3/26_9.odb,Step-1,Increment      1: Step Time =    1.000,"PART-1-1",           295,       1.22385,       25.0746,            0.,NA,NA,"",       5.24332,       5.15654,   950.031E-03,   168.640E-09
C:/temp/dataset/3/26_9.odb,Step-1,Increment      1: Step Time =    1.000,"PART-1-1",           296,       13.7132,       25.0166,            0.,NA,NA,"",       5.08773,       5.04261,  -676.087E-03,   485.688E-09
C:/temp/dataset/3/26_9.odb,Step-1,Increment      1: Step Time =    1.000,"PART-1-1",           297,           15.,         26.25,            0.,NA,NA,"",       5.26207,       5.19228,  -854.185E-03,   482.383E-09
C:/temp/dataset/3/26_9.odb,Step-1,Increment      1: Step Time =    1.000,"PART-1-1",           298,       13.7362,       27.5048,            0.,NA,NA,"",       5.41197,       5.36647,  -700.272E-03,   284.881E-09
C:/temp/dataset/3/26_9.odb,Step-1,Increment      1: Step Time =    1.000,"PART-1-1",           299,       12.4494,       26.2714,            0.,NA,NA,"",       5.24286,       5.21680,  -522.174E-03,   437.822E-09
C:/temp/dataset/3/26_9.odb,Step-1,Increment      1: Step Time =    1.000,"PART-1-1",           300,       6.19248,       27.5744,            0.,NA,NA,"",       5.44708,       5.43980,   281.621E-03,   245.427E-09
C:/temp/dataset/3/26_9.odb,Step-1,Increment      1: Step Time =    1.000,"PART-1-1",           301,       7.46746,       28.7842,            0.,NA,NA,"",       5.58748,       5.58649,   105.264E-03,   363.506E-09
C:/temp/dataset/3/26_9.odb,Step-1,Increment      1: Step Time =    1.000,"PART-1-1",           302,          6.25,           30.,            0.,NA,NA,"",       5.76079,       5.75521,   253.470E-03,   456.570E-09
C:/temp/dataset/3/26_9.odb,Step-1,Increment      1: Step Time =    1.000,"PART-1-1",           303,       4.97503,       28.7903,            0.,NA,NA,"",       5.62496,       5.60851,   429.827E-03,   258.695E-09
C:/temp/dataset/3/26_9.odb,Step-1,Increment      1: Step Time =    1.000,"PART-1-1",           304,       11.0878,       17.5306,            0.,NA,NA,"",       4.09895,       4.09002,  -270.381E-03,   19.2761E-06
C:/temp/dataset/3/26_9.odb,Step-1,Increment      1: Step Time =    1.000,"PART-1-1",           305,       12.3722,       18.7756,            0.,NA,NA,"",       4.26484,       4.24122,  -448.276E-03,   12.6437E-06
C:/temp/dataset/3/26_9.odb,Step-1,Increment      1: Step Time =    1.000,"PART-1-1",           306,       11.1059,       20.0490,            0.,NA,NA,"",       4.42762,       4.41784,  -294.197E-03,   4.96807E-06
C:/temp/dataset/3/26_9.odb,Step-1,Increment      1: Step Time =    1.000,"PART-1-1",           307,       9.82152,       18.8041,            0.,NA,NA,"",       4.26822,       4.26663,  -116.313E-03,   14.2858E-06
C:/temp/dataset/3/26_9.odb,Step-1,Increment      1: Step Time =    1.000,"PART-1-1",           308,       9.63171,       13.8797,            0.,NA,NA,"",       3.62724,       3.62691,  -49.4994E-03,   88.9049E-06
C:/temp/dataset/3/26_9.odb,Step-1,Increment      1: Step Time =    1.000,"PART-1-1",           309,       8.52517,       15.0687,            0.,NA,NA,"",       3.79208,       3.79114,   84.4012E-03,   51.4992E-06
C:/temp/dataset/3/26_9.odb,Step-1,Increment      1: Step Time =    1.000,"PART-1-1",           310,       7.25683,       13.8735,            0.,NA,NA,"",       3.65545,       3.64621,   259.726E-03,   83.6313E-06
C:/temp/dataset/3/26_9.odb,Step-1,Increment      1: Step Time =    1.000,"PART-1-1",           311,       8.36336,       12.6844,            0.,NA,NA,"",       3.48425,       3.48198,   125.902E-03,   94.0683E-06
C:/temp/dataset/3/26_9.odb,Step-1,Increment      1: Step Time =    1.000,"PART-1-1",           312,       14.0118,       9.82001,            0.,NA,NA,"",       3.11614,       3.06055,  -585.931E-03,   158.660E-06
C:/temp/dataset/3/26_9.odb,Step-1,Increment      1: Step Time =    1.000,"PART-1-1",           313,           15.,         11.25,            0.,NA,NA,"",       3.31915,       3.23858,  -726.862E-03,   212.739E-06
C:/temp/dataset/3/26_9.odb,Step-1,Increment      1: Step Time =    1.000,"PART-1-1",           314,       13.5880,       12.3315,            0.,NA,NA,"",       3.43626,       3.39166,  -551.863E-03,   87.2636E-06
C:/temp/dataset/3/26_9.odb,Step-1,Increment      1: Step Time =    1.000,"PART-1-1",           315,       12.5998,       10.9015,            0.,NA,NA,"",       3.23991,       3.21376,  -410.806E-03,   79.2884E-06
C:/temp/dataset/3/26_9.odb,Step-1,Increment      1: Step Time =    1.000,"PART-1-1",           316,       4.40482,  -219.892E-03,            0.,NA,NA,"",       1.98233,       1.83707,   744.854E-03,   8.33999E-03
C:/temp/dataset/3/26_9.odb,Step-1,Increment      1: Step Time =    1.000,"PART-1-1",           317,       3.45177,  -757.122E-03,            0.,NA,NA,"",       1.98617,       1.77713,   886.940E-03,   9.89279E-03
C:/temp/dataset/3/26_9.odb,Step-1,Increment      1: Step Time =    1.000,"PART-1-1",           318,       3.83014,      -1.74448,            0.,NA,NA,"",       1.84239,       1.64081,   837.931E-03,   12.6632E-03
C:/temp/dataset/3/26_9.odb,Step-1,Increment      1: Step Time =    1.000,"PART-1-1",           319,       4.78319,      -1.20725,            0.,NA,NA,"",       1.83627,       1.70016,   693.792E-03,   10.5808E-03
C:/temp/dataset/3/26_9.odb,Step-1,Increment      1: Step Time =    1.000,"PART-1-1",           320,       10.3408,      -10.0251,            0.,NA,NA,"",   625.512E-03,   625.192E-03,   20.0282E-03,   4.05641E-03
C:/temp/dataset/3/26_9.odb,Step-1,Increment      1: Step Time =    1.000,"PART-1-1",           321,       11.1792,      -10.4860,            0.,NA,NA,"",   583.948E-03,   581.838E-03,  -49.5890E-03,   1.78558E-03
C:/temp/dataset/3/26_9.odb,Step-1,Increment      1: Step Time =    1.000,"PART-1-1",           322,       11.5032,      -9.33080,            0.,NA,NA,"",   688.821E-03,   683.616E-03,  -84.5230E-03,   3.93850E-03
C:/temp/dataset/3/26_9.odb,Step-1,Increment      1: Step Time =    1.000,"PART-1-1",           323,       10.6649,      -8.86986,            0.,NA,NA,"",   729.529E-03,   729.449E-03,  -10.7893E-03,   2.49442E-03
C:/temp/dataset/3/26_9.odb,Step-1,Increment      1: Step Time =    1.000,"PART-1-1",           324,       9.41034,      -12.1888,            0.,NA,NA,"",   461.687E-03,   453.322E-03,   87.4860E-03,   10.2403E-03
C:/temp/dataset/3/26_9.odb,Step-1,Increment      1: Step Time =    1.000,"PART-1-1",           325,       10.5075,      -13.0214,            0.,NA,NA,"",   386.067E-03,   386.006E-03,   6.87753E-03,   3.57072E-03
C:/temp/dataset/3/26_9.odb,Step-1,Increment      1: Step Time =    1.000,"PART-1-1",           326,       10.8652,      -11.6896,            0.,NA,NA,"",   484.589E-03,   484.162E-03,  -20.3321E-03,   1.62531E-03
C:/temp/dataset/3/26_9.odb,Step-1,Increment      1: Step Time =    1.000,"PART-1-1",           327,       9.76802,      -10.8570,            0.,NA,NA,"",   561.075E-03,   557.126E-03,   66.4539E-03,   7.85602E-03
C:/temp/dataset/3/26_9.odb,Step-1,Increment      1: Step Time =    1.000,"PART-1-1",           328,       6.12016,      -19.7528,            0.,NA,NA,"",   135.937E-03,   50.3613E-03,   126.264E-03,   31.2982E-03
C:/temp/dataset/3/26_9.odb,Step-1,Increment      1: Step Time =    1.000,"PART-1-1",           329,       7.15653,      -18.4145,            0.,NA,NA,"",   160.092E-03,   99.1708E-03,   125.676E-03,   20.2928E-03
C:/temp/dataset/3/26_9.odb,Step-1,Increment      1: Step Time =    1.000,"PART-1-1",           330,       6.03637,      -17.4116,            0.,NA,NA,"",   250.265E-03,   160.249E-03,   192.231E-03,   33.6007E-03
C:/temp/dataset/3/26_9.odb,Step-1,Increment      1: Step Time =    1.000,"PART-1-1",           331,            5.,        -18.75,            0.,NA,NA,"",   217.595E-03,   113.201E-03,   185.830E-03,   51.7867E-03
C:/temp/dataset/3/26_9.odb,Step-1,Increment      1: Step Time =    1.000,"PART-1-1",           332,       13.3604,      -22.4969,            0.,NA,NA,"",   55.4004E-03,   6.09463E-03,  -55.0642E-03,   12.9331E-03
C:/temp/dataset/3/26_9.odb,Step-1,Increment      1: Step Time =    1.000,"PART-1-1",           333,           15.,        -21.25,            0.,NA,NA,"",   113.175E-03,   38.0083E-03,  -106.601E-03,   22.1022E-03
C:/temp/dataset/3/26_9.odb,Step-1,Increment      1: Step Time =    1.000,"PART-1-1",           334,       13.4842,      -19.7901,            0.,NA,NA,"",   109.460E-03,   58.8342E-03,  -92.3041E-03,   15.8786E-03
C:/temp/dataset/3/26_9.odb,Step-1,Increment      1: Step Time =    1.000,"PART-1-1",           335,       11.8446,      -21.0370,            0.,NA,NA,"",   38.7033E-03,   22.4426E-03,  -31.5321E-03,   8.30482E-03
C:/temp/dataset/3/26_9.odb,Step-1,Increment      1: Step Time =    1.000,"PART-1-1",           336,       1.65000,            5.,            0.,NA,NA,"",       2.80818,       2.58445,       1.09843,   4.03771E-03
C:/temp/dataset/3/26_9.odb,Step-1,Increment      1: Step Time =    1.000,"PART-1-1",           337,   440.654E-03,       4.00571,            0.,NA,NA,"",       2.77199,       2.45875,       1.28002,   2.45083E-03
C:/temp/dataset/3/26_9.odb,Step-1,Increment      1: Step Time =    1.000,"PART-1-1",           338,       1.47063,       2.87974,            0.,NA,NA,"",       2.55888,       2.28980,       1.14222,   5.07923E-03
C:/temp/dataset/3/26_9.odb,Step-1,Increment      1: Step Time =    1.000,"PART-1-1",           339,       2.67998,       3.87403,            0.,NA,NA,"",       2.59477,       2.41057,   960.204E-03,   5.43289E-03
C:/temp/dataset/3/26_9.odb,Step-1,Increment      1: Step Time =    1.000,"PART-1-1",           340,      -1.46180,      -3.99231,            0.,NA,NA,"",       2.14125,       1.36768,       1.64754,   5.57535E-03
C:/temp/dataset/3/26_9.odb,Step-1,Increment      1: Step Time =    1.000,"PART-1-1",           341,     -500.E-03,           -5.,            0.,NA,NA,"",       1.96181,       1.22370,       1.53338,   6.92311E-03
C:/temp/dataset/3/26_9.odb,Step-1,Increment      1: Step Time =    1.000,"PART-1-1",           342,   718.491E-03,      -4.10961,            0.,NA,NA,"",       1.89698,       1.33697,       1.34575,   9.42030E-03
C:/temp/dataset/3/26_9.odb,Step-1,Increment      1: Step Time =    1.000,"PART-1-1",           343,  -243.313E-03,      -3.10192,            0.,NA,NA,"",       2.08567,       1.48391,       1.46562,   8.27891E-03
C:/temp/dataset/3/26_9.odb,Step-1,Increment      1: Step Time =    1.000,"PART-1-1",           344,      -3.82017,      -3.74247,            0.,NA,NA,"",       2.42566,       1.42381,       1.96382,   675.895E-06
C:/temp/dataset/3/26_9.odb,Step-1,Increment      1: Step Time =    1.000,"PART-1-1",           345,      -2.71667,           -5.,            0.,NA,NA,"",       2.20714,       1.24178,       1.82468,   1.01032E-03
C:/temp/dataset/3/26_9.odb,Step-1,Increment      1: Step Time =    1.000,"PART-1-1",           346,      -2.56530,      -2.73478,            0.,NA,NA,"",       2.36249,       1.55135,       1.78177,   2.93696E-03
C:/temp/dataset/3/26_9.odb,Step-1,Increment      1: Step Time =    1.000,"PART-1-1",           347,      -13.8092,  -21.6491E-03,            0.,NA,NA,"",       3.89464,       2.03889,       3.31830,   36.1123E-06
C:/temp/dataset/3/26_9.odb,Step-1,Increment      1: Step Time =    1.000,"PART-1-1",           348,      -12.6581,       1.21263,            0.,NA,NA,"",       3.83861,       2.19973,       3.14581,   39.2578E-06
C:/temp/dataset/3/26_9.odb,Step-1,Increment      1: Step Time =    1.000,"PART-1-1",           349,      -13.8489,       2.48428,            0.,NA,NA,"",       4.07333,       2.38870,       3.29941,   26.6802E-06
C:/temp/dataset/3/26_9.odb,Step-1,Increment      1: Step Time =    1.000,"PART-1-1",           350,          -15.,          1.25,            0.,NA,NA,"",       4.12524,       2.22784,       3.47194,   23.3515E-06
C:/temp/dataset/3/26_9.odb,Step-1,Increment      1: Step Time =    1.000,"PART-1-1",           351,      -8.84172,   345.754E-03,            0.,NA,NA,"",       3.32311,       2.04131,       2.62224,   163.951E-06
C:/temp/dataset/3/26_9.odb,Step-1,Increment      1: Step Time =    1.000,"PART-1-1",           352,      -9.20019,  -788.270E-03,            0.,NA,NA,"",       3.28012,       1.88674,       2.68317,   160.905E-06
C:/temp/dataset/3/26_9.odb,Step-1,Increment      1: Step Time =    1.000,"PART-1-1",           353,      -7.61937,      -1.21646,            0.,NA,NA,"",       3.06057,       1.81143,       2.46695,   192.163E-06
C:/temp/dataset/3/26_9.odb,Step-1,Increment      1: Step Time =    1.000,"PART-1-1",           354,      -7.26090,  -82.4387E-03,            0.,NA,NA,"",       3.10706,       1.96591,       2.40604,   206.058E-06
C:/temp/dataset/3/26_9.odb,Step-1,Increment      1: Step Time =    1.000,"PART-1-1",           355,      -12.7466,      -3.77621,            0.,NA,NA,"",       3.54238,       1.50510,       3.20673,   24.6480E-06
C:/temp/dataset/3/26_9.odb,Step-1,Increment      1: Step Time =    1.000,"PART-1-1",           356,      -13.8633,      -2.52621,            0.,NA,NA,"",       3.75248,       1.69026,       3.35024,   26.7686E-06
C:/temp/dataset/3/26_9.odb,Step-1,Increment      1: Step Time =    1.000,"PART-1-1",           357,          -15.,         -3.75,            0.,NA,NA,"",       3.83905,       1.53076,       3.52066,   4.41401E-06
C:/temp/dataset/3/26_9.odb,Step-1,Increment      1: Step Time =    1.000,"PART-1-1",           358,      -13.8833,           -5.,            0.,NA,NA,"",       3.63538,       1.34558,       3.37718,   5.01918E-06
C:/temp/dataset/3/26_9.odb,Step-1,Increment      1: Step Time =    1.000,"PART-1-1",           359,      -5.03830,      -2.71522,            0.,NA,NA,"",       2.64432,       1.57747,       2.12227,   279.041E-06
C:/temp/dataset/3/26_9.odb,Step-1,Increment      1: Step Time =    1.000,"PART-1-1",           360,      -4.43911,      -1.50749,            0.,NA,NA,"",       2.67119,       1.73951,       2.02716,   506.358E-06
C:/temp/dataset/3/26_9.odb,Step-1,Increment      1: Step Time =    1.000,"PART-1-1",           361,      -5.95808,  -763.119E-03,            0.,NA,NA,"",       2.90352,       1.85807,       2.23115,   211.263E-06
C:/temp/dataset/3/26_9.odb,Step-1,Increment      1: Step Time =    1.000,"PART-1-1",           362,      -6.55726,      -1.97085,            0.,NA,NA,"",       2.87882,       1.69588,       2.32628,   210.753E-06
C:/temp/dataset/3/26_9.odb,Step-1,Increment      1: Step Time =    1.000,"PART-1-1",           363,          6.25,          -30.,            0.,NA,NA,"",            0.,  -1.60964E-39,   10.7338E-39,   5.84349E-03
C:/temp/dataset/3/26_9.odb,Step-1,Increment      1: Step Time =    1.000,"PART-1-1",           364,       7.47038,      -28.9473,            0.,NA,NA,"",   6.60822E-03,  -4.70087E-03,   4.64439E-03,   6.76838E-03
C:/temp/dataset/3/26_9.odb,Step-1,Increment      1: Step Time =    1.000,"PART-1-1",           365,       6.18647,      -27.8786,            0.,NA,NA,"",   13.3509E-03,  -2.34493E-03,   13.1434E-03,   8.42890E-03
C:/temp/dataset/3/26_9.odb,Step-1,Increment      1: Step Time =    1.000,"PART-1-1",           366,       4.96608,      -28.9312,            0.,NA,NA,"",   6.04240E-03,   905.941E-06,   5.97410E-03,   7.53472E-03
C:/temp/dataset/3/26_9.odb,Step-1,Increment      1: Step Time =    1.000,"PART-1-1",           367,       3.70492,      -27.8047,            0.,NA,NA,"",   14.6742E-03,   6.79526E-03,   13.0061E-03,   8.24479E-03
C:/temp/dataset/3/26_9.odb,Step-1,Increment      1: Step Time =    1.000,"PART-1-1",           368,       2.48883,      -28.8735,            0.,NA,NA,"",   7.49271E-03,   5.40519E-03,   5.18889E-03,   6.91726E-03
C:/temp/dataset/3/26_9.odb,Step-1,Increment      1: Step Time =    1.000,"PART-1-1",           369,          3.75,          -30.,            0.,NA,NA,"",            0.,   2.05897E-39,   11.2823E-39,   6.16684E-03
C:/temp/dataset/3/26_9.odb,Step-1,Increment      1: Step Time =    1.000,"PART-1-1",           370,      -3.72203,      -27.5999,            0.,NA,NA,"",   11.0512E-03,   10.9053E-03,   1.78951E-03,   3.19028E-03
C:/temp/dataset/3/26_9.odb,Step-1,Increment      1: Step Time =    1.000,"PART-1-1",           371,      -4.98725,      -28.7922,            0.,NA,NA,"",   5.44306E-03,   5.39497E-03,   721.953E-06,   2.93685E-03
C:/temp/dataset/3/26_9.odb,Step-1,Increment      1: Step Time =    1.000,"PART-1-1",           372,         -3.75,          -30.,            0.,NA,NA,"",            0.,   3.46443E-39,   2.90378E-39,   3.87329E-03
C:/temp/dataset/3/26_9.odb,Step-1,Increment      1: Step Time =    1.000,"PART-1-1",           373,      -2.48478,      -28.8077,            0.,NA,NA,"",   6.89229E-03,   6.68082E-03,   1.69418E-03,   4.06872E-03
C:/temp/dataset/3/26_9.odb,Step-1,Increment      1: Step Time =    1.000,"PART-1-1",           374,      -13.7501,      -27.5099,            0.,NA,NA,"",   5.80708E-03,   5.57540E-03,   1.62392E-03,   902.713E-06
C:/temp/dataset/3/26_9.odb,Step-1,Increment      1: Step Time =    1.000,"PART-1-1",           375,          -15.,        -28.75,            0.,NA,NA,"",   3.86471E-03,   3.18770E-03,   2.18508E-03,   1.66137E-03
C:/temp/dataset/3/26_9.odb,Step-1,Increment      1: Step Time =    1.000,"PART-1-1",           376,        -13.75,          -30.,            0.,NA,NA,"",            0.,   515.078E-42,   1.77171E-39,   1.86162E-03
C:/temp/dataset/3/26_9.odb,Step-1,Increment      1: Step Time =    1.000,"PART-1-1",           377,      -12.5001,      -28.7599,            0.,NA,NA,"",   2.67163E-03,   2.63358E-03,   449.322E-06,   1.38386E-03
C:/temp/dataset/3/26_9.odb,Step-1,Increment      1: Step Time =    1.000,"PART-1-1",           378,       8.15833,      -10.8587,            0.,NA,NA,"",   604.281E-03,   571.447E-03,   196.478E-03,   17.9487E-03
C:/temp/dataset/3/26_9.odb,Step-1,Increment      1: Step Time =    1.000,"PART-1-1",           379,       9.00498,      -9.90697,            0.,NA,NA,"",   659.046E-03,   645.037E-03,   135.162E-03,   12.3358E-03
C:/temp/dataset/3/26_9.odb,Step-1,Increment      1: Step Time =    1.000,"PART-1-1",           380,       8.08915,      -8.55627,            0.,NA,NA,"",   811.897E-03,   778.735E-03,   229.671E-03,   18.0961E-03
C:/temp/dataset/3/26_9.odb,Step-1,Increment      1: Step Time =    1.000,"PART-1-1",           381,       7.24249,      -9.50802,            0.,NA,NA,"",   759.554E-03,   700.532E-03,   293.559E-03,   23.2239E-03
C:/temp/dataset/3/26_9.odb,Step-1,Increment      1: Step Time =    1.000,"PART-1-1",           382,       13.9816,      -2.51124,            0.,NA,NA,"",       1.50473,       1.43788,  -443.505E-03,   10.8030E-03
C:/temp/dataset/3/26_9.odb,Step-1,Increment      1: Step Time =    1.000,"PART-1-1",           383,           15.,         -1.25,            0.,NA,NA,"",       1.70262,       1.59550,  -594.374E-03,   10.6338E-03
C:/temp/dataset/3/26_9.odb,Step-1,Increment      1: Step Time =    1.000,"PART-1-1",           384,       13.8213,  -48.4001E-03,            0.,NA,NA,"",       1.81739,       1.75776,  -461.712E-03,   6.53901E-03
C:/temp/dataset/3/26_9.odb,Step-1,Increment      1: Step Time =    1.000,"PART-1-1",           385,       12.8030,      -1.30964,            0.,NA,NA,"",       1.62884,       1.59748,  -318.062E-03,   8.49077E-03
C:/temp/dataset/3/26_9.odb,Step-1,Increment      1: Step Time =    1.000,"PART-1-1",           386,           15.,          1.25,            0.,NA,NA,"",       2.02372,       1.92221,  -632.888E-03,   5.35162E-03
C:/temp/dataset/3/26_9.odb,Step-1,Increment      1: Step Time =    1.000,"PART-1-1",           387,       13.5709,       2.55070,            0.,NA,NA,"",       2.15518,       2.10519,  -461.519E-03,   3.23535E-03
C:/temp/dataset/3/26_9.odb,Step-1,Increment      1: Step Time =    1.000,"PART-1-1",           388,       12.3922,       1.25230,            0.,NA,NA,"",       1.96317,       1.94057,  -297.061E-03,   6.13968E-03
C:/temp/dataset/3/26_9.odb,Step-1,Increment      1: Step Time =    1.000,"PART-1-1",           389,      -5.00532,       26.2655,            0.,NA,NA,"",       5.64328,       5.36469,       1.75118,   2.19840E-09
C:/temp/dataset/3/26_9.odb,Step-1,Increment      1: Step Time =    1.000,"PART-1-1",           390,      -3.75495,       25.0275,            0.,NA,NA,"",       5.43339,       5.19281,       1.59887,   14.1950E-09
C:/temp/dataset/3/26_9.odb,Step-1,Increment      1: Step Time =    1.000,"PART-1-1",           391,      -2.50780,       26.2820,            0.,NA,NA,"",       5.53244,       5.34557,       1.42576,   18.2579E-09
C:/temp/dataset/3/26_9.odb,Step-1,Increment      1: Step Time =    1.000,"PART-1-1",           392,      -3.75817,       27.5199,            0.,NA,NA,"",       5.73869,       5.51745,       1.57807,   9.23323E-09
C:/temp/dataset/3/26_9.odb,Step-1,Increment      1: Step Time =    1.000,"PART-1-1",           393,      -5.00193,       23.7670,            0.,NA,NA,"",       5.34174,       5.03925,       1.77202,   2.18416E-09
C:/temp/dataset/3/26_9.odb,Step-1,Increment      1: Step Time =    1.000,"PART-1-1",           394,      -6.25406,       25.0149,            0.,NA,NA,"",       5.55636,       5.21245,       1.92447,   1.09418E-09
C:/temp/dataset/3/26_9.odb,Step-1,Increment      1: Step Time =    1.000,"PART-1-1",           395,      -7.50285,       23.7600,            0.,NA,NA,"",       5.47730,       5.05965,       2.09780,   1.50781E-09
C:/temp/dataset/3/26_9.odb,Step-1,Increment      1: Step Time =    1.000,"PART-1-1",           396,      -6.25071,       22.5121,            0.,NA,NA,"",       5.25946,       4.88646,       1.94535,   1.61487E-09
C:/temp/dataset/3/26_9.odb,Step-1,Increment      1: Step Time =    1.000,"PART-1-1",           397,      -12.5007,       23.7543,            0.,NA,NA,"",       5.79490,       5.10148,       2.74877,   1.02798E-09
C:/temp/dataset/3/26_9.odb,Step-1,Increment      1: Step Time =    1.000,"PART-1-1",           398,      -13.7507,       25.0026,            0.,NA,NA,"",       6.01979,       5.27470,       2.90093,   1.04228E-09
C:/temp/dataset/3/26_9.odb,Step-1,Increment      1: Step Time =    1.000,"PART-1-1",           399,          -15.,         23.75,            0.,NA,NA,"",       5.97398,       5.12221,       3.07432,   1.01466E-09
C:/temp/dataset/3/26_9.odb,Step-1,Increment      1: Step Time =    1.000,"PART-1-1",           400,       1.22659,       27.5580,            0.,NA,NA,"",       5.55805,       5.47995,   928.523E-03,   129.908E-09
C:/temp/dataset/3/26_9.odb,Step-1,Increment      1: Step Time =    1.000,"PART-1-1",           401,       2.48534,       28.7828,            0.,NA,NA,"",       5.67905,       5.62875,   754.149E-03,   132.281E-09
C:/temp/dataset/3/26_9.odb,Step-1,Increment      1: Step Time =    1.000,"PART-1-1",           402,          1.25,           30.,            0.,NA,NA,"",       5.86796,       5.79780,   904.673E-03,   90.9164E-09
C:/temp/dataset/3/26_9.odb,Step-1,Increment      1: Step Time =    1.000,"PART-1-1",           403,  -8.74824E-03,       28.7751,            0.,NA,NA,"",       5.75113,       5.64899,       1.07905,   43.1132E-09
C:/temp/dataset/3/26_9.odb,Step-1,Increment      1: Step Time =    1.000,"PART-1-1",           404,  -16.7069E-03,       26.3073,            0.,NA,NA,"",       5.44024,       5.32764,       1.10110,   74.9816E-09
C:/temp/dataset/3/26_9.odb,Step-1,Increment      1: Step Time =    1.000,"PART-1-1",           405,       2.46714,       26.3253,            0.,NA,NA,"",       5.36547,       5.30884,   777.451E-03,   202.660E-09
C:/temp/dataset/3/26_9.odb,Step-1,Increment      1: Step Time =    1.000,"PART-1-1",           406,       3.70751,       22.5746,            0.,NA,NA,"",       4.85321,       4.80978,   647.853E-03,   552.806E-09
C:/temp/dataset/3/26_9.odb,Step-1,Increment      1: Step Time =    1.000,"PART-1-1",           407,       2.48879,       21.2797,            0.,NA,NA,"",       4.72281,       4.65150,   817.609E-03,   237.660E-09
C:/temp/dataset/3/26_9.odb,Step-1,Increment      1: Step Time =    1.000,"PART-1-1",           408,          3.75,           20.,            0.,NA,NA,"",       4.52314,       4.47410,   664.248E-03,   970.171E-09
C:/temp/dataset/3/26_9.odb,Step-1,Increment      1: Step Time =    1.000,"PART-1-1",           409,       4.96872,       21.2949,            0.,NA,NA,"",       4.65869,       4.63237,   494.492E-03,   488.627E-09
C:/temp/dataset/3/26_9.odb,Step-1,Increment      1: Step Time =    1.000,"PART-1-1",           410,       10.8479,       12.4309,            0.,NA,NA,"",       3.43352,       3.42795,  -195.484E-03,   97.2869E-06
C:/temp/dataset/3/26_9.odb,Step-1,Increment      1: Step Time =    1.000,"PART-1-1",           411,       9.34812,       11.6387,            0.,NA,NA,"",       3.33750,       3.33749,   6.71541E-03,   118.966E-06
C:/temp/dataset/3/26_9.odb,Step-1,Increment      1: Step Time =    1.000,"PART-1-1",           412,       9.99050,       10.5520,            0.,NA,NA,"",       3.19127,       3.19055,  -67.6043E-03,   100.936E-06
C:/temp/dataset/3/26_9.odb,Step-1,Increment      1: Step Time =    1.000,"PART-1-1",           413,       11.4903,       11.3442,            0.,NA,NA,"",       3.29202,       3.28094,  -269.888E-03,   96.1835E-06
C:/temp/dataset/3/26_9.odb,Step-1,Increment      1: Step Time =    1.000,"PART-1-1",           414,       7.16850,       11.5014,            0.,NA,NA,"",       3.35077,       3.33807,   291.462E-03,   143.293E-06
C:/temp/dataset/3/26_9.odb,Step-1,Increment      1: Step Time =    1.000,"PART-1-1",           415,       6.10343,       12.5850,            0.,NA,NA,"",       3.51350,       3.48821,   420.763E-03,   95.5068E-06
C:/temp/dataset/3/26_9.odb,Step-1,Increment      1: Step Time =    1.000,"PART-1-1",           416,            5.,         11.25,            0.,NA,NA,"",       3.37331,       3.32385,   575.510E-03,   289.856E-06
C:/temp/dataset/3/26_9.odb,Step-1,Increment      1: Step Time =    1.000,"PART-1-1",           417,       6.06507,       10.1664,            0.,NA,NA,"",       3.20491,       3.17372,   446.042E-03,   239.209E-06
C:/temp/dataset/3/26_9.odb,Step-1,Increment      1: Step Time =    1.000,"PART-1-1",           418,       14.0565,       5.06378,            0.,NA,NA,"",       2.49692,       2.43552,  -550.333E-03,   925.747E-06
C:/temp/dataset/3/26_9.odb,Step-1,Increment      1: Step Time =    1.000,"PART-1-1",           419,       12.6274,       3.86448,            0.,NA,NA,"",       2.31526,       2.28822,  -352.844E-03,   3.14497E-03
C:/temp/dataset/3/26_9.odb,Step-1,Increment      1: Step Time =    1.000,"PART-1-1",           420,           15.,          3.75,            0.,NA,NA,"",       2.34872,       2.25350,  -661.960E-03,   1.78675E-03
C:/temp/dataset/3/26_9.odb,Step-1,Increment      1: Step Time =    1.000,"PART-1-1",           421,       10.0280,       5.47301,            0.,NA,NA,"",       2.52659,       2.52640,  -30.9992E-03,   2.57023E-03
C:/temp/dataset/3/26_9.odb,Step-1,Increment      1: Step Time =    1.000,"PART-1-1",           422,       11.0614,       5.01383,            0.,NA,NA,"",       2.46070,       2.45543,  -160.907E-03,   2.58717E-03
C:/temp/dataset/3/26_9.odb,Step-1,Increment      1: Step Time =    1.000,"PART-1-1",           423,       11.6033,       6.33570,            0.,NA,NA,"",       2.63614,       2.62501,  -242.004E-03,   1.41077E-03
C:/temp/dataset/3/26_9.odb,Step-1,Increment      1: Step Time =    1.000,"PART-1-1",           424,       10.5698,       6.79489,            0.,NA,NA,"",       2.69734,       2.69503,  -111.543E-03,   1.25498E-03
C:/temp/dataset/3/26_9.odb,Step-1,Increment      1: Step Time =    1.000,"PART-1-1",           425,      -4.94418,       3.17107,            0.,NA,NA,"",       3.15495,       2.39767,       2.05059,   100.114E-06
C:/temp/dataset/3/26_9.odb,Step-1,Increment      1: Step Time =    1.000,"PART-1-1",           426,      -3.90803,       4.11594,            0.,NA,NA,"",       3.15349,       2.52000,       1.89581,   309.726E-06
C:/temp/dataset/3/26_9.odb,Step-1,Increment      1: Step Time =    1.000,"PART-1-1",           427,      -5.05000,            5.,            0.,NA,NA,"",       3.35244,       2.65483,       2.04712,   482.209E-06
C:/temp/dataset/3/26_9.odb,Step-1,Increment      1: Step Time =    1.000,"PART-1-1",           428,      -6.08615,       4.05513,            0.,NA,NA,"",       3.35563,       2.53247,       2.20154,   258.766E-06
C:/temp/dataset/3/26_9.odb,Step-1,Increment      1: Step Time =    1.000,"PART-1-1",           429,      -3.86135,       2.39128,            0.,NA,NA,"",       2.97049,       2.27792,       1.90655,   426.682E-06
C:/temp/dataset/3/26_9.odb,Step-1,Increment      1: Step Time =    1.000,"PART-1-1",           430,      -5.85027,       2.20434,            0.,NA,NA,"",       3.15299,       2.27130,       2.18690,   142.665E-06
C:/temp/dataset/3/26_9.odb,Step-1,Increment      1: Step Time =    1.000,"PART-1-1",           431,      -4.76744,       1.42454,            0.,NA,NA,"",       2.96727,       2.15165,       2.04331,   319.166E-06
C:/temp/dataset/3/26_9.odb,Step-1,Increment      1: Step Time =    1.000,"PART-1-1",           432,      -9.29397,       2.69508,            0.,NA,NA,"",       3.56688,       2.37360,       2.66245,   138.495E-06
C:/temp/dataset/3/26_9.odb,Step-1,Increment      1: Step Time =    1.000,"PART-1-1",           433,      -8.28887,       3.92576,            0.,NA,NA,"",       3.56803,       2.53563,       2.51026,   149.056E-06
C:/temp/dataset/3/26_9.odb,Step-1,Increment      1: Step Time =    1.000,"PART-1-1",           434,          -9.5,            5.,            0.,NA,NA,"",       3.79421,       2.69717,       2.66857,   139.029E-06
C:/temp/dataset/3/26_9.odb,Step-1,Increment      1: Step Time =    1.000,"PART-1-1",           435,      -10.5051,       3.76932,            0.,NA,NA,"",       3.79267,       2.53529,       2.82075,   67.0682E-06
C:/temp/dataset/3/26_9.odb,Step-1,Increment      1: Step Time =    1.000,"PART-1-1",           436,      -7.92731,       1.84143,            0.,NA,NA,"",       3.34273,       2.24102,       2.48026,   166.200E-06
C:/temp/dataset/3/26_9.odb,Step-1,Increment      1: Step Time =    1.000,"PART-1-1",           437,      -6.68589,       1.06488,            0.,NA,NA,"",       3.13906,       2.12032,       2.31473,   161.131E-06
C:/temp/dataset/3/26_9.odb,Step-1,Increment      1: Step Time =    1.000,"PART-1-1",           438,      -7.09169,       2.98089,            0.,NA,NA,"",       3.35504,       2.39202,       2.35257,   167.871E-06
C:/temp/dataset/3/26_9.odb,Step-1,Increment      1: Step Time =    1.000,"PART-1-1",           439,      -13.9000,            5.,            0.,NA,NA,"",       4.27537,       2.73997,       3.28197,   5.30219E-06
C:/temp/dataset/3/26_9.odb,Step-1,Increment      1: Step Time =    1.000,"PART-1-1",           440,          -15.,          3.75,            0.,NA,NA,"",       4.30390,       2.57644,       3.44755,   4.59811E-06
C:/temp/dataset/3/26_9.odb,Step-1,Increment      1: Step Time =    1.000,"PART-1-1",           441,      -12.7489,       3.73428,            0.,NA,NA,"",       4.04168,       2.55226,       3.13386,   24.5178E-06
C:/temp/dataset/3/26_9.odb,Step-1,Increment      1: Step Time =    1.000,"PART-1-1",           442,      -9.48823,      -2.88104,            0.,NA,NA,"",       3.17505,       1.59803,       2.74359,   147.037E-06
C:/temp/dataset/3/26_9.odb,Step-1,Increment      1: Step Time =    1.000,"PART-1-1",           443,      -8.42388,      -2.23568,            0.,NA,NA,"",       3.08485,       1.67746,       2.58891,   171.385E-06
C:/temp/dataset/3/26_9.odb,Step-1,Increment      1: Step Time =    1.000,"PART-1-1",           444,      -10.2645,      -1.43363,            0.,NA,NA,"",       3.36444,       1.80729,       2.83781,   98.2061E-06
C:/temp/dataset/3/26_9.odb,Step-1,Increment      1: Step Time =    1.000,"PART-1-1",           445,      -12.6725,      -1.29786,            0.,NA,NA,"",       3.67220,       1.84984,       3.17224,   39.1453E-06
C:/temp/dataset/3/26_9.odb,Step-1,Increment      1: Step Time =    1.000,"PART-1-1",           446,          -15.,         -1.25,            0.,NA,NA,"",       3.96934,       1.87928,       3.49628,   23.4545E-06
C:/temp/dataset/3/26_9.odb,Step-1,Increment      1: Step Time =    1.000,"PART-1-1",           447,      -6.16813,      -3.97275,            0.,NA,NA,"",       2.69265,       1.41403,       2.29149,   325.895E-06
C:/temp/dataset/3/26_9.odb,Step-1,Increment      1: Step Time =    1.000,"PART-1-1",           448,      -4.95000,           -5.,            0.,NA,NA,"",       2.47702,       1.26035,       2.13240,   714.708E-06
C:/temp/dataset/3/26_9.odb,Step-1,Increment      1: Step Time =    1.000,"PART-1-1",           449,       1.59412,  -355.999E-03,            0.,NA,NA,"",       2.18144,       1.84891,       1.15767,   7.92576E-03
C:/temp/dataset/3/26_9.odb,Step-1,Increment      1: Step Time =    1.000,"PART-1-1",           450,       2.17826,      -1.53992,            0.,NA,NA,"",       2.00413,       1.68435,       1.08605,   10.5927E-03
C:/temp/dataset/3/26_9.odb,Step-1,Increment      1: Step Time =    1.000,"PART-1-1",           451,       2.86763,   426.804E-03,            0.,NA,NA,"",       2.16751,       1.94195,   962.772E-03,   7.67140E-03
C:/temp/dataset/3/26_9.odb,Step-1,Increment      1: Step Time =    1.000,"PART-1-1",           452,  -387.277E-03,   5.26357E-03,            0.,NA,NA,"",       2.39605,       1.91436,       1.44094,   4.78630E-03
C:/temp/dataset/3/26_9.odb,Step-1,Increment      1: Step Time =    1.000,"PART-1-1",           453,   283.611E-03,      -1.19839,            0.,NA,NA,"",       2.21189,       1.74401,       1.36046,   7.15037E-03
C:/temp/dataset/3/26_9.odb,Step-1,Increment      1: Step Time =    1.000,"PART-1-1",           454,   923.228E-03,   847.652E-03,            0.,NA,NA,"",       2.36957,       2.01817,       1.24170,   5.91761E-03
C:/temp/dataset/3/26_9.odb,Step-1,Increment      1: Step Time =    1.000,"PART-1-1",           455,       6.35531,      -13.1332,            0.,NA,NA,"",   508.350E-03,   418.249E-03,   288.943E-03,   29.4426E-03
C:/temp/dataset/3/26_9.odb,Step-1,Increment      1: Step Time =    1.000,"PART-1-1",           456,       7.49455,      -12.2656,            0.,NA,NA,"",   518.764E-03,   466.678E-03,   226.557E-03,   22.5248E-03
C:/temp/dataset/3/26_9.odb,Step-1,Increment      1: Step Time =    1.000,"PART-1-1",           457,       6.13925,      -10.3824,            0.,NA,NA,"",   740.080E-03,   640.687E-03,   370.458E-03,   30.4603E-03
C:/temp/dataset/3/26_9.odb,Step-1,Increment      1: Step Time =    1.000,"PART-1-1",           458,            5.,        -11.25,            0.,NA,NA,"",   734.229E-03,   587.807E-03,   439.972E-03,   37.2921E-03
C:/temp/dataset/3/26_9.odb,Step-1,Increment      1: Step Time =    1.000,"PART-1-1",           459,       13.3376,      -16.9670,            0.,NA,NA,"",   204.236E-03,   159.142E-03,  -128.009E-03,   15.6767E-03
C:/temp/dataset/3/26_9.odb,Step-1,Increment      1: Step Time =    1.000,"PART-1-1",           460,       11.8219,      -18.0071,            0.,NA,NA,"",   119.958E-03,   109.066E-03,  -49.9441E-03,   6.70678E-03
C:/temp/dataset/3/26_9.odb,Step-1,Increment      1: Step Time =    1.000,"PART-1-1",           461,           15.,        -18.75,            0.,NA,NA,"",   192.250E-03,   103.571E-03,  -161.966E-03,   25.3668E-03
C:/temp/dataset/3/26_9.odb,Step-1,Increment      1: Step Time =    1.000,"PART-1-1",           462,       8.42876,      -15.2973,            0.,NA,NA,"",   278.200E-03,   250.804E-03,   120.385E-03,   16.3496E-03
C:/temp/dataset/3/26_9.odb,Step-1,Increment      1: Step Time =    1.000,"PART-1-1",           463,       10.4111,      -16.6310,            0.,NA,NA,"",   168.372E-03,   168.129E-03,   9.03332E-03,   2.77639E-03
C:/temp/dataset/3/26_9.odb,Step-1,Increment      1: Step Time =    1.000,"PART-1-1",           464,       10.7289,      -14.9294,            0.,NA,NA,"",   260.583E-03,   260.484E-03,  -7.20440E-03,   1.67388E-03
C:/temp/dataset/3/26_9.odb,Step-1,Increment      1: Step Time =    1.000,"PART-1-1",           465,       8.74656,      -13.5956,            0.,NA,NA,"",   376.818E-03,   356.734E-03,   121.378E-03,   14.7552E-03
C:/temp/dataset/3/26_9.odb,Step-1,Increment      1: Step Time =    1.000,"PART-1-1",           466,      -8.72016,      -22.5745,            0.,NA,NA,"",   14.6396E-03,   14.5945E-03,  -1.14913E-03,   499.443E-06
C:/temp/dataset/3/26_9.odb,Step-1,Increment      1: Step Time =    1.000,"PART-1-1",           467,      -7.48342,      -21.2909,            0.,NA,NA,"",   15.6259E-03,   15.5419E-03,  -1.61830E-03,   239.103E-06
C:/temp/dataset/3/26_9.odb,Step-1,Increment      1: Step Time =    1.000,"PART-1-1",           468,         -8.75,          -20.,            0.,NA,NA,"",   15.9122E-03,   15.8574E-03,  -1.31976E-03,   138.157E-06
C:/temp/dataset/3/26_9.odb,Step-1,Increment      1: Step Time =    1.000,"PART-1-1",           469,      -9.98674,      -21.2836,            0.,NA,NA,"",   15.1939E-03,   15.1785E-03,  -684.824E-06,   110.175E-06
C:/temp/dataset/3/26_9.odb,Step-1,Increment      1: Step Time =    1.000,"PART-1-1",           470,      -4.96670,      -26.3491,            0.,NA,NA,"",   13.2043E-03,   13.1727E-03,   912.887E-06,   2.33887E-03
C:/temp/dataset/3/26_9.odb,Step-1,Increment      1: Step Time =    1.000,"PART-1-1",           471,      -6.21541,      -25.0985,            0.,NA,NA,"",   14.0702E-03,   14.0688E-03,  -200.102E-06,   1.73114E-03
C:/temp/dataset/3/26_9.odb,Step-1,Increment      1: Step Time =    1.000,"PART-1-1",           472,      -7.47738,      -26.3212,            0.,NA,NA,"",   10.6545E-03,   10.6542E-03,  -84.8554E-06,   1.69618E-03
C:/temp/dataset/3/26_9.odb,Step-1,Increment      1: Step Time =    1.000,"PART-1-1",           473,      -6.22867,      -27.5719,            0.,NA,NA,"",   8.70161E-03,   8.68797E-03,   487.102E-06,   2.34695E-03
C:/temp/dataset/3/26_9.odb,Step-1,Increment      1: Step Time =    1.000,"PART-1-1",           474,   49.7896E-03,      -26.4387,            0.,NA,NA,"",   20.3584E-03,   17.6527E-03,   10.1414E-03,   5.46067E-03
C:/temp/dataset/3/26_9.odb,Step-1,Increment      1: Step Time =    1.000,"PART-1-1",           475,       1.24862,      -27.7048,            0.,NA,NA,"",   15.0397E-03,   12.0139E-03,   9.04757E-03,   6.34034E-03
C:/temp/dataset/3/26_9.odb,Step-1,Increment      1: Step Time =    1.000,"PART-1-1",           476,       2.52056,      -26.5649,            0.,NA,NA,"",   23.6244E-03,   14.6742E-03,   18.5143E-03,   8.57165E-03
C:/temp/dataset/3/26_9.odb,Step-1,Increment      1: Step Time =    1.000,"PART-1-1",           477,       1.32172,      -25.2988,            0.,NA,NA,"",   28.6623E-03,   21.3485E-03,   19.1251E-03,   7.40505E-03
C:/temp/dataset/3/26_9.odb,Step-1,Increment      1: Step Time =    1.000,"PART-1-1",           478,        -13.75,          -20.,            0.,NA,NA,"",   16.5627E-03,   16.3518E-03,   2.63443E-03,   43.3266E-06
C:/temp/dataset/3/26_9.odb,Step-1,Increment      1: Step Time =    1.000,"PART-1-1",           479,          -15.,        -21.25,            0.,NA,NA,"",   15.6052E-03,   15.0994E-03,   3.94111E-03,   35.4610E-06
C:/temp/dataset/3/26_9.odb,Step-1,Increment      1: Step Time =    1.000,"PART-1-1",           480,      -13.7430,      -22.5153,            0.,NA,NA,"",   14.0504E-03,   13.8031E-03,   2.62479E-03,   40.6271E-06
C:/temp/dataset/3/26_9.odb,Step-1,Increment      1: Step Time =    1.000,"PART-1-1",           481,      -12.4930,      -21.2653,            0.,NA,NA,"",   15.1521E-03,   15.0926E-03,   1.34162E-03,   21.9568E-06
C:/temp/dataset/3/26_9.odb,Step-1,Increment      1: Step Time =    1.000,"PART-1-1",           482,      -11.2297,      -22.5489,            0.,NA,NA,"",   13.9497E-03,   13.9475E-03,   245.723E-06,   220.515E-06
C:/temp/dataset/3/26_9.odb,Step-1,Increment      1: Step Time =    1.000,"PART-1-1",           483,        -11.25,          -20.,            0.,NA,NA,"",   16.1631E-03,   16.1612E-03,   248.296E-06,   114.904E-06
C:/temp/dataset/3/26_9.odb,Step-1,Increment      1: Step Time =    1.000,"PART-1-1",           484,      -13.7448,      -25.0201,            0.,NA,NA,"",   10.8300E-03,   10.5324E-03,   2.52121E-03,   274.712E-06
C:/temp/dataset/3/26_9.odb,Step-1,Increment      1: Step Time =    1.000,"PART-1-1",           485,      -12.4878,      -23.7854,            0.,NA,NA,"",   12.4145E-03,   12.3447E-03,   1.31508E-03,   305.991E-06
C:/temp/dataset/3/26_9.odb,Step-1,Increment      1: Step Time =    1.000,"PART-1-1",           486,          -15.,        -23.75,            0.,NA,NA,"",   12.9861E-03,   12.3166E-03,   4.11594E-03,   40.9586E-06
C:/temp/dataset/3/26_9.odb,Step-1,Increment      1: Step Time =    1.000,"PART-1-1",           487,       13.7335,      -27.5520,            0.,NA,NA,"",   17.0609E-03,  -9.80530E-03,  -13.9618E-03,   8.40229E-03
C:/temp/dataset/3/26_9.odb,Step-1,Increment      1: Step Time =    1.000,"PART-1-1",           488,       12.4835,      -28.8020,            0.,NA,NA,"",   9.04637E-03,  -8.17193E-03,  -3.88024E-03,   6.83124E-03
C:/temp/dataset/3/26_9.odb,Step-1,Increment      1: Step Time =    1.000,"PART-1-1",           489,         13.75,          -30.,            0.,NA,NA,"",            0.,  -2.92018E-39,  -8.02676E-39,   4.93810E-03
C:/temp/dataset/3/26_9.odb,Step-1,Increment      1: Step Time =    1.000,"PART-1-1",           490,           15.,        -28.75,            0.,NA,NA,"",   5.77340E-03,  -1.19269E-03,  -5.64886E-03,   7.24687E-03
C:/temp/dataset/3/26_9.odb,Step-1,Increment      1: Step Time =    1.000,"PART-1-1",           491,       9.98010,      -28.8907,            0.,NA,NA,"",   8.76044E-03,  -8.68753E-03,   1.12795E-03,   5.70280E-03
C:/temp/dataset/3/26_9.odb,Step-1,Increment      1: Step Time =    1.000,"PART-1-1",           492,       8.70049,      -27.8380,            0.,NA,NA,"",   13.5056E-03,  -11.1137E-03,   7.67378E-03,   6.19421E-03
C:/temp/dataset/3/26_9.odb,Step-1,Increment      1: Step Time =    1.000,"PART-1-1",           493,          8.75,          -30.,            0.,NA,NA,"",            0.,  -5.08479E-39,   5.62247E-39,   5.74486E-03
C:/temp/dataset/3/26_9.odb,Step-1,Increment      1: Step Time =    1.000,"PART-1-1",           494,       11.2136,      -27.6927,            0.,NA,NA,"",   14.8430E-03,  -14.5887E-03,  -2.73596E-03,   5.20665E-03
C:/temp/dataset/3/26_9.odb,Step-1,Increment      1: Step Time =    1.000,"PART-1-1",           495,       12.3768,      -26.3916,            0.,NA,NA,"",   21.0939E-03,  -16.1195E-03,  -13.6056E-03,   7.84300E-03
C:/temp/dataset/3/26_9.odb,Step-1,Increment      1: Step Time =    1.000,"PART-1-1",           496,       11.0556,      -25.4315,            0.,NA,NA,"",   17.7942E-03,  -17.4009E-03,  -3.72014E-03,   6.38651E-03
C:/temp/dataset/3/26_9.odb,Step-1,Increment      1: Step Time =    1.000,"PART-1-1",           497,       9.89242,      -26.7326,            0.,NA,NA,"",   17.0641E-03,  -16.1150E-03,   5.61158E-03,   6.35739E-03
C:/temp/dataset/3/26_9.odb,Step-1,Increment      1: Step Time =    1.000,"PART-1-1",           498,   9.79186E-03,      -28.8313,            0.,NA,NA,"",   7.88806E-03,   7.15398E-03,   3.32296E-03,   5.50045E-03
C:/temp/dataset/3/26_9.odb,Step-1,Increment      1: Step Time =    1.000,"PART-1-1",           499,          1.25,          -30.,            0.,NA,NA,"",            0.,   4.00229E-39,   8.65046E-39,   5.95951E-03
C:/temp/dataset/3/26_9.odb,Step-1,Increment      1: Step Time =    1.000,"PART-1-1",           500,      -1.18061,      -25.1833,            0.,NA,NA,"",   21.9974E-03,   20.4584E-03,   8.08353E-03,   4.33682E-03
C:/temp/dataset/3/26_9.odb,Step-1,Increment      1: Step Time =    1.000,"PART-1-1",           501,      -2.45538,      -26.3836,            0.,NA,NA,"",   16.5172E-03,   16.0365E-03,   3.95586E-03,   3.47100E-03
C:/temp/dataset/3/26_9.odb,Step-1,Increment      1: Step Time =    1.000,"PART-1-1",           502,      -1.22498,      -27.6390,            0.,NA,NA,"",   13.4412E-03,   12.6190E-03,   4.62889E-03,   4.46578E-03
C:/temp/dataset/3/26_9.odb,Step-1,Increment      1: Step Time =    1.000,"PART-1-1",           503,      -3.70005,      -25.1329,            0.,NA,NA,"",   17.1975E-03,   17.0745E-03,   2.05281E-03,   2.61375E-03
C:/temp/dataset/3/26_9.odb,Step-1,Increment      1: Step Time =    1.000,"PART-1-1",           504,      -7.49141,      -28.7797,            0.,NA,NA,"",   4.15291E-03,   4.14305E-03,   285.963E-06,   2.15455E-03
C:/temp/dataset/3/26_9.odb,Step-1,Increment      1: Step Time =    1.000,"PART-1-1",           505,         -6.25,          -30.,            0.,NA,NA,"",            0.,   2.60522E-39,   1.46520E-39,   2.83706E-03
C:/temp/dataset/3/26_9.odb,Step-1,Increment      1: Step Time =    1.000,"PART-1-1",           506,      -12.4949,      -26.2800,            0.,NA,NA,"",   8.29799E-03,   8.22414E-03,   1.10461E-03,   961.310E-06
C:/temp/dataset/3/26_9.odb,Step-1,Increment      1: Step Time =    1.000,"PART-1-1",           507,          -15.,        -26.25,            0.,NA,NA,"",   9.48357E-03,   8.52254E-03,   4.15987E-03,   388.505E-06
C:/temp/dataset/3/26_9.odb,Step-1,Increment      1: Step Time =    1.000,"PART-1-1",           508,       12.0036,      -23.8365,            0.,NA,NA,"",   23.4213E-03,  -10.9843E-03,  -20.6858E-03,   8.45998E-03
C:/temp/dataset/3/26_9.odb,Step-1,Increment      1: Step Time =    1.000,"PART-1-1",           509,       13.6432,      -25.0896,            0.,NA,NA,"",   34.6623E-03,  -11.0409E-03,  -32.8569E-03,   10.7511E-03
C:/temp/dataset/3/26_9.odb,Step-1,Increment      1: Step Time =    1.000,"PART-1-1",           510,           15.,        -23.75,            0.,NA,NA,"",   61.4355E-03,   4.41716E-03,  -61.2765E-03,   17.4386E-03
C:/temp/dataset/3/26_9.odb,Step-1,Increment      1: Step Time =    1.000,"PART-1-1",           511,         11.25,          -30.,            0.,NA,NA,"",            0.,  -6.21911E-39,  -2.33951E-39,   5.89091E-03
C:/temp/dataset/3/26_9.odb,Step-1,Increment      1: Step Time =    1.000,"PART-1-1",           512,       13.9281,      -14.6298,            0.,NA,NA,"",   348.345E-03,   285.551E-03,  -199.510E-03,   19.3515E-03
C:/temp/dataset/3/26_9.odb,Step-1,Increment      1: Step Time =    1.000,"PART-1-1",           513,       12.2657,      -15.3468,            0.,NA,NA,"",   254.125E-03,   236.696E-03,  -92.4895E-03,   8.51908E-03
C:/temp/dataset/3/26_9.odb,Step-1,Increment      1: Step Time =    1.000,"PART-1-1",           514,           15.,        -16.25,            0.,NA,NA,"",   304.669E-03,   206.957E-03,  -223.589E-03,   26.5455E-03
C:/temp/dataset/3/26_9.odb,Step-1,Increment      1: Step Time =    1.000,"PART-1-1",           515,       7.13425,      -14.5121,            0.,NA,NA,"",   376.373E-03,   313.606E-03,   208.106E-03,   25.7481E-03
C:/temp/dataset/3/26_9.odb,Step-1,Increment      1: Step Time =    1.000,"PART-1-1",           516,       6.81531,      -16.2905,            0.,NA,NA,"",   280.971E-03,   210.127E-03,   186.525E-03,   27.6696E-03
C:/temp/dataset/3/26_9.odb,Step-1,Increment      1: Step Time =    1.000,"PART-1-1",           517,       8.10983,      -17.0757,            0.,NA,NA,"",   192.592E-03,   156.643E-03,   112.047E-03,   18.4085E-03
C:/temp/dataset/3/26_9.odb,Step-1,Increment      1: Step Time =    1.000,"PART-1-1",           518,       13.8641,      -7.41825,            0.,NA,NA,"",   933.291E-03,   870.574E-03,  -336.352E-03,   16.6254E-03
C:/temp/dataset/3/26_9.odb,Step-1,Increment      1: Step Time =    1.000,"PART-1-1",           519,       13.0286,      -8.63342,            0.,NA,NA,"",   783.807E-03,   748.470E-03,  -232.694E-03,   12.3465E-03
C:/temp/dataset/3/26_9.odb,Step-1,Increment      1: Step Time =    1.000,"PART-1-1",           520,       14.1645,      -9.96517,            0.,NA,NA,"",   703.013E-03,   629.943E-03,  -312.087E-03,   19.6673E-03
C:/temp/dataset/3/26_9.odb,Step-1,Increment      1: Step Time =    1.000,"PART-1-1",           521,           15.,         -8.75,            0.,NA,NA,"",   854.341E-03,   744.746E-03,  -418.630E-03,   24.1718E-03
C:/temp/dataset/3/26_9.odb,Step-1,Increment      1: Step Time =    1.000,"PART-1-1",           522,       12.0251,      -10.9831,            0.,NA,NA,"",   551.028E-03,   538.767E-03,  -115.596E-03,   6.53516E-03
C:/temp/dataset/3/26_9.odb,Step-1,Increment      1: Step Time =    1.000,"PART-1-1",           523,       12.8055,      -11.9581,            0.,NA,NA,"",   491.065E-03,   462.197E-03,  -165.887E-03,   11.4006E-03
C:/temp/dataset/3/26_9.odb,Step-1,Increment      1: Step Time =    1.000,"PART-1-1",           524,       13.3751,      -11.0455,            0.,NA,NA,"",   580.724E-03,   535.638E-03,  -224.348E-03,   14.8764E-03
C:/temp/dataset/3/26_9.odb,Step-1,Increment      1: Step Time =    1.000,"PART-1-1",           525,       12.5947,      -10.0706,            0.,NA,NA,"",   640.217E-03,   616.362E-03,  -173.136E-03,   9.90709E-03
C:/temp/dataset/3/26_9.odb,Step-1,Increment      1: Step Time =    1.000,"PART-1-1",           526,       11.4853,  -434.223E-03,            0.,NA,NA,"",       1.73000,       1.72183,  -167.919E-03,   7.76608E-03
C:/temp/dataset/3/26_9.odb,Step-1,Increment      1: Step Time =    1.000,"PART-1-1",           527,       10.5886,      -1.82652,            0.,NA,NA,"",       1.54464,       1.54388,  -48.6767E-03,   9.10453E-03
C:/temp/dataset/3/26_9.odb,Step-1,Increment      1: Step Time =    1.000,"PART-1-1",           528,       11.9063,      -2.70193,            0.,NA,NA,"",       1.43494,       1.42172,  -194.349E-03,   8.78794E-03
C:/temp/dataset/3/26_9.odb,Step-1,Increment      1: Step Time =    1.000,"PART-1-1",           529,       14.1300,       7.44597,            0.,NA,NA,"",       2.80960,       2.74883,  -581.200E-03,   210.455E-06
C:/temp/dataset/3/26_9.odb,Step-1,Increment      1: Step Time =    1.000,"PART-1-1",           530,       13.1865,       6.25975,            0.,NA,NA,"",       2.63914,       2.60094,  -447.397E-03,   959.940E-06
C:/temp/dataset/3/26_9.odb,Step-1,Increment      1: Step Time =    1.000,"PART-1-1",           531,           15.,          6.25,            0.,NA,NA,"",       2.67326,       2.58399,  -685.067E-03,   93.2820E-06
C:/temp/dataset/3/26_9.odb,Step-1,Increment      1: Step Time =    1.000,"PART-1-1",           532,       12.4155,       5.33720,            0.,NA,NA,"",       2.50872,       2.48574,  -338.766E-03,   1.75954E-03
C:/temp/dataset/3/26_9.odb,Step-1,Increment      1: Step Time =    1.000,"PART-1-1",           533,       11.2733,       3.54111,            0.,NA,NA,"",       2.26415,       2.25728,  -176.242E-03,   3.98084E-03
C:/temp/dataset/3/26_9.odb,Step-1,Increment      1: Step Time =    1.000,"PART-1-1",           534,       12.2480,       13.5548,            0.,NA,NA,"",       3.58345,       3.56243,  -387.593E-03,   86.0240E-06
C:/temp/dataset/3/26_9.odb,Step-1,Increment      1: Step Time =    1.000,"PART-1-1",           535,           15.,         13.75,            0.,NA,NA,"",       3.64197,       3.56435,  -747.856E-03,   93.0263E-06
C:/temp/dataset/3/26_9.odb,Step-1,Increment      1: Step Time =    1.000,"PART-1-1",           536,       13.6600,       14.9734,            0.,NA,NA,"",       3.78045,       3.73512,  -583.669E-03,   39.3268E-06
C:/temp/dataset/3/26_9.odb,Step-1,Increment      1: Step Time =    1.000,"PART-1-1",           537,       8.15326,       10.4556,            0.,NA,NA,"",       3.19828,       3.19364,   172.331E-03,   123.671E-06
C:/temp/dataset/3/26_9.odb,Step-1,Increment      1: Step Time =    1.000,"PART-1-1",           538,       12.3824,       21.2920,            0.,NA,NA,"",       4.59307,       4.56886,  -471.038E-03,   2.85367E-06
C:/temp/dataset/3/26_9.odb,Step-1,Increment      1: Step Time =    1.000,"PART-1-1",           539,       13.6892,       20.0188,            0.,NA,NA,"",       4.43693,       4.39191,  -630.393E-03,   2.52645E-06
C:/temp/dataset/3/26_9.odb,Step-1,Increment      1: Step Time =    1.000,"PART-1-1",           540,           15.,         21.25,            0.,NA,NA,"",       4.61305,       4.54109,  -811.594E-03,   438.212E-09
C:/temp/dataset/3/26_9.odb,Step-1,Increment      1: Step Time =    1.000,"PART-1-1",           541,       13.6932,       22.5232,            0.,NA,NA,"",       4.76291,       4.71804,  -652.242E-03,   561.844E-09
C:/temp/dataset/3/26_9.odb,Step-1,Increment      1: Step Time =    1.000,"PART-1-1",           542,       9.77662,       16.3041,            0.,NA,NA,"",       3.94243,       3.94143,  -89.1278E-03,   42.3823E-06
C:/temp/dataset/3/26_9.odb,Step-1,Increment      1: Step Time =    1.000,"PART-1-1",           543,       11.0318,       15.0036,            0.,NA,NA,"",       3.76915,       3.76141,  -241.506E-03,   52.6621E-06
C:/temp/dataset/3/26_9.odb,Step-1,Increment      1: Step Time =    1.000,"PART-1-1",           544,       12.3430,       16.2301,            0.,NA,NA,"",       3.93278,       3.90998,  -422.791E-03,   38.9871E-06
C:/temp/dataset/3/26_9.odb,Step-1,Increment      1: Step Time =    1.000,"PART-1-1",           545,         13.75,           30.,            0.,NA,NA,"",       5.73711,       5.69133,  -723.327E-03,   70.1164E-09
C:/temp/dataset/3/26_9.odb,Step-1,Increment      1: Step Time =    1.000,"PART-1-1",           546,       12.4862,       28.7548,            0.,NA,NA,"",       5.56697,       5.53992,  -548.120E-03,   276.950E-09
C:/temp/dataset/3/26_9.odb,Step-1,Increment      1: Step Time =    1.000,"PART-1-1",           547,           15.,         28.75,            0.,NA,NA,"",       5.58690,       5.51788,  -875.479E-03,   79.5176E-09
C:/temp/dataset/3/26_9.odb,Step-1,Increment      1: Step Time =    1.000,"PART-1-1",           548,       12.4064,       23.7898,            0.,NA,NA,"",       4.91897,       4.89396,  -495.439E-03,   290.598E-09
C:/temp/dataset/3/26_9.odb,Step-1,Increment      1: Step Time =    1.000,"PART-1-1",           549,           15.,         23.75,            0.,NA,NA,"",       4.93744,       4.86668,  -832.890E-03,   954.926E-09
C:/temp/dataset/3/26_9.odb,Step-1,Increment      1: Step Time =    1.000,"PART-1-1",           550,       9.91541,       26.3072,            0.,NA,NA,"",       5.24657,       5.24304,  -192.459E-03,   258.223E-09
C:/temp/dataset/3/26_9.odb,Step-1,Increment      1: Step Time =    1.000,"PART-1-1",           551,       11.1537,       25.0565,            0.,NA,NA,"",       5.08120,       5.06960,  -343.084E-03,   331.836E-09
C:/temp/dataset/3/26_9.odb,Step-1,Increment      1: Step Time =    1.000,"PART-1-1",           552,       11.2110,       27.5221,            0.,NA,NA,"",       5.40302,       5.39023,  -371.549E-03,   360.504E-09
C:/temp/dataset/3/26_9.odb,Step-1,Increment      1: Step Time =    1.000,"PART-1-1",           553,       8.69233,       27.5515,            0.,NA,NA,"",       5.41569,       5.41552,  -43.7645E-03,   212.421E-09
C:/temp/dataset/3/26_9.odb,Step-1,Increment      1: Step Time =    1.000,"PART-1-1",           554,       7.41297,       26.3376,            0.,NA,NA,"",       5.27000,       5.26832,   133.199E-03,   218.899E-09
C:/temp/dataset/3/26_9.odb,Step-1,Increment      1: Step Time =    1.000,"PART-1-1",           555,       8.63604,       25.0933,            0.,NA,NA,"",       5.09586,       5.09584,  -15.4958E-03,   269.114E-09
C:/temp/dataset/3/26_9.odb,Step-1,Increment      1: Step Time =    1.000,"PART-1-1",           556,      -1.26375,       27.5391,            0.,NA,NA,"",       5.63966,       5.49870,       1.25303,   46.2167E-09
C:/temp/dataset/3/26_9.odb,Step-1,Increment      1: Step Time =    1.000,"PART-1-1",           557,         -1.25,           30.,            0.,NA,NA,"",       5.94772,       5.81909,       1.23027,   17.7809E-09
C:/temp/dataset/3/26_9.odb,Step-1,Increment      1: Step Time =    1.000,"PART-1-1",           558,      -2.50500,       28.7640,            0.,NA,NA,"",       5.84014,       5.66880,       1.40425,   8.55117E-09
C:/temp/dataset/3/26_9.odb,Step-1,Increment      1: Step Time =    1.000,"PART-1-1",           559,      -7.50143,       28.7522,            0.,NA,NA,"",       6.06840,       5.70982,       2.05509,   2.04936E-09
C:/temp/dataset/3/26_9.odb,Step-1,Increment      1: Step Time =    1.000,"PART-1-1",           560,         -8.75,           30.,            0.,NA,NA,"",       6.28336,       5.88297,       2.20708,   2.29248E-09
C:/temp/dataset/3/26_9.odb,Step-1,Increment      1: Step Time =    1.000,"PART-1-1",           561,      -6.25460,       27.5081,            0.,NA,NA,"",       5.85516,       5.53718,       1.90330,   551.942E-12
C:/temp/dataset/3/26_9.odb,Step-1,Increment      1: Step Time =    1.000,"PART-1-1",           562,        -13.75,           30.,            0.,NA,NA,"",       6.57891,       5.92556,       2.85828,   864.487E-12
C:/temp/dataset/3/26_9.odb,Step-1,Increment      1: Step Time =    1.000,"PART-1-1",           563,          -15.,         28.75,            0.,NA,NA,"",       6.52102,       5.77341,       3.03173,   880.669E-12
C:/temp/dataset/3/26_9.odb,Step-1,Increment      1: Step Time =    1.000,"PART-1-1",           564,      -13.7509,       27.5010,            0.,NA,NA,"",       6.29712,       5.60010,       2.87969,   979.721E-12
C:/temp/dataset/3/26_9.odb,Step-1,Increment      1: Step Time =    1.000,"PART-1-1",           565,          -15.,         26.25,            0.,NA,NA,"",       6.24496,       5.44781,       3.05302,   1.02895E-09
C:/temp/dataset/3/26_9.odb,Step-1,Increment      1: Step Time =    1.000,"PART-1-1",           566,      -12.5016,       26.2536,            0.,NA,NA,"",       6.07388,       5.42699,       2.72760,   1.00836E-09
C:/temp/dataset/3/26_9.odb,Step-1,Increment      1: Step Time =    1.000,"PART-1-1",           567,      -7.50093,       21.2547,            0.,NA,NA,"",       5.18596,       4.73334,       2.11889,   2.08302E-09
C:/temp/dataset/3/26_9.odb,Step-1,Increment      1: Step Time =    1.000,"PART-1-1",           568,         -6.25,           20.,            0.,NA,NA,"",       4.96535,       4.55927,       1.96665,   4.52418E-09
C:/temp/dataset/3/26_9.odb,Step-1,Increment      1: Step Time =    1.000,"PART-1-1",           569,      -4.99978,       21.2574,            0.,NA,NA,"",       5.04201,       4.71239,       1.79311,   2.80821E-09
C:/temp/dataset/3/26_9.odb,Step-1,Increment      1: Step Time =    1.000,"PART-1-1",           570,      -3.74911,       22.5208,            0.,NA,NA,"",       5.12869,       4.86629,       1.61947,   11.4345E-09
C:/temp/dataset/3/26_9.odb,Step-1,Increment      1: Step Time =    1.000,"PART-1-1",           571,         -3.75,           20.,            0.,NA,NA,"",       4.82559,       4.53798,       1.64105,   6.15022E-09
C:/temp/dataset/3/26_9.odb,Step-1,Increment      1: Step Time =    1.000,"PART-1-1",           572,      -2.49933,       21.2634,            0.,NA,NA,"",       4.91599,       4.69188,       1.46740,   11.8339E-09
C:/temp/dataset/3/26_9.odb,Step-1,Increment      1: Step Time =    1.000,"PART-1-1",           573,         -1.25,           20.,            0.,NA,NA,"",       4.70435,       4.51669,       1.31545,   32.1465E-09
C:/temp/dataset/3/26_9.odb,Step-1,Increment      1: Step Time =    1.000,"PART-1-1",           574,  -2.23348E-03,       21.2694,            0.,NA,NA,"",       4.80898,       4.67138,       1.14213,   52.6554E-09
C:/temp/dataset/3/26_9.odb,Step-1,Increment      1: Step Time =    1.000,"PART-1-1",           575,      -1.25156,       22.5328,            0.,NA,NA,"",       5.01637,       4.84657,       1.29408,   45.6519E-09
C:/temp/dataset/3/26_9.odb,Step-1,Increment      1: Step Time =    1.000,"PART-1-1",           576,         -3.75,           30.,            0.,NA,NA,"",       6.04408,       5.84039,       1.55588,   3.07859E-09
C:/temp/dataset/3/26_9.odb,Step-1,Increment      1: Step Time =    1.000,"PART-1-1",           577,      -5.00318,       28.7559,            0.,NA,NA,"",       5.94617,       5.68903,       1.72969,   2.41349E-09
C:/temp/dataset/3/26_9.odb,Step-1,Increment      1: Step Time =    1.000,"PART-1-1",           578,       7.36074,       18.8052,            0.,NA,NA,"",       4.29258,       4.28773,   204.160E-03,   12.0146E-06
C:/temp/dataset/3/26_9.odb,Step-1,Increment      1: Step Time =    1.000,"PART-1-1",           579,       8.58169,       17.5494,            0.,NA,NA,"",       4.11414,       4.11376,   55.8593E-03,   18.5987E-06
C:/temp/dataset/3/26_9.odb,Step-1,Increment      1: Step Time =    1.000,"PART-1-1",           580,       8.60057,       20.0599,            0.,NA,NA,"",       4.44071,       4.44059,   31.9985E-03,   4.54037E-06
C:/temp/dataset/3/26_9.odb,Step-1,Increment      1: Step Time =    1.000,"PART-1-1",           581,            5.,         18.75,            0.,NA,NA,"",       4.33102,       4.30064,   512.095E-03,   4.83725E-06
C:/temp/dataset/3/26_9.odb,Step-1,Increment      1: Step Time =    1.000,"PART-1-1",           582,       6.17685,       17.5255,            0.,NA,NA,"",       4.14758,       4.13111,   369.245E-03,   11.2382E-06
C:/temp/dataset/3/26_9.odb,Step-1,Increment      1: Step Time =    1.000,"PART-1-1",           583,       6.18390,       20.0298,            0.,NA,NA,"",       4.47073,       4.45724,   347.001E-03,   2.33099E-06
C:/temp/dataset/3/26_9.odb,Step-1,Increment      1: Step Time =    1.000,"PART-1-1",           584,            5.,         16.25,            0.,NA,NA,"",       4.01063,       3.97501,   533.372E-03,   30.8590E-06
C:/temp/dataset/3/26_9.odb,Step-1,Increment      1: Step Time =    1.000,"PART-1-1",           585,       6.15340,       15.0385,            0.,NA,NA,"",       3.82763,       3.80736,   393.454E-03,   41.2292E-06
C:/temp/dataset/3/26_9.odb,Step-1,Increment      1: Step Time =    1.000,"PART-1-1",           586,       7.33024,       16.3140,            0.,NA,NA,"",       3.97012,       3.96349,   229.364E-03,   38.0979E-06
C:/temp/dataset/3/26_9.odb,Step-1,Increment      1: Step Time =    1.000,"PART-1-1",           587,           15.,         16.25,            0.,NA,NA,"",       3.96523,       3.88994,  -769.036E-03,   29.1033E-06
C:/temp/dataset/3/26_9.odb,Step-1,Increment      1: Step Time =    1.000,"PART-1-1",           588,       13.6830,       17.5067,            0.,NA,NA,"",       4.11007,       4.06482,  -608.198E-03,   11.9386E-06
C:/temp/dataset/3/26_9.odb,Step-1,Increment      1: Step Time =    1.000,"PART-1-1",           589,           15.,         18.75,            0.,NA,NA,"",       4.28895,       4.21551,  -790.303E-03,   5.36196E-06
C:/temp/dataset/3/26_9.odb,Step-1,Increment      1: Step Time =    1.000,"PART-1-1",           590,       7.36831,       6.81272,            0.,NA,NA,"",       2.74599,       2.72902,   304.809E-03,   1.74518E-03
C:/temp/dataset/3/26_9.odb,Step-1,Increment      1: Step Time =    1.000,"PART-1-1",           591,       6.10412,       7.73110,            0.,NA,NA,"",       2.89541,       2.85840,   461.455E-03,   728.911E-06
C:/temp/dataset/3/26_9.odb,Step-1,Increment      1: Step Time =    1.000,"PART-1-1",           592,            5.,          6.25,            0.,NA,NA,"",       2.74801,       2.67811,   615.854E-03,   2.76956E-03
C:/temp/dataset/3/26_9.odb,Step-1,Increment      1: Step Time =    1.000,"PART-1-1",           593,       6.26419,       5.33162,            0.,NA,NA,"",       2.59265,       2.55160,   459.537E-03,   5.19499E-03
C:/temp/dataset/3/26_9.odb,Step-1,Increment      1: Step Time =    1.000,"PART-1-1",           594,           15.,          8.75,            0.,NA,NA,"",       2.99651,       2.91213,  -706.112E-03,   285.834E-06
C:/temp/dataset/3/26_9.odb,Step-1,Increment      1: Step Time =    1.000,"PART-1-1",           595,       13.1418,       8.51598,            0.,NA,NA,"",       2.93409,       2.89762,  -461.173E-03,   189.224E-06
C:/temp/dataset/3/26_9.odb,Step-1,Increment      1: Step Time =    1.000,"PART-1-1",           596,       6.30252,      -5.49102,            0.,NA,NA,"",       1.20200,       1.11062,   459.712E-03,   27.2770E-03
C:/temp/dataset/3/26_9.odb,Step-1,Increment      1: Step Time =    1.000,"PART-1-1",           597,            5.,         -6.25,            0.,NA,NA,"",       1.21412,       1.05870,   594.343E-03,   48.8497E-03
C:/temp/dataset/3/26_9.odb,Step-1,Increment      1: Step Time =    1.000,"PART-1-1",           598,       6.10325,      -7.87566,            0.,NA,NA,"",   974.060E-03,   871.598E-03,   434.868E-03,   30.6449E-03
C:/temp/dataset/3/26_9.odb,Step-1,Increment      1: Step Time =    1.000,"PART-1-1",           599,       7.40577,      -7.11668,            0.,NA,NA,"",   980.094E-03,   927.864E-03,   315.677E-03,   16.9140E-03
C:/temp/dataset/3/26_9.odb,Step-1,Increment      1: Step Time =    1.000,"PART-1-1",           600,            5.,         -8.75,            0.,NA,NA,"",   958.353E-03,   810.461E-03,   511.462E-03,   37.7005E-03
C:/temp/dataset/3/26_9.odb,Step-1,Increment      1: Step Time =    1.000,"PART-1-1",           601,            5.,        -13.75,            0.,NA,NA,"",   538.041E-03,   398.024E-03,   362.029E-03,   37.6842E-03
C:/temp/dataset/3/26_9.odb,Step-1,Increment      1: Step Time =    1.000,"PART-1-1",           602,       5.77894,      -15.1288,            0.,NA,NA,"",   402.200E-03,   295.113E-03,   273.265E-03,   34.0264E-03
C:/temp/dataset/3/26_9.odb,Step-1,Increment      1: Step Time =    1.000,"PART-1-1",           603,            5.,        -16.25,            0.,NA,NA,"",   372.493E-03,   242.902E-03,   282.400E-03,   39.5361E-03
C:/temp/dataset/3/26_9.odb,Step-1,Increment      1: Step Time =    1.000,"PART-1-1",           604,       2.77244,      -24.0596,            0.,NA,NA,"",   42.5023E-03,   24.7203E-03,   34.5738E-03,   11.0301E-03
C:/temp/dataset/3/26_9.odb,Step-1,Increment      1: Step Time =    1.000,"PART-1-1",           605,       3.76359,      -25.5842,            0.,NA,NA,"",   33.6815E-03,   14.8294E-03,   30.2412E-03,   10.9937E-03
C:/temp/dataset/3/26_9.odb,Step-1,Increment      1: Step Time =    1.000,"PART-1-1",           606,       5.11162,      -24.8806,            0.,NA,NA,"",   43.2789E-03,   10.7160E-03,   41.9313E-03,   14.2755E-03
C:/temp/dataset/3/26_9.odb,Step-1,Increment      1: Step Time =    1.000,"PART-1-1",           607,       4.12047,      -23.3559,            0.,NA,NA,"",   59.9724E-03,   24.4297E-03,   54.7712E-03,   15.1962E-03
C:/temp/dataset/3/26_9.odb,Step-1,Increment      1: Step Time =    1.000,"PART-1-1",           608,       8.48587,      -2.76980,            0.,NA,NA,"",       1.45271,       1.43829,   204.226E-03,   11.4717E-03
C:/temp/dataset/3/26_9.odb,Step-1,Increment      1: Step Time =    1.000,"PART-1-1",           609,       9.66601,      -3.38468,            0.,NA,NA,"",       1.34985,       1.34810,   68.6540E-03,   9.36628E-03
C:/temp/dataset/3/26_9.odb,Step-1,Increment      1: Step Time =    1.000,"PART-1-1",           610,       9.40849,      -1.21164,            0.,NA,NA,"",       1.63861,       1.63623,   88.2361E-03,   9.64641E-03
C:/temp/dataset/3/26_9.odb,Step-1,Increment      1: Step Time =    1.000,"PART-1-1",           611,       3.88333,            5.,            0.,NA,NA,"",       2.66499,       2.54771,   781.893E-03,   8.70669E-03
C:/temp/dataset/3/26_9.odb,Step-1,Increment      1: Step Time =    1.000,"PART-1-1",           612,       3.93709,       2.49951,            0.,NA,NA,"",       2.34543,       2.20735,   792.874E-03,   4.69013E-03
C:/temp/dataset/3/26_9.odb,Step-1,Increment      1: Step Time =    1.000,"PART-1-1",           613,       5.14044,       3.62548,            0.,NA,NA,"",       2.42336,       2.34334,   617.614E-03,   6.05582E-03
C:/temp/dataset/3/26_9.odb,Step-1,Increment      1: Step Time =    1.000,"PART-1-1",           614,       1.70000,           -5.,            0.,NA,NA,"",       1.70882,       1.19907,       1.21749,   9.32794E-03
C:/temp/dataset/3/26_9.odb,Step-1,Increment      1: Step Time =    1.000,"PART-1-1",           615,       2.88648,      -4.17028,            0.,NA,NA,"",       1.66128,       1.31451,       1.01583,   13.5725E-03
C:/temp/dataset/3/26_9.odb,Step-1,Increment      1: Step Time =    1.000,"PART-1-1",           616,       1.90498,      -3.27989,            0.,NA,NA,"",       1.85035,       1.44684,       1.15346,   11.1771E-03
C:/temp/dataset/3/26_9.odb,Step-1,Increment      1: Step Time =    1.000,"PART-1-1",           617,      -2.82853,       3.20340,            0.,NA,NA,"",       2.95694,       2.38134,       1.75291,   822.577E-06
C:/temp/dataset/3/26_9.odb,Step-1,Increment      1: Step Time =    1.000,"PART-1-1",           618,      -1.73717,       4.08745,            0.,NA,NA,"",       2.95774,       2.49427,       1.58960,   738.374E-06
C:/temp/dataset/3/26_9.odb,Step-1,Increment      1: Step Time =    1.000,"PART-1-1",           619,      -2.81667,            5.,            0.,NA,NA,"",       3.15289,       2.63377,       1.73318,   279.808E-06
C:/temp/dataset/3/26_9.odb,Step-1,Increment      1: Step Time =    1.000,"PART-1-1",           620,      -7.28333,            5.,            0.,NA,NA,"",       3.56751,       2.67592,       2.35936,   307.956E-06
C:/temp/dataset/3/26_9.odb,Step-1,Increment      1: Step Time =    1.000,"PART-1-1",           621,      -11.7000,            5.,            0.,NA,NA,"",       4.03021,       2.71851,       2.97527,   43.1596E-06
C:/temp/dataset/3/26_9.odb,Step-1,Increment      1: Step Time =    1.000,"PART-1-1",           622,      -11.5540,       2.50359,            0.,NA,NA,"",       3.80636,       2.36897,       2.97932,   73.6886E-06
C:/temp/dataset/3/26_9.odb,Step-1,Increment      1: Step Time =    1.000,"PART-1-1",           623,      -8.37698,      -4.01732,            0.,NA,NA,"",       2.96657,       1.42902,       2.59970,   168.291E-06
C:/temp/dataset/3/26_9.odb,Step-1,Increment      1: Step Time =    1.000,"PART-1-1",           624,      -10.5279,      -3.86372,            0.,NA,NA,"",       3.25023,       1.47127,       2.89817,   68.6228E-06
C:/temp/dataset/3/26_9.odb,Step-1,Increment      1: Step Time =    1.000,"PART-1-1",           625,      -9.41667,           -5.,            0.,NA,NA,"",       3.04661,       1.30213,       2.75433,   151.016E-06
C:/temp/dataset/3/26_9.odb,Step-1,Increment      1: Step Time =    1.000,"PART-1-1",           626,          3.75,          -20.,            0.,NA,NA,"",   67.1605E-03,   25.4470E-03,   62.1529E-03,   22.0652E-03
C:/temp/dataset/3/26_9.odb,Step-1,Increment      1: Step Time =    1.000,"PART-1-1",           627,       2.74072,      -21.3682,            0.,NA,NA,"",   54.7734E-03,   30.3620E-03,   45.5881E-03,   7.87916E-03
C:/temp/dataset/3/26_9.odb,Step-1,Increment      1: Step Time =    1.000,"PART-1-1",           628,       4.11640,      -22.1674,            0.,NA,NA,"",   75.3841E-03,   32.9649E-03,   67.7944E-03,   18.6670E-03
C:/temp/dataset/3/26_9.odb,Step-1,Increment      1: Step Time =    1.000,"PART-1-1",           629,       5.12568,      -20.7992,            0.,NA,NA,"",   114.433E-03,   38.0268E-03,   107.930E-03,   32.0130E-03
C:/temp/dataset/3/26_9.odb,Step-1,Increment      1: Step Time =    1.000,"PART-1-1",           630,          1.25,          -20.,            0.,NA,NA,"",   25.2569E-03,   12.2702E-03,   22.0760E-03,   2.94844E-03
C:/temp/dataset/3/26_9.odb,Step-1,Increment      1: Step Time =    1.000,"PART-1-1",           631,   73.0809E-03,      -21.3299,            0.,NA,NA,"",   24.6972E-03,   20.3397E-03,   14.0088E-03,   2.37407E-03
C:/temp/dataset/3/26_9.odb,Step-1,Increment      1: Step Time =    1.000,"PART-1-1",           632,       1.56380,      -22.6981,            0.,NA,NA,"",   39.8125E-03,   27.9947E-03,   28.3077E-03,   8.85844E-03
C:/temp/dataset/3/26_9.odb,Step-1,Increment      1: Step Time =    1.000,"PART-1-1",           633,         -1.25,          -20.,            0.,NA,NA,"",   16.0586E-03,   14.2719E-03,   7.36161E-03,   477.775E-06
C:/temp/dataset/3/26_9.odb,Step-1,Increment      1: Step Time =    1.000,"PART-1-1",           634,      -2.46493,      -21.3147,            0.,NA,NA,"",   18.0320E-03,   17.6981E-03,   3.45390E-03,   849.407E-06
C:/temp/dataset/3/26_9.odb,Step-1,Increment      1: Step Time =    1.000,"PART-1-1",           635,      -1.14185,      -22.6446,            0.,NA,NA,"",   23.5526E-03,   21.9402E-03,   8.56458E-03,   3.24251E-03
C:/temp/dataset/3/26_9.odb,Step-1,Increment      1: Step Time =    1.000,"PART-1-1",           636,         -3.75,          -20.,            0.,NA,NA,"",   14.8196E-03,   14.8109E-03,   508.493E-06,   283.248E-06
C:/temp/dataset/3/26_9.odb,Step-1,Increment      1: Step Time =    1.000,"PART-1-1",           637,      -4.97847,      -21.2978,            0.,NA,NA,"",   16.2689E-03,   16.2458E-03,  -865.011E-06,   388.083E-06
C:/temp/dataset/3/26_9.odb,Step-1,Increment      1: Step Time =    1.000,"PART-1-1",           638,      -3.69340,      -22.6125,            0.,NA,NA,"",   18.1896E-03,   18.1535E-03,   1.14460E-03,   1.49374E-03
C:/temp/dataset/3/26_9.odb,Step-1,Increment      1: Step Time =    1.000,"PART-1-1",           639,      -4.95791,      -23.8547,            0.,NA,NA,"",   16.7023E-03,   16.7021E-03,   95.7153E-06,   1.55842E-03
C:/temp/dataset/3/26_9.odb,Step-1,Increment      1: Step Time =    1.000,"PART-1-1",           640,      -6.21189,      -22.5887,            0.,NA,NA,"",   15.9930E-03,   15.9480E-03,  -1.19853E-03,   875.388E-06
C:/temp/dataset/3/26_9.odb,Step-1,Increment      1: Step Time =    1.000,"PART-1-1",           641,      -7.46939,      -23.8324,            0.,NA,NA,"",   14.3702E-03,   14.3366E-03,  -981.877E-06,   1.01767E-03
C:/temp/dataset/3/26_9.odb,Step-1,Increment      1: Step Time =    1.000,"PART-1-1",           642,           15.,        -13.75,            0.,NA,NA,"",   452.367E-03,   349.142E-03,  -287.639E-03,   26.3284E-03
C:/temp/dataset/3/26_9.odb,Step-1,Increment      1: Step Time =    1.000,"PART-1-1",           643,       14.2106,      -12.3304,            0.,NA,NA,"",   514.128E-03,   440.457E-03,  -265.188E-03,   20.7234E-03
C:/temp/dataset/3/26_9.odb,Step-1,Increment      1: Step Time =    1.000,"PART-1-1",           644,       13.1387,      -13.2101,            0.,NA,NA,"",   410.559E-03,   372.578E-03,  -172.465E-03,   13.7714E-03
C:/temp/dataset/3/26_9.odb,Step-1,Increment      1: Step Time =    1.000,"PART-1-1",           645,           15.,        -11.25,            0.,NA,NA,"",   635.525E-03,   528.689E-03,  -352.675E-03,   25.5464E-03
C:/temp/dataset/3/26_9.odb,Step-1,Increment      1: Step Time =    1.000,"PART-1-1",           646,           15.,         -6.25,            0.,NA,NA,"",       1.10830,   997.143E-03,  -483.766E-03,   21.3549E-03
C:/temp/dataset/3/26_9.odb,Step-1,Increment      1: Step Time =    1.000,"PART-1-1",           647,       14.0624,      -4.92369,            0.,NA,NA,"",       1.21478,       1.14422,  -407.987E-03,   15.1028E-03
C:/temp/dataset/3/26_9.odb,Step-1,Increment      1: Step Time =    1.000,"PART-1-1",           648,       12.9264,      -6.09194,            0.,NA,NA,"",       1.04500,       1.01158,  -262.164E-03,   11.0655E-03
C:/temp/dataset/3/26_9.odb,Step-1,Increment      1: Step Time =    1.000,"PART-1-1",           649,           15.,         -3.75,            0.,NA,NA,"",       1.39392,       1.28337,  -544.030E-03,   16.5600E-03
C:/temp/dataset/3/26_9.odb,Step-1,Increment      1: Step Time =    1.000,"PART-1-1",           650,       13.0440,      -3.68493,            0.,NA,NA,"",       1.33122,       1.29390,  -312.975E-03,   10.4693E-03
C:/temp/dataset/3/26_9.odb,Step-1,Increment      1: Step Time =    1.000,"PART-1-1",           651,       8.06094,   477.426E-03,            0.,NA,NA,"",       1.89681,       1.88035,   249.375E-03,   7.65633E-03
C:/temp/dataset/3/26_9.odb,Step-1,Increment      1: Step Time =    1.000,"PART-1-1",           652,       8.76493,       2.31856,            0.,NA,NA,"",       2.12586,       2.12047,   151.197E-03,   6.80024E-03
C:/temp/dataset/3/26_9.odb,Step-1,Increment      1: Step Time =    1.000,"PART-1-1",           653,       6.73548,       2.80805,            0.,NA,NA,"",       2.25051,       2.21267,   410.954E-03,   5.36517E-03
C:/temp/dataset/3/26_9.odb,Step-1,Increment      1: Step Time =    1.000,"PART-1-1",           654,       6.03149,   966.916E-03,            0.,NA,NA,"",       2.03973,       1.97403,   513.523E-03,   6.52344E-03
C:/temp/dataset/3/26_9.odb,Step-1,Increment      1: Step Time =    1.000,"PART-1-1",           655,            5.,          8.75,            0.,NA,NA,"",       3.05755,       2.99899,   595.551E-03,   449.001E-06
C:/temp/dataset/3/26_9.odb,Step-1,Increment      1: Step Time =    1.000,"PART-1-1",           656,       7.16919,       9.14751,            0.,NA,NA,"",       3.04806,       3.03211,   311.357E-03,   358.459E-06
C:/temp/dataset/3/26_9.odb,Step-1,Increment      1: Step Time =    1.000,"PART-1-1",           657,          3.75,           30.,            0.,NA,NA,"",       5.80546,       5.77650,   579.072E-03,   253.511E-09
C:/temp/dataset/3/26_9.odb,Step-1,Increment      1: Step Time =    1.000,"PART-1-1",           658,       3.71036,       27.5731,            0.,NA,NA,"",       5.49416,       5.46076,   604.905E-03,   228.895E-09
C:/temp/dataset/3/26_9.odb,Step-1,Increment      1: Step Time =    1.000,"PART-1-1",           659,       7.38617,       23.8490,            0.,NA,NA,"",       4.94694,       4.94442,   157.885E-03,   453.175E-09
C:/temp/dataset/3/26_9.odb,Step-1,Increment      1: Step Time =    1.000,"PART-1-1",           660,       6.16255,       25.1024,            0.,NA,NA,"",       5.12726,       5.11809,   306.575E-03,   349.762E-09
C:/temp/dataset/3/26_9.odb,Step-1,Increment      1: Step Time =    1.000,"PART-1-1",           661,       4.93576,       23.8439,            0.,NA,NA,"",       4.98750,       4.96463,   477.073E-03,   444.939E-09
C:/temp/dataset/3/26_9.odb,Step-1,Increment      1: Step Time =    1.000,"PART-1-1",           662,       6.15938,       22.5905,            0.,NA,NA,"",       4.80220,       4.79096,   328.383E-03,   586.214E-09
C:/temp/dataset/3/26_9.odb,Step-1,Increment      1: Step Time =    1.000,"PART-1-1",           663,      -10.0017,       23.7560,            0.,NA,NA,"",       5.62876,       5.08041,       2.42329,   1.30374E-09
C:/temp/dataset/3/26_9.odb,Step-1,Increment      1: Step Time =    1.000,"PART-1-1",           664,      -8.75135,       22.5073,            0.,NA,NA,"",       5.40719,       4.90713,       2.27107,   1.60297E-09
C:/temp/dataset/3/26_9.odb,Step-1,Increment      1: Step Time =    1.000,"PART-1-1",           665,      -10.0004,       21.2526,            0.,NA,NA,"",       5.34595,       4.75435,       2.44444,   1.44777E-09
C:/temp/dataset/3/26_9.odb,Step-1,Increment      1: Step Time =    1.000,"PART-1-1",           666,      -11.2505,       22.5043,            0.,NA,NA,"",       5.57025,       4.92803,       2.59659,   1.25671E-09
C:/temp/dataset/3/26_9.odb,Step-1,Increment      1: Step Time =    1.000,"PART-1-1",           667,        -11.25,           20.,            0.,NA,NA,"",       5.29437,       4.60186,       2.61786,   1.26982E-09
C:/temp/dataset/3/26_9.odb,Step-1,Increment      1: Step Time =    1.000,"PART-1-1",           668,         -8.75,           20.,            0.,NA,NA,"",       5.12211,       4.58057,       2.29226,   2.55033E-09
C:/temp/dataset/3/26_9.odb,Step-1,Increment      1: Step Time =    1.000,"PART-1-1",           669,       7.37456,       21.3253,            0.,NA,NA,"",       4.61938,       4.61584,   180.894E-03,   2.30459E-06
C:/temp/dataset/3/26_9.odb,Step-1,Increment      1: Step Time =    1.000,"PART-1-1",           670,      -1.26076,       25.0501,            0.,NA,NA,"",       5.32899,       5.17450,       1.27384,   56.8369E-09
C:/temp/dataset/3/26_9.odb,Step-1,Increment      1: Step Time =    1.000,"PART-1-1",           671,      -2.50213,       23.7814,            0.,NA,NA,"",       5.22405,       5.01984,       1.44632,   18.6776E-09
C:/temp/dataset/3/26_9.odb,Step-1,Increment      1: Step Time =    1.000,"PART-1-1",           672,          1.25,           20.,            0.,NA,NA,"",       4.60308,       4.49539,   989.849E-03,   128.448E-09
C:/temp/dataset/3/26_9.odb,Step-1,Increment      1: Step Time =    1.000,"PART-1-1",           673,            5.,         13.75,            0.,NA,NA,"",       3.69125,       3.64936,   554.549E-03,   91.5415E-06
C:/temp/dataset/3/26_9.odb,Step-1,Increment      1: Step Time =    1.000,"PART-1-1",           674,       7.85923,       4.51418,            0.,NA,NA,"",       2.43809,       2.42461,   256.043E-03,   4.69402E-03
C:/temp/dataset/3/26_9.odb,Step-1,Increment      1: Step Time =    1.000,"PART-1-1",           675,       9.45843,       7.45797,            0.,NA,NA,"",       2.79233,       2.79219,   27.5581E-03,   1.06569E-03
C:/temp/dataset/3/26_9.odb,Step-1,Increment      1: Step Time =    1.000,"PART-1-1",           676,       11.3500,       8.04392,            0.,NA,NA,"",       2.86026,       2.85152,  -223.384E-03,   555.989E-06
C:/temp/dataset/3/26_9.odb,Step-1,Increment      1: Step Time =    1.000,"PART-1-1",           677,       10.2386,       8.70699,            0.,NA,NA,"",       2.94923,       2.94803,  -84.2037E-03,   377.651E-06
C:/temp/dataset/3/26_9.odb,Step-1,Increment      1: Step Time =    1.000,"PART-1-1",           678,   133.314E-03,       2.02047,            0.,NA,NA,"",       2.56611,       2.18651,       1.34317,   4.06829E-03
C:/temp/dataset/3/26_9.odb,Step-1,Increment      1: Step Time =    1.000,"PART-1-1",           679,       2.26054,       1.70692,            0.,NA,NA,"",       2.36189,       2.12091,       1.03937,   6.36518E-03
C:/temp/dataset/3/26_9.odb,Step-1,Increment      1: Step Time =    1.000,"PART-1-1",           680,  -583.333E-03,            5.,            0.,NA,NA,"",       2.97060,       2.61106,       1.41661,   999.466E-06
C:/temp/dataset/3/26_9.odb,Step-1,Increment      1: Step Time =    1.000,"PART-1-1",           681,  -713.179E-03,       3.09316,            0.,NA,NA,"",       2.75821,       2.34406,       1.45366,   2.48794E-03
C:/temp/dataset/3/26_9.odb,Step-1,Increment      1: Step Time =    1.000,"PART-1-1",           682,      -10.2084,       1.19941,            0.,NA,NA,"",       3.54833,       2.17386,       2.80446,   98.4201E-06
C:/temp/dataset/3/26_9.odb,Step-1,Increment      1: Step Time =    1.000,"PART-1-1",           683,      -7.18333,           -5.,            0.,NA,NA,"",       2.75837,       1.28081,       2.44298,   399.775E-06
C:/temp/dataset/3/26_9.odb,Step-1,Increment      1: Step Time =    1.000,"PART-1-1",           684,      -7.36178,      -2.99006,            0.,NA,NA,"",       2.90407,       1.56208,       2.44817,   238.179E-06
C:/temp/dataset/3/26_9.odb,Step-1,Increment      1: Step Time =    1.000,"PART-1-1",           685,      -11.3125,  -91.5578E-03,            0.,NA,NA,"",       3.58399,       2.00467,       2.97090,   83.4528E-06
C:/temp/dataset/3/26_9.odb,Step-1,Increment      1: Step Time =    1.000,"PART-1-1",           686,      -11.6500,           -5.,            0.,NA,NA,"",       3.33937,       1.32379,       3.06577,   46.3819E-06
C:/temp/dataset/3/26_9.odb,Step-1,Increment      1: Step Time =    1.000,"PART-1-1",           687,      -11.6245,      -2.63993,            0.,NA,NA,"",       3.45939,       1.65252,       3.03917,   74.5122E-06
C:/temp/dataset/3/26_9.odb,Step-1,Increment      1: Step Time =    1.000,"PART-1-1",           688,      -1.03706,       1.18772,            0.,NA,NA,"",       2.57861,       2.08307,       1.51989,   3.33258E-03
C:/temp/dataset/3/26_9.odb,Step-1,Increment      1: Step Time =    1.000,"PART-1-1",           689,      -2.26684,   407.252E-03,            0.,NA,NA,"",       2.61630,       1.98601,       1.70318,   1.92969E-03
C:/temp/dataset/3/26_9.odb,Step-1,Increment      1: Step Time =    1.000,"PART-1-1",           690,      -1.61706,  -775.207E-03,            0.,NA,NA,"",       2.43762,       1.81629,       1.62576,   3.57745E-03
C:/temp/dataset/3/26_9.odb,Step-1,Increment      1: Step Time =    1.000,"PART-1-1",           691,      -4.44627,  -189.662E-03,            0.,NA,NA,"",       2.78530,       1.92319,       2.01476,   548.730E-06
C:/temp/dataset/3/26_9.odb,Step-1,Increment      1: Step Time =    1.000,"PART-1-1",           692,      -3.83065,   850.686E-03,            0.,NA,NA,"",       2.81646,       2.06241,       1.91805,   692.368E-06
C:/temp/dataset/3/26_9.odb,Step-1,Increment      1: Step Time =    1.000,"PART-1-1",           693,      -5.38306,   384.196E-03,            0.,NA,NA,"",       2.93737,       2.01242,       2.13970,   229.103E-06
C:/temp/dataset/3/26_9.odb,Step-1,Increment      1: Step Time =    1.000,"PART-1-1",           694,       3.90000,           -5.,            0.,NA,NA,"",       1.46967,       1.18597,   867.989E-03,   20.5471E-03
C:/temp/dataset/3/26_9.odb,Step-1,Increment      1: Step Time =    1.000,"PART-1-1",           695,       5.25667,      -4.01677,            0.,NA,NA,"",       1.45273,       1.31560,   616.138E-03,   28.3979E-03
C:/temp/dataset/3/26_9.odb,Step-1,Increment      1: Step Time =    1.000,"PART-1-1",           696,       4.24316,      -3.18705,            0.,NA,NA,"",       1.64052,       1.44278,   780.822E-03,   15.4474E-03
C:/temp/dataset/3/26_9.odb,Step-1,Increment      1: Step Time =    1.000,"PART-1-1",           697,       9.51721,      -4.82762,            0.,NA,NA,"",       1.17279,       1.16919,   91.8408E-03,   8.05999E-03
C:/temp/dataset/3/26_9.odb,Step-1,Increment      1: Step Time =    1.000,"PART-1-1",           698,       8.04384,      -4.93500,            0.,NA,NA,"",       1.19331,       1.16506,   258.124E-03,   12.1704E-03
C:/temp/dataset/3/26_9.odb,Step-1,Increment      1: Step Time =    1.000,"PART-1-1",           699,       8.61490,      -6.56470,            0.,NA,NA,"",   994.698E-03,   976.312E-03,   190.365E-03,   9.76504E-03
C:/temp/dataset/3/26_9.odb,Step-1,Increment      1: Step Time =    1.000,"PART-1-1",           700,       10.0883,      -6.45732,            0.,NA,NA,"",   979.597E-03,   978.894E-03,   37.1222E-03,   5.24238E-03
C:/temp/dataset/3/26_9.odb,Step-1,Increment      1: Step Time =    1.000,"PART-1-1",           701,       9.29828,      -8.00429,            0.,NA,NA,"",   829.683E-03,   821.346E-03,   117.323E-03,   8.44320E-03
C:/temp/dataset/3/26_9.odb,Step-1,Increment      1: Step Time =    1.000,"PART-1-1",           702,       6.27674,      -21.4047,            0.,NA,NA,"",   96.0242E-03,   24.3521E-03,   92.8850E-03,   21.3410E-03
C:/temp/dataset/3/26_9.odb,Step-1,Increment      1: Step Time =    1.000,"PART-1-1",           703,       7.27122,      -20.3583,            0.,NA,NA,"",   100.454E-03,   35.5777E-03,   93.9422E-03,   16.5522E-03
C:/temp/dataset/3/26_9.odb,Step-1,Increment      1: Step Time =    1.000,"PART-1-1",           704,         -6.25,          -20.,            0.,NA,NA,"",   15.5778E-03,   15.5001E-03,  -1.55376E-03,   208.379E-06
C:/temp/dataset/3/26_9.odb,Step-1,Increment      1: Step Time =    1.000,"PART-1-1",           705,         -1.25,          -30.,            0.,NA,NA,"",            0.,   4.19408E-39,   5.36706E-39,   5.05515E-03
C:/temp/dataset/3/26_9.odb,Step-1,Increment      1: Step Time =    1.000,"PART-1-1",           706,       8.60683,      -25.8105,            0.,NA,NA,"",   23.0049E-03,  -12.4261E-03,   19.3602E-03,   8.31775E-03
C:/temp/dataset/3/26_9.odb,Step-1,Increment      1: Step Time =    1.000,"PART-1-1",           707,       7.41490,      -26.9159,            0.,NA,NA,"",   19.5718E-03,  -7.59896E-03,   18.0364E-03,   9.31200E-03
C:/temp/dataset/3/26_9.odb,Step-1,Increment      1: Step Time =    1.000,"PART-1-1",           708,       6.17638,      -25.8614,            0.,NA,NA,"",   31.1680E-03,   674.969E-06,   31.1606E-03,   11.0637E-03
C:/temp/dataset/3/26_9.odb,Step-1,Increment      1: Step Time =    1.000,"PART-1-1",           709,       7.37219,      -25.0876,            0.,NA,NA,"",   34.6702E-03,  -4.65384E-03,   34.3564E-03,   11.9670E-03
C:/temp/dataset/3/26_9.odb,Step-1,Increment      1: Step Time =    1.000,"PART-1-1",           710,       6.30743,      -24.1068,            0.,NA,NA,"",   51.4302E-03,   6.36749E-03,   51.0345E-03,   13.8569E-03
C:/temp/dataset/3/26_9.odb,Step-1,Increment      1: Step Time =    1.000,"PART-1-1",           711,   113.079E-03,      -23.9373,            0.,NA,NA,"",   28.6713E-03,   24.2404E-03,   15.3116E-03,   5.48393E-03
C:/temp/dataset/3/26_9.odb,Step-1,Increment      1: Step Time =    1.000,"PART-1-1",           712,      -2.43554,      -23.8906,            0.,NA,NA,"",   20.6419E-03,   20.1779E-03,   4.35212E-03,   2.51650E-03
C:/temp/dataset/3/26_9.odb,Step-1,Increment      1: Step Time =    1.000,"PART-1-1",           713,      -8.72529,      -25.0755,            0.,NA,NA,"",   11.8885E-03,   11.8784E-03,  -488.568E-06,   1.19624E-03
C:/temp/dataset/3/26_9.odb,Step-1,Increment      1: Step Time =    1.000,"PART-1-1",           714,      -9.97606,      -23.8175,            0.,NA,NA,"",   12.9018E-03,   12.8954E-03,  -405.350E-06,   647.767E-06
C:/temp/dataset/3/26_9.odb,Step-1,Increment      1: Step Time =    1.000,"PART-1-1",           715,      -9.99641,      -28.7682,            0.,NA,NA,"",   3.22630E-03,   3.21895E-03,   217.520E-06,   1.65729E-03
C:/temp/dataset/3/26_9.odb,Step-1,Increment      1: Step Time =    1.000,"PART-1-1",           716,      -11.2465,      -27.5281,            0.,NA,NA,"",   5.83269E-03,   5.82035E-03,   379.266E-06,   1.41473E-03
C:/temp/dataset/3/26_9.odb,Step-1,Increment      1: Step Time =    1.000,"PART-1-1",           717,        -11.25,          -30.,            0.,NA,NA,"",            0.,   1.43130E-39,   872.405E-42,   1.55161E-03
C:/temp/dataset/3/26_9.odb,Step-1,Increment      1: Step Time =    1.000,"PART-1-1",           718,         -8.75,          -30.,            0.,NA,NA,"",            0.,   1.90100E-39,   834.100E-42,   2.06886E-03
C:/temp/dataset/3/26_9.odb,Step-1,Increment      1: Step Time =    1.000,"PART-1-1",           719,      -8.73783,      -27.5479,            0.,NA,NA,"",   6.89597E-03,   6.89487E-03,   123.136E-06,   1.79572E-03
C:/temp/dataset/3/26_9.odb,Step-1,Increment      1: Step Time =    1.000,"PART-1-1",           720,       9.45286,      -20.3748,            0.,NA,NA,"",   49.5070E-03,   33.2762E-03,   36.6556E-03,   7.15237E-03
C:/temp/dataset/3/26_9.odb,Step-1,Increment      1: Step Time =    1.000,"PART-1-1",           721,       8.38706,      -19.4374,            0.,NA,NA,"",   95.4568E-03,   59.2876E-03,   74.8130E-03,   10.8816E-03
C:/temp/dataset/3/26_9.odb,Step-1,Increment      1: Step Time =    1.000,"PART-1-1",           722,       8.33702,      -21.2957,            0.,NA,NA,"",   62.6879E-03,   17.3972E-03,   60.2255E-03,   11.7148E-03
C:/temp/dataset/3/26_9.odb,Step-1,Increment      1: Step Time =    1.000,"PART-1-1",           723,       9.34035,      -18.0986,            0.,NA,NA,"",   116.543E-03,   104.663E-03,   51.2635E-03,   7.34943E-03
C:/temp/dataset/3/26_9.odb,Step-1,Increment      1: Step Time =    1.000,"PART-1-1",           724,       10.7511,      -19.4747,            0.,NA,NA,"",   57.0437E-03,   56.9359E-03,  -3.50451E-03,   4.03002E-03
C:/temp/dataset/3/26_9.odb,Step-1,Increment      1: Step Time =    1.000,"PART-1-1",           725,       9.57777,      -9.07511,            0.,NA,NA,"",   721.440E-03,   715.988E-03,   88.5198E-03,   7.74215E-03
C:/temp/dataset/3/26_9.odb,Step-1,Increment      1: Step Time =    1.000,"PART-1-1",           726,       10.3854,      -7.79904,            0.,NA,NA,"",   835.534E-03,   835.446E-03,   12.1340E-03,   3.82457E-03
C:/temp/dataset/3/26_9.odb,Step-1,Increment      1: Step Time =    1.000,"PART-1-1",           727,       11.9371,      -7.89361,            0.,NA,NA,"",   832.860E-03,   821.365E-03,  -137.896E-03,   6.53987E-03
C:/temp/dataset/3/26_9.odb,Step-1,Increment      1: Step Time =    1.000,"PART-1-1",           728,       11.6400,      -6.55190,            0.,NA,NA,"",   970.468E-03,   962.773E-03,  -121.970E-03,   6.66058E-03
C:/temp/dataset/3/26_9.odb,Step-1,Increment      1: Step Time =    1.000,"PART-1-1",           729,       9.29748,       3.92298,            0.,NA,NA,"",       2.33025,       2.32908,   73.7163E-03,   4.64184E-03
C:/temp/dataset/3/26_9.odb,Step-1,Increment      1: Step Time =    1.000,"PART-1-1",           730,       10.7408,       1.93669,            0.,NA,NA,"",       2.04941,       2.04716,  -95.9660E-03,   5.99987E-03
C:/temp/dataset/3/26_9.odb,Step-1,Increment      1: Step Time =    1.000,"PART-1-1",           731,       12.1175,       9.30164,            0.,NA,NA,"",       3.02769,       3.00919,  -334.200E-03,   131.458E-06
C:/temp/dataset/3/26_9.odb,Step-1,Increment      1: Step Time =    1.000,"PART-1-1",           732,       12.3743,       7.25826,            0.,NA,NA,"",       2.76173,       2.73944,  -350.174E-03,   619.297E-06
C:/temp/dataset/3/26_9.odb,Step-1,Increment      1: Step Time =    1.000,"PART-1-1",           733,       9.86952,       23.8294,            0.,NA,NA,"",       4.92350,       4.92073,  -165.379E-03,   614.725E-09
C:/temp/dataset/3/26_9.odb,Step-1,Increment      1: Step Time =    1.000,"PART-1-1",           734,       8.61965,       22.5851,            0.,NA,NA,"",       4.76932,       4.76931,   8.00194E-03,   862.532E-09
C:/temp/dataset/3/26_9.odb,Step-1,Increment      1: Step Time =    1.000,"PART-1-1",           735,         11.25,           30.,            0.,NA,NA,"",       5.72645,       5.71262,  -397.729E-03,   357.768E-09
C:/temp/dataset/3/26_9.odb,Step-1,Increment      1: Step Time =    1.000,"PART-1-1",           736,       9.97488,       28.7673,            0.,NA,NA,"",       5.56733,       5.56294,  -221.158E-03,   367.993E-09
C:/temp/dataset/3/26_9.odb,Step-1,Increment      1: Step Time =    1.000,"PART-1-1",           737,          8.75,           30.,            0.,NA,NA,"",       5.73437,       5.73391,  -72.1298E-03,   536.920E-09
C:/temp/dataset/3/26_9.odb,Step-1,Increment      1: Step Time =    1.000,"PART-1-1",           738,       3.69885,       25.0915,            0.,NA,NA,"",       5.17583,       5.13765,   627.543E-03,   318.018E-09
C:/temp/dataset/3/26_9.odb,Step-1,Increment      1: Step Time =    1.000,"PART-1-1",           739,       4.94207,       26.3392,            0.,NA,NA,"",       5.30910,       5.28957,   454.997E-03,   281.421E-09
C:/temp/dataset/3/26_9.odb,Step-1,Increment      1: Step Time =    1.000,"PART-1-1",           740,         -6.25,           30.,            0.,NA,NA,"",       6.15624,       5.86168,       1.88148,   4.15447E-09
C:/temp/dataset/3/26_9.odb,Step-1,Increment      1: Step Time =    1.000,"PART-1-1",           741,      -11.2519,       25.0060,            0.,NA,NA,"",       5.85117,       5.25386,       2.57547,   1.13600E-09
C:/temp/dataset/3/26_9.odb,Step-1,Increment      1: Step Time =    1.000,"PART-1-1",           742,       11.7111,      -12.1867,            0.,NA,NA,"",   451.562E-03,   444.119E-03,  -81.6468E-03,   4.48370E-03
C:/temp/dataset/3/26_9.odb,Step-1,Increment      1: Step Time =    1.000,"PART-1-1",           743,       12.0443,      -13.4388,            0.,NA,NA,"",   367.261E-03,   354.588E-03,  -95.6427E-03,   6.78426E-03
C:/temp/dataset/3/26_9.odb,Step-1,Increment      1: Step Time =    1.000,"PART-1-1",           744,       9.07309,      -22.0228,            0.,NA,NA,"",   38.8327E-03,   5.85407E-03,   38.3889E-03,   9.64357E-03
C:/temp/dataset/3/26_9.odb,Step-1,Increment      1: Step Time =    1.000,"PART-1-1",           745,       9.10959,      -23.2638,            0.,NA,NA,"",   30.4458E-03,  -5.40793E-03,   29.9616E-03,   9.83208E-03
C:/temp/dataset/3/26_9.odb,Step-1,Increment      1: Step Time =    1.000,"PART-1-1",           746,       10.5828,      -23.1781,            0.,NA,NA,"",   8.18718E-03,  -7.42123E-03,   3.45763E-03,   7.08425E-03
C:/temp/dataset/3/26_9.odb,Step-1,Increment      1: Step Time =    1.000,"PART-1-1",           747,       10.5463,      -21.9372,            0.,NA,NA,"",   7.22954E-03,   5.57937E-03,   4.59749E-03,   6.87268E-03
C:/temp/dataset/3/26_9.odb,Step-1,Increment      1: Step Time =    1.000,"PART-1-1",           748,      -1.00841,      -2.00181,            0.,NA,NA,"",       2.26218,       1.64150,       1.55657,   5.08329E-03
C:/temp/dataset/3/26_9.odb,Step-1,Increment      1: Step Time =    1.000,"PART-1-1",           749,      -3.17395,      -1.50818,            0.,NA,NA,"",       2.53236,       1.72740,       1.85173,   1.33131E-03
C:/temp/dataset/3/26_9.odb,Step-1,Increment      1: Step Time =    1.000,"PART-1-1",           750,       8.23699,       8.20647,            0.,NA,NA,"",       2.90628,       2.90067,   180.517E-03,   612.130E-06
C:/temp/dataset/3/26_9.odb,Step-1,Increment      1: Step Time =    1.000,"PART-1-1",           751,       8.58975,       6.06422,            0.,NA,NA,"",       2.62330,       2.61894,   151.085E-03,   2.46479E-03
C:/temp/dataset/3/26_9.odb,Step-1,Increment      1: Step Time =    1.000,"PART-1-1",           752,       1.04870,      -2.29850,            0.,NA,NA,"",       2.03075,       1.58801,       1.26577,   9.41597E-03
C:/temp/dataset/3/26_9.odb,Step-1,Increment      1: Step Time =    1.000,"PART-1-1",           753,      -1.88356,       2.26041,            0.,NA,NA,"",       2.76967,       2.24011,       1.62880,   1.67917E-03
C:/temp/dataset/3/26_9.odb,Step-1,Increment      1: Step Time =    1.000,"PART-1-1",           754,      -2.91638,       1.44829,            0.,NA,NA,"",       2.78337,       2.13701,       1.78335,   1.29167E-03
C:/temp/dataset/3/26_9.odb,Step-1,Increment      1: Step Time =    1.000,"PART-1-1",           755,       3.03453,      -2.52132,            0.,NA,NA,"",       1.82355,       1.54485,   968.898E-03,   14.6783E-03
C:/temp/dataset/3/26_9.odb,Step-1,Increment      1: Step Time =    1.000,"PART-1-1",           756,       6.99799,      -3.46075,            0.,NA,NA,"",       1.41734,       1.36359,   386.612E-03,   14.2078E-03
C:/temp/dataset/3/26_9.odb,Step-1,Increment      1: Step Time =    1.000,"PART-1-1",           757,       7.63560,  -984.386E-03,            0.,NA,NA,"",       1.71653,       1.68873,   307.649E-03,   9.89520E-03
C:/temp/dataset/3/26_9.odb,Step-1,Increment      1: Step Time =    1.000,"PART-1-1",           758,       6.14771,      -1.67534,            0.,NA,NA,"",       1.69359,       1.61711,   503.193E-03,   12.2609E-03
C:/temp/dataset/3/26_9.odb,Step-1,Increment      1: Step Time =    1.000,"PART-1-1",           759,       4.94795,      -26.8240,            0.,NA,NA,"",   22.9592E-03,   4.84850E-03,   22.4414E-03,   10.6708E-03
C:/temp/dataset/3/26_9.odb,Step-1,Increment      1: Step Time =    1.000,"PART-1-1",           760,      -11.2341,      -25.0541,            0.,NA,NA,"",   10.7135E-03,   10.7063E-03,   392.959E-06,   772.583E-06
C:/temp/dataset/3/26_9.odb,Step-1,Increment      1: Step Time =    1.000,"PART-1-1",           761,      -9.98574,      -26.3021,            0.,NA,NA,"",   8.95076E-03,   8.95070E-03,   32.6035E-06,   1.27794E-03
C:/temp/dataset/3/26_9.odb,Step-1,Increment      1: Step Time =    1.000,"PART-1-1",           762,           15.,        -26.25,            0.,NA,NA,"",   27.9953E-03,  -5.92220E-03,  -27.3617E-03,   12.5131E-03
C:/temp/dataset/3/26_9.odb,Step-1,Increment      1: Step Time =    1.000,"PART-1-1",           763,       9.63478,      -24.7731,            0.,NA,NA,"",   20.2501E-03,  -14.1199E-03,   14.5154E-03,   8.17126E-03
C:/temp/dataset/3/26_9.odb,Step-1,Increment      1: Step Time =    1.000,"PART-1-1",           764,       9.83383,   250.169E-03,            0.,NA,NA,"",       1.82899,       1.82877,   28.5956E-03,   8.36943E-03
C:/temp/dataset/3/26_9.odb,Step-1,Increment      1: Step Time =    1.000,"PART-1-1",           765,       11.1222,       22.5628,            0.,NA,NA,"",       4.75571,       4.74509,  -317.735E-03,   841.954E-09
C:/temp/dataset/3/26_9.odb,Step-1,Increment      1: Step Time =    1.000,"PART-1-1",           766,       9.84566,       21.3197,            0.,NA,NA,"",       4.59623,       4.59407,  -140.895E-03,   3.46899E-06
C:/temp/dataset/3/26_9.odb,Step-1,Increment      1: Step Time =    1.000,"PART-1-1",           767,      -3.18112,  -190.353E-03,            0.,NA,NA,"",       2.65166,       1.91117,       1.83814,   1.44299E-03
C:/temp/dataset/3/26_9.odb,Step-1,Increment      1: Step Time =    1.000,"PART-1-1",           768,       4.54417,       1.21940,            0.,NA,NA,"",       2.15093,       2.02792,   716.961E-03,   5.85632E-03
C:/temp/dataset/3/26_9.odb,Step-1,Increment      1: Step Time =    1.000,"PART-1-1",           769,       9.22107,       9.51460,            0.,NA,NA,"",       3.06235,       3.06207,   41.4614E-03,   255.606E-06
C:/temp/dataset/3/26_9.odb,Step-1,Increment      1: Step Time =    1.000,"PART-1-1",           770,       11.1709,      -3.71800,            0.,NA,NA,"",       1.30067,       1.29686,  -99.5472E-03,   8.61174E-03
C:/temp/dataset/3/26_9.odb,Step-1,Increment      1: Step Time =    1.000,"PART-1-1",           771,       11.0221,      -5.16095,            0.,NA,NA,"",       1.12443,       1.12226,  -69.8454E-03,   7.10168E-03
C:/temp/dataset/3/26_9.odb,Step-1,Increment      1: Step Time =    1.000,"PART-1-1",           772,       12.3085,      -4.70099,            0.,NA,NA,"",       1.19222,       1.17262,  -215.274E-03,   9.36881E-03
C:/temp/dataset/3/26_9.odb,Step-1,Increment      1: Step Time =    1.000,"PART-1-1",           773,       5.03877,      -2.41022,            0.,NA,NA,"",       1.67094,       1.53554,   658.908E-03,   14.9776E-03
C:/temp/dataset/3/26_9.odb,Step-1,Increment      1: Step Time =    1.000,"PART-1-1",           774,       11.0080,       9.74440,            0.,NA,NA,"",       3.08264,       3.07658,  -193.280E-03,   137.453E-06
C:/temp/dataset/3/26_9.odb,Step-1,Increment      1: Step Time =    1.000,"PART-1-1",           775,       7.33953,      -23.4839,            0.,NA,NA,"",   52.3146E-03,   2.26016E-03,   52.2658E-03,   14.3195E-03
C:/temp/dataset/3/26_9.odb,Step-1,Increment      1: Step Time =    1.000,"PART-1-1",           776,       6.60048,      -22.7490,            0.,NA,NA,"",   69.4964E-03,   12.4581E-03,   68.3707E-03,   16.9500E-03
C:/temp/dataset/3/26_9.odb,Step-1,Increment      1: Step Time =    1.000,"PART-1-1",           777,       5.56839,      -23.3719,            0.,NA,NA,"",   63.5107E-03,   15.4277E-03,   61.6084E-03,   16.9838E-03
C:/temp/dataset/3/26_9.odb,Step-1,Increment      1: Step Time =    1.000,"PART-1-1",           778,       5.56431,      -22.1833,            0.,NA,NA,"",   83.2430E-03,   24.0416E-03,   79.6956E-03,   20.1987E-03
C:/temp/dataset/3/26_9.odb,Step-1,Increment      1: Step Time =    1.000,"PART-1-1",           779,       7.31291,      -21.9704,            0.,NA,NA,"",   73.4731E-03,   13.2523E-03,   72.2680E-03,   16.0131E-03
C:/temp/dataset/3/26_9.odb,Step-1,Increment      1: Step Time =    1.000,"PART-1-1",           780,       8.04898,      -22.6975,            0.,NA,NA,"",   52.2766E-03,   2.90787E-03,   52.1957E-03,   12.6501E-03
C:/temp/dataset/3/26_9.odb,Step-1,Increment      1: Step Time =    1.000,"PART-1-1",           781,       5.89213,  -472.373E-03,            0.,NA,NA,"",       1.86142,       1.78231,   536.871E-03,   7.92686E-03
C:/temp/dataset/3/26_9.odb,Step-1,Increment      1: Step Time =    1.000,"PART-1-1",           782,       8.40014,      -24.0502,            0.,NA,NA,"",   35.2493E-03,  -6.88586E-03,   34.5702E-03,   10.4715E-03
