ODB Name,Step,Frame,Part Instance Name,    êﬂì_ÉâÉxÉã,X,Y,Z,Section Name,Material Name,Section Point,   U-Magnitude,          U-U1,          U-U2,       S-Mises
C:/temp/dataset/3/2_1.odb,Step-1,Increment      1: Step Time =    1.000,"PART-1-1",             1,          -15.,           20.,            0.,NA,NA,"",       1.62719,  -906.757E-03,      -1.35113,   3.74913E-06
C:/temp/dataset/3/2_1.odb,Step-1,Increment      1: Step Time =    1.000,"PART-1-1",             2,          -15.,           25.,            0.,NA,NA,"",       1.79614,      -1.17529,      -1.35823,   54.8504E-06
C:/temp/dataset/3/2_1.odb,Step-1,Increment      1: Step Time =    1.000,"PART-1-1",             3,           -5.,           20.,            0.,NA,NA,"",       1.22816,  -920.865E-03,  -812.637E-03,   118.300E-06
C:/temp/dataset/3/2_1.odb,Step-1,Increment      1: Step Time =    1.000,"PART-1-1",             4,            5.,           20.,            0.,NA,NA,"",   987.861E-03,  -952.780E-03,  -260.922E-03,   9.37254E-03
C:/temp/dataset/3/2_1.odb,Step-1,Increment      1: Step Time =    1.000,"PART-1-1",             5,            5.,          12.5,            0.,NA,NA,"",   696.187E-03,  -665.283E-03,  -205.120E-03,   6.80642E-03
C:/temp/dataset/3/2_1.odb,Step-1,Increment      1: Step Time =    1.000,"PART-1-1",             6,            5.,            5.,            0.,NA,NA,"",   450.519E-03,  -424.549E-03,  -150.750E-03,   7.51884E-03
C:/temp/dataset/3/2_1.odb,Step-1,Increment      1: Step Time =    1.000,"PART-1-1",             7,      -1.70000,            5.,            0.,NA,NA,"",   516.740E-03,  -424.533E-03,  -294.606E-03,   257.589E-06
C:/temp/dataset/3/2_1.odb,Step-1,Increment      1: Step Time =    1.000,"PART-1-1",             8,      -8.40000,            5.,            0.,NA,NA,"",   620.756E-03,  -423.155E-03,  -454.178E-03,   6.98403E-06
C:/temp/dataset/3/2_1.odb,Step-1,Increment      1: Step Time =    1.000,"PART-1-1",             9,          -15.,            5.,            0.,NA,NA,"",   742.485E-03,  -421.283E-03,  -611.395E-03,   85.4401E-09
C:/temp/dataset/3/2_1.odb,Step-1,Increment      1: Step Time =    1.000,"PART-1-1",            10,          -15.,            0.,            0.,NA,NA,"",   680.729E-03,  -302.199E-03,  -609.974E-03,   1.12295E-06
C:/temp/dataset/3/2_1.odb,Step-1,Increment      1: Step Time =    1.000,"PART-1-1",            11,          -15.,           -5.,            0.,NA,NA,"",   635.511E-03,  -183.133E-03,  -608.553E-03,   74.4597E-09
C:/temp/dataset/3/2_1.odb,Step-1,Increment      1: Step Time =    1.000,"PART-1-1",            12,      -8.30000,           -5.,            0.,NA,NA,"",   485.660E-03,  -185.031E-03,  -449.032E-03,   6.75683E-06
C:/temp/dataset/3/2_1.odb,Step-1,Increment      1: Step Time =    1.000,"PART-1-1",            13,      -1.60000,           -5.,            0.,NA,NA,"",   344.242E-03,  -186.370E-03,  -289.428E-03,   269.599E-06
C:/temp/dataset/3/2_1.odb,Step-1,Increment      1: Step Time =    1.000,"PART-1-1",            14,            5.,           -5.,            0.,NA,NA,"",   220.477E-03,  -187.132E-03,  -116.584E-03,   7.56940E-03
C:/temp/dataset/3/2_1.odb,Step-1,Increment      1: Step Time =    1.000,"PART-1-1",            15,            5.,         -12.5,            0.,NA,NA,"",   98.1279E-03,  -71.9003E-03,  -66.7789E-03,   6.50905E-03
C:/temp/dataset/3/2_1.odb,Step-1,Increment      1: Step Time =    1.000,"PART-1-1",            16,            5.,          -20.,            0.,NA,NA,"",   19.6989E-03,  -3.97401E-03,  -19.2939E-03,   7.63763E-03
C:/temp/dataset/3/2_1.odb,Step-1,Increment      1: Step Time =    1.000,"PART-1-1",            17,           -5.,          -20.,            0.,NA,NA,"",   1.40508E-03,  -1.40379E-03,   60.1018E-06,   94.7758E-06
C:/temp/dataset/3/2_1.odb,Step-1,Increment      1: Step Time =    1.000,"PART-1-1",            18,          -15.,          -20.,            0.,NA,NA,"",   1.73691E-03,  -1.69935E-03,  -359.260E-06,   1.77804E-06
C:/temp/dataset/3/2_1.odb,Step-1,Increment      1: Step Time =    1.000,"PART-1-1",            19,          -15.,          -25.,            0.,NA,NA,"",   1.18889E-03,  -1.11879E-03,  -402.186E-06,   11.5964E-06
C:/temp/dataset/3/2_1.odb,Step-1,Increment      1: Step Time =    1.000,"PART-1-1",            20,          -15.,          -30.,            0.,NA,NA,"",            0.,  -97.5696E-42,  -153.819E-42,   295.492E-06
C:/temp/dataset/3/2_1.odb,Step-1,Increment      1: Step Time =    1.000,"PART-1-1",            21,           15.,          -30.,            0.,NA,NA,"",            0.,  -110.223E-42,   328.515E-42,   677.811E-06
C:/temp/dataset/3/2_1.odb,Step-1,Increment      1: Step Time =    1.000,"PART-1-1",            22,           15.,         -22.5,            0.,NA,NA,"",   13.9253E-03,  -1.61151E-03,   13.8318E-03,   3.46059E-03
C:/temp/dataset/3/2_1.odb,Step-1,Increment      1: Step Time =    1.000,"PART-1-1",            23,           15.,          -15.,            0.,NA,NA,"",   61.1967E-03,  -42.6004E-03,   43.9345E-03,   5.05084E-03
C:/temp/dataset/3/2_1.odb,Step-1,Increment      1: Step Time =    1.000,"PART-1-1",            24,           15.,          -7.5,            0.,NA,NA,"",   163.649E-03,  -144.184E-03,   77.4080E-03,   4.94089E-03
C:/temp/dataset/3/2_1.odb,Step-1,Increment      1: Step Time =    1.000,"PART-1-1",            25,           15.,            0.,            0.,NA,NA,"",   320.061E-03,  -302.307E-03,   105.116E-03,   3.91606E-03
C:/temp/dataset/3/2_1.odb,Step-1,Increment      1: Step Time =    1.000,"PART-1-1",            26,           15.,           7.5,            0.,NA,NA,"",   520.062E-03,  -502.913E-03,   132.453E-03,   5.16275E-03
C:/temp/dataset/3/2_1.odb,Step-1,Increment      1: Step Time =    1.000,"PART-1-1",            27,           15.,           15.,            0.,NA,NA,"",   779.989E-03,  -762.474E-03,   164.367E-03,   5.49676E-03
C:/temp/dataset/3/2_1.odb,Step-1,Increment      1: Step Time =    1.000,"PART-1-1",            28,           15.,          22.5,            0.,NA,NA,"",       1.10516,      -1.08871,   189.969E-03,   3.30755E-03
C:/temp/dataset/3/2_1.odb,Step-1,Increment      1: Step Time =    1.000,"PART-1-1",            29,           15.,           30.,            0.,NA,NA,"",       1.46251,      -1.45024,   188.989E-03,   110.458E-06
C:/temp/dataset/3/2_1.odb,Step-1,Increment      1: Step Time =    1.000,"PART-1-1",            30,           7.5,           30.,            0.,NA,NA,"",       1.45867,      -1.44902,  -167.526E-03,   2.87498E-03
C:/temp/dataset/3/2_1.odb,Step-1,Increment      1: Step Time =    1.000,"PART-1-1",            31,            0.,           30.,            0.,NA,NA,"",       1.56269,      -1.45986,  -557.518E-03,   2.10656E-03
C:/temp/dataset/3/2_1.odb,Step-1,Increment      1: Step Time =    1.000,"PART-1-1",            32,          -7.5,           30.,            0.,NA,NA,"",       1.74426,      -1.45330,  -964.550E-03,   547.086E-06
C:/temp/dataset/3/2_1.odb,Step-1,Increment      1: Step Time =    1.000,"PART-1-1",            33,          -15.,           30.,            0.,NA,NA,"",       1.98681,      -1.44340,      -1.36529,   4.31927E-06
C:/temp/dataset/3/2_1.odb,Step-1,Increment      1: Step Time =    1.000,"PART-1-1",            34,          -15.,          22.5,            0.,NA,NA,"",       1.70852,      -1.04105,      -1.35472,   26.0234E-06
C:/temp/dataset/3/2_1.odb,Step-1,Increment      1: Step Time =    1.000,"PART-1-1",            35,          -7.5,           20.,            0.,NA,NA,"",       1.31904,  -917.243E-03,  -947.911E-03,   74.1317E-06
C:/temp/dataset/3/2_1.odb,Step-1,Increment      1: Step Time =    1.000,"PART-1-1",            36,          -10.,           20.,            0.,NA,NA,"",       1.41670,  -913.832E-03,      -1.08256,   82.7818E-06
C:/temp/dataset/3/2_1.odb,Step-1,Increment      1: Step Time =    1.000,"PART-1-1",            37,         -12.5,           20.,            0.,NA,NA,"",       1.51971,  -910.348E-03,      -1.21688,   28.3302E-06
C:/temp/dataset/3/2_1.odb,Step-1,Increment      1: Step Time =    1.000,"PART-1-1",            38,           2.5,           20.,            0.,NA,NA,"",       1.02168,  -938.496E-03,  -403.795E-03,   3.53699E-03
C:/temp/dataset/3/2_1.odb,Step-1,Increment      1: Step Time =    1.000,"PART-1-1",            39,            0.,           20.,            0.,NA,NA,"",       1.07659,  -931.095E-03,  -540.474E-03,   1.27462E-03
C:/temp/dataset/3/2_1.odb,Step-1,Increment      1: Step Time =    1.000,"PART-1-1",            40,          -2.5,           20.,            0.,NA,NA,"",       1.14635,  -925.270E-03,  -676.757E-03,   644.335E-06
C:/temp/dataset/3/2_1.odb,Step-1,Increment      1: Step Time =    1.000,"PART-1-1",            41,            5.,           15.,            0.,NA,NA,"",   789.238E-03,  -757.380E-03,  -221.975E-03,   6.62391E-03
C:/temp/dataset/3/2_1.odb,Step-1,Increment      1: Step Time =    1.000,"PART-1-1",            42,            5.,          17.5,            0.,NA,NA,"",   887.409E-03,  -854.736E-03,  -238.579E-03,   7.70647E-03
C:/temp/dataset/3/2_1.odb,Step-1,Increment      1: Step Time =    1.000,"PART-1-1",            43,            5.,           7.5,            0.,NA,NA,"",   528.278E-03,  -499.480E-03,  -172.041E-03,   7.24186E-03
C:/temp/dataset/3/2_1.odb,Step-1,Increment      1: Step Time =    1.000,"PART-1-1",            44,            5.,           10.,            0.,NA,NA,"",   609.254E-03,  -579.418E-03,  -188.322E-03,   6.73229E-03
C:/temp/dataset/3/2_1.odb,Step-1,Increment      1: Step Time =    1.000,"PART-1-1",            45,   533.333E-03,            5.,            0.,NA,NA,"",   488.582E-03,  -424.324E-03,  -242.202E-03,   702.298E-06
C:/temp/dataset/3/2_1.odb,Step-1,Increment      1: Step Time =    1.000,"PART-1-1",            46,       2.76667,            5.,            0.,NA,NA,"",   464.968E-03,  -423.438E-03,  -192.082E-03,   1.36614E-03
C:/temp/dataset/3/2_1.odb,Step-1,Increment      1: Step Time =    1.000,"PART-1-1",            47,      -6.16667,            5.,            0.,NA,NA,"",   583.377E-03,  -423.758E-03,  -400.946E-03,   30.9761E-06
C:/temp/dataset/3/2_1.odb,Step-1,Increment      1: Step Time =    1.000,"PART-1-1",            48,      -3.93333,            5.,            0.,NA,NA,"",   548.548E-03,  -424.263E-03,  -347.716E-03,   115.302E-06
C:/temp/dataset/3/2_1.odb,Step-1,Increment      1: Step Time =    1.000,"PART-1-1",            49,      -12.8000,            5.,            0.,NA,NA,"",   700.345E-03,  -421.908E-03,  -558.996E-03,   795.514E-09
C:/temp/dataset/3/2_1.odb,Step-1,Increment      1: Step Time =    1.000,"PART-1-1",            50,      -10.6000,            5.,            0.,NA,NA,"",   659.675E-03,  -422.534E-03,  -506.593E-03,   468.984E-09
C:/temp/dataset/3/2_1.odb,Step-1,Increment      1: Step Time =    1.000,"PART-1-1",            51,          -15.,           2.5,            0.,NA,NA,"",   709.783E-03,  -361.739E-03,  -610.685E-03,   892.300E-09
C:/temp/dataset/3/2_1.odb,Step-1,Increment      1: Step Time =    1.000,"PART-1-1",            52,          -15.,          -2.5,            0.,NA,NA,"",   655.810E-03,  -242.664E-03,  -609.263E-03,   889.352E-09
C:/temp/dataset/3/2_1.odb,Step-1,Increment      1: Step Time =    1.000,"PART-1-1",            53,      -10.5333,           -5.,            0.,NA,NA,"",   534.981E-03,  -184.402E-03,  -502.195E-03,   608.613E-09
C:/temp/dataset/3/2_1.odb,Step-1,Increment      1: Step Time =    1.000,"PART-1-1",            54,      -12.7667,           -5.,            0.,NA,NA,"",   584.986E-03,  -183.767E-03,  -555.372E-03,   738.324E-09
C:/temp/dataset/3/2_1.odb,Step-1,Increment      1: Step Time =    1.000,"PART-1-1",            55,      -3.83333,           -5.,            0.,NA,NA,"",   390.012E-03,  -186.120E-03,  -342.737E-03,   121.067E-06
C:/temp/dataset/3/2_1.odb,Step-1,Increment      1: Step Time =    1.000,"PART-1-1",            56,      -6.06667,           -5.,            0.,NA,NA,"",   437.250E-03,  -185.630E-03,  -395.890E-03,   31.4821E-06
C:/temp/dataset/3/2_1.odb,Step-1,Increment      1: Step Time =    1.000,"PART-1-1",            57,       2.80000,           -5.,            0.,NA,NA,"",   258.704E-03,  -185.348E-03,  -180.483E-03,   1.78148E-03
C:/temp/dataset/3/2_1.odb,Step-1,Increment      1: Step Time =    1.000,"PART-1-1",            58,   600.000E-03,           -5.,            0.,NA,NA,"",   300.765E-03,  -186.191E-03,  -236.204E-03,   665.620E-06
C:/temp/dataset/3/2_1.odb,Step-1,Increment      1: Step Time =    1.000,"PART-1-1",            59,            5.,          -10.,            0.,NA,NA,"",   133.090E-03,  -105.063E-03,  -81.6979E-03,   6.47090E-03
C:/temp/dataset/3/2_1.odb,Step-1,Increment      1: Step Time =    1.000,"PART-1-1",            60,            5.,          -7.5,            0.,NA,NA,"",   173.277E-03,  -143.930E-03,  -96.4839E-03,   6.96386E-03
C:/temp/dataset/3/2_1.odb,Step-1,Increment      1: Step Time =    1.000,"PART-1-1",            61,            5.,         -17.5,            0.,NA,NA,"",   44.3811E-03,  -22.9125E-03,  -38.0092E-03,   6.79763E-03
C:/temp/dataset/3/2_1.odb,Step-1,Increment      1: Step Time =    1.000,"PART-1-1",            62,            5.,          -15.,            0.,NA,NA,"",   68.7461E-03,  -44.7644E-03,  -52.1745E-03,   6.25253E-03
C:/temp/dataset/3/2_1.odb,Step-1,Increment      1: Step Time =    1.000,"PART-1-1",            63,          -2.5,          -20.,            0.,NA,NA,"",   1.27085E-03,  -1.14632E-03,  -548.641E-06,   119.469E-06
C:/temp/dataset/3/2_1.odb,Step-1,Increment      1: Step Time =    1.000,"PART-1-1",            64,            0.,          -20.,            0.,NA,NA,"",   2.37710E-03,  -823.703E-06,  -2.22982E-03,   304.010E-06
C:/temp/dataset/3/2_1.odb,Step-1,Increment      1: Step Time =    1.000,"PART-1-1",            65,           2.5,          -20.,            0.,NA,NA,"",   6.32796E-03,  -458.208E-06,  -6.31135E-03,   1.74859E-03
C:/temp/dataset/3/2_1.odb,Step-1,Increment      1: Step Time =    1.000,"PART-1-1",            66,         -12.5,          -20.,            0.,NA,NA,"",   1.69236E-03,  -1.68949E-03,  -98.6427E-06,   12.1952E-06
C:/temp/dataset/3/2_1.odb,Step-1,Increment      1: Step Time =    1.000,"PART-1-1",            67,          -10.,          -20.,            0.,NA,NA,"",   1.64781E-03,  -1.64371E-03,   116.120E-06,   28.1922E-06
C:/temp/dataset/3/2_1.odb,Step-1,Increment      1: Step Time =    1.000,"PART-1-1",            68,          -7.5,          -20.,            0.,NA,NA,"",   1.57316E-03,  -1.55924E-03,   208.816E-06,   49.0089E-06
C:/temp/dataset/3/2_1.odb,Step-1,Increment      1: Step Time =    1.000,"PART-1-1",            69,          -15.,         -22.5,            0.,NA,NA,"",   1.48988E-03,  -1.44346E-03,  -369.033E-06,   11.1450E-06
C:/temp/dataset/3/2_1.odb,Step-1,Increment      1: Step Time =    1.000,"PART-1-1",            70,          -15.,         -27.5,            0.,NA,NA,"",   741.405E-06,  -638.826E-06,  -376.275E-06,   79.8479E-06
C:/temp/dataset/3/2_1.odb,Step-1,Increment      1: Step Time =    1.000,"PART-1-1",            71,          12.5,          -30.,            0.,NA,NA,"",            0.,   665.761E-42,   914.755E-42,   1.13581E-03
C:/temp/dataset/3/2_1.odb,Step-1,Increment      1: Step Time =    1.000,"PART-1-1",            72,           10.,          -30.,            0.,NA,NA,"",            0.,   1.24646E-39,   500.073E-42,   1.10551E-03
C:/temp/dataset/3/2_1.odb,Step-1,Increment      1: Step Time =    1.000,"PART-1-1",            73,           7.5,          -30.,            0.,NA,NA,"",            0.,   529.937E-42,  -1.22711E-39,   990.772E-06
C:/temp/dataset/3/2_1.odb,Step-1,Increment      1: Step Time =    1.000,"PART-1-1",            74,            5.,          -30.,            0.,NA,NA,"",            0.,   604.133E-42,  -2.20544E-39,   921.371E-06
C:/temp/dataset/3/2_1.odb,Step-1,Increment      1: Step Time =    1.000,"PART-1-1",            75,           2.5,          -30.,            0.,NA,NA,"",            0.,  -18.1132E-42,  -1.61860E-39,   879.248E-06
C:/temp/dataset/3/2_1.odb,Step-1,Increment      1: Step Time =    1.000,"PART-1-1",            76,            0.,          -30.,            0.,NA,NA,"",            0.,  -340.032E-42,  -865.303E-42,   762.637E-06
C:/temp/dataset/3/2_1.odb,Step-1,Increment      1: Step Time =    1.000,"PART-1-1",            77,          -2.5,          -30.,            0.,NA,NA,"",            0.,  -808.581E-42,  -995.097E-42,   580.221E-06
C:/temp/dataset/3/2_1.odb,Step-1,Increment      1: Step Time =    1.000,"PART-1-1",            78,           -5.,          -30.,            0.,NA,NA,"",            0.,  -359.970E-42,  -50.3627E-42,   412.495E-06
C:/temp/dataset/3/2_1.odb,Step-1,Increment      1: Step Time =    1.000,"PART-1-1",            79,          -7.5,          -30.,            0.,NA,NA,"",            0.,  -277.803E-42,   48.9936E-42,   285.299E-06
C:/temp/dataset/3/2_1.odb,Step-1,Increment      1: Step Time =    1.000,"PART-1-1",            80,          -10.,          -30.,            0.,NA,NA,"",            0.,  -267.875E-42,  -228.881E-42,   203.053E-06
C:/temp/dataset/3/2_1.odb,Step-1,Increment      1: Step Time =    1.000,"PART-1-1",            81,         -12.5,          -30.,            0.,NA,NA,"",            0.,  -232.311E-42,  -197.577E-42,   139.829E-06
C:/temp/dataset/3/2_1.odb,Step-1,Increment      1: Step Time =    1.000,"PART-1-1",            82,           15.,          -25.,            0.,NA,NA,"",   7.17525E-03,   1.24694E-03,   7.06607E-03,   2.54807E-03
C:/temp/dataset/3/2_1.odb,Step-1,Increment      1: Step Time =    1.000,"PART-1-1",            83,           15.,         -27.5,            0.,NA,NA,"",   2.56912E-03,   1.08862E-03,   2.32708E-03,   1.67069E-03
C:/temp/dataset/3/2_1.odb,Step-1,Increment      1: Step Time =    1.000,"PART-1-1",            84,           15.,         -17.5,            0.,NA,NA,"",   39.8228E-03,  -22.4151E-03,   32.9153E-03,   4.83256E-03
C:/temp/dataset/3/2_1.odb,Step-1,Increment      1: Step Time =    1.000,"PART-1-1",            85,           15.,          -20.,            0.,NA,NA,"",   24.3152E-03,  -9.01171E-03,   22.5835E-03,   4.27446E-03
C:/temp/dataset/3/2_1.odb,Step-1,Increment      1: Step Time =    1.000,"PART-1-1",            86,           15.,          -10.,            0.,NA,NA,"",   122.964E-03,  -103.484E-03,   66.4153E-03,   5.10081E-03
C:/temp/dataset/3/2_1.odb,Step-1,Increment      1: Step Time =    1.000,"PART-1-1",            87,           15.,         -12.5,            0.,NA,NA,"",   88.8514E-03,  -69.6337E-03,   55.1880E-03,   5.10320E-03
C:/temp/dataset/3/2_1.odb,Step-1,Increment      1: Step Time =    1.000,"PART-1-1",            88,           15.,          -2.5,            0.,NA,NA,"",   263.096E-03,  -244.610E-03,   96.8796E-03,   4.10385E-03
C:/temp/dataset/3/2_1.odb,Step-1,Increment      1: Step Time =    1.000,"PART-1-1",            89,           15.,           -5.,            0.,NA,NA,"",   210.639E-03,  -191.508E-03,   87.7130E-03,   4.56338E-03
C:/temp/dataset/3/2_1.odb,Step-1,Increment      1: Step Time =    1.000,"PART-1-1",            90,           15.,            5.,            0.,NA,NA,"",   447.549E-03,  -430.495E-03,   122.371E-03,   4.70108E-03
C:/temp/dataset/3/2_1.odb,Step-1,Increment      1: Step Time =    1.000,"PART-1-1",            91,           15.,           2.5,            0.,NA,NA,"",   381.263E-03,  -364.036E-03,   113.311E-03,   4.19811E-03
C:/temp/dataset/3/2_1.odb,Step-1,Increment      1: Step Time =    1.000,"PART-1-1",            92,           15.,          12.5,            0.,NA,NA,"",   686.150E-03,  -668.695E-03,   153.782E-03,   5.46725E-03
C:/temp/dataset/3/2_1.odb,Step-1,Increment      1: Step Time =    1.000,"PART-1-1",            93,           15.,           10.,            0.,NA,NA,"",   599.533E-03,  -582.214E-03,   143.061E-03,   5.37414E-03
C:/temp/dataset/3/2_1.odb,Step-1,Increment      1: Step Time =    1.000,"PART-1-1",            94,           15.,           20.,            0.,NA,NA,"",   990.052E-03,  -972.887E-03,   183.559E-03,   4.59997E-03
C:/temp/dataset/3/2_1.odb,Step-1,Increment      1: Step Time =    1.000,"PART-1-1",            95,           15.,          17.5,            0.,NA,NA,"",   881.292E-03,  -863.829E-03,   174.568E-03,   5.30229E-03
C:/temp/dataset/3/2_1.odb,Step-1,Increment      1: Step Time =    1.000,"PART-1-1",            96,           15.,          27.5,            0.,NA,NA,"",       1.34398,      -1.33022,   191.807E-03,   337.010E-06
C:/temp/dataset/3/2_1.odb,Step-1,Increment      1: Step Time =    1.000,"PART-1-1",            97,           15.,           25.,            0.,NA,NA,"",       1.22415,      -1.20889,   192.700E-03,   1.67543E-03
C:/temp/dataset/3/2_1.odb,Step-1,Increment      1: Step Time =    1.000,"PART-1-1",            98,           10.,           30.,            0.,NA,NA,"",       1.44750,      -1.44671,  -47.8813E-03,   1.59776E-03
C:/temp/dataset/3/2_1.odb,Step-1,Increment      1: Step Time =    1.000,"PART-1-1",            99,          12.5,           30.,            0.,NA,NA,"",       1.44917,      -1.44747,   70.0388E-03,   334.320E-06
C:/temp/dataset/3/2_1.odb,Step-1,Increment      1: Step Time =    1.000,"PART-1-1",           100,           2.5,           30.,            0.,NA,NA,"",       1.51723,      -1.45744,  -421.726E-03,   3.05448E-03
C:/temp/dataset/3/2_1.odb,Step-1,Increment      1: Step Time =    1.000,"PART-1-1",           101,            5.,           30.,            0.,NA,NA,"",       1.48231,      -1.45331,  -291.760E-03,   3.40282E-03
C:/temp/dataset/3/2_1.odb,Step-1,Increment      1: Step Time =    1.000,"PART-1-1",           102,           -5.,           30.,            0.,NA,NA,"",       1.67716,      -1.45673,  -831.151E-03,   1.03558E-03
C:/temp/dataset/3/2_1.odb,Step-1,Increment      1: Step Time =    1.000,"PART-1-1",           103,          -2.5,           30.,            0.,NA,NA,"",       1.61618,      -1.45902,  -695.190E-03,   1.38155E-03
C:/temp/dataset/3/2_1.odb,Step-1,Increment      1: Step Time =    1.000,"PART-1-1",           104,         -12.5,           30.,            0.,NA,NA,"",       1.89990,      -1.44696,      -1.23124,   44.7506E-06
C:/temp/dataset/3/2_1.odb,Step-1,Increment      1: Step Time =    1.000,"PART-1-1",           105,          -10.,           30.,            0.,NA,NA,"",       1.81869,      -1.45039,      -1.09728,   203.214E-06
C:/temp/dataset/3/2_1.odb,Step-1,Increment      1: Step Time =    1.000,"PART-1-1",           106,          -15.,          27.5,            0.,NA,NA,"",       1.88911,      -1.30938,      -1.36171,   30.9940E-06
C:/temp/dataset/3/2_1.odb,Step-1,Increment      1: Step Time =    1.000,"PART-1-1",           107,      -12.5013,       25.0052,            0.,NA,NA,"",       1.69974,      -1.17922,      -1.22416,   31.8676E-06
C:/temp/dataset/3/2_1.odb,Step-1,Increment      1: Step Time =    1.000,"PART-1-1",           108,      -10.0028,       27.5014,            0.,NA,NA,"",       1.71173,      -1.31673,      -1.09374,   103.393E-06
C:/temp/dataset/3/2_1.odb,Step-1,Increment      1: Step Time =    1.000,"PART-1-1",           109,      -2.49865,       22.5268,            0.,NA,NA,"",       1.26038,      -1.06133,  -679.807E-03,   1.02847E-03
C:/temp/dataset/3/2_1.odb,Step-1,Increment      1: Step Time =    1.000,"PART-1-1",           110,      -2.51000,       27.5279,            0.,NA,NA,"",       1.49465,      -1.32608,  -689.546E-03,   1.68426E-03
C:/temp/dataset/3/2_1.odb,Step-1,Increment      1: Step Time =    1.000,"PART-1-1",           111,       12.3864,       22.5464,            0.,NA,NA,"",       1.08758,      -1.08531,   70.1506E-03,   2.49948E-03
C:/temp/dataset/3/2_1.odb,Step-1,Increment      1: Step Time =    1.000,"PART-1-1",           112,       7.35369,       17.5509,            0.,NA,NA,"",   866.094E-03,  -854.428E-03,  -141.677E-03,   4.10384E-03
C:/temp/dataset/3/2_1.odb,Step-1,Increment      1: Step Time =    1.000,"PART-1-1",           113,       12.3201,       14.9467,            0.,NA,NA,"",   756.242E-03,  -753.805E-03,   60.6586E-03,   2.12165E-03
C:/temp/dataset/3/2_1.odb,Step-1,Increment      1: Step Time =    1.000,"PART-1-1",           114,       13.2599,       7.39194,            0.,NA,NA,"",   501.935E-03,  -495.611E-03,   79.4289E-03,   3.13498E-03
C:/temp/dataset/3/2_1.odb,Step-1,Increment      1: Step Time =    1.000,"PART-1-1",           115,       7.60504,      -5.98204,            0.,NA,NA,"",   175.606E-03,  -166.674E-03,  -55.2919E-03,   2.47518E-03
C:/temp/dataset/3/2_1.odb,Step-1,Increment      1: Step Time =    1.000,"PART-1-1",           116,       7.71062,      -13.7665,            0.,NA,NA,"",   59.5747E-03,  -51.6292E-03,  -29.7249E-03,   3.35396E-03
C:/temp/dataset/3/2_1.odb,Step-1,Increment      1: Step Time =    1.000,"PART-1-1",           117,       11.7208,      -22.4938,            0.,NA,NA,"",   4.67840E-03,   1.68048E-03,   4.36617E-03,   1.66739E-03
C:/temp/dataset/3/2_1.odb,Step-1,Increment      1: Step Time =    1.000,"PART-1-1",           118,       2.59328,       2.74806,            0.,NA,NA,"",   419.808E-03,  -372.318E-03,  -193.954E-03,   1.55187E-03
C:/temp/dataset/3/2_1.odb,Step-1,Increment      1: Step Time =    1.000,"PART-1-1",           119,      -1.32361,      -2.98462,            0.,NA,NA,"",   368.253E-03,  -234.969E-03,  -283.549E-03,   172.603E-06
C:/temp/dataset/3/2_1.odb,Step-1,Increment      1: Step Time =    1.000,"PART-1-1",           120,      -6.00563,       3.11026,            0.,NA,NA,"",   548.417E-03,  -378.818E-03,  -396.557E-03,   50.2742E-06
C:/temp/dataset/3/2_1.odb,Step-1,Increment      1: Step Time =    1.000,"PART-1-1",           121,      -10.4102,       2.53863,            0.,NA,NA,"",   619.552E-03,  -363.961E-03,  -501.375E-03,   5.21000E-06
C:/temp/dataset/3/2_1.odb,Step-1,Increment      1: Step Time =    1.000,"PART-1-1",           122,      -12.6184,  -43.2983E-03,            0.,NA,NA,"",   630.229E-03,  -301.843E-03,  -553.245E-03,   1.19812E-06
C:/temp/dataset/3/2_1.odb,Step-1,Increment      1: Step Time =    1.000,"PART-1-1",           123,      -3.88272,       3.23189,            0.,NA,NA,"",   515.598E-03,  -382.296E-03,  -345.963E-03,   104.639E-06
C:/temp/dataset/3/2_1.odb,Step-1,Increment      1: Step Time =    1.000,"PART-1-1",           124,       2.98144,      -22.7363,            0.,NA,NA,"",   7.19519E-03,  -3.06421E-03,  -6.51009E-03,   2.40792E-03
C:/temp/dataset/3/2_1.odb,Step-1,Increment      1: Step Time =    1.000,"PART-1-1",           125,      -2.42987,      -22.6294,            0.,NA,NA,"",   2.13082E-03,  -2.04311E-03,  -605.089E-06,   198.341E-06
C:/temp/dataset/3/2_1.odb,Step-1,Increment      1: Step Time =    1.000,"PART-1-1",           126,      -9.97348,      -22.5672,            0.,NA,NA,"",   1.49066E-03,  -1.48620E-03,   115.240E-06,   30.2531E-06
C:/temp/dataset/3/2_1.odb,Step-1,Increment      1: Step Time =    1.000,"PART-1-1",           127,      -12.4895,      -25.0402,            0.,NA,NA,"",   1.12845E-03,  -1.12460E-03,  -93.1064E-06,   54.4463E-06
C:/temp/dataset/3/2_1.odb,Step-1,Increment      1: Step Time =    1.000,"PART-1-1",           128,       12.8561,      -14.2595,            0.,NA,NA,"",   52.5338E-03,  -46.0612E-03,   25.2619E-03,   2.53520E-03
C:/temp/dataset/3/2_1.odb,Step-1,Increment      1: Step Time =    1.000,"PART-1-1",           129,       12.7281,      -7.33650,            0.,NA,NA,"",   148.018E-03,  -142.955E-03,   38.3840E-03,   2.44228E-03
C:/temp/dataset/3/2_1.odb,Step-1,Increment      1: Step Time =    1.000,"PART-1-1",           130,       12.6427,  -96.8002E-03,            0.,NA,NA,"",   300.318E-03,  -296.315E-03,   48.8687E-03,   1.87548E-03
C:/temp/dataset/3/2_1.odb,Step-1,Increment      1: Step Time =    1.000,"PART-1-1",           131,       7.13014,       10.3328,            0.,NA,NA,"",   598.401E-03,  -586.450E-03,  -118.996E-03,   4.31280E-03
C:/temp/dataset/3/2_1.odb,Step-1,Increment      1: Step Time =    1.000,"PART-1-1",           132,       4.95005,       27.5805,            0.,NA,NA,"",       1.36167,      -1.33081,  -288.232E-03,   1.81353E-03
C:/temp/dataset/3/2_1.odb,Step-1,Increment      1: Step Time =    1.000,"PART-1-1",           133,      -4.99957,       22.5148,            0.,NA,NA,"",       1.33502,      -1.05647,  -816.183E-03,   521.640E-06
C:/temp/dataset/3/2_1.odb,Step-1,Increment      1: Step Time =    1.000,"PART-1-1",           134,      -7.50186,       22.5094,            0.,NA,NA,"",       1.41892,      -1.05240,  -951.716E-03,   155.716E-06
C:/temp/dataset/3/2_1.odb,Step-1,Increment      1: Step Time =    1.000,"PART-1-1",           135,       4.93744,       22.5898,            0.,NA,NA,"",       1.11458,      -1.07992,  -275.787E-03,   2.94282E-03
C:/temp/dataset/3/2_1.odb,Step-1,Increment      1: Step Time =    1.000,"PART-1-1",           136,       2.47758,       22.5593,            0.,NA,NA,"",       1.14859,      -1.07374,  -407.860E-03,   3.14662E-03
C:/temp/dataset/3/2_1.odb,Step-1,Increment      1: Step Time =    1.000,"PART-1-1",           137,  -4.46696E-03,       22.5388,            0.,NA,NA,"",       1.19757,      -1.06727,  -543.239E-03,   1.81940E-03
C:/temp/dataset/3/2_1.odb,Step-1,Increment      1: Step Time =    1.000,"PART-1-1",           138,       7.20686,       12.6699,            0.,NA,NA,"",   679.286E-03,  -667.384E-03,  -126.602E-03,   4.14226E-03
C:/temp/dataset/3/2_1.odb,Step-1,Increment      1: Step Time =    1.000,"PART-1-1",           139,       7.30679,       15.0771,            0.,NA,NA,"",   768.254E-03,  -756.557E-03,  -133.548E-03,   4.21266E-03
C:/temp/dataset/3/2_1.odb,Step-1,Increment      1: Step Time =    1.000,"PART-1-1",           140,       7.52839,       5.66323,            0.,NA,NA,"",   450.725E-03,  -441.818E-03,  -89.1609E-03,   2.56920E-03
C:/temp/dataset/3/2_1.odb,Step-1,Increment      1: Step Time =    1.000,"PART-1-1",           141,       7.20823,       7.96221,            0.,NA,NA,"",   521.061E-03,  -509.985E-03,  -106.864E-03,   4.17874E-03
C:/temp/dataset/3/2_1.odb,Step-1,Increment      1: Step Time =    1.000,"PART-1-1",           142,      -1.77433,       3.17490,            0.,NA,NA,"",   482.687E-03,  -381.476E-03,  -295.741E-03,   174.878E-06
C:/temp/dataset/3/2_1.odb,Step-1,Increment      1: Step Time =    1.000,"PART-1-1",           143,   347.975E-03,       3.01142,            0.,NA,NA,"",   451.057E-03,  -378.313E-03,  -245.626E-03,   265.423E-06
C:/temp/dataset/3/2_1.odb,Step-1,Increment      1: Step Time =    1.000,"PART-1-1",           144,      -8.17775,       2.85153,            0.,NA,NA,"",   582.552E-03,  -372.048E-03,  -448.270E-03,   18.7925E-06
C:/temp/dataset/3/2_1.odb,Step-1,Increment      1: Step Time =    1.000,"PART-1-1",           145,      -8.45397,      -3.03463,            0.,NA,NA,"",   509.084E-03,  -231.788E-03,  -453.256E-03,   15.1883E-06
C:/temp/dataset/3/2_1.odb,Step-1,Increment      1: Step Time =    1.000,"PART-1-1",           146,      -12.6978,       2.46856,            0.,NA,NA,"",   663.136E-03,  -361.643E-03,  -555.844E-03,   667.785E-09
C:/temp/dataset/3/2_1.odb,Step-1,Increment      1: Step Time =    1.000,"PART-1-1",           147,      -10.5225,      -2.72745,            0.,NA,NA,"",   556.307E-03,  -238.517E-03,  -502.581E-03,   4.64818E-06
C:/temp/dataset/3/2_1.odb,Step-1,Increment      1: Step Time =    1.000,"PART-1-1",           148,      -12.7265,      -2.55241,            0.,NA,NA,"",   605.591E-03,  -242.060E-03,  -555.110E-03,   665.352E-09
C:/temp/dataset/3/2_1.odb,Step-1,Increment      1: Step Time =    1.000,"PART-1-1",           149,      -3.80700,      -2.48494,            0.,NA,NA,"",   422.137E-03,  -246.255E-03,  -342.868E-03,   114.496E-06
C:/temp/dataset/3/2_1.odb,Step-1,Increment      1: Step Time =    1.000,"PART-1-1",           150,      -6.26959,      -2.94549,            0.,NA,NA,"",   464.817E-03,  -234.528E-03,  -401.312E-03,   45.5874E-06
C:/temp/dataset/3/2_1.odb,Step-1,Increment      1: Step Time =    1.000,"PART-1-1",           151,       2.97297,      -3.34056,            0.,NA,NA,"",   288.651E-03,  -227.337E-03,  -177.868E-03,   1.71924E-03
C:/temp/dataset/3/2_1.odb,Step-1,Increment      1: Step Time =    1.000,"PART-1-1",           152,   836.982E-03,      -3.21922,            0.,NA,NA,"",   326.159E-03,  -229.941E-03,  -231.315E-03,   259.181E-06
C:/temp/dataset/3/2_1.odb,Step-1,Increment      1: Step Time =    1.000,"PART-1-1",           153,       7.27849,      -10.7647,            0.,NA,NA,"",   100.014E-03,  -89.1982E-03,  -45.2373E-03,   3.95096E-03
C:/temp/dataset/3/2_1.odb,Step-1,Increment      1: Step Time =    1.000,"PART-1-1",           154,       7.20650,      -8.25133,            0.,NA,NA,"",   138.555E-03,  -127.140E-03,  -55.0706E-03,   4.11376E-03
C:/temp/dataset/3/2_1.odb,Step-1,Increment      1: Step Time =    1.000,"PART-1-1",           155,       7.07274,      -17.3233,            0.,NA,NA,"",   31.3360E-03,  -20.2346E-03,  -23.9271E-03,   4.14881E-03
C:/temp/dataset/3/2_1.odb,Step-1,Increment      1: Step Time =    1.000,"PART-1-1",           156,       6.55788,      -15.2577,            0.,NA,NA,"",   52.6971E-03,  -38.5445E-03,  -35.9347E-03,   4.95270E-03
C:/temp/dataset/3/2_1.odb,Step-1,Increment      1: Step Time =    1.000,"PART-1-1",           157,      -7.46685,      -22.5818,            0.,NA,NA,"",   1.59544E-03,  -1.58295E-03,   199.232E-06,   60.6361E-06
C:/temp/dataset/3/2_1.odb,Step-1,Increment      1: Step Time =    1.000,"PART-1-1",           158,      -4.95694,      -22.5955,            0.,NA,NA,"",   1.76944E-03,  -1.76885E-03,   45.6697E-06,   109.922E-06
C:/temp/dataset/3/2_1.odb,Step-1,Increment      1: Step Time =    1.000,"PART-1-1",           159,   146.162E-03,      -22.6598,            0.,NA,NA,"",   3.61372E-03,  -2.71377E-03,  -2.38630E-03,   702.423E-06
C:/temp/dataset/3/2_1.odb,Step-1,Increment      1: Step Time =    1.000,"PART-1-1",           160,      -12.4860,      -22.5306,            0.,NA,NA,"",   1.45294E-03,  -1.44988E-03,  -94.2550E-06,   9.39885E-06
C:/temp/dataset/3/2_1.odb,Step-1,Increment      1: Step Time =    1.000,"PART-1-1",           161,       9.96020,      -27.7814,            0.,NA,NA,"",   2.64403E-03,   2.63086E-03,  -263.595E-06,   966.202E-06
C:/temp/dataset/3/2_1.odb,Step-1,Increment      1: Step Time =    1.000,"PART-1-1",           162,       7.44077,      -27.8946,            0.,NA,NA,"",   2.24921E-03,   1.60882E-03,  -1.57183E-03,   1.25127E-03
C:/temp/dataset/3/2_1.odb,Step-1,Increment      1: Step Time =    1.000,"PART-1-1",           163,       4.93217,      -27.8625,            0.,NA,NA,"",   2.02343E-03,   97.9692E-06,  -2.02105E-03,   1.36016E-03
C:/temp/dataset/3/2_1.odb,Step-1,Increment      1: Step Time =    1.000,"PART-1-1",           164,       2.47767,      -27.7470,            0.,NA,NA,"",   1.99007E-03,  -1.09078E-03,  -1.66451E-03,   1.08931E-03
C:/temp/dataset/3/2_1.odb,Step-1,Increment      1: Step Time =    1.000,"PART-1-1",           165,   19.5837E-03,      -27.6625,            0.,NA,NA,"",   1.81704E-03,  -1.54065E-03,  -963.347E-06,   728.428E-06
C:/temp/dataset/3/2_1.odb,Step-1,Increment      1: Step Time =    1.000,"PART-1-1",           166,      -2.46955,      -27.6154,            0.,NA,NA,"",   1.51880E-03,  -1.45939E-03,  -420.636E-06,   475.174E-06
C:/temp/dataset/3/2_1.odb,Step-1,Increment      1: Step Time =    1.000,"PART-1-1",           167,      -4.97450,      -27.5844,            0.,NA,NA,"",   1.18019E-03,  -1.17351E-03,  -125.380E-06,   326.751E-06
C:/temp/dataset/3/2_1.odb,Step-1,Increment      1: Step Time =    1.000,"PART-1-1",           168,      -7.48283,      -27.5594,            0.,NA,NA,"",   898.721E-06,  -898.595E-06,  -15.0121E-06,   235.694E-06
C:/temp/dataset/3/2_1.odb,Step-1,Increment      1: Step Time =    1.000,"PART-1-1",           169,       12.2865,      -25.1793,            0.,NA,NA,"",   4.86706E-03,   3.43609E-03,   3.44697E-03,   1.53904E-03
C:/temp/dataset/3/2_1.odb,Step-1,Increment      1: Step Time =    1.000,"PART-1-1",           170,       11.6753,      -16.4340,            0.,NA,NA,"",   27.5341E-03,  -25.3783E-03,   10.6803E-03,   1.30842E-03
C:/temp/dataset/3/2_1.odb,Step-1,Increment      1: Step Time =    1.000,"PART-1-1",           171,       11.9685,      -19.5802,            0.,NA,NA,"",   10.9899E-03,  -6.65751E-03,   8.74386E-03,   1.78650E-03
C:/temp/dataset/3/2_1.odb,Step-1,Increment      1: Step Time =    1.000,"PART-1-1",           172,       13.3291,      -9.93034,            0.,NA,NA,"",   109.580E-03,  -101.248E-03,   41.9121E-03,   3.12273E-03
C:/temp/dataset/3/2_1.odb,Step-1,Increment      1: Step Time =    1.000,"PART-1-1",           173,       13.4212,      -12.1607,            0.,NA,NA,"",   79.8230E-03,  -70.7241E-03,   37.0110E-03,   3.23379E-03
C:/temp/dataset/3/2_1.odb,Step-1,Increment      1: Step Time =    1.000,"PART-1-1",           174,       12.9633,      -2.52247,            0.,NA,NA,"",   246.334E-03,  -240.714E-03,   52.3148E-03,   2.31994E-03
C:/temp/dataset/3/2_1.odb,Step-1,Increment      1: Step Time =    1.000,"PART-1-1",           175,       13.1247,      -4.84738,            0.,NA,NA,"",   197.849E-03,  -191.156E-03,   51.0248E-03,   2.73093E-03
C:/temp/dataset/3/2_1.odb,Step-1,Increment      1: Step Time =    1.000,"PART-1-1",           176,       13.1131,       5.12757,            0.,NA,NA,"",   435.758E-03,  -430.094E-03,   70.0247E-03,   2.83200E-03
C:/temp/dataset/3/2_1.odb,Step-1,Increment      1: Step Time =    1.000,"PART-1-1",           177,       12.1418,       2.60140,            0.,NA,NA,"",   364.206E-03,  -362.047E-03,   39.5956E-03,   1.63937E-03
C:/temp/dataset/3/2_1.odb,Step-1,Increment      1: Step Time =    1.000,"PART-1-1",           178,       12.1760,       12.1629,            0.,NA,NA,"",   652.223E-03,  -650.133E-03,   52.1718E-03,   1.92552E-03
C:/temp/dataset/3/2_1.odb,Step-1,Increment      1: Step Time =    1.000,"PART-1-1",           179,       13.0236,       9.64002,            0.,NA,NA,"",   570.827E-03,  -565.606E-03,   77.0280E-03,   2.94754E-03
C:/temp/dataset/3/2_1.odb,Step-1,Increment      1: Step Time =    1.000,"PART-1-1",           180,       12.3784,       20.0377,            0.,NA,NA,"",   970.443E-03,  -968.026E-03,   68.4601E-03,   2.46071E-03
C:/temp/dataset/3/2_1.odb,Step-1,Increment      1: Step Time =    1.000,"PART-1-1",           181,       12.3660,       17.5135,            0.,NA,NA,"",   860.129E-03,  -857.637E-03,   65.4293E-03,   2.26301E-03
C:/temp/dataset/3/2_1.odb,Step-1,Increment      1: Step Time =    1.000,"PART-1-1",           182,       12.4264,       25.0333,            0.,NA,NA,"",       1.20840,      -1.20627,   71.6156E-03,   2.21884E-03
C:/temp/dataset/3/2_1.odb,Step-1,Increment      1: Step Time =    1.000,"PART-1-1",           183,       7.43491,       27.5684,            0.,NA,NA,"",       1.33951,      -1.32929,  -165.189E-03,   1.97203E-03
C:/temp/dataset/3/2_1.odb,Step-1,Increment      1: Step Time =    1.000,"PART-1-1",           184,  -17.4965E-03,       27.5503,            0.,NA,NA,"",       1.43900,      -1.32873,  -552.449E-03,   2.10700E-03
C:/temp/dataset/3/2_1.odb,Step-1,Increment      1: Step Time =    1.000,"PART-1-1",           185,       2.47067,       27.5656,            0.,NA,NA,"",       1.39431,      -1.33036,  -417.429E-03,   1.75019E-03
C:/temp/dataset/3/2_1.odb,Step-1,Increment      1: Step Time =    1.000,"PART-1-1",           186,      -7.50286,       27.5043,            0.,NA,NA,"",       1.63243,      -1.32024,  -960.100E-03,   506.492E-06
C:/temp/dataset/3/2_1.odb,Step-1,Increment      1: Step Time =    1.000,"PART-1-1",           187,      -5.00635,       27.5119,            0.,NA,NA,"",       1.55978,      -1.32325,  -825.783E-03,   1.14523E-03
C:/temp/dataset/3/2_1.odb,Step-1,Increment      1: Step Time =    1.000,"PART-1-1",           188,      -12.5019,       27.5019,            0.,NA,NA,"",       1.79766,      -1.31310,      -1.22774,   53.1887E-06
C:/temp/dataset/3/2_1.odb,Step-1,Increment      1: Step Time =    1.000,"PART-1-1",           189,      -12.5001,       22.5034,            0.,NA,NA,"",       1.60666,      -1.04486,      -1.22051,   48.5730E-06
C:/temp/dataset/3/2_1.odb,Step-1,Increment      1: Step Time =    1.000,"PART-1-1",           190,      -5.00429,       25.0191,            0.,NA,NA,"",       1.44570,      -1.19029,  -820.532E-03,   815.762E-06
C:/temp/dataset/3/2_1.odb,Step-1,Increment      1: Step Time =    1.000,"PART-1-1",           191,  -15.9173E-03,       25.0642,            0.,NA,NA,"",       1.31817,      -1.19914,  -547.388E-03,   1.87149E-03
C:/temp/dataset/3/2_1.odb,Step-1,Increment      1: Step Time =    1.000,"PART-1-1",           192,       9.74355,       15.0604,            0.,NA,NA,"",   756.257E-03,  -755.252E-03,  -38.9808E-03,   961.716E-06
C:/temp/dataset/3/2_1.odb,Step-1,Increment      1: Step Time =    1.000,"PART-1-1",           193,       9.51986,       12.6989,            0.,NA,NA,"",   668.543E-03,  -667.147E-03,  -43.1886E-03,   1.35462E-03
C:/temp/dataset/3/2_1.odb,Step-1,Increment      1: Step Time =    1.000,"PART-1-1",           194,       12.1898,      -11.7554,            0.,NA,NA,"",   77.6425E-03,  -74.3931E-03,   22.2268E-03,   1.80391E-03
C:/temp/dataset/3/2_1.odb,Step-1,Increment      1: Step Time =    1.000,"PART-1-1",           195,       9.78251,      -13.4248,            0.,NA,NA,"",   54.1083E-03,  -53.5904E-03,  -7.46855E-03,   970.479E-06
C:/temp/dataset/3/2_1.odb,Step-1,Increment      1: Step Time =    1.000,"PART-1-1",           196,       7.24032,      -19.5057,            0.,NA,NA,"",   17.4297E-03,  -6.29918E-03,  -16.2516E-03,   2.49391E-03
C:/temp/dataset/3/2_1.odb,Step-1,Increment      1: Step Time =    1.000,"PART-1-1",           197,      -10.0066,  -139.817E-03,            0.,NA,NA,"",   575.563E-03,  -300.292E-03,  -491.017E-03,   9.14401E-06
C:/temp/dataset/3/2_1.odb,Step-1,Increment      1: Step Time =    1.000,"PART-1-1",           198,      -8.39380,      -1.43672,            0.,NA,NA,"",   526.662E-03,  -269.873E-03,  -452.263E-03,   19.3879E-06
C:/temp/dataset/3/2_1.odb,Step-1,Increment      1: Step Time =    1.000,"PART-1-1",           199,      -5.07121,  -530.035E-03,            0.,NA,NA,"",   474.341E-03,  -292.522E-03,  -373.404E-03,   84.8409E-06
C:/temp/dataset/3/2_1.odb,Step-1,Increment      1: Step Time =    1.000,"PART-1-1",           200,      -12.5003,      -27.5198,            0.,NA,NA,"",   624.934E-06,  -619.380E-06,  -83.1366E-06,   151.470E-06
C:/temp/dataset/3/2_1.odb,Step-1,Increment      1: Step Time =    1.000,"PART-1-1",           201,       8.97180,      -8.86122,            0.,NA,NA,"",   118.069E-03,  -115.452E-03,  -24.7241E-03,   1.71904E-03
C:/temp/dataset/3/2_1.odb,Step-1,Increment      1: Step Time =    1.000,"PART-1-1",           202,      -2.50561,       25.0360,            0.,NA,NA,"",       1.37633,      -1.19429,  -684.064E-03,   1.44945E-03
C:/temp/dataset/3/2_1.odb,Step-1,Increment      1: Step Time =    1.000,"PART-1-1",           203,      -7.50383,       25.0106,            0.,NA,NA,"",       1.52367,      -1.18663,  -955.762E-03,   298.799E-06
C:/temp/dataset/3/2_1.odb,Step-1,Increment      1: Step Time =    1.000,"PART-1-1",           204,       2.46362,       25.0850,            0.,NA,NA,"",       1.27197,      -1.20322,  -412.527E-03,   2.10196E-03
C:/temp/dataset/3/2_1.odb,Step-1,Increment      1: Step Time =    1.000,"PART-1-1",           205,       9.17638,       10.5785,            0.,NA,NA,"",   595.399E-03,  -593.210E-03,  -51.0129E-03,   1.68741E-03
C:/temp/dataset/3/2_1.odb,Step-1,Increment      1: Step Time =    1.000,"PART-1-1",           206,       9.65111,       6.46520,            0.,NA,NA,"",   465.221E-03,  -464.280E-03,  -29.5722E-03,   937.507E-06
C:/temp/dataset/3/2_1.odb,Step-1,Increment      1: Step Time =    1.000,"PART-1-1",           207,      -1.99278,       1.34592,            0.,NA,NA,"",   452.477E-03,  -338.287E-03,  -300.494E-03,   175.979E-06
C:/temp/dataset/3/2_1.odb,Step-1,Increment      1: Step Time =    1.000,"PART-1-1",           208,      -5.69490,       1.29843,            0.,NA,NA,"",   513.674E-03,  -335.840E-03,  -388.681E-03,   66.1782E-06
C:/temp/dataset/3/2_1.odb,Step-1,Increment      1: Step Time =    1.000,"PART-1-1",           209,       1.92780,   665.778E-03,            0.,NA,NA,"",   384.314E-03,  -323.413E-03,  -207.609E-03,   778.644E-06
C:/temp/dataset/3/2_1.odb,Step-1,Increment      1: Step Time =    1.000,"PART-1-1",           210,       1.26043,      -1.37778,            0.,NA,NA,"",   352.932E-03,  -274.571E-03,  -221.747E-03,   392.360E-06
C:/temp/dataset/3/2_1.odb,Step-1,Increment      1: Step Time =    1.000,"PART-1-1",           211,       9.14691,      -16.8280,            0.,NA,NA,"",   23.8191E-03,  -21.8184E-03,  -9.55569E-03,   1.39178E-03
C:/temp/dataset/3/2_1.odb,Step-1,Increment      1: Step Time =    1.000,"PART-1-1",           212,   79.9954E-03,      -25.2148,            0.,NA,NA,"",   3.15020E-03,  -2.48462E-03,  -1.93660E-03,   749.431E-06
C:/temp/dataset/3/2_1.odb,Step-1,Increment      1: Step Time =    1.000,"PART-1-1",           213,      -9.97865,      -25.0679,            0.,NA,NA,"",   1.21505E-03,  -1.21359E-03,   59.5647E-06,   100.249E-06
C:/temp/dataset/3/2_1.odb,Step-1,Increment      1: Step Time =    1.000,"PART-1-1",           214,       12.4671,      -27.6040,            0.,NA,NA,"",   2.92184E-03,   2.45536E-03,   1.58379E-03,   1.35378E-03
C:/temp/dataset/3/2_1.odb,Step-1,Increment      1: Step Time =    1.000,"PART-1-1",           215,       9.82463,      -25.6838,            0.,NA,NA,"",   3.70563E-03,   3.56570E-03,  -1.00869E-03,   1.25868E-03
C:/temp/dataset/3/2_1.odb,Step-1,Increment      1: Step Time =    1.000,"PART-1-1",           216,       2.56344,      -25.3828,            0.,NA,NA,"",   4.45487E-03,  -2.13406E-03,  -3.91046E-03,   1.39735E-03
C:/temp/dataset/3/2_1.odb,Step-1,Increment      1: Step Time =    1.000,"PART-1-1",           217,      -2.44121,      -25.1518,            0.,NA,NA,"",   2.26447E-03,  -2.17332E-03,  -636.006E-06,   408.379E-06
C:/temp/dataset/3/2_1.odb,Step-1,Increment      1: Step Time =    1.000,"PART-1-1",           218,      -4.95889,      -25.1139,            0.,NA,NA,"",   1.76354E-03,  -1.76194E-03,  -75.2638E-06,   236.197E-06
C:/temp/dataset/3/2_1.odb,Step-1,Increment      1: Step Time =    1.000,"PART-1-1",           219,       10.3279,  -771.646E-03,            0.,NA,NA,"",   279.590E-03,  -279.532E-03,  -5.71799E-03,   699.928E-06
C:/temp/dataset/3/2_1.odb,Step-1,Increment      1: Step Time =    1.000,"PART-1-1",           220,       10.4049,       4.48083,            0.,NA,NA,"",   409.673E-03,  -409.618E-03,  -6.71125E-03,   792.409E-06
C:/temp/dataset/3/2_1.odb,Step-1,Increment      1: Step Time =    1.000,"PART-1-1",           221,       9.80969,       17.5478,            0.,NA,NA,"",   855.909E-03,  -854.979E-03,  -39.9002E-03,   735.714E-06
C:/temp/dataset/3/2_1.odb,Step-1,Increment      1: Step Time =    1.000,"PART-1-1",           222,       9.88106,       25.0797,            0.,NA,NA,"",       1.20681,      -1.20596,  -45.2668E-03,   2.49132E-03
C:/temp/dataset/3/2_1.odb,Step-1,Increment      1: Step Time =    1.000,"PART-1-1",           223,       9.94975,       27.5346,            0.,NA,NA,"",       1.32826,      -1.32746,  -45.9353E-03,   2.03266E-03
C:/temp/dataset/3/2_1.odb,Step-1,Increment      1: Step Time =    1.000,"PART-1-1",           224,       7.36779,       20.0596,            0.,NA,NA,"",   972.510E-03,  -960.898E-03,  -149.839E-03,   2.44003E-03
C:/temp/dataset/3/2_1.odb,Step-1,Increment      1: Step Time =    1.000,"PART-1-1",           225,  -693.206E-03,      -1.01900,            0.,NA,NA,"",   390.073E-03,  -282.516E-03,  -268.964E-03,   192.251E-06
C:/temp/dataset/3/2_1.odb,Step-1,Increment      1: Step Time =    1.000,"PART-1-1",           226,      -7.47194,      -25.0831,            0.,NA,NA,"",   1.42978E-03,  -1.42687E-03,   91.2055E-06,   158.742E-06
C:/temp/dataset/3/2_1.odb,Step-1,Increment      1: Step Time =    1.000,"PART-1-1",           227,       5.28089,       2.25097,            0.,NA,NA,"",   382.608E-03,  -358.500E-03,  -133.666E-03,   3.97236E-03
C:/temp/dataset/3/2_1.odb,Step-1,Increment      1: Step Time =    1.000,"PART-1-1",           228,       9.26575,       8.45073,            0.,NA,NA,"",   525.796E-03,  -523.951E-03,  -44.0096E-03,   1.33047E-03
C:/temp/dataset/3/2_1.odb,Step-1,Increment      1: Step Time =    1.000,"PART-1-1",           229,  -81.3472E-03,       1.02952,            0.,NA,NA,"",   418.331E-03,  -331.557E-03,  -255.090E-03,   174.813E-06
C:/temp/dataset/3/2_1.odb,Step-1,Increment      1: Step Time =    1.000,"PART-1-1",           230,      -7.67687,   831.326E-03,            0.,NA,NA,"",   543.101E-03,  -324.106E-03,  -435.791E-03,   29.2432E-06
C:/temp/dataset/3/2_1.odb,Step-1,Increment      1: Step Time =    1.000,"PART-1-1",           231,      -2.54090,  -531.417E-03,            0.,NA,NA,"",   429.161E-03,  -293.444E-03,  -313.161E-03,   163.940E-06
C:/temp/dataset/3/2_1.odb,Step-1,Increment      1: Step Time =    1.000,"PART-1-1",           232,      -3.83997,       1.55066,            0.,NA,NA,"",   485.776E-03,  -342.459E-03,  -344.528E-03,   113.398E-06
C:/temp/dataset/3/2_1.odb,Step-1,Increment      1: Step Time =    1.000,"PART-1-1",           233,      -6.84494,  -996.203E-03,            0.,NA,NA,"",   501.517E-03,  -280.836E-03,  -415.512E-03,   44.0442E-06
C:/temp/dataset/3/2_1.odb,Step-1,Increment      1: Step Time =    1.000,"PART-1-1",           234,       5.51335,      -3.03354,            0.,NA,NA,"",   258.218E-03,  -232.952E-03,  -111.400E-03,   4.41207E-03
C:/temp/dataset/3/2_1.odb,Step-1,Increment      1: Step Time =    1.000,"PART-1-1",           235,       9.62476,      -7.14735,            0.,NA,NA,"",   145.114E-03,  -144.250E-03,  -15.8142E-03,   885.959E-06
C:/temp/dataset/3/2_1.odb,Step-1,Increment      1: Step Time =    1.000,"PART-1-1",           236,       7.38903,      -25.9371,            0.,NA,NA,"",   4.34656E-03,   2.02777E-03,  -3.84457E-03,   1.67536E-03
C:/temp/dataset/3/2_1.odb,Step-1,Increment      1: Step Time =    1.000,"PART-1-1",           237,       4.96373,      -25.7856,            0.,NA,NA,"",   4.91670E-03,  -297.020E-06,  -4.90772E-03,   1.84508E-03
C:/temp/dataset/3/2_1.odb,Step-1,Increment      1: Step Time =    1.000,"PART-1-1",           238,       9.37191,      -21.3805,            0.,NA,NA,"",   4.59257E-03,   125.605E-06,  -4.59085E-03,   1.52261E-03
C:/temp/dataset/3/2_1.odb,Step-1,Increment      1: Step Time =    1.000,"PART-1-1",           239,       9.53380,      -19.3691,            0.,NA,NA,"",   8.00238E-03,  -6.39290E-03,  -4.81342E-03,   1.10323E-03
C:/temp/dataset/3/2_1.odb,Step-1,Increment      1: Step Time =    1.000,"PART-1-1",           240,       10.5518,      -5.76730,            0.,NA,NA,"",   170.375E-03,  -170.374E-03,   630.466E-06,   568.120E-06
C:/temp/dataset/3/2_1.odb,Step-1,Increment      1: Step Time =    1.000,"PART-1-1",           241,       10.8494,      -2.88140,            0.,NA,NA,"",   231.304E-03,  -231.208E-03,   6.66947E-03,   713.063E-06
C:/temp/dataset/3/2_1.odb,Step-1,Increment      1: Step Time =    1.000,"PART-1-1",           242,       9.33979,       1.27198,            0.,NA,NA,"",   330.308E-03,  -328.763E-03,  -31.9128E-03,   1.66720E-03
C:/temp/dataset/3/2_1.odb,Step-1,Increment      1: Step Time =    1.000,"PART-1-1",           243,       9.83335,       20.0603,            0.,NA,NA,"",   965.359E-03,  -964.466E-03,  -41.5135E-03,   1.68916E-03
C:/temp/dataset/3/2_1.odb,Step-1,Increment      1: Step Time =    1.000,"PART-1-1",           244,       7.39102,       25.1069,            0.,NA,NA,"",       1.21703,      -1.20624,  -161.691E-03,   2.13537E-03
C:/temp/dataset/3/2_1.odb,Step-1,Increment      1: Step Time =    1.000,"PART-1-1",           245,       4.93408,       25.0979,            0.,NA,NA,"",       1.23823,      -1.20546,  -282.984E-03,   1.56171E-03
C:/temp/dataset/3/2_1.odb,Step-1,Increment      1: Step Time =    1.000,"PART-1-1",           246,      -10.0026,       25.0068,            0.,NA,NA,"",       1.60861,      -1.18295,      -1.09007,   58.1634E-06
C:/temp/dataset/3/2_1.odb,Step-1,Increment      1: Step Time =    1.000,"PART-1-1",           247,      -10.0008,       22.5051,            0.,NA,NA,"",       1.50980,      -1.04856,      -1.08628,   31.4147E-06
C:/temp/dataset/3/2_1.odb,Step-1,Increment      1: Step Time =    1.000,"PART-1-1",           248,      -9.99283,      -27.5363,            0.,NA,NA,"",   703.505E-06,  -703.495E-06,  -3.87603E-06,   179.056E-06
C:/temp/dataset/3/2_1.odb,Step-1,Increment      1: Step Time =    1.000,"PART-1-1",           249,       3.80746,   187.829E-03,            0.,NA,NA,"",   350.970E-03,  -311.049E-03,  -162.569E-03,   2.22416E-03
C:/temp/dataset/3/2_1.odb,Step-1,Increment      1: Step Time =    1.000,"PART-1-1",           250,       11.4886,       7.12458,            0.,NA,NA,"",   485.617E-03,  -484.961E-03,   25.2281E-03,   1.32234E-03
C:/temp/dataset/3/2_1.odb,Step-1,Increment      1: Step Time =    1.000,"PART-1-1",           251,       5.25951,      -23.9756,            0.,NA,NA,"",   8.08939E-03,  -892.776E-06,  -8.03997E-03,   2.49799E-03
C:/temp/dataset/3/2_1.odb,Step-1,Increment      1: Step Time =    1.000,"PART-1-1",           252,       9.85798,       22.5791,            0.,NA,NA,"",       1.08389,      -1.08304,  -42.9205E-03,   2.52028E-03
C:/temp/dataset/3/2_1.odb,Step-1,Increment      1: Step Time =    1.000,"PART-1-1",           253,       7.38133,       22.5911,            0.,NA,NA,"",       1.09242,      -1.08127,  -155.685E-03,   2.79554E-03
C:/temp/dataset/3/2_1.odb,Step-1,Increment      1: Step Time =    1.000,"PART-1-1",           254,       9.03817,      -10.9527,            0.,NA,NA,"",   86.9745E-03,  -84.6167E-03,  -20.1140E-03,   1.81192E-03
C:/temp/dataset/3/2_1.odb,Step-1,Increment      1: Step Time =    1.000,"PART-1-1",           255,       7.30212,      -21.2110,            0.,NA,NA,"",   12.5643E-03,  -979.679E-06,  -12.5260E-03,   2.68884E-03
C:/temp/dataset/3/2_1.odb,Step-1,Increment      1: Step Time =    1.000,"PART-1-1",           256,       8.48263,      -3.88795,            0.,NA,NA,"",   213.739E-03,  -209.596E-03,  -41.8793E-03,   2.15399E-03
C:/temp/dataset/3/2_1.odb,Step-1,Increment      1: Step Time =    1.000,"PART-1-1",           257,       8.48912,      -1.65164,            0.,NA,NA,"",   264.378E-03,  -260.265E-03,  -46.4514E-03,   2.41065E-03
C:/temp/dataset/3/2_1.odb,Step-1,Increment      1: Step Time =    1.000,"PART-1-1",           258,       8.19007,       3.36514,            0.,NA,NA,"",   386.932E-03,  -381.319E-03,  -65.6673E-03,   2.72842E-03
C:/temp/dataset/3/2_1.odb,Step-1,Increment      1: Step Time =    1.000,"PART-1-1",           259,       6.78208,  -317.133E-03,            0.,NA,NA,"",   307.800E-03,  -294.339E-03,  -90.0299E-03,   3.37021E-03
C:/temp/dataset/3/2_1.odb,Step-1,Increment      1: Step Time =    1.000,"PART-1-1",           260,       11.8604,      -10.2109,            0.,NA,NA,"",   97.4117E-03,  -95.3752E-03,   19.8142E-03,   1.46044E-03
C:/temp/dataset/3/2_1.odb,Step-1,Increment      1: Step Time =    1.000,"PART-1-1",           261,       5.00218,  -627.613E-03,            0.,NA,NA,"",   318.572E-03,  -290.087E-03,  -131.673E-03,   3.14333E-03
C:/temp/dataset/3/2_1.odb,Step-1,Increment      1: Step Time =    1.000,"PART-1-1",           262,       11.1460,      -8.45072,            0.,NA,NA,"",   122.718E-03,  -122.284E-03,   10.3077E-03,   780.042E-06
C:/temp/dataset/3/2_1.odb,Step-1,Increment      1: Step Time =    1.000,"PART-1-1",           263,       11.7180,       5.54683,            0.,NA,NA,"",   440.907E-03,  -439.830E-03,   30.8060E-03,   1.53579E-03
C:/temp/dataset/3/2_1.odb,Step-1,Increment      1: Step Time =    1.000,"PART-1-1",           264,       5.25136,      -21.5985,            0.,NA,NA,"",   14.0041E-03,  -2.75669E-03,  -13.7301E-03,   3.94566E-03
C:/temp/dataset/3/2_1.odb,Step-1,Increment      1: Step Time =    1.000,"PART-1-1",           265,       12.4723,       27.5096,            0.,NA,NA,"",       1.32963,      -1.32769,   71.7979E-03,   1.40137E-03
C:/temp/dataset/3/2_1.odb,Step-1,Increment      1: Step Time =    1.000,"PART-1-1",           266,       5.87727,      -22.7682,            0.,NA,NA,"",   10.8922E-03,  -1.09967E-03,  -10.8366E-03,   2.83113E-03
C:/temp/dataset/3/2_1.odb,Step-1,Increment      1: Step Time =    1.000,"PART-1-1",           267,       7.32369,      -22.7299,            0.,NA,NA,"",   9.35029E-03,   836.255E-06,  -9.31282E-03,   2.49826E-03
C:/temp/dataset/3/2_1.odb,Step-1,Increment      1: Step Time =    1.000,"PART-1-1",           268,       11.4923,      -4.55460,            0.,NA,NA,"",   196.409E-03,  -195.462E-03,   19.2624E-03,   1.25392E-03
C:/temp/dataset/3/2_1.odb,Step-1,Increment      1: Step Time =    1.000,"PART-1-1",           269,       11.2115,       8.96325,            0.,NA,NA,"",   541.508E-03,  -541.227E-03,   17.4446E-03,   879.381E-06
C:/temp/dataset/3/2_1.odb,Step-1,Increment      1: Step Time =    1.000,"PART-1-1",           270,       10.8046,       10.5255,            0.,NA,NA,"",   592.007E-03,  -591.994E-03,   4.00968E-03,   299.067E-06
C:/temp/dataset/3/2_1.odb,Step-1,Increment      1: Step Time =    1.000,"PART-1-1",           271,       7.35536,      -24.2380,            0.,NA,NA,"",   6.62040E-03,   1.70541E-03,  -6.39697E-03,   2.08495E-03
C:/temp/dataset/3/2_1.odb,Step-1,Increment      1: Step Time =    1.000,"PART-1-1",           272,      -3.82134,   150.711E-03,            0.,NA,NA,"",   462.378E-03,  -309.195E-03,  -343.791E-03,   123.412E-06
C:/temp/dataset/3/2_1.odb,Step-1,Increment      1: Step Time =    1.000,"PART-1-1",           273,       3.09609,      -1.70207,            0.,NA,NA,"",   319.709E-03,  -266.828E-03,  -176.116E-03,   1.71890E-03
C:/temp/dataset/3/2_1.odb,Step-1,Increment      1: Step Time =    1.000,"PART-1-1",           274,       4.56419,      -1.78689,            0.,NA,NA,"",   298.021E-03,  -263.580E-03,  -139.076E-03,   2.97970E-03
C:/temp/dataset/3/2_1.odb,Step-1,Increment      1: Step Time =    1.000,"PART-1-1",           275,       9.44492,      -23.8624,            0.,NA,NA,"",   4.12600E-03,   3.11335E-03,  -2.70756E-03,   1.57849E-03
C:/temp/dataset/3/2_1.odb,Step-1,Increment      1: Step Time =    1.000,"PART-1-1",           276,       8.77427,      -22.6651,            0.,NA,NA,"",   5.92402E-03,   1.88011E-03,  -5.61775E-03,   1.81596E-03
C:/temp/dataset/3/2_1.odb,Step-1,Increment      1: Step Time =    1.000,"PART-1-1",           277,       10.1837,      -9.28900,            0.,NA,NA,"",   108.670E-03,  -108.553E-03,  -5.03841E-03,   395.868E-06
C:/temp/dataset/3/2_1.odb,Step-1,Increment      1: Step Time =    1.000,"PART-1-1",           278,       10.4979,      -10.7612,            0.,NA,NA,"",   86.8883E-03,  -86.8882E-03,   74.0028E-06,   150.198E-06
C:/temp/dataset/3/2_1.odb,Step-1,Increment      1: Step Time =    1.000,"PART-1-1",           279,       11.2325,      -12.6180,            0.,NA,NA,"",   63.6695E-03,  -62.9780E-03,   9.35856E-03,   696.232E-06
C:/temp/dataset/3/2_1.odb,Step-1,Increment      1: Step Time =    1.000,"PART-1-1",           280,      -13.7500,       22.5017,            0.,NA,NA,"",       1.65701,      -1.04295,      -1.28760,   31.1341E-06
C:/temp/dataset/3/2_1.odb,Step-1,Increment      1: Step Time =    1.000,"PART-1-1",           281,          -15.,         21.25,            0.,NA,NA,"",       1.66700,  -973.898E-03,      -1.35293,   9.92177E-06
C:/temp/dataset/3/2_1.odb,Step-1,Increment      1: Step Time =    1.000,"PART-1-1",           282,        -13.75,           20.,            0.,NA,NA,"",       1.57294,  -908.560E-03,      -1.28400,   10.9974E-06
C:/temp/dataset/3/2_1.odb,Step-1,Increment      1: Step Time =    1.000,"PART-1-1",           283,      -12.5000,       21.2517,            0.,NA,NA,"",       1.56234,  -977.588E-03,      -1.21870,   32.5548E-06
C:/temp/dataset/3/2_1.odb,Step-1,Increment      1: Step Time =    1.000,"PART-1-1",           284,        -11.25,           30.,            0.,NA,NA,"",       1.85853,      -1.44870,      -1.16422,   79.2530E-06
C:/temp/dataset/3/2_1.odb,Step-1,Increment      1: Step Time =    1.000,"PART-1-1",           285,      -12.5009,       28.7510,            0.,NA,NA,"",       1.84826,      -1.38003,      -1.22948,   40.1818E-06
C:/temp/dataset/3/2_1.odb,Step-1,Increment      1: Step Time =    1.000,"PART-1-1",           286,      -11.2523,       27.5017,            0.,NA,NA,"",       1.75393,      -1.31491,      -1.16072,   54.9904E-06
C:/temp/dataset/3/2_1.odb,Step-1,Increment      1: Step Time =    1.000,"PART-1-1",           287,      -10.0014,       28.7507,            0.,NA,NA,"",       1.76473,      -1.38353,      -1.09550,   97.8040E-06
C:/temp/dataset/3/2_1.odb,Step-1,Increment      1: Step Time =    1.000,"PART-1-1",           288,      -8.75282,       27.5029,            0.,NA,NA,"",       1.67129,      -1.31857,      -1.02694,   209.909E-06
C:/temp/dataset/3/2_1.odb,Step-1,Increment      1: Step Time =    1.000,"PART-1-1",           289,      -10.0027,       26.2541,            0.,NA,NA,"",       1.65966,      -1.24987,      -1.09192,   56.7836E-06
C:/temp/dataset/3/2_1.odb,Step-1,Increment      1: Step Time =    1.000,"PART-1-1",           290,      -8.75320,       25.0087,            0.,NA,NA,"",       1.56534,      -1.18483,      -1.02298,   160.038E-06
C:/temp/dataset/3/2_1.odb,Step-1,Increment      1: Step Time =    1.000,"PART-1-1",           291,      -7.50334,       26.2575,            0.,NA,NA,"",       1.57756,      -1.25346,  -957.879E-03,   362.535E-06
C:/temp/dataset/3/2_1.odb,Step-1,Increment      1: Step Time =    1.000,"PART-1-1",           292,  -10.1921E-03,       23.8015,            0.,NA,NA,"",       1.25761,      -1.13331,  -545.152E-03,   1.77971E-03
C:/temp/dataset/3/2_1.odb,Step-1,Increment      1: Step Time =    1.000,"PART-1-1",           293,       1.23656,       22.5490,            0.,NA,NA,"",       1.17132,      -1.07057,  -475.248E-03,   2.14102E-03
C:/temp/dataset/3/2_1.odb,Step-1,Increment      1: Step Time =    1.000,"PART-1-1",           294,       2.47060,       23.8222,            0.,NA,NA,"",       1.21037,      -1.13883,  -409.930E-03,   2.24906E-03
C:/temp/dataset/3/2_1.odb,Step-1,Increment      1: Step Time =    1.000,"PART-1-1",           295,       1.22385,       25.0746,            0.,NA,NA,"",       1.29350,      -1.20125,  -479.734E-03,   1.99064E-03
C:/temp/dataset/3/2_1.odb,Step-1,Increment      1: Step Time =    1.000,"PART-1-1",           296,       13.7132,       25.0166,            0.,NA,NA,"",       1.21453,      -1.20740,   131.395E-03,   1.68526E-03
C:/temp/dataset/3/2_1.odb,Step-1,Increment      1: Step Time =    1.000,"PART-1-1",           297,           15.,         26.25,            0.,NA,NA,"",       1.28415,      -1.26962,   192.608E-03,   1.00469E-03
C:/temp/dataset/3/2_1.odb,Step-1,Increment      1: Step Time =    1.000,"PART-1-1",           298,       13.7362,       27.5048,            0.,NA,NA,"",       1.33531,      -1.32883,   131.335E-03,   762.647E-06
C:/temp/dataset/3/2_1.odb,Step-1,Increment      1: Step Time =    1.000,"PART-1-1",           299,       12.4494,       26.2714,            0.,NA,NA,"",       1.26912,      -1.26708,   71.8736E-03,   1.78474E-03
C:/temp/dataset/3/2_1.odb,Step-1,Increment      1: Step Time =    1.000,"PART-1-1",           300,       6.19248,       27.5744,            0.,NA,NA,"",       1.34908,      -1.33003,  -225.926E-03,   1.79516E-03
C:/temp/dataset/3/2_1.odb,Step-1,Increment      1: Step Time =    1.000,"PART-1-1",           301,       7.46746,       28.7842,            0.,NA,NA,"",       1.39951,      -1.38960,  -166.262E-03,   2.30523E-03
C:/temp/dataset/3/2_1.odb,Step-1,Increment      1: Step Time =    1.000,"PART-1-1",           302,          6.25,           30.,            0.,NA,NA,"",       1.46901,      -1.45106,  -228.943E-03,   3.15460E-03
C:/temp/dataset/3/2_1.odb,Step-1,Increment      1: Step Time =    1.000,"PART-1-1",           303,       4.97503,       28.7903,            0.,NA,NA,"",       1.42193,      -1.39207,  -289.848E-03,   2.57960E-03
C:/temp/dataset/3/2_1.odb,Step-1,Increment      1: Step Time =    1.000,"PART-1-1",           304,       11.0878,       17.5306,            0.,NA,NA,"",   856.133E-03,  -856.037E-03,   12.8128E-03,   1.09930E-03
C:/temp/dataset/3/2_1.odb,Step-1,Increment      1: Step Time =    1.000,"PART-1-1",           305,       12.3722,       18.7756,            0.,NA,NA,"",   914.240E-03,  -911.780E-03,   67.0195E-03,   2.31669E-03
C:/temp/dataset/3/2_1.odb,Step-1,Increment      1: Step Time =    1.000,"PART-1-1",           306,       11.1059,       20.0490,            0.,NA,NA,"",   966.192E-03,  -966.098E-03,   13.4895E-03,   1.81297E-03
C:/temp/dataset/3/2_1.odb,Step-1,Increment      1: Step Time =    1.000,"PART-1-1",           307,       9.82152,       18.8041,            0.,NA,NA,"",   909.565E-03,  -908.653E-03,  -40.7064E-03,   1.08796E-03
C:/temp/dataset/3/2_1.odb,Step-1,Increment      1: Step Time =    1.000,"PART-1-1",           308,       9.63171,       13.8797,            0.,NA,NA,"",   711.630E-03,  -710.434E-03,  -41.2395E-03,   1.16288E-03
C:/temp/dataset/3/2_1.odb,Step-1,Increment      1: Step Time =    1.000,"PART-1-1",           309,       8.52517,       15.0687,            0.,NA,NA,"",   760.388E-03,  -755.492E-03,  -86.1534E-03,   2.54253E-03
C:/temp/dataset/3/2_1.odb,Step-1,Increment      1: Step Time =    1.000,"PART-1-1",           310,       7.25683,       13.8735,            0.,NA,NA,"",   723.032E-03,  -711.234E-03,  -130.084E-03,   4.13572E-03
C:/temp/dataset/3/2_1.odb,Step-1,Increment      1: Step Time =    1.000,"PART-1-1",           311,       8.36336,       12.6844,            0.,NA,NA,"",   672.261E-03,  -666.873E-03,  -84.9406E-03,   2.74025E-03
C:/temp/dataset/3/2_1.odb,Step-1,Increment      1: Step Time =    1.000,"PART-1-1",           312,       14.0118,       9.82001,            0.,NA,NA,"",   584.068E-03,  -573.632E-03,   109.914E-03,   4.15628E-03
C:/temp/dataset/3/2_1.odb,Step-1,Increment      1: Step Time =    1.000,"PART-1-1",           313,           15.,         11.25,            0.,NA,NA,"",   641.953E-03,  -624.557E-03,   148.433E-03,   5.41624E-03
C:/temp/dataset/3/2_1.odb,Step-1,Increment      1: Step Time =    1.000,"PART-1-1",           314,       13.5880,       12.3315,            0.,NA,NA,"",   666.809E-03,  -658.845E-03,   102.753E-03,   3.69324E-03
C:/temp/dataset/3/2_1.odb,Step-1,Increment      1: Step Time =    1.000,"PART-1-1",           315,       12.5998,       10.9015,            0.,NA,NA,"",   610.434E-03,  -606.942E-03,   65.2034E-03,   2.43394E-03
C:/temp/dataset/3/2_1.odb,Step-1,Increment      1: Step Time =    1.000,"PART-1-1",           316,       4.40482,  -219.892E-03,            0.,NA,NA,"",   334.798E-03,  -300.666E-03,  -147.273E-03,   2.73157E-03
C:/temp/dataset/3/2_1.odb,Step-1,Increment      1: Step Time =    1.000,"PART-1-1",           317,       3.45177,  -757.122E-03,            0.,NA,NA,"",   334.794E-03,  -288.978E-03,  -169.052E-03,   1.86146E-03
C:/temp/dataset/3/2_1.odb,Step-1,Increment      1: Step Time =    1.000,"PART-1-1",           318,       3.83014,      -1.74448,            0.,NA,NA,"",   308.631E-03,  -265.298E-03,  -157.702E-03,   2.40778E-03
C:/temp/dataset/3/2_1.odb,Step-1,Increment      1: Step Time =    1.000,"PART-1-1",           319,       4.78319,      -1.20725,            0.,NA,NA,"",   308.111E-03,  -276.841E-03,  -135.245E-03,   2.98053E-03
C:/temp/dataset/3/2_1.odb,Step-1,Increment      1: Step Time =    1.000,"PART-1-1",           320,       10.3408,      -10.0251,            0.,NA,NA,"",   97.4531E-03,  -97.4240E-03,  -2.38228E-03,   265.922E-06
C:/temp/dataset/3/2_1.odb,Step-1,Increment      1: Step Time =    1.000,"PART-1-1",           321,       11.1792,      -10.4860,            0.,NA,NA,"",   91.4891E-03,  -90.9670E-03,   9.76021E-03,   681.367E-06
C:/temp/dataset/3/2_1.odb,Step-1,Increment      1: Step Time =    1.000,"PART-1-1",           322,       11.5032,      -9.33080,            0.,NA,NA,"",   109.485E-03,  -108.401E-03,   15.3697E-03,   1.10593E-03
C:/temp/dataset/3/2_1.odb,Step-1,Increment      1: Step Time =    1.000,"PART-1-1",           323,       10.6649,      -8.86986,            0.,NA,NA,"",   115.286E-03,  -115.261E-03,   2.41006E-03,   253.001E-06
C:/temp/dataset/3/2_1.odb,Step-1,Increment      1: Step Time =    1.000,"PART-1-1",           324,       9.41034,      -12.1888,            0.,NA,NA,"",   69.5740E-03,  -68.2929E-03,  -13.2900E-03,   1.39158E-03
C:/temp/dataset/3/2_1.odb,Step-1,Increment      1: Step Time =    1.000,"PART-1-1",           325,       10.5075,      -13.0214,            0.,NA,NA,"",   58.0970E-03,  -58.0936E-03,   627.893E-06,   161.751E-06
C:/temp/dataset/3/2_1.odb,Step-1,Increment      1: Step Time =    1.000,"PART-1-1",           326,       10.8652,      -11.6896,            0.,NA,NA,"",   74.6274E-03,  -74.4562E-03,   5.05186E-03,   300.672E-06
C:/temp/dataset/3/2_1.odb,Step-1,Increment      1: Step Time =    1.000,"PART-1-1",           327,       9.76802,      -10.8570,            0.,NA,NA,"",   86.1950E-03,  -85.6042E-03,  -10.0745E-03,   962.833E-06
C:/temp/dataset/3/2_1.odb,Step-1,Increment      1: Step Time =    1.000,"PART-1-1",           328,       6.12016,      -19.7528,            0.,NA,NA,"",   20.2115E-03,  -4.80038E-03,  -19.6331E-03,   4.70341E-03
C:/temp/dataset/3/2_1.odb,Step-1,Increment      1: Step Time =    1.000,"PART-1-1",           329,       7.15653,      -18.4145,            0.,NA,NA,"",   22.7594E-03,  -11.9346E-03,  -19.3792E-03,   3.07986E-03
C:/temp/dataset/3/2_1.odb,Step-1,Increment      1: Step Time =    1.000,"PART-1-1",           330,       6.03637,      -17.4116,            0.,NA,NA,"",   36.8797E-03,  -21.0150E-03,  -30.3064E-03,   5.34890E-03
C:/temp/dataset/3/2_1.odb,Step-1,Increment      1: Step Time =    1.000,"PART-1-1",           331,            5.,        -18.75,            0.,NA,NA,"",   32.3958E-03,  -14.1178E-03,  -29.1577E-03,   7.99843E-03
C:/temp/dataset/3/2_1.odb,Step-1,Increment      1: Step Time =    1.000,"PART-1-1",           332,       13.3604,      -22.4969,            0.,NA,NA,"",   9.73135E-03,   472.905E-06,   9.71986E-03,   2.33912E-03
C:/temp/dataset/3/2_1.odb,Step-1,Increment      1: Step Time =    1.000,"PART-1-1",           333,           15.,        -21.25,            0.,NA,NA,"",   18.5726E-03,  -4.64592E-03,   17.9821E-03,   3.87335E-03
C:/temp/dataset/3/2_1.odb,Step-1,Increment      1: Step Time =    1.000,"PART-1-1",           334,       13.4842,      -19.7901,            0.,NA,NA,"",   17.9483E-03,  -7.42815E-03,   16.3391E-03,   2.93670E-03
C:/temp/dataset/3/2_1.odb,Step-1,Increment      1: Step Time =    1.000,"PART-1-1",           335,       11.8446,      -21.0370,            0.,NA,NA,"",   6.50161E-03,  -1.50715E-03,   6.32451E-03,   1.69017E-03
C:/temp/dataset/3/2_1.odb,Step-1,Increment      1: Step Time =    1.000,"PART-1-1",           336,       1.65000,            5.,            0.,NA,NA,"",   475.810E-03,  -423.761E-03,  -216.383E-03,   517.641E-06
C:/temp/dataset/3/2_1.odb,Step-1,Increment      1: Step Time =    1.000,"PART-1-1",           337,   440.654E-03,       4.00571,            0.,NA,NA,"",   469.493E-03,  -401.249E-03,  -243.767E-03,   299.159E-06
C:/temp/dataset/3/2_1.odb,Step-1,Increment      1: Step Time =    1.000,"PART-1-1",           338,       1.47063,       2.87974,            0.,NA,NA,"",   435.015E-03,  -375.468E-03,  -219.686E-03,   563.698E-06
C:/temp/dataset/3/2_1.odb,Step-1,Increment      1: Step Time =    1.000,"PART-1-1",           339,       2.67998,       3.87403,            0.,NA,NA,"",   443.115E-03,  -398.706E-03,  -193.350E-03,   647.612E-06
C:/temp/dataset/3/2_1.odb,Step-1,Increment      1: Step Time =    1.000,"PART-1-1",           340,      -1.46180,      -3.99231,            0.,NA,NA,"",   355.595E-03,  -210.626E-03,  -286.504E-03,   180.262E-06
C:/temp/dataset/3/2_1.odb,Step-1,Increment      1: Step Time =    1.000,"PART-1-1",           341,     -500.E-03,           -5.,            0.,NA,NA,"",   322.331E-03,  -186.374E-03,  -262.986E-03,   446.107E-06
C:/temp/dataset/3/2_1.odb,Step-1,Increment      1: Step Time =    1.000,"PART-1-1",           342,   718.491E-03,      -4.10961,            0.,NA,NA,"",   312.954E-03,  -207.964E-03,  -233.862E-03,   307.858E-06
C:/temp/dataset/3/2_1.odb,Step-1,Increment      1: Step Time =    1.000,"PART-1-1",           343,  -243.313E-03,      -3.10192,            0.,NA,NA,"",   346.926E-03,  -232.437E-03,  -257.547E-03,   133.323E-06
C:/temp/dataset/3/2_1.odb,Step-1,Increment      1: Step Time =    1.000,"PART-1-1",           344,      -3.82017,      -3.74247,            0.,NA,NA,"",   405.281E-03,  -216.146E-03,  -342.832E-03,   87.2854E-06
C:/temp/dataset/3/2_1.odb,Step-1,Increment      1: Step Time =    1.000,"PART-1-1",           345,      -2.71667,           -5.,            0.,NA,NA,"",   366.935E-03,  -186.285E-03,  -316.132E-03,   197.971E-06
C:/temp/dataset/3/2_1.odb,Step-1,Increment      1: Step Time =    1.000,"PART-1-1",           346,      -2.56530,      -2.73478,            0.,NA,NA,"",   395.001E-03,  -240.631E-03,  -313.245E-03,   145.170E-06
C:/temp/dataset/3/2_1.odb,Step-1,Increment      1: Step Time =    1.000,"PART-1-1",           347,      -13.8092,  -21.6491E-03,            0.,NA,NA,"",   655.352E-03,  -302.021E-03,  -581.609E-03,   102.127E-09
C:/temp/dataset/3/2_1.odb,Step-1,Increment      1: Step Time =    1.000,"PART-1-1",           348,      -12.6581,       1.21263,            0.,NA,NA,"",   646.199E-03,  -331.742E-03,  -554.545E-03,   964.217E-09
C:/temp/dataset/3/2_1.odb,Step-1,Increment      1: Step Time =    1.000,"PART-1-1",           349,      -13.8489,       2.48428,            0.,NA,NA,"",   686.308E-03,  -361.691E-03,  -583.265E-03,   235.046E-09
C:/temp/dataset/3/2_1.odb,Step-1,Increment      1: Step Time =    1.000,"PART-1-1",           350,          -15.,          1.25,            0.,NA,NA,"",   694.770E-03,  -331.968E-03,  -610.330E-03,   1.05500E-06
C:/temp/dataset/3/2_1.odb,Step-1,Increment      1: Step Time =    1.000,"PART-1-1",           351,      -8.84172,   345.754E-03,            0.,NA,NA,"",   558.761E-03,  -312.196E-03,  -463.408E-03,   18.4963E-06
C:/temp/dataset/3/2_1.odb,Step-1,Increment      1: Step Time =    1.000,"PART-1-1",           352,      -9.20019,  -788.270E-03,            0.,NA,NA,"",   551.102E-03,  -285.083E-03,  -471.637E-03,   13.7683E-06
C:/temp/dataset/3/2_1.odb,Step-1,Increment      1: Step Time =    1.000,"PART-1-1",           353,      -7.61937,      -1.21646,            0.,NA,NA,"",   513.884E-03,  -275.349E-03,  -433.888E-03,   31.0122E-06
C:/temp/dataset/3/2_1.odb,Step-1,Increment      1: Step Time =    1.000,"PART-1-1",           354,      -7.26090,  -82.4387E-03,            0.,NA,NA,"",   522.175E-03,  -302.475E-03,  -425.647E-03,   33.3601E-06
C:/temp/dataset/3/2_1.odb,Step-1,Increment      1: Step Time =    1.000,"PART-1-1",           355,      -12.7466,      -3.77621,            0.,NA,NA,"",   594.664E-03,  -212.913E-03,  -555.241E-03,   453.668E-09
C:/temp/dataset/3/2_1.odb,Step-1,Increment      1: Step Time =    1.000,"PART-1-1",           356,      -13.8633,      -2.52621,            0.,NA,NA,"",   630.619E-03,  -242.362E-03,  -582.186E-03,   248.210E-09
C:/temp/dataset/3/2_1.odb,Step-1,Increment      1: Step Time =    1.000,"PART-1-1",           357,          -15.,         -3.75,            0.,NA,NA,"",   645.054E-03,  -212.898E-03,  -608.908E-03,   349.171E-09
C:/temp/dataset/3/2_1.odb,Step-1,Increment      1: Step Time =    1.000,"PART-1-1",           358,      -13.8833,           -5.,            0.,NA,NA,"",   610.192E-03,  -183.450E-03,  -581.962E-03,   287.853E-09
C:/temp/dataset/3/2_1.odb,Step-1,Increment      1: Step Time =    1.000,"PART-1-1",           359,      -5.03830,      -2.71522,            0.,NA,NA,"",   442.982E-03,  -240.376E-03,  -372.092E-03,   80.3294E-06
C:/temp/dataset/3/2_1.odb,Step-1,Increment      1: Step Time =    1.000,"PART-1-1",           360,      -4.43911,      -1.50749,            0.,NA,NA,"",   448.162E-03,  -269.419E-03,  -358.139E-03,   87.7173E-06
C:/temp/dataset/3/2_1.odb,Step-1,Increment      1: Step Time =    1.000,"PART-1-1",           361,      -5.95808,  -763.119E-03,            0.,NA,NA,"",   487.626E-03,  -286.671E-03,  -394.460E-03,   62.7190E-06
C:/temp/dataset/3/2_1.odb,Step-1,Increment      1: Step Time =    1.000,"PART-1-1",           362,      -6.55726,      -1.97085,            0.,NA,NA,"",   482.915E-03,  -257.687E-03,  -408.416E-03,   40.9304E-06
C:/temp/dataset/3/2_1.odb,Step-1,Increment      1: Step Time =    1.000,"PART-1-1",           363,          6.25,          -30.,            0.,NA,NA,"",            0.,   404.024E-42,  -1.52313E-39,   901.154E-06
C:/temp/dataset/3/2_1.odb,Step-1,Increment      1: Step Time =    1.000,"PART-1-1",           364,       7.47038,      -28.9473,            0.,NA,NA,"",   1.18931E-03,   992.580E-06,  -655.160E-06,   1.07313E-03
C:/temp/dataset/3/2_1.odb,Step-1,Increment      1: Step Time =    1.000,"PART-1-1",           365,       6.18647,      -27.8786,            0.,NA,NA,"",   2.12010E-03,   875.584E-06,  -1.93084E-03,   1.27524E-03
C:/temp/dataset/3/2_1.odb,Step-1,Increment      1: Step Time =    1.000,"PART-1-1",           366,       4.96608,      -28.9312,            0.,NA,NA,"",   882.926E-06,   111.100E-06,  -875.908E-06,   1.10759E-03
C:/temp/dataset/3/2_1.odb,Step-1,Increment      1: Step Time =    1.000,"PART-1-1",           367,       3.70492,      -27.8047,            0.,NA,NA,"",   2.01552E-03,  -574.131E-06,  -1.93202E-03,   1.20373E-03
C:/temp/dataset/3/2_1.odb,Step-1,Increment      1: Step Time =    1.000,"PART-1-1",           368,       2.48883,      -28.8735,            0.,NA,NA,"",   969.716E-06,  -600.772E-06,  -761.198E-06,   967.317E-06
C:/temp/dataset/3/2_1.odb,Step-1,Increment      1: Step Time =    1.000,"PART-1-1",           369,          3.75,          -30.,            0.,NA,NA,"",            0.,  -177.100E-42,  -1.63202E-39,   865.956E-06
C:/temp/dataset/3/2_1.odb,Step-1,Increment      1: Step Time =    1.000,"PART-1-1",           370,      -3.72203,      -27.5999,            0.,NA,NA,"",   1.34802E-03,  -1.32586E-03,  -243.432E-06,   395.234E-06
C:/temp/dataset/3/2_1.odb,Step-1,Increment      1: Step Time =    1.000,"PART-1-1",           371,      -4.98725,      -28.7922,            0.,NA,NA,"",   667.253E-06,  -660.569E-06,  -94.2053E-06,   360.382E-06
C:/temp/dataset/3/2_1.odb,Step-1,Increment      1: Step Time =    1.000,"PART-1-1",           372,         -3.75,          -30.,            0.,NA,NA,"",            0.,  -436.743E-42,  -395.404E-42,   493.921E-06
C:/temp/dataset/3/2_1.odb,Step-1,Increment      1: Step Time =    1.000,"PART-1-1",           373,      -2.48478,      -28.8077,            0.,NA,NA,"",   868.751E-06,  -835.884E-06,  -236.700E-06,   521.248E-06
C:/temp/dataset/3/2_1.odb,Step-1,Increment      1: Step Time =    1.000,"PART-1-1",           374,      -13.7501,      -27.5099,            0.,NA,NA,"",   623.455E-06,  -603.936E-06,  -154.782E-06,   91.7971E-06
C:/temp/dataset/3/2_1.odb,Step-1,Increment      1: Step Time =    1.000,"PART-1-1",           375,          -15.,        -28.75,            0.,NA,NA,"",   407.958E-06,  -340.074E-06,  -225.344E-06,   169.809E-06
C:/temp/dataset/3/2_1.odb,Step-1,Increment      1: Step Time =    1.000,"PART-1-1",           376,        -13.75,          -30.,            0.,NA,NA,"",            0.,  -58.0138E-42,  -178.178E-42,   196.921E-06
C:/temp/dataset/3/2_1.odb,Step-1,Increment      1: Step Time =    1.000,"PART-1-1",           377,      -12.5001,      -28.7599,            0.,NA,NA,"",   294.423E-06,  -291.579E-06,  -40.8291E-06,   150.543E-06
C:/temp/dataset/3/2_1.odb,Step-1,Increment      1: Step Time =    1.000,"PART-1-1",           378,       8.15833,      -10.8587,            0.,NA,NA,"",   92.6181E-03,  -86.7135E-03,  -32.5402E-03,   2.85208E-03
C:/temp/dataset/3/2_1.odb,Step-1,Increment      1: Step Time =    1.000,"PART-1-1",           379,       9.00498,      -9.90697,            0.,NA,NA,"",   102.010E-03,  -99.5267E-03,  -22.3731E-03,   1.83217E-03
C:/temp/dataset/3/2_1.odb,Step-1,Increment      1: Step Time =    1.000,"PART-1-1",           380,       8.08915,      -8.55627,            0.,NA,NA,"",   127.396E-03,  -121.054E-03,  -39.6957E-03,   2.93430E-03
C:/temp/dataset/3/2_1.odb,Step-1,Increment      1: Step Time =    1.000,"PART-1-1",           381,       7.24249,      -9.50802,            0.,NA,NA,"",   118.471E-03,  -107.320E-03,  -50.1782E-03,   3.90298E-03
C:/temp/dataset/3/2_1.odb,Step-1,Increment      1: Step Time =    1.000,"PART-1-1",           382,       13.9816,      -2.51124,            0.,NA,NA,"",   253.620E-03,  -242.440E-03,   74.4694E-03,   3.20348E-03
C:/temp/dataset/3/2_1.odb,Step-1,Increment      1: Step Time =    1.000,"PART-1-1",           383,           15.,         -1.25,            0.,NA,NA,"",   291.047E-03,  -272.942E-03,   101.051E-03,   4.00437E-03
C:/temp/dataset/3/2_1.odb,Step-1,Increment      1: Step Time =    1.000,"PART-1-1",           384,       13.8213,  -48.4001E-03,            0.,NA,NA,"",   308.755E-03,  -299.012E-03,   76.9538E-03,   2.90869E-03
C:/temp/dataset/3/2_1.odb,Step-1,Increment      1: Step Time =    1.000,"PART-1-1",           385,       12.8030,      -1.30964,            0.,NA,NA,"",   272.838E-03,  -268.067E-03,   50.7974E-03,   2.08987E-03
C:/temp/dataset/3/2_1.odb,Step-1,Increment      1: Step Time =    1.000,"PART-1-1",           386,           15.,          1.25,            0.,NA,NA,"",   350.096E-03,  -332.650E-03,   109.138E-03,   4.04315E-03
C:/temp/dataset/3/2_1.odb,Step-1,Increment      1: Step Time =    1.000,"PART-1-1",           387,       13.5709,       2.55070,            0.,NA,NA,"",   370.638E-03,  -362.603E-03,   76.7565E-03,   2.88501E-03
C:/temp/dataset/3/2_1.odb,Step-1,Increment      1: Step Time =    1.000,"PART-1-1",           388,       12.3922,       1.25230,            0.,NA,NA,"",   331.654E-03,  -328.655E-03,   44.5059E-03,   1.73376E-03
C:/temp/dataset/3/2_1.odb,Step-1,Increment      1: Step Time =    1.000,"PART-1-1",           389,      -5.00532,       26.2655,            0.,NA,NA,"",       1.50225,      -1.25673,  -823.023E-03,   928.664E-06
C:/temp/dataset/3/2_1.odb,Step-1,Increment      1: Step Time =    1.000,"PART-1-1",           390,      -3.75495,       25.0275,            0.,NA,NA,"",       1.40986,      -1.19228,  -752.453E-03,   1.12460E-03
C:/temp/dataset/3/2_1.odb,Step-1,Increment      1: Step Time =    1.000,"PART-1-1",           391,      -2.50780,       26.2820,            0.,NA,NA,"",       1.43502,      -1.26010,  -686.619E-03,   1.50881E-03
C:/temp/dataset/3/2_1.odb,Step-1,Increment      1: Step Time =    1.000,"PART-1-1",           392,      -3.75817,       27.5199,            0.,NA,NA,"",       1.52619,      -1.32474,  -757.852E-03,   1.36283E-03
C:/temp/dataset/3/2_1.odb,Step-1,Increment      1: Step Time =    1.000,"PART-1-1",           393,      -5.00193,       23.7670,            0.,NA,NA,"",       1.38986,      -1.12346,  -818.247E-03,   636.161E-06
C:/temp/dataset/3/2_1.odb,Step-1,Increment      1: Step Time =    1.000,"PART-1-1",           394,      -6.25406,       25.0149,            0.,NA,NA,"",       1.48378,      -1.18849,  -888.304E-03,   548.055E-06
C:/temp/dataset/3/2_1.odb,Step-1,Increment      1: Step Time =    1.000,"PART-1-1",           395,      -7.50285,       23.7600,            0.,NA,NA,"",       1.47069,      -1.11956,  -953.686E-03,   216.776E-06
C:/temp/dataset/3/2_1.odb,Step-1,Increment      1: Step Time =    1.000,"PART-1-1",           396,      -6.25071,       22.5121,            0.,NA,NA,"",       1.37598,      -1.05440,  -884.066E-03,   333.344E-06
C:/temp/dataset/3/2_1.odb,Step-1,Increment      1: Step Time =    1.000,"PART-1-1",           397,      -12.5007,       23.7543,            0.,NA,NA,"",       1.65251,      -1.11206,      -1.22234,   33.6592E-06
C:/temp/dataset/3/2_1.odb,Step-1,Increment      1: Step Time =    1.000,"PART-1-1",           398,      -13.7507,       25.0026,            0.,NA,NA,"",       1.74732,      -1.17726,      -1.29119,   37.4580E-06
C:/temp/dataset/3/2_1.odb,Step-1,Increment      1: Step Time =    1.000,"PART-1-1",           399,          -15.,         23.75,            0.,NA,NA,"",       1.75161,      -1.10819,      -1.35648,   42.2182E-06
C:/temp/dataset/3/2_1.odb,Step-1,Increment      1: Step Time =    1.000,"PART-1-1",           400,       1.22659,       27.5580,            0.,NA,NA,"",       1.41515,      -1.32966,  -484.428E-03,   1.87938E-03
C:/temp/dataset/3/2_1.odb,Step-1,Increment      1: Step Time =    1.000,"PART-1-1",           401,       2.48534,       28.7828,            0.,NA,NA,"",       1.45530,      -1.39356,  -419.381E-03,   2.23688E-03
C:/temp/dataset/3/2_1.odb,Step-1,Increment      1: Step Time =    1.000,"PART-1-1",           402,          1.25,           30.,            0.,NA,NA,"",       1.53864,      -1.45897,  -488.720E-03,   2.54994E-03
C:/temp/dataset/3/2_1.odb,Step-1,Increment      1: Step Time =    1.000,"PART-1-1",           403,  -8.74824E-03,       28.7751,            0.,NA,NA,"",       1.49977,      -1.39338,  -554.809E-03,   1.96840E-03
C:/temp/dataset/3/2_1.odb,Step-1,Increment      1: Step Time =    1.000,"PART-1-1",           404,  -16.7069E-03,       26.3073,            0.,NA,NA,"",       1.37815,      -1.26375,  -549.747E-03,   1.90430E-03
C:/temp/dataset/3/2_1.odb,Step-1,Increment      1: Step Time =    1.000,"PART-1-1",           405,       2.46714,       26.3253,            0.,NA,NA,"",       1.33285,      -1.26661,  -414.948E-03,   1.79878E-03
C:/temp/dataset/3/2_1.odb,Step-1,Increment      1: Step Time =    1.000,"PART-1-1",           406,       3.70751,       22.5746,            0.,NA,NA,"",       1.13014,      -1.07773,  -340.179E-03,   2.44888E-03
C:/temp/dataset/3/2_1.odb,Step-1,Increment      1: Step Time =    1.000,"PART-1-1",           407,       2.48879,       21.2797,            0.,NA,NA,"",       1.08631,      -1.00794,  -405.125E-03,   2.43765E-03
C:/temp/dataset/3/2_1.odb,Step-1,Increment      1: Step Time =    1.000,"PART-1-1",           408,          3.75,           20.,            0.,NA,NA,"",       1.00278,  -945.099E-03,  -335.193E-03,   5.24524E-03
C:/temp/dataset/3/2_1.odb,Step-1,Increment      1: Step Time =    1.000,"PART-1-1",           409,       4.96872,       21.2949,            0.,NA,NA,"",       1.05080,      -1.01595,  -268.409E-03,   4.95837E-03
C:/temp/dataset/3/2_1.odb,Step-1,Increment      1: Step Time =    1.000,"PART-1-1",           410,       10.8479,       12.4309,            0.,NA,NA,"",   658.153E-03,  -658.135E-03,   4.85985E-03,   288.524E-06
C:/temp/dataset/3/2_1.odb,Step-1,Increment      1: Step Time =    1.000,"PART-1-1",           411,       9.34812,       11.6387,            0.,NA,NA,"",   631.347E-03,  -629.574E-03,  -47.2765E-03,   1.52099E-03
C:/temp/dataset/3/2_1.odb,Step-1,Increment      1: Step Time =    1.000,"PART-1-1",           412,       9.99050,       10.5520,            0.,NA,NA,"",   592.896E-03,  -592.430E-03,  -23.4876E-03,   683.744E-06
C:/temp/dataset/3/2_1.odb,Step-1,Increment      1: Step Time =    1.000,"PART-1-1",           413,       11.4903,       11.3442,            0.,NA,NA,"",   621.176E-03,  -620.568E-03,   27.4701E-03,   1.09903E-03
C:/temp/dataset/3/2_1.odb,Step-1,Increment      1: Step Time =    1.000,"PART-1-1",           414,       7.16850,       11.5014,            0.,NA,NA,"",   638.124E-03,  -626.191E-03,  -122.829E-03,   4.19880E-03
C:/temp/dataset/3/2_1.odb,Step-1,Increment      1: Step Time =    1.000,"PART-1-1",           415,       6.10343,       12.5850,            0.,NA,NA,"",   686.312E-03,  -665.948E-03,  -165.943E-03,   5.47176E-03
C:/temp/dataset/3/2_1.odb,Step-1,Increment      1: Step Time =    1.000,"PART-1-1",           416,            5.,         11.25,            0.,NA,NA,"",   651.936E-03,  -621.559E-03,  -196.684E-03,   6.78638E-03
C:/temp/dataset/3/2_1.odb,Step-1,Increment      1: Step Time =    1.000,"PART-1-1",           417,       6.06507,       10.1664,            0.,NA,NA,"",   602.653E-03,  -582.660E-03,  -153.941E-03,   5.54759E-03
C:/temp/dataset/3/2_1.odb,Step-1,Increment      1: Step Time =    1.000,"PART-1-1",           418,       14.0565,       5.06378,            0.,NA,NA,"",   440.785E-03,  -430.110E-03,   96.4207E-03,   3.75007E-03
C:/temp/dataset/3/2_1.odb,Step-1,Increment      1: Step Time =    1.000,"PART-1-1",           419,       12.6274,       3.86448,            0.,NA,NA,"",   398.991E-03,  -395.290E-03,   54.2237E-03,   2.23198E-03
C:/temp/dataset/3/2_1.odb,Step-1,Increment      1: Step Time =    1.000,"PART-1-1",           420,           15.,          3.75,            0.,NA,NA,"",   413.718E-03,  -396.614E-03,   117.726E-03,   4.45480E-03
C:/temp/dataset/3/2_1.odb,Step-1,Increment      1: Step Time =    1.000,"PART-1-1",           421,       10.0280,       5.47301,            0.,NA,NA,"",   436.850E-03,  -436.487E-03,  -17.8154E-03,   741.454E-06
C:/temp/dataset/3/2_1.odb,Step-1,Increment      1: Step Time =    1.000,"PART-1-1",           422,       11.0614,       5.01383,            0.,NA,NA,"",   424.634E-03,  -424.472E-03,   11.7245E-03,   1.02014E-03
C:/temp/dataset/3/2_1.odb,Step-1,Increment      1: Step Time =    1.000,"PART-1-1",           423,       11.6033,       6.33570,            0.,NA,NA,"",   462.885E-03,  -462.031E-03,   28.1029E-03,   1.41854E-03
C:/temp/dataset/3/2_1.odb,Step-1,Increment      1: Step Time =    1.000,"PART-1-1",           424,       10.5698,       6.79489,            0.,NA,NA,"",   474.377E-03,  -474.371E-03,  -2.49574E-03,   561.902E-06
C:/temp/dataset/3/2_1.odb,Step-1,Increment      1: Step Time =    1.000,"PART-1-1",           425,      -4.94418,       3.17107,            0.,NA,NA,"",   531.658E-03,  -380.560E-03,  -371.259E-03,   76.5671E-06
C:/temp/dataset/3/2_1.odb,Step-1,Increment      1: Step Time =    1.000,"PART-1-1",           426,      -3.90803,       4.11594,            0.,NA,NA,"",   531.878E-03,  -403.248E-03,  -346.823E-03,   90.1027E-06
C:/temp/dataset/3/2_1.odb,Step-1,Increment      1: Step Time =    1.000,"PART-1-1",           427,      -5.05000,            5.,            0.,NA,NA,"",   565.618E-03,  -424.032E-03,  -374.327E-03,   72.6197E-06
C:/temp/dataset/3/2_1.odb,Step-1,Increment      1: Step Time =    1.000,"PART-1-1",           428,      -6.08615,       4.05513,            0.,NA,NA,"",   565.704E-03,  -401.274E-03,  -398.748E-03,   32.5706E-06
C:/temp/dataset/3/2_1.odb,Step-1,Increment      1: Step Time =    1.000,"PART-1-1",           429,      -3.86135,       2.39128,            0.,NA,NA,"",   500.502E-03,  -362.375E-03,  -345.234E-03,   98.5143E-06
C:/temp/dataset/3/2_1.odb,Step-1,Increment      1: Step Time =    1.000,"PART-1-1",           430,      -5.85027,       2.20434,            0.,NA,NA,"",   530.874E-03,  -357.329E-03,  -392.611E-03,   52.0770E-06
C:/temp/dataset/3/2_1.odb,Step-1,Increment      1: Step Time =    1.000,"PART-1-1",           431,      -4.76744,       1.42454,            0.,NA,NA,"",   499.418E-03,  -339.145E-03,  -366.605E-03,   89.0716E-06
C:/temp/dataset/3/2_1.odb,Step-1,Increment      1: Step Time =    1.000,"PART-1-1",           432,      -9.29397,       2.69508,            0.,NA,NA,"",   600.739E-03,  -368.006E-03,  -474.826E-03,   11.9817E-06
C:/temp/dataset/3/2_1.odb,Step-1,Increment      1: Step Time =    1.000,"PART-1-1",           433,      -8.28887,       3.92576,            0.,NA,NA,"",   601.401E-03,  -397.595E-03,  -451.222E-03,   10.3587E-06
C:/temp/dataset/3/2_1.odb,Step-1,Increment      1: Step Time =    1.000,"PART-1-1",           434,          -9.5,            5.,            0.,NA,NA,"",   639.978E-03,  -422.846E-03,  -480.388E-03,   3.60592E-06
C:/temp/dataset/3/2_1.odb,Step-1,Increment      1: Step Time =    1.000,"PART-1-1",           435,      -10.5051,       3.76932,            0.,NA,NA,"",   639.251E-03,  -393.246E-03,  -503.984E-03,   2.23542E-06
C:/temp/dataset/3/2_1.odb,Step-1,Increment      1: Step Time =    1.000,"PART-1-1",           436,      -7.92731,       1.84143,            0.,NA,NA,"",   562.622E-03,  -348.076E-03,  -442.025E-03,   21.7491E-06
C:/temp/dataset/3/2_1.odb,Step-1,Increment      1: Step Time =    1.000,"PART-1-1",           437,      -6.68589,       1.06488,            0.,NA,NA,"",   528.035E-03,  -329.969E-03,  -412.240E-03,   47.4611E-06
C:/temp/dataset/3/2_1.odb,Step-1,Increment      1: Step Time =    1.000,"PART-1-1",           438,      -7.09169,       2.98089,            0.,NA,NA,"",   565.145E-03,  -375.436E-03,  -422.418E-03,   34.1026E-06
C:/temp/dataset/3/2_1.odb,Step-1,Increment      1: Step Time =    1.000,"PART-1-1",           439,      -13.9000,            5.,            0.,NA,NA,"",   721.247E-03,  -421.595E-03,  -585.196E-03,   284.435E-09
C:/temp/dataset/3/2_1.odb,Step-1,Increment      1: Step Time =    1.000,"PART-1-1",           440,          -15.,          3.75,            0.,NA,NA,"",   725.707E-03,  -391.511E-03,  -611.040E-03,   357.131E-09
C:/temp/dataset/3/2_1.odb,Step-1,Increment      1: Step Time =    1.000,"PART-1-1",           441,      -12.7489,       3.73428,            0.,NA,NA,"",   681.326E-03,  -391.775E-03,  -557.420E-03,   430.014E-09
C:/temp/dataset/3/2_1.odb,Step-1,Increment      1: Step Time =    1.000,"PART-1-1",           442,      -9.48823,      -2.88104,            0.,NA,NA,"",   532.635E-03,  -235.153E-03,  -477.915E-03,   9.98696E-06
C:/temp/dataset/3/2_1.odb,Step-1,Increment      1: Step Time =    1.000,"PART-1-1",           443,      -8.42388,      -2.23568,            0.,NA,NA,"",   517.599E-03,  -250.829E-03,  -452.762E-03,   16.3182E-06
C:/temp/dataset/3/2_1.odb,Step-1,Increment      1: Step Time =    1.000,"PART-1-1",           444,      -10.2645,      -1.43363,            0.,NA,NA,"",   565.146E-03,  -269.404E-03,  -496.801E-03,   6.33300E-06
C:/temp/dataset/3/2_1.odb,Step-1,Increment      1: Step Time =    1.000,"PART-1-1",           445,      -12.6725,      -1.29786,            0.,NA,NA,"",   617.309E-03,  -271.951E-03,  -554.178E-03,   922.079E-09
C:/temp/dataset/3/2_1.odb,Step-1,Increment      1: Step Time =    1.000,"PART-1-1",           446,          -15.,         -1.25,            0.,NA,NA,"",   667.722E-03,  -272.431E-03,  -609.618E-03,   1.02856E-06
C:/temp/dataset/3/2_1.odb,Step-1,Increment      1: Step Time =    1.000,"PART-1-1",           447,      -6.16813,      -3.97275,            0.,NA,NA,"",   450.570E-03,  -210.066E-03,  -398.604E-03,   31.7172E-06
C:/temp/dataset/3/2_1.odb,Step-1,Increment      1: Step Time =    1.000,"PART-1-1",           448,      -4.95000,           -5.,            0.,NA,NA,"",   413.468E-03,  -185.899E-03,  -369.320E-03,   76.5681E-06
C:/temp/dataset/3/2_1.odb,Step-1,Increment      1: Step Time =    1.000,"PART-1-1",           449,       1.59412,  -355.999E-03,            0.,NA,NA,"",   368.035E-03,  -299.049E-03,  -214.522E-03,   568.913E-06
C:/temp/dataset/3/2_1.odb,Step-1,Increment      1: Step Time =    1.000,"PART-1-1",           450,       2.17826,      -1.53992,            0.,NA,NA,"",   336.219E-03,  -270.814E-03,  -199.255E-03,   988.696E-06
C:/temp/dataset/3/2_1.odb,Step-1,Increment      1: Step Time =    1.000,"PART-1-1",           451,       2.86763,   426.804E-03,            0.,NA,NA,"",   367.401E-03,  -317.401E-03,  -185.041E-03,   1.53596E-03
C:/temp/dataset/3/2_1.odb,Step-1,Increment      1: Step Time =    1.000,"PART-1-1",           452,  -387.277E-03,   5.26357E-03,            0.,NA,NA,"",   403.699E-03,  -307.133E-03,  -261.997E-03,   147.281E-06
C:/temp/dataset/3/2_1.odb,Step-1,Increment      1: Step Time =    1.000,"PART-1-1",           453,   283.611E-03,      -1.19839,            0.,NA,NA,"",   371.352E-03,  -278.610E-03,  -245.517E-03,   216.773E-06
C:/temp/dataset/3/2_1.odb,Step-1,Increment      1: Step Time =    1.000,"PART-1-1",           454,   923.228E-03,   847.652E-03,            0.,NA,NA,"",   400.957E-03,  -327.544E-03,  -231.261E-03,   372.154E-06
C:/temp/dataset/3/2_1.odb,Step-1,Increment      1: Step Time =    1.000,"PART-1-1",           455,       6.35531,      -13.1332,            0.,NA,NA,"",   77.3293E-03,  -61.0686E-03,  -47.4388E-03,   4.90921E-03
C:/temp/dataset/3/2_1.odb,Step-1,Increment      1: Step Time =    1.000,"PART-1-1",           456,       7.49455,      -12.2656,            0.,NA,NA,"",   78.6070E-03,  -69.2866E-03,  -37.1272E-03,   3.64176E-03
C:/temp/dataset/3/2_1.odb,Step-1,Increment      1: Step Time =    1.000,"PART-1-1",           457,       6.13925,      -10.3824,            0.,NA,NA,"",   115.444E-03,  -96.7754E-03,  -62.9428E-03,   5.24326E-03
C:/temp/dataset/3/2_1.odb,Step-1,Increment      1: Step Time =    1.000,"PART-1-1",           458,            5.,        -11.25,            0.,NA,NA,"",   114.920E-03,  -87.7396E-03,  -74.2184E-03,   6.49865E-03
C:/temp/dataset/3/2_1.odb,Step-1,Increment      1: Step Time =    1.000,"PART-1-1",           459,       13.3376,      -16.9670,            0.,NA,NA,"",   32.5276E-03,  -23.1388E-03,   22.8613E-03,   3.03455E-03
C:/temp/dataset/3/2_1.odb,Step-1,Increment      1: Step Time =    1.000,"PART-1-1",           460,       11.8219,      -18.0071,            0.,NA,NA,"",   17.6614E-03,  -14.6155E-03,   9.91518E-03,   1.53605E-03
C:/temp/dataset/3/2_1.odb,Step-1,Increment      1: Step Time =    1.000,"PART-1-1",           461,           15.,        -18.75,            0.,NA,NA,"",   31.3533E-03,  -14.9091E-03,   27.5817E-03,   4.56187E-03
C:/temp/dataset/3/2_1.odb,Step-1,Increment      1: Step Time =    1.000,"PART-1-1",           462,       8.42876,      -15.2973,            0.,NA,NA,"",   39.9067E-03,  -35.3928E-03,  -18.4362E-03,   2.44545E-03
C:/temp/dataset/3/2_1.odb,Step-1,Increment      1: Step Time =    1.000,"PART-1-1",           463,       10.4111,      -16.6310,            0.,NA,NA,"",   23.2562E-03,  -23.2543E-03,   300.207E-06,   298.061E-06
C:/temp/dataset/3/2_1.odb,Step-1,Increment      1: Step Time =    1.000,"PART-1-1",           464,       10.7289,      -14.9294,            0.,NA,NA,"",   38.1199E-03,  -37.9930E-03,   3.10749E-03,   249.749E-06
C:/temp/dataset/3/2_1.odb,Step-1,Increment      1: Step Time =    1.000,"PART-1-1",           465,       8.74656,      -13.5956,            0.,NA,NA,"",   55.5712E-03,  -52.2973E-03,  -18.7923E-03,   2.17355E-03
C:/temp/dataset/3/2_1.odb,Step-1,Increment      1: Step Time =    1.000,"PART-1-1",           466,      -8.72016,      -22.5745,            0.,NA,NA,"",   1.53601E-03,  -1.52565E-03,   178.112E-06,   45.5410E-06
C:/temp/dataset/3/2_1.odb,Step-1,Increment      1: Step Time =    1.000,"PART-1-1",           467,      -7.48342,      -21.2909,            0.,NA,NA,"",   1.58851E-03,  -1.57336E-03,   218.875E-06,   8.91417E-06
C:/temp/dataset/3/2_1.odb,Step-1,Increment      1: Step Time =    1.000,"PART-1-1",           468,         -8.75,          -20.,            0.,NA,NA,"",   1.61783E-03,  -1.60752E-03,   182.362E-06,   38.1698E-06
C:/temp/dataset/3/2_1.odb,Step-1,Increment      1: Step Time =    1.000,"PART-1-1",           469,      -9.98674,      -21.2836,            0.,NA,NA,"",   1.57140E-03,  -1.56647E-03,   124.374E-06,   2.61721E-06
C:/temp/dataset/3/2_1.odb,Step-1,Increment      1: Step Time =    1.000,"PART-1-1",           470,      -4.96670,      -26.3491,            0.,NA,NA,"",   1.54705E-03,  -1.54282E-03,  -114.363E-06,   276.569E-06
C:/temp/dataset/3/2_1.odb,Step-1,Increment      1: Step Time =    1.000,"PART-1-1",           471,      -6.21541,      -25.0985,            0.,NA,NA,"",   1.58052E-03,  -1.57992E-03,   43.5889E-06,   196.691E-06
C:/temp/dataset/3/2_1.odb,Step-1,Increment      1: Step Time =    1.000,"PART-1-1",           472,      -7.47738,      -26.3212,            0.,NA,NA,"",   1.21336E-03,  -1.21297E-03,   30.9742E-06,   192.348E-06
C:/temp/dataset/3/2_1.odb,Step-1,Increment      1: Step Time =    1.000,"PART-1-1",           473,      -6.22867,      -27.5719,            0.,NA,NA,"",   1.02897E-03,  -1.02755E-03,  -54.1473E-06,   279.306E-06
C:/temp/dataset/3/2_1.odb,Step-1,Increment      1: Step Time =    1.000,"PART-1-1",           474,   49.7896E-03,      -26.4387,            0.,NA,NA,"",   2.57127E-03,  -2.09724E-03,  -1.48762E-03,   732.763E-06
C:/temp/dataset/3/2_1.odb,Step-1,Increment      1: Step Time =    1.000,"PART-1-1",           475,       1.24862,      -27.7048,            0.,NA,NA,"",   1.94277E-03,  -1.41515E-03,  -1.33106E-03,   880.709E-06
C:/temp/dataset/3/2_1.odb,Step-1,Increment      1: Step Time =    1.000,"PART-1-1",           476,       2.52056,      -26.5649,            0.,NA,NA,"",   3.18269E-03,  -1.58031E-03,  -2.76264E-03,   1.23064E-03
C:/temp/dataset/3/2_1.odb,Step-1,Increment      1: Step Time =    1.000,"PART-1-1",           477,       1.32172,      -25.2988,            0.,NA,NA,"",   3.74733E-03,  -2.43405E-03,  -2.84919E-03,   1.03737E-03
C:/temp/dataset/3/2_1.odb,Step-1,Increment      1: Step Time =    1.000,"PART-1-1",           478,        -13.75,          -20.,            0.,NA,NA,"",   1.71335E-03,  -1.69788E-03,  -229.665E-06,   5.45128E-06
C:/temp/dataset/3/2_1.odb,Step-1,Increment      1: Step Time =    1.000,"PART-1-1",           479,          -15.,        -21.25,            0.,NA,NA,"",   1.61303E-03,  -1.57185E-03,  -362.177E-06,   4.39594E-06
C:/temp/dataset/3/2_1.odb,Step-1,Increment      1: Step Time =    1.000,"PART-1-1",           480,      -13.7430,      -22.5153,            0.,NA,NA,"",   1.46348E-03,  -1.44521E-03,  -230.505E-06,   7.99878E-06
C:/temp/dataset/3/2_1.odb,Step-1,Increment      1: Step Time =    1.000,"PART-1-1",           481,      -12.4930,      -21.2653,            0.,NA,NA,"",   1.57263E-03,  -1.56978E-03,  -94.7561E-06,   6.32025E-06
C:/temp/dataset/3/2_1.odb,Step-1,Increment      1: Step Time =    1.000,"PART-1-1",           482,      -11.2297,      -22.5489,            0.,NA,NA,"",   1.46135E-03,  -1.46116E-03,   23.5805E-06,   18.5072E-06
C:/temp/dataset/3/2_1.odb,Step-1,Increment      1: Step Time =    1.000,"PART-1-1",           483,        -11.25,          -20.,            0.,NA,NA,"",   1.67161E-03,  -1.67150E-03,   19.1664E-06,   20.6086E-06
C:/temp/dataset/3/2_1.odb,Step-1,Increment      1: Step Time =    1.000,"PART-1-1",           484,      -13.7448,      -25.0201,            0.,NA,NA,"",   1.14647E-03,  -1.12288E-03,  -231.354E-06,   23.6360E-06
C:/temp/dataset/3/2_1.odb,Step-1,Increment      1: Step Time =    1.000,"PART-1-1",           485,      -12.4878,      -23.7854,            0.,NA,NA,"",   1.31059E-03,  -1.30702E-03,  -96.5412E-06,   24.2200E-06
C:/temp/dataset/3/2_1.odb,Step-1,Increment      1: Step Time =    1.000,"PART-1-1",           486,          -15.,        -23.75,            0.,NA,NA,"",   1.35335E-03,  -1.29694E-03,  -386.656E-06,   10.2802E-06
C:/temp/dataset/3/2_1.odb,Step-1,Increment      1: Step Time =    1.000,"PART-1-1",           487,       13.7335,      -27.5520,            0.,NA,NA,"",   3.02170E-03,   1.87736E-03,   2.36774E-03,   1.44683E-03
C:/temp/dataset/3/2_1.odb,Step-1,Increment      1: Step Time =    1.000,"PART-1-1",           488,       12.4835,      -28.8020,            0.,NA,NA,"",   1.61664E-03,   1.45559E-03,   703.398E-06,   1.22357E-03
C:/temp/dataset/3/2_1.odb,Step-1,Increment      1: Step Time =    1.000,"PART-1-1",           489,         13.75,          -30.,            0.,NA,NA,"",            0.,   482.111E-42,   1.35413E-39,   833.696E-06
C:/temp/dataset/3/2_1.odb,Step-1,Increment      1: Step Time =    1.000,"PART-1-1",           490,           15.,        -28.75,            0.,NA,NA,"",   922.490E-06,   293.090E-06,   874.692E-06,   1.16659E-03
C:/temp/dataset/3/2_1.odb,Step-1,Increment      1: Step Time =    1.000,"PART-1-1",           491,       9.98010,      -28.8907,            0.,NA,NA,"",   1.60195E-03,   1.59966E-03,  -85.5773E-06,   1.01710E-03
C:/temp/dataset/3/2_1.odb,Step-1,Increment      1: Step Time =    1.000,"PART-1-1",           492,       8.70049,      -27.8380,            0.,NA,NA,"",   2.47263E-03,   2.24841E-03,  -1.02886E-03,   1.00647E-03
C:/temp/dataset/3/2_1.odb,Step-1,Increment      1: Step Time =    1.000,"PART-1-1",           493,          8.75,          -30.,            0.,NA,NA,"",            0.,   940.872E-42,  -702.128E-42,   991.117E-06
C:/temp/dataset/3/2_1.odb,Step-1,Increment      1: Step Time =    1.000,"PART-1-1",           494,       11.2136,      -27.6927,            0.,NA,NA,"",   2.81405E-03,   2.73709E-03,   653.602E-06,   990.339E-06
C:/temp/dataset/3/2_1.odb,Step-1,Increment      1: Step Time =    1.000,"PART-1-1",           495,       12.3768,      -26.3916,            0.,NA,NA,"",   4.06710E-03,   3.19500E-03,   2.51661E-03,   1.44029E-03
C:/temp/dataset/3/2_1.odb,Step-1,Increment      1: Step Time =    1.000,"PART-1-1",           496,       11.0556,      -25.4315,            0.,NA,NA,"",   3.88492E-03,   3.72566E-03,   1.10094E-03,   1.20742E-03
C:/temp/dataset/3/2_1.odb,Step-1,Increment      1: Step Time =    1.000,"PART-1-1",           497,       9.89242,      -26.7326,            0.,NA,NA,"",   3.31279E-03,   3.26404E-03,  -566.248E-06,   1.11852E-03
C:/temp/dataset/3/2_1.odb,Step-1,Increment      1: Step Time =    1.000,"PART-1-1",           498,   9.79186E-03,      -28.8313,            0.,NA,NA,"",   1.00978E-03,  -888.578E-06,  -479.673E-06,   735.527E-06
C:/temp/dataset/3/2_1.odb,Step-1,Increment      1: Step Time =    1.000,"PART-1-1",           499,          1.25,          -30.,            0.,NA,NA,"",            0.,  -492.293E-42,  -1.24520E-39,   804.100E-06
C:/temp/dataset/3/2_1.odb,Step-1,Increment      1: Step Time =    1.000,"PART-1-1",           500,      -1.18061,      -25.1833,            0.,NA,NA,"",   2.66113E-03,  -2.38496E-03,  -1.18051E-03,   561.095E-06
C:/temp/dataset/3/2_1.odb,Step-1,Increment      1: Step Time =    1.000,"PART-1-1",           501,      -2.45538,      -26.3836,            0.,NA,NA,"",   1.99658E-03,  -1.91608E-03,  -561.212E-06,   433.826E-06
C:/temp/dataset/3/2_1.odb,Step-1,Increment      1: Step Time =    1.000,"PART-1-1",           502,      -1.22498,      -27.6390,            0.,NA,NA,"",   1.68319E-03,  -1.54666E-03,  -664.041E-06,   582.875E-06
C:/temp/dataset/3/2_1.odb,Step-1,Increment      1: Step Time =    1.000,"PART-1-1",           503,      -3.70005,      -25.1329,            0.,NA,NA,"",   1.98129E-03,  -1.96056E-03,  -285.889E-06,   312.149E-06
C:/temp/dataset/3/2_1.odb,Step-1,Increment      1: Step Time =    1.000,"PART-1-1",           504,      -7.49141,      -28.7797,            0.,NA,NA,"",   491.317E-06,  -490.336E-06,  -31.0317E-06,   253.416E-06
C:/temp/dataset/3/2_1.odb,Step-1,Increment      1: Step Time =    1.000,"PART-1-1",           505,         -6.25,          -30.,            0.,NA,NA,"",            0.,  -318.285E-42,  -186.350E-42,   348.527E-06
C:/temp/dataset/3/2_1.odb,Step-1,Increment      1: Step Time =    1.000,"PART-1-1",           506,      -12.4949,      -26.2800,            0.,NA,NA,"",   895.895E-06,  -891.294E-06,  -90.6776E-06,   98.9967E-06
C:/temp/dataset/3/2_1.odb,Step-1,Increment      1: Step Time =    1.000,"PART-1-1",           507,          -15.,        -26.25,            0.,NA,NA,"",   999.275E-06,  -910.313E-06,  -412.167E-06,   31.6565E-06
C:/temp/dataset/3/2_1.odb,Step-1,Increment      1: Step Time =    1.000,"PART-1-1",           508,       12.0036,      -23.8365,            0.,NA,NA,"",   5.06139E-03,   3.03857E-03,   4.04781E-03,   1.60829E-03
C:/temp/dataset/3/2_1.odb,Step-1,Increment      1: Step Time =    1.000,"PART-1-1",           509,       13.6432,      -25.0896,            0.,NA,NA,"",   6.22899E-03,   2.58765E-03,   5.66607E-03,   1.89188E-03
C:/temp/dataset/3/2_1.odb,Step-1,Increment      1: Step Time =    1.000,"PART-1-1",           510,           15.,        -23.75,            0.,NA,NA,"",   10.1933E-03,   289.594E-06,   10.1891E-03,   2.99387E-03
C:/temp/dataset/3/2_1.odb,Step-1,Increment      1: Step Time =    1.000,"PART-1-1",           511,         11.25,          -30.,            0.,NA,NA,"",            0.,   1.08555E-39,   545.284E-42,   1.05154E-03
C:/temp/dataset/3/2_1.odb,Step-1,Increment      1: Step Time =    1.000,"PART-1-1",           512,       13.9281,      -14.6298,            0.,NA,NA,"",   56.2294E-03,  -43.9747E-03,   35.0424E-03,   3.79040E-03
C:/temp/dataset/3/2_1.odb,Step-1,Increment      1: Step Time =    1.000,"PART-1-1",           513,       12.2657,      -15.3468,            0.,NA,NA,"",   39.0873E-03,  -35.0311E-03,   17.3388E-03,   1.89880E-03
C:/temp/dataset/3/2_1.odb,Step-1,Increment      1: Step Time =    1.000,"PART-1-1",           514,           15.,        -16.25,            0.,NA,NA,"",   49.7167E-03,  -31.6473E-03,   38.3432E-03,   4.93532E-03
C:/temp/dataset/3/2_1.odb,Step-1,Increment      1: Step Time =    1.000,"PART-1-1",           515,       7.13425,      -14.5121,            0.,NA,NA,"",   55.8510E-03,  -44.7974E-03,  -33.3545E-03,   4.11509E-03
C:/temp/dataset/3/2_1.odb,Step-1,Increment      1: Step Time =    1.000,"PART-1-1",           516,       6.81531,      -16.2905,            0.,NA,NA,"",   41.0979E-03,  -28.6621E-03,  -29.4537E-03,   4.37012E-03
C:/temp/dataset/3/2_1.odb,Step-1,Increment      1: Step Time =    1.000,"PART-1-1",           517,       8.10983,      -17.0757,            0.,NA,NA,"",   26.8195E-03,  -20.7362E-03,  -17.0087E-03,   2.71482E-03
C:/temp/dataset/3/2_1.odb,Step-1,Increment      1: Step Time =    1.000,"PART-1-1",           518,       13.8641,      -7.41825,            0.,NA,NA,"",   154.518E-03,  -143.261E-03,   57.8954E-03,   3.67602E-03
C:/temp/dataset/3/2_1.odb,Step-1,Increment      1: Step Time =    1.000,"PART-1-1",           519,       13.0286,      -8.63342,            0.,NA,NA,"",   127.765E-03,  -121.159E-03,   40.5529E-03,   2.78481E-03
C:/temp/dataset/3/2_1.odb,Step-1,Increment      1: Step Time =    1.000,"PART-1-1",           520,       14.1645,      -9.96517,            0.,NA,NA,"",   115.668E-03,  -102.187E-03,   54.1918E-03,   4.10845E-03
C:/temp/dataset/3/2_1.odb,Step-1,Increment      1: Step Time =    1.000,"PART-1-1",           521,           15.,         -8.75,            0.,NA,NA,"",   142.496E-03,  -122.981E-03,   71.9777E-03,   5.02115E-03
C:/temp/dataset/3/2_1.odb,Step-1,Increment      1: Step Time =    1.000,"PART-1-1",           522,       12.0251,      -10.9831,            0.,NA,NA,"",   87.1622E-03,  -84.5567E-03,   21.1519E-03,   1.63750E-03
C:/temp/dataset/3/2_1.odb,Step-1,Increment      1: Step Time =    1.000,"PART-1-1",           523,       12.8055,      -11.9581,            0.,NA,NA,"",   78.3284E-03,  -72.4581E-03,   29.7516E-03,   2.50941E-03
C:/temp/dataset/3/2_1.odb,Step-1,Increment      1: Step Time =    1.000,"PART-1-1",           524,       13.3751,      -11.0455,            0.,NA,NA,"",   94.0333E-03,  -85.3214E-03,   39.5288E-03,   3.17894E-03
C:/temp/dataset/3/2_1.odb,Step-1,Increment      1: Step Time =    1.000,"PART-1-1",           525,       12.5947,      -10.0706,            0.,NA,NA,"",   102.889E-03,  -98.1827E-03,   30.7617E-03,   2.29720E-03
C:/temp/dataset/3/2_1.odb,Step-1,Increment      1: Step Time =    1.000,"PART-1-1",           526,       11.4853,  -434.223E-03,            0.,NA,NA,"",   288.314E-03,  -287.530E-03,   21.2485E-03,   743.365E-06
C:/temp/dataset/3/2_1.odb,Step-1,Increment      1: Step Time =    1.000,"PART-1-1",           527,       10.5886,      -1.82652,            0.,NA,NA,"",   255.011E-03,  -255.009E-03,   796.637E-06,   550.174E-06
C:/temp/dataset/3/2_1.odb,Step-1,Increment      1: Step Time =    1.000,"PART-1-1",           528,       11.9063,      -2.70193,            0.,NA,NA,"",   237.514E-03,  -235.699E-03,   29.3069E-03,   1.37862E-03
C:/temp/dataset/3/2_1.odb,Step-1,Increment      1: Step Time =    1.000,"PART-1-1",           529,       14.1300,       7.44597,            0.,NA,NA,"",   510.197E-03,  -499.068E-03,   105.981E-03,   4.13943E-03
C:/temp/dataset/3/2_1.odb,Step-1,Increment      1: Step Time =    1.000,"PART-1-1",           530,       13.1865,       6.25975,            0.,NA,NA,"",   468.158E-03,  -462.171E-03,   74.6274E-03,   2.98455E-03
C:/temp/dataset/3/2_1.odb,Step-1,Increment      1: Step Time =    1.000,"PART-1-1",           531,           15.,          6.25,            0.,NA,NA,"",   482.962E-03,  -465.881E-03,   127.307E-03,   4.93629E-03
C:/temp/dataset/3/2_1.odb,Step-1,Increment      1: Step Time =    1.000,"PART-1-1",           532,       12.4155,       5.33720,            0.,NA,NA,"",   437.792E-03,  -434.860E-03,   50.5866E-03,   2.15988E-03
C:/temp/dataset/3/2_1.odb,Step-1,Increment      1: Step Time =    1.000,"PART-1-1",           533,       11.2733,       3.54111,            0.,NA,NA,"",   385.833E-03,  -385.454E-03,   17.0961E-03,   1.09056E-03
C:/temp/dataset/3/2_1.odb,Step-1,Increment      1: Step Time =    1.000,"PART-1-1",           534,       12.2480,       13.5548,            0.,NA,NA,"",   703.072E-03,  -700.811E-03,   56.3348E-03,   2.02409E-03
C:/temp/dataset/3/2_1.odb,Step-1,Increment      1: Step Time =    1.000,"PART-1-1",           535,           15.,         13.75,            0.,NA,NA,"",   732.164E-03,  -714.666E-03,   159.113E-03,   5.47493E-03
C:/temp/dataset/3/2_1.odb,Step-1,Increment      1: Step Time =    1.000,"PART-1-1",           536,       13.6600,       14.9734,            0.,NA,NA,"",   765.949E-03,  -757.648E-03,   112.457E-03,   3.79848E-03
C:/temp/dataset/3/2_1.odb,Step-1,Increment      1: Step Time =    1.000,"PART-1-1",           537,       8.15326,       10.4556,            0.,NA,NA,"",   595.662E-03,  -589.537E-03,  -85.2031E-03,   2.98087E-03
C:/temp/dataset/3/2_1.odb,Step-1,Increment      1: Step Time =    1.000,"PART-1-1",           538,       12.3824,       21.2920,            0.,NA,NA,"",       1.02822,      -1.02587,   69.4977E-03,   2.43958E-03
C:/temp/dataset/3/2_1.odb,Step-1,Increment      1: Step Time =    1.000,"PART-1-1",           539,       13.6892,       20.0188,            0.,NA,NA,"",   978.208E-03,  -970.120E-03,   125.531E-03,   3.38529E-03
C:/temp/dataset/3/2_1.odb,Step-1,Increment      1: Step Time =    1.000,"PART-1-1",           540,           15.,         21.25,            0.,NA,NA,"",       1.04693,      -1.03006,   187.153E-03,   3.96486E-03
C:/temp/dataset/3/2_1.odb,Step-1,Increment      1: Step Time =    1.000,"PART-1-1",           541,       13.6932,       22.5232,            0.,NA,NA,"",       1.09440,      -1.08673,   129.312E-03,   2.62603E-03
C:/temp/dataset/3/2_1.odb,Step-1,Increment      1: Step Time =    1.000,"PART-1-1",           542,       9.77662,       16.3041,            0.,NA,NA,"",   805.260E-03,  -804.288E-03,  -39.5536E-03,   823.216E-06
C:/temp/dataset/3/2_1.odb,Step-1,Increment      1: Step Time =    1.000,"PART-1-1",           543,       11.0318,       15.0036,            0.,NA,NA,"",   754.182E-03,  -754.102E-03,   10.9394E-03,   608.590E-06
C:/temp/dataset/3/2_1.odb,Step-1,Increment      1: Step Time =    1.000,"PART-1-1",           544,       12.3430,       16.2301,            0.,NA,NA,"",   807.099E-03,  -804.633E-03,   63.0413E-03,   2.18019E-03
C:/temp/dataset/3/2_1.odb,Step-1,Increment      1: Step Time =    1.000,"PART-1-1",           545,         13.75,           30.,            0.,NA,NA,"",       1.45452,      -1.44876,   129.365E-03,   128.392E-06
C:/temp/dataset/3/2_1.odb,Step-1,Increment      1: Step Time =    1.000,"PART-1-1",           546,       12.4862,       28.7548,            0.,NA,NA,"",       1.38986,      -1.38805,   70.9810E-03,   768.441E-06
C:/temp/dataset/3/2_1.odb,Step-1,Increment      1: Step Time =    1.000,"PART-1-1",           547,           15.,         28.75,            0.,NA,NA,"",       1.40338,      -1.39039,   190.489E-03,   130.067E-06
C:/temp/dataset/3/2_1.odb,Step-1,Increment      1: Step Time =    1.000,"PART-1-1",           548,       12.4064,       23.7898,            0.,NA,NA,"",       1.14763,      -1.14543,   71.0744E-03,   2.34379E-03
C:/temp/dataset/3/2_1.odb,Step-1,Increment      1: Step Time =    1.000,"PART-1-1",           549,           15.,         23.75,            0.,NA,NA,"",       1.16436,      -1.14845,   191.793E-03,   2.49570E-03
C:/temp/dataset/3/2_1.odb,Step-1,Increment      1: Step Time =    1.000,"PART-1-1",           550,       9.91541,       26.3072,            0.,NA,NA,"",       1.26764,      -1.26683,  -45.5463E-03,   2.20702E-03
C:/temp/dataset/3/2_1.odb,Step-1,Increment      1: Step Time =    1.000,"PART-1-1",           551,       11.1537,       25.0565,            0.,NA,NA,"",       1.20597,      -1.20590,   13.1501E-03,   2.26547E-03
C:/temp/dataset/3/2_1.odb,Step-1,Increment      1: Step Time =    1.000,"PART-1-1",           552,       11.2110,       27.5221,            0.,NA,NA,"",       1.32743,      -1.32737,   12.9068E-03,   1.68830E-03
C:/temp/dataset/3/2_1.odb,Step-1,Increment      1: Step Time =    1.000,"PART-1-1",           553,       8.69233,       27.5515,            0.,NA,NA,"",       1.33238,      -1.32823,  -105.072E-03,   1.96499E-03
C:/temp/dataset/3/2_1.odb,Step-1,Increment      1: Step Time =    1.000,"PART-1-1",           554,       7.41297,       26.3376,            0.,NA,NA,"",       1.27835,      -1.26785,  -163.540E-03,   2.00235E-03
C:/temp/dataset/3/2_1.odb,Step-1,Increment      1: Step Time =    1.000,"PART-1-1",           555,       8.63604,       25.0933,            0.,NA,NA,"",       1.21032,      -1.20594,  -102.922E-03,   2.22851E-03
C:/temp/dataset/3/2_1.odb,Step-1,Increment      1: Step Time =    1.000,"PART-1-1",           556,      -1.26375,       27.5391,            0.,NA,NA,"",       1.46552,      -1.32747,  -620.959E-03,   1.92654E-03
C:/temp/dataset/3/2_1.odb,Step-1,Increment      1: Step Time =    1.000,"PART-1-1",           557,         -1.25,           30.,            0.,NA,NA,"",       1.58858,      -1.45969,  -626.800E-03,   1.69879E-03
C:/temp/dataset/3/2_1.odb,Step-1,Increment      1: Step Time =    1.000,"PART-1-1",           558,      -2.50500,       28.7640,            0.,NA,NA,"",       1.55481,      -1.39217,  -692.305E-03,   1.43700E-03
C:/temp/dataset/3/2_1.odb,Step-1,Increment      1: Step Time =    1.000,"PART-1-1",           559,      -7.50143,       28.7522,            0.,NA,NA,"",       1.68827,      -1.38714,  -962.345E-03,   539.704E-06
C:/temp/dataset/3/2_1.odb,Step-1,Increment      1: Step Time =    1.000,"PART-1-1",           560,         -8.75,           30.,            0.,NA,NA,"",       1.78039,      -1.45188,      -1.03045,   167.985E-06
C:/temp/dataset/3/2_1.odb,Step-1,Increment      1: Step Time =    1.000,"PART-1-1",           561,      -6.25460,       27.5081,            0.,NA,NA,"",       1.59530,      -1.32185,  -893.139E-03,   816.492E-06
C:/temp/dataset/3/2_1.odb,Step-1,Increment      1: Step Time =    1.000,"PART-1-1",           562,        -13.75,           30.,            0.,NA,NA,"",       1.94269,      -1.44519,      -1.29827,   17.4777E-06
C:/temp/dataset/3/2_1.odb,Step-1,Increment      1: Step Time =    1.000,"PART-1-1",           563,          -15.,         28.75,            0.,NA,NA,"",       1.93741,      -1.37638,      -1.36350,   13.3326E-06
C:/temp/dataset/3/2_1.odb,Step-1,Increment      1: Step Time =    1.000,"PART-1-1",           564,      -13.7509,       27.5010,            0.,NA,NA,"",       1.84274,      -1.31124,      -1.29474,   36.7577E-06
C:/temp/dataset/3/2_1.odb,Step-1,Increment      1: Step Time =    1.000,"PART-1-1",           565,          -15.,         26.25,            0.,NA,NA,"",       1.84200,      -1.24236,      -1.35997,   45.6176E-06
C:/temp/dataset/3/2_1.odb,Step-1,Increment      1: Step Time =    1.000,"PART-1-1",           566,      -12.5016,       26.2536,            0.,NA,NA,"",       1.74812,      -1.24619,      -1.22594,   33.2771E-06
C:/temp/dataset/3/2_1.odb,Step-1,Increment      1: Step Time =    1.000,"PART-1-1",           567,      -7.50093,       21.2547,            0.,NA,NA,"",       1.36826,  -984.885E-03,  -949.812E-03,   74.7550E-06
C:/temp/dataset/3/2_1.odb,Step-1,Increment      1: Step Time =    1.000,"PART-1-1",           568,         -6.25,           20.,            0.,NA,NA,"",       1.27263,  -918.994E-03,  -880.363E-03,   24.0501E-06
C:/temp/dataset/3/2_1.odb,Step-1,Increment      1: Step Time =    1.000,"PART-1-1",           569,      -4.99978,       21.2574,            0.,NA,NA,"",       1.28105,  -988.858E-03,  -814.403E-03,   285.072E-06
C:/temp/dataset/3/2_1.odb,Step-1,Increment      1: Step Time =    1.000,"PART-1-1",           570,      -3.74911,       22.5208,            0.,NA,NA,"",       1.29643,      -1.05882,  -748.095E-03,   773.330E-06
C:/temp/dataset/3/2_1.odb,Step-1,Increment      1: Step Time =    1.000,"PART-1-1",           571,         -3.75,           20.,            0.,NA,NA,"",       1.18594,  -922.917E-03,  -744.761E-03,   377.660E-06
C:/temp/dataset/3/2_1.odb,Step-1,Increment      1: Step Time =    1.000,"PART-1-1",           572,      -2.49933,       21.2634,            0.,NA,NA,"",       1.20308,  -993.698E-03,  -678.216E-03,   724.346E-06
C:/temp/dataset/3/2_1.odb,Step-1,Increment      1: Step Time =    1.000,"PART-1-1",           573,         -1.25,           20.,            0.,NA,NA,"",       1.10980,  -928.011E-03,  -608.641E-03,   954.138E-06
C:/temp/dataset/3/2_1.odb,Step-1,Increment      1: Step Time =    1.000,"PART-1-1",           574,  -2.23348E-03,       21.2694,            0.,NA,NA,"",       1.13706,  -999.603E-03,  -541.938E-03,   1.34759E-03
C:/temp/dataset/3/2_1.odb,Step-1,Increment      1: Step Time =    1.000,"PART-1-1",           575,      -1.25156,       22.5328,            0.,NA,NA,"",       1.22735,      -1.06415,  -611.536E-03,   1.34472E-03
C:/temp/dataset/3/2_1.odb,Step-1,Increment      1: Step Time =    1.000,"PART-1-1",           576,         -3.75,           30.,            0.,NA,NA,"",       1.64579,      -1.45804,  -763.378E-03,   1.11053E-03
C:/temp/dataset/3/2_1.odb,Step-1,Increment      1: Step Time =    1.000,"PART-1-1",           577,      -5.00318,       28.7559,            0.,NA,NA,"",       1.61795,      -1.38975,  -828.459E-03,   1.07099E-03
C:/temp/dataset/3/2_1.odb,Step-1,Increment      1: Step Time =    1.000,"PART-1-1",           578,       7.36074,       18.8052,            0.,NA,NA,"",   917.265E-03,  -905.482E-03,  -146.551E-03,   2.60855E-03
C:/temp/dataset/3/2_1.odb,Step-1,Increment      1: Step Time =    1.000,"PART-1-1",           579,       8.58169,       17.5494,            0.,NA,NA,"",   859.034E-03,  -854.218E-03,  -90.8376E-03,   2.15493E-03
C:/temp/dataset/3/2_1.odb,Step-1,Increment      1: Step Time =    1.000,"PART-1-1",           580,       8.60057,       20.0599,            0.,NA,NA,"",   967.408E-03,  -962.726E-03,  -95.0653E-03,   1.67288E-03
C:/temp/dataset/3/2_1.odb,Step-1,Increment      1: Step Time =    1.000,"PART-1-1",           581,            5.,         18.75,            0.,NA,NA,"",   938.859E-03,  -905.077E-03,  -249.586E-03,   8.84542E-03
C:/temp/dataset/3/2_1.odb,Step-1,Increment      1: Step Time =    1.000,"PART-1-1",           582,       6.17685,       17.5255,            0.,NA,NA,"",   874.749E-03,  -853.554E-03,  -191.392E-03,   5.58950E-03
C:/temp/dataset/3/2_1.odb,Step-1,Increment      1: Step Time =    1.000,"PART-1-1",           583,       6.18390,       20.0298,            0.,NA,NA,"",   977.981E-03,  -956.576E-03,  -203.494E-03,   5.01532E-03
C:/temp/dataset/3/2_1.odb,Step-1,Increment      1: Step Time =    1.000,"PART-1-1",           584,            5.,         16.25,            0.,NA,NA,"",   838.208E-03,  -806.012E-03,  -230.083E-03,   6.95747E-03
C:/temp/dataset/3/2_1.odb,Step-1,Increment      1: Step Time =    1.000,"PART-1-1",           585,       6.15340,       15.0385,            0.,NA,NA,"",   777.330E-03,  -756.748E-03,  -177.691E-03,   5.44882E-03
C:/temp/dataset/3/2_1.odb,Step-1,Increment      1: Step Time =    1.000,"PART-1-1",           586,       7.33024,       16.3140,            0.,NA,NA,"",   816.224E-03,  -804.505E-03,  -137.813E-03,   3.93243E-03
C:/temp/dataset/3/2_1.odb,Step-1,Increment      1: Step Time =    1.000,"PART-1-1",           587,           15.,         16.25,            0.,NA,NA,"",   829.711E-03,  -812.197E-03,   169.575E-03,   5.40046E-03
C:/temp/dataset/3/2_1.odb,Step-1,Increment      1: Step Time =    1.000,"PART-1-1",           588,       13.6830,       17.5067,            0.,NA,NA,"",   868.616E-03,  -860.313E-03,   119.819E-03,   3.74181E-03
C:/temp/dataset/3/2_1.odb,Step-1,Increment      1: Step Time =    1.000,"PART-1-1",           589,           15.,         18.75,            0.,NA,NA,"",   934.780E-03,  -917.422E-03,   179.308E-03,   4.96512E-03
C:/temp/dataset/3/2_1.odb,Step-1,Increment      1: Step Time =    1.000,"PART-1-1",           590,       7.36831,       6.81272,            0.,NA,NA,"",   484.442E-03,  -474.585E-03,  -97.2269E-03,   3.06254E-03
C:/temp/dataset/3/2_1.odb,Step-1,Increment      1: Step Time =    1.000,"PART-1-1",           591,       6.10412,       7.73110,            0.,NA,NA,"",   522.923E-03,  -504.147E-03,  -138.868E-03,   5.57136E-03
C:/temp/dataset/3/2_1.odb,Step-1,Increment      1: Step Time =    1.000,"PART-1-1",           592,            5.,          6.25,            0.,NA,NA,"",   489.478E-03,  -461.941E-03,  -161.860E-03,   8.38826E-03
C:/temp/dataset/3/2_1.odb,Step-1,Increment      1: Step Time =    1.000,"PART-1-1",           593,       6.26419,       5.33162,            0.,NA,NA,"",   449.515E-03,  -432.467E-03,  -122.623E-03,   4.76768E-03
C:/temp/dataset/3/2_1.odb,Step-1,Increment      1: Step Time =    1.000,"PART-1-1",           594,           15.,          8.75,            0.,NA,NA,"",   558.915E-03,  -541.679E-03,   137.730E-03,   5.26598E-03
C:/temp/dataset/3/2_1.odb,Step-1,Increment      1: Step Time =    1.000,"PART-1-1",           595,       13.1418,       8.51598,            0.,NA,NA,"",   535.654E-03,  -529.891E-03,   78.3650E-03,   3.04319E-03
C:/temp/dataset/3/2_1.odb,Step-1,Increment      1: Step Time =    1.000,"PART-1-1",           596,       6.30252,      -5.49102,            0.,NA,NA,"",   194.890E-03,  -176.290E-03,  -83.0921E-03,   4.67755E-03
C:/temp/dataset/3/2_1.odb,Step-1,Increment      1: Step Time =    1.000,"PART-1-1",           597,            5.,         -6.25,            0.,NA,NA,"",   196.575E-03,  -165.569E-03,  -105.965E-03,   8.19811E-03
C:/temp/dataset/3/2_1.odb,Step-1,Increment      1: Step Time =    1.000,"PART-1-1",           598,       6.10325,      -7.87566,            0.,NA,NA,"",   154.928E-03,  -134.927E-03,  -76.1391E-03,   5.39910E-03
C:/temp/dataset/3/2_1.odb,Step-1,Increment      1: Step Time =    1.000,"PART-1-1",           599,       7.40577,      -7.11668,            0.,NA,NA,"",   156.062E-03,  -145.690E-03,  -55.9433E-03,   3.03657E-03
C:/temp/dataset/3/2_1.odb,Step-1,Increment      1: Step Time =    1.000,"PART-1-1",           600,            5.,         -8.75,            0.,NA,NA,"",   152.633E-03,  -124.057E-03,  -88.9204E-03,   6.71678E-03
C:/temp/dataset/3/2_1.odb,Step-1,Increment      1: Step Time =    1.000,"PART-1-1",           601,            5.,        -13.75,            0.,NA,NA,"",   82.7666E-03,  -57.5887E-03,  -59.4461E-03,   6.38589E-03
C:/temp/dataset/3/2_1.odb,Step-1,Increment      1: Step Time =    1.000,"PART-1-1",           602,       5.77894,      -15.1288,            0.,NA,NA,"",   60.6432E-03,  -41.6225E-03,  -44.1039E-03,   5.59485E-03
C:/temp/dataset/3/2_1.odb,Step-1,Increment      1: Step Time =    1.000,"PART-1-1",           603,            5.,        -16.25,            0.,NA,NA,"",   56.3145E-03,  -33.5522E-03,  -45.2280E-03,   6.48813E-03
C:/temp/dataset/3/2_1.odb,Step-1,Increment      1: Step Time =    1.000,"PART-1-1",           604,       2.77244,      -24.0596,            0.,NA,NA,"",   5.85567E-03,  -2.66813E-03,  -5.21248E-03,   1.59749E-03
C:/temp/dataset/3/2_1.odb,Step-1,Increment      1: Step Time =    1.000,"PART-1-1",           605,       3.76359,      -25.5842,            0.,NA,NA,"",   4.75068E-03,  -1.36610E-03,  -4.55003E-03,   1.62847E-03
C:/temp/dataset/3/2_1.odb,Step-1,Increment      1: Step Time =    1.000,"PART-1-1",           606,       5.11162,      -24.8806,            0.,NA,NA,"",   6.35298E-03,  -505.946E-06,  -6.33280E-03,   2.17669E-03
C:/temp/dataset/3/2_1.odb,Step-1,Increment      1: Step Time =    1.000,"PART-1-1",           607,       4.12047,      -23.3559,            0.,NA,NA,"",   8.68251E-03,  -2.39143E-03,  -8.34668E-03,   2.26443E-03
C:/temp/dataset/3/2_1.odb,Step-1,Increment      1: Step Time =    1.000,"PART-1-1",           608,       8.48587,      -2.76980,            0.,NA,NA,"",   238.701E-03,  -234.579E-03,  -44.1670E-03,   2.27858E-03
C:/temp/dataset/3/2_1.odb,Step-1,Increment      1: Step Time =    1.000,"PART-1-1",           609,       9.66601,      -3.38468,            0.,NA,NA,"",   220.843E-03,  -220.105E-03,  -18.0454E-03,   1.15106E-03
C:/temp/dataset/3/2_1.odb,Step-1,Increment      1: Step Time =    1.000,"PART-1-1",           610,       9.40849,      -1.21164,            0.,NA,NA,"",   270.957E-03,  -269.675E-03,  -26.3260E-03,   1.49758E-03
C:/temp/dataset/3/2_1.odb,Step-1,Increment      1: Step Time =    1.000,"PART-1-1",           611,       3.88333,            5.,            0.,NA,NA,"",   456.263E-03,  -423.995E-03,  -168.536E-03,   2.53107E-03
C:/temp/dataset/3/2_1.odb,Step-1,Increment      1: Step Time =    1.000,"PART-1-1",           612,       3.93709,       2.49951,            0.,NA,NA,"",   401.750E-03,  -366.379E-03,  -164.832E-03,   2.26921E-03
C:/temp/dataset/3/2_1.odb,Step-1,Increment      1: Step Time =    1.000,"PART-1-1",           613,       5.14044,       3.62548,            0.,NA,NA,"",   417.266E-03,  -392.215E-03,  -142.401E-03,   4.75095E-03
C:/temp/dataset/3/2_1.odb,Step-1,Increment      1: Step Time =    1.000,"PART-1-1",           614,       1.70000,           -5.,            0.,NA,NA,"",   279.790E-03,  -185.763E-03,  -209.224E-03,   567.178E-06
C:/temp/dataset/3/2_1.odb,Step-1,Increment      1: Step Time =    1.000,"PART-1-1",           615,       2.88648,      -4.17028,            0.,NA,NA,"",   273.615E-03,  -206.945E-03,  -178.995E-03,   867.000E-06
C:/temp/dataset/3/2_1.odb,Step-1,Increment      1: Step Time =    1.000,"PART-1-1",           616,       1.90498,      -3.27989,            0.,NA,NA,"",   306.917E-03,  -228.672E-03,  -204.713E-03,   547.816E-06
C:/temp/dataset/3/2_1.odb,Step-1,Increment      1: Step Time =    1.000,"PART-1-1",           617,      -2.82853,       3.20340,            0.,NA,NA,"",   498.771E-03,  -381.892E-03,  -320.829E-03,   137.841E-06
C:/temp/dataset/3/2_1.odb,Step-1,Increment      1: Step Time =    1.000,"PART-1-1",           618,      -1.73717,       4.08745,            0.,NA,NA,"",   499.516E-03,  -402.980E-03,  -295.168E-03,   178.720E-06
C:/temp/dataset/3/2_1.odb,Step-1,Increment      1: Step Time =    1.000,"PART-1-1",           619,      -2.81667,            5.,            0.,NA,NA,"",   532.226E-03,  -424.431E-03,  -321.127E-03,   180.594E-06
C:/temp/dataset/3/2_1.odb,Step-1,Increment      1: Step Time =    1.000,"PART-1-1",           620,      -7.28333,            5.,            0.,NA,NA,"",   601.774E-03,  -423.463E-03,  -427.565E-03,   19.3843E-06
C:/temp/dataset/3/2_1.odb,Step-1,Increment      1: Step Time =    1.000,"PART-1-1",           621,      -11.7000,            5.,            0.,NA,NA,"",   679.810E-03,  -422.221E-03,  -532.796E-03,   489.361E-09
C:/temp/dataset/3/2_1.odb,Step-1,Increment      1: Step Time =    1.000,"PART-1-1",           622,      -11.5540,       2.50359,            0.,NA,NA,"",   641.136E-03,  -362.802E-03,  -528.611E-03,   2.67346E-06
C:/temp/dataset/3/2_1.odb,Step-1,Increment      1: Step Time =    1.000,"PART-1-1",           623,      -8.37698,      -4.01732,            0.,NA,NA,"",   496.955E-03,  -208.405E-03,  -451.145E-03,   9.03035E-06
C:/temp/dataset/3/2_1.odb,Step-1,Increment      1: Step Time =    1.000,"PART-1-1",           624,      -10.5279,      -3.86372,            0.,NA,NA,"",   545.077E-03,  -211.458E-03,  -502.388E-03,   2.03936E-06
C:/temp/dataset/3/2_1.odb,Step-1,Increment      1: Step Time =    1.000,"PART-1-1",           625,      -9.41667,           -5.,            0.,NA,NA,"",   510.223E-03,  -184.719E-03,  -475.612E-03,   3.45427E-06
C:/temp/dataset/3/2_1.odb,Step-1,Increment      1: Step Time =    1.000,"PART-1-1",           626,          3.75,          -20.,            0.,NA,NA,"",   9.77108E-03,  -1.84247E-03,  -9.59580E-03,   3.04720E-03
C:/temp/dataset/3/2_1.odb,Step-1,Increment      1: Step Time =    1.000,"PART-1-1",           627,       2.74072,      -21.3682,            0.,NA,NA,"",   7.58799E-03,  -3.05705E-03,  -6.94493E-03,   1.08043E-03
C:/temp/dataset/3/2_1.odb,Step-1,Increment      1: Step Time =    1.000,"PART-1-1",           628,       4.11640,      -22.1674,            0.,NA,NA,"",   10.9499E-03,  -3.46267E-03,  -10.3879E-03,   2.81731E-03
C:/temp/dataset/3/2_1.odb,Step-1,Increment      1: Step Time =    1.000,"PART-1-1",           629,       5.12568,      -20.7992,            0.,NA,NA,"",   17.2041E-03,  -3.69599E-03,  -16.8024E-03,   4.88055E-03
C:/temp/dataset/3/2_1.odb,Step-1,Increment      1: Step Time =    1.000,"PART-1-1",           630,          1.25,          -20.,            0.,NA,NA,"",   3.50220E-03,  -405.656E-06,  -3.47863E-03,   310.426E-06
C:/temp/dataset/3/2_1.odb,Step-1,Increment      1: Step Time =    1.000,"PART-1-1",           631,   73.0809E-03,      -21.3299,            0.,NA,NA,"",   2.84288E-03,  -1.84776E-03,  -2.16050E-03,   248.063E-06
C:/temp/dataset/3/2_1.odb,Step-1,Increment      1: Step Time =    1.000,"PART-1-1",           632,       1.56380,      -22.6981,            0.,NA,NA,"",   5.23714E-03,  -3.03533E-03,  -4.26784E-03,   1.22330E-03
C:/temp/dataset/3/2_1.odb,Step-1,Increment      1: Step Time =    1.000,"PART-1-1",           633,         -1.25,          -20.,            0.,NA,NA,"",   1.57802E-03,  -1.00439E-03,  -1.21711E-03,   153.312E-06
C:/temp/dataset/3/2_1.odb,Step-1,Increment      1: Step Time =    1.000,"PART-1-1",           634,      -2.46493,      -21.3147,            0.,NA,NA,"",   1.75773E-03,  -1.66306E-03,  -569.085E-06,   47.0541E-06
C:/temp/dataset/3/2_1.odb,Step-1,Increment      1: Step Time =    1.000,"PART-1-1",           635,      -1.14185,      -22.6446,            0.,NA,NA,"",   2.64544E-03,  -2.30862E-03,  -1.29175E-03,   385.330E-06
C:/temp/dataset/3/2_1.odb,Step-1,Increment      1: Step Time =    1.000,"PART-1-1",           636,         -3.75,          -20.,            0.,NA,NA,"",   1.28451E-03,  -1.27413E-03,  -162.919E-06,   101.043E-06
C:/temp/dataset/3/2_1.odb,Step-1,Increment      1: Step Time =    1.000,"PART-1-1",           637,      -4.97847,      -21.2978,            0.,NA,NA,"",   1.59094E-03,  -1.58864E-03,   85.6482E-06,   12.0621E-06
C:/temp/dataset/3/2_1.odb,Step-1,Increment      1: Step Time =    1.000,"PART-1-1",           638,      -3.69340,      -22.6125,            0.,NA,NA,"",   1.89655E-03,  -1.88729E-03,  -187.224E-06,   151.261E-06
C:/temp/dataset/3/2_1.odb,Step-1,Increment      1: Step Time =    1.000,"PART-1-1",           639,      -4.95791,      -23.8547,            0.,NA,NA,"",   1.82378E-03,  -1.82374E-03,  -11.1225E-06,   169.679E-06
C:/temp/dataset/3/2_1.odb,Step-1,Increment      1: Step Time =    1.000,"PART-1-1",           640,      -6.21189,      -22.5887,            0.,NA,NA,"",   1.66963E-03,  -1.66147E-03,   164.839E-06,   85.2863E-06
C:/temp/dataset/3/2_1.odb,Step-1,Increment      1: Step Time =    1.000,"PART-1-1",           641,      -7.46939,      -23.8324,            0.,NA,NA,"",   1.55188E-03,  -1.54438E-03,   152.447E-06,   105.536E-06
C:/temp/dataset/3/2_1.odb,Step-1,Increment      1: Step Time =    1.000,"PART-1-1",           642,           15.,        -13.75,            0.,NA,NA,"",   74.2087E-03,  -55.2469E-03,   49.5450E-03,   5.07399E-03
C:/temp/dataset/3/2_1.odb,Step-1,Increment      1: Step Time =    1.000,"PART-1-1",           643,       14.2106,      -12.3304,            0.,NA,NA,"",   83.9024E-03,  -70.0060E-03,   46.2468E-03,   4.16690E-03
C:/temp/dataset/3/2_1.odb,Step-1,Increment      1: Step Time =    1.000,"PART-1-1",           644,       13.1387,      -13.2101,            0.,NA,NA,"",   65.5130E-03,  -57.8135E-03,   30.8148E-03,   2.88903E-03
C:/temp/dataset/3/2_1.odb,Step-1,Increment      1: Step Time =    1.000,"PART-1-1",           645,           15.,        -11.25,            0.,NA,NA,"",   105.085E-03,  -85.6976E-03,   60.8184E-03,   5.09780E-03
C:/temp/dataset/3/2_1.odb,Step-1,Increment      1: Step Time =    1.000,"PART-1-1",           646,           15.,         -6.25,            0.,NA,NA,"",   186.387E-03,  -167.045E-03,   82.6800E-03,   4.76037E-03
C:/temp/dataset/3/2_1.odb,Step-1,Increment      1: Step Time =    1.000,"PART-1-1",           647,       14.0624,      -4.92369,            0.,NA,NA,"",   203.312E-03,  -191.136E-03,   69.3025E-03,   3.63870E-03
C:/temp/dataset/3/2_1.odb,Step-1,Increment      1: Step Time =    1.000,"PART-1-1",           648,       12.9264,      -6.09194,            0.,NA,NA,"",   172.125E-03,  -166.270E-03,   44.5114E-03,   2.59107E-03
C:/temp/dataset/3/2_1.odb,Step-1,Increment      1: Step Time =    1.000,"PART-1-1",           649,           15.,         -3.75,            0.,NA,NA,"",   236.236E-03,  -217.402E-03,   92.4315E-03,   4.34030E-03
C:/temp/dataset/3/2_1.odb,Step-1,Increment      1: Step Time =    1.000,"PART-1-1",           650,       13.0440,      -3.68493,            0.,NA,NA,"",   221.541E-03,  -215.393E-03,   51.8273E-03,   2.51723E-03
C:/temp/dataset/3/2_1.odb,Step-1,Increment      1: Step Time =    1.000,"PART-1-1",           651,       8.06094,   477.426E-03,            0.,NA,NA,"",   317.164E-03,  -311.132E-03,  -61.5606E-03,   2.59049E-03
C:/temp/dataset/3/2_1.odb,Step-1,Increment      1: Step Time =    1.000,"PART-1-1",           652,       8.76493,       2.31856,            0.,NA,NA,"",   358.041E-03,  -354.775E-03,  -48.2526E-03,   2.17659E-03
C:/temp/dataset/3/2_1.odb,Step-1,Increment      1: Step Time =    1.000,"PART-1-1",           653,       6.73548,       2.80805,            0.,NA,NA,"",   382.914E-03,  -369.322E-03,  -101.117E-03,   3.47799E-03
C:/temp/dataset/3/2_1.odb,Step-1,Increment      1: Step Time =    1.000,"PART-1-1",           654,       6.03149,   966.916E-03,            0.,NA,NA,"",   345.012E-03,  -326.343E-03,  -111.953E-03,   3.54097E-03
C:/temp/dataset/3/2_1.odb,Step-1,Increment      1: Step Time =    1.000,"PART-1-1",           655,            5.,          8.75,            0.,NA,NA,"",   568.390E-03,  -539.030E-03,  -180.314E-03,   6.95308E-03
C:/temp/dataset/3/2_1.odb,Step-1,Increment      1: Step Time =    1.000,"PART-1-1",           656,       7.16919,       9.14751,            0.,NA,NA,"",   558.874E-03,  -547.385E-03,  -112.738E-03,   4.13223E-03
C:/temp/dataset/3/2_1.odb,Step-1,Increment      1: Step Time =    1.000,"PART-1-1",           657,          3.75,           30.,            0.,NA,NA,"",       1.49841,      -1.45551,  -356.021E-03,   3.23855E-03
C:/temp/dataset/3/2_1.odb,Step-1,Increment      1: Step Time =    1.000,"PART-1-1",           658,       3.71036,       27.5731,            0.,NA,NA,"",       1.37652,      -1.33075,  -352.044E-03,   1.69710E-03
C:/temp/dataset/3/2_1.odb,Step-1,Increment      1: Step Time =    1.000,"PART-1-1",           659,       7.38617,       23.8490,            0.,NA,NA,"",       1.15448,      -1.14350,  -158.817E-03,   2.35373E-03
C:/temp/dataset/3/2_1.odb,Step-1,Increment      1: Step Time =    1.000,"PART-1-1",           660,       6.16255,       25.1024,            0.,NA,NA,"",       1.22609,      -1.20593,  -221.438E-03,   1.66043E-03
C:/temp/dataset/3/2_1.odb,Step-1,Increment      1: Step Time =    1.000,"PART-1-1",           661,       4.93576,       23.8439,            0.,NA,NA,"",       1.17609,      -1.14236,  -279.651E-03,   2.11510E-03
C:/temp/dataset/3/2_1.odb,Step-1,Increment      1: Step Time =    1.000,"PART-1-1",           662,       6.15938,       22.5905,            0.,NA,NA,"",       1.10156,      -1.08056,  -214.025E-03,   2.51139E-03
C:/temp/dataset/3/2_1.odb,Step-1,Increment      1: Step Time =    1.000,"PART-1-1",           663,      -10.0017,       23.7560,            0.,NA,NA,"",       1.55855,      -1.11578,      -1.08817,   39.7865E-06
C:/temp/dataset/3/2_1.odb,Step-1,Increment      1: Step Time =    1.000,"PART-1-1",           664,      -8.75135,       22.5073,            0.,NA,NA,"",       1.46356,      -1.05047,      -1.01907,   70.2594E-06
C:/temp/dataset/3/2_1.odb,Step-1,Increment      1: Step Time =    1.000,"PART-1-1",           665,      -10.0004,       21.2526,            0.,NA,NA,"",       1.46244,  -981.190E-03,      -1.08443,   44.1357E-06
C:/temp/dataset/3/2_1.odb,Step-1,Increment      1: Step Time =    1.000,"PART-1-1",           666,      -11.2505,       22.5043,            0.,NA,NA,"",       1.55755,      -1.04671,      -1.15342,   34.8792E-06
C:/temp/dataset/3/2_1.odb,Step-1,Increment      1: Step Time =    1.000,"PART-1-1",           667,        -11.25,           20.,            0.,NA,NA,"",       1.46759,  -912.102E-03,      -1.14974,   54.6738E-06
C:/temp/dataset/3/2_1.odb,Step-1,Increment      1: Step Time =    1.000,"PART-1-1",           668,         -8.75,           20.,            0.,NA,NA,"",       1.36712,  -915.528E-03,      -1.01530,   78.1086E-06
C:/temp/dataset/3/2_1.odb,Step-1,Increment      1: Step Time =    1.000,"PART-1-1",           669,       7.37456,       21.3253,            0.,NA,NA,"",       1.03100,      -1.01963,  -152.631E-03,   2.51211E-03
C:/temp/dataset/3/2_1.odb,Step-1,Increment      1: Step Time =    1.000,"PART-1-1",           670,      -1.26076,       25.0501,            0.,NA,NA,"",       1.34582,      -1.19671,  -615.731E-03,   1.68020E-03
C:/temp/dataset/3/2_1.odb,Step-1,Increment      1: Step Time =    1.000,"PART-1-1",           671,      -2.50213,       23.7814,            0.,NA,NA,"",       1.31804,      -1.12802,  -681.777E-03,   1.17554E-03
C:/temp/dataset/3/2_1.odb,Step-1,Increment      1: Step Time =    1.000,"PART-1-1",           672,          1.25,           20.,            0.,NA,NA,"",       1.04708,  -934.321E-03,  -472.684E-03,   2.05889E-03
C:/temp/dataset/3/2_1.odb,Step-1,Increment      1: Step Time =    1.000,"PART-1-1",           673,            5.,         13.75,            0.,NA,NA,"",   741.974E-03,  -710.571E-03,  -213.572E-03,   6.71469E-03
C:/temp/dataset/3/2_1.odb,Step-1,Increment      1: Step Time =    1.000,"PART-1-1",           674,       7.85923,       4.51418,            0.,NA,NA,"",   417.619E-03,  -410.445E-03,  -77.0762E-03,   2.69553E-03
C:/temp/dataset/3/2_1.odb,Step-1,Increment      1: Step Time =    1.000,"PART-1-1",           675,       9.45843,       7.45797,            0.,NA,NA,"",   494.896E-03,  -493.540E-03,  -36.6174E-03,   1.01985E-03
C:/temp/dataset/3/2_1.odb,Step-1,Increment      1: Step Time =    1.000,"PART-1-1",           676,       11.3500,       8.04392,            0.,NA,NA,"",   513.042E-03,  -512.591E-03,   21.5104E-03,   1.09382E-03
C:/temp/dataset/3/2_1.odb,Step-1,Increment      1: Step Time =    1.000,"PART-1-1",           677,       10.2386,       8.70699,            0.,NA,NA,"",   532.515E-03,  -532.342E-03,  -13.5743E-03,   326.663E-06
C:/temp/dataset/3/2_1.odb,Step-1,Increment      1: Step Time =    1.000,"PART-1-1",           678,   133.314E-03,       2.02047,            0.,NA,NA,"",   434.387E-03,  -354.976E-03,  -250.368E-03,   150.293E-06
C:/temp/dataset/3/2_1.odb,Step-1,Increment      1: Step Time =    1.000,"PART-1-1",           679,       2.26054,       1.70692,            0.,NA,NA,"",   401.718E-03,  -348.017E-03,  -200.653E-03,   887.501E-06
C:/temp/dataset/3/2_1.odb,Step-1,Increment      1: Step Time =    1.000,"PART-1-1",           680,  -583.333E-03,            5.,            0.,NA,NA,"",   502.164E-03,  -424.524E-03,  -268.232E-03,   434.138E-06
C:/temp/dataset/3/2_1.odb,Step-1,Increment      1: Step Time =    1.000,"PART-1-1",           681,  -713.179E-03,       3.09316,            0.,NA,NA,"",   466.385E-03,  -379.860E-03,  -270.594E-03,   166.424E-06
C:/temp/dataset/3/2_1.odb,Step-1,Increment      1: Step Time =    1.000,"PART-1-1",           682,      -10.2084,       1.19941,            0.,NA,NA,"",   597.090E-03,  -332.127E-03,  -496.194E-03,   6.43642E-06
C:/temp/dataset/3/2_1.odb,Step-1,Increment      1: Step Time =    1.000,"PART-1-1",           683,      -7.18333,           -5.,            0.,NA,NA,"",   461.325E-03,  -185.338E-03,  -422.458E-03,   19.5152E-06
C:/temp/dataset/3/2_1.odb,Step-1,Increment      1: Step Time =    1.000,"PART-1-1",           684,      -7.36178,      -2.99006,            0.,NA,NA,"",   486.755E-03,  -233.158E-03,  -427.279E-03,   29.4141E-06
C:/temp/dataset/3/2_1.odb,Step-1,Increment      1: Step Time =    1.000,"PART-1-1",           685,      -11.3125,  -91.5578E-03,            0.,NA,NA,"",   602.711E-03,  -301.066E-03,  -522.131E-03,   4.99051E-06
C:/temp/dataset/3/2_1.odb,Step-1,Increment      1: Step Time =    1.000,"PART-1-1",           686,      -11.6500,           -5.,            0.,NA,NA,"",   559.909E-03,  -184.085E-03,  -528.783E-03,   577.476E-09
C:/temp/dataset/3/2_1.odb,Step-1,Increment      1: Step Time =    1.000,"PART-1-1",           687,      -11.6245,      -2.63993,            0.,NA,NA,"",   580.874E-03,  -240.289E-03,  -528.844E-03,   2.36726E-06
C:/temp/dataset/3/2_1.odb,Step-1,Increment      1: Step Time =    1.000,"PART-1-1",           688,      -1.03706,       1.18772,            0.,NA,NA,"",   435.122E-03,  -334.936E-03,  -277.757E-03,   143.071E-06
C:/temp/dataset/3/2_1.odb,Step-1,Increment      1: Step Time =    1.000,"PART-1-1",           689,      -2.26684,   407.252E-03,            0.,NA,NA,"",   440.391E-03,  -315.914E-03,  -306.827E-03,   156.490E-06
C:/temp/dataset/3/2_1.odb,Step-1,Increment      1: Step Time =    1.000,"PART-1-1",           690,      -1.61706,  -775.207E-03,            0.,NA,NA,"",   409.488E-03,  -287.989E-03,  -291.106E-03,   150.897E-06
C:/temp/dataset/3/2_1.odb,Step-1,Increment      1: Step Time =    1.000,"PART-1-1",           691,      -4.44627,  -189.662E-03,            0.,NA,NA,"",   468.091E-03,  -300.857E-03,  -358.600E-03,   101.803E-06
C:/temp/dataset/3/2_1.odb,Step-1,Increment      1: Step Time =    1.000,"PART-1-1",           692,      -3.83065,   850.686E-03,            0.,NA,NA,"",   473.933E-03,  -325.838E-03,  -344.155E-03,   110.402E-06
C:/temp/dataset/3/2_1.odb,Step-1,Increment      1: Step Time =    1.000,"PART-1-1",           693,      -5.38306,   384.196E-03,            0.,NA,NA,"",   493.869E-03,  -314.194E-03,  -381.037E-03,   69.2621E-06
C:/temp/dataset/3/2_1.odb,Step-1,Increment      1: Step Time =    1.000,"PART-1-1",           694,       3.90000,           -5.,            0.,NA,NA,"",   240.008E-03,  -186.111E-03,  -151.547E-03,   2.44764E-03
C:/temp/dataset/3/2_1.odb,Step-1,Increment      1: Step Time =    1.000,"PART-1-1",           695,       5.25667,      -4.01677,            0.,NA,NA,"",   239.353E-03,  -210.717E-03,  -113.527E-03,   5.07097E-03
C:/temp/dataset/3/2_1.odb,Step-1,Increment      1: Step Time =    1.000,"PART-1-1",           696,       4.24316,      -3.18705,            0.,NA,NA,"",   272.146E-03,  -231.161E-03,  -143.626E-03,   2.70950E-03
C:/temp/dataset/3/2_1.odb,Step-1,Increment      1: Step Time =    1.000,"PART-1-1",           697,       9.51721,      -4.82762,            0.,NA,NA,"",   190.181E-03,  -189.157E-03,  -19.7018E-03,   1.03817E-03
C:/temp/dataset/3/2_1.odb,Step-1,Increment      1: Step Time =    1.000,"PART-1-1",           698,       8.04384,      -4.93500,            0.,NA,NA,"",   193.432E-03,  -187.111E-03,  -49.0448E-03,   2.35032E-03
C:/temp/dataset/3/2_1.odb,Step-1,Increment      1: Step Time =    1.000,"PART-1-1",           699,       8.61490,      -6.56470,            0.,NA,NA,"",   158.975E-03,  -155.134E-03,  -34.7358E-03,   1.69022E-03
C:/temp/dataset/3/2_1.odb,Step-1,Increment      1: Step Time =    1.000,"PART-1-1",           700,       10.0883,      -6.45732,            0.,NA,NA,"",   157.268E-03,  -157.072E-03,  -7.85262E-03,   484.946E-06
C:/temp/dataset/3/2_1.odb,Step-1,Increment      1: Step Time =    1.000,"PART-1-1",           701,       9.29828,      -8.00429,            0.,NA,NA,"",   131.033E-03,  -129.421E-03,  -20.4932E-03,   1.22780E-03
C:/temp/dataset/3/2_1.odb,Step-1,Increment      1: Step Time =    1.000,"PART-1-1",           702,       6.27674,      -21.4047,            0.,NA,NA,"",   14.3772E-03,  -1.53987E-03,  -14.2945E-03,   3.35617E-03
C:/temp/dataset/3/2_1.odb,Step-1,Increment      1: Step Time =    1.000,"PART-1-1",           703,       7.27122,      -20.3583,            0.,NA,NA,"",   14.5650E-03,  -2.76166E-03,  -14.3008E-03,   2.60648E-03
C:/temp/dataset/3/2_1.odb,Step-1,Increment      1: Step Time =    1.000,"PART-1-1",           704,         -6.25,          -20.,            0.,NA,NA,"",   1.50372E-03,  -1.49359E-03,   174.287E-06,   70.1352E-06
C:/temp/dataset/3/2_1.odb,Step-1,Increment      1: Step Time =    1.000,"PART-1-1",           705,         -1.25,          -30.,            0.,NA,NA,"",            0.,  -535.450E-42,  -757.560E-42,   665.030E-06
C:/temp/dataset/3/2_1.odb,Step-1,Increment      1: Step Time =    1.000,"PART-1-1",           706,       8.60683,      -25.8105,            0.,NA,NA,"",   3.99615E-03,   2.96277E-03,  -2.68165E-03,   1.34202E-03
C:/temp/dataset/3/2_1.odb,Step-1,Increment      1: Step Time =    1.000,"PART-1-1",           707,       7.41490,      -26.9159,            0.,NA,NA,"",   3.25009E-03,   1.93517E-03,  -2.61117E-03,   1.45001E-03
C:/temp/dataset/3/2_1.odb,Step-1,Increment      1: Step Time =    1.000,"PART-1-1",           708,       6.17638,      -25.8614,            0.,NA,NA,"",   4.72878E-03,   879.698E-06,  -4.64623E-03,   1.69099E-03
C:/temp/dataset/3/2_1.odb,Step-1,Increment      1: Step Time =    1.000,"PART-1-1",           709,       7.37219,      -25.0876,            0.,NA,NA,"",   5.41299E-03,   1.93953E-03,  -5.05358E-03,   1.88426E-03
C:/temp/dataset/3/2_1.odb,Step-1,Increment      1: Step Time =    1.000,"PART-1-1",           710,       6.30743,      -24.1068,            0.,NA,NA,"",   7.70887E-03,   435.751E-06,  -7.69654E-03,   2.14529E-03
C:/temp/dataset/3/2_1.odb,Step-1,Increment      1: Step Time =    1.000,"PART-1-1",           711,   113.079E-03,      -23.9373,            0.,NA,NA,"",   3.55729E-03,  -2.73178E-03,  -2.27853E-03,   724.682E-06
C:/temp/dataset/3/2_1.odb,Step-1,Increment      1: Step Time =    1.000,"PART-1-1",           712,      -2.43554,      -23.8906,            0.,NA,NA,"",   2.33263E-03,  -2.24346E-03,  -638.770E-06,   291.656E-06
C:/temp/dataset/3/2_1.odb,Step-1,Increment      1: Step Time =    1.000,"PART-1-1",           713,      -8.72529,      -25.0755,            0.,NA,NA,"",   1.30704E-03,  -1.30372E-03,   93.0259E-06,   129.619E-06
C:/temp/dataset/3/2_1.odb,Step-1,Increment      1: Step Time =    1.000,"PART-1-1",           714,      -9.97606,      -23.8175,            0.,NA,NA,"",   1.37787E-03,  -1.37477E-03,   92.4850E-06,   62.3655E-06
C:/temp/dataset/3/2_1.odb,Step-1,Increment      1: Step Time =    1.000,"PART-1-1",           715,      -9.99641,      -28.7682,            0.,NA,NA,"",   368.026E-06,  -367.572E-06,  -18.2692E-06,   187.276E-06
C:/temp/dataset/3/2_1.odb,Step-1,Increment      1: Step Time =    1.000,"PART-1-1",           716,      -11.2465,      -27.5281,            0.,NA,NA,"",   646.162E-06,  -645.700E-06,  -24.4346E-06,   154.820E-06
C:/temp/dataset/3/2_1.odb,Step-1,Increment      1: Step Time =    1.000,"PART-1-1",           717,        -11.25,          -30.,            0.,NA,NA,"",            0.,  -162.565E-42,  -86.4923E-42,   175.455E-06
C:/temp/dataset/3/2_1.odb,Step-1,Increment      1: Step Time =    1.000,"PART-1-1",           718,         -8.75,          -30.,            0.,NA,NA,"",            0.,  -223.476E-42,  -93.2928E-42,   243.805E-06
C:/temp/dataset/3/2_1.odb,Step-1,Increment      1: Step Time =    1.000,"PART-1-1",           719,      -8.73783,      -27.5479,            0.,NA,NA,"",   788.929E-06,  -788.929E-06,   93.0122E-09,   205.447E-06
C:/temp/dataset/3/2_1.odb,Step-1,Increment      1: Step Time =    1.000,"PART-1-1",           720,       9.45286,      -20.3748,            0.,NA,NA,"",   5.41262E-03,  -2.60010E-03,  -4.74720E-03,   1.30947E-03
C:/temp/dataset/3/2_1.odb,Step-1,Increment      1: Step Time =    1.000,"PART-1-1",           721,       8.38706,      -19.4374,            0.,NA,NA,"",   12.6204E-03,  -6.21792E-03,  -10.9823E-03,   1.62239E-03
C:/temp/dataset/3/2_1.odb,Step-1,Increment      1: Step Time =    1.000,"PART-1-1",           722,       8.33702,      -21.2957,            0.,NA,NA,"",   8.79690E-03,  -320.661E-06,  -8.79105E-03,   1.97028E-03
C:/temp/dataset/3/2_1.odb,Step-1,Increment      1: Step Time =    1.000,"PART-1-1",           723,       9.34035,      -18.0986,            0.,NA,NA,"",   14.8372E-03,  -13.1368E-03,  -6.89701E-03,   1.05414E-03
C:/temp/dataset/3/2_1.odb,Step-1,Increment      1: Step Time =    1.000,"PART-1-1",           724,       10.7511,      -19.4747,            0.,NA,NA,"",   6.64202E-03,  -6.32475E-03,   2.02830E-03,   1.02648E-03
C:/temp/dataset/3/2_1.odb,Step-1,Increment      1: Step Time =    1.000,"PART-1-1",           725,       9.57777,      -9.07511,            0.,NA,NA,"",   112.881E-03,  -111.917E-03,  -14.7195E-03,   1.03603E-03
C:/temp/dataset/3/2_1.odb,Step-1,Increment      1: Step Time =    1.000,"PART-1-1",           726,       10.3854,      -7.79904,            0.,NA,NA,"",   132.956E-03,  -132.937E-03,  -2.25576E-03,   309.427E-06
C:/temp/dataset/3/2_1.odb,Step-1,Increment      1: Step Time =    1.000,"PART-1-1",           727,       11.9371,      -7.89361,            0.,NA,NA,"",   134.441E-03,  -132.294E-03,   23.9290E-03,   1.60696E-03
C:/temp/dataset/3/2_1.odb,Step-1,Increment      1: Step Time =    1.000,"PART-1-1",           728,       11.6400,      -6.55190,            0.,NA,NA,"",   157.437E-03,  -156.126E-03,   20.2744E-03,   1.39474E-03
C:/temp/dataset/3/2_1.odb,Step-1,Increment      1: Step Time =    1.000,"PART-1-1",           729,       9.29748,       3.92298,            0.,NA,NA,"",   396.569E-03,  -394.854E-03,  -36.8443E-03,   1.48158E-03
C:/temp/dataset/3/2_1.odb,Step-1,Increment      1: Step Time =    1.000,"PART-1-1",           730,       10.7408,       1.93669,            0.,NA,NA,"",   344.673E-03,  -344.660E-03,   3.00365E-03,   645.777E-06
C:/temp/dataset/3/2_1.odb,Step-1,Increment      1: Step Time =    1.000,"PART-1-1",           731,       12.1175,       9.30164,            0.,NA,NA,"",   555.142E-03,  -553.155E-03,   46.9217E-03,   1.90710E-03
C:/temp/dataset/3/2_1.odb,Step-1,Increment      1: Step Time =    1.000,"PART-1-1",           732,       12.3743,       7.25826,            0.,NA,NA,"",   492.889E-03,  -490.111E-03,   52.2583E-03,   2.22331E-03
C:/temp/dataset/3/2_1.odb,Step-1,Increment      1: Step Time =    1.000,"PART-1-1",           733,       9.86952,       23.8294,            0.,NA,NA,"",       1.14501,      -1.14416,  -43.9830E-03,   2.50381E-03
C:/temp/dataset/3/2_1.odb,Step-1,Increment      1: Step Time =    1.000,"PART-1-1",           734,       8.61965,       22.5851,            0.,NA,NA,"",       1.08646,      -1.08197,  -98.7284E-03,   2.45193E-03
C:/temp/dataset/3/2_1.odb,Step-1,Increment      1: Step Time =    1.000,"PART-1-1",           735,         11.25,           30.,            0.,NA,NA,"",       1.44680,      -1.44676,   11.0735E-03,   963.078E-06
C:/temp/dataset/3/2_1.odb,Step-1,Increment      1: Step Time =    1.000,"PART-1-1",           736,       9.97488,       28.7673,            0.,NA,NA,"",       1.38853,      -1.38774,  -46.8654E-03,   1.61211E-03
C:/temp/dataset/3/2_1.odb,Step-1,Increment      1: Step Time =    1.000,"PART-1-1",           737,          8.75,           30.,            0.,NA,NA,"",       1.45151,      -1.44754,  -107.287E-03,   2.24536E-03
C:/temp/dataset/3/2_1.odb,Step-1,Increment      1: Step Time =    1.000,"PART-1-1",           738,       3.69885,       25.0915,            0.,NA,NA,"",       1.25344,      -1.20444,  -347.021E-03,   1.67770E-03
C:/temp/dataset/3/2_1.odb,Step-1,Increment      1: Step Time =    1.000,"PART-1-1",           739,       4.94207,       26.3392,            0.,NA,NA,"",       1.29980,      -1.26802,  -285.680E-03,   1.59080E-03
C:/temp/dataset/3/2_1.odb,Step-1,Increment      1: Step Time =    1.000,"PART-1-1",           740,         -6.25,           30.,            0.,NA,NA,"",       1.71010,      -1.45504,  -898.489E-03,   862.020E-06
C:/temp/dataset/3/2_1.odb,Step-1,Increment      1: Step Time =    1.000,"PART-1-1",           741,      -11.2519,       25.0060,            0.,NA,NA,"",       1.65345,      -1.18109,      -1.15712,   30.6423E-06
C:/temp/dataset/3/2_1.odb,Step-1,Increment      1: Step Time =    1.000,"PART-1-1",           742,       11.7111,      -12.1867,            0.,NA,NA,"",   70.2774E-03,  -68.5334E-03,   15.5589E-03,   1.24421E-03
C:/temp/dataset/3/2_1.odb,Step-1,Increment      1: Step Time =    1.000,"PART-1-1",           743,       12.0443,      -13.4388,            0.,NA,NA,"",   56.9617E-03,  -54.0482E-03,   17.9843E-03,   1.62491E-03
C:/temp/dataset/3/2_1.odb,Step-1,Increment      1: Step Time =    1.000,"PART-1-1",           744,       9.07309,      -22.0228,            0.,NA,NA,"",   5.41036E-03,   1.20479E-03,  -5.27451E-03,   1.67432E-03
C:/temp/dataset/3/2_1.odb,Step-1,Increment      1: Step Time =    1.000,"PART-1-1",           745,       9.10959,      -23.2638,            0.,NA,NA,"",   4.81452E-03,   2.57687E-03,  -4.06685E-03,   1.68004E-03
C:/temp/dataset/3/2_1.odb,Step-1,Increment      1: Step Time =    1.000,"PART-1-1",           746,       10.5828,      -23.1781,            0.,NA,NA,"",   2.82451E-03,   2.81070E-03,   278.971E-06,   1.35069E-03
C:/temp/dataset/3/2_1.odb,Step-1,Increment      1: Step Time =    1.000,"PART-1-1",           747,       10.5463,      -21.9372,            0.,NA,NA,"",   1.16725E-03,   1.13020E-03,   291.719E-06,   1.37083E-03
C:/temp/dataset/3/2_1.odb,Step-1,Increment      1: Step Time =    1.000,"PART-1-1",           748,      -1.00841,      -2.00181,            0.,NA,NA,"",   378.538E-03,  -258.789E-03,  -276.260E-03,   146.013E-06
C:/temp/dataset/3/2_1.odb,Step-1,Increment      1: Step Time =    1.000,"PART-1-1",           749,      -3.17395,      -1.50818,            0.,NA,NA,"",   424.758E-03,  -269.841E-03,  -328.033E-03,   126.512E-06
C:/temp/dataset/3/2_1.odb,Step-1,Increment      1: Step Time =    1.000,"PART-1-1",           750,       8.23699,       8.20647,            0.,NA,NA,"",   522.149E-03,  -516.641E-03,  -75.6398E-03,   2.75582E-03
C:/temp/dataset/3/2_1.odb,Step-1,Increment      1: Step Time =    1.000,"PART-1-1",           751,       8.58975,       6.06422,            0.,NA,NA,"",   456.739E-03,  -452.770E-03,  -60.0827E-03,   1.65515E-03
C:/temp/dataset/3/2_1.odb,Step-1,Increment      1: Step Time =    1.000,"PART-1-1",           752,       1.04870,      -2.29850,            0.,NA,NA,"",   339.051E-03,  -252.316E-03,  -226.478E-03,   281.130E-06
C:/temp/dataset/3/2_1.odb,Step-1,Increment      1: Step Time =    1.000,"PART-1-1",           753,      -1.88356,       2.26041,            0.,NA,NA,"",   467.348E-03,  -359.932E-03,  -298.099E-03,   146.709E-06
C:/temp/dataset/3/2_1.odb,Step-1,Increment      1: Step Time =    1.000,"PART-1-1",           754,      -2.91638,       1.44829,            0.,NA,NA,"",   468.881E-03,  -340.357E-03,  -322.501E-03,   136.732E-06
C:/temp/dataset/3/2_1.odb,Step-1,Increment      1: Step Time =    1.000,"PART-1-1",           755,       3.03453,      -2.52132,            0.,NA,NA,"",   304.012E-03,  -247.296E-03,  -176.827E-03,   1.46827E-03
C:/temp/dataset/3/2_1.odb,Step-1,Increment      1: Step Time =    1.000,"PART-1-1",           756,       6.99799,      -3.46075,            0.,NA,NA,"",   232.980E-03,  -220.538E-03,  -75.1193E-03,   3.32954E-03
C:/temp/dataset/3/2_1.odb,Step-1,Increment      1: Step Time =    1.000,"PART-1-1",           757,       7.63560,  -984.386E-03,            0.,NA,NA,"",   285.381E-03,  -277.180E-03,  -67.9221E-03,   2.94133E-03
C:/temp/dataset/3/2_1.odb,Step-1,Increment      1: Step Time =    1.000,"PART-1-1",           758,       6.14771,      -1.67534,            0.,NA,NA,"",   282.228E-03,  -263.590E-03,  -100.859E-03,   3.68914E-03
C:/temp/dataset/3/2_1.odb,Step-1,Increment      1: Step Time =    1.000,"PART-1-1",           759,       4.94795,      -26.8240,            0.,NA,NA,"",   3.35396E-03,  -28.9421E-06,  -3.35384E-03,   1.60012E-03
C:/temp/dataset/3/2_1.odb,Step-1,Increment      1: Step Time =    1.000,"PART-1-1",           760,      -11.2341,      -25.0541,            0.,NA,NA,"",   1.15454E-03,  -1.15453E-03,  -3.89321E-06,   77.5555E-06
C:/temp/dataset/3/2_1.odb,Step-1,Increment      1: Step Time =    1.000,"PART-1-1",           761,      -9.98574,      -26.3021,            0.,NA,NA,"",   991.291E-06,  -990.988E-06,   24.5311E-06,   137.978E-06
C:/temp/dataset/3/2_1.odb,Step-1,Increment      1: Step Time =    1.000,"PART-1-1",           762,           15.,        -26.25,            0.,NA,NA,"",   4.67463E-03,   1.45783E-03,   4.44149E-03,   2.09862E-03
C:/temp/dataset/3/2_1.odb,Step-1,Increment      1: Step Time =    1.000,"PART-1-1",           763,       9.63478,      -24.7731,            0.,NA,NA,"",   3.89119E-03,   3.47555E-03,  -1.74983E-03,   1.41652E-03
C:/temp/dataset/3/2_1.odb,Step-1,Increment      1: Step Time =    1.000,"PART-1-1",           764,       9.83383,   250.169E-03,            0.,NA,NA,"",   304.457E-03,  -303.905E-03,  -18.3306E-03,   1.14113E-03
C:/temp/dataset/3/2_1.odb,Step-1,Increment      1: Step Time =    1.000,"PART-1-1",           765,       11.1222,       22.5628,            0.,NA,NA,"",       1.08411,      -1.08403,   13.5534E-03,   2.37555E-03
C:/temp/dataset/3/2_1.odb,Step-1,Increment      1: Step Time =    1.000,"PART-1-1",           766,       9.84566,       21.3197,            0.,NA,NA,"",       1.02374,      -1.02287,  -42.1850E-03,   2.10769E-03
C:/temp/dataset/3/2_1.odb,Step-1,Increment      1: Step Time =    1.000,"PART-1-1",           767,      -3.18112,  -190.353E-03,            0.,NA,NA,"",   445.748E-03,  -301.322E-03,  -328.476E-03,   136.638E-06
C:/temp/dataset/3/2_1.odb,Step-1,Increment      1: Step Time =    1.000,"PART-1-1",           768,       4.54417,       1.21940,            0.,NA,NA,"",   365.916E-03,  -334.772E-03,  -147.723E-03,   2.94555E-03
C:/temp/dataset/3/2_1.odb,Step-1,Increment      1: Step Time =    1.000,"PART-1-1",           769,       9.22107,       9.51460,            0.,NA,NA,"",   560.029E-03,  -558.019E-03,  -47.4147E-03,   1.57823E-03
C:/temp/dataset/3/2_1.odb,Step-1,Increment      1: Step Time =    1.000,"PART-1-1",           770,       11.1709,      -3.71800,            0.,NA,NA,"",   213.429E-03,  -213.017E-03,   13.2492E-03,   935.033E-06
C:/temp/dataset/3/2_1.odb,Step-1,Increment      1: Step Time =    1.000,"PART-1-1",           771,       11.0221,      -5.16095,            0.,NA,NA,"",   183.007E-03,  -182.750E-03,   9.70722E-03,   907.180E-06
C:/temp/dataset/3/2_1.odb,Step-1,Increment      1: Step Time =    1.000,"PART-1-1",           772,       12.3085,      -4.70099,            0.,NA,NA,"",   196.353E-03,  -193.170E-03,   35.2132E-03,   1.94133E-03
C:/temp/dataset/3/2_1.odb,Step-1,Increment      1: Step Time =    1.000,"PART-1-1",           773,       5.03877,      -2.41022,            0.,NA,NA,"",   278.206E-03,  -248.318E-03,  -125.447E-03,   3.60843E-03
C:/temp/dataset/3/2_1.odb,Step-1,Increment      1: Step Time =    1.000,"PART-1-1",           774,       11.0080,       9.74440,            0.,NA,NA,"",   566.346E-03,  -566.241E-03,   10.9279E-03,   595.114E-06
C:/temp/dataset/3/2_1.odb,Step-1,Increment      1: Step Time =    1.000,"PART-1-1",           775,       7.33953,      -23.4839,            0.,NA,NA,"",   7.89980E-03,   1.30988E-03,  -7.79045E-03,   2.28460E-03
C:/temp/dataset/3/2_1.odb,Step-1,Increment      1: Step Time =    1.000,"PART-1-1",           776,       6.60048,      -22.7490,            0.,NA,NA,"",   10.3777E-03,  -110.372E-06,  -10.3771E-03,   2.67109E-03
C:/temp/dataset/3/2_1.odb,Step-1,Increment      1: Step Time =    1.000,"PART-1-1",           777,       5.56839,      -23.3719,            0.,NA,NA,"",   9.42256E-03,  -845.721E-06,  -9.38453E-03,   2.63286E-03
C:/temp/dataset/3/2_1.odb,Step-1,Increment      1: Step Time =    1.000,"PART-1-1",           778,       5.56431,      -22.1833,            0.,NA,NA,"",   12.3805E-03,  -1.87008E-03,  -12.2384E-03,   3.16236E-03
C:/temp/dataset/3/2_1.odb,Step-1,Increment      1: Step Time =    1.000,"PART-1-1",           779,       7.31291,      -21.9704,            0.,NA,NA,"",   10.8900E-03,   79.3933E-06,  -10.8897E-03,   2.58257E-03
C:/temp/dataset/3/2_1.odb,Step-1,Increment      1: Step Time =    1.000,"PART-1-1",           780,       8.04898,      -22.6975,            0.,NA,NA,"",   7.79323E-03,   1.47372E-03,  -7.65262E-03,   2.06185E-03
C:/temp/dataset/3/2_1.odb,Step-1,Increment      1: Step Time =    1.000,"PART-1-1",           781,       5.89213,  -472.373E-03,            0.,NA,NA,"",   312.596E-03,  -292.307E-03,  -110.784E-03,   3.15054E-03
C:/temp/dataset/3/2_1.odb,Step-1,Increment      1: Step Time =    1.000,"PART-1-1",           782,       8.40014,      -24.0502,            0.,NA,NA,"",   5.57455E-03,   2.58799E-03,  -4.93740E-03,   1.70011E-03
