ODB Name,Step,Frame,Part Instance Name,    êﬂì_ÉâÉxÉã,X,Y,Z,Section Name,Material Name,Section Point,   U-Magnitude,          U-U1,          U-U2,       S-Mises
C:/temp/dataset/3/3_1.odb,Step-1,Increment      1: Step Time =    1.000,"PART-1-1",             1,          -15.,           20.,            0.,NA,NA,"",   723.082E-03,  -422.952E-03,  -586.481E-03,   219.809E-09
C:/temp/dataset/3/3_1.odb,Step-1,Increment      1: Step Time =    1.000,"PART-1-1",             2,          -15.,           25.,            0.,NA,NA,"",   793.977E-03,  -533.851E-03,  -587.710E-03,   422.371E-09
C:/temp/dataset/3/3_1.odb,Step-1,Increment      1: Step Time =    1.000,"PART-1-1",             3,           -5.,           20.,            0.,NA,NA,"",   560.255E-03,  -425.291E-03,  -364.711E-03,   71.4542E-06
C:/temp/dataset/3/3_1.odb,Step-1,Increment      1: Step Time =    1.000,"PART-1-1",             4,            5.,           20.,            0.,NA,NA,"",   448.238E-03,  -428.237E-03,  -132.401E-03,   4.19195E-03
C:/temp/dataset/3/3_1.odb,Step-1,Increment      1: Step Time =    1.000,"PART-1-1",             5,            5.,          12.5,            0.,NA,NA,"",   315.222E-03,  -297.190E-03,  -105.086E-03,   3.52644E-03
C:/temp/dataset/3/3_1.odb,Step-1,Increment      1: Step Time =    1.000,"PART-1-1",             6,            5.,            5.,            0.,NA,NA,"",   204.400E-03,  -188.852E-03,  -78.1934E-03,   3.86233E-03
C:/temp/dataset/3/3_1.odb,Step-1,Increment      1: Step Time =    1.000,"PART-1-1",             7,      -1.70000,            5.,            0.,NA,NA,"",   236.547E-03,  -189.649E-03,  -141.378E-03,   139.422E-06
C:/temp/dataset/3/3_1.odb,Step-1,Increment      1: Step Time =    1.000,"PART-1-1",             8,      -8.40000,            5.,            0.,NA,NA,"",   285.023E-03,  -189.544E-03,  -212.864E-03,   3.28644E-06
C:/temp/dataset/3/3_1.odb,Step-1,Increment      1: Step Time =    1.000,"PART-1-1",             9,          -15.,            5.,            0.,NA,NA,"",   340.640E-03,  -189.168E-03,  -283.286E-03,   43.5063E-09
C:/temp/dataset/3/3_1.odb,Step-1,Increment      1: Step Time =    1.000,"PART-1-1",            10,          -15.,            0.,            0.,NA,NA,"",   313.908E-03,  -135.829E-03,  -282.999E-03,   678.996E-09
C:/temp/dataset/3/3_1.odb,Step-1,Increment      1: Step Time =    1.000,"PART-1-1",            11,          -15.,           -5.,            0.,NA,NA,"",   294.505E-03,  -82.4999E-03,  -282.713E-03,   40.1117E-09
C:/temp/dataset/3/3_1.odb,Step-1,Increment      1: Step Time =    1.000,"PART-1-1",            12,      -8.30000,           -5.,            0.,NA,NA,"",   226.942E-03,  -82.8811E-03,  -211.267E-03,   3.20208E-06
C:/temp/dataset/3/3_1.odb,Step-1,Increment      1: Step Time =    1.000,"PART-1-1",            13,      -1.60000,           -5.,            0.,NA,NA,"",   162.562E-03,  -82.9654E-03,  -139.797E-03,   147.066E-06
C:/temp/dataset/3/3_1.odb,Step-1,Increment      1: Step Time =    1.000,"PART-1-1",            14,            5.,           -5.,            0.,NA,NA,"",   102.558E-03,  -82.3488E-03,  -61.1291E-03,   3.89884E-03
C:/temp/dataset/3/3_1.odb,Step-1,Increment      1: Step Time =    1.000,"PART-1-1",            15,            5.,         -12.5,            0.,NA,NA,"",   46.9854E-03,  -30.8342E-03,  -35.4524E-03,   3.40756E-03
C:/temp/dataset/3/3_1.odb,Step-1,Increment      1: Step Time =    1.000,"PART-1-1",            16,            5.,          -20.,            0.,NA,NA,"",   10.6819E-03,  -932.669E-06,  -10.6411E-03,   3.91636E-03
C:/temp/dataset/3/3_1.odb,Step-1,Increment      1: Step Time =    1.000,"PART-1-1",            17,           -5.,          -20.,            0.,NA,NA,"",   521.841E-06,  -518.723E-06,   56.9607E-06,   73.3042E-06
C:/temp/dataset/3/3_1.odb,Step-1,Increment      1: Step Time =    1.000,"PART-1-1",            18,          -15.,          -20.,            0.,NA,NA,"",   735.725E-06,  -723.635E-06,  -132.827E-06,   1.02203E-06
C:/temp/dataset/3/3_1.odb,Step-1,Increment      1: Step Time =    1.000,"PART-1-1",            19,          -15.,          -25.,            0.,NA,NA,"",   503.747E-06,  -479.075E-06,  -155.718E-06,   7.91888E-06
C:/temp/dataset/3/3_1.odb,Step-1,Increment      1: Step Time =    1.000,"PART-1-1",            20,          -15.,          -30.,            0.,NA,NA,"",            0.,  -41.0707E-42,  -64.4345E-42,   123.861E-06
C:/temp/dataset/3/3_1.odb,Step-1,Increment      1: Step Time =    1.000,"PART-1-1",            21,           15.,          -30.,            0.,NA,NA,"",            0.,   180.028E-42,  -238.131E-42,   504.765E-06
C:/temp/dataset/3/3_1.odb,Step-1,Increment      1: Step Time =    1.000,"PART-1-1",            22,           15.,         -22.5,            0.,NA,NA,"",   3.38393E-03,   1.26590E-03,   3.13822E-03,   1.15403E-03
C:/temp/dataset/3/3_1.odb,Step-1,Increment      1: Step Time =    1.000,"PART-1-1",            23,           15.,          -15.,            0.,NA,NA,"",   21.3329E-03,  -15.8912E-03,   14.2324E-03,   1.92402E-03
C:/temp/dataset/3/3_1.odb,Step-1,Increment      1: Step Time =    1.000,"PART-1-1",            24,           15.,          -7.5,            0.,NA,NA,"",   66.7070E-03,  -60.9592E-03,   27.0886E-03,   1.85440E-03
C:/temp/dataset/3/3_1.odb,Step-1,Increment      1: Step Time =    1.000,"PART-1-1",            25,           15.,            0.,            0.,NA,NA,"",   136.973E-03,  -131.816E-03,   37.2321E-03,   1.32613E-03
C:/temp/dataset/3/3_1.odb,Step-1,Increment      1: Step Time =    1.000,"PART-1-1",            26,           15.,           7.5,            0.,NA,NA,"",   226.238E-03,  -221.214E-03,   47.4172E-03,   1.94032E-03
C:/temp/dataset/3/3_1.odb,Step-1,Increment      1: Step Time =    1.000,"PART-1-1",            27,           15.,           15.,            0.,NA,NA,"",   342.609E-03,  -337.259E-03,   60.3105E-03,   2.06952E-03
C:/temp/dataset/3/3_1.odb,Step-1,Increment      1: Step Time =    1.000,"PART-1-1",            28,           15.,          22.5,            0.,NA,NA,"",   488.020E-03,  -482.838E-03,   70.9313E-03,   1.20685E-03
C:/temp/dataset/3/3_1.odb,Step-1,Increment      1: Step Time =    1.000,"PART-1-1",            29,           15.,           30.,            0.,NA,NA,"",   648.753E-03,  -644.723E-03,   72.1968E-03,   39.2395E-06
C:/temp/dataset/3/3_1.odb,Step-1,Increment      1: Step Time =    1.000,"PART-1-1",            30,           7.5,           30.,            0.,NA,NA,"",   652.349E-03,  -645.959E-03,  -91.0825E-03,   975.420E-06
C:/temp/dataset/3/3_1.odb,Step-1,Increment      1: Step Time =    1.000,"PART-1-1",            31,            0.,           30.,            0.,NA,NA,"",   696.728E-03,  -647.206E-03,  -257.982E-03,   573.713E-06
C:/temp/dataset/3/3_1.odb,Step-1,Increment      1: Step Time =    1.000,"PART-1-1",            32,          -7.5,           30.,            0.,NA,NA,"",   772.403E-03,  -646.579E-03,  -422.542E-03,   22.6830E-06
C:/temp/dataset/3/3_1.odb,Step-1,Increment      1: Step Time =    1.000,"PART-1-1",            33,          -15.,           30.,            0.,NA,NA,"",   873.249E-03,  -644.759E-03,  -588.940E-03,   215.355E-09
C:/temp/dataset/3/3_1.odb,Step-1,Increment      1: Step Time =    1.000,"PART-1-1",            34,          -15.,          22.5,            0.,NA,NA,"",   757.330E-03,  -478.400E-03,  -587.096E-03,   305.641E-09
C:/temp/dataset/3/3_1.odb,Step-1,Increment      1: Step Time =    1.000,"PART-1-1",            35,          -7.5,           20.,            0.,NA,NA,"",   597.467E-03,  -424.769E-03,  -420.164E-03,   21.4239E-06
C:/temp/dataset/3/3_1.odb,Step-1,Increment      1: Step Time =    1.000,"PART-1-1",            36,          -10.,           20.,            0.,NA,NA,"",   637.273E-03,  -424.178E-03,  -475.594E-03,   4.44350E-06
C:/temp/dataset/3/3_1.odb,Step-1,Increment      1: Step Time =    1.000,"PART-1-1",            37,         -12.5,           20.,            0.,NA,NA,"",   679.269E-03,  -423.567E-03,  -531.034E-03,   381.738E-09
C:/temp/dataset/3/3_1.odb,Step-1,Increment      1: Step Time =    1.000,"PART-1-1",            38,           2.5,           20.,            0.,NA,NA,"",   468.560E-03,  -425.914E-03,  -195.309E-03,   809.956E-06
C:/temp/dataset/3/3_1.odb,Step-1,Increment      1: Step Time =    1.000,"PART-1-1",            39,            0.,           20.,            0.,NA,NA,"",   495.303E-03,  -425.847E-03,  -252.942E-03,   288.701E-06
C:/temp/dataset/3/3_1.odb,Step-1,Increment      1: Step Time =    1.000,"PART-1-1",            40,          -2.5,           20.,            0.,NA,NA,"",   526.070E-03,  -425.670E-03,  -309.119E-03,   142.512E-06
C:/temp/dataset/3/3_1.odb,Step-1,Increment      1: Step Time =    1.000,"PART-1-1",            41,            5.,           15.,            0.,NA,NA,"",   357.160E-03,  -338.706E-03,  -113.321E-03,   3.46929E-03
C:/temp/dataset/3/3_1.odb,Step-1,Increment      1: Step Time =    1.000,"PART-1-1",            42,            5.,          17.5,            0.,NA,NA,"",   401.567E-03,  -382.760E-03,  -121.453E-03,   3.92545E-03
C:/temp/dataset/3/3_1.odb,Step-1,Increment      1: Step Time =    1.000,"PART-1-1",            43,            5.,           7.5,            0.,NA,NA,"",   239.661E-03,  -222.591E-03,  -88.8290E-03,   3.74195E-03
C:/temp/dataset/3/3_1.odb,Step-1,Increment      1: Step Time =    1.000,"PART-1-1",            44,            5.,           10.,            0.,NA,NA,"",   276.096E-03,  -258.551E-03,  -96.8543E-03,   3.48711E-03
C:/temp/dataset/3/3_1.odb,Step-1,Increment      1: Step Time =    1.000,"PART-1-1",            45,   533.333E-03,            5.,            0.,NA,NA,"",   223.059E-03,  -189.320E-03,  -117.955E-03,   380.458E-06
C:/temp/dataset/3/3_1.odb,Step-1,Increment      1: Step Time =    1.000,"PART-1-1",            46,       2.76667,            5.,            0.,NA,NA,"",   211.522E-03,  -188.614E-03,  -95.7415E-03,   722.340E-06
C:/temp/dataset/3/3_1.odb,Step-1,Increment      1: Step Time =    1.000,"PART-1-1",            47,      -6.16667,            5.,            0.,NA,NA,"",   267.762E-03,  -189.656E-03,  -189.017E-03,   15.7816E-06
C:/temp/dataset/3/3_1.odb,Step-1,Increment      1: Step Time =    1.000,"PART-1-1",            48,      -3.93333,            5.,            0.,NA,NA,"",   251.540E-03,  -189.716E-03,  -165.168E-03,   60.4409E-06
C:/temp/dataset/3/3_1.odb,Step-1,Increment      1: Step Time =    1.000,"PART-1-1",            49,      -12.8000,            5.,            0.,NA,NA,"",   321.460E-03,  -189.294E-03,  -259.816E-03,   455.449E-09
C:/temp/dataset/3/3_1.odb,Step-1,Increment      1: Step Time =    1.000,"PART-1-1",            50,      -10.6000,            5.,            0.,NA,NA,"",   302.883E-03,  -189.420E-03,  -236.343E-03,   339.011E-09
C:/temp/dataset/3/3_1.odb,Step-1,Increment      1: Step Time =    1.000,"PART-1-1",            51,          -15.,           2.5,            0.,NA,NA,"",   326.459E-03,  -162.498E-03,  -283.143E-03,   508.599E-09
C:/temp/dataset/3/3_1.odb,Step-1,Increment      1: Step Time =    1.000,"PART-1-1",            52,          -15.,          -2.5,            0.,NA,NA,"",   303.190E-03,  -109.163E-03,  -282.856E-03,   508.346E-09
C:/temp/dataset/3/3_1.odb,Step-1,Increment      1: Step Time =    1.000,"PART-1-1",            53,      -10.5333,           -5.,            0.,NA,NA,"",   249.218E-03,  -82.7556E-03,  -235.077E-03,   483.954E-09
C:/temp/dataset/3/3_1.odb,Step-1,Increment      1: Step Time =    1.000,"PART-1-1",            54,      -12.7667,           -5.,            0.,NA,NA,"",   271.759E-03,  -82.6273E-03,  -258.894E-03,   426.020E-09
C:/temp/dataset/3/3_1.odb,Step-1,Increment      1: Step Time =    1.000,"PART-1-1",            55,      -3.83333,           -5.,            0.,NA,NA,"",   183.533E-03,  -83.0435E-03,  -163.671E-03,   63.9918E-06
C:/temp/dataset/3/3_1.odb,Step-1,Increment      1: Step Time =    1.000,"PART-1-1",            56,      -6.06667,           -5.,            0.,NA,NA,"",   205.018E-03,  -82.9911E-03,  -187.470E-03,   15.9939E-06
C:/temp/dataset/3/3_1.odb,Step-1,Increment      1: Step Time =    1.000,"PART-1-1",            57,       2.80000,           -5.,            0.,NA,NA,"",   122.230E-03,  -81.9137E-03,  -90.7215E-03,   953.138E-06
C:/temp/dataset/3/3_1.odb,Step-1,Increment      1: Step Time =    1.000,"PART-1-1",            58,   600.000E-03,           -5.,            0.,NA,NA,"",   142.358E-03,  -82.6411E-03,  -115.915E-03,   362.616E-06
C:/temp/dataset/3/3_1.odb,Step-1,Increment      1: Step Time =    1.000,"PART-1-1",            59,            5.,          -10.,            0.,NA,NA,"",   62.8134E-03,  -45.6142E-03,  -43.1841E-03,   3.38433E-03
C:/temp/dataset/3/3_1.odb,Step-1,Increment      1: Step Time =    1.000,"PART-1-1",            60,            5.,          -7.5,            0.,NA,NA,"",   80.9308E-03,  -62.9915E-03,  -50.8120E-03,   3.62757E-03
C:/temp/dataset/3/3_1.odb,Step-1,Increment      1: Step Time =    1.000,"PART-1-1",            61,            5.,         -17.5,            0.,NA,NA,"",   22.4125E-03,  -9.22617E-03,  -20.4254E-03,   3.56292E-03
C:/temp/dataset/3/3_1.odb,Step-1,Increment      1: Step Time =    1.000,"PART-1-1",            62,            5.,          -15.,            0.,NA,NA,"",   33.6119E-03,  -18.8282E-03,  -27.8435E-03,   3.28521E-03
C:/temp/dataset/3/3_1.odb,Step-1,Increment      1: Step Time =    1.000,"PART-1-1",            63,          -2.5,          -20.,            0.,NA,NA,"",   403.600E-06,  -308.011E-06,  -260.812E-06,   105.215E-06
C:/temp/dataset/3/3_1.odb,Step-1,Increment      1: Step Time =    1.000,"PART-1-1",            64,            0.,          -20.,            0.,NA,NA,"",   1.17321E-03,   2.54379E-06,  -1.17321E-03,   218.310E-06
C:/temp/dataset/3/3_1.odb,Step-1,Increment      1: Step Time =    1.000,"PART-1-1",            65,           2.5,          -20.,            0.,NA,NA,"",   3.47314E-03,   436.824E-06,  -3.44556E-03,   829.284E-06
C:/temp/dataset/3/3_1.odb,Step-1,Increment      1: Step Time =    1.000,"PART-1-1",            66,         -12.5,          -20.,            0.,NA,NA,"",   719.567E-06,  -719.323E-06,  -18.7699E-06,   5.95224E-06
C:/temp/dataset/3/3_1.odb,Step-1,Increment      1: Step Time =    1.000,"PART-1-1",            67,          -10.,          -20.,            0.,NA,NA,"",   698.670E-06,  -693.984E-06,   80.7841E-06,   17.5168E-06
C:/temp/dataset/3/3_1.odb,Step-1,Increment      1: Step Time =    1.000,"PART-1-1",            68,          -7.5,          -20.,            0.,NA,NA,"",   649.254E-06,  -636.445E-06,   128.329E-06,   36.0067E-06
C:/temp/dataset/3/3_1.odb,Step-1,Increment      1: Step Time =    1.000,"PART-1-1",            69,          -15.,         -22.5,            0.,NA,NA,"",   629.609E-06,  -614.520E-06,  -137.014E-06,   5.39688E-06
C:/temp/dataset/3/3_1.odb,Step-1,Increment      1: Step Time =    1.000,"PART-1-1",            70,          -15.,         -27.5,            0.,NA,NA,"",   314.468E-06,  -274.230E-06,  -153.911E-06,   30.3213E-06
C:/temp/dataset/3/3_1.odb,Step-1,Increment      1: Step Time =    1.000,"PART-1-1",            71,          12.5,          -30.,            0.,NA,NA,"",            0.,   705.971E-42,  -431.716E-42,   499.358E-06
C:/temp/dataset/3/3_1.odb,Step-1,Increment      1: Step Time =    1.000,"PART-1-1",            72,           10.,          -30.,            0.,NA,NA,"",            0.,   404.958E-42,  -411.571E-42,   610.493E-06
C:/temp/dataset/3/3_1.odb,Step-1,Increment      1: Step Time =    1.000,"PART-1-1",            73,           7.5,          -30.,            0.,NA,NA,"",            0.,   57.3509E-42,  -1.12665E-39,   600.897E-06
C:/temp/dataset/3/3_1.odb,Step-1,Increment      1: Step Time =    1.000,"PART-1-1",            74,            5.,          -30.,            0.,NA,NA,"",            0.,   279.670E-42,  -1.32868E-39,   573.010E-06
C:/temp/dataset/3/3_1.odb,Step-1,Increment      1: Step Time =    1.000,"PART-1-1",            75,           2.5,          -30.,            0.,NA,NA,"",            0.,  -45.1302E-42,  -904.087E-42,   518.364E-06
C:/temp/dataset/3/3_1.odb,Step-1,Increment      1: Step Time =    1.000,"PART-1-1",            76,            0.,          -30.,            0.,NA,NA,"",            0.,  -198.567E-42,  -456.162E-42,   422.282E-06
C:/temp/dataset/3/3_1.odb,Step-1,Increment      1: Step Time =    1.000,"PART-1-1",            77,          -2.5,          -30.,            0.,NA,NA,"",            0.,  -428.635E-42,  -515.988E-42,   304.467E-06
C:/temp/dataset/3/3_1.odb,Step-1,Increment      1: Step Time =    1.000,"PART-1-1",            78,           -5.,          -30.,            0.,NA,NA,"",            0.,  -182.783E-42,  -15.1396E-42,   205.921E-06
C:/temp/dataset/3/3_1.odb,Step-1,Increment      1: Step Time =    1.000,"PART-1-1",            79,          -7.5,          -30.,            0.,NA,NA,"",            0.,  -135.171E-42,   32.9543E-42,   135.781E-06
C:/temp/dataset/3/3_1.odb,Step-1,Increment      1: Step Time =    1.000,"PART-1-1",            80,          -10.,          -30.,            0.,NA,NA,"",            0.,  -121.043E-42,  -96.8297E-42,   92.3764E-06
C:/temp/dataset/3/3_1.odb,Step-1,Increment      1: Step Time =    1.000,"PART-1-1",            81,         -12.5,          -30.,            0.,NA,NA,"",            0.,  -100.135E-42,  -79.6904E-42,   61.4636E-06
C:/temp/dataset/3/3_1.odb,Step-1,Increment      1: Step Time =    1.000,"PART-1-1",            82,           15.,          -25.,            0.,NA,NA,"",   2.30603E-03,   2.06951E-03,   1.01731E-03,   731.157E-06
C:/temp/dataset/3/3_1.odb,Step-1,Increment      1: Step Time =    1.000,"PART-1-1",            83,           15.,         -27.5,            0.,NA,NA,"",   1.47768E-03,   1.46738E-03,  -174.187E-06,   274.479E-06
C:/temp/dataset/3/3_1.odb,Step-1,Increment      1: Step Time =    1.000,"PART-1-1",            84,           15.,         -17.5,            0.,NA,NA,"",   12.3454E-03,  -7.17713E-03,   10.0447E-03,   1.81771E-03
C:/temp/dataset/3/3_1.odb,Step-1,Increment      1: Step Time =    1.000,"PART-1-1",            85,           15.,          -20.,            0.,NA,NA,"",   6.40479E-03,  -1.58755E-03,   6.20492E-03,   1.54638E-03
C:/temp/dataset/3/3_1.odb,Step-1,Increment      1: Step Time =    1.000,"PART-1-1",            86,           15.,          -10.,            0.,NA,NA,"",   48.5127E-03,  -42.7841E-03,   22.8693E-03,   1.94091E-03
C:/temp/dataset/3/3_1.odb,Step-1,Increment      1: Step Time =    1.000,"PART-1-1",            87,           15.,         -12.5,            0.,NA,NA,"",   33.3916E-03,  -27.7649E-03,   18.5501E-03,   1.94683E-03
C:/temp/dataset/3/3_1.odb,Step-1,Increment      1: Step Time =    1.000,"PART-1-1",            88,           15.,          -2.5,            0.,NA,NA,"",   111.411E-03,  -105.990E-03,   34.3308E-03,   1.42431E-03
C:/temp/dataset/3/3_1.odb,Step-1,Increment      1: Step Time =    1.000,"PART-1-1",            89,           15.,           -5.,            0.,NA,NA,"",   87.8188E-03,  -82.1712E-03,   30.9845E-03,   1.65946E-03
C:/temp/dataset/3/3_1.odb,Step-1,Increment      1: Step Time =    1.000,"PART-1-1",            90,           15.,            5.,            0.,NA,NA,"",   193.894E-03,  -188.952E-03,   43.4986E-03,   1.71232E-03
C:/temp/dataset/3/3_1.odb,Step-1,Increment      1: Step Time =    1.000,"PART-1-1",            91,           15.,           2.5,            0.,NA,NA,"",   164.333E-03,  -159.357E-03,   40.1344E-03,   1.46339E-03
C:/temp/dataset/3/3_1.odb,Step-1,Increment      1: Step Time =    1.000,"PART-1-1",            92,           15.,          12.5,            0.,NA,NA,"",   300.542E-03,  -295.279E-03,   55.9943E-03,   2.07453E-03
C:/temp/dataset/3/3_1.odb,Step-1,Increment      1: Step Time =    1.000,"PART-1-1",            93,           15.,           10.,            0.,NA,NA,"",   261.755E-03,  -256.608E-03,   51.6530E-03,   2.04104E-03
C:/temp/dataset/3/3_1.odb,Step-1,Increment      1: Step Time =    1.000,"PART-1-1",            94,           15.,           20.,            0.,NA,NA,"",   436.648E-03,  -431.293E-03,   68.1746E-03,   1.67499E-03
C:/temp/dataset/3/3_1.odb,Step-1,Increment      1: Step Time =    1.000,"PART-1-1",            95,           15.,          17.5,            0.,NA,NA,"",   388.007E-03,  -382.612E-03,   64.4791E-03,   1.96536E-03
C:/temp/dataset/3/3_1.odb,Step-1,Increment      1: Step Time =    1.000,"PART-1-1",            96,           15.,          27.5,            0.,NA,NA,"",   595.095E-03,  -590.635E-03,   72.7163E-03,   164.759E-06
C:/temp/dataset/3/3_1.odb,Step-1,Increment      1: Step Time =    1.000,"PART-1-1",            97,           15.,           25.,            0.,NA,NA,"",   541.197E-03,  -536.327E-03,   72.4401E-03,   650.840E-06
C:/temp/dataset/3/3_1.odb,Step-1,Increment      1: Step Time =    1.000,"PART-1-1",            98,           10.,           30.,            0.,NA,NA,"",   645.482E-03,  -644.522E-03,  -35.1930E-03,   661.017E-06
C:/temp/dataset/3/3_1.odb,Step-1,Increment      1: Step Time =    1.000,"PART-1-1",            99,          12.5,           30.,            0.,NA,NA,"",   644.491E-03,  -644.226E-03,   18.4826E-03,   172.456E-06
C:/temp/dataset/3/3_1.odb,Step-1,Increment      1: Step Time =    1.000,"PART-1-1",           100,           2.5,           30.,            0.,NA,NA,"",   678.762E-03,  -647.422E-03,  -203.870E-03,   1.04450E-03
C:/temp/dataset/3/3_1.odb,Step-1,Increment      1: Step Time =    1.000,"PART-1-1",           101,            5.,           30.,            0.,NA,NA,"",   663.488E-03,  -646.766E-03,  -148.018E-03,   1.15799E-03
C:/temp/dataset/3/3_1.odb,Step-1,Increment      1: Step Time =    1.000,"PART-1-1",           102,           -5.,           30.,            0.,NA,NA,"",   743.955E-03,  -647.080E-03,  -367.092E-03,   82.2613E-06
C:/temp/dataset/3/3_1.odb,Step-1,Increment      1: Step Time =    1.000,"PART-1-1",           103,          -2.5,           30.,            0.,NA,NA,"",   718.605E-03,  -647.419E-03,  -311.837E-03,   253.068E-06
C:/temp/dataset/3/3_1.odb,Step-1,Increment      1: Step Time =    1.000,"PART-1-1",           104,         -12.5,           30.,            0.,NA,NA,"",   837.325E-03,  -645.375E-03,  -533.482E-03,   408.219E-09
C:/temp/dataset/3/3_1.odb,Step-1,Increment      1: Step Time =    1.000,"PART-1-1",           105,          -10.,           30.,            0.,NA,NA,"",   803.617E-03,  -645.986E-03,  -478.018E-03,   4.48253E-06
C:/temp/dataset/3/3_1.odb,Step-1,Increment      1: Step Time =    1.000,"PART-1-1",           106,          -15.,          27.5,            0.,NA,NA,"",   832.709E-03,  -589.304E-03,  -588.324E-03,   324.017E-09
C:/temp/dataset/3/3_1.odb,Step-1,Increment      1: Step Time =    1.000,"PART-1-1",           107,      -12.5013,       25.0052,            0.,NA,NA,"",   754.394E-03,  -534.583E-03,  -532.289E-03,   2.94535E-06
C:/temp/dataset/3/3_1.odb,Step-1,Increment      1: Step Time =    1.000,"PART-1-1",           108,      -10.0028,       27.5014,            0.,NA,NA,"",   759.436E-03,  -590.568E-03,  -477.465E-03,   9.82217E-06
C:/temp/dataset/3/3_1.odb,Step-1,Increment      1: Step Time =    1.000,"PART-1-1",           109,      -2.49865,       22.5268,            0.,NA,NA,"",   573.069E-03,  -482.117E-03,  -309.792E-03,   63.9368E-06
C:/temp/dataset/3/3_1.odb,Step-1,Increment      1: Step Time =    1.000,"PART-1-1",           110,      -2.51000,       27.5279,            0.,NA,NA,"",   669.845E-03,  -593.102E-03,  -311.324E-03,   112.482E-06
C:/temp/dataset/3/3_1.odb,Step-1,Increment      1: Step Time =    1.000,"PART-1-1",           111,       12.3864,       22.5464,            0.,NA,NA,"",   482.657E-03,  -482.353E-03,   17.1356E-03,   753.734E-06
C:/temp/dataset/3/3_1.odb,Step-1,Increment      1: Step Time =    1.000,"PART-1-1",           112,       7.35369,       17.5509,            0.,NA,NA,"",   389.381E-03,  -381.553E-03,  -77.6834E-03,   2.18703E-03
C:/temp/dataset/3/3_1.odb,Step-1,Increment      1: Step Time =    1.000,"PART-1-1",           113,       12.3201,       14.9467,            0.,NA,NA,"",   334.622E-03,  -334.340E-03,   13.7304E-03,   560.178E-06
C:/temp/dataset/3/3_1.odb,Step-1,Increment      1: Step Time =    1.000,"PART-1-1",           114,       13.2599,       7.39194,            0.,NA,NA,"",   219.723E-03,  -218.442E-03,   23.6893E-03,   1.02155E-03
C:/temp/dataset/3/3_1.odb,Step-1,Increment      1: Step Time =    1.000,"PART-1-1",           115,       7.60504,      -5.98204,            0.,NA,NA,"",   79.7110E-03,  -72.6190E-03,  -32.8684E-03,   1.48029E-03
C:/temp/dataset/3/3_1.odb,Step-1,Increment      1: Step Time =    1.000,"PART-1-1",           116,       7.71062,      -13.7665,            0.,NA,NA,"",   28.1712E-03,  -21.2081E-03,  -18.5427E-03,   1.95327E-03
C:/temp/dataset/3/3_1.odb,Step-1,Increment      1: Step Time =    1.000,"PART-1-1",           117,       11.7208,      -22.4938,            0.,NA,NA,"",   2.23135E-03,   2.14904E-03,  -600.443E-06,   655.337E-06
C:/temp/dataset/3/3_1.odb,Step-1,Increment      1: Step Time =    1.000,"PART-1-1",           118,       2.59328,       2.74806,            0.,NA,NA,"",   192.068E-03,  -166.015E-03,  -96.5883E-03,   763.403E-06
C:/temp/dataset/3/3_1.odb,Step-1,Increment      1: Step Time =    1.000,"PART-1-1",           119,      -1.32361,      -2.98462,            0.,NA,NA,"",   172.487E-03,  -104.756E-03,  -137.032E-03,   100.132E-06
C:/temp/dataset/3/3_1.odb,Step-1,Increment      1: Step Time =    1.000,"PART-1-1",           120,      -6.00563,       3.11026,            0.,NA,NA,"",   252.532E-03,  -169.516E-03,  -187.182E-03,   26.7806E-06
C:/temp/dataset/3/3_1.odb,Step-1,Increment      1: Step Time =    1.000,"PART-1-1",           121,      -10.4102,       2.53863,            0.,NA,NA,"",   285.420E-03,  -163.171E-03,  -234.179E-03,   2.58922E-06
C:/temp/dataset/3/3_1.odb,Step-1,Increment      1: Step Time =    1.000,"PART-1-1",           122,      -12.6184,  -43.2983E-03,            0.,NA,NA,"",   291.059E-03,  -135.503E-03,  -257.593E-03,   567.533E-09
C:/temp/dataset/3/3_1.odb,Step-1,Increment      1: Step Time =    1.000,"PART-1-1",           123,      -3.88272,       3.23189,            0.,NA,NA,"",   237.224E-03,  -170.922E-03,  -164.502E-03,   57.1578E-06
C:/temp/dataset/3/3_1.odb,Step-1,Increment      1: Step Time =    1.000,"PART-1-1",           124,       2.98144,      -22.7363,            0.,NA,NA,"",   3.74323E-03,  -1.29982E-03,  -3.51030E-03,   1.21043E-03
C:/temp/dataset/3/3_1.odb,Step-1,Increment      1: Step Time =    1.000,"PART-1-1",           125,      -2.42987,      -22.6294,            0.,NA,NA,"",   891.009E-06,  -854.143E-06,  -253.645E-06,   74.9623E-06
C:/temp/dataset/3/3_1.odb,Step-1,Increment      1: Step Time =    1.000,"PART-1-1",           126,      -9.97348,      -22.5672,            0.,NA,NA,"",   638.185E-06,  -632.680E-06,   83.6426E-06,   14.0902E-06
C:/temp/dataset/3/3_1.odb,Step-1,Increment      1: Step Time =    1.000,"PART-1-1",           127,      -12.4895,      -25.0402,            0.,NA,NA,"",   486.358E-06,  -485.873E-06,  -21.7163E-06,   20.2529E-06
C:/temp/dataset/3/3_1.odb,Step-1,Increment      1: Step Time =    1.000,"PART-1-1",           128,       12.8561,      -14.2595,            0.,NA,NA,"",   18.6645E-03,  -17.7308E-03,   5.82923E-03,   761.167E-06
C:/temp/dataset/3/3_1.odb,Step-1,Increment      1: Step Time =    1.000,"PART-1-1",           129,       12.7281,      -7.33650,            0.,NA,NA,"",   61.6133E-03,  -60.8701E-03,   9.54118E-03,   721.296E-06
C:/temp/dataset/3/3_1.odb,Step-1,Increment      1: Step Time =    1.000,"PART-1-1",           130,       12.6427,  -96.8002E-03,            0.,NA,NA,"",   130.303E-03,  -129.745E-03,   12.0488E-03,   431.341E-06
C:/temp/dataset/3/3_1.odb,Step-1,Increment      1: Step Time =    1.000,"PART-1-1",           131,       7.13014,       10.3328,            0.,NA,NA,"",   269.180E-03,  -260.988E-03,  -65.9021E-03,   2.38386E-03
C:/temp/dataset/3/3_1.odb,Step-1,Increment      1: Step Time =    1.000,"PART-1-1",           132,       4.95005,       27.5805,            0.,NA,NA,"",   610.872E-03,  -593.140E-03,  -146.116E-03,   1.33134E-03
C:/temp/dataset/3/3_1.odb,Step-1,Increment      1: Step Time =    1.000,"PART-1-1",           133,      -4.99957,       22.5148,            0.,NA,NA,"",   604.196E-03,  -481.219E-03,  -365.350E-03,   58.9865E-06
C:/temp/dataset/3/3_1.odb,Step-1,Increment      1: Step Time =    1.000,"PART-1-1",           134,      -7.50186,       22.5094,            0.,NA,NA,"",   638.702E-03,  -480.462E-03,  -420.828E-03,   29.3930E-06
C:/temp/dataset/3/3_1.odb,Step-1,Increment      1: Step Time =    1.000,"PART-1-1",           135,       4.93744,       22.5898,            0.,NA,NA,"",   504.344E-03,  -484.675E-03,  -139.473E-03,   1.95172E-03
C:/temp/dataset/3/3_1.odb,Step-1,Increment      1: Step Time =    1.000,"PART-1-1",           136,       2.47758,       22.5593,            0.,NA,NA,"",   522.643E-03,  -484.043E-03,  -197.122E-03,   1.14057E-03
C:/temp/dataset/3/3_1.odb,Step-1,Increment      1: Step Time =    1.000,"PART-1-1",           137,  -4.46696E-03,       22.5388,            0.,NA,NA,"",   545.754E-03,  -483.114E-03,  -253.866E-03,   233.644E-06
C:/temp/dataset/3/3_1.odb,Step-1,Increment      1: Step Time =    1.000,"PART-1-1",           138,       7.20686,       12.6699,            0.,NA,NA,"",   305.443E-03,  -297.336E-03,  -69.9034E-03,   2.30072E-03
C:/temp/dataset/3/3_1.odb,Step-1,Increment      1: Step Time =    1.000,"PART-1-1",           139,       7.30679,       15.0771,            0.,NA,NA,"",   345.358E-03,  -337.435E-03,  -73.5521E-03,   2.31746E-03
C:/temp/dataset/3/3_1.odb,Step-1,Increment      1: Step Time =    1.000,"PART-1-1",           140,       7.52839,       5.66323,            0.,NA,NA,"",   202.623E-03,  -196.020E-03,  -51.3045E-03,   1.50958E-03
C:/temp/dataset/3/3_1.odb,Step-1,Increment      1: Step Time =    1.000,"PART-1-1",           141,       7.20823,       7.96221,            0.,NA,NA,"",   234.404E-03,  -226.635E-03,  -59.8485E-03,   2.31719E-03
C:/temp/dataset/3/3_1.odb,Step-1,Increment      1: Step Time =    1.000,"PART-1-1",           142,      -1.77433,       3.17490,            0.,NA,NA,"",   221.814E-03,  -170.402E-03,  -142.002E-03,   99.1642E-06
C:/temp/dataset/3/3_1.odb,Step-1,Increment      1: Step Time =    1.000,"PART-1-1",           143,   347.975E-03,       3.01142,            0.,NA,NA,"",   206.903E-03,  -168.846E-03,  -119.583E-03,   136.129E-06
C:/temp/dataset/3/3_1.odb,Step-1,Increment      1: Step Time =    1.000,"PART-1-1",           144,      -8.17775,       2.85153,            0.,NA,NA,"",   268.370E-03,  -166.637E-03,  -210.368E-03,   9.76726E-06
C:/temp/dataset/3/3_1.odb,Step-1,Increment      1: Step Time =    1.000,"PART-1-1",           145,      -8.45397,      -3.03463,            0.,NA,NA,"",   236.979E-03,  -103.833E-03,  -213.020E-03,   7.84457E-06
C:/temp/dataset/3/3_1.odb,Step-1,Increment      1: Step Time =    1.000,"PART-1-1",           146,      -12.6978,       2.46856,            0.,NA,NA,"",   305.292E-03,  -162.293E-03,  -258.581E-03,   364.915E-09
C:/temp/dataset/3/3_1.odb,Step-1,Increment      1: Step Time =    1.000,"PART-1-1",           147,      -10.5225,      -2.72745,            0.,NA,NA,"",   258.291E-03,  -106.992E-03,  -235.090E-03,   2.29665E-06
C:/temp/dataset/3/3_1.odb,Step-1,Increment      1: Step Time =    1.000,"PART-1-1",           148,      -12.7265,      -2.55241,            0.,NA,NA,"",   280.534E-03,  -108.734E-03,  -258.605E-03,   373.004E-09
C:/temp/dataset/3/3_1.odb,Step-1,Increment      1: Step Time =    1.000,"PART-1-1",           149,      -3.80700,      -2.48494,            0.,NA,NA,"",   197.100E-03,  -109.992E-03,  -163.554E-03,   63.1102E-06
C:/temp/dataset/3/3_1.odb,Step-1,Increment      1: Step Time =    1.000,"PART-1-1",           150,      -6.26959,      -2.94549,            0.,NA,NA,"",   216.823E-03,  -104.907E-03,  -189.754E-03,   24.1856E-06
C:/temp/dataset/3/3_1.odb,Step-1,Increment      1: Step Time =    1.000,"PART-1-1",           151,       2.97297,      -3.34056,            0.,NA,NA,"",   134.931E-03,  -100.969E-03,  -89.5077E-03,   846.455E-06
C:/temp/dataset/3/3_1.odb,Step-1,Increment      1: Step Time =    1.000,"PART-1-1",           152,   836.982E-03,      -3.21922,            0.,NA,NA,"",   152.911E-03,  -102.334E-03,  -113.620E-03,   126.875E-06
C:/temp/dataset/3/3_1.odb,Step-1,Increment      1: Step Time =    1.000,"PART-1-1",           153,       7.27849,      -10.7647,            0.,NA,NA,"",   46.3945E-03,  -37.9864E-03,  -26.6362E-03,   2.22962E-03
C:/temp/dataset/3/3_1.odb,Step-1,Increment      1: Step Time =    1.000,"PART-1-1",           154,       7.20650,      -8.25133,            0.,NA,NA,"",   63.5803E-03,  -54.9562E-03,  -31.9730E-03,   2.29868E-03
C:/temp/dataset/3/3_1.odb,Step-1,Increment      1: Step Time =    1.000,"PART-1-1",           155,       7.07274,      -17.3233,            0.,NA,NA,"",   16.3454E-03,  -7.58882E-03,  -14.4769E-03,   2.31576E-03
C:/temp/dataset/3/3_1.odb,Step-1,Increment      1: Step Time =    1.000,"PART-1-1",           156,       6.55788,      -15.2577,            0.,NA,NA,"",   25.9164E-03,  -15.7082E-03,  -20.6134E-03,   2.70448E-03
C:/temp/dataset/3/3_1.odb,Step-1,Increment      1: Step Time =    1.000,"PART-1-1",           157,      -7.46685,      -22.5818,            0.,NA,NA,"",   683.754E-06,  -670.606E-06,   133.445E-06,   28.7142E-06
C:/temp/dataset/3/3_1.odb,Step-1,Increment      1: Step Time =    1.000,"PART-1-1",           158,      -4.95694,      -22.5955,            0.,NA,NA,"",   747.962E-06,  -744.677E-06,   70.0212E-06,   48.3441E-06
C:/temp/dataset/3/3_1.odb,Step-1,Increment      1: Step Time =    1.000,"PART-1-1",           159,   146.162E-03,      -22.6598,            0.,NA,NA,"",   1.66448E-03,  -1.15437E-03,  -1.19913E-03,   313.581E-06
C:/temp/dataset/3/3_1.odb,Step-1,Increment      1: Step Time =    1.000,"PART-1-1",           160,      -12.4860,      -22.5306,            0.,NA,NA,"",   618.179E-06,  -617.951E-06,  -16.7833E-06,   6.76896E-06
C:/temp/dataset/3/3_1.odb,Step-1,Increment      1: Step Time =    1.000,"PART-1-1",           161,       9.96020,      -27.7814,            0.,NA,NA,"",   1.52661E-03,   1.36467E-03,  -684.267E-06,   637.015E-06
C:/temp/dataset/3/3_1.odb,Step-1,Increment      1: Step Time =    1.000,"PART-1-1",           162,       7.44077,      -27.8946,            0.,NA,NA,"",   1.32749E-03,   704.042E-06,  -1.12542E-03,   789.975E-06
C:/temp/dataset/3/3_1.odb,Step-1,Increment      1: Step Time =    1.000,"PART-1-1",           163,       4.93217,      -27.8625,            0.,NA,NA,"",   1.20094E-03,  -95.3365E-06,  -1.19715E-03,   778.645E-06
C:/temp/dataset/3/3_1.odb,Step-1,Increment      1: Step Time =    1.000,"PART-1-1",           164,       2.47767,      -27.7470,            0.,NA,NA,"",   1.12835E-03,  -666.274E-06,  -910.629E-06,   588.080E-06
C:/temp/dataset/3/3_1.odb,Step-1,Increment      1: Step Time =    1.000,"PART-1-1",           165,   19.5837E-03,      -27.6625,            0.,NA,NA,"",   974.784E-06,  -839.433E-06,  -495.536E-06,   378.741E-06
C:/temp/dataset/3/3_1.odb,Step-1,Increment      1: Step Time =    1.000,"PART-1-1",           166,      -2.46955,      -27.6154,            0.,NA,NA,"",   775.816E-06,  -750.074E-06,  -198.190E-06,   239.663E-06
C:/temp/dataset/3/3_1.odb,Step-1,Increment      1: Step Time =    1.000,"PART-1-1",           167,      -4.97450,      -27.5844,            0.,NA,NA,"",   576.769E-06,  -574.929E-06,  -46.0359E-06,   160.280E-06
C:/temp/dataset/3/3_1.odb,Step-1,Increment      1: Step Time =    1.000,"PART-1-1",           168,      -7.48283,      -27.5594,            0.,NA,NA,"",   421.227E-06,  -421.181E-06,   6.27100E-06,   111.160E-06
C:/temp/dataset/3/3_1.odb,Step-1,Increment      1: Step Time =    1.000,"PART-1-1",           169,       12.2865,      -25.1793,            0.,NA,NA,"",   2.51473E-03,   2.51288E-03,  -96.2827E-06,   568.782E-06
C:/temp/dataset/3/3_1.odb,Step-1,Increment      1: Step Time =    1.000,"PART-1-1",           170,       11.6753,      -16.4340,            0.,NA,NA,"",   8.92529E-03,  -8.92431E-03,   132.128E-06,   241.257E-06
C:/temp/dataset/3/3_1.odb,Step-1,Increment      1: Step Time =    1.000,"PART-1-1",           171,       11.9685,      -19.5802,            0.,NA,NA,"",   1.02394E-03,  -978.071E-06,   303.030E-06,   543.200E-06
C:/temp/dataset/3/3_1.odb,Step-1,Increment      1: Step Time =    1.000,"PART-1-1",           172,       13.3291,      -9.93034,            0.,NA,NA,"",   43.7431E-03,  -42.0924E-03,   11.9032E-03,   1.02808E-03
C:/temp/dataset/3/3_1.odb,Step-1,Increment      1: Step Time =    1.000,"PART-1-1",           173,       13.4212,      -12.1607,            0.,NA,NA,"",   30.3421E-03,  -28.5079E-03,   10.3896E-03,   1.08218E-03
C:/temp/dataset/3/3_1.odb,Step-1,Increment      1: Step Time =    1.000,"PART-1-1",           174,       12.9633,      -2.52247,            0.,NA,NA,"",   105.715E-03,  -104.740E-03,   14.3290E-03,   652.638E-06
C:/temp/dataset/3/3_1.odb,Step-1,Increment      1: Step Time =    1.000,"PART-1-1",           175,       13.1247,      -4.84738,            0.,NA,NA,"",   83.6910E-03,  -82.4332E-03,   14.4549E-03,   849.653E-06
C:/temp/dataset/3/3_1.odb,Step-1,Increment      1: Step Time =    1.000,"PART-1-1",           176,       13.1131,       5.12757,            0.,NA,NA,"",   190.337E-03,  -189.280E-03,   20.0371E-03,   890.468E-06
C:/temp/dataset/3/3_1.odb,Step-1,Increment      1: Step Time =    1.000,"PART-1-1",           177,       12.1418,       2.60140,            0.,NA,NA,"",   159.388E-03,  -159.230E-03,   7.09900E-03,   416.203E-06
C:/temp/dataset/3/3_1.odb,Step-1,Increment      1: Step Time =    1.000,"PART-1-1",           178,       12.1760,       12.1629,            0.,NA,NA,"",   288.081E-03,  -287.892E-03,   10.4314E-03,   471.084E-06
C:/temp/dataset/3/3_1.odb,Step-1,Increment      1: Step Time =    1.000,"PART-1-1",           179,       13.0236,       9.64002,            0.,NA,NA,"",   250.751E-03,  -249.775E-03,   22.1052E-03,   934.817E-06
C:/temp/dataset/3/3_1.odb,Step-1,Increment      1: Step Time =    1.000,"PART-1-1",           180,       12.3784,       20.0377,            0.,NA,NA,"",   430.530E-03,  -430.212E-03,   16.5235E-03,   733.756E-06
C:/temp/dataset/3/3_1.odb,Step-1,Increment      1: Step Time =    1.000,"PART-1-1",           181,       12.3660,       17.5135,            0.,NA,NA,"",   381.193E-03,  -380.879E-03,   15.4738E-03,   632.929E-06
C:/temp/dataset/3/3_1.odb,Step-1,Increment      1: Step Time =    1.000,"PART-1-1",           182,       12.4264,       25.0333,            0.,NA,NA,"",   536.302E-03,  -536.001E-03,   17.9583E-03,   679.437E-06
C:/temp/dataset/3/3_1.odb,Step-1,Increment      1: Step Time =    1.000,"PART-1-1",           183,       7.43491,       27.5684,            0.,NA,NA,"",   598.568E-03,  -591.724E-03,  -90.2622E-03,   913.933E-06
C:/temp/dataset/3/3_1.odb,Step-1,Increment      1: Step Time =    1.000,"PART-1-1",           184,  -17.4965E-03,       27.5503,            0.,NA,NA,"",   647.086E-03,  -593.988E-03,  -256.706E-03,   517.439E-06
C:/temp/dataset/3/3_1.odb,Step-1,Increment      1: Step Time =    1.000,"PART-1-1",           185,       2.47067,       27.5656,            0.,NA,NA,"",   627.242E-03,  -593.895E-03,  -201.796E-03,   1.14203E-03
C:/temp/dataset/3/3_1.odb,Step-1,Increment      1: Step Time =    1.000,"PART-1-1",           186,      -7.50286,       27.5043,            0.,NA,NA,"",   726.403E-03,  -591.259E-03,  -421.988E-03,   31.3212E-06
C:/temp/dataset/3/3_1.odb,Step-1,Increment      1: Step Time =    1.000,"PART-1-1",           187,      -5.00635,       27.5119,            0.,NA,NA,"",   696.371E-03,  -592.066E-03,  -366.594E-03,   63.6878E-06
C:/temp/dataset/3/3_1.odb,Step-1,Increment      1: Step Time =    1.000,"PART-1-1",           188,      -12.5019,       27.5019,            0.,NA,NA,"",   795.015E-03,  -589.962E-03,  -532.910E-03,   2.15270E-06
C:/temp/dataset/3/3_1.odb,Step-1,Increment      1: Step Time =    1.000,"PART-1-1",           189,      -12.5001,       22.5034,            0.,NA,NA,"",   715.669E-03,  -479.092E-03,  -531.651E-03,   2.16065E-06
C:/temp/dataset/3/3_1.odb,Step-1,Increment      1: Step Time =    1.000,"PART-1-1",           190,      -5.00429,       25.0191,            0.,NA,NA,"",   649.770E-03,  -536.878E-03,  -366.011E-03,   68.5775E-06
C:/temp/dataset/3/3_1.odb,Step-1,Increment      1: Step Time =    1.000,"PART-1-1",           191,  -15.9173E-03,       25.0642,            0.,NA,NA,"",   596.514E-03,  -539.191E-03,  -255.151E-03,   315.753E-06
C:/temp/dataset/3/3_1.odb,Step-1,Increment      1: Step Time =    1.000,"PART-1-1",           192,       9.74355,       15.0604,            0.,NA,NA,"",   337.371E-03,  -335.941E-03,  -31.0317E-03,   828.926E-06
C:/temp/dataset/3/3_1.odb,Step-1,Increment      1: Step Time =    1.000,"PART-1-1",           193,       9.51986,       12.6989,            0.,NA,NA,"",   298.196E-03,  -296.423E-03,  -32.4683E-03,   1.01678E-03
C:/temp/dataset/3/3_1.odb,Step-1,Increment      1: Step Time =    1.000,"PART-1-1",           194,       12.1898,      -11.7554,            0.,NA,NA,"",   30.5853E-03,  -30.3603E-03,   3.70282E-03,   423.067E-06
C:/temp/dataset/3/3_1.odb,Step-1,Increment      1: Step Time =    1.000,"PART-1-1",           195,       9.78251,      -13.4248,            0.,NA,NA,"",   23.3760E-03,  -21.6269E-03,  -8.87191E-03,   852.413E-06
C:/temp/dataset/3/3_1.odb,Step-1,Increment      1: Step Time =    1.000,"PART-1-1",           196,       7.24032,      -19.5057,            0.,NA,NA,"",   10.3533E-03,  -1.60541E-03,  -10.2281E-03,   1.47467E-03
C:/temp/dataset/3/3_1.odb,Step-1,Increment      1: Step Time =    1.000,"PART-1-1",           197,      -10.0066,  -139.817E-03,            0.,NA,NA,"",   266.268E-03,  -134.625E-03,  -229.728E-03,   4.69171E-06
C:/temp/dataset/3/3_1.odb,Step-1,Increment      1: Step Time =    1.000,"PART-1-1",           198,      -8.39380,      -1.43672,            0.,NA,NA,"",   244.447E-03,  -120.888E-03,  -212.463E-03,   10.1203E-06
C:/temp/dataset/3/3_1.odb,Step-1,Increment      1: Step Time =    1.000,"PART-1-1",           199,      -5.07121,  -530.035E-03,            0.,NA,NA,"",   220.154E-03,  -130.809E-03,  -177.079E-03,   46.2531E-06
C:/temp/dataset/3/3_1.odb,Step-1,Increment      1: Step Time =    1.000,"PART-1-1",           200,      -12.5003,      -27.5198,            0.,NA,NA,"",   272.381E-06,  -271.012E-06,  -27.2770E-06,   65.0411E-06
C:/temp/dataset/3/3_1.odb,Step-1,Increment      1: Step Time =    1.000,"PART-1-1",           201,       8.97180,      -8.86122,            0.,NA,NA,"",   52.5729E-03,  -49.3243E-03,  -18.1942E-03,   1.18357E-03
C:/temp/dataset/3/3_1.odb,Step-1,Increment      1: Step Time =    1.000,"PART-1-1",           202,      -2.50561,       25.0360,            0.,NA,NA,"",   621.200E-03,  -537.980E-03,  -310.592E-03,   79.9573E-06
C:/temp/dataset/3/3_1.odb,Step-1,Increment      1: Step Time =    1.000,"PART-1-1",           203,      -7.50383,       25.0106,            0.,NA,NA,"",   681.830E-03,  -535.981E-03,  -421.445E-03,   32.8527E-06
C:/temp/dataset/3/3_1.odb,Step-1,Increment      1: Step Time =    1.000,"PART-1-1",           204,       2.46362,       25.0850,            0.,NA,NA,"",   575.206E-03,  -539.611E-03,  -199.205E-03,   1.06779E-03
C:/temp/dataset/3/3_1.odb,Step-1,Increment      1: Step Time =    1.000,"PART-1-1",           205,       9.17638,       10.5785,            0.,NA,NA,"",   265.729E-03,  -263.346E-03,  -35.5054E-03,   1.17314E-03
C:/temp/dataset/3/3_1.odb,Step-1,Increment      1: Step Time =    1.000,"PART-1-1",           206,       9.65111,       6.46520,            0.,NA,NA,"",   206.976E-03,  -205.472E-03,  -24.9025E-03,   772.326E-06
C:/temp/dataset/3/3_1.odb,Step-1,Increment      1: Step Time =    1.000,"PART-1-1",           207,      -1.99278,       1.34592,            0.,NA,NA,"",   208.924E-03,  -151.114E-03,  -144.269E-03,   100.043E-06
C:/temp/dataset/3/3_1.odb,Step-1,Increment      1: Step Time =    1.000,"PART-1-1",           208,      -5.69490,       1.29843,            0.,NA,NA,"",   237.385E-03,  -150.250E-03,  -183.784E-03,   35.6956E-06
C:/temp/dataset/3/3_1.odb,Step-1,Increment      1: Step Time =    1.000,"PART-1-1",           209,       1.92780,   665.778E-03,            0.,NA,NA,"",   177.113E-03,  -144.258E-03,  -102.755E-03,   382.443E-06
C:/temp/dataset/3/3_1.odb,Step-1,Increment      1: Step Time =    1.000,"PART-1-1",           210,       1.26043,      -1.37778,            0.,NA,NA,"",   164.020E-03,  -122.395E-03,  -109.187E-03,   187.719E-06
C:/temp/dataset/3/3_1.odb,Step-1,Increment      1: Step Time =    1.000,"PART-1-1",           211,       9.14691,      -16.8280,            0.,NA,NA,"",   11.5598E-03,  -7.83474E-03,  -8.49969E-03,   1.02812E-03
C:/temp/dataset/3/3_1.odb,Step-1,Increment      1: Step Time =    1.000,"PART-1-1",           212,   79.9954E-03,      -25.2148,            0.,NA,NA,"",   1.57589E-03,  -1.24034E-03,  -972.102E-06,   364.340E-06
C:/temp/dataset/3/3_1.odb,Step-1,Increment      1: Step Time =    1.000,"PART-1-1",           213,      -9.97865,      -25.0679,            0.,NA,NA,"",   535.041E-06,  -532.547E-06,   51.5994E-06,   43.3273E-06
C:/temp/dataset/3/3_1.odb,Step-1,Increment      1: Step Time =    1.000,"PART-1-1",           214,       12.4671,      -27.6040,            0.,NA,NA,"",   1.63529E-03,   1.63327E-03,  -81.3395E-06,   546.945E-06
C:/temp/dataset/3/3_1.odb,Step-1,Increment      1: Step Time =    1.000,"PART-1-1",           215,       9.82463,      -25.6838,            0.,NA,NA,"",   2.64991E-03,   2.06640E-03,  -1.65892E-03,   806.314E-06
C:/temp/dataset/3/3_1.odb,Step-1,Increment      1: Step Time =    1.000,"PART-1-1",           216,       2.56344,      -25.3828,            0.,NA,NA,"",   2.37929E-03,  -1.11909E-03,  -2.09968E-03,   725.593E-06
C:/temp/dataset/3/3_1.odb,Step-1,Increment      1: Step Time =    1.000,"PART-1-1",           217,      -2.44121,      -25.1518,            0.,NA,NA,"",   1.08107E-03,  -1.04462E-03,  -278.371E-06,   192.917E-06
C:/temp/dataset/3/3_1.odb,Step-1,Increment      1: Step Time =    1.000,"PART-1-1",           218,      -4.95889,      -25.1139,            0.,NA,NA,"",   817.280E-06,  -817.277E-06,   2.28714E-06,   111.033E-06
C:/temp/dataset/3/3_1.odb,Step-1,Increment      1: Step Time =    1.000,"PART-1-1",           219,       10.3279,  -771.646E-03,            0.,NA,NA,"",   123.447E-03,  -122.843E-03,  -12.1952E-03,   682.635E-06
C:/temp/dataset/3/3_1.odb,Step-1,Increment      1: Step Time =    1.000,"PART-1-1",           220,       10.4049,       4.48083,            0.,NA,NA,"",   181.449E-03,  -180.896E-03,  -14.1618E-03,   530.530E-06
C:/temp/dataset/3/3_1.odb,Step-1,Increment      1: Step Time =    1.000,"PART-1-1",           221,       9.80969,       17.5478,            0.,NA,NA,"",   382.097E-03,  -380.765E-03,  -31.8719E-03,   612.456E-06
C:/temp/dataset/3/3_1.odb,Step-1,Increment      1: Step Time =    1.000,"PART-1-1",           222,       9.88106,       25.0797,            0.,NA,NA,"",   537.866E-03,  -536.708E-03,  -35.2728E-03,   710.952E-06
C:/temp/dataset/3/3_1.odb,Step-1,Increment      1: Step Time =    1.000,"PART-1-1",           223,       9.94975,       27.5346,            0.,NA,NA,"",   591.568E-03,  -590.526E-03,  -35.0989E-03,   465.996E-06
C:/temp/dataset/3/3_1.odb,Step-1,Increment      1: Step Time =    1.000,"PART-1-1",           224,       7.36779,       20.0596,            0.,NA,NA,"",   437.544E-03,  -429.802E-03,  -81.9436E-03,   1.41445E-03
C:/temp/dataset/3/3_1.odb,Step-1,Increment      1: Step Time =    1.000,"PART-1-1",           225,  -693.206E-03,      -1.01900,            0.,NA,NA,"",   181.333E-03,  -126.069E-03,  -130.340E-03,   111.181E-06
C:/temp/dataset/3/3_1.odb,Step-1,Increment      1: Step Time =    1.000,"PART-1-1",           226,      -7.47194,      -25.0831,            0.,NA,NA,"",   645.597E-06,  -641.250E-06,   74.7884E-06,   73.1034E-06
C:/temp/dataset/3/3_1.odb,Step-1,Increment      1: Step Time =    1.000,"PART-1-1",           227,       5.28089,       2.25097,            0.,NA,NA,"",   174.219E-03,  -159.518E-03,  -70.0450E-03,   2.08111E-03
C:/temp/dataset/3/3_1.odb,Step-1,Increment      1: Step Time =    1.000,"PART-1-1",           228,       9.26575,       8.45073,            0.,NA,NA,"",   234.440E-03,  -232.265E-03,  -31.8557E-03,   997.692E-06
C:/temp/dataset/3/3_1.odb,Step-1,Increment      1: Step Time =    1.000,"PART-1-1",           229,  -81.3472E-03,       1.02952,            0.,NA,NA,"",   193.060E-03,  -148.005E-03,  -123.963E-03,   96.7968E-06
C:/temp/dataset/3/3_1.odb,Step-1,Increment      1: Step Time =    1.000,"PART-1-1",           230,      -7.67687,   831.326E-03,            0.,NA,NA,"",   251.109E-03,  -145.130E-03,  -204.922E-03,   15.4292E-06
C:/temp/dataset/3/3_1.odb,Step-1,Increment      1: Step Time =    1.000,"PART-1-1",           231,      -2.54090,  -531.417E-03,            0.,NA,NA,"",   199.269E-03,  -131.069E-03,  -150.098E-03,   92.4278E-06
C:/temp/dataset/3/3_1.odb,Step-1,Increment      1: Step Time =    1.000,"PART-1-1",           232,      -3.83997,       1.55066,            0.,NA,NA,"",   224.338E-03,  -153.092E-03,  -163.983E-03,   62.6409E-06
C:/temp/dataset/3/3_1.odb,Step-1,Increment      1: Step Time =    1.000,"PART-1-1",           233,      -6.84494,  -996.203E-03,            0.,NA,NA,"",   232.817E-03,  -125.692E-03,  -195.972E-03,   23.4758E-06
C:/temp/dataset/3/3_1.odb,Step-1,Increment      1: Step Time =    1.000,"PART-1-1",           234,       5.51335,      -3.03354,            0.,NA,NA,"",   118.853E-03,  -103.107E-03,  -59.1175E-03,   2.33417E-03
C:/temp/dataset/3/3_1.odb,Step-1,Increment      1: Step Time =    1.000,"PART-1-1",           235,       9.62476,      -7.14735,            0.,NA,NA,"",   63.8329E-03,  -62.0988E-03,  -14.7774E-03,   779.845E-06
C:/temp/dataset/3/3_1.odb,Step-1,Increment      1: Step Time =    1.000,"PART-1-1",           236,       7.38903,      -25.9371,            0.,NA,NA,"",   2.81168E-03,   1.02208E-03,  -2.61933E-03,   1.03005E-03
C:/temp/dataset/3/3_1.odb,Step-1,Increment      1: Step Time =    1.000,"PART-1-1",           237,       4.96373,      -25.7856,            0.,NA,NA,"",   2.84228E-03,  -229.724E-06,  -2.83298E-03,   1.02471E-03
C:/temp/dataset/3/3_1.odb,Step-1,Increment      1: Step Time =    1.000,"PART-1-1",           238,       9.37191,      -21.3805,            0.,NA,NA,"",   4.86602E-03,   1.25303E-03,  -4.70192E-03,   954.195E-06
C:/temp/dataset/3/3_1.odb,Step-1,Increment      1: Step Time =    1.000,"PART-1-1",           239,       9.53380,      -19.3691,            0.,NA,NA,"",   5.66332E-03,  -1.24048E-03,  -5.52579E-03,   790.002E-06
C:/temp/dataset/3/3_1.odb,Step-1,Increment      1: Step Time =    1.000,"PART-1-1",           240,       10.5518,      -5.76730,            0.,NA,NA,"",   74.0679E-03,  -73.6519E-03,  -7.83935E-03,   389.541E-06
C:/temp/dataset/3/3_1.odb,Step-1,Increment      1: Step Time =    1.000,"PART-1-1",           241,       10.8494,      -2.88140,            0.,NA,NA,"",   101.166E-03,  -100.987E-03,  -6.00754E-03,   445.288E-06
C:/temp/dataset/3/3_1.odb,Step-1,Increment      1: Step Time =    1.000,"PART-1-1",           242,       9.33979,       1.27198,            0.,NA,NA,"",   147.217E-03,  -145.159E-03,  -24.5315E-03,   1.14005E-03
C:/temp/dataset/3/3_1.odb,Step-1,Increment      1: Step Time =    1.000,"PART-1-1",           243,       9.83335,       20.0603,            0.,NA,NA,"",   431.123E-03,  -429.854E-03,  -33.0514E-03,   759.053E-06
C:/temp/dataset/3/3_1.odb,Step-1,Increment      1: Step Time =    1.000,"PART-1-1",           244,       7.39102,       25.1069,            0.,NA,NA,"",   545.142E-03,  -537.903E-03,  -88.5451E-03,   1.15294E-03
C:/temp/dataset/3/3_1.odb,Step-1,Increment      1: Step Time =    1.000,"PART-1-1",           245,       4.93408,       25.0979,            0.,NA,NA,"",   557.687E-03,  -539.008E-03,  -143.126E-03,   1.41883E-03
C:/temp/dataset/3/3_1.odb,Step-1,Increment      1: Step Time =    1.000,"PART-1-1",           246,      -10.0026,       25.0068,            0.,NA,NA,"",   716.860E-03,  -535.245E-03,  -476.866E-03,   11.4348E-06
C:/temp/dataset/3/3_1.odb,Step-1,Increment      1: Step Time =    1.000,"PART-1-1",           247,      -10.0008,       22.5051,            0.,NA,NA,"",   675.981E-03,  -479.746E-03,  -476.229E-03,   9.75560E-06
C:/temp/dataset/3/3_1.odb,Step-1,Increment      1: Step Time =    1.000,"PART-1-1",           248,      -9.99283,      -27.5363,            0.,NA,NA,"",   317.409E-06,  -317.278E-06,   9.11099E-06,   80.4872E-06
C:/temp/dataset/3/3_1.odb,Step-1,Increment      1: Step Time =    1.000,"PART-1-1",           249,       3.80746,   187.829E-03,            0.,NA,NA,"",   161.308E-03,  -138.538E-03,  -82.6288E-03,   1.13856E-03
C:/temp/dataset/3/3_1.odb,Step-1,Increment      1: Step Time =    1.000,"PART-1-1",           250,       11.4886,       7.12458,            0.,NA,NA,"",   214.193E-03,  -214.193E-03,  -532.644E-06,   278.433E-06
C:/temp/dataset/3/3_1.odb,Step-1,Increment      1: Step Time =    1.000,"PART-1-1",           251,       5.25951,      -23.9756,            0.,NA,NA,"",   4.64548E-03,  -332.396E-06,  -4.63357E-03,   1.37726E-03
C:/temp/dataset/3/3_1.odb,Step-1,Increment      1: Step Time =    1.000,"PART-1-1",           252,       9.85798,       22.5791,            0.,NA,NA,"",   483.726E-03,  -482.521E-03,  -34.1163E-03,   876.114E-06
C:/temp/dataset/3/3_1.odb,Step-1,Increment      1: Step Time =    1.000,"PART-1-1",           253,       7.38133,       22.5911,            0.,NA,NA,"",   490.809E-03,  -483.330E-03,  -85.3545E-03,   1.56742E-03
C:/temp/dataset/3/3_1.odb,Step-1,Increment      1: Step Time =    1.000,"PART-1-1",           254,       9.03817,      -10.9527,            0.,NA,NA,"",   38.7355E-03,  -35.5486E-03,  -15.3862E-03,   1.24004E-03
C:/temp/dataset/3/3_1.odb,Step-1,Increment      1: Step Time =    1.000,"PART-1-1",           255,       7.30212,      -21.2110,            0.,NA,NA,"",   7.99158E-03,   425.056E-06,  -7.98027E-03,   1.57529E-03
C:/temp/dataset/3/3_1.odb,Step-1,Increment      1: Step Time =    1.000,"PART-1-1",           256,       8.48263,      -3.88795,            0.,NA,NA,"",   95.8296E-03,  -91.8148E-03,  -27.4473E-03,   1.34946E-03
C:/temp/dataset/3/3_1.odb,Step-1,Increment      1: Step Time =    1.000,"PART-1-1",           257,       8.48912,      -1.65164,            0.,NA,NA,"",   118.576E-03,  -114.673E-03,  -30.1701E-03,   1.48085E-03
C:/temp/dataset/3/3_1.odb,Step-1,Increment      1: Step Time =    1.000,"PART-1-1",           258,       8.19007,       3.36514,            0.,NA,NA,"",   173.644E-03,  -168.921E-03,  -40.2250E-03,   1.61518E-03
C:/temp/dataset/3/3_1.odb,Step-1,Increment      1: Step Time =    1.000,"PART-1-1",           259,       6.78208,  -317.133E-03,            0.,NA,NA,"",   139.730E-03,  -130.448E-03,  -50.0753E-03,   1.86005E-03
C:/temp/dataset/3/3_1.odb,Step-1,Increment      1: Step Time =    1.000,"PART-1-1",           260,       11.8604,      -10.2109,            0.,NA,NA,"",   39.8160E-03,  -39.7587E-03,   2.13576E-03,   267.727E-06
C:/temp/dataset/3/3_1.odb,Step-1,Increment      1: Step Time =    1.000,"PART-1-1",           261,       5.00218,  -627.613E-03,            0.,NA,NA,"",   146.095E-03,  -128.939E-03,  -68.6914E-03,   1.65229E-03
C:/temp/dataset/3/3_1.odb,Step-1,Increment      1: Step Time =    1.000,"PART-1-1",           262,       11.1460,      -8.45072,            0.,NA,NA,"",   51.9992E-03,  -51.9305E-03,  -2.67139E-03,   108.367E-06
C:/temp/dataset/3/3_1.odb,Step-1,Increment      1: Step Time =    1.000,"PART-1-1",           263,       11.7180,       5.54683,            0.,NA,NA,"",   194.014E-03,  -194.000E-03,   2.36065E-03,   397.335E-06
C:/temp/dataset/3/3_1.odb,Step-1,Increment      1: Step Time =    1.000,"PART-1-1",           264,       5.25136,      -21.5985,            0.,NA,NA,"",   7.79391E-03,  -823.784E-06,  -7.75025E-03,   2.13041E-03
C:/temp/dataset/3/3_1.odb,Step-1,Increment      1: Step Time =    1.000,"PART-1-1",           265,       12.4723,       27.5096,            0.,NA,NA,"",   590.476E-03,  -590.184E-03,   18.5757E-03,   493.129E-06
C:/temp/dataset/3/3_1.odb,Step-1,Increment      1: Step Time =    1.000,"PART-1-1",           266,       5.87727,      -22.7682,            0.,NA,NA,"",   6.34696E-03,  -196.893E-06,  -6.34390E-03,   1.59173E-03
C:/temp/dataset/3/3_1.odb,Step-1,Increment      1: Step Time =    1.000,"PART-1-1",           267,       7.32369,      -22.7299,            0.,NA,NA,"",   6.08788E-03,   927.616E-06,  -6.01680E-03,   1.47832E-03
C:/temp/dataset/3/3_1.odb,Step-1,Increment      1: Step Time =    1.000,"PART-1-1",           268,       11.4923,      -4.55460,            0.,NA,NA,"",   84.7403E-03,  -84.7402E-03,   136.456E-06,   352.077E-06
C:/temp/dataset/3/3_1.odb,Step-1,Increment      1: Step Time =    1.000,"PART-1-1",           269,       11.2115,       8.96325,            0.,NA,NA,"",   239.462E-03,  -239.420E-03,  -4.45492E-03,   124.721E-06
C:/temp/dataset/3/3_1.odb,Step-1,Increment      1: Step Time =    1.000,"PART-1-1",           270,       10.8046,       10.5255,            0.,NA,NA,"",   262.502E-03,  -262.279E-03,  -10.8296E-03,   282.072E-06
C:/temp/dataset/3/3_1.odb,Step-1,Increment      1: Step Time =    1.000,"PART-1-1",           271,       7.35536,      -24.2380,            0.,NA,NA,"",   4.36949E-03,   1.07625E-03,  -4.23487E-03,   1.25513E-03
C:/temp/dataset/3/3_1.odb,Step-1,Increment      1: Step Time =    1.000,"PART-1-1",           272,      -3.82134,   150.711E-03,            0.,NA,NA,"",   214.283E-03,  -138.199E-03,  -163.762E-03,   68.1755E-06
C:/temp/dataset/3/3_1.odb,Step-1,Increment      1: Step Time =    1.000,"PART-1-1",           273,       3.09609,      -1.70207,            0.,NA,NA,"",   148.206E-03,  -118.773E-03,  -88.6458E-03,   866.481E-06
C:/temp/dataset/3/3_1.odb,Step-1,Increment      1: Step Time =    1.000,"PART-1-1",           274,       4.56419,      -1.78689,            0.,NA,NA,"",   137.412E-03,  -117.112E-03,  -71.8814E-03,   1.54929E-03
C:/temp/dataset/3/3_1.odb,Step-1,Increment      1: Step Time =    1.000,"PART-1-1",           275,       9.44492,      -23.8624,            0.,NA,NA,"",   3.66511E-03,   2.11273E-03,  -2.99489E-03,   987.003E-06
C:/temp/dataset/3/3_1.odb,Step-1,Increment      1: Step Time =    1.000,"PART-1-1",           276,       8.77427,      -22.6651,            0.,NA,NA,"",   4.91453E-03,   1.66606E-03,  -4.62351E-03,   1.13317E-03
C:/temp/dataset/3/3_1.odb,Step-1,Increment      1: Step Time =    1.000,"PART-1-1",           277,       10.1837,      -9.28900,            0.,NA,NA,"",   46.9069E-03,  -45.9857E-03,  -9.25038E-03,   574.932E-06
C:/temp/dataset/3/3_1.odb,Step-1,Increment      1: Step Time =    1.000,"PART-1-1",           278,       10.4979,      -10.7612,            0.,NA,NA,"",   36.8258E-03,  -36.2525E-03,  -6.47257E-03,   457.850E-06
C:/temp/dataset/3/3_1.odb,Step-1,Increment      1: Step Time =    1.000,"PART-1-1",           279,       11.2325,      -12.6180,            0.,NA,NA,"",   25.5435E-03,  -25.4856E-03,  -1.71876E-03,   104.343E-06
C:/temp/dataset/3/3_1.odb,Step-1,Increment      1: Step Time =    1.000,"PART-1-1",           280,      -13.7500,       22.5017,            0.,NA,NA,"",   736.271E-03,  -478.746E-03,  -559.373E-03,   1.05283E-06
C:/temp/dataset/3/3_1.odb,Step-1,Increment      1: Step Time =    1.000,"PART-1-1",           281,          -15.,         21.25,            0.,NA,NA,"",   739.884E-03,  -450.676E-03,  -586.788E-03,   213.803E-09
C:/temp/dataset/3/3_1.odb,Step-1,Increment      1: Step Time =    1.000,"PART-1-1",           282,        -13.75,           20.,            0.,NA,NA,"",   700.969E-03,  -423.259E-03,  -558.757E-03,   78.0798E-09
C:/temp/dataset/3/3_1.odb,Step-1,Increment      1: Step Time =    1.000,"PART-1-1",           283,      -12.5000,       21.2517,            0.,NA,NA,"",   697.153E-03,  -451.328E-03,  -531.343E-03,   936.586E-09
C:/temp/dataset/3/3_1.odb,Step-1,Increment      1: Step Time =    1.000,"PART-1-1",           284,        -11.25,           30.,            0.,NA,NA,"",   820.177E-03,  -645.682E-03,  -505.751E-03,   2.49512E-06
C:/temp/dataset/3/3_1.odb,Step-1,Increment      1: Step Time =    1.000,"PART-1-1",           285,      -12.5009,       28.7510,            0.,NA,NA,"",   815.972E-03,  -617.667E-03,  -533.196E-03,   980.055E-09
C:/temp/dataset/3/3_1.odb,Step-1,Increment      1: Step Time =    1.000,"PART-1-1",           286,      -11.2523,       27.5017,            0.,NA,NA,"",   776.935E-03,  -590.264E-03,  -505.189E-03,   5.85086E-06
C:/temp/dataset/3/3_1.odb,Step-1,Increment      1: Step Time =    1.000,"PART-1-1",           287,      -10.0014,       28.7507,            0.,NA,NA,"",   781.344E-03,  -618.274E-03,  -477.740E-03,   5.53283E-06
C:/temp/dataset/3/3_1.odb,Step-1,Increment      1: Step Time =    1.000,"PART-1-1",           288,      -8.75282,       27.5029,            0.,NA,NA,"",   742.585E-03,  -590.911E-03,  -449.729E-03,   20.1295E-06
C:/temp/dataset/3/3_1.odb,Step-1,Increment      1: Step Time =    1.000,"PART-1-1",           289,      -10.0027,       26.2541,            0.,NA,NA,"",   737.937E-03,  -562.908E-03,  -477.164E-03,   9.46291E-06
C:/temp/dataset/3/3_1.odb,Step-1,Increment      1: Step Time =    1.000,"PART-1-1",           290,      -8.75320,       25.0087,            0.,NA,NA,"",   699.010E-03,  -535.608E-03,  -449.155E-03,   21.5378E-06
C:/temp/dataset/3/3_1.odb,Step-1,Increment      1: Step Time =    1.000,"PART-1-1",           291,      -7.50334,       26.2575,            0.,NA,NA,"",   703.930E-03,  -563.628E-03,  -421.713E-03,   27.2849E-06
C:/temp/dataset/3/3_1.odb,Step-1,Increment      1: Step Time =    1.000,"PART-1-1",           292,  -10.1921E-03,       23.8015,            0.,NA,NA,"",   571.015E-03,  -511.183E-03,  -254.459E-03,   269.667E-06
C:/temp/dataset/3/3_1.odb,Step-1,Increment      1: Step Time =    1.000,"PART-1-1",           293,       1.23656,       22.5490,            0.,NA,NA,"",   533.653E-03,  -483.622E-03,  -225.601E-03,   534.565E-06
C:/temp/dataset/3/3_1.odb,Step-1,Increment      1: Step Time =    1.000,"PART-1-1",           294,       2.47060,       23.8222,            0.,NA,NA,"",   548.950E-03,  -511.998E-03,  -198.000E-03,   958.217E-06
C:/temp/dataset/3/3_1.odb,Step-1,Increment      1: Step Time =    1.000,"PART-1-1",           295,       1.22385,       25.0746,            0.,NA,NA,"",   585.432E-03,  -539.490E-03,  -227.335E-03,   679.378E-06
C:/temp/dataset/3/3_1.odb,Step-1,Increment      1: Step Time =    1.000,"PART-1-1",           296,       13.7132,       25.0166,            0.,NA,NA,"",   537.970E-03,  -536.088E-03,   44.9616E-03,   555.603E-06
C:/temp/dataset/3/3_1.odb,Step-1,Increment      1: Step Time =    1.000,"PART-1-1",           297,           15.,         26.25,            0.,NA,NA,"",   568.126E-03,  -563.454E-03,   72.7083E-03,   411.434E-06
C:/temp/dataset/3/3_1.odb,Step-1,Increment      1: Step Time =    1.000,"PART-1-1",           298,       13.7362,       27.5048,            0.,NA,NA,"",   592.120E-03,  -590.370E-03,   45.4863E-03,   285.032E-06
C:/temp/dataset/3/3_1.odb,Step-1,Increment      1: Step Time =    1.000,"PART-1-1",           299,       12.4494,       26.2714,            0.,NA,NA,"",   563.367E-03,  -563.069E-03,   18.3071E-03,   577.889E-06
C:/temp/dataset/3/3_1.odb,Step-1,Increment      1: Step Time =    1.000,"PART-1-1",           300,       6.19248,       27.5744,            0.,NA,NA,"",   604.029E-03,  -592.371E-03,  -118.100E-03,   1.18730E-03
C:/temp/dataset/3/3_1.odb,Step-1,Increment      1: Step Time =    1.000,"PART-1-1",           301,       7.46746,       28.7842,            0.,NA,NA,"",   625.051E-03,  -618.439E-03,  -90.6764E-03,   940.999E-06
C:/temp/dataset/3/3_1.odb,Step-1,Increment      1: Step Time =    1.000,"PART-1-1",           302,          6.25,           30.,            0.,NA,NA,"",   657.433E-03,  -646.396E-03,  -119.957E-03,   1.09110E-03
C:/temp/dataset/3/3_1.odb,Step-1,Increment      1: Step Time =    1.000,"PART-1-1",           303,       4.97503,       28.7903,            0.,NA,NA,"",   637.077E-03,  -619.864E-03,  -147.094E-03,   1.23076E-03
C:/temp/dataset/3/3_1.odb,Step-1,Increment      1: Step Time =    1.000,"PART-1-1",           304,       11.0878,       17.5306,            0.,NA,NA,"",   380.778E-03,  -380.690E-03,  -8.16971E-03,   230.623E-06
C:/temp/dataset/3/3_1.odb,Step-1,Increment      1: Step Time =    1.000,"PART-1-1",           305,       12.3722,       18.7756,            0.,NA,NA,"",   405.423E-03,  -405.106E-03,   16.0173E-03,   667.578E-06
C:/temp/dataset/3/3_1.odb,Step-1,Increment      1: Step Time =    1.000,"PART-1-1",           306,       11.1059,       20.0490,            0.,NA,NA,"",   430.009E-03,  -429.930E-03,  -8.24079E-03,   535.312E-06
C:/temp/dataset/3/3_1.odb,Step-1,Increment      1: Step Time =    1.000,"PART-1-1",           307,       9.82152,       18.8041,            0.,NA,NA,"",   406.164E-03,  -404.865E-03,  -32.4571E-03,   616.131E-06
C:/temp/dataset/3/3_1.odb,Step-1,Increment      1: Step Time =    1.000,"PART-1-1",           308,       9.63171,       13.8797,            0.,NA,NA,"",   317.432E-03,  -315.832E-03,  -31.8290E-03,   925.770E-06
C:/temp/dataset/3/3_1.odb,Step-1,Increment      1: Step Time =    1.000,"PART-1-1",           309,       8.52517,       15.0687,            0.,NA,NA,"",   340.527E-03,  -336.496E-03,  -52.2375E-03,   1.55312E-03
C:/temp/dataset/3/3_1.odb,Step-1,Increment      1: Step Time =    1.000,"PART-1-1",           310,       7.25683,       13.8735,            0.,NA,NA,"",   325.062E-03,  -317.047E-03,  -71.7419E-03,   2.29220E-03
C:/temp/dataset/3/3_1.odb,Step-1,Increment      1: Step Time =    1.000,"PART-1-1",           311,       8.36336,       12.6844,            0.,NA,NA,"",   301.086E-03,  -296.700E-03,  -51.2045E-03,   1.65484E-03
C:/temp/dataset/3/3_1.odb,Step-1,Increment      1: Step Time =    1.000,"PART-1-1",           312,       14.0118,       9.82001,            0.,NA,NA,"",   255.729E-03,  -253.065E-03,   36.8171E-03,   1.48526E-03
C:/temp/dataset/3/3_1.odb,Step-1,Increment      1: Step Time =    1.000,"PART-1-1",           313,           15.,         11.25,            0.,NA,NA,"",   280.742E-03,  -275.534E-03,   53.8237E-03,   2.05604E-03
C:/temp/dataset/3/3_1.odb,Step-1,Increment      1: Step Time =    1.000,"PART-1-1",           314,       13.5880,       12.3315,            0.,NA,NA,"",   293.204E-03,  -291.329E-03,   33.1020E-03,   1.27082E-03
C:/temp/dataset/3/3_1.odb,Step-1,Increment      1: Step Time =    1.000,"PART-1-1",           315,       12.5998,       10.9015,            0.,NA,NA,"",   268.913E-03,  -268.404E-03,   16.5339E-03,   700.853E-06
C:/temp/dataset/3/3_1.odb,Step-1,Increment      1: Step Time =    1.000,"PART-1-1",           316,       4.40482,  -219.892E-03,            0.,NA,NA,"",   153.746E-03,  -133.794E-03,  -75.7433E-03,   1.41838E-03
C:/temp/dataset/3/3_1.odb,Step-1,Increment      1: Step Time =    1.000,"PART-1-1",           317,       3.45177,  -757.122E-03,            0.,NA,NA,"",   154.490E-03,  -128.686E-03,  -85.4827E-03,   950.116E-06
C:/temp/dataset/3/3_1.odb,Step-1,Increment      1: Step Time =    1.000,"PART-1-1",           318,       3.83014,      -1.74448,            0.,NA,NA,"",   142.738E-03,  -117.995E-03,  -80.3211E-03,   1.23631E-03
C:/temp/dataset/3/3_1.odb,Step-1,Increment      1: Step Time =    1.000,"PART-1-1",           319,       4.78319,      -1.20725,            0.,NA,NA,"",   141.659E-03,  -123.032E-03,  -70.2173E-03,   1.56041E-03
C:/temp/dataset/3/3_1.odb,Step-1,Increment      1: Step Time =    1.000,"PART-1-1",           320,       10.3408,      -10.0251,            0.,NA,NA,"",   41.7208E-03,  -40.9818E-03,  -7.81767E-03,   517.235E-06
C:/temp/dataset/3/3_1.odb,Step-1,Increment      1: Step Time =    1.000,"PART-1-1",           321,       11.1792,      -10.4860,            0.,NA,NA,"",   37.9972E-03,  -37.9303E-03,  -2.25344E-03,   99.7689E-06
C:/temp/dataset/3/3_1.odb,Step-1,Increment      1: Step Time =    1.000,"PART-1-1",           322,       11.5032,      -9.33080,            0.,NA,NA,"",   45.6462E-03,  -45.6460E-03,  -128.538E-06,   117.436E-06
C:/temp/dataset/3/3_1.odb,Step-1,Increment      1: Step Time =    1.000,"PART-1-1",           323,       10.6649,      -8.86986,            0.,NA,NA,"",   49.2606E-03,  -48.8858E-03,  -6.06499E-03,   325.097E-06
C:/temp/dataset/3/3_1.odb,Step-1,Increment      1: Step Time =    1.000,"PART-1-1",           324,       9.41034,      -12.1888,            0.,NA,NA,"",   30.6201E-03,  -28.2129E-03,  -11.9007E-03,   1.04665E-03
C:/temp/dataset/3/3_1.odb,Step-1,Increment      1: Step Time =    1.000,"PART-1-1",           325,       10.5075,      -13.0214,            0.,NA,NA,"",   24.0925E-03,  -23.4697E-03,  -5.44244E-03,   470.600E-06
C:/temp/dataset/3/3_1.odb,Step-1,Increment      1: Step Time =    1.000,"PART-1-1",           326,       10.8652,      -11.6896,            0.,NA,NA,"",   30.9004E-03,  -30.6478E-03,  -3.94329E-03,   275.807E-06
C:/temp/dataset/3/3_1.odb,Step-1,Increment      1: Step Time =    1.000,"PART-1-1",           327,       9.76802,      -10.8570,            0.,NA,NA,"",   37.4693E-03,  -35.8322E-03,  -10.9545E-03,   847.940E-06
C:/temp/dataset/3/3_1.odb,Step-1,Increment      1: Step Time =    1.000,"PART-1-1",           328,       6.12016,      -19.7528,            0.,NA,NA,"",   11.4452E-03,  -1.10417E-03,  -11.3919E-03,   2.53380E-03
C:/temp/dataset/3/3_1.odb,Step-1,Increment      1: Step Time =    1.000,"PART-1-1",           329,       7.15653,      -18.4145,            0.,NA,NA,"",   12.6387E-03,  -3.95488E-03,  -12.0039E-03,   1.78242E-03
C:/temp/dataset/3/3_1.odb,Step-1,Increment      1: Step Time =    1.000,"PART-1-1",           330,       6.03637,      -17.4116,            0.,NA,NA,"",   18.9469E-03,  -8.13892E-03,  -17.1097E-03,   2.88085E-03
C:/temp/dataset/3/3_1.odb,Step-1,Increment      1: Step Time =    1.000,"PART-1-1",           331,            5.,        -18.75,            0.,NA,NA,"",   16.6953E-03,  -5.40990E-03,  -15.7945E-03,   4.18151E-03
C:/temp/dataset/3/3_1.odb,Step-1,Increment      1: Step Time =    1.000,"PART-1-1",           332,       13.3604,      -22.4969,            0.,NA,NA,"",   2.46838E-03,   1.90495E-03,   1.56974E-03,   696.295E-06
C:/temp/dataset/3/3_1.odb,Step-1,Increment      1: Step Time =    1.000,"PART-1-1",           333,           15.,        -21.25,            0.,NA,NA,"",   4.56429E-03,   140.380E-06,   4.56213E-03,   1.35286E-03
C:/temp/dataset/3/3_1.odb,Step-1,Increment      1: Step Time =    1.000,"PART-1-1",           334,       13.4842,      -19.7901,            0.,NA,NA,"",   3.73816E-03,  -1.09790E-03,   3.57329E-03,   951.489E-06
C:/temp/dataset/3/3_1.odb,Step-1,Increment      1: Step Time =    1.000,"PART-1-1",           335,       11.8446,      -21.0370,            0.,NA,NA,"",   1.06237E-03,   1.03081E-03,  -257.010E-06,   581.424E-06
C:/temp/dataset/3/3_1.odb,Step-1,Increment      1: Step Time =    1.000,"PART-1-1",           336,       1.65000,            5.,            0.,NA,NA,"",   216.840E-03,  -188.910E-03,  -106.453E-03,   300.036E-06
C:/temp/dataset/3/3_1.odb,Step-1,Increment      1: Step Time =    1.000,"PART-1-1",           337,   440.654E-03,       4.00571,            0.,NA,NA,"",   214.813E-03,  -179.043E-03,  -118.693E-03,   169.668E-06
C:/temp/dataset/3/3_1.odb,Step-1,Increment      1: Step Time =    1.000,"PART-1-1",           338,       1.47063,       2.87974,            0.,NA,NA,"",   199.315E-03,  -167.503E-03,  -108.024E-03,   265.473E-06
C:/temp/dataset/3/3_1.odb,Step-1,Increment      1: Step Time =    1.000,"PART-1-1",           339,       2.67998,       3.87403,            0.,NA,NA,"",   202.144E-03,  -177.722E-03,  -96.3167E-03,   325.614E-06
C:/temp/dataset/3/3_1.odb,Step-1,Increment      1: Step Time =    1.000,"PART-1-1",           340,      -1.46180,      -3.99231,            0.,NA,NA,"",   167.231E-03,  -93.8340E-03,  -138.424E-03,   100.243E-06
C:/temp/dataset/3/3_1.odb,Step-1,Increment      1: Step Time =    1.000,"PART-1-1",           341,     -500.E-03,           -5.,            0.,NA,NA,"",   152.430E-03,  -82.8560E-03,  -127.945E-03,   245.030E-06
C:/temp/dataset/3/3_1.odb,Step-1,Increment      1: Step Time =    1.000,"PART-1-1",           342,   718.491E-03,      -4.10961,            0.,NA,NA,"",   147.403E-03,  -92.4312E-03,  -114.821E-03,   174.791E-06
C:/temp/dataset/3/3_1.odb,Step-1,Increment      1: Step Time =    1.000,"PART-1-1",           343,  -243.313E-03,      -3.10192,            0.,NA,NA,"",   162.609E-03,  -103.538E-03,  -125.386E-03,   84.3648E-06
C:/temp/dataset/3/3_1.odb,Step-1,Increment      1: Step Time =    1.000,"PART-1-1",           344,      -3.82017,      -3.74247,            0.,NA,NA,"",   189.962E-03,  -96.4956E-03,  -163.628E-03,   47.1511E-06
C:/temp/dataset/3/3_1.odb,Step-1,Increment      1: Step Time =    1.000,"PART-1-1",           345,      -2.71667,           -5.,            0.,NA,NA,"",   172.986E-03,  -83.0273E-03,  -151.758E-03,   106.919E-06
C:/temp/dataset/3/3_1.odb,Step-1,Increment      1: Step Time =    1.000,"PART-1-1",           346,      -2.56530,      -2.73478,            0.,NA,NA,"",   184.729E-03,  -107.385E-03,  -150.311E-03,   82.5837E-06
C:/temp/dataset/3/3_1.odb,Step-1,Increment      1: Step Time =    1.000,"PART-1-1",           347,      -13.8092,  -21.6491E-03,            0.,NA,NA,"",   302.432E-03,  -135.666E-03,  -270.296E-03,   41.5756E-09
C:/temp/dataset/3/3_1.odb,Step-1,Increment      1: Step Time =    1.000,"PART-1-1",           348,      -12.6581,       1.21263,            0.,NA,NA,"",   297.959E-03,  -148.897E-03,  -258.087E-03,   456.076E-09
C:/temp/dataset/3/3_1.odb,Step-1,Increment      1: Step Time =    1.000,"PART-1-1",           349,      -13.8489,       2.48428,            0.,NA,NA,"",   315.814E-03,  -162.395E-03,  -270.862E-03,   175.628E-09
C:/temp/dataset/3/3_1.odb,Step-1,Increment      1: Step Time =    1.000,"PART-1-1",           350,          -15.,          1.25,            0.,NA,NA,"",   319.967E-03,  -149.163E-03,  -283.071E-03,   625.051E-09
C:/temp/dataset/3/3_1.odb,Step-1,Increment      1: Step Time =    1.000,"PART-1-1",           351,      -8.84172,   345.754E-03,            0.,NA,NA,"",   258.450E-03,  -139.876E-03,  -217.327E-03,   9.68690E-06
C:/temp/dataset/3/3_1.odb,Step-1,Increment      1: Step Time =    1.000,"PART-1-1",           352,      -9.20019,  -788.270E-03,            0.,NA,NA,"",   255.351E-03,  -127.756E-03,  -221.094E-03,   7.15081E-06
C:/temp/dataset/3/3_1.odb,Step-1,Increment      1: Step Time =    1.000,"PART-1-1",           353,      -7.61937,      -1.21646,            0.,NA,NA,"",   238.547E-03,  -123.287E-03,  -204.218E-03,   16.4655E-06
C:/temp/dataset/3/3_1.odb,Step-1,Increment      1: Step Time =    1.000,"PART-1-1",           354,      -7.26090,  -82.4387E-03,            0.,NA,NA,"",   241.898E-03,  -135.413E-03,  -200.445E-03,   17.6969E-06
C:/temp/dataset/3/3_1.odb,Step-1,Increment      1: Step Time =    1.000,"PART-1-1",           355,      -12.7466,      -3.77621,            0.,NA,NA,"",   275.873E-03,  -95.6804E-03,  -258.749E-03,   288.957E-09
C:/temp/dataset/3/3_1.odb,Step-1,Increment      1: Step Time =    1.000,"PART-1-1",           356,      -13.8633,      -2.52621,            0.,NA,NA,"",   291.830E-03,  -108.948E-03,  -270.730E-03,   182.781E-09
C:/temp/dataset/3/3_1.odb,Step-1,Increment      1: Step Time =    1.000,"PART-1-1",           357,          -15.,         -3.75,            0.,NA,NA,"",   298.581E-03,  -95.8317E-03,  -282.784E-03,   196.946E-09
C:/temp/dataset/3/3_1.odb,Step-1,Increment      1: Step Time =    1.000,"PART-1-1",           358,      -13.8833,           -5.,            0.,NA,NA,"",   283.110E-03,  -82.5636E-03,  -270.803E-03,   166.694E-09
C:/temp/dataset/3/3_1.odb,Step-1,Increment      1: Step Time =    1.000,"PART-1-1",           359,      -5.03830,      -2.71522,            0.,NA,NA,"",   206.762E-03,  -107.442E-03,  -176.654E-03,   43.6640E-06
C:/temp/dataset/3/3_1.odb,Step-1,Increment      1: Step Time =    1.000,"PART-1-1",           360,      -4.43911,      -1.50749,            0.,NA,NA,"",   208.586E-03,  -120.417E-03,  -170.317E-03,   48.2587E-06
C:/temp/dataset/3/3_1.odb,Step-1,Increment      1: Step Time =    1.000,"PART-1-1",           361,      -5.95808,  -763.119E-03,            0.,NA,NA,"",   226.361E-03,  -128.246E-03,  -186.526E-03,   33.8673E-06
C:/temp/dataset/3/3_1.odb,Step-1,Increment      1: Step Time =    1.000,"PART-1-1",           362,      -6.55726,      -1.97085,            0.,NA,NA,"",   224.703E-03,  -115.302E-03,  -192.865E-03,   21.8291E-06
C:/temp/dataset/3/3_1.odb,Step-1,Increment      1: Step Time =    1.000,"PART-1-1",           363,          6.25,          -30.,            0.,NA,NA,"",            0.,   122.385E-42,  -1.05726E-39,   567.868E-06
C:/temp/dataset/3/3_1.odb,Step-1,Increment      1: Step Time =    1.000,"PART-1-1",           364,       7.47038,      -28.9473,            0.,NA,NA,"",   640.514E-06,   410.841E-06,  -491.394E-06,   677.181E-06
C:/temp/dataset/3/3_1.odb,Step-1,Increment      1: Step Time =    1.000,"PART-1-1",           365,       6.18647,      -27.8786,            0.,NA,NA,"",   1.26242E-03,   304.424E-06,  -1.22516E-03,   773.600E-06
C:/temp/dataset/3/3_1.odb,Step-1,Increment      1: Step Time =    1.000,"PART-1-1",           366,       4.96608,      -28.9312,            0.,NA,NA,"",   534.736E-06,  -47.8334E-06,  -532.593E-06,   661.941E-06
C:/temp/dataset/3/3_1.odb,Step-1,Increment      1: Step Time =    1.000,"PART-1-1",           367,       3.70492,      -27.8047,            0.,NA,NA,"",   1.17398E-03,  -426.005E-06,  -1.09396E-03,   673.344E-06
C:/temp/dataset/3/3_1.odb,Step-1,Increment      1: Step Time =    1.000,"PART-1-1",           368,       2.48883,      -28.8735,            0.,NA,NA,"",   574.407E-06,  -386.644E-06,  -424.794E-06,   546.064E-06
C:/temp/dataset/3/3_1.odb,Step-1,Increment      1: Step Time =    1.000,"PART-1-1",           369,          3.75,          -30.,            0.,NA,NA,"",            0.,  -161.686E-42,  -979.878E-42,   531.590E-06
C:/temp/dataset/3/3_1.odb,Step-1,Increment      1: Step Time =    1.000,"PART-1-1",           370,      -3.72203,      -27.5999,            0.,NA,NA,"",   673.033E-06,  -664.687E-06,  -105.664E-06,   196.968E-06
C:/temp/dataset/3/3_1.odb,Step-1,Increment      1: Step Time =    1.000,"PART-1-1",           371,      -4.98725,      -28.7922,            0.,NA,NA,"",   330.868E-06,  -328.329E-06,  -40.9082E-06,   176.838E-06
C:/temp/dataset/3/3_1.odb,Step-1,Increment      1: Step Time =    1.000,"PART-1-1",           372,         -3.75,          -30.,            0.,NA,NA,"",            0.,  -224.702E-42,  -196.587E-42,   253.957E-06
C:/temp/dataset/3/3_1.odb,Step-1,Increment      1: Step Time =    1.000,"PART-1-1",           373,      -2.48478,      -28.8077,            0.,NA,NA,"",   452.388E-06,  -437.207E-06,  -116.213E-06,   267.525E-06
C:/temp/dataset/3/3_1.odb,Step-1,Increment      1: Step Time =    1.000,"PART-1-1",           374,      -13.7501,      -27.5099,            0.,NA,NA,"",   268.004E-06,  -261.571E-06,  -58.3683E-06,   37.7364E-06
C:/temp/dataset/3/3_1.odb,Step-1,Increment      1: Step Time =    1.000,"PART-1-1",           375,          -15.,        -28.75,            0.,NA,NA,"",   172.380E-06,  -144.952E-06,  -93.2952E-06,   69.8457E-06
C:/temp/dataset/3/3_1.odb,Step-1,Increment      1: Step Time =    1.000,"PART-1-1",           376,        -13.75,          -30.,            0.,NA,NA,"",            0.,  -25.6157E-42,  -71.2238E-42,   83.0540E-06
C:/temp/dataset/3/3_1.odb,Step-1,Increment      1: Step Time =    1.000,"PART-1-1",           377,      -12.5001,      -28.7599,            0.,NA,NA,"",   129.079E-06,  -128.329E-06,  -13.8895E-06,   65.2369E-06
C:/temp/dataset/3/3_1.odb,Step-1,Increment      1: Step Time =    1.000,"PART-1-1",           378,       8.15833,      -10.8587,            0.,NA,NA,"",   42.2384E-03,  -36.6784E-03,  -20.9471E-03,   1.71983E-03
C:/temp/dataset/3/3_1.odb,Step-1,Increment      1: Step Time =    1.000,"PART-1-1",           379,       9.00498,      -9.90697,            0.,NA,NA,"",   45.4153E-03,  -42.2051E-03,  -16.7713E-03,   1.24674E-03
C:/temp/dataset/3/3_1.odb,Step-1,Increment      1: Step Time =    1.000,"PART-1-1",           380,       8.08915,      -8.55627,            0.,NA,NA,"",   57.7206E-03,  -52.0284E-03,  -24.9942E-03,   1.75461E-03
C:/temp/dataset/3/3_1.odb,Step-1,Increment      1: Step Time =    1.000,"PART-1-1",           381,       7.24249,      -9.50802,            0.,NA,NA,"",   54.6175E-03,  -46.0784E-03,  -29.3232E-03,   2.20145E-03
C:/temp/dataset/3/3_1.odb,Step-1,Increment      1: Step Time =    1.000,"PART-1-1",           382,       13.9816,      -2.51124,            0.,NA,NA,"",   108.026E-03,  -105.266E-03,   24.2631E-03,   1.02841E-03
C:/temp/dataset/3/3_1.odb,Step-1,Increment      1: Step Time =    1.000,"PART-1-1",           383,           15.,         -1.25,            0.,NA,NA,"",   123.965E-03,  -118.682E-03,   35.8058E-03,   1.37234E-03
C:/temp/dataset/3/3_1.odb,Step-1,Increment      1: Step Time =    1.000,"PART-1-1",           384,       13.8213,  -48.4001E-03,            0.,NA,NA,"",   132.946E-03,  -130.646E-03,   24.6201E-03,   883.777E-06
C:/temp/dataset/3/3_1.odb,Step-1,Increment      1: Step Time =    1.000,"PART-1-1",           385,       12.8030,      -1.30964,            0.,NA,NA,"",   117.803E-03,  -117.052E-03,   13.2798E-03,   535.200E-06
C:/temp/dataset/3/3_1.odb,Step-1,Increment      1: Step Time =    1.000,"PART-1-1",           386,           15.,          1.25,            0.,NA,NA,"",   150.413E-03,  -145.364E-03,   38.6432E-03,   1.38792E-03
C:/temp/dataset/3/3_1.odb,Step-1,Increment      1: Step Time =    1.000,"PART-1-1",           387,       13.5709,       2.55070,            0.,NA,NA,"",   160.859E-03,  -159.094E-03,   23.7594E-03,   887.820E-06
C:/temp/dataset/3/3_1.odb,Step-1,Increment      1: Step Time =    1.000,"PART-1-1",           388,       12.3922,       1.25230,            0.,NA,NA,"",   144.591E-03,  -144.266E-03,   9.69172E-03,   390.293E-06
C:/temp/dataset/3/3_1.odb,Step-1,Increment      1: Step Time =    1.000,"PART-1-1",           389,      -5.00532,       26.2655,            0.,NA,NA,"",   672.926E-03,  -564.496E-03,  -366.296E-03,   56.4384E-06
C:/temp/dataset/3/3_1.odb,Step-1,Increment      1: Step Time =    1.000,"PART-1-1",           390,      -3.75495,       25.0275,            0.,NA,NA,"",   635.046E-03,  -537.432E-03,  -338.306E-03,   63.0302E-06
C:/temp/dataset/3/3_1.odb,Step-1,Increment      1: Step Time =    1.000,"PART-1-1",           391,      -2.50780,       26.2820,            0.,NA,NA,"",   645.447E-03,  -565.598E-03,  -310.968E-03,   67.7884E-06
C:/temp/dataset/3/3_1.odb,Step-1,Increment      1: Step Time =    1.000,"PART-1-1",           392,      -3.75817,       27.5199,            0.,NA,NA,"",   682.659E-03,  -592.580E-03,  -338.928E-03,   76.4538E-06
C:/temp/dataset/3/3_1.odb,Step-1,Increment      1: Step Time =    1.000,"PART-1-1",           393,      -5.00193,       23.7670,            0.,NA,NA,"",   626.798E-03,  -509.063E-03,  -365.691E-03,   53.4306E-06
C:/temp/dataset/3/3_1.odb,Step-1,Increment      1: Step Time =    1.000,"PART-1-1",           394,      -6.25406,       25.0149,            0.,NA,NA,"",   665.408E-03,  -536.420E-03,  -393.727E-03,   48.7308E-06
C:/temp/dataset/3/3_1.odb,Step-1,Increment      1: Step Time =    1.000,"PART-1-1",           395,      -7.50285,       23.7600,            0.,NA,NA,"",   660.043E-03,  -508.229E-03,  -421.141E-03,   26.5694E-06
C:/temp/dataset/3/3_1.odb,Step-1,Increment      1: Step Time =    1.000,"PART-1-1",           396,      -6.25071,       22.5121,            0.,NA,NA,"",   621.070E-03,  -480.839E-03,  -393.094E-03,   42.6398E-06
C:/temp/dataset/3/3_1.odb,Step-1,Increment      1: Step Time =    1.000,"PART-1-1",           397,      -12.5007,       23.7543,            0.,NA,NA,"",   734.763E-03,  -506.837E-03,  -531.971E-03,   2.35254E-06
C:/temp/dataset/3/3_1.odb,Step-1,Increment      1: Step Time =    1.000,"PART-1-1",           398,      -13.7507,       25.0026,            0.,NA,NA,"",   773.942E-03,  -534.216E-03,  -559.999E-03,   1.71647E-06
C:/temp/dataset/3/3_1.odb,Step-1,Increment      1: Step Time =    1.000,"PART-1-1",           399,          -15.,         23.75,            0.,NA,NA,"",   775.374E-03,  -506.125E-03,  -587.403E-03,   213.980E-09
C:/temp/dataset/3/3_1.odb,Step-1,Increment      1: Step Time =    1.000,"PART-1-1",           400,       1.22659,       27.5580,            0.,NA,NA,"",   636.792E-03,  -594.060E-03,  -229.340E-03,   842.445E-06
C:/temp/dataset/3/3_1.odb,Step-1,Increment      1: Step Time =    1.000,"PART-1-1",           401,       2.48534,       28.7828,            0.,NA,NA,"",   652.829E-03,  -620.514E-03,  -202.849E-03,   1.08327E-03
C:/temp/dataset/3/3_1.odb,Step-1,Increment      1: Step Time =    1.000,"PART-1-1",           402,          1.25,           30.,            0.,NA,NA,"",   687.488E-03,  -647.341E-03,  -231.494E-03,   880.043E-06
C:/temp/dataset/3/3_1.odb,Step-1,Increment      1: Step Time =    1.000,"PART-1-1",           403,  -8.74824E-03,       28.7751,            0.,NA,NA,"",   672.172E-03,  -620.959E-03,  -257.340E-03,   557.729E-06
C:/temp/dataset/3/3_1.odb,Step-1,Increment      1: Step Time =    1.000,"PART-1-1",           404,  -16.7069E-03,       26.3073,            0.,NA,NA,"",   621.722E-03,  -566.625E-03,  -255.879E-03,   387.974E-06
C:/temp/dataset/3/3_1.odb,Step-1,Increment      1: Step Time =    1.000,"PART-1-1",           405,       2.46714,       26.3253,            0.,NA,NA,"",   601.140E-03,  -566.739E-03,  -200.439E-03,   1.05049E-03
C:/temp/dataset/3/3_1.odb,Step-1,Increment      1: Step Time =    1.000,"PART-1-1",           406,       3.70751,       22.5746,            0.,NA,NA,"",   512.983E-03,  -484.740E-03,  -167.866E-03,   1.35572E-03
C:/temp/dataset/3/3_1.odb,Step-1,Increment      1: Step Time =    1.000,"PART-1-1",           407,       2.48879,       21.2797,            0.,NA,NA,"",   496.004E-03,  -455.653E-03,  -195.961E-03,   472.646E-06
C:/temp/dataset/3/3_1.odb,Step-1,Increment      1: Step Time =    1.000,"PART-1-1",           408,          3.75,           20.,            0.,NA,NA,"",   457.849E-03,  -426.858E-03,  -165.585E-03,   1.55934E-03
C:/temp/dataset/3/3_1.odb,Step-1,Increment      1: Step Time =    1.000,"PART-1-1",           409,       4.96872,       21.2949,            0.,NA,NA,"",   476.563E-03,  -456.739E-03,  -136.022E-03,   2.55907E-03
C:/temp/dataset/3/3_1.odb,Step-1,Increment      1: Step Time =    1.000,"PART-1-1",           410,       10.8479,       12.4309,            0.,NA,NA,"",   292.127E-03,  -291.925E-03,  -10.8511E-03,   276.535E-06
C:/temp/dataset/3/3_1.odb,Step-1,Increment      1: Step Time =    1.000,"PART-1-1",           411,       9.34812,       11.6387,            0.,NA,NA,"",   281.678E-03,  -279.610E-03,  -34.0735E-03,   1.09578E-03
C:/temp/dataset/3/3_1.odb,Step-1,Increment      1: Step Time =    1.000,"PART-1-1",           412,       9.99050,       10.5520,            0.,NA,NA,"",   263.753E-03,  -262.734E-03,  -23.1628E-03,   713.337E-06
C:/temp/dataset/3/3_1.odb,Step-1,Increment      1: Step Time =    1.000,"PART-1-1",           413,       11.4903,       11.3442,            0.,NA,NA,"",   274.865E-03,  -274.865E-03,  -484.182E-06,   103.235E-06
C:/temp/dataset/3/3_1.odb,Step-1,Increment      1: Step Time =    1.000,"PART-1-1",           414,       7.16850,       11.5014,            0.,NA,NA,"",   286.985E-03,  -278.831E-03,  -67.9236E-03,   2.32803E-03
C:/temp/dataset/3/3_1.odb,Step-1,Increment      1: Step Time =    1.000,"PART-1-1",           415,       6.10343,       12.5850,            0.,NA,NA,"",   309.716E-03,  -297.088E-03,  -87.5376E-03,   2.91266E-03
C:/temp/dataset/3/3_1.odb,Step-1,Increment      1: Step Time =    1.000,"PART-1-1",           416,            5.,         11.25,            0.,NA,NA,"",   295.303E-03,  -277.509E-03,  -100.959E-03,   3.51575E-03
C:/temp/dataset/3/3_1.odb,Step-1,Increment      1: Step Time =    1.000,"PART-1-1",           417,       6.06507,       10.1664,            0.,NA,NA,"",   272.143E-03,  -259.648E-03,  -81.5153E-03,   2.94874E-03
C:/temp/dataset/3/3_1.odb,Step-1,Increment      1: Step Time =    1.000,"PART-1-1",           418,       14.0565,       5.06378,            0.,NA,NA,"",   191.700E-03,  -189.031E-03,   31.8742E-03,   1.28799E-03
C:/temp/dataset/3/3_1.odb,Step-1,Increment      1: Step Time =    1.000,"PART-1-1",           419,       12.6274,       3.86448,            0.,NA,NA,"",   174.417E-03,  -173.909E-03,   13.2985E-03,   634.731E-06
C:/temp/dataset/3/3_1.odb,Step-1,Increment      1: Step Time =    1.000,"PART-1-1",           420,           15.,          3.75,            0.,NA,NA,"",   178.811E-03,  -173.868E-03,   41.7545E-03,   1.59042E-03
C:/temp/dataset/3/3_1.odb,Step-1,Increment      1: Step Time =    1.000,"PART-1-1",           421,       10.0280,       5.47301,            0.,NA,NA,"",   193.947E-03,  -192.975E-03,  -19.3907E-03,   618.953E-06
C:/temp/dataset/3/3_1.odb,Step-1,Increment      1: Step Time =    1.000,"PART-1-1",           422,       11.0614,       5.01383,            0.,NA,NA,"",   187.433E-03,  -187.336E-03,  -6.04684E-03,   352.568E-06
C:/temp/dataset/3/3_1.odb,Step-1,Increment      1: Step Time =    1.000,"PART-1-1",           423,       11.6033,       6.33570,            0.,NA,NA,"",   203.931E-03,  -203.929E-03,   949.451E-06,   335.081E-06
C:/temp/dataset/3/3_1.odb,Step-1,Increment      1: Step Time =    1.000,"PART-1-1",           424,       10.5698,       6.79489,            0.,NA,NA,"",   210.117E-03,  -209.722E-03,  -12.8680E-03,   381.006E-06
C:/temp/dataset/3/3_1.odb,Step-1,Increment      1: Step Time =    1.000,"PART-1-1",           425,      -4.94418,       3.17107,            0.,NA,NA,"",   244.736E-03,  -170.221E-03,  -175.842E-03,   41.5170E-06
C:/temp/dataset/3/3_1.odb,Step-1,Increment      1: Step Time =    1.000,"PART-1-1",           426,      -3.90803,       4.11594,            0.,NA,NA,"",   244.288E-03,  -180.302E-03,  -164.826E-03,   48.1976E-06
C:/temp/dataset/3/3_1.odb,Step-1,Increment      1: Step Time =    1.000,"PART-1-1",           427,      -5.05000,            5.,            0.,NA,NA,"",   259.511E-03,  -189.697E-03,  -177.090E-03,   37.9356E-06
C:/temp/dataset/3/3_1.odb,Step-1,Increment      1: Step Time =    1.000,"PART-1-1",           428,      -6.08615,       4.05513,            0.,NA,NA,"",   260.056E-03,  -179.578E-03,  -188.098E-03,   17.0968E-06
C:/temp/dataset/3/3_1.odb,Step-1,Increment      1: Step Time =    1.000,"PART-1-1",           429,      -3.86135,       2.39128,            0.,NA,NA,"",   230.693E-03,  -162.006E-03,  -164.236E-03,   54.3102E-06
C:/temp/dataset/3/3_1.odb,Step-1,Increment      1: Step Time =    1.000,"PART-1-1",           430,      -5.85027,       2.20434,            0.,NA,NA,"",   244.877E-03,  -159.883E-03,  -185.478E-03,   27.9738E-06
C:/temp/dataset/3/3_1.odb,Step-1,Increment      1: Step Time =    1.000,"PART-1-1",           431,      -4.76744,       1.42454,            0.,NA,NA,"",   230.736E-03,  -151.668E-03,  -173.884E-03,   48.7981E-06
C:/temp/dataset/3/3_1.odb,Step-1,Increment      1: Step Time =    1.000,"PART-1-1",           432,      -9.29397,       2.69508,            0.,NA,NA,"",   276.766E-03,  -164.904E-03,  -222.275E-03,   6.17293E-06
C:/temp/dataset/3/3_1.odb,Step-1,Increment      1: Step Time =    1.000,"PART-1-1",           433,      -8.28887,       3.92576,            0.,NA,NA,"",   276.579E-03,  -178.087E-03,  -211.615E-03,   5.28765E-06
C:/temp/dataset/3/3_1.odb,Step-1,Increment      1: Step Time =    1.000,"PART-1-1",           434,          -9.5,            5.,            0.,NA,NA,"",   293.856E-03,  -189.483E-03,  -224.605E-03,   1.62863E-06
C:/temp/dataset/3/3_1.odb,Step-1,Increment      1: Step Time =    1.000,"PART-1-1",           435,      -10.5051,       3.76932,            0.,NA,NA,"",   293.985E-03,  -176.295E-03,  -235.261E-03,   1.08887E-06
C:/temp/dataset/3/3_1.odb,Step-1,Increment      1: Step Time =    1.000,"PART-1-1",           436,      -7.92731,       1.84143,            0.,NA,NA,"",   259.643E-03,  -155.882E-03,  -207.642E-03,   11.4318E-06
C:/temp/dataset/3/3_1.odb,Step-1,Increment      1: Step Time =    1.000,"PART-1-1",           437,      -6.68589,       1.06488,            0.,NA,NA,"",   244.102E-03,  -147.688E-03,  -194.355E-03,   25.4425E-06
C:/temp/dataset/3/3_1.odb,Step-1,Increment      1: Step Time =    1.000,"PART-1-1",           438,      -7.09169,       2.98089,            0.,NA,NA,"",   260.312E-03,  -168.078E-03,  -198.778E-03,   18.0680E-06
C:/temp/dataset/3/3_1.odb,Step-1,Increment      1: Step Time =    1.000,"PART-1-1",           439,      -13.9000,            5.,            0.,NA,NA,"",   330.980E-03,  -189.231E-03,  -271.551E-03,   165.153E-09
C:/temp/dataset/3/3_1.odb,Step-1,Increment      1: Step Time =    1.000,"PART-1-1",           440,          -15.,          3.75,            0.,NA,NA,"",   333.358E-03,  -175.833E-03,  -283.214E-03,   200.966E-09
C:/temp/dataset/3/3_1.odb,Step-1,Increment      1: Step Time =    1.000,"PART-1-1",           441,      -12.7489,       3.73428,            0.,NA,NA,"",   313.189E-03,  -175.793E-03,  -259.198E-03,   275.713E-09
C:/temp/dataset/3/3_1.odb,Step-1,Increment      1: Step Time =    1.000,"PART-1-1",           442,      -9.48823,      -2.88104,            0.,NA,NA,"",   247.612E-03,  -105.413E-03,  -224.054E-03,   5.11741E-06
C:/temp/dataset/3/3_1.odb,Step-1,Increment      1: Step Time =    1.000,"PART-1-1",           443,      -8.42388,      -2.23568,            0.,NA,NA,"",   240.591E-03,  -112.360E-03,  -212.743E-03,   8.50171E-06
C:/temp/dataset/3/3_1.odb,Step-1,Increment      1: Step Time =    1.000,"PART-1-1",           444,      -10.2645,      -1.43363,            0.,NA,NA,"",   261.933E-03,  -120.808E-03,  -232.410E-03,   3.22839E-06
C:/temp/dataset/3/3_1.odb,Step-1,Increment      1: Step Time =    1.000,"PART-1-1",           445,      -12.6725,      -1.29786,            0.,NA,NA,"",   285.531E-03,  -122.118E-03,  -258.099E-03,   438.207E-09
C:/temp/dataset/3/3_1.odb,Step-1,Increment      1: Step Time =    1.000,"PART-1-1",           446,          -15.,         -1.25,            0.,NA,NA,"",   308.307E-03,  -122.496E-03,  -282.928E-03,   611.280E-09
C:/temp/dataset/3/3_1.odb,Step-1,Increment      1: Step Time =    1.000,"PART-1-1",           447,      -6.16813,      -3.97275,            0.,NA,NA,"",   210.714E-03,  -93.9425E-03,  -188.614E-03,   16.6192E-06
C:/temp/dataset/3/3_1.odb,Step-1,Increment      1: Step Time =    1.000,"PART-1-1",           448,      -4.95000,           -5.,            0.,NA,NA,"",   194.216E-03,  -83.0306E-03,  -175.573E-03,   40.2139E-06
C:/temp/dataset/3/3_1.odb,Step-1,Increment      1: Step Time =    1.000,"PART-1-1",           449,       1.59412,  -355.999E-03,            0.,NA,NA,"",   170.290E-03,  -133.363E-03,  -105.891E-03,   276.579E-06
C:/temp/dataset/3/3_1.odb,Step-1,Increment      1: Step Time =    1.000,"PART-1-1",           450,       2.17826,      -1.53992,            0.,NA,NA,"",   156.121E-03,  -120.646E-03,  -99.0863E-03,   490.864E-06
C:/temp/dataset/3/3_1.odb,Step-1,Increment      1: Step Time =    1.000,"PART-1-1",           451,       2.86763,   426.804E-03,            0.,NA,NA,"",   169.134E-03,  -141.487E-03,  -92.6710E-03,   774.395E-06
C:/temp/dataset/3/3_1.odb,Step-1,Increment      1: Step Time =    1.000,"PART-1-1",           452,  -387.277E-03,   5.26357E-03,            0.,NA,NA,"",   186.969E-03,  -137.091E-03,  -127.136E-03,   86.4970E-06
C:/temp/dataset/3/3_1.odb,Step-1,Increment      1: Step Time =    1.000,"PART-1-1",           453,   283.611E-03,      -1.19839,            0.,NA,NA,"",   172.642E-03,  -124.266E-03,  -119.847E-03,   106.848E-06
C:/temp/dataset/3/3_1.odb,Step-1,Increment      1: Step Time =    1.000,"PART-1-1",           454,   923.228E-03,   847.652E-03,            0.,NA,NA,"",   184.939E-03,  -146.159E-03,  -113.313E-03,   182.242E-06
C:/temp/dataset/3/3_1.odb,Step-1,Increment      1: Step Time =    1.000,"PART-1-1",           455,       6.35531,      -13.1332,            0.,NA,NA,"",   37.0027E-03,  -25.6980E-03,  -26.6235E-03,   2.66945E-03
C:/temp/dataset/3/3_1.odb,Step-1,Increment      1: Step Time =    1.000,"PART-1-1",           456,       7.49455,      -12.2656,            0.,NA,NA,"",   36.7235E-03,  -29.0774E-03,  -22.4303E-03,   2.08608E-03
C:/temp/dataset/3/3_1.odb,Step-1,Increment      1: Step Time =    1.000,"PART-1-1",           457,       6.13925,      -10.3824,            0.,NA,NA,"",   54.1785E-03,  -41.6377E-03,  -34.6644E-03,   2.82357E-03
C:/temp/dataset/3/3_1.odb,Step-1,Increment      1: Step Time =    1.000,"PART-1-1",           458,            5.,        -11.25,            0.,NA,NA,"",   54.5951E-03,  -37.8838E-03,  -39.3120E-03,   3.40064E-03
C:/temp/dataset/3/3_1.odb,Step-1,Increment      1: Step Time =    1.000,"PART-1-1",           459,       13.3376,      -16.9670,            0.,NA,NA,"",   9.50960E-03,  -7.70008E-03,   5.58044E-03,   993.415E-06
C:/temp/dataset/3/3_1.odb,Step-1,Increment      1: Step Time =    1.000,"PART-1-1",           460,       11.8219,      -18.0071,            0.,NA,NA,"",   4.31257E-03,  -4.30156E-03,   308.042E-06,   389.399E-06
C:/temp/dataset/3/3_1.odb,Step-1,Increment      1: Step Time =    1.000,"PART-1-1",           461,           15.,        -18.75,            0.,NA,NA,"",   8.98827E-03,  -4.01369E-03,   8.04234E-03,   1.68620E-03
C:/temp/dataset/3/3_1.odb,Step-1,Increment      1: Step Time =    1.000,"PART-1-1",           462,       8.42876,      -15.2973,            0.,NA,NA,"",   19.0106E-03,  -13.9029E-03,  -12.9658E-03,   1.53038E-03
C:/temp/dataset/3/3_1.odb,Step-1,Increment      1: Step Time =    1.000,"PART-1-1",           463,       10.4111,      -16.6310,            0.,NA,NA,"",   9.28415E-03,  -8.22461E-03,  -4.30712E-03,   434.555E-06
C:/temp/dataset/3/3_1.odb,Step-1,Increment      1: Step Time =    1.000,"PART-1-1",           464,       10.7289,      -14.9294,            0.,NA,NA,"",   15.0368E-03,  -14.5793E-03,  -3.68098E-03,   344.623E-06
C:/temp/dataset/3/3_1.odb,Step-1,Increment      1: Step Time =    1.000,"PART-1-1",           465,       8.74656,      -13.5956,            0.,NA,NA,"",   25.3567E-03,  -21.2734E-03,  -13.7987E-03,   1.40915E-03
C:/temp/dataset/3/3_1.odb,Step-1,Increment      1: Step Time =    1.000,"PART-1-1",           466,      -8.72016,      -22.5745,            0.,NA,NA,"",   658.740E-06,  -648.150E-06,   117.645E-06,   21.3016E-06
C:/temp/dataset/3/3_1.odb,Step-1,Increment      1: Step Time =    1.000,"PART-1-1",           467,      -7.48342,      -21.2909,            0.,NA,NA,"",   663.653E-06,  -648.840E-06,   139.434E-06,   13.3634E-06
C:/temp/dataset/3/3_1.odb,Step-1,Increment      1: Step Time =    1.000,"PART-1-1",           468,         -8.75,          -20.,            0.,NA,NA,"",   680.141E-06,  -670.578E-06,   113.650E-06,   26.5971E-06
C:/temp/dataset/3/3_1.odb,Step-1,Increment      1: Step Time =    1.000,"PART-1-1",           469,      -9.98674,      -21.2836,            0.,NA,NA,"",   666.422E-06,  -660.733E-06,   86.8939E-06,   6.52704E-06
C:/temp/dataset/3/3_1.odb,Step-1,Increment      1: Step Time =    1.000,"PART-1-1",           470,      -4.96670,      -26.3491,            0.,NA,NA,"",   738.768E-06,  -738.231E-06,  -28.1740E-06,   131.648E-06
C:/temp/dataset/3/3_1.odb,Step-1,Increment      1: Step Time =    1.000,"PART-1-1",           471,      -6.21541,      -25.0985,            0.,NA,NA,"",   722.921E-06,  -720.704E-06,   56.5805E-06,   91.5420E-06
C:/temp/dataset/3/3_1.odb,Step-1,Increment      1: Step Time =    1.000,"PART-1-1",           472,      -7.47738,      -26.3212,            0.,NA,NA,"",   559.231E-06,  -557.966E-06,   37.6034E-06,   88.6736E-06
C:/temp/dataset/3/3_1.odb,Step-1,Increment      1: Step Time =    1.000,"PART-1-1",           473,      -6.22867,      -27.5719,            0.,NA,NA,"",   492.082E-06,  -491.947E-06,  -11.4999E-06,   134.682E-06
C:/temp/dataset/3/3_1.odb,Step-1,Increment      1: Step Time =    1.000,"PART-1-1",           474,   49.7896E-03,      -26.4387,            0.,NA,NA,"",   1.33342E-03,  -1.09988E-03,  -753.848E-06,   369.033E-06
C:/temp/dataset/3/3_1.odb,Step-1,Increment      1: Step Time =    1.000,"PART-1-1",           475,       1.24862,      -27.7048,            0.,NA,NA,"",   1.06999E-03,  -803.853E-06,  -706.189E-06,   468.476E-06
C:/temp/dataset/3/3_1.odb,Step-1,Increment      1: Step Time =    1.000,"PART-1-1",           476,       2.52056,      -26.5649,            0.,NA,NA,"",   1.74388E-03,  -899.880E-06,  -1.49376E-03,   651.673E-06
C:/temp/dataset/3/3_1.odb,Step-1,Increment      1: Step Time =    1.000,"PART-1-1",           477,       1.32172,      -25.2988,            0.,NA,NA,"",   1.93652E-03,  -1.24388E-03,  -1.48421E-03,   525.243E-06
C:/temp/dataset/3/3_1.odb,Step-1,Increment      1: Step Time =    1.000,"PART-1-1",           478,        -13.75,          -20.,            0.,NA,NA,"",   727.274E-06,  -723.234E-06,  -76.5522E-06,   2.57745E-06
C:/temp/dataset/3/3_1.odb,Step-1,Increment      1: Step Time =    1.000,"PART-1-1",           479,          -15.,        -21.25,            0.,NA,NA,"",   682.131E-06,  -668.864E-06,  -133.882E-06,   2.04127E-06
C:/temp/dataset/3/3_1.odb,Step-1,Increment      1: Step Time =    1.000,"PART-1-1",           480,      -13.7430,      -22.5153,            0.,NA,NA,"",   620.627E-06,  -615.744E-06,  -77.7022E-06,   5.29552E-06
C:/temp/dataset/3/3_1.odb,Step-1,Increment      1: Step Time =    1.000,"PART-1-1",           481,      -12.4930,      -21.2653,            0.,NA,NA,"",   667.571E-06,  -667.362E-06,  -16.7091E-06,   4.60688E-06
C:/temp/dataset/3/3_1.odb,Step-1,Increment      1: Step Time =    1.000,"PART-1-1",           482,      -11.2297,      -22.5489,            0.,NA,NA,"",   623.796E-06,  -622.628E-06,   38.1653E-06,   9.70119E-06
C:/temp/dataset/3/3_1.odb,Step-1,Increment      1: Step Time =    1.000,"PART-1-1",           483,        -11.25,          -20.,            0.,NA,NA,"",   710.973E-06,  -710.115E-06,   34.9267E-06,   11.9640E-06
C:/temp/dataset/3/3_1.odb,Step-1,Increment      1: Step Time =    1.000,"PART-1-1",           484,      -13.7448,      -25.0201,            0.,NA,NA,"",   489.781E-06,  -482.709E-06,  -82.9255E-06,   8.92757E-06
C:/temp/dataset/3/3_1.odb,Step-1,Increment      1: Step Time =    1.000,"PART-1-1",           485,      -12.4878,      -23.7854,            0.,NA,NA,"",   560.769E-06,  -560.420E-06,  -19.7813E-06,   7.57862E-06
C:/temp/dataset/3/3_1.odb,Step-1,Increment      1: Step Time =    1.000,"PART-1-1",           486,          -15.,        -23.75,            0.,NA,NA,"",   572.475E-06,  -553.495E-06,  -146.187E-06,   6.37888E-06
C:/temp/dataset/3/3_1.odb,Step-1,Increment      1: Step Time =    1.000,"PART-1-1",           487,       13.7335,      -27.5520,            0.,NA,NA,"",   1.56434E-03,   1.55808E-03,   139.813E-06,   340.937E-06
C:/temp/dataset/3/3_1.odb,Step-1,Increment      1: Step Time =    1.000,"PART-1-1",           488,       12.4835,      -28.8020,            0.,NA,NA,"",   882.316E-06,   881.452E-06,  -39.0223E-06,   526.039E-06
C:/temp/dataset/3/3_1.odb,Step-1,Increment      1: Step Time =    1.000,"PART-1-1",           489,         13.75,          -30.,            0.,NA,NA,"",            0.,   271.141E-42,  -132.404E-42,   457.146E-06
C:/temp/dataset/3/3_1.odb,Step-1,Increment      1: Step Time =    1.000,"PART-1-1",           490,           15.,        -28.75,            0.,NA,NA,"",   806.111E-06,   769.498E-06,  -240.182E-06,   215.785E-06
C:/temp/dataset/3/3_1.odb,Step-1,Increment      1: Step Time =    1.000,"PART-1-1",           491,       9.98010,      -28.8907,            0.,NA,NA,"",   845.294E-06,   788.329E-06,  -305.059E-06,   607.176E-06
C:/temp/dataset/3/3_1.odb,Step-1,Increment      1: Step Time =    1.000,"PART-1-1",           492,       8.70049,      -27.8380,            0.,NA,NA,"",   1.44212E-03,   1.08137E-03,  -954.116E-06,   687.874E-06
C:/temp/dataset/3/3_1.odb,Step-1,Increment      1: Step Time =    1.000,"PART-1-1",           493,          8.75,          -30.,            0.,NA,NA,"",            0.,   411.919E-42,  -805.714E-42,   587.168E-06
C:/temp/dataset/3/3_1.odb,Step-1,Increment      1: Step Time =    1.000,"PART-1-1",           494,       11.2136,      -27.6927,            0.,NA,NA,"",   1.60284E-03,   1.56205E-03,  -359.271E-06,   535.020E-06
C:/temp/dataset/3/3_1.odb,Step-1,Increment      1: Step Time =    1.000,"PART-1-1",           495,       12.3768,      -26.3916,            0.,NA,NA,"",   2.18423E-03,   2.18262E-03,  -83.8991E-06,   551.018E-06
C:/temp/dataset/3/3_1.odb,Step-1,Increment      1: Step Time =    1.000,"PART-1-1",           496,       11.0556,      -25.4315,            0.,NA,NA,"",   2.55409E-03,   2.38137E-03,  -923.285E-06,   633.334E-06
C:/temp/dataset/3/3_1.odb,Step-1,Increment      1: Step Time =    1.000,"PART-1-1",           497,       9.89242,      -26.7326,            0.,NA,NA,"",   2.11325E-03,   1.78533E-03,  -1.13067E-03,   726.306E-06
C:/temp/dataset/3/3_1.odb,Step-1,Increment      1: Step Time =    1.000,"PART-1-1",           498,   9.79186E-03,      -28.8313,            0.,NA,NA,"",   556.408E-06,  -495.965E-06,  -252.207E-06,   395.411E-06
C:/temp/dataset/3/3_1.odb,Step-1,Increment      1: Step Time =    1.000,"PART-1-1",           499,          1.25,          -30.,            0.,NA,NA,"",            0.,  -295.539E-42,  -695.215E-42,   462.460E-06
C:/temp/dataset/3/3_1.odb,Step-1,Increment      1: Step Time =    1.000,"PART-1-1",           500,      -1.18061,      -25.1833,            0.,NA,NA,"",   1.29709E-03,  -1.16809E-03,  -563.940E-06,   267.589E-06
C:/temp/dataset/3/3_1.odb,Step-1,Increment      1: Step Time =    1.000,"PART-1-1",           501,      -2.45538,      -26.3836,            0.,NA,NA,"",   990.210E-06,  -956.991E-06,  -254.334E-06,   211.690E-06
C:/temp/dataset/3/3_1.odb,Step-1,Increment      1: Step Time =    1.000,"PART-1-1",           502,      -1.22498,      -27.6390,            0.,NA,NA,"",   879.972E-06,  -816.167E-06,  -328.974E-06,   299.158E-06
C:/temp/dataset/3/3_1.odb,Step-1,Increment      1: Step Time =    1.000,"PART-1-1",           503,      -3.70005,      -25.1329,            0.,NA,NA,"",   930.545E-06,  -925.136E-06,  -100.185E-06,   146.066E-06
C:/temp/dataset/3/3_1.odb,Step-1,Increment      1: Step Time =    1.000,"PART-1-1",           504,      -7.49141,      -28.7797,            0.,NA,NA,"",   232.688E-06,  -232.494E-06,  -9.49323E-06,   118.939E-06
C:/temp/dataset/3/3_1.odb,Step-1,Increment      1: Step Time =    1.000,"PART-1-1",           505,         -6.25,          -30.,            0.,NA,NA,"",            0.,  -155.614E-42,  -84.7435E-42,   170.622E-06
C:/temp/dataset/3/3_1.odb,Step-1,Increment      1: Step Time =    1.000,"PART-1-1",           506,      -12.4949,      -26.2800,            0.,NA,NA,"",   388.597E-06,  -387.769E-06,  -25.3579E-06,   40.9968E-06
C:/temp/dataset/3/3_1.odb,Step-1,Increment      1: Step Time =    1.000,"PART-1-1",           507,          -15.,        -26.25,            0.,NA,NA,"",   423.952E-06,  -390.769E-06,  -164.423E-06,   10.3152E-06
C:/temp/dataset/3/3_1.odb,Step-1,Increment      1: Step Time =    1.000,"PART-1-1",           508,       12.0036,      -23.8365,            0.,NA,NA,"",   2.56028E-03,   2.54381E-03,  -290.001E-06,   614.365E-06
C:/temp/dataset/3/3_1.odb,Step-1,Increment      1: Step Time =    1.000,"PART-1-1",           509,       13.6432,      -25.0896,            0.,NA,NA,"",   2.49695E-03,   2.40888E-03,   657.302E-06,   485.476E-06
C:/temp/dataset/3/3_1.odb,Step-1,Increment      1: Step Time =    1.000,"PART-1-1",           510,           15.,        -23.75,            0.,NA,NA,"",   2.71356E-03,   1.87991E-03,   1.95688E-03,   937.227E-06
C:/temp/dataset/3/3_1.odb,Step-1,Increment      1: Step Time =    1.000,"PART-1-1",           511,         11.25,          -30.,            0.,NA,NA,"",            0.,   549.282E-42,  -362.045E-42,   545.953E-06
C:/temp/dataset/3/3_1.odb,Step-1,Increment      1: Step Time =    1.000,"PART-1-1",           512,       13.9281,      -14.6298,            0.,NA,NA,"",   19.5394E-03,  -16.6442E-03,   10.2353E-03,   1.34118E-03
C:/temp/dataset/3/3_1.odb,Step-1,Increment      1: Step Time =    1.000,"PART-1-1",           513,       12.2657,      -15.3468,            0.,NA,NA,"",   13.2862E-03,  -13.0112E-03,   2.68911E-03,   475.128E-06
C:/temp/dataset/3/3_1.odb,Step-1,Increment      1: Step Time =    1.000,"PART-1-1",           514,           15.,        -16.25,            0.,NA,NA,"",   16.4429E-03,  -11.1368E-03,   12.0972E-03,   1.86773E-03
C:/temp/dataset/3/3_1.odb,Step-1,Increment      1: Step Time =    1.000,"PART-1-1",           515,       7.13425,      -14.5121,            0.,NA,NA,"",   26.9968E-03,  -18.3278E-03,  -19.8222E-03,   2.30928E-03
C:/temp/dataset/3/3_1.odb,Step-1,Increment      1: Step Time =    1.000,"PART-1-1",           516,       6.81531,      -16.2905,            0.,NA,NA,"",   20.6808E-03,  -11.3042E-03,  -17.3179E-03,   2.42431E-03
C:/temp/dataset/3/3_1.odb,Step-1,Increment      1: Step Time =    1.000,"PART-1-1",           517,       8.10983,      -17.0757,            0.,NA,NA,"",   13.8666E-03,  -7.57869E-03,  -11.6123E-03,   1.64895E-03
C:/temp/dataset/3/3_1.odb,Step-1,Increment      1: Step Time =    1.000,"PART-1-1",           518,       13.8641,      -7.41825,            0.,NA,NA,"",   63.4707E-03,  -60.7734E-03,   18.3064E-03,   1.27716E-03
C:/temp/dataset/3/3_1.odb,Step-1,Increment      1: Step Time =    1.000,"PART-1-1",           519,       13.0286,      -8.63342,            0.,NA,NA,"",   52.1960E-03,  -51.0443E-03,   10.9043E-03,   873.574E-06
C:/temp/dataset/3/3_1.odb,Step-1,Increment      1: Step Time =    1.000,"PART-1-1",           520,       14.1645,      -9.96517,            0.,NA,NA,"",   45.7887E-03,  -42.3551E-03,   17.3969E-03,   1.48271E-03
C:/temp/dataset/3/3_1.odb,Step-1,Increment      1: Step Time =    1.000,"PART-1-1",           521,           15.,         -8.75,            0.,NA,NA,"",   57.2330E-03,  -51.4793E-03,   25.0099E-03,   1.89790E-03
C:/temp/dataset/3/3_1.odb,Step-1,Increment      1: Step Time =    1.000,"PART-1-1",           522,       12.0251,      -10.9831,            0.,NA,NA,"",   35.0350E-03,  -34.9081E-03,   2.97845E-03,   347.181E-06
C:/temp/dataset/3/3_1.odb,Step-1,Increment      1: Step Time =    1.000,"PART-1-1",           523,       12.8055,      -11.9581,            0.,NA,NA,"",   30.2343E-03,  -29.3872E-03,   7.10672E-03,   748.270E-06
C:/temp/dataset/3/3_1.odb,Step-1,Increment      1: Step Time =    1.000,"PART-1-1",           524,       13.3751,      -11.0455,            0.,NA,NA,"",   36.7341E-03,  -34.9928E-03,   11.1757E-03,   1.05556E-03
C:/temp/dataset/3/3_1.odb,Step-1,Increment      1: Step Time =    1.000,"PART-1-1",           525,       12.5947,      -10.0706,            0.,NA,NA,"",   41.4572E-03,  -40.8668E-03,   6.97146E-03,   649.896E-06
C:/temp/dataset/3/3_1.odb,Step-1,Increment      1: Step Time =    1.000,"PART-1-1",           526,       11.4853,  -434.223E-03,            0.,NA,NA,"",   126.118E-03,  -126.117E-03,  -221.485E-06,   190.970E-06
C:/temp/dataset/3/3_1.odb,Step-1,Increment      1: Step Time =    1.000,"PART-1-1",           527,       10.5886,      -1.82652,            0.,NA,NA,"",   112.117E-03,  -111.759E-03,  -8.95636E-03,   537.597E-06
C:/temp/dataset/3/3_1.odb,Step-1,Increment      1: Step Time =    1.000,"PART-1-1",           528,       11.9063,      -2.70193,            0.,NA,NA,"",   102.827E-03,  -102.746E-03,   4.07401E-03,   319.299E-06
C:/temp/dataset/3/3_1.odb,Step-1,Increment      1: Step Time =    1.000,"PART-1-1",           529,       14.1300,       7.44597,            0.,NA,NA,"",   222.600E-03,  -219.739E-03,   35.5728E-03,   1.47489E-03
C:/temp/dataset/3/3_1.odb,Step-1,Increment      1: Step Time =    1.000,"PART-1-1",           530,       13.1865,       6.25975,            0.,NA,NA,"",   204.717E-03,  -203.551E-03,   21.8119E-03,   955.528E-06
C:/temp/dataset/3/3_1.odb,Step-1,Increment      1: Step Time =    1.000,"PART-1-1",           531,           15.,          6.25,            0.,NA,NA,"",   209.685E-03,  -204.711E-03,   45.3992E-03,   1.82845E-03
C:/temp/dataset/3/3_1.odb,Step-1,Increment      1: Step Time =    1.000,"PART-1-1",           532,       12.4155,       5.33720,            0.,NA,NA,"",   191.924E-03,  -191.593E-03,   11.2764E-03,   609.555E-06
C:/temp/dataset/3/3_1.odb,Step-1,Increment      1: Step Time =    1.000,"PART-1-1",           533,       11.2733,       3.54111,            0.,NA,NA,"",   169.927E-03,  -169.896E-03,  -3.24589E-03,   377.736E-06
C:/temp/dataset/3/3_1.odb,Step-1,Increment      1: Step Time =    1.000,"PART-1-1",           534,       12.2480,       13.5548,            0.,NA,NA,"",   310.827E-03,  -310.594E-03,   12.0348E-03,   514.905E-06
C:/temp/dataset/3/3_1.odb,Step-1,Increment      1: Step Time =    1.000,"PART-1-1",           535,           15.,         13.75,            0.,NA,NA,"",   321.166E-03,  -315.855E-03,   58.1658E-03,   2.06971E-03
C:/temp/dataset/3/3_1.odb,Step-1,Increment      1: Step Time =    1.000,"PART-1-1",           536,       13.6600,       14.9734,            0.,NA,NA,"",   337.611E-03,  -335.579E-03,   36.9843E-03,   1.30945E-03
C:/temp/dataset/3/3_1.odb,Step-1,Increment      1: Step Time =    1.000,"PART-1-1",           537,       8.15326,       10.4556,            0.,NA,NA,"",   266.913E-03,  -262.034E-03,  -50.7999E-03,   1.76823E-03
C:/temp/dataset/3/3_1.odb,Step-1,Increment      1: Step Time =    1.000,"PART-1-1",           538,       12.3824,       21.2920,            0.,NA,NA,"",   456.269E-03,  -455.956E-03,   16.8851E-03,   733.634E-06
C:/temp/dataset/3/3_1.odb,Step-1,Increment      1: Step Time =    1.000,"PART-1-1",           539,       13.6892,       20.0188,            0.,NA,NA,"",   432.658E-03,  -430.598E-03,   42.1694E-03,   1.12899E-03
C:/temp/dataset/3/3_1.odb,Step-1,Increment      1: Step Time =    1.000,"PART-1-1",           540,           15.,         21.25,            0.,NA,NA,"",   462.041E-03,  -456.756E-03,   69.6886E-03,   1.44351E-03
C:/temp/dataset/3/3_1.odb,Step-1,Increment      1: Step Time =    1.000,"PART-1-1",           541,       13.6932,       22.5232,            0.,NA,NA,"",   484.448E-03,  -482.466E-03,   43.7859E-03,   855.116E-06
C:/temp/dataset/3/3_1.odb,Step-1,Increment      1: Step Time =    1.000,"PART-1-1",           542,       9.77662,       16.3041,            0.,NA,NA,"",   359.359E-03,  -357.975E-03,  -31.5049E-03,   750.778E-06
C:/temp/dataset/3/3_1.odb,Step-1,Increment      1: Step Time =    1.000,"PART-1-1",           543,       11.0318,       15.0036,            0.,NA,NA,"",   335.058E-03,  -334.947E-03,  -8.60281E-03,   142.887E-06
C:/temp/dataset/3/3_1.odb,Step-1,Increment      1: Step Time =    1.000,"PART-1-1",           544,       12.3430,       16.2301,            0.,NA,NA,"",   357.431E-03,  -357.133E-03,   14.5915E-03,   590.896E-06
C:/temp/dataset/3/3_1.odb,Step-1,Increment      1: Step Time =    1.000,"PART-1-1",           545,         13.75,           30.,            0.,NA,NA,"",   646.018E-03,  -644.428E-03,   45.2937E-03,   64.9885E-06
C:/temp/dataset/3/3_1.odb,Step-1,Increment      1: Step Time =    1.000,"PART-1-1",           546,       12.4862,       28.7548,            0.,NA,NA,"",   617.633E-03,  -617.354E-03,   18.5602E-03,   296.521E-06
C:/temp/dataset/3/3_1.odb,Step-1,Increment      1: Step Time =    1.000,"PART-1-1",           547,           15.,         28.75,            0.,NA,NA,"",   621.978E-03,  -617.738E-03,   72.5006E-03,   64.7625E-06
C:/temp/dataset/3/3_1.odb,Step-1,Increment      1: Step Time =    1.000,"PART-1-1",           548,       12.4064,       23.7898,            0.,NA,NA,"",   509.309E-03,  -509.005E-03,   17.5890E-03,   711.608E-06
C:/temp/dataset/3/3_1.odb,Step-1,Increment      1: Step Time =    1.000,"PART-1-1",           549,           15.,         23.75,            0.,NA,NA,"",   514.449E-03,  -509.408E-03,   71.8412E-03,   929.876E-06
C:/temp/dataset/3/3_1.odb,Step-1,Increment      1: Step Time =    1.000,"PART-1-1",           550,       9.91541,       26.3072,            0.,NA,NA,"",   564.675E-03,  -563.574E-03,  -35.2453E-03,   559.483E-06
C:/temp/dataset/3/3_1.odb,Step-1,Increment      1: Step Time =    1.000,"PART-1-1",           551,       11.1537,       25.0565,            0.,NA,NA,"",   536.312E-03,  -536.243E-03,  -8.59948E-03,   618.195E-06
C:/temp/dataset/3/3_1.odb,Step-1,Increment      1: Step Time =    1.000,"PART-1-1",           552,       11.2110,       27.5221,            0.,NA,NA,"",   590.360E-03,  -590.304E-03,  -8.18854E-03,   490.130E-06
C:/temp/dataset/3/3_1.odb,Step-1,Increment      1: Step Time =    1.000,"PART-1-1",           553,       8.69233,       27.5515,            0.,NA,NA,"",   594.309E-03,  -591.019E-03,  -62.4470E-03,   480.473E-06
C:/temp/dataset/3/3_1.odb,Step-1,Increment      1: Step Time =    1.000,"PART-1-1",           554,       7.41297,       26.3376,            0.,NA,NA,"",   571.807E-03,  -564.761E-03,  -89.4892E-03,   1.01228E-03
C:/temp/dataset/3/3_1.odb,Step-1,Increment      1: Step Time =    1.000,"PART-1-1",           555,       8.63604,       25.0933,            0.,NA,NA,"",   540.716E-03,  -537.186E-03,  -61.6825E-03,   833.113E-06
C:/temp/dataset/3/3_1.odb,Step-1,Increment      1: Step Time =    1.000,"PART-1-1",           556,      -1.26375,       27.5391,            0.,NA,NA,"",   658.065E-03,  -593.634E-03,  -283.985E-03,   206.356E-06
C:/temp/dataset/3/3_1.odb,Step-1,Increment      1: Step Time =    1.000,"PART-1-1",           557,         -1.25,           30.,            0.,NA,NA,"",   707.067E-03,  -647.340E-03,  -284.420E-03,   241.085E-06
C:/temp/dataset/3/3_1.odb,Step-1,Increment      1: Step Time =    1.000,"PART-1-1",           558,      -2.50500,       28.7640,            0.,NA,NA,"",   694.078E-03,  -620.223E-03,  -311.558E-03,   120.609E-06
C:/temp/dataset/3/3_1.odb,Step-1,Increment      1: Step Time =    1.000,"PART-1-1",           559,      -7.50143,       28.7522,            0.,NA,NA,"",   749.231E-03,  -618.906E-03,  -422.260E-03,   20.2035E-06
C:/temp/dataset/3/3_1.odb,Step-1,Increment      1: Step Time =    1.000,"PART-1-1",           560,         -8.75,           30.,            0.,NA,NA,"",   787.682E-03,  -646.288E-03,  -450.282E-03,   13.4901E-06
C:/temp/dataset/3/3_1.odb,Step-1,Increment      1: Step Time =    1.000,"PART-1-1",           561,      -6.25460,       27.5081,            0.,NA,NA,"",   711.001E-03,  -591.658E-03,  -394.287E-03,   45.9918E-06
C:/temp/dataset/3/3_1.odb,Step-1,Increment      1: Step Time =    1.000,"PART-1-1",           562,        -13.75,           30.,            0.,NA,NA,"",   855.026E-03,  -645.067E-03,  -561.211E-03,   106.058E-09
C:/temp/dataset/3/3_1.odb,Step-1,Increment      1: Step Time =    1.000,"PART-1-1",           563,          -15.,         28.75,            0.,NA,NA,"",   852.769E-03,  -617.031E-03,  -588.632E-03,   233.317E-09
C:/temp/dataset/3/3_1.odb,Step-1,Increment      1: Step Time =    1.000,"PART-1-1",           564,      -13.7509,       27.5010,            0.,NA,NA,"",   813.609E-03,  -589.633E-03,  -560.618E-03,   1.06420E-06
C:/temp/dataset/3/3_1.odb,Step-1,Increment      1: Step Time =    1.000,"PART-1-1",           565,          -15.,         26.25,            0.,NA,NA,"",   813.101E-03,  -561.577E-03,  -588.017E-03,   189.045E-09
C:/temp/dataset/3/3_1.odb,Step-1,Increment      1: Step Time =    1.000,"PART-1-1",           566,      -12.5016,       26.2536,            0.,NA,NA,"",   774.475E-03,  -562.272E-03,  -532.599E-03,   2.34673E-06
C:/temp/dataset/3/3_1.odb,Step-1,Increment      1: Step Time =    1.000,"PART-1-1",           567,      -7.50093,       21.2547,            0.,NA,NA,"",   617.797E-03,  -452.606E-03,  -420.501E-03,   18.6670E-06
C:/temp/dataset/3/3_1.odb,Step-1,Increment      1: Step Time =    1.000,"PART-1-1",           568,         -6.25,           20.,            0.,NA,NA,"",   578.510E-03,  -425.044E-03,  -392.444E-03,   45.4761E-06
C:/temp/dataset/3/3_1.odb,Step-1,Increment      1: Step Time =    1.000,"PART-1-1",           569,      -4.99978,       21.2574,            0.,NA,NA,"",   581.962E-03,  -453.233E-03,  -365.046E-03,   47.7765E-06
C:/temp/dataset/3/3_1.odb,Step-1,Increment      1: Step Time =    1.000,"PART-1-1",           570,      -3.74911,       22.5208,            0.,NA,NA,"",   588.200E-03,  -481.666E-03,  -337.604E-03,   57.5873E-06
C:/temp/dataset/3/3_1.odb,Step-1,Increment      1: Step Time =    1.000,"PART-1-1",           571,         -3.75,           20.,            0.,NA,NA,"",   542.753E-03,  -425.497E-03,  -336.948E-03,   103.346E-06
C:/temp/dataset/3/3_1.odb,Step-1,Increment      1: Step Time =    1.000,"PART-1-1",           572,      -2.49933,       21.2634,            0.,NA,NA,"",   549.347E-03,  -453.889E-03,  -309.462E-03,   73.0821E-06
C:/temp/dataset/3/3_1.odb,Step-1,Increment      1: Step Time =    1.000,"PART-1-1",           573,         -1.25,           20.,            0.,NA,NA,"",   510.231E-03,  -425.786E-03,  -281.144E-03,   198.149E-06
C:/temp/dataset/3/3_1.odb,Step-1,Increment      1: Step Time =    1.000,"PART-1-1",           574,  -2.23348E-03,       21.2694,            0.,NA,NA,"",   520.407E-03,  -454.499E-03,  -253.484E-03,   79.9437E-06
C:/temp/dataset/3/3_1.odb,Step-1,Increment      1: Step Time =    1.000,"PART-1-1",           575,      -1.25156,       22.5328,            0.,NA,NA,"",   558.913E-03,  -482.595E-03,  -281.932E-03,   77.9213E-06
C:/temp/dataset/3/3_1.odb,Step-1,Increment      1: Step Time =    1.000,"PART-1-1",           576,         -3.75,           30.,            0.,NA,NA,"",   730.870E-03,  -647.280E-03,  -339.409E-03,   129.229E-06
C:/temp/dataset/3/3_1.odb,Step-1,Increment      1: Step Time =    1.000,"PART-1-1",           577,      -5.00318,       28.7559,            0.,NA,NA,"",   720.012E-03,  -619.562E-03,  -366.825E-03,   52.5913E-06
C:/temp/dataset/3/3_1.odb,Step-1,Increment      1: Step Time =    1.000,"PART-1-1",           578,       7.36074,       18.8052,            0.,NA,NA,"",   412.634E-03,  -404.780E-03,  -80.1248E-03,   1.58111E-03
C:/temp/dataset/3/3_1.odb,Step-1,Increment      1: Step Time =    1.000,"PART-1-1",           579,       8.58169,       17.5494,            0.,NA,NA,"",   384.872E-03,  -380.954E-03,  -54.7794E-03,   1.35654E-03
C:/temp/dataset/3/3_1.odb,Step-1,Increment      1: Step Time =    1.000,"PART-1-1",           580,       8.60057,       20.0599,            0.,NA,NA,"",   433.580E-03,  -429.787E-03,  -57.2228E-03,   987.204E-06
C:/temp/dataset/3/3_1.odb,Step-1,Increment      1: Step Time =    1.000,"PART-1-1",           581,            5.,         18.75,            0.,NA,NA,"",   425.034E-03,  -405.681E-03,  -126.796E-03,   4.44404E-03
C:/temp/dataset/3/3_1.odb,Step-1,Increment      1: Step Time =    1.000,"PART-1-1",           582,       6.17685,       17.5255,            0.,NA,NA,"",   394.639E-03,  -381.722E-03,  -100.140E-03,   2.95076E-03
C:/temp/dataset/3/3_1.odb,Step-1,Increment      1: Step Time =    1.000,"PART-1-1",           583,       6.18390,       20.0298,            0.,NA,NA,"",   441.780E-03,  -428.840E-03,  -106.142E-03,   2.56068E-03
C:/temp/dataset/3/3_1.odb,Step-1,Increment      1: Step Time =    1.000,"PART-1-1",           584,            5.,         16.25,            0.,NA,NA,"",   379.246E-03,  -360.652E-03,  -117.291E-03,   3.62977E-03
C:/temp/dataset/3/3_1.odb,Step-1,Increment      1: Step Time =    1.000,"PART-1-1",           585,       6.15340,       15.0385,            0.,NA,NA,"",   350.629E-03,  -337.958E-03,  -93.4090E-03,   2.90878E-03
C:/temp/dataset/3/3_1.odb,Step-1,Increment      1: Step Time =    1.000,"PART-1-1",           586,       7.33024,       16.3140,            0.,NA,NA,"",   366.940E-03,  -359.044E-03,  -75.7157E-03,   2.18920E-03
C:/temp/dataset/3/3_1.odb,Step-1,Increment      1: Step Time =    1.000,"PART-1-1",           587,           15.,         16.25,            0.,NA,NA,"",   364.897E-03,  -359.516E-03,   62.4368E-03,   2.01826E-03
C:/temp/dataset/3/3_1.odb,Step-1,Increment      1: Step Time =    1.000,"PART-1-1",           588,       13.6830,       17.5067,            0.,NA,NA,"",   383.636E-03,  -381.556E-03,   39.8943E-03,   1.27518E-03
C:/temp/dataset/3/3_1.odb,Step-1,Increment      1: Step Time =    1.000,"PART-1-1",           589,           15.,         18.75,            0.,NA,NA,"",   411.944E-03,  -406.555E-03,   66.4181E-03,   1.82511E-03
C:/temp/dataset/3/3_1.odb,Step-1,Increment      1: Step Time =    1.000,"PART-1-1",           590,       7.36831,       6.81272,            0.,NA,NA,"",   217.807E-03,  -210.695E-03,  -55.2022E-03,   1.76565E-03
C:/temp/dataset/3/3_1.odb,Step-1,Increment      1: Step Time =    1.000,"PART-1-1",           591,       6.10412,       7.73110,            0.,NA,NA,"",   236.233E-03,  -224.333E-03,  -74.0339E-03,   2.96252E-03
C:/temp/dataset/3/3_1.odb,Step-1,Increment      1: Step Time =    1.000,"PART-1-1",           592,            5.,          6.25,            0.,NA,NA,"",   222.105E-03,  -205.709E-03,  -83.7520E-03,   4.33016E-03
C:/temp/dataset/3/3_1.odb,Step-1,Increment      1: Step Time =    1.000,"PART-1-1",           593,       6.26419,       5.33162,            0.,NA,NA,"",   203.162E-03,  -192.111E-03,  -66.0929E-03,   2.56160E-03
C:/temp/dataset/3/3_1.odb,Step-1,Increment      1: Step Time =    1.000,"PART-1-1",           594,           15.,          8.75,            0.,NA,NA,"",   243.592E-03,  -238.507E-03,   49.5148E-03,   1.98957E-03
C:/temp/dataset/3/3_1.odb,Step-1,Increment      1: Step Time =    1.000,"PART-1-1",           595,       13.1418,       8.51598,            0.,NA,NA,"",   234.903E-03,  -233.779E-03,   22.9529E-03,   979.011E-06
C:/temp/dataset/3/3_1.odb,Step-1,Increment      1: Step Time =    1.000,"PART-1-1",           596,       6.30252,      -5.49102,            0.,NA,NA,"",   89.6262E-03,  -77.1748E-03,  -45.5731E-03,   2.52637E-03
C:/temp/dataset/3/3_1.odb,Step-1,Increment      1: Step Time =    1.000,"PART-1-1",           597,            5.,         -6.25,            0.,NA,NA,"",   91.5764E-03,  -72.7044E-03,  -55.6804E-03,   4.25680E-03
C:/temp/dataset/3/3_1.odb,Step-1,Increment      1: Step Time =    1.000,"PART-1-1",           598,       6.10325,      -7.87566,            0.,NA,NA,"",   71.9362E-03,  -58.6893E-03,  -41.5979E-03,   2.89551E-03
C:/temp/dataset/3/3_1.odb,Step-1,Increment      1: Step Time =    1.000,"PART-1-1",           599,       7.40577,      -7.11668,            0.,NA,NA,"",   71.2142E-03,  -63.2104E-03,  -32.8011E-03,   1.76499E-03
C:/temp/dataset/3/3_1.odb,Step-1,Increment      1: Step Time =    1.000,"PART-1-1",           600,            5.,         -8.75,            0.,NA,NA,"",   71.6209E-03,  -54.1155E-03,  -46.9156E-03,   3.50572E-03
C:/temp/dataset/3/3_1.odb,Step-1,Increment      1: Step Time =    1.000,"PART-1-1",           601,            5.,        -13.75,            0.,NA,NA,"",   40.0051E-03,  -24.4876E-03,  -31.6350E-03,   3.34871E-03
C:/temp/dataset/3/3_1.odb,Step-1,Increment      1: Step Time =    1.000,"PART-1-1",           602,       5.77894,      -15.1288,            0.,NA,NA,"",   29.7694E-03,  -17.2583E-03,  -24.2563E-03,   2.99200E-03
C:/temp/dataset/3/3_1.odb,Step-1,Increment      1: Step Time =    1.000,"PART-1-1",           603,            5.,        -16.25,            0.,NA,NA,"",   27.9195E-03,  -13.9122E-03,  -24.2064E-03,   3.40779E-03
C:/temp/dataset/3/3_1.odb,Step-1,Increment      1: Step Time =    1.000,"PART-1-1",           604,       2.77244,      -24.0596,            0.,NA,NA,"",   3.07802E-03,  -1.27220E-03,  -2.80281E-03,   820.003E-06
C:/temp/dataset/3/3_1.odb,Step-1,Increment      1: Step Time =    1.000,"PART-1-1",           605,       3.76359,      -25.5842,            0.,NA,NA,"",   2.63795E-03,  -758.673E-06,  -2.52649E-03,   879.658E-06
C:/temp/dataset/3/3_1.odb,Step-1,Increment      1: Step Time =    1.000,"PART-1-1",           606,       5.11162,      -24.8806,            0.,NA,NA,"",   3.66348E-03,  -253.009E-06,  -3.65473E-03,   1.20443E-03
C:/temp/dataset/3/3_1.odb,Step-1,Increment      1: Step Time =    1.000,"PART-1-1",           607,       4.12047,      -23.3559,            0.,NA,NA,"",   4.72289E-03,  -1.03245E-03,  -4.60866E-03,   1.20544E-03
C:/temp/dataset/3/3_1.odb,Step-1,Increment      1: Step Time =    1.000,"PART-1-1",           608,       8.48587,      -2.76980,            0.,NA,NA,"",   107.052E-03,  -103.101E-03,  -28.8169E-03,   1.42360E-03
C:/temp/dataset/3/3_1.odb,Step-1,Increment      1: Step Time =    1.000,"PART-1-1",           609,       9.66601,      -3.38468,            0.,NA,NA,"",   97.7505E-03,  -96.2746E-03,  -16.9220E-03,   879.399E-06
C:/temp/dataset/3/3_1.odb,Step-1,Increment      1: Step Time =    1.000,"PART-1-1",           610,       9.40849,      -1.21164,            0.,NA,NA,"",   120.556E-03,  -118.662E-03,  -21.2844E-03,   1.06559E-03
C:/temp/dataset/3/3_1.odb,Step-1,Increment      1: Step Time =    1.000,"PART-1-1",           611,       3.88333,            5.,            0.,NA,NA,"",   207.157E-03,  -188.718E-03,  -85.4366E-03,   1.27022E-03
C:/temp/dataset/3/3_1.odb,Step-1,Increment      1: Step Time =    1.000,"PART-1-1",           612,       3.93709,       2.49951,            0.,NA,NA,"",   183.525E-03,  -163.272E-03,  -83.8072E-03,   1.16882E-03
C:/temp/dataset/3/3_1.odb,Step-1,Increment      1: Step Time =    1.000,"PART-1-1",           613,       5.14044,       3.62548,            0.,NA,NA,"",   189.717E-03,  -174.598E-03,  -74.2173E-03,   2.47978E-03
C:/temp/dataset/3/3_1.odb,Step-1,Increment      1: Step Time =    1.000,"PART-1-1",           614,       1.70000,           -5.,            0.,NA,NA,"",   132.444E-03,  -82.2912E-03,  -103.777E-03,   332.650E-06
C:/temp/dataset/3/3_1.odb,Step-1,Increment      1: Step Time =    1.000,"PART-1-1",           615,       2.88648,      -4.17028,            0.,NA,NA,"",   128.526E-03,  -91.7283E-03,  -90.0275E-03,   443.146E-06
C:/temp/dataset/3/3_1.odb,Step-1,Increment      1: Step Time =    1.000,"PART-1-1",           616,       1.90498,      -3.27989,            0.,NA,NA,"",   143.757E-03,  -101.669E-03,  -101.635E-03,   253.229E-06
C:/temp/dataset/3/3_1.odb,Step-1,Increment      1: Step Time =    1.000,"PART-1-1",           617,      -2.82853,       3.20340,            0.,NA,NA,"",   229.367E-03,  -170.665E-03,  -153.240E-03,   77.2192E-06
C:/temp/dataset/3/3_1.odb,Step-1,Increment      1: Step Time =    1.000,"PART-1-1",           618,      -1.73717,       4.08745,            0.,NA,NA,"",   229.082E-03,  -180.010E-03,  -141.686E-03,   98.6895E-06
C:/temp/dataset/3/3_1.odb,Step-1,Increment      1: Step Time =    1.000,"PART-1-1",           619,      -2.81667,            5.,            0.,NA,NA,"",   243.873E-03,  -189.701E-03,  -153.256E-03,   97.1400E-06
C:/temp/dataset/3/3_1.odb,Step-1,Increment      1: Step Time =    1.000,"PART-1-1",           620,      -7.28333,            5.,            0.,NA,NA,"",   276.274E-03,  -189.604E-03,  -200.942E-03,   9.76338E-06
C:/temp/dataset/3/3_1.odb,Step-1,Increment      1: Step Time =    1.000,"PART-1-1",           621,      -11.7000,            5.,            0.,NA,NA,"",   312.089E-03,  -189.357E-03,  -248.080E-03,   355.206E-09
C:/temp/dataset/3/3_1.odb,Step-1,Increment      1: Step Time =    1.000,"PART-1-1",           622,      -11.5540,       2.50359,            0.,NA,NA,"",   295.271E-03,  -162.732E-03,  -246.381E-03,   1.29124E-06
C:/temp/dataset/3/3_1.odb,Step-1,Increment      1: Step Time =    1.000,"PART-1-1",           623,      -8.37698,      -4.01732,            0.,NA,NA,"",   231.777E-03,  -93.3546E-03,  -212.144E-03,   4.56168E-06
C:/temp/dataset/3/3_1.odb,Step-1,Increment      1: Step Time =    1.000,"PART-1-1",           624,      -10.5279,      -3.86372,            0.,NA,NA,"",   253.505E-03,  -94.8731E-03,  -235.083E-03,   985.263E-09
C:/temp/dataset/3/3_1.odb,Step-1,Increment      1: Step Time =    1.000,"PART-1-1",           625,      -9.41667,           -5.,            0.,NA,NA,"",   238.042E-03,  -82.8193E-03,  -223.171E-03,   1.54880E-06
C:/temp/dataset/3/3_1.odb,Step-1,Increment      1: Step Time =    1.000,"PART-1-1",           626,          3.75,          -20.,            0.,NA,NA,"",   5.31348E-03,  -76.9934E-06,  -5.31293E-03,   1.45452E-03
C:/temp/dataset/3/3_1.odb,Step-1,Increment      1: Step Time =    1.000,"PART-1-1",           627,       2.74072,      -21.3682,            0.,NA,NA,"",   3.88025E-03,  -1.06762E-03,  -3.73049E-03,   503.837E-06
C:/temp/dataset/3/3_1.odb,Step-1,Increment      1: Step Time =    1.000,"PART-1-1",           628,       4.11640,      -22.1674,            0.,NA,NA,"",   5.86722E-03,  -1.36785E-03,  -5.70554E-03,   1.48103E-03
C:/temp/dataset/3/3_1.odb,Step-1,Increment      1: Step Time =    1.000,"PART-1-1",           629,       5.12568,      -20.7992,            0.,NA,NA,"",   9.41037E-03,  -1.09691E-03,  -9.34622E-03,   2.56560E-03
C:/temp/dataset/3/3_1.odb,Step-1,Increment      1: Step Time =    1.000,"PART-1-1",           630,          1.25,          -20.,            0.,NA,NA,"",   1.90898E-03,   324.612E-06,  -1.88118E-03,   126.492E-06
C:/temp/dataset/3/3_1.odb,Step-1,Increment      1: Step Time =    1.000,"PART-1-1",           631,   73.0809E-03,      -21.3299,            0.,NA,NA,"",   1.25414E-03,  -598.786E-06,  -1.10196E-03,   79.6838E-06
C:/temp/dataset/3/3_1.odb,Step-1,Increment      1: Step Time =    1.000,"PART-1-1",           632,       1.56380,      -22.6981,            0.,NA,NA,"",   2.57750E-03,  -1.29790E-03,  -2.22687E-03,   588.722E-06
C:/temp/dataset/3/3_1.odb,Step-1,Increment      1: Step Time =    1.000,"PART-1-1",           633,         -1.25,          -20.,            0.,NA,NA,"",   643.456E-06,  -172.437E-06,  -619.920E-06,   140.314E-06
C:/temp/dataset/3/3_1.odb,Step-1,Increment      1: Step Time =    1.000,"PART-1-1",           634,      -2.46493,      -21.3147,            0.,NA,NA,"",   650.932E-06,  -601.968E-06,  -247.685E-06,   16.8882E-06
C:/temp/dataset/3/3_1.odb,Step-1,Increment      1: Step Time =    1.000,"PART-1-1",           635,      -1.14185,      -22.6446,            0.,NA,NA,"",   1.14638E-03,  -969.320E-06,  -612.054E-06,   159.531E-06
C:/temp/dataset/3/3_1.odb,Step-1,Increment      1: Step Time =    1.000,"PART-1-1",           636,         -3.75,          -20.,            0.,NA,NA,"",   423.512E-06,  -419.586E-06,  -57.5320E-06,   87.2615E-06
C:/temp/dataset/3/3_1.odb,Step-1,Increment      1: Step Time =    1.000,"PART-1-1",           637,      -4.97847,      -21.2978,            0.,NA,NA,"",   629.170E-06,  -623.718E-06,   82.6465E-06,   23.4157E-06
C:/temp/dataset/3/3_1.odb,Step-1,Increment      1: Step Time =    1.000,"PART-1-1",           638,      -3.69340,      -22.6125,            0.,NA,NA,"",   792.145E-06,  -791.020E-06,  -42.1893E-06,   57.7024E-06
C:/temp/dataset/3/3_1.odb,Step-1,Increment      1: Step Time =    1.000,"PART-1-1",           639,      -4.95791,      -23.8547,            0.,NA,NA,"",   811.125E-06,  -810.081E-06,   41.1329E-06,   74.6182E-06
C:/temp/dataset/3/3_1.odb,Step-1,Increment      1: Step Time =    1.000,"PART-1-1",           640,      -6.21189,      -22.5887,            0.,NA,NA,"",   712.228E-06,  -701.543E-06,   122.904E-06,   38.1612E-06
C:/temp/dataset/3/3_1.odb,Step-1,Increment      1: Step Time =    1.000,"PART-1-1",           641,      -7.46939,      -23.8324,            0.,NA,NA,"",   683.360E-06,  -674.518E-06,   109.571E-06,   46.3423E-06
C:/temp/dataset/3/3_1.odb,Step-1,Increment      1: Step Time =    1.000,"PART-1-1",           642,           15.,        -13.75,            0.,NA,NA,"",   26.9708E-03,  -21.4258E-03,   16.3817E-03,   1.93401E-03
C:/temp/dataset/3/3_1.odb,Step-1,Increment      1: Step Time =    1.000,"PART-1-1",           643,       14.2106,      -12.3304,            0.,NA,NA,"",   31.5978E-03,  -28.0555E-03,   14.5365E-03,   1.51366E-03
C:/temp/dataset/3/3_1.odb,Step-1,Increment      1: Step Time =    1.000,"PART-1-1",           644,       13.1387,      -13.2101,            0.,NA,NA,"",   24.1994E-03,  -22.8529E-03,   7.95959E-03,   923.644E-06
C:/temp/dataset/3/3_1.odb,Step-1,Increment      1: Step Time =    1.000,"PART-1-1",           645,           15.,        -11.25,            0.,NA,NA,"",   40.5659E-03,  -34.8775E-03,   20.7160E-03,   1.94173E-03
C:/temp/dataset/3/3_1.odb,Step-1,Increment      1: Step Time =    1.000,"PART-1-1",           646,           15.,         -6.25,            0.,NA,NA,"",   76.9146E-03,  -71.2000E-03,   29.0934E-03,   1.76120E-03
C:/temp/dataset/3/3_1.odb,Step-1,Increment      1: Step Time =    1.000,"PART-1-1",           647,       14.0624,      -4.92369,            0.,NA,NA,"",   85.2844E-03,  -82.2134E-03,   22.6800E-03,   1.24509E-03
C:/temp/dataset/3/3_1.odb,Step-1,Increment      1: Step Time =    1.000,"PART-1-1",           648,       12.9264,      -6.09194,            0.,NA,NA,"",   72.2820E-03,  -71.2941E-03,   11.9093E-03,   787.174E-06
C:/temp/dataset/3/3_1.odb,Step-1,Increment      1: Step Time =    1.000,"PART-1-1",           649,           15.,         -3.75,            0.,NA,NA,"",   99.3332E-03,  -93.7887E-03,   32.7225E-03,   1.54499E-03
C:/temp/dataset/3/3_1.odb,Step-1,Increment      1: Step Time =    1.000,"PART-1-1",           650,       13.0440,      -3.68493,            0.,NA,NA,"",   94.4591E-03,  -93.3453E-03,   14.4632E-03,   746.979E-06
C:/temp/dataset/3/3_1.odb,Step-1,Increment      1: Step Time =    1.000,"PART-1-1",           651,       8.06094,   477.426E-03,            0.,NA,NA,"",   142.664E-03,  -137.634E-03,  -37.5503E-03,   1.54257E-03
C:/temp/dataset/3/3_1.odb,Step-1,Increment      1: Step Time =    1.000,"PART-1-1",           652,       8.76493,       2.31856,            0.,NA,NA,"",   160.188E-03,  -156.931E-03,  -32.1392E-03,   1.37444E-03
C:/temp/dataset/3/3_1.odb,Step-1,Increment      1: Step Time =    1.000,"PART-1-1",           653,       6.73548,       2.80805,            0.,NA,NA,"",   173.224E-03,  -163.985E-03,  -55.8159E-03,   1.93166E-03
C:/temp/dataset/3/3_1.odb,Step-1,Increment      1: Step Time =    1.000,"PART-1-1",           654,       6.03149,   966.916E-03,            0.,NA,NA,"",   156.965E-03,  -144.978E-03,  -60.1616E-03,   1.90682E-03
C:/temp/dataset/3/3_1.odb,Step-1,Increment      1: Step Time =    1.000,"PART-1-1",           655,            5.,          8.75,            0.,NA,NA,"",   257.730E-03,  -240.399E-03,  -92.9127E-03,   3.59808E-03
C:/temp/dataset/3/3_1.odb,Step-1,Increment      1: Step Time =    1.000,"PART-1-1",           656,       7.16919,       9.14751,            0.,NA,NA,"",   251.394E-03,  -243.426E-03,  -62.7899E-03,   2.29613E-03
C:/temp/dataset/3/3_1.odb,Step-1,Increment      1: Step Time =    1.000,"PART-1-1",           657,          3.75,           30.,            0.,NA,NA,"",   670.674E-03,  -647.160E-03,  -176.034E-03,   1.02326E-03
C:/temp/dataset/3/3_1.odb,Step-1,Increment      1: Step Time =    1.000,"PART-1-1",           658,       3.71036,       27.5731,            0.,NA,NA,"",   618.544E-03,  -593.571E-03,  -173.982E-03,   1.20027E-03
C:/temp/dataset/3/3_1.odb,Step-1,Increment      1: Step Time =    1.000,"PART-1-1",           659,       7.38617,       23.8490,            0.,NA,NA,"",   517.928E-03,  -510.559E-03,  -87.0550E-03,   1.32939E-03
C:/temp/dataset/3/3_1.odb,Step-1,Increment      1: Step Time =    1.000,"PART-1-1",           660,       6.16255,       25.1024,            0.,NA,NA,"",   550.726E-03,  -538.451E-03,  -115.629E-03,   1.28264E-03
C:/temp/dataset/3/3_1.odb,Step-1,Increment      1: Step Time =    1.000,"PART-1-1",           661,       4.93576,       23.8439,            0.,NA,NA,"",   530.938E-03,  -511.764E-03,  -141.395E-03,   1.63042E-03
C:/temp/dataset/3/3_1.odb,Step-1,Increment      1: Step Time =    1.000,"PART-1-1",           662,       6.15938,       22.5905,            0.,NA,NA,"",   496.713E-03,  -483.968E-03,  -111.798E-03,   1.75651E-03
C:/temp/dataset/3/3_1.odb,Step-1,Increment      1: Step Time =    1.000,"PART-1-1",           663,      -10.0017,       23.7560,            0.,NA,NA,"",   696.170E-03,  -507.497E-03,  -476.549E-03,   9.38041E-06
C:/temp/dataset/3/3_1.odb,Step-1,Increment      1: Step Time =    1.000,"PART-1-1",           664,      -8.75135,       22.5073,            0.,NA,NA,"",   657.021E-03,  -480.103E-03,  -448.527E-03,   18.9418E-06
C:/temp/dataset/3/3_1.odb,Step-1,Increment      1: Step Time =    1.000,"PART-1-1",           665,      -10.0004,       21.2526,            0.,NA,NA,"",   656.323E-03,  -451.959E-03,  -475.913E-03,   5.56125E-06
C:/temp/dataset/3/3_1.odb,Step-1,Increment      1: Step Time =    1.000,"PART-1-1",           666,      -11.2505,       22.5043,            0.,NA,NA,"",   695.555E-03,  -479.419E-03,  -503.939E-03,   5.80468E-06
C:/temp/dataset/3/3_1.odb,Step-1,Increment      1: Step Time =    1.000,"PART-1-1",           667,        -11.25,           20.,            0.,NA,NA,"",   658.022E-03,  -423.874E-03,  -503.313E-03,   2.38915E-06
C:/temp/dataset/3/3_1.odb,Step-1,Increment      1: Step Time =    1.000,"PART-1-1",           668,         -8.75,           20.,            0.,NA,NA,"",   617.071E-03,  -424.479E-03,  -447.878E-03,   12.8322E-06
C:/temp/dataset/3/3_1.odb,Step-1,Increment      1: Step Time =    1.000,"PART-1-1",           669,       7.37456,       21.3253,            0.,NA,NA,"",   463.682E-03,  -456.081E-03,  -83.6141E-03,   1.53072E-03
C:/temp/dataset/3/3_1.odb,Step-1,Increment      1: Step Time =    1.000,"PART-1-1",           670,      -1.26076,       25.0501,            0.,NA,NA,"",   608.425E-03,  -538.636E-03,  -282.936E-03,   164.097E-06
C:/temp/dataset/3/3_1.odb,Step-1,Increment      1: Step Time =    1.000,"PART-1-1",           671,      -2.50213,       23.7814,            0.,NA,NA,"",   597.014E-03,  -510.107E-03,  -310.189E-03,   52.7784E-06
C:/temp/dataset/3/3_1.odb,Step-1,Increment      1: Step Time =    1.000,"PART-1-1",           672,          1.25,           20.,            0.,NA,NA,"",   481.360E-03,  -425.760E-03,  -224.580E-03,   176.078E-06
C:/temp/dataset/3/3_1.odb,Step-1,Increment      1: Step Time =    1.000,"PART-1-1",           673,            5.,         13.75,            0.,NA,NA,"",   335.845E-03,  -317.591E-03,  -109.213E-03,   3.49927E-03
C:/temp/dataset/3/3_1.odb,Step-1,Increment      1: Step Time =    1.000,"PART-1-1",           674,       7.85923,       4.51418,            0.,NA,NA,"",   187.573E-03,  -181.941E-03,  -45.6207E-03,   1.60132E-03
C:/temp/dataset/3/3_1.odb,Step-1,Increment      1: Step Time =    1.000,"PART-1-1",           675,       9.45843,       7.45797,            0.,NA,NA,"",   220.428E-03,  -218.603E-03,  -28.3072E-03,   844.446E-06
C:/temp/dataset/3/3_1.odb,Step-1,Increment      1: Step Time =    1.000,"PART-1-1",           676,       11.3500,       8.04392,            0.,NA,NA,"",   226.586E-03,  -226.573E-03,  -2.41745E-03,   183.974E-06
C:/temp/dataset/3/3_1.odb,Step-1,Increment      1: Step Time =    1.000,"PART-1-1",           677,       10.2386,       8.70699,            0.,NA,NA,"",   236.443E-03,  -235.735E-03,  -18.2913E-03,   516.526E-06
C:/temp/dataset/3/3_1.odb,Step-1,Increment      1: Step Time =    1.000,"PART-1-1",           678,   133.314E-03,       2.02047,            0.,NA,NA,"",   199.840E-03,  -158.452E-03,  -121.775E-03,   79.4594E-06
C:/temp/dataset/3/3_1.odb,Step-1,Increment      1: Step Time =    1.000,"PART-1-1",           679,       2.26054,       1.70692,            0.,NA,NA,"",   184.433E-03,  -155.224E-03,  -99.6047E-03,   436.276E-06
C:/temp/dataset/3/3_1.odb,Step-1,Increment      1: Step Time =    1.000,"PART-1-1",           680,  -583.333E-03,            5.,            0.,NA,NA,"",   229.595E-03,  -189.536E-03,  -129.576E-03,   237.193E-06
C:/temp/dataset/3/3_1.odb,Step-1,Increment      1: Step Time =    1.000,"PART-1-1",           681,  -713.179E-03,       3.09316,            0.,NA,NA,"",   214.151E-03,  -169.606E-03,  -130.746E-03,   99.2420E-06
C:/temp/dataset/3/3_1.odb,Step-1,Increment      1: Step Time =    1.000,"PART-1-1",           682,      -10.2084,       1.19941,            0.,NA,NA,"",   275.631E-03,  -148.898E-03,  -231.952E-03,   3.28533E-06
C:/temp/dataset/3/3_1.odb,Step-1,Increment      1: Step Time =    1.000,"PART-1-1",           683,      -7.18333,           -5.,            0.,NA,NA,"",   215.931E-03,  -82.9398E-03,  -199.366E-03,   9.83107E-06
C:/temp/dataset/3/3_1.odb,Step-1,Increment      1: Step Time =    1.000,"PART-1-1",           684,      -7.36178,      -2.99006,            0.,NA,NA,"",   226.824E-03,  -104.370E-03,  -201.385E-03,   15.5177E-06
C:/temp/dataset/3/3_1.odb,Step-1,Increment      1: Step Time =    1.000,"PART-1-1",           685,      -11.3125,  -91.5578E-03,            0.,NA,NA,"",   278.590E-03,  -135.063E-03,  -243.661E-03,   2.53170E-06
C:/temp/dataset/3/3_1.odb,Step-1,Increment      1: Step Time =    1.000,"PART-1-1",           686,      -11.6500,           -5.,            0.,NA,NA,"",   260.460E-03,  -82.6915E-03,  -246.985E-03,   408.845E-09
C:/temp/dataset/3/3_1.odb,Step-1,Increment      1: Step Time =    1.000,"PART-1-1",           687,      -11.6245,      -2.63993,            0.,NA,NA,"",   269.384E-03,  -107.863E-03,  -246.846E-03,   1.12922E-06
C:/temp/dataset/3/3_1.odb,Step-1,Increment      1: Step Time =    1.000,"PART-1-1",           688,      -1.03706,       1.18772,            0.,NA,NA,"",   200.877E-03,  -149.564E-03,  -134.098E-03,   85.1855E-06
C:/temp/dataset/3/3_1.odb,Step-1,Increment      1: Step Time =    1.000,"PART-1-1",           689,      -2.26684,   407.252E-03,            0.,NA,NA,"",   203.905E-03,  -141.118E-03,  -147.183E-03,   88.5824E-06
C:/temp/dataset/3/3_1.odb,Step-1,Increment      1: Step Time =    1.000,"PART-1-1",           690,      -1.61706,  -775.207E-03,            0.,NA,NA,"",   190.259E-03,  -128.573E-03,  -140.241E-03,   88.5059E-06
C:/temp/dataset/3/3_1.odb,Step-1,Increment      1: Step Time =    1.000,"PART-1-1",           691,      -4.44627,  -189.662E-03,            0.,NA,NA,"",   217.105E-03,  -134.503E-03,  -170.422E-03,   55.9687E-06
C:/temp/dataset/3/3_1.odb,Step-1,Increment      1: Step Time =    1.000,"PART-1-1",           692,      -3.83065,   850.686E-03,            0.,NA,NA,"",   219.243E-03,  -145.651E-03,  -163.870E-03,   61.1707E-06
C:/temp/dataset/3/3_1.odb,Step-1,Increment      1: Step Time =    1.000,"PART-1-1",           693,      -5.38306,   384.196E-03,            0.,NA,NA,"",   228.702E-03,  -140.536E-03,  -180.428E-03,   37.5318E-06
C:/temp/dataset/3/3_1.odb,Step-1,Increment      1: Step Time =    1.000,"PART-1-1",           694,       3.90000,           -5.,            0.,NA,NA,"",   112.915E-03,  -82.0915E-03,  -77.5297E-03,   1.22207E-03
C:/temp/dataset/3/3_1.odb,Step-1,Increment      1: Step Time =    1.000,"PART-1-1",           695,       5.25667,      -4.01677,            0.,NA,NA,"",   110.695E-03,  -93.1050E-03,  -59.8742E-03,   2.65920E-03
C:/temp/dataset/3/3_1.odb,Step-1,Increment      1: Step Time =    1.000,"PART-1-1",           696,       4.24316,      -3.18705,            0.,NA,NA,"",   126.364E-03,  -102.555E-03,  -73.8254E-03,   1.40714E-03
C:/temp/dataset/3/3_1.odb,Step-1,Increment      1: Step Time =    1.000,"PART-1-1",           697,       9.51721,      -4.82762,            0.,NA,NA,"",   84.1288E-03,  -82.3457E-03,  -17.2292E-03,   804.128E-06
C:/temp/dataset/3/3_1.odb,Step-1,Increment      1: Step Time =    1.000,"PART-1-1",           698,       8.04384,      -4.93500,            0.,NA,NA,"",   87.1956E-03,  -81.7339E-03,  -30.3750E-03,   1.44919E-03
C:/temp/dataset/3/3_1.odb,Step-1,Increment      1: Step Time =    1.000,"PART-1-1",           699,       8.61490,      -6.56470,            0.,NA,NA,"",   71.1779E-03,  -67.2082E-03,  -23.4381E-03,   1.14843E-03
C:/temp/dataset/3/3_1.odb,Step-1,Increment      1: Step Time =    1.000,"PART-1-1",           700,       10.0883,      -6.45732,            0.,NA,NA,"",   68.7259E-03,  -67.7696E-03,  -11.4253E-03,   546.111E-06
C:/temp/dataset/3/3_1.odb,Step-1,Increment      1: Step Time =    1.000,"PART-1-1",           701,       9.29828,      -8.00429,            0.,NA,NA,"",   57.9388E-03,  -55.5137E-03,  -16.5872E-03,   953.387E-06
C:/temp/dataset/3/3_1.odb,Step-1,Increment      1: Step Time =    1.000,"PART-1-1",           702,       6.27674,      -21.4047,            0.,NA,NA,"",   8.43844E-03,  -53.5060E-06,  -8.43827E-03,   1.89670E-03
C:/temp/dataset/3/3_1.odb,Step-1,Increment      1: Step Time =    1.000,"PART-1-1",           703,       7.27122,      -20.3583,            0.,NA,NA,"",   9.06394E-03,  -171.400E-06,  -9.06232E-03,   1.55073E-03
C:/temp/dataset/3/3_1.odb,Step-1,Increment      1: Step Time =    1.000,"PART-1-1",           704,         -6.25,          -20.,            0.,NA,NA,"",   598.535E-06,  -587.756E-06,   113.081E-06,   53.8347E-06
C:/temp/dataset/3/3_1.odb,Step-1,Increment      1: Step Time =    1.000,"PART-1-1",           705,         -1.25,          -30.,            0.,NA,NA,"",            0.,  -291.987E-42,  -400.260E-42,   360.223E-06
C:/temp/dataset/3/3_1.odb,Step-1,Increment      1: Step Time =    1.000,"PART-1-1",           706,       8.60683,      -25.8105,            0.,NA,NA,"",   2.76849E-03,   1.60512E-03,  -2.25569E-03,   886.153E-06
C:/temp/dataset/3/3_1.odb,Step-1,Increment      1: Step Time =    1.000,"PART-1-1",           707,       7.41490,      -26.9159,            0.,NA,NA,"",   2.02906E-03,   899.670E-06,  -1.81870E-03,   902.486E-06
C:/temp/dataset/3/3_1.odb,Step-1,Increment      1: Step Time =    1.000,"PART-1-1",           708,       6.17638,      -25.8614,            0.,NA,NA,"",   2.88145E-03,   387.434E-06,  -2.85529E-03,   997.285E-06
C:/temp/dataset/3/3_1.odb,Step-1,Increment      1: Step Time =    1.000,"PART-1-1",           709,       7.37219,      -25.0876,            0.,NA,NA,"",   3.55529E-03,   1.07128E-03,  -3.39005E-03,   1.14380E-03
C:/temp/dataset/3/3_1.odb,Step-1,Increment      1: Step Time =    1.000,"PART-1-1",           710,       6.30743,      -24.1068,            0.,NA,NA,"",   4.68688E-03,   373.765E-06,  -4.67195E-03,   1.25190E-03
C:/temp/dataset/3/3_1.odb,Step-1,Increment      1: Step Time =    1.000,"PART-1-1",           711,   113.079E-03,      -23.9373,            0.,NA,NA,"",   1.71095E-03,  -1.27568E-03,  -1.14017E-03,   339.752E-06
C:/temp/dataset/3/3_1.odb,Step-1,Increment      1: Step Time =    1.000,"PART-1-1",           712,      -2.43554,      -23.8906,            0.,NA,NA,"",   1.05554E-03,  -1.02028E-03,  -270.521E-06,   126.529E-06
C:/temp/dataset/3/3_1.odb,Step-1,Increment      1: Step Time =    1.000,"PART-1-1",           713,      -8.72529,      -25.0755,            0.,NA,NA,"",   582.590E-06,  -578.236E-06,   71.0929E-06,   58.1793E-06
C:/temp/dataset/3/3_1.odb,Step-1,Increment      1: Step Time =    1.000,"PART-1-1",           714,      -9.97606,      -23.8175,            0.,NA,NA,"",   597.862E-06,  -593.605E-06,   71.2124E-06,   25.4873E-06
C:/temp/dataset/3/3_1.odb,Step-1,Increment      1: Step Time =    1.000,"PART-1-1",           715,      -9.99641,      -28.7682,            0.,NA,NA,"",   167.185E-06,  -167.143E-06,  -3.72777E-06,   84.2901E-06
C:/temp/dataset/3/3_1.odb,Step-1,Increment      1: Step Time =    1.000,"PART-1-1",           716,      -11.2465,      -27.5281,            0.,NA,NA,"",   286.388E-06,  -286.386E-06,  -1.05192E-06,   68.1094E-06
C:/temp/dataset/3/3_1.odb,Step-1,Increment      1: Step Time =    1.000,"PART-1-1",           717,        -11.25,          -30.,            0.,NA,NA,"",            0.,  -72.9404E-42,  -31.9118E-42,   78.5160E-06
C:/temp/dataset/3/3_1.odb,Step-1,Increment      1: Step Time =    1.000,"PART-1-1",           718,         -8.75,          -30.,            0.,NA,NA,"",            0.,  -104.255E-42,  -36.8598E-42,   113.889E-06
C:/temp/dataset/3/3_1.odb,Step-1,Increment      1: Step Time =    1.000,"PART-1-1",           719,      -8.73783,      -27.5479,            0.,NA,NA,"",   362.410E-06,  -362.206E-06,   12.1519E-06,   94.9531E-06
C:/temp/dataset/3/3_1.odb,Step-1,Increment      1: Step Time =    1.000,"PART-1-1",           720,       9.45286,      -20.3748,            0.,NA,NA,"",   5.14116E-03,   249.409E-06,  -5.13511E-03,   861.492E-06
C:/temp/dataset/3/3_1.odb,Step-1,Increment      1: Step Time =    1.000,"PART-1-1",           721,       8.38706,      -19.4374,            0.,NA,NA,"",   8.21645E-03,  -1.37139E-03,  -8.10119E-03,   1.08798E-03
C:/temp/dataset/3/3_1.odb,Step-1,Increment      1: Step Time =    1.000,"PART-1-1",           722,       8.33702,      -21.2957,            0.,NA,NA,"",   6.52169E-03,   885.209E-06,  -6.46133E-03,   1.22181E-03
C:/temp/dataset/3/3_1.odb,Step-1,Increment      1: Step Time =    1.000,"PART-1-1",           723,       9.34035,      -18.0986,            0.,NA,NA,"",   8.00454E-03,  -4.08607E-03,  -6.88307E-03,   840.987E-06
C:/temp/dataset/3/3_1.odb,Step-1,Increment      1: Step Time =    1.000,"PART-1-1",           724,       10.7511,      -19.4747,            0.,NA,NA,"",   2.78071E-03,  -1.02141E-03,  -2.58632E-03,   470.359E-06
C:/temp/dataset/3/3_1.odb,Step-1,Increment      1: Step Time =    1.000,"PART-1-1",           725,       9.57777,      -9.07511,            0.,NA,NA,"",   49.5330E-03,  -47.6159E-03,  -13.6470E-03,   871.419E-06
C:/temp/dataset/3/3_1.odb,Step-1,Increment      1: Step Time =    1.000,"PART-1-1",           726,       10.3854,      -7.79904,            0.,NA,NA,"",   57.4930E-03,  -56.8616E-03,  -8.49738E-03,   441.145E-06
C:/temp/dataset/3/3_1.odb,Step-1,Increment      1: Step Time =    1.000,"PART-1-1",           727,       11.9371,      -7.89361,            0.,NA,NA,"",   56.3460E-03,  -56.2526E-03,   3.24344E-03,   348.884E-06
C:/temp/dataset/3/3_1.odb,Step-1,Increment      1: Step Time =    1.000,"PART-1-1",           728,       11.6400,      -6.55190,            0.,NA,NA,"",   67.0233E-03,  -67.0126E-03,   1.19488E-03,   294.642E-06
C:/temp/dataset/3/3_1.odb,Step-1,Increment      1: Step Time =    1.000,"PART-1-1",           729,       9.29748,       3.92298,            0.,NA,NA,"",   176.781E-03,  -174.629E-03,  -27.4974E-03,   1.01006E-03
C:/temp/dataset/3/3_1.odb,Step-1,Increment      1: Step Time =    1.000,"PART-1-1",           730,       10.7408,       1.93669,            0.,NA,NA,"",   152.135E-03,  -151.863E-03,  -9.09874E-03,   498.709E-06
C:/temp/dataset/3/3_1.odb,Step-1,Increment      1: Step Time =    1.000,"PART-1-1",           731,       12.1175,       9.30164,            0.,NA,NA,"",   244.636E-03,  -244.482E-03,   8.68051E-03,   467.652E-06
C:/temp/dataset/3/3_1.odb,Step-1,Increment      1: Step Time =    1.000,"PART-1-1",           732,       12.3743,       7.25826,            0.,NA,NA,"",   216.548E-03,  -216.240E-03,   11.5461E-03,   621.424E-06
C:/temp/dataset/3/3_1.odb,Step-1,Increment      1: Step Time =    1.000,"PART-1-1",           733,       9.86952,       23.8294,            0.,NA,NA,"",   510.661E-03,  -509.480E-03,  -34.7041E-03,   806.028E-06
C:/temp/dataset/3/3_1.odb,Step-1,Increment      1: Step Time =    1.000,"PART-1-1",           734,       8.61965,       22.5851,            0.,NA,NA,"",   486.424E-03,  -482.773E-03,  -59.4843E-03,   1.12274E-03
C:/temp/dataset/3/3_1.odb,Step-1,Increment      1: Step Time =    1.000,"PART-1-1",           735,         11.25,           30.,            0.,NA,NA,"",   644.310E-03,  -644.257E-03,  -8.26776E-03,   397.489E-06
C:/temp/dataset/3/3_1.odb,Step-1,Increment      1: Step Time =    1.000,"PART-1-1",           736,       9.97488,       28.7673,            0.,NA,NA,"",   618.692E-03,  -617.694E-03,  -35.1272E-03,   500.774E-06
C:/temp/dataset/3/3_1.odb,Step-1,Increment      1: Step Time =    1.000,"PART-1-1",           737,          8.75,           30.,            0.,NA,NA,"",   648.220E-03,  -645.202E-03,  -62.4820E-03,   747.662E-06
C:/temp/dataset/3/3_1.odb,Step-1,Increment      1: Step Time =    1.000,"PART-1-1",           738,       3.69885,       25.0915,            0.,NA,NA,"",   565.876E-03,  -539.368E-03,  -171.166E-03,   1.25333E-03
C:/temp/dataset/3/3_1.odb,Step-1,Increment      1: Step Time =    1.000,"PART-1-1",           739,       4.94207,       26.3392,            0.,NA,NA,"",   584.178E-03,  -565.990E-03,  -144.634E-03,   1.37237E-03
C:/temp/dataset/3/3_1.odb,Step-1,Increment      1: Step Time =    1.000,"PART-1-1",           740,         -6.25,           30.,            0.,NA,NA,"",   757.814E-03,  -646.846E-03,  -394.807E-03,   51.6865E-06
C:/temp/dataset/3/3_1.odb,Step-1,Increment      1: Step Time =    1.000,"PART-1-1",           741,      -11.2519,       25.0060,            0.,NA,NA,"",   735.343E-03,  -534.912E-03,  -504.577E-03,   7.16071E-06
C:/temp/dataset/3/3_1.odb,Step-1,Increment      1: Step Time =    1.000,"PART-1-1",           742,       11.7111,      -12.1867,            0.,NA,NA,"",   27.8675E-03,  -27.8535E-03,   883.825E-06,   166.714E-06
C:/temp/dataset/3/3_1.odb,Step-1,Increment      1: Step Time =    1.000,"PART-1-1",           743,       12.0443,      -13.4388,            0.,NA,NA,"",   21.5188E-03,  -21.3886E-03,   2.36398E-03,   342.694E-06
C:/temp/dataset/3/3_1.odb,Step-1,Increment      1: Step Time =    1.000,"PART-1-1",           744,       9.07309,      -22.0228,            0.,NA,NA,"",   4.98698E-03,   1.54922E-03,  -4.74024E-03,   1.05450E-03
C:/temp/dataset/3/3_1.odb,Step-1,Increment      1: Step Time =    1.000,"PART-1-1",           745,       9.10959,      -23.2638,            0.,NA,NA,"",   4.23195E-03,   1.92448E-03,  -3.76906E-03,   1.05193E-03
C:/temp/dataset/3/3_1.odb,Step-1,Increment      1: Step Time =    1.000,"PART-1-1",           746,       10.5828,      -23.1781,            0.,NA,NA,"",   3.08153E-03,   2.31032E-03,  -2.03919E-03,   737.071E-06
C:/temp/dataset/3/3_1.odb,Step-1,Increment      1: Step Time =    1.000,"PART-1-1",           747,       10.5463,      -21.9372,            0.,NA,NA,"",   3.05788E-03,   1.79987E-03,  -2.47206E-03,   731.839E-06
C:/temp/dataset/3/3_1.odb,Step-1,Increment      1: Step Time =    1.000,"PART-1-1",           748,      -1.00841,      -2.00181,            0.,NA,NA,"",   176.630E-03,  -115.435E-03,  -133.690E-03,   86.4898E-06
C:/temp/dataset/3/3_1.odb,Step-1,Increment      1: Step Time =    1.000,"PART-1-1",           749,      -3.17395,      -1.50818,            0.,NA,NA,"",   197.799E-03,  -120.526E-03,  -156.837E-03,   70.7148E-06
C:/temp/dataset/3/3_1.odb,Step-1,Increment      1: Step Time =    1.000,"PART-1-1",           750,       8.23699,       8.20647,            0.,NA,NA,"",   233.860E-03,  -229.302E-03,  -45.9445E-03,   1.66193E-03
C:/temp/dataset/3/3_1.odb,Step-1,Increment      1: Step Time =    1.000,"PART-1-1",           751,       8.58975,       6.06422,            0.,NA,NA,"",   204.279E-03,  -200.629E-03,  -38.4464E-03,   1.12026E-03
C:/temp/dataset/3/3_1.odb,Step-1,Increment      1: Step Time =    1.000,"PART-1-1",           752,       1.04870,      -2.29850,            0.,NA,NA,"",   158.235E-03,  -112.397E-03,  -111.380E-03,   129.192E-06
C:/temp/dataset/3/3_1.odb,Step-1,Increment      1: Step Time =    1.000,"PART-1-1",           753,      -1.88356,       2.26041,            0.,NA,NA,"",   215.258E-03,  -160.784E-03,  -143.124E-03,   84.3042E-06
C:/temp/dataset/3/3_1.odb,Step-1,Increment      1: Step Time =    1.000,"PART-1-1",           754,      -2.91638,       1.44829,            0.,NA,NA,"",   216.531E-03,  -152.094E-03,  -154.121E-03,   77.3530E-06
C:/temp/dataset/3/3_1.odb,Step-1,Increment      1: Step Time =    1.000,"PART-1-1",           755,       3.03453,      -2.52132,            0.,NA,NA,"",   141.477E-03,  -109.985E-03,  -88.9895E-03,   733.768E-06
C:/temp/dataset/3/3_1.odb,Step-1,Increment      1: Step Time =    1.000,"PART-1-1",           756,       6.99799,      -3.46075,            0.,NA,NA,"",   106.037E-03,  -97.1227E-03,  -42.5551E-03,   1.88608E-03
C:/temp/dataset/3/3_1.odb,Step-1,Increment      1: Step Time =    1.000,"PART-1-1",           757,       7.63560,  -984.386E-03,            0.,NA,NA,"",   128.882E-03,  -122.519E-03,  -39.9958E-03,   1.70023E-03
C:/temp/dataset/3/3_1.odb,Step-1,Increment      1: Step Time =    1.000,"PART-1-1",           758,       6.14771,      -1.67534,            0.,NA,NA,"",   128.930E-03,  -116.784E-03,  -54.6315E-03,   1.99665E-03
C:/temp/dataset/3/3_1.odb,Step-1,Increment      1: Step Time =    1.000,"PART-1-1",           759,       4.94795,      -26.8240,            0.,NA,NA,"",   1.96369E-03,  -149.177E-06,  -1.95802E-03,   901.653E-06
C:/temp/dataset/3/3_1.odb,Step-1,Increment      1: Step Time =    1.000,"PART-1-1",           760,      -11.2341,      -25.0541,            0.,NA,NA,"",   502.466E-06,  -502.072E-06,   19.8855E-06,   32.0440E-06
C:/temp/dataset/3/3_1.odb,Step-1,Increment      1: Step Time =    1.000,"PART-1-1",           761,      -9.98574,      -26.3021,            0.,NA,NA,"",   442.085E-06,  -441.119E-06,   29.2018E-06,   60.3631E-06
C:/temp/dataset/3/3_1.odb,Step-1,Increment      1: Step Time =    1.000,"PART-1-1",           762,           15.,        -26.25,            0.,NA,NA,"",   1.95617E-03,   1.93417E-03,   292.526E-06,   503.393E-06
C:/temp/dataset/3/3_1.odb,Step-1,Increment      1: Step Time =    1.000,"PART-1-1",           763,       9.63478,      -24.7731,            0.,NA,NA,"",   3.12812E-03,   2.14635E-03,  -2.27560E-03,   897.938E-06
C:/temp/dataset/3/3_1.odb,Step-1,Increment      1: Step Time =    1.000,"PART-1-1",           764,       9.83383,   250.169E-03,            0.,NA,NA,"",   135.126E-03,  -133.901E-03,  -18.1481E-03,   906.398E-06
C:/temp/dataset/3/3_1.odb,Step-1,Increment      1: Step Time =    1.000,"PART-1-1",           765,       11.1222,       22.5628,            0.,NA,NA,"",   482.401E-03,  -482.326E-03,  -8.47586E-03,   702.462E-06
C:/temp/dataset/3/3_1.odb,Step-1,Increment      1: Step Time =    1.000,"PART-1-1",           766,       9.84566,       21.3197,            0.,NA,NA,"",   457.094E-03,  -455.859E-03,  -33.5846E-03,   813.644E-06
C:/temp/dataset/3/3_1.odb,Step-1,Increment      1: Step Time =    1.000,"PART-1-1",           767,      -3.18112,  -190.353E-03,            0.,NA,NA,"",   206.769E-03,  -134.635E-03,  -156.929E-03,   76.5247E-06
C:/temp/dataset/3/3_1.odb,Step-1,Increment      1: Step Time =    1.000,"PART-1-1",           768,       4.54417,       1.21940,            0.,NA,NA,"",   167.354E-03,  -149.048E-03,  -76.1046E-03,   1.53131E-03
C:/temp/dataset/3/3_1.odb,Step-1,Increment      1: Step Time =    1.000,"PART-1-1",           769,       9.22107,       9.51460,            0.,NA,NA,"",   249.826E-03,  -247.550E-03,  -33.6408E-03,   1.12143E-03
C:/temp/dataset/3/3_1.odb,Step-1,Increment      1: Step Time =    1.000,"PART-1-1",           770,       11.1709,      -3.71800,            0.,NA,NA,"",   92.7625E-03,  -92.7200E-03,  -2.80861E-03,   354.491E-06
C:/temp/dataset/3/3_1.odb,Step-1,Increment      1: Step Time =    1.000,"PART-1-1",           771,       11.0221,      -5.16095,            0.,NA,NA,"",   79.2221E-03,  -79.1231E-03,  -3.95840E-03,   325.659E-06
C:/temp/dataset/3/3_1.odb,Step-1,Increment      1: Step Time =    1.000,"PART-1-1",           772,       12.3085,      -4.70099,            0.,NA,NA,"",   83.8435E-03,  -83.5230E-03,   7.32378E-03,   526.044E-06
C:/temp/dataset/3/3_1.odb,Step-1,Increment      1: Step Time =    1.000,"PART-1-1",           773,       5.03877,      -2.41022,            0.,NA,NA,"",   128.215E-03,  -110.148E-03,  -65.6229E-03,   1.89585E-03
C:/temp/dataset/3/3_1.odb,Step-1,Increment      1: Step Time =    1.000,"PART-1-1",           774,       11.0080,       9.74440,            0.,NA,NA,"",   250.791E-03,  -250.677E-03,  -7.55324E-03,   168.654E-06
C:/temp/dataset/3/3_1.odb,Step-1,Increment      1: Step Time =    1.000,"PART-1-1",           775,       7.33953,      -23.4839,            0.,NA,NA,"",   5.18954E-03,   1.00933E-03,  -5.09044E-03,   1.36442E-03
C:/temp/dataset/3/3_1.odb,Step-1,Increment      1: Step Time =    1.000,"PART-1-1",           776,       6.60048,      -22.7490,            0.,NA,NA,"",   6.33800E-03,   368.159E-06,  -6.32729E-03,   1.54404E-03
C:/temp/dataset/3/3_1.odb,Step-1,Increment      1: Step Time =    1.000,"PART-1-1",           777,       5.56839,      -23.3719,            0.,NA,NA,"",   5.45506E-03,  -201.090E-06,  -5.45135E-03,   1.46895E-03
C:/temp/dataset/3/3_1.odb,Step-1,Increment      1: Step Time =    1.000,"PART-1-1",           778,       5.56431,      -22.1833,            0.,NA,NA,"",   7.05212E-03,  -486.922E-06,  -7.03529E-03,   1.74570E-03
C:/temp/dataset/3/3_1.odb,Step-1,Increment      1: Step Time =    1.000,"PART-1-1",           779,       7.31291,      -21.9704,            0.,NA,NA,"",   7.01793E-03,   734.303E-06,  -6.97940E-03,   1.52804E-03
C:/temp/dataset/3/3_1.odb,Step-1,Increment      1: Step Time =    1.000,"PART-1-1",           780,       8.04898,      -22.6975,            0.,NA,NA,"",   5.57859E-03,   1.34911E-03,  -5.41300E-03,   1.26950E-03
C:/temp/dataset/3/3_1.odb,Step-1,Increment      1: Step Time =    1.000,"PART-1-1",           781,       5.89213,  -472.373E-03,            0.,NA,NA,"",   142.675E-03,  -129.748E-03,  -59.3429E-03,   1.70355E-03
C:/temp/dataset/3/3_1.odb,Step-1,Increment      1: Step Time =    1.000,"PART-1-1",           782,       8.40014,      -24.0502,            0.,NA,NA,"",   4.14535E-03,   1.66627E-03,  -3.79572E-03,   1.08143E-03
