ODB Name,Step,Frame,Part Instance Name,    êﬂì_ÉâÉxÉã,X,Y,Z,Section Name,Material Name,Section Point,   U-Magnitude,          U-U1,          U-U2,       S-Mises
C:/temp/dataset/3/3_10.odb,Step-1,Increment      1: Step Time =    1.000,"PART-1-1",             1,          -15.,           20.,            0.,NA,NA,"",       4.75213,      -1.86395,      -4.37132,   2.16909E-06
C:/temp/dataset/3/3_10.odb,Step-1,Increment      1: Step Time =    1.000,"PART-1-1",             2,          -15.,           25.,            0.,NA,NA,"",       5.17066,      -2.65853,      -4.43485,   4.04415E-06
C:/temp/dataset/3/3_10.odb,Step-1,Increment      1: Step Time =    1.000,"PART-1-1",             3,           -5.,           20.,            0.,NA,NA,"",       3.42059,      -1.98980,      -2.78229,   711.542E-06
C:/temp/dataset/3/3_10.odb,Step-1,Increment      1: Step Time =    1.000,"PART-1-1",             4,            5.,           20.,            0.,NA,NA,"",       2.39698,      -2.13535,      -1.08894,   41.4994E-03
C:/temp/dataset/3/3_10.odb,Step-1,Increment      1: Step Time =    1.000,"PART-1-1",             5,            5.,          12.5,            0.,NA,NA,"",       1.54090,      -1.32281,  -790.298E-03,   33.4096E-03
C:/temp/dataset/3/3_10.odb,Step-1,Increment      1: Step Time =    1.000,"PART-1-1",             6,            5.,            5.,            0.,NA,NA,"",   888.537E-03,  -714.992E-03,  -527.525E-03,   33.2915E-03
C:/temp/dataset/3/3_10.odb,Step-1,Increment      1: Step Time =    1.000,"PART-1-1",             7,      -1.70000,            5.,            0.,NA,NA,"",       1.07612,  -721.154E-03,  -798.733E-03,   1.17969E-03
C:/temp/dataset/3/3_10.odb,Step-1,Increment      1: Step Time =    1.000,"PART-1-1",             8,      -8.40000,            5.,            0.,NA,NA,"",       1.34627,  -714.713E-03,      -1.14089,   25.1253E-06
C:/temp/dataset/3/3_10.odb,Step-1,Increment      1: Step Time =    1.000,"PART-1-1",             9,          -15.,            5.,            0.,NA,NA,"",       1.63782,  -706.101E-03,      -1.47779,   359.106E-09
C:/temp/dataset/3/3_10.odb,Step-1,Increment      1: Step Time =    1.000,"PART-1-1",            10,          -15.,            0.,            0.,NA,NA,"",       1.53883,  -450.963E-03,      -1.47126,   6.12037E-06
C:/temp/dataset/3/3_10.odb,Step-1,Increment      1: Step Time =    1.000,"PART-1-1",            11,          -15.,           -5.,            0.,NA,NA,"",       1.47778,  -195.912E-03,      -1.46474,   344.318E-09
C:/temp/dataset/3/3_10.odb,Step-1,Increment      1: Step Time =    1.000,"PART-1-1",            12,      -8.30000,           -5.,            0.,NA,NA,"",       1.14158,  -204.634E-03,      -1.12309,   24.4843E-06
C:/temp/dataset/3/3_10.odb,Step-1,Increment      1: Step Time =    1.000,"PART-1-1",            13,      -1.60000,           -5.,            0.,NA,NA,"",   809.195E-03,  -210.894E-03,  -781.230E-03,   1.24562E-03
C:/temp/dataset/3/3_10.odb,Step-1,Increment      1: Step Time =    1.000,"PART-1-1",            14,            5.,           -5.,            0.,NA,NA,"",   433.168E-03,  -212.958E-03,  -377.205E-03,   29.9182E-03
C:/temp/dataset/3/3_10.odb,Step-1,Increment      1: Step Time =    1.000,"PART-1-1",            15,            5.,         -12.5,            0.,NA,NA,"",   198.157E-03,  -34.1783E-03,  -195.188E-03,   21.6251E-03
C:/temp/dataset/3/3_10.odb,Step-1,Increment      1: Step Time =    1.000,"PART-1-1",            16,            5.,          -20.,            0.,NA,NA,"",   62.3400E-03,   26.3825E-03,  -56.4821E-03,   16.7622E-03
C:/temp/dataset/3/3_10.odb,Step-1,Increment      1: Step Time =    1.000,"PART-1-1",            17,           -5.,          -20.,            0.,NA,NA,"",   6.58025E-03,   6.58019E-03,   29.1346E-06,   962.075E-06
C:/temp/dataset/3/3_10.odb,Step-1,Increment      1: Step Time =    1.000,"PART-1-1",            18,          -15.,          -20.,            0.,NA,NA,"",   4.54955E-03,   4.21973E-03,   1.70067E-03,   10.2136E-06
C:/temp/dataset/3/3_10.odb,Step-1,Increment      1: Step Time =    1.000,"PART-1-1",            19,          -15.,          -25.,            0.,NA,NA,"",   2.94776E-03,   2.48748E-03,   1.58168E-03,   123.266E-06
C:/temp/dataset/3/3_10.odb,Step-1,Increment      1: Step Time =    1.000,"PART-1-1",            20,          -15.,          -30.,            0.,NA,NA,"",            0.,   235.551E-42,   387.026E-42,   740.624E-06
C:/temp/dataset/3/3_10.odb,Step-1,Increment      1: Step Time =    1.000,"PART-1-1",            21,           15.,          -30.,            0.,NA,NA,"",            0.,   4.34490E-39,  -7.11867E-39,   13.5574E-03
C:/temp/dataset/3/3_10.odb,Step-1,Increment      1: Step Time =    1.000,"PART-1-1",            22,           15.,         -22.5,            0.,NA,NA,"",   59.5198E-03,   45.7216E-03,  -38.1069E-03,   1.77701E-03
C:/temp/dataset/3/3_10.odb,Step-1,Increment      1: Step Time =    1.000,"PART-1-1",            23,           15.,          -15.,            0.,NA,NA,"",   37.5018E-03,   28.3999E-03,  -24.4914E-03,   5.51636E-03
C:/temp/dataset/3/3_10.odb,Step-1,Increment      1: Step Time =    1.000,"PART-1-1",            24,           15.,          -7.5,            0.,NA,NA,"",   125.277E-03,  -122.524E-03,   26.1204E-03,   9.28979E-03
C:/temp/dataset/3/3_10.odb,Step-1,Increment      1: Step Time =    1.000,"PART-1-1",            25,           15.,            0.,            0.,NA,NA,"",   446.426E-03,  -439.509E-03,   78.2832E-03,   8.60513E-03
C:/temp/dataset/3/3_10.odb,Step-1,Increment      1: Step Time =    1.000,"PART-1-1",            26,           15.,           7.5,            0.,NA,NA,"",   914.170E-03,  -902.275E-03,   146.987E-03,   16.6347E-03
C:/temp/dataset/3/3_10.odb,Step-1,Increment      1: Step Time =    1.000,"PART-1-1",            27,           15.,           15.,            0.,NA,NA,"",       1.62752,      -1.60981,   239.471E-03,   19.8045E-03
C:/temp/dataset/3/3_10.odb,Step-1,Increment      1: Step Time =    1.000,"PART-1-1",            28,           15.,          22.5,            0.,NA,NA,"",       2.62116,      -2.60485,   291.985E-03,   12.0926E-03
C:/temp/dataset/3/3_10.odb,Step-1,Increment      1: Step Time =    1.000,"PART-1-1",            29,           15.,           30.,            0.,NA,NA,"",       3.76090,      -3.75360,   234.234E-03,   392.530E-06
C:/temp/dataset/3/3_10.odb,Step-1,Increment      1: Step Time =    1.000,"PART-1-1",            30,           7.5,           30.,            0.,NA,NA,"",       3.80857,      -3.69352,  -929.047E-03,   9.85419E-03
C:/temp/dataset/3/3_10.odb,Step-1,Increment      1: Step Time =    1.000,"PART-1-1",            31,            0.,           30.,            0.,NA,NA,"",       4.20814,      -3.62920,      -2.13011,   5.73929E-03
C:/temp/dataset/3/3_10.odb,Step-1,Increment      1: Step Time =    1.000,"PART-1-1",            32,          -7.5,           30.,            0.,NA,NA,"",       4.84978,      -3.54833,      -3.30602,   225.176E-06
C:/temp/dataset/3/3_10.odb,Step-1,Increment      1: Step Time =    1.000,"PART-1-1",            33,          -15.,           30.,            0.,NA,NA,"",       5.67100,      -3.45320,      -4.49840,   2.12821E-06
C:/temp/dataset/3/3_10.odb,Step-1,Increment      1: Step Time =    1.000,"PART-1-1",            34,          -15.,          22.5,            0.,NA,NA,"",       4.94978,      -2.26123,      -4.40309,   3.06542E-06
C:/temp/dataset/3/3_10.odb,Step-1,Increment      1: Step Time =    1.000,"PART-1-1",            35,          -7.5,           20.,            0.,NA,NA,"",       3.73472,      -1.95894,      -3.17973,   212.695E-06
C:/temp/dataset/3/3_10.odb,Step-1,Increment      1: Step Time =    1.000,"PART-1-1",            36,          -10.,           20.,            0.,NA,NA,"",       4.06313,      -1.92744,      -3.57686,   43.8072E-06
C:/temp/dataset/3/3_10.odb,Step-1,Increment      1: Step Time =    1.000,"PART-1-1",            37,         -12.5,           20.,            0.,NA,NA,"",       4.40306,      -1.89572,      -3.97406,   3.80009E-06
C:/temp/dataset/3/3_10.odb,Step-1,Increment      1: Step Time =    1.000,"PART-1-1",            38,           2.5,           20.,            0.,NA,NA,"",       2.59678,      -2.07705,      -1.55857,   8.17985E-03
C:/temp/dataset/3/3_10.odb,Step-1,Increment      1: Step Time =    1.000,"PART-1-1",            39,            0.,           20.,            0.,NA,NA,"",       2.84728,      -2.04783,      -1.97824,   2.91667E-03
C:/temp/dataset/3/3_10.odb,Step-1,Increment      1: Step Time =    1.000,"PART-1-1",            40,          -2.5,           20.,            0.,NA,NA,"",       3.12380,      -2.01943,      -2.38329,   1.42837E-03
C:/temp/dataset/3/3_10.odb,Step-1,Increment      1: Step Time =    1.000,"PART-1-1",            41,            5.,           15.,            0.,NA,NA,"",       1.80340,      -1.57484,  -878.697E-03,   33.3338E-03
C:/temp/dataset/3/3_10.odb,Step-1,Increment      1: Step Time =    1.000,"PART-1-1",            42,            5.,          17.5,            0.,NA,NA,"",       2.08881,      -1.85031,  -969.263E-03,   38.5478E-03
C:/temp/dataset/3/3_10.odb,Step-1,Increment      1: Step Time =    1.000,"PART-1-1",            43,            5.,           7.5,            0.,NA,NA,"",       1.09246,  -895.464E-03,  -625.783E-03,   33.9135E-03
C:/temp/dataset/3/3_10.odb,Step-1,Increment      1: Step Time =    1.000,"PART-1-1",            44,            5.,           10.,            0.,NA,NA,"",       1.30434,      -1.09710,  -705.461E-03,   32.3691E-03
C:/temp/dataset/3/3_10.odb,Step-1,Increment      1: Step Time =    1.000,"PART-1-1",            45,   533.333E-03,            5.,            0.,NA,NA,"",   995.772E-03,  -719.999E-03,  -687.869E-03,   3.28896E-03
C:/temp/dataset/3/3_10.odb,Step-1,Increment      1: Step Time =    1.000,"PART-1-1",            46,       2.76667,            5.,            0.,NA,NA,"",   925.186E-03,  -715.053E-03,  -587.086E-03,   6.50177E-03
C:/temp/dataset/3/3_10.odb,Step-1,Increment      1: Step Time =    1.000,"PART-1-1",            47,      -6.16667,            5.,            0.,NA,NA,"",       1.25260,  -717.507E-03,      -1.02673,   127.442E-06
C:/temp/dataset/3/3_10.odb,Step-1,Increment      1: Step Time =    1.000,"PART-1-1",            48,      -3.93333,            5.,            0.,NA,NA,"",       1.16229,  -719.872E-03,  -912.527E-03,   501.216E-06
C:/temp/dataset/3/3_10.odb,Step-1,Increment      1: Step Time =    1.000,"PART-1-1",            49,      -12.8000,            5.,            0.,NA,NA,"",       1.53860,  -708.970E-03,      -1.36553,   3.98122E-06
C:/temp/dataset/3/3_10.odb,Step-1,Increment      1: Step Time =    1.000,"PART-1-1",            50,      -10.6000,            5.,            0.,NA,NA,"",       1.44130,  -711.848E-03,      -1.25324,   3.63044E-06
C:/temp/dataset/3/3_10.odb,Step-1,Increment      1: Step Time =    1.000,"PART-1-1",            51,          -15.,           2.5,            0.,NA,NA,"",       1.58396,  -578.523E-03,      -1.47453,   4.43376E-06
C:/temp/dataset/3/3_10.odb,Step-1,Increment      1: Step Time =    1.000,"PART-1-1",            52,          -15.,          -2.5,            0.,NA,NA,"",       1.50320,  -323.429E-03,      -1.46800,   4.43710E-06
C:/temp/dataset/3/3_10.odb,Step-1,Increment      1: Step Time =    1.000,"PART-1-1",            53,      -10.5333,           -5.,            0.,NA,NA,"",       1.25327,  -201.740E-03,      -1.23693,   4.95991E-06
C:/temp/dataset/3/3_10.odb,Step-1,Increment      1: Step Time =    1.000,"PART-1-1",            54,      -12.7667,           -5.,            0.,NA,NA,"",       1.36538,  -198.822E-03,      -1.35082,   3.74166E-06
C:/temp/dataset/3/3_10.odb,Step-1,Increment      1: Step Time =    1.000,"PART-1-1",            55,      -3.83333,           -5.,            0.,NA,NA,"",   919.835E-03,  -209.684E-03,  -895.617E-03,   529.939E-06
C:/temp/dataset/3/3_10.odb,Step-1,Increment      1: Step Time =    1.000,"PART-1-1",            56,      -6.06667,           -5.,            0.,NA,NA,"",       1.03045,  -207.398E-03,      -1.00936,   129.602E-06
C:/temp/dataset/3/3_10.odb,Step-1,Increment      1: Step Time =    1.000,"PART-1-1",            57,       2.80000,           -5.,            0.,NA,NA,"",   577.085E-03,  -206.319E-03,  -538.943E-03,   7.73679E-03
C:/temp/dataset/3/3_10.odb,Step-1,Increment      1: Step Time =    1.000,"PART-1-1",            58,   600.000E-03,           -5.,            0.,NA,NA,"",   697.889E-03,  -210.101E-03,  -665.512E-03,   3.02321E-03
C:/temp/dataset/3/3_10.odb,Step-1,Increment      1: Step Time =    1.000,"PART-1-1",            59,            5.,          -10.,            0.,NA,NA,"",   259.215E-03,  -80.6148E-03,  -246.361E-03,   22.9351E-03
C:/temp/dataset/3/3_10.odb,Step-1,Increment      1: Step Time =    1.000,"PART-1-1",            60,            5.,          -7.5,            0.,NA,NA,"",   331.584E-03,  -141.570E-03,  -299.843E-03,   26.2332E-03
C:/temp/dataset/3/3_10.odb,Step-1,Increment      1: Step Time =    1.000,"PART-1-1",            61,            5.,         -17.5,            0.,NA,NA,"",   106.660E-03,   16.7037E-03,  -105.344E-03,   19.3304E-03
C:/temp/dataset/3/3_10.odb,Step-1,Increment      1: Step Time =    1.000,"PART-1-1",            62,            5.,          -15.,            0.,NA,NA,"",   148.171E-03,  -2.50858E-03,  -148.150E-03,   19.7676E-03
C:/temp/dataset/3/3_10.odb,Step-1,Increment      1: Step Time =    1.000,"PART-1-1",            63,          -2.5,          -20.,            0.,NA,NA,"",   9.56131E-03,   9.44245E-03,  -1.50292E-03,   1.59359E-03
C:/temp/dataset/3/3_10.odb,Step-1,Increment      1: Step Time =    1.000,"PART-1-1",            64,            0.,          -20.,            0.,NA,NA,"",   15.3809E-03,   14.1438E-03,  -6.04365E-03,   2.70602E-03
C:/temp/dataset/3/3_10.odb,Step-1,Increment      1: Step Time =    1.000,"PART-1-1",            65,           2.5,          -20.,            0.,NA,NA,"",   27.9943E-03,   21.4389E-03,  -18.0015E-03,   4.51535E-03
C:/temp/dataset/3/3_10.odb,Step-1,Increment      1: Step Time =    1.000,"PART-1-1",            66,         -12.5,          -20.,            0.,NA,NA,"",   4.34074E-03,   4.20731E-03,   1.06794E-03,   15.8314E-06
C:/temp/dataset/3/3_10.odb,Step-1,Increment      1: Step Time =    1.000,"PART-1-1",            67,          -10.,          -20.,            0.,NA,NA,"",   4.41887E-03,   4.36291E-03,   701.024E-06,   166.649E-06
C:/temp/dataset/3/3_10.odb,Step-1,Increment      1: Step Time =    1.000,"PART-1-1",            68,          -7.5,          -20.,            0.,NA,NA,"",   5.05638E-03,   5.03194E-03,   496.598E-06,   468.802E-06
C:/temp/dataset/3/3_10.odb,Step-1,Increment      1: Step Time =    1.000,"PART-1-1",            69,          -15.,         -22.5,            0.,NA,NA,"",   3.87720E-03,   3.47692E-03,   1.71571E-03,   19.3998E-06
C:/temp/dataset/3/3_10.odb,Step-1,Increment      1: Step Time =    1.000,"PART-1-1",            70,          -15.,         -27.5,            0.,NA,NA,"",   1.74886E-03,   1.34521E-03,   1.11754E-03,   347.537E-06
C:/temp/dataset/3/3_10.odb,Step-1,Increment      1: Step Time =    1.000,"PART-1-1",            71,          12.5,          -30.,            0.,NA,NA,"",            0.,   20.2201E-39,  -31.6942E-39,   5.44528E-03
C:/temp/dataset/3/3_10.odb,Step-1,Increment      1: Step Time =    1.000,"PART-1-1",            72,           10.,          -30.,            0.,NA,NA,"",            0.,  -2.85458E-39,  -18.7438E-39,   5.41564E-03
C:/temp/dataset/3/3_10.odb,Step-1,Increment      1: Step Time =    1.000,"PART-1-1",            73,           7.5,          -30.,            0.,NA,NA,"",            0.,  -4.92881E-39,  -21.9201E-39,   4.46321E-03
C:/temp/dataset/3/3_10.odb,Step-1,Increment      1: Step Time =    1.000,"PART-1-1",            74,            5.,          -30.,            0.,NA,NA,"",            0.,   5.36161E-39,  -17.7190E-39,   3.49234E-03
C:/temp/dataset/3/3_10.odb,Step-1,Increment      1: Step Time =    1.000,"PART-1-1",            75,           2.5,          -30.,            0.,NA,NA,"",            0.,   1.43271E-39,  -9.85037E-39,   2.44174E-03
C:/temp/dataset/3/3_10.odb,Step-1,Increment      1: Step Time =    1.000,"PART-1-1",            76,            0.,          -30.,            0.,NA,NA,"",            0.,  -339.858E-42,  -3.98143E-39,   1.46555E-03
C:/temp/dataset/3/3_10.odb,Step-1,Increment      1: Step Time =    1.000,"PART-1-1",            77,          -2.5,          -30.,            0.,NA,NA,"",            0.,  -2.89576E-39,  -3.63326E-39,   680.187E-06
C:/temp/dataset/3/3_10.odb,Step-1,Increment      1: Step Time =    1.000,"PART-1-1",            78,           -5.,          -30.,            0.,NA,NA,"",            0.,  -369.088E-42,   174.123E-42,   182.870E-06
C:/temp/dataset/3/3_10.odb,Step-1,Increment      1: Step Time =    1.000,"PART-1-1",            79,          -7.5,          -30.,            0.,NA,NA,"",            0.,  -59.4557E-42,   402.841E-42,   115.224E-06
C:/temp/dataset/3/3_10.odb,Step-1,Increment      1: Step Time =    1.000,"PART-1-1",            80,          -10.,          -30.,            0.,NA,NA,"",            0.,   543.187E-42,   882.201E-42,   234.001E-06
C:/temp/dataset/3/3_10.odb,Step-1,Increment      1: Step Time =    1.000,"PART-1-1",            81,         -12.5,          -30.,            0.,NA,NA,"",            0.,   858.208E-42,   1.19626E-39,   253.880E-06
C:/temp/dataset/3/3_10.odb,Step-1,Increment      1: Step Time =    1.000,"PART-1-1",            82,           15.,          -25.,            0.,NA,NA,"",   47.6495E-03,   35.6705E-03,  -31.5926E-03,   3.93240E-03
C:/temp/dataset/3/3_10.odb,Step-1,Increment      1: Step Time =    1.000,"PART-1-1",            83,           15.,         -27.5,            0.,NA,NA,"",   30.0739E-03,   21.8303E-03,  -20.6852E-03,   6.96515E-03
C:/temp/dataset/3/3_10.odb,Step-1,Increment      1: Step Time =    1.000,"PART-1-1",            84,           15.,         -17.5,            0.,NA,NA,"",   57.0631E-03,   45.6557E-03,  -34.2309E-03,   3.47872E-03
C:/temp/dataset/3/3_10.odb,Step-1,Increment      1: Step Time =    1.000,"PART-1-1",            85,           15.,          -20.,            0.,NA,NA,"",   63.6859E-03,   50.2187E-03,  -39.1661E-03,   939.729E-06
C:/temp/dataset/3/3_10.odb,Step-1,Increment      1: Step Time =    1.000,"PART-1-1",            86,           15.,          -10.,            0.,NA,NA,"",   54.0071E-03,  -53.5843E-03,   6.74519E-03,   8.60095E-03
C:/temp/dataset/3/3_10.odb,Step-1,Increment      1: Step Time =    1.000,"PART-1-1",            87,           15.,         -12.5,            0.,NA,NA,"",   11.1873E-03,  -3.93758E-03,  -10.4714E-03,   7.18091E-03
C:/temp/dataset/3/3_10.odb,Step-1,Increment      1: Step Time =    1.000,"PART-1-1",            88,           15.,          -2.5,            0.,NA,NA,"",   324.352E-03,  -318.251E-03,   62.6157E-03,   8.30413E-03
C:/temp/dataset/3/3_10.odb,Step-1,Increment      1: Step Time =    1.000,"PART-1-1",            89,           15.,           -5.,            0.,NA,NA,"",   216.238E-03,  -211.412E-03,   45.4282E-03,   9.03268E-03
C:/temp/dataset/3/3_10.odb,Step-1,Increment      1: Step Time =    1.000,"PART-1-1",            90,           15.,            5.,            0.,NA,NA,"",   735.956E-03,  -726.323E-03,   118.682E-03,   13.8414E-03
C:/temp/dataset/3/3_10.odb,Step-1,Increment      1: Step Time =    1.000,"PART-1-1",            91,           15.,           2.5,            0.,NA,NA,"",   582.122E-03,  -574.172E-03,   95.8771E-03,   10.7926E-03
C:/temp/dataset/3/3_10.odb,Step-1,Increment      1: Step Time =    1.000,"PART-1-1",            92,           15.,          12.5,            0.,NA,NA,"",       1.35867,      -1.34241,   209.531E-03,   19.2705E-03
C:/temp/dataset/3/3_10.odb,Step-1,Increment      1: Step Time =    1.000,"PART-1-1",            93,           15.,           10.,            0.,NA,NA,"",       1.12116,      -1.10693,   178.072E-03,   18.2856E-03
C:/temp/dataset/3/3_10.odb,Step-1,Increment      1: Step Time =    1.000,"PART-1-1",            94,           15.,           20.,            0.,NA,NA,"",       2.26171,      -2.24367,   285.076E-03,   16.6157E-03
C:/temp/dataset/3/3_10.odb,Step-1,Increment      1: Step Time =    1.000,"PART-1-1",            95,           15.,          17.5,            0.,NA,NA,"",       1.92876,      -1.91033,   265.969E-03,   19.2132E-03
C:/temp/dataset/3/3_10.odb,Step-1,Increment      1: Step Time =    1.000,"PART-1-1",            96,           15.,          27.5,            0.,NA,NA,"",       3.38076,      -3.37051,   263.077E-03,   1.67421E-03
C:/temp/dataset/3/3_10.odb,Step-1,Increment      1: Step Time =    1.000,"PART-1-1",            97,           15.,           25.,            0.,NA,NA,"",       2.99776,      -2.98426,   284.211E-03,   6.56634E-03
C:/temp/dataset/3/3_10.odb,Step-1,Increment      1: Step Time =    1.000,"PART-1-1",            98,           10.,           30.,            0.,NA,NA,"",       3.74238,      -3.70534,  -525.283E-03,   6.67750E-03
C:/temp/dataset/3/3_10.odb,Step-1,Increment      1: Step Time =    1.000,"PART-1-1",            99,          12.5,           30.,            0.,NA,NA,"",       3.72830,      -3.72547,  -145.162E-03,   1.75172E-03
C:/temp/dataset/3/3_10.odb,Step-1,Increment      1: Step Time =    1.000,"PART-1-1",           100,           2.5,           30.,            0.,NA,NA,"",       4.05035,      -3.65497,      -1.74544,   10.4561E-03
C:/temp/dataset/3/3_10.odb,Step-1,Increment      1: Step Time =    1.000,"PART-1-1",           101,            5.,           30.,            0.,NA,NA,"",       3.91187,      -3.67428,      -1.34255,   11.6570E-03
C:/temp/dataset/3/3_10.odb,Step-1,Increment      1: Step Time =    1.000,"PART-1-1",           102,           -5.,           30.,            0.,NA,NA,"",       4.61181,      -3.57898,      -2.90856,   820.092E-06
C:/temp/dataset/3/3_10.odb,Step-1,Increment      1: Step Time =    1.000,"PART-1-1",           103,          -2.5,           30.,            0.,NA,NA,"",       4.39659,      -3.60775,      -2.51279,   2.53250E-03
C:/temp/dataset/3/3_10.odb,Step-1,Increment      1: Step Time =    1.000,"PART-1-1",           104,         -12.5,           30.,            0.,NA,NA,"",       5.38179,      -3.48499,      -4.10104,   4.06069E-06
C:/temp/dataset/3/3_10.odb,Step-1,Increment      1: Step Time =    1.000,"PART-1-1",           105,          -10.,           30.,            0.,NA,NA,"",       5.10726,      -3.51674,      -3.70360,   44.2613E-06
C:/temp/dataset/3/3_10.odb,Step-1,Increment      1: Step Time =    1.000,"PART-1-1",           106,          -15.,          27.5,            0.,NA,NA,"",       5.41192,      -3.05585,      -4.46662,   3.24291E-06
C:/temp/dataset/3/3_10.odb,Step-1,Increment      1: Step Time =    1.000,"PART-1-1",           107,      -12.5013,       25.0052,            0.,NA,NA,"",       4.85244,      -2.69113,      -4.03782,   29.2014E-06
C:/temp/dataset/3/3_10.odb,Step-1,Increment      1: Step Time =    1.000,"PART-1-1",           108,      -10.0028,       27.5014,            0.,NA,NA,"",       4.81849,      -3.11964,      -3.67229,   97.5971E-06
C:/temp/dataset/3/3_10.odb,Step-1,Increment      1: Step Time =    1.000,"PART-1-1",           109,      -2.49865,       22.5268,            0.,NA,NA,"",       3.42340,      -2.42486,      -2.41654,   648.975E-06
C:/temp/dataset/3/3_10.odb,Step-1,Increment      1: Step Time =    1.000,"PART-1-1",           110,      -2.51000,       27.5279,            0.,NA,NA,"",       4.06584,      -3.22004,      -2.48242,   1.12665E-03
C:/temp/dataset/3/3_10.odb,Step-1,Increment      1: Step Time =    1.000,"PART-1-1",           111,       12.3864,       22.5464,            0.,NA,NA,"",       2.57713,      -2.57588,  -80.3007E-03,   7.42646E-03
C:/temp/dataset/3/3_10.odb,Step-1,Increment      1: Step Time =    1.000,"PART-1-1",           112,       7.35369,       17.5509,            0.,NA,NA,"",       1.96991,      -1.84981,  -677.293E-03,   21.2932E-03
C:/temp/dataset/3/3_10.odb,Step-1,Increment      1: Step Time =    1.000,"PART-1-1",           113,       12.3201,       14.9467,            0.,NA,NA,"",       1.57305,      -1.57198,  -57.7649E-03,   5.35992E-03
C:/temp/dataset/3/3_10.odb,Step-1,Increment      1: Step Time =    1.000,"PART-1-1",           114,       13.2599,       7.39194,            0.,NA,NA,"",   879.508E-03,  -879.388E-03,   14.5690E-03,   8.60414E-03
C:/temp/dataset/3/3_10.odb,Step-1,Increment      1: Step Time =    1.000,"PART-1-1",           115,       7.60504,      -5.98204,            0.,NA,NA,"",   290.737E-03,  -171.141E-03,  -235.029E-03,   11.4512E-03
C:/temp/dataset/3/3_10.odb,Step-1,Increment      1: Step Time =    1.000,"PART-1-1",           116,       7.71062,      -13.7665,            0.,NA,NA,"",   131.697E-03,   4.27985E-03,  -131.627E-03,   13.5676E-03
C:/temp/dataset/3/3_10.odb,Step-1,Increment      1: Step Time =    1.000,"PART-1-1",           117,       11.7208,      -22.4938,            0.,NA,NA,"",   55.0479E-03,   40.4929E-03,  -37.2908E-03,   6.59582E-03
C:/temp/dataset/3/3_10.odb,Step-1,Increment      1: Step Time =    1.000,"PART-1-1",           118,       2.59328,       2.74806,            0.,NA,NA,"",   847.874E-03,  -612.850E-03,  -585.922E-03,   6.26052E-03
C:/temp/dataset/3/3_10.odb,Step-1,Increment      1: Step Time =    1.000,"PART-1-1",           119,      -1.32361,      -2.98462,            0.,NA,NA,"",   832.856E-03,  -316.345E-03,  -770.438E-03,   876.554E-06
C:/temp/dataset/3/3_10.odb,Step-1,Increment      1: Step Time =    1.000,"PART-1-1",           120,      -6.00563,       3.11026,            0.,NA,NA,"",       1.19093,  -621.364E-03,      -1.01598,   223.822E-06
C:/temp/dataset/3/3_10.odb,Step-1,Increment      1: Step Time =    1.000,"PART-1-1",           121,      -10.4102,       2.53863,            0.,NA,NA,"",       1.37201,  -586.475E-03,      -1.24035,   20.5955E-06
C:/temp/dataset/3/3_10.odb,Step-1,Increment      1: Step Time =    1.000,"PART-1-1",           122,      -12.6184,  -43.2983E-03,            0.,NA,NA,"",       1.42333,  -451.854E-03,      -1.34970,   4.37801E-06
C:/temp/dataset/3/3_10.odb,Step-1,Increment      1: Step Time =    1.000,"PART-1-1",           123,      -3.88272,       3.23189,            0.,NA,NA,"",       1.10485,  -630.254E-03,  -907.450E-03,   485.601E-06
C:/temp/dataset/3/3_10.odb,Step-1,Increment      1: Step Time =    1.000,"PART-1-1",           124,       2.98144,      -22.7363,            0.,NA,NA,"",   18.1368E-03,   7.18038E-03,  -16.6549E-03,   4.01824E-03
C:/temp/dataset/3/3_10.odb,Step-1,Increment      1: Step Time =    1.000,"PART-1-1",           125,      -2.42987,      -22.6294,            0.,NA,NA,"",   5.30638E-03,   5.29006E-03,  -415.883E-06,   882.469E-06
C:/temp/dataset/3/3_10.odb,Step-1,Increment      1: Step Time =    1.000,"PART-1-1",           126,      -9.97348,      -22.5672,            0.,NA,NA,"",   3.66278E-03,   3.56562E-03,   838.031E-06,   331.559E-06
C:/temp/dataset/3/3_10.odb,Step-1,Increment      1: Step Time =    1.000,"PART-1-1",           127,      -12.4895,      -25.0402,            0.,NA,NA,"",   2.47863E-03,   2.32318E-03,   863.941E-06,   281.148E-06
C:/temp/dataset/3/3_10.odb,Step-1,Increment      1: Step Time =    1.000,"PART-1-1",           128,       12.8561,      -14.2595,            0.,NA,NA,"",   54.0227E-03,   23.7811E-03,  -48.5068E-03,   2.11947E-03
C:/temp/dataset/3/3_10.odb,Step-1,Increment      1: Step Time =    1.000,"PART-1-1",           129,       12.7281,      -7.33650,            0.,NA,NA,"",   128.874E-03,  -120.645E-03,  -45.3148E-03,   2.12517E-03
C:/temp/dataset/3/3_10.odb,Step-1,Increment      1: Step Time =    1.000,"PART-1-1",           130,       12.6427,  -96.8002E-03,            0.,NA,NA,"",   428.395E-03,  -426.182E-03,  -43.4891E-03,   2.26786E-03
C:/temp/dataset/3/3_10.odb,Step-1,Increment      1: Step Time =    1.000,"PART-1-1",           131,       7.13014,       10.3328,            0.,NA,NA,"",       1.22583,      -1.10808,  -524.231E-03,   22.1522E-03
C:/temp/dataset/3/3_10.odb,Step-1,Increment      1: Step Time =    1.000,"PART-1-1",           132,       4.95005,       27.5805,            0.,NA,NA,"",       3.53912,      -3.29333,      -1.29591,   13.3255E-03
C:/temp/dataset/3/3_10.odb,Step-1,Increment      1: Step Time =    1.000,"PART-1-1",           133,      -4.99957,       22.5148,            0.,NA,NA,"",       3.69307,      -2.39088,      -2.81468,   590.654E-06
C:/temp/dataset/3/3_10.odb,Step-1,Increment      1: Step Time =    1.000,"PART-1-1",           134,      -7.50186,       22.5094,            0.,NA,NA,"",       3.98465,      -2.35804,      -3.21202,   293.036E-06
C:/temp/dataset/3/3_10.odb,Step-1,Increment      1: Step Time =    1.000,"PART-1-1",           135,       4.93744,       22.5898,            0.,NA,NA,"",       2.79243,      -2.53029,      -1.18124,   19.6567E-03
C:/temp/dataset/3/3_10.odb,Step-1,Increment      1: Step Time =    1.000,"PART-1-1",           136,       2.47758,       22.5593,            0.,NA,NA,"",       2.96700,      -2.49639,      -1.60348,   11.3680E-03
C:/temp/dataset/3/3_10.odb,Step-1,Increment      1: Step Time =    1.000,"PART-1-1",           137,  -4.46696E-03,       22.5388,            0.,NA,NA,"",       3.17999,      -2.46048,      -2.01454,   2.30463E-03
C:/temp/dataset/3/3_10.odb,Step-1,Increment      1: Step Time =    1.000,"PART-1-1",           138,       7.20686,       12.6699,            0.,NA,NA,"",       1.44158,      -1.32280,  -573.020E-03,   21.7329E-03
C:/temp/dataset/3/3_10.odb,Step-1,Increment      1: Step Time =    1.000,"PART-1-1",           139,       7.30679,       15.0771,            0.,NA,NA,"",       1.68800,      -1.56892,  -622.760E-03,   22.2755E-03
C:/temp/dataset/3/3_10.odb,Step-1,Increment      1: Step Time =    1.000,"PART-1-1",           140,       7.52839,       5.66323,            0.,NA,NA,"",   849.044E-03,  -749.376E-03,  -399.137E-03,   14.2268E-03
C:/temp/dataset/3/3_10.odb,Step-1,Increment      1: Step Time =    1.000,"PART-1-1",           141,       7.20823,       7.96221,            0.,NA,NA,"",       1.02568,  -913.567E-03,  -466.271E-03,   20.8912E-03
C:/temp/dataset/3/3_10.odb,Step-1,Increment      1: Step Time =    1.000,"PART-1-1",           142,      -1.77433,       3.17490,            0.,NA,NA,"",       1.01792,  -629.830E-03,  -799.670E-03,   866.102E-06
C:/temp/dataset/3/3_10.odb,Step-1,Increment      1: Step Time =    1.000,"PART-1-1",           143,   347.975E-03,       3.01142,            0.,NA,NA,"",   933.019E-03,  -624.746E-03,  -692.976E-03,   1.18446E-03
C:/temp/dataset/3/3_10.odb,Step-1,Increment      1: Step Time =    1.000,"PART-1-1",           144,      -8.17775,       2.85153,            0.,NA,NA,"",       1.27906,  -605.360E-03,      -1.12674,   80.2089E-06
C:/temp/dataset/3/3_10.odb,Step-1,Increment      1: Step Time =    1.000,"PART-1-1",           145,      -8.45397,      -3.03463,            0.,NA,NA,"",       1.17373,  -304.673E-03,      -1.13350,   64.1655E-06
C:/temp/dataset/3/3_10.odb,Step-1,Increment      1: Step Time =    1.000,"PART-1-1",           146,      -12.6978,       2.46856,            0.,NA,NA,"",       1.47573,  -579.916E-03,      -1.35701,   3.24416E-06
C:/temp/dataset/3/3_10.odb,Step-1,Increment      1: Step Time =    1.000,"PART-1-1",           147,      -10.5225,      -2.72745,            0.,NA,NA,"",       1.27939,  -317.654E-03,      -1.23933,   18.1996E-06
C:/temp/dataset/3/3_10.odb,Step-1,Increment      1: Step Time =    1.000,"PART-1-1",           148,      -12.7265,      -2.55241,            0.,NA,NA,"",       1.39017,  -323.714E-03,      -1.35196,   3.33474E-06
C:/temp/dataset/3/3_10.odb,Step-1,Increment      1: Step Time =    1.000,"PART-1-1",           149,      -3.80700,      -2.48494,            0.,NA,NA,"",   959.633E-03,  -339.002E-03,  -897.760E-03,   537.406E-06
C:/temp/dataset/3/3_10.odb,Step-1,Increment      1: Step Time =    1.000,"PART-1-1",           150,      -6.26959,      -2.94549,            0.,NA,NA,"",       1.06897,  -312.048E-03,      -1.02241,   201.265E-06
C:/temp/dataset/3/3_10.odb,Step-1,Increment      1: Step Time =    1.000,"PART-1-1",           151,       2.97297,      -3.34056,            0.,NA,NA,"",   616.329E-03,  -302.286E-03,  -537.108E-03,   6.56893E-03
C:/temp/dataset/3/3_10.odb,Step-1,Increment      1: Step Time =    1.000,"PART-1-1",           152,   836.982E-03,      -3.21922,            0.,NA,NA,"",   725.228E-03,  -306.871E-03,  -657.104E-03,   989.376E-06
C:/temp/dataset/3/3_10.odb,Step-1,Increment      1: Step Time =    1.000,"PART-1-1",           153,       7.27849,      -10.7647,            0.,NA,NA,"",   185.688E-03,  -45.6872E-03,  -179.980E-03,   15.9856E-03
C:/temp/dataset/3/3_10.odb,Step-1,Increment      1: Step Time =    1.000,"PART-1-1",           154,       7.20650,      -8.25133,            0.,NA,NA,"",   240.759E-03,  -103.902E-03,  -217.185E-03,   17.4449E-03
C:/temp/dataset/3/3_10.odb,Step-1,Increment      1: Step Time =    1.000,"PART-1-1",           155,       7.07274,      -17.3233,            0.,NA,NA,"",   100.362E-03,   29.6507E-03,  -95.8823E-03,   13.6007E-03
C:/temp/dataset/3/3_10.odb,Step-1,Increment      1: Step Time =    1.000,"PART-1-1",           156,       6.55788,      -15.2577,            0.,NA,NA,"",   127.926E-03,   12.4125E-03,  -127.322E-03,   16.5414E-03
C:/temp/dataset/3/3_10.odb,Step-1,Increment      1: Step Time =    1.000,"PART-1-1",           157,      -7.46685,      -22.5818,            0.,NA,NA,"",   3.99855E-03,   3.90350E-03,   866.663E-06,   535.045E-06
C:/temp/dataset/3/3_10.odb,Step-1,Increment      1: Step Time =    1.000,"PART-1-1",           158,      -4.95694,      -22.5955,            0.,NA,NA,"",   4.52906E-03,   4.46954E-03,   731.854E-06,   740.684E-06
C:/temp/dataset/3/3_10.odb,Step-1,Increment      1: Step Time =    1.000,"PART-1-1",           159,   146.162E-03,      -22.6598,            0.,NA,NA,"",   7.44413E-03,   5.86079E-03,  -4.58980E-03,   440.897E-06
C:/temp/dataset/3/3_10.odb,Step-1,Increment      1: Step Time =    1.000,"PART-1-1",           160,      -12.4860,      -22.5306,            0.,NA,NA,"",   3.61834E-03,   3.45753E-03,   1.06671E-03,   148.042E-06
C:/temp/dataset/3/3_10.odb,Step-1,Increment      1: Step Time =    1.000,"PART-1-1",           161,       9.96020,      -27.7814,            0.,NA,NA,"",   13.4369E-03,   9.41883E-03,  -9.58314E-03,   6.40866E-03
C:/temp/dataset/3/3_10.odb,Step-1,Increment      1: Step Time =    1.000,"PART-1-1",           162,       7.44077,      -27.8946,            0.,NA,NA,"",   9.69344E-03,   4.61418E-03,  -8.52480E-03,   5.59050E-03
C:/temp/dataset/3/3_10.odb,Step-1,Increment      1: Step Time =    1.000,"PART-1-1",           163,       4.93217,      -27.8625,            0.,NA,NA,"",   6.80408E-03,   703.763E-06,  -6.76759E-03,   4.18238E-03
C:/temp/dataset/3/3_10.odb,Step-1,Increment      1: Step Time =    1.000,"PART-1-1",           164,       2.47767,      -27.7470,            0.,NA,NA,"",   4.39551E-03,  -1.32331E-03,  -4.19158E-03,   2.43075E-03
C:/temp/dataset/3/3_10.odb,Step-1,Increment      1: Step Time =    1.000,"PART-1-1",           165,   19.5837E-03,      -27.6625,            0.,NA,NA,"",   2.31255E-03,  -1.48480E-03,  -1.77292E-03,   1.10787E-03
C:/temp/dataset/3/3_10.odb,Step-1,Increment      1: Step Time =    1.000,"PART-1-1",           166,      -2.46955,      -27.6154,            0.,NA,NA,"",   834.448E-06,  -747.987E-06,  -369.892E-06,   515.038E-06
C:/temp/dataset/3/3_10.odb,Step-1,Increment      1: Step Time =    1.000,"PART-1-1",           167,      -4.97450,      -27.5844,            0.,NA,NA,"",   208.486E-06,   73.5461E-06,   195.083E-06,   396.272E-06
C:/temp/dataset/3/3_10.odb,Step-1,Increment      1: Step Time =    1.000,"PART-1-1",           168,      -7.48283,      -27.5594,            0.,NA,NA,"",   699.704E-06,   621.090E-06,   322.232E-06,   357.035E-06
C:/temp/dataset/3/3_10.odb,Step-1,Increment      1: Step Time =    1.000,"PART-1-1",           169,       12.2865,      -25.1793,            0.,NA,NA,"",   37.4079E-03,   28.8533E-03,  -23.8083E-03,   6.62711E-03
C:/temp/dataset/3/3_10.odb,Step-1,Increment      1: Step Time =    1.000,"PART-1-1",           170,       11.6753,      -16.4340,            0.,NA,NA,"",   72.5103E-03,   41.0048E-03,  -59.8026E-03,   4.53403E-03
C:/temp/dataset/3/3_10.odb,Step-1,Increment      1: Step Time =    1.000,"PART-1-1",           171,       11.9685,      -19.5802,            0.,NA,NA,"",   68.4120E-03,   48.7078E-03,  -48.0391E-03,   5.30544E-03
C:/temp/dataset/3/3_10.odb,Step-1,Increment      1: Step Time =    1.000,"PART-1-1",           172,       13.3291,      -9.93034,            0.,NA,NA,"",   60.3403E-03,  -50.2771E-03,  -33.3641E-03,   3.43065E-03
C:/temp/dataset/3/3_10.odb,Step-1,Increment      1: Step Time =    1.000,"PART-1-1",           173,       13.4212,      -12.1607,            0.,NA,NA,"",   37.2178E-03,  -5.74957E-03,  -36.7710E-03,   3.01594E-03
C:/temp/dataset/3/3_10.odb,Step-1,Increment      1: Step Time =    1.000,"PART-1-1",           174,       12.9633,      -2.52247,            0.,NA,NA,"",   311.613E-03,  -310.215E-03,  -29.4861E-03,   2.57057E-03
C:/temp/dataset/3/3_10.odb,Step-1,Increment      1: Step Time =    1.000,"PART-1-1",           175,       13.1247,      -4.84738,            0.,NA,NA,"",   212.415E-03,  -210.740E-03,  -26.6225E-03,   3.41683E-03
C:/temp/dataset/3/3_10.odb,Step-1,Increment      1: Step Time =    1.000,"PART-1-1",           176,       13.1131,       5.12757,            0.,NA,NA,"",   721.771E-03,  -721.747E-03,  -5.81913E-03,   7.15694E-03
C:/temp/dataset/3/3_10.odb,Step-1,Increment      1: Step Time =    1.000,"PART-1-1",           177,       12.1418,       2.60140,            0.,NA,NA,"",   572.114E-03,  -567.494E-03,  -72.5605E-03,   4.23612E-03
C:/temp/dataset/3/3_10.odb,Step-1,Increment      1: Step Time =    1.000,"PART-1-1",           178,       12.1760,       12.1629,            0.,NA,NA,"",       1.28223,      -1.28034,  -69.6395E-03,   4.38066E-03
C:/temp/dataset/3/3_10.odb,Step-1,Increment      1: Step Time =    1.000,"PART-1-1",           179,       13.0236,       9.64002,            0.,NA,NA,"",       1.05668,      -1.05667,   4.96676E-03,   8.21908E-03
C:/temp/dataset/3/3_10.odb,Step-1,Increment      1: Step Time =    1.000,"PART-1-1",           180,       12.3784,       20.0377,            0.,NA,NA,"",       2.21298,      -2.21203,  -65.0696E-03,   7.15473E-03
C:/temp/dataset/3/3_10.odb,Step-1,Increment      1: Step Time =    1.000,"PART-1-1",           181,       12.3660,       17.5135,            0.,NA,NA,"",       1.87781,      -1.87693,  -57.3800E-03,   6.12360E-03
C:/temp/dataset/3/3_10.odb,Step-1,Increment      1: Step Time =    1.000,"PART-1-1",           182,       12.4264,       25.0333,            0.,NA,NA,"",       2.95774,      -2.95612,  -97.7900E-03,   6.78782E-03
C:/temp/dataset/3/3_10.odb,Step-1,Increment      1: Step Time =    1.000,"PART-1-1",           183,       7.43491,       27.5684,            0.,NA,NA,"",       3.42442,      -3.30631,  -891.606E-03,   9.15295E-03
C:/temp/dataset/3/3_10.odb,Step-1,Increment      1: Step Time =    1.000,"PART-1-1",           184,  -17.4965E-03,       27.5503,            0.,NA,NA,"",       3.86736,      -3.25218,      -2.09279,   5.13354E-03
C:/temp/dataset/3/3_10.odb,Step-1,Increment      1: Step Time =    1.000,"PART-1-1",           185,       2.47067,       27.5656,            0.,NA,NA,"",       3.68980,      -3.27547,      -1.69880,   11.4084E-03
C:/temp/dataset/3/3_10.odb,Step-1,Increment      1: Step Time =    1.000,"PART-1-1",           186,      -7.50286,       27.5043,            0.,NA,NA,"",       4.54526,      -3.15203,      -3.27477,   312.343E-06
C:/temp/dataset/3/3_10.odb,Step-1,Increment      1: Step Time =    1.000,"PART-1-1",           187,      -5.00635,       27.5119,            0.,NA,NA,"",       4.29281,      -3.18524,      -2.87792,   638.086E-06
C:/temp/dataset/3/3_10.odb,Step-1,Increment      1: Step Time =    1.000,"PART-1-1",           188,      -12.5019,       27.5019,            0.,NA,NA,"",       5.10850,      -3.08792,      -4.06959,   21.2478E-06
C:/temp/dataset/3/3_10.odb,Step-1,Increment      1: Step Time =    1.000,"PART-1-1",           189,      -12.5001,       22.5034,            0.,NA,NA,"",       4.61600,      -2.29354,      -4.00588,   21.3213E-06
C:/temp/dataset/3/3_10.odb,Step-1,Increment      1: Step Time =    1.000,"PART-1-1",           190,      -5.00429,       25.0191,            0.,NA,NA,"",       3.98604,      -2.79002,      -2.84681,   687.517E-06
C:/temp/dataset/3/3_10.odb,Step-1,Increment      1: Step Time =    1.000,"PART-1-1",           191,  -15.9173E-03,       25.0642,            0.,NA,NA,"",       3.52175,      -2.86181,      -2.05250,   3.11119E-03
C:/temp/dataset/3/3_10.odb,Step-1,Increment      1: Step Time =    1.000,"PART-1-1",           192,       9.74355,       15.0604,            0.,NA,NA,"",       1.60587,      -1.56797,  -346.803E-03,   7.90482E-03
C:/temp/dataset/3/3_10.odb,Step-1,Increment      1: Step Time =    1.000,"PART-1-1",           193,       9.51986,       12.6989,            0.,NA,NA,"",       1.36456,      -1.32181,  -338.884E-03,   9.73574E-03
C:/temp/dataset/3/3_10.odb,Step-1,Increment      1: Step Time =    1.000,"PART-1-1",           194,       12.1898,      -11.7554,            0.,NA,NA,"",   62.1872E-03,  -11.9134E-03,  -61.0354E-03,   2.29536E-03
C:/temp/dataset/3/3_10.odb,Step-1,Increment      1: Step Time =    1.000,"PART-1-1",           195,       9.78251,      -13.4248,            0.,NA,NA,"",   101.046E-03,   9.41855E-03,  -100.606E-03,   8.27410E-03
C:/temp/dataset/3/3_10.odb,Step-1,Increment      1: Step Time =    1.000,"PART-1-1",           196,       7.24032,      -19.5057,            0.,NA,NA,"",   79.0867E-03,   34.9478E-03,  -70.9462E-03,   10.6123E-03
C:/temp/dataset/3/3_10.odb,Step-1,Increment      1: Step Time =    1.000,"PART-1-1",           197,      -10.0066,  -139.817E-03,            0.,NA,NA,"",       1.29703,  -450.358E-03,      -1.21633,   38.2031E-06
C:/temp/dataset/3/3_10.odb,Step-1,Increment      1: Step Time =    1.000,"PART-1-1",           198,      -8.39380,      -1.43672,            0.,NA,NA,"",       1.19654,  -386.327E-03,      -1.13246,   83.4050E-06
C:/temp/dataset/3/3_10.odb,Step-1,Increment      1: Step Time =    1.000,"PART-1-1",           199,      -5.07121,  -530.035E-03,            0.,NA,NA,"",       1.05877,  -437.418E-03,  -964.193E-03,   392.264E-06
C:/temp/dataset/3/3_10.odb,Step-1,Increment      1: Step Time =    1.000,"PART-1-1",           200,      -12.5003,      -27.5198,            0.,NA,NA,"",   1.19666E-03,   1.09570E-03,   481.072E-06,   365.204E-06
C:/temp/dataset/3/3_10.odb,Step-1,Increment      1: Step Time =    1.000,"PART-1-1",           201,       8.97180,      -8.86122,            0.,NA,NA,"",   175.925E-03,  -79.1107E-03,  -157.134E-03,   10.1903E-03
C:/temp/dataset/3/3_10.odb,Step-1,Increment      1: Step Time =    1.000,"PART-1-1",           202,      -2.50561,       25.0360,            0.,NA,NA,"",       3.73989,      -2.82559,      -2.45007,   802.631E-06
C:/temp/dataset/3/3_10.odb,Step-1,Increment      1: Step Time =    1.000,"PART-1-1",           203,      -7.50383,       25.0106,            0.,NA,NA,"",       4.25646,      -2.75598,      -3.24376,   327.648E-06
C:/temp/dataset/3/3_10.odb,Step-1,Increment      1: Step Time =    1.000,"PART-1-1",           204,       2.46362,       25.0850,            0.,NA,NA,"",       3.32839,      -2.89157,      -1.64833,   10.6769E-03
C:/temp/dataset/3/3_10.odb,Step-1,Increment      1: Step Time =    1.000,"PART-1-1",           205,       9.17638,       10.5785,            0.,NA,NA,"",       1.17461,      -1.12344,  -342.925E-03,   11.1550E-03
C:/temp/dataset/3/3_10.odb,Step-1,Increment      1: Step Time =    1.000,"PART-1-1",           206,       9.65111,       6.46520,            0.,NA,NA,"",   840.095E-03,  -799.623E-03,  -257.608E-03,   8.08613E-03
C:/temp/dataset/3/3_10.odb,Step-1,Increment      1: Step Time =    1.000,"PART-1-1",           207,      -1.99278,       1.34592,            0.,NA,NA,"",   971.600E-03,  -538.202E-03,  -808.916E-03,   876.287E-06
C:/temp/dataset/3/3_10.odb,Step-1,Increment      1: Step Time =    1.000,"PART-1-1",           208,      -5.69490,       1.29843,            0.,NA,NA,"",       1.12980,  -529.678E-03,  -997.948E-03,   300.879E-06
C:/temp/dataset/3/3_10.odb,Step-1,Increment      1: Step Time =    1.000,"PART-1-1",           209,       1.92780,   665.778E-03,            0.,NA,NA,"",   796.048E-03,  -510.341E-03,  -610.937E-03,   3.04495E-03
C:/temp/dataset/3/3_10.odb,Step-1,Increment      1: Step Time =    1.000,"PART-1-1",           210,       1.26043,      -1.37778,            0.,NA,NA,"",   755.493E-03,  -404.916E-03,  -637.818E-03,   1.46911E-03
C:/temp/dataset/3/3_10.odb,Step-1,Increment      1: Step Time =    1.000,"PART-1-1",           211,       9.14691,      -16.8280,            0.,NA,NA,"",   91.1982E-03,   37.2003E-03,  -83.2662E-03,   9.06188E-03
C:/temp/dataset/3/3_10.odb,Step-1,Increment      1: Step Time =    1.000,"PART-1-1",           212,   79.9954E-03,      -25.2148,            0.,NA,NA,"",   3.42301E-03,   524.246E-06,  -3.38263E-03,   763.596E-06
C:/temp/dataset/3/3_10.odb,Step-1,Increment      1: Step Time =    1.000,"PART-1-1",           213,      -9.97865,      -25.0679,            0.,NA,NA,"",   2.30665E-03,   2.20004E-03,   693.161E-06,   398.408E-06
C:/temp/dataset/3/3_10.odb,Step-1,Increment      1: Step Time =    1.000,"PART-1-1",           214,       12.4671,      -27.6040,            0.,NA,NA,"",   19.4313E-03,   15.3902E-03,  -11.8624E-03,   7.29472E-03
C:/temp/dataset/3/3_10.odb,Step-1,Increment      1: Step Time =    1.000,"PART-1-1",           215,       9.82463,      -25.6838,            0.,NA,NA,"",   28.5152E-03,   19.2471E-03,  -21.0396E-03,   7.49599E-03
C:/temp/dataset/3/3_10.odb,Step-1,Increment      1: Step Time =    1.000,"PART-1-1",           216,       2.56344,      -25.3828,            0.,NA,NA,"",   9.54691E-03,   792.149E-06,  -9.51399E-03,   2.70744E-03
C:/temp/dataset/3/3_10.odb,Step-1,Increment      1: Step Time =    1.000,"PART-1-1",           217,      -2.44121,      -25.1518,            0.,NA,NA,"",   1.20165E-03,   1.15694E-03,  -324.742E-06,   553.505E-06
C:/temp/dataset/3/3_10.odb,Step-1,Increment      1: Step Time =    1.000,"PART-1-1",           218,      -4.95889,      -25.1139,            0.,NA,NA,"",   1.84443E-03,   1.73315E-03,   630.984E-06,   609.207E-06
C:/temp/dataset/3/3_10.odb,Step-1,Increment      1: Step Time =    1.000,"PART-1-1",           219,       10.3279,  -771.646E-03,            0.,NA,NA,"",   425.828E-03,  -394.134E-03,  -161.206E-03,   6.77037E-03
C:/temp/dataset/3/3_10.odb,Step-1,Increment      1: Step Time =    1.000,"PART-1-1",           220,       10.4049,       4.48083,            0.,NA,NA,"",   699.620E-03,  -673.168E-03,  -190.559E-03,   6.39470E-03
C:/temp/dataset/3/3_10.odb,Step-1,Increment      1: Step Time =    1.000,"PART-1-1",           221,       9.80969,       17.5478,            0.,NA,NA,"",       1.89475,      -1.85801,  -371.334E-03,   5.82449E-03
C:/temp/dataset/3/3_10.odb,Step-1,Increment      1: Step Time =    1.000,"PART-1-1",           222,       9.88106,       25.0797,            0.,NA,NA,"",       2.97580,      -2.93840,  -470.325E-03,   7.07883E-03
C:/temp/dataset/3/3_10.odb,Step-1,Increment      1: Step Time =    1.000,"PART-1-1",           223,       9.94975,       27.5346,            0.,NA,NA,"",       3.35831,      -3.32134,  -496.981E-03,   4.69553E-03
C:/temp/dataset/3/3_10.odb,Step-1,Increment      1: Step Time =    1.000,"PART-1-1",           224,       7.36779,       20.0596,            0.,NA,NA,"",       2.29089,      -2.16965,  -735.375E-03,   13.7433E-03
C:/temp/dataset/3/3_10.odb,Step-1,Increment      1: Step Time =    1.000,"PART-1-1",           225,  -693.206E-03,      -1.01900,            0.,NA,NA,"",   851.168E-03,  -420.129E-03,  -740.256E-03,   984.910E-06
C:/temp/dataset/3/3_10.odb,Step-1,Increment      1: Step Time =    1.000,"PART-1-1",           226,      -7.47194,      -25.0831,            0.,NA,NA,"",   2.19260E-03,   2.06208E-03,   745.175E-06,   521.120E-06
C:/temp/dataset/3/3_10.odb,Step-1,Increment      1: Step Time =    1.000,"PART-1-1",           227,       5.28089,       2.25097,            0.,NA,NA,"",   743.121E-03,  -579.050E-03,  -465.758E-03,   17.8631E-03
C:/temp/dataset/3/3_10.odb,Step-1,Increment      1: Step Time =    1.000,"PART-1-1",           228,       9.26575,       8.45073,            0.,NA,NA,"",   994.283E-03,  -945.479E-03,  -307.682E-03,   9.56272E-03
C:/temp/dataset/3/3_10.odb,Step-1,Increment      1: Step Time =    1.000,"PART-1-1",           229,  -81.3472E-03,       1.02952,            0.,NA,NA,"",   885.064E-03,  -525.928E-03,  -711.856E-03,   852.483E-06
C:/temp/dataset/3/3_10.odb,Step-1,Increment      1: Step Time =    1.000,"PART-1-1",           230,      -7.67687,   831.326E-03,            0.,NA,NA,"",       1.20834,  -503.050E-03,      -1.09865,   128.088E-06
C:/temp/dataset/3/3_10.odb,Step-1,Increment      1: Step Time =    1.000,"PART-1-1",           231,      -2.54090,  -531.417E-03,            0.,NA,NA,"",   944.864E-03,  -441.751E-03,  -835.239E-03,   802.045E-06
C:/temp/dataset/3/3_10.odb,Step-1,Increment      1: Step Time =    1.000,"PART-1-1",           232,      -3.83997,       1.55066,            0.,NA,NA,"",       1.05525,  -545.367E-03,  -903.397E-03,   536.626E-06
C:/temp/dataset/3/3_10.odb,Step-1,Increment      1: Step Time =    1.000,"PART-1-1",           233,      -6.84494,  -996.203E-03,            0.,NA,NA,"",       1.13134,  -410.963E-03,      -1.05406,   195.993E-06
C:/temp/dataset/3/3_10.odb,Step-1,Increment      1: Step Time =    1.000,"PART-1-1",           234,       5.51335,      -3.03354,            0.,NA,NA,"",   491.484E-03,  -312.414E-03,  -379.412E-03,   18.6206E-03
C:/temp/dataset/3/3_10.odb,Step-1,Increment      1: Step Time =    1.000,"PART-1-1",           235,       9.62476,      -7.14735,            0.,NA,NA,"",   195.780E-03,  -126.313E-03,  -149.582E-03,   7.22542E-03
C:/temp/dataset/3/3_10.odb,Step-1,Increment      1: Step Time =    1.000,"PART-1-1",           236,       7.38903,      -25.9371,            0.,NA,NA,"",   21.7055E-03,   10.5608E-03,  -18.9631E-03,   6.99018E-03
C:/temp/dataset/3/3_10.odb,Step-1,Increment      1: Step Time =    1.000,"PART-1-1",           237,       4.96373,      -25.7856,            0.,NA,NA,"",   16.0735E-03,   4.02017E-03,  -15.5626E-03,   5.24099E-03
C:/temp/dataset/3/3_10.odb,Step-1,Increment      1: Step Time =    1.000,"PART-1-1",           238,       9.37191,      -21.3805,            0.,NA,NA,"",   62.5579E-03,   37.9047E-03,  -49.7667E-03,   8.91323E-03
C:/temp/dataset/3/3_10.odb,Step-1,Increment      1: Step Time =    1.000,"PART-1-1",           239,       9.53380,      -19.3691,            0.,NA,NA,"",   76.0422E-03,   43.4373E-03,  -62.4148E-03,   8.49097E-03
C:/temp/dataset/3/3_10.odb,Step-1,Increment      1: Step Time =    1.000,"PART-1-1",           240,       10.5518,      -5.76730,            0.,NA,NA,"",   212.545E-03,  -172.921E-03,  -123.587E-03,   4.00195E-03
C:/temp/dataset/3/3_10.odb,Step-1,Increment      1: Step Time =    1.000,"PART-1-1",           241,       10.8494,      -2.88140,            0.,NA,NA,"",   318.184E-03,  -293.077E-03,  -123.883E-03,   4.06957E-03
C:/temp/dataset/3/3_10.odb,Step-1,Increment      1: Step Time =    1.000,"PART-1-1",           242,       9.33979,       1.27198,            0.,NA,NA,"",   551.364E-03,  -499.976E-03,  -232.434E-03,   10.9440E-03
C:/temp/dataset/3/3_10.odb,Step-1,Increment      1: Step Time =    1.000,"PART-1-1",           243,       9.83335,       20.0603,            0.,NA,NA,"",       2.22542,      -2.18901,  -400.935E-03,   7.27054E-03
C:/temp/dataset/3/3_10.odb,Step-1,Increment      1: Step Time =    1.000,"PART-1-1",           244,       7.39102,       25.1069,            0.,NA,NA,"",       3.04596,      -2.92561,  -847.762E-03,   11.5143E-03
C:/temp/dataset/3/3_10.odb,Step-1,Increment      1: Step Time =    1.000,"PART-1-1",           245,       4.93408,       25.0979,            0.,NA,NA,"",       3.16537,      -2.91189,      -1.24116,   14.1932E-03
C:/temp/dataset/3/3_10.odb,Step-1,Increment      1: Step Time =    1.000,"PART-1-1",           246,      -10.0026,       25.0068,            0.,NA,NA,"",       4.54656,      -2.72326,      -3.64075,   113.759E-06
C:/temp/dataset/3/3_10.odb,Step-1,Increment      1: Step Time =    1.000,"PART-1-1",           247,      -10.0008,       22.5051,            0.,NA,NA,"",       4.29326,      -2.32558,      -3.60884,   96.9109E-06
C:/temp/dataset/3/3_10.odb,Step-1,Increment      1: Step Time =    1.000,"PART-1-1",           248,      -9.99283,      -27.5363,            0.,NA,NA,"",   959.946E-06,   899.639E-06,   334.881E-06,   349.062E-06
C:/temp/dataset/3/3_10.odb,Step-1,Increment      1: Step Time =    1.000,"PART-1-1",           249,       3.80746,   187.829E-03,            0.,NA,NA,"",   704.842E-03,  -482.640E-03,  -513.673E-03,   9.30519E-03
C:/temp/dataset/3/3_10.odb,Step-1,Increment      1: Step Time =    1.000,"PART-1-1",           250,       11.4886,       7.12458,            0.,NA,NA,"",   859.053E-03,  -850.320E-03,  -122.178E-03,   3.36109E-03
C:/temp/dataset/3/3_10.odb,Step-1,Increment      1: Step Time =    1.000,"PART-1-1",           251,       5.25951,      -23.9756,            0.,NA,NA,"",   27.4325E-03,   9.03785E-03,  -25.9010E-03,   7.22109E-03
C:/temp/dataset/3/3_10.odb,Step-1,Increment      1: Step Time =    1.000,"PART-1-1",           252,       9.85798,       22.5791,            0.,NA,NA,"",       2.59208,      -2.55551,  -433.892E-03,   8.60877E-03
C:/temp/dataset/3/3_10.odb,Step-1,Increment      1: Step Time =    1.000,"PART-1-1",           253,       7.38133,       22.5911,            0.,NA,NA,"",       2.66236,      -2.54193,  -791.700E-03,   15.6401E-03
C:/temp/dataset/3/3_10.odb,Step-1,Increment      1: Step Time =    1.000,"PART-1-1",           254,       9.03817,      -10.9527,            0.,NA,NA,"",   139.874E-03,  -32.7101E-03,  -135.995E-03,   10.3076E-03
C:/temp/dataset/3/3_10.odb,Step-1,Increment      1: Step Time =    1.000,"PART-1-1",           255,       7.30212,      -21.2110,            0.,NA,NA,"",   62.8692E-03,   29.8240E-03,  -55.3450E-03,   11.2116E-03
C:/temp/dataset/3/3_10.odb,Step-1,Increment      1: Step Time =    1.000,"PART-1-1",           256,       8.48263,      -3.88795,            0.,NA,NA,"",   336.116E-03,  -254.079E-03,  -220.041E-03,   10.7269E-03
C:/temp/dataset/3/3_10.odb,Step-1,Increment      1: Step Time =    1.000,"PART-1-1",           257,       8.48912,      -1.65164,            0.,NA,NA,"",   434.696E-03,  -359.107E-03,  -244.956E-03,   12.5452E-03
C:/temp/dataset/3/3_10.odb,Step-1,Increment      1: Step Time =    1.000,"PART-1-1",           258,       8.19007,       3.36514,            0.,NA,NA,"",   695.878E-03,  -614.918E-03,  -325.763E-03,   15.2878E-03
C:/temp/dataset/3/3_10.odb,Step-1,Increment      1: Step Time =    1.000,"PART-1-1",           259,       6.78208,  -317.133E-03,            0.,NA,NA,"",   561.160E-03,  -437.490E-03,  -351.429E-03,   15.7686E-03
C:/temp/dataset/3/3_10.odb,Step-1,Increment      1: Step Time =    1.000,"PART-1-1",           260,       11.8604,      -10.2109,            0.,NA,NA,"",   82.2382E-03,  -42.5530E-03,  -70.3731E-03,   2.35922E-03
C:/temp/dataset/3/3_10.odb,Step-1,Increment      1: Step Time =    1.000,"PART-1-1",           261,       5.00218,  -627.613E-03,            0.,NA,NA,"",   619.771E-03,  -435.156E-03,  -441.311E-03,   13.5812E-03
C:/temp/dataset/3/3_10.odb,Step-1,Increment      1: Step Time =    1.000,"PART-1-1",           262,       11.1460,      -8.45072,            0.,NA,NA,"",   127.655E-03,  -86.3718E-03,  -93.9981E-03,   3.34757E-03
C:/temp/dataset/3/3_10.odb,Step-1,Increment      1: Step Time =    1.000,"PART-1-1",           263,       11.7180,       5.54683,            0.,NA,NA,"",   750.002E-03,  -742.925E-03,  -102.790E-03,   4.33555E-03
C:/temp/dataset/3/3_10.odb,Step-1,Increment      1: Step Time =    1.000,"PART-1-1",           264,       5.25136,      -21.5985,            0.,NA,NA,"",   45.7907E-03,   16.7382E-03,  -42.6219E-03,   11.0437E-03
C:/temp/dataset/3/3_10.odb,Step-1,Increment      1: Step Time =    1.000,"PART-1-1",           265,       12.4723,       27.5096,            0.,NA,NA,"",       3.34429,      -3.34219,  -118.701E-03,   4.96581E-03
C:/temp/dataset/3/3_10.odb,Step-1,Increment      1: Step Time =    1.000,"PART-1-1",           266,       5.87727,      -22.7682,            0.,NA,NA,"",   40.2330E-03,   15.1453E-03,  -37.2735E-03,   9.02438E-03
C:/temp/dataset/3/3_10.odb,Step-1,Increment      1: Step Time =    1.000,"PART-1-1",           267,       7.32369,      -22.7299,            0.,NA,NA,"",   47.6797E-03,   22.9431E-03,  -41.7967E-03,   9.91099E-03
C:/temp/dataset/3/3_10.odb,Step-1,Increment      1: Step Time =    1.000,"PART-1-1",           268,       11.4923,      -4.55460,            0.,NA,NA,"",   238.429E-03,  -220.367E-03,  -91.0326E-03,   1.71008E-03
C:/temp/dataset/3/3_10.odb,Step-1,Increment      1: Step Time =    1.000,"PART-1-1",           269,       11.2115,       8.96325,            0.,NA,NA,"",       1.00157,  -990.305E-03,  -149.795E-03,   2.41594E-03
C:/temp/dataset/3/3_10.odb,Step-1,Increment      1: Step Time =    1.000,"PART-1-1",           270,       10.8046,       10.5255,            0.,NA,NA,"",       1.13797,      -1.12138,  -193.562E-03,   3.29468E-03
C:/temp/dataset/3/3_10.odb,Step-1,Increment      1: Step Time =    1.000,"PART-1-1",           271,       7.35536,      -24.2380,            0.,NA,NA,"",   34.2995E-03,   16.7171E-03,  -29.9498E-03,   8.39174E-03
C:/temp/dataset/3/3_10.odb,Step-1,Increment      1: Step Time =    1.000,"PART-1-1",           272,      -3.82134,   150.711E-03,            0.,NA,NA,"",       1.01832,  -474.273E-03,  -901.137E-03,   583.946E-06
C:/temp/dataset/3/3_10.odb,Step-1,Increment      1: Step Time =    1.000,"PART-1-1",           273,       3.09609,      -1.70207,            0.,NA,NA,"",   662.209E-03,  -388.990E-03,  -535.918E-03,   6.91480E-03
C:/temp/dataset/3/3_10.odb,Step-1,Increment      1: Step Time =    1.000,"PART-1-1",           274,       4.56419,      -1.78689,            0.,NA,NA,"",   590.071E-03,  -380.323E-03,  -451.152E-03,   12.5763E-03
C:/temp/dataset/3/3_10.odb,Step-1,Increment      1: Step Time =    1.000,"PART-1-1",           275,       9.44492,      -23.8624,            0.,NA,NA,"",   42.2974E-03,   26.8920E-03,  -32.6480E-03,   8.51337E-03
C:/temp/dataset/3/3_10.odb,Step-1,Increment      1: Step Time =    1.000,"PART-1-1",           276,       8.77427,      -22.6651,            0.,NA,NA,"",   51.3780E-03,   29.8780E-03,  -41.7973E-03,   9.23553E-03
C:/temp/dataset/3/3_10.odb,Step-1,Increment      1: Step Time =    1.000,"PART-1-1",           277,       10.1837,      -9.28900,            0.,NA,NA,"",   135.460E-03,  -65.6591E-03,  -118.483E-03,   6.46315E-03
C:/temp/dataset/3/3_10.odb,Step-1,Increment      1: Step Time =    1.000,"PART-1-1",           278,       10.4979,      -10.7612,            0.,NA,NA,"",   107.227E-03,  -32.3043E-03,  -102.246E-03,   6.12939E-03
C:/temp/dataset/3/3_10.odb,Step-1,Increment      1: Step Time =    1.000,"PART-1-1",           279,       11.2325,      -12.6180,            0.,NA,NA,"",   78.3254E-03,   1.52665E-03,  -78.3105E-03,   4.61595E-03
C:/temp/dataset/3/3_10.odb,Step-1,Increment      1: Step Time =    1.000,"PART-1-1",           280,      -13.7500,       22.5017,            0.,NA,NA,"",       4.78164,      -2.27738,      -4.20448,   10.3546E-06
C:/temp/dataset/3/3_10.odb,Step-1,Increment      1: Step Time =    1.000,"PART-1-1",           281,          -15.,         21.25,            0.,NA,NA,"",       4.84787,      -2.06259,      -4.38721,   2.13732E-06
C:/temp/dataset/3/3_10.odb,Step-1,Increment      1: Step Time =    1.000,"PART-1-1",           282,        -13.75,           20.,            0.,NA,NA,"",       4.57658,      -1.87984,      -4.17269,   750.719E-09
C:/temp/dataset/3/3_10.odb,Step-1,Increment      1: Step Time =    1.000,"PART-1-1",           283,      -12.5000,       21.2517,            0.,NA,NA,"",       4.50637,      -2.09462,      -3.98997,   9.20218E-06
C:/temp/dataset/3/3_10.odb,Step-1,Increment      1: Step Time =    1.000,"PART-1-1",           284,        -11.25,           30.,            0.,NA,NA,"",       5.24255,      -3.50088,      -3.90233,   24.6021E-06
C:/temp/dataset/3/3_10.odb,Step-1,Increment      1: Step Time =    1.000,"PART-1-1",           285,      -12.5009,       28.7510,            0.,NA,NA,"",       5.24314,      -3.28645,      -4.08531,   9.63741E-06
C:/temp/dataset/3/3_10.odb,Step-1,Increment      1: Step Time =    1.000,"PART-1-1",           286,      -11.2523,       27.5017,            0.,NA,NA,"",       4.96162,      -3.10378,      -3.87096,   58.0767E-06
C:/temp/dataset/3/3_10.odb,Step-1,Increment      1: Step Time =    1.000,"PART-1-1",           287,      -10.0014,       28.7507,            0.,NA,NA,"",       4.96095,      -3.31816,      -3.68792,   54.9071E-06
C:/temp/dataset/3/3_10.odb,Step-1,Increment      1: Step Time =    1.000,"PART-1-1",           288,      -8.75282,       27.5029,            0.,NA,NA,"",       4.67962,      -3.13582,      -3.47355,   200.580E-06
C:/temp/dataset/3/3_10.odb,Step-1,Increment      1: Step Time =    1.000,"PART-1-1",           289,      -10.0027,       26.2541,            0.,NA,NA,"",       4.68028,      -2.92147,      -3.65651,   94.1163E-06
C:/temp/dataset/3/3_10.odb,Step-1,Increment      1: Step Time =    1.000,"PART-1-1",           290,      -8.75320,       25.0087,            0.,NA,NA,"",       4.39935,      -2.73957,      -3.44224,   214.725E-06
C:/temp/dataset/3/3_10.odb,Step-1,Increment      1: Step Time =    1.000,"PART-1-1",           291,      -7.50334,       26.2575,            0.,NA,NA,"",       4.39878,      -2.95409,      -3.25924,   272.213E-06
C:/temp/dataset/3/3_10.odb,Step-1,Increment      1: Step Time =    1.000,"PART-1-1",           292,  -10.1921E-03,       23.8015,            0.,NA,NA,"",       3.34920,      -2.66153,      -2.03308,   2.65613E-03
C:/temp/dataset/3/3_10.odb,Step-1,Increment      1: Step Time =    1.000,"PART-1-1",           293,       1.23656,       22.5490,            0.,NA,NA,"",       3.06926,      -2.47869,      -1.81011,   5.25054E-03
C:/temp/dataset/3/3_10.odb,Step-1,Increment      1: Step Time =    1.000,"PART-1-1",           294,       2.47060,       23.8222,            0.,NA,NA,"",       3.14755,      -2.69593,      -1.62450,   9.55612E-03
C:/temp/dataset/3/3_10.odb,Step-1,Increment      1: Step Time =    1.000,"PART-1-1",           295,       1.22385,       25.0746,            0.,NA,NA,"",       3.42192,      -2.87736,      -1.85211,   6.76627E-03
C:/temp/dataset/3/3_10.odb,Step-1,Increment      1: Step Time =    1.000,"PART-1-1",           296,       13.7132,       25.0166,            0.,NA,NA,"",       2.97052,      -2.96913,   90.9768E-03,   5.58490E-03
C:/temp/dataset/3/3_10.odb,Step-1,Increment      1: Step Time =    1.000,"PART-1-1",           297,           15.,         26.25,            0.,NA,NA,"",       3.18913,      -3.17725,   274.980E-03,   4.15567E-03
C:/temp/dataset/3/3_10.odb,Step-1,Increment      1: Step Time =    1.000,"PART-1-1",           298,       13.7362,       27.5048,            0.,NA,NA,"",       3.35648,      -3.35574,   70.6487E-03,   2.87810E-03
C:/temp/dataset/3/3_10.odb,Step-1,Increment      1: Step Time =    1.000,"PART-1-1",           299,       12.4494,       26.2714,            0.,NA,NA,"",       3.15080,      -3.14895,  -107.804E-03,   5.78651E-03
C:/temp/dataset/3/3_10.odb,Step-1,Increment      1: Step Time =    1.000,"PART-1-1",           300,       6.19248,       27.5744,            0.,NA,NA,"",       3.47559,      -3.29934,      -1.09275,   11.8897E-03
C:/temp/dataset/3/3_10.odb,Step-1,Increment      1: Step Time =    1.000,"PART-1-1",           301,       7.46746,       28.7842,            0.,NA,NA,"",       3.61243,      -3.49599,  -909.813E-03,   9.46583E-03
C:/temp/dataset/3/3_10.odb,Step-1,Increment      1: Step Time =    1.000,"PART-1-1",           302,          6.25,           30.,            0.,NA,NA,"",       3.85596,      -3.68364,      -1.13983,   10.9844E-03
C:/temp/dataset/3/3_10.odb,Step-1,Increment      1: Step Time =    1.000,"PART-1-1",           303,       4.97503,       28.7903,            0.,NA,NA,"",       3.72441,      -3.48289,      -1.31936,   12.3562E-03
C:/temp/dataset/3/3_10.odb,Step-1,Increment      1: Step Time =    1.000,"PART-1-1",           304,       11.0878,       17.5306,            0.,NA,NA,"",       1.87852,      -1.86630,  -213.896E-03,   2.10243E-03
C:/temp/dataset/3/3_10.odb,Step-1,Increment      1: Step Time =    1.000,"PART-1-1",           305,       12.3722,       18.7756,            0.,NA,NA,"",       2.04101,      -2.04011,  -60.5719E-03,   6.44726E-03
C:/temp/dataset/3/3_10.odb,Step-1,Increment      1: Step Time =    1.000,"PART-1-1",           306,       11.1059,       20.0490,            0.,NA,NA,"",       2.21186,      -2.19959,  -232.644E-03,   5.11705E-03
C:/temp/dataset/3/3_10.odb,Step-1,Increment      1: Step Time =    1.000,"PART-1-1",           307,       9.82152,       18.8041,            0.,NA,NA,"",       2.05556,      -2.01908,  -385.561E-03,   5.75489E-03
C:/temp/dataset/3/3_10.odb,Step-1,Increment      1: Step Time =    1.000,"PART-1-1",           308,       9.63171,       13.8797,            0.,NA,NA,"",       1.48178,      -1.44147,  -343.296E-03,   8.86169E-03
C:/temp/dataset/3/3_10.odb,Step-1,Increment      1: Step Time =    1.000,"PART-1-1",           309,       8.52517,       15.0687,            0.,NA,NA,"",       1.63971,      -1.56660,  -484.153E-03,   14.9090E-03
C:/temp/dataset/3/3_10.odb,Step-1,Increment      1: Step Time =    1.000,"PART-1-1",           310,       7.25683,       13.8735,            0.,NA,NA,"",       1.56156,      -1.44267,  -597.658E-03,   21.8190E-03
C:/temp/dataset/3/3_10.odb,Step-1,Increment      1: Step Time =    1.000,"PART-1-1",           311,       8.36336,       12.6844,            0.,NA,NA,"",       1.39711,      -1.32055,  -456.141E-03,   15.6790E-03
C:/temp/dataset/3/3_10.odb,Step-1,Increment      1: Step Time =    1.000,"PART-1-1",           312,       14.0118,       9.82001,            0.,NA,NA,"",       1.08450,      -1.08065,   91.2781E-03,   13.1899E-03
C:/temp/dataset/3/3_10.odb,Step-1,Increment      1: Step Time =    1.000,"PART-1-1",           313,           15.,         11.25,            0.,NA,NA,"",       1.23607,      -1.22077,   193.916E-03,   18.7597E-03
C:/temp/dataset/3/3_10.odb,Step-1,Increment      1: Step Time =    1.000,"PART-1-1",           314,       13.5880,       12.3315,            0.,NA,NA,"",       1.31084,      -1.30899,   69.4785E-03,   11.7373E-03
C:/temp/dataset/3/3_10.odb,Step-1,Increment      1: Step Time =    1.000,"PART-1-1",           315,       12.5998,       10.9015,            0.,NA,NA,"",       1.16509,      -1.16471,  -29.6722E-03,   6.27585E-03
C:/temp/dataset/3/3_10.odb,Step-1,Increment      1: Step Time =    1.000,"PART-1-1",           316,       4.40482,  -219.892E-03,            0.,NA,NA,"",   663.102E-03,  -459.314E-03,  -478.263E-03,   11.6450E-03
C:/temp/dataset/3/3_10.odb,Step-1,Increment      1: Step Time =    1.000,"PART-1-1",           317,       3.45177,  -757.122E-03,            0.,NA,NA,"",   681.414E-03,  -436.198E-03,  -523.503E-03,   7.71011E-03
C:/temp/dataset/3/3_10.odb,Step-1,Increment      1: Step Time =    1.000,"PART-1-1",           318,       3.83014,      -1.74448,            0.,NA,NA,"",   626.409E-03,  -385.067E-03,  -494.076E-03,   9.96343E-03
C:/temp/dataset/3/3_10.odb,Step-1,Increment      1: Step Time =    1.000,"PART-1-1",           319,       4.78319,      -1.20725,            0.,NA,NA,"",   604.102E-03,  -407.819E-03,  -445.671E-03,   12.7553E-03
C:/temp/dataset/3/3_10.odb,Step-1,Increment      1: Step Time =    1.000,"PART-1-1",           320,       10.3408,      -10.0251,            0.,NA,NA,"",   120.200E-03,  -48.1498E-03,  -110.134E-03,   6.29684E-03
C:/temp/dataset/3/3_10.odb,Step-1,Increment      1: Step Time =    1.000,"PART-1-1",           321,       11.1792,      -10.4860,            0.,NA,NA,"",   94.2803E-03,  -36.9665E-03,  -86.7309E-03,   4.12945E-03
C:/temp/dataset/3/3_10.odb,Step-1,Increment      1: Step Time =    1.000,"PART-1-1",           322,       11.5032,      -9.33080,            0.,NA,NA,"",   103.104E-03,  -63.2905E-03,  -81.3923E-03,   2.83283E-03
C:/temp/dataset/3/3_10.odb,Step-1,Increment      1: Step Time =    1.000,"PART-1-1",           323,       10.6649,      -8.86986,            0.,NA,NA,"",   130.864E-03,  -75.5357E-03,  -106.864E-03,   4.91462E-03
C:/temp/dataset/3/3_10.odb,Step-1,Increment      1: Step Time =    1.000,"PART-1-1",           324,       9.41034,      -12.1888,            0.,NA,NA,"",   117.447E-03,  -9.62420E-03,  -117.052E-03,   9.32028E-03
C:/temp/dataset/3/3_10.odb,Step-1,Increment      1: Step Time =    1.000,"PART-1-1",           325,       10.5075,      -13.0214,            0.,NA,NA,"",   90.4072E-03,   5.97866E-03,  -90.2093E-03,   6.38692E-03
C:/temp/dataset/3/3_10.odb,Step-1,Increment      1: Step Time =    1.000,"PART-1-1",           326,       10.8652,      -11.6896,            0.,NA,NA,"",   90.5594E-03,  -14.1554E-03,  -89.4462E-03,   5.31050E-03
C:/temp/dataset/3/3_10.odb,Step-1,Increment      1: Step Time =    1.000,"PART-1-1",           327,       9.76802,      -10.8570,            0.,NA,NA,"",   123.533E-03,  -32.1104E-03,  -119.287E-03,   8.17208E-03
C:/temp/dataset/3/3_10.odb,Step-1,Increment      1: Step Time =    1.000,"PART-1-1",           328,       6.12016,      -19.7528,            0.,NA,NA,"",   75.7501E-03,   31.4905E-03,  -68.8943E-03,   13.3516E-03
C:/temp/dataset/3/3_10.odb,Step-1,Increment      1: Step Time =    1.000,"PART-1-1",           329,       7.15653,      -18.4145,            0.,NA,NA,"",   89.1146E-03,   34.7090E-03,  -82.0774E-03,   11.5827E-03
C:/temp/dataset/3/3_10.odb,Step-1,Increment      1: Step Time =    1.000,"PART-1-1",           330,       6.03637,      -17.4116,            0.,NA,NA,"",   102.836E-03,   24.2509E-03,  -99.9354E-03,   16.3467E-03
C:/temp/dataset/3/3_10.odb,Step-1,Increment      1: Step Time =    1.000,"PART-1-1",           331,            5.,        -18.75,            0.,NA,NA,"",   84.1979E-03,   21.6708E-03,  -81.3613E-03,   20.6758E-03
C:/temp/dataset/3/3_10.odb,Step-1,Increment      1: Step Time =    1.000,"PART-1-1",           332,       13.3604,      -22.4969,            0.,NA,NA,"",   56.5168E-03,   43.7721E-03,  -35.7512E-03,   4.10421E-03
C:/temp/dataset/3/3_10.odb,Step-1,Increment      1: Step Time =    1.000,"PART-1-1",           333,           15.,        -21.25,            0.,NA,NA,"",   62.7541E-03,   48.8615E-03,  -39.3780E-03,   549.827E-06
C:/temp/dataset/3/3_10.odb,Step-1,Increment      1: Step Time =    1.000,"PART-1-1",           334,       13.4842,      -19.7901,            0.,NA,NA,"",   65.0591E-03,   50.1357E-03,  -41.4620E-03,   2.53036E-03
C:/temp/dataset/3/3_10.odb,Step-1,Increment      1: Step Time =    1.000,"PART-1-1",           335,       11.8446,      -21.0370,            0.,NA,NA,"",   63.0486E-03,   45.8692E-03,  -43.2567E-03,   5.95316E-03
C:/temp/dataset/3/3_10.odb,Step-1,Increment      1: Step Time =    1.000,"PART-1-1",           336,       1.65000,            5.,            0.,NA,NA,"",   957.359E-03,  -717.249E-03,  -634.106E-03,   2.71646E-03
C:/temp/dataset/3/3_10.odb,Step-1,Increment      1: Step Time =    1.000,"PART-1-1",           337,   440.654E-03,       4.00571,            0.,NA,NA,"",   963.022E-03,  -672.052E-03,  -689.752E-03,   1.50629E-03
C:/temp/dataset/3/3_10.odb,Step-1,Increment      1: Step Time =    1.000,"PART-1-1",           338,       1.47063,       2.87974,            0.,NA,NA,"",   889.917E-03,  -619.398E-03,  -638.982E-03,   2.04823E-03
C:/temp/dataset/3/3_10.odb,Step-1,Increment      1: Step Time =    1.000,"PART-1-1",           339,       2.67998,       3.87403,            0.,NA,NA,"",   889.181E-03,  -667.163E-03,  -587.824E-03,   2.81002E-03
C:/temp/dataset/3/3_10.odb,Step-1,Increment      1: Step Time =    1.000,"PART-1-1",           340,      -1.46180,      -3.99231,            0.,NA,NA,"",   819.399E-03,  -263.374E-03,  -775.918E-03,   859.473E-06
C:/temp/dataset/3/3_10.odb,Step-1,Increment      1: Step Time =    1.000,"PART-1-1",           341,     -500.E-03,           -5.,            0.,NA,NA,"",   754.205E-03,  -210.906E-03,  -724.116E-03,   2.06347E-03
C:/temp/dataset/3/3_10.odb,Step-1,Increment      1: Step Time =    1.000,"PART-1-1",           342,   718.491E-03,      -4.10961,            0.,NA,NA,"",   710.228E-03,  -257.989E-03,  -661.714E-03,   1.50303E-03
C:/temp/dataset/3/3_10.odb,Step-1,Increment      1: Step Time =    1.000,"PART-1-1",           343,  -243.313E-03,      -3.10192,            0.,NA,NA,"",   779.248E-03,  -311.548E-03,  -714.259E-03,   769.149E-06
C:/temp/dataset/3/3_10.odb,Step-1,Increment      1: Step Time =    1.000,"PART-1-1",           344,      -3.82017,      -3.74247,            0.,NA,NA,"",   937.780E-03,  -274.148E-03,  -896.813E-03,   396.872E-06
C:/temp/dataset/3/3_10.odb,Step-1,Increment      1: Step Time =    1.000,"PART-1-1",           345,      -2.71667,           -5.,            0.,NA,NA,"",   864.638E-03,  -210.478E-03,  -838.629E-03,   899.047E-06
C:/temp/dataset/3/3_10.odb,Step-1,Increment      1: Step Time =    1.000,"PART-1-1",           346,      -2.56530,      -2.73478,            0.,NA,NA,"",   896.317E-03,  -327.758E-03,  -834.242E-03,   714.774E-06
C:/temp/dataset/3/3_10.odb,Step-1,Increment      1: Step Time =    1.000,"PART-1-1",           347,      -13.8092,  -21.6491E-03,            0.,NA,NA,"",       1.48096,  -451.407E-03,      -1.41048,   750.678E-09
C:/temp/dataset/3/3_10.odb,Step-1,Increment      1: Step Time =    1.000,"PART-1-1",           348,      -12.6581,       1.21263,            0.,NA,NA,"",       1.44835,  -515.882E-03,      -1.35336,   3.53247E-06
C:/temp/dataset/3/3_10.odb,Step-1,Increment      1: Step Time =    1.000,"PART-1-1",           349,      -13.8489,       2.48428,            0.,NA,NA,"",       1.52968,  -579.219E-03,      -1.41577,   1.78412E-06
C:/temp/dataset/3/3_10.odb,Step-1,Increment      1: Step Time =    1.000,"PART-1-1",           350,          -15.,          1.25,            0.,NA,NA,"",       1.56025,  -514.739E-03,      -1.47290,   5.56978E-06
C:/temp/dataset/3/3_10.odb,Step-1,Increment      1: Step Time =    1.000,"PART-1-1",           351,      -8.84172,   345.754E-03,            0.,NA,NA,"",       1.25182,  -476.690E-03,      -1.15751,   80.0134E-06
C:/temp/dataset/3/3_10.odb,Step-1,Increment      1: Step Time =    1.000,"PART-1-1",           352,      -9.20019,  -788.270E-03,            0.,NA,NA,"",       1.24667,  -418.344E-03,      -1.17438,   58.7347E-06
C:/temp/dataset/3/3_10.odb,Step-1,Increment      1: Step Time =    1.000,"PART-1-1",           353,      -7.61937,      -1.21646,            0.,NA,NA,"",       1.16367,  -398.622E-03,      -1.09326,   137.178E-06
C:/temp/dataset/3/3_10.odb,Step-1,Increment      1: Step Time =    1.000,"PART-1-1",           354,      -7.26090,  -82.4387E-03,            0.,NA,NA,"",       1.16934,  -457.021E-03,      -1.07634,   147.353E-06
C:/temp/dataset/3/3_10.odb,Step-1,Increment      1: Step Time =    1.000,"PART-1-1",           355,      -12.7466,      -3.77621,            0.,NA,NA,"",       1.37642,  -261.267E-03,      -1.35139,   2.69319E-06
C:/temp/dataset/3/3_10.odb,Step-1,Increment      1: Step Time =    1.000,"PART-1-1",           356,      -13.8633,      -2.52621,            0.,NA,NA,"",       1.44663,  -323.571E-03,      -1.40998,   1.83965E-06
C:/temp/dataset/3/3_10.odb,Step-1,Increment      1: Step Time =    1.000,"PART-1-1",           357,          -15.,         -3.75,            0.,NA,NA,"",       1.48918,  -259.671E-03,      -1.46637,   1.70653E-06
C:/temp/dataset/3/3_10.odb,Step-1,Increment      1: Step Time =    1.000,"PART-1-1",           358,      -13.8833,           -5.,            0.,NA,NA,"",       1.42155,  -197.366E-03,      -1.40778,   1.46758E-06
C:/temp/dataset/3/3_10.odb,Step-1,Increment      1: Step Time =    1.000,"PART-1-1",           359,      -5.03830,      -2.71522,            0.,NA,NA,"",       1.01375,  -325.457E-03,  -960.084E-03,   368.971E-06
C:/temp/dataset/3/3_10.odb,Step-1,Increment      1: Step Time =    1.000,"PART-1-1",           360,      -4.43911,      -1.50749,            0.,NA,NA,"",       1.00874,  -388.346E-03,  -930.989E-03,   410.952E-06
C:/temp/dataset/3/3_10.odb,Step-1,Increment      1: Step Time =    1.000,"PART-1-1",           361,      -5.95808,  -763.119E-03,            0.,NA,NA,"",       1.09465,  -424.151E-03,      -1.00914,   285.398E-06
C:/temp/dataset/3/3_10.odb,Step-1,Increment      1: Step Time =    1.000,"PART-1-1",           362,      -6.55726,      -1.97085,            0.,NA,NA,"",       1.09940,  -361.525E-03,      -1.03826,   182.367E-06
C:/temp/dataset/3/3_10.odb,Step-1,Increment      1: Step Time =    1.000,"PART-1-1",           363,          6.25,          -30.,            0.,NA,NA,"",            0.,   310.906E-42,  -7.52661E-39,   3.94539E-03
C:/temp/dataset/3/3_10.odb,Step-1,Increment      1: Step Time =    1.000,"PART-1-1",           364,       7.47038,      -28.9473,            0.,NA,NA,"",   4.38820E-03,   2.03628E-03,  -3.88713E-03,   4.96211E-03
C:/temp/dataset/3/3_10.odb,Step-1,Increment      1: Step Time =    1.000,"PART-1-1",           365,       6.18647,      -27.8786,            0.,NA,NA,"",   8.25446E-03,   2.52498E-03,  -7.85879E-03,   4.86601E-03
C:/temp/dataset/3/3_10.odb,Step-1,Increment      1: Step Time =    1.000,"PART-1-1",           366,       4.96608,      -28.9312,            0.,NA,NA,"",   3.12253E-03,  -71.2391E-06,  -3.12172E-03,   3.78128E-03
C:/temp/dataset/3/3_10.odb,Step-1,Increment      1: Step Time =    1.000,"PART-1-1",           367,       3.70492,      -27.8047,            0.,NA,NA,"",   5.59839E-03,  -568.670E-06,  -5.56943E-03,   3.27335E-03
C:/temp/dataset/3/3_10.odb,Step-1,Increment      1: Step Time =    1.000,"PART-1-1",           368,       2.48883,      -28.8735,            0.,NA,NA,"",   2.35418E-03,  -1.20549E-03,  -2.02211E-03,   2.40371E-03
C:/temp/dataset/3/3_10.odb,Step-1,Increment      1: Step Time =    1.000,"PART-1-1",           369,          3.75,          -30.,            0.,NA,NA,"",            0.,  -770.262E-42,  -5.45605E-39,   2.92346E-03
C:/temp/dataset/3/3_10.odb,Step-1,Increment      1: Step Time =    1.000,"PART-1-1",           370,      -3.72203,      -27.5999,            0.,NA,NA,"",   311.967E-06,  -311.908E-06,  -6.07721E-06,   415.021E-06
C:/temp/dataset/3/3_10.odb,Step-1,Increment      1: Step Time =    1.000,"PART-1-1",           371,      -4.98725,      -28.7922,            0.,NA,NA,"",   148.864E-06,  -146.157E-06,   28.2621E-06,   195.726E-06
C:/temp/dataset/3/3_10.odb,Step-1,Increment      1: Step Time =    1.000,"PART-1-1",           372,         -3.75,          -30.,            0.,NA,NA,"",            0.,  -333.282E-42,  -430.016E-42,   426.017E-06
C:/temp/dataset/3/3_10.odb,Step-1,Increment      1: Step Time =    1.000,"PART-1-1",           373,      -2.48478,      -28.8077,            0.,NA,NA,"",   756.122E-06,  -704.236E-06,  -275.265E-06,   510.472E-06
C:/temp/dataset/3/3_10.odb,Step-1,Increment      1: Step Time =    1.000,"PART-1-1",           374,      -13.7501,      -27.5099,            0.,NA,NA,"",   1.34024E-03,   1.17324E-03,   647.868E-06,   312.891E-06
C:/temp/dataset/3/3_10.odb,Step-1,Increment      1: Step Time =    1.000,"PART-1-1",           375,          -15.,        -28.75,            0.,NA,NA,"",   970.625E-06,   747.852E-06,   618.732E-06,   492.274E-06
C:/temp/dataset/3/3_10.odb,Step-1,Increment      1: Step Time =    1.000,"PART-1-1",           376,        -13.75,          -30.,            0.,NA,NA,"",            0.,   81.4252E-42,   578.766E-42,   475.423E-06
C:/temp/dataset/3/3_10.odb,Step-1,Increment      1: Step Time =    1.000,"PART-1-1",           377,      -12.5001,      -28.7599,            0.,NA,NA,"",   519.793E-06,   472.140E-06,   217.414E-06,   319.864E-06
C:/temp/dataset/3/3_10.odb,Step-1,Increment      1: Step Time =    1.000,"PART-1-1",           378,       8.15833,      -10.8587,            0.,NA,NA,"",   162.426E-03,  -38.6688E-03,  -157.756E-03,   13.0567E-03
C:/temp/dataset/3/3_10.odb,Step-1,Increment      1: Step Time =    1.000,"PART-1-1",           379,       9.00498,      -9.90697,            0.,NA,NA,"",   156.235E-03,  -54.5818E-03,  -146.390E-03,   10.5092E-03
C:/temp/dataset/3/3_10.odb,Step-1,Increment      1: Step Time =    1.000,"PART-1-1",           380,       8.08915,      -8.55627,            0.,NA,NA,"",   207.748E-03,  -90.7872E-03,  -186.861E-03,   13.7628E-03
C:/temp/dataset/3/3_10.odb,Step-1,Increment      1: Step Time =    1.000,"PART-1-1",           381,       7.24249,      -9.50802,            0.,NA,NA,"",   211.307E-03,  -72.3650E-03,  -198.529E-03,   16.1991E-03
C:/temp/dataset/3/3_10.odb,Step-1,Increment      1: Step Time =    1.000,"PART-1-1",           382,       13.9816,      -2.51124,            0.,NA,NA,"",   313.967E-03,  -313.535E-03,   16.4773E-03,   5.43883E-03
C:/temp/dataset/3/3_10.odb,Step-1,Increment      1: Step Time =    1.000,"PART-1-1",           383,           15.,         -1.25,            0.,NA,NA,"",   383.739E-03,  -377.227E-03,   70.3952E-03,   8.43370E-03
C:/temp/dataset/3/3_10.odb,Step-1,Increment      1: Step Time =    1.000,"PART-1-1",           384,       13.8213,  -48.4001E-03,            0.,NA,NA,"",   432.211E-03,  -431.844E-03,   17.7933E-03,   5.26535E-03
C:/temp/dataset/3/3_10.odb,Step-1,Increment      1: Step Time =    1.000,"PART-1-1",           385,       12.8030,      -1.30964,            0.,NA,NA,"",   368.607E-03,  -366.855E-03,  -35.9026E-03,   2.19265E-03
C:/temp/dataset/3/3_10.odb,Step-1,Increment      1: Step Time =    1.000,"PART-1-1",           386,           15.,          1.25,            0.,NA,NA,"",   512.363E-03,  -505.005E-03,   86.5236E-03,   9.64128E-03
C:/temp/dataset/3/3_10.odb,Step-1,Increment      1: Step Time =    1.000,"PART-1-1",           387,       13.5709,       2.55070,            0.,NA,NA,"",   569.479E-03,  -569.318E-03,   13.5321E-03,   6.32477E-03
C:/temp/dataset/3/3_10.odb,Step-1,Increment      1: Step Time =    1.000,"PART-1-1",           388,       12.3922,       1.25230,            0.,NA,NA,"",   498.426E-03,  -495.137E-03,  -57.1603E-03,   3.12504E-03
C:/temp/dataset/3/3_10.odb,Step-1,Increment      1: Step Time =    1.000,"PART-1-1",           389,      -5.00532,       26.2655,            0.,NA,NA,"",       4.13768,      -2.98788,      -2.86234,   565.530E-06
C:/temp/dataset/3/3_10.odb,Step-1,Increment      1: Step Time =    1.000,"PART-1-1",           390,      -3.75495,       25.0275,            0.,NA,NA,"",       3.85984,      -2.80782,      -2.64849,   635.372E-06
C:/temp/dataset/3/3_10.odb,Step-1,Increment      1: Step Time =    1.000,"PART-1-1",           391,      -2.50780,       26.2820,            0.,NA,NA,"",       3.90179,      -3.02337,      -2.46642,   680.092E-06
C:/temp/dataset/3/3_10.odb,Step-1,Increment      1: Step Time =    1.000,"PART-1-1",           392,      -3.75817,       27.5199,            0.,NA,NA,"",       4.17595,      -3.20265,      -2.67986,   769.125E-06
C:/temp/dataset/3/3_10.odb,Step-1,Increment      1: Step Time =    1.000,"PART-1-1",           393,      -5.00193,       23.7670,            0.,NA,NA,"",       3.83731,      -2.59058,      -2.83087,   535.408E-06
C:/temp/dataset/3/3_10.odb,Step-1,Increment      1: Step Time =    1.000,"PART-1-1",           394,      -6.25406,       25.0149,            0.,NA,NA,"",       4.11858,      -2.77291,      -3.04526,   487.990E-06
C:/temp/dataset/3/3_10.odb,Step-1,Increment      1: Step Time =    1.000,"PART-1-1",           395,      -7.50285,       23.7600,            0.,NA,NA,"",       4.11805,      -2.55708,      -3.22794,   265.057E-06
C:/temp/dataset/3/3_10.odb,Step-1,Increment      1: Step Time =    1.000,"PART-1-1",           396,      -6.25071,       22.5121,            0.,NA,NA,"",       3.83647,      -2.37444,      -3.01339,   426.691E-06
C:/temp/dataset/3/3_10.odb,Step-1,Increment      1: Step Time =    1.000,"PART-1-1",           397,      -12.5007,       23.7543,            0.,NA,NA,"",       4.73150,      -2.49234,      -4.02186,   23.2966E-06
C:/temp/dataset/3/3_10.odb,Step-1,Increment      1: Step Time =    1.000,"PART-1-1",           398,      -13.7507,       25.0026,            0.,NA,NA,"",       5.01011,      -2.67483,      -4.23634,   16.9439E-06
C:/temp/dataset/3/3_10.odb,Step-1,Increment      1: Step Time =    1.000,"PART-1-1",           399,          -15.,         23.75,            0.,NA,NA,"",       5.05750,      -2.45987,      -4.41897,   1.99526E-06
C:/temp/dataset/3/3_10.odb,Step-1,Increment      1: Step Time =    1.000,"PART-1-1",           400,       1.22659,       27.5580,            0.,NA,NA,"",       3.77591,      -3.26489,      -1.89683,   8.39748E-03
C:/temp/dataset/3/3_10.odb,Step-1,Increment      1: Step Time =    1.000,"PART-1-1",           401,       2.48534,       28.7828,            0.,NA,NA,"",       3.86822,      -3.46375,      -1.72206,   10.8368E-03
C:/temp/dataset/3/3_10.odb,Step-1,Increment      1: Step Time =    1.000,"PART-1-1",           402,          1.25,           30.,            0.,NA,NA,"",       4.12776,      -3.64163,      -1.94343,   8.78743E-03
C:/temp/dataset/3/3_10.odb,Step-1,Increment      1: Step Time =    1.000,"PART-1-1",           403,  -8.74824E-03,       28.7751,            0.,NA,NA,"",       4.04015,      -3.44424,      -2.11188,   5.55259E-03
C:/temp/dataset/3/3_10.odb,Step-1,Increment      1: Step Time =    1.000,"PART-1-1",           404,  -16.7069E-03,       26.3073,            0.,NA,NA,"",       3.69348,      -3.05742,      -2.07219,   3.84303E-03
C:/temp/dataset/3/3_10.odb,Step-1,Increment      1: Step Time =    1.000,"PART-1-1",           405,       2.46714,       26.3253,            0.,NA,NA,"",       3.50806,      -3.08347,      -1.67294,   10.4942E-03
C:/temp/dataset/3/3_10.odb,Step-1,Increment      1: Step Time =    1.000,"PART-1-1",           406,       3.70751,       22.5746,            0.,NA,NA,"",       2.87531,      -2.51782,      -1.38853,   13.5443E-03
C:/temp/dataset/3/3_10.odb,Step-1,Increment      1: Step Time =    1.000,"PART-1-1",           407,       2.48879,       21.2797,            0.,NA,NA,"",       2.78494,      -2.29368,      -1.57953,   4.67677E-03
C:/temp/dataset/3/3_10.odb,Step-1,Increment      1: Step Time =    1.000,"PART-1-1",           408,          3.75,           20.,            0.,NA,NA,"",       2.49302,      -2.10158,      -1.34107,   15.2208E-03
C:/temp/dataset/3/3_10.odb,Step-1,Increment      1: Step Time =    1.000,"PART-1-1",           409,       4.96872,       21.2949,            0.,NA,NA,"",       2.59780,      -2.33603,      -1.13646,   25.5460E-03
C:/temp/dataset/3/3_10.odb,Step-1,Increment      1: Step Time =    1.000,"PART-1-1",           410,       10.8479,       12.4309,            0.,NA,NA,"",       1.31476,      -1.29907,  -202.470E-03,   3.02209E-03
C:/temp/dataset/3/3_10.odb,Step-1,Increment      1: Step Time =    1.000,"PART-1-1",           411,       9.34812,       11.6387,            0.,NA,NA,"",       1.26687,      -1.21998,  -341.501E-03,   10.4443E-03
C:/temp/dataset/3/3_10.odb,Step-1,Increment      1: Step Time =    1.000,"PART-1-1",           412,       9.99050,       10.5520,            0.,NA,NA,"",       1.15330,      -1.12170,  -268.160E-03,   7.00623E-03
C:/temp/dataset/3/3_10.odb,Step-1,Increment      1: Step Time =    1.000,"PART-1-1",           413,       11.4903,       11.3442,            0.,NA,NA,"",       1.20604,      -1.19857,  -134.065E-03,   1.54315E-03
C:/temp/dataset/3/3_10.odb,Step-1,Increment      1: Step Time =    1.000,"PART-1-1",           414,       7.16850,       11.5014,            0.,NA,NA,"",       1.33067,      -1.21237,  -548.496E-03,   21.8238E-03
C:/temp/dataset/3/3_10.odb,Step-1,Increment      1: Step Time =    1.000,"PART-1-1",           415,       6.10343,       12.5850,            0.,NA,NA,"",       1.48675,      -1.32099,  -682.212E-03,   27.5599E-03
C:/temp/dataset/3/3_10.odb,Step-1,Increment      1: Step Time =    1.000,"PART-1-1",           416,            5.,         11.25,            0.,NA,NA,"",       1.41935,      -1.20667,  -747.325E-03,   32.9590E-03
C:/temp/dataset/3/3_10.odb,Step-1,Increment      1: Step Time =    1.000,"PART-1-1",           417,       6.06507,       10.1664,            0.,NA,NA,"",       1.26200,      -1.10129,  -616.285E-03,   27.3752E-03
C:/temp/dataset/3/3_10.odb,Step-1,Increment      1: Step Time =    1.000,"PART-1-1",           418,       14.0565,       5.06378,            0.,NA,NA,"",   725.684E-03,  -723.390E-03,   57.6511E-03,   10.2505E-03
C:/temp/dataset/3/3_10.odb,Step-1,Increment      1: Step Time =    1.000,"PART-1-1",           419,       12.6274,       3.86448,            0.,NA,NA,"",   642.813E-03,  -641.478E-03,  -41.3948E-03,   5.22060E-03
C:/temp/dataset/3/3_10.odb,Step-1,Increment      1: Step Time =    1.000,"PART-1-1",           420,           15.,          3.75,            0.,NA,NA,"",   656.454E-03,  -647.742E-03,   106.596E-03,   12.3355E-03
C:/temp/dataset/3/3_10.odb,Step-1,Increment      1: Step Time =    1.000,"PART-1-1",           421,       10.0280,       5.47301,            0.,NA,NA,"",   767.709E-03,  -734.674E-03,  -222.782E-03,   7.01677E-03
C:/temp/dataset/3/3_10.odb,Step-1,Increment      1: Step Time =    1.000,"PART-1-1",           422,       11.0614,       5.01383,            0.,NA,NA,"",   722.284E-03,  -706.992E-03,  -147.840E-03,   4.67608E-03
C:/temp/dataset/3/3_10.odb,Step-1,Increment      1: Step Time =    1.000,"PART-1-1",           423,       11.6033,       6.33570,            0.,NA,NA,"",   803.034E-03,  -795.168E-03,  -112.123E-03,   3.83815E-03
C:/temp/dataset/3/3_10.odb,Step-1,Increment      1: Step Time =    1.000,"PART-1-1",           424,       10.5698,       6.79489,            0.,NA,NA,"",   845.781E-03,  -823.908E-03,  -191.104E-03,   4.80266E-03
C:/temp/dataset/3/3_10.odb,Step-1,Increment      1: Step Time =    1.000,"PART-1-1",           425,      -4.94418,       3.17107,            0.,NA,NA,"",       1.14742,  -625.824E-03,  -961.721E-03,   351.415E-06
C:/temp/dataset/3/3_10.odb,Step-1,Increment      1: Step Time =    1.000,"PART-1-1",           426,      -3.90803,       4.11594,            0.,NA,NA,"",       1.13290,  -674.922E-03,  -909.911E-03,   404.595E-06
C:/temp/dataset/3/3_10.odb,Step-1,Increment      1: Step Time =    1.000,"PART-1-1",           427,      -5.05000,            5.,            0.,NA,NA,"",       1.20699,  -718.786E-03,  -969.622E-03,   313.546E-06
C:/temp/dataset/3/3_10.odb,Step-1,Increment      1: Step Time =    1.000,"PART-1-1",           428,      -6.08615,       4.05513,            0.,NA,NA,"",       1.22115,  -669.375E-03,      -1.02134,   141.364E-06
C:/temp/dataset/3/3_10.odb,Step-1,Increment      1: Step Time =    1.000,"PART-1-1",           429,      -3.86135,       2.39128,            0.,NA,NA,"",       1.07944,  -587.800E-03,  -905.365E-03,   464.378E-06
C:/temp/dataset/3/3_10.odb,Step-1,Increment      1: Step Time =    1.000,"PART-1-1",           430,      -5.85027,       2.20434,            0.,NA,NA,"",       1.15980,  -575.522E-03,      -1.00693,   235.076E-06
C:/temp/dataset/3/3_10.odb,Step-1,Increment      1: Step Time =    1.000,"PART-1-1",           431,      -4.76744,       1.42454,            0.,NA,NA,"",       1.09211,  -537.499E-03,  -950.680E-03,   415.639E-06
C:/temp/dataset/3/3_10.odb,Step-1,Increment      1: Step Time =    1.000,"PART-1-1",           432,      -9.29397,       2.69508,            0.,NA,NA,"",       1.32512,  -595.919E-03,      -1.18356,   50.4026E-06
C:/temp/dataset/3/3_10.odb,Step-1,Increment      1: Step Time =    1.000,"PART-1-1",           433,      -8.28887,       3.92576,            0.,NA,NA,"",       1.31192,  -660.009E-03,      -1.13381,   42.9195E-06
C:/temp/dataset/3/3_10.odb,Step-1,Increment      1: Step Time =    1.000,"PART-1-1",           434,          -9.5,            5.,            0.,NA,NA,"",       1.39348,  -713.287E-03,      -1.19708,   12.0218E-06
C:/temp/dataset/3/3_10.odb,Step-1,Increment      1: Step Time =    1.000,"PART-1-1",           435,      -10.5051,       3.76932,            0.,NA,NA,"",       1.40567,  -649.155E-03,      -1.24679,   8.56325E-06
C:/temp/dataset/3/3_10.odb,Step-1,Increment      1: Step Time =    1.000,"PART-1-1",           436,      -7.92731,       1.84143,            0.,NA,NA,"",       1.24305,  -554.199E-03,      -1.11267,   94.6315E-06
C:/temp/dataset/3/3_10.odb,Step-1,Increment      1: Step Time =    1.000,"PART-1-1",           437,      -6.68589,       1.06488,            0.,NA,NA,"",       1.16858,  -516.346E-03,      -1.04832,   213.516E-06
C:/temp/dataset/3/3_10.odb,Step-1,Increment      1: Step Time =    1.000,"PART-1-1",           438,      -7.09169,       2.98089,            0.,NA,NA,"",       1.23454,  -613.373E-03,      -1.07138,   150.511E-06
C:/temp/dataset/3/3_10.odb,Step-1,Increment      1: Step Time =    1.000,"PART-1-1",           439,      -13.9000,            5.,            0.,NA,NA,"",       1.58799,  -707.535E-03,      -1.42166,   1.45476E-06
C:/temp/dataset/3/3_10.odb,Step-1,Increment      1: Step Time =    1.000,"PART-1-1",           440,          -15.,          3.75,            0.,NA,NA,"",       1.60985,  -642.312E-03,      -1.47616,   1.73819E-06
C:/temp/dataset/3/3_10.odb,Step-1,Increment      1: Step Time =    1.000,"PART-1-1",           441,      -12.7489,       3.73428,            0.,NA,NA,"",       1.50611,  -644.442E-03,      -1.36127,   2.58246E-06
C:/temp/dataset/3/3_10.odb,Step-1,Increment      1: Step Time =    1.000,"PART-1-1",           442,      -9.48823,      -2.88104,            0.,NA,NA,"",       1.22653,  -311.166E-03,      -1.18640,   41.6386E-06
C:/temp/dataset/3/3_10.odb,Step-1,Increment      1: Step Time =    1.000,"PART-1-1",           443,      -8.42388,      -2.23568,            0.,NA,NA,"",       1.18449,  -345.494E-03,      -1.13299,   69.9490E-06
C:/temp/dataset/3/3_10.odb,Step-1,Increment      1: Step Time =    1.000,"PART-1-1",           444,      -10.2645,      -1.43363,            0.,NA,NA,"",       1.28648,  -384.003E-03,      -1.22784,   26.1744E-06
C:/temp/dataset/3/3_10.odb,Step-1,Increment      1: Step Time =    1.000,"PART-1-1",           445,      -12.6725,      -1.29786,            0.,NA,NA,"",       1.40539,  -387.780E-03,      -1.35083,   3.41751E-06
C:/temp/dataset/3/3_10.odb,Step-1,Increment      1: Step Time =    1.000,"PART-1-1",           446,          -15.,         -1.25,            0.,NA,NA,"",       1.51978,  -387.192E-03,      -1.46963,   5.45514E-06
C:/temp/dataset/3/3_10.odb,Step-1,Increment      1: Step Time =    1.000,"PART-1-1",           447,      -6.16813,      -3.97275,            0.,NA,NA,"",       1.04856,  -259.665E-03,      -1.01590,   137.277E-06
C:/temp/dataset/3/3_10.odb,Step-1,Increment      1: Step Time =    1.000,"PART-1-1",           448,      -4.95000,           -5.,            0.,NA,NA,"",   975.096E-03,  -208.652E-03,  -952.510E-03,   332.008E-06
C:/temp/dataset/3/3_10.odb,Step-1,Increment      1: Step Time =    1.000,"PART-1-1",           449,       1.59412,  -355.999E-03,            0.,NA,NA,"",   773.823E-03,  -457.976E-03,  -623.747E-03,   2.18583E-03
C:/temp/dataset/3/3_10.odb,Step-1,Increment      1: Step Time =    1.000,"PART-1-1",           450,       2.17826,      -1.53992,            0.,NA,NA,"",   709.955E-03,  -397.406E-03,  -588.307E-03,   3.87998E-03
C:/temp/dataset/3/3_10.odb,Step-1,Increment      1: Step Time =    1.000,"PART-1-1",           451,       2.86763,   426.804E-03,            0.,NA,NA,"",   750.523E-03,  -497.210E-03,  -562.199E-03,   6.27229E-03
C:/temp/dataset/3/3_10.odb,Step-1,Increment      1: Step Time =    1.000,"PART-1-1",           452,  -387.277E-03,   5.26357E-03,            0.,NA,NA,"",   866.732E-03,  -473.498E-03,  -725.964E-03,   773.795E-06
C:/temp/dataset/3/3_10.odb,Step-1,Increment      1: Step Time =    1.000,"PART-1-1",           453,   283.611E-03,      -1.19839,            0.,NA,NA,"",   803.813E-03,  -412.771E-03,  -689.736E-03,   854.667E-06
C:/temp/dataset/3/3_10.odb,Step-1,Increment      1: Step Time =    1.000,"PART-1-1",           454,   923.228E-03,   847.652E-03,            0.,NA,NA,"",   840.013E-03,  -518.353E-03,  -661.009E-03,   1.44377E-03
C:/temp/dataset/3/3_10.odb,Step-1,Increment      1: Step Time =    1.000,"PART-1-1",           455,       6.35531,      -13.1332,            0.,NA,NA,"",   162.821E-03,  -13.0469E-03,  -162.298E-03,   17.5058E-03
C:/temp/dataset/3/3_10.odb,Step-1,Increment      1: Step Time =    1.000,"PART-1-1",           456,       7.49455,      -12.2656,            0.,NA,NA,"",   155.651E-03,  -17.8396E-03,  -154.625E-03,   14.7029E-03
C:/temp/dataset/3/3_10.odb,Step-1,Increment      1: Step Time =    1.000,"PART-1-1",           457,       6.13925,      -10.3824,            0.,NA,NA,"",   221.097E-03,  -62.1066E-03,  -212.194E-03,   19.5335E-03
C:/temp/dataset/3/3_10.odb,Step-1,Increment      1: Step Time =    1.000,"PART-1-1",           458,            5.,        -11.25,            0.,NA,NA,"",   227.168E-03,  -55.5058E-03,  -220.282E-03,   22.3563E-03
C:/temp/dataset/3/3_10.odb,Step-1,Increment      1: Step Time =    1.000,"PART-1-1",           459,       13.3376,      -16.9670,            0.,NA,NA,"",   62.4902E-03,   44.6619E-03,  -43.7074E-03,   1.86669E-03
C:/temp/dataset/3/3_10.odb,Step-1,Increment      1: Step Time =    1.000,"PART-1-1",           460,       11.8219,      -18.0071,            0.,NA,NA,"",   71.6626E-03,   47.3097E-03,  -53.8267E-03,   4.91548E-03
C:/temp/dataset/3/3_10.odb,Step-1,Increment      1: Step Time =    1.000,"PART-1-1",           461,           15.,        -18.75,            0.,NA,NA,"",   61.9100E-03,   49.2908E-03,  -37.4601E-03,   2.21226E-03
C:/temp/dataset/3/3_10.odb,Step-1,Increment      1: Step Time =    1.000,"PART-1-1",           462,       8.42876,      -15.2973,            0.,NA,NA,"",   107.486E-03,   23.7481E-03,  -104.830E-03,   11.3670E-03
C:/temp/dataset/3/3_10.odb,Step-1,Increment      1: Step Time =    1.000,"PART-1-1",           463,       10.4111,      -16.6310,            0.,NA,NA,"",   82.2767E-03,   39.8303E-03,  -71.9931E-03,   6.63279E-03
C:/temp/dataset/3/3_10.odb,Step-1,Increment      1: Step Time =    1.000,"PART-1-1",           464,       10.7289,      -14.9294,            0.,NA,NA,"",   82.0136E-03,   28.3736E-03,  -76.9491E-03,   6.21799E-03
C:/temp/dataset/3/3_10.odb,Step-1,Increment      1: Step Time =    1.000,"PART-1-1",           465,       8.74656,      -13.5956,            0.,NA,NA,"",   117.103E-03,   7.60992E-03,  -116.856E-03,   10.8927E-03
C:/temp/dataset/3/3_10.odb,Step-1,Increment      1: Step Time =    1.000,"PART-1-1",           466,      -8.72016,      -22.5745,            0.,NA,NA,"",   3.79891E-03,   3.70540E-03,   837.683E-06,   431.051E-06
C:/temp/dataset/3/3_10.odb,Step-1,Increment      1: Step Time =    1.000,"PART-1-1",           467,      -7.48342,      -21.2909,            0.,NA,NA,"",   4.71367E-03,   4.65721E-03,   727.428E-06,   438.045E-06
C:/temp/dataset/3/3_10.odb,Step-1,Increment      1: Step Time =    1.000,"PART-1-1",           468,         -8.75,          -20.,            0.,NA,NA,"",   4.65033E-03,   4.61187E-03,   596.829E-06,   318.562E-06
C:/temp/dataset/3/3_10.odb,Step-1,Increment      1: Step Time =    1.000,"PART-1-1",           469,      -9.98674,      -21.2836,            0.,NA,NA,"",   4.16202E-03,   4.08669E-03,   788.252E-06,   218.907E-06
C:/temp/dataset/3/3_10.odb,Step-1,Increment      1: Step Time =    1.000,"PART-1-1",           470,      -4.96670,      -26.3491,            0.,NA,NA,"",   839.857E-06,   725.112E-06,   423.760E-06,   466.215E-06
C:/temp/dataset/3/3_10.odb,Step-1,Increment      1: Step Time =    1.000,"PART-1-1",           471,      -6.21541,      -25.0985,            0.,NA,NA,"",   2.06802E-03,   1.92948E-03,   744.187E-06,   559.448E-06
C:/temp/dataset/3/3_10.odb,Step-1,Increment      1: Step Time =    1.000,"PART-1-1",           472,      -7.47738,      -26.3212,            0.,NA,NA,"",   1.36670E-03,   1.25234E-03,   547.275E-06,   433.036E-06
C:/temp/dataset/3/3_10.odb,Step-1,Increment      1: Step Time =    1.000,"PART-1-1",           473,      -6.22867,      -27.5719,            0.,NA,NA,"",   486.063E-06,   390.959E-06,   288.805E-06,   360.650E-06
C:/temp/dataset/3/3_10.odb,Step-1,Increment      1: Step Time =    1.000,"PART-1-1",           474,   49.7896E-03,      -26.4387,            0.,NA,NA,"",   2.79028E-03,  -917.955E-06,  -2.63496E-03,   922.455E-06
C:/temp/dataset/3/3_10.odb,Step-1,Increment      1: Step Time =    1.000,"PART-1-1",           475,       1.24862,      -27.7048,            0.,NA,NA,"",   3.33018E-03,  -1.61462E-03,  -2.91258E-03,   1.70361E-03
C:/temp/dataset/3/3_10.odb,Step-1,Increment      1: Step Time =    1.000,"PART-1-1",           476,       2.52056,      -26.5649,            0.,NA,NA,"",   6.81387E-03,  -592.323E-06,  -6.78808E-03,   2.55292E-03
C:/temp/dataset/3/3_10.odb,Step-1,Increment      1: Step Time =    1.000,"PART-1-1",           477,       1.32172,      -25.2988,            0.,NA,NA,"",   6.04738E-03,   387.946E-06,  -6.03492E-03,   1.61132E-03
C:/temp/dataset/3/3_10.odb,Step-1,Increment      1: Step Time =    1.000,"PART-1-1",           478,        -13.75,          -20.,            0.,NA,NA,"",   4.42518E-03,   4.20855E-03,   1.36762E-03,   9.28678E-06
C:/temp/dataset/3/3_10.odb,Step-1,Increment      1: Step Time =    1.000,"PART-1-1",           479,          -15.,        -21.25,            0.,NA,NA,"",   4.22828E-03,   3.86552E-03,   1.71352E-03,   10.7099E-06
C:/temp/dataset/3/3_10.odb,Step-1,Increment      1: Step Time =    1.000,"PART-1-1",           480,      -13.7430,      -22.5153,            0.,NA,NA,"",   3.70742E-03,   3.45799E-03,   1.33689E-03,   73.2391E-06
C:/temp/dataset/3/3_10.odb,Step-1,Increment      1: Step Time =    1.000,"PART-1-1",           481,      -12.4930,      -21.2653,            0.,NA,NA,"",   4.03230E-03,   3.88565E-03,   1.07757E-03,   72.1170E-06
C:/temp/dataset/3/3_10.odb,Step-1,Increment      1: Step Time =    1.000,"PART-1-1",           482,      -11.2297,      -22.5489,            0.,NA,NA,"",   3.60205E-03,   3.48738E-03,   901.657E-06,   238.117E-06
C:/temp/dataset/3/3_10.odb,Step-1,Increment      1: Step Time =    1.000,"PART-1-1",           483,        -11.25,          -20.,            0.,NA,NA,"",   4.32595E-03,   4.24168E-03,   849.709E-06,   90.0702E-06
C:/temp/dataset/3/3_10.odb,Step-1,Increment      1: Step Time =    1.000,"PART-1-1",           484,      -13.7448,      -25.0201,            0.,NA,NA,"",   2.67073E-03,   2.41486E-03,   1.14073E-03,   184.352E-06
C:/temp/dataset/3/3_10.odb,Step-1,Increment      1: Step Time =    1.000,"PART-1-1",           485,      -12.4878,      -23.7854,            0.,NA,NA,"",   3.08958E-03,   2.92435E-03,   996.840E-06,   210.000E-06
C:/temp/dataset/3/3_10.odb,Step-1,Increment      1: Step Time =    1.000,"PART-1-1",           486,          -15.,        -23.75,            0.,NA,NA,"",   3.44876E-03,   3.01299E-03,   1.67805E-03,   68.4854E-06
C:/temp/dataset/3/3_10.odb,Step-1,Increment      1: Step Time =    1.000,"PART-1-1",           487,       13.7335,      -27.5520,            0.,NA,NA,"",   22.6294E-03,   17.8903E-03,  -13.8574E-03,   6.63109E-03
C:/temp/dataset/3/3_10.odb,Step-1,Increment      1: Step Time =    1.000,"PART-1-1",           488,       12.4835,      -28.8020,            0.,NA,NA,"",   8.79893E-03,   7.00281E-03,  -5.32746E-03,   6.51928E-03
C:/temp/dataset/3/3_10.odb,Step-1,Increment      1: Step Time =    1.000,"PART-1-1",           489,         13.75,          -30.,            0.,NA,NA,"",            0.,   1.63219E-39,  -12.0578E-39,   9.20911E-03
C:/temp/dataset/3/3_10.odb,Step-1,Increment      1: Step Time =    1.000,"PART-1-1",           490,           15.,        -28.75,            0.,NA,NA,"",   17.2767E-03,   13.1108E-03,  -11.2514E-03,   9.18744E-03
C:/temp/dataset/3/3_10.odb,Step-1,Increment      1: Step Time =    1.000,"PART-1-1",           491,       9.98010,      -28.8907,            0.,NA,NA,"",   6.39252E-03,   4.56073E-03,  -4.47929E-03,   5.74975E-03
C:/temp/dataset/3/3_10.odb,Step-1,Increment      1: Step Time =    1.000,"PART-1-1",           492,       8.70049,      -27.8380,            0.,NA,NA,"",   11.5308E-03,   7.00891E-03,  -9.15612E-03,   5.94229E-03
C:/temp/dataset/3/3_10.odb,Step-1,Increment      1: Step Time =    1.000,"PART-1-1",           493,          8.75,          -30.,            0.,NA,NA,"",            0.,   1.73316E-39,  -8.72404E-39,   4.92805E-03
C:/temp/dataset/3/3_10.odb,Step-1,Increment      1: Step Time =    1.000,"PART-1-1",           494,       11.2136,      -27.6927,            0.,NA,NA,"",   15.8592E-03,   12.2081E-03,  -10.1231E-03,   6.73446E-03
C:/temp/dataset/3/3_10.odb,Step-1,Increment      1: Step Time =    1.000,"PART-1-1",           495,       12.3768,      -26.3916,            0.,NA,NA,"",   28.4746E-03,   22.2134E-03,  -17.8148E-03,   6.76080E-03
C:/temp/dataset/3/3_10.odb,Step-1,Increment      1: Step Time =    1.000,"PART-1-1",           496,       11.0556,      -25.4315,            0.,NA,NA,"",   32.8990E-03,   24.1959E-03,  -22.2912E-03,   7.08165E-03
C:/temp/dataset/3/3_10.odb,Step-1,Increment      1: Step Time =    1.000,"PART-1-1",           497,       9.89242,      -26.7326,            0.,NA,NA,"",   20.8067E-03,   14.3692E-03,  -15.0481E-03,   7.00951E-03
C:/temp/dataset/3/3_10.odb,Step-1,Increment      1: Step Time =    1.000,"PART-1-1",           498,   9.79186E-03,      -28.8313,            0.,NA,NA,"",   1.56529E-03,  -1.24332E-03,  -950.933E-06,   1.24813E-03
C:/temp/dataset/3/3_10.odb,Step-1,Increment      1: Step Time =    1.000,"PART-1-1",           499,          1.25,          -30.,            0.,NA,NA,"",            0.,  -1.03311E-39,  -3.16994E-39,   1.92673E-03
C:/temp/dataset/3/3_10.odb,Step-1,Increment      1: Step Time =    1.000,"PART-1-1",           500,      -1.18061,      -25.1833,            0.,NA,NA,"",   1.69223E-03,   774.133E-06,  -1.50478E-03,   490.394E-06
C:/temp/dataset/3/3_10.odb,Step-1,Increment      1: Step Time =    1.000,"PART-1-1",           501,      -2.45538,      -26.3836,            0.,NA,NA,"",   383.771E-06,  -107.731E-06,  -368.339E-06,   469.449E-06
C:/temp/dataset/3/3_10.odb,Step-1,Increment      1: Step Time =    1.000,"PART-1-1",           502,      -1.22498,      -27.6390,            0.,NA,NA,"",   1.50544E-03,  -1.16998E-03,  -947.367E-06,   742.237E-06
C:/temp/dataset/3/3_10.odb,Step-1,Increment      1: Step Time =    1.000,"PART-1-1",           503,      -3.70005,      -25.1329,            0.,NA,NA,"",   1.52013E-03,   1.48428E-03,   328.229E-06,   561.887E-06
C:/temp/dataset/3/3_10.odb,Step-1,Increment      1: Step Time =    1.000,"PART-1-1",           504,      -7.49141,      -28.7797,            0.,NA,NA,"",   254.571E-06,   221.732E-06,   125.065E-06,   226.417E-06
C:/temp/dataset/3/3_10.odb,Step-1,Increment      1: Step Time =    1.000,"PART-1-1",           505,         -6.25,          -30.,            0.,NA,NA,"",            0.,  -22.0747E-42,   29.2423E-42,   61.0612E-06
C:/temp/dataset/3/3_10.odb,Step-1,Increment      1: Step Time =    1.000,"PART-1-1",           506,      -12.4949,      -26.2800,            0.,NA,NA,"",   1.83263E-03,   1.69924E-03,   686.373E-06,   312.728E-06
C:/temp/dataset/3/3_10.odb,Step-1,Increment      1: Step Time =    1.000,"PART-1-1",           507,          -15.,        -26.25,            0.,NA,NA,"",   2.40374E-03,   1.94843E-03,   1.40769E-03,   228.639E-06
C:/temp/dataset/3/3_10.odb,Step-1,Increment      1: Step Time =    1.000,"PART-1-1",           508,       12.0036,      -23.8365,            0.,NA,NA,"",   46.4805E-03,   35.0556E-03,  -30.5212E-03,   6.55262E-03
C:/temp/dataset/3/3_10.odb,Step-1,Increment      1: Step Time =    1.000,"PART-1-1",           509,       13.6432,      -25.0896,            0.,NA,NA,"",   42.1140E-03,   32.6944E-03,  -26.5456E-03,   5.13758E-03
C:/temp/dataset/3/3_10.odb,Step-1,Increment      1: Step Time =    1.000,"PART-1-1",           510,           15.,        -23.75,            0.,NA,NA,"",   54.3842E-03,   41.2024E-03,  -35.4966E-03,   2.88076E-03
C:/temp/dataset/3/3_10.odb,Step-1,Increment      1: Step Time =    1.000,"PART-1-1",           511,         11.25,          -30.,            0.,NA,NA,"",            0.,   3.02116E-39,  -9.67032E-39,   5.66180E-03
C:/temp/dataset/3/3_10.odb,Step-1,Increment      1: Step Time =    1.000,"PART-1-1",           512,       13.9281,      -14.6298,            0.,NA,NA,"",   43.9774E-03,   26.8259E-03,  -34.8480E-03,   3.04183E-03
C:/temp/dataset/3/3_10.odb,Step-1,Increment      1: Step Time =    1.000,"PART-1-1",           513,       12.2657,      -15.3468,            0.,NA,NA,"",   65.1291E-03,   34.0058E-03,  -55.5464E-03,   3.09922E-03
C:/temp/dataset/3/3_10.odb,Step-1,Increment      1: Step Time =    1.000,"PART-1-1",           514,           15.,        -16.25,            0.,NA,NA,"",   49.0062E-03,   38.7679E-03,  -29.9776E-03,   4.47723E-03
C:/temp/dataset/3/3_10.odb,Step-1,Increment      1: Step Time =    1.000,"PART-1-1",           515,       7.13425,      -14.5121,            0.,NA,NA,"",   131.060E-03,   8.98966E-03,  -130.752E-03,   14.9602E-03
C:/temp/dataset/3/3_10.odb,Step-1,Increment      1: Step Time =    1.000,"PART-1-1",           516,       6.81531,      -16.2905,            0.,NA,NA,"",   112.759E-03,   22.5968E-03,  -110.471E-03,   14.9182E-03
C:/temp/dataset/3/3_10.odb,Step-1,Increment      1: Step Time =    1.000,"PART-1-1",           517,       8.10983,      -17.0757,            0.,NA,NA,"",   96.6227E-03,   33.9783E-03,  -90.4512E-03,   11.2847E-03
C:/temp/dataset/3/3_10.odb,Step-1,Increment      1: Step Time =    1.000,"PART-1-1",           518,       13.8641,      -7.41825,            0.,NA,NA,"",   121.091E-03,  -120.746E-03,  -9.13517E-03,   5.64408E-03
C:/temp/dataset/3/3_10.odb,Step-1,Increment      1: Step Time =    1.000,"PART-1-1",           519,       13.0286,      -8.63342,            0.,NA,NA,"",   91.1978E-03,  -82.7282E-03,  -38.3808E-03,   2.79795E-03
C:/temp/dataset/3/3_10.odb,Step-1,Increment      1: Step Time =    1.000,"PART-1-1",           520,       14.1645,      -9.96517,            0.,NA,NA,"",   53.0553E-03,  -51.4684E-03,  -12.8790E-03,   5.92974E-03
C:/temp/dataset/3/3_10.odb,Step-1,Increment      1: Step Time =    1.000,"PART-1-1",           521,           15.,         -8.75,            0.,NA,NA,"",   87.0980E-03,  -85.5533E-03,   16.3308E-03,   8.95160E-03
C:/temp/dataset/3/3_10.odb,Step-1,Increment      1: Step Time =    1.000,"PART-1-1",           522,       12.0251,      -10.9831,            0.,NA,NA,"",   70.5396E-03,  -26.3758E-03,  -65.4228E-03,   2.31512E-03
C:/temp/dataset/3/3_10.odb,Step-1,Increment      1: Step Time =    1.000,"PART-1-1",           523,       12.8055,      -11.9581,            0.,NA,NA,"",   49.1809E-03,  -8.60409E-03,  -48.4224E-03,   2.00052E-03
C:/temp/dataset/3/3_10.odb,Step-1,Increment      1: Step Time =    1.000,"PART-1-1",           524,       13.3751,      -11.0455,            0.,NA,NA,"",   43.7943E-03,  -26.2123E-03,  -35.0836E-03,   3.20562E-03
C:/temp/dataset/3/3_10.odb,Step-1,Increment      1: Step Time =    1.000,"PART-1-1",           525,       12.5947,      -10.0706,            0.,NA,NA,"",   69.4526E-03,  -46.0779E-03,  -51.9662E-03,   1.85124E-03
C:/temp/dataset/3/3_10.odb,Step-1,Increment      1: Step Time =    1.000,"PART-1-1",           526,       11.4853,  -434.223E-03,            0.,NA,NA,"",   421.595E-03,  -408.766E-03,  -103.210E-03,   3.01311E-03
C:/temp/dataset/3/3_10.odb,Step-1,Increment      1: Step Time =    1.000,"PART-1-1",           527,       10.5886,      -1.82652,            0.,NA,NA,"",   370.573E-03,  -342.517E-03,  -141.443E-03,   5.35251E-03
C:/temp/dataset/3/3_10.odb,Step-1,Increment      1: Step Time =    1.000,"PART-1-1",           528,       11.9063,      -2.70193,            0.,NA,NA,"",   310.510E-03,  -300.796E-03,  -77.0584E-03,   960.927E-06
C:/temp/dataset/3/3_10.odb,Step-1,Increment      1: Step Time =    1.000,"PART-1-1",           529,       14.1300,       7.44597,            0.,NA,NA,"",   893.789E-03,  -890.092E-03,   81.2075E-03,   12.5121E-03
C:/temp/dataset/3/3_10.odb,Step-1,Increment      1: Step Time =    1.000,"PART-1-1",           530,       13.1865,       6.25975,            0.,NA,NA,"",   797.783E-03,  -797.774E-03,   3.95458E-03,   7.85288E-03
C:/temp/dataset/3/3_10.odb,Step-1,Increment      1: Step Time =    1.000,"PART-1-1",           531,           15.,          6.25,            0.,NA,NA,"",   821.659E-03,  -810.940E-03,   132.285E-03,   15.2521E-03
C:/temp/dataset/3/3_10.odb,Step-1,Increment      1: Step Time =    1.000,"PART-1-1",           532,       12.4155,       5.33720,            0.,NA,NA,"",   733.948E-03,  -731.995E-03,  -53.5044E-03,   5.23416E-03
C:/temp/dataset/3/3_10.odb,Step-1,Increment      1: Step Time =    1.000,"PART-1-1",           533,       11.2733,       3.54111,            0.,NA,NA,"",   632.418E-03,  -619.103E-03,  -129.089E-03,   4.99100E-03
C:/temp/dataset/3/3_10.odb,Step-1,Increment      1: Step Time =    1.000,"PART-1-1",           534,       12.2480,       13.5548,            0.,NA,NA,"",       1.42250,      -1.42107,  -63.7831E-03,   4.83423E-03
C:/temp/dataset/3/3_10.odb,Step-1,Increment      1: Step Time =    1.000,"PART-1-1",           535,           15.,         13.75,            0.,NA,NA,"",       1.48914,      -1.47207,   224.826E-03,   19.5126E-03
C:/temp/dataset/3/3_10.odb,Step-1,Increment      1: Step Time =    1.000,"PART-1-1",           536,       13.6600,       14.9734,            0.,NA,NA,"",       1.59147,      -1.58887,   90.9828E-03,   12.5201E-03
C:/temp/dataset/3/3_10.odb,Step-1,Increment      1: Step Time =    1.000,"PART-1-1",           537,       8.15326,       10.4556,            0.,NA,NA,"",       1.19614,      -1.11444,  -434.489E-03,   16.5382E-03
C:/temp/dataset/3/3_10.odb,Step-1,Increment      1: Step Time =    1.000,"PART-1-1",           538,       12.3824,       21.2920,            0.,NA,NA,"",       2.39179,      -2.39072,  -71.7207E-03,   7.16665E-03
C:/temp/dataset/3/3_10.odb,Step-1,Increment      1: Step Time =    1.000,"PART-1-1",           539,       13.6892,       20.0188,            0.,NA,NA,"",       2.22885,      -2.22621,   108.547E-03,   11.2078E-03
C:/temp/dataset/3/3_10.odb,Step-1,Increment      1: Step Time =    1.000,"PART-1-1",           540,           15.,         21.25,            0.,NA,NA,"",       2.43861,      -2.42128,   290.218E-03,   14.3805E-03
C:/temp/dataset/3/3_10.odb,Step-1,Increment      1: Step Time =    1.000,"PART-1-1",           541,       13.6932,       22.5232,            0.,NA,NA,"",       2.59088,      -2.58881,   103.630E-03,   8.55191E-03
C:/temp/dataset/3/3_10.odb,Step-1,Increment      1: Step Time =    1.000,"PART-1-1",           542,       9.77662,       16.3041,            0.,NA,NA,"",       1.74659,      -1.70925,  -359.208E-03,   7.17400E-03
C:/temp/dataset/3/3_10.odb,Step-1,Increment      1: Step Time =    1.000,"PART-1-1",           543,       11.0318,       15.0036,            0.,NA,NA,"",       1.58113,      -1.56823,  -201.575E-03,   1.54006E-03
C:/temp/dataset/3/3_10.odb,Step-1,Increment      1: Step Time =    1.000,"PART-1-1",           544,       12.3430,       16.2301,            0.,NA,NA,"",       1.72070,      -1.71975,  -57.2598E-03,   5.65307E-03
C:/temp/dataset/3/3_10.odb,Step-1,Increment      1: Step Time =    1.000,"PART-1-1",           545,         13.75,           30.,            0.,NA,NA,"",       3.73927,      -3.73901,   44.1401E-03,   660.938E-06
C:/temp/dataset/3/3_10.odb,Step-1,Increment      1: Step Time =    1.000,"PART-1-1",           546,       12.4862,       28.7548,            0.,NA,NA,"",       3.53781,      -3.53535,  -131.813E-03,   2.99158E-03
C:/temp/dataset/3/3_10.odb,Step-1,Increment      1: Step Time =    1.000,"PART-1-1",           547,           15.,         28.75,            0.,NA,NA,"",       3.57139,      -3.56269,   249.020E-03,   658.243E-06
C:/temp/dataset/3/3_10.odb,Step-1,Increment      1: Step Time =    1.000,"PART-1-1",           548,       12.4064,       23.7898,            0.,NA,NA,"",       2.76571,      -2.76430,  -88.3846E-03,   7.04845E-03
C:/temp/dataset/3/3_10.odb,Step-1,Increment      1: Step Time =    1.000,"PART-1-1",           549,           15.,         23.75,            0.,NA,NA,"",       2.80797,      -2.79297,   289.862E-03,   9.33939E-03
C:/temp/dataset/3/3_10.odb,Step-1,Increment      1: Step Time =    1.000,"PART-1-1",           550,       9.91541,       26.3072,            0.,NA,NA,"",       3.16659,      -3.12936,  -484.162E-03,   5.60275E-03
C:/temp/dataset/3/3_10.odb,Step-1,Increment      1: Step Time =    1.000,"PART-1-1",           551,       11.1537,       25.0565,            0.,NA,NA,"",       2.95983,      -2.94624,  -283.328E-03,   6.16907E-03
C:/temp/dataset/3/3_10.odb,Step-1,Increment      1: Step Time =    1.000,"PART-1-1",           552,       11.2110,       27.5221,            0.,NA,NA,"",       3.34546,      -3.33135,  -307.034E-03,   4.92787E-03
C:/temp/dataset/3/3_10.odb,Step-1,Increment      1: Step Time =    1.000,"PART-1-1",           553,       8.69233,       27.5515,            0.,NA,NA,"",       3.38454,      -3.31308,  -691.801E-03,   4.82608E-03
C:/temp/dataset/3/3_10.odb,Step-1,Increment      1: Step Time =    1.000,"PART-1-1",           554,       7.41297,       26.3376,            0.,NA,NA,"",       3.23468,      -3.11536,  -870.454E-03,   10.1231E-03
C:/temp/dataset/3/3_10.odb,Step-1,Increment      1: Step Time =    1.000,"PART-1-1",           555,       8.63604,       25.0933,            0.,NA,NA,"",       3.00376,      -2.93111,  -656.630E-03,   8.29227E-03
C:/temp/dataset/3/3_10.odb,Step-1,Increment      1: Step Time =    1.000,"PART-1-1",           556,      -1.26375,       27.5391,            0.,NA,NA,"",       3.96368,      -3.23704,      -2.28743,   2.03500E-03
C:/temp/dataset/3/3_10.odb,Step-1,Increment      1: Step Time =    1.000,"PART-1-1",           557,         -1.25,           30.,            0.,NA,NA,"",       4.29732,      -3.61939,      -2.31666,   2.41694E-03
C:/temp/dataset/3/3_10.odb,Step-1,Increment      1: Step Time =    1.000,"PART-1-1",           558,      -2.50500,       28.7640,            0.,NA,NA,"",       4.22954,      -3.41355,      -2.49733,   1.20978E-03
C:/temp/dataset/3/3_10.odb,Step-1,Increment      1: Step Time =    1.000,"PART-1-1",           559,      -7.50143,       28.7522,            0.,NA,NA,"",       4.69565,      -3.35006,      -3.29032,   201.164E-06
C:/temp/dataset/3/3_10.odb,Step-1,Increment      1: Step Time =    1.000,"PART-1-1",           560,         -8.75,           30.,            0.,NA,NA,"",       4.97625,      -3.53259,      -3.50483,   133.844E-06
C:/temp/dataset/3/3_10.odb,Step-1,Increment      1: Step Time =    1.000,"PART-1-1",           561,      -6.25460,       27.5081,            0.,NA,NA,"",       4.41630,      -3.16860,      -3.07630,   460.151E-06
C:/temp/dataset/3/3_10.odb,Step-1,Increment      1: Step Time =    1.000,"PART-1-1",           562,        -13.75,           30.,            0.,NA,NA,"",       5.52469,      -3.46909,      -4.29972,   1.03757E-06
C:/temp/dataset/3/3_10.odb,Step-1,Increment      1: Step Time =    1.000,"PART-1-1",           563,          -15.,         28.75,            0.,NA,NA,"",       5.53939,      -3.25452,      -4.48251,   2.33290E-06
C:/temp/dataset/3/3_10.odb,Step-1,Increment      1: Step Time =    1.000,"PART-1-1",           564,      -13.7509,       27.5010,            0.,NA,NA,"",       5.25864,      -3.07188,      -4.26811,   10.4696E-06
C:/temp/dataset/3/3_10.odb,Step-1,Increment      1: Step Time =    1.000,"PART-1-1",           565,          -15.,         26.25,            0.,NA,NA,"",       5.28891,      -2.85719,      -4.45074,   1.74462E-06
C:/temp/dataset/3/3_10.odb,Step-1,Increment      1: Step Time =    1.000,"PART-1-1",           566,      -12.5016,       26.2536,            0.,NA,NA,"",       4.97814,      -2.88953,      -4.05370,   23.2394E-06
C:/temp/dataset/3/3_10.odb,Step-1,Increment      1: Step Time =    1.000,"PART-1-1",           567,      -7.50093,       21.2547,            0.,NA,NA,"",       3.85648,      -2.15839,      -3.19591,   185.861E-06
C:/temp/dataset/3/3_10.odb,Step-1,Increment      1: Step Time =    1.000,"PART-1-1",           568,         -6.25,           20.,            0.,NA,NA,"",       3.57569,      -1.97450,      -2.98109,   452.836E-06
C:/temp/dataset/3/3_10.odb,Step-1,Increment      1: Step Time =    1.000,"PART-1-1",           569,      -4.99978,       21.2574,            0.,NA,NA,"",       3.55370,      -2.19011,      -2.79861,   477.453E-06
C:/temp/dataset/3/3_10.odb,Step-1,Increment      1: Step Time =    1.000,"PART-1-1",           570,      -3.74911,       22.5208,            0.,NA,NA,"",       3.55537,      -2.40781,      -2.61593,   582.911E-06
C:/temp/dataset/3/3_10.odb,Step-1,Increment      1: Step Time =    1.000,"PART-1-1",           571,         -3.75,           20.,            0.,NA,NA,"",       3.26979,      -2.00473,      -2.58313,   1.03455E-03
C:/temp/dataset/3/3_10.odb,Step-1,Increment      1: Step Time =    1.000,"PART-1-1",           572,      -2.49933,       21.2634,            0.,NA,NA,"",       3.27071,      -2.22208,      -2.39998,   736.495E-06
C:/temp/dataset/3/3_10.odb,Step-1,Increment      1: Step Time =    1.000,"PART-1-1",           573,         -1.25,           20.,            0.,NA,NA,"",       2.98277,      -2.03375,      -2.18192,   1.99758E-03
C:/temp/dataset/3/3_10.odb,Step-1,Increment      1: Step Time =    1.000,"PART-1-1",           574,  -2.23348E-03,       21.2694,            0.,NA,NA,"",       3.01169,      -2.25420,      -1.99721,   809.038E-06
C:/temp/dataset/3/3_10.odb,Step-1,Increment      1: Step Time =    1.000,"PART-1-1",           575,      -1.25156,       22.5328,            0.,NA,NA,"",       3.29816,      -2.44232,      -2.21652,   771.119E-06
C:/temp/dataset/3/3_10.odb,Step-1,Increment      1: Step Time =    1.000,"PART-1-1",           576,         -3.75,           30.,            0.,NA,NA,"",       4.50112,      -3.59375,      -2.71018,   1.29150E-03
C:/temp/dataset/3/3_10.odb,Step-1,Increment      1: Step Time =    1.000,"PART-1-1",           577,      -5.00318,       28.7559,            0.,NA,NA,"",       4.45059,      -3.38202,      -2.89304,   525.848E-06
C:/temp/dataset/3/3_10.odb,Step-1,Increment      1: Step Time =    1.000,"PART-1-1",           578,       7.36074,       18.8052,            0.,NA,NA,"",       2.12203,      -2.00032,  -708.316E-03,   15.2567E-03
C:/temp/dataset/3/3_10.odb,Step-1,Increment      1: Step Time =    1.000,"PART-1-1",           579,       8.58169,       17.5494,            0.,NA,NA,"",       1.92465,      -1.85188,  -524.237E-03,   13.0616E-03
C:/temp/dataset/3/3_10.odb,Step-1,Increment      1: Step Time =    1.000,"PART-1-1",           580,       8.60057,       20.0599,            0.,NA,NA,"",       2.25144,      -2.17928,  -565.446E-03,   9.50287E-03
C:/temp/dataset/3/3_10.odb,Step-1,Increment      1: Step Time =    1.000,"PART-1-1",           581,            5.,         18.75,            0.,NA,NA,"",       2.24438,      -1.99496,      -1.02828,   43.3373E-03
C:/temp/dataset/3/3_10.odb,Step-1,Increment      1: Step Time =    1.000,"PART-1-1",           582,       6.17685,       17.5255,            0.,NA,NA,"",       2.02252,      -1.84491,  -828.788E-03,   28.7229E-03
C:/temp/dataset/3/3_10.odb,Step-1,Increment      1: Step Time =    1.000,"PART-1-1",           583,       6.18390,       20.0298,            0.,NA,NA,"",       2.33315,      -2.15177,  -901.934E-03,   25.2027E-03
C:/temp/dataset/3/3_10.odb,Step-1,Increment      1: Step Time =    1.000,"PART-1-1",           584,            5.,         16.25,            0.,NA,NA,"",       1.94506,      -1.71218,  -922.861E-03,   35.1938E-03
C:/temp/dataset/3/3_10.odb,Step-1,Increment      1: Step Time =    1.000,"PART-1-1",           585,       6.15340,       15.0385,            0.,NA,NA,"",       1.74087,      -1.57074,  -750.596E-03,   27.9367E-03
C:/temp/dataset/3/3_10.odb,Step-1,Increment      1: Step Time =    1.000,"PART-1-1",           586,       7.33024,       16.3140,            0.,NA,NA,"",       1.82476,      -1.70486,  -650.542E-03,   21.1066E-03
C:/temp/dataset/3/3_10.odb,Step-1,Increment      1: Step Time =    1.000,"PART-1-1",           587,           15.,         16.25,            0.,NA,NA,"",       1.77413,      -1.75594,   253.431E-03,   19.5151E-03
C:/temp/dataset/3/3_10.odb,Step-1,Increment      1: Step Time =    1.000,"PART-1-1",           588,       13.6830,       17.5067,            0.,NA,NA,"",       1.89467,      -1.89182,   103.887E-03,   12.4817E-03
C:/temp/dataset/3/3_10.odb,Step-1,Increment      1: Step Time =    1.000,"PART-1-1",           589,           15.,         18.75,            0.,NA,NA,"",       2.09150,      -2.07310,   276.794E-03,   17.9640E-03
C:/temp/dataset/3/3_10.odb,Step-1,Increment      1: Step Time =    1.000,"PART-1-1",           590,       7.36831,       6.81272,            0.,NA,NA,"",   930.931E-03,  -826.115E-03,  -429.147E-03,   16.2254E-03
C:/temp/dataset/3/3_10.odb,Step-1,Increment      1: Step Time =    1.000,"PART-1-1",           591,       6.10412,       7.73110,            0.,NA,NA,"",       1.05323,  -902.077E-03,  -543.638E-03,   26.8808E-03
C:/temp/dataset/3/3_10.odb,Step-1,Increment      1: Step Time =    1.000,"PART-1-1",           592,            5.,          6.25,            0.,NA,NA,"",   990.944E-03,  -804.771E-03,  -578.199E-03,   38.0341E-03
C:/temp/dataset/3/3_10.odb,Step-1,Increment      1: Step Time =    1.000,"PART-1-1",           593,       6.26419,       5.33162,            0.,NA,NA,"",   869.983E-03,  -728.664E-03,  -475.310E-03,   22.5514E-03
C:/temp/dataset/3/3_10.odb,Step-1,Increment      1: Step Time =    1.000,"PART-1-1",           594,           15.,          8.75,            0.,NA,NA,"",       1.01395,      -1.00086,   162.389E-03,   17.4475E-03
C:/temp/dataset/3/3_10.odb,Step-1,Increment      1: Step Time =    1.000,"PART-1-1",           595,       13.1418,       8.51598,            0.,NA,NA,"",   965.115E-03,  -965.059E-03,   10.3564E-03,   8.41381E-03
C:/temp/dataset/3/3_10.odb,Step-1,Increment      1: Step Time =    1.000,"PART-1-1",           596,       6.30252,      -5.49102,            0.,NA,NA,"",   351.676E-03,  -189.962E-03,  -295.957E-03,   19.5191E-03
C:/temp/dataset/3/3_10.odb,Step-1,Increment      1: Step Time =    1.000,"PART-1-1",           597,            5.,         -6.25,            0.,NA,NA,"",   380.305E-03,  -178.059E-03,  -336.047E-03,   31.6200E-03
C:/temp/dataset/3/3_10.odb,Step-1,Increment      1: Step Time =    1.000,"PART-1-1",           598,       6.10325,      -7.87566,            0.,NA,NA,"",   287.482E-03,  -120.569E-03,  -260.977E-03,   21.1688E-03
C:/temp/dataset/3/3_10.odb,Step-1,Increment      1: Step Time =    1.000,"PART-1-1",           599,       7.40577,      -7.11668,            0.,NA,NA,"",   264.736E-03,  -133.312E-03,  -228.720E-03,   13.5802E-03
C:/temp/dataset/3/3_10.odb,Step-1,Increment      1: Step Time =    1.000,"PART-1-1",           600,            5.,         -8.75,            0.,NA,NA,"",   293.595E-03,  -110.340E-03,  -272.072E-03,   24.5505E-03
C:/temp/dataset/3/3_10.odb,Step-1,Increment      1: Step Time =    1.000,"PART-1-1",           601,            5.,        -13.75,            0.,NA,NA,"",   172.047E-03,  -16.5965E-03,  -171.245E-03,   20.7225E-03
C:/temp/dataset/3/3_10.odb,Step-1,Increment      1: Step Time =    1.000,"PART-1-1",           602,       5.77894,      -15.1288,            0.,NA,NA,"",   138.264E-03,   5.09980E-03,  -138.170E-03,   18.1208E-03
C:/temp/dataset/3/3_10.odb,Step-1,Increment      1: Step Time =    1.000,"PART-1-1",           603,            5.,        -16.25,            0.,NA,NA,"",   126.853E-03,   7.87674E-03,  -126.608E-03,   19.4761E-03
C:/temp/dataset/3/3_10.odb,Step-1,Increment      1: Step Time =    1.000,"PART-1-1",           604,       2.77244,      -24.0596,            0.,NA,NA,"",   13.4125E-03,   3.38919E-03,  -12.9772E-03,   2.92732E-03
C:/temp/dataset/3/3_10.odb,Step-1,Increment      1: Step Time =    1.000,"PART-1-1",           605,       3.76359,      -25.5842,            0.,NA,NA,"",   12.7695E-03,   1.96437E-03,  -12.6175E-03,   4.01974E-03
C:/temp/dataset/3/3_10.odb,Step-1,Increment      1: Step Time =    1.000,"PART-1-1",           606,       5.11162,      -24.8806,            0.,NA,NA,"",   21.2449E-03,   6.38569E-03,  -20.2625E-03,   6.21503E-03
C:/temp/dataset/3/3_10.odb,Step-1,Increment      1: Step Time =    1.000,"PART-1-1",           607,       4.12047,      -23.3559,            0.,NA,NA,"",   24.4429E-03,   7.19628E-03,  -23.3596E-03,   5.37871E-03
C:/temp/dataset/3/3_10.odb,Step-1,Increment      1: Step Time =    1.000,"PART-1-1",           608,       8.48587,      -2.76980,            0.,NA,NA,"",   383.927E-03,  -305.586E-03,  -232.416E-03,   11.7416E-03
C:/temp/dataset/3/3_10.odb,Step-1,Increment      1: Step Time =    1.000,"PART-1-1",           609,       9.66601,      -3.38468,            0.,NA,NA,"",   323.109E-03,  -272.725E-03,  -173.264E-03,   7.47601E-03
C:/temp/dataset/3/3_10.odb,Step-1,Increment      1: Step Time =    1.000,"PART-1-1",           610,       9.40849,      -1.21164,            0.,NA,NA,"",   427.599E-03,  -375.901E-03,  -203.813E-03,   9.51862E-03
C:/temp/dataset/3/3_10.odb,Step-1,Increment      1: Step Time =    1.000,"PART-1-1",           611,       3.88333,            5.,            0.,NA,NA,"",   898.591E-03,  -715.548E-03,  -543.559E-03,   10.5715E-03
C:/temp/dataset/3/3_10.odb,Step-1,Increment      1: Step Time =    1.000,"PART-1-1",           612,       3.93709,       2.49951,            0.,NA,NA,"",   800.931E-03,  -600.189E-03,  -530.343E-03,   9.68534E-03
C:/temp/dataset/3/3_10.odb,Step-1,Increment      1: Step Time =    1.000,"PART-1-1",           613,       5.14044,       3.62548,            0.,NA,NA,"",   819.364E-03,  -651.078E-03,  -497.449E-03,   21.4623E-03
C:/temp/dataset/3/3_10.odb,Step-1,Increment      1: Step Time =    1.000,"PART-1-1",           614,       1.70000,           -5.,            0.,NA,NA,"",   640.683E-03,  -208.206E-03,  -605.909E-03,   2.89867E-03
C:/temp/dataset/3/3_10.odb,Step-1,Increment      1: Step Time =    1.000,"PART-1-1",           615,       2.88648,      -4.17028,            0.,NA,NA,"",   595.583E-03,  -256.522E-03,  -537.509E-03,   3.48717E-03
C:/temp/dataset/3/3_10.odb,Step-1,Increment      1: Step Time =    1.000,"PART-1-1",           616,       1.90498,      -3.27989,            0.,NA,NA,"",   670.919E-03,  -304.678E-03,  -597.749E-03,   1.88535E-03
C:/temp/dataset/3/3_10.odb,Step-1,Increment      1: Step Time =    1.000,"PART-1-1",           617,      -2.82853,       3.20340,            0.,NA,NA,"",       1.06085,  -630.068E-03,  -853.475E-03,   669.987E-06
C:/temp/dataset/3/3_10.odb,Step-1,Increment      1: Step Time =    1.000,"PART-1-1",           618,      -1.73717,       4.08745,            0.,NA,NA,"",       1.04630,  -675.346E-03,  -799.158E-03,   846.754E-06
C:/temp/dataset/3/3_10.odb,Step-1,Increment      1: Step Time =    1.000,"PART-1-1",           619,      -2.81667,            5.,            0.,NA,NA,"",       1.11860,  -720.681E-03,  -855.499E-03,   818.063E-06
C:/temp/dataset/3/3_10.odb,Step-1,Increment      1: Step Time =    1.000,"PART-1-1",           620,      -7.28333,            5.,            0.,NA,NA,"",       1.29905,  -716.137E-03,      -1.08383,   78.3308E-06
C:/temp/dataset/3/3_10.odb,Step-1,Increment      1: Step Time =    1.000,"PART-1-1",           621,      -11.7000,            5.,            0.,NA,NA,"",       1.48969,  -710.409E-03,      -1.30939,   3.51215E-06
C:/temp/dataset/3/3_10.odb,Step-1,Increment      1: Step Time =    1.000,"PART-1-1",           622,      -11.5540,       2.50359,            0.,NA,NA,"",       1.42362,  -583.195E-03,      -1.29869,   10.0624E-06
C:/temp/dataset/3/3_10.odb,Step-1,Increment      1: Step Time =    1.000,"PART-1-1",           623,      -8.37698,      -4.01732,            0.,NA,NA,"",       1.15668,  -254.632E-03,      -1.12830,   36.7597E-06
C:/temp/dataset/3/3_10.odb,Step-1,Increment      1: Step Time =    1.000,"PART-1-1",           624,      -10.5279,      -3.86372,            0.,NA,NA,"",       1.26507,  -259.691E-03,      -1.23813,   7.70786E-06
C:/temp/dataset/3/3_10.odb,Step-1,Increment      1: Step Time =    1.000,"PART-1-1",           625,      -9.41667,           -5.,            0.,NA,NA,"",       1.19737,  -203.195E-03,      -1.18000,   11.3113E-06
C:/temp/dataset/3/3_10.odb,Step-1,Increment      1: Step Time =    1.000,"PART-1-1",           626,          3.75,          -20.,            0.,NA,NA,"",   37.0796E-03,   23.9588E-03,  -28.2997E-03,   4.71836E-03
C:/temp/dataset/3/3_10.odb,Step-1,Increment      1: Step Time =    1.000,"PART-1-1",           627,       2.74072,      -21.3682,            0.,NA,NA,"",   21.8753E-03,   12.5817E-03,  -17.8949E-03,   1.78941E-03
C:/temp/dataset/3/3_10.odb,Step-1,Increment      1: Step Time =    1.000,"PART-1-1",           628,       4.11640,      -22.1674,            0.,NA,NA,"",   30.6906E-03,   10.2451E-03,  -28.9301E-03,   6.51084E-03
C:/temp/dataset/3/3_10.odb,Step-1,Increment      1: Step Time =    1.000,"PART-1-1",           629,       5.12568,      -20.7992,            0.,NA,NA,"",   53.7603E-03,   19.5337E-03,  -50.0859E-03,   12.1911E-03
C:/temp/dataset/3/3_10.odb,Step-1,Increment      1: Step Time =    1.000,"PART-1-1",           630,          1.25,          -20.,            0.,NA,NA,"",   20.4573E-03,   17.8569E-03,  -9.98158E-03,   2.65827E-03
C:/temp/dataset/3/3_10.odb,Step-1,Increment      1: Step Time =    1.000,"PART-1-1",           631,   73.0809E-03,      -21.3299,            0.,NA,NA,"",   11.4101E-03,   10.3363E-03,  -4.83224E-03,   1.37358E-03
C:/temp/dataset/3/3_10.odb,Step-1,Increment      1: Step Time =    1.000,"PART-1-1",           632,       1.56380,      -22.6981,            0.,NA,NA,"",   11.4456E-03,   6.28678E-03,  -9.56443E-03,   1.38951E-03
C:/temp/dataset/3/3_10.odb,Step-1,Increment      1: Step Time =    1.000,"PART-1-1",           633,         -1.25,          -20.,            0.,NA,NA,"",   11.9533E-03,   11.5031E-03,  -3.24972E-03,   2.11066E-03
C:/temp/dataset/3/3_10.odb,Step-1,Increment      1: Step Time =    1.000,"PART-1-1",           634,      -2.46493,      -21.3147,            0.,NA,NA,"",   7.67399E-03,   7.62946E-03,  -825.535E-06,   1.10931E-03
C:/temp/dataset/3/3_10.odb,Step-1,Increment      1: Step Time =    1.000,"PART-1-1",           635,      -1.14185,      -22.6446,            0.,NA,NA,"",   5.97819E-03,   5.66377E-03,  -1.91323E-03,   668.353E-06
C:/temp/dataset/3/3_10.odb,Step-1,Increment      1: Step Time =    1.000,"PART-1-1",           636,         -3.75,          -20.,            0.,NA,NA,"",   7.85529E-03,   7.83759E-03,  -527.026E-06,   1.27400E-03
C:/temp/dataset/3/3_10.odb,Step-1,Increment      1: Step Time =    1.000,"PART-1-1",           637,      -4.97847,      -21.2978,            0.,NA,NA,"",   5.81523E-03,   5.79422E-03,   493.889E-06,   750.614E-06
C:/temp/dataset/3/3_10.odb,Step-1,Increment      1: Step Time =    1.000,"PART-1-1",           638,      -3.69340,      -22.6125,            0.,NA,NA,"",   4.87607E-03,   4.86151E-03,   376.509E-06,   795.792E-06
C:/temp/dataset/3/3_10.odb,Step-1,Increment      1: Step Time =    1.000,"PART-1-1",           639,      -4.95791,      -23.8547,            0.,NA,NA,"",   3.16147E-03,   3.06803E-03,   762.940E-06,   618.869E-06
C:/temp/dataset/3/3_10.odb,Step-1,Increment      1: Step Time =    1.000,"PART-1-1",           640,      -6.21189,      -22.5887,            0.,NA,NA,"",   4.24890E-03,   4.16112E-03,   859.203E-06,   633.882E-06
C:/temp/dataset/3/3_10.odb,Step-1,Increment      1: Step Time =    1.000,"PART-1-1",           641,      -7.46939,      -23.8324,            0.,NA,NA,"",   3.11213E-03,   2.99019E-03,   862.613E-06,   504.587E-06
C:/temp/dataset/3/3_10.odb,Step-1,Increment      1: Step Time =    1.000,"PART-1-1",           642,           15.,        -13.75,            0.,NA,NA,"",   22.9551E-03,   14.3134E-03,  -17.9461E-03,   6.34557E-03
C:/temp/dataset/3/3_10.odb,Step-1,Increment      1: Step Time =    1.000,"PART-1-1",           643,       14.2106,      -12.3304,            0.,NA,NA,"",   23.3374E-03,  -4.44761E-03,  -22.9097E-03,   4.96150E-03
C:/temp/dataset/3/3_10.odb,Step-1,Increment      1: Step Time =    1.000,"PART-1-1",           644,       13.1387,      -13.2101,            0.,NA,NA,"",   44.7948E-03,   10.5069E-03,  -43.5451E-03,   2.25985E-03
C:/temp/dataset/3/3_10.odb,Step-1,Increment      1: Step Time =    1.000,"PART-1-1",           645,           15.,        -11.25,            0.,NA,NA,"",   26.5547E-03,  -26.4635E-03,  -2.19861E-03,   7.87442E-03
C:/temp/dataset/3/3_10.odb,Step-1,Increment      1: Step Time =    1.000,"PART-1-1",           646,           15.,         -6.25,            0.,NA,NA,"",   168.381E-03,  -164.506E-03,   35.9157E-03,   9.19707E-03
C:/temp/dataset/3/3_10.odb,Step-1,Increment      1: Step Time =    1.000,"PART-1-1",           647,       14.0624,      -4.92369,            0.,NA,NA,"",   210.713E-03,  -210.500E-03,   9.46228E-03,   6.20985E-03
C:/temp/dataset/3/3_10.odb,Step-1,Increment      1: Step Time =    1.000,"PART-1-1",           648,       12.9264,      -6.09194,            0.,NA,NA,"",   167.254E-03,  -163.196E-03,  -36.6205E-03,   2.72902E-03
C:/temp/dataset/3/3_10.odb,Step-1,Increment      1: Step Time =    1.000,"PART-1-1",           649,           15.,         -3.75,            0.,NA,NA,"",   268.333E-03,  -262.786E-03,   54.2760E-03,   8.68874E-03
C:/temp/dataset/3/3_10.odb,Step-1,Increment      1: Step Time =    1.000,"PART-1-1",           650,       13.0440,      -3.68493,            0.,NA,NA,"",   260.270E-03,  -258.799E-03,  -27.6394E-03,   2.96477E-03
C:/temp/dataset/3/3_10.odb,Step-1,Increment      1: Step Time =    1.000,"PART-1-1",           651,       8.06094,   477.426E-03,            0.,NA,NA,"",   552.197E-03,  -467.473E-03,  -293.924E-03,   13.6701E-03
C:/temp/dataset/3/3_10.odb,Step-1,Increment      1: Step Time =    1.000,"PART-1-1",           652,       8.76493,       2.31856,            0.,NA,NA,"",   621.800E-03,  -556.650E-03,  -277.085E-03,   13.0626E-03
C:/temp/dataset/3/3_10.odb,Step-1,Increment      1: Step Time =    1.000,"PART-1-1",           653,       6.73548,       2.80805,            0.,NA,NA,"",   717.907E-03,  -594.943E-03,  -401.788E-03,   17.1521E-03
C:/temp/dataset/3/3_10.odb,Step-1,Increment      1: Step Time =    1.000,"PART-1-1",           654,       6.03149,   966.916E-03,            0.,NA,NA,"",   652.683E-03,  -508.183E-03,  -409.566E-03,   16.2282E-03
C:/temp/dataset/3/3_10.odb,Step-1,Increment      1: Step Time =    1.000,"PART-1-1",           655,            5.,          8.75,            0.,NA,NA,"",       1.19701,  -994.679E-03,  -665.917E-03,   32.9667E-03
C:/temp/dataset/3/3_10.odb,Step-1,Increment      1: Step Time =    1.000,"PART-1-1",           656,       7.16919,       9.14751,            0.,NA,NA,"",       1.12207,      -1.00741,  -494.141E-03,   21.1074E-03
C:/temp/dataset/3/3_10.odb,Step-1,Increment      1: Step Time =    1.000,"PART-1-1",           657,          3.75,           30.,            0.,NA,NA,"",       3.97748,      -3.66517,      -1.54495,   10.2792E-03
C:/temp/dataset/3/3_10.odb,Step-1,Increment      1: Step Time =    1.000,"PART-1-1",           658,       3.71036,       27.5731,            0.,NA,NA,"",       3.61021,      -3.28492,      -1.49765,   12.0046E-03
C:/temp/dataset/3/3_10.odb,Step-1,Increment      1: Step Time =    1.000,"PART-1-1",           659,       7.38617,       23.8490,            0.,NA,NA,"",       2.85360,      -2.73305,  -820.648E-03,   13.2103E-03
C:/temp/dataset/3/3_10.odb,Step-1,Increment      1: Step Time =    1.000,"PART-1-1",           660,       6.16255,       25.1024,            0.,NA,NA,"",       3.09951,      -2.91898,      -1.04236,   12.8227E-03
C:/temp/dataset/3/3_10.odb,Step-1,Increment      1: Step Time =    1.000,"PART-1-1",           661,       4.93576,       23.8439,            0.,NA,NA,"",       2.97807,      -2.72026,      -1.21206,   16.3345E-03
C:/temp/dataset/3/3_10.odb,Step-1,Increment      1: Step Time =    1.000,"PART-1-1",           662,       6.15938,       22.5905,            0.,NA,NA,"",       2.71930,      -2.53653,  -980.099E-03,   17.4847E-03
C:/temp/dataset/3/3_10.odb,Step-1,Increment      1: Step Time =    1.000,"PART-1-1",           663,      -10.0017,       23.7560,            0.,NA,NA,"",       4.41724,      -2.52443,      -3.62481,   93.2828E-06
C:/temp/dataset/3/3_10.odb,Step-1,Increment      1: Step Time =    1.000,"PART-1-1",           664,      -8.75135,       22.5073,            0.,NA,NA,"",       4.13702,      -2.34181,      -3.41041,   188.751E-06
C:/temp/dataset/3/3_10.odb,Step-1,Increment      1: Step Time =    1.000,"PART-1-1",           665,      -10.0004,       21.2526,            0.,NA,NA,"",       4.17499,      -2.12647,      -3.59286,   55.1731E-06
C:/temp/dataset/3/3_10.odb,Step-1,Increment      1: Step Time =    1.000,"PART-1-1",           666,      -11.2505,       22.5043,            0.,NA,NA,"",       4.45308,      -2.30956,      -3.80734,   57.6107E-06
C:/temp/dataset/3/3_10.odb,Step-1,Increment      1: Step Time =    1.000,"PART-1-1",           667,        -11.25,           20.,            0.,NA,NA,"",       4.23181,      -1.91160,      -3.77545,   23.5318E-06
C:/temp/dataset/3/3_10.odb,Step-1,Increment      1: Step Time =    1.000,"PART-1-1",           668,         -8.75,           20.,            0.,NA,NA,"",       3.89732,      -1.94324,      -3.37830,   127.307E-06
C:/temp/dataset/3/3_10.odb,Step-1,Increment      1: Step Time =    1.000,"PART-1-1",           669,       7.37456,       21.3253,            0.,NA,NA,"",       2.47144,      -2.35093,  -762.343E-03,   15.0133E-03
C:/temp/dataset/3/3_10.odb,Step-1,Increment      1: Step Time =    1.000,"PART-1-1",           670,      -1.26076,       25.0501,            0.,NA,NA,"",       3.62772,      -2.84410,      -2.25199,   1.61665E-03
C:/temp/dataset/3/3_10.odb,Step-1,Increment      1: Step Time =    1.000,"PART-1-1",           671,      -2.50213,       23.7814,            0.,NA,NA,"",       3.57996,      -2.62581,      -2.43335,   534.183E-06
C:/temp/dataset/3/3_10.odb,Step-1,Increment      1: Step Time =    1.000,"PART-1-1",           672,          1.25,           20.,            0.,NA,NA,"",       2.71825,      -2.06063,      -1.77276,   1.80384E-03
C:/temp/dataset/3/3_10.odb,Step-1,Increment      1: Step Time =    1.000,"PART-1-1",           673,            5.,         13.75,            0.,NA,NA,"",       1.66894,      -1.44552,  -834.170E-03,   33.3727E-03
C:/temp/dataset/3/3_10.odb,Step-1,Increment      1: Step Time =    1.000,"PART-1-1",           674,       7.85923,       4.51418,            0.,NA,NA,"",   767.857E-03,  -677.697E-03,  -361.014E-03,   15.1069E-03
C:/temp/dataset/3/3_10.odb,Step-1,Increment      1: Step Time =    1.000,"PART-1-1",           675,       9.45843,       7.45797,            0.,NA,NA,"",   914.729E-03,  -870.221E-03,  -281.857E-03,   8.43468E-03
C:/temp/dataset/3/3_10.odb,Step-1,Increment      1: Step Time =    1.000,"PART-1-1",           676,       11.3500,       8.04392,            0.,NA,NA,"",   928.166E-03,  -918.264E-03,  -135.220E-03,   2.77789E-03
C:/temp/dataset/3/3_10.odb,Step-1,Increment      1: Step Time =    1.000,"PART-1-1",           677,       10.2386,       8.70699,            0.,NA,NA,"",   993.772E-03,  -966.821E-03,  -229.869E-03,   5.45635E-03
C:/temp/dataset/3/3_10.odb,Step-1,Increment      1: Step Time =    1.000,"PART-1-1",           678,   133.314E-03,       2.02047,            0.,NA,NA,"",   908.130E-03,  -575.581E-03,  -702.429E-03,   701.421E-06
C:/temp/dataset/3/3_10.odb,Step-1,Increment      1: Step Time =    1.000,"PART-1-1",           679,       2.26054,       1.70692,            0.,NA,NA,"",   820.836E-03,  -562.405E-03,  -597.890E-03,   3.51043E-03
C:/temp/dataset/3/3_10.odb,Step-1,Increment      1: Step Time =    1.000,"PART-1-1",           680,  -583.333E-03,            5.,            0.,NA,NA,"",       1.03505,  -721.062E-03,  -742.559E-03,   2.04261E-03
C:/temp/dataset/3/3_10.odb,Step-1,Increment      1: Step Time =    1.000,"PART-1-1",           681,  -713.179E-03,       3.09316,            0.,NA,NA,"",   974.553E-03,  -627.147E-03,  -745.949E-03,   910.488E-06
C:/temp/dataset/3/3_10.odb,Step-1,Increment      1: Step Time =    1.000,"PART-1-1",           682,      -10.2084,       1.19941,            0.,NA,NA,"",       1.33325,  -518.416E-03,      -1.22833,   26.6534E-06
C:/temp/dataset/3/3_10.odb,Step-1,Increment      1: Step Time =    1.000,"PART-1-1",           683,      -7.18333,           -5.,            0.,NA,NA,"",       1.08594,  -206.047E-03,      -1.06621,   79.1304E-06
C:/temp/dataset/3/3_10.odb,Step-1,Increment      1: Step Time =    1.000,"PART-1-1",           684,      -7.36178,      -2.99006,            0.,NA,NA,"",       1.12117,  -308.360E-03,      -1.07793,   128.728E-06
C:/temp/dataset/3/3_10.odb,Step-1,Increment      1: Step Time =    1.000,"PART-1-1",           685,      -11.3125,  -91.5578E-03,            0.,NA,NA,"",       1.36001,  -451.099E-03,      -1.28301,   20.4525E-06
C:/temp/dataset/3/3_10.odb,Step-1,Increment      1: Step Time =    1.000,"PART-1-1",           686,      -11.6500,           -5.,            0.,NA,NA,"",       1.30928,  -200.281E-03,      -1.29387,   3.97192E-06
C:/temp/dataset/3/3_10.odb,Step-1,Increment      1: Step Time =    1.000,"PART-1-1",           687,      -11.6245,      -2.63993,            0.,NA,NA,"",       1.33473,  -320.685E-03,      -1.29564,   8.71680E-06
C:/temp/dataset/3/3_10.odb,Step-1,Increment      1: Step Time =    1.000,"PART-1-1",           688,      -1.03706,       1.18772,            0.,NA,NA,"",   927.936E-03,  -532.090E-03,  -760.228E-03,   771.316E-06
C:/temp/dataset/3/3_10.odb,Step-1,Increment      1: Step Time =    1.000,"PART-1-1",           689,      -2.26684,   407.252E-03,            0.,NA,NA,"",   957.143E-03,  -490.200E-03,  -822.087E-03,   772.316E-06
C:/temp/dataset/3/3_10.odb,Step-1,Increment      1: Step Time =    1.000,"PART-1-1",           690,      -1.61706,  -775.207E-03,            0.,NA,NA,"",   898.084E-03,  -430.965E-03,  -787.924E-03,   783.362E-06
C:/temp/dataset/3/3_10.odb,Step-1,Increment      1: Step Time =    1.000,"PART-1-1",           691,      -4.44627,  -189.662E-03,            0.,NA,NA,"",       1.03811,  -455.836E-03,  -932.679E-03,   477.523E-06
C:/temp/dataset/3/3_10.odb,Step-1,Increment      1: Step Time =    1.000,"PART-1-1",           692,      -3.83065,   850.686E-03,            0.,NA,NA,"",       1.03635,  -509.869E-03,  -902.244E-03,   524.401E-06
C:/temp/dataset/3/3_10.odb,Step-1,Increment      1: Step Time =    1.000,"PART-1-1",           693,      -5.38306,   384.196E-03,            0.,NA,NA,"",       1.09377,  -483.605E-03,  -981.045E-03,   317.220E-06
C:/temp/dataset/3/3_10.odb,Step-1,Increment      1: Step Time =    1.000,"PART-1-1",           694,       3.90000,           -5.,            0.,NA,NA,"",   515.100E-03,  -208.667E-03,  -470.942E-03,   9.33584E-03
C:/temp/dataset/3/3_10.odb,Step-1,Increment      1: Step Time =    1.000,"PART-1-1",           695,       5.25667,      -4.01677,            0.,NA,NA,"",   460.933E-03,  -266.000E-03,  -376.435E-03,   20.8354E-03
C:/temp/dataset/3/3_10.odb,Step-1,Increment      1: Step Time =    1.000,"PART-1-1",           696,       4.24316,      -3.18705,            0.,NA,NA,"",   551.376E-03,  -311.624E-03,  -454.869E-03,   11.2862E-03
C:/temp/dataset/3/3_10.odb,Step-1,Increment      1: Step Time =    1.000,"PART-1-1",           697,       9.51721,      -4.82762,            0.,NA,NA,"",   270.106E-03,  -210.771E-03,  -168.917E-03,   6.87600E-03
C:/temp/dataset/3/3_10.odb,Step-1,Increment      1: Step Time =    1.000,"PART-1-1",           698,       8.04384,      -4.93500,            0.,NA,NA,"",   309.912E-03,  -209.030E-03,  -228.806E-03,   11.4031E-03
C:/temp/dataset/3/3_10.odb,Step-1,Increment      1: Step Time =    1.000,"PART-1-1",           699,       8.61490,      -6.56470,            0.,NA,NA,"",   240.559E-03,  -147.829E-03,  -189.776E-03,   9.71212E-03
C:/temp/dataset/3/3_10.odb,Step-1,Increment      1: Step Time =    1.000,"PART-1-1",           700,       10.0883,      -6.45732,            0.,NA,NA,"",   202.573E-03,  -148.925E-03,  -137.321E-03,   5.47703E-03
C:/temp/dataset/3/3_10.odb,Step-1,Increment      1: Step Time =    1.000,"PART-1-1",           701,       9.29828,      -8.00429,            0.,NA,NA,"",   184.320E-03,  -101.412E-03,  -153.914E-03,   8.54843E-03
C:/temp/dataset/3/3_10.odb,Step-1,Increment      1: Step Time =    1.000,"PART-1-1",           702,       6.27674,      -21.4047,            0.,NA,NA,"",   56.4939E-03,   23.5634E-03,  -51.3451E-03,   11.4372E-03
C:/temp/dataset/3/3_10.odb,Step-1,Increment      1: Step Time =    1.000,"PART-1-1",           703,       7.27122,      -20.3583,            0.,NA,NA,"",   71.4154E-03,   33.6939E-03,  -62.9673E-03,   11.1733E-03
C:/temp/dataset/3/3_10.odb,Step-1,Increment      1: Step Time =    1.000,"PART-1-1",           704,         -6.25,          -20.,            0.,NA,NA,"",   5.67686E-03,   5.66710E-03,   332.664E-06,   714.078E-06
C:/temp/dataset/3/3_10.odb,Step-1,Increment      1: Step Time =    1.000,"PART-1-1",           705,         -1.25,          -30.,            0.,NA,NA,"",            0.,  -750.894E-42,  -1.42607E-39,   1.06371E-03
C:/temp/dataset/3/3_10.odb,Step-1,Increment      1: Step Time =    1.000,"PART-1-1",           706,       8.60683,      -25.8105,            0.,NA,NA,"",   25.1876E-03,   14.8893E-03,  -20.3156E-03,   7.18721E-03
C:/temp/dataset/3/3_10.odb,Step-1,Increment      1: Step Time =    1.000,"PART-1-1",           707,       7.41490,      -26.9159,            0.,NA,NA,"",   15.3296E-03,   7.39898E-03,  -13.4258E-03,   6.24343E-03
C:/temp/dataset/3/3_10.odb,Step-1,Increment      1: Step Time =    1.000,"PART-1-1",           708,       6.17638,      -25.8614,            0.,NA,NA,"",   19.0644E-03,   7.05539E-03,  -17.7108E-03,   6.03571E-03
C:/temp/dataset/3/3_10.odb,Step-1,Increment      1: Step Time =    1.000,"PART-1-1",           709,       7.37219,      -25.0876,            0.,NA,NA,"",   27.7285E-03,   13.5033E-03,  -24.2184E-03,   7.69368E-03
C:/temp/dataset/3/3_10.odb,Step-1,Increment      1: Step Time =    1.000,"PART-1-1",           710,       6.30743,      -24.1068,            0.,NA,NA,"",   31.6013E-03,   12.7389E-03,  -28.9200E-03,   7.59902E-03
C:/temp/dataset/3/3_10.odb,Step-1,Increment      1: Step Time =    1.000,"PART-1-1",           711,   113.079E-03,      -23.9373,            0.,NA,NA,"",   4.94784E-03,   2.80013E-03,  -4.07926E-03,   457.861E-06
C:/temp/dataset/3/3_10.odb,Step-1,Increment      1: Step Time =    1.000,"PART-1-1",           712,      -2.43554,      -23.8906,            0.,NA,NA,"",   3.01854E-03,   3.00480E-03,  -287.654E-06,   594.153E-06
C:/temp/dataset/3/3_10.odb,Step-1,Increment      1: Step Time =    1.000,"PART-1-1",           713,      -8.72529,      -25.0755,            0.,NA,NA,"",   2.26077E-03,   2.14555E-03,   712.521E-06,   458.063E-06
C:/temp/dataset/3/3_10.odb,Step-1,Increment      1: Step Time =    1.000,"PART-1-1",           714,      -9.97606,      -23.8175,            0.,NA,NA,"",   3.02327E-03,   2.91475E-03,   802.729E-06,   357.117E-06
C:/temp/dataset/3/3_10.odb,Step-1,Increment      1: Step Time =    1.000,"PART-1-1",           715,      -9.99641,      -28.7682,            0.,NA,NA,"",   430.914E-06,   401.851E-06,   155.572E-06,   280.916E-06
C:/temp/dataset/3/3_10.odb,Step-1,Increment      1: Step Time =    1.000,"PART-1-1",           716,      -11.2465,      -27.5281,            0.,NA,NA,"",   1.06239E-03,   997.641E-06,   365.233E-06,   344.318E-06
C:/temp/dataset/3/3_10.odb,Step-1,Increment      1: Step Time =    1.000,"PART-1-1",           717,        -11.25,          -30.,            0.,NA,NA,"",            0.,   201.602E-42,   337.357E-42,   257.329E-06
C:/temp/dataset/3/3_10.odb,Step-1,Increment      1: Step Time =    1.000,"PART-1-1",           718,         -8.75,          -30.,            0.,NA,NA,"",            0.,   142.208E-42,   211.651E-42,   172.792E-06
C:/temp/dataset/3/3_10.odb,Step-1,Increment      1: Step Time =    1.000,"PART-1-1",           719,      -8.73783,      -27.5479,            0.,NA,NA,"",   856.104E-06,   790.479E-06,   328.720E-06,   345.121E-06
C:/temp/dataset/3/3_10.odb,Step-1,Increment      1: Step Time =    1.000,"PART-1-1",           720,       9.45286,      -20.3748,            0.,NA,NA,"",   69.7828E-03,   41.3576E-03,  -56.2066E-03,   8.69488E-03
C:/temp/dataset/3/3_10.odb,Step-1,Increment      1: Step Time =    1.000,"PART-1-1",           721,       8.38706,      -19.4374,            0.,NA,NA,"",   78.4667E-03,   39.4490E-03,  -67.8292E-03,   9.34448E-03
C:/temp/dataset/3/3_10.odb,Step-1,Increment      1: Step Time =    1.000,"PART-1-1",           722,       8.33702,      -21.2957,            0.,NA,NA,"",   63.2027E-03,   34.1310E-03,  -53.1945E-03,   9.87187E-03
C:/temp/dataset/3/3_10.odb,Step-1,Increment      1: Step Time =    1.000,"PART-1-1",           723,       9.34035,      -18.0986,            0.,NA,NA,"",   83.6857E-03,   42.0361E-03,  -72.3620E-03,   8.61311E-03
C:/temp/dataset/3/3_10.odb,Step-1,Increment      1: Step Time =    1.000,"PART-1-1",           724,       10.7511,      -19.4747,            0.,NA,NA,"",   71.9628E-03,   46.4679E-03,  -54.9488E-03,   6.79743E-03
C:/temp/dataset/3/3_10.odb,Step-1,Increment      1: Step Time =    1.000,"PART-1-1",           725,       9.57777,      -9.07511,            0.,NA,NA,"",   155.155E-03,  -72.1708E-03,  -137.348E-03,   8.27481E-03
C:/temp/dataset/3/3_10.odb,Step-1,Increment      1: Step Time =    1.000,"PART-1-1",           726,       10.3854,      -7.79904,            0.,NA,NA,"",   160.020E-03,  -105.434E-03,  -120.376E-03,   5.29506E-03
C:/temp/dataset/3/3_10.odb,Step-1,Increment      1: Step Time =    1.000,"PART-1-1",           727,       11.9371,      -7.89361,            0.,NA,NA,"",   124.518E-03,  -102.504E-03,  -70.6929E-03,   1.19046E-03
C:/temp/dataset/3/3_10.odb,Step-1,Increment      1: Step Time =    1.000,"PART-1-1",           728,       11.6400,      -6.55190,            0.,NA,NA,"",   166.860E-03,  -145.296E-03,  -82.0461E-03,   1.12284E-03
C:/temp/dataset/3/3_10.odb,Step-1,Increment      1: Step Time =    1.000,"PART-1-1",           729,       9.29748,       3.92298,            0.,NA,NA,"",   692.450E-03,  -641.517E-03,  -260.659E-03,   10.2796E-03
C:/temp/dataset/3/3_10.odb,Step-1,Increment      1: Step Time =    1.000,"PART-1-1",           730,       10.7408,       1.93669,            0.,NA,NA,"",   553.146E-03,  -530.886E-03,  -155.341E-03,   6.00045E-03
C:/temp/dataset/3/3_10.odb,Step-1,Increment      1: Step Time =    1.000,"PART-1-1",           731,       12.1175,       9.30164,            0.,NA,NA,"",       1.02499,      -1.02235,  -73.5395E-03,   4.17178E-03
C:/temp/dataset/3/3_10.odb,Step-1,Increment      1: Step Time =    1.000,"PART-1-1",           732,       12.3743,       7.25826,            0.,NA,NA,"",   865.840E-03,  -864.160E-03,  -53.9095E-03,   5.33505E-03
C:/temp/dataset/3/3_10.odb,Step-1,Increment      1: Step Time =    1.000,"PART-1-1",           733,       9.86952,       23.8294,            0.,NA,NA,"",       2.78257,      -2.74562,  -451.990E-03,   7.97471E-03
C:/temp/dataset/3/3_10.odb,Step-1,Increment      1: Step Time =    1.000,"PART-1-1",           734,       8.61965,       22.5851,            0.,NA,NA,"",       2.61952,      -2.54748,  -610.105E-03,   11.1116E-03
C:/temp/dataset/3/3_10.odb,Step-1,Increment      1: Step Time =    1.000,"PART-1-1",           735,         11.25,           30.,            0.,NA,NA,"",       3.72936,      -3.71435,  -334.179E-03,   4.01747E-03
C:/temp/dataset/3/3_10.odb,Step-1,Increment      1: Step Time =    1.000,"PART-1-1",           736,       9.97488,       28.7673,            0.,NA,NA,"",       3.55201,      -3.51504,  -511.173E-03,   5.05468E-03
C:/temp/dataset/3/3_10.odb,Step-1,Increment      1: Step Time =    1.000,"PART-1-1",           737,          8.75,           30.,            0.,NA,NA,"",       3.76945,      -3.69993,  -720.609E-03,   7.55146E-03
C:/temp/dataset/3/3_10.odb,Step-1,Increment      1: Step Time =    1.000,"PART-1-1",           738,       3.69885,       25.0915,            0.,NA,NA,"",       3.24206,      -2.90232,      -1.44482,   12.5307E-03
C:/temp/dataset/3/3_10.odb,Step-1,Increment      1: Step Time =    1.000,"PART-1-1",           739,       4.94207,       26.3392,            0.,NA,NA,"",       3.35115,      -3.10177,      -1.26855,   13.7294E-03
C:/temp/dataset/3/3_10.odb,Step-1,Increment      1: Step Time =    1.000,"PART-1-1",           740,         -6.25,           30.,            0.,NA,NA,"",       4.72817,      -3.56383,      -3.10721,   514.886E-06
C:/temp/dataset/3/3_10.odb,Step-1,Increment      1: Step Time =    1.000,"PART-1-1",           741,      -11.2519,       25.0060,            0.,NA,NA,"",       4.69775,      -2.70718,      -3.83928,   71.2040E-06
C:/temp/dataset/3/3_10.odb,Step-1,Increment      1: Step Time =    1.000,"PART-1-1",           742,       11.7111,      -12.1867,            0.,NA,NA,"",   70.3639E-03,  -4.78171E-03,  -70.2012E-03,   3.31494E-03
C:/temp/dataset/3/3_10.odb,Step-1,Increment      1: Step Time =    1.000,"PART-1-1",           743,       12.0443,      -13.4388,            0.,NA,NA,"",   63.1783E-03,   13.7067E-03,  -61.6735E-03,   2.98346E-03
C:/temp/dataset/3/3_10.odb,Step-1,Increment      1: Step Time =    1.000,"PART-1-1",           744,       9.07309,      -22.0228,            0.,NA,NA,"",   57.2947E-03,   34.0618E-03,  -46.0704E-03,   9.13485E-03
C:/temp/dataset/3/3_10.odb,Step-1,Increment      1: Step Time =    1.000,"PART-1-1",           745,       9.10959,      -23.2638,            0.,NA,NA,"",   46.7842E-03,   28.4591E-03,  -37.1328E-03,   8.82469E-03
C:/temp/dataset/3/3_10.odb,Step-1,Increment      1: Step Time =    1.000,"PART-1-1",           746,       10.5828,      -23.1781,            0.,NA,NA,"",   49.2989E-03,   34.1358E-03,  -35.5686E-03,   7.51751E-03
C:/temp/dataset/3/3_10.odb,Step-1,Increment      1: Step Time =    1.000,"PART-1-1",           747,       10.5463,      -21.9372,            0.,NA,NA,"",   58.2748E-03,   39.5431E-03,  -42.8054E-03,   7.74319E-03
C:/temp/dataset/3/3_10.odb,Step-1,Increment      1: Step Time =    1.000,"PART-1-1",           748,      -1.00841,      -2.00181,            0.,NA,NA,"",   840.450E-03,  -368.412E-03,  -755.400E-03,   770.706E-06
C:/temp/dataset/3/3_10.odb,Step-1,Increment      1: Step Time =    1.000,"PART-1-1",           749,      -3.17395,      -1.50818,            0.,NA,NA,"",   950.445E-03,  -390.328E-03,  -866.596E-03,   609.211E-06
C:/temp/dataset/3/3_10.odb,Step-1,Increment      1: Step Time =    1.000,"PART-1-1",           750,       8.23699,       8.20647,            0.,NA,NA,"",       1.00591,  -928.133E-03,  -387.843E-03,   15.2886E-03
C:/temp/dataset/3/3_10.odb,Step-1,Increment      1: Step Time =    1.000,"PART-1-1",           751,       8.58975,       6.06422,            0.,NA,NA,"",   841.280E-03,  -773.256E-03,  -331.402E-03,   10.7589E-03
C:/temp/dataset/3/3_10.odb,Step-1,Increment      1: Step Time =    1.000,"PART-1-1",           752,       1.04870,      -2.29850,            0.,NA,NA,"",   738.814E-03,  -356.156E-03,  -647.301E-03,   971.520E-06
C:/temp/dataset/3/3_10.odb,Step-1,Increment      1: Step Time =    1.000,"PART-1-1",           753,      -1.88356,       2.26041,            0.,NA,NA,"",   994.016E-03,  -584.233E-03,  -804.202E-03,   741.853E-06
C:/temp/dataset/3/3_10.odb,Step-1,Increment      1: Step Time =    1.000,"PART-1-1",           754,      -2.91638,       1.44829,            0.,NA,NA,"",       1.01309,  -541.700E-03,  -856.109E-03,   674.042E-06
C:/temp/dataset/3/3_10.odb,Step-1,Increment      1: Step Time =    1.000,"PART-1-1",           755,       3.03453,      -2.52132,            0.,NA,NA,"",   638.176E-03,  -346.613E-03,  -535.843E-03,   5.80277E-03
C:/temp/dataset/3/3_10.odb,Step-1,Increment      1: Step Time =    1.000,"PART-1-1",           756,       6.99799,      -3.46075,            0.,NA,NA,"",   406.873E-03,  -280.794E-03,  -294.449E-03,   15.1096E-03
C:/temp/dataset/3/3_10.odb,Step-1,Increment      1: Step Time =    1.000,"PART-1-1",           757,       7.63560,  -984.386E-03,            0.,NA,NA,"",   496.766E-03,  -397.962E-03,  -297.325E-03,   14.4007E-03
C:/temp/dataset/3/3_10.odb,Step-1,Increment      1: Step Time =    1.000,"PART-1-1",           758,       6.14771,      -1.67534,            0.,NA,NA,"",   523.827E-03,  -375.313E-03,  -365.424E-03,   16.3853E-03
C:/temp/dataset/3/3_10.odb,Step-1,Increment      1: Step Time =    1.000,"PART-1-1",           759,       4.94795,      -26.8240,            0.,NA,NA,"",   11.0859E-03,   2.11144E-03,  -10.8829E-03,   4.70962E-03
C:/temp/dataset/3/3_10.odb,Step-1,Increment      1: Step Time =    1.000,"PART-1-1",           760,      -11.2341,      -25.0541,            0.,NA,NA,"",   2.37772E-03,   2.26049E-03,   737.374E-06,   337.274E-06
C:/temp/dataset/3/3_10.odb,Step-1,Increment      1: Step Time =    1.000,"PART-1-1",           761,      -9.98574,      -26.3021,            0.,NA,NA,"",   1.61269E-03,   1.52344E-03,   529.073E-06,   376.473E-06
C:/temp/dataset/3/3_10.odb,Step-1,Increment      1: Step Time =    1.000,"PART-1-1",           762,           15.,        -26.25,            0.,NA,NA,"",   40.0472E-03,   29.6524E-03,  -26.9168E-03,   5.29698E-03
C:/temp/dataset/3/3_10.odb,Step-1,Increment      1: Step Time =    1.000,"PART-1-1",           763,       9.63478,      -24.7731,            0.,NA,NA,"",   35.2489E-03,   23.1003E-03,  -26.6245E-03,   8.00280E-03
C:/temp/dataset/3/3_10.odb,Step-1,Increment      1: Step Time =    1.000,"PART-1-1",           764,       9.83383,   250.169E-03,            0.,NA,NA,"",   487.161E-03,  -446.390E-03,  -195.094E-03,   8.89206E-03
C:/temp/dataset/3/3_10.odb,Step-1,Increment      1: Step Time =    1.000,"PART-1-1",           765,       11.1222,       22.5628,            0.,NA,NA,"",       2.57747,      -2.56465,  -256.813E-03,   6.90767E-03
C:/temp/dataset/3/3_10.odb,Step-1,Increment      1: Step Time =    1.000,"PART-1-1",           766,       9.84566,       21.3197,            0.,NA,NA,"",       2.40539,      -2.36897,  -417.000E-03,   7.87497E-03
C:/temp/dataset/3/3_10.odb,Step-1,Increment      1: Step Time =    1.000,"PART-1-1",           767,      -3.18112,  -190.353E-03,            0.,NA,NA,"",   981.590E-03,  -458.020E-03,  -868.180E-03,   660.177E-06
C:/temp/dataset/3/3_10.odb,Step-1,Increment      1: Step Time =    1.000,"PART-1-1",           768,       4.54417,       1.21940,            0.,NA,NA,"",   721.158E-03,  -531.304E-03,  -487.632E-03,   12.8688E-03
C:/temp/dataset/3/3_10.odb,Step-1,Increment      1: Step Time =    1.000,"PART-1-1",           769,       9.22107,       9.51460,            0.,NA,NA,"",       1.08202,      -1.03212,  -324.775E-03,   10.6607E-03
C:/temp/dataset/3/3_10.odb,Step-1,Increment      1: Step Time =    1.000,"PART-1-1",           770,       11.1709,      -3.71800,            0.,NA,NA,"",   277.055E-03,  -255.757E-03,  -106.526E-03,   2.82369E-03
C:/temp/dataset/3/3_10.odb,Step-1,Increment      1: Step Time =    1.000,"PART-1-1",           771,       11.0221,      -5.16095,            0.,NA,NA,"",   223.872E-03,  -196.134E-03,  -107.935E-03,   2.72307E-03
C:/temp/dataset/3/3_10.odb,Step-1,Increment      1: Step Time =    1.000,"PART-1-1",           772,       12.3085,      -4.70099,            0.,NA,NA,"",   222.961E-03,  -215.160E-03,  -58.4631E-03,   1.13773E-03
C:/temp/dataset/3/3_10.odb,Step-1,Increment      1: Step Time =    1.000,"PART-1-1",           773,       5.03877,      -2.41022,            0.,NA,NA,"",   541.720E-03,  -346.630E-03,  -416.303E-03,   15.2421E-03
C:/temp/dataset/3/3_10.odb,Step-1,Increment      1: Step Time =    1.000,"PART-1-1",           774,       11.0080,       9.74440,            0.,NA,NA,"",       1.06808,      -1.05433,  -170.790E-03,   2.65162E-03
C:/temp/dataset/3/3_10.odb,Step-1,Increment      1: Step Time =    1.000,"PART-1-1",           775,       7.33953,      -23.4839,            0.,NA,NA,"",   40.6968E-03,   19.6635E-03,  -35.6311E-03,   9.15293E-03
C:/temp/dataset/3/3_10.odb,Step-1,Increment      1: Step Time =    1.000,"PART-1-1",           776,       6.60048,      -22.7490,            0.,NA,NA,"",   44.3560E-03,   18.9507E-03,  -40.1040E-03,   9.52792E-03
C:/temp/dataset/3/3_10.odb,Step-1,Increment      1: Step Time =    1.000,"PART-1-1",           777,       5.56839,      -23.3719,            0.,NA,NA,"",   33.5381E-03,   12.1119E-03,  -31.2746E-03,   8.05013E-03
C:/temp/dataset/3/3_10.odb,Step-1,Increment      1: Step Time =    1.000,"PART-1-1",           778,       5.56431,      -22.1833,            0.,NA,NA,"",   43.1374E-03,   15.9978E-03,  -40.0613E-03,   9.54414E-03
C:/temp/dataset/3/3_10.odb,Step-1,Increment      1: Step Time =    1.000,"PART-1-1",           779,       7.31291,      -21.9704,            0.,NA,NA,"",   55.0237E-03,   26.2878E-03,  -48.3380E-03,   10.5361E-03
C:/temp/dataset/3/3_10.odb,Step-1,Increment      1: Step Time =    1.000,"PART-1-1",           780,       8.04898,      -22.6975,            0.,NA,NA,"",   49.8825E-03,   26.5845E-03,  -42.2081E-03,   9.45059E-03
C:/temp/dataset/3/3_10.odb,Step-1,Increment      1: Step Time =    1.000,"PART-1-1",           781,       5.89213,  -472.373E-03,            0.,NA,NA,"",   589.759E-03,  -436.824E-03,  -396.232E-03,   14.2613E-03
C:/temp/dataset/3/3_10.odb,Step-1,Increment      1: Step Time =    1.000,"PART-1-1",           782,       8.40014,      -24.0502,            0.,NA,NA,"",   38.7237E-03,   21.8944E-03,  -31.9399E-03,   8.37300E-03
