ODB Name,Step,Frame,Part Instance Name,    êﬂì_ÉâÉxÉã,X,Y,Z,Section Name,Material Name,Section Point,   U-Magnitude,          U-U1,          U-U2,       S-Mises
C:/temp/dataset/3/3_3.odb,Step-1,Increment      1: Step Time =    1.000,"PART-1-1",             1,          -15.,           20.,            0.,NA,NA,"",       1.98465,      -1.08666,      -1.66072,   653.783E-09
C:/temp/dataset/3/3_3.odb,Step-1,Increment      1: Step Time =    1.000,"PART-1-1",             2,          -15.,           25.,            0.,NA,NA,"",       2.17757,      -1.39704,      -1.67036,   1.26115E-06
C:/temp/dataset/3/3_3.odb,Step-1,Increment      1: Step Time =    1.000,"PART-1-1",             3,           -5.,           20.,            0.,NA,NA,"",       1.51789,      -1.10558,      -1.04004,   214.236E-06
C:/temp/dataset/3/3_3.odb,Step-1,Increment      1: Step Time =    1.000,"PART-1-1",             4,            5.,           20.,            0.,NA,NA,"",       1.19236,      -1.12753,  -387.795E-03,   12.5470E-03
C:/temp/dataset/3/3_3.odb,Step-1,Increment      1: Step Time =    1.000,"PART-1-1",             5,            5.,          12.5,            0.,NA,NA,"",   827.297E-03,  -770.487E-03,  -301.279E-03,   10.4548E-03
C:/temp/dataset/3/3_3.odb,Step-1,Increment      1: Step Time =    1.000,"PART-1-1",             6,            5.,            5.,            0.,NA,NA,"",   527.633E-03,  -480.087E-03,  -218.889E-03,   11.2212E-03
C:/temp/dataset/3/3_3.odb,Step-1,Increment      1: Step Time =    1.000,"PART-1-1",             7,      -1.70000,            5.,            0.,NA,NA,"",   614.929E-03,  -481.444E-03,  -382.557E-03,   403.833E-06
C:/temp/dataset/3/3_3.odb,Step-1,Increment      1: Step Time =    1.000,"PART-1-1",             8,      -8.40000,            5.,            0.,NA,NA,"",   745.160E-03,  -479.611E-03,  -570.295E-03,   9.31054E-06
C:/temp/dataset/3/3_3.odb,Step-1,Increment      1: Step Time =    1.000,"PART-1-1",             9,          -15.,            5.,            0.,NA,NA,"",   893.254E-03,  -477.018E-03,  -755.219E-03,   124.788E-09
C:/temp/dataset/3/3_3.odb,Step-1,Increment      1: Step Time =    1.000,"PART-1-1",            10,          -15.,            0.,            0.,NA,NA,"",   825.183E-03,  -336.954E-03,  -753.252E-03,   1.99527E-06
C:/temp/dataset/3/3_3.odb,Step-1,Increment      1: Step Time =    1.000,"PART-1-1",            11,          -15.,           -5.,            0.,NA,NA,"",   776.664E-03,  -196.920E-03,  -751.285E-03,   116.583E-09
C:/temp/dataset/3/3_3.odb,Step-1,Increment      1: Step Time =    1.000,"PART-1-1",            12,      -8.30000,           -5.,            0.,NA,NA,"",   597.960E-03,  -199.548E-03,  -563.681E-03,   9.07123E-06
C:/temp/dataset/3/3_3.odb,Step-1,Increment      1: Step Time =    1.000,"PART-1-1",            13,      -1.60000,           -5.,            0.,NA,NA,"",   426.505E-03,  -201.321E-03,  -376.001E-03,   426.102E-06
C:/temp/dataset/3/3_3.odb,Step-1,Increment      1: Step Time =    1.000,"PART-1-1",            14,            5.,           -5.,            0.,NA,NA,"",   261.838E-03,  -201.375E-03,  -167.353E-03,   11.0656E-03
C:/temp/dataset/3/3_3.odb,Step-1,Increment      1: Step Time =    1.000,"PART-1-1",            15,            5.,         -12.5,            0.,NA,NA,"",   119.062E-03,  -71.7624E-03,  -95.0050E-03,   9.33713E-03
C:/temp/dataset/3/3_3.odb,Step-1,Increment      1: Step Time =    1.000,"PART-1-1",            16,            5.,          -20.,            0.,NA,NA,"",   28.3191E-03,   87.8519E-06,  -28.3189E-03,   10.0491E-03
C:/temp/dataset/3/3_3.odb,Step-1,Increment      1: Step Time =    1.000,"PART-1-1",            17,           -5.,          -20.,            0.,NA,NA,"",   623.376E-06,  -610.266E-06,   127.173E-06,   241.671E-06
C:/temp/dataset/3/3_3.odb,Step-1,Increment      1: Step Time =    1.000,"PART-1-1",            18,          -15.,          -20.,            0.,NA,NA,"",   1.26897E-03,  -1.25948E-03,  -154.866E-06,   2.95438E-06
C:/temp/dataset/3/3_3.odb,Step-1,Increment      1: Step Time =    1.000,"PART-1-1",            19,          -15.,          -25.,            0.,NA,NA,"",   885.993E-06,  -859.364E-06,  -215.586E-06,   27.2170E-06
C:/temp/dataset/3/3_3.odb,Step-1,Increment      1: Step Time =    1.000,"PART-1-1",            20,          -15.,          -30.,            0.,NA,NA,"",            0.,  -71.8502E-42,  -111.267E-42,   214.393E-06
C:/temp/dataset/3/3_3.odb,Step-1,Increment      1: Step Time =    1.000,"PART-1-1",            21,           15.,          -30.,            0.,NA,NA,"",            0.,   737.959E-42,  -1.07870E-39,   2.14925E-03
C:/temp/dataset/3/3_3.odb,Step-1,Increment      1: Step Time =    1.000,"PART-1-1",            22,           15.,         -22.5,            0.,NA,NA,"",   7.67163E-03,   6.39626E-03,   4.23578E-03,   2.48950E-03
C:/temp/dataset/3/3_3.odb,Step-1,Increment      1: Step Time =    1.000,"PART-1-1",            23,           15.,          -15.,            0.,NA,NA,"",   45.4127E-03,  -33.7417E-03,   30.3942E-03,   4.79214E-03
C:/temp/dataset/3/3_3.odb,Step-1,Increment      1: Step Time =    1.000,"PART-1-1",            24,           15.,          -7.5,            0.,NA,NA,"",   160.273E-03,  -147.364E-03,   63.0181E-03,   4.92046E-03
C:/temp/dataset/3/3_3.odb,Step-1,Increment      1: Step Time =    1.000,"PART-1-1",            25,           15.,            0.,            0.,NA,NA,"",   343.743E-03,  -332.016E-03,   89.0187E-03,   3.66111E-03
C:/temp/dataset/3/3_3.odb,Step-1,Increment      1: Step Time =    1.000,"PART-1-1",            26,           15.,           7.5,            0.,NA,NA,"",   581.290E-03,  -569.644E-03,   115.772E-03,   5.63555E-03
C:/temp/dataset/3/3_3.odb,Step-1,Increment      1: Step Time =    1.000,"PART-1-1",            27,           15.,           15.,            0.,NA,NA,"",   898.417E-03,  -885.862E-03,   149.674E-03,   6.15027E-03
C:/temp/dataset/3/3_3.odb,Step-1,Increment      1: Step Time =    1.000,"PART-1-1",            28,           15.,          22.5,            0.,NA,NA,"",       1.30191,      -1.29013,   174.755E-03,   3.62272E-03
C:/temp/dataset/3/3_3.odb,Step-1,Increment      1: Step Time =    1.000,"PART-1-1",            29,           15.,           30.,            0.,NA,NA,"",       1.75076,      -1.74247,   170.174E-03,   117.777E-06
C:/temp/dataset/3/3_3.odb,Step-1,Increment      1: Step Time =    1.000,"PART-1-1",            30,           7.5,           30.,            0.,NA,NA,"",       1.76107,      -1.73763,  -286.385E-03,   2.93227E-03
C:/temp/dataset/3/3_3.odb,Step-1,Increment      1: Step Time =    1.000,"PART-1-1",            31,            0.,           30.,            0.,NA,NA,"",       1.88938,      -1.73244,  -753.942E-03,   1.72276E-03
C:/temp/dataset/3/3_3.odb,Step-1,Increment      1: Step Time =    1.000,"PART-1-1",            32,          -7.5,           30.,            0.,NA,NA,"",       2.10694,      -1.72183,      -1.21429,   67.9694E-06
C:/temp/dataset/3/3_3.odb,Step-1,Increment      1: Step Time =    1.000,"PART-1-1",            33,          -15.,           30.,            0.,NA,NA,"",       2.39536,      -1.70744,      -1.68000,   641.032E-09
C:/temp/dataset/3/3_3.odb,Step-1,Increment      1: Step Time =    1.000,"PART-1-1",            34,          -15.,          22.5,            0.,NA,NA,"",       2.07755,      -1.24185,      -1.66554,   916.845E-09
C:/temp/dataset/3/3_3.odb,Step-1,Increment      1: Step Time =    1.000,"PART-1-1",            35,          -7.5,           20.,            0.,NA,NA,"",       1.62509,      -1.10104,      -1.19525,   64.2024E-06
C:/temp/dataset/3/3_3.odb,Step-1,Increment      1: Step Time =    1.000,"PART-1-1",            36,          -10.,           20.,            0.,NA,NA,"",       1.73937,      -1.09630,      -1.35038,   13.2990E-06
C:/temp/dataset/3/3_3.odb,Step-1,Increment      1: Step Time =    1.000,"PART-1-1",            37,         -12.5,           20.,            0.,NA,NA,"",       1.85957,      -1.09149,      -1.50554,   1.14394E-06
C:/temp/dataset/3/3_3.odb,Step-1,Increment      1: Step Time =    1.000,"PART-1-1",            38,           2.5,           20.,            0.,NA,NA,"",       1.25162,      -1.11674,  -565.182E-03,   2.43523E-03
C:/temp/dataset/3/3_3.odb,Step-1,Increment      1: Step Time =    1.000,"PART-1-1",            39,            0.,           20.,            0.,NA,NA,"",       1.32965,      -1.11331,  -726.981E-03,   868.096E-06
C:/temp/dataset/3/3_3.odb,Step-1,Increment      1: Step Time =    1.000,"PART-1-1",            40,          -2.5,           20.,            0.,NA,NA,"",       1.41903,      -1.10972,  -884.400E-03,   427.831E-06
C:/temp/dataset/3/3_3.odb,Step-1,Increment      1: Step Time =    1.000,"PART-1-1",            41,            5.,           15.,            0.,NA,NA,"",   941.901E-03,  -883.216E-03,  -327.271E-03,   10.3169E-03
C:/temp/dataset/3/3_3.odb,Step-1,Increment      1: Step Time =    1.000,"PART-1-1",            42,            5.,          17.5,            0.,NA,NA,"",       1.06380,      -1.00344,  -353.249E-03,   11.7296E-03
C:/temp/dataset/3/3_3.odb,Step-1,Increment      1: Step Time =    1.000,"PART-1-1",            43,            5.,           7.5,            0.,NA,NA,"",   622.607E-03,  -569.824E-03,  -250.880E-03,   10.9903E-03
C:/temp/dataset/3/3_3.odb,Step-1,Increment      1: Step Time =    1.000,"PART-1-1",            44,            5.,           10.,            0.,NA,NA,"",   720.993E-03,  -666.230E-03,  -275.624E-03,   10.2922E-03
C:/temp/dataset/3/3_3.odb,Step-1,Increment      1: Step Time =    1.000,"PART-1-1",            45,   533.333E-03,            5.,            0.,NA,NA,"",   578.321E-03,  -480.972E-03,  -321.124E-03,   1.10711E-03
C:/temp/dataset/3/3_3.odb,Step-1,Increment      1: Step Time =    1.000,"PART-1-1",            46,       2.76667,            5.,            0.,NA,NA,"",   546.830E-03,  -479.335E-03,  -263.175E-03,   2.12011E-03
C:/temp/dataset/3/3_3.odb,Step-1,Increment      1: Step Time =    1.000,"PART-1-1",            47,      -6.16667,            5.,            0.,NA,NA,"",   698.965E-03,  -480.444E-03,  -507.667E-03,   45.2419E-06
C:/temp/dataset/3/3_3.odb,Step-1,Increment      1: Step Time =    1.000,"PART-1-1",            48,      -3.93333,            5.,            0.,NA,NA,"",   655.390E-03,  -481.128E-03,  -445.031E-03,   174.269E-06
C:/temp/dataset/3/3_3.odb,Step-1,Increment      1: Step Time =    1.000,"PART-1-1",            49,      -12.8000,            5.,            0.,NA,NA,"",   842.281E-03,  -477.882E-03,  -693.589E-03,   1.32843E-06
C:/temp/dataset/3/3_3.odb,Step-1,Increment      1: Step Time =    1.000,"PART-1-1",            50,      -10.6000,            5.,            0.,NA,NA,"",   792.820E-03,  -478.749E-03,  -631.952E-03,   1.03587E-06
C:/temp/dataset/3/3_3.odb,Step-1,Increment      1: Step Time =    1.000,"PART-1-1",            51,          -15.,           2.5,            0.,NA,NA,"",   857.035E-03,  -406.983E-03,  -754.237E-03,   1.48264E-06
C:/temp/dataset/3/3_3.odb,Step-1,Increment      1: Step Time =    1.000,"PART-1-1",            52,          -15.,          -2.5,            0.,NA,NA,"",   798.223E-03,  -266.934E-03,  -752.267E-03,   1.48231E-06
C:/temp/dataset/3/3_3.odb,Step-1,Increment      1: Step Time =    1.000,"PART-1-1",            53,      -10.5333,           -5.,            0.,NA,NA,"",   656.962E-03,  -198.677E-03,  -626.200E-03,   1.46770E-06
C:/temp/dataset/3/3_3.odb,Step-1,Increment      1: Step Time =    1.000,"PART-1-1",            54,      -12.7667,           -5.,            0.,NA,NA,"",   716.579E-03,  -197.797E-03,  -688.739E-03,   1.24387E-06
C:/temp/dataset/3/3_3.odb,Step-1,Increment      1: Step Time =    1.000,"PART-1-1",            55,      -3.83333,           -5.,            0.,NA,NA,"",   482.579E-03,  -201.034E-03,  -438.711E-03,   184.460E-06
C:/temp/dataset/3/3_3.odb,Step-1,Increment      1: Step Time =    1.000,"PART-1-1",            56,      -6.06667,           -5.,            0.,NA,NA,"",   539.770E-03,  -200.374E-03,  -501.200E-03,   45.8819E-06
C:/temp/dataset/3/3_3.odb,Step-1,Increment      1: Step Time =    1.000,"PART-1-1",            57,       2.80000,           -5.,            0.,NA,NA,"",   317.078E-03,  -199.381E-03,  -246.547E-03,   2.74091E-03
C:/temp/dataset/3/3_3.odb,Step-1,Increment      1: Step Time =    1.000,"PART-1-1",            58,   600.000E-03,           -5.,            0.,NA,NA,"",   372.071E-03,  -200.903E-03,  -313.169E-03,   1.04736E-03
C:/temp/dataset/3/3_3.odb,Step-1,Increment      1: Step Time =    1.000,"PART-1-1",            59,            5.,          -10.,            0.,NA,NA,"",   159.249E-03,  -108.581E-03,  -116.492E-03,   9.38318E-03
C:/temp/dataset/3/3_3.odb,Step-1,Increment      1: Step Time =    1.000,"PART-1-1",            60,            5.,          -7.5,            0.,NA,NA,"",   205.556E-03,  -152.375E-03,  -137.968E-03,   10.1831E-03
C:/temp/dataset/3/3_3.odb,Step-1,Increment      1: Step Time =    1.000,"PART-1-1",            61,            5.,         -17.5,            0.,NA,NA,"",   57.4349E-03,  -19.2679E-03,  -54.1065E-03,   9.50870E-03
C:/temp/dataset/3/3_3.odb,Step-1,Increment      1: Step Time =    1.000,"PART-1-1",            62,            5.,          -15.,            0.,NA,NA,"",   85.3897E-03,  -42.3290E-03,  -74.1597E-03,   8.91759E-03
C:/temp/dataset/3/3_3.odb,Step-1,Increment      1: Step Time =    1.000,"PART-1-1",            63,          -2.5,          -20.,            0.,NA,NA,"",   711.745E-06,   92.4053E-06,  -705.721E-06,   361.658E-06
C:/temp/dataset/3/3_3.odb,Step-1,Increment      1: Step Time =    1.000,"PART-1-1",            64,            0.,          -20.,            0.,NA,NA,"",   3.31817E-03,   1.16598E-03,  -3.10657E-03,   694.278E-06
C:/temp/dataset/3/3_3.odb,Step-1,Increment      1: Step Time =    1.000,"PART-1-1",            65,           2.5,          -20.,            0.,NA,NA,"",   9.53856E-03,   2.72711E-03,  -9.14040E-03,   2.04860E-03
C:/temp/dataset/3/3_3.odb,Step-1,Increment      1: Step Time =    1.000,"PART-1-1",            66,         -12.5,          -20.,            0.,NA,NA,"",   1.25176E-03,  -1.25091E-03,   46.1222E-06,   14.1479E-06
C:/temp/dataset/3/3_3.odb,Step-1,Increment      1: Step Time =    1.000,"PART-1-1",            67,          -10.,          -20.,            0.,NA,NA,"",   1.20525E-03,  -1.18177E-03,   236.715E-06,   52.6199E-06
C:/temp/dataset/3/3_3.odb,Step-1,Increment      1: Step Time =    1.000,"PART-1-1",            68,          -7.5,          -20.,            0.,NA,NA,"",   1.05042E-03,  -998.887E-06,   324.968E-06,   118.420E-06
C:/temp/dataset/3/3_3.odb,Step-1,Increment      1: Step Time =    1.000,"PART-1-1",            69,          -15.,         -22.5,            0.,NA,NA,"",   1.09078E-03,  -1.07854E-03,  -162.946E-06,   12.8165E-06
C:/temp/dataset/3/3_3.odb,Step-1,Increment      1: Step Time =    1.000,"PART-1-1",            70,          -15.,         -27.5,            0.,NA,NA,"",   557.595E-06,  -498.478E-06,  -249.863E-06,   39.7147E-06
C:/temp/dataset/3/3_3.odb,Step-1,Increment      1: Step Time =    1.000,"PART-1-1",            71,          12.5,          -30.,            0.,NA,NA,"",            0.,   2.71787E-39,  -2.57989E-39,   1.41539E-03
C:/temp/dataset/3/3_3.odb,Step-1,Increment      1: Step Time =    1.000,"PART-1-1",            72,           10.,          -30.,            0.,NA,NA,"",            0.,   951.105E-42,  -1.87588E-39,   1.74880E-03
C:/temp/dataset/3/3_3.odb,Step-1,Increment      1: Step Time =    1.000,"PART-1-1",            73,           7.5,          -30.,            0.,NA,NA,"",            0.,  -88.9979E-42,  -3.91306E-39,   1.68702E-03
C:/temp/dataset/3/3_3.odb,Step-1,Increment      1: Step Time =    1.000,"PART-1-1",            74,            5.,          -30.,            0.,NA,NA,"",            0.,   1.01227E-39,  -4.27394E-39,   1.55474E-03
C:/temp/dataset/3/3_3.odb,Step-1,Increment      1: Step Time =    1.000,"PART-1-1",            75,           2.5,          -30.,            0.,NA,NA,"",            0.,  -15.1803E-42,  -2.78217E-39,   1.34830E-03
C:/temp/dataset/3/3_3.odb,Step-1,Increment      1: Step Time =    1.000,"PART-1-1",            76,            0.,          -30.,            0.,NA,NA,"",            0.,  -505.949E-42,  -1.33332E-39,   1.05619E-03
C:/temp/dataset/3/3_3.odb,Step-1,Increment      1: Step Time =    1.000,"PART-1-1",            77,          -2.5,          -30.,            0.,NA,NA,"",            0.,  -1.27349E-39,  -1.55583E-39,   731.292E-06
C:/temp/dataset/3/3_3.odb,Step-1,Increment      1: Step Time =    1.000,"PART-1-1",            78,           -5.,          -30.,            0.,NA,NA,"",            0.,  -484.479E-42,   1.67315E-42,   472.097E-06
C:/temp/dataset/3/3_3.odb,Step-1,Increment      1: Step Time =    1.000,"PART-1-1",            79,          -7.5,          -30.,            0.,NA,NA,"",            0.,  -349.950E-42,   131.002E-42,   294.684E-06
C:/temp/dataset/3/3_3.odb,Step-1,Increment      1: Step Time =    1.000,"PART-1-1",            80,          -10.,          -30.,            0.,NA,NA,"",            0.,  -299.186E-42,  -235.742E-42,   188.707E-06
C:/temp/dataset/3/3_3.odb,Step-1,Increment      1: Step Time =    1.000,"PART-1-1",            81,         -12.5,          -30.,            0.,NA,NA,"",            0.,  -224.531E-42,  -170.071E-42,   119.232E-06
C:/temp/dataset/3/3_3.odb,Step-1,Increment      1: Step Time =    1.000,"PART-1-1",            82,           15.,          -25.,            0.,NA,NA,"",   7.42916E-03,   7.42866E-03,  -85.6592E-06,   1.36381E-03
C:/temp/dataset/3/3_3.odb,Step-1,Increment      1: Step Time =    1.000,"PART-1-1",            83,           15.,         -27.5,            0.,NA,NA,"",   5.36521E-03,   4.99290E-03,  -1.96380E-03,   194.245E-06
C:/temp/dataset/3/3_3.odb,Step-1,Increment      1: Step Time =    1.000,"PART-1-1",            84,           15.,         -17.5,            0.,NA,NA,"",   23.8491E-03,  -12.6961E-03,   20.1889E-03,   4.39254E-03
C:/temp/dataset/3/3_3.odb,Step-1,Increment      1: Step Time =    1.000,"PART-1-1",            85,           15.,          -20.,            0.,NA,NA,"",   11.1182E-03,   296.713E-06,   11.1142E-03,   3.57892E-03
C:/temp/dataset/3/3_3.odb,Step-1,Increment      1: Step Time =    1.000,"PART-1-1",            86,           15.,          -10.,            0.,NA,NA,"",   113.607E-03,  -100.923E-03,   52.1638E-03,   5.06567E-03
C:/temp/dataset/3/3_3.odb,Step-1,Increment      1: Step Time =    1.000,"PART-1-1",            87,           15.,         -12.5,            0.,NA,NA,"",   75.3542E-03,  -63.1054E-03,   41.1820E-03,   4.97161E-03
C:/temp/dataset/3/3_3.odb,Step-1,Increment      1: Step Time =    1.000,"PART-1-1",            88,           15.,          -2.5,            0.,NA,NA,"",   276.613E-03,  -264.293E-03,   81.6327E-03,   3.86599E-03
C:/temp/dataset/3/3_3.odb,Step-1,Increment      1: Step Time =    1.000,"PART-1-1",            89,           15.,           -5.,            0.,NA,NA,"",   214.994E-03,  -202.199E-03,   73.0626E-03,   4.45727E-03
C:/temp/dataset/3/3_3.odb,Step-1,Increment      1: Step Time =    1.000,"PART-1-1",            90,           15.,            5.,            0.,NA,NA,"",   494.576E-03,  -483.228E-03,   105.340E-03,   4.91593E-03
C:/temp/dataset/3/3_3.odb,Step-1,Increment      1: Step Time =    1.000,"PART-1-1",            91,           15.,           2.5,            0.,NA,NA,"",   415.983E-03,  -404.637E-03,   96.4940E-03,   4.12989E-03
C:/temp/dataset/3/3_3.odb,Step-1,Increment      1: Step Time =    1.000,"PART-1-1",            92,           15.,          12.5,            0.,NA,NA,"",   782.998E-03,  -770.654E-03,   138.486E-03,   6.12607E-03
C:/temp/dataset/3/3_3.odb,Step-1,Increment      1: Step Time =    1.000,"PART-1-1",            93,           15.,           10.,            0.,NA,NA,"",   677.316E-03,  -665.295E-03,   127.041E-03,   5.98165E-03
C:/temp/dataset/3/3_3.odb,Step-1,Increment      1: Step Time =    1.000,"PART-1-1",            94,           15.,           20.,            0.,NA,NA,"",       1.15877,      -1.14638,   169.017E-03,   5.01689E-03
C:/temp/dataset/3/3_3.odb,Step-1,Increment      1: Step Time =    1.000,"PART-1-1",            95,           15.,          17.5,            0.,NA,NA,"",       1.02376,      -1.01115,   160.191E-03,   5.86776E-03
C:/temp/dataset/3/3_3.odb,Step-1,Increment      1: Step Time =    1.000,"PART-1-1",            96,           15.,          27.5,            0.,NA,NA,"",       1.60095,      -1.59141,   174.543E-03,   496.070E-06
C:/temp/dataset/3/3_3.odb,Step-1,Increment      1: Step Time =    1.000,"PART-1-1",            97,           15.,           25.,            0.,NA,NA,"",       1.45039,      -1.43960,   176.546E-03,   1.95662E-03
C:/temp/dataset/3/3_3.odb,Step-1,Increment      1: Step Time =    1.000,"PART-1-1",            98,           10.,           30.,            0.,NA,NA,"",       1.74118,      -1.73634,  -129.686E-03,   1.98763E-03
C:/temp/dataset/3/3_3.odb,Step-1,Increment      1: Step Time =    1.000,"PART-1-1",            99,          12.5,           30.,            0.,NA,NA,"",       1.73833,      -1.73821,   20.2336E-03,   519.121E-06
C:/temp/dataset/3/3_3.odb,Step-1,Increment      1: Step Time =    1.000,"PART-1-1",           100,           2.5,           30.,            0.,NA,NA,"",       1.83754,      -1.73589,  -602.707E-03,   3.13351E-03
C:/temp/dataset/3/3_3.odb,Step-1,Increment      1: Step Time =    1.000,"PART-1-1",           101,            5.,           30.,            0.,NA,NA,"",       1.79331,      -1.73692,  -446.170E-03,   3.47969E-03
C:/temp/dataset/3/3_3.odb,Step-1,Increment      1: Step Time =    1.000,"PART-1-1",           102,           -5.,           30.,            0.,NA,NA,"",       2.02530,      -1.72632,      -1.05909,   246.754E-06
C:/temp/dataset/3/3_3.odb,Step-1,Increment      1: Step Time =    1.000,"PART-1-1",           103,          -2.5,           30.,            0.,NA,NA,"",       1.95241,      -1.73029,  -904.448E-03,   759.840E-06
C:/temp/dataset/3/3_3.odb,Step-1,Increment      1: Step Time =    1.000,"PART-1-1",           104,         -12.5,           30.,            0.,NA,NA,"",       2.29278,      -1.71227,      -1.52479,   1.22230E-06
C:/temp/dataset/3/3_3.odb,Step-1,Increment      1: Step Time =    1.000,"PART-1-1",           105,          -10.,           30.,            0.,NA,NA,"",       2.19637,      -1.71708,      -1.36956,   13.4218E-06
C:/temp/dataset/3/3_3.odb,Step-1,Increment      1: Step Time =    1.000,"PART-1-1",           106,          -15.,          27.5,            0.,NA,NA,"",       2.28378,      -1.55224,      -1.67518,   971.964E-09
C:/temp/dataset/3/3_3.odb,Step-1,Increment      1: Step Time =    1.000,"PART-1-1",           107,      -12.5013,       25.0052,            0.,NA,NA,"",       2.06449,      -1.40219,      -1.51526,   8.82537E-06
C:/temp/dataset/3/3_3.odb,Step-1,Increment      1: Step Time =    1.000,"PART-1-1",           108,      -10.0028,       27.5014,            0.,NA,NA,"",       2.07431,      -1.56197,      -1.36491,   29.4391E-06
C:/temp/dataset/3/3_3.odb,Step-1,Increment      1: Step Time =    1.000,"PART-1-1",           109,      -2.49865,       22.5268,            0.,NA,NA,"",       1.54868,      -1.26777,  -889.482E-03,   192.398E-06
C:/temp/dataset/3/3_3.odb,Step-1,Increment      1: Step Time =    1.000,"PART-1-1",           110,      -2.51000,       27.5279,            0.,NA,NA,"",       1.81693,      -1.57837,  -899.984E-03,   337.736E-06
C:/temp/dataset/3/3_3.odb,Step-1,Increment      1: Step Time =    1.000,"PART-1-1",           111,       12.3864,       22.5464,            0.,NA,NA,"",       1.28608,      -1.28584,   25.1424E-03,   2.25420E-03
C:/temp/dataset/3/3_3.odb,Step-1,Increment      1: Step Time =    1.000,"PART-1-1",           112,       7.35369,       17.5509,            0.,NA,NA,"",       1.02810,      -1.00153,  -232.259E-03,   6.52111E-03
C:/temp/dataset/3/3_3.odb,Step-1,Increment      1: Step Time =    1.000,"PART-1-1",           113,       12.3201,       14.9467,            0.,NA,NA,"",   875.823E-03,  -875.547E-03,   22.0002E-03,   1.66282E-03
C:/temp/dataset/3/3_3.odb,Step-1,Increment      1: Step Time =    1.000,"PART-1-1",           114,       13.2599,       7.39194,            0.,NA,NA,"",   563.650E-03,  -561.233E-03,   52.1407E-03,   2.95535E-03
C:/temp/dataset/3/3_3.odb,Step-1,Increment      1: Step Time =    1.000,"PART-1-1",           115,       7.60504,      -5.98204,            0.,NA,NA,"",   199.393E-03,  -176.624E-03,  -92.5275E-03,   4.19427E-03
C:/temp/dataset/3/3_3.odb,Step-1,Increment      1: Step Time =    1.000,"PART-1-1",           116,       7.71062,      -13.7665,            0.,NA,NA,"",   70.1554E-03,  -47.2532E-03,  -51.8548E-03,   5.41688E-03
C:/temp/dataset/3/3_3.odb,Step-1,Increment      1: Step Time =    1.000,"PART-1-1",           117,       11.7208,      -22.4938,            0.,NA,NA,"",   9.02473E-03,   8.02094E-03,  -4.13646E-03,   1.82069E-03
C:/temp/dataset/3/3_3.odb,Step-1,Increment      1: Step Time =    1.000,"PART-1-1",           118,       2.59328,       2.74806,            0.,NA,NA,"",   496.794E-03,  -420.419E-03,  -264.673E-03,   2.19495E-03
C:/temp/dataset/3/3_3.odb,Step-1,Increment      1: Step Time =    1.000,"PART-1-1",           119,      -1.32361,      -2.98462,            0.,NA,NA,"",   450.854E-03,  -258.675E-03,  -369.264E-03,   292.314E-06
C:/temp/dataset/3/3_3.odb,Step-1,Increment      1: Step Time =    1.000,"PART-1-1",           120,      -6.00563,       3.11026,            0.,NA,NA,"",   659.723E-03,  -427.599E-03,  -502.388E-03,   77.3544E-06
C:/temp/dataset/3/3_3.odb,Step-1,Increment      1: Step Time =    1.000,"PART-1-1",           121,      -10.4102,       2.53863,            0.,NA,NA,"",   747.966E-03,  -409.867E-03,  -625.670E-03,   7.39816E-06
C:/temp/dataset/3/3_3.odb,Step-1,Increment      1: Step Time =    1.000,"PART-1-1",           122,      -12.6184,  -43.2983E-03,            0.,NA,NA,"",   764.638E-03,  -336.675E-03,  -686.528E-03,   1.61119E-06
C:/temp/dataset/3/3_3.odb,Step-1,Increment      1: Step Time =    1.000,"PART-1-1",           123,      -3.88272,       3.23189,            0.,NA,NA,"",   618.525E-03,  -431.807E-03,  -442.849E-03,   165.711E-06
C:/temp/dataset/3/3_3.odb,Step-1,Increment      1: Step Time =    1.000,"PART-1-1",           124,       2.98144,      -22.7363,            0.,NA,NA,"",   9.45672E-03,  -2.30163E-03,  -9.17235E-03,   3.02076E-03
C:/temp/dataset/3/3_3.odb,Step-1,Increment      1: Step Time =    1.000,"PART-1-1",           125,      -2.42987,      -22.6294,            0.,NA,NA,"",   1.58067E-03,  -1.46204E-03,  -600.781E-06,   142.476E-06
C:/temp/dataset/3/3_3.odb,Step-1,Increment      1: Step Time =    1.000,"PART-1-1",           126,      -9.97348,      -22.5672,            0.,NA,NA,"",   1.14032E-03,  -1.11159E-03,   254.348E-06,   46.2739E-06
C:/temp/dataset/3/3_3.odb,Step-1,Increment      1: Step Time =    1.000,"PART-1-1",           127,      -12.4895,      -25.0402,            0.,NA,NA,"",   888.289E-06,  -887.997E-06,   22.7925E-06,   30.3357E-06
C:/temp/dataset/3/3_3.odb,Step-1,Increment      1: Step Time =    1.000,"PART-1-1",           128,       12.8561,      -14.2595,            0.,NA,NA,"",   39.3593E-03,  -38.1737E-03,   9.58768E-03,   1.77212E-03
C:/temp/dataset/3/3_3.odb,Step-1,Increment      1: Step Time =    1.000,"PART-1-1",           129,       12.7281,      -7.33650,            0.,NA,NA,"",   147.881E-03,  -146.791E-03,   17.9216E-03,   1.79976E-03
C:/temp/dataset/3/3_3.odb,Step-1,Increment      1: Step Time =    1.000,"PART-1-1",           130,       12.6427,  -96.8002E-03,            0.,NA,NA,"",   326.723E-03,  -325.923E-03,   22.8487E-03,   1.12345E-03
C:/temp/dataset/3/3_3.odb,Step-1,Increment      1: Step Time =    1.000,"PART-1-1",           131,       7.13014,       10.3328,            0.,NA,NA,"",   699.991E-03,  -673.161E-03,  -191.941E-03,   7.03622E-03
C:/temp/dataset/3/3_3.odb,Step-1,Increment      1: Step Time =    1.000,"PART-1-1",           132,       4.95005,       27.5805,            0.,NA,NA,"",       1.64626,      -1.58710,  -437.370E-03,   3.99490E-03
C:/temp/dataset/3/3_3.odb,Step-1,Increment      1: Step Time =    1.000,"PART-1-1",           133,      -4.99957,       22.5148,            0.,NA,NA,"",       1.63858,      -1.26214,      -1.04497,   177.045E-06
C:/temp/dataset/3/3_3.odb,Step-1,Increment      1: Step Time =    1.000,"PART-1-1",           134,      -7.50186,       22.5094,            0.,NA,NA,"",       1.73792,      -1.25691,      -1.20023,   88.1528E-06
C:/temp/dataset/3/3_3.odb,Step-1,Increment      1: Step Time =    1.000,"PART-1-1",           135,       4.93744,       22.5898,            0.,NA,NA,"",       1.34904,      -1.28467,  -411.730E-03,   5.86431E-03
C:/temp/dataset/3/3_3.odb,Step-1,Increment      1: Step Time =    1.000,"PART-1-1",           136,       2.47758,       22.5593,            0.,NA,NA,"",       1.40235,      -1.27961,  -573.740E-03,   3.41989E-03
C:/temp/dataset/3/3_3.odb,Step-1,Increment      1: Step Time =    1.000,"PART-1-1",           137,  -4.46696E-03,       22.5388,            0.,NA,NA,"",       1.46954,      -1.27375,  -732.872E-03,   699.095E-06
C:/temp/dataset/3/3_3.odb,Step-1,Increment      1: Step Time =    1.000,"PART-1-1",           138,       7.20686,       12.6699,            0.,NA,NA,"",   798.349E-03,  -771.501E-03,  -205.298E-03,   6.81509E-03
C:/temp/dataset/3/3_3.odb,Step-1,Increment      1: Step Time =    1.000,"PART-1-1",           139,       7.30679,       15.0771,            0.,NA,NA,"",   907.258E-03,  -880.676E-03,  -218.007E-03,   6.89108E-03
C:/temp/dataset/3/3_3.odb,Step-1,Increment      1: Step Time =    1.000,"PART-1-1",           140,       7.52839,       5.66323,            0.,NA,NA,"",   520.937E-03,  -499.351E-03,  -148.403E-03,   4.46543E-03
C:/temp/dataset/3/3_3.odb,Step-1,Increment      1: Step Time =    1.000,"PART-1-1",           141,       7.20823,       7.96221,            0.,NA,NA,"",   606.173E-03,  -580.873E-03,  -173.297E-03,   6.79336E-03
C:/temp/dataset/3/3_3.odb,Step-1,Increment      1: Step Time =    1.000,"PART-1-1",           142,      -1.77433,       3.17490,            0.,NA,NA,"",   577.039E-03,  -430.946E-03,  -383.744E-03,   289.274E-06
C:/temp/dataset/3/3_3.odb,Step-1,Increment      1: Step Time =    1.000,"PART-1-1",           143,   347.975E-03,       3.01142,            0.,NA,NA,"",   536.850E-03,  -427.382E-03,  -324.889E-03,   396.188E-06
C:/temp/dataset/3/3_3.odb,Step-1,Increment      1: Step Time =    1.000,"PART-1-1",           144,      -8.17775,       2.85153,            0.,NA,NA,"",   702.286E-03,  -419.510E-03,  -563.219E-03,   28.1029E-06
C:/temp/dataset/3/3_3.odb,Step-1,Increment      1: Step Time =    1.000,"PART-1-1",           145,      -8.45397,      -3.03463,            0.,NA,NA,"",   623.118E-03,  -254.527E-03,  -568.764E-03,   22.5508E-06
C:/temp/dataset/3/3_3.odb,Step-1,Increment      1: Step Time =    1.000,"PART-1-1",           146,      -12.6978,       2.46856,            0.,NA,NA,"",   800.865E-03,  -407.005E-03,  -689.733E-03,   1.06708E-06
C:/temp/dataset/3/3_3.odb,Step-1,Increment      1: Step Time =    1.000,"PART-1-1",           147,      -10.5225,      -2.72745,            0.,NA,NA,"",   679.465E-03,  -262.320E-03,  -626.786E-03,   6.55681E-06
C:/temp/dataset/3/3_3.odb,Step-1,Increment      1: Step Time =    1.000,"PART-1-1",           148,      -12.7265,      -2.55241,            0.,NA,NA,"",   738.297E-03,  -266.358E-03,  -688.575E-03,   1.09270E-06
C:/temp/dataset/3/3_3.odb,Step-1,Increment      1: Step Time =    1.000,"PART-1-1",           149,      -3.80700,      -2.48494,            0.,NA,NA,"",   516.370E-03,  -271.834E-03,  -439.027E-03,   183.068E-06
C:/temp/dataset/3/3_3.odb,Step-1,Increment      1: Step Time =    1.000,"PART-1-1",           150,      -6.26959,      -2.94549,            0.,NA,NA,"",   569.436E-03,  -257.877E-03,  -507.698E-03,   69.7920E-06
C:/temp/dataset/3/3_3.odb,Step-1,Increment      1: Step Time =    1.000,"PART-1-1",           151,       2.97297,      -3.34056,            0.,NA,NA,"",   349.163E-03,  -249.790E-03,  -243.966E-03,   2.40760E-03
C:/temp/dataset/3/3_3.odb,Step-1,Increment      1: Step Time =    1.000,"PART-1-1",           152,   836.982E-03,      -3.21922,            0.,NA,NA,"",   398.216E-03,  -252.840E-03,  -307.649E-03,   360.766E-06
C:/temp/dataset/3/3_3.odb,Step-1,Increment      1: Step Time =    1.000,"PART-1-1",           153,       7.27849,      -10.7647,            0.,NA,NA,"",   115.603E-03,  -88.8715E-03,  -73.9313E-03,   6.23178E-03
C:/temp/dataset/3/3_3.odb,Step-1,Increment      1: Step Time =    1.000,"PART-1-1",           154,       7.20650,      -8.25133,            0.,NA,NA,"",   158.842E-03,  -131.588E-03,  -88.9686E-03,   6.49734E-03
C:/temp/dataset/3/3_3.odb,Step-1,Increment      1: Step Time =    1.000,"PART-1-1",           155,       7.07274,      -17.3233,            0.,NA,NA,"",   42.5163E-03,  -14.6185E-03,  -39.9241E-03,   6.22396E-03
C:/temp/dataset/3/3_3.odb,Step-1,Increment      1: Step Time =    1.000,"PART-1-1",           156,       6.55788,      -15.2577,            0.,NA,NA,"",   65.7897E-03,  -34.2008E-03,  -56.2014E-03,   7.34902E-03
C:/temp/dataset/3/3_3.odb,Step-1,Increment      1: Step Time =    1.000,"PART-1-1",           157,      -7.46685,      -22.5818,            0.,NA,NA,"",   1.22428E-03,  -1.16805E-03,   366.766E-06,   84.3479E-06
C:/temp/dataset/3/3_3.odb,Step-1,Increment      1: Step Time =    1.000,"PART-1-1",           158,      -4.95694,      -22.5955,            0.,NA,NA,"",   1.30380E-03,  -1.28614E-03,   213.869E-06,   122.635E-06
C:/temp/dataset/3/3_3.odb,Step-1,Increment      1: Step Time =    1.000,"PART-1-1",           159,   146.162E-03,      -22.6598,            0.,NA,NA,"",   3.69037E-03,  -2.08413E-03,  -3.04553E-03,   690.231E-06
C:/temp/dataset/3/3_3.odb,Step-1,Increment      1: Step Time =    1.000,"PART-1-1",           160,      -12.4860,      -22.5306,            0.,NA,NA,"",   1.08893E-03,  -1.08776E-03,   50.4325E-06,   25.8210E-06
C:/temp/dataset/3/3_3.odb,Step-1,Increment      1: Step Time =    1.000,"PART-1-1",           161,       9.96020,      -27.7814,            0.,NA,NA,"",   4.44639E-03,   3.82634E-03,  -2.26486E-03,   1.90549E-03
C:/temp/dataset/3/3_3.odb,Step-1,Increment      1: Step Time =    1.000,"PART-1-1",           162,       7.44077,      -27.8946,            0.,NA,NA,"",   3.74245E-03,   1.96969E-03,  -3.18217E-03,   2.20481E-03
C:/temp/dataset/3/3_3.odb,Step-1,Increment      1: Step Time =    1.000,"PART-1-1",           163,       4.93217,      -27.8625,            0.,NA,NA,"",   3.21394E-03,  -133.767E-06,  -3.21116E-03,   2.06884E-03
C:/temp/dataset/3/3_3.odb,Step-1,Increment      1: Step Time =    1.000,"PART-1-1",           164,       2.47767,      -27.7470,            0.,NA,NA,"",   2.84574E-03,  -1.57775E-03,  -2.36832E-03,   1.50129E-03
C:/temp/dataset/3/3_3.odb,Step-1,Increment      1: Step Time =    1.000,"PART-1-1",           165,   19.5837E-03,      -27.6625,            0.,NA,NA,"",   2.34207E-03,  -1.98177E-03,  -1.24815E-03,   925.090E-06
C:/temp/dataset/3/3_3.odb,Step-1,Increment      1: Step Time =    1.000,"PART-1-1",           166,      -2.46955,      -27.6154,            0.,NA,NA,"",   1.78912E-03,  -1.72578E-03,  -471.853E-06,   559.556E-06
C:/temp/dataset/3/3_3.odb,Step-1,Increment      1: Step Time =    1.000,"PART-1-1",           167,      -4.97450,      -27.5844,            0.,NA,NA,"",   1.27338E-03,  -1.27041E-03,  -86.8945E-06,   360.686E-06
C:/temp/dataset/3/3_3.odb,Step-1,Increment      1: Step Time =    1.000,"PART-1-1",           168,      -7.48283,      -27.5594,            0.,NA,NA,"",   885.230E-06,  -884.322E-06,   40.0852E-06,   238.831E-06
C:/temp/dataset/3/3_3.odb,Step-1,Increment      1: Step Time =    1.000,"PART-1-1",           169,       12.2865,      -25.1793,            0.,NA,NA,"",   8.17090E-03,   7.92212E-03,  -2.00091E-03,   1.57763E-03
C:/temp/dataset/3/3_3.odb,Step-1,Increment      1: Step Time =    1.000,"PART-1-1",           170,       11.6753,      -16.4340,            0.,NA,NA,"",   17.4050E-03,  -16.9067E-03,  -4.13463E-03,   631.436E-06
C:/temp/dataset/3/3_3.odb,Step-1,Increment      1: Step Time =    1.000,"PART-1-1",           171,       11.9685,      -19.5802,            0.,NA,NA,"",   3.29534E-03,   1.60731E-03,  -2.87677E-03,   1.39452E-03
C:/temp/dataset/3/3_3.odb,Step-1,Increment      1: Step Time =    1.000,"PART-1-1",           172,       13.3291,      -9.93034,            0.,NA,NA,"",   101.926E-03,  -98.9781E-03,   24.3370E-03,   2.59096E-03
C:/temp/dataset/3/3_3.odb,Step-1,Increment      1: Step Time =    1.000,"PART-1-1",           173,       13.4212,      -12.1607,            0.,NA,NA,"",   68.0768E-03,  -64.8396E-03,   20.7433E-03,   2.67394E-03
C:/temp/dataset/3/3_3.odb,Step-1,Increment      1: Step Time =    1.000,"PART-1-1",           174,       12.9633,      -2.52247,            0.,NA,NA,"",   262.208E-03,  -260.553E-03,   29.4207E-03,   1.68346E-03
C:/temp/dataset/3/3_3.odb,Step-1,Increment      1: Step Time =    1.000,"PART-1-1",           175,       13.1247,      -4.84738,            0.,NA,NA,"",   204.749E-03,  -202.508E-03,   30.2106E-03,   2.19745E-03
C:/temp/dataset/3/3_3.odb,Step-1,Increment      1: Step Time =    1.000,"PART-1-1",           176,       13.1131,       5.12757,            0.,NA,NA,"",   485.128E-03,  -483.232E-03,   42.8402E-03,   2.54962E-03
C:/temp/dataset/3/3_3.odb,Step-1,Increment      1: Step Time =    1.000,"PART-1-1",           177,       12.1418,       2.60140,            0.,NA,NA,"",   403.406E-03,  -403.306E-03,   9.00622E-03,   1.23128E-03
C:/temp/dataset/3/3_3.odb,Step-1,Increment      1: Step Time =    1.000,"PART-1-1",           178,       12.1760,       12.1629,            0.,NA,NA,"",   748.570E-03,  -748.429E-03,   14.5275E-03,   1.38705E-03
C:/temp/dataset/3/3_3.odb,Step-1,Increment      1: Step Time =    1.000,"PART-1-1",           179,       13.0236,       9.64002,            0.,NA,NA,"",   647.242E-03,  -645.513E-03,   47.2672E-03,   2.72798E-03
C:/temp/dataset/3/3_3.odb,Step-1,Increment      1: Step Time =    1.000,"PART-1-1",           180,       12.3784,       20.0377,            0.,NA,NA,"",       1.14088,      -1.14058,   25.9094E-03,   2.18915E-03
C:/temp/dataset/3/3_3.odb,Step-1,Increment      1: Step Time =    1.000,"PART-1-1",           181,       12.3660,       17.5135,            0.,NA,NA,"",       1.00411,      -1.00380,   25.0716E-03,   1.88462E-03
C:/temp/dataset/3/3_3.odb,Step-1,Increment      1: Step Time =    1.000,"PART-1-1",           182,       12.4264,       25.0333,            0.,NA,NA,"",       1.43593,      -1.43572,   24.6625E-03,   2.03828E-03
C:/temp/dataset/3/3_3.odb,Step-1,Increment      1: Step Time =    1.000,"PART-1-1",           183,       7.43491,       27.5684,            0.,NA,NA,"",       1.61059,      -1.58594,  -280.709E-03,   2.74182E-03
C:/temp/dataset/3/3_3.odb,Step-1,Increment      1: Step Time =    1.000,"PART-1-1",           184,  -17.4965E-03,       27.5503,            0.,NA,NA,"",       1.75125,      -1.58382,  -747.253E-03,   1.55047E-03
C:/temp/dataset/3/3_3.odb,Step-1,Increment      1: Step Time =    1.000,"PART-1-1",           185,       2.47067,       27.5656,            0.,NA,NA,"",       1.69379,      -1.58640,  -593.519E-03,   3.42579E-03
C:/temp/dataset/3/3_3.odb,Step-1,Increment      1: Step Time =    1.000,"PART-1-1",           186,      -7.50286,       27.5043,            0.,NA,NA,"",       1.97959,      -1.56701,      -1.20965,   93.9386E-06
C:/temp/dataset/3/3_3.odb,Step-1,Increment      1: Step Time =    1.000,"PART-1-1",           187,      -5.00635,       27.5119,            0.,NA,NA,"",       1.89330,      -1.57238,      -1.05462,   191.179E-06
C:/temp/dataset/3/3_3.odb,Step-1,Increment      1: Step Time =    1.000,"PART-1-1",           188,      -12.5019,       27.5019,            0.,NA,NA,"",       2.17612,      -1.55718,      -1.52009,   6.44539E-06
C:/temp/dataset/3/3_3.odb,Step-1,Increment      1: Step Time =    1.000,"PART-1-1",           189,      -12.5001,       22.5034,            0.,NA,NA,"",       1.95856,      -1.24688,      -1.51037,   6.46900E-06
C:/temp/dataset/3/3_3.odb,Step-1,Increment      1: Step Time =    1.000,"PART-1-1",           190,      -5.00429,       25.0191,            0.,NA,NA,"",       1.76434,      -1.41793,      -1.04993,   205.882E-06
C:/temp/dataset/3/3_3.odb,Step-1,Increment      1: Step Time =    1.000,"PART-1-1",           191,  -15.9173E-03,       25.0642,            0.,NA,NA,"",       1.61055,      -1.43064,  -739.683E-03,   944.640E-06
C:/temp/dataset/3/3_3.odb,Step-1,Increment      1: Step Time =    1.000,"PART-1-1",           192,       9.74355,       15.0604,            0.,NA,NA,"",   883.826E-03,  -878.032E-03,  -101.029E-03,   2.45726E-03
C:/temp/dataset/3/3_3.odb,Step-1,Increment      1: Step Time =    1.000,"PART-1-1",           193,       9.51986,       12.6989,            0.,NA,NA,"",   776.918E-03,  -770.066E-03,  -102.955E-03,   3.01665E-03
C:/temp/dataset/3/3_3.odb,Step-1,Increment      1: Step Time =    1.000,"PART-1-1",           194,       12.1898,      -11.7554,            0.,NA,NA,"",   69.5253E-03,  -69.4227E-03,   3.77576E-03,   935.275E-06
C:/temp/dataset/3/3_3.odb,Step-1,Increment      1: Step Time =    1.000,"PART-1-1",           195,       9.78251,      -13.4248,            0.,NA,NA,"",   55.3026E-03,  -47.9111E-03,  -27.6208E-03,   2.50857E-03
C:/temp/dataset/3/3_3.odb,Step-1,Increment      1: Step Time =    1.000,"PART-1-1",           196,       7.24032,      -19.5057,            0.,NA,NA,"",   28.4505E-03,  -770.056E-06,  -28.4401E-03,   4.08763E-03
C:/temp/dataset/3/3_3.odb,Step-1,Increment      1: Step Time =    1.000,"PART-1-1",           197,      -10.0066,  -139.817E-03,            0.,NA,NA,"",   698.862E-03,  -335.007E-03,  -613.334E-03,   13.4738E-06
C:/temp/dataset/3/3_3.odb,Step-1,Increment      1: Step Time =    1.000,"PART-1-1",           198,      -8.39380,      -1.43672,            0.,NA,NA,"",   641.766E-03,  -299.326E-03,  -567.686E-03,   29.1409E-06
C:/temp/dataset/3/3_3.odb,Step-1,Increment      1: Step Time =    1.000,"PART-1-1",           199,      -5.07121,  -530.035E-03,            0.,NA,NA,"",   576.220E-03,  -326.202E-03,  -474.996E-03,   134.045E-06
C:/temp/dataset/3/3_3.odb,Step-1,Increment      1: Step Time =    1.000,"PART-1-1",           200,      -12.5003,      -27.5198,            0.,NA,NA,"",   512.311E-06,  -511.879E-06,  -21.0400E-06,   120.581E-06
C:/temp/dataset/3/3_3.odb,Step-1,Increment      1: Step Time =    1.000,"PART-1-1",           201,       8.97180,      -8.86122,            0.,NA,NA,"",   128.654E-03,  -117.147E-03,  -53.1817E-03,   3.41573E-03
C:/temp/dataset/3/3_3.odb,Step-1,Increment      1: Step Time =    1.000,"PART-1-1",           202,      -2.50561,       25.0360,            0.,NA,NA,"",       1.68195,      -1.42414,  -894.860E-03,   240.066E-06
C:/temp/dataset/3/3_3.odb,Step-1,Increment      1: Step Time =    1.000,"PART-1-1",           203,      -7.50383,       25.0106,            0.,NA,NA,"",       1.85654,      -1.41231,      -1.20505,   98.5321E-06
C:/temp/dataset/3/3_3.odb,Step-1,Increment      1: Step Time =    1.000,"PART-1-1",           204,       2.46362,       25.0850,            0.,NA,NA,"",       1.54874,      -1.43488,  -582.859E-03,   3.20393E-03
C:/temp/dataset/3/3_3.odb,Step-1,Increment      1: Step Time =    1.000,"PART-1-1",           205,       9.17638,       10.5785,            0.,NA,NA,"",   688.983E-03,  -680.220E-03,  -109.536E-03,   3.47530E-03
C:/temp/dataset/3/3_3.odb,Step-1,Increment      1: Step Time =    1.000,"PART-1-1",           206,       9.65111,       6.46520,            0.,NA,NA,"",   530.782E-03,  -525.001E-03,  -78.1201E-03,   2.33611E-03
C:/temp/dataset/3/3_3.odb,Step-1,Increment      1: Step Time =    1.000,"PART-1-1",           207,      -1.99278,       1.34592,            0.,NA,NA,"",   544.218E-03,  -380.307E-03,  -389.281E-03,   292.058E-06
C:/temp/dataset/3/3_3.odb,Step-1,Increment      1: Step Time =    1.000,"PART-1-1",           208,      -5.69490,       1.29843,            0.,NA,NA,"",   620.710E-03,  -377.094E-03,  -493.033E-03,   103.303E-06
C:/temp/dataset/3/3_3.odb,Step-1,Increment      1: Step Time =    1.000,"PART-1-1",           209,       1.92780,   665.778E-03,            0.,NA,NA,"",   458.814E-03,  -363.314E-03,  -280.203E-03,   1.09266E-03
C:/temp/dataset/3/3_3.odb,Step-1,Increment      1: Step Time =    1.000,"PART-1-1",           210,       1.26043,      -1.37778,            0.,NA,NA,"",   425.878E-03,  -305.746E-03,  -296.465E-03,   534.036E-06
C:/temp/dataset/3/3_3.odb,Step-1,Increment      1: Step Time =    1.000,"PART-1-1",           211,       9.14691,      -16.8280,            0.,NA,NA,"",   29.3538E-03,  -14.6501E-03,  -25.4366E-03,   2.96211E-03
C:/temp/dataset/3/3_3.odb,Step-1,Increment      1: Step Time =    1.000,"PART-1-1",           212,   79.9954E-03,      -25.2148,            0.,NA,NA,"",   3.64669E-03,  -2.70830E-03,  -2.44202E-03,   860.404E-06
C:/temp/dataset/3/3_3.odb,Step-1,Increment      1: Step Time =    1.000,"PART-1-1",           213,      -9.97865,      -25.0679,            0.,NA,NA,"",   1.01633E-03,  -1.00178E-03,   171.332E-06,   88.1755E-06
C:/temp/dataset/3/3_3.odb,Step-1,Increment      1: Step Time =    1.000,"PART-1-1",           214,       12.4671,      -27.6040,            0.,NA,NA,"",   5.00036E-03,   4.88317E-03,  -1.07618E-03,   1.61227E-03
C:/temp/dataset/3/3_3.odb,Step-1,Increment      1: Step Time =    1.000,"PART-1-1",           215,       9.82463,      -25.6838,            0.,NA,NA,"",   8.16312E-03,   6.18735E-03,  -5.32477E-03,   2.37018E-03
C:/temp/dataset/3/3_3.odb,Step-1,Increment      1: Step Time =    1.000,"PART-1-1",           216,       2.56344,      -25.3828,            0.,NA,NA,"",   5.96114E-03,  -2.41152E-03,  -5.45159E-03,   1.83034E-03
C:/temp/dataset/3/3_3.odb,Step-1,Increment      1: Step Time =    1.000,"PART-1-1",           217,      -2.44121,      -25.1518,            0.,NA,NA,"",   2.31610E-03,  -2.22366E-03,  -647.802E-06,   430.897E-06
C:/temp/dataset/3/3_3.odb,Step-1,Increment      1: Step Time =    1.000,"PART-1-1",           218,      -4.95889,      -25.1139,            0.,NA,NA,"",   1.67309E-03,  -1.67217E-03,   55.4677E-06,   245.337E-06
C:/temp/dataset/3/3_3.odb,Step-1,Increment      1: Step Time =    1.000,"PART-1-1",           219,       10.3279,  -771.646E-03,            0.,NA,NA,"",   310.186E-03,  -307.488E-03,  -40.8204E-03,   2.02273E-03
C:/temp/dataset/3/3_3.odb,Step-1,Increment      1: Step Time =    1.000,"PART-1-1",           220,       10.4049,       4.48083,            0.,NA,NA,"",   462.532E-03,  -459.997E-03,  -48.3571E-03,   1.66568E-03
C:/temp/dataset/3/3_3.odb,Step-1,Increment      1: Step Time =    1.000,"PART-1-1",           221,       9.80969,       17.5478,            0.,NA,NA,"",       1.00679,      -1.00123,  -105.620E-03,   1.81448E-03
C:/temp/dataset/3/3_3.odb,Step-1,Increment      1: Step Time =    1.000,"PART-1-1",           222,       9.88106,       25.0797,            0.,NA,NA,"",       1.44029,      -1.43497,  -123.705E-03,   2.13100E-03
C:/temp/dataset/3/3_3.odb,Step-1,Increment      1: Step Time =    1.000,"PART-1-1",           223,       9.94975,       27.5346,            0.,NA,NA,"",       1.59044,      -1.58542,  -126.329E-03,   1.40104E-03
C:/temp/dataset/3/3_3.odb,Step-1,Increment      1: Step Time =    1.000,"PART-1-1",           224,       7.36779,       20.0596,            0.,NA,NA,"",       1.16122,      -1.13461,  -247.155E-03,   4.21631E-03
C:/temp/dataset/3/3_3.odb,Step-1,Increment      1: Step Time =    1.000,"PART-1-1",           225,  -693.206E-03,      -1.01900,            0.,NA,NA,"",   472.408E-03,  -314.883E-03,  -352.162E-03,   325.419E-06
C:/temp/dataset/3/3_3.odb,Step-1,Increment      1: Step Time =    1.000,"PART-1-1",           226,      -7.47194,      -25.0831,            0.,NA,NA,"",   1.27478E-03,  -1.25446E-03,   226.680E-06,   159.667E-06
C:/temp/dataset/3/3_3.odb,Step-1,Increment      1: Step Time =    1.000,"PART-1-1",           227,       5.28089,       2.25097,            0.,NA,NA,"",   448.353E-03,  -403.554E-03,  -195.357E-03,   6.04427E-03
C:/temp/dataset/3/3_3.odb,Step-1,Increment      1: Step Time =    1.000,"PART-1-1",           228,       9.26575,       8.45073,            0.,NA,NA,"",   604.540E-03,  -596.530E-03,  -98.0810E-03,   2.95725E-03
C:/temp/dataset/3/3_3.odb,Step-1,Increment      1: Step Time =    1.000,"PART-1-1",           229,  -81.3472E-03,       1.02952,            0.,NA,NA,"",   501.704E-03,  -372.651E-03,  -335.914E-03,   282.550E-06
C:/temp/dataset/3/3_3.odb,Step-1,Increment      1: Step Time =    1.000,"PART-1-1",           230,      -7.67687,   831.326E-03,            0.,NA,NA,"",   657.770E-03,  -363.160E-03,  -548.431E-03,   44.5001E-06
C:/temp/dataset/3/3_3.odb,Step-1,Increment      1: Step Time =    1.000,"PART-1-1",           231,      -2.54090,  -531.417E-03,            0.,NA,NA,"",   520.213E-03,  -327.534E-03,  -404.158E-03,   269.276E-06
C:/temp/dataset/3/3_3.odb,Step-1,Increment      1: Step Time =    1.000,"PART-1-1",           232,      -3.83997,       1.55066,            0.,NA,NA,"",   585.496E-03,  -385.023E-03,  -441.092E-03,   181.950E-06
C:/temp/dataset/3/3_3.odb,Step-1,Increment      1: Step Time =    1.000,"PART-1-1",           233,      -6.84494,  -996.203E-03,            0.,NA,NA,"",   610.441E-03,  -312.323E-03,  -524.492E-03,   67.7935E-06
C:/temp/dataset/3/3_3.odb,Step-1,Increment      1: Step Time =    1.000,"PART-1-1",           234,       5.51335,      -3.03354,            0.,NA,NA,"",   303.555E-03,  -255.905E-03,  -163.274E-03,   6.68000E-03
C:/temp/dataset/3/3_3.odb,Step-1,Increment      1: Step Time =    1.000,"PART-1-1",           235,       9.62476,      -7.14735,            0.,NA,NA,"",   156.293E-03,  -149.674E-03,  -45.0023E-03,   2.27122E-03
C:/temp/dataset/3/3_3.odb,Step-1,Increment      1: Step Time =    1.000,"PART-1-1",           236,       7.38903,      -25.9371,            0.,NA,NA,"",   7.99614E-03,   3.16792E-03,  -7.34183E-03,   2.85515E-03
C:/temp/dataset/3/3_3.odb,Step-1,Increment      1: Step Time =    1.000,"PART-1-1",           237,       4.96373,      -25.7856,            0.,NA,NA,"",   7.56956E-03,  -157.732E-06,  -7.56791E-03,   2.70451E-03
C:/temp/dataset/3/3_3.odb,Step-1,Increment      1: Step Time =    1.000,"PART-1-1",           238,       9.37191,      -21.3805,            0.,NA,NA,"",   15.4900E-03,   5.84318E-03,  -14.3457E-03,   2.81512E-03
C:/temp/dataset/3/3_3.odb,Step-1,Increment      1: Step Time =    1.000,"PART-1-1",           239,       9.53380,      -19.3691,            0.,NA,NA,"",   17.1584E-03,   666.263E-06,  -17.1455E-03,   2.40847E-03
C:/temp/dataset/3/3_3.odb,Step-1,Increment      1: Step Time =    1.000,"PART-1-1",           240,       10.5518,      -5.76730,            0.,NA,NA,"",   181.538E-03,  -179.448E-03,  -27.4651E-03,   1.11198E-03
C:/temp/dataset/3/3_3.odb,Step-1,Increment      1: Step Time =    1.000,"PART-1-1",           241,       10.8494,      -2.88140,            0.,NA,NA,"",   251.571E-03,  -250.454E-03,  -23.6899E-03,   1.25426E-03
C:/temp/dataset/3/3_3.odb,Step-1,Increment      1: Step Time =    1.000,"PART-1-1",           242,       9.33979,       1.27198,            0.,NA,NA,"",   373.316E-03,  -365.817E-03,  -74.4490E-03,   3.38240E-03
C:/temp/dataset/3/3_3.odb,Step-1,Increment      1: Step Time =    1.000,"PART-1-1",           243,       9.83335,       20.0603,            0.,NA,NA,"",       1.14256,      -1.13711,  -111.447E-03,   2.25538E-03
C:/temp/dataset/3/3_3.odb,Step-1,Increment      1: Step Time =    1.000,"PART-1-1",           244,       7.39102,       25.1069,            0.,NA,NA,"",       1.46133,      -1.43569,  -272.532E-03,   3.45749E-03
C:/temp/dataset/3/3_3.odb,Step-1,Increment      1: Step Time =    1.000,"PART-1-1",           245,       4.93408,       25.0979,            0.,NA,NA,"",       1.49782,      -1.43611,  -425.495E-03,   4.25686E-03
C:/temp/dataset/3/3_3.odb,Step-1,Increment      1: Step Time =    1.000,"PART-1-1",           246,      -10.0026,       25.0068,            0.,NA,NA,"",       1.95705,      -1.40714,      -1.36015,   34.2802E-06
C:/temp/dataset/3/3_3.odb,Step-1,Increment      1: Step Time =    1.000,"PART-1-1",           247,      -10.0008,       22.5051,            0.,NA,NA,"",       1.84493,      -1.25181,      -1.35527,   29.2382E-06
C:/temp/dataset/3/3_3.odb,Step-1,Increment      1: Step Time =    1.000,"PART-1-1",           248,      -9.99283,      -27.5363,            0.,NA,NA,"",   632.551E-06,  -630.755E-06,   47.6356E-06,   161.681E-06
C:/temp/dataset/3/3_3.odb,Step-1,Increment      1: Step Time =    1.000,"PART-1-1",           249,       3.80746,   187.829E-03,            0.,NA,NA,"",   416.081E-03,  -348.585E-03,  -227.181E-03,   3.27289E-03
C:/temp/dataset/3/3_3.odb,Step-1,Increment      1: Step Time =    1.000,"PART-1-1",           250,       11.4886,       7.12458,            0.,NA,NA,"",   549.148E-03,  -548.996E-03,  -12.9067E-03,   863.015E-06
C:/temp/dataset/3/3_3.odb,Step-1,Increment      1: Step Time =    1.000,"PART-1-1",           251,       5.25951,      -23.9756,            0.,NA,NA,"",   12.4146E-03,   18.2156E-06,  -12.4146E-03,   3.65442E-03
C:/temp/dataset/3/3_3.odb,Step-1,Increment      1: Step Time =    1.000,"PART-1-1",           252,       9.85798,       22.5791,            0.,NA,NA,"",       1.28907,      -1.28371,  -117.332E-03,   2.61818E-03
C:/temp/dataset/3/3_3.odb,Step-1,Increment      1: Step Time =    1.000,"PART-1-1",           253,       7.38133,       22.5911,            0.,NA,NA,"",       1.30963,      -1.28354,  -260.093E-03,   4.69957E-03
C:/temp/dataset/3/3_3.odb,Step-1,Increment      1: Step Time =    1.000,"PART-1-1",           254,       9.03817,      -10.9527,            0.,NA,NA,"",   94.0379E-03,  -82.5070E-03,  -45.1189E-03,   3.54926E-03
C:/temp/dataset/3/3_3.odb,Step-1,Increment      1: Step Time =    1.000,"PART-1-1",           255,       7.30212,      -21.2110,            0.,NA,NA,"",   22.4450E-03,   3.37480E-03,  -22.1898E-03,   4.40009E-03
C:/temp/dataset/3/3_3.odb,Step-1,Increment      1: Step Time =    1.000,"PART-1-1",           256,       8.48263,      -3.88795,            0.,NA,NA,"",   239.929E-03,  -226.423E-03,  -79.3657E-03,   3.84418E-03
C:/temp/dataset/3/3_3.odb,Step-1,Increment      1: Step Time =    1.000,"PART-1-1",           257,       8.48912,      -1.65164,            0.,NA,NA,"",   299.212E-03,  -286.063E-03,  -87.7260E-03,   4.27821E-03
C:/temp/dataset/3/3_3.odb,Step-1,Increment      1: Step Time =    1.000,"PART-1-1",           258,       8.19007,       3.36514,            0.,NA,NA,"",   443.839E-03,  -428.038E-03,  -117.373E-03,   4.78663E-03
C:/temp/dataset/3/3_3.odb,Step-1,Increment      1: Step Time =    1.000,"PART-1-1",           259,       6.78208,  -317.133E-03,            0.,NA,NA,"",   356.481E-03,  -327.380E-03,  -141.070E-03,   5.38495E-03
C:/temp/dataset/3/3_3.odb,Step-1,Increment      1: Step Time =    1.000,"PART-1-1",           260,       11.8604,      -10.2109,            0.,NA,NA,"",   92.9932E-03,  -92.9917E-03,  -538.161E-06,   538.604E-06
C:/temp/dataset/3/3_3.odb,Step-1,Increment      1: Step Time =    1.000,"PART-1-1",           261,       5.00218,  -627.613E-03,            0.,NA,NA,"",   375.164E-03,  -323.491E-03,  -190.005E-03,   4.75572E-03
C:/temp/dataset/3/3_3.odb,Step-1,Increment      1: Step Time =    1.000,"PART-1-1",           262,       11.1460,      -8.45072,            0.,NA,NA,"",   124.510E-03,  -123.797E-03,  -13.3039E-03,   372.620E-06
C:/temp/dataset/3/3_3.odb,Step-1,Increment      1: Step Time =    1.000,"PART-1-1",           263,       11.7180,       5.54683,            0.,NA,NA,"",   495.241E-03,  -495.220E-03,  -4.55649E-03,   1.20604E-03
C:/temp/dataset/3/3_3.odb,Step-1,Increment      1: Step Time =    1.000,"PART-1-1",           264,       5.25136,      -21.5985,            0.,NA,NA,"",   20.7269E-03,  -461.991E-06,  -20.7217E-03,   5.64672E-03
C:/temp/dataset/3/3_3.odb,Step-1,Increment      1: Step Time =    1.000,"PART-1-1",           265,       12.4723,       27.5096,            0.,NA,NA,"",       1.58741,      -1.58723,   23.4572E-03,   1.48195E-03
C:/temp/dataset/3/3_3.odb,Step-1,Increment      1: Step Time =    1.000,"PART-1-1",           266,       5.87727,      -22.7682,            0.,NA,NA,"",   17.1583E-03,   812.411E-06,  -17.1391E-03,   4.27502E-03
C:/temp/dataset/3/3_3.odb,Step-1,Increment      1: Step Time =    1.000,"PART-1-1",           267,       7.32369,      -22.7299,            0.,NA,NA,"",   17.1971E-03,   3.95247E-03,  -16.7367E-03,   4.09055E-03
C:/temp/dataset/3/3_3.odb,Step-1,Increment      1: Step Time =    1.000,"PART-1-1",           268,       11.4923,      -4.55460,            0.,NA,NA,"",   208.377E-03,  -208.256E-03,  -7.08947E-03,   848.107E-06
C:/temp/dataset/3/3_3.odb,Step-1,Increment      1: Step Time =    1.000,"PART-1-1",           269,       11.2115,       8.96325,            0.,NA,NA,"",   617.075E-03,  -616.597E-03,  -24.3042E-03,   450.631E-06
C:/temp/dataset/3/3_3.odb,Step-1,Increment      1: Step Time =    1.000,"PART-1-1",           270,       10.8046,       10.5255,            0.,NA,NA,"",   679.427E-03,  -678.100E-03,  -42.4346E-03,   865.752E-06
C:/temp/dataset/3/3_3.odb,Step-1,Increment      1: Step Time =    1.000,"PART-1-1",           271,       7.35536,      -24.2380,            0.,NA,NA,"",   12.4095E-03,   3.78547E-03,  -11.8180E-03,   3.47169E-03
C:/temp/dataset/3/3_3.odb,Step-1,Increment      1: Step Time =    1.000,"PART-1-1",           272,      -3.82134,   150.711E-03,            0.,NA,NA,"",   559.852E-03,  -345.928E-03,  -440.191E-03,   198.022E-06
C:/temp/dataset/3/3_3.odb,Step-1,Increment      1: Step Time =    1.000,"PART-1-1",           273,       3.09609,      -1.70207,            0.,NA,NA,"",   382.977E-03,  -296.669E-03,  -242.197E-03,   2.47862E-03
C:/temp/dataset/3/3_3.odb,Step-1,Increment      1: Step Time =    1.000,"PART-1-1",           274,       4.56419,      -1.78689,            0.,NA,NA,"",   353.126E-03,  -292.527E-03,  -197.803E-03,   4.44793E-03
C:/temp/dataset/3/3_3.odb,Step-1,Increment      1: Step Time =    1.000,"PART-1-1",           275,       9.44492,      -23.8624,            0.,NA,NA,"",   11.5108E-03,   6.90241E-03,  -9.21169E-03,   2.86155E-03
C:/temp/dataset/3/3_3.odb,Step-1,Increment      1: Step Time =    1.000,"PART-1-1",           276,       8.77427,      -22.6651,            0.,NA,NA,"",   14.9049E-03,   6.14498E-03,  -13.5792E-03,   3.25245E-03
C:/temp/dataset/3/3_3.odb,Step-1,Increment      1: Step Time =    1.000,"PART-1-1",           277,       10.1837,      -9.28900,            0.,NA,NA,"",   112.751E-03,  -108.690E-03,  -29.9892E-03,   1.74395E-03
C:/temp/dataset/3/3_3.odb,Step-1,Increment      1: Step Time =    1.000,"PART-1-1",           278,       10.4979,      -10.7612,            0.,NA,NA,"",   87.1057E-03,  -84.1764E-03,  -22.3994E-03,   1.45357E-03
C:/temp/dataset/3/3_3.odb,Step-1,Increment      1: Step Time =    1.000,"PART-1-1",           279,       11.2325,      -12.6180,            0.,NA,NA,"",   58.1412E-03,  -57.3148E-03,  -9.76818E-03,   554.954E-06
C:/temp/dataset/3/3_3.odb,Step-1,Increment      1: Step Time =    1.000,"PART-1-1",           280,      -13.7500,       22.5017,            0.,NA,NA,"",       2.01743,      -1.24437,      -1.58795,   3.15110E-06
C:/temp/dataset/3/3_3.odb,Step-1,Increment      1: Step Time =    1.000,"PART-1-1",           281,          -15.,         21.25,            0.,NA,NA,"",       2.03015,      -1.16426,      -1.66313,   640.396E-09
C:/temp/dataset/3/3_3.odb,Step-1,Increment      1: Step Time =    1.000,"PART-1-1",           282,        -13.75,           20.,            0.,NA,NA,"",       1.92156,      -1.08908,      -1.58313,   232.774E-09
C:/temp/dataset/3/3_3.odb,Step-1,Increment      1: Step Time =    1.000,"PART-1-1",           283,      -12.5000,       21.2517,            0.,NA,NA,"",       1.90812,      -1.16918,      -1.50796,   2.80296E-06
C:/temp/dataset/3/3_3.odb,Step-1,Increment      1: Step Time =    1.000,"PART-1-1",           284,        -11.25,           30.,            0.,NA,NA,"",       2.24376,      -1.71468,      -1.44718,   7.46969E-06
C:/temp/dataset/3/3_3.odb,Step-1,Increment      1: Step Time =    1.000,"PART-1-1",           285,      -12.5009,       28.7510,            0.,NA,NA,"",       2.23386,      -1.63472,      -1.52244,   2.93347E-06
C:/temp/dataset/3/3_3.odb,Step-1,Increment      1: Step Time =    1.000,"PART-1-1",           286,      -11.2523,       27.5017,            0.,NA,NA,"",       2.12441,      -1.55957,      -1.44251,   17.5336E-06
C:/temp/dataset/3/3_3.odb,Step-1,Increment      1: Step Time =    1.000,"PART-1-1",           287,      -10.0014,       28.7507,            0.,NA,NA,"",       2.13479,      -1.63952,      -1.36723,   16.5810E-06
C:/temp/dataset/3/3_3.odb,Step-1,Increment      1: Step Time =    1.000,"PART-1-1",           288,      -8.75282,       27.5029,            0.,NA,NA,"",       2.02601,      -1.56449,      -1.28729,   60.3647E-06
C:/temp/dataset/3/3_3.odb,Step-1,Increment      1: Step Time =    1.000,"PART-1-1",           289,      -10.0027,       26.2541,            0.,NA,NA,"",       2.01504,      -1.48456,      -1.36253,   28.3675E-06
C:/temp/dataset/3/3_3.odb,Step-1,Increment      1: Step Time =    1.000,"PART-1-1",           290,      -8.75320,       25.0087,            0.,NA,NA,"",       1.90587,      -1.40971,      -1.28260,   64.5920E-06
C:/temp/dataset/3/3_3.odb,Step-1,Increment      1: Step Time =    1.000,"PART-1-1",           291,      -7.50334,       26.2575,            0.,NA,NA,"",       1.91750,      -1.48968,      -1.20734,   81.8395E-06
C:/temp/dataset/3/3_3.odb,Step-1,Increment      1: Step Time =    1.000,"PART-1-1",           292,  -10.1921E-03,       23.8015,            0.,NA,NA,"",       1.53967,      -1.35229,  -736.135E-03,   806.718E-06
C:/temp/dataset/3/3_3.odb,Step-1,Increment      1: Step Time =    1.000,"PART-1-1",           293,       1.23656,       22.5490,            0.,NA,NA,"",       1.43438,      -1.27679,  -653.630E-03,   1.59796E-03
C:/temp/dataset/3/3_3.odb,Step-1,Increment      1: Step Time =    1.000,"PART-1-1",           294,       2.47060,       23.8222,            0.,NA,NA,"",       1.47562,      -1.35778,  -577.828E-03,   2.87355E-03
C:/temp/dataset/3/3_3.odb,Step-1,Increment      1: Step Time =    1.000,"PART-1-1",           295,       1.22385,       25.0746,            0.,NA,NA,"",       1.57843,      -1.43301,  -661.754E-03,   2.03689E-03
C:/temp/dataset/3/3_3.odb,Step-1,Increment      1: Step Time =    1.000,"PART-1-1",           296,       13.7132,       25.0166,            0.,NA,NA,"",       1.44087,      -1.43740,   99.9022E-03,   1.66904E-03
C:/temp/dataset/3/3_3.odb,Step-1,Increment      1: Step Time =    1.000,"PART-1-1",           297,           15.,         26.25,            0.,NA,NA,"",       1.52562,      -1.51544,   175.939E-03,   1.23718E-03
C:/temp/dataset/3/3_3.odb,Step-1,Increment      1: Step Time =    1.000,"PART-1-1",           298,       13.7362,       27.5048,            0.,NA,NA,"",       1.59224,      -1.58918,   98.5255E-03,   857.048E-06
C:/temp/dataset/3/3_3.odb,Step-1,Increment      1: Step Time =    1.000,"PART-1-1",           299,       12.4494,       26.2714,            0.,NA,NA,"",       1.51160,      -1.51141,   24.1834E-03,   1.73454E-03
C:/temp/dataset/3/3_3.odb,Step-1,Increment      1: Step Time =    1.000,"PART-1-1",           300,       6.19248,       27.5744,            0.,NA,NA,"",       1.62641,      -1.58635,  -358.762E-03,   3.56266E-03
C:/temp/dataset/3/3_3.odb,Step-1,Increment      1: Step Time =    1.000,"PART-1-1",           301,       7.46746,       28.7842,            0.,NA,NA,"",       1.68461,      -1.66058,  -283.511E-03,   2.82582E-03
C:/temp/dataset/3/3_3.odb,Step-1,Increment      1: Step Time =    1.000,"PART-1-1",           302,          6.25,           30.,            0.,NA,NA,"",       1.77577,      -1.73732,  -367.500E-03,   3.27803E-03
C:/temp/dataset/3/3_3.odb,Step-1,Increment      1: Step Time =    1.000,"PART-1-1",           303,       4.97503,       28.7903,            0.,NA,NA,"",       1.71948,      -1.66174,  -441.839E-03,   3.69569E-03
C:/temp/dataset/3/3_3.odb,Step-1,Increment      1: Step Time =    1.000,"PART-1-1",           304,       11.0878,       17.5306,            0.,NA,NA,"",       1.00293,      -1.00213,  -40.1705E-03,   674.092E-06
C:/temp/dataset/3/3_3.odb,Step-1,Increment      1: Step Time =    1.000,"PART-1-1",           305,       12.3722,       18.7756,            0.,NA,NA,"",       1.07118,      -1.07087,   25.5901E-03,   1.98743E-03
C:/temp/dataset/3/3_3.odb,Step-1,Increment      1: Step Time =    1.000,"PART-1-1",           306,       11.1059,       20.0490,            0.,NA,NA,"",       1.13934,      -1.13854,  -42.6876E-03,   1.58990E-03
C:/temp/dataset/3/3_3.odb,Step-1,Increment      1: Step Time =    1.000,"PART-1-1",           307,       9.82152,       18.8041,            0.,NA,NA,"",       1.07333,      -1.06784,  -108.472E-03,   1.82007E-03
C:/temp/dataset/3/3_3.odb,Step-1,Increment      1: Step Time =    1.000,"PART-1-1",           308,       9.63171,       13.8797,            0.,NA,NA,"",   829.322E-03,  -823.001E-03,  -102.196E-03,   2.74652E-03
C:/temp/dataset/3/3_3.odb,Step-1,Increment      1: Step Time =    1.000,"PART-1-1",           309,       8.52517,       15.0687,            0.,NA,NA,"",   893.114E-03,  -878.785E-03,  -159.344E-03,   4.61574E-03
C:/temp/dataset/3/3_3.odb,Step-1,Increment      1: Step Time =    1.000,"PART-1-1",           310,       7.25683,       13.8735,            0.,NA,NA,"",   851.800E-03,  -825.084E-03,  -211.660E-03,   6.80139E-03
C:/temp/dataset/3/3_3.odb,Step-1,Increment      1: Step Time =    1.000,"PART-1-1",           311,       8.36336,       12.6844,            0.,NA,NA,"",   785.526E-03,  -770.247E-03,  -154.177E-03,   4.90361E-03
C:/temp/dataset/3/3_3.odb,Step-1,Increment      1: Step Time =    1.000,"PART-1-1",           312,       14.0118,       9.82001,            0.,NA,NA,"",   660.783E-03,  -655.031E-03,   86.9977E-03,   4.34518E-03
C:/temp/dataset/3/3_3.odb,Step-1,Increment      1: Step Time =    1.000,"PART-1-1",           313,           15.,         11.25,            0.,NA,NA,"",   728.954E-03,  -716.758E-03,   132.783E-03,   6.04862E-03
C:/temp/dataset/3/3_3.odb,Step-1,Increment      1: Step Time =    1.000,"PART-1-1",           314,       13.5880,       12.3315,            0.,NA,NA,"",   762.599E-03,  -758.780E-03,   76.2255E-03,   3.74826E-03
C:/temp/dataset/3/3_3.odb,Step-1,Increment      1: Step Time =    1.000,"PART-1-1",           315,       12.5998,       10.9015,            0.,NA,NA,"",   696.446E-03,  -695.724E-03,   31.7077E-03,   2.05147E-03
C:/temp/dataset/3/3_3.odb,Step-1,Increment      1: Step Time =    1.000,"PART-1-1",           316,       4.40482,  -219.892E-03,            0.,NA,NA,"",   395.777E-03,  -336.192E-03,  -208.840E-03,   4.08146E-03
C:/temp/dataset/3/3_3.odb,Step-1,Increment      1: Step Time =    1.000,"PART-1-1",           317,       3.45177,  -757.122E-03,            0.,NA,NA,"",   398.777E-03,  -322.727E-03,  -234.243E-03,   2.72698E-03
C:/temp/dataset/3/3_3.odb,Step-1,Increment      1: Step Time =    1.000,"PART-1-1",           318,       3.83014,      -1.74448,            0.,NA,NA,"",   367.900E-03,  -294.746E-03,  -220.172E-03,   3.54404E-03
C:/temp/dataset/3/3_3.odb,Step-1,Increment      1: Step Time =    1.000,"PART-1-1",           319,       4.78319,      -1.20725,            0.,NA,NA,"",   363.874E-03,  -308.031E-03,  -193.705E-03,   4.48606E-03
C:/temp/dataset/3/3_3.odb,Step-1,Increment      1: Step Time =    1.000,"PART-1-1",           320,       10.3408,      -10.0251,            0.,NA,NA,"",   99.5357E-03,  -96.0596E-03,  -26.0748E-03,   1.60036E-03
C:/temp/dataset/3/3_3.odb,Step-1,Increment      1: Step Time =    1.000,"PART-1-1",           321,       11.1792,      -10.4860,            0.,NA,NA,"",   89.1472E-03,  -88.3771E-03,  -11.6918E-03,   493.323E-06
C:/temp/dataset/3/3_3.odb,Step-1,Increment      1: Step Time =    1.000,"PART-1-1",           322,       11.5032,      -9.33080,            0.,NA,NA,"",   108.056E-03,  -107.858E-03,  -6.54140E-03,   172.600E-06
C:/temp/dataset/3/3_3.odb,Step-1,Increment      1: Step Time =    1.000,"PART-1-1",           323,       10.6649,      -8.86986,            0.,NA,NA,"",   118.095E-03,  -116.041E-03,  -21.9278E-03,   1.05200E-03
C:/temp/dataset/3/3_3.odb,Step-1,Increment      1: Step Time =    1.000,"PART-1-1",           324,       9.41034,      -12.1888,            0.,NA,NA,"",   73.4922E-03,  -64.2100E-03,  -35.7516E-03,   3.03317E-03
C:/temp/dataset/3/3_3.odb,Step-1,Increment      1: Step Time =    1.000,"PART-1-1",           325,       10.5075,      -13.0214,            0.,NA,NA,"",   55.7443E-03,  -52.3763E-03,  -19.0828E-03,   1.50223E-03
C:/temp/dataset/3/3_3.odb,Step-1,Increment      1: Step Time =    1.000,"PART-1-1",           326,       10.8652,      -11.6896,            0.,NA,NA,"",   71.8822E-03,  -70.1530E-03,  -15.6717E-03,   982.510E-06
C:/temp/dataset/3/3_3.odb,Step-1,Increment      1: Step Time =    1.000,"PART-1-1",           327,       9.76802,      -10.8570,            0.,NA,NA,"",   89.7735E-03,  -83.1564E-03,  -33.8275E-03,   2.49582E-03
C:/temp/dataset/3/3_3.odb,Step-1,Increment      1: Step Time =    1.000,"PART-1-1",           328,       6.12016,      -19.7528,            0.,NA,NA,"",   30.9298E-03,   105.092E-06,  -30.9296E-03,   6.67779E-03
C:/temp/dataset/3/3_3.odb,Step-1,Increment      1: Step Time =    1.000,"PART-1-1",           329,       7.15653,      -18.4145,            0.,NA,NA,"",   33.8369E-03,  -6.05964E-03,  -33.2899E-03,   4.86469E-03
C:/temp/dataset/3/3_3.odb,Step-1,Increment      1: Step Time =    1.000,"PART-1-1",           330,       6.03637,      -17.4116,            0.,NA,NA,"",   48.9682E-03,  -16.2540E-03,  -46.1920E-03,   7.73451E-03
C:/temp/dataset/3/3_3.odb,Step-1,Increment      1: Step Time =    1.000,"PART-1-1",           331,            5.,        -18.75,            0.,NA,NA,"",   43.0803E-03,  -10.3221E-03,  -41.8254E-03,   10.9819E-03
C:/temp/dataset/3/3_3.odb,Step-1,Increment      1: Step Time =    1.000,"PART-1-1",           332,       13.3604,      -22.4969,            0.,NA,NA,"",   7.75345E-03,   7.70332E-03,   880.210E-06,   1.47916E-03
C:/temp/dataset/3/3_3.odb,Step-1,Increment      1: Step Time =    1.000,"PART-1-1",           333,           15.,        -21.25,            0.,NA,NA,"",   8.43334E-03,   4.09710E-03,   7.37123E-03,   3.04015E-03
C:/temp/dataset/3/3_3.odb,Step-1,Increment      1: Step Time =    1.000,"PART-1-1",           334,       13.4842,      -19.7901,            0.,NA,NA,"",   5.20243E-03,   1.41650E-03,   5.00587E-03,   2.12117E-03
C:/temp/dataset/3/3_3.odb,Step-1,Increment      1: Step Time =    1.000,"PART-1-1",           335,       11.8446,      -21.0370,            0.,NA,NA,"",   7.03154E-03,   5.91859E-03,  -3.79643E-03,   1.57388E-03
C:/temp/dataset/3/3_3.odb,Step-1,Increment      1: Step Time =    1.000,"PART-1-1",           336,       1.65000,            5.,            0.,NA,NA,"",   561.335E-03,  -480.015E-03,  -291.002E-03,   882.407E-06
C:/temp/dataset/3/3_3.odb,Step-1,Increment      1: Step Time =    1.000,"PART-1-1",           337,   440.654E-03,       4.00571,            0.,NA,NA,"",   557.103E-03,  -454.066E-03,  -322.782E-03,   496.804E-06
C:/temp/dataset/3/3_3.odb,Step-1,Increment      1: Step Time =    1.000,"PART-1-1",           338,       1.47063,       2.87974,            0.,NA,NA,"",   516.395E-03,  -424.111E-03,  -294.609E-03,   753.199E-06
C:/temp/dataset/3/3_3.odb,Step-1,Increment      1: Step Time =    1.000,"PART-1-1",           339,       2.67998,       3.87403,            0.,NA,NA,"",   522.808E-03,  -451.036E-03,  -264.376E-03,   945.637E-06
C:/temp/dataset/3/3_3.odb,Step-1,Increment      1: Step Time =    1.000,"PART-1-1",           340,      -1.46180,      -3.99231,            0.,NA,NA,"",   437.880E-03,  -229.918E-03,  -372.661E-03,   291.259E-06
C:/temp/dataset/3/3_3.odb,Step-1,Increment      1: Step Time =    1.000,"PART-1-1",           341,     -500.E-03,           -5.,            0.,NA,NA,"",   399.278E-03,  -201.260E-03,  -344.844E-03,   709.205E-06
C:/temp/dataset/3/3_3.odb,Step-1,Increment      1: Step Time =    1.000,"PART-1-1",           342,   718.491E-03,      -4.10961,            0.,NA,NA,"",   384.504E-03,  -226.705E-03,  -310.560E-03,   508.424E-06
C:/temp/dataset/3/3_3.odb,Step-1,Increment      1: Step Time =    1.000,"PART-1-1",           343,  -243.313E-03,      -3.10192,            0.,NA,NA,"",   424.347E-03,  -255.737E-03,  -338.628E-03,   248.770E-06
C:/temp/dataset/3/3_3.odb,Step-1,Increment      1: Step Time =    1.000,"PART-1-1",           344,      -3.82017,      -3.74247,            0.,NA,NA,"",   498.513E-03,  -236.369E-03,  -438.914E-03,   136.418E-06
C:/temp/dataset/3/3_3.odb,Step-1,Increment      1: Step Time =    1.000,"PART-1-1",           345,      -2.71667,           -5.,            0.,NA,NA,"",   454.418E-03,  -201.243E-03,  -407.427E-03,   309.291E-06
C:/temp/dataset/3/3_3.odb,Step-1,Increment      1: Step Time =    1.000,"PART-1-1",           346,      -2.56530,      -2.73478,            0.,NA,NA,"",   483.478E-03,  -265.284E-03,  -404.197E-03,   240.493E-06
C:/temp/dataset/3/3_3.odb,Step-1,Increment      1: Step Time =    1.000,"PART-1-1",           347,      -13.8092,  -21.6491E-03,            0.,NA,NA,"",   794.786E-03,  -336.814E-03,  -719.890E-03,   148.475E-09
C:/temp/dataset/3/3_3.odb,Step-1,Increment      1: Step Time =    1.000,"PART-1-1",           348,      -12.6581,       1.21263,            0.,NA,NA,"",   782.169E-03,  -371.839E-03,  -688.130E-03,   1.29551E-06
C:/temp/dataset/3/3_3.odb,Step-1,Increment      1: Step Time =    1.000,"PART-1-1",           349,      -13.8489,       2.48428,            0.,NA,NA,"",   828.798E-03,  -406.994E-03,  -721.985E-03,   531.481E-09
C:/temp/dataset/3/3_3.odb,Step-1,Increment      1: Step Time =    1.000,"PART-1-1",           350,          -15.,          1.25,            0.,NA,NA,"",   840.530E-03,  -371.967E-03,  -753.745E-03,   1.83158E-06
C:/temp/dataset/3/3_3.odb,Step-1,Increment      1: Step Time =    1.000,"PART-1-1",           351,      -8.84172,   345.754E-03,            0.,NA,NA,"",   677.708E-03,  -349.079E-03,  -580.889E-03,   27.9070E-06
C:/temp/dataset/3/3_3.odb,Step-1,Increment      1: Step Time =    1.000,"PART-1-1",           352,      -9.20019,  -788.270E-03,            0.,NA,NA,"",   670.292E-03,  -317.167E-03,  -590.506E-03,   20.5752E-06
C:/temp/dataset/3/3_3.odb,Step-1,Increment      1: Step Time =    1.000,"PART-1-1",           353,      -7.61937,      -1.21646,            0.,NA,NA,"",   625.890E-03,  -305.817E-03,  -546.090E-03,   47.5269E-06
C:/temp/dataset/3/3_3.odb,Step-1,Increment      1: Step Time =    1.000,"PART-1-1",           354,      -7.26090,  -82.4387E-03,            0.,NA,NA,"",   633.922E-03,  -337.747E-03,  -536.455E-03,   51.0743E-06
C:/temp/dataset/3/3_3.odb,Step-1,Increment      1: Step Time =    1.000,"PART-1-1",           355,      -12.7466,      -3.77621,            0.,NA,NA,"",   726.711E-03,  -232.077E-03,  -688.657E-03,   855.861E-09
C:/temp/dataset/3/3_3.odb,Step-1,Increment      1: Step Time =    1.000,"PART-1-1",           356,      -13.8633,      -2.52621,            0.,NA,NA,"",   768.184E-03,  -266.646E-03,  -720.421E-03,   551.887E-09
C:/temp/dataset/3/3_3.odb,Step-1,Increment      1: Step Time =    1.000,"PART-1-1",           357,          -15.,         -3.75,            0.,NA,NA,"",   786.738E-03,  -231.927E-03,  -751.776E-03,   573.048E-09
C:/temp/dataset/3/3_3.odb,Step-1,Increment      1: Step Time =    1.000,"PART-1-1",           358,      -13.8833,           -5.,            0.,NA,NA,"",   746.571E-03,  -197.358E-03,  -720.012E-03,   486.716E-09
C:/temp/dataset/3/3_3.odb,Step-1,Increment      1: Step Time =    1.000,"PART-1-1",           359,      -5.03830,      -2.71522,            0.,NA,NA,"",   542.410E-03,  -264.832E-03,  -473.363E-03,   126.442E-06
C:/temp/dataset/3/3_3.odb,Step-1,Increment      1: Step Time =    1.000,"PART-1-1",           360,      -4.43911,      -1.50749,            0.,NA,NA,"",   546.171E-03,  -299.065E-03,  -457.015E-03,   139.992E-06
C:/temp/dataset/3/3_3.odb,Step-1,Increment      1: Step Time =    1.000,"PART-1-1",           361,      -5.95808,  -763.119E-03,            0.,NA,NA,"",   593.016E-03,  -319.249E-03,  -499.748E-03,   98.0074E-06
C:/temp/dataset/3/3_3.odb,Step-1,Increment      1: Step Time =    1.000,"PART-1-1",           362,      -6.55726,      -1.97085,            0.,NA,NA,"",   589.616E-03,  -285.107E-03,  -516.102E-03,   63.0477E-06
C:/temp/dataset/3/3_3.odb,Step-1,Increment      1: Step Time =    1.000,"PART-1-1",           363,          6.25,          -30.,            0.,NA,NA,"",            0.,   308.340E-42,  -2.95186E-39,   1.57784E-03
C:/temp/dataset/3/3_3.odb,Step-1,Increment      1: Step Time =    1.000,"PART-1-1",           364,       7.47038,      -28.9473,            0.,NA,NA,"",   1.77997E-03,   1.09718E-03,  -1.40160E-03,   1.90173E-03
C:/temp/dataset/3/3_3.odb,Step-1,Increment      1: Step Time =    1.000,"PART-1-1",           365,       6.18647,      -27.8786,            0.,NA,NA,"",   3.47786E-03,   908.221E-06,  -3.35718E-03,   2.11152E-03
C:/temp/dataset/3/3_3.odb,Step-1,Increment      1: Step Time =    1.000,"PART-1-1",           366,       4.96608,      -28.9312,            0.,NA,NA,"",   1.43997E-03,  -99.3285E-06,  -1.43654E-03,   1.77663E-03
C:/temp/dataset/3/3_3.odb,Step-1,Increment      1: Step Time =    1.000,"PART-1-1",           367,       3.70492,      -27.8047,            0.,NA,NA,"",   3.04801E-03,  -977.534E-06,  -2.88701E-03,   1.75968E-03
C:/temp/dataset/3/3_3.odb,Step-1,Increment      1: Step Time =    1.000,"PART-1-1",           368,       2.48883,      -28.8735,            0.,NA,NA,"",   1.46129E-03,  -950.901E-06,  -1.10958E-03,   1.40651E-03
C:/temp/dataset/3/3_3.odb,Step-1,Increment      1: Step Time =    1.000,"PART-1-1",           369,          3.75,          -30.,            0.,NA,NA,"",            0.,  -415.711E-42,  -2.62009E-39,   1.41648E-03
C:/temp/dataset/3/3_3.odb,Step-1,Increment      1: Step Time =    1.000,"PART-1-1",           370,      -3.72203,      -27.5999,            0.,NA,NA,"",   1.51950E-03,  -1.50104E-03,  -236.130E-06,   451.755E-06
C:/temp/dataset/3/3_3.odb,Step-1,Increment      1: Step Time =    1.000,"PART-1-1",           371,      -4.98725,      -28.7922,            0.,NA,NA,"",   746.328E-06,  -741.022E-06,  -88.8407E-06,   397.697E-06
C:/temp/dataset/3/3_3.odb,Step-1,Increment      1: Step Time =    1.000,"PART-1-1",           372,         -3.75,          -30.,            0.,NA,NA,"",            0.,  -526.211E-42,  -472.554E-42,   598.484E-06
C:/temp/dataset/3/3_3.odb,Step-1,Increment      1: Step Time =    1.000,"PART-1-1",           373,      -2.48478,      -28.8077,            0.,NA,NA,"",   1.06577E-03,  -1.02799E-03,  -281.240E-06,   632.270E-06
C:/temp/dataset/3/3_3.odb,Step-1,Increment      1: Step Time =    1.000,"PART-1-1",           374,      -13.7501,      -27.5099,            0.,NA,NA,"",   490.500E-06,  -484.524E-06,  -76.3292E-06,   65.2685E-06
C:/temp/dataset/3/3_3.odb,Step-1,Increment      1: Step Time =    1.000,"PART-1-1",           375,          -15.,        -28.75,            0.,NA,NA,"",   303.771E-06,  -260.473E-06,  -156.304E-06,   115.367E-06
C:/temp/dataset/3/3_3.odb,Step-1,Increment      1: Step Time =    1.000,"PART-1-1",           376,        -13.75,          -30.,            0.,NA,NA,"",            0.,  -50.2365E-42,  -110.583E-42,   147.034E-06
C:/temp/dataset/3/3_3.odb,Step-1,Increment      1: Step Time =    1.000,"PART-1-1",           377,      -12.5001,      -28.7599,            0.,NA,NA,"",   246.599E-06,  -246.257E-06,  -12.9809E-06,   122.926E-06
C:/temp/dataset/3/3_3.odb,Step-1,Increment      1: Step Time =    1.000,"PART-1-1",           378,       8.15833,      -10.8587,            0.,NA,NA,"",   104.043E-03,  -85.4477E-03,  -59.3603E-03,   4.85091E-03
C:/temp/dataset/3/3_3.odb,Step-1,Increment      1: Step Time =    1.000,"PART-1-1",           379,       9.00498,      -9.90697,            0.,NA,NA,"",   110.684E-03,  -99.2025E-03,  -49.0895E-03,   3.58149E-03
C:/temp/dataset/3/3_3.odb,Step-1,Increment      1: Step Time =    1.000,"PART-1-1",           380,       8.08915,      -8.55627,            0.,NA,NA,"",   142.866E-03,  -124.061E-03,  -70.8476E-03,   4.98419E-03
C:/temp/dataset/3/3_3.odb,Step-1,Increment      1: Step Time =    1.000,"PART-1-1",           381,       7.24249,      -9.50802,            0.,NA,NA,"",   136.213E-03,  -109.156E-03,  -81.4801E-03,   6.18371E-03
C:/temp/dataset/3/3_3.odb,Step-1,Increment      1: Step Time =    1.000,"PART-1-1",           382,       13.9816,      -2.51124,            0.,NA,NA,"",   267.928E-03,  -262.144E-03,   55.3702E-03,   2.75256E-03
C:/temp/dataset/3/3_3.odb,Step-1,Increment      1: Step Time =    1.000,"PART-1-1",           383,           15.,         -1.25,            0.,NA,NA,"",   309.538E-03,  -297.529E-03,   85.3841E-03,   3.75547E-03
C:/temp/dataset/3/3_3.odb,Step-1,Increment      1: Step Time =    1.000,"PART-1-1",           384,       13.8213,  -48.4001E-03,            0.,NA,NA,"",   333.314E-03,  -328.590E-03,   55.9185E-03,   2.40490E-03
C:/temp/dataset/3/3_3.odb,Step-1,Increment      1: Step Time =    1.000,"PART-1-1",           385,       12.8030,      -1.30964,            0.,NA,NA,"",   293.894E-03,  -292.707E-03,   26.3904E-03,   1.37657E-03
C:/temp/dataset/3/3_3.odb,Step-1,Increment      1: Step Time =    1.000,"PART-1-1",           386,           15.,          1.25,            0.,NA,NA,"",   379.173E-03,  -367.684E-03,   92.6314E-03,   3.87569E-03
C:/temp/dataset/3/3_3.odb,Step-1,Increment      1: Step Time =    1.000,"PART-1-1",           387,       13.5709,       2.55070,            0.,NA,NA,"",   406.905E-03,  -403.410E-03,   53.2153E-03,   2.48614E-03
C:/temp/dataset/3/3_3.odb,Step-1,Increment      1: Step Time =    1.000,"PART-1-1",           388,       12.3922,       1.25230,            0.,NA,NA,"",   364.351E-03,  -363.988E-03,   16.2657E-03,   1.08053E-03
C:/temp/dataset/3/3_3.odb,Step-1,Increment      1: Step Time =    1.000,"PART-1-1",           389,      -5.00532,       26.2655,            0.,NA,NA,"",       1.82838,      -1.49523,      -1.05226,   169.418E-06
C:/temp/dataset/3/3_3.odb,Step-1,Increment      1: Step Time =    1.000,"PART-1-1",           390,      -3.75495,       25.0275,            0.,NA,NA,"",       1.72190,      -1.42105,  -972.408E-03,   189.440E-06
C:/temp/dataset/3/3_3.odb,Step-1,Increment      1: Step Time =    1.000,"PART-1-1",           391,      -2.50780,       26.2820,            0.,NA,NA,"",       1.74920,      -1.50143,  -897.459E-03,   203.589E-06
C:/temp/dataset/3/3_3.odb,Step-1,Increment      1: Step Time =    1.000,"PART-1-1",           392,      -3.75817,       27.5199,            0.,NA,NA,"",       1.85384,      -1.57537,  -977.210E-03,   229.676E-06
C:/temp/dataset/3/3_3.odb,Step-1,Increment      1: Step Time =    1.000,"PART-1-1",           393,      -5.00193,       23.7670,            0.,NA,NA,"",       1.70089,      -1.34008,      -1.04748,   160.389E-06
C:/temp/dataset/3/3_3.odb,Step-1,Increment      1: Step Time =    1.000,"PART-1-1",           394,      -6.25406,       25.0149,            0.,NA,NA,"",       1.80934,      -1.41509,      -1.12749,   146.273E-06
C:/temp/dataset/3/3_3.odb,Step-1,Increment      1: Step Time =    1.000,"PART-1-1",           395,      -7.50285,       23.7600,            0.,NA,NA,"",       1.79656,      -1.33463,      -1.20265,   79.6934E-06
C:/temp/dataset/3/3_3.odb,Step-1,Increment      1: Step Time =    1.000,"PART-1-1",           396,      -6.25071,       22.5121,            0.,NA,NA,"",       1.68720,      -1.25952,      -1.12261,   127.966E-06
C:/temp/dataset/3/3_3.odb,Step-1,Increment      1: Step Time =    1.000,"PART-1-1",           397,      -12.5007,       23.7543,            0.,NA,NA,"",       2.01072,      -1.32454,      -1.51282,   7.04797E-06
C:/temp/dataset/3/3_3.odb,Step-1,Increment      1: Step Time =    1.000,"PART-1-1",           398,      -13.7507,       25.0026,            0.,NA,NA,"",       2.12037,      -1.39961,      -1.59281,   5.13953E-06
C:/temp/dataset/3/3_3.odb,Step-1,Increment      1: Step Time =    1.000,"PART-1-1",           399,          -15.,         23.75,            0.,NA,NA,"",       2.12673,      -1.31944,      -1.66795,   636.696E-09
C:/temp/dataset/3/3_3.odb,Step-1,Increment      1: Step Time =    1.000,"PART-1-1",           400,       1.22659,       27.5580,            0.,NA,NA,"",       1.72147,      -1.58546,  -670.667E-03,   2.52617E-03
C:/temp/dataset/3/3_3.odb,Step-1,Increment      1: Step Time =    1.000,"PART-1-1",           401,       2.48534,       28.7828,            0.,NA,NA,"",       1.76514,      -1.66071,  -598.143E-03,   3.25004E-03
C:/temp/dataset/3/3_3.odb,Step-1,Increment      1: Step Time =    1.000,"PART-1-1",           402,          1.25,           30.,            0.,NA,NA,"",       1.86275,      -1.73418,  -680.028E-03,   2.63974E-03
C:/temp/dataset/3/3_3.odb,Step-1,Increment      1: Step Time =    1.000,"PART-1-1",           403,  -8.74824E-03,       28.7751,            0.,NA,NA,"",       1.82111,      -1.65921,  -750.628E-03,   1.67272E-03
C:/temp/dataset/3/3_3.odb,Step-1,Increment      1: Step Time =    1.000,"PART-1-1",           404,  -16.7069E-03,       26.3073,            0.,NA,NA,"",       1.68066,      -1.50735,  -743.324E-03,   1.16214E-03
C:/temp/dataset/3/3_3.odb,Step-1,Increment      1: Step Time =    1.000,"PART-1-1",           405,       2.46714,       26.3253,            0.,NA,NA,"",       1.62101,      -1.51061,  -588.004E-03,   3.15125E-03
C:/temp/dataset/3/3_3.odb,Step-1,Increment      1: Step Time =    1.000,"PART-1-1",           406,       3.70751,       22.5746,            0.,NA,NA,"",       1.37423,      -1.28334,  -491.480E-03,   4.06678E-03
C:/temp/dataset/3/3_3.odb,Step-1,Increment      1: Step Time =    1.000,"PART-1-1",           407,       2.48879,       21.2797,            0.,NA,NA,"",       1.32818,      -1.20023,  -568.785E-03,   1.41505E-03
C:/temp/dataset/3/3_3.odb,Step-1,Increment      1: Step Time =    1.000,"PART-1-1",           408,          3.75,           20.,            0.,NA,NA,"",       1.22036,      -1.12128,  -481.680E-03,   4.65416E-03
C:/temp/dataset/3/3_3.odb,Step-1,Increment      1: Step Time =    1.000,"PART-1-1",           409,       4.96872,       21.2949,            0.,NA,NA,"",       1.27155,      -1.20697,  -400.057E-03,   7.67432E-03
C:/temp/dataset/3/3_3.odb,Step-1,Increment      1: Step Time =    1.000,"PART-1-1",           410,       10.8479,       12.4309,            0.,NA,NA,"",   759.834E-03,  -758.577E-03,  -43.6962E-03,   836.171E-06
C:/temp/dataset/3/3_3.odb,Step-1,Increment      1: Step Time =    1.000,"PART-1-1",           411,       9.34812,       11.6387,            0.,NA,NA,"",   732.107E-03,  -724.323E-03,  -106.479E-03,   3.24780E-03
C:/temp/dataset/3/3_3.odb,Step-1,Increment      1: Step Time =    1.000,"PART-1-1",           412,       9.99050,       10.5520,            0.,NA,NA,"",   683.165E-03,  -678.929E-03,  -75.9666E-03,   2.12408E-03
C:/temp/dataset/3/3_3.odb,Step-1,Increment      1: Step Time =    1.000,"PART-1-1",           413,       11.4903,       11.3442,            0.,NA,NA,"",   712.743E-03,  -712.590E-03,  -14.7765E-03,   324.594E-06
C:/temp/dataset/3/3_3.odb,Step-1,Increment      1: Step Time =    1.000,"PART-1-1",           414,       7.16850,       11.5014,            0.,NA,NA,"",   748.207E-03,  -721.354E-03,  -198.650E-03,   6.88446E-03
C:/temp/dataset/3/3_3.odb,Step-1,Increment      1: Step Time =    1.000,"PART-1-1",           415,       6.10343,       12.5850,            0.,NA,NA,"",   811.071E-03,  -770.464E-03,  -253.421E-03,   8.63231E-03
C:/temp/dataset/3/3_3.odb,Step-1,Increment      1: Step Time =    1.000,"PART-1-1",           416,            5.,         11.25,            0.,NA,NA,"",   773.094E-03,  -717.296E-03,  -288.376E-03,   10.3991E-03
C:/temp/dataset/3/3_3.odb,Step-1,Increment      1: Step Time =    1.000,"PART-1-1",           417,       6.06507,       10.1664,            0.,NA,NA,"",   709.112E-03,  -669.322E-03,  -234.195E-03,   8.70309E-03
C:/temp/dataset/3/3_3.odb,Step-1,Increment      1: Step Time =    1.000,"PART-1-1",           418,       14.0565,       5.06378,            0.,NA,NA,"",   488.693E-03,  -482.993E-03,   74.4227E-03,   3.68634E-03
C:/temp/dataset/3/3_3.odb,Step-1,Increment      1: Step Time =    1.000,"PART-1-1",           419,       12.6274,       3.86448,            0.,NA,NA,"",   442.960E-03,  -442.245E-03,   25.1574E-03,   1.81670E-03
C:/temp/dataset/3/3_3.odb,Step-1,Increment      1: Step Time =    1.000,"PART-1-1",           420,           15.,          3.75,            0.,NA,NA,"",   454.401E-03,  -443.095E-03,   100.734E-03,   4.53014E-03
C:/temp/dataset/3/3_3.odb,Step-1,Increment      1: Step Time =    1.000,"PART-1-1",           421,       10.0280,       5.47301,            0.,NA,NA,"",   495.895E-03,  -491.901E-03,  -62.8154E-03,   1.91032E-03
C:/temp/dataset/3/3_3.odb,Step-1,Increment      1: Step Time =    1.000,"PART-1-1",           422,       11.0614,       5.01383,            0.,NA,NA,"",   478.028E-03,  -477.272E-03,  -26.8721E-03,   1.13572E-03
C:/temp/dataset/3/3_3.odb,Step-1,Increment      1: Step Time =    1.000,"PART-1-1",           423,       11.6033,       6.33570,            0.,NA,NA,"",   521.692E-03,  -521.621E-03,  -8.61999E-03,   1.02773E-03
C:/temp/dataset/3/3_3.odb,Step-1,Increment      1: Step Time =    1.000,"PART-1-1",           424,       10.5698,       6.79489,            0.,NA,NA,"",   538.629E-03,  -536.667E-03,  -45.9415E-03,   1.20727E-03
C:/temp/dataset/3/3_3.odb,Step-1,Increment      1: Step Time =    1.000,"PART-1-1",           425,      -4.94418,       3.17107,            0.,NA,NA,"",   638.763E-03,  -429.708E-03,  -472.620E-03,   120.265E-06
C:/temp/dataset/3/3_3.odb,Step-1,Increment      1: Step Time =    1.000,"PART-1-1",           426,      -3.90803,       4.11594,            0.,NA,NA,"",   636.693E-03,  -456.418E-03,  -443.914E-03,   139.353E-06
C:/temp/dataset/3/3_3.odb,Step-1,Increment      1: Step Time =    1.000,"PART-1-1",           427,      -5.05000,            5.,            0.,NA,NA,"",   676.824E-03,  -480.819E-03,  -476.345E-03,   109.301E-06
C:/temp/dataset/3/3_3.odb,Step-1,Increment      1: Step Time =    1.000,"PART-1-1",           428,      -6.08615,       4.05513,            0.,NA,NA,"",   679.090E-03,  -454.000E-03,  -505.022E-03,   49.2661E-06
C:/temp/dataset/3/3_3.odb,Step-1,Increment      1: Step Time =    1.000,"PART-1-1",           429,      -3.86135,       2.39128,            0.,NA,NA,"",   601.765E-03,  -408.412E-03,  -441.951E-03,   157.682E-06
C:/temp/dataset/3/3_3.odb,Step-1,Increment      1: Step Time =    1.000,"PART-1-1",           430,      -5.85027,       2.20434,            0.,NA,NA,"",   639.989E-03,  -402.347E-03,  -497.697E-03,   80.9016E-06
C:/temp/dataset/3/3_3.odb,Step-1,Increment      1: Step Time =    1.000,"PART-1-1",           431,      -4.76744,       1.42454,            0.,NA,NA,"",   602.785E-03,  -381.051E-03,  -467.065E-03,   141.556E-06
C:/temp/dataset/3/3_3.odb,Step-1,Increment      1: Step Time =    1.000,"PART-1-1",           432,      -9.29397,       2.69508,            0.,NA,NA,"",   724.802E-03,  -414.689E-03,  -594.450E-03,   17.7387E-06
C:/temp/dataset/3/3_3.odb,Step-1,Increment      1: Step Time =    1.000,"PART-1-1",           433,      -8.28887,       3.92576,            0.,NA,NA,"",   723.399E-03,  -449.551E-03,  -566.754E-03,   15.1747E-06
C:/temp/dataset/3/3_3.odb,Step-1,Increment      1: Step Time =    1.000,"PART-1-1",           434,          -9.5,            5.,            0.,NA,NA,"",   768.746E-03,  -479.182E-03,  -601.127E-03,   4.58061E-06
C:/temp/dataset/3/3_3.odb,Step-1,Increment      1: Step Time =    1.000,"PART-1-1",           435,      -10.5051,       3.76932,            0.,NA,NA,"",   769.942E-03,  -444.306E-03,  -628.810E-03,   3.10290E-06
C:/temp/dataset/3/3_3.odb,Step-1,Increment      1: Step Time =    1.000,"PART-1-1",           436,      -7.92731,       1.84143,            0.,NA,NA,"",   679.760E-03,  -391.333E-03,  -555.817E-03,   32.9500E-06
C:/temp/dataset/3/3_3.odb,Step-1,Increment      1: Step Time =    1.000,"PART-1-1",           437,      -6.68589,       1.06488,            0.,NA,NA,"",   638.872E-03,  -370.121E-03,  -520.738E-03,   73.5580E-06
C:/temp/dataset/3/3_3.odb,Step-1,Increment      1: Step Time =    1.000,"PART-1-1",           438,      -7.09169,       2.98089,            0.,NA,NA,"",   680.654E-03,  -423.559E-03,  -532.811E-03,   52.1501E-06
C:/temp/dataset/3/3_3.odb,Step-1,Increment      1: Step Time =    1.000,"PART-1-1",           439,      -13.9000,            5.,            0.,NA,NA,"",   867.594E-03,  -477.450E-03,  -724.404E-03,   482.325E-09
C:/temp/dataset/3/3_3.odb,Step-1,Increment      1: Step Time =    1.000,"PART-1-1",           440,          -15.,          3.75,            0.,NA,NA,"",   874.631E-03,  -442.000E-03,  -754.728E-03,   584.527E-09
C:/temp/dataset/3/3_3.odb,Step-1,Increment      1: Step Time =    1.000,"PART-1-1",           441,      -12.7489,       3.73428,            0.,NA,NA,"",   821.067E-03,  -442.443E-03,  -691.661E-03,   817.578E-09
C:/temp/dataset/3/3_3.odb,Step-1,Increment      1: Step Time =    1.000,"PART-1-1",           442,      -9.48823,      -2.88104,            0.,NA,NA,"",   651.239E-03,  -258.424E-03,  -597.771E-03,   14.6941E-06
C:/temp/dataset/3/3_3.odb,Step-1,Increment      1: Step Time =    1.000,"PART-1-1",           443,      -8.42388,      -2.23568,            0.,NA,NA,"",   632.116E-03,  -276.925E-03,  -568.228E-03,   24.4715E-06
C:/temp/dataset/3/3_3.odb,Step-1,Increment      1: Step Time =    1.000,"PART-1-1",           444,      -10.2645,      -1.43363,            0.,NA,NA,"",   688.243E-03,  -298.662E-03,  -620.064E-03,   9.26271E-06
C:/temp/dataset/3/3_3.odb,Step-1,Increment      1: Step Time =    1.000,"PART-1-1",           445,      -12.6725,      -1.29786,            0.,NA,NA,"",   750.759E-03,  -301.515E-03,  -687.552E-03,   1.24645E-06
C:/temp/dataset/3/3_3.odb,Step-1,Increment      1: Step Time =    1.000,"PART-1-1",           446,          -15.,         -1.25,            0.,NA,NA,"",   811.059E-03,  -301.943E-03,  -752.759E-03,   1.79186E-06
C:/temp/dataset/3/3_3.odb,Step-1,Increment      1: Step Time =    1.000,"PART-1-1",           447,      -6.16813,      -3.97275,            0.,NA,NA,"",   554.042E-03,  -229.106E-03,  -504.454E-03,   47.8790E-06
C:/temp/dataset/3/3_3.odb,Step-1,Increment      1: Step Time =    1.000,"PART-1-1",           448,      -4.95000,           -5.,            0.,NA,NA,"",   511.041E-03,  -200.743E-03,  -469.963E-03,   115.844E-06
C:/temp/dataset/3/3_3.odb,Step-1,Increment      1: Step Time =    1.000,"PART-1-1",           449,       1.59412,  -355.999E-03,            0.,NA,NA,"",   441.577E-03,  -334.641E-03,  -288.106E-03,   788.821E-06
C:/temp/dataset/3/3_3.odb,Step-1,Increment      1: Step Time =    1.000,"PART-1-1",           450,       2.17826,      -1.53992,            0.,NA,NA,"",   404.517E-03,  -301.378E-03,  -269.825E-03,   1.40085E-03
C:/temp/dataset/3/3_3.odb,Step-1,Increment      1: Step Time =    1.000,"PART-1-1",           451,       2.86763,   426.804E-03,            0.,NA,NA,"",   437.280E-03,  -356.204E-03,  -253.638E-03,   2.22160E-03
C:/temp/dataset/3/3_3.odb,Step-1,Increment      1: Step Time =    1.000,"PART-1-1",           452,  -387.277E-03,   5.26357E-03,            0.,NA,NA,"",   486.435E-03,  -343.925E-03,  -343.998E-03,   253.585E-06
C:/temp/dataset/3/3_3.odb,Step-1,Increment      1: Step Time =    1.000,"PART-1-1",           453,   283.611E-03,      -1.19839,            0.,NA,NA,"",   449.098E-03,  -310.407E-03,  -324.555E-03,   305.208E-06
C:/temp/dataset/3/3_3.odb,Step-1,Increment      1: Step Time =    1.000,"PART-1-1",           454,   923.228E-03,   847.652E-03,            0.,NA,NA,"",   479.884E-03,  -368.063E-03,  -307.925E-03,   519.661E-06
C:/temp/dataset/3/3_3.odb,Step-1,Increment      1: Step Time =    1.000,"PART-1-1",           455,       6.35531,      -13.1332,            0.,NA,NA,"",   93.2365E-03,  -58.6336E-03,  -72.4924E-03,   7.34832E-03
C:/temp/dataset/3/3_3.odb,Step-1,Increment      1: Step Time =    1.000,"PART-1-1",           456,       7.49455,      -12.2656,            0.,NA,NA,"",   91.3399E-03,  -66.6709E-03,  -62.4337E-03,   5.80677E-03
C:/temp/dataset/3/3_3.odb,Step-1,Increment      1: Step Time =    1.000,"PART-1-1",           457,       6.13925,      -10.3824,            0.,NA,NA,"",   136.396E-03,  -98.2817E-03,  -94.5763E-03,   7.85226E-03
C:/temp/dataset/3/3_3.odb,Step-1,Increment      1: Step Time =    1.000,"PART-1-1",           458,            5.,        -11.25,            0.,NA,NA,"",   138.340E-03,  -89.2595E-03,  -105.691E-03,   9.37648E-03
C:/temp/dataset/3/3_3.odb,Step-1,Increment      1: Step Time =    1.000,"PART-1-1",           459,       13.3376,      -16.9670,            0.,NA,NA,"",   16.7919E-03,  -13.9166E-03,   9.39663E-03,   2.29325E-03
C:/temp/dataset/3/3_3.odb,Step-1,Increment      1: Step Time =    1.000,"PART-1-1",           460,       11.8219,      -18.0071,            0.,NA,NA,"",   6.83732E-03,  -5.99372E-03,  -3.29002E-03,   1.01266E-03
C:/temp/dataset/3/3_3.odb,Step-1,Increment      1: Step Time =    1.000,"PART-1-1",           461,           15.,        -18.75,            0.,NA,NA,"",   16.2819E-03,  -5.26054E-03,   15.4087E-03,   3.99620E-03
C:/temp/dataset/3/3_3.odb,Step-1,Increment      1: Step Time =    1.000,"PART-1-1",           462,       8.42876,      -15.2973,            0.,NA,NA,"",   47.3570E-03,  -29.3290E-03,  -37.1820E-03,   4.28437E-03
C:/temp/dataset/3/3_3.odb,Step-1,Increment      1: Step Time =    1.000,"PART-1-1",           463,       10.4111,      -16.6310,            0.,NA,NA,"",   21.5455E-03,  -15.3716E-03,  -15.0971E-03,   1.44758E-03
C:/temp/dataset/3/3_3.odb,Step-1,Increment      1: Step Time =    1.000,"PART-1-1",           464,       10.7289,      -14.9294,            0.,NA,NA,"",   33.6783E-03,  -30.6016E-03,  -14.0632E-03,   1.22043E-03
C:/temp/dataset/3/3_3.odb,Step-1,Increment      1: Step Time =    1.000,"PART-1-1",           465,       8.74656,      -13.5956,            0.,NA,NA,"",   61.8657E-03,  -47.1959E-03,  -39.9989E-03,   3.97590E-03
C:/temp/dataset/3/3_3.odb,Step-1,Increment      1: Step Time =    1.000,"PART-1-1",           466,      -8.72016,      -22.5745,            0.,NA,NA,"",   1.18137E-03,  -1.13446E-03,   329.605E-06,   64.6414E-06
C:/temp/dataset/3/3_3.odb,Step-1,Increment      1: Step Time =    1.000,"PART-1-1",           467,      -7.48342,      -21.2909,            0.,NA,NA,"",   1.11994E-03,  -1.05754E-03,   368.606E-06,   64.4905E-06
C:/temp/dataset/3/3_3.odb,Step-1,Increment      1: Step Time =    1.000,"PART-1-1",           468,         -8.75,          -20.,            0.,NA,NA,"",   1.14936E-03,  -1.10927E-03,   300.911E-06,   85.2262E-06
C:/temp/dataset/3/3_3.odb,Step-1,Increment      1: Step Time =    1.000,"PART-1-1",           469,      -9.98674,      -21.2836,            0.,NA,NA,"",   1.15979E-03,  -1.13085E-03,   257.471E-06,   32.3596E-06
C:/temp/dataset/3/3_3.odb,Step-1,Increment      1: Step Time =    1.000,"PART-1-1",           470,      -4.96670,      -26.3491,            0.,NA,NA,"",   1.57971E-03,  -1.57945E-03,  -28.8479E-06,   289.118E-06
C:/temp/dataset/3/3_3.odb,Step-1,Increment      1: Step Time =    1.000,"PART-1-1",           471,      -6.21541,      -25.0985,            0.,NA,NA,"",   1.45365E-03,  -1.44173E-03,   185.823E-06,   200.492E-06
C:/temp/dataset/3/3_3.odb,Step-1,Increment      1: Step Time =    1.000,"PART-1-1",           472,      -7.47738,      -26.3212,            0.,NA,NA,"",   1.14333E-03,  -1.13615E-03,   127.987E-06,   187.461E-06
C:/temp/dataset/3/3_3.odb,Step-1,Increment      1: Step Time =    1.000,"PART-1-1",           473,      -6.22867,      -27.5719,            0.,NA,NA,"",   1.06028E-03,  -1.06028E-03,  -2.28781E-06,   296.760E-06
C:/temp/dataset/3/3_3.odb,Step-1,Increment      1: Step Time =    1.000,"PART-1-1",           474,   49.7896E-03,      -26.4387,            0.,NA,NA,"",   3.14754E-03,  -2.51359E-03,  -1.89444E-03,   886.917E-06
C:/temp/dataset/3/3_3.odb,Step-1,Increment      1: Step Time =    1.000,"PART-1-1",           475,       1.24862,      -27.7048,            0.,NA,NA,"",   2.63193E-03,  -1.91091E-03,  -1.80984E-03,   1.17434E-03
C:/temp/dataset/3/3_3.odb,Step-1,Increment      1: Step Time =    1.000,"PART-1-1",           476,       2.52056,      -26.5649,            0.,NA,NA,"",   4.38093E-03,  -2.03564E-03,  -3.87926E-03,   1.65305E-03
C:/temp/dataset/3/3_3.odb,Step-1,Increment      1: Step Time =    1.000,"PART-1-1",           477,       1.32172,      -25.2988,            0.,NA,NA,"",   4.67482E-03,  -2.72531E-03,  -3.79824E-03,   1.29242E-03
C:/temp/dataset/3/3_3.odb,Step-1,Increment      1: Step Time =    1.000,"PART-1-1",           478,        -13.75,          -20.,            0.,NA,NA,"",   1.26081E-03,  -1.25951E-03,  -57.4203E-06,   5.88625E-06
C:/temp/dataset/3/3_3.odb,Step-1,Increment      1: Step Time =    1.000,"PART-1-1",           479,          -15.,        -21.25,            0.,NA,NA,"",   1.17752E-03,  -1.16712E-03,  -156.156E-06,   4.68347E-06
C:/temp/dataset/3/3_3.odb,Step-1,Increment      1: Step Time =    1.000,"PART-1-1",           480,      -13.7430,      -22.5153,            0.,NA,NA,"",   1.08462E-03,  -1.08282E-03,  -62.5148E-06,   17.3803E-06
C:/temp/dataset/3/3_3.odb,Step-1,Increment      1: Step Time =    1.000,"PART-1-1",           481,      -12.4930,      -21.2653,            0.,NA,NA,"",   1.16326E-03,  -1.16212E-03,   51.4939E-06,   16.0414E-06
C:/temp/dataset/3/3_3.odb,Step-1,Increment      1: Step Time =    1.000,"PART-1-1",           482,      -11.2297,      -22.5489,            0.,NA,NA,"",   1.10714E-03,  -1.09570E-03,   158.755E-06,   34.8934E-06
C:/temp/dataset/3/3_3.odb,Step-1,Increment      1: Step Time =    1.000,"PART-1-1",           483,        -11.25,          -20.,            0.,NA,NA,"",   1.23641E-03,  -1.22761E-03,   147.278E-06,   33.9528E-06
C:/temp/dataset/3/3_3.odb,Step-1,Increment      1: Step Time =    1.000,"PART-1-1",           484,      -13.7448,      -25.0201,            0.,NA,NA,"",   878.077E-06,  -873.422E-06,  -90.2906E-06,   20.2643E-06
C:/temp/dataset/3/3_3.odb,Step-1,Increment      1: Step Time =    1.000,"PART-1-1",           485,      -12.4878,      -23.7854,            0.,NA,NA,"",   1.00471E-03,  -1.00399E-03,   38.0229E-06,   14.9557E-06
C:/temp/dataset/3/3_3.odb,Step-1,Increment      1: Step Time =    1.000,"PART-1-1",           486,          -15.,        -23.75,            0.,NA,NA,"",   998.864E-06,  -981.308E-06,  -186.449E-06,   19.8138E-06
C:/temp/dataset/3/3_3.odb,Step-1,Increment      1: Step Time =    1.000,"PART-1-1",           487,       13.7335,      -27.5520,            0.,NA,NA,"",   4.95484E-03,   4.90067E-03,  -730.665E-06,   853.899E-06
C:/temp/dataset/3/3_3.odb,Step-1,Increment      1: Step Time =    1.000,"PART-1-1",           488,       12.4835,      -28.8020,            0.,NA,NA,"",   2.58166E-03,   2.53483E-03,  -489.494E-06,   1.53815E-03
C:/temp/dataset/3/3_3.odb,Step-1,Increment      1: Step Time =    1.000,"PART-1-1",           489,         13.75,          -30.,            0.,NA,NA,"",            0.,   740.100E-42,  -1.21151E-39,   1.64520E-03
C:/temp/dataset/3/3_3.odb,Step-1,Increment      1: Step Time =    1.000,"PART-1-1",           490,           15.,        -28.75,            0.,NA,NA,"",   3.07839E-03,   2.74238E-03,  -1.39851E-03,   989.491E-06
C:/temp/dataset/3/3_3.odb,Step-1,Increment      1: Step Time =    1.000,"PART-1-1",           491,       9.98010,      -28.8907,            0.,NA,NA,"",   2.37414E-03,   2.14121E-03,  -1.02554E-03,   1.77868E-03
C:/temp/dataset/3/3_3.odb,Step-1,Increment      1: Step Time =    1.000,"PART-1-1",           492,       8.70049,      -27.8380,            0.,NA,NA,"",   4.13586E-03,   3.00418E-03,  -2.84258E-03,   1.99886E-03
C:/temp/dataset/3/3_3.odb,Step-1,Increment      1: Step Time =    1.000,"PART-1-1",           493,          8.75,          -30.,            0.,NA,NA,"",            0.,   1.07008E-39,  -2.47456E-39,   1.68044E-03
C:/temp/dataset/3/3_3.odb,Step-1,Increment      1: Step Time =    1.000,"PART-1-1",           494,       11.2136,      -27.6927,            0.,NA,NA,"",   4.75016E-03,   4.48268E-03,  -1.57150E-03,   1.65082E-03
C:/temp/dataset/3/3_3.odb,Step-1,Increment      1: Step Time =    1.000,"PART-1-1",           495,       12.3768,      -26.3916,            0.,NA,NA,"",   6.82963E-03,   6.65676E-03,  -1.52689E-03,   1.56364E-03
C:/temp/dataset/3/3_3.odb,Step-1,Increment      1: Step Time =    1.000,"PART-1-1",           496,       11.0556,      -25.4315,            0.,NA,NA,"",   8.18572E-03,   7.27361E-03,  -3.75508E-03,   1.89340E-03
C:/temp/dataset/3/3_3.odb,Step-1,Increment      1: Step Time =    1.000,"PART-1-1",           497,       9.89242,      -26.7326,            0.,NA,NA,"",   6.34500E-03,   5.16683E-03,  -3.68278E-03,   2.15252E-03
C:/temp/dataset/3/3_3.odb,Step-1,Increment      1: Step Time =    1.000,"PART-1-1",           498,   9.79186E-03,      -28.8313,            0.,NA,NA,"",   1.36028E-03,  -1.20090E-03,  -638.906E-06,   977.296E-06
C:/temp/dataset/3/3_3.odb,Step-1,Increment      1: Step Time =    1.000,"PART-1-1",           499,          1.25,          -30.,            0.,NA,NA,"",            0.,  -738.302E-42,  -1.80420E-39,   1.18205E-03
C:/temp/dataset/3/3_3.odb,Step-1,Increment      1: Step Time =    1.000,"PART-1-1",           500,      -1.18061,      -25.1833,            0.,NA,NA,"",   2.88068E-03,  -2.52862E-03,  -1.38000E-03,   613.162E-06
C:/temp/dataset/3/3_3.odb,Step-1,Increment      1: Step Time =    1.000,"PART-1-1",           501,      -2.45538,      -26.3836,            0.,NA,NA,"",   2.21467E-03,  -2.13261E-03,  -597.286E-06,   482.937E-06
C:/temp/dataset/3/3_3.odb,Step-1,Increment      1: Step Time =    1.000,"PART-1-1",           502,      -1.22498,      -27.6390,            0.,NA,NA,"",   2.07112E-03,  -1.90610E-03,  -810.138E-06,   715.811E-06
C:/temp/dataset/3/3_3.odb,Step-1,Increment      1: Step Time =    1.000,"PART-1-1",           503,      -3.70005,      -25.1329,            0.,NA,NA,"",   1.94194E-03,  -1.93186E-03,  -197.592E-06,   320.493E-06
C:/temp/dataset/3/3_3.odb,Step-1,Increment      1: Step Time =    1.000,"PART-1-1",           504,      -7.49141,      -28.7797,            0.,NA,NA,"",   498.272E-06,  -498.151E-06,  -10.9590E-06,   253.089E-06
C:/temp/dataset/3/3_3.odb,Step-1,Increment      1: Step Time =    1.000,"PART-1-1",           505,         -6.25,          -30.,            0.,NA,NA,"",            0.,  -347.425E-42,  -186.189E-42,   382.640E-06
C:/temp/dataset/3/3_3.odb,Step-1,Increment      1: Step Time =    1.000,"PART-1-1",           506,      -12.4949,      -26.2800,            0.,NA,NA,"",   721.513E-06,  -721.513E-06,   101.237E-09,   71.6416E-06
C:/temp/dataset/3/3_3.odb,Step-1,Increment      1: Step Time =    1.000,"PART-1-1",           507,          -15.,        -26.25,            0.,NA,NA,"",   750.283E-06,  -707.658E-06,  -249.289E-06,   10.6271E-06
C:/temp/dataset/3/3_3.odb,Step-1,Increment      1: Step Time =    1.000,"PART-1-1",           508,       12.0036,      -23.8365,            0.,NA,NA,"",   8.97471E-03,   8.48100E-03,  -2.93564E-03,   1.70020E-03
C:/temp/dataset/3/3_3.odb,Step-1,Increment      1: Step Time =    1.000,"PART-1-1",           509,       13.6432,      -25.0896,            0.,NA,NA,"",   7.98987E-03,   7.97363E-03,  -509.292E-06,   947.835E-06
C:/temp/dataset/3/3_3.odb,Step-1,Increment      1: Step Time =    1.000,"PART-1-1",           510,           15.,        -23.75,            0.,NA,NA,"",   7.63527E-03,   7.43164E-03,   1.75160E-03,   1.91243E-03
C:/temp/dataset/3/3_3.odb,Step-1,Increment      1: Step Time =    1.000,"PART-1-1",           511,         11.25,          -30.,            0.,NA,NA,"",            0.,   1.47681E-39,  -1.54498E-39,   1.59192E-03
C:/temp/dataset/3/3_3.odb,Step-1,Increment      1: Step Time =    1.000,"PART-1-1",           512,       13.9281,      -14.6298,            0.,NA,NA,"",   41.0602E-03,  -35.5292E-03,   20.5820E-03,   3.27220E-03
C:/temp/dataset/3/3_3.odb,Step-1,Increment      1: Step Time =    1.000,"PART-1-1",           513,       12.2657,      -15.3468,            0.,NA,NA,"",   26.7693E-03,  -26.6971E-03,   1.96558E-03,   1.04840E-03
C:/temp/dataset/3/3_3.odb,Step-1,Increment      1: Step Time =    1.000,"PART-1-1",           514,           15.,        -16.25,            0.,NA,NA,"",   33.5401E-03,  -22.1849E-03,   25.1548E-03,   4.58395E-03
C:/temp/dataset/3/3_3.odb,Step-1,Increment      1: Step Time =    1.000,"PART-1-1",           515,       7.13425,      -14.5121,            0.,NA,NA,"",   67.9702E-03,  -40.3790E-03,  -54.6762E-03,   6.33176E-03
C:/temp/dataset/3/3_3.odb,Step-1,Increment      1: Step Time =    1.000,"PART-1-1",           516,       6.81531,      -16.2905,            0.,NA,NA,"",   52.9631E-03,  -23.5137E-03,  -47.4573E-03,   6.58543E-03
C:/temp/dataset/3/3_3.odb,Step-1,Increment      1: Step Time =    1.000,"PART-1-1",           517,       8.10983,      -17.0757,            0.,NA,NA,"",   35.9853E-03,  -14.2893E-03,  -33.0266E-03,   4.53839E-03
C:/temp/dataset/3/3_3.odb,Step-1,Increment      1: Step Time =    1.000,"PART-1-1",           518,       13.8641,      -7.41825,            0.,NA,NA,"",   152.180E-03,  -146.695E-03,   40.4885E-03,   3.33584E-03
C:/temp/dataset/3/3_3.odb,Step-1,Increment      1: Step Time =    1.000,"PART-1-1",           519,       13.0286,      -8.63342,            0.,NA,NA,"",   123.596E-03,  -121.690E-03,   21.6240E-03,   2.19367E-03
C:/temp/dataset/3/3_3.odb,Step-1,Increment      1: Step Time =    1.000,"PART-1-1",           520,       14.1645,      -9.96517,            0.,NA,NA,"",   106.833E-03,  -99.7284E-03,   38.3087E-03,   3.82369E-03
C:/temp/dataset/3/3_3.odb,Step-1,Increment      1: Step Time =    1.000,"PART-1-1",           521,           15.,         -8.75,            0.,NA,NA,"",   135.904E-03,  -123.064E-03,   57.6621E-03,   4.99407E-03
C:/temp/dataset/3/3_3.odb,Step-1,Increment      1: Step Time =    1.000,"PART-1-1",           522,       12.0251,      -10.9831,            0.,NA,NA,"",   80.8195E-03,  -80.7999E-03,   1.77693E-03,   744.102E-06
C:/temp/dataset/3/3_3.odb,Step-1,Increment      1: Step Time =    1.000,"PART-1-1",           523,       12.8055,      -11.9581,            0.,NA,NA,"",   68.1529E-03,  -67.0091E-03,   12.4338E-03,   1.78902E-03
C:/temp/dataset/3/3_3.odb,Step-1,Increment      1: Step Time =    1.000,"PART-1-1",           524,       13.3751,      -11.0455,            0.,NA,NA,"",   84.1696E-03,  -81.0756E-03,   22.6113E-03,   2.63314E-03
C:/temp/dataset/3/3_3.odb,Step-1,Increment      1: Step Time =    1.000,"PART-1-1",           525,       12.5947,      -10.0706,            0.,NA,NA,"",   96.5478E-03,  -95.8259E-03,   11.7844E-03,   1.56628E-03
C:/temp/dataset/3/3_3.odb,Step-1,Increment      1: Step Time =    1.000,"PART-1-1",           526,       11.4853,  -434.223E-03,            0.,NA,NA,"",   316.336E-03,  -316.197E-03,  -9.38284E-03,   597.421E-06
C:/temp/dataset/3/3_3.odb,Step-1,Increment      1: Step Time =    1.000,"PART-1-1",           527,       10.5886,      -1.82652,            0.,NA,NA,"",   280.352E-03,  -278.538E-03,  -31.8394E-03,   1.57610E-03
C:/temp/dataset/3/3_3.odb,Step-1,Increment      1: Step Time =    1.000,"PART-1-1",           528,       11.9063,      -2.70193,            0.,NA,NA,"",   255.185E-03,  -255.172E-03,   2.64295E-03,   745.856E-06
C:/temp/dataset/3/3_3.odb,Step-1,Increment      1: Step Time =    1.000,"PART-1-1",           529,       14.1300,       7.44597,            0.,NA,NA,"",   571.396E-03,  -565.183E-03,   84.0340E-03,   4.27489E-03
C:/temp/dataset/3/3_3.odb,Step-1,Increment      1: Step Time =    1.000,"PART-1-1",           530,       13.1865,       6.25975,            0.,NA,NA,"",   523.468E-03,  -521.322E-03,   47.3516E-03,   2.74988E-03
C:/temp/dataset/3/3_3.odb,Step-1,Increment      1: Step Time =    1.000,"PART-1-1",           531,           15.,          6.25,            0.,NA,NA,"",   536.816E-03,  -525.342E-03,   110.393E-03,   5.28165E-03
C:/temp/dataset/3/3_3.odb,Step-1,Increment      1: Step Time =    1.000,"PART-1-1",           532,       12.4155,       5.33720,            0.,NA,NA,"",   489.479E-03,  -489.095E-03,   19.3778E-03,   1.76167E-03
C:/temp/dataset/3/3_3.odb,Step-1,Increment      1: Step Time =    1.000,"PART-1-1",           533,       11.2733,       3.54111,            0.,NA,NA,"",   431.601E-03,  -431.189E-03,  -18.8400E-03,   1.21413E-03
C:/temp/dataset/3/3_3.odb,Step-1,Increment      1: Step Time =    1.000,"PART-1-1",           534,       12.2480,       13.5548,            0.,NA,NA,"",   810.632E-03,  -810.429E-03,   18.1662E-03,   1.52122E-03
C:/temp/dataset/3/3_3.odb,Step-1,Increment      1: Step Time =    1.000,"PART-1-1",           535,           15.,         13.75,            0.,NA,NA,"",   839.489E-03,  -827.021E-03,   144.145E-03,   6.13115E-03
C:/temp/dataset/3/3_3.odb,Step-1,Increment      1: Step Time =    1.000,"PART-1-1",           536,       13.6600,       14.9734,            0.,NA,NA,"",   884.221E-03,  -880.052E-03,   85.7688E-03,   3.89081E-03
C:/temp/dataset/3/3_3.odb,Step-1,Increment      1: Step Time =    1.000,"PART-1-1",           537,       8.15326,       10.4556,            0.,NA,NA,"",   692.946E-03,  -676.289E-03,  -151.020E-03,   5.22450E-03
C:/temp/dataset/3/3_3.odb,Step-1,Increment      1: Step Time =    1.000,"PART-1-1",           538,       12.3824,       21.2920,            0.,NA,NA,"",       1.21251,      -1.21223,   25.7291E-03,   2.18988E-03
C:/temp/dataset/3/3_3.odb,Step-1,Increment      1: Step Time =    1.000,"PART-1-1",           539,       13.6892,       20.0188,            0.,NA,NA,"",       1.14711,      -1.14301,   96.9513E-03,   3.38211E-03
C:/temp/dataset/3/3_3.odb,Step-1,Increment      1: Step Time =    1.000,"PART-1-1",           540,           15.,         21.25,            0.,NA,NA,"",       1.22947,      -1.21734,   172.324E-03,   4.32763E-03
C:/temp/dataset/3/3_3.odb,Step-1,Increment      1: Step Time =    1.000,"PART-1-1",           541,       13.6932,       22.5232,            0.,NA,NA,"",       1.29139,      -1.28757,   99.2269E-03,   2.56587E-03
C:/temp/dataset/3/3_3.odb,Step-1,Increment      1: Step Time =    1.000,"PART-1-1",           542,       9.77662,       16.3041,            0.,NA,NA,"",   944.182E-03,  -938.498E-03,  -103.447E-03,   2.22681E-03
C:/temp/dataset/3/3_3.odb,Step-1,Increment      1: Step Time =    1.000,"PART-1-1",           543,       11.0318,       15.0036,            0.,NA,NA,"",   877.106E-03,  -876.223E-03,  -39.3496E-03,   422.365E-06
C:/temp/dataset/3/3_3.odb,Step-1,Increment      1: Step Time =    1.000,"PART-1-1",           544,       12.3430,       16.2301,            0.,NA,NA,"",   938.542E-03,  -938.247E-03,   23.5458E-03,   1.75482E-03
C:/temp/dataset/3/3_3.odb,Step-1,Increment      1: Step Time =    1.000,"PART-1-1",           545,         13.75,           30.,            0.,NA,NA,"",       1.74279,      -1.74019,   95.0713E-03,   195.681E-06
C:/temp/dataset/3/3_3.odb,Step-1,Increment      1: Step Time =    1.000,"PART-1-1",           546,       12.4862,       28.7548,            0.,NA,NA,"",       1.66332,      -1.66317,   21.9216E-03,   891.404E-06
C:/temp/dataset/3/3_3.odb,Step-1,Increment      1: Step Time =    1.000,"PART-1-1",           547,           15.,         28.75,            0.,NA,NA,"",       1.67602,      -1.66712,   172.484E-03,   194.989E-06
C:/temp/dataset/3/3_3.odb,Step-1,Increment      1: Step Time =    1.000,"PART-1-1",           548,       12.4064,       23.7898,            0.,NA,NA,"",       1.36050,      -1.36026,   25.0495E-03,   2.13075E-03
C:/temp/dataset/3/3_3.odb,Step-1,Increment      1: Step Time =    1.000,"PART-1-1",           549,           15.,         23.75,            0.,NA,NA,"",       1.37568,      -1.36436,   176.137E-03,   2.79275E-03
C:/temp/dataset/3/3_3.odb,Step-1,Increment      1: Step Time =    1.000,"PART-1-1",           550,       9.91541,       26.3072,            0.,NA,NA,"",       1.51524,      -1.51006,  -125.189E-03,   1.67933E-03
C:/temp/dataset/3/3_3.odb,Step-1,Increment      1: Step Time =    1.000,"PART-1-1",           551,       11.1537,       25.0565,            0.,NA,NA,"",       1.43587,      -1.43502,  -49.3345E-03,   1.85411E-03
C:/temp/dataset/3/3_3.odb,Step-1,Increment      1: Step Time =    1.000,"PART-1-1",           552,       11.2110,       27.5221,            0.,NA,NA,"",       1.58701,      -1.58618,  -51.2098E-03,   1.47254E-03
C:/temp/dataset/3/3_3.odb,Step-1,Increment      1: Step Time =    1.000,"PART-1-1",           553,       8.69233,       27.5515,            0.,NA,NA,"",       1.59831,      -1.58539,  -202.803E-03,   1.44247E-03
C:/temp/dataset/3/3_3.odb,Step-1,Increment      1: Step Time =    1.000,"PART-1-1",           554,       7.41297,       26.3376,            0.,NA,NA,"",       1.53581,      -1.51065,  -276.870E-03,   3.03628E-03
C:/temp/dataset/3/3_3.odb,Step-1,Increment      1: Step Time =    1.000,"PART-1-1",           555,       8.63604,       25.0933,            0.,NA,NA,"",       1.44852,      -1.43500,  -197.425E-03,   2.49652E-03
C:/temp/dataset/3/3_3.odb,Step-1,Increment      1: Step Time =    1.000,"PART-1-1",           556,      -1.26375,       27.5391,            0.,NA,NA,"",       1.78296,      -1.58137,  -823.540E-03,   617.555E-06
C:/temp/dataset/3/3_3.odb,Step-1,Increment      1: Step Time =    1.000,"PART-1-1",           557,         -1.25,           30.,            0.,NA,NA,"",       1.91918,      -1.73150,  -827.731E-03,   724.058E-06
C:/temp/dataset/3/3_3.odb,Step-1,Increment      1: Step Time =    1.000,"PART-1-1",           558,      -2.50500,       28.7640,            0.,NA,NA,"",       1.88423,      -1.65422,  -902.144E-03,   362.295E-06
C:/temp/dataset/3/3_3.odb,Step-1,Increment      1: Step Time =    1.000,"PART-1-1",           559,      -7.50143,       28.7522,            0.,NA,NA,"",       2.04275,      -1.64439,      -1.21195,   60.5776E-06
C:/temp/dataset/3/3_3.odb,Step-1,Increment      1: Step Time =    1.000,"PART-1-1",           560,         -8.75,           30.,            0.,NA,NA,"",       2.15074,      -1.71947,      -1.29193,   40.4207E-06
C:/temp/dataset/3/3_3.odb,Step-1,Increment      1: Step Time =    1.000,"PART-1-1",           561,      -6.25460,       27.5081,            0.,NA,NA,"",       1.93536,      -1.56968,      -1.13212,   138.036E-06
C:/temp/dataset/3/3_3.odb,Step-1,Increment      1: Step Time =    1.000,"PART-1-1",           562,        -13.75,           30.,            0.,NA,NA,"",       2.34335,      -1.70985,      -1.60240,   315.753E-09
C:/temp/dataset/3/3_3.odb,Step-1,Increment      1: Step Time =    1.000,"PART-1-1",           563,          -15.,         28.75,            0.,NA,NA,"",       2.33895,      -1.62984,      -1.67759,   698.913E-09
C:/temp/dataset/3/3_3.odb,Step-1,Increment      1: Step Time =    1.000,"PART-1-1",           564,      -13.7509,       27.5010,            0.,NA,NA,"",       2.22925,      -1.55471,      -1.59764,   3.18528E-06
C:/temp/dataset/3/3_3.odb,Step-1,Increment      1: Step Time =    1.000,"PART-1-1",           565,          -15.,         26.25,            0.,NA,NA,"",       2.22996,      -1.47464,      -1.67277,   561.824E-09
C:/temp/dataset/3/3_3.odb,Step-1,Increment      1: Step Time =    1.000,"PART-1-1",           566,      -12.5016,       26.2536,            0.,NA,NA,"",       2.11962,      -1.47968,      -1.51767,   7.03047E-06
C:/temp/dataset/3/3_3.odb,Step-1,Increment      1: Step Time =    1.000,"PART-1-1",           567,      -7.50093,       21.2547,            0.,NA,NA,"",       1.68063,      -1.17895,      -1.19775,   55.9705E-06
C:/temp/dataset/3/3_3.odb,Step-1,Increment      1: Step Time =    1.000,"PART-1-1",           568,         -6.25,           20.,            0.,NA,NA,"",       1.57053,      -1.10335,      -1.11767,   136.350E-06
C:/temp/dataset/3/3_3.odb,Step-1,Increment      1: Step Time =    1.000,"PART-1-1",           569,      -4.99978,       21.2574,            0.,NA,NA,"",       1.57743,      -1.18379,      -1.04255,   143.348E-06
C:/temp/dataset/3/3_3.odb,Step-1,Increment      1: Step Time =    1.000,"PART-1-1",           570,      -3.74911,       22.5208,            0.,NA,NA,"",       1.59242,      -1.26494,  -967.325E-03,   173.213E-06
C:/temp/dataset/3/3_3.odb,Step-1,Increment      1: Step Time =    1.000,"PART-1-1",           571,         -3.75,           20.,            0.,NA,NA,"",       1.46733,      -1.10769,  -962.320E-03,   310.184E-06
C:/temp/dataset/3/3_3.odb,Step-1,Increment      1: Step Time =    1.000,"PART-1-1",           572,      -2.49933,       21.2634,            0.,NA,NA,"",       1.48316,      -1.18872,  -886.961E-03,   219.638E-06
C:/temp/dataset/3/3_3.odb,Step-1,Increment      1: Step Time =    1.000,"PART-1-1",           573,         -1.25,           20.,            0.,NA,NA,"",       1.37306,      -1.11158,  -806.034E-03,   595.558E-06
C:/temp/dataset/3/3_3.odb,Step-1,Increment      1: Step Time =    1.000,"PART-1-1",           574,  -2.23348E-03,       21.2694,            0.,NA,NA,"",       1.39920,      -1.19357,  -730.169E-03,   240.432E-06
C:/temp/dataset/3/3_3.odb,Step-1,Increment      1: Step Time =    1.000,"PART-1-1",           575,      -1.25156,       22.5328,            0.,NA,NA,"",       1.50769,      -1.27068,  -811.483E-03,   233.290E-06
C:/temp/dataset/3/3_3.odb,Step-1,Increment      1: Step Time =    1.000,"PART-1-1",           576,         -3.75,           30.,            0.,NA,NA,"",       1.98769,      -1.72840,  -981.607E-03,   387.769E-06
C:/temp/dataset/3/3_3.odb,Step-1,Increment      1: Step Time =    1.000,"PART-1-1",           577,      -5.00318,       28.7559,            0.,NA,NA,"",       1.95884,      -1.64931,      -1.05680,   157.831E-06
C:/temp/dataset/3/3_3.odb,Step-1,Increment      1: Step Time =    1.000,"PART-1-1",           578,       7.36074,       18.8052,            0.,NA,NA,"",       1.09215,      -1.06533,  -240.541E-03,   4.70556E-03
C:/temp/dataset/3/3_3.odb,Step-1,Increment      1: Step Time =    1.000,"PART-1-1",           579,       8.58169,       17.5494,            0.,NA,NA,"",       1.01492,      -1.00076,  -168.933E-03,   4.03448E-03
C:/temp/dataset/3/3_3.odb,Step-1,Increment      1: Step Time =    1.000,"PART-1-1",           580,       8.60057,       20.0599,            0.,NA,NA,"",       1.14971,      -1.13577,  -178.477E-03,   2.93650E-03
C:/temp/dataset/3/3_3.odb,Step-1,Increment      1: Step Time =    1.000,"PART-1-1",           581,            5.,         18.75,            0.,NA,NA,"",       1.12850,      -1.06606,  -370.166E-03,   13.2584E-03
C:/temp/dataset/3/3_3.odb,Step-1,Increment      1: Step Time =    1.000,"PART-1-1",           582,       6.17685,       17.5255,            0.,NA,NA,"",       1.04351,      -1.00111,  -294.446E-03,   8.79990E-03
C:/temp/dataset/3/3_3.odb,Step-1,Increment      1: Step Time =    1.000,"PART-1-1",           583,       6.18390,       20.0298,            0.,NA,NA,"",       1.17353,      -1.13063,  -314.380E-03,   7.65397E-03
C:/temp/dataset/3/3_3.odb,Step-1,Increment      1: Step Time =    1.000,"PART-1-1",           584,            5.,         16.25,            0.,NA,NA,"",       1.00251,  -943.114E-03,  -339.959E-03,   10.8156E-03
C:/temp/dataset/3/3_3.odb,Step-1,Increment      1: Step Time =    1.000,"PART-1-1",           585,       6.15340,       15.0385,            0.,NA,NA,"",   922.780E-03,  -881.608E-03,  -272.563E-03,   8.64901E-03
C:/temp/dataset/3/3_3.odb,Step-1,Increment      1: Step Time =    1.000,"PART-1-1",           586,       7.33024,       16.3140,            0.,NA,NA,"",   966.395E-03,  -939.745E-03,  -225.383E-03,   6.51396E-03
C:/temp/dataset/3/3_3.odb,Step-1,Increment      1: Step Time =    1.000,"PART-1-1",           587,           15.,         16.25,            0.,NA,NA,"",   959.862E-03,  -947.250E-03,   155.090E-03,   6.01139E-03
C:/temp/dataset/3/3_3.odb,Step-1,Increment      1: Step Time =    1.000,"PART-1-1",           588,       13.6830,       17.5067,            0.,NA,NA,"",       1.01114,      -1.00691,   92.4188E-03,   3.80829E-03
C:/temp/dataset/3/3_3.odb,Step-1,Increment      1: Step Time =    1.000,"PART-1-1",           589,           15.,         18.75,            0.,NA,NA,"",       1.09012,      -1.07758,   164.913E-03,   5.45719E-03
C:/temp/dataset/3/3_3.odb,Step-1,Increment      1: Step Time =    1.000,"PART-1-1",           590,       7.36831,       6.81272,            0.,NA,NA,"",   561.486E-03,  -538.290E-03,  -159.721E-03,   5.19488E-03
C:/temp/dataset/3/3_3.odb,Step-1,Increment      1: Step Time =    1.000,"PART-1-1",           591,       6.10412,       7.73110,            0.,NA,NA,"",   612.133E-03,  -574.541E-03,  -211.209E-03,   8.70113E-03
C:/temp/dataset/3/3_3.odb,Step-1,Increment      1: Step Time =    1.000,"PART-1-1",           592,            5.,          6.25,            0.,NA,NA,"",   575.316E-03,  -524.888E-03,  -235.545E-03,   12.6287E-03
C:/temp/dataset/3/3_3.odb,Step-1,Increment      1: Step Time =    1.000,"PART-1-1",           593,       6.26419,       5.33162,            0.,NA,NA,"",   523.447E-03,  -488.687E-03,  -187.570E-03,   7.47248E-03
C:/temp/dataset/3/3_3.odb,Step-1,Increment      1: Step Time =    1.000,"PART-1-1",           594,           15.,          8.75,            0.,NA,NA,"",   628.113E-03,  -616.277E-03,   121.362E-03,   5.80519E-03
C:/temp/dataset/3/3_3.odb,Step-1,Increment      1: Step Time =    1.000,"PART-1-1",           595,       13.1418,       8.51598,            0.,NA,NA,"",   604.469E-03,  -602.407E-03,   49.8827E-03,   2.84376E-03
C:/temp/dataset/3/3_3.odb,Step-1,Increment      1: Step Time =    1.000,"PART-1-1",           596,       6.30252,      -5.49102,            0.,NA,NA,"",   226.429E-03,  -188.174E-03,  -125.940E-03,   7.17442E-03
C:/temp/dataset/3/3_3.odb,Step-1,Increment      1: Step Time =    1.000,"PART-1-1",           597,            5.,         -6.25,            0.,NA,NA,"",   233.207E-03,  -177.018E-03,  -151.823E-03,   12.0029E-03
C:/temp/dataset/3/3_3.odb,Step-1,Increment      1: Step Time =    1.000,"PART-1-1",           598,       6.10325,      -7.87566,            0.,NA,NA,"",   181.519E-03,  -141.167E-03,  -114.110E-03,   8.13845E-03
C:/temp/dataset/3/3_3.odb,Step-1,Increment      1: Step Time =    1.000,"PART-1-1",           599,       7.40577,      -7.11668,            0.,NA,NA,"",   177.971E-03,  -152.472E-03,  -91.7924E-03,   4.99827E-03
C:/temp/dataset/3/3_3.odb,Step-1,Increment      1: Step Time =    1.000,"PART-1-1",           600,            5.,         -8.75,            0.,NA,NA,"",   181.712E-03,  -129.999E-03,  -126.962E-03,   9.77947E-03
C:/temp/dataset/3/3_3.odb,Step-1,Increment      1: Step Time =    1.000,"PART-1-1",           601,            5.,        -13.75,            0.,NA,NA,"",   101.460E-03,  -56.1369E-03,  -84.5152E-03,   9.13449E-03
C:/temp/dataset/3/3_3.odb,Step-1,Increment      1: Step Time =    1.000,"PART-1-1",           602,       5.77894,      -15.1288,            0.,NA,NA,"",   75.6468E-03,  -38.2295E-03,  -65.2758E-03,   8.12562E-03
C:/temp/dataset/3/3_3.odb,Step-1,Increment      1: Step Time =    1.000,"PART-1-1",           603,            5.,        -16.25,            0.,NA,NA,"",   71.1423E-03,  -30.4797E-03,  -64.2823E-03,   9.17059E-03
C:/temp/dataset/3/3_3.odb,Step-1,Increment      1: Step Time =    1.000,"PART-1-1",           604,       2.77244,      -24.0596,            0.,NA,NA,"",   7.72938E-03,  -2.54372E-03,  -7.29882E-03,   2.05915E-03
C:/temp/dataset/3/3_3.odb,Step-1,Increment      1: Step Time =    1.000,"PART-1-1",           605,       3.76359,      -25.5842,            0.,NA,NA,"",   6.82032E-03,  -1.50862E-03,  -6.65138E-03,   2.28029E-03
C:/temp/dataset/3/3_3.odb,Step-1,Increment      1: Step Time =    1.000,"PART-1-1",           606,       5.11162,      -24.8806,            0.,NA,NA,"",   9.77807E-03,  -17.8357E-06,  -9.77805E-03,   3.18571E-03
C:/temp/dataset/3/3_3.odb,Step-1,Increment      1: Step Time =    1.000,"PART-1-1",           607,       4.12047,      -23.3559,            0.,NA,NA,"",   12.2826E-03,  -1.69939E-03,  -12.1645E-03,   3.11505E-03
C:/temp/dataset/3/3_3.odb,Step-1,Increment      1: Step Time =    1.000,"PART-1-1",           608,       8.48587,      -2.76980,            0.,NA,NA,"",   269.140E-03,  -255.842E-03,  -83.5542E-03,   4.08727E-03
C:/temp/dataset/3/3_3.odb,Step-1,Increment      1: Step Time =    1.000,"PART-1-1",           609,       9.66601,      -3.38468,            0.,NA,NA,"",   243.709E-03,  -238.083E-03,  -52.0637E-03,   2.52374E-03
C:/temp/dataset/3/3_3.odb,Step-1,Increment      1: Step Time =    1.000,"PART-1-1",           610,       9.40849,      -1.21164,            0.,NA,NA,"",   303.447E-03,  -296.501E-03,  -64.5564E-03,   3.10520E-03
C:/temp/dataset/3/3_3.odb,Step-1,Increment      1: Step Time =    1.000,"PART-1-1",           611,       3.88333,            5.,            0.,NA,NA,"",   534.897E-03,  -479.754E-03,  -236.539E-03,   3.66174E-03
C:/temp/dataset/3/3_3.odb,Step-1,Increment      1: Step Time =    1.000,"PART-1-1",           612,       3.93709,       2.49951,            0.,NA,NA,"",   473.826E-03,  -413.438E-03,  -231.474E-03,   3.36907E-03
C:/temp/dataset/3/3_3.odb,Step-1,Increment      1: Step Time =    1.000,"PART-1-1",           613,       5.14044,       3.62548,            0.,NA,NA,"",   489.204E-03,  -443.057E-03,  -207.415E-03,   7.21305E-03
C:/temp/dataset/3/3_3.odb,Step-1,Increment      1: Step Time =    1.000,"PART-1-1",           614,       1.70000,           -5.,            0.,NA,NA,"",   345.141E-03,  -200.162E-03,  -281.172E-03,   970.839E-06
C:/temp/dataset/3/3_3.odb,Step-1,Increment      1: Step Time =    1.000,"PART-1-1",           615,       2.88648,      -4.17028,            0.,NA,NA,"",   332.935E-03,  -225.403E-03,  -245.029E-03,   1.26529E-03
C:/temp/dataset/3/3_3.odb,Step-1,Increment      1: Step Time =    1.000,"PART-1-1",           616,       1.90498,      -3.27989,            0.,NA,NA,"",   373.318E-03,  -251.360E-03,  -276.016E-03,   712.752E-06
C:/temp/dataset/3/3_3.odb,Step-1,Increment      1: Step Time =    1.000,"PART-1-1",           617,      -2.82853,       3.20340,            0.,NA,NA,"",   597.395E-03,  -431.385E-03,  -413.265E-03,   224.929E-06
C:/temp/dataset/3/3_3.odb,Step-1,Increment      1: Step Time =    1.000,"PART-1-1",           618,      -1.73717,       4.08745,            0.,NA,NA,"",   595.706E-03,  -456.148E-03,  -383.137E-03,   286.750E-06
C:/temp/dataset/3/3_3.odb,Step-1,Increment      1: Step Time =    1.000,"PART-1-1",           619,      -2.81667,            5.,            0.,NA,NA,"",   634.724E-03,  -481.341E-03,  -413.745E-03,   281.067E-06
C:/temp/dataset/3/3_3.odb,Step-1,Increment      1: Step Time =    1.000,"PART-1-1",           620,      -7.28333,            5.,            0.,NA,NA,"",   721.763E-03,  -480.037E-03,  -538.986E-03,   27.9492E-06
C:/temp/dataset/3/3_3.odb,Step-1,Increment      1: Step Time =    1.000,"PART-1-1",           621,      -11.7000,            5.,            0.,NA,NA,"",   817.345E-03,  -478.316E-03,  -662.772E-03,   1.06682E-06
C:/temp/dataset/3/3_3.odb,Step-1,Increment      1: Step Time =    1.000,"PART-1-1",           622,      -11.5540,       2.50359,            0.,NA,NA,"",   774.205E-03,  -408.436E-03,  -657.704E-03,   3.67340E-06
C:/temp/dataset/3/3_3.odb,Step-1,Increment      1: Step Time =    1.000,"PART-1-1",           623,      -8.37698,      -4.01732,            0.,NA,NA,"",   610.044E-03,  -227.030E-03,  -566.225E-03,   13.0703E-06
C:/temp/dataset/3/3_3.odb,Step-1,Increment      1: Step Time =    1.000,"PART-1-1",           624,      -10.5279,      -3.86372,            0.,NA,NA,"",   667.549E-03,  -230.496E-03,  -626.493E-03,   2.80442E-06
C:/temp/dataset/3/3_3.odb,Step-1,Increment      1: Step Time =    1.000,"PART-1-1",           625,      -9.41667,           -5.,            0.,NA,NA,"",   627.373E-03,  -199.115E-03,  -594.937E-03,   4.34677E-06
C:/temp/dataset/3/3_3.odb,Step-1,Increment      1: Step Time =    1.000,"PART-1-1",           626,          3.75,          -20.,            0.,NA,NA,"",   14.2419E-03,   1.78913E-03,  -14.1291E-03,   3.51807E-03
C:/temp/dataset/3/3_3.odb,Step-1,Increment      1: Step Time =    1.000,"PART-1-1",           627,       2.74072,      -21.3682,            0.,NA,NA,"",   9.85545E-03,  -1.34748E-03,  -9.76290E-03,   1.19390E-03
C:/temp/dataset/3/3_3.odb,Step-1,Increment      1: Step Time =    1.000,"PART-1-1",           628,       4.11640,      -22.1674,            0.,NA,NA,"",   15.2230E-03,  -2.20720E-03,  -15.0622E-03,   3.82341E-03
C:/temp/dataset/3/3_3.odb,Step-1,Increment      1: Step Time =    1.000,"PART-1-1",           629,       5.12568,      -20.7992,            0.,NA,NA,"",   24.9149E-03,  -849.392E-06,  -24.9005E-03,   6.68309E-03
C:/temp/dataset/3/3_3.odb,Step-1,Increment      1: Step Time =    1.000,"PART-1-1",           630,          1.25,          -20.,            0.,NA,NA,"",   5.45979E-03,   2.18640E-03,  -5.00289E-03,   401.326E-06
C:/temp/dataset/3/3_3.odb,Step-1,Increment      1: Step Time =    1.000,"PART-1-1",           631,   73.0809E-03,      -21.3299,            0.,NA,NA,"",   2.88936E-03,  -482.118E-06,  -2.84885E-03,   156.236E-06
C:/temp/dataset/3/3_3.odb,Step-1,Increment      1: Step Time =    1.000,"PART-1-1",           632,       1.56380,      -22.6981,            0.,NA,NA,"",   6.20902E-03,  -2.36963E-03,  -5.73905E-03,   1.40698E-03
C:/temp/dataset/3/3_3.odb,Step-1,Increment      1: Step Time =    1.000,"PART-1-1",           633,         -1.25,          -20.,            0.,NA,NA,"",   1.74077E-03,   561.739E-06,  -1.64765E-03,   482.590E-06
C:/temp/dataset/3/3_3.odb,Step-1,Increment      1: Step Time =    1.000,"PART-1-1",           634,      -2.46493,      -21.3147,            0.,NA,NA,"",   943.388E-06,  -710.033E-06,  -621.156E-06,   126.265E-06
C:/temp/dataset/3/3_3.odb,Step-1,Increment      1: Step Time =    1.000,"PART-1-1",           635,      -1.14185,      -22.6446,            0.,NA,NA,"",   2.27187E-03,  -1.68785E-03,  -1.52071E-03,   316.362E-06
C:/temp/dataset/3/3_3.odb,Step-1,Increment      1: Step Time =    1.000,"PART-1-1",           636,         -3.75,          -20.,            0.,NA,NA,"",   335.192E-06,  -286.874E-06,  -173.370E-06,   297.506E-06
C:/temp/dataset/3/3_3.odb,Step-1,Increment      1: Step Time =    1.000,"PART-1-1",           637,      -4.97847,      -21.2978,            0.,NA,NA,"",   935.234E-06,  -908.411E-06,   222.380E-06,   112.165E-06
C:/temp/dataset/3/3_3.odb,Step-1,Increment      1: Step Time =    1.000,"PART-1-1",           638,      -3.69340,      -22.6125,            0.,NA,NA,"",   1.35847E-03,  -1.35690E-03,  -65.2366E-06,   116.830E-06
C:/temp/dataset/3/3_3.odb,Step-1,Increment      1: Step Time =    1.000,"PART-1-1",           639,      -4.95791,      -23.8547,            0.,NA,NA,"",   1.55401E-03,  -1.54652E-03,   152.364E-06,   158.210E-06
C:/temp/dataset/3/3_3.odb,Step-1,Increment      1: Step Time =    1.000,"PART-1-1",           640,      -6.21189,      -22.5887,            0.,NA,NA,"",   1.26289E-03,  -1.21561E-03,   342.325E-06,   101.684E-06
C:/temp/dataset/3/3_3.odb,Step-1,Increment      1: Step Time =    1.000,"PART-1-1",           641,      -7.46939,      -23.8324,            0.,NA,NA,"",   1.29061E-03,  -1.25196E-03,   313.472E-06,   102.120E-06
C:/temp/dataset/3/3_3.odb,Step-1,Increment      1: Step Time =    1.000,"PART-1-1",           642,           15.,        -13.75,            0.,NA,NA,"",   59.3244E-03,  -47.3525E-03,   35.7369E-03,   4.87838E-03
C:/temp/dataset/3/3_3.odb,Step-1,Increment      1: Step Time =    1.000,"PART-1-1",           643,       14.2106,      -12.3304,            0.,NA,NA,"",   70.9722E-03,  -63.7616E-03,   31.1691E-03,   3.81931E-03
C:/temp/dataset/3/3_3.odb,Step-1,Increment      1: Step Time =    1.000,"PART-1-1",           644,       13.1387,      -13.2101,            0.,NA,NA,"",   52.8889E-03,  -50.7869E-03,   14.7621E-03,   2.22578E-03
C:/temp/dataset/3/3_3.odb,Step-1,Increment      1: Step Time =    1.000,"PART-1-1",           645,           15.,        -11.25,            0.,NA,NA,"",   93.4297E-03,  -80.9389E-03,   46.6691E-03,   5.01251E-03
C:/temp/dataset/3/3_3.odb,Step-1,Increment      1: Step Time =    1.000,"PART-1-1",           646,           15.,         -6.25,            0.,NA,NA,"",   186.668E-03,  -173.768E-03,   68.1892E-03,   4.70120E-03
C:/temp/dataset/3/3_3.odb,Step-1,Increment      1: Step Time =    1.000,"PART-1-1",           647,       14.0624,      -4.92369,            0.,NA,NA,"",   208.579E-03,  -202.108E-03,   51.5529E-03,   3.30503E-03
C:/temp/dataset/3/3_3.odb,Step-1,Increment      1: Step Time =    1.000,"PART-1-1",           648,       12.9264,      -6.09194,            0.,NA,NA,"",   175.275E-03,  -173.648E-03,   23.8250E-03,   2.00194E-03
C:/temp/dataset/3/3_3.odb,Step-1,Increment      1: Step Time =    1.000,"PART-1-1",           649,           15.,         -3.75,            0.,NA,NA,"",   245.018E-03,  -232.431E-03,   77.5221E-03,   4.17021E-03
C:/temp/dataset/3/3_3.odb,Step-1,Increment      1: Step Time =    1.000,"PART-1-1",           650,       13.0440,      -3.68493,            0.,NA,NA,"",   232.801E-03,  -230.858E-03,   30.0153E-03,   1.92893E-03
C:/temp/dataset/3/3_3.odb,Step-1,Increment      1: Step Time =    1.000,"PART-1-1",           651,       8.06094,   477.426E-03,            0.,NA,NA,"",   362.709E-03,  -346.113E-03,  -108.463E-03,   4.50377E-03
C:/temp/dataset/3/3_3.odb,Step-1,Increment      1: Step Time =    1.000,"PART-1-1",           652,       8.76493,       2.31856,            0.,NA,NA,"",   407.897E-03,  -396.628E-03,  -95.2159E-03,   4.07341E-03
C:/temp/dataset/3/3_3.odb,Step-1,Increment      1: Step Time =    1.000,"PART-1-1",           653,       6.73548,       2.80805,            0.,NA,NA,"",   444.272E-03,  -415.094E-03,  -158.350E-03,   5.64731E-03
C:/temp/dataset/3/3_3.odb,Step-1,Increment      1: Step Time =    1.000,"PART-1-1",           654,       6.03149,   966.916E-03,            0.,NA,NA,"",   402.428E-03,  -365.447E-03,  -168.515E-03,   5.52659E-03
C:/temp/dataset/3/3_3.odb,Step-1,Increment      1: Step Time =    1.000,"PART-1-1",           655,            5.,          8.75,            0.,NA,NA,"",   671.360E-03,  -617.518E-03,  -263.432E-03,   10.5906E-03
C:/temp/dataset/3/3_3.odb,Step-1,Increment      1: Step Time =    1.000,"PART-1-1",           656,       7.16919,       9.14751,            0.,NA,NA,"",   651.910E-03,  -625.893E-03,  -182.334E-03,   6.76033E-03
C:/temp/dataset/3/3_3.odb,Step-1,Increment      1: Step Time =    1.000,"PART-1-1",           657,          3.75,           30.,            0.,NA,NA,"",       1.81413,      -1.73659,  -524.713E-03,   3.07282E-03
C:/temp/dataset/3/3_3.odb,Step-1,Increment      1: Step Time =    1.000,"PART-1-1",           658,       3.71036,       27.5731,            0.,NA,NA,"",       1.66855,      -1.58691,  -515.526E-03,   3.60116E-03
C:/temp/dataset/3/3_3.odb,Step-1,Increment      1: Step Time =    1.000,"PART-1-1",           659,       7.38617,       23.8490,            0.,NA,NA,"",       1.38533,      -1.35943,  -266.618E-03,   3.98239E-03
C:/temp/dataset/3/3_3.odb,Step-1,Increment      1: Step Time =    1.000,"PART-1-1",           660,       6.16255,       25.1024,            0.,NA,NA,"",       1.47757,      -1.43591,  -348.391E-03,   3.84745E-03
C:/temp/dataset/3/3_3.odb,Step-1,Increment      1: Step Time =    1.000,"PART-1-1",           661,       4.93576,       23.8439,            0.,NA,NA,"",       1.42319,      -1.36015,  -418.890E-03,   4.89331E-03
C:/temp/dataset/3/3_3.odb,Step-1,Increment      1: Step Time =    1.000,"PART-1-1",           662,       6.15938,       22.5905,            0.,NA,NA,"",       1.32681,      -1.28407,  -334.048E-03,   5.26424E-03
C:/temp/dataset/3/3_3.odb,Step-1,Increment      1: Step Time =    1.000,"PART-1-1",           663,      -10.0017,       23.7560,            0.,NA,NA,"",       1.90024,      -1.32948,      -1.35771,   28.1193E-06
C:/temp/dataset/3/3_3.odb,Step-1,Increment      1: Step Time =    1.000,"PART-1-1",           664,      -8.75135,       22.5073,            0.,NA,NA,"",       1.79054,      -1.25436,      -1.27774,   56.8026E-06
C:/temp/dataset/3/3_3.odb,Step-1,Increment      1: Step Time =    1.000,"PART-1-1",           665,      -10.0004,       21.2526,            0.,NA,NA,"",       1.79123,      -1.17404,      -1.35283,   16.6645E-06
C:/temp/dataset/3/3_3.odb,Step-1,Increment      1: Step Time =    1.000,"PART-1-1",           666,      -11.2505,       22.5043,            0.,NA,NA,"",       1.90101,      -1.24935,      -1.43281,   17.3945E-06
C:/temp/dataset/3/3_3.odb,Step-1,Increment      1: Step Time =    1.000,"PART-1-1",           667,        -11.25,           20.,            0.,NA,NA,"",       1.79880,      -1.09390,      -1.42796,   7.15021E-06
C:/temp/dataset/3/3_3.odb,Step-1,Increment      1: Step Time =    1.000,"PART-1-1",           668,         -8.75,           20.,            0.,NA,NA,"",       1.68142,      -1.09868,      -1.27281,   38.4499E-06
C:/temp/dataset/3/3_3.odb,Step-1,Increment      1: Step Time =    1.000,"PART-1-1",           669,       7.37456,       21.3253,            0.,NA,NA,"",       1.23393,      -1.20762,  -253.450E-03,   4.57244E-03
C:/temp/dataset/3/3_3.odb,Step-1,Increment      1: Step Time =    1.000,"PART-1-1",           670,      -1.26076,       25.0501,            0.,NA,NA,"",       1.64503,      -1.42753,  -817.470E-03,   490.946E-06
C:/temp/dataset/3/3_3.odb,Step-1,Increment      1: Step Time =    1.000,"PART-1-1",           671,      -2.50213,       23.7814,            0.,NA,NA,"",       1.61494,      -1.34613,  -892.167E-03,   158.721E-06
C:/temp/dataset/3/3_3.odb,Step-1,Increment      1: Step Time =    1.000,"PART-1-1",           672,          1.25,           20.,            0.,NA,NA,"",       1.28900,      -1.11461,  -647.431E-03,   530.931E-06
C:/temp/dataset/3/3_3.odb,Step-1,Increment      1: Step Time =    1.000,"PART-1-1",           673,            5.,         13.75,            0.,NA,NA,"",   883.575E-03,  -825.799E-03,  -314.264E-03,   10.3893E-03
C:/temp/dataset/3/3_3.odb,Step-1,Increment      1: Step Time =    1.000,"PART-1-1",           674,       7.85923,       4.51418,            0.,NA,NA,"",   480.769E-03,  -462.167E-03,  -132.442E-03,   4.73973E-03
C:/temp/dataset/3/3_3.odb,Step-1,Increment      1: Step Time =    1.000,"PART-1-1",           675,       9.45843,       7.45797,            0.,NA,NA,"",   566.844E-03,  -559.992E-03,  -87.8721E-03,   2.52471E-03
C:/temp/dataset/3/3_3.odb,Step-1,Increment      1: Step Time =    1.000,"PART-1-1",           676,       11.3500,       8.04392,            0.,NA,NA,"",   582.408E-03,  -582.118E-03,  -18.3693E-03,   607.192E-06
C:/temp/dataset/3/3_3.odb,Step-1,Increment      1: Step Time =    1.000,"PART-1-1",           677,       10.2386,       8.70699,            0.,NA,NA,"",   609.355E-03,  -606.236E-03,  -61.5820E-03,   1.55975E-03
C:/temp/dataset/3/3_3.odb,Step-1,Increment      1: Step Time =    1.000,"PART-1-1",           678,   133.314E-03,       2.02047,            0.,NA,NA,"",   518.887E-03,  -400.094E-03,  -330.407E-03,   231.810E-06
C:/temp/dataset/3/3_3.odb,Step-1,Increment      1: Step Time =    1.000,"PART-1-1",           679,       2.26054,       1.70692,            0.,NA,NA,"",   477.370E-03,  -392.126E-03,  -272.248E-03,   1.24923E-03
C:/temp/dataset/3/3_3.odb,Step-1,Increment      1: Step Time =    1.000,"PART-1-1",           680,  -583.333E-03,            5.,            0.,NA,NA,"",   596.088E-03,  -481.363E-03,  -351.582E-03,   689.650E-06
C:/temp/dataset/3/3_3.odb,Step-1,Increment      1: Step Time =    1.000,"PART-1-1",           681,  -713.179E-03,       3.09316,            0.,NA,NA,"",   556.403E-03,  -429.113E-03,  -354.183E-03,   292.850E-06
C:/temp/dataset/3/3_3.odb,Step-1,Increment      1: Step Time =    1.000,"PART-1-1",           682,      -10.2084,       1.19941,            0.,NA,NA,"",   722.833E-03,  -372.437E-03,  -619.499E-03,   9.42752E-06
C:/temp/dataset/3/3_3.odb,Step-1,Increment      1: Step Time =    1.000,"PART-1-1",           683,      -7.18333,           -5.,            0.,NA,NA,"",   568.750E-03,  -199.972E-03,  -532.436E-03,   28.1617E-06
C:/temp/dataset/3/3_3.odb,Step-1,Increment      1: Step Time =    1.000,"PART-1-1",           684,      -7.36178,      -2.99006,            0.,NA,NA,"",   596.091E-03,  -256.202E-03,  -538.224E-03,   44.7484E-06
C:/temp/dataset/3/3_3.odb,Step-1,Increment      1: Step Time =    1.000,"PART-1-1",           685,      -11.3125,  -91.5578E-03,            0.,NA,NA,"",   731.572E-03,  -335.838E-03,  -649.931E-03,   7.25824E-06
C:/temp/dataset/3/3_3.odb,Step-1,Increment      1: Step Time =    1.000,"PART-1-1",           686,      -11.6500,           -5.,            0.,NA,NA,"",   686.704E-03,  -198.237E-03,  -657.468E-03,   1.22309E-06
C:/temp/dataset/3/3_3.odb,Step-1,Increment      1: Step Time =    1.000,"PART-1-1",           687,      -11.6245,      -2.63993,            0.,NA,NA,"",   708.813E-03,  -264.339E-03,  -657.678E-03,   3.20602E-06
C:/temp/dataset/3/3_3.odb,Step-1,Increment      1: Step Time =    1.000,"PART-1-1",           688,      -1.03706,       1.18772,            0.,NA,NA,"",   522.670E-03,  -376.491E-03,  -362.544E-03,   250.504E-06
C:/temp/dataset/3/3_3.odb,Step-1,Increment      1: Step Time =    1.000,"PART-1-1",           689,      -2.26684,   407.252E-03,            0.,NA,NA,"",   531.696E-03,  -353.997E-03,  -396.720E-03,   258.335E-06
C:/temp/dataset/3/3_3.odb,Step-1,Increment      1: Step Time =    1.000,"PART-1-1",           690,      -1.61706,  -775.207E-03,            0.,NA,NA,"",   496.220E-03,  -321.219E-03,  -378.222E-03,   259.025E-06
C:/temp/dataset/3/3_3.odb,Step-1,Increment      1: Step Time =    1.000,"PART-1-1",           691,      -4.44627,  -189.662E-03,            0.,NA,NA,"",   567.745E-03,  -336.062E-03,  -457.598E-03,   162.422E-06
C:/temp/dataset/3/3_3.odb,Step-1,Increment      1: Step Time =    1.000,"PART-1-1",           692,      -3.83065,   850.686E-03,            0.,NA,NA,"",   572.488E-03,  -365.492E-03,  -440.634E-03,   177.711E-06
C:/temp/dataset/3/3_3.odb,Step-1,Increment      1: Step Time =    1.000,"PART-1-1",           693,      -5.38306,   384.196E-03,            0.,NA,NA,"",   598.274E-03,  -351.668E-03,  -484.006E-03,   108.685E-06
C:/temp/dataset/3/3_3.odb,Step-1,Increment      1: Step Time =    1.000,"PART-1-1",           694,       3.90000,           -5.,            0.,NA,NA,"",   291.247E-03,  -200.176E-03,  -211.552E-03,   3.46209E-03
C:/temp/dataset/3/3_3.odb,Step-1,Increment      1: Step Time =    1.000,"PART-1-1",           695,       5.25667,      -4.01677,            0.,NA,NA,"",   282.640E-03,  -229.752E-03,  -164.619E-03,   7.58153E-03
C:/temp/dataset/3/3_3.odb,Step-1,Increment      1: Step Time =    1.000,"PART-1-1",           696,       4.24316,      -3.18705,            0.,NA,NA,"",   324.977E-03,  -254.353E-03,  -202.273E-03,   4.02960E-03
C:/temp/dataset/3/3_3.odb,Step-1,Increment      1: Step Time =    1.000,"PART-1-1",           697,       9.51721,      -4.82762,            0.,NA,NA,"",   208.513E-03,  -201.860E-03,  -52.2490E-03,   2.30434E-03
C:/temp/dataset/3/3_3.odb,Step-1,Increment      1: Step Time =    1.000,"PART-1-1",           698,       8.04384,      -4.93500,            0.,NA,NA,"",   218.054E-03,  -200.154E-03,  -86.5215E-03,   4.12055E-03
C:/temp/dataset/3/3_3.odb,Step-1,Increment      1: Step Time =    1.000,"PART-1-1",           699,       8.61490,      -6.56470,            0.,NA,NA,"",   176.266E-03,  -162.747E-03,  -67.6986E-03,   3.30431E-03
C:/temp/dataset/3/3_3.odb,Step-1,Increment      1: Step Time =    1.000,"PART-1-1",           700,       10.0883,      -6.45732,            0.,NA,NA,"",   168.284E-03,  -164.267E-03,  -36.5519E-03,   1.59982E-03
C:/temp/dataset/3/3_3.odb,Step-1,Increment      1: Step Time =    1.000,"PART-1-1",           701,       9.29828,      -8.00429,            0.,NA,NA,"",   141.734E-03,  -132.862E-03,  -49.3594E-03,   2.76808E-03
C:/temp/dataset/3/3_3.odb,Step-1,Increment      1: Step Time =    1.000,"PART-1-1",           702,       6.27674,      -21.4047,            0.,NA,NA,"",   23.0064E-03,   1.81243E-03,  -22.9349E-03,   5.13927E-03
C:/temp/dataset/3/3_3.odb,Step-1,Increment      1: Step Time =    1.000,"PART-1-1",           703,       7.27122,      -20.3583,            0.,NA,NA,"",   25.3177E-03,   2.35012E-03,  -25.2084E-03,   4.32278E-03
C:/temp/dataset/3/3_3.odb,Step-1,Increment      1: Step Time =    1.000,"PART-1-1",           704,         -6.25,          -20.,            0.,NA,NA,"",   883.190E-06,  -838.549E-06,   277.237E-06,   178.134E-06
C:/temp/dataset/3/3_3.odb,Step-1,Increment      1: Step Time =    1.000,"PART-1-1",           705,         -1.25,          -30.,            0.,NA,NA,"",            0.,  -709.208E-42,  -1.00679E-39,   885.679E-06
C:/temp/dataset/3/3_3.odb,Step-1,Increment      1: Step Time =    1.000,"PART-1-1",           706,       8.60683,      -25.8105,            0.,NA,NA,"",   8.18623E-03,   4.81503E-03,  -6.62041E-03,   2.54320E-03
C:/temp/dataset/3/3_3.odb,Step-1,Increment      1: Step Time =    1.000,"PART-1-1",           707,       7.41490,      -26.9159,            0.,NA,NA,"",   5.75614E-03,   2.63686E-03,  -5.11666E-03,   2.50961E-03
C:/temp/dataset/3/3_3.odb,Step-1,Increment      1: Step Time =    1.000,"PART-1-1",           708,       6.17638,      -25.8614,            0.,NA,NA,"",   7.91794E-03,   1.46794E-03,  -7.78068E-03,   2.70609E-03
C:/temp/dataset/3/3_3.odb,Step-1,Increment      1: Step Time =    1.000,"PART-1-1",           709,       7.37219,      -25.0876,            0.,NA,NA,"",   10.1093E-03,   3.51577E-03,  -9.47823E-03,   3.16674E-03
C:/temp/dataset/3/3_3.odb,Step-1,Increment      1: Step Time =    1.000,"PART-1-1",           710,       6.30743,      -24.1068,            0.,NA,NA,"",   12.8705E-03,   1.89650E-03,  -12.7300E-03,   3.40106E-03
C:/temp/dataset/3/3_3.odb,Step-1,Increment      1: Step Time =    1.000,"PART-1-1",           711,   113.079E-03,      -23.9373,            0.,NA,NA,"",   3.87659E-03,  -2.60245E-03,  -2.87319E-03,   779.282E-06
C:/temp/dataset/3/3_3.odb,Step-1,Increment      1: Step Time =    1.000,"PART-1-1",           712,      -2.43554,      -23.8906,            0.,NA,NA,"",   2.11377E-03,  -2.01844E-03,  -627.638E-06,   257.629E-06
C:/temp/dataset/3/3_3.odb,Step-1,Increment      1: Step Time =    1.000,"PART-1-1",           713,      -8.72529,      -25.0755,            0.,NA,NA,"",   1.12858E-03,  -1.10771E-03,   216.038E-06,   123.623E-06
C:/temp/dataset/3/3_3.odb,Step-1,Increment      1: Step Time =    1.000,"PART-1-1",           714,      -9.97606,      -23.8175,            0.,NA,NA,"",   1.10148E-03,  -1.07849E-03,   223.862E-06,   53.6030E-06
C:/temp/dataset/3/3_3.odb,Step-1,Increment      1: Step Time =    1.000,"PART-1-1",           715,      -9.99641,      -28.7682,            0.,NA,NA,"",   338.276E-06,  -338.246E-06,   4.44456E-06,   168.997E-06
C:/temp/dataset/3/3_3.odb,Step-1,Increment      1: Step Time =    1.000,"PART-1-1",           716,      -11.2465,      -27.5281,            0.,NA,NA,"",   554.782E-06,  -554.094E-06,   27.6258E-06,   132.439E-06
C:/temp/dataset/3/3_3.odb,Step-1,Increment      1: Step Time =    1.000,"PART-1-1",           717,        -11.25,          -30.,            0.,NA,NA,"",            0.,  -145.476E-42,  -43.2118E-42,   156.500E-06
C:/temp/dataset/3/3_3.odb,Step-1,Increment      1: Step Time =    1.000,"PART-1-1",           718,         -8.75,          -30.,            0.,NA,NA,"",            0.,  -219.906E-42,  -64.6643E-42,   241.193E-06
C:/temp/dataset/3/3_3.odb,Step-1,Increment      1: Step Time =    1.000,"PART-1-1",           719,      -8.73783,      -27.5479,            0.,NA,NA,"",   741.440E-06,  -739.486E-06,   53.7952E-06,   198.521E-06
C:/temp/dataset/3/3_3.odb,Step-1,Increment      1: Step Time =    1.000,"PART-1-1",           720,       9.45286,      -20.3748,            0.,NA,NA,"",   16.2653E-03,   3.85570E-03,  -15.8017E-03,   2.58938E-03
C:/temp/dataset/3/3_3.odb,Step-1,Increment      1: Step Time =    1.000,"PART-1-1",           721,       8.38706,      -19.4374,            0.,NA,NA,"",   23.3857E-03,   86.4303E-06,  -23.3856E-03,   3.12814E-03
C:/temp/dataset/3/3_3.odb,Step-1,Increment      1: Step Time =    1.000,"PART-1-1",           722,       8.33702,      -21.2957,            0.,NA,NA,"",   19.1815E-03,   4.73571E-03,  -18.5877E-03,   3.49903E-03
C:/temp/dataset/3/3_3.odb,Step-1,Increment      1: Step Time =    1.000,"PART-1-1",           723,       9.34035,      -18.0986,            0.,NA,NA,"",   21.7575E-03,  -5.84137E-03,  -20.9587E-03,   2.52391E-03
C:/temp/dataset/3/3_3.odb,Step-1,Increment      1: Step Time =    1.000,"PART-1-1",           724,       10.7511,      -19.4747,            0.,NA,NA,"",   10.0247E-03,   1.36494E-03,  -9.93132E-03,   1.51659E-03
C:/temp/dataset/3/3_3.odb,Step-1,Increment      1: Step Time =    1.000,"PART-1-1",           725,       9.57777,      -9.07511,            0.,NA,NA,"",   120.165E-03,  -112.815E-03,  -41.3794E-03,   2.56046E-03
C:/temp/dataset/3/3_3.odb,Step-1,Increment      1: Step Time =    1.000,"PART-1-1",           726,       10.3854,      -7.79904,            0.,NA,NA,"",   139.277E-03,  -136.324E-03,  -28.5289E-03,   1.34472E-03
C:/temp/dataset/3/3_3.odb,Step-1,Increment      1: Step Time =    1.000,"PART-1-1",           727,       11.9371,      -7.89361,            0.,NA,NA,"",   134.892E-03,  -134.880E-03,   1.80018E-03,   766.813E-06
C:/temp/dataset/3/3_3.odb,Step-1,Increment      1: Step Time =    1.000,"PART-1-1",           728,       11.6400,      -6.55190,            0.,NA,NA,"",   162.496E-03,  -162.452E-03,  -3.80561E-03,   625.092E-06
C:/temp/dataset/3/3_3.odb,Step-1,Increment      1: Step Time =    1.000,"PART-1-1",           729,       9.29748,       3.92298,            0.,NA,NA,"",   451.029E-03,  -443.188E-03,  -83.7322E-03,   3.04112E-03
C:/temp/dataset/3/3_3.odb,Step-1,Increment      1: Step Time =    1.000,"PART-1-1",           730,       10.7408,       1.93669,            0.,NA,NA,"",   385.073E-03,  -383.588E-03,  -33.7924E-03,   1.56140E-03
C:/temp/dataset/3/3_3.odb,Step-1,Increment      1: Step Time =    1.000,"PART-1-1",           731,       12.1175,       9.30164,            0.,NA,NA,"",   630.803E-03,  -630.705E-03,   11.0728E-03,   1.36325E-03
C:/temp/dataset/3/3_3.odb,Step-1,Increment      1: Step Time =    1.000,"PART-1-1",           732,       12.3743,       7.25826,            0.,NA,NA,"",   555.230E-03,  -554.886E-03,   19.5377E-03,   1.79987E-03
C:/temp/dataset/3/3_3.odb,Step-1,Increment      1: Step Time =    1.000,"PART-1-1",           733,       9.86952,       23.8294,            0.,NA,NA,"",       1.36427,      -1.35894,  -120.529E-03,   2.41247E-03
C:/temp/dataset/3/3_3.odb,Step-1,Increment      1: Step Time =    1.000,"PART-1-1",           734,       8.61965,       22.5851,            0.,NA,NA,"",       1.29689,      -1.28320,  -187.942E-03,   3.36033E-03
C:/temp/dataset/3/3_3.odb,Step-1,Increment      1: Step Time =    1.000,"PART-1-1",           735,         11.25,           30.,            0.,NA,NA,"",       1.73779,      -1.73693,  -54.4493E-03,   1.19541E-03
C:/temp/dataset/3/3_3.odb,Step-1,Increment      1: Step Time =    1.000,"PART-1-1",           736,       9.97488,       28.7673,            0.,NA,NA,"",       1.66631,      -1.66139,  -127.971E-03,   1.50575E-03
C:/temp/dataset/3/3_3.odb,Step-1,Increment      1: Step Time =    1.000,"PART-1-1",           737,          8.75,           30.,            0.,NA,NA,"",       1.74913,      -1.73695,  -206.066E-03,   2.24832E-03
C:/temp/dataset/3/3_3.odb,Step-1,Increment      1: Step Time =    1.000,"PART-1-1",           738,       3.69885,       25.0915,            0.,NA,NA,"",       1.52163,      -1.43567,  -504.185E-03,   3.76019E-03
C:/temp/dataset/3/3_3.odb,Step-1,Increment      1: Step Time =    1.000,"PART-1-1",           739,       4.94207,       26.3392,            0.,NA,NA,"",       1.57173,      -1.51135,  -431.462E-03,   4.11763E-03
C:/temp/dataset/3/3_3.odb,Step-1,Increment      1: Step Time =    1.000,"PART-1-1",           740,         -6.25,           30.,            0.,NA,NA,"",       2.06509,      -1.72413,      -1.13666,   155.005E-06
C:/temp/dataset/3/3_3.odb,Step-1,Increment      1: Step Time =    1.000,"PART-1-1",           741,      -11.2519,       25.0060,            0.,NA,NA,"",       2.00999,      -1.40466,      -1.43770,   21.4654E-06
C:/temp/dataset/3/3_3.odb,Step-1,Increment      1: Step Time =    1.000,"PART-1-1",           742,       11.7111,      -12.1867,            0.,NA,NA,"",   63.2636E-03,  -63.1785E-03,  -3.27977E-03,   320.281E-06
C:/temp/dataset/3/3_3.odb,Step-1,Increment      1: Step Time =    1.000,"PART-1-1",           743,       12.0443,      -13.4388,            0.,NA,NA,"",   47.1778E-03,  -47.1719E-03,   743.688E-06,   713.104E-06
C:/temp/dataset/3/3_3.odb,Step-1,Increment      1: Step Time =    1.000,"PART-1-1",           744,       9.07309,      -22.0228,            0.,NA,NA,"",   15.4615E-03,   6.20967E-03,  -14.1598E-03,   3.06544E-03
C:/temp/dataset/3/3_3.odb,Step-1,Increment      1: Step Time =    1.000,"PART-1-1",           745,       9.10959,      -23.2638,            0.,NA,NA,"",   13.0886E-03,   6.60829E-03,  -11.2979E-03,   3.03587E-03
C:/temp/dataset/3/3_3.odb,Step-1,Increment      1: Step Time =    1.000,"PART-1-1",           746,       10.5828,      -23.1781,            0.,NA,NA,"",   10.7351E-03,   7.90317E-03,  -7.26507E-03,   2.18050E-03
C:/temp/dataset/3/3_3.odb,Step-1,Increment      1: Step Time =    1.000,"PART-1-1",           747,       10.5463,      -21.9372,            0.,NA,NA,"",   11.3418E-03,   7.18019E-03,  -8.77962E-03,   2.18362E-03
C:/temp/dataset/3/3_3.odb,Step-1,Increment      1: Step Time =    1.000,"PART-1-1",           748,      -1.00841,      -2.00181,            0.,NA,NA,"",   460.872E-03,  -286.844E-03,  -360.727E-03,   253.549E-06
C:/temp/dataset/3/3_3.odb,Step-1,Increment      1: Step Time =    1.000,"PART-1-1",           749,      -3.17395,      -1.50818,            0.,NA,NA,"",   517.271E-03,  -299.669E-03,  -421.625E-03,   205.674E-06
C:/temp/dataset/3/3_3.odb,Step-1,Increment      1: Step Time =    1.000,"PART-1-1",           750,       8.23699,       8.20647,            0.,NA,NA,"",   603.768E-03,  -588.261E-03,  -135.958E-03,   4.89055E-03
C:/temp/dataset/3/3_3.odb,Step-1,Increment      1: Step Time =    1.000,"PART-1-1",           751,       8.58975,       6.06422,            0.,NA,NA,"",   524.408E-03,  -511.809E-03,  -114.260E-03,   3.32398E-03
C:/temp/dataset/3/3_3.odb,Step-1,Increment      1: Step Time =    1.000,"PART-1-1",           752,       1.04870,      -2.29850,            0.,NA,NA,"",   411.407E-03,  -279.385E-03,  -301.992E-03,   364.439E-06
C:/temp/dataset/3/3_3.odb,Step-1,Increment      1: Step Time =    1.000,"PART-1-1",           753,      -1.88356,       2.26041,            0.,NA,NA,"",   560.322E-03,  -405.701E-03,  -386.481E-03,   246.382E-06
C:/temp/dataset/3/3_3.odb,Step-1,Increment      1: Step Time =    1.000,"PART-1-1",           754,      -2.91638,       1.44829,            0.,NA,NA,"",   564.604E-03,  -382.637E-03,  -415.171E-03,   225.557E-06
C:/temp/dataset/3/3_3.odb,Step-1,Increment      1: Step Time =    1.000,"PART-1-1",           755,       3.03453,      -2.52132,            0.,NA,NA,"",   365.795E-03,  -273.563E-03,  -242.837E-03,   2.09479E-03
C:/temp/dataset/3/3_3.odb,Step-1,Increment      1: Step Time =    1.000,"PART-1-1",           756,       6.99799,      -3.46075,            0.,NA,NA,"",   268.204E-03,  -240.229E-03,  -119.263E-03,   5.39500E-03
C:/temp/dataset/3/3_3.odb,Step-1,Increment      1: Step Time =    1.000,"PART-1-1",           757,       7.63560,  -984.386E-03,            0.,NA,NA,"",   327.127E-03,  -306.604E-03,  -114.043E-03,   4.91780E-03
C:/temp/dataset/3/3_3.odb,Step-1,Increment      1: Step Time =    1.000,"PART-1-1",           758,       6.14771,      -1.67534,            0.,NA,NA,"",   329.027E-03,  -291.681E-03,  -152.253E-03,   5.74433E-03
C:/temp/dataset/3/3_3.odb,Step-1,Increment      1: Step Time =    1.000,"PART-1-1",           759,       4.94795,      -26.8240,            0.,NA,NA,"",   5.24091E-03,  -134.772E-06,  -5.23918E-03,   2.38648E-03
C:/temp/dataset/3/3_3.odb,Step-1,Increment      1: Step Time =    1.000,"PART-1-1",           760,      -11.2341,      -25.0541,            0.,NA,NA,"",   935.011E-06,  -929.134E-06,   104.671E-06,   61.1147E-06
C:/temp/dataset/3/3_3.odb,Step-1,Increment      1: Step Time =    1.000,"PART-1-1",           761,      -9.98574,      -26.3021,            0.,NA,NA,"",   861.271E-06,  -854.453E-06,   108.157E-06,   118.154E-06
C:/temp/dataset/3/3_3.odb,Step-1,Increment      1: Step Time =    1.000,"PART-1-1",           762,           15.,        -26.25,            0.,NA,NA,"",   6.79475E-03,   6.65382E-03,  -1.37672E-03,   745.677E-06
C:/temp/dataset/3/3_3.odb,Step-1,Increment      1: Step Time =    1.000,"PART-1-1",           763,       9.63478,      -24.7731,            0.,NA,NA,"",   9.77106E-03,   6.67481E-03,  -7.13586E-03,   2.61933E-03
C:/temp/dataset/3/3_3.odb,Step-1,Increment      1: Step Time =    1.000,"PART-1-1",           764,       9.83383,   250.169E-03,            0.,NA,NA,"",   341.180E-03,  -336.382E-03,  -57.0149E-03,   2.69574E-03
C:/temp/dataset/3/3_3.odb,Step-1,Increment      1: Step Time =    1.000,"PART-1-1",           765,       11.1222,       22.5628,            0.,NA,NA,"",       1.28527,      -1.28445,  -46.0384E-03,   2.09980E-03
C:/temp/dataset/3/3_3.odb,Step-1,Increment      1: Step Time =    1.000,"PART-1-1",           766,       9.84566,       21.3197,            0.,NA,NA,"",       1.21482,      -1.20942,  -114.354E-03,   2.42345E-03
C:/temp/dataset/3/3_3.odb,Step-1,Increment      1: Step Time =    1.000,"PART-1-1",           767,      -3.18112,  -190.353E-03,            0.,NA,NA,"",   540.018E-03,  -336.734E-03,  -422.173E-03,   222.641E-06
C:/temp/dataset/3/3_3.odb,Step-1,Increment      1: Step Time =    1.000,"PART-1-1",           768,       4.54417,       1.21940,            0.,NA,NA,"",   431.091E-03,  -376.155E-03,  -210.588E-03,   4.42736E-03
C:/temp/dataset/3/3_3.odb,Step-1,Increment      1: Step Time =    1.000,"PART-1-1",           769,       9.22107,       9.51460,            0.,NA,NA,"",   645.997E-03,  -637.624E-03,  -103.673E-03,   3.32062E-03
C:/temp/dataset/3/3_3.odb,Step-1,Increment      1: Step Time =    1.000,"PART-1-1",           770,       11.1709,      -3.71800,            0.,NA,NA,"",   229.452E-03,  -228.959E-03,  -15.0281E-03,   932.091E-06
C:/temp/dataset/3/3_3.odb,Step-1,Increment      1: Step Time =    1.000,"PART-1-1",           771,       11.0221,      -5.16095,            0.,NA,NA,"",   194.441E-03,  -193.646E-03,  -17.5649E-03,   847.858E-06
C:/temp/dataset/3/3_3.odb,Step-1,Increment      1: Step Time =    1.000,"PART-1-1",           772,       12.3085,      -4.70099,            0.,NA,NA,"",   205.539E-03,  -205.209E-03,   11.6529E-03,   1.29228E-03
C:/temp/dataset/3/3_3.odb,Step-1,Increment      1: Step Time =    1.000,"PART-1-1",           773,       5.03877,      -2.41022,            0.,NA,NA,"",   328.595E-03,  -274.320E-03,  -180.895E-03,   5.43293E-03
C:/temp/dataset/3/3_3.odb,Step-1,Increment      1: Step Time =    1.000,"PART-1-1",           774,       11.0080,       9.74440,            0.,NA,NA,"",   647.695E-03,  -646.849E-03,  -33.0971E-03,   562.886E-06
C:/temp/dataset/3/3_3.odb,Step-1,Increment      1: Step Time =    1.000,"PART-1-1",           775,       7.33953,      -23.4839,            0.,NA,NA,"",   14.6983E-03,   3.87211E-03,  -14.1791E-03,   3.77638E-03
C:/temp/dataset/3/3_3.odb,Step-1,Increment      1: Step Time =    1.000,"PART-1-1",           776,       6.60048,      -22.7490,            0.,NA,NA,"",   17.4766E-03,   2.38241E-03,  -17.3135E-03,   4.20802E-03
C:/temp/dataset/3/3_3.odb,Step-1,Increment      1: Step Time =    1.000,"PART-1-1",           777,       5.56839,      -23.3719,            0.,NA,NA,"",   14.6795E-03,   560.043E-06,  -14.6688E-03,   3.92410E-03
C:/temp/dataset/3/3_3.odb,Step-1,Increment      1: Step Time =    1.000,"PART-1-1",           778,       5.56431,      -22.1833,            0.,NA,NA,"",   18.9137E-03,   232.029E-06,  -18.9123E-03,   4.66214E-03
C:/temp/dataset/3/3_3.odb,Step-1,Increment      1: Step Time =    1.000,"PART-1-1",           779,       7.31291,      -21.9704,            0.,NA,NA,"",   19.7688E-03,   3.78677E-03,  -19.4027E-03,   4.24507E-03
C:/temp/dataset/3/3_3.odb,Step-1,Increment      1: Step Time =    1.000,"PART-1-1",           780,       8.04898,      -22.6975,            0.,NA,NA,"",   16.2463E-03,   5.18092E-03,  -15.3981E-03,   3.58165E-03
C:/temp/dataset/3/3_3.odb,Step-1,Increment      1: Step Time =    1.000,"PART-1-1",           781,       5.89213,  -472.373E-03,            0.,NA,NA,"",   365.216E-03,  -325.598E-03,  -165.436E-03,   4.92035E-03
C:/temp/dataset/3/3_3.odb,Step-1,Increment      1: Step Time =    1.000,"PART-1-1",           782,       8.40014,      -24.0502,            0.,NA,NA,"",   12.2802E-03,   5.51445E-03,  -10.9724E-03,   3.07583E-03
