ODB Name,Step,Frame,Part Instance Name,    êﬂì_ÉâÉxÉã,X,Y,Z,Section Name,Material Name,Section Point,   U-Magnitude,          U-U1,          U-U2,       S-Mises
C:/temp/dataset/3/3_9.odb,Step-1,Increment      1: Step Time =    1.000,"PART-1-1",             1,          -15.,           20.,            0.,NA,NA,"",       4.49160,      -1.87585,      -4.08114,   1.95292E-06
C:/temp/dataset/3/3_9.odb,Step-1,Increment      1: Step Time =    1.000,"PART-1-1",             2,          -15.,           25.,            0.,NA,NA,"",       4.89671,      -2.62001,      -4.13682,   3.66999E-06
C:/temp/dataset/3/3_9.odb,Step-1,Increment      1: Step Time =    1.000,"PART-1-1",             3,           -5.,           20.,            0.,NA,NA,"",       3.26620,      -1.98612,      -2.59295,   640.956E-06
C:/temp/dataset/3/3_9.odb,Step-1,Increment      1: Step Time =    1.000,"PART-1-1",             4,            5.,           20.,            0.,NA,NA,"",       2.34253,      -2.11325,      -1.01075,   37.3941E-03
C:/temp/dataset/3/3_9.odb,Step-1,Increment      1: Step Time =    1.000,"PART-1-1",             5,            5.,          12.5,            0.,NA,NA,"",       1.52851,      -1.33708,  -740.662E-03,   30.2550E-03
C:/temp/dataset/3/3_9.odb,Step-1,Increment      1: Step Time =    1.000,"PART-1-1",             6,            5.,            5.,            0.,NA,NA,"",   899.646E-03,  -747.343E-03,  -500.841E-03,   30.4802E-03
C:/temp/dataset/3/3_9.odb,Step-1,Increment      1: Step Time =    1.000,"PART-1-1",             7,      -1.70000,            5.,            0.,NA,NA,"",       1.08196,  -752.070E-03,  -777.836E-03,   1.08295E-03
C:/temp/dataset/3/3_9.odb,Step-1,Increment      1: Step Time =    1.000,"PART-1-1",             8,      -8.40000,            5.,            0.,NA,NA,"",       1.34527,  -745.452E-03,      -1.11984,   23.3345E-06
C:/temp/dataset/3/3_9.odb,Step-1,Increment      1: Step Time =    1.000,"PART-1-1",             9,          -15.,            5.,            0.,NA,NA,"",       1.63238,  -736.847E-03,      -1.45661,   330.124E-09
C:/temp/dataset/3/3_9.odb,Step-1,Increment      1: Step Time =    1.000,"PART-1-1",            10,          -15.,            0.,            0.,NA,NA,"",       1.52803,  -481.802E-03,      -1.45009,   5.58028E-06
C:/temp/dataset/3/3_9.odb,Step-1,Increment      1: Step Time =    1.000,"PART-1-1",            11,          -15.,           -5.,            0.,NA,NA,"",       1.46128,  -226.837E-03,      -1.44357,   315.539E-09
C:/temp/dataset/3/3_9.odb,Step-1,Increment      1: Step Time =    1.000,"PART-1-1",            12,      -8.30000,           -5.,            0.,NA,NA,"",       1.12692,  -235.553E-03,      -1.10202,   22.7379E-06
C:/temp/dataset/3/3_9.odb,Step-1,Increment      1: Step Time =    1.000,"PART-1-1",            13,      -1.60000,           -5.,            0.,NA,NA,"",   797.863E-03,  -242.005E-03,  -760.275E-03,   1.14339E-03
C:/temp/dataset/3/3_9.odb,Step-1,Increment      1: Step Time =    1.000,"PART-1-1",            14,            5.,           -5.,            0.,NA,NA,"",   436.573E-03,  -244.684E-03,  -361.560E-03,   27.7909E-03
C:/temp/dataset/3/3_9.odb,Step-1,Increment      1: Step Time =    1.000,"PART-1-1",            15,            5.,         -12.5,            0.,NA,NA,"",   197.743E-03,  -54.2110E-03,  -190.167E-03,   20.6149E-03
C:/temp/dataset/3/3_9.odb,Step-1,Increment      1: Step Time =    1.000,"PART-1-1",            16,            5.,          -20.,            0.,NA,NA,"",   59.1530E-03,   20.9495E-03,  -55.3191E-03,   16.9625E-03
C:/temp/dataset/3/3_9.odb,Step-1,Increment      1: Step Time =    1.000,"PART-1-1",            17,           -5.,          -20.,            0.,NA,NA,"",   5.00395E-03,   5.00350E-03,   66.8579E-06,   852.703E-06
C:/temp/dataset/3/3_9.odb,Step-1,Increment      1: Step Time =    1.000,"PART-1-1",            18,          -15.,          -20.,            0.,NA,NA,"",   3.16654E-03,   2.88984E-03,   1.29452E-03,   9.06746E-06
C:/temp/dataset/3/3_9.odb,Step-1,Increment      1: Step Time =    1.000,"PART-1-1",            19,          -15.,          -25.,            0.,NA,NA,"",   2.03519E-03,   1.65999E-03,   1.17747E-03,   107.681E-06
C:/temp/dataset/3/3_9.odb,Step-1,Increment      1: Step Time =    1.000,"PART-1-1",            20,          -15.,          -30.,            0.,NA,NA,"",            0.,   160.683E-42,   266.558E-42,   509.801E-06
C:/temp/dataset/3/3_9.odb,Step-1,Increment      1: Step Time =    1.000,"PART-1-1",            21,           15.,          -30.,            0.,NA,NA,"",            0.,   3.70186E-39,  -6.01092E-39,   11.4828E-03
C:/temp/dataset/3/3_9.odb,Step-1,Increment      1: Step Time =    1.000,"PART-1-1",            22,           15.,         -22.5,            0.,NA,NA,"",   47.7715E-03,   38.5152E-03,  -28.2611E-03,   517.222E-06
C:/temp/dataset/3/3_9.odb,Step-1,Increment      1: Step Time =    1.000,"PART-1-1",            23,           15.,          -15.,            0.,NA,NA,"",   11.8729E-03,   9.38469E-03,  -7.27271E-03,   6.22473E-03
C:/temp/dataset/3/3_9.odb,Step-1,Increment      1: Step Time =    1.000,"PART-1-1",            24,           15.,          -7.5,            0.,NA,NA,"",   160.036E-03,  -153.541E-03,   45.1298E-03,   9.24126E-03
C:/temp/dataset/3/3_9.odb,Step-1,Increment      1: Step Time =    1.000,"PART-1-1",            25,           15.,            0.,            0.,NA,NA,"",   484.297E-03,  -474.758E-03,   95.6493E-03,   8.19881E-03
C:/temp/dataset/3/3_9.odb,Step-1,Increment      1: Step Time =    1.000,"PART-1-1",            26,           15.,           7.5,            0.,NA,NA,"",   944.613E-03,  -931.162E-03,   158.842E-03,   15.2484E-03
C:/temp/dataset/3/3_9.odb,Step-1,Increment      1: Step Time =    1.000,"PART-1-1",            27,           15.,           15.,            0.,NA,NA,"",       1.62836,      -1.61018,   242.614E-03,   17.9175E-03
C:/temp/dataset/3/3_9.odb,Step-1,Increment      1: Step Time =    1.000,"PART-1-1",            28,           15.,          22.5,            0.,NA,NA,"",       2.56522,      -2.54869,   290.777E-03,   10.8836E-03
C:/temp/dataset/3/3_9.odb,Step-1,Increment      1: Step Time =    1.000,"PART-1-1",            29,           15.,           30.,            0.,NA,NA,"",       3.63404,      -3.62607,   240.601E-03,   353.479E-06
C:/temp/dataset/3/3_9.odb,Step-1,Increment      1: Step Time =    1.000,"PART-1-1",            30,           7.5,           30.,            0.,NA,NA,"",       3.67358,      -3.57395,  -849.777E-03,   8.85704E-03
C:/temp/dataset/3/3_9.odb,Step-1,Increment      1: Step Time =    1.000,"PART-1-1",            31,            0.,           30.,            0.,NA,NA,"",       4.03428,      -3.51828,      -1.97411,   5.17164E-03
C:/temp/dataset/3/3_9.odb,Step-1,Increment      1: Step Time =    1.000,"PART-1-1",            32,          -7.5,           30.,            0.,NA,NA,"",       4.62024,      -3.44761,      -3.07581,   202.933E-06
C:/temp/dataset/3/3_9.odb,Step-1,Increment      1: Step Time =    1.000,"PART-1-1",            33,          -15.,           30.,            0.,NA,NA,"",       5.37544,      -3.36425,      -4.19252,   1.91632E-06
C:/temp/dataset/3/3_9.odb,Step-1,Increment      1: Step Time =    1.000,"PART-1-1",            34,          -15.,          22.5,            0.,NA,NA,"",       4.68368,      -2.24792,      -4.10898,   2.75731E-06
C:/temp/dataset/3/3_9.odb,Step-1,Increment      1: Step Time =    1.000,"PART-1-1",            35,          -7.5,           20.,            0.,NA,NA,"",       3.55391,      -1.95910,      -2.96516,   191.706E-06
C:/temp/dataset/3/3_9.odb,Step-1,Increment      1: Step Time =    1.000,"PART-1-1",            36,          -10.,           20.,            0.,NA,NA,"",       3.85576,      -1.93150,      -3.33709,   39.5269E-06
C:/temp/dataset/3/3_9.odb,Step-1,Increment      1: Step Time =    1.000,"PART-1-1",            37,         -12.5,           20.,            0.,NA,NA,"",       4.16910,      -1.90369,      -3.70909,   3.42284E-06
C:/temp/dataset/3/3_9.odb,Step-1,Increment      1: Step Time =    1.000,"PART-1-1",            38,           2.5,           20.,            0.,NA,NA,"",       2.51979,      -2.06212,      -1.44810,   7.35492E-03
C:/temp/dataset/3/3_9.odb,Step-1,Increment      1: Step Time =    1.000,"PART-1-1",            39,            0.,           20.,            0.,NA,NA,"",       2.74502,      -2.03676,      -1.84031,   2.62202E-03
C:/temp/dataset/3/3_9.odb,Step-1,Increment      1: Step Time =    1.000,"PART-1-1",            40,          -2.5,           20.,            0.,NA,NA,"",       2.99562,      -2.01202,      -2.21935,   1.28548E-03
C:/temp/dataset/3/3_9.odb,Step-1,Increment      1: Step Time =    1.000,"PART-1-1",            41,            5.,           15.,            0.,NA,NA,"",       1.77926,      -1.57863,  -820.793E-03,   30.1381E-03
C:/temp/dataset/3/3_9.odb,Step-1,Increment      1: Step Time =    1.000,"PART-1-1",            42,            5.,          17.5,            0.,NA,NA,"",       2.05081,      -1.84147,  -902.681E-03,   34.7674E-03
C:/temp/dataset/3/3_9.odb,Step-1,Increment      1: Step Time =    1.000,"PART-1-1",            43,            5.,           7.5,            0.,NA,NA,"",       1.09657,  -923.774E-03,  -590.856E-03,   30.8716E-03
C:/temp/dataset/3/3_9.odb,Step-1,Increment      1: Step Time =    1.000,"PART-1-1",            44,            5.,           10.,            0.,NA,NA,"",       1.30133,      -1.11946,  -663.526E-03,   29.3806E-03
C:/temp/dataset/3/3_9.odb,Step-1,Increment      1: Step Time =    1.000,"PART-1-1",            45,   533.333E-03,            5.,            0.,NA,NA,"",       1.00447,  -751.253E-03,  -666.774E-03,   3.01179E-03
C:/temp/dataset/3/3_9.odb,Step-1,Increment      1: Step Time =    1.000,"PART-1-1",            46,       2.76667,            5.,            0.,NA,NA,"",   936.569E-03,  -746.976E-03,  -564.967E-03,   5.92607E-03
C:/temp/dataset/3/3_9.odb,Step-1,Increment      1: Step Time =    1.000,"PART-1-1",            47,      -6.16667,            5.,            0.,NA,NA,"",       1.25355,  -748.252E-03,      -1.00574,   117.611E-06
C:/temp/dataset/3/3_9.odb,Step-1,Increment      1: Step Time =    1.000,"PART-1-1",            48,      -3.93333,            5.,            0.,NA,NA,"",       1.16552,  -750.658E-03,  -891.596E-03,   461.133E-06
C:/temp/dataset/3/3_9.odb,Step-1,Increment      1: Step Time =    1.000,"PART-1-1",            49,      -12.8000,            5.,            0.,NA,NA,"",       1.53445,  -739.714E-03,      -1.34438,   3.64140E-06
C:/temp/dataset/3/3_9.odb,Step-1,Increment      1: Step Time =    1.000,"PART-1-1",            50,      -10.6000,            5.,            0.,NA,NA,"",       1.43861,  -742.589E-03,      -1.23214,   3.25013E-06
C:/temp/dataset/3/3_9.odb,Step-1,Increment      1: Step Time =    1.000,"PART-1-1",            51,          -15.,           2.5,            0.,NA,NA,"",       1.57591,  -609.317E-03,      -1.45335,   4.05658E-06
C:/temp/dataset/3/3_9.odb,Step-1,Increment      1: Step Time =    1.000,"PART-1-1",            52,          -15.,          -2.5,            0.,NA,NA,"",       1.48957,  -354.312E-03,      -1.44682,   4.05910E-06
C:/temp/dataset/3/3_9.odb,Step-1,Increment      1: Step Time =    1.000,"PART-1-1",            53,      -10.5333,           -5.,            0.,NA,NA,"",       1.23789,  -232.660E-03,      -1.21583,   4.46489E-06
C:/temp/dataset/3/3_9.odb,Step-1,Increment      1: Step Time =    1.000,"PART-1-1",            54,      -12.7667,           -5.,            0.,NA,NA,"",       1.34939,  -229.745E-03,      -1.32969,   3.42051E-06
C:/temp/dataset/3/3_9.odb,Step-1,Increment      1: Step Time =    1.000,"PART-1-1",            55,      -3.83333,           -5.,            0.,NA,NA,"",   907.099E-03,  -240.659E-03,  -874.593E-03,   487.645E-06
C:/temp/dataset/3/3_9.odb,Step-1,Increment      1: Step Time =    1.000,"PART-1-1",            56,      -6.06667,           -5.,            0.,NA,NA,"",       1.01665,  -238.325E-03,  -988.318E-03,   119.552E-06
C:/temp/dataset/3/3_9.odb,Step-1,Increment      1: Step Time =    1.000,"PART-1-1",            57,       2.80000,           -5.,            0.,NA,NA,"",   571.489E-03,  -238.270E-03,  -519.448E-03,   7.14390E-03
C:/temp/dataset/3/3_9.odb,Step-1,Increment      1: Step Time =    1.000,"PART-1-1",            58,   600.000E-03,           -5.,            0.,NA,NA,"",   688.603E-03,  -241.508E-03,  -644.863E-03,   2.78060E-03
C:/temp/dataset/3/3_9.odb,Step-1,Increment      1: Step Time =    1.000,"PART-1-1",            59,            5.,          -10.,            0.,NA,NA,"",   260.813E-03,  -104.901E-03,  -238.787E-03,   21.6616E-03
C:/temp/dataset/3/3_9.odb,Step-1,Increment      1: Step Time =    1.000,"PART-1-1",            60,            5.,          -7.5,            0.,NA,NA,"",   335.363E-03,  -169.712E-03,  -289.252E-03,   24.5638E-03
C:/temp/dataset/3/3_9.odb,Step-1,Increment      1: Step Time =    1.000,"PART-1-1",            61,            5.,         -17.5,            0.,NA,NA,"",   103.832E-03,   5.96150E-03,  -103.661E-03,   18.8676E-03
C:/temp/dataset/3/3_9.odb,Step-1,Increment      1: Step Time =    1.000,"PART-1-1",            62,            5.,          -15.,            0.,NA,NA,"",   146.194E-03,  -17.9916E-03,  -145.083E-03,   18.9908E-03
C:/temp/dataset/3/3_9.odb,Step-1,Increment      1: Step Time =    1.000,"PART-1-1",            63,          -2.5,          -20.,            0.,NA,NA,"",   7.67398E-03,   7.53411E-03,  -1.45848E-03,   1.39621E-03
C:/temp/dataset/3/3_9.odb,Step-1,Increment      1: Step Time =    1.000,"PART-1-1",            64,            0.,          -20.,            0.,NA,NA,"",   13.0894E-03,   11.6587E-03,  -5.95040E-03,   2.39370E-03
C:/temp/dataset/3/3_9.odb,Step-1,Increment      1: Step Time =    1.000,"PART-1-1",            65,           2.5,          -20.,            0.,NA,NA,"",   25.2386E-03,   18.0197E-03,  -17.6714E-03,   4.19864E-03
C:/temp/dataset/3/3_9.odb,Step-1,Increment      1: Step Time =    1.000,"PART-1-1",            66,         -12.5,          -20.,            0.,NA,NA,"",   3.01023E-03,   2.88318E-03,   865.309E-06,   16.7438E-06
C:/temp/dataset/3/3_9.odb,Step-1,Increment      1: Step Time =    1.000,"PART-1-1",            67,          -10.,          -20.,            0.,NA,NA,"",   3.09981E-03,   3.03232E-03,   643.323E-06,   151.752E-06
C:/temp/dataset/3/3_9.odb,Step-1,Increment      1: Step Time =    1.000,"PART-1-1",            68,          -7.5,          -20.,            0.,NA,NA,"",   3.66706E-03,   3.63108E-03,   512.439E-06,   415.836E-06
C:/temp/dataset/3/3_9.odb,Step-1,Increment      1: Step Time =    1.000,"PART-1-1",            69,          -15.,         -22.5,            0.,NA,NA,"",   2.70111E-03,   2.36580E-03,   1.30344E-03,   18.5110E-06
C:/temp/dataset/3/3_9.odb,Step-1,Increment      1: Step Time =    1.000,"PART-1-1",            70,          -15.,         -27.5,            0.,NA,NA,"",   1.19038E-03,   885.129E-06,   795.964E-06,   262.427E-06
C:/temp/dataset/3/3_9.odb,Step-1,Increment      1: Step Time =    1.000,"PART-1-1",            71,          12.5,          -30.,            0.,NA,NA,"",            0.,   16.1219E-39,  -24.3235E-39,   4.70971E-03
C:/temp/dataset/3/3_9.odb,Step-1,Increment      1: Step Time =    1.000,"PART-1-1",            72,           10.,          -30.,            0.,NA,NA,"",            0.,  -1.37413E-39,  -14.4947E-39,   4.88203E-03
C:/temp/dataset/3/3_9.odb,Step-1,Increment      1: Step Time =    1.000,"PART-1-1",            73,           7.5,          -30.,            0.,NA,NA,"",            0.,  -3.58320E-39,  -18.1070E-39,   4.14499E-03
C:/temp/dataset/3/3_9.odb,Step-1,Increment      1: Step Time =    1.000,"PART-1-1",            74,            5.,          -30.,            0.,NA,NA,"",            0.,   4.54222E-39,  -15.3967E-39,   3.33939E-03
C:/temp/dataset/3/3_9.odb,Step-1,Increment      1: Step Time =    1.000,"PART-1-1",            75,           2.5,          -30.,            0.,NA,NA,"",            0.,   1.07756E-39,  -8.77933E-39,   2.43077E-03
C:/temp/dataset/3/3_9.odb,Step-1,Increment      1: Step Time =    1.000,"PART-1-1",            76,            0.,          -30.,            0.,NA,NA,"",            0.,  -517.001E-42,  -3.64016E-39,   1.54906E-03
C:/temp/dataset/3/3_9.odb,Step-1,Increment      1: Step Time =    1.000,"PART-1-1",            77,          -2.5,          -30.,            0.,NA,NA,"",            0.,  -2.90779E-39,  -3.64482E-39,   807.333E-06
C:/temp/dataset/3/3_9.odb,Step-1,Increment      1: Step Time =    1.000,"PART-1-1",            78,           -5.,          -30.,            0.,NA,NA,"",            0.,  -553.262E-42,   173.383E-42,   317.466E-06
C:/temp/dataset/3/3_9.odb,Step-1,Increment      1: Step Time =    1.000,"PART-1-1",            79,          -7.5,          -30.,            0.,NA,NA,"",            0.,  -252.869E-42,   409.614E-42,   75.6159E-06
C:/temp/dataset/3/3_9.odb,Step-1,Increment      1: Step Time =    1.000,"PART-1-1",            80,          -10.,          -30.,            0.,NA,NA,"",            0.,   191.108E-42,   451.808E-42,   132.352E-06
C:/temp/dataset/3/3_9.odb,Step-1,Increment      1: Step Time =    1.000,"PART-1-1",            81,         -12.5,          -30.,            0.,NA,NA,"",            0.,   472.582E-42,   728.326E-42,   168.515E-06
C:/temp/dataset/3/3_9.odb,Step-1,Increment      1: Step Time =    1.000,"PART-1-1",            82,           15.,          -25.,            0.,NA,NA,"",   39.7099E-03,   30.9761E-03,  -24.8466E-03,   2.55969E-03
C:/temp/dataset/3/3_9.odb,Step-1,Increment      1: Step Time =    1.000,"PART-1-1",            83,           15.,         -27.5,            0.,NA,NA,"",   25.5952E-03,   19.1176E-03,  -17.0185E-03,   5.44457E-03
C:/temp/dataset/3/3_9.odb,Step-1,Increment      1: Step Time =    1.000,"PART-1-1",            84,           15.,         -17.5,            0.,NA,NA,"",   36.4230E-03,   31.1146E-03,  -18.9345E-03,   4.45938E-03
C:/temp/dataset/3/3_9.odb,Step-1,Increment      1: Step Time =    1.000,"PART-1-1",            85,           15.,          -20.,            0.,NA,NA,"",   47.6836E-03,   39.7194E-03,  -26.3836E-03,   2.12055E-03
C:/temp/dataset/3/3_9.odb,Step-1,Increment      1: Step Time =    1.000,"PART-1-1",            86,           15.,          -10.,            0.,NA,NA,"",   85.2121E-03,  -81.2287E-03,   25.7489E-03,   8.75822E-03
C:/temp/dataset/3/3_9.odb,Step-1,Increment      1: Step Time =    1.000,"PART-1-1",            87,           15.,         -12.5,            0.,NA,NA,"",   28.5921E-03,  -27.4611E-03,   7.96213E-03,   7.60541E-03
C:/temp/dataset/3/3_9.odb,Step-1,Increment      1: Step Time =    1.000,"PART-1-1",            88,           15.,          -2.5,            0.,NA,NA,"",   362.135E-03,  -353.023E-03,   80.7219E-03,   8.04862E-03
C:/temp/dataset/3/3_9.odb,Step-1,Increment      1: Step Time =    1.000,"PART-1-1",            89,           15.,           -5.,            0.,NA,NA,"",   253.060E-03,  -244.813E-03,   64.0786E-03,   8.85594E-03
C:/temp/dataset/3/3_9.odb,Step-1,Increment      1: Step Time =    1.000,"PART-1-1",            90,           15.,            5.,            0.,NA,NA,"",   770.748E-03,  -759.181E-03,   133.031E-03,   12.7830E-03
C:/temp/dataset/3/3_9.odb,Step-1,Increment      1: Step Time =    1.000,"PART-1-1",            91,           15.,           2.5,            0.,NA,NA,"",   619.162E-03,  -608.936E-03,   112.064E-03,   10.0912E-03
C:/temp/dataset/3/3_9.odb,Step-1,Increment      1: Step Time =    1.000,"PART-1-1",            92,           15.,          12.5,            0.,NA,NA,"",       1.37233,      -1.35530,   215.532E-03,   17.4946E-03
C:/temp/dataset/3/3_9.odb,Step-1,Increment      1: Step Time =    1.000,"PART-1-1",            93,           15.,           10.,            0.,NA,NA,"",       1.14464,      -1.12925,   187.059E-03,   16.6719E-03
C:/temp/dataset/3/3_9.odb,Step-1,Increment      1: Step Time =    1.000,"PART-1-1",            94,           15.,           20.,            0.,NA,NA,"",       2.22746,      -2.20927,   284.122E-03,   14.9714E-03
C:/temp/dataset/3/3_9.odb,Step-1,Increment      1: Step Time =    1.000,"PART-1-1",            95,           15.,          17.5,            0.,NA,NA,"",       1.91361,      -1.89494,   266.638E-03,   17.3403E-03
C:/temp/dataset/3/3_9.odb,Step-1,Increment      1: Step Time =    1.000,"PART-1-1",            96,           15.,          27.5,            0.,NA,NA,"",       3.27753,      -3.26672,   265.950E-03,   1.50427E-03
C:/temp/dataset/3/3_9.odb,Step-1,Increment      1: Step Time =    1.000,"PART-1-1",            97,           15.,           25.,            0.,NA,NA,"",       2.91847,      -2.90459,   284.344E-03,   5.90513E-03
C:/temp/dataset/3/3_9.odb,Step-1,Increment      1: Step Time =    1.000,"PART-1-1",            98,           10.,           30.,            0.,NA,NA,"",       3.61474,      -3.58379,  -472.011E-03,   6.00366E-03
C:/temp/dataset/3/3_9.odb,Step-1,Increment      1: Step Time =    1.000,"PART-1-1",            99,          12.5,           30.,            0.,NA,NA,"",       3.60318,      -3.60133,  -115.418E-03,   1.57369E-03
C:/temp/dataset/3/3_9.odb,Step-1,Increment      1: Step Time =    1.000,"PART-1-1",           100,           2.5,           30.,            0.,NA,NA,"",       3.89113,      -3.54086,      -1.61342,   9.40724E-03
C:/temp/dataset/3/3_9.odb,Step-1,Increment      1: Step Time =    1.000,"PART-1-1",           101,            5.,           30.,            0.,NA,NA,"",       3.76622,      -3.55749,      -1.23640,   10.4868E-03
C:/temp/dataset/3/3_9.odb,Step-1,Increment      1: Step Time =    1.000,"PART-1-1",           102,           -5.,           30.,            0.,NA,NA,"",       4.40241,      -3.47444,      -2.70360,   738.882E-06
C:/temp/dataset/3/3_9.odb,Step-1,Increment      1: Step Time =    1.000,"PART-1-1",           103,          -2.5,           30.,            0.,NA,NA,"",       4.20592,      -3.49960,      -2.33292,   2.28099E-03
C:/temp/dataset/3/3_9.odb,Step-1,Increment      1: Step Time =    1.000,"PART-1-1",           104,         -12.5,           30.,            0.,NA,NA,"",       5.10897,      -3.39211,      -3.82037,   3.65619E-06
C:/temp/dataset/3/3_9.odb,Step-1,Increment      1: Step Time =    1.000,"PART-1-1",           105,          -10.,           30.,            0.,NA,NA,"",       4.85652,      -3.41994,      -3.44816,   39.9368E-06
C:/temp/dataset/3/3_9.odb,Step-1,Increment      1: Step Time =    1.000,"PART-1-1",           106,          -15.,          27.5,            0.,NA,NA,"",       5.12808,      -2.99212,      -4.16466,   2.91881E-06
C:/temp/dataset/3/3_9.odb,Step-1,Increment      1: Step Time =    1.000,"PART-1-1",           107,      -12.5013,       25.0052,            0.,NA,NA,"",       4.60330,      -2.64863,      -3.76498,   26.3261E-06
C:/temp/dataset/3/3_9.odb,Step-1,Increment      1: Step Time =    1.000,"PART-1-1",           108,      -10.0028,       27.5014,            0.,NA,NA,"",       4.58170,      -3.04804,      -3.42074,   87.9523E-06
C:/temp/dataset/3/3_9.odb,Step-1,Increment      1: Step Time =    1.000,"PART-1-1",           109,      -2.49865,       22.5268,            0.,NA,NA,"",       3.28259,      -2.39160,      -2.24848,   582.877E-06
C:/temp/dataset/3/3_9.odb,Step-1,Increment      1: Step Time =    1.000,"PART-1-1",           110,      -2.51000,       27.5279,            0.,NA,NA,"",       3.89302,      -3.13631,      -2.30633,   1.01429E-03
C:/temp/dataset/3/3_9.odb,Step-1,Increment      1: Step Time =    1.000,"PART-1-1",           111,       12.3864,       22.5464,            0.,NA,NA,"",       2.52399,      -2.52329,  -59.5623E-03,   6.69701E-03
C:/temp/dataset/3/3_9.odb,Step-1,Increment      1: Step Time =    1.000,"PART-1-1",           112,       7.35369,       17.5509,            0.,NA,NA,"",       1.94479,      -1.84116,  -626.392E-03,   19.2205E-03
C:/temp/dataset/3/3_9.odb,Step-1,Increment      1: Step Time =    1.000,"PART-1-1",           113,       12.3201,       14.9467,            0.,NA,NA,"",       1.57619,      -1.57568,  -40.3350E-03,   4.84657E-03
C:/temp/dataset/3/3_9.odb,Step-1,Increment      1: Step Time =    1.000,"PART-1-1",           114,       13.2599,       7.39194,            0.,NA,NA,"",   910.058E-03,  -909.560E-03,   30.1216E-03,   7.90240E-03
C:/temp/dataset/3/3_9.odb,Step-1,Increment      1: Step Time =    1.000,"PART-1-1",           115,       7.60504,      -5.98204,            0.,NA,NA,"",   299.516E-03,  -202.534E-03,  -220.658E-03,   10.6018E-03
C:/temp/dataset/3/3_9.odb,Step-1,Increment      1: Step Time =    1.000,"PART-1-1",           116,       7.71062,      -13.7665,            0.,NA,NA,"",   124.267E-03,  -14.5804E-03,  -123.409E-03,   12.7334E-03
C:/temp/dataset/3/3_9.odb,Step-1,Increment      1: Step Time =    1.000,"PART-1-1",           117,       11.7208,      -22.4938,            0.,NA,NA,"",   46.6966E-03,   35.0549E-03,  -30.8501E-03,   5.72319E-03
C:/temp/dataset/3/3_9.odb,Step-1,Increment      1: Step Time =    1.000,"PART-1-1",           118,       2.59328,       2.74806,            0.,NA,NA,"",   856.096E-03,  -643.701E-03,  -564.401E-03,   5.76602E-03
C:/temp/dataset/3/3_9.odb,Step-1,Increment      1: Step Time =    1.000,"PART-1-1",           119,      -1.32361,      -2.98462,            0.,NA,NA,"",   825.966E-03,  -347.239E-03,  -749.430E-03,   801.723E-06
C:/temp/dataset/3/3_9.odb,Step-1,Increment      1: Step Time =    1.000,"PART-1-1",           120,      -6.00563,       3.11026,            0.,NA,NA,"",       1.18967,  -652.139E-03,  -994.997E-03,   205.747E-06
C:/temp/dataset/3/3_9.odb,Step-1,Increment      1: Step Time =    1.000,"PART-1-1",           121,      -10.4102,       2.53863,            0.,NA,NA,"",       1.36660,  -617.263E-03,      -1.21926,   19.0392E-06
C:/temp/dataset/3/3_9.odb,Step-1,Increment      1: Step Time =    1.000,"PART-1-1",           122,      -12.6184,  -43.2983E-03,            0.,NA,NA,"",       1.41354,  -482.692E-03,      -1.32857,   4.06137E-06
C:/temp/dataset/3/3_9.odb,Step-1,Increment      1: Step Time =    1.000,"PART-1-1",           123,      -3.88272,       3.23189,            0.,NA,NA,"",       1.10585,  -661.031E-03,  -886.537E-03,   445.582E-06
C:/temp/dataset/3/3_9.odb,Step-1,Increment      1: Step Time =    1.000,"PART-1-1",           124,       2.98144,      -22.7363,            0.,NA,NA,"",   17.3071E-03,   4.85236E-03,  -16.6129E-03,   4.29637E-03
C:/temp/dataset/3/3_9.odb,Step-1,Increment      1: Step Time =    1.000,"PART-1-1",           125,      -2.42987,      -22.6294,            0.,NA,NA,"",   3.70643E-03,   3.66433E-03,  -557.048E-06,   695.309E-06
C:/temp/dataset/3/3_9.odb,Step-1,Increment      1: Step Time =    1.000,"PART-1-1",           126,      -9.97348,      -22.5672,            0.,NA,NA,"",   2.54004E-03,   2.42410E-03,   758.643E-06,   276.389E-06
C:/temp/dataset/3/3_9.odb,Step-1,Increment      1: Step Time =    1.000,"PART-1-1",           127,      -12.4895,      -25.0402,            0.,NA,NA,"",   1.67025E-03,   1.51896E-03,   694.624E-06,   219.102E-06
C:/temp/dataset/3/3_9.odb,Step-1,Increment      1: Step Time =    1.000,"PART-1-1",           128,       12.8561,      -14.2595,            0.,NA,NA,"",   34.4473E-03,   4.08951E-03,  -34.2037E-03,   1.94947E-03
C:/temp/dataset/3/3_9.odb,Step-1,Increment      1: Step Time =    1.000,"PART-1-1",           129,       12.7281,      -7.33650,            0.,NA,NA,"",   154.338E-03,  -151.677E-03,  -28.5368E-03,   2.35642E-03
C:/temp/dataset/3/3_9.odb,Step-1,Increment      1: Step Time =    1.000,"PART-1-1",           130,       12.6427,  -96.8002E-03,            0.,NA,NA,"",   462.321E-03,  -461.603E-03,  -25.7620E-03,   2.16277E-03
C:/temp/dataset/3/3_9.odb,Step-1,Increment      1: Step Time =    1.000,"PART-1-1",           131,       7.13014,       10.3328,            0.,NA,NA,"",       1.23233,      -1.13132,  -488.629E-03,   20.1017E-03
C:/temp/dataset/3/3_9.odb,Step-1,Increment      1: Step Time =    1.000,"PART-1-1",           132,       4.95005,       27.5805,            0.,NA,NA,"",       3.41630,      -3.20034,      -1.19540,   11.9927E-03
C:/temp/dataset/3/3_9.odb,Step-1,Increment      1: Step Time =    1.000,"PART-1-1",           133,      -4.99957,       22.5148,            0.,NA,NA,"",       3.52832,      -2.36170,      -2.62133,   531.612E-06
C:/temp/dataset/3/3_9.odb,Step-1,Increment      1: Step Time =    1.000,"PART-1-1",           134,      -7.50186,       22.5094,            0.,NA,NA,"",       3.79515,      -2.33287,      -2.99348,   263.947E-06
C:/temp/dataset/3/3_9.odb,Step-1,Increment      1: Step Time =    1.000,"PART-1-1",           135,       4.93744,       22.5898,            0.,NA,NA,"",       2.71412,      -2.48411,      -1.09347,   17.6782E-03
C:/temp/dataset/3/3_9.odb,Step-1,Increment      1: Step Time =    1.000,"PART-1-1",           136,       2.47758,       22.5593,            0.,NA,NA,"",       2.87014,      -2.45444,      -1.48775,   10.2382E-03
C:/temp/dataset/3/3_9.odb,Step-1,Increment      1: Step Time =    1.000,"PART-1-1",           137,  -4.46696E-03,       22.5388,            0.,NA,NA,"",       3.06194,      -2.42292,      -1.87215,   2.07855E-03
C:/temp/dataset/3/3_9.odb,Step-1,Increment      1: Step Time =    1.000,"PART-1-1",           138,       7.20686,       12.6699,            0.,NA,NA,"",       1.44023,      -1.33810,  -532.677E-03,   19.6846E-03
C:/temp/dataset/3/3_9.odb,Step-1,Increment      1: Step Time =    1.000,"PART-1-1",           139,       7.30679,       15.0771,            0.,NA,NA,"",       1.67628,      -1.57373,  -577.302E-03,   20.1369E-03
C:/temp/dataset/3/3_9.odb,Step-1,Increment      1: Step Time =    1.000,"PART-1-1",           140,       7.52839,       5.66323,            0.,NA,NA,"",   866.401E-03,  -782.206E-03,  -372.566E-03,   12.8828E-03
C:/temp/dataset/3/3_9.odb,Step-1,Increment      1: Step Time =    1.000,"PART-1-1",           141,       7.20823,       7.96221,            0.,NA,NA,"",       1.03843,  -942.758E-03,  -435.377E-03,   19.0205E-03
C:/temp/dataset/3/3_9.odb,Step-1,Increment      1: Step Time =    1.000,"PART-1-1",           142,      -1.77433,       3.17490,            0.,NA,NA,"",       1.02126,  -660.627E-03,  -778.813E-03,   792.269E-06
C:/temp/dataset/3/3_9.odb,Step-1,Increment      1: Step Time =    1.000,"PART-1-1",           143,   347.975E-03,       3.01142,            0.,NA,NA,"",   938.777E-03,  -655.503E-03,  -672.026E-03,   1.08310E-03
C:/temp/dataset/3/3_9.odb,Step-1,Increment      1: Step Time =    1.000,"PART-1-1",           144,      -8.17775,       2.85153,            0.,NA,NA,"",       1.27563,  -636.140E-03,      -1.10569,   73.8784E-06
C:/temp/dataset/3/3_9.odb,Step-1,Increment      1: Step Time =    1.000,"PART-1-1",           145,      -8.45397,      -3.03463,            0.,NA,NA,"",       1.16194,  -335.560E-03,      -1.11243,   59.1272E-06
C:/temp/dataset/3/3_9.odb,Step-1,Increment      1: Step Time =    1.000,"PART-1-1",           146,      -12.6978,       2.46856,            0.,NA,NA,"",       1.46885,  -610.709E-03,      -1.33587,   2.95894E-06
C:/temp/dataset/3/3_9.odb,Step-1,Increment      1: Step Time =    1.000,"PART-1-1",           147,      -10.5225,      -2.72745,            0.,NA,NA,"",       1.26710,  -348.537E-03,      -1.21823,   16.8315E-06
C:/temp/dataset/3/3_9.odb,Step-1,Increment      1: Step Time =    1.000,"PART-1-1",           148,      -12.7265,      -2.55241,            0.,NA,NA,"",       1.37725,  -354.596E-03,      -1.33082,   3.04045E-06
C:/temp/dataset/3/3_9.odb,Step-1,Increment      1: Step Time =    1.000,"PART-1-1",           149,      -3.80700,      -2.48494,            0.,NA,NA,"",   951.539E-03,  -369.856E-03,  -876.718E-03,   492.999E-06
C:/temp/dataset/3/3_9.odb,Step-1,Increment      1: Step Time =    1.000,"PART-1-1",           150,      -6.26959,      -2.94549,            0.,NA,NA,"",       1.05845,  -342.932E-03,      -1.00136,   185.102E-06
C:/temp/dataset/3/3_9.odb,Step-1,Increment      1: Step Time =    1.000,"PART-1-1",           151,       2.97297,      -3.34056,            0.,NA,NA,"",   615.335E-03,  -333.313E-03,  -517.242E-03,   6.09294E-03
C:/temp/dataset/3/3_9.odb,Step-1,Increment      1: Step Time =    1.000,"PART-1-1",           152,   836.982E-03,      -3.21922,            0.,NA,NA,"",   720.448E-03,  -337.801E-03,  -636.345E-03,   916.431E-06
C:/temp/dataset/3/3_9.odb,Step-1,Increment      1: Step Time =    1.000,"PART-1-1",           153,       7.27849,      -10.7647,            0.,NA,NA,"",   183.826E-03,  -69.9178E-03,  -170.010E-03,   14.9583E-03
C:/temp/dataset/3/3_9.odb,Step-1,Increment      1: Step Time =    1.000,"PART-1-1",           154,       7.20650,      -8.25133,            0.,NA,NA,"",   244.061E-03,  -132.201E-03,  -205.156E-03,   16.2072E-03
C:/temp/dataset/3/3_9.odb,Step-1,Increment      1: Step Time =    1.000,"PART-1-1",           155,       7.07274,      -17.3233,            0.,NA,NA,"",   92.4763E-03,   17.9341E-03,  -90.7206E-03,   13.0486E-03
C:/temp/dataset/3/3_9.odb,Step-1,Increment      1: Step Time =    1.000,"PART-1-1",           156,       6.55788,      -15.2577,            0.,NA,NA,"",   121.770E-03,  -3.13845E-03,  -121.730E-03,   15.8301E-03
C:/temp/dataset/3/3_9.odb,Step-1,Increment      1: Step Time =    1.000,"PART-1-1",           157,      -7.46685,      -22.5818,            0.,NA,NA,"",   2.79521E-03,   2.67169E-03,   821.741E-06,   446.196E-06
C:/temp/dataset/3/3_9.odb,Step-1,Increment      1: Step Time =    1.000,"PART-1-1",           158,      -4.95694,      -22.5955,            0.,NA,NA,"",   3.14695E-03,   3.07766E-03,   656.740E-06,   610.846E-06
C:/temp/dataset/3/3_9.odb,Step-1,Increment      1: Step Time =    1.000,"PART-1-1",           159,   146.162E-03,      -22.6598,            0.,NA,NA,"",   6.15644E-03,   3.88657E-03,  -4.77455E-03,   423.489E-06
C:/temp/dataset/3/3_9.odb,Step-1,Increment      1: Step Time =    1.000,"PART-1-1",           160,      -12.4860,      -22.5306,            0.,NA,NA,"",   2.50165E-03,   2.34702E-03,   865.894E-06,   126.547E-06
C:/temp/dataset/3/3_9.odb,Step-1,Increment      1: Step Time =    1.000,"PART-1-1",           161,       9.96020,      -27.7814,            0.,NA,NA,"",   12.2503E-03,   8.91931E-03,  -8.39733E-03,   5.75116E-03
C:/temp/dataset/3/3_9.odb,Step-1,Increment      1: Step Time =    1.000,"PART-1-1",           162,       7.44077,      -27.8946,            0.,NA,NA,"",   9.07276E-03,   4.42341E-03,  -7.92139E-03,   5.24036E-03
C:/temp/dataset/3/3_9.odb,Step-1,Increment      1: Step Time =    1.000,"PART-1-1",           163,       4.93217,      -27.8625,            0.,NA,NA,"",   6.57371E-03,   534.871E-06,  -6.55191E-03,   4.07675E-03
C:/temp/dataset/3/3_9.odb,Step-1,Increment      1: Step Time =    1.000,"PART-1-1",           164,       2.47767,      -27.7470,            0.,NA,NA,"",   4.50240E-03,  -1.61724E-03,  -4.20193E-03,   2.47367E-03
C:/temp/dataset/3/3_9.odb,Step-1,Increment      1: Step Time =    1.000,"PART-1-1",           165,   19.5837E-03,      -27.6625,            0.,NA,NA,"",   2.66684E-03,  -1.90160E-03,  -1.86975E-03,   1.20210E-03
C:/temp/dataset/3/3_9.odb,Step-1,Increment      1: Step Time =    1.000,"PART-1-1",           166,      -2.46955,      -27.6154,            0.,NA,NA,"",   1.31294E-03,  -1.22623E-03,  -469.223E-06,   567.009E-06
C:/temp/dataset/3/3_9.odb,Step-1,Increment      1: Step Time =    1.000,"PART-1-1",           167,      -4.97450,      -27.5844,            0.,NA,NA,"",   425.787E-06,  -407.967E-06,   121.893E-06,   363.728E-06
C:/temp/dataset/3/3_9.odb,Step-1,Increment      1: Step Time =    1.000,"PART-1-1",           168,      -7.48283,      -27.5594,            0.,NA,NA,"",   318.258E-06,   168.279E-06,   270.130E-06,   277.897E-06
C:/temp/dataset/3/3_9.odb,Step-1,Increment      1: Step Time =    1.000,"PART-1-1",           169,       12.2865,      -25.1793,            0.,NA,NA,"",   32.3291E-03,   25.8180E-03,  -19.4577E-03,   5.63689E-03
C:/temp/dataset/3/3_9.odb,Step-1,Increment      1: Step Time =    1.000,"PART-1-1",           170,       11.6753,      -16.4340,            0.,NA,NA,"",   54.9277E-03,   25.8967E-03,  -48.4398E-03,   3.67049E-03
C:/temp/dataset/3/3_9.odb,Step-1,Increment      1: Step Time =    1.000,"PART-1-1",           171,       11.9685,      -19.5802,            0.,NA,NA,"",   55.0415E-03,   39.0768E-03,  -38.7629E-03,   4.46142E-03
C:/temp/dataset/3/3_9.odb,Step-1,Increment      1: Step Time =    1.000,"PART-1-1",           172,       13.3291,      -9.93034,            0.,NA,NA,"",   79.5320E-03,  -77.7850E-03,  -16.5782E-03,   3.68546E-03
C:/temp/dataset/3/3_9.odb,Step-1,Increment      1: Step Time =    1.000,"PART-1-1",           173,       13.4212,      -12.1607,            0.,NA,NA,"",   36.0036E-03,  -29.5029E-03,  -20.6359E-03,   3.36043E-03
C:/temp/dataset/3/3_9.odb,Step-1,Increment      1: Step Time =    1.000,"PART-1-1",           174,       12.9633,      -2.52247,            0.,NA,NA,"",   345.230E-03,  -345.023E-03,  -11.9551E-03,   2.68731E-03
C:/temp/dataset/3/3_9.odb,Step-1,Increment      1: Step Time =    1.000,"PART-1-1",           175,       13.1247,      -4.84738,            0.,NA,NA,"",   244.407E-03,  -244.233E-03,  -9.20884E-03,   3.55922E-03
C:/temp/dataset/3/3_9.odb,Step-1,Increment      1: Step Time =    1.000,"PART-1-1",           176,       13.1131,       5.12757,            0.,NA,NA,"",   755.346E-03,  -755.267E-03,   10.9033E-03,   6.60683E-03
C:/temp/dataset/3/3_9.odb,Step-1,Increment      1: Step Time =    1.000,"PART-1-1",           177,       12.1418,       2.60140,            0.,NA,NA,"",   605.181E-03,  -602.739E-03,  -54.3152E-03,   3.76983E-03
C:/temp/dataset/3/3_9.odb,Step-1,Increment      1: Step Time =    1.000,"PART-1-1",           178,       12.1760,       12.1629,            0.,NA,NA,"",       1.29819,      -1.29716,  -51.7526E-03,   3.96922E-03
C:/temp/dataset/3/3_9.odb,Step-1,Increment      1: Step Time =    1.000,"PART-1-1",           179,       13.0236,       9.64002,            0.,NA,NA,"",       1.08180,      -1.08162,   20.1974E-03,   7.50900E-03
C:/temp/dataset/3/3_9.odb,Step-1,Increment      1: Step Time =    1.000,"PART-1-1",           180,       12.3784,       20.0377,            0.,NA,NA,"",       2.18173,      -2.18124,  -46.3243E-03,   6.45904E-03
C:/temp/dataset/3/3_9.odb,Step-1,Increment      1: Step Time =    1.000,"PART-1-1",           181,       12.3660,       17.5135,            0.,NA,NA,"",       1.86542,      -1.86500,  -39.6895E-03,   5.53232E-03
C:/temp/dataset/3/3_9.odb,Step-1,Increment      1: Step Time =    1.000,"PART-1-1",           182,       12.4264,       25.0333,            0.,NA,NA,"",       2.88094,      -2.87998,  -74.4874E-03,   6.11167E-03
C:/temp/dataset/3/3_9.odb,Step-1,Increment      1: Step Time =    1.000,"PART-1-1",           183,       7.43491,       27.5684,            0.,NA,NA,"",       3.31350,      -3.21115,  -817.203E-03,   8.23313E-03
C:/temp/dataset/3/3_9.odb,Step-1,Increment      1: Step Time =    1.000,"PART-1-1",           184,  -17.4965E-03,       27.5503,            0.,NA,NA,"",       3.71261,      -3.16467,      -1.94122,   4.62766E-03
C:/temp/dataset/3/3_9.odb,Step-1,Increment      1: Step Time =    1.000,"PART-1-1",           185,       2.47067,       27.5656,            0.,NA,NA,"",       3.55193,      -3.18499,      -1.57227,   10.2709E-03
C:/temp/dataset/3/3_9.odb,Step-1,Increment      1: Step Time =    1.000,"PART-1-1",           186,      -7.50286,       27.5043,            0.,NA,NA,"",       4.33101,      -3.07645,      -3.04845,   281.316E-06
C:/temp/dataset/3/3_9.odb,Step-1,Increment      1: Step Time =    1.000,"PART-1-1",           187,      -5.00635,       27.5119,            0.,NA,NA,"",       4.10002,      -3.10563,      -2.67679,   574.264E-06
C:/temp/dataset/3/3_9.odb,Step-1,Increment      1: Step Time =    1.000,"PART-1-1",           188,      -12.5019,       27.5019,            0.,NA,NA,"",       4.84844,      -3.02024,      -3.79282,   19.1696E-06
C:/temp/dataset/3/3_9.odb,Step-1,Increment      1: Step Time =    1.000,"PART-1-1",           189,      -12.5001,       22.5034,            0.,NA,NA,"",       4.37566,      -2.27627,      -3.73698,   19.2368E-06
C:/temp/dataset/3/3_9.odb,Step-1,Increment      1: Step Time =    1.000,"PART-1-1",           190,      -5.00429,       25.0191,            0.,NA,NA,"",       3.80824,      -2.73546,      -2.64952,   618.693E-06
C:/temp/dataset/3/3_9.odb,Step-1,Increment      1: Step Time =    1.000,"PART-1-1",           191,  -15.9173E-03,       25.0642,            0.,NA,NA,"",       3.38597,      -2.79882,      -1.90564,   2.80658E-03
C:/temp/dataset/3/3_9.odb,Step-1,Increment      1: Step Time =    1.000,"PART-1-1",           192,       9.74355,       15.0604,            0.,NA,NA,"",       1.60398,      -1.57272,  -315.125E-03,   7.14606E-03
C:/temp/dataset/3/3_9.odb,Step-1,Increment      1: Step Time =    1.000,"PART-1-1",           193,       9.51986,       12.6989,            0.,NA,NA,"",       1.37265,      -1.33741,  -308.997E-03,   8.79719E-03
C:/temp/dataset/3/3_9.odb,Step-1,Increment      1: Step Time =    1.000,"PART-1-1",           194,       12.1898,      -11.7554,            0.,NA,NA,"",   58.6912E-03,  -36.0750E-03,  -46.2953E-03,   1.77624E-03
C:/temp/dataset/3/3_9.odb,Step-1,Increment      1: Step Time =    1.000,"PART-1-1",           195,       9.78251,      -13.4248,            0.,NA,NA,"",   90.2548E-03,  -10.8618E-03,  -89.5988E-03,   7.43005E-03
C:/temp/dataset/3/3_9.odb,Step-1,Increment      1: Step Time =    1.000,"PART-1-1",           196,       7.24032,      -19.5057,            0.,NA,NA,"",   72.1057E-03,   27.3849E-03,  -66.7030E-03,   9.86777E-03
C:/temp/dataset/3/3_9.odb,Step-1,Increment      1: Step Time =    1.000,"PART-1-1",           197,      -10.0066,  -139.817E-03,            0.,NA,NA,"",       1.28846,  -481.193E-03,      -1.19524,   35.2214E-06
C:/temp/dataset/3/3_9.odb,Step-1,Increment      1: Step Time =    1.000,"PART-1-1",           198,      -8.39380,      -1.43672,            0.,NA,NA,"",       1.18711,  -417.181E-03,      -1.11139,   76.7903E-06
C:/temp/dataset/3/3_9.odb,Step-1,Increment      1: Step Time =    1.000,"PART-1-1",           199,      -5.07121,  -530.035E-03,            0.,NA,NA,"",       1.05300,  -468.212E-03,  -943.178E-03,   360.011E-06
C:/temp/dataset/3/3_9.odb,Step-1,Increment      1: Step Time =    1.000,"PART-1-1",           200,      -12.5003,      -27.5198,            0.,NA,NA,"",   778.001E-06,   682.009E-06,   374.366E-06,   258.311E-06
C:/temp/dataset/3/3_9.odb,Step-1,Increment      1: Step Time =    1.000,"PART-1-1",           201,       8.97180,      -8.86122,            0.,NA,NA,"",   179.548E-03,  -107.235E-03,  -144.008E-03,   9.29726E-03
C:/temp/dataset/3/3_9.odb,Step-1,Increment      1: Step Time =    1.000,"PART-1-1",           202,      -2.50561,       25.0360,            0.,NA,NA,"",       3.58389,      -2.76683,      -2.27792,   722.008E-06
C:/temp/dataset/3/3_9.odb,Step-1,Increment      1: Step Time =    1.000,"PART-1-1",           203,      -7.50383,       25.0106,            0.,NA,NA,"",       4.05563,      -2.70553,      -3.02130,   295.092E-06
C:/temp/dataset/3/3_9.odb,Step-1,Increment      1: Step Time =    1.000,"PART-1-1",           204,       2.46362,       25.0850,            0.,NA,NA,"",       3.21143,      -2.82487,      -1.52753,   9.61214E-03
C:/temp/dataset/3/3_9.odb,Step-1,Increment      1: Step Time =    1.000,"PART-1-1",           205,       9.17638,       10.5785,            0.,NA,NA,"",       1.18891,      -1.14664,  -314.210E-03,   10.0878E-03
C:/temp/dataset/3/3_9.odb,Step-1,Increment      1: Step Time =    1.000,"PART-1-1",           206,       9.65111,       6.46520,            0.,NA,NA,"",   864.378E-03,  -832.059E-03,  -234.153E-03,   7.23385E-03
C:/temp/dataset/3/3_9.odb,Step-1,Increment      1: Step Time =    1.000,"PART-1-1",           207,      -1.99278,       1.34592,            0.,NA,NA,"",   971.893E-03,  -568.870E-03,  -788.012E-03,   801.381E-06
C:/temp/dataset/3/3_9.odb,Step-1,Increment      1: Step Time =    1.000,"PART-1-1",           208,      -5.69490,       1.29843,            0.,NA,NA,"",       1.12630,  -560.458E-03,  -976.957E-03,   276.323E-06
C:/temp/dataset/3/3_9.odb,Step-1,Increment      1: Step Time =    1.000,"PART-1-1",           209,       1.92780,   665.778E-03,            0.,NA,NA,"",   800.280E-03,  -540.838E-03,  -589.867E-03,   2.81412E-03
C:/temp/dataset/3/3_9.odb,Step-1,Increment      1: Step Time =    1.000,"PART-1-1",           210,       1.26043,      -1.37778,            0.,NA,NA,"",   755.277E-03,  -435.503E-03,  -617.074E-03,   1.36001E-03
C:/temp/dataset/3/3_9.odb,Step-1,Increment      1: Step Time =    1.000,"PART-1-1",           211,       9.14691,      -16.8280,            0.,NA,NA,"",   78.8521E-03,   23.8318E-03,  -75.1644E-03,   8.22151E-03
C:/temp/dataset/3/3_9.odb,Step-1,Increment      1: Step Time =    1.000,"PART-1-1",           212,   79.9954E-03,      -25.2148,            0.,NA,NA,"",   3.63765E-03,  -574.199E-06,  -3.59204E-03,   882.757E-06
C:/temp/dataset/3/3_9.odb,Step-1,Increment      1: Step Time =    1.000,"PART-1-1",           213,      -9.97865,      -25.0679,            0.,NA,NA,"",   1.50946E-03,   1.37932E-03,   613.140E-06,   315.731E-06
C:/temp/dataset/3/3_9.odb,Step-1,Increment      1: Step Time =    1.000,"PART-1-1",           214,       12.4671,      -27.6040,            0.,NA,NA,"",   17.0649E-03,   14.0195E-03,  -9.72946E-03,   6.22283E-03
C:/temp/dataset/3/3_9.odb,Step-1,Increment      1: Step Time =    1.000,"PART-1-1",           215,       9.82463,      -25.6838,            0.,NA,NA,"",   25.5826E-03,   17.5937E-03,  -18.5723E-03,   6.78384E-03
C:/temp/dataset/3/3_9.odb,Step-1,Increment      1: Step Time =    1.000,"PART-1-1",           216,       2.56344,      -25.3828,            0.,NA,NA,"",   9.57284E-03,  -245.046E-06,  -9.56970E-03,   2.81333E-03
C:/temp/dataset/3/3_9.odb,Step-1,Increment      1: Step Time =    1.000,"PART-1-1",           217,      -2.44121,      -25.1518,            0.,NA,NA,"",   511.303E-06,   103.440E-06,  -500.731E-06,   480.540E-06
C:/temp/dataset/3/3_9.odb,Step-1,Increment      1: Step Time =    1.000,"PART-1-1",           218,      -4.95889,      -25.1139,            0.,NA,NA,"",   922.485E-06,   762.589E-06,   519.072E-06,   498.283E-06
C:/temp/dataset/3/3_9.odb,Step-1,Increment      1: Step Time =    1.000,"PART-1-1",           219,       10.3279,  -771.646E-03,            0.,NA,NA,"",   452.131E-03,  -428.933E-03,  -142.966E-03,   6.06539E-03
C:/temp/dataset/3/3_9.odb,Step-1,Increment      1: Step Time =    1.000,"PART-1-1",           220,       10.4049,       4.48083,            0.,NA,NA,"",   727.599E-03,  -707.558E-03,  -169.592E-03,   5.64959E-03
C:/temp/dataset/3/3_9.odb,Step-1,Increment      1: Step Time =    1.000,"PART-1-1",           221,       9.80969,       17.5478,            0.,NA,NA,"",       1.87877,      -1.84831,  -336.954E-03,   5.26686E-03
C:/temp/dataset/3/3_9.odb,Step-1,Increment      1: Step Time =    1.000,"PART-1-1",           222,       9.88106,       25.0797,            0.,NA,NA,"",       2.89608,      -2.86479,  -424.550E-03,   6.37522E-03
C:/temp/dataset/3/3_9.odb,Step-1,Increment      1: Step Time =    1.000,"PART-1-1",           223,       9.94975,       27.5346,            0.,NA,NA,"",       3.25469,      -3.22378,  -447.490E-03,   4.22549E-03
C:/temp/dataset/3/3_9.odb,Step-1,Increment      1: Step Time =    1.000,"PART-1-1",           224,       7.36779,       20.0596,            0.,NA,NA,"",       2.24870,      -2.14386,  -678.615E-03,   12.4090E-03
C:/temp/dataset/3/3_9.odb,Step-1,Increment      1: Step Time =    1.000,"PART-1-1",           225,  -693.206E-03,      -1.01900,            0.,NA,NA,"",   848.875E-03,  -450.764E-03,  -719.306E-03,   899.633E-06
C:/temp/dataset/3/3_9.odb,Step-1,Increment      1: Step Time =    1.000,"PART-1-1",           226,      -7.47194,      -25.0831,            0.,NA,NA,"",   1.35633E-03,   1.17698E-03,   674.057E-06,   421.914E-06
C:/temp/dataset/3/3_9.odb,Step-1,Increment      1: Step Time =    1.000,"PART-1-1",           227,       5.28089,       2.25097,            0.,NA,NA,"",   754.508E-03,  -610.867E-03,  -442.858E-03,   16.3678E-03
C:/temp/dataset/3/3_9.odb,Step-1,Increment      1: Step Time =    1.000,"PART-1-1",           228,       9.26575,       8.45073,            0.,NA,NA,"",       1.01425,  -974.364E-03,  -281.617E-03,   8.63430E-03
C:/temp/dataset/3/3_9.odb,Step-1,Increment      1: Step Time =    1.000,"PART-1-1",           229,  -81.3472E-03,       1.02952,            0.,NA,NA,"",   887.149E-03,  -556.478E-03,  -690.917E-03,   778.598E-06
C:/temp/dataset/3/3_9.odb,Step-1,Increment      1: Step Time =    1.000,"PART-1-1",           230,      -7.67687,   831.326E-03,            0.,NA,NA,"",       1.20260,  -533.857E-03,      -1.07761,   117.834E-06
C:/temp/dataset/3/3_9.odb,Step-1,Increment      1: Step Time =    1.000,"PART-1-1",           231,      -2.54090,  -531.417E-03,            0.,NA,NA,"",   941.394E-03,  -472.451E-03,  -814.255E-03,   734.272E-06
C:/temp/dataset/3/3_9.odb,Step-1,Increment      1: Step Time =    1.000,"PART-1-1",           232,      -3.83997,       1.55066,            0.,NA,NA,"",       1.05387,  -576.107E-03,  -882.460E-03,   491.953E-06
C:/temp/dataset/3/3_9.odb,Step-1,Increment      1: Step Time =    1.000,"PART-1-1",           233,      -6.84494,  -996.203E-03,            0.,NA,NA,"",       1.12352,  -441.796E-03,      -1.03302,   180.189E-06
C:/temp/dataset/3/3_9.odb,Step-1,Increment      1: Step Time =    1.000,"PART-1-1",           234,       5.51335,      -3.03354,            0.,NA,NA,"",   499.376E-03,  -344.065E-03,  -361.933E-03,   17.2173E-03
C:/temp/dataset/3/3_9.odb,Step-1,Increment      1: Step Time =    1.000,"PART-1-1",           235,       9.62476,      -7.14735,            0.,NA,NA,"",   207.037E-03,  -157.011E-03,  -134.951E-03,   6.51362E-03
C:/temp/dataset/3/3_9.odb,Step-1,Increment      1: Step Time =    1.000,"PART-1-1",           236,       7.38903,      -25.9371,            0.,NA,NA,"",   20.1547E-03,   9.59318E-03,  -17.7252E-03,   6.59510E-03
C:/temp/dataset/3/3_9.odb,Step-1,Increment      1: Step Time =    1.000,"PART-1-1",           237,       4.96373,      -25.7856,            0.,NA,NA,"",   15.4681E-03,   3.16333E-03,  -15.1412E-03,   5.15403E-03
C:/temp/dataset/3/3_9.odb,Step-1,Increment      1: Step Time =    1.000,"PART-1-1",           238,       9.37191,      -21.3805,            0.,NA,NA,"",   55.0191E-03,   32.2118E-03,  -44.6038E-03,   8.07504E-03
C:/temp/dataset/3/3_9.odb,Step-1,Increment      1: Step Time =    1.000,"PART-1-1",           239,       9.53380,      -19.3691,            0.,NA,NA,"",   65.4880E-03,   34.6023E-03,  -55.6000E-03,   7.58690E-03
C:/temp/dataset/3/3_9.odb,Step-1,Increment      1: Step Time =    1.000,"PART-1-1",           240,       10.5518,      -5.76730,            0.,NA,NA,"",   231.866E-03,  -205.296E-03,  -107.775E-03,   3.49543E-03
C:/temp/dataset/3/3_9.odb,Step-1,Increment      1: Step Time =    1.000,"PART-1-1",           241,       10.8494,      -2.88140,            0.,NA,NA,"",   344.354E-03,  -327.386E-03,  -106.763E-03,   3.60800E-03
C:/temp/dataset/3/3_9.odb,Step-1,Increment      1: Step Time =    1.000,"PART-1-1",           242,       9.33979,       1.27198,            0.,NA,NA,"",   575.241E-03,  -534.652E-03,  -212.250E-03,   9.88401E-03
C:/temp/dataset/3/3_9.odb,Step-1,Increment      1: Step Time =    1.000,"PART-1-1",           243,       9.83335,       20.0603,            0.,NA,NA,"",       2.19126,      -2.16092,  -363.349E-03,   6.57496E-03
C:/temp/dataset/3/3_9.odb,Step-1,Increment      1: Step Time =    1.000,"PART-1-1",           244,       7.39102,       25.1069,            0.,NA,NA,"",       2.95833,      -2.85402,  -778.636E-03,   10.3636E-03
C:/temp/dataset/3/3_9.odb,Step-1,Increment      1: Step Time =    1.000,"PART-1-1",           245,       4.93408,       25.0979,            0.,NA,NA,"",       3.06501,      -2.84237,      -1.14683,   12.7741E-03
C:/temp/dataset/3/3_9.odb,Step-1,Increment      1: Step Time =    1.000,"PART-1-1",           246,      -10.0026,       25.0068,            0.,NA,NA,"",       4.32186,      -2.67681,      -3.39310,   102.499E-06
C:/temp/dataset/3/3_9.odb,Step-1,Increment      1: Step Time =    1.000,"PART-1-1",           247,      -10.0008,       22.5051,            0.,NA,NA,"",       4.07850,      -2.30437,      -3.36512,   87.3371E-06
C:/temp/dataset/3/3_9.odb,Step-1,Increment      1: Step Time =    1.000,"PART-1-1",           248,      -9.99283,      -27.5363,            0.,NA,NA,"",   559.589E-06,   482.586E-06,   283.286E-06,   250.281E-06
C:/temp/dataset/3/3_9.odb,Step-1,Increment      1: Step Time =    1.000,"PART-1-1",           249,       3.80746,   187.829E-03,            0.,NA,NA,"",   711.704E-03,  -513.577E-03,  -492.707E-03,   8.57612E-03
C:/temp/dataset/3/3_9.odb,Step-1,Increment      1: Step Time =    1.000,"PART-1-1",           250,       11.4886,       7.12458,            0.,NA,NA,"",   887.538E-03,  -881.596E-03,  -102.527E-03,   2.95218E-03
C:/temp/dataset/3/3_9.odb,Step-1,Increment      1: Step Time =    1.000,"PART-1-1",           251,       5.25951,      -23.9756,            0.,NA,NA,"",   26.1459E-03,   7.20307E-03,  -25.1341E-03,   7.08212E-03
C:/temp/dataset/3/3_9.odb,Step-1,Increment      1: Step Time =    1.000,"PART-1-1",           252,       9.85798,       22.5791,            0.,NA,NA,"",       2.53609,      -2.50553,  -392.476E-03,   7.76387E-03
C:/temp/dataset/3/3_9.odb,Step-1,Increment      1: Step Time =    1.000,"PART-1-1",           253,       7.38133,       22.5911,            0.,NA,NA,"",       2.59816,      -2.49384,  -728.814E-03,   14.0792E-03
C:/temp/dataset/3/3_9.odb,Step-1,Increment      1: Step Time =    1.000,"PART-1-1",           254,       9.03817,      -10.9527,            0.,NA,NA,"",   136.817E-03,  -57.3388E-03,  -124.222E-03,   9.43797E-03
C:/temp/dataset/3/3_9.odb,Step-1,Increment      1: Step Time =    1.000,"PART-1-1",           255,       7.30212,      -21.2110,            0.,NA,NA,"",   57.6920E-03,   24.9076E-03,  -52.0382E-03,   10.5010E-03
C:/temp/dataset/3/3_9.odb,Step-1,Increment      1: Step Time =    1.000,"PART-1-1",           256,       8.48263,      -3.88795,            0.,NA,NA,"",   352.179E-03,  -287.141E-03,  -203.913E-03,   9.89588E-03
C:/temp/dataset/3/3_9.odb,Step-1,Increment      1: Step Time =    1.000,"PART-1-1",           257,       8.48912,      -1.65164,            0.,NA,NA,"",   453.692E-03,  -392.844E-03,  -226.958E-03,   11.4939E-03
C:/temp/dataset/3/3_9.odb,Step-1,Increment      1: Step Time =    1.000,"PART-1-1",           258,       8.19007,       3.36514,            0.,NA,NA,"",   716.025E-03,  -648.970E-03,  -302.539E-03,   13.8441E-03
C:/temp/dataset/3/3_9.odb,Step-1,Increment      1: Step Time =    1.000,"PART-1-1",           259,       6.78208,  -317.133E-03,            0.,NA,NA,"",   575.393E-03,  -470.259E-03,  -331.563E-03,   14.4643E-03
C:/temp/dataset/3/3_9.odb,Step-1,Increment      1: Step Time =    1.000,"PART-1-1",           260,       11.8604,      -10.2109,            0.,NA,NA,"",   88.6756E-03,  -69.3015E-03,  -55.3233E-03,   1.77313E-03
C:/temp/dataset/3/3_9.odb,Step-1,Increment      1: Step Time =    1.000,"PART-1-1",           261,       5.00218,  -627.613E-03,            0.,NA,NA,"",   628.682E-03,  -466.677E-03,  -421.253E-03,   12.5090E-03
C:/temp/dataset/3/3_9.odb,Step-1,Increment      1: Step Time =    1.000,"PART-1-1",           262,       11.1460,      -8.45072,            0.,NA,NA,"",   140.017E-03,  -115.675E-03,  -78.8924E-03,   2.72131E-03
C:/temp/dataset/3/3_9.odb,Step-1,Increment      1: Step Time =    1.000,"PART-1-1",           263,       11.7180,       5.54683,            0.,NA,NA,"",   780.830E-03,  -776.323E-03,  -83.7723E-03,   3.85061E-03
C:/temp/dataset/3/3_9.odb,Step-1,Increment      1: Step Time =    1.000,"PART-1-1",           264,       5.25136,      -21.5985,            0.,NA,NA,"",   43.5046E-03,   13.1101E-03,  -41.4823E-03,   10.8536E-03
C:/temp/dataset/3/3_9.odb,Step-1,Increment      1: Step Time =    1.000,"PART-1-1",           265,       12.4723,       27.5096,            0.,NA,NA,"",       3.24318,      -3.24186,  -92.3865E-03,   4.46706E-03
C:/temp/dataset/3/3_9.odb,Step-1,Increment      1: Step Time =    1.000,"PART-1-1",           266,       5.87727,      -22.7682,            0.,NA,NA,"",   37.9557E-03,   12.3343E-03,  -35.8957E-03,   8.73865E-03
C:/temp/dataset/3/3_9.odb,Step-1,Increment      1: Step Time =    1.000,"PART-1-1",           267,       7.32369,      -22.7299,            0.,NA,NA,"",   43.9469E-03,   19.6880E-03,  -39.2901E-03,   9.37017E-03
C:/temp/dataset/3/3_9.odb,Step-1,Increment      1: Step Time =    1.000,"PART-1-1",           268,       11.4923,      -4.55460,            0.,NA,NA,"",   264.547E-03,  -253.884E-03,  -74.3507E-03,   1.49383E-03
C:/temp/dataset/3/3_9.odb,Step-1,Increment      1: Step Time =    1.000,"PART-1-1",           269,       11.2115,       8.96325,            0.,NA,NA,"",       1.02596,      -1.01782,  -129.021E-03,   2.05702E-03
C:/temp/dataset/3/3_9.odb,Step-1,Increment      1: Step Time =    1.000,"PART-1-1",           270,       10.8046,       10.5255,            0.,NA,NA,"",       1.15728,      -1.14460,  -170.797E-03,   2.89986E-03
C:/temp/dataset/3/3_9.odb,Step-1,Increment      1: Step Time =    1.000,"PART-1-1",           271,       7.35536,      -24.2380,            0.,NA,NA,"",   31.6982E-03,   14.7003E-03,  -28.0834E-03,   7.93766E-03
C:/temp/dataset/3/3_9.odb,Step-1,Increment      1: Step Time =    1.000,"PART-1-1",           272,      -3.82134,   150.711E-03,            0.,NA,NA,"",       1.01475,  -505.013E-03,  -880.158E-03,   535.347E-06
C:/temp/dataset/3/3_9.odb,Step-1,Increment      1: Step Time =    1.000,"PART-1-1",           273,       3.09609,      -1.70207,            0.,NA,NA,"",   665.005E-03,  -419.710E-03,  -515.824E-03,   6.39164E-03
C:/temp/dataset/3/3_9.odb,Step-1,Increment      1: Step Time =    1.000,"PART-1-1",           274,       4.56419,      -1.78689,            0.,NA,NA,"",   596.554E-03,  -411.504E-03,  -431.904E-03,   11.6013E-03
C:/temp/dataset/3/3_9.odb,Step-1,Increment      1: Step Time =    1.000,"PART-1-1",           275,       9.44492,      -23.8624,            0.,NA,NA,"",   37.7318E-03,   23.9132E-03,  -29.1864E-03,   7.77932E-03
C:/temp/dataset/3/3_9.odb,Step-1,Increment      1: Step Time =    1.000,"PART-1-1",           276,       8.77427,      -22.6651,            0.,NA,NA,"",   46.0884E-03,   25.9916E-03,  -38.0602E-03,   8.50652E-03
C:/temp/dataset/3/3_9.odb,Step-1,Increment      1: Step Time =    1.000,"PART-1-1",           277,       10.1837,      -9.28900,            0.,NA,NA,"",   140.271E-03,  -93.4599E-03,  -104.600E-03,   5.71010E-03
C:/temp/dataset/3/3_9.odb,Step-1,Increment      1: Step Time =    1.000,"PART-1-1",           278,       10.4979,      -10.7612,            0.,NA,NA,"",   105.977E-03,  -57.7451E-03,  -88.8627E-03,   5.33978E-03
C:/temp/dataset/3/3_9.odb,Step-1,Increment      1: Step Time =    1.000,"PART-1-1",           279,       11.2325,      -12.6180,            0.,NA,NA,"",   68.3646E-03,  -20.7673E-03,  -65.1340E-03,   3.82074E-03
C:/temp/dataset/3/3_9.odb,Step-1,Increment      1: Step Time =    1.000,"PART-1-1",           280,      -13.7500,       22.5017,            0.,NA,NA,"",       4.52844,      -2.26210,      -3.92297,   9.34812E-06
C:/temp/dataset/3/3_9.odb,Step-1,Increment      1: Step Time =    1.000,"PART-1-1",           281,          -15.,         21.25,            0.,NA,NA,"",       4.58485,      -2.06188,      -4.09506,   1.92304E-06
C:/temp/dataset/3/3_9.odb,Step-1,Increment      1: Step Time =    1.000,"PART-1-1",           282,        -13.75,           20.,            0.,NA,NA,"",       4.32933,      -1.88977,      -3.89511,   680.019E-09
C:/temp/dataset/3/3_9.odb,Step-1,Increment      1: Step Time =    1.000,"PART-1-1",           283,      -12.5000,       21.2517,            0.,NA,NA,"",       4.26954,      -2.08998,      -3.72303,   8.30924E-06
C:/temp/dataset/3/3_9.odb,Step-1,Increment      1: Step Time =    1.000,"PART-1-1",           284,        -11.25,           30.,            0.,NA,NA,"",       4.98086,      -3.40603,      -3.63427,   22.2025E-06
C:/temp/dataset/3/3_9.odb,Step-1,Increment      1: Step Time =    1.000,"PART-1-1",           285,      -12.5009,       28.7510,            0.,NA,NA,"",       4.97691,      -3.20617,      -3.80659,   8.70074E-06
C:/temp/dataset/3/3_9.odb,Step-1,Increment      1: Step Time =    1.000,"PART-1-1",           286,      -11.2523,       27.5017,            0.,NA,NA,"",       4.71327,      -3.03413,      -3.60680,   52.3476E-06
C:/temp/dataset/3/3_9.odb,Step-1,Increment      1: Step Time =    1.000,"PART-1-1",           287,      -10.0014,       28.7507,            0.,NA,NA,"",       4.71740,      -3.23396,      -3.43443,   49.4960E-06
C:/temp/dataset/3/3_9.odb,Step-1,Increment      1: Step Time =    1.000,"PART-1-1",           288,      -8.75282,       27.5029,            0.,NA,NA,"",       4.45421,      -3.06223,      -3.23461,   180.680E-06
C:/temp/dataset/3/3_9.odb,Step-1,Increment      1: Step Time =    1.000,"PART-1-1",           289,      -10.0027,       26.2541,            0.,NA,NA,"",       4.44979,      -2.86244,      -3.40691,   84.8038E-06
C:/temp/dataset/3/3_9.odb,Step-1,Increment      1: Step Time =    1.000,"PART-1-1",           290,      -8.75320,       25.0087,            0.,NA,NA,"",       4.18667,      -2.69112,      -3.20719,   193.400E-06
C:/temp/dataset/3/3_9.odb,Step-1,Increment      1: Step Time =    1.000,"PART-1-1",           291,      -7.50334,       26.2575,            0.,NA,NA,"",       4.19149,      -2.89106,      -3.03485,   245.155E-06
C:/temp/dataset/3/3_9.odb,Step-1,Increment      1: Step Time =    1.000,"PART-1-1",           292,  -10.1921E-03,       23.8015,            0.,NA,NA,"",       3.22255,      -2.61121,      -1.88850,   2.39627E-03
C:/temp/dataset/3/3_9.odb,Step-1,Increment      1: Step Time =    1.000,"PART-1-1",           293,       1.23656,       22.5490,            0.,NA,NA,"",       2.96208,      -2.43892,      -1.68094,   4.73729E-03
C:/temp/dataset/3/3_9.odb,Step-1,Increment      1: Step Time =    1.000,"PART-1-1",           294,       2.47060,       23.8222,            0.,NA,NA,"",       3.04074,      -2.64140,      -1.50636,   8.60589E-03
C:/temp/dataset/3/3_9.odb,Step-1,Increment      1: Step Time =    1.000,"PART-1-1",           295,       1.22385,       25.0746,            0.,NA,NA,"",       3.29573,      -2.81246,      -1.71810,   6.09493E-03
C:/temp/dataset/3/3_9.odb,Step-1,Increment      1: Step Time =    1.000,"PART-1-1",           296,       13.7132,       25.0166,            0.,NA,NA,"",       2.89318,      -2.89135,   102.906E-03,   5.02501E-03
C:/temp/dataset/3/3_9.odb,Step-1,Increment      1: Step Time =    1.000,"PART-1-1",           297,           15.,         26.25,            0.,NA,NA,"",       3.09788,      -3.08553,   276.348E-03,   3.73662E-03
C:/temp/dataset/3/3_9.odb,Step-1,Increment      1: Step Time =    1.000,"PART-1-1",           298,       13.7362,       27.5048,            0.,NA,NA,"",       3.25488,      -3.25376,   85.3918E-03,   2.58805E-03
C:/temp/dataset/3/3_9.odb,Step-1,Increment      1: Step Time =    1.000,"PART-1-1",           299,       12.4494,       26.2714,            0.,NA,NA,"",       3.06186,      -3.06074,  -83.0425E-03,   5.20881E-03
C:/temp/dataset/3/3_9.odb,Step-1,Increment      1: Step Time =    1.000,"PART-1-1",           300,       6.19248,       27.5744,            0.,NA,NA,"",       3.35928,      -3.20530,      -1.00540,   10.6982E-03
C:/temp/dataset/3/3_9.odb,Step-1,Increment      1: Step Time =    1.000,"PART-1-1",           301,       7.46746,       28.7842,            0.,NA,NA,"",       3.48989,      -3.38900,  -833.065E-03,   8.51064E-03
C:/temp/dataset/3/3_9.odb,Step-1,Increment      1: Step Time =    1.000,"PART-1-1",           302,          6.25,           30.,            0.,NA,NA,"",       3.71599,      -3.56552,      -1.04673,   9.87887E-03
C:/temp/dataset/3/3_9.odb,Step-1,Increment      1: Step Time =    1.000,"PART-1-1",           303,       4.97503,       28.7903,            0.,NA,NA,"",       3.59029,      -3.37809,      -1.21602,   11.1172E-03
C:/temp/dataset/3/3_9.odb,Step-1,Increment      1: Step Time =    1.000,"PART-1-1",           304,       11.0878,       17.5306,            0.,NA,NA,"",       1.86508,      -1.85559,  -187.917E-03,   1.90535E-03
C:/temp/dataset/3/3_9.odb,Step-1,Increment      1: Step Time =    1.000,"PART-1-1",           305,       12.3722,       18.7756,            0.,NA,NA,"",       2.01963,      -2.01918,  -42.4455E-03,   5.82656E-03
C:/temp/dataset/3/3_9.odb,Step-1,Increment      1: Step Time =    1.000,"PART-1-1",           306,       11.1059,       20.0490,            0.,NA,NA,"",       2.17985,      -2.17024,  -204.522E-03,   4.62915E-03
C:/temp/dataset/3/3_9.odb,Step-1,Increment      1: Step Time =    1.000,"PART-1-1",           307,       9.82152,       18.8041,            0.,NA,NA,"",       2.03096,      -2.00063,  -349.667E-03,   5.21777E-03
C:/temp/dataset/3/3_9.odb,Step-1,Increment      1: Step Time =    1.000,"PART-1-1",           308,       9.63171,       13.8797,            0.,NA,NA,"",       1.48522,      -1.45197,  -312.485E-03,   8.00768E-03
C:/temp/dataset/3/3_9.odb,Step-1,Increment      1: Step Time =    1.000,"PART-1-1",           309,       8.52517,       15.0687,            0.,NA,NA,"",       1.63352,      -1.57156,  -445.647E-03,   13.4773E-03
C:/temp/dataset/3/3_9.odb,Step-1,Increment      1: Step Time =    1.000,"PART-1-1",           310,       7.25683,       13.8735,            0.,NA,NA,"",       1.55534,      -1.45302,  -554.801E-03,   19.7458E-03
C:/temp/dataset/3/3_9.odb,Step-1,Increment      1: Step Time =    1.000,"PART-1-1",           311,       8.36336,       12.6844,            0.,NA,NA,"",       1.40093,      -1.33617,  -420.998E-03,   14.1937E-03
C:/temp/dataset/3/3_9.odb,Step-1,Increment      1: Step Time =    1.000,"PART-1-1",           312,       14.0118,       9.82001,            0.,NA,NA,"",       1.10922,      -1.10439,   103.380E-03,   12.0392E-03
C:/temp/dataset/3/3_9.odb,Step-1,Increment      1: Step Time =    1.000,"PART-1-1",           313,           15.,         11.25,            0.,NA,NA,"",       1.25501,      -1.23874,   201.406E-03,   17.0669E-03
C:/temp/dataset/3/3_9.odb,Step-1,Increment      1: Step Time =    1.000,"PART-1-1",           314,       13.5880,       12.3315,            0.,NA,NA,"",       1.32656,      -1.32406,   81.4190E-03,   10.6632E-03
C:/temp/dataset/3/3_9.odb,Step-1,Increment      1: Step Time =    1.000,"PART-1-1",           315,       12.5998,       10.9015,            0.,NA,NA,"",       1.18601,      -1.18593,  -13.3607E-03,   5.71855E-03
C:/temp/dataset/3/3_9.odb,Step-1,Increment      1: Step Time =    1.000,"PART-1-1",           316,       4.40482,  -219.892E-03,            0.,NA,NA,"",   670.876E-03,  -490.511E-03,  -457.682E-03,   10.7272E-03
C:/temp/dataset/3/3_9.odb,Step-1,Increment      1: Step Time =    1.000,"PART-1-1",           317,       3.45177,  -757.122E-03,            0.,NA,NA,"",   686.415E-03,  -466.987E-03,  -503.079E-03,   7.11185E-03
C:/temp/dataset/3/3_9.odb,Step-1,Increment      1: Step Time =    1.000,"PART-1-1",           318,       3.83014,      -1.74448,            0.,NA,NA,"",   630.919E-03,  -415.985E-03,  -474.357E-03,   9.19910E-03
C:/temp/dataset/3/3_9.odb,Step-1,Increment      1: Step Time =    1.000,"PART-1-1",           319,       4.78319,      -1.20725,            0.,NA,NA,"",   611.876E-03,  -439.163E-03,  -426.061E-03,   11.7560E-03
C:/temp/dataset/3/3_9.odb,Step-1,Increment      1: Step Time =    1.000,"PART-1-1",           320,       10.3408,      -10.0251,            0.,NA,NA,"",   122.099E-03,  -74.8033E-03,  -96.5019E-03,   5.52565E-03
C:/temp/dataset/3/3_9.odb,Step-1,Increment      1: Step Time =    1.000,"PART-1-1",           321,       11.1792,      -10.4860,            0.,NA,NA,"",   96.1074E-03,  -63.0785E-03,  -72.5102E-03,   3.40923E-03
C:/temp/dataset/3/3_9.odb,Step-1,Increment      1: Step Time =    1.000,"PART-1-1",           322,       11.5032,      -9.33080,            0.,NA,NA,"",   112.901E-03,  -91.3597E-03,  -66.3331E-03,   2.20261E-03
C:/temp/dataset/3/3_9.odb,Step-1,Increment      1: Step Time =    1.000,"PART-1-1",           323,       10.6649,      -8.86986,            0.,NA,NA,"",   139.163E-03,  -104.110E-03,  -92.3441E-03,   4.22333E-03
C:/temp/dataset/3/3_9.odb,Step-1,Increment      1: Step Time =    1.000,"PART-1-1",           324,       9.41034,      -12.1888,            0.,NA,NA,"",   110.458E-03,  -32.1240E-03,  -105.684E-03,   8.45945E-03
C:/temp/dataset/3/3_9.odb,Step-1,Increment      1: Step Time =    1.000,"PART-1-1",           325,       10.5075,      -13.0214,            0.,NA,NA,"",   79.5955E-03,  -15.3229E-03,  -78.1067E-03,   5.56331E-03
C:/temp/dataset/3/3_9.odb,Step-1,Increment      1: Step Time =    1.000,"PART-1-1",           326,       10.8652,      -11.6896,            0.,NA,NA,"",   85.1581E-03,  -38.0570E-03,  -76.1811E-03,   4.52172E-03
C:/temp/dataset/3/3_9.odb,Step-1,Increment      1: Step Time =    1.000,"PART-1-1",           327,       9.76802,      -10.8570,            0.,NA,NA,"",   121.044E-03,  -57.1575E-03,  -106.699E-03,   7.34799E-03
C:/temp/dataset/3/3_9.odb,Step-1,Increment      1: Step Time =    1.000,"PART-1-1",           328,       6.12016,      -19.7528,            0.,NA,NA,"",   70.6409E-03,   24.9968E-03,  -66.0704E-03,   12.9981E-03
C:/temp/dataset/3/3_9.odb,Step-1,Increment      1: Step Time =    1.000,"PART-1-1",           329,       7.15653,      -18.4145,            0.,NA,NA,"",   81.3155E-03,   25.1868E-03,  -77.3164E-03,   10.9393E-03
C:/temp/dataset/3/3_9.odb,Step-1,Increment      1: Step Time =    1.000,"PART-1-1",           330,       6.03637,      -17.4116,            0.,NA,NA,"",   97.2235E-03,   13.0614E-03,  -96.3421E-03,   15.8291E-03
C:/temp/dataset/3/3_9.odb,Step-1,Increment      1: Step Time =    1.000,"PART-1-1",           331,            5.,        -18.75,            0.,NA,NA,"",   81.1618E-03,   13.2840E-03,  -80.0673E-03,   20.4718E-03
C:/temp/dataset/3/3_9.odb,Step-1,Increment      1: Step Time =    1.000,"PART-1-1",           332,       13.3604,      -22.4969,            0.,NA,NA,"",   46.6205E-03,   37.4995E-03,  -27.6995E-03,   3.12638E-03
C:/temp/dataset/3/3_9.odb,Step-1,Increment      1: Step Time =    1.000,"PART-1-1",           333,           15.,        -21.25,            0.,NA,NA,"",   48.9306E-03,   40.1102E-03,  -28.0245E-03,   915.587E-06
C:/temp/dataset/3/3_9.odb,Step-1,Increment      1: Step Time =    1.000,"PART-1-1",           334,       13.4842,      -19.7901,            0.,NA,NA,"",   50.4113E-03,   40.1047E-03,  -30.5435E-03,   1.99642E-03
C:/temp/dataset/3/3_9.odb,Step-1,Increment      1: Step Time =    1.000,"PART-1-1",           335,       11.8446,      -21.0370,            0.,NA,NA,"",   52.2857E-03,   38.4921E-03,  -35.3858E-03,   5.09418E-03
C:/temp/dataset/3/3_9.odb,Step-1,Increment      1: Step Time =    1.000,"PART-1-1",           336,       1.65000,            5.,            0.,NA,NA,"",   967.615E-03,  -748.853E-03,  -612.778E-03,   2.47516E-03
C:/temp/dataset/3/3_9.odb,Step-1,Increment      1: Step Time =    1.000,"PART-1-1",           337,   440.654E-03,       4.00571,            0.,NA,NA,"",   970.362E-03,  -703.085E-03,  -668.786E-03,   1.37547E-03
C:/temp/dataset/3/3_9.odb,Step-1,Increment      1: Step Time =    1.000,"PART-1-1",           338,       1.47063,       2.87974,            0.,NA,NA,"",   896.860E-03,  -650.156E-03,  -617.782E-03,   1.89960E-03
C:/temp/dataset/3/3_9.odb,Step-1,Increment      1: Step Time =    1.000,"PART-1-1",           339,       2.67998,       3.87403,            0.,NA,NA,"",   898.821E-03,  -698.306E-03,  -565.906E-03,   2.57149E-03
C:/temp/dataset/3/3_9.odb,Step-1,Increment      1: Step Time =    1.000,"PART-1-1",           340,      -1.46180,      -3.99231,            0.,NA,NA,"",   810.301E-03,  -294.397E-03,  -754.929E-03,   787.898E-06
C:/temp/dataset/3/3_9.odb,Step-1,Increment      1: Step Time =    1.000,"PART-1-1",           341,     -500.E-03,           -5.,            0.,NA,NA,"",   743.773E-03,  -242.132E-03,  -703.257E-03,   1.89559E-03
C:/temp/dataset/3/3_9.odb,Step-1,Increment      1: Step Time =    1.000,"PART-1-1",           342,   718.491E-03,      -4.10961,            0.,NA,NA,"",   703.201E-03,  -289.199E-03,  -640.980E-03,   1.37774E-03
C:/temp/dataset/3/3_9.odb,Step-1,Increment      1: Step Time =    1.000,"PART-1-1",           343,  -243.313E-03,      -3.10192,            0.,NA,NA,"",   773.303E-03,  -342.463E-03,  -693.337E-03,   700.673E-06
C:/temp/dataset/3/3_9.odb,Step-1,Increment      1: Step Time =    1.000,"PART-1-1",           344,      -3.82017,      -3.74247,            0.,NA,NA,"",   927.386E-03,  -305.079E-03,  -875.770E-03,   364.548E-06
C:/temp/dataset/3/3_9.odb,Step-1,Increment      1: Step Time =    1.000,"PART-1-1",           345,      -2.71667,           -5.,            0.,NA,NA,"",   852.545E-03,  -241.505E-03,  -817.623E-03,   825.947E-06
C:/temp/dataset/3/3_9.odb,Step-1,Increment      1: Step Time =    1.000,"PART-1-1",           346,      -2.56530,      -2.73478,            0.,NA,NA,"",   888.772E-03,  -358.625E-03,  -813.206E-03,   654.613E-06
C:/temp/dataset/3/3_9.odb,Step-1,Increment      1: Step Time =    1.000,"PART-1-1",           347,      -13.8092,  -21.6491E-03,            0.,NA,NA,"",       1.47064,  -482.246E-03,      -1.38933,   646.276E-09
C:/temp/dataset/3/3_9.odb,Step-1,Increment      1: Step Time =    1.000,"PART-1-1",           348,      -12.6581,       1.21263,            0.,NA,NA,"",       1.44003,  -546.697E-03,      -1.33222,   3.27462E-06
C:/temp/dataset/3/3_9.odb,Step-1,Increment      1: Step Time =    1.000,"PART-1-1",           349,      -13.8489,       2.48428,            0.,NA,NA,"",       1.52219,  -610.012E-03,      -1.39461,   1.60718E-06
C:/temp/dataset/3/3_9.odb,Step-1,Increment      1: Step Time =    1.000,"PART-1-1",           350,          -15.,          1.25,            0.,NA,NA,"",       1.55084,  -545.556E-03,      -1.45172,   5.08426E-06
C:/temp/dataset/3/3_9.odb,Step-1,Increment      1: Step Time =    1.000,"PART-1-1",           351,      -8.84172,   345.754E-03,            0.,NA,NA,"",       1.24461,  -507.513E-03,      -1.13644,   73.6491E-06
C:/temp/dataset/3/3_9.odb,Step-1,Increment      1: Step Time =    1.000,"PART-1-1",           352,      -9.20019,  -788.270E-03,            0.,NA,NA,"",       1.23769,  -449.189E-03,      -1.15330,   54.0971E-06
C:/temp/dataset/3/3_9.odb,Step-1,Increment      1: Step Time =    1.000,"PART-1-1",           353,      -7.61937,      -1.21646,            0.,NA,NA,"",       1.15502,  -429.468E-03,      -1.07220,   126.146E-06
C:/temp/dataset/3/3_9.odb,Step-1,Increment      1: Step Time =    1.000,"PART-1-1",           354,      -7.26090,  -82.4387E-03,            0.,NA,NA,"",       1.16260,  -487.840E-03,      -1.05529,   135.511E-06
C:/temp/dataset/3/3_9.odb,Step-1,Increment      1: Step Time =    1.000,"PART-1-1",           355,      -12.7466,      -3.77621,            0.,NA,NA,"",       1.36196,  -292.170E-03,      -1.33026,   2.44683E-06
C:/temp/dataset/3/3_9.odb,Step-1,Increment      1: Step Time =    1.000,"PART-1-1",           356,      -13.8633,      -2.52621,            0.,NA,NA,"",       1.43334,  -354.453E-03,      -1.38882,   1.65874E-06
C:/temp/dataset/3/3_9.odb,Step-1,Increment      1: Step Time =    1.000,"PART-1-1",           357,          -15.,         -3.75,            0.,NA,NA,"",       1.47411,  -290.574E-03,      -1.44519,   1.56217E-06
C:/temp/dataset/3/3_9.odb,Step-1,Increment      1: Step Time =    1.000,"PART-1-1",           358,      -13.8833,           -5.,            0.,NA,NA,"",       1.40529,  -228.290E-03,      -1.38663,   1.34109E-06
C:/temp/dataset/3/3_9.odb,Step-1,Increment      1: Step Time =    1.000,"PART-1-1",           359,      -5.03830,      -2.71522,            0.,NA,NA,"",       1.00437,  -356.332E-03,  -939.037E-03,   338.772E-06
C:/temp/dataset/3/3_9.odb,Step-1,Increment      1: Step Time =    1.000,"PART-1-1",           360,      -4.43911,      -1.50749,            0.,NA,NA,"",       1.00186,  -419.159E-03,  -909.959E-03,   376.999E-06
C:/temp/dataset/3/3_9.odb,Step-1,Increment      1: Step Time =    1.000,"PART-1-1",           361,      -5.95808,  -763.119E-03,            0.,NA,NA,"",       1.08782,  -454.968E-03,  -988.105E-03,   262.113E-06
C:/temp/dataset/3/3_9.odb,Step-1,Increment      1: Step Time =    1.000,"PART-1-1",           362,      -6.55726,      -1.97085,            0.,NA,NA,"",       1.09026,  -392.382E-03,      -1.01721,   167.649E-06
C:/temp/dataset/3/3_9.odb,Step-1,Increment      1: Step Time =    1.000,"PART-1-1",           363,          6.25,          -30.,            0.,NA,NA,"",            0.,   373.770E-42,  -7.04687E-39,   3.70335E-03
C:/temp/dataset/3/3_9.odb,Step-1,Increment      1: Step Time =    1.000,"PART-1-1",           364,       7.47038,      -28.9473,            0.,NA,NA,"",   4.13249E-03,   2.04248E-03,  -3.59245E-03,   4.62735E-03
C:/temp/dataset/3/3_9.odb,Step-1,Increment      1: Step Time =    1.000,"PART-1-1",           365,       6.18647,      -27.8786,            0.,NA,NA,"",   7.83302E-03,   2.37020E-03,  -7.46581E-03,   4.63373E-03
C:/temp/dataset/3/3_9.odb,Step-1,Increment      1: Step Time =    1.000,"PART-1-1",           366,       4.96608,      -28.9312,            0.,NA,NA,"",   3.00547E-03,  -77.4272E-06,  -3.00447E-03,   3.65146E-03
C:/temp/dataset/3/3_9.odb,Step-1,Increment      1: Step Time =    1.000,"PART-1-1",           367,       3.70492,      -27.8047,            0.,NA,NA,"",   5.54186E-03,  -791.782E-06,  -5.48501E-03,   3.23941E-03
C:/temp/dataset/3/3_9.odb,Step-1,Increment      1: Step Time =    1.000,"PART-1-1",           368,       2.48883,      -28.8735,            0.,NA,NA,"",   2.39632E-03,  -1.29836E-03,  -2.01410E-03,   2.42063E-03
C:/temp/dataset/3/3_9.odb,Step-1,Increment      1: Step Time =    1.000,"PART-1-1",           369,          3.75,          -30.,            0.,NA,NA,"",            0.,  -756.471E-42,  -5.29195E-39,   2.83778E-03
C:/temp/dataset/3/3_9.odb,Step-1,Increment      1: Step Time =    1.000,"PART-1-1",           370,      -3.72203,      -27.5999,            0.,NA,NA,"",   803.718E-06,  -798.303E-06,  -93.1429E-06,   430.582E-06
C:/temp/dataset/3/3_9.odb,Step-1,Increment      1: Step Time =    1.000,"PART-1-1",           371,      -4.98725,      -28.7922,            0.,NA,NA,"",   388.339E-06,  -388.192E-06,  -10.6949E-06,   245.663E-06
C:/temp/dataset/3/3_9.odb,Step-1,Increment      1: Step Time =    1.000,"PART-1-1",           372,         -3.75,          -30.,            0.,NA,NA,"",            0.,  -457.822E-42,  -516.191E-42,   556.898E-06
C:/temp/dataset/3/3_9.odb,Step-1,Increment      1: Step Time =    1.000,"PART-1-1",           373,      -2.48478,      -28.8077,            0.,NA,NA,"",   990.037E-06,  -935.936E-06,  -322.798E-06,   625.460E-06
C:/temp/dataset/3/3_9.odb,Step-1,Increment      1: Step Time =    1.000,"PART-1-1",           374,      -13.7501,      -27.5099,            0.,NA,NA,"",   897.104E-06,   753.668E-06,   486.600E-06,   234.265E-06
C:/temp/dataset/3/3_9.odb,Step-1,Increment      1: Step Time =    1.000,"PART-1-1",           375,          -15.,        -28.75,            0.,NA,NA,"",   660.727E-06,   498.166E-06,   434.041E-06,   349.786E-06
C:/temp/dataset/3/3_9.odb,Step-1,Increment      1: Step Time =    1.000,"PART-1-1",           376,        -13.75,          -30.,            0.,NA,NA,"",            0.,   46.1027E-42,   419.086E-42,   326.820E-06
C:/temp/dataset/3/3_9.odb,Step-1,Increment      1: Step Time =    1.000,"PART-1-1",           377,      -12.5001,      -28.7599,            0.,NA,NA,"",   330.244E-06,   284.376E-06,   167.901E-06,   219.351E-06
C:/temp/dataset/3/3_9.odb,Step-1,Increment      1: Step Time =    1.000,"PART-1-1",           378,       8.15833,      -10.8587,            0.,NA,NA,"",   159.857E-03,  -63.1175E-03,  -146.868E-03,   12.1129E-03
C:/temp/dataset/3/3_9.odb,Step-1,Increment      1: Step Time =    1.000,"PART-1-1",           379,       9.00498,      -9.90697,            0.,NA,NA,"",   156.536E-03,  -80.9986E-03,  -133.950E-03,   9.61085E-03
C:/temp/dataset/3/3_9.odb,Step-1,Increment      1: Step Time =    1.000,"PART-1-1",           380,       8.08915,      -8.55627,            0.,NA,NA,"",   211.031E-03,  -119.034E-03,  -174.256E-03,   12.7208E-03
C:/temp/dataset/3/3_9.odb,Step-1,Increment      1: Step Time =    1.000,"PART-1-1",           381,       7.24249,      -9.50802,            0.,NA,NA,"",   211.947E-03,  -98.7315E-03,  -187.546E-03,   15.1068E-03
C:/temp/dataset/3/3_9.odb,Step-1,Increment      1: Step Time =    1.000,"PART-1-1",           382,       13.9816,      -2.51124,            0.,NA,NA,"",   350.045E-03,  -348.365E-03,   34.2542E-03,   5.36220E-03
C:/temp/dataset/3/3_9.odb,Step-1,Increment      1: Step Time =    1.000,"PART-1-1",           383,           15.,         -1.25,            0.,NA,NA,"",   421.669E-03,  -412.348E-03,   88.1731E-03,   8.10414E-03
C:/temp/dataset/3/3_9.odb,Step-1,Increment      1: Step Time =    1.000,"PART-1-1",           384,       13.8213,  -48.4001E-03,            0.,NA,NA,"",   468.575E-03,  -467.247E-03,   35.2491E-03,   5.08042E-03
C:/temp/dataset/3/3_9.odb,Step-1,Increment      1: Step Time =    1.000,"PART-1-1",           385,       12.8030,      -1.30964,            0.,NA,NA,"",   402.468E-03,  -402.052E-03,  -18.2938E-03,   2.24262E-03
C:/temp/dataset/3/3_9.odb,Step-1,Increment      1: Step Time =    1.000,"PART-1-1",           386,           15.,          1.25,            0.,NA,NA,"",   549.958E-03,  -540.154E-03,   103.379E-03,   9.09207E-03
C:/temp/dataset/3/3_9.odb,Step-1,Increment      1: Step Time =    1.000,"PART-1-1",           387,       13.5709,       2.55070,            0.,NA,NA,"",   605.205E-03,  -604.434E-03,   30.5269E-03,   5.93457E-03
C:/temp/dataset/3/3_9.odb,Step-1,Increment      1: Step Time =    1.000,"PART-1-1",           388,       12.3922,       1.25230,            0.,NA,NA,"",   532.041E-03,  -530.594E-03,  -39.2216E-03,   2.81845E-03
C:/temp/dataset/3/3_9.odb,Step-1,Increment      1: Step Time =    1.000,"PART-1-1",           389,      -5.00532,       26.2655,            0.,NA,NA,"",       3.95261,      -2.92077,      -2.66312,   508.933E-06
C:/temp/dataset/3/3_9.odb,Step-1,Increment      1: Step Time =    1.000,"PART-1-1",           390,      -3.75495,       25.0275,            0.,NA,NA,"",       3.69311,      -2.75117,      -2.46376,   571.357E-06
C:/temp/dataset/3/3_9.odb,Step-1,Increment      1: Step Time =    1.000,"PART-1-1",           391,      -2.50780,       26.2820,            0.,NA,NA,"",       3.73755,      -2.95207,      -2.29228,   612.136E-06
C:/temp/dataset/3/3_9.odb,Step-1,Increment      1: Step Time =    1.000,"PART-1-1",           392,      -3.75817,       27.5199,            0.,NA,NA,"",       3.99337,      -3.12097,      -2.49128,   691.673E-06
C:/temp/dataset/3/3_9.odb,Step-1,Increment      1: Step Time =    1.000,"PART-1-1",           393,      -5.00193,       23.7670,            0.,NA,NA,"",       3.66632,      -2.54871,      -2.63553,   481.826E-06
C:/temp/dataset/3/3_9.odb,Step-1,Increment      1: Step Time =    1.000,"PART-1-1",           394,      -6.25406,       25.0149,            0.,NA,NA,"",       3.92939,      -2.72042,      -2.83539,   439.245E-06
C:/temp/dataset/3/3_9.odb,Step-1,Increment      1: Step Time =    1.000,"PART-1-1",           395,      -7.50285,       23.7600,            0.,NA,NA,"",       3.92318,      -2.51926,      -3.00743,   238.717E-06
C:/temp/dataset/3/3_9.odb,Step-1,Increment      1: Step Time =    1.000,"PART-1-1",           396,      -6.25071,       22.5121,            0.,NA,NA,"",       3.65942,      -2.34726,      -2.80744,   384.083E-06
C:/temp/dataset/3/3_9.odb,Step-1,Increment      1: Step Time =    1.000,"PART-1-1",           397,      -12.5007,       23.7543,            0.,NA,NA,"",       4.48704,      -2.46245,      -3.75098,   21.0073E-06
C:/temp/dataset/3/3_9.odb,Step-1,Increment      1: Step Time =    1.000,"PART-1-1",           398,      -13.7507,       25.0026,            0.,NA,NA,"",       4.74860,      -2.63432,      -3.95090,   15.2865E-06
C:/temp/dataset/3/3_9.odb,Step-1,Increment      1: Step Time =    1.000,"PART-1-1",           399,          -15.,         23.75,            0.,NA,NA,"",       4.78774,      -2.43396,      -4.12290,   1.81921E-06
C:/temp/dataset/3/3_9.odb,Step-1,Increment      1: Step Time =    1.000,"PART-1-1",           400,       1.22659,       27.5580,            0.,NA,NA,"",       3.62975,      -3.17579,      -1.75767,   7.56309E-03
C:/temp/dataset/3/3_9.odb,Step-1,Increment      1: Step Time =    1.000,"PART-1-1",           401,       2.48534,       28.7828,            0.,NA,NA,"",       3.71987,      -3.36161,      -1.59281,   9.75298E-03
C:/temp/dataset/3/3_9.odb,Step-1,Increment      1: Step Time =    1.000,"PART-1-1",           402,          1.25,           30.,            0.,NA,NA,"",       3.96122,      -3.52922,      -1.79885,   7.91222E-03
C:/temp/dataset/3/3_9.odb,Step-1,Increment      1: Step Time =    1.000,"PART-1-1",           403,  -8.74824E-03,       28.7751,            0.,NA,NA,"",       3.87566,      -3.34468,      -1.95802,   5.00475E-03
C:/temp/dataset/3/3_9.odb,Step-1,Increment      1: Step Time =    1.000,"PART-1-1",           404,  -16.7069E-03,       26.3073,            0.,NA,NA,"",       3.54839,      -2.98212,      -1.92302,   3.46509E-03
C:/temp/dataset/3/3_9.odb,Step-1,Increment      1: Step Time =    1.000,"PART-1-1",           405,       2.46714,       26.3253,            0.,NA,NA,"",       3.38079,      -3.00488,      -1.54934,   9.44813E-03
C:/temp/dataset/3/3_9.odb,Step-1,Increment      1: Step Time =    1.000,"PART-1-1",           406,       3.70751,       22.5746,            0.,NA,NA,"",       2.78814,      -2.47327,      -1.28713,   12.1935E-03
C:/temp/dataset/3/3_9.odb,Step-1,Increment      1: Step Time =    1.000,"PART-1-1",           407,       2.48879,       21.2797,            0.,NA,NA,"",       2.69793,      -2.26455,      -1.46651,   4.21582E-03
C:/temp/dataset/3/3_9.odb,Step-1,Increment      1: Step Time =    1.000,"PART-1-1",           408,          3.75,           20.,            0.,NA,NA,"",       2.42731,      -2.08370,      -1.24501,   13.7400E-03
C:/temp/dataset/3/3_9.odb,Step-1,Increment      1: Step Time =    1.000,"PART-1-1",           409,       4.96872,       21.2949,            0.,NA,NA,"",       2.53110,      -2.30152,      -1.05331,   22.9983E-03
C:/temp/dataset/3/3_9.odb,Step-1,Increment      1: Step Time =    1.000,"PART-1-1",           410,       10.8479,       12.4309,            0.,NA,NA,"",       1.32755,      -1.31546,  -178.763E-03,   2.67747E-03
C:/temp/dataset/3/3_9.odb,Step-1,Increment      1: Step Time =    1.000,"PART-1-1",           411,       9.34812,       11.6387,            0.,NA,NA,"",       1.27833,      -1.23963,  -312.155E-03,   9.44242E-03
C:/temp/dataset/3/3_9.odb,Step-1,Increment      1: Step Time =    1.000,"PART-1-1",           412,       9.99050,       10.5520,            0.,NA,NA,"",       1.17035,      -1.14497,  -242.428E-03,   6.30589E-03
C:/temp/dataset/3/3_9.odb,Step-1,Increment      1: Step Time =    1.000,"PART-1-1",           413,       11.4903,       11.3442,            0.,NA,NA,"",       1.22409,      -1.21881,  -113.521E-03,   1.31440E-03
C:/temp/dataset/3/3_9.odb,Step-1,Increment      1: Step Time =    1.000,"PART-1-1",           414,       7.16850,       11.5014,            0.,NA,NA,"",       1.33353,      -1.23192,  -510.554E-03,   19.7839E-03
C:/temp/dataset/3/3_9.odb,Step-1,Increment      1: Step Time =    1.000,"PART-1-1",           415,       6.10343,       12.5850,            0.,NA,NA,"",       1.48011,      -1.33596,  -637.147E-03,   24.9603E-03
C:/temp/dataset/3/3_9.odb,Step-1,Increment      1: Step Time =    1.000,"PART-1-1",           416,            5.,         11.25,            0.,NA,NA,"",       1.41195,      -1.22528,  -701.621E-03,   29.8824E-03
C:/temp/dataset/3/3_9.odb,Step-1,Increment      1: Step Time =    1.000,"PART-1-1",           417,       6.06507,       10.1664,            0.,NA,NA,"",       1.26381,      -1.12422,  -577.360E-03,   24.8467E-03
C:/temp/dataset/3/3_9.odb,Step-1,Increment      1: Step Time =    1.000,"PART-1-1",           418,       14.0565,       5.06378,            0.,NA,NA,"",   760.147E-03,  -756.628E-03,   73.0537E-03,   9.48528E-03
C:/temp/dataset/3/3_9.odb,Step-1,Increment      1: Step Time =    1.000,"PART-1-1",           419,       12.6274,       3.86448,            0.,NA,NA,"",   676.548E-03,  -676.132E-03,  -23.7242E-03,   4.78860E-03
C:/temp/dataset/3/3_9.odb,Step-1,Increment      1: Step Time =    1.000,"PART-1-1",           420,           15.,          3.75,            0.,NA,NA,"",   692.585E-03,  -681.764E-03,   121.950E-03,   11.4545E-03
C:/temp/dataset/3/3_9.odb,Step-1,Increment      1: Step Time =    1.000,"PART-1-1",           421,       10.0280,       5.47301,            0.,NA,NA,"",   794.008E-03,  -768.229E-03,  -200.680E-03,   6.23076E-03
C:/temp/dataset/3/3_9.odb,Step-1,Increment      1: Step Time =    1.000,"PART-1-1",           422,       11.0614,       5.01383,            0.,NA,NA,"",   751.912E-03,  -740.979E-03,  -127.755E-03,   4.09636E-03
C:/temp/dataset/3/3_9.odb,Step-1,Increment      1: Step Time =    1.000,"PART-1-1",           423,       11.6033,       6.33570,            0.,NA,NA,"",   832.819E-03,  -827.630E-03,  -92.8177E-03,   3.39108E-03
C:/temp/dataset/3/3_9.odb,Step-1,Increment      1: Step Time =    1.000,"PART-1-1",           424,       10.5698,       6.79489,            0.,NA,NA,"",   872.475E-03,  -855.861E-03,  -169.453E-03,   4.22122E-03
C:/temp/dataset/3/3_9.odb,Step-1,Increment      1: Step Time =    1.000,"PART-1-1",           425,      -4.94418,       3.17107,            0.,NA,NA,"",       1.14725,  -656.599E-03,  -940.772E-03,   322.587E-06
C:/temp/dataset/3/3_9.odb,Step-1,Increment      1: Step Time =    1.000,"PART-1-1",           426,      -3.90803,       4.11594,            0.,NA,NA,"",       1.13505,  -705.715E-03,  -888.995E-03,   371.738E-06
C:/temp/dataset/3/3_9.odb,Step-1,Increment      1: Step Time =    1.000,"PART-1-1",           427,      -5.05000,            5.,            0.,NA,NA,"",       1.20904,  -749.544E-03,  -948.659E-03,   288.581E-06
C:/temp/dataset/3/3_9.odb,Step-1,Increment      1: Step Time =    1.000,"PART-1-1",           428,      -6.08615,       4.05513,            0.,NA,NA,"",       1.22102,  -700.140E-03,      -1.00035,   130.106E-06
C:/temp/dataset/3/3_9.odb,Step-1,Increment      1: Step Time =    1.000,"PART-1-1",           429,      -3.86135,       2.39128,            0.,NA,NA,"",       1.07929,  -618.560E-03,  -884.445E-03,   425.804E-06
C:/temp/dataset/3/3_9.odb,Step-1,Increment      1: Step Time =    1.000,"PART-1-1",           430,      -5.85027,       2.20434,            0.,NA,NA,"",       1.15745,  -606.299E-03,  -985.941E-03,   215.964E-06
C:/temp/dataset/3/3_9.odb,Step-1,Increment      1: Step Time =    1.000,"PART-1-1",           431,      -4.76744,       1.42454,            0.,NA,NA,"",       1.08963,  -568.260E-03,  -929.715E-03,   381.278E-06
C:/temp/dataset/3/3_9.odb,Step-1,Increment      1: Step Time =    1.000,"PART-1-1",           432,      -9.29397,       2.69508,            0.,NA,NA,"",       1.32066,  -626.703E-03,      -1.16249,   46.4547E-06
C:/temp/dataset/3/3_9.odb,Step-1,Increment      1: Step Time =    1.000,"PART-1-1",           433,      -8.28887,       3.92576,            0.,NA,NA,"",       1.30973,  -690.770E-03,      -1.11276,   39.5839E-06
C:/temp/dataset/3/3_9.odb,Step-1,Increment      1: Step Time =    1.000,"PART-1-1",           434,          -9.5,            5.,            0.,NA,NA,"",       1.39160,  -744.027E-03,      -1.17600,   11.2127E-06
C:/temp/dataset/3/3_9.odb,Step-1,Increment      1: Step Time =    1.000,"PART-1-1",           435,      -10.5051,       3.76932,            0.,NA,NA,"",       1.40165,  -679.920E-03,      -1.22570,   7.92536E-06
C:/temp/dataset/3/3_9.odb,Step-1,Increment      1: Step Time =    1.000,"PART-1-1",           436,      -7.92731,       1.84143,            0.,NA,NA,"",       1.23849,  -584.993E-03,      -1.09163,   87.0836E-06
C:/temp/dataset/3/3_9.odb,Step-1,Increment      1: Step Time =    1.000,"PART-1-1",           437,      -6.68589,       1.06488,            0.,NA,NA,"",       1.16392,  -547.141E-03,      -1.02730,   196.185E-06
C:/temp/dataset/3/3_9.odb,Step-1,Increment      1: Step Time =    1.000,"PART-1-1",           438,      -7.09169,       2.98089,            0.,NA,NA,"",       1.23215,  -644.149E-03,      -1.05036,   138.407E-06
C:/temp/dataset/3/3_9.odb,Step-1,Increment      1: Step Time =    1.000,"PART-1-1",           439,      -13.9000,            5.,            0.,NA,NA,"",       1.58318,  -738.280E-03,      -1.40050,   1.32933E-06
C:/temp/dataset/3/3_9.odb,Step-1,Increment      1: Step Time =    1.000,"PART-1-1",           440,          -15.,          3.75,            0.,NA,NA,"",       1.60312,  -673.082E-03,      -1.45498,   1.59149E-06
C:/temp/dataset/3/3_9.odb,Step-1,Increment      1: Step Time =    1.000,"PART-1-1",           441,      -12.7489,       3.73428,            0.,NA,NA,"",       1.50062,  -675.211E-03,      -1.34013,   2.34496E-06
C:/temp/dataset/3/3_9.odb,Step-1,Increment      1: Step Time =    1.000,"PART-1-1",           442,      -9.48823,      -2.88104,            0.,NA,NA,"",       1.21448,  -342.050E-03,      -1.16532,   38.3922E-06
C:/temp/dataset/3/3_9.odb,Step-1,Increment      1: Step Time =    1.000,"PART-1-1",           443,      -8.42388,      -2.23568,            0.,NA,NA,"",       1.17389,  -376.365E-03,      -1.11192,   64.4139E-06
C:/temp/dataset/3/3_9.odb,Step-1,Increment      1: Step Time =    1.000,"PART-1-1",           444,      -10.2645,      -1.43363,            0.,NA,NA,"",       1.27606,  -414.862E-03,      -1.20674,   24.1433E-06
C:/temp/dataset/3/3_9.odb,Step-1,Increment      1: Step Time =    1.000,"PART-1-1",           445,      -12.6725,      -1.29786,            0.,NA,NA,"",       1.39404,  -418.641E-03,      -1.32970,   3.16521E-06
C:/temp/dataset/3/3_9.odb,Step-1,Increment      1: Step Time =    1.000,"PART-1-1",           446,          -15.,         -1.25,            0.,NA,NA,"",       1.50758,  -418.054E-03,      -1.44845,   4.97884E-06
C:/temp/dataset/3/3_9.odb,Step-1,Increment      1: Step Time =    1.000,"PART-1-1",           447,      -6.16813,      -3.97275,            0.,NA,NA,"",       1.03642,  -290.576E-03,  -994.850E-03,   126.358E-06
C:/temp/dataset/3/3_9.odb,Step-1,Increment      1: Step Time =    1.000,"PART-1-1",           448,      -4.95000,           -5.,            0.,NA,NA,"",   961.795E-03,  -239.594E-03,  -931.474E-03,   305.622E-06
C:/temp/dataset/3/3_9.odb,Step-1,Increment      1: Step Time =    1.000,"PART-1-1",           449,       1.59412,  -355.999E-03,            0.,NA,NA,"",   775.948E-03,  -488.488E-03,  -602.889E-03,   2.02168E-03
C:/temp/dataset/3/3_9.odb,Step-1,Increment      1: Step Time =    1.000,"PART-1-1",           450,       2.17826,      -1.53992,            0.,NA,NA,"",   711.034E-03,  -428.024E-03,  -567.773E-03,   3.58982E-03
C:/temp/dataset/3/3_9.odb,Step-1,Increment      1: Step Time =    1.000,"PART-1-1",           451,       2.86763,   426.804E-03,            0.,NA,NA,"",   755.995E-03,  -527.872E-03,  -541.185E-03,   5.78669E-03
C:/temp/dataset/3/3_9.odb,Step-1,Increment      1: Step Time =    1.000,"PART-1-1",           452,  -387.277E-03,   5.26357E-03,            0.,NA,NA,"",   866.677E-03,  -504.052E-03,  -705.025E-03,   705.818E-06
C:/temp/dataset/3/3_9.odb,Step-1,Increment      1: Step Time =    1.000,"PART-1-1",           453,   283.611E-03,      -1.19839,            0.,NA,NA,"",   802.439E-03,  -443.362E-03,  -668.833E-03,   788.882E-06
C:/temp/dataset/3/3_9.odb,Step-1,Increment      1: Step Time =    1.000,"PART-1-1",           454,   923.228E-03,   847.652E-03,            0.,NA,NA,"",   843.147E-03,  -548.862E-03,  -640.037E-03,   1.33436E-03
C:/temp/dataset/3/3_9.odb,Step-1,Increment      1: Step Time =    1.000,"PART-1-1",           455,       6.35531,      -13.1332,            0.,NA,NA,"",   158.916E-03,  -32.5586E-03,  -155.545E-03,   16.5958E-03
C:/temp/dataset/3/3_9.odb,Step-1,Increment      1: Step Time =    1.000,"PART-1-1",           456,       7.49455,      -12.2656,            0.,NA,NA,"",   150.849E-03,  -39.4575E-03,  -145.597E-03,   13.7813E-03
C:/temp/dataset/3/3_9.odb,Step-1,Increment      1: Step Time =    1.000,"PART-1-1",           457,       6.13925,      -10.3824,            0.,NA,NA,"",   220.977E-03,  -86.4160E-03,  -203.379E-03,   18.3872E-03
C:/temp/dataset/3/3_9.odb,Step-1,Increment      1: Step Time =    1.000,"PART-1-1",           458,            5.,        -11.25,            0.,NA,NA,"",   227.735E-03,  -77.7161E-03,  -214.064E-03,   21.2044E-03
C:/temp/dataset/3/3_9.odb,Step-1,Increment      1: Step Time =    1.000,"PART-1-1",           459,       13.3376,      -16.9670,            0.,NA,NA,"",   42.7394E-03,   29.8894E-03,  -30.5496E-03,   1.88805E-03
C:/temp/dataset/3/3_9.odb,Step-1,Increment      1: Step Time =    1.000,"PART-1-1",           460,       11.8219,      -18.0071,            0.,NA,NA,"",   55.8252E-03,   35.0591E-03,  -43.4432E-03,   4.05861E-03
C:/temp/dataset/3/3_9.odb,Step-1,Increment      1: Step Time =    1.000,"PART-1-1",           461,           15.,        -18.75,            0.,NA,NA,"",   43.6246E-03,   36.8478E-03,  -23.3525E-03,   3.30390E-03
C:/temp/dataset/3/3_9.odb,Step-1,Increment      1: Step Time =    1.000,"PART-1-1",           462,       8.42876,      -15.2973,            0.,NA,NA,"",   96.9552E-03,   7.61930E-03,  -96.6554E-03,   10.5544E-03
C:/temp/dataset/3/3_9.odb,Step-1,Increment      1: Step Time =    1.000,"PART-1-1",           463,       10.4111,      -16.6310,            0.,NA,NA,"",   67.3365E-03,   25.5953E-03,  -62.2823E-03,   5.74553E-03
C:/temp/dataset/3/3_9.odb,Step-1,Increment      1: Step Time =    1.000,"PART-1-1",           464,       10.7289,      -14.9294,            0.,NA,NA,"",   66.6154E-03,   10.7006E-03,  -65.7503E-03,   5.33682E-03
C:/temp/dataset/3/3_9.odb,Step-1,Increment      1: Step Time =    1.000,"PART-1-1",           465,       8.74656,      -13.5956,            0.,NA,NA,"",   107.852E-03,  -11.9706E-03,  -107.185E-03,   10.0635E-03
C:/temp/dataset/3/3_9.odb,Step-1,Increment      1: Step Time =    1.000,"PART-1-1",           466,      -8.72016,      -22.5745,            0.,NA,NA,"",   2.64604E-03,   2.52672E-03,   785.620E-06,   359.231E-06
C:/temp/dataset/3/3_9.odb,Step-1,Increment      1: Step Time =    1.000,"PART-1-1",           467,      -7.48342,      -21.2909,            0.,NA,NA,"",   3.38698E-03,   3.31133E-03,   711.812E-06,   371.240E-06
C:/temp/dataset/3/3_9.odb,Step-1,Increment      1: Step Time =    1.000,"PART-1-1",           468,         -8.75,          -20.,            0.,NA,NA,"",   3.30870E-03,   3.25680E-03,   583.747E-06,   284.350E-06
C:/temp/dataset/3/3_9.odb,Step-1,Increment      1: Step Time =    1.000,"PART-1-1",           469,      -9.98674,      -21.2836,            0.,NA,NA,"",   2.92144E-03,   2.83126E-03,   720.253E-06,   185.744E-06
C:/temp/dataset/3/3_9.odb,Step-1,Increment      1: Step Time =    1.000,"PART-1-1",           470,      -4.96670,      -26.3491,            0.,NA,NA,"",   324.168E-06,  -3.92879E-06,   324.144E-06,   382.775E-06
C:/temp/dataset/3/3_9.odb,Step-1,Increment      1: Step Time =    1.000,"PART-1-1",           471,      -6.21541,      -25.0985,            0.,NA,NA,"",   1.19936E-03,   1.00295E-03,   657.676E-06,   453.825E-06
C:/temp/dataset/3/3_9.odb,Step-1,Increment      1: Step Time =    1.000,"PART-1-1",           472,      -7.47738,      -26.3212,            0.,NA,NA,"",   751.251E-06,   577.185E-06,   480.870E-06,   338.321E-06
C:/temp/dataset/3/3_9.odb,Step-1,Increment      1: Step Time =    1.000,"PART-1-1",           473,      -6.22867,      -27.5719,            0.,NA,NA,"",   241.061E-06,  -78.9938E-06,   227.751E-06,   303.352E-06
C:/temp/dataset/3/3_9.odb,Step-1,Increment      1: Step Time =    1.000,"PART-1-1",           474,   49.7896E-03,      -26.4387,            0.,NA,NA,"",   3.24360E-03,  -1.64660E-03,  -2.79457E-03,   1.03377E-03
C:/temp/dataset/3/3_9.odb,Step-1,Increment      1: Step Time =    1.000,"PART-1-1",           475,       1.24862,      -27.7048,            0.,NA,NA,"",   3.57665E-03,  -1.97552E-03,  -2.98156E-03,   1.77198E-03
C:/temp/dataset/3/3_9.odb,Step-1,Increment      1: Step Time =    1.000,"PART-1-1",           476,       2.52056,      -26.5649,            0.,NA,NA,"",   6.92829E-03,  -1.20350E-03,  -6.82296E-03,   2.62627E-03
C:/temp/dataset/3/3_9.odb,Step-1,Increment      1: Step Time =    1.000,"PART-1-1",           477,       1.32172,      -25.2988,            0.,NA,NA,"",   6.23607E-03,  -685.860E-06,  -6.19824E-03,   1.73696E-03
C:/temp/dataset/3/3_9.odb,Step-1,Increment      1: Step Time =    1.000,"PART-1-1",           478,        -13.75,          -20.,            0.,NA,NA,"",   3.07170E-03,   2.88097E-03,   1.06553E-03,   8.22628E-06
C:/temp/dataset/3/3_9.odb,Step-1,Increment      1: Step Time =    1.000,"PART-1-1",           479,          -15.,        -21.25,            0.,NA,NA,"",   2.94654E-03,   2.64218E-03,   1.30423E-03,   9.10203E-06
C:/temp/dataset/3/3_9.odb,Step-1,Increment      1: Step Time =    1.000,"PART-1-1",           480,      -13.7430,      -22.5153,            0.,NA,NA,"",   2.56879E-03,   2.34920E-03,   1.03921E-03,   64.3202E-06
C:/temp/dataset/3/3_9.odb,Step-1,Increment      1: Step Time =    1.000,"PART-1-1",           481,      -12.4930,      -21.2653,            0.,NA,NA,"",   2.80024E-03,   2.66004E-03,   874.929E-06,   63.1249E-06
C:/temp/dataset/3/3_9.odb,Step-1,Increment      1: Step Time =    1.000,"PART-1-1",           482,      -11.2297,      -22.5489,            0.,NA,NA,"",   2.49121E-03,   2.36781E-03,   774.356E-06,   199.930E-06
C:/temp/dataset/3/3_9.odb,Step-1,Increment      1: Step Time =    1.000,"PART-1-1",           483,        -11.25,          -20.,            0.,NA,NA,"",   3.00873E-03,   2.91910E-03,   728.875E-06,   84.0099E-06
C:/temp/dataset/3/3_9.odb,Step-1,Increment      1: Step Time =    1.000,"PART-1-1",           484,      -13.7448,      -25.0201,            0.,NA,NA,"",   1.82020E-03,   1.59714E-03,   873.091E-06,   149.611E-06
C:/temp/dataset/3/3_9.odb,Step-1,Increment      1: Step Time =    1.000,"PART-1-1",           485,      -12.4878,      -23.7854,            0.,NA,NA,"",   2.11367E-03,   1.95404E-03,   805.811E-06,   169.300E-06
C:/temp/dataset/3/3_9.odb,Step-1,Increment      1: Step Time =    1.000,"PART-1-1",           486,          -15.,        -23.75,            0.,NA,NA,"",   2.39416E-03,   2.03279E-03,   1.26482E-03,   61.7149E-06
C:/temp/dataset/3/3_9.odb,Step-1,Increment      1: Step Time =    1.000,"PART-1-1",           487,       13.7335,      -27.5520,            0.,NA,NA,"",   19.5022E-03,   15.9884E-03,  -11.1672E-03,   5.36349E-03
C:/temp/dataset/3/3_9.odb,Step-1,Increment      1: Step Time =    1.000,"PART-1-1",           488,       12.4835,      -28.8020,            0.,NA,NA,"",   7.83455E-03,   6.50091E-03,  -4.37245E-03,   5.59992E-03
C:/temp/dataset/3/3_9.odb,Step-1,Increment      1: Step Time =    1.000,"PART-1-1",           489,         13.75,          -30.,            0.,NA,NA,"",            0.,   1.57447E-39,  -9.93972E-39,   7.83156E-03
C:/temp/dataset/3/3_9.odb,Step-1,Increment      1: Step Time =    1.000,"PART-1-1",           490,           15.,        -28.75,            0.,NA,NA,"",   14.7494E-03,   11.3767E-03,  -9.38694E-03,   7.56440E-03
C:/temp/dataset/3/3_9.odb,Step-1,Increment      1: Step Time =    1.000,"PART-1-1",           491,       9.98010,      -28.8907,            0.,NA,NA,"",   5.91100E-03,   4.43101E-03,  -3.91230E-03,   5.17222E-03
C:/temp/dataset/3/3_9.odb,Step-1,Increment      1: Step Time =    1.000,"PART-1-1",           492,       8.70049,      -27.8380,            0.,NA,NA,"",   10.6600E-03,   6.70694E-03,  -8.28568E-03,   5.43470E-03
C:/temp/dataset/3/3_9.odb,Step-1,Increment      1: Step Time =    1.000,"PART-1-1",           493,          8.75,          -30.,            0.,NA,NA,"",            0.,   1.78632E-39,  -7.80285E-39,   4.49538E-03
C:/temp/dataset/3/3_9.odb,Step-1,Increment      1: Step Time =    1.000,"PART-1-1",           494,       11.2136,      -27.6927,            0.,NA,NA,"",   14.2241E-03,   11.3651E-03,  -8.55336E-03,   5.87235E-03
C:/temp/dataset/3/3_9.odb,Step-1,Increment      1: Step Time =    1.000,"PART-1-1",           495,       12.3768,      -26.3916,            0.,NA,NA,"",   24.8184E-03,   20.0886E-03,  -14.5740E-03,   5.75894E-03
C:/temp/dataset/3/3_9.odb,Step-1,Increment      1: Step Time =    1.000,"PART-1-1",           496,       11.0556,      -25.4315,            0.,NA,NA,"",   28.9620E-03,   21.9058E-03,  -18.9455E-03,   6.22641E-03
C:/temp/dataset/3/3_9.odb,Step-1,Increment      1: Step Time =    1.000,"PART-1-1",           497,       9.89242,      -26.7326,            0.,NA,NA,"",   18.7960E-03,   13.3465E-03,  -13.2348E-03,   6.31788E-03
C:/temp/dataset/3/3_9.odb,Step-1,Increment      1: Step Time =    1.000,"PART-1-1",           498,   9.79186E-03,      -28.8313,            0.,NA,NA,"",   1.73594E-03,  -1.42522E-03,  -991.071E-06,   1.34339E-03
C:/temp/dataset/3/3_9.odb,Step-1,Increment      1: Step Time =    1.000,"PART-1-1",           499,          1.25,          -30.,            0.,NA,NA,"",            0.,  -1.08824E-39,  -3.18093E-39,   1.96042E-03
C:/temp/dataset/3/3_9.odb,Step-1,Increment      1: Step Time =    1.000,"PART-1-1",           500,      -1.18061,      -25.1833,            0.,NA,NA,"",   1.73676E-03,  -311.603E-06,  -1.70858E-03,   534.132E-06
C:/temp/dataset/3/3_9.odb,Step-1,Increment      1: Step Time =    1.000,"PART-1-1",           501,      -2.45538,      -26.3836,            0.,NA,NA,"",   1.00875E-03,  -867.080E-06,  -515.514E-06,   466.956E-06
C:/temp/dataset/3/3_9.odb,Step-1,Increment      1: Step Time =    1.000,"PART-1-1",           502,      -1.22498,      -27.6390,            0.,NA,NA,"",   1.93716E-03,  -1.62615E-03,  -1.05272E-03,   825.698E-06
C:/temp/dataset/3/3_9.odb,Step-1,Increment      1: Step Time =    1.000,"PART-1-1",           503,      -3.70005,      -25.1329,            0.,NA,NA,"",   504.899E-06,   469.937E-06,   184.615E-06,   458.692E-06
C:/temp/dataset/3/3_9.odb,Step-1,Increment      1: Step Time =    1.000,"PART-1-1",           504,      -7.49141,      -28.7797,            0.,NA,NA,"",   95.3166E-06,  -7.04293E-06,   95.0561E-06,   147.542E-06
C:/temp/dataset/3/3_9.odb,Step-1,Increment      1: Step Time =    1.000,"PART-1-1",           505,         -6.25,          -30.,            0.,NA,NA,"",            0.,  -145.253E-42,  -45.8155E-42,   179.392E-06
C:/temp/dataset/3/3_9.odb,Step-1,Increment      1: Step Time =    1.000,"PART-1-1",           506,      -12.4949,      -26.2800,            0.,NA,NA,"",   1.21376E-03,   1.08441E-03,   545.218E-06,   231.268E-06
C:/temp/dataset/3/3_9.odb,Step-1,Increment      1: Step Time =    1.000,"PART-1-1",           507,          -15.,        -26.25,            0.,NA,NA,"",   1.64674E-03,   1.28744E-03,   1.02677E-03,   181.162E-06
C:/temp/dataset/3/3_9.odb,Step-1,Increment      1: Step Time =    1.000,"PART-1-1",           508,       12.0036,      -23.8365,            0.,NA,NA,"",   39.8243E-03,   30.9339E-03,  -25.0812E-03,   5.63025E-03
C:/temp/dataset/3/3_9.odb,Step-1,Increment      1: Step Time =    1.000,"PART-1-1",           509,       13.6432,      -25.0896,            0.,NA,NA,"",   35.7067E-03,   28.8529E-03,  -21.0351E-03,   3.96252E-03
C:/temp/dataset/3/3_9.odb,Step-1,Increment      1: Step Time =    1.000,"PART-1-1",           510,           15.,        -23.75,            0.,NA,NA,"",   44.5932E-03,   35.3452E-03,  -27.1895E-03,   1.53109E-03
C:/temp/dataset/3/3_9.odb,Step-1,Increment      1: Step Time =    1.000,"PART-1-1",           511,         11.25,          -30.,            0.,NA,NA,"",            0.,   2.95478E-39,  -8.18736E-39,   4.99337E-03
C:/temp/dataset/3/3_9.odb,Step-1,Increment      1: Step Time =    1.000,"PART-1-1",           512,       13.9281,      -14.6298,            0.,NA,NA,"",   20.6126E-03,   7.47777E-03,  -19.2084E-03,   3.64050E-03
C:/temp/dataset/3/3_9.odb,Step-1,Increment      1: Step Time =    1.000,"PART-1-1",           513,       12.2657,      -15.3468,            0.,NA,NA,"",   45.8192E-03,   16.5928E-03,  -42.7092E-03,   2.42457E-03
C:/temp/dataset/3/3_9.odb,Step-1,Increment      1: Step Time =    1.000,"PART-1-1",           514,           15.,        -16.25,            0.,NA,NA,"",   25.9042E-03,   22.0221E-03,  -13.6402E-03,   5.32394E-03
C:/temp/dataset/3/3_9.odb,Step-1,Increment      1: Step Time =    1.000,"PART-1-1",           515,       7.13425,      -14.5121,            0.,NA,NA,"",   124.097E-03,  -8.21469E-03,  -123.825E-03,   14.1878E-03
C:/temp/dataset/3/3_9.odb,Step-1,Increment      1: Step Time =    1.000,"PART-1-1",           516,       6.81531,      -16.2905,            0.,NA,NA,"",   105.480E-03,   8.97551E-03,  -105.098E-03,   14.2495E-03
C:/temp/dataset/3/3_9.odb,Step-1,Increment      1: Step Time =    1.000,"PART-1-1",           517,       8.10983,      -17.0757,            0.,NA,NA,"",   86.4704E-03,   21.4534E-03,  -83.7668E-03,   10.5768E-03
C:/temp/dataset/3/3_9.odb,Step-1,Increment      1: Step Time =    1.000,"PART-1-1",           518,       13.8641,      -7.41825,            0.,NA,NA,"",   152.050E-03,  -151.802E-03,   8.66848E-03,   5.75461E-03
C:/temp/dataset/3/3_9.odb,Step-1,Increment      1: Step Time =    1.000,"PART-1-1",           519,       13.0286,      -8.63342,            0.,NA,NA,"",   114.181E-03,  -112.119E-03,  -21.6032E-03,   3.03473E-03
C:/temp/dataset/3/3_9.odb,Step-1,Increment      1: Step Time =    1.000,"PART-1-1",           520,       14.1645,      -9.96517,            0.,NA,NA,"",   79.2132E-03,  -79.0585E-03,   4.94724E-03,   6.16905E-03
C:/temp/dataset/3/3_9.odb,Step-1,Increment      1: Step Time =    1.000,"PART-1-1",           521,           15.,         -8.75,            0.,NA,NA,"",   120.320E-03,  -114.997E-03,   35.3944E-03,   9.00499E-03
C:/temp/dataset/3/3_9.odb,Step-1,Increment      1: Step Time =    1.000,"PART-1-1",           522,       12.0251,      -10.9831,            0.,NA,NA,"",   72.3999E-03,  -51.8559E-03,  -50.5244E-03,   1.75824E-03
C:/temp/dataset/3/3_9.odb,Step-1,Increment      1: Step Time =    1.000,"PART-1-1",           523,       12.8055,      -11.9581,            0.,NA,NA,"",   46.3755E-03,  -32.5641E-03,  -33.0192E-03,   2.04096E-03
C:/temp/dataset/3/3_9.odb,Step-1,Increment      1: Step Time =    1.000,"PART-1-1",           524,       13.3751,      -11.0455,            0.,NA,NA,"",   55.1303E-03,  -51.9023E-03,  -18.5874E-03,   3.51317E-03
C:/temp/dataset/3/3_9.odb,Step-1,Increment      1: Step Time =    1.000,"PART-1-1",           525,       12.5947,      -10.0706,            0.,NA,NA,"",   81.6198E-03,  -73.2164E-03,  -36.0716E-03,   1.88341E-03
C:/temp/dataset/3/3_9.odb,Step-1,Increment      1: Step Time =    1.000,"PART-1-1",           526,       11.4853,  -434.223E-03,            0.,NA,NA,"",   452.074E-03,  -443.974E-03,  -85.1930E-03,   2.54606E-03
C:/temp/dataset/3/3_9.odb,Step-1,Increment      1: Step Time =    1.000,"PART-1-1",           527,       10.5886,      -1.82652,            0.,NA,NA,"",   396.949E-03,  -377.139E-03,  -123.833E-03,   4.76481E-03
C:/temp/dataset/3/3_9.odb,Step-1,Increment      1: Step Time =    1.000,"PART-1-1",           528,       11.9063,      -2.70193,            0.,NA,NA,"",   340.685E-03,  -335.407E-03,  -59.7377E-03,   854.890E-06
C:/temp/dataset/3/3_9.odb,Step-1,Increment      1: Step Time =    1.000,"PART-1-1",           529,       14.1300,       7.44597,            0.,NA,NA,"",   924.560E-03,  -919.682E-03,   94.8501E-03,   11.4848E-03
C:/temp/dataset/3/3_9.odb,Step-1,Increment      1: Step Time =    1.000,"PART-1-1",           530,       13.1865,       6.25975,            0.,NA,NA,"",   830.110E-03,  -829.866E-03,   20.1383E-03,   7.23272E-03
C:/temp/dataset/3/3_9.odb,Step-1,Increment      1: Step Time =    1.000,"PART-1-1",           531,           15.,          6.25,            0.,NA,NA,"",   854.578E-03,  -842.109E-03,   145.454E-03,   14.0290E-03
C:/temp/dataset/3/3_9.odb,Step-1,Increment      1: Step Time =    1.000,"PART-1-1",           532,       12.4155,       5.33720,            0.,NA,NA,"",   766.312E-03,  -765.479E-03,  -35.7143E-03,   4.77991E-03
C:/temp/dataset/3/3_9.odb,Step-1,Increment      1: Step Time =    1.000,"PART-1-1",           533,       11.2733,       3.54111,            0.,NA,NA,"",   663.146E-03,  -654.012E-03,  -109.686E-03,   4.37203E-03
C:/temp/dataset/3/3_9.odb,Step-1,Increment      1: Step Time =    1.000,"PART-1-1",           534,       12.2480,       13.5548,            0.,NA,NA,"",       1.43256,      -1.43182,  -46.1301E-03,   4.37901E-03
C:/temp/dataset/3/3_9.odb,Step-1,Increment      1: Step Time =    1.000,"PART-1-1",           535,           15.,         13.75,            0.,NA,NA,"",       1.49677,      -1.47910,   229.366E-03,   17.6839E-03
C:/temp/dataset/3/3_9.odb,Step-1,Increment      1: Step Time =    1.000,"PART-1-1",           536,       13.6600,       14.9734,            0.,NA,NA,"",       1.59430,      -1.59109,   101.219E-03,   11.3287E-03
C:/temp/dataset/3/3_9.odb,Step-1,Increment      1: Step Time =    1.000,"PART-1-1",           537,       8.15326,       10.4556,            0.,NA,NA,"",       1.20679,      -1.13778,  -402.239E-03,   14.9928E-03
C:/temp/dataset/3/3_9.odb,Step-1,Increment      1: Step Time =    1.000,"PART-1-1",           538,       12.3824,       21.2920,            0.,NA,NA,"",       2.34993,      -2.34935,  -52.1012E-03,   6.46882E-03
C:/temp/dataset/3/3_9.odb,Step-1,Increment      1: Step Time =    1.000,"PART-1-1",           539,       13.6892,       20.0188,            0.,NA,NA,"",       2.19692,      -2.19378,   117.562E-03,   10.0982E-03
C:/temp/dataset/3/3_9.odb,Step-1,Increment      1: Step Time =    1.000,"PART-1-1",           540,           15.,         21.25,            0.,NA,NA,"",       2.39379,      -2.37629,   288.950E-03,   12.9512E-03
C:/temp/dataset/3/3_9.odb,Step-1,Increment      1: Step Time =    1.000,"PART-1-1",           541,       13.6932,       22.5232,            0.,NA,NA,"",       2.53715,      -2.53460,   113.595E-03,   7.69896E-03
C:/temp/dataset/3/3_9.odb,Step-1,Increment      1: Step Time =    1.000,"PART-1-1",           542,       9.77662,       16.3041,            0.,NA,NA,"",       1.73802,      -1.70714,  -326.186E-03,   6.48425E-03
C:/temp/dataset/3/3_9.odb,Step-1,Increment      1: Step Time =    1.000,"PART-1-1",           543,       11.0318,       15.0036,            0.,NA,NA,"",       1.58255,      -1.57261,  -177.106E-03,   1.35281E-03
C:/temp/dataset/3/3_9.odb,Step-1,Increment      1: Step Time =    1.000,"PART-1-1",           544,       12.3430,       16.2301,            0.,NA,NA,"",       1.71655,      -1.71609,  -39.7505E-03,   5.11319E-03
C:/temp/dataset/3/3_9.odb,Step-1,Increment      1: Step Time =    1.000,"PART-1-1",           545,         13.75,           30.,            0.,NA,NA,"",       3.61377,      -3.61323,   62.2308E-03,   593.685E-06
C:/temp/dataset/3/3_9.odb,Step-1,Increment      1: Step Time =    1.000,"PART-1-1",           546,       12.4862,       28.7548,            0.,NA,NA,"",       3.42454,      -3.42297,  -103.783E-03,   2.69026E-03
C:/temp/dataset/3/3_9.odb,Step-1,Increment      1: Step Time =    1.000,"PART-1-1",           547,           15.,         28.75,            0.,NA,NA,"",       3.45629,      -3.44697,   253.609E-03,   591.357E-06
C:/temp/dataset/3/3_9.odb,Step-1,Increment      1: Step Time =    1.000,"PART-1-1",           548,       12.4064,       23.7898,            0.,NA,NA,"",       2.70092,      -2.70010,  -66.4463E-03,   6.35247E-03
C:/temp/dataset/3/3_9.odb,Step-1,Increment      1: Step Time =    1.000,"PART-1-1",           549,           15.,         23.75,            0.,NA,NA,"",       2.74050,      -2.72520,   289.136E-03,   8.40335E-03
C:/temp/dataset/3/3_9.odb,Step-1,Increment      1: Step Time =    1.000,"PART-1-1",           550,       9.91541,       26.3072,            0.,NA,NA,"",       3.07497,      -3.04383,  -436.485E-03,   5.04354E-03
C:/temp/dataset/3/3_9.odb,Step-1,Increment      1: Step Time =    1.000,"PART-1-1",           551,       11.1537,       25.0565,            0.,NA,NA,"",       2.88222,      -2.87146,  -248.872E-03,   5.55540E-03
C:/temp/dataset/3/3_9.odb,Step-1,Increment      1: Step Time =    1.000,"PART-1-1",           552,       11.2110,       27.5221,            0.,NA,NA,"",       3.24363,      -3.23244,  -269.217E-03,   4.43420E-03
C:/temp/dataset/3/3_9.odb,Step-1,Increment      1: Step Time =    1.000,"PART-1-1",           553,       8.69233,       27.5515,            0.,NA,NA,"",       3.27791,      -3.21677,  -630.111E-03,   4.34023E-03
C:/temp/dataset/3/3_9.odb,Step-1,Increment      1: Step Time =    1.000,"PART-1-1",           554,       7.41297,       26.3376,            0.,NA,NA,"",       3.13545,      -3.03204,  -798.619E-03,   9.10885E-03
C:/temp/dataset/3/3_9.odb,Step-1,Increment      1: Step Time =    1.000,"PART-1-1",           555,       8.63604,       25.0933,            0.,NA,NA,"",       2.92075,      -2.85858,  -599.428E-03,   7.46647E-03
C:/temp/dataset/3/3_9.odb,Step-1,Increment      1: Step Time =    1.000,"PART-1-1",           556,      -1.26375,       27.5391,            0.,NA,NA,"",       3.80007,      -3.15132,      -2.12361,   1.83590E-03
C:/temp/dataset/3/3_9.odb,Step-1,Increment      1: Step Time =    1.000,"PART-1-1",           557,         -1.25,           30.,            0.,NA,NA,"",       4.11548,      -3.50973,      -2.14919,   2.17598E-03
C:/temp/dataset/3/3_9.odb,Step-1,Increment      1: Step Time =    1.000,"PART-1-1",           558,      -2.50500,       28.7640,            0.,NA,NA,"",       4.04800,      -3.31764,      -2.31938,   1.08920E-03
C:/temp/dataset/3/3_9.odb,Step-1,Increment      1: Step Time =    1.000,"PART-1-1",           559,      -7.50143,       28.7522,            0.,NA,NA,"",       4.47397,      -3.26192,      -3.06207,   181.222E-06
C:/temp/dataset/3/3_9.odb,Step-1,Increment      1: Step Time =    1.000,"PART-1-1",           560,         -8.75,           30.,            0.,NA,NA,"",       4.73622,      -3.43382,      -3.26201,   120.641E-06
C:/temp/dataset/3/3_9.odb,Step-1,Increment      1: Step Time =    1.000,"PART-1-1",           561,      -6.25460,       27.5081,            0.,NA,NA,"",       4.21292,      -3.09101,      -2.86258,   414.280E-06
C:/temp/dataset/3/3_9.odb,Step-1,Increment      1: Step Time =    1.000,"PART-1-1",           562,        -13.75,           30.,            0.,NA,NA,"",       5.24058,      -3.37818,      -4.00644,   935.238E-09
C:/temp/dataset/3/3_9.odb,Step-1,Increment      1: Step Time =    1.000,"PART-1-1",           563,          -15.,         28.75,            0.,NA,NA,"",       5.24990,      -3.17818,      -4.17859,   2.09892E-06
C:/temp/dataset/3/3_9.odb,Step-1,Increment      1: Step Time =    1.000,"PART-1-1",           564,      -13.7509,       27.5010,            0.,NA,NA,"",       4.98674,      -3.00618,      -3.97875,   9.45151E-06
C:/temp/dataset/3/3_9.odb,Step-1,Increment      1: Step Time =    1.000,"PART-1-1",           565,          -15.,         26.25,            0.,NA,NA,"",       5.01025,      -2.80606,      -4.15074,   1.59380E-06
C:/temp/dataset/3/3_9.odb,Step-1,Increment      1: Step Time =    1.000,"PART-1-1",           566,      -12.5016,       26.2536,            0.,NA,NA,"",       4.72378,      -2.83444,      -3.77890,   20.9553E-06
C:/temp/dataset/3/3_9.odb,Step-1,Increment      1: Step Time =    1.000,"PART-1-1",           567,      -7.50093,       21.2547,            0.,NA,NA,"",       3.67169,      -2.14589,      -2.97934,   167.441E-06
C:/temp/dataset/3/3_9.odb,Step-1,Increment      1: Step Time =    1.000,"PART-1-1",           568,         -6.25,           20.,            0.,NA,NA,"",       3.40810,      -1.97272,      -2.77912,   407.929E-06
C:/temp/dataset/3/3_9.odb,Step-1,Increment      1: Step Time =    1.000,"PART-1-1",           569,      -4.99978,       21.2574,            0.,NA,NA,"",       3.39452,      -2.17370,      -2.60725,   429.873E-06
C:/temp/dataset/3/3_9.odb,Step-1,Increment      1: Step Time =    1.000,"PART-1-1",           570,      -3.74911,       22.5208,            0.,NA,NA,"",       3.40270,      -2.37660,      -2.43519,   523.820E-06
C:/temp/dataset/3/3_9.odb,Step-1,Increment      1: Step Time =    1.000,"PART-1-1",           571,         -3.75,           20.,            0.,NA,NA,"",       3.12854,      -1.99918,      -2.40646,   931.247E-06
C:/temp/dataset/3/3_9.odb,Step-1,Increment      1: Step Time =    1.000,"PART-1-1",           572,      -2.49933,       21.2634,            0.,NA,NA,"",       3.13661,      -2.20175,      -2.23397,   662.296E-06
C:/temp/dataset/3/3_9.odb,Step-1,Increment      1: Step Time =    1.000,"PART-1-1",           573,         -1.25,           20.,            0.,NA,NA,"",       2.86759,      -2.02451,      -2.03087,   1.79630E-03
C:/temp/dataset/3/3_9.odb,Step-1,Increment      1: Step Time =    1.000,"PART-1-1",           574,  -2.23348E-03,       21.2694,            0.,NA,NA,"",       2.90185,      -2.22989,      -1.85697,   727.060E-06
C:/temp/dataset/3/3_9.odb,Step-1,Increment      1: Step Time =    1.000,"PART-1-1",           575,      -1.25156,       22.5328,            0.,NA,NA,"",       3.16891,      -2.40695,      -2.06120,   695.166E-06
C:/temp/dataset/3/3_9.odb,Step-1,Increment      1: Step Time =    1.000,"PART-1-1",           576,         -3.75,           30.,            0.,NA,NA,"",       4.30128,      -3.48736,      -2.51780,   1.16288E-03
C:/temp/dataset/3/3_9.odb,Step-1,Increment      1: Step Time =    1.000,"PART-1-1",           577,      -5.00318,       28.7559,            0.,NA,NA,"",       4.24971,      -3.28996,      -2.69002,   473.500E-06
C:/temp/dataset/3/3_9.odb,Step-1,Increment      1: Step Time =    1.000,"PART-1-1",           578,       7.36074,       18.8052,            0.,NA,NA,"",       2.08919,      -1.98406,  -654.360E-03,   13.7858E-03
C:/temp/dataset/3/3_9.odb,Step-1,Increment      1: Step Time =    1.000,"PART-1-1",           579,       8.58169,       17.5494,            0.,NA,NA,"",       1.90479,      -1.84290,  -481.603E-03,   11.8036E-03
C:/temp/dataset/3/3_9.odb,Step-1,Increment      1: Step Time =    1.000,"PART-1-1",           580,       8.60057,       20.0599,            0.,NA,NA,"",       2.21391,      -2.15233,  -518.537E-03,   8.58876E-03
C:/temp/dataset/3/3_9.odb,Step-1,Increment      1: Step Time =    1.000,"PART-1-1",           581,            5.,         18.75,            0.,NA,NA,"",       2.19801,      -1.97925,  -955.941E-03,   39.1172E-03
C:/temp/dataset/3/3_9.odb,Step-1,Increment      1: Step Time =    1.000,"PART-1-1",           582,       6.17685,       17.5255,            0.,NA,NA,"",       1.99141,      -1.83673,  -769.498E-03,   25.9310E-03
C:/temp/dataset/3/3_9.odb,Step-1,Increment      1: Step Time =    1.000,"PART-1-1",           583,       6.18390,       20.0298,            0.,NA,NA,"",       2.28597,      -2.12783,  -835.464E-03,   22.7228E-03
C:/temp/dataset/3/3_9.odb,Step-1,Increment      1: Step Time =    1.000,"PART-1-1",           584,            5.,         16.25,            0.,NA,NA,"",       1.91410,      -1.70965,  -860.741E-03,   31.7873E-03
C:/temp/dataset/3/3_9.odb,Step-1,Increment      1: Step Time =    1.000,"PART-1-1",           585,       6.15340,       15.0385,            0.,NA,NA,"",       1.72325,      -1.57516,  -698.909E-03,   25.2590E-03
C:/temp/dataset/3/3_9.odb,Step-1,Increment      1: Step Time =    1.000,"PART-1-1",           586,       7.33024,       16.3140,            0.,NA,NA,"",       1.80674,      -1.70338,  -602.336E-03,   19.0735E-03
C:/temp/dataset/3/3_9.odb,Step-1,Increment      1: Step Time =    1.000,"PART-1-1",           587,           15.,         16.25,            0.,NA,NA,"",       1.76737,      -1.74884,   255.256E-03,   17.6348E-03
C:/temp/dataset/3/3_9.odb,Step-1,Increment      1: Step Time =    1.000,"PART-1-1",           588,       13.6830,       17.5067,            0.,NA,NA,"",       1.88173,      -1.87833,   113.076E-03,   11.2638E-03
C:/temp/dataset/3/3_9.odb,Step-1,Increment      1: Step Time =    1.000,"PART-1-1",           589,           15.,         18.75,            0.,NA,NA,"",       2.06717,      -2.04859,   276.507E-03,   16.2005E-03
C:/temp/dataset/3/3_9.odb,Step-1,Increment      1: Step Time =    1.000,"PART-1-1",           590,       7.36831,       6.81272,            0.,NA,NA,"",   946.585E-03,  -857.580E-03,  -400.724E-03,   14.7355E-03
C:/temp/dataset/3/3_9.odb,Step-1,Increment      1: Step Time =    1.000,"PART-1-1",           591,       6.10412,       7.73110,            0.,NA,NA,"",       1.06201,  -931.048E-03,  -510.887E-03,   24.4627E-03
C:/temp/dataset/3/3_9.odb,Step-1,Increment      1: Step Time =    1.000,"PART-1-1",           592,            5.,          6.25,            0.,NA,NA,"",   998.531E-03,  -835.169E-03,  -547.317E-03,   34.7420E-03
C:/temp/dataset/3/3_9.odb,Step-1,Increment      1: Step Time =    1.000,"PART-1-1",           593,       6.26419,       5.33162,            0.,NA,NA,"",   883.375E-03,  -761.573E-03,  -447.614E-03,   20.5906E-03
C:/temp/dataset/3/3_9.odb,Step-1,Increment      1: Step Time =    1.000,"PART-1-1",           594,           15.,          8.75,            0.,NA,NA,"",       1.04125,      -1.02681,   172.836E-03,   15.9489E-03
C:/temp/dataset/3/3_9.odb,Step-1,Increment      1: Step Time =    1.000,"PART-1-1",           595,       13.1418,       8.51598,            0.,NA,NA,"",   993.219E-03,  -992.886E-03,   25.7008E-03,   7.70833E-03
C:/temp/dataset/3/3_9.odb,Step-1,Increment      1: Step Time =    1.000,"PART-1-1",           596,       6.30252,      -5.49102,            0.,NA,NA,"",   358.355E-03,  -221.676E-03,  -281.564E-03,   18.1064E-03
C:/temp/dataset/3/3_9.odb,Step-1,Increment      1: Step Time =    1.000,"PART-1-1",           597,            5.,         -6.25,            0.,NA,NA,"",   384.234E-03,  -207.883E-03,  -323.141E-03,   29.4915E-03
C:/temp/dataset/3/3_9.odb,Step-1,Increment      1: Step Time =    1.000,"PART-1-1",           598,       6.10325,      -7.87566,            0.,NA,NA,"",   290.464E-03,  -148.928E-03,  -249.379E-03,   19.7827E-03
C:/temp/dataset/3/3_9.odb,Step-1,Increment      1: Step Time =    1.000,"PART-1-1",           599,       7.40577,      -7.11668,            0.,NA,NA,"",   270.336E-03,  -163.415E-03,  -215.353E-03,   12.5872E-03
C:/temp/dataset/3/3_9.odb,Step-1,Increment      1: Step Time =    1.000,"PART-1-1",           600,            5.,         -8.75,            0.,NA,NA,"",   296.419E-03,  -136.532E-03,  -263.103E-03,   23.0842E-03
C:/temp/dataset/3/3_9.odb,Step-1,Increment      1: Step Time =    1.000,"PART-1-1",           601,            5.,        -13.75,            0.,NA,NA,"",   170.758E-03,  -34.3755E-03,  -167.262E-03,   19.8261E-03
C:/temp/dataset/3/3_9.odb,Step-1,Increment      1: Step Time =    1.000,"PART-1-1",           602,       5.77894,      -15.1288,            0.,NA,NA,"",   134.190E-03,  -10.4326E-03,  -133.784E-03,   17.3830E-03
C:/temp/dataset/3/3_9.odb,Step-1,Increment      1: Step Time =    1.000,"PART-1-1",           603,            5.,        -16.25,            0.,NA,NA,"",   124.430E-03,  -5.27753E-03,  -124.318E-03,   18.8568E-03
C:/temp/dataset/3/3_9.odb,Step-1,Increment      1: Step Time =    1.000,"PART-1-1",           604,       2.77244,      -24.0596,            0.,NA,NA,"",   13.1207E-03,   1.76242E-03,  -13.0018E-03,   3.07286E-03
C:/temp/dataset/3/3_9.odb,Step-1,Increment      1: Step Time =    1.000,"PART-1-1",           605,       3.76359,      -25.5842,            0.,NA,NA,"",   12.5142E-03,   1.02530E-03,  -12.4721E-03,   4.02385E-03
C:/temp/dataset/3/3_9.odb,Step-1,Increment      1: Step Time =    1.000,"PART-1-1",           606,       5.11162,      -24.8806,            0.,NA,NA,"",   20.3338E-03,   5.09036E-03,  -19.6863E-03,   6.10777E-03
C:/temp/dataset/3/3_9.odb,Step-1,Increment      1: Step Time =    1.000,"PART-1-1",           607,       4.12047,      -23.3559,            0.,NA,NA,"",   23.5953E-03,   5.09485E-03,  -23.0387E-03,   5.40816E-03
C:/temp/dataset/3/3_9.odb,Step-1,Increment      1: Step Time =    1.000,"PART-1-1",           608,       8.48587,      -2.76980,            0.,NA,NA,"",   401.667E-03,  -339.045E-03,  -215.370E-03,   10.7871E-03
C:/temp/dataset/3/3_9.odb,Step-1,Increment      1: Step Time =    1.000,"PART-1-1",           609,       9.66601,      -3.38468,            0.,NA,NA,"",   344.130E-03,  -306.451E-03,  -156.567E-03,   6.81436E-03
C:/temp/dataset/3/3_9.odb,Step-1,Increment      1: Step Time =    1.000,"PART-1-1",           610,       9.40849,      -1.21164,            0.,NA,NA,"",   450.266E-03,  -410.213E-03,  -185.645E-03,   8.65409E-03
C:/temp/dataset/3/3_9.odb,Step-1,Increment      1: Step Time =    1.000,"PART-1-1",           611,       3.88333,            5.,            0.,NA,NA,"",   910.897E-03,  -747.629E-03,  -520.371E-03,   9.71664E-03
C:/temp/dataset/3/3_9.odb,Step-1,Increment      1: Step Time =    1.000,"PART-1-1",           612,       3.93709,       2.49951,            0.,NA,NA,"",   810.043E-03,  -631.163E-03,  -507.743E-03,   8.91091E-03
C:/temp/dataset/3/3_9.odb,Step-1,Increment      1: Step Time =    1.000,"PART-1-1",           613,       5.14044,       3.62548,            0.,NA,NA,"",   830.380E-03,  -682.768E-03,  -472.608E-03,   19.6440E-03
C:/temp/dataset/3/3_9.odb,Step-1,Increment      1: Step Time =    1.000,"PART-1-1",           614,       1.70000,           -5.,            0.,NA,NA,"",   632.788E-03,  -239.883E-03,  -585.557E-03,   2.65369E-03
C:/temp/dataset/3/3_9.odb,Step-1,Increment      1: Step Time =    1.000,"PART-1-1",           615,       2.88648,      -4.17028,            0.,NA,NA,"",   592.484E-03,  -287.853E-03,  -517.859E-03,   3.23080E-03
C:/temp/dataset/3/3_9.odb,Step-1,Increment      1: Step Time =    1.000,"PART-1-1",           616,       1.90498,      -3.27989,            0.,NA,NA,"",   667.853E-03,  -335.651E-03,  -577.379E-03,   1.75556E-03
C:/temp/dataset/3/3_9.odb,Step-1,Increment      1: Step Time =    1.000,"PART-1-1",           617,      -2.82853,       3.20340,            0.,NA,NA,"",       1.06299,  -660.853E-03,  -832.596E-03,   613.333E-06
C:/temp/dataset/3/3_9.odb,Step-1,Increment      1: Step Time =    1.000,"PART-1-1",           618,      -1.73717,       4.08745,            0.,NA,NA,"",       1.05094,  -706.216E-03,  -778.285E-03,   776.117E-06
C:/temp/dataset/3/3_9.odb,Step-1,Increment      1: Step Time =    1.000,"PART-1-1",           619,      -2.81667,            5.,            0.,NA,NA,"",       1.12309,  -751.517E-03,  -834.595E-03,   751.373E-06
C:/temp/dataset/3/3_9.odb,Step-1,Increment      1: Step Time =    1.000,"PART-1-1",           620,      -7.28333,            5.,            0.,NA,NA,"",       1.29899,  -746.877E-03,      -1.06280,   72.3413E-06
C:/temp/dataset/3/3_9.odb,Step-1,Increment      1: Step Time =    1.000,"PART-1-1",           621,      -11.7000,            5.,            0.,NA,NA,"",       1.48625,  -741.152E-03,      -1.28827,   3.17190E-06
C:/temp/dataset/3/3_9.odb,Step-1,Increment      1: Step Time =    1.000,"PART-1-1",           622,      -11.5540,       2.50359,            0.,NA,NA,"",       1.41745,  -613.985E-03,      -1.27757,   9.32425E-06
C:/temp/dataset/3/3_9.odb,Step-1,Increment      1: Step Time =    1.000,"PART-1-1",           623,      -8.37698,      -4.01732,            0.,NA,NA,"",       1.14346,  -285.537E-03,      -1.10723,   33.9305E-06
C:/temp/dataset/3/3_9.odb,Step-1,Increment      1: Step Time =    1.000,"PART-1-1",           624,      -10.5279,      -3.86372,            0.,NA,NA,"",       1.25124,  -290.593E-03,      -1.21703,   7.13788E-06
C:/temp/dataset/3/3_9.odb,Step-1,Increment      1: Step Time =    1.000,"PART-1-1",           625,      -9.41667,           -5.,            0.,NA,NA,"",       1.18233,  -234.114E-03,      -1.15892,   10.5641E-06
C:/temp/dataset/3/3_9.odb,Step-1,Increment      1: Step Time =    1.000,"PART-1-1",           626,          3.75,          -20.,            0.,NA,NA,"",   33.9562E-03,   19.6657E-03,  -27.6818E-03,   4.81084E-03
C:/temp/dataset/3/3_9.odb,Step-1,Increment      1: Step Time =    1.000,"PART-1-1",           627,       2.74072,      -21.3682,            0.,NA,NA,"",   20.1827E-03,   9.48356E-03,  -17.8158E-03,   1.69513E-03
C:/temp/dataset/3/3_9.odb,Step-1,Increment      1: Step Time =    1.000,"PART-1-1",           628,       4.11640,      -22.1674,            0.,NA,NA,"",   29.4554E-03,   7.31227E-03,  -28.5334E-03,   6.57071E-03
C:/temp/dataset/3/3_9.odb,Step-1,Increment      1: Step Time =    1.000,"PART-1-1",           629,       5.12568,      -20.7992,            0.,NA,NA,"",   51.2618E-03,   15.1704E-03,  -48.9657E-03,   12.1086E-03
C:/temp/dataset/3/3_9.odb,Step-1,Increment      1: Step Time =    1.000,"PART-1-1",           630,          1.25,          -20.,            0.,NA,NA,"",   17.8889E-03,   14.9814E-03,  -9.77607E-03,   2.21900E-03
C:/temp/dataset/3/3_9.odb,Step-1,Increment      1: Step Time =    1.000,"PART-1-1",           631,   73.0809E-03,      -21.3299,            0.,NA,NA,"",   9.40323E-03,   8.02930E-03,  -4.89399E-03,   1.09704E-03
C:/temp/dataset/3/3_9.odb,Step-1,Increment      1: Step Time =    1.000,"PART-1-1",           632,       1.56380,      -22.6981,            0.,NA,NA,"",   10.5553E-03,   4.11834E-03,  -9.71873E-03,   1.57382E-03
C:/temp/dataset/3/3_9.odb,Step-1,Increment      1: Step Time =    1.000,"PART-1-1",           633,         -1.25,          -20.,            0.,NA,NA,"",   9.87241E-03,   9.34157E-03,  -3.19367E-03,   1.85119E-03
C:/temp/dataset/3/3_9.odb,Step-1,Increment      1: Step Time =    1.000,"PART-1-1",           634,      -2.46493,      -21.3147,            0.,NA,NA,"",   5.86619E-03,   5.79830E-03,  -889.870E-06,   926.343E-06
C:/temp/dataset/3/3_9.odb,Step-1,Increment      1: Step Time =    1.000,"PART-1-1",           635,      -1.14185,      -22.6446,            0.,NA,NA,"",   4.40294E-03,   3.87732E-03,  -2.08622E-03,   451.982E-06
C:/temp/dataset/3/3_9.odb,Step-1,Increment      1: Step Time =    1.000,"PART-1-1",           636,         -3.75,          -20.,            0.,NA,NA,"",   6.14009E-03,   6.12079E-03,  -486.397E-06,   1.12022E-03
C:/temp/dataset/3/3_9.odb,Step-1,Increment      1: Step Time =    1.000,"PART-1-1",           637,      -4.97847,      -21.2978,            0.,NA,NA,"",   4.29486E-03,   4.26897E-03,   470.903E-06,   636.712E-06
C:/temp/dataset/3/3_9.odb,Step-1,Increment      1: Step Time =    1.000,"PART-1-1",           638,      -3.69340,      -22.6125,            0.,NA,NA,"",   3.37372E-03,   3.36285E-03,   270.666E-06,   636.651E-06
C:/temp/dataset/3/3_9.odb,Step-1,Increment      1: Step Time =    1.000,"PART-1-1",           639,      -4.95791,      -23.8547,            0.,NA,NA,"",   1.98169E-03,   1.86889E-03,   659.050E-06,   494.884E-06
C:/temp/dataset/3/3_9.odb,Step-1,Increment      1: Step Time =    1.000,"PART-1-1",           640,      -6.21189,      -22.5887,            0.,NA,NA,"",   2.97023E-03,   2.85876E-03,   806.088E-06,   524.730E-06
C:/temp/dataset/3/3_9.odb,Step-1,Increment      1: Step Time =    1.000,"PART-1-1",           641,      -7.46939,      -23.8324,            0.,NA,NA,"",   2.07520E-03,   1.91519E-03,   799.039E-06,   409.137E-06
C:/temp/dataset/3/3_9.odb,Step-1,Increment      1: Step Time =    1.000,"PART-1-1",           642,           15.,        -13.75,            0.,NA,NA,"",   6.98169E-03,  -6.98159E-03,  -37.0139E-06,   6.91127E-03
C:/temp/dataset/3/3_9.odb,Step-1,Increment      1: Step Time =    1.000,"PART-1-1",           643,       14.2106,      -12.3304,            0.,NA,NA,"",   28.6625E-03,  -28.0907E-03,  -5.69630E-03,   5.40212E-03
C:/temp/dataset/3/3_9.odb,Step-1,Increment      1: Step Time =    1.000,"PART-1-1",           644,       13.1387,      -13.2101,            0.,NA,NA,"",   30.4417E-03,  -11.2512E-03,  -28.2862E-03,   2.47371E-03
C:/temp/dataset/3/3_9.odb,Step-1,Increment      1: Step Time =    1.000,"PART-1-1",           645,           15.,        -11.25,            0.,NA,NA,"",   54.6959E-03,  -52.1174E-03,   16.5960E-03,   8.16641E-03
C:/temp/dataset/3/3_9.odb,Step-1,Increment      1: Step Time =    1.000,"PART-1-1",           646,           15.,         -6.25,            0.,NA,NA,"",   204.326E-03,  -196.846E-03,   54.7817E-03,   9.08150E-03
C:/temp/dataset/3/3_9.odb,Step-1,Increment      1: Step Time =    1.000,"PART-1-1",           647,       14.0624,      -4.92369,            0.,NA,NA,"",   245.514E-03,  -243.975E-03,   27.4500E-03,   6.18774E-03
C:/temp/dataset/3/3_9.odb,Step-1,Increment      1: Step Time =    1.000,"PART-1-1",           648,       12.9264,      -6.09194,            0.,NA,NA,"",   196.567E-03,  -195.600E-03,  -19.4707E-03,   2.93510E-03
C:/temp/dataset/3/3_9.odb,Step-1,Increment      1: Step Time =    1.000,"PART-1-1",           649,           15.,         -3.75,            0.,NA,NA,"",   305.756E-03,  -296.993E-03,   72.6759E-03,   8.47160E-03
C:/temp/dataset/3/3_9.odb,Step-1,Increment      1: Step Time =    1.000,"PART-1-1",           650,       13.0440,      -3.68493,            0.,NA,NA,"",   293.224E-03,  -293.047E-03,  -10.1718E-03,   3.09645E-03
C:/temp/dataset/3/3_9.odb,Step-1,Increment      1: Step Time =    1.000,"PART-1-1",           651,       8.06094,   477.426E-03,            0.,NA,NA,"",   571.142E-03,  -501.268E-03,  -273.740E-03,   12.4674E-03
C:/temp/dataset/3/3_9.odb,Step-1,Increment      1: Step Time =    1.000,"PART-1-1",           652,       8.76493,       2.31856,            0.,NA,NA,"",   643.949E-03,  -591.075E-03,  -255.541E-03,   11.8180E-03
C:/temp/dataset/3/3_9.odb,Step-1,Increment      1: Step Time =    1.000,"PART-1-1",           653,       6.73548,       2.80805,            0.,NA,NA,"",   733.105E-03,  -628.023E-03,  -378.193E-03,   15.6482E-03
C:/temp/dataset/3/3_9.odb,Step-1,Increment      1: Step Time =    1.000,"PART-1-1",           654,       6.03149,   966.916E-03,            0.,NA,NA,"",   665.385E-03,  -540.485E-03,  -388.089E-03,   14.8820E-03
C:/temp/dataset/3/3_9.odb,Step-1,Increment      1: Step Time =    1.000,"PART-1-1",           655,            5.,          8.75,            0.,NA,NA,"",       1.19770,      -1.02016,  -627.489E-03,   29.9690E-03
C:/temp/dataset/3/3_9.odb,Step-1,Increment      1: Step Time =    1.000,"PART-1-1",           656,       7.16919,       9.14751,            0.,NA,NA,"",       1.13205,      -1.03392,  -461.011E-03,   19.1755E-03
C:/temp/dataset/3/3_9.odb,Step-1,Increment      1: Step Time =    1.000,"PART-1-1",           657,          3.75,           30.,            0.,NA,NA,"",       3.82531,      -3.54968,      -1.42577,   9.24724E-03
C:/temp/dataset/3/3_9.odb,Step-1,Increment      1: Step Time =    1.000,"PART-1-1",           658,       3.71036,       27.5731,            0.,NA,NA,"",       3.48020,      -3.19313,      -1.38409,   10.8053E-03
C:/temp/dataset/3/3_9.odb,Step-1,Increment      1: Step Time =    1.000,"PART-1-1",           659,       7.38617,       23.8490,            0.,NA,NA,"",       2.77775,      -2.67330,  -754.562E-03,   11.8973E-03
C:/temp/dataset/3/3_9.odb,Step-1,Increment      1: Step Time =    1.000,"PART-1-1",           660,       6.16255,       25.1024,            0.,NA,NA,"",       3.00608,      -2.84839,  -960.848E-03,   11.5404E-03
C:/temp/dataset/3/3_9.odb,Step-1,Increment      1: Step Time =    1.000,"PART-1-1",           661,       4.93576,       23.8439,            0.,NA,NA,"",       2.88883,      -2.66249,      -1.12093,   14.6990E-03
C:/temp/dataset/3/3_9.odb,Step-1,Increment      1: Step Time =    1.000,"PART-1-1",           662,       6.15938,       22.5905,            0.,NA,NA,"",       2.64886,      -2.48931,  -905.430E-03,   15.7451E-03
C:/temp/dataset/3/3_9.odb,Step-1,Increment      1: Step Time =    1.000,"PART-1-1",           663,      -10.0017,       23.7560,            0.,NA,NA,"",       4.19781,      -2.49060,      -3.37913,   84.0536E-06
C:/temp/dataset/3/3_9.odb,Step-1,Increment      1: Step Time =    1.000,"PART-1-1",           664,      -8.75135,       22.5073,            0.,NA,NA,"",       3.93495,      -2.31861,      -3.17928,   170.023E-06
C:/temp/dataset/3/3_9.odb,Step-1,Increment      1: Step Time =    1.000,"PART-1-1",           665,      -10.0004,       21.2526,            0.,NA,NA,"",       3.96428,      -2.11790,      -3.35112,   49.7344E-06
C:/temp/dataset/3/3_9.odb,Step-1,Increment      1: Step Time =    1.000,"PART-1-1",           666,      -11.2505,       22.5043,            0.,NA,NA,"",       4.22557,      -2.29032,      -3.55103,   51.9273E-06
C:/temp/dataset/3/3_9.odb,Step-1,Increment      1: Step Time =    1.000,"PART-1-1",           667,        -11.25,           20.,            0.,NA,NA,"",       4.01115,      -1.91761,      -3.52308,   21.2371E-06
C:/temp/dataset/3/3_9.odb,Step-1,Increment      1: Step Time =    1.000,"PART-1-1",           668,         -8.75,           20.,            0.,NA,NA,"",       3.70323,      -1.94534,      -3.15112,   114.755E-06
C:/temp/dataset/3/3_9.odb,Step-1,Increment      1: Step Time =    1.000,"PART-1-1",           669,       7.37456,       21.3253,            0.,NA,NA,"",       2.41880,      -2.31448,  -702.703E-03,   13.5415E-03
C:/temp/dataset/3/3_9.odb,Step-1,Increment      1: Step Time =    1.000,"PART-1-1",           670,      -1.26076,       25.0501,            0.,NA,NA,"",       3.48200,      -2.78319,      -2.09241,   1.45859E-03
C:/temp/dataset/3/3_9.odb,Step-1,Increment      1: Step Time =    1.000,"PART-1-1",           671,      -2.50213,       23.7814,            0.,NA,NA,"",       3.43181,      -2.57974,      -2.26324,   479.948E-06
C:/temp/dataset/3/3_9.odb,Step-1,Increment      1: Step Time =    1.000,"PART-1-1",           672,          1.25,           20.,            0.,NA,NA,"",       2.62870,      -2.04786,      -1.64814,   1.61871E-03
C:/temp/dataset/3/3_9.odb,Step-1,Increment      1: Step Time =    1.000,"PART-1-1",           673,            5.,         13.75,            0.,NA,NA,"",       1.65097,      -1.45485,  -780.457E-03,   30.1988E-03
C:/temp/dataset/3/3_9.odb,Step-1,Increment      1: Step Time =    1.000,"PART-1-1",           674,       7.85923,       4.51418,            0.,NA,NA,"",   786.954E-03,  -711.505E-03,  -336.239E-03,   13.6814E-03
C:/temp/dataset/3/3_9.odb,Step-1,Increment      1: Step Time =    1.000,"PART-1-1",           675,       9.45843,       7.45797,            0.,NA,NA,"",   937.065E-03,  -901.085E-03,  -257.170E-03,   7.57953E-03
C:/temp/dataset/3/3_9.odb,Step-1,Increment      1: Step Time =    1.000,"PART-1-1",           676,       11.3500,       8.04392,            0.,NA,NA,"",   954.798E-03,  -947.838E-03,  -115.074E-03,   2.39798E-03
C:/temp/dataset/3/3_9.odb,Step-1,Increment      1: Step Time =    1.000,"PART-1-1",           677,       10.2386,       8.70699,            0.,NA,NA,"",       1.01629,  -995.119E-03,  -206.354E-03,   4.86708E-03
C:/temp/dataset/3/3_9.odb,Step-1,Increment      1: Step Time =    1.000,"PART-1-1",           678,   133.314E-03,       2.02047,            0.,NA,NA,"",   912.093E-03,  -606.212E-03,  -681.485E-03,   640.095E-06
C:/temp/dataset/3/3_9.odb,Step-1,Increment      1: Step Time =    1.000,"PART-1-1",           679,       2.26054,       1.70692,            0.,NA,NA,"",   827.146E-03,  -593.007E-03,  -576.639E-03,   3.24022E-03
C:/temp/dataset/3/3_9.odb,Step-1,Increment      1: Step Time =    1.000,"PART-1-1",           680,  -583.333E-03,            5.,            0.,NA,NA,"",       1.04231,  -752.105E-03,  -721.624E-03,   1.87130E-03
C:/temp/dataset/3/3_9.odb,Step-1,Increment      1: Step Time =    1.000,"PART-1-1",           681,  -713.179E-03,       3.09316,            0.,NA,NA,"",   979.087E-03,  -657.936E-03,  -725.074E-03,   828.553E-06
C:/temp/dataset/3/3_9.odb,Step-1,Increment      1: Step Time =    1.000,"PART-1-1",           682,      -10.2084,       1.19941,            0.,NA,NA,"",       1.32630,  -549.228E-03,      -1.20724,   24.5834E-06
C:/temp/dataset/3/3_9.odb,Step-1,Increment      1: Step Time =    1.000,"PART-1-1",           683,      -7.18333,           -5.,            0.,NA,NA,"",       1.07168,  -236.968E-03,      -1.04516,   73.0509E-06
C:/temp/dataset/3/3_9.odb,Step-1,Increment      1: Step Time =    1.000,"PART-1-1",           684,      -7.36178,      -2.99006,            0.,NA,NA,"",       1.10999,  -339.246E-03,      -1.05687,   118.433E-06
C:/temp/dataset/3/3_9.odb,Step-1,Increment      1: Step Time =    1.000,"PART-1-1",           685,      -11.3125,  -91.5578E-03,            0.,NA,NA,"",       1.35080,  -481.936E-03,      -1.26190,   18.8732E-06
C:/temp/dataset/3/3_9.odb,Step-1,Increment      1: Step Time =    1.000,"PART-1-1",           686,      -11.6500,           -5.,            0.,NA,NA,"",       1.29358,  -231.202E-03,      -1.27275,   3.59387E-06
C:/temp/dataset/3/3_9.odb,Step-1,Increment      1: Step Time =    1.000,"PART-1-1",           687,      -11.6245,      -2.63993,            0.,NA,NA,"",       1.32212,  -351.567E-03,      -1.27452,   8.08636E-06
C:/temp/dataset/3/3_9.odb,Step-1,Increment      1: Step Time =    1.000,"PART-1-1",           688,      -1.03706,       1.18772,            0.,NA,NA,"",   929.098E-03,  -562.698E-03,  -739.320E-03,   702.743E-06
C:/temp/dataset/3/3_9.odb,Step-1,Increment      1: Step Time =    1.000,"PART-1-1",           689,      -2.26684,   407.252E-03,            0.,NA,NA,"",   955.578E-03,  -520.866E-03,  -801.142E-03,   706.666E-06
C:/temp/dataset/3/3_9.odb,Step-1,Increment      1: Step Time =    1.000,"PART-1-1",           690,      -1.61706,  -775.207E-03,            0.,NA,NA,"",   895.156E-03,  -461.631E-03,  -766.943E-03,   715.632E-06
C:/temp/dataset/3/3_9.odb,Step-1,Increment      1: Step Time =    1.000,"PART-1-1",           691,      -4.44627,  -189.662E-03,            0.,NA,NA,"",       1.03341,  -486.604E-03,  -911.681E-03,   437.968E-06
C:/temp/dataset/3/3_9.odb,Step-1,Increment      1: Step Time =    1.000,"PART-1-1",           692,      -3.83065,   850.686E-03,            0.,NA,NA,"",       1.03389,  -540.605E-03,  -881.288E-03,   480.713E-06
C:/temp/dataset/3/3_9.odb,Step-1,Increment      1: Step Time =    1.000,"PART-1-1",           693,      -5.38306,   384.196E-03,            0.,NA,NA,"",       1.08916,  -514.387E-03,  -960.044E-03,   291.244E-06
C:/temp/dataset/3/3_9.odb,Step-1,Increment      1: Step Time =    1.000,"PART-1-1",           694,       3.90000,           -5.,            0.,NA,NA,"",   512.400E-03,  -240.596E-03,  -452.401E-03,   8.67216E-03
C:/temp/dataset/3/3_9.odb,Step-1,Increment      1: Step Time =    1.000,"PART-1-1",           695,       5.25667,      -4.01677,            0.,NA,NA,"",   466.979E-03,  -297.419E-03,  -360.015E-03,   19.3070E-03
C:/temp/dataset/3/3_9.odb,Step-1,Increment      1: Step Time =    1.000,"PART-1-1",           696,       4.24316,      -3.18705,            0.,NA,NA,"",   554.851E-03,  -342.645E-03,  -436.411E-03,   10.4261E-03
C:/temp/dataset/3/3_9.odb,Step-1,Increment      1: Step Time =    1.000,"PART-1-1",           697,       9.51721,      -4.82762,            0.,NA,NA,"",   287.772E-03,  -243.664E-03,  -153.104E-03,   6.25325E-03
C:/temp/dataset/3/3_9.odb,Step-1,Increment      1: Step Time =    1.000,"PART-1-1",           698,       8.04384,      -4.93500,            0.,NA,NA,"",   322.329E-03,  -241.487E-03,  -213.495E-03,   10.5352E-03
C:/temp/dataset/3/3_9.odb,Step-1,Increment      1: Step Time =    1.000,"PART-1-1",           699,       8.61490,      -6.56470,            0.,NA,NA,"",   250.551E-03,  -178.917E-03,  -175.398E-03,   8.88149E-03
C:/temp/dataset/3/3_9.odb,Step-1,Increment      1: Step Time =    1.000,"PART-1-1",           700,       10.0883,      -6.45732,            0.,NA,NA,"",   217.893E-03,  -180.493E-03,  -122.064E-03,   4.86841E-03
C:/temp/dataset/3/3_9.odb,Step-1,Increment      1: Step Time =    1.000,"PART-1-1",           701,       9.29828,      -8.00429,            0.,NA,NA,"",   191.666E-03,  -130.886E-03,  -140.017E-03,   7.75192E-03
C:/temp/dataset/3/3_9.odb,Step-1,Increment      1: Step Time =    1.000,"PART-1-1",           702,       6.27674,      -21.4047,            0.,NA,NA,"",   52.8687E-03,   19.3701E-03,  -49.1924E-03,   10.9604E-03
C:/temp/dataset/3/3_9.odb,Step-1,Increment      1: Step Time =    1.000,"PART-1-1",           703,       7.27122,      -20.3583,            0.,NA,NA,"",   65.3013E-03,   27.5798E-03,  -59.1913E-03,   10.4244E-03
C:/temp/dataset/3/3_9.odb,Step-1,Increment      1: Step Time =    1.000,"PART-1-1",           704,         -6.25,          -20.,            0.,NA,NA,"",   4.21027E-03,   4.19450E-03,   363.982E-06,   632.500E-06
C:/temp/dataset/3/3_9.odb,Step-1,Increment      1: Step Time =    1.000,"PART-1-1",           705,         -1.25,          -30.,            0.,NA,NA,"",            0.,  -855.798E-42,  -1.50379E-39,   1.16727E-03
C:/temp/dataset/3/3_9.odb,Step-1,Increment      1: Step Time =    1.000,"PART-1-1",           706,       8.60683,      -25.8105,            0.,NA,NA,"",   22.9877E-03,   13.6358E-03,  -18.5068E-03,   6.62639E-03
C:/temp/dataset/3/3_9.odb,Step-1,Increment      1: Step Time =    1.000,"PART-1-1",           707,       7.41490,      -26.9159,            0.,NA,NA,"",   14.2863E-03,   6.88632E-03,  -12.5170E-03,   5.87318E-03
C:/temp/dataset/3/3_9.odb,Step-1,Increment      1: Step Time =    1.000,"PART-1-1",           708,       6.17638,      -25.8614,            0.,NA,NA,"",   18.0049E-03,   6.17928E-03,  -16.9114E-03,   5.78434E-03
C:/temp/dataset/3/3_9.odb,Step-1,Increment      1: Step Time =    1.000,"PART-1-1",           709,       7.37219,      -25.0876,            0.,NA,NA,"",   25.6828E-03,   12.0549E-03,  -22.6779E-03,   7.27024E-03
C:/temp/dataset/3/3_9.odb,Step-1,Increment      1: Step Time =    1.000,"PART-1-1",           710,       6.30743,      -24.1068,            0.,NA,NA,"",   29.6794E-03,   10.8412E-03,  -27.6285E-03,   7.28391E-03
C:/temp/dataset/3/3_9.odb,Step-1,Increment      1: Step Time =    1.000,"PART-1-1",           711,   113.079E-03,      -23.9373,            0.,NA,NA,"",   4.48854E-03,   1.26889E-03,  -4.30545E-03,   589.307E-06
C:/temp/dataset/3/3_9.odb,Step-1,Increment      1: Step Time =    1.000,"PART-1-1",           712,      -2.43554,      -23.8906,            0.,NA,NA,"",   1.70986E-03,   1.64550E-03,  -464.692E-06,   439.882E-06
C:/temp/dataset/3/3_9.odb,Step-1,Increment      1: Step Time =    1.000,"PART-1-1",           713,      -8.72529,      -25.0755,            0.,NA,NA,"",   1.44849E-03,   1.29714E-03,   644.638E-06,   366.535E-06
C:/temp/dataset/3/3_9.odb,Step-1,Increment      1: Step Time =    1.000,"PART-1-1",           714,      -9.97606,      -23.8175,            0.,NA,NA,"",   2.04945E-03,   1.91903E-03,   719.424E-06,   287.593E-06
C:/temp/dataset/3/3_9.odb,Step-1,Increment      1: Step Time =    1.000,"PART-1-1",           715,      -9.99641,      -28.7682,            0.,NA,NA,"",   231.446E-06,   194.727E-06,   125.095E-06,   180.013E-06
C:/temp/dataset/3/3_9.odb,Step-1,Increment      1: Step Time =    1.000,"PART-1-1",           716,      -11.2465,      -27.5281,            0.,NA,NA,"",   660.711E-06,   588.599E-06,   300.149E-06,   246.925E-06
C:/temp/dataset/3/3_9.odb,Step-1,Increment      1: Step Time =    1.000,"PART-1-1",           717,        -11.25,          -30.,            0.,NA,NA,"",            0.,   106.560E-42,   251.962E-42,   159.861E-06
C:/temp/dataset/3/3_9.odb,Step-1,Increment      1: Step Time =    1.000,"PART-1-1",           718,         -8.75,          -30.,            0.,NA,NA,"",            0.,   32.0309E-42,   144.023E-42,   81.5812E-06
C:/temp/dataset/3/3_9.odb,Step-1,Increment      1: Step Time =    1.000,"PART-1-1",           719,      -8.73783,      -27.5479,            0.,NA,NA,"",   453.199E-06,   355.953E-06,   280.512E-06,   255.529E-06
C:/temp/dataset/3/3_9.odb,Step-1,Increment      1: Step Time =    1.000,"PART-1-1",           720,       9.45286,      -20.3748,            0.,NA,NA,"",   60.7434E-03,   34.1789E-03,  -50.2152E-03,   7.81854E-03
C:/temp/dataset/3/3_9.odb,Step-1,Increment      1: Step Time =    1.000,"PART-1-1",           721,       8.38706,      -19.4374,            0.,NA,NA,"",   69.6843E-03,   31.2510E-03,  -62.2839E-03,   8.51768E-03
C:/temp/dataset/3/3_9.odb,Step-1,Increment      1: Step Time =    1.000,"PART-1-1",           722,       8.33702,      -21.2957,            0.,NA,NA,"",   56.8014E-03,   28.8204E-03,  -48.9467E-03,   9.10017E-03
C:/temp/dataset/3/3_9.odb,Step-1,Increment      1: Step Time =    1.000,"PART-1-1",           723,       9.34035,      -18.0986,            0.,NA,NA,"",   71.9083E-03,   31.0132E-03,  -64.8767E-03,   7.72123E-03
C:/temp/dataset/3/3_9.odb,Step-1,Increment      1: Step Time =    1.000,"PART-1-1",           724,       10.7511,      -19.4747,            0.,NA,NA,"",   59.9097E-03,   37.2389E-03,  -46.9301E-03,   5.87864E-03
C:/temp/dataset/3/3_9.odb,Step-1,Increment      1: Step Time =    1.000,"PART-1-1",           725,       9.57777,      -9.07511,            0.,NA,NA,"",   159.278E-03,  -100.140E-03,  -123.861E-03,   7.45643E-03
C:/temp/dataset/3/3_9.odb,Step-1,Increment      1: Step Time =    1.000,"PART-1-1",           726,       10.3854,      -7.79904,            0.,NA,NA,"",   171.745E-03,  -135.472E-03,  -105.564E-03,   4.62968E-03
C:/temp/dataset/3/3_9.odb,Step-1,Increment      1: Step Time =    1.000,"PART-1-1",           727,       11.9371,      -7.89361,            0.,NA,NA,"",   143.562E-03,  -132.723E-03,  -54.7247E-03,   847.551E-06
C:/temp/dataset/3/3_9.odb,Step-1,Increment      1: Step Time =    1.000,"PART-1-1",           728,       11.6400,      -6.55190,            0.,NA,NA,"",   188.925E-03,  -177.064E-03,  -65.8856E-03,   733.737E-06
C:/temp/dataset/3/3_9.odb,Step-1,Increment      1: Step Time =    1.000,"PART-1-1",           729,       9.29748,       3.92298,            0.,NA,NA,"",   716.745E-03,  -675.951E-03,  -238.355E-03,   9.23297E-03
C:/temp/dataset/3/3_9.odb,Step-1,Increment      1: Step Time =    1.000,"PART-1-1",           730,       10.7408,       1.93669,            0.,NA,NA,"",   582.160E-03,  -566.070E-03,  -135.923E-03,   5.29718E-03
C:/temp/dataset/3/3_9.odb,Step-1,Increment      1: Step Time =    1.000,"PART-1-1",           731,       12.1175,       9.30164,            0.,NA,NA,"",       1.05015,      -1.04868,  -55.4505E-03,   3.79484E-03
C:/temp/dataset/3/3_9.odb,Step-1,Increment      1: Step Time =    1.000,"PART-1-1",           732,       12.3743,       7.25826,            0.,NA,NA,"",   895.681E-03,  -894.944E-03,  -36.3142E-03,   4.87943E-03
C:/temp/dataset/3/3_9.odb,Step-1,Increment      1: Step Time =    1.000,"PART-1-1",           733,       9.86952,       23.8294,            0.,NA,NA,"",       2.71485,      -2.68395,  -408.421E-03,   7.18676E-03
C:/temp/dataset/3/3_9.odb,Step-1,Increment      1: Step Time =    1.000,"PART-1-1",           734,       8.61965,       22.5851,            0.,NA,NA,"",       2.56016,      -2.49856,  -558.234E-03,   10.0121E-03
C:/temp/dataset/3/3_9.odb,Step-1,Increment      1: Step Time =    1.000,"PART-1-1",           735,         11.25,           30.,            0.,NA,NA,"",       3.60352,      -3.59161,  -292.788E-03,   3.61206E-03
C:/temp/dataset/3/3_9.odb,Step-1,Increment      1: Step Time =    1.000,"PART-1-1",           736,       9.97488,       28.7673,            0.,NA,NA,"",       3.43622,      -3.40532,  -459.772E-03,   4.54599E-03
C:/temp/dataset/3/3_9.odb,Step-1,Increment      1: Step Time =    1.000,"PART-1-1",           737,          8.75,           30.,            0.,NA,NA,"",       3.63870,      -3.57926,  -654.995E-03,   6.79059E-03
C:/temp/dataset/3/3_9.odb,Step-1,Increment      1: Step Time =    1.000,"PART-1-1",           738,       3.69885,       25.0915,            0.,NA,NA,"",       3.13379,      -2.83415,      -1.33724,   11.2798E-03
C:/temp/dataset/3/3_9.odb,Step-1,Increment      1: Step Time =    1.000,"PART-1-1",           739,       4.94207,       26.3392,            0.,NA,NA,"",       3.23969,      -3.02060,      -1.17114,   12.3569E-03
C:/temp/dataset/3/3_9.odb,Step-1,Increment      1: Step Time =    1.000,"PART-1-1",           740,         -6.25,           30.,            0.,NA,NA,"",       4.50886,      -3.46119,      -2.88963,   463.890E-06
C:/temp/dataset/3/3_9.odb,Step-1,Increment      1: Step Time =    1.000,"PART-1-1",           741,      -11.2519,       25.0060,            0.,NA,NA,"",       4.46088,      -2.66270,      -3.57904,   64.1616E-06
C:/temp/dataset/3/3_9.odb,Step-1,Increment      1: Step Time =    1.000,"PART-1-1",           742,       11.7111,      -12.1867,            0.,NA,NA,"",   62.8339E-03,  -28.0222E-03,  -56.2392E-03,   2.59643E-03
C:/temp/dataset/3/3_9.odb,Step-1,Increment      1: Step Time =    1.000,"PART-1-1",           743,       12.0443,      -13.4388,            0.,NA,NA,"",   48.5290E-03,  -7.29192E-03,  -47.9781E-03,   2.28457E-03
C:/temp/dataset/3/3_9.odb,Step-1,Increment      1: Step Time =    1.000,"PART-1-1",           744,       9.07309,      -22.0228,            0.,NA,NA,"",   50.9228E-03,   29.3189E-03,  -41.6357E-03,   8.35297E-03
C:/temp/dataset/3/3_9.odb,Step-1,Increment      1: Step Time =    1.000,"PART-1-1",           745,       9.10959,      -23.2638,            0.,NA,NA,"",   41.8379E-03,   25.0433E-03,  -33.5149E-03,   8.09671E-03
C:/temp/dataset/3/3_9.odb,Step-1,Increment      1: Step Time =    1.000,"PART-1-1",           746,       10.5828,      -23.1781,            0.,NA,NA,"",   42.9409E-03,   30.0051E-03,  -30.7184E-03,   6.69325E-03
C:/temp/dataset/3/3_9.odb,Step-1,Increment      1: Step Time =    1.000,"PART-1-1",           747,       10.5463,      -21.9372,            0.,NA,NA,"",   50.2331E-03,   33.9999E-03,  -36.9779E-03,   6.87097E-03
C:/temp/dataset/3/3_9.odb,Step-1,Increment      1: Step Time =    1.000,"PART-1-1",           748,      -1.00841,      -2.00181,            0.,NA,NA,"",   835.882E-03,  -399.164E-03,  -734.416E-03,   703.604E-06
C:/temp/dataset/3/3_9.odb,Step-1,Increment      1: Step Time =    1.000,"PART-1-1",           749,      -3.17395,      -1.50818,            0.,NA,NA,"",   944.632E-03,  -421.110E-03,  -845.575E-03,   558.165E-06
C:/temp/dataset/3/3_9.odb,Step-1,Increment      1: Step Time =    1.000,"PART-1-1",           750,       8.23699,       8.20647,            0.,NA,NA,"",       1.02250,  -957.297E-03,  -359.276E-03,   13.8823E-03
C:/temp/dataset/3/3_9.odb,Step-1,Increment      1: Step Time =    1.000,"PART-1-1",           751,       8.58975,       6.06422,            0.,NA,NA,"",   862.179E-03,  -806.005E-03,  -306.120E-03,   9.71599E-03
C:/temp/dataset/3/3_9.odb,Step-1,Increment      1: Step Time =    1.000,"PART-1-1",           752,       1.04870,      -2.29850,            0.,NA,NA,"",   736.386E-03,  -386.894E-03,  -626.560E-03,   903.590E-06
C:/temp/dataset/3/3_9.odb,Step-1,Increment      1: Step Time =    1.000,"PART-1-1",           753,      -1.88356,       2.26041,            0.,NA,NA,"",   995.874E-03,  -614.948E-03,  -783.329E-03,   678.113E-06
C:/temp/dataset/3/3_9.odb,Step-1,Increment      1: Step Time =    1.000,"PART-1-1",           754,      -2.91638,       1.44829,            0.,NA,NA,"",       1.01252,  -572.411E-03,  -835.192E-03,   616.781E-06
C:/temp/dataset/3/3_9.odb,Step-1,Increment      1: Step Time =    1.000,"PART-1-1",           755,       3.03453,      -2.52132,            0.,NA,NA,"",   639.224E-03,  -377.410E-03,  -515.915E-03,   5.36925E-03
C:/temp/dataset/3/3_9.odb,Step-1,Increment      1: Step Time =    1.000,"PART-1-1",           756,       6.99799,      -3.46075,            0.,NA,NA,"",   418.854E-03,  -313.328E-03,  -277.964E-03,   13.9514E-03
C:/temp/dataset/3/3_9.odb,Step-1,Increment      1: Step Time =    1.000,"PART-1-1",           757,       7.63560,  -984.386E-03,            0.,NA,NA,"",   513.323E-03,  -431.245E-03,  -278.439E-03,   13.2049E-03
C:/temp/dataset/3/3_9.odb,Step-1,Increment      1: Step Time =    1.000,"PART-1-1",           758,       6.14771,      -1.67534,            0.,NA,NA,"",   535.054E-03,  -407.459E-03,  -346.785E-03,   15.0933E-03
C:/temp/dataset/3/3_9.odb,Step-1,Increment      1: Step Time =    1.000,"PART-1-1",           759,       4.94795,      -26.8240,            0.,NA,NA,"",   10.6957E-03,   1.65656E-03,  -10.5666E-03,   4.61375E-03
C:/temp/dataset/3/3_9.odb,Step-1,Increment      1: Step Time =    1.000,"PART-1-1",           760,      -11.2341,      -25.0541,            0.,NA,NA,"",   1.58228E-03,   1.45404E-03,   623.998E-06,   265.055E-06
C:/temp/dataset/3/3_9.odb,Step-1,Increment      1: Step Time =    1.000,"PART-1-1",           761,      -9.98574,      -26.3021,            0.,NA,NA,"",   1.00696E-03,   895.913E-06,   459.674E-06,   283.556E-06
C:/temp/dataset/3/3_9.odb,Step-1,Increment      1: Step Time =    1.000,"PART-1-1",           762,           15.,        -26.25,            0.,NA,NA,"",   33.7979E-03,   25.9266E-03,  -21.6820E-03,   3.87369E-03
C:/temp/dataset/3/3_9.odb,Step-1,Increment      1: Step Time =    1.000,"PART-1-1",           763,       9.63478,      -24.7731,            0.,NA,NA,"",   31.5179E-03,   20.8274E-03,  -23.6558E-03,   7.28207E-03
C:/temp/dataset/3/3_9.odb,Step-1,Increment      1: Step Time =    1.000,"PART-1-1",           764,       9.83383,   250.169E-03,            0.,NA,NA,"",   512.351E-03,  -481.170E-03,  -176.010E-03,   8.00155E-03
C:/temp/dataset/3/3_9.odb,Step-1,Increment      1: Step Time =    1.000,"PART-1-1",           765,       11.1222,       22.5628,            0.,NA,NA,"",       2.52358,      -2.51346,  -225.773E-03,   6.23007E-03
C:/temp/dataset/3/3_9.odb,Step-1,Increment      1: Step Time =    1.000,"PART-1-1",           766,       9.84566,       21.3197,            0.,NA,NA,"",       2.36066,      -2.33027,  -377.567E-03,   7.11403E-03
C:/temp/dataset/3/3_9.odb,Step-1,Increment      1: Step Time =    1.000,"PART-1-1",           767,      -3.18112,  -190.353E-03,            0.,NA,NA,"",   978.066E-03,  -488.740E-03,  -847.199E-03,   604.767E-06
C:/temp/dataset/3/3_9.odb,Step-1,Increment      1: Step Time =    1.000,"PART-1-1",           768,       4.54417,       1.21940,            0.,NA,NA,"",   730.473E-03,  -562.621E-03,  -465.884E-03,   11.8207E-03
C:/temp/dataset/3/3_9.odb,Step-1,Increment      1: Step Time =    1.000,"PART-1-1",           769,       9.22107,       9.51460,            0.,NA,NA,"",       1.09938,      -1.05838,  -297.439E-03,   9.63880E-03
C:/temp/dataset/3/3_9.odb,Step-1,Increment      1: Step Time =    1.000,"PART-1-1",           770,       11.1709,      -3.71800,            0.,NA,NA,"",   303.287E-03,  -289.725E-03,  -89.6805E-03,   2.46206E-03
C:/temp/dataset/3/3_9.odb,Step-1,Increment      1: Step Time =    1.000,"PART-1-1",           771,       11.0221,      -5.16095,            0.,NA,NA,"",   246.765E-03,  -229.108E-03,  -91.6644E-03,   2.34047E-03
C:/temp/dataset/3/3_9.odb,Step-1,Increment      1: Step Time =    1.000,"PART-1-1",           772,       12.3085,      -4.70099,            0.,NA,NA,"",   252.115E-03,  -248.683E-03,  -41.4567E-03,   1.41410E-03
C:/temp/dataset/3/3_9.odb,Step-1,Increment      1: Step Time =    1.000,"PART-1-1",           773,       5.03877,      -2.41022,            0.,NA,NA,"",   548.815E-03,  -378.028E-03,  -397.860E-03,   14.0781E-03
C:/temp/dataset/3/3_9.odb,Step-1,Increment      1: Step Time =    1.000,"PART-1-1",           774,       11.0080,       9.74440,            0.,NA,NA,"",       1.09008,      -1.07983,  -149.101E-03,   2.28144E-03
C:/temp/dataset/3/3_9.odb,Step-1,Increment      1: Step Time =    1.000,"PART-1-1",           775,       7.33953,      -23.4839,            0.,NA,NA,"",   37.5585E-03,   17.0639E-03,  -33.4583E-03,   8.65392E-03
C:/temp/dataset/3/3_9.odb,Step-1,Increment      1: Step Time =    1.000,"PART-1-1",           776,       6.60048,      -22.7490,            0.,NA,NA,"",   41.3783E-03,   15.9380E-03,  -38.1856E-03,   9.11256E-03
C:/temp/dataset/3/3_9.odb,Step-1,Increment      1: Step Time =    1.000,"PART-1-1",           777,       5.56839,      -23.3719,            0.,NA,NA,"",   31.7890E-03,   9.84005E-03,  -30.2277E-03,   7.83792E-03
C:/temp/dataset/3/3_9.odb,Step-1,Increment      1: Step Time =    1.000,"PART-1-1",           778,       5.56431,      -22.1833,            0.,NA,NA,"",   40.8260E-03,   12.7882E-03,  -38.7714E-03,   9.29592E-03
C:/temp/dataset/3/3_9.odb,Step-1,Increment      1: Step Time =    1.000,"PART-1-1",           779,       7.31291,      -21.9704,            0.,NA,NA,"",   50.6195E-03,   22.2694E-03,  -45.4578E-03,   9.91579E-03
C:/temp/dataset/3/3_9.odb,Step-1,Increment      1: Step Time =    1.000,"PART-1-1",           780,       8.04898,      -22.6975,            0.,NA,NA,"",   45.3697E-03,   23.0284E-03,  -39.0909E-03,   8.80889E-03
C:/temp/dataset/3/3_9.odb,Step-1,Increment      1: Step Time =    1.000,"PART-1-1",           781,       5.89213,  -472.373E-03,            0.,NA,NA,"",   601.217E-03,  -468.925E-03,  -376.260E-03,   13.1038E-03
C:/temp/dataset/3/3_9.odb,Step-1,Increment      1: Step Time =    1.000,"PART-1-1",           782,       8.40014,      -24.0502,            0.,NA,NA,"",   35.1785E-03,   19.4444E-03,  -29.3162E-03,   7.76678E-03
