ODB Name,Step,Frame,Part Instance Name,    êﬂì_ÉâÉxÉã,X,Y,Z,Section Name,Material Name,Section Point,   U-Magnitude,          U-U1,          U-U2,       S-Mises
C:/temp/dataset/3/4_3.odb,Step-1,Increment      1: Step Time =    1.000,"PART-1-1",             1,          -15.,           20.,            0.,NA,NA,"",   401.541E-03,   305.311E-03,   260.807E-03,   64.0763E-09
C:/temp/dataset/3/4_3.odb,Step-1,Increment      1: Step Time =    1.000,"PART-1-1",             2,          -15.,           25.,            0.,NA,NA,"",   460.116E-03,   379.438E-03,   260.256E-03,   680.020E-09
C:/temp/dataset/3/4_3.odb,Step-1,Increment      1: Step Time =    1.000,"PART-1-1",             3,           -5.,           20.,            0.,NA,NA,"",   324.349E-03,   304.205E-03,   112.526E-03,   3.57600E-06
C:/temp/dataset/3/4_3.odb,Step-1,Increment      1: Step Time =    1.000,"PART-1-1",             4,            5.,           20.,            0.,NA,NA,"",   307.226E-03,   305.337E-03,  -34.0171E-03,   659.550E-06
C:/temp/dataset/3/4_3.odb,Step-1,Increment      1: Step Time =    1.000,"PART-1-1",             5,            5.,          12.5,            0.,NA,NA,"",   217.111E-03,   215.122E-03,  -29.3148E-03,   617.788E-06
C:/temp/dataset/3/4_3.odb,Step-1,Increment      1: Step Time =    1.000,"PART-1-1",             6,            5.,            5.,            0.,NA,NA,"",   142.799E-03,   140.711E-03,  -24.3326E-03,   720.477E-06
C:/temp/dataset/3/4_3.odb,Step-1,Increment      1: Step Time =    1.000,"PART-1-1",             7,      -1.70000,            5.,            0.,NA,NA,"",   141.523E-03,   138.831E-03,   27.4722E-03,   65.4821E-06
C:/temp/dataset/3/4_3.odb,Step-1,Increment      1: Step Time =    1.000,"PART-1-1",             8,      -8.40000,            5.,            0.,NA,NA,"",   158.689E-03,   138.926E-03,   76.6911E-03,   1.47396E-06
C:/temp/dataset/3/4_3.odb,Step-1,Increment      1: Step Time =    1.000,"PART-1-1",             9,          -15.,            5.,            0.,NA,NA,"",   187.196E-03,   139.110E-03,   125.263E-03,   49.6325E-09
C:/temp/dataset/3/4_3.odb,Step-1,Increment      1: Step Time =    1.000,"PART-1-1",            10,          -15.,            0.,            0.,NA,NA,"",   161.841E-03,   102.309E-03,   125.401E-03,   722.672E-09
C:/temp/dataset/3/4_3.odb,Step-1,Increment      1: Step Time =    1.000,"PART-1-1",            11,          -15.,           -5.,            0.,NA,NA,"",   141.599E-03,   65.5022E-03,   125.538E-03,   54.0104E-09
C:/temp/dataset/3/4_3.odb,Step-1,Increment      1: Step Time =    1.000,"PART-1-1",            12,      -8.30000,           -5.,            0.,NA,NA,"",   100.371E-03,   65.3161E-03,   76.2116E-03,   1.51789E-06
C:/temp/dataset/3/4_3.odb,Step-1,Increment      1: Step Time =    1.000,"PART-1-1",            13,      -1.60000,           -5.,            0.,NA,NA,"",   70.5157E-03,   65.2264E-03,   26.7951E-03,   74.9228E-06
C:/temp/dataset/3/4_3.odb,Step-1,Increment      1: Step Time =    1.000,"PART-1-1",            14,            5.,           -5.,            0.,NA,NA,"",   69.8656E-03,   67.1702E-03,  -19.2189E-03,   822.406E-06
C:/temp/dataset/3/4_3.odb,Step-1,Increment      1: Step Time =    1.000,"PART-1-1",            15,            5.,         -12.5,            0.,NA,NA,"",   32.9176E-03,   30.1734E-03,  -13.1582E-03,   900.810E-06
C:/temp/dataset/3/4_3.odb,Step-1,Increment      1: Step Time =    1.000,"PART-1-1",            16,            5.,          -20.,            0.,NA,NA,"",   8.74575E-03,   6.20817E-03,  -6.16010E-03,   1.10859E-03
C:/temp/dataset/3/4_3.odb,Step-1,Increment      1: Step Time =    1.000,"PART-1-1",            17,           -5.,          -20.,            0.,NA,NA,"",   1.04077E-03,   1.02685E-03,   169.651E-06,   153.838E-06
C:/temp/dataset/3/4_3.odb,Step-1,Increment      1: Step Time =    1.000,"PART-1-1",            18,          -15.,          -20.,            0.,NA,NA,"",   737.412E-06,   689.316E-06,   261.955E-06,   1.31234E-06
C:/temp/dataset/3/4_3.odb,Step-1,Increment      1: Step Time =    1.000,"PART-1-1",            19,          -15.,          -25.,            0.,NA,NA,"",   508.287E-06,   440.684E-06,   253.285E-06,   14.7132E-06
C:/temp/dataset/3/4_3.odb,Step-1,Increment      1: Step Time =    1.000,"PART-1-1",            20,          -15.,          -30.,            0.,NA,NA,"",            0.,   42.6317E-42,   69.0294E-42,   132.255E-06
C:/temp/dataset/3/4_3.odb,Step-1,Increment      1: Step Time =    1.000,"PART-1-1",            21,           15.,          -30.,            0.,NA,NA,"",            0.,   1.38884E-39,  -2.37774E-39,   4.50065E-03
C:/temp/dataset/3/4_3.odb,Step-1,Increment      1: Step Time =    1.000,"PART-1-1",            22,           15.,         -22.5,            0.,NA,NA,"",   25.3309E-03,   12.0458E-03,  -22.2835E-03,   3.40014E-03
C:/temp/dataset/3/4_3.odb,Step-1,Increment      1: Step Time =    1.000,"PART-1-1",            23,           15.,          -15.,            0.,NA,NA,"",   55.3630E-03,   30.8935E-03,  -45.9418E-03,   3.57202E-03
C:/temp/dataset/3/4_3.odb,Step-1,Increment      1: Step Time =    1.000,"PART-1-1",            24,           15.,          -7.5,            0.,NA,NA,"",   94.7135E-03,   63.3131E-03,  -70.4421E-03,   3.68992E-03
C:/temp/dataset/3/4_3.odb,Step-1,Increment      1: Step Time =    1.000,"PART-1-1",            25,           15.,            0.,            0.,NA,NA,"",   146.219E-03,   110.418E-03,  -95.8535E-03,   3.79754E-03
C:/temp/dataset/3/4_3.odb,Step-1,Increment      1: Step Time =    1.000,"PART-1-1",            26,           15.,           7.5,            0.,NA,NA,"",   212.045E-03,   173.476E-03,  -121.939E-03,   3.85682E-03
C:/temp/dataset/3/4_3.odb,Step-1,Increment      1: Step Time =    1.000,"PART-1-1",            27,           15.,           15.,            0.,NA,NA,"",   293.286E-03,   252.917E-03,  -148.491E-03,   3.90362E-03
C:/temp/dataset/3/4_3.odb,Step-1,Increment      1: Step Time =    1.000,"PART-1-1",            28,           15.,          22.5,            0.,NA,NA,"",   390.902E-03,   349.347E-03,  -175.388E-03,   3.81935E-03
C:/temp/dataset/3/4_3.odb,Step-1,Increment      1: Step Time =    1.000,"PART-1-1",            29,           15.,           30.,            0.,NA,NA,"",   501.478E-03,   460.247E-03,  -199.132E-03,   2.98517E-03
C:/temp/dataset/3/4_3.odb,Step-1,Increment      1: Step Time =    1.000,"PART-1-1",            30,           7.5,           30.,            0.,NA,NA,"",   462.354E-03,   455.202E-03,  -81.0044E-03,   1.66614E-03
C:/temp/dataset/3/4_3.odb,Step-1,Increment      1: Step Time =    1.000,"PART-1-1",            31,            0.,           30.,            0.,NA,NA,"",   453.628E-03,   452.077E-03,   37.4854E-03,   120.722E-06
C:/temp/dataset/3/4_3.odb,Step-1,Increment      1: Step Time =    1.000,"PART-1-1",            32,          -7.5,           30.,            0.,NA,NA,"",   476.471E-03,   452.729E-03,   148.529E-03,   2.05691E-06
C:/temp/dataset/3/4_3.odb,Step-1,Increment      1: Step Time =    1.000,"PART-1-1",            33,          -15.,           30.,            0.,NA,NA,"",   522.650E-03,   453.559E-03,   259.705E-03,   61.9760E-09
C:/temp/dataset/3/4_3.odb,Step-1,Increment      1: Step Time =    1.000,"PART-1-1",            34,          -15.,          22.5,            0.,NA,NA,"",   430.230E-03,   342.375E-03,   260.532E-03,   335.177E-09
C:/temp/dataset/3/4_3.odb,Step-1,Increment      1: Step Time =    1.000,"PART-1-1",            35,          -7.5,           20.,            0.,NA,NA,"",   339.252E-03,   304.480E-03,   149.611E-03,   2.04344E-06
C:/temp/dataset/3/4_3.odb,Step-1,Increment      1: Step Time =    1.000,"PART-1-1",            36,          -10.,           20.,            0.,NA,NA,"",   357.391E-03,   304.759E-03,   186.681E-03,   1.44673E-06
C:/temp/dataset/3/4_3.odb,Step-1,Increment      1: Step Time =    1.000,"PART-1-1",            37,         -12.5,           20.,            0.,NA,NA,"",   378.297E-03,   305.036E-03,   223.744E-03,   400.805E-09
C:/temp/dataset/3/4_3.odb,Step-1,Increment      1: Step Time =    1.000,"PART-1-1",            38,           2.5,           20.,            0.,NA,NA,"",   304.055E-03,   304.052E-03,   1.35169E-03,   401.240E-06
C:/temp/dataset/3/4_3.odb,Step-1,Increment      1: Step Time =    1.000,"PART-1-1",            39,            0.,           20.,            0.,NA,NA,"",   306.247E-03,   303.845E-03,   38.2809E-03,   127.731E-06
C:/temp/dataset/3/4_3.odb,Step-1,Increment      1: Step Time =    1.000,"PART-1-1",            40,          -2.5,           20.,            0.,NA,NA,"",   313.171E-03,   303.956E-03,   75.4088E-03,   31.4609E-06
C:/temp/dataset/3/4_3.odb,Step-1,Increment      1: Step Time =    1.000,"PART-1-1",            41,            5.,           15.,            0.,NA,NA,"",   245.441E-03,   243.494E-03,  -30.8564E-03,   611.630E-06
C:/temp/dataset/3/4_3.odb,Step-1,Increment      1: Step Time =    1.000,"PART-1-1",            42,            5.,          17.5,            0.,NA,NA,"",   275.586E-03,   273.675E-03,  -32.4023E-03,   602.077E-06
C:/temp/dataset/3/4_3.odb,Step-1,Increment      1: Step Time =    1.000,"PART-1-1",            43,            5.,           7.5,            0.,NA,NA,"",   165.944E-03,   163.863E-03,  -26.1922E-03,   677.447E-06
C:/temp/dataset/3/4_3.odb,Step-1,Increment      1: Step Time =    1.000,"PART-1-1",            44,            5.,           10.,            0.,NA,NA,"",   190.609E-03,   188.577E-03,  -27.7586E-03,   638.021E-06
C:/temp/dataset/3/4_3.odb,Step-1,Increment      1: Step Time =    1.000,"PART-1-1",            45,   533.333E-03,            5.,            0.,NA,NA,"",   139.453E-03,   139.016E-03,   11.0207E-03,   185.308E-06
C:/temp/dataset/3/4_3.odb,Step-1,Increment      1: Step Time =    1.000,"PART-1-1",            46,       2.76667,            5.,            0.,NA,NA,"",   139.634E-03,   139.513E-03,  -5.80239E-03,   450.313E-06
C:/temp/dataset/3/4_3.odb,Step-1,Increment      1: Step Time =    1.000,"PART-1-1",            47,      -6.16667,            5.,            0.,NA,NA,"",   151.379E-03,   138.865E-03,   60.2679E-03,   1.59778E-06
C:/temp/dataset/3/4_3.odb,Step-1,Increment      1: Step Time =    1.000,"PART-1-1",            48,      -3.93333,            5.,            0.,NA,NA,"",   145.584E-03,   138.819E-03,   43.8623E-03,   16.0446E-06
C:/temp/dataset/3/4_3.odb,Step-1,Increment      1: Step Time =    1.000,"PART-1-1",            49,      -12.8000,            5.,            0.,NA,NA,"",   176.724E-03,   139.050E-03,   109.071E-03,   360.324E-09
C:/temp/dataset/3/4_3.odb,Step-1,Increment      1: Step Time =    1.000,"PART-1-1",            50,      -10.6000,            5.,            0.,NA,NA,"",   167.166E-03,   138.989E-03,   92.8792E-03,   1.10758E-06
C:/temp/dataset/3/4_3.odb,Step-1,Increment      1: Step Time =    1.000,"PART-1-1",            51,          -15.,           2.5,            0.,NA,NA,"",   174.008E-03,   120.710E-03,   125.331E-03,   387.942E-09
C:/temp/dataset/3/4_3.odb,Step-1,Increment      1: Step Time =    1.000,"PART-1-1",            52,          -15.,          -2.5,            0.,NA,NA,"",   150.940E-03,   83.9060E-03,   125.470E-03,   392.250E-09
C:/temp/dataset/3/4_3.odb,Step-1,Increment      1: Step Time =    1.000,"PART-1-1",            53,      -10.5333,           -5.,            0.,NA,NA,"",   113.401E-03,   65.3795E-03,   92.6565E-03,   1.20840E-06
C:/temp/dataset/3/4_3.odb,Step-1,Increment      1: Step Time =    1.000,"PART-1-1",            54,      -12.7667,           -5.,            0.,NA,NA,"",   127.220E-03,   65.4415E-03,   109.097E-03,   353.171E-09
C:/temp/dataset/3/4_3.odb,Step-1,Increment      1: Step Time =    1.000,"PART-1-1",            55,      -3.83333,           -5.,            0.,NA,NA,"",   78.2676E-03,   65.2114E-03,   43.2815E-03,   20.0960E-06
C:/temp/dataset/3/4_3.odb,Step-1,Increment      1: Step Time =    1.000,"PART-1-1",            56,      -6.06667,           -5.,            0.,NA,NA,"",   88.4811E-03,   65.2544E-03,   59.7560E-03,   1.73224E-06
C:/temp/dataset/3/4_3.odb,Step-1,Increment      1: Step Time =    1.000,"PART-1-1",            57,       2.80000,           -5.,            0.,NA,NA,"",   66.1593E-03,   65.9566E-03,  -5.17460E-03,   508.930E-06
C:/temp/dataset/3/4_3.odb,Step-1,Increment      1: Step Time =    1.000,"PART-1-1",            58,   600.000E-03,           -5.,            0.,NA,NA,"",   66.2783E-03,   65.4223E-03,   10.6174E-03,   189.197E-06
C:/temp/dataset/3/4_3.odb,Step-1,Increment      1: Step Time =    1.000,"PART-1-1",            59,            5.,          -10.,            0.,NA,NA,"",   43.7029E-03,   40.9897E-03,  -15.1587E-03,   862.018E-06
C:/temp/dataset/3/4_3.odb,Step-1,Increment      1: Step Time =    1.000,"PART-1-1",            60,            5.,          -7.5,            0.,NA,NA,"",   56.0602E-03,   53.3982E-03,  -17.0698E-03,   849.977E-06
C:/temp/dataset/3/4_3.odb,Step-1,Increment      1: Step Time =    1.000,"PART-1-1",            61,            5.,         -17.5,            0.,NA,NA,"",   15.7861E-03,   13.0577E-03,  -8.87116E-03,   1.02809E-03
C:/temp/dataset/3/4_3.odb,Step-1,Increment      1: Step Time =    1.000,"PART-1-1",            62,            5.,          -15.,            0.,NA,NA,"",   23.6167E-03,   20.8650E-03,  -11.0634E-03,   942.103E-06
C:/temp/dataset/3/4_3.odb,Step-1,Increment      1: Step Time =    1.000,"PART-1-1",            63,          -2.5,          -20.,            0.,NA,NA,"",   1.51537E-03,   1.51288E-03,   86.9494E-06,   293.821E-06
C:/temp/dataset/3/4_3.odb,Step-1,Increment      1: Step Time =    1.000,"PART-1-1",            64,            0.,          -20.,            0.,NA,NA,"",   2.42548E-03,   2.39930E-03,  -355.410E-06,   511.894E-06
C:/temp/dataset/3/4_3.odb,Step-1,Increment      1: Step Time =    1.000,"PART-1-1",            65,           2.5,          -20.,            0.,NA,NA,"",   4.28769E-03,   3.89964E-03,  -1.78245E-03,   807.188E-06
C:/temp/dataset/3/4_3.odb,Step-1,Increment      1: Step Time =    1.000,"PART-1-1",            66,         -12.5,          -20.,            0.,NA,NA,"",   707.890E-06,   685.830E-06,   175.344E-06,   1.90034E-06
C:/temp/dataset/3/4_3.odb,Step-1,Increment      1: Step Time =    1.000,"PART-1-1",            67,          -10.,          -20.,            0.,NA,NA,"",   713.856E-06,   700.597E-06,   136.944E-06,   20.3100E-06
C:/temp/dataset/3/4_3.odb,Step-1,Increment      1: Step Time =    1.000,"PART-1-1",            68,          -7.5,          -20.,            0.,NA,NA,"",   804.794E-06,   790.777E-06,   149.552E-06,   68.2791E-06
C:/temp/dataset/3/4_3.odb,Step-1,Increment      1: Step Time =    1.000,"PART-1-1",            69,          -15.,         -22.5,            0.,NA,NA,"",   645.086E-06,   587.735E-06,   265.901E-06,   2.60052E-06
C:/temp/dataset/3/4_3.odb,Step-1,Increment      1: Step Time =    1.000,"PART-1-1",            70,          -15.,         -27.5,            0.,NA,NA,"",   312.580E-06,   248.295E-06,   189.884E-06,   54.3056E-06
C:/temp/dataset/3/4_3.odb,Step-1,Increment      1: Step Time =    1.000,"PART-1-1",            71,          12.5,          -30.,            0.,NA,NA,"",            0.,   2.78417E-39,  -6.38426E-39,   2.04253E-03
C:/temp/dataset/3/4_3.odb,Step-1,Increment      1: Step Time =    1.000,"PART-1-1",            72,           10.,          -30.,            0.,NA,NA,"",            0.,  -1.72897E-39,  -4.77715E-39,   1.69489E-03
C:/temp/dataset/3/4_3.odb,Step-1,Increment      1: Step Time =    1.000,"PART-1-1",            73,           7.5,          -30.,            0.,NA,NA,"",            0.,  -1.60102E-39,  -3.74764E-39,   1.23610E-03
C:/temp/dataset/3/4_3.odb,Step-1,Increment      1: Step Time =    1.000,"PART-1-1",            74,            5.,          -30.,            0.,NA,NA,"",            0.,  -111.903E-42,  -1.58541E-39,   855.161E-06
C:/temp/dataset/3/4_3.odb,Step-1,Increment      1: Step Time =    1.000,"PART-1-1",            75,           2.5,          -30.,            0.,NA,NA,"",            0.,  -239.273E-42,  -651.535E-42,   523.487E-06
C:/temp/dataset/3/4_3.odb,Step-1,Increment      1: Step Time =    1.000,"PART-1-1",            76,            0.,          -30.,            0.,NA,NA,"",            0.,  -203.134E-42,  -150.568E-42,   269.463E-06
C:/temp/dataset/3/4_3.odb,Step-1,Increment      1: Step Time =    1.000,"PART-1-1",            77,          -2.5,          -30.,            0.,NA,NA,"",            0.,  -188.566E-42,  -149.835E-42,   104.245E-06
C:/temp/dataset/3/4_3.odb,Step-1,Increment      1: Step Time =    1.000,"PART-1-1",            78,           -5.,          -30.,            0.,NA,NA,"",            0.,  -28.4127E-42,   73.5023E-42,   27.4454E-06
C:/temp/dataset/3/4_3.odb,Step-1,Increment      1: Step Time =    1.000,"PART-1-1",            79,          -7.5,          -30.,            0.,NA,NA,"",            0.,   18.7592E-42,   58.2296E-42,   41.3894E-06
C:/temp/dataset/3/4_3.odb,Step-1,Increment      1: Step Time =    1.000,"PART-1-1",            80,          -10.,          -30.,            0.,NA,NA,"",            0.,   90.1301E-42,   126.740E-42,   53.9517E-06
C:/temp/dataset/3/4_3.odb,Step-1,Increment      1: Step Time =    1.000,"PART-1-1",            81,         -12.5,          -30.,            0.,NA,NA,"",            0.,   110.120E-42,   135.958E-42,   50.3781E-06
C:/temp/dataset/3/4_3.odb,Step-1,Increment      1: Step Time =    1.000,"PART-1-1",            82,           15.,          -25.,            0.,NA,NA,"",   17.0863E-03,   8.47231E-03,  -14.8378E-03,   3.20306E-03
C:/temp/dataset/3/4_3.odb,Step-1,Increment      1: Step Time =    1.000,"PART-1-1",            83,           15.,         -27.5,            0.,NA,NA,"",   9.59000E-03,   5.44427E-03,  -7.89481E-03,   3.34180E-03
C:/temp/dataset/3/4_3.odb,Step-1,Increment      1: Step Time =    1.000,"PART-1-1",            84,           15.,         -17.5,            0.,NA,NA,"",   44.4333E-03,   23.1215E-03,  -37.9436E-03,   3.54245E-03
C:/temp/dataset/3/4_3.odb,Step-1,Increment      1: Step Time =    1.000,"PART-1-1",            85,           15.,          -20.,            0.,NA,NA,"",   34.4313E-03,   16.8449E-03,  -30.0294E-03,   3.48841E-03
C:/temp/dataset/3/4_3.odb,Step-1,Increment      1: Step Time =    1.000,"PART-1-1",            86,           15.,          -10.,            0.,NA,NA,"",   80.3894E-03,   50.9570E-03,  -62.1758E-03,   3.64320E-03
C:/temp/dataset/3/4_3.odb,Step-1,Increment      1: Step Time =    1.000,"PART-1-1",            87,           15.,         -12.5,            0.,NA,NA,"",   67.3115E-03,   40.1666E-03,  -54.0137E-03,   3.60470E-03
C:/temp/dataset/3/4_3.odb,Step-1,Increment      1: Step Time =    1.000,"PART-1-1",            88,           15.,          -2.5,            0.,NA,NA,"",   127.539E-03,   92.9859E-03,  -87.2920E-03,   3.76892E-03
C:/temp/dataset/3/4_3.odb,Step-1,Increment      1: Step Time =    1.000,"PART-1-1",            89,           15.,           -5.,            0.,NA,NA,"",   110.396E-03,   77.3028E-03,  -78.8138E-03,   3.73241E-03
C:/temp/dataset/3/4_3.odb,Step-1,Increment      1: Step Time =    1.000,"PART-1-1",            90,           15.,            5.,            0.,NA,NA,"",   188.427E-03,   150.643E-03,  -113.187E-03,   3.84254E-03
C:/temp/dataset/3/4_3.odb,Step-1,Increment      1: Step Time =    1.000,"PART-1-1",            91,           15.,           2.5,            0.,NA,NA,"",   166.495E-03,   129.627E-03,  -104.486E-03,   3.82419E-03
C:/temp/dataset/3/4_3.odb,Step-1,Increment      1: Step Time =    1.000,"PART-1-1",            92,           15.,          12.5,            0.,NA,NA,"",   264.441E-03,   224.600E-03,  -139.585E-03,   3.88451E-03
C:/temp/dataset/3/4_3.odb,Step-1,Increment      1: Step Time =    1.000,"PART-1-1",            93,           15.,           10.,            0.,NA,NA,"",   237.372E-03,   198.126E-03,  -130.735E-03,   3.86892E-03
C:/temp/dataset/3/4_3.odb,Step-1,Increment      1: Step Time =    1.000,"PART-1-1",            94,           15.,           20.,            0.,NA,NA,"",   356.498E-03,   315.249E-03,  -166.460E-03,   3.90034E-03
C:/temp/dataset/3/4_3.odb,Step-1,Increment      1: Step Time =    1.000,"PART-1-1",            95,           15.,          17.5,            0.,NA,NA,"",   323.957E-03,   283.115E-03,  -157.462E-03,   3.91612E-03
C:/temp/dataset/3/4_3.odb,Step-1,Increment      1: Step Time =    1.000,"PART-1-1",            96,           15.,          27.5,            0.,NA,NA,"",   464.214E-03,   422.650E-03,  -191.994E-03,   3.20962E-03
C:/temp/dataset/3/4_3.odb,Step-1,Increment      1: Step Time =    1.000,"PART-1-1",            97,           15.,           25.,            0.,NA,NA,"",   426.994E-03,   385.305E-03,  -184.021E-03,   3.59696E-03
C:/temp/dataset/3/4_3.odb,Step-1,Increment      1: Step Time =    1.000,"PART-1-1",            98,           10.,           30.,            0.,NA,NA,"",   471.899E-03,   455.357E-03,  -123.850E-03,   2.96502E-03
C:/temp/dataset/3/4_3.odb,Step-1,Increment      1: Step Time =    1.000,"PART-1-1",            99,          12.5,           30.,            0.,NA,NA,"",   485.082E-03,   457.332E-03,  -161.715E-03,   2.89062E-03
C:/temp/dataset/3/4_3.odb,Step-1,Increment      1: Step Time =    1.000,"PART-1-1",           100,           2.5,           30.,            0.,NA,NA,"",   452.319E-03,   452.319E-03,   278.430E-06,   349.014E-06
C:/temp/dataset/3/4_3.odb,Step-1,Increment      1: Step Time =    1.000,"PART-1-1",           101,            5.,           30.,            0.,NA,NA,"",   454.693E-03,   453.110E-03,  -37.9067E-03,   846.750E-06
C:/temp/dataset/3/4_3.odb,Step-1,Increment      1: Step Time =    1.000,"PART-1-1",           102,           -5.,           30.,            0.,NA,NA,"",   465.987E-03,   452.453E-03,   111.491E-03,   3.06084E-06
C:/temp/dataset/3/4_3.odb,Step-1,Increment      1: Step Time =    1.000,"PART-1-1",           103,          -2.5,           30.,            0.,NA,NA,"",   458.302E-03,   452.210E-03,   74.4804E-03,   30.6069E-06
C:/temp/dataset/3/4_3.odb,Step-1,Increment      1: Step Time =    1.000,"PART-1-1",           104,         -12.5,           30.,            0.,NA,NA,"",   505.012E-03,   453.284E-03,   222.644E-03,   401.765E-09
C:/temp/dataset/3/4_3.odb,Step-1,Increment      1: Step Time =    1.000,"PART-1-1",           105,          -10.,           30.,            0.,NA,NA,"",   489.548E-03,   453.008E-03,   185.584E-03,   1.43487E-06
C:/temp/dataset/3/4_3.odb,Step-1,Increment      1: Step Time =    1.000,"PART-1-1",           106,          -15.,          27.5,            0.,NA,NA,"",   490.980E-03,   416.499E-03,   259.980E-03,   335.492E-09
C:/temp/dataset/3/4_3.odb,Step-1,Increment      1: Step Time =    1.000,"PART-1-1",           107,      -12.5013,       25.0052,            0.,NA,NA,"",   440.054E-03,   379.241E-03,   223.213E-03,   446.310E-09
C:/temp/dataset/3/4_3.odb,Step-1,Increment      1: Step Time =    1.000,"PART-1-1",           108,      -10.0028,       27.5014,            0.,NA,NA,"",   455.621E-03,   415.971E-03,   185.899E-03,   759.649E-09
C:/temp/dataset/3/4_3.odb,Step-1,Increment      1: Step Time =    1.000,"PART-1-1",           109,      -2.49865,       22.5268,            0.,NA,NA,"",   349.543E-03,   341.378E-03,   75.1088E-03,   54.4241E-06
C:/temp/dataset/3/4_3.odb,Step-1,Increment      1: Step Time =    1.000,"PART-1-1",           110,      -2.51000,       27.5279,            0.,NA,NA,"",   422.226E-03,   415.528E-03,   74.9063E-03,   51.3533E-06
C:/temp/dataset/3/4_3.odb,Step-1,Increment      1: Step Time =    1.000,"PART-1-1",           111,       12.3864,       22.5464,            0.,NA,NA,"",   373.055E-03,   346.199E-03,  -138.982E-03,   3.05172E-03
C:/temp/dataset/3/4_3.odb,Step-1,Increment      1: Step Time =    1.000,"PART-1-1",           112,       7.35369,       17.5509,            0.,NA,NA,"",   282.055E-03,   275.201E-03,  -61.8021E-03,   1.35577E-03
C:/temp/dataset/3/4_3.odb,Step-1,Increment      1: Step Time =    1.000,"PART-1-1",           113,       12.3201,       14.9467,            0.,NA,NA,"",   274.406E-03,   248.311E-03,  -116.792E-03,   3.00797E-03
C:/temp/dataset/3/4_3.odb,Step-1,Increment      1: Step Time =    1.000,"PART-1-1",           114,       13.2599,       7.39194,            0.,NA,NA,"",   199.577E-03,   169.731E-03,  -104.987E-03,   3.28995E-03
C:/temp/dataset/3/4_3.odb,Step-1,Increment      1: Step Time =    1.000,"PART-1-1",           115,       7.60504,      -5.98204,            0.,NA,NA,"",   71.1114E-03,   62.9863E-03,  -33.0085E-03,   1.52369E-03
C:/temp/dataset/3/4_3.odb,Step-1,Increment      1: Step Time =    1.000,"PART-1-1",           116,       7.71062,      -13.7665,            0.,NA,NA,"",   34.8821E-03,   26.8066E-03,  -22.3197E-03,   1.63426E-03
C:/temp/dataset/3/4_3.odb,Step-1,Increment      1: Step Time =    1.000,"PART-1-1",           117,       11.7208,      -22.4938,            0.,NA,NA,"",   18.1507E-03,   7.56984E-03,  -16.4969E-03,   2.67769E-03
C:/temp/dataset/3/4_3.odb,Step-1,Increment      1: Step Time =    1.000,"PART-1-1",           118,       2.59328,       2.74806,            0.,NA,NA,"",   122.031E-03,   121.960E-03,  -4.15705E-03,   186.314E-06
C:/temp/dataset/3/4_3.odb,Step-1,Increment      1: Step Time =    1.000,"PART-1-1",           119,      -1.32361,      -2.98462,            0.,NA,NA,"",   83.6871E-03,   79.9688E-03,   24.6682E-03,   87.4063E-06
C:/temp/dataset/3/4_3.odb,Step-1,Increment      1: Step Time =    1.000,"PART-1-1",           120,      -6.00563,       3.11026,            0.,NA,NA,"",   138.245E-03,   124.958E-03,   59.1360E-03,   9.67040E-06
C:/temp/dataset/3/4_3.odb,Step-1,Increment      1: Step Time =    1.000,"PART-1-1",           121,      -10.4102,       2.53863,            0.,NA,NA,"",   151.627E-03,   120.870E-03,   91.5484E-03,   444.057E-09
C:/temp/dataset/3/4_3.odb,Step-1,Increment      1: Step Time =    1.000,"PART-1-1",           122,      -12.6184,  -43.2983E-03,            0.,NA,NA,"",   148.409E-03,   101.926E-03,   107.872E-03,   375.535E-09
C:/temp/dataset/3/4_3.odb,Step-1,Increment      1: Step Time =    1.000,"PART-1-1",           123,      -3.88272,       3.23189,            0.,NA,NA,"",   133.126E-03,   125.802E-03,   43.5466E-03,   28.9541E-06
C:/temp/dataset/3/4_3.odb,Step-1,Increment      1: Step Time =    1.000,"PART-1-1",           124,       2.98144,      -22.7363,            0.,NA,NA,"",   2.02970E-03,   1.27112E-03,  -1.58238E-03,   146.049E-06
C:/temp/dataset/3/4_3.odb,Step-1,Increment      1: Step Time =    1.000,"PART-1-1",           125,      -2.42987,      -22.6294,            0.,NA,NA,"",   970.955E-06,   925.428E-06,   293.829E-06,   215.724E-06
C:/temp/dataset/3/4_3.odb,Step-1,Increment      1: Step Time =    1.000,"PART-1-1",           126,      -9.97348,      -22.5672,            0.,NA,NA,"",   625.269E-06,   605.512E-06,   155.937E-06,   52.9303E-06
C:/temp/dataset/3/4_3.odb,Step-1,Increment      1: Step Time =    1.000,"PART-1-1",           127,      -12.4895,      -25.0402,            0.,NA,NA,"",   441.623E-06,   418.077E-06,   142.275E-06,   45.7671E-06
C:/temp/dataset/3/4_3.odb,Step-1,Increment      1: Step Time =    1.000,"PART-1-1",           128,       12.8561,      -14.2595,            0.,NA,NA,"",   50.6224E-03,   30.3158E-03,  -40.5410E-03,   3.00288E-03
C:/temp/dataset/3/4_3.odb,Step-1,Increment      1: Step Time =    1.000,"PART-1-1",           129,       12.7281,      -7.33650,            0.,NA,NA,"",   84.5525E-03,   60.7732E-03,  -58.7856E-03,   3.02789E-03
C:/temp/dataset/3/4_3.odb,Step-1,Increment      1: Step Time =    1.000,"PART-1-1",           130,       12.6427,  -96.8002E-03,            0.,NA,NA,"",   131.820E-03,   106.141E-03,  -78.1702E-03,   3.04855E-03
C:/temp/dataset/3/4_3.odb,Step-1,Increment      1: Step Time =    1.000,"PART-1-1",           131,       7.13014,       10.3328,            0.,NA,NA,"",   199.223E-03,   192.827E-03,  -50.0775E-03,   1.31851E-03
C:/temp/dataset/3/4_3.odb,Step-1,Increment      1: Step Time =    1.000,"PART-1-1",           132,       4.95005,       27.5805,            0.,NA,NA,"",   416.792E-03,   415.205E-03,  -36.3385E-03,   333.362E-06
C:/temp/dataset/3/4_3.odb,Step-1,Increment      1: Step Time =    1.000,"PART-1-1",           133,      -4.99957,       22.5148,            0.,NA,NA,"",   359.467E-03,   341.493E-03,   112.245E-03,   14.5235E-06
C:/temp/dataset/3/4_3.odb,Step-1,Increment      1: Step Time =    1.000,"PART-1-1",           134,      -7.50186,       22.5094,            0.,NA,NA,"",   372.910E-03,   341.691E-03,   149.365E-03,   2.29114E-06
C:/temp/dataset/3/4_3.odb,Step-1,Increment      1: Step Time =    1.000,"PART-1-1",           135,       4.93744,       22.5898,            0.,NA,NA,"",   343.038E-03,   341.308E-03,  -34.4061E-03,   376.365E-06
C:/temp/dataset/3/4_3.odb,Step-1,Increment      1: Step Time =    1.000,"PART-1-1",           136,       2.47758,       22.5593,            0.,NA,NA,"",   341.109E-03,   341.107E-03,   1.26166E-03,   251.939E-06
C:/temp/dataset/3/4_3.odb,Step-1,Increment      1: Step Time =    1.000,"PART-1-1",           137,  -4.46696E-03,       22.5388,            0.,NA,NA,"",   343.351E-03,   341.237E-03,   38.0379E-03,   140.150E-06
C:/temp/dataset/3/4_3.odb,Step-1,Increment      1: Step Time =    1.000,"PART-1-1",           138,       7.20686,       12.6699,            0.,NA,NA,"",   224.376E-03,   217.825E-03,  -53.8193E-03,   1.33329E-03
C:/temp/dataset/3/4_3.odb,Step-1,Increment      1: Step Time =    1.000,"PART-1-1",           139,       7.30679,       15.0771,            0.,NA,NA,"",   252.032E-03,   245.262E-03,  -58.0245E-03,   1.35550E-03
C:/temp/dataset/3/4_3.odb,Step-1,Increment      1: Step Time =    1.000,"PART-1-1",           140,       7.52839,       5.66323,            0.,NA,NA,"",   155.483E-03,   147.914E-03,  -47.9215E-03,   1.45084E-03
C:/temp/dataset/3/4_3.odb,Step-1,Increment      1: Step Time =    1.000,"PART-1-1",           141,       7.20823,       7.96221,            0.,NA,NA,"",   175.841E-03,   169.186E-03,  -47.9171E-03,   1.34062E-03
C:/temp/dataset/3/4_3.odb,Step-1,Increment      1: Step Time =    1.000,"PART-1-1",           142,      -1.77433,       3.17490,            0.,NA,NA,"",   128.445E-03,   125.335E-03,   28.0951E-03,   73.3648E-06
C:/temp/dataset/3/4_3.odb,Step-1,Increment      1: Step Time =    1.000,"PART-1-1",           143,   347.975E-03,       3.01142,            0.,NA,NA,"",   124.710E-03,   124.080E-03,   12.5281E-03,   137.017E-06
C:/temp/dataset/3/4_3.odb,Step-1,Increment      1: Step Time =    1.000,"PART-1-1",           144,      -8.17775,       2.85153,            0.,NA,NA,"",   144.218E-03,   123.112E-03,   75.1134E-03,   2.12574E-06
C:/temp/dataset/3/4_3.odb,Step-1,Increment      1: Step Time =    1.000,"PART-1-1",           145,      -8.45397,      -3.03463,            0.,NA,NA,"",   111.091E-03,   79.7929E-03,   77.2930E-03,   1.46451E-06
C:/temp/dataset/3/4_3.odb,Step-1,Increment      1: Step Time =    1.000,"PART-1-1",           146,      -12.6978,       2.46856,            0.,NA,NA,"",   162.012E-03,   120.416E-03,   108.387E-03,   640.102E-09
C:/temp/dataset/3/4_3.odb,Step-1,Increment      1: Step Time =    1.000,"PART-1-1",           147,      -10.5225,      -2.72745,            0.,NA,NA,"",   123.698E-03,   82.1107E-03,   92.5156E-03,   423.733E-09
C:/temp/dataset/3/4_3.odb,Step-1,Increment      1: Step Time =    1.000,"PART-1-1",           148,      -12.7265,      -2.55241,            0.,NA,NA,"",   137.072E-03,   83.4589E-03,   108.736E-03,   640.634E-09
C:/temp/dataset/3/4_3.odb,Step-1,Increment      1: Step Time =    1.000,"PART-1-1",           149,      -3.80700,      -2.48494,            0.,NA,NA,"",   94.1102E-03,   83.7032E-03,   43.0174E-03,   35.2881E-06
C:/temp/dataset/3/4_3.odb,Step-1,Increment      1: Step Time =    1.000,"PART-1-1",           150,      -6.26959,      -2.94549,            0.,NA,NA,"",   101.032E-03,   80.3900E-03,   61.1962E-03,   8.18272E-06
C:/temp/dataset/3/4_3.odb,Step-1,Increment      1: Step Time =    1.000,"PART-1-1",           151,       2.97297,      -3.34056,            0.,NA,NA,"",   77.6857E-03,   77.3961E-03,  -6.70144E-03,   155.722E-06
C:/temp/dataset/3/4_3.odb,Step-1,Increment      1: Step Time =    1.000,"PART-1-1",           152,   836.982E-03,      -3.21922,            0.,NA,NA,"",   78.7374E-03,   78.2514E-03,   8.73464E-03,   148.924E-06
C:/temp/dataset/3/4_3.odb,Step-1,Increment      1: Step Time =    1.000,"PART-1-1",           153,       7.27849,      -10.7647,            0.,NA,NA,"",   45.9483E-03,   38.7040E-03,  -24.7639E-03,   1.49802E-03
C:/temp/dataset/3/4_3.odb,Step-1,Increment      1: Step Time =    1.000,"PART-1-1",           154,       7.20650,      -8.25133,            0.,NA,NA,"",   57.7143E-03,   50.5994E-03,  -27.7605E-03,   1.44545E-03
C:/temp/dataset/3/4_3.odb,Step-1,Increment      1: Step Time =    1.000,"PART-1-1",           155,       7.07274,      -17.3233,            0.,NA,NA,"",   21.1306E-03,   14.7130E-03,  -15.1667E-03,   1.47694E-03
C:/temp/dataset/3/4_3.odb,Step-1,Increment      1: Step Time =    1.000,"PART-1-1",           156,       6.55788,      -15.2577,            0.,NA,NA,"",   26.3287E-03,   20.8004E-03,  -16.1414E-03,   1.36147E-03
C:/temp/dataset/3/4_3.odb,Step-1,Increment      1: Step Time =    1.000,"PART-1-1",           157,      -7.46685,      -22.5818,            0.,NA,NA,"",   695.580E-06,   664.112E-06,   206.849E-06,   94.4648E-06
C:/temp/dataset/3/4_3.odb,Step-1,Increment      1: Step Time =    1.000,"PART-1-1",           158,      -4.95694,      -22.5955,            0.,NA,NA,"",   822.101E-06,   770.117E-06,   287.699E-06,   149.934E-06
C:/temp/dataset/3/4_3.odb,Step-1,Increment      1: Step Time =    1.000,"PART-1-1",           159,   146.162E-03,      -22.6598,            0.,NA,NA,"",   1.11784E-03,   1.11675E-03,  -49.4597E-06,   249.199E-06
C:/temp/dataset/3/4_3.odb,Step-1,Increment      1: Step Time =    1.000,"PART-1-1",           160,      -12.4860,      -22.5306,            0.,NA,NA,"",   611.715E-06,   586.382E-06,   174.215E-06,   20.5057E-06
C:/temp/dataset/3/4_3.odb,Step-1,Increment      1: Step Time =    1.000,"PART-1-1",           161,       9.96020,      -27.7814,            0.,NA,NA,"",   3.30444E-03,   272.498E-06,  -3.29319E-03,   1.89439E-03
C:/temp/dataset/3/4_3.odb,Step-1,Increment      1: Step Time =    1.000,"PART-1-1",           162,       7.44077,      -27.8946,            0.,NA,NA,"",   2.13471E-03,  -620.080E-06,  -2.04267E-03,   1.24649E-03
C:/temp/dataset/3/4_3.odb,Step-1,Increment      1: Step Time =    1.000,"PART-1-1",           163,       4.93217,      -27.8625,            0.,NA,NA,"",   1.44696E-03,  -893.733E-06,  -1.13796E-03,   726.423E-06
C:/temp/dataset/3/4_3.odb,Step-1,Increment      1: Step Time =    1.000,"PART-1-1",           164,       2.47767,      -27.7470,            0.,NA,NA,"",   906.649E-06,  -764.374E-06,  -487.591E-06,   372.113E-06
C:/temp/dataset/3/4_3.odb,Step-1,Increment      1: Step Time =    1.000,"PART-1-1",           165,   19.5837E-03,      -27.6625,            0.,NA,NA,"",   465.536E-06,  -456.034E-06,  -93.5766E-06,   197.159E-06
C:/temp/dataset/3/4_3.odb,Step-1,Increment      1: Step Time =    1.000,"PART-1-1",           166,      -2.46955,      -27.6154,            0.,NA,NA,"",   173.463E-06,  -159.595E-06,   67.9616E-06,   128.002E-06
C:/temp/dataset/3/4_3.odb,Step-1,Increment      1: Step Time =    1.000,"PART-1-1",           167,      -4.97450,      -27.5844,            0.,NA,NA,"",   105.861E-06,   39.6715E-06,   98.1466E-06,   93.2675E-06
C:/temp/dataset/3/4_3.odb,Step-1,Increment      1: Step Time =    1.000,"PART-1-1",           168,      -7.48283,      -27.5594,            0.,NA,NA,"",   164.548E-06,   142.752E-06,   81.8410E-06,   74.2179E-06
C:/temp/dataset/3/4_3.odb,Step-1,Increment      1: Step Time =    1.000,"PART-1-1",           169,       12.2865,      -25.1793,            0.,NA,NA,"",   11.7324E-03,   4.63054E-03,  -10.7800E-03,   2.80327E-03
C:/temp/dataset/3/4_3.odb,Step-1,Increment      1: Step Time =    1.000,"PART-1-1",           170,       11.6753,      -16.4340,            0.,NA,NA,"",   37.7607E-03,   21.6097E-03,  -30.9660E-03,   2.67513E-03
C:/temp/dataset/3/4_3.odb,Step-1,Increment      1: Step Time =    1.000,"PART-1-1",           171,       11.9685,      -19.5802,            0.,NA,NA,"",   27.6491E-03,   13.5317E-03,  -24.1116E-03,   2.74607E-03
C:/temp/dataset/3/4_3.odb,Step-1,Increment      1: Step Time =    1.000,"PART-1-1",           172,       13.3291,      -9.93034,            0.,NA,NA,"",   73.1539E-03,   48.7299E-03,  -54.5610E-03,   3.17584E-03
C:/temp/dataset/3/4_3.odb,Step-1,Increment      1: Step Time =    1.000,"PART-1-1",           173,       13.4212,      -12.1607,            0.,NA,NA,"",   62.3887E-03,   39.1371E-03,  -48.5864E-03,   3.17783E-03
C:/temp/dataset/3/4_3.odb,Step-1,Increment      1: Step Time =    1.000,"PART-1-1",           174,       12.9633,      -2.52247,            0.,NA,NA,"",   116.058E-03,   89.7155E-03,  -73.6245E-03,   3.13706E-03
C:/temp/dataset/3/4_3.odb,Step-1,Increment      1: Step Time =    1.000,"PART-1-1",           175,       13.1247,      -4.84738,            0.,NA,NA,"",   101.492E-03,   75.3225E-03,  -68.0228E-03,   3.17038E-03
C:/temp/dataset/3/4_3.odb,Step-1,Increment      1: Step Time =    1.000,"PART-1-1",           176,       13.1131,       5.12757,            0.,NA,NA,"",   177.593E-03,   148.824E-03,  -96.9066E-03,   3.23505E-03
C:/temp/dataset/3/4_3.odb,Step-1,Increment      1: Step Time =    1.000,"PART-1-1",           177,       12.1418,       2.60140,            0.,NA,NA,"",   150.276E-03,   126.207E-03,  -81.5768E-03,   2.90717E-03
C:/temp/dataset/3/4_3.odb,Step-1,Increment      1: Step Time =    1.000,"PART-1-1",           178,       12.1760,       12.1629,            0.,NA,NA,"",   241.954E-03,   216.748E-03,  -107.527E-03,   2.95311E-03
C:/temp/dataset/3/4_3.odb,Step-1,Increment      1: Step Time =    1.000,"PART-1-1",           179,       13.0236,       9.64002,            0.,NA,NA,"",   220.442E-03,   191.413E-03,  -109.343E-03,   3.22123E-03
C:/temp/dataset/3/4_3.odb,Step-1,Increment      1: Step Time =    1.000,"PART-1-1",           180,       12.3784,       20.0377,            0.,NA,NA,"",   338.567E-03,   311.874E-03,  -131.766E-03,   3.04313E-03
C:/temp/dataset/3/4_3.odb,Step-1,Increment      1: Step Time =    1.000,"PART-1-1",           181,       12.3660,       17.5135,            0.,NA,NA,"",   305.856E-03,   279.368E-03,  -124.503E-03,   3.03166E-03
C:/temp/dataset/3/4_3.odb,Step-1,Increment      1: Step Time =    1.000,"PART-1-1",           182,       12.4264,       25.0333,            0.,NA,NA,"",   409.341E-03,   382.171E-03,  -146.649E-03,   3.10920E-03
C:/temp/dataset/3/4_3.odb,Step-1,Increment      1: Step Time =    1.000,"PART-1-1",           183,       7.43491,       27.5684,            0.,NA,NA,"",   422.162E-03,   415.186E-03,  -76.4292E-03,   1.73647E-03
C:/temp/dataset/3/4_3.odb,Step-1,Increment      1: Step Time =    1.000,"PART-1-1",           184,  -17.4965E-03,       27.5503,            0.,NA,NA,"",   417.287E-03,   415.549E-03,   38.0535E-03,   135.686E-06
C:/temp/dataset/3/4_3.odb,Step-1,Increment      1: Step Time =    1.000,"PART-1-1",           185,       2.47067,       27.5656,            0.,NA,NA,"",   415.441E-03,   415.440E-03,   1.15238E-03,   214.080E-06
C:/temp/dataset/3/4_3.odb,Step-1,Increment      1: Step Time =    1.000,"PART-1-1",           186,      -7.50286,       27.5043,            0.,NA,NA,"",   441.582E-03,   415.740E-03,   148.844E-03,   2.28494E-06
C:/temp/dataset/3/4_3.odb,Step-1,Increment      1: Step Time =    1.000,"PART-1-1",           187,      -5.00635,       27.5119,            0.,NA,NA,"",   430.366E-03,   415.575E-03,   111.857E-03,   14.4332E-06
C:/temp/dataset/3/4_3.odb,Step-1,Increment      1: Step Time =    1.000,"PART-1-1",           188,      -12.5019,       27.5019,            0.,NA,NA,"",   472.199E-03,   416.253E-03,   222.947E-03,   711.592E-09
C:/temp/dataset/3/4_3.odb,Step-1,Increment      1: Step Time =    1.000,"PART-1-1",           189,      -12.5001,       22.5034,            0.,NA,NA,"",   408.664E-03,   342.151E-03,   223.470E-03,   713.537E-09
C:/temp/dataset/3/4_3.odb,Step-1,Increment      1: Step Time =    1.000,"PART-1-1",           190,      -5.00429,       25.0191,            0.,NA,NA,"",   394.846E-03,   378.608E-03,   112.070E-03,   17.3495E-06
C:/temp/dataset/3/4_3.odb,Step-1,Increment      1: Step Time =    1.000,"PART-1-1",           191,  -15.9173E-03,       25.0642,            0.,NA,NA,"",   380.402E-03,   378.487E-03,   38.1252E-03,   149.586E-06
C:/temp/dataset/3/4_3.odb,Step-1,Increment      1: Step Time =    1.000,"PART-1-1",           192,       9.74355,       15.0604,            0.,NA,NA,"",   261.611E-03,   246.823E-03,  -86.7114E-03,   2.15614E-03
C:/temp/dataset/3/4_3.odb,Step-1,Increment      1: Step Time =    1.000,"PART-1-1",           193,       9.51986,       12.6989,            0.,NA,NA,"",   233.712E-03,   219.774E-03,  -79.5038E-03,   2.08267E-03
C:/temp/dataset/3/4_3.odb,Step-1,Increment      1: Step Time =    1.000,"PART-1-1",           194,       12.1898,      -11.7554,            0.,NA,NA,"",   59.2724E-03,   39.1640E-03,  -44.4904E-03,   2.84160E-03
C:/temp/dataset/3/4_3.odb,Step-1,Increment      1: Step Time =    1.000,"PART-1-1",           195,       9.78251,      -13.4248,            0.,NA,NA,"",   42.9324E-03,   29.8351E-03,  -30.8716E-03,   2.18176E-03
C:/temp/dataset/3/4_3.odb,Step-1,Increment      1: Step Time =    1.000,"PART-1-1",           196,       7.24032,      -19.5057,            0.,NA,NA,"",   15.5009E-03,   8.98852E-03,  -12.6287E-03,   1.55278E-03
C:/temp/dataset/3/4_3.odb,Step-1,Increment      1: Step Time =    1.000,"PART-1-1",           197,      -10.0066,  -139.817E-03,            0.,NA,NA,"",   134.496E-03,   101.146E-03,   88.6489E-03,   842.270E-09
C:/temp/dataset/3/4_3.odb,Step-1,Increment      1: Step Time =    1.000,"PART-1-1",           198,      -8.39380,      -1.43672,            0.,NA,NA,"",   119.507E-03,   91.5544E-03,   76.8090E-03,   2.59250E-06
C:/temp/dataset/3/4_3.odb,Step-1,Increment      1: Step Time =    1.000,"PART-1-1",           199,      -5.07121,  -530.035E-03,            0.,NA,NA,"",   111.197E-03,   98.1176E-03,   52.3225E-03,   23.2187E-06
C:/temp/dataset/3/4_3.odb,Step-1,Increment      1: Step Time =    1.000,"PART-1-1",           200,      -12.5003,      -27.5198,            0.,NA,NA,"",   226.176E-06,   211.087E-06,   81.2282E-06,   66.0368E-06
C:/temp/dataset/3/4_3.odb,Step-1,Increment      1: Step Time =    1.000,"PART-1-1",           201,       8.97180,      -8.86122,            0.,NA,NA,"",   60.5724E-03,   48.8735E-03,  -35.7826E-03,   1.94273E-03
C:/temp/dataset/3/4_3.odb,Step-1,Increment      1: Step Time =    1.000,"PART-1-1",           202,      -2.50561,       25.0360,            0.,NA,NA,"",   385.884E-03,   378.519E-03,   75.0294E-03,   59.4432E-06
C:/temp/dataset/3/4_3.odb,Step-1,Increment      1: Step Time =    1.000,"PART-1-1",           203,      -7.50383,       25.0106,            0.,NA,NA,"",   407.070E-03,   378.771E-03,   149.126E-03,   3.41938E-06
C:/temp/dataset/3/4_3.odb,Step-1,Increment      1: Step Time =    1.000,"PART-1-1",           204,       2.46362,       25.0850,            0.,NA,NA,"",   378.171E-03,   378.169E-03,   1.36079E-03,   234.666E-06
C:/temp/dataset/3/4_3.odb,Step-1,Increment      1: Step Time =    1.000,"PART-1-1",           205,       9.17638,       10.5785,            0.,NA,NA,"",   209.460E-03,   196.765E-03,  -71.8111E-03,   1.97100E-03
C:/temp/dataset/3/4_3.odb,Step-1,Increment      1: Step Time =    1.000,"PART-1-1",           206,       9.65111,       6.46520,            0.,NA,NA,"",   171.244E-03,   156.844E-03,  -68.7356E-03,   2.12568E-03
C:/temp/dataset/3/4_3.odb,Step-1,Increment      1: Step Time =    1.000,"PART-1-1",           207,      -1.99278,       1.34592,            0.,NA,NA,"",   115.645E-03,   111.768E-03,   29.6942E-03,   76.8221E-06
C:/temp/dataset/3/4_3.odb,Step-1,Increment      1: Step Time =    1.000,"PART-1-1",           208,      -5.69490,       1.29843,            0.,NA,NA,"",   125.267E-03,   111.604E-03,   56.8897E-03,   15.6543E-06
C:/temp/dataset/3/4_3.odb,Step-1,Increment      1: Step Time =    1.000,"PART-1-1",           209,       1.92780,   665.778E-03,            0.,NA,NA,"",   106.253E-03,   106.250E-03,   815.983E-06,   161.254E-06
C:/temp/dataset/3/4_3.odb,Step-1,Increment      1: Step Time =    1.000,"PART-1-1",           210,       1.26043,      -1.37778,            0.,NA,NA,"",   91.5599E-03,   91.3846E-03,   5.66384E-03,   162.531E-06
C:/temp/dataset/3/4_3.odb,Step-1,Increment      1: Step Time =    1.000,"PART-1-1",           211,       9.14691,      -16.8280,            0.,NA,NA,"",   28.4615E-03,   17.7708E-03,  -22.2318E-03,   2.00430E-03
C:/temp/dataset/3/4_3.odb,Step-1,Increment      1: Step Time =    1.000,"PART-1-1",           212,   79.9954E-03,      -25.2148,            0.,NA,NA,"",   75.7610E-06,  -64.3433E-06,  -39.9959E-06,   178.785E-06
C:/temp/dataset/3/4_3.odb,Step-1,Increment      1: Step Time =    1.000,"PART-1-1",           213,      -9.97865,      -25.0679,            0.,NA,NA,"",   423.740E-06,   403.367E-06,   129.810E-06,   68.9879E-06
C:/temp/dataset/3/4_3.odb,Step-1,Increment      1: Step Time =    1.000,"PART-1-1",           214,       12.4671,      -27.6040,            0.,NA,NA,"",   5.69511E-03,   2.38220E-03,  -5.17294E-03,   2.80715E-03
C:/temp/dataset/3/4_3.odb,Step-1,Increment      1: Step Time =    1.000,"PART-1-1",           215,       9.82463,      -25.6838,            0.,NA,NA,"",   7.06977E-03,   1.62581E-03,  -6.88029E-03,   2.07628E-03
C:/temp/dataset/3/4_3.odb,Step-1,Increment      1: Step Time =    1.000,"PART-1-1",           216,       2.56344,      -25.3828,            0.,NA,NA,"",   985.672E-06,  -393.097E-06,  -903.894E-06,   269.908E-06
C:/temp/dataset/3/4_3.odb,Step-1,Increment      1: Step Time =    1.000,"PART-1-1",           217,      -2.44121,      -25.1518,            0.,NA,NA,"",   299.028E-06,   187.168E-06,   233.207E-06,   171.837E-06
C:/temp/dataset/3/4_3.odb,Step-1,Increment      1: Step Time =    1.000,"PART-1-1",           218,      -4.95889,      -25.1139,            0.,NA,NA,"",   405.856E-06,   327.389E-06,   239.865E-06,   136.901E-06
C:/temp/dataset/3/4_3.odb,Step-1,Increment      1: Step Time =    1.000,"PART-1-1",           219,       10.3279,  -771.646E-03,            0.,NA,NA,"",   115.202E-03,   98.5538E-03,  -59.6536E-03,   2.31177E-03
C:/temp/dataset/3/4_3.odb,Step-1,Increment      1: Step Time =    1.000,"PART-1-1",           220,       10.4049,       4.48083,            0.,NA,NA,"",   157.068E-03,   139.881E-03,  -71.4402E-03,   2.36578E-03
C:/temp/dataset/3/4_3.odb,Step-1,Increment      1: Step Time =    1.000,"PART-1-1",           221,       9.80969,       17.5478,            0.,NA,NA,"",   292.014E-03,   276.957E-03,  -92.5588E-03,   2.19665E-03
C:/temp/dataset/3/4_3.odb,Step-1,Increment      1: Step Time =    1.000,"PART-1-1",           222,       9.88106,       25.0797,            0.,NA,NA,"",   395.311E-03,   379.792E-03,  -109.678E-03,   2.46139E-03
C:/temp/dataset/3/4_3.odb,Step-1,Increment      1: Step Time =    1.000,"PART-1-1",           223,       9.94975,       27.5346,            0.,NA,NA,"",   432.866E-03,   416.807E-03,  -116.810E-03,   2.96067E-03
C:/temp/dataset/3/4_3.odb,Step-1,Increment      1: Step Time =    1.000,"PART-1-1",           224,       7.36779,       20.0596,            0.,NA,NA,"",   314.194E-03,   307.324E-03,  -65.3397E-03,   1.46612E-03
C:/temp/dataset/3/4_3.odb,Step-1,Increment      1: Step Time =    1.000,"PART-1-1",           225,  -693.206E-03,      -1.01900,            0.,NA,NA,"",   96.3359E-03,   94.2270E-03,   20.0465E-03,   117.337E-06
C:/temp/dataset/3/4_3.odb,Step-1,Increment      1: Step Time =    1.000,"PART-1-1",           226,      -7.47194,      -25.0831,            0.,NA,NA,"",   424.371E-06,   386.073E-06,   176.176E-06,   99.1278E-06
C:/temp/dataset/3/4_3.odb,Step-1,Increment      1: Step Time =    1.000,"PART-1-1",           227,       5.28089,       2.25097,            0.,NA,NA,"",   120.843E-03,   118.196E-03,  -25.1553E-03,   606.252E-06
C:/temp/dataset/3/4_3.odb,Step-1,Increment      1: Step Time =    1.000,"PART-1-1",           228,       9.26575,       8.45073,            0.,NA,NA,"",   188.388E-03,   175.370E-03,  -68.8153E-03,   1.99701E-03
C:/temp/dataset/3/4_3.odb,Step-1,Increment      1: Step Time =    1.000,"PART-1-1",           229,  -81.3472E-03,       1.02952,            0.,NA,NA,"",   110.354E-03,   109.239E-03,   15.6455E-03,   139.452E-06
C:/temp/dataset/3/4_3.odb,Step-1,Increment      1: Step Time =    1.000,"PART-1-1",           230,      -7.67687,   831.326E-03,            0.,NA,NA,"",   129.701E-03,   108.228E-03,   71.4780E-03,   4.83002E-06
C:/temp/dataset/3/4_3.odb,Step-1,Increment      1: Step Time =    1.000,"PART-1-1",           231,      -2.54090,  -531.417E-03,            0.,NA,NA,"",   103.594E-03,   97.9657E-03,   33.6819E-03,   65.6303E-06
C:/temp/dataset/3/4_3.odb,Step-1,Increment      1: Step Time =    1.000,"PART-1-1",           232,      -3.83997,       1.55066,            0.,NA,NA,"",   121.359E-03,   113.389E-03,   43.2562E-03,   36.1390E-06
C:/temp/dataset/3/4_3.odb,Step-1,Increment      1: Step Time =    1.000,"PART-1-1",           233,      -6.84494,  -996.203E-03,            0.,NA,NA,"",   115.125E-03,   94.7501E-03,   65.3933E-03,   8.73590E-06
C:/temp/dataset/3/4_3.odb,Step-1,Increment      1: Step Time =    1.000,"PART-1-1",           234,       5.51335,      -3.03354,            0.,NA,NA,"",   83.2297E-03,   79.8023E-03,  -23.6387E-03,   777.707E-06
C:/temp/dataset/3/4_3.odb,Step-1,Increment      1: Step Time =    1.000,"PART-1-1",           235,       9.62476,      -7.14735,            0.,NA,NA,"",   72.0074E-03,   58.2306E-03,  -42.3587E-03,   2.12896E-03
C:/temp/dataset/3/4_3.odb,Step-1,Increment      1: Step Time =    1.000,"PART-1-1",           236,       7.38903,      -25.9371,            0.,NA,NA,"",   4.19503E-03,  -4.02550E-06,  -4.19503E-03,   1.34460E-03
C:/temp/dataset/3/4_3.odb,Step-1,Increment      1: Step Time =    1.000,"PART-1-1",           237,       4.96373,      -25.7856,            0.,NA,NA,"",   2.38181E-03,  -551.411E-06,  -2.31710E-03,   706.070E-06
C:/temp/dataset/3/4_3.odb,Step-1,Increment      1: Step Time =    1.000,"PART-1-1",           238,       9.37191,      -21.3805,            0.,NA,NA,"",   15.9021E-03,   6.88507E-03,  -14.3343E-03,   2.13175E-03
C:/temp/dataset/3/4_3.odb,Step-1,Increment      1: Step Time =    1.000,"PART-1-1",           239,       9.53380,      -19.3691,            0.,NA,NA,"",   21.7358E-03,   11.3059E-03,  -18.5640E-03,   2.14910E-03
C:/temp/dataset/3/4_3.odb,Step-1,Increment      1: Step Time =    1.000,"PART-1-1",           240,       10.5518,      -5.76730,            0.,NA,NA,"",   83.6705E-03,   66.7770E-03,  -50.4141E-03,   2.40177E-03
C:/temp/dataset/3/4_3.odb,Step-1,Increment      1: Step Time =    1.000,"PART-1-1",           241,       10.8494,      -2.88140,            0.,NA,NA,"",   103.048E-03,   84.7285E-03,  -58.6518E-03,   2.48170E-03
C:/temp/dataset/3/4_3.odb,Step-1,Increment      1: Step Time =    1.000,"PART-1-1",           242,       9.33979,       1.27198,            0.,NA,NA,"",   125.993E-03,   112.746E-03,  -56.2368E-03,   1.98789E-03
C:/temp/dataset/3/4_3.odb,Step-1,Increment      1: Step Time =    1.000,"PART-1-1",           243,       9.83335,       20.0603,            0.,NA,NA,"",   324.472E-03,   309.292E-03,  -98.0855E-03,   2.24288E-03
C:/temp/dataset/3/4_3.odb,Step-1,Increment      1: Step Time =    1.000,"PART-1-1",           244,       7.39102,       25.1069,            0.,NA,NA,"",   385.133E-03,   378.256E-03,  -72.4577E-03,   1.35849E-03
C:/temp/dataset/3/4_3.odb,Step-1,Increment      1: Step Time =    1.000,"PART-1-1",           245,       4.93408,       25.0979,            0.,NA,NA,"",   379.456E-03,   377.799E-03,  -35.4241E-03,   373.176E-06
C:/temp/dataset/3/4_3.odb,Step-1,Increment      1: Step Time =    1.000,"PART-1-1",           246,      -10.0026,       25.0068,            0.,NA,NA,"",   422.248E-03,   378.991E-03,   186.170E-03,   734.129E-09
C:/temp/dataset/3/4_3.odb,Step-1,Increment      1: Step Time =    1.000,"PART-1-1",           247,      -10.0008,       22.5051,            0.,NA,NA,"",   389.421E-03,   341.902E-03,   186.418E-03,   786.379E-09
C:/temp/dataset/3/4_3.odb,Step-1,Increment      1: Step Time =    1.000,"PART-1-1",           248,      -9.99283,      -27.5363,            0.,NA,NA,"",   195.794E-06,   184.701E-06,   64.9662E-06,   66.4710E-06
C:/temp/dataset/3/4_3.odb,Step-1,Increment      1: Step Time =    1.000,"PART-1-1",           249,       3.80746,   187.829E-03,            0.,NA,NA,"",   103.313E-03,   102.483E-03,  -13.0729E-03,   241.878E-06
C:/temp/dataset/3/4_3.odb,Step-1,Increment      1: Step Time =    1.000,"PART-1-1",           250,       11.4886,       7.12458,            0.,NA,NA,"",   186.641E-03,   164.898E-03,  -87.4275E-03,   2.71376E-03
C:/temp/dataset/3/4_3.odb,Step-1,Increment      1: Step Time =    1.000,"PART-1-1",           251,       5.25951,      -23.9756,            0.,NA,NA,"",   3.78929E-03,   584.330E-06,  -3.74396E-03,   825.203E-06
C:/temp/dataset/3/4_3.odb,Step-1,Increment      1: Step Time =    1.000,"PART-1-1",           252,       9.85798,       22.5791,            0.,NA,NA,"",   359.068E-03,   343.738E-03,  -103.798E-03,   2.30584E-03
C:/temp/dataset/3/4_3.odb,Step-1,Increment      1: Step Time =    1.000,"PART-1-1",           253,       7.38133,       22.5911,            0.,NA,NA,"",   348.871E-03,   341.983E-03,  -68.9827E-03,   1.38973E-03
C:/temp/dataset/3/4_3.odb,Step-1,Increment      1: Step Time =    1.000,"PART-1-1",           254,       9.03817,      -10.9527,            0.,NA,NA,"",   50.8702E-03,   39.2257E-03,  -32.3901E-03,   1.97561E-03
C:/temp/dataset/3/4_3.odb,Step-1,Increment      1: Step Time =    1.000,"PART-1-1",           255,       7.30212,      -21.2110,            0.,NA,NA,"",   11.6062E-03,   5.30974E-03,  -10.3204E-03,   1.68569E-03
C:/temp/dataset/3/4_3.odb,Step-1,Increment      1: Step Time =    1.000,"PART-1-1",           256,       8.48263,      -3.88795,            0.,NA,NA,"",   86.6093E-03,   76.0652E-03,  -41.4157E-03,   1.80623E-03
C:/temp/dataset/3/4_3.odb,Step-1,Increment      1: Step Time =    1.000,"PART-1-1",           257,       8.48912,      -1.65164,            0.,NA,NA,"",   101.354E-03,   90.7902E-03,  -45.0541E-03,   1.72136E-03
C:/temp/dataset/3/4_3.odb,Step-1,Increment      1: Step Time =    1.000,"PART-1-1",           258,       8.19007,       3.36514,            0.,NA,NA,"",   138.054E-03,   128.517E-03,  -50.4212E-03,   1.68207E-03
C:/temp/dataset/3/4_3.odb,Step-1,Increment      1: Step Time =    1.000,"PART-1-1",           259,       6.78208,  -317.133E-03,            0.,NA,NA,"",   105.124E-03,   99.2470E-03,  -34.6575E-03,   1.09401E-03
C:/temp/dataset/3/4_3.odb,Step-1,Increment      1: Step Time =    1.000,"PART-1-1",           260,       11.8604,      -10.2109,            0.,NA,NA,"",   65.3551E-03,   45.5014E-03,  -46.9139E-03,   2.75813E-03
C:/temp/dataset/3/4_3.odb,Step-1,Increment      1: Step Time =    1.000,"PART-1-1",           261,       5.00218,  -627.613E-03,            0.,NA,NA,"",   98.8988E-03,   96.5251E-03,  -21.5380E-03,   520.918E-06
C:/temp/dataset/3/4_3.odb,Step-1,Increment      1: Step Time =    1.000,"PART-1-1",           262,       11.1460,      -8.45072,            0.,NA,NA,"",   71.3200E-03,   53.0704E-03,  -47.6453E-03,   2.56275E-03
C:/temp/dataset/3/4_3.odb,Step-1,Increment      1: Step Time =    1.000,"PART-1-1",           263,       11.7180,       5.54683,            0.,NA,NA,"",   173.321E-03,   150.717E-03,  -85.5841E-03,   2.78551E-03
C:/temp/dataset/3/4_3.odb,Step-1,Increment      1: Step Time =    1.000,"PART-1-1",           264,       5.25136,      -21.5985,            0.,NA,NA,"",   6.28892E-03,   3.18799E-03,  -5.42100E-03,   1.02033E-03
C:/temp/dataset/3/4_3.odb,Step-1,Increment      1: Step Time =    1.000,"PART-1-1",           265,       12.4723,       27.5096,            0.,NA,NA,"",   447.050E-03,   419.528E-03,  -154.436E-03,   3.08272E-03
C:/temp/dataset/3/4_3.odb,Step-1,Increment      1: Step Time =    1.000,"PART-1-1",           266,       5.87727,      -22.7682,            0.,NA,NA,"",   5.97134E-03,   1.99401E-03,  -5.62857E-03,   1.09543E-03
C:/temp/dataset/3/4_3.odb,Step-1,Increment      1: Step Time =    1.000,"PART-1-1",           267,       7.32369,      -22.7299,            0.,NA,NA,"",   8.69516E-03,   2.92831E-03,  -8.18724E-03,   1.56403E-03
C:/temp/dataset/3/4_3.odb,Step-1,Increment      1: Step Time =    1.000,"PART-1-1",           268,       11.4923,      -4.55460,            0.,NA,NA,"",   95.2955E-03,   74.9658E-03,  -58.8334E-03,   2.68436E-03
C:/temp/dataset/3/4_3.odb,Step-1,Increment      1: Step Time =    1.000,"PART-1-1",           269,       11.2115,       8.96325,            0.,NA,NA,"",   203.004E-03,   182.340E-03,  -89.2333E-03,   2.63022E-03
C:/temp/dataset/3/4_3.odb,Step-1,Increment      1: Step Time =    1.000,"PART-1-1",           270,       10.8046,       10.5255,            0.,NA,NA,"",   216.761E-03,   197.759E-03,  -88.7511E-03,   2.49967E-03
C:/temp/dataset/3/4_3.odb,Step-1,Increment      1: Step Time =    1.000,"PART-1-1",           271,       7.35536,      -24.2380,            0.,NA,NA,"",   6.36061E-03,   1.24948E-03,  -6.23667E-03,   1.44462E-03
C:/temp/dataset/3/4_3.odb,Step-1,Increment      1: Step Time =    1.000,"PART-1-1",           272,      -3.82134,   150.711E-03,            0.,NA,NA,"",   111.722E-03,   103.066E-03,   43.1173E-03,   39.5279E-06
C:/temp/dataset/3/4_3.odb,Step-1,Increment      1: Step Time =    1.000,"PART-1-1",           273,       3.09609,      -1.70207,            0.,NA,NA,"",   89.1806E-03,   88.8523E-03,  -7.64459E-03,   143.413E-06
C:/temp/dataset/3/4_3.odb,Step-1,Increment      1: Step Time =    1.000,"PART-1-1",           274,       4.56419,      -1.78689,            0.,NA,NA,"",   90.0190E-03,   88.2104E-03,  -17.9541E-03,   380.710E-06
C:/temp/dataset/3/4_3.odb,Step-1,Increment      1: Step Time =    1.000,"PART-1-1",           275,       9.44492,      -23.8624,            0.,NA,NA,"",   10.2956E-03,   3.20211E-03,  -9.78495E-03,   2.08046E-03
C:/temp/dataset/3/4_3.odb,Step-1,Increment      1: Step Time =    1.000,"PART-1-1",           276,       8.77427,      -22.6651,            0.,NA,NA,"",   11.6209E-03,   4.18940E-03,  -10.8395E-03,   1.95444E-03
C:/temp/dataset/3/4_3.odb,Step-1,Increment      1: Step Time =    1.000,"PART-1-1",           277,       10.1837,      -9.28900,            0.,NA,NA,"",   63.0625E-03,   47.9343E-03,  -40.9778E-03,   2.29010E-03
C:/temp/dataset/3/4_3.odb,Step-1,Increment      1: Step Time =    1.000,"PART-1-1",           278,       10.4979,      -10.7612,            0.,NA,NA,"",   57.1780E-03,   41.4738E-03,  -39.3604E-03,   2.37869E-03
C:/temp/dataset/3/4_3.odb,Step-1,Increment      1: Step Time =    1.000,"PART-1-1",           279,       11.2325,      -12.6180,            0.,NA,NA,"",   51.6042E-03,   34.4896E-03,  -38.3857E-03,   2.57241E-03
C:/temp/dataset/3/4_3.odb,Step-1,Increment      1: Step Time =    1.000,"PART-1-1",           280,      -13.7500,       22.5017,            0.,NA,NA,"",   419.176E-03,   342.263E-03,   242.001E-03,   443.529E-09
C:/temp/dataset/3/4_3.odb,Step-1,Increment      1: Step Time =    1.000,"PART-1-1",           281,          -15.,         21.25,            0.,NA,NA,"",   415.720E-03,   323.843E-03,   260.670E-03,   127.955E-09
C:/temp/dataset/3/4_3.odb,Step-1,Increment      1: Step Time =    1.000,"PART-1-1",           282,        -13.75,           20.,            0.,NA,NA,"",   389.652E-03,   305.174E-03,   242.276E-03,   157.229E-09
C:/temp/dataset/3/4_3.odb,Step-1,Increment      1: Step Time =    1.000,"PART-1-1",           283,      -12.5000,       21.2517,            0.,NA,NA,"",   393.336E-03,   323.593E-03,   223.608E-03,   461.050E-09
C:/temp/dataset/3/4_3.odb,Step-1,Increment      1: Step Time =    1.000,"PART-1-1",           284,        -11.25,           30.,            0.,NA,NA,"",   496.995E-03,   453.146E-03,   204.114E-03,   862.774E-09
C:/temp/dataset/3/4_3.odb,Step-1,Increment      1: Step Time =    1.000,"PART-1-1",           285,      -12.5009,       28.7510,            0.,NA,NA,"",   488.530E-03,   434.769E-03,   222.796E-03,   463.108E-09
C:/temp/dataset/3/4_3.odb,Step-1,Increment      1: Step Time =    1.000,"PART-1-1",           286,      -11.2523,       27.5017,            0.,NA,NA,"",   463.614E-03,   416.112E-03,   204.423E-03,   627.904E-09
C:/temp/dataset/3/4_3.odb,Step-1,Increment      1: Step Time =    1.000,"PART-1-1",           287,      -10.0014,       28.7507,            0.,NA,NA,"",   472.526E-03,   434.489E-03,   185.741E-03,   757.215E-09
C:/temp/dataset/3/4_3.odb,Step-1,Increment      1: Step Time =    1.000,"PART-1-1",           288,      -8.75282,       27.5029,            0.,NA,NA,"",   448.273E-03,   415.856E-03,   167.370E-03,   992.461E-09
C:/temp/dataset/3/4_3.odb,Step-1,Increment      1: Step Time =    1.000,"PART-1-1",           289,      -10.0027,       26.2541,            0.,NA,NA,"",   438.863E-03,   397.482E-03,   186.035E-03,   571.783E-09
C:/temp/dataset/3/4_3.odb,Step-1,Increment      1: Step Time =    1.000,"PART-1-1",           290,      -8.75320,       25.0087,            0.,NA,NA,"",   414.315E-03,   378.882E-03,   167.648E-03,   1.79803E-06
C:/temp/dataset/3/4_3.odb,Step-1,Increment      1: Step Time =    1.000,"PART-1-1",           291,      -7.50334,       26.2575,            0.,NA,NA,"",   424.275E-03,   397.256E-03,   148.986E-03,   2.63206E-06
C:/temp/dataset/3/4_3.odb,Step-1,Increment      1: Step Time =    1.000,"PART-1-1",           292,  -10.1921E-03,       23.8015,            0.,NA,NA,"",   361.820E-03,   359.812E-03,   38.0650E-03,   124.175E-06
C:/temp/dataset/3/4_3.odb,Step-1,Increment      1: Step Time =    1.000,"PART-1-1",           293,       1.23656,       22.5490,            0.,NA,NA,"",   341.751E-03,   341.188E-03,   19.6029E-03,   193.299E-06
C:/temp/dataset/3/4_3.odb,Step-1,Increment      1: Step Time =    1.000,"PART-1-1",           294,       2.47060,       23.8222,            0.,NA,NA,"",   359.541E-03,   359.539E-03,   1.30095E-03,   184.100E-06
C:/temp/dataset/3/4_3.odb,Step-1,Increment      1: Step Time =    1.000,"PART-1-1",           295,       1.22385,       25.0746,            0.,NA,NA,"",   378.864E-03,   378.348E-03,   19.7525E-03,   181.950E-06
C:/temp/dataset/3/4_3.odb,Step-1,Increment      1: Step Time =    1.000,"PART-1-1",           296,       13.7132,       25.0166,            0.,NA,NA,"",   417.744E-03,   383.678E-03,  -165.231E-03,   3.34150E-03
C:/temp/dataset/3/4_3.odb,Step-1,Increment      1: Step Time =    1.000,"PART-1-1",           297,           15.,         26.25,            0.,NA,NA,"",   445.520E-03,   403.862E-03,  -188.105E-03,   3.41577E-03
C:/temp/dataset/3/4_3.odb,Step-1,Increment      1: Step Time =    1.000,"PART-1-1",           298,       13.7362,       27.5048,            0.,NA,NA,"",   455.250E-03,   421.066E-03,  -173.080E-03,   3.13824E-03
C:/temp/dataset/3/4_3.odb,Step-1,Increment      1: Step Time =    1.000,"PART-1-1",           299,       12.4494,       26.2714,            0.,NA,NA,"",   428.057E-03,   400.708E-03,  -150.554E-03,   3.10015E-03
C:/temp/dataset/3/4_3.odb,Step-1,Increment      1: Step Time =    1.000,"PART-1-1",           300,       6.19248,       27.5744,            0.,NA,NA,"",   418.773E-03,   414.988E-03,  -56.1821E-03,   811.664E-06
C:/temp/dataset/3/4_3.odb,Step-1,Increment      1: Step Time =    1.000,"PART-1-1",           301,       7.46746,       28.7842,            0.,NA,NA,"",   441.014E-03,   433.944E-03,  -78.6529E-03,   1.76010E-03
C:/temp/dataset/3/4_3.odb,Step-1,Increment      1: Step Time =    1.000,"PART-1-1",           302,          6.25,           30.,            0.,NA,NA,"",   457.862E-03,   454.189E-03,  -57.8784E-03,   729.214E-06
C:/temp/dataset/3/4_3.odb,Step-1,Increment      1: Step Time =    1.000,"PART-1-1",           303,       4.97503,       28.7903,            0.,NA,NA,"",   435.799E-03,   434.220E-03,  -37.0597E-03,   351.969E-06
C:/temp/dataset/3/4_3.odb,Step-1,Increment      1: Step Time =    1.000,"PART-1-1",           304,       11.0878,       17.5306,            0.,NA,NA,"",   298.478E-03,   278.045E-03,  -108.536E-03,   2.61499E-03
C:/temp/dataset/3/4_3.odb,Step-1,Increment      1: Step Time =    1.000,"PART-1-1",           305,       12.3722,       18.7756,            0.,NA,NA,"",   321.960E-03,   295.367E-03,  -128.127E-03,   3.03711E-03
C:/temp/dataset/3/4_3.odb,Step-1,Increment      1: Step Time =    1.000,"PART-1-1",           306,       11.1059,       20.0490,            0.,NA,NA,"",   331.066E-03,   310.476E-03,  -114.931E-03,   2.64509E-03
C:/temp/dataset/3/4_3.odb,Step-1,Increment      1: Step Time =    1.000,"PART-1-1",           307,       9.82152,       18.8041,            0.,NA,NA,"",   307.992E-03,   292.876E-03,  -95.3035E-03,   2.22338E-03
C:/temp/dataset/3/4_3.odb,Step-1,Increment      1: Step Time =    1.000,"PART-1-1",           308,       9.63171,       13.8797,            0.,NA,NA,"",   247.451E-03,   233.092E-03,  -83.0658E-03,   2.11956E-03
C:/temp/dataset/3/4_3.odb,Step-1,Increment      1: Step Time =    1.000,"PART-1-1",           309,       8.52517,       15.0687,            0.,NA,NA,"",   256.359E-03,   245.934E-03,  -72.3647E-03,   1.75558E-03
C:/temp/dataset/3/4_3.odb,Step-1,Increment      1: Step Time =    1.000,"PART-1-1",           310,       7.25683,       13.8735,            0.,NA,NA,"",   237.990E-03,   231.330E-03,  -55.9046E-03,   1.34510E-03
C:/temp/dataset/3/4_3.odb,Step-1,Increment      1: Step Time =    1.000,"PART-1-1",           311,       8.36336,       12.6844,            0.,NA,NA,"",   228.633E-03,   218.702E-03,  -66.6498E-03,   1.70909E-03
C:/temp/dataset/3/4_3.odb,Step-1,Increment      1: Step Time =    1.000,"PART-1-1",           312,       14.0118,       9.82001,            0.,NA,NA,"",   228.700E-03,   194.694E-03,  -119.992E-03,   3.54491E-03
C:/temp/dataset/3/4_3.odb,Step-1,Increment      1: Step Time =    1.000,"PART-1-1",           313,           15.,         11.25,            0.,NA,NA,"",   250.689E-03,   211.136E-03,  -135.153E-03,   3.87650E-03
C:/temp/dataset/3/4_3.odb,Step-1,Increment      1: Step Time =    1.000,"PART-1-1",           314,       13.5880,       12.3315,            0.,NA,NA,"",   252.746E-03,   220.523E-03,  -123.493E-03,   3.41913E-03
C:/temp/dataset/3/4_3.odb,Step-1,Increment      1: Step Time =    1.000,"PART-1-1",           315,       12.5998,       10.9015,            0.,NA,NA,"",   230.956E-03,   203.838E-03,  -108.586E-03,   3.08741E-03
C:/temp/dataset/3/4_3.odb,Step-1,Increment      1: Step Time =    1.000,"PART-1-1",           316,       4.40482,  -219.892E-03,            0.,NA,NA,"",   100.976E-03,   99.4741E-03,  -17.3522E-03,   367.832E-06
C:/temp/dataset/3/4_3.odb,Step-1,Increment      1: Step Time =    1.000,"PART-1-1",           317,       3.45177,  -757.122E-03,            0.,NA,NA,"",   96.1480E-03,   95.5942E-03,  -10.3042E-03,   187.823E-06
C:/temp/dataset/3/4_3.odb,Step-1,Increment      1: Step Time =    1.000,"PART-1-1",           318,       3.83014,      -1.74448,            0.,NA,NA,"",   89.4275E-03,   88.5026E-03,  -12.8286E-03,   232.761E-06
C:/temp/dataset/3/4_3.odb,Step-1,Increment      1: Step Time =    1.000,"PART-1-1",           319,       4.78319,      -1.20725,            0.,NA,NA,"",   94.4320E-03,   92.3499E-03,  -19.7207E-03,   453.182E-06
C:/temp/dataset/3/4_3.odb,Step-1,Increment      1: Step Time =    1.000,"PART-1-1",           320,       10.3408,      -10.0251,            0.,NA,NA,"",   60.0679E-03,   44.6349E-03,  -40.1980E-03,   2.33321E-03
C:/temp/dataset/3/4_3.odb,Step-1,Increment      1: Step Time =    1.000,"PART-1-1",           321,       11.1792,      -10.4860,            0.,NA,NA,"",   61.1941E-03,   43.4491E-03,  -43.0917E-03,   2.56911E-03
C:/temp/dataset/3/4_3.odb,Step-1,Increment      1: Step Time =    1.000,"PART-1-1",           322,       11.5032,      -9.33080,            0.,NA,NA,"",   68.2773E-03,   49.1832E-03,  -47.3583E-03,   2.66131E-03
C:/temp/dataset/3/4_3.odb,Step-1,Increment      1: Step Time =    1.000,"PART-1-1",           323,       10.6649,      -8.86986,            0.,NA,NA,"",   67.1243E-03,   50.4676E-03,  -44.2571E-03,   2.42484E-03
C:/temp/dataset/3/4_3.odb,Step-1,Increment      1: Step Time =    1.000,"PART-1-1",           324,       9.41034,      -12.1888,            0.,NA,NA,"",   46.7621E-03,   34.3356E-03,  -31.7452E-03,   2.07998E-03
C:/temp/dataset/3/4_3.odb,Step-1,Increment      1: Step Time =    1.000,"PART-1-1",           325,       10.5075,      -13.0214,            0.,NA,NA,"",   47.1762E-03,   32.1165E-03,  -34.5561E-03,   2.37826E-03
C:/temp/dataset/3/4_3.odb,Step-1,Increment      1: Step Time =    1.000,"PART-1-1",           326,       10.8652,      -11.6896,            0.,NA,NA,"",   54.3289E-03,   37.8710E-03,  -38.9540E-03,   2.47481E-03
C:/temp/dataset/3/4_3.odb,Step-1,Increment      1: Step Time =    1.000,"PART-1-1",           327,       9.76802,      -10.8570,            0.,NA,NA,"",   53.9563E-03,   40.3167E-03,  -35.8587E-03,   2.17489E-03
C:/temp/dataset/3/4_3.odb,Step-1,Increment      1: Step Time =    1.000,"PART-1-1",           328,       6.12016,      -19.7528,            0.,NA,NA,"",   12.2030E-03,   7.60067E-03,  -9.54684E-03,   1.33525E-03
C:/temp/dataset/3/4_3.odb,Step-1,Increment      1: Step Time =    1.000,"PART-1-1",           329,       7.15653,      -18.4145,            0.,NA,NA,"",   18.1938E-03,   11.7201E-03,  -13.9158E-03,   1.47672E-03
C:/temp/dataset/3/4_3.odb,Step-1,Increment      1: Step Time =    1.000,"PART-1-1",           330,       6.03637,      -17.4116,            0.,NA,NA,"",   18.2648E-03,   13.8278E-03,  -11.9329E-03,   1.24479E-03
C:/temp/dataset/3/4_3.odb,Step-1,Increment      1: Step Time =    1.000,"PART-1-1",           331,            5.,        -18.75,            0.,NA,NA,"",   12.2515E-03,   9.63774E-03,  -7.56400E-03,   1.13036E-03
C:/temp/dataset/3/4_3.odb,Step-1,Increment      1: Step Time =    1.000,"PART-1-1",           332,       13.3604,      -22.4969,            0.,NA,NA,"",   21.7233E-03,   9.67095E-03,  -19.4519E-03,   3.03391E-03
C:/temp/dataset/3/4_3.odb,Step-1,Increment      1: Step Time =    1.000,"PART-1-1",           333,           15.,        -21.25,            0.,NA,NA,"",   29.7739E-03,   14.2696E-03,  -26.1316E-03,   3.44540E-03
C:/temp/dataset/3/4_3.odb,Step-1,Increment      1: Step Time =    1.000,"PART-1-1",           334,       13.4842,      -19.7901,            0.,NA,NA,"",   31.0808E-03,   15.0651E-03,  -27.1857E-03,   3.11642E-03
C:/temp/dataset/3/4_3.odb,Step-1,Increment      1: Step Time =    1.000,"PART-1-1",           335,       11.8446,      -21.0370,            0.,NA,NA,"",   22.7251E-03,   10.2958E-03,  -20.2590E-03,   2.70912E-03
C:/temp/dataset/3/4_3.odb,Step-1,Increment      1: Step Time =    1.000,"PART-1-1",           336,       1.65000,            5.,            0.,NA,NA,"",   139.236E-03,   139.210E-03,   2.70288E-03,   288.591E-06
C:/temp/dataset/3/4_3.odb,Step-1,Increment      1: Step Time =    1.000,"PART-1-1",           337,   440.654E-03,       4.00571,            0.,NA,NA,"",   132.100E-03,   131.572E-03,   11.7957E-03,   130.286E-06
C:/temp/dataset/3/4_3.odb,Step-1,Increment      1: Step Time =    1.000,"PART-1-1",           338,       1.47063,       2.87974,            0.,NA,NA,"",   123.114E-03,   123.041E-03,   4.23465E-03,   164.225E-06
C:/temp/dataset/3/4_3.odb,Step-1,Increment      1: Step Time =    1.000,"PART-1-1",           339,       2.67998,       3.87403,            0.,NA,NA,"",   130.893E-03,   130.801E-03,  -4.91957E-03,   230.443E-06
C:/temp/dataset/3/4_3.odb,Step-1,Increment      1: Step Time =    1.000,"PART-1-1",           340,      -1.46180,      -3.99231,            0.,NA,NA,"",   77.0488E-03,   72.6297E-03,   25.7184E-03,   62.8768E-06
C:/temp/dataset/3/4_3.odb,Step-1,Increment      1: Step Time =    1.000,"PART-1-1",           341,     -500.E-03,           -5.,            0.,NA,NA,"",   67.9138E-03,   65.2940E-03,   18.6811E-03,   134.038E-06
C:/temp/dataset/3/4_3.odb,Step-1,Increment      1: Step Time =    1.000,"PART-1-1",           342,   718.491E-03,      -4.10961,            0.,NA,NA,"",   72.5182E-03,   71.8716E-03,   9.66262E-03,   144.689E-06
C:/temp/dataset/3/4_3.odb,Step-1,Increment      1: Step Time =    1.000,"PART-1-1",           343,  -243.313E-03,      -3.10192,            0.,NA,NA,"",   80.8407E-03,   79.0991E-03,   16.6896E-03,   118.896E-06
C:/temp/dataset/3/4_3.odb,Step-1,Increment      1: Step Time =    1.000,"PART-1-1",           344,      -3.82017,      -3.74247,            0.,NA,NA,"",   86.0638E-03,   74.4689E-03,   43.1434E-03,   21.1871E-06
C:/temp/dataset/3/4_3.odb,Step-1,Increment      1: Step Time =    1.000,"PART-1-1",           345,      -2.71667,           -5.,            0.,NA,NA,"",   74.0224E-03,   65.2044E-03,   35.0385E-03,   47.4229E-06
C:/temp/dataset/3/4_3.odb,Step-1,Increment      1: Step Time =    1.000,"PART-1-1",           346,      -2.56530,      -2.73478,            0.,NA,NA,"",   88.5537E-03,   81.8302E-03,   33.8465E-03,   61.4060E-06
C:/temp/dataset/3/4_3.odb,Step-1,Increment      1: Step Time =    1.000,"PART-1-1",           347,      -13.8092,  -21.6491E-03,            0.,NA,NA,"",   155.023E-03,   102.118E-03,   116.636E-03,   485.497E-09
C:/temp/dataset/3/4_3.odb,Step-1,Increment      1: Step Time =    1.000,"PART-1-1",           348,      -12.6581,       1.21263,            0.,NA,NA,"",   155.084E-03,   111.172E-03,   108.129E-03,   395.173E-09
C:/temp/dataset/3/4_3.odb,Step-1,Increment      1: Step Time =    1.000,"PART-1-1",           349,      -13.8489,       2.48428,            0.,NA,NA,"",   167.904E-03,   120.563E-03,   116.860E-03,   424.331E-09
C:/temp/dataset/3/4_3.odb,Step-1,Increment      1: Step Time =    1.000,"PART-1-1",           350,          -15.,          1.25,            0.,NA,NA,"",   167.783E-03,   111.510E-03,   125.366E-03,   593.906E-09
C:/temp/dataset/3/4_3.odb,Step-1,Increment      1: Step Time =    1.000,"PART-1-1",           351,      -8.84172,   345.754E-03,            0.,NA,NA,"",   131.793E-03,   104.688E-03,   80.0624E-03,   2.65960E-06
C:/temp/dataset/3/4_3.odb,Step-1,Increment      1: Step Time =    1.000,"PART-1-1",           352,      -9.20019,  -788.270E-03,            0.,NA,NA,"",   126.994E-03,   96.3502E-03,   82.7297E-03,   1.67295E-06
C:/temp/dataset/3/4_3.odb,Step-1,Increment      1: Step Time =    1.000,"PART-1-1",           353,      -7.61937,      -1.21646,            0.,NA,NA,"",   117.187E-03,   93.1534E-03,   71.1009E-03,   5.72038E-06
C:/temp/dataset/3/4_3.odb,Step-1,Increment      1: Step Time =    1.000,"PART-1-1",           354,      -7.26090,  -82.4387E-03,            0.,NA,NA,"",   122.408E-03,   101.489E-03,   68.4368E-03,   6.08617E-06
C:/temp/dataset/3/4_3.odb,Step-1,Increment      1: Step Time =    1.000,"PART-1-1",           355,      -12.7466,      -3.77621,            0.,NA,NA,"",   131.930E-03,   74.4500E-03,   108.917E-03,   434.266E-09
C:/temp/dataset/3/4_3.odb,Step-1,Increment      1: Step Time =    1.000,"PART-1-1",           356,      -13.8633,      -2.52621,            0.,NA,NA,"",   143.930E-03,   83.6825E-03,   117.103E-03,   423.208E-09
C:/temp/dataset/3/4_3.odb,Step-1,Increment      1: Step Time =    1.000,"PART-1-1",           357,          -15.,         -3.75,            0.,NA,NA,"",   146.054E-03,   74.7041E-03,   125.504E-03,   140.813E-09
C:/temp/dataset/3/4_3.odb,Step-1,Increment      1: Step Time =    1.000,"PART-1-1",           358,      -13.8833,           -5.,            0.,NA,NA,"",   134.350E-03,   65.4719E-03,   117.317E-03,   142.158E-09
C:/temp/dataset/3/4_3.odb,Step-1,Increment      1: Step Time =    1.000,"PART-1-1",           359,      -5.03830,      -2.71522,            0.,NA,NA,"",   97.1992E-03,   82.0498E-03,   52.1107E-03,   20.9156E-06
C:/temp/dataset/3/4_3.odb,Step-1,Increment      1: Step Time =    1.000,"PART-1-1",           360,      -4.43911,      -1.50749,            0.,NA,NA,"",   102.645E-03,   90.9032E-03,   47.6720E-03,   26.6920E-06
C:/temp/dataset/3/4_3.odb,Step-1,Increment      1: Step Time =    1.000,"PART-1-1",           361,      -5.95808,  -763.119E-03,            0.,NA,NA,"",   112.979E-03,   96.4366E-03,   58.8568E-03,   15.0710E-06
C:/temp/dataset/3/4_3.odb,Step-1,Increment      1: Step Time =    1.000,"PART-1-1",           362,      -6.55726,      -1.97085,            0.,NA,NA,"",   108.049E-03,   87.5704E-03,   63.2938E-03,   8.05637E-06
C:/temp/dataset/3/4_3.odb,Step-1,Increment      1: Step Time =    1.000,"PART-1-1",           363,          6.25,          -30.,            0.,NA,NA,"",            0.,  -480.955E-42,  -1.78432E-39,   1.04019E-03
C:/temp/dataset/3/4_3.odb,Step-1,Increment      1: Step Time =    1.000,"PART-1-1",           364,       7.47038,      -28.9473,            0.,NA,NA,"",   1.11320E-03,  -518.119E-06,  -985.276E-06,   1.22987E-03
C:/temp/dataset/3/4_3.odb,Step-1,Increment      1: Step Time =    1.000,"PART-1-1",           365,       6.18647,      -27.8786,            0.,NA,NA,"",   1.77431E-03,  -822.012E-06,  -1.57241E-03,   978.059E-06
C:/temp/dataset/3/4_3.odb,Step-1,Increment      1: Step Time =    1.000,"PART-1-1",           366,       4.96608,      -28.9312,            0.,NA,NA,"",   855.505E-06,  -632.709E-06,  -575.818E-06,   783.394E-06
C:/temp/dataset/3/4_3.odb,Step-1,Increment      1: Step Time =    1.000,"PART-1-1",           367,       3.70492,      -27.8047,            0.,NA,NA,"",   1.17144E-03,  -867.794E-06,  -786.894E-06,   536.265E-06
C:/temp/dataset/3/4_3.odb,Step-1,Increment      1: Step Time =    1.000,"PART-1-1",           368,       2.48883,      -28.8735,            0.,NA,NA,"",   602.881E-06,  -537.338E-06,  -273.376E-06,   435.400E-06
C:/temp/dataset/3/4_3.odb,Step-1,Increment      1: Step Time =    1.000,"PART-1-1",           369,          3.75,          -30.,            0.,NA,NA,"",            0.,  -447.666E-42,  -999.562E-42,   683.883E-06
C:/temp/dataset/3/4_3.odb,Step-1,Increment      1: Step Time =    1.000,"PART-1-1",           370,      -3.72203,      -27.5999,            0.,NA,NA,"",   103.561E-06,  -44.8769E-06,   93.3330E-06,   105.721E-06
C:/temp/dataset/3/4_3.odb,Step-1,Increment      1: Step Time =    1.000,"PART-1-1",           371,      -4.98725,      -28.7922,            0.,NA,NA,"",   35.9798E-06,  -4.85014E-06,   35.6514E-06,   51.9177E-06
C:/temp/dataset/3/4_3.odb,Step-1,Increment      1: Step Time =    1.000,"PART-1-1",           372,         -3.75,          -30.,            0.,NA,NA,"",            0.,  -47.9356E-42,   849.187E-45,   59.2315E-06
C:/temp/dataset/3/4_3.odb,Step-1,Increment      1: Step Time =    1.000,"PART-1-1",           373,      -2.48478,      -28.8077,            0.,NA,NA,"",   135.921E-06,  -135.568E-06,   9.77731E-06,   85.5583E-06
C:/temp/dataset/3/4_3.odb,Step-1,Increment      1: Step Time =    1.000,"PART-1-1",           374,      -13.7501,      -27.5099,            0.,NA,NA,"",   245.773E-06,   221.362E-06,   106.786E-06,   52.0337E-06
C:/temp/dataset/3/4_3.odb,Step-1,Increment      1: Step Time =    1.000,"PART-1-1",           375,          -15.,        -28.75,            0.,NA,NA,"",   175.036E-06,   138.263E-06,   107.334E-06,   84.0861E-06
C:/temp/dataset/3/4_3.odb,Step-1,Increment      1: Step Time =    1.000,"PART-1-1",           376,        -13.75,          -30.,            0.,NA,NA,"",            0.,   18.6191E-42,   99.6575E-42,   86.7350E-06
C:/temp/dataset/3/4_3.odb,Step-1,Increment      1: Step Time =    1.000,"PART-1-1",           377,      -12.5001,      -28.7599,            0.,NA,NA,"",   102.166E-06,   95.2151E-06,   37.0411E-06,   60.1652E-06
C:/temp/dataset/3/4_3.odb,Step-1,Increment      1: Step Time =    1.000,"PART-1-1",           378,       8.15833,      -10.8587,            0.,NA,NA,"",   48.2909E-03,   38.9169E-03,  -28.5917E-03,   1.73605E-03
C:/temp/dataset/3/4_3.odb,Step-1,Increment      1: Step Time =    1.000,"PART-1-1",           379,       9.00498,      -9.90697,            0.,NA,NA,"",   55.5965E-03,   43.9129E-03,  -34.0973E-03,   1.96163E-03
C:/temp/dataset/3/4_3.odb,Step-1,Increment      1: Step Time =    1.000,"PART-1-1",           380,       8.08915,      -8.55627,            0.,NA,NA,"",   59.0010E-03,   49.6763E-03,  -31.8335E-03,   1.69955E-03
C:/temp/dataset/3/4_3.odb,Step-1,Increment      1: Step Time =    1.000,"PART-1-1",           381,       7.24249,      -9.50802,            0.,NA,NA,"",   51.6416E-03,   44.4547E-03,  -26.2800E-03,   1.47463E-03
C:/temp/dataset/3/4_3.odb,Step-1,Increment      1: Step Time =    1.000,"PART-1-1",           382,       13.9816,      -2.51124,            0.,NA,NA,"",   121.682E-03,   91.2779E-03,  -80.4667E-03,   3.45232E-03
C:/temp/dataset/3/4_3.odb,Step-1,Increment      1: Step Time =    1.000,"PART-1-1",           383,           15.,         -1.25,            0.,NA,NA,"",   136.683E-03,   101.481E-03,  -91.5630E-03,   3.78354E-03
C:/temp/dataset/3/4_3.odb,Step-1,Increment      1: Step Time =    1.000,"PART-1-1",           384,       13.8213,  -48.4001E-03,            0.,NA,NA,"",   138.828E-03,   108.180E-03,  -87.0069E-03,   3.42355E-03
C:/temp/dataset/3/4_3.odb,Step-1,Increment      1: Step Time =    1.000,"PART-1-1",           385,       12.8030,      -1.30964,            0.,NA,NA,"",   123.763E-03,   97.7197E-03,  -75.9485E-03,   3.09236E-03
C:/temp/dataset/3/4_3.odb,Step-1,Increment      1: Step Time =    1.000,"PART-1-1",           386,           15.,          1.25,            0.,NA,NA,"",   156.152E-03,   119.799E-03,  -100.159E-03,   3.81014E-03
C:/temp/dataset/3/4_3.odb,Step-1,Increment      1: Step Time =    1.000,"PART-1-1",           387,       13.5709,       2.55070,            0.,NA,NA,"",   158.072E-03,   127.770E-03,  -93.0680E-03,   3.36314E-03
C:/temp/dataset/3/4_3.odb,Step-1,Increment      1: Step Time =    1.000,"PART-1-1",           388,       12.3922,       1.25230,            0.,NA,NA,"",   140.818E-03,   115.911E-03,  -79.9640E-03,   2.97919E-03
C:/temp/dataset/3/4_3.odb,Step-1,Increment      1: Step Time =    1.000,"PART-1-1",           389,      -5.00532,       26.2655,            0.,NA,NA,"",   412.574E-03,   397.090E-03,   111.966E-03,   14.1509E-06
C:/temp/dataset/3/4_3.odb,Step-1,Increment      1: Step Time =    1.000,"PART-1-1",           390,      -3.75495,       25.0275,            0.,NA,NA,"",   389.962E-03,   378.574E-03,   93.5491E-03,   37.9186E-06
C:/temp/dataset/3/4_3.odb,Step-1,Increment      1: Step Time =    1.000,"PART-1-1",           391,      -2.50780,       26.2820,            0.,NA,NA,"",   404.032E-03,   397.014E-03,   74.9762E-03,   48.4980E-06
C:/temp/dataset/3/4_3.odb,Step-1,Increment      1: Step Time =    1.000,"PART-1-1",           392,      -3.75817,       27.5199,            0.,NA,NA,"",   425.915E-03,   415.553E-03,   93.3750E-03,   32.2393E-06
C:/temp/dataset/3/4_3.odb,Step-1,Increment      1: Step Time =    1.000,"PART-1-1",           393,      -5.00193,       23.7670,            0.,NA,NA,"",   377.112E-03,   360.049E-03,   112.155E-03,   14.2950E-06
C:/temp/dataset/3/4_3.odb,Step-1,Increment      1: Step Time =    1.000,"PART-1-1",           394,      -6.25406,       25.0149,            0.,NA,NA,"",   400.580E-03,   378.693E-03,   130.598E-03,   10.3588E-06
C:/temp/dataset/3/4_3.odb,Step-1,Increment      1: Step Time =    1.000,"PART-1-1",           395,      -7.50285,       23.7600,            0.,NA,NA,"",   389.924E-03,   360.232E-03,   149.245E-03,   2.63241E-06
C:/temp/dataset/3/4_3.odb,Step-1,Increment      1: Step Time =    1.000,"PART-1-1",           396,      -6.25071,       22.5121,            0.,NA,NA,"",   365.782E-03,   341.592E-03,   130.808E-03,   8.27482E-06
C:/temp/dataset/3/4_3.odb,Step-1,Increment      1: Step Time =    1.000,"PART-1-1",           397,      -12.5007,       23.7543,            0.,NA,NA,"",   424.245E-03,   360.696E-03,   223.342E-03,   472.714E-09
C:/temp/dataset/3/4_3.odb,Step-1,Increment      1: Step Time =    1.000,"PART-1-1",           398,      -13.7507,       25.0026,            0.,NA,NA,"",   449.816E-03,   379.339E-03,   241.735E-03,   492.810E-09
C:/temp/dataset/3/4_3.odb,Step-1,Increment      1: Step Time =    1.000,"PART-1-1",           399,          -15.,         23.75,            0.,NA,NA,"",   445.038E-03,   360.906E-03,   260.395E-03,   538.155E-09
C:/temp/dataset/3/4_3.odb,Step-1,Increment      1: Step Time =    1.000,"PART-1-1",           400,       1.22659,       27.5580,            0.,NA,NA,"",   415.968E-03,   415.504E-03,   19.6401E-03,   171.186E-06
C:/temp/dataset/3/4_3.odb,Step-1,Increment      1: Step Time =    1.000,"PART-1-1",           401,       2.48534,       28.7828,            0.,NA,NA,"",   433.917E-03,   433.917E-03,   778.121E-06,   208.121E-06
C:/temp/dataset/3/4_3.odb,Step-1,Increment      1: Step Time =    1.000,"PART-1-1",           402,          1.25,           30.,            0.,NA,NA,"",   452.534E-03,   452.137E-03,   18.9433E-03,   230.840E-06
C:/temp/dataset/3/4_3.odb,Step-1,Increment      1: Step Time =    1.000,"PART-1-1",           403,  -8.74824E-03,       28.7751,            0.,NA,NA,"",   435.509E-03,   433.866E-03,   37.7934E-03,   94.9881E-06
C:/temp/dataset/3/4_3.odb,Step-1,Increment      1: Step Time =    1.000,"PART-1-1",           404,  -16.7069E-03,       26.3073,            0.,NA,NA,"",   398.809E-03,   396.984E-03,   38.1086E-03,   119.798E-06
C:/temp/dataset/3/4_3.odb,Step-1,Increment      1: Step Time =    1.000,"PART-1-1",           405,       2.46714,       26.3253,            0.,NA,NA,"",   396.706E-03,   396.704E-03,   1.28555E-03,   190.411E-06
C:/temp/dataset/3/4_3.odb,Step-1,Increment      1: Step Time =    1.000,"PART-1-1",           406,       3.70751,       22.5746,            0.,NA,NA,"",   341.567E-03,   341.159E-03,  -16.6972E-03,   176.970E-06
C:/temp/dataset/3/4_3.odb,Step-1,Increment      1: Step Time =    1.000,"PART-1-1",           407,       2.48879,       21.2797,            0.,NA,NA,"",   322.700E-03,   322.697E-03,   1.22701E-03,   225.683E-06
C:/temp/dataset/3/4_3.odb,Step-1,Increment      1: Step Time =    1.000,"PART-1-1",           408,          3.75,           20.,            0.,NA,NA,"",   305.078E-03,   304.613E-03,  -16.8305E-03,   539.359E-06
C:/temp/dataset/3/4_3.odb,Step-1,Increment      1: Step Time =    1.000,"PART-1-1",           409,       4.96872,       21.2949,            0.,NA,NA,"",   324.728E-03,   322.915E-03,  -34.2688E-03,   439.968E-06
C:/temp/dataset/3/4_3.odb,Step-1,Increment      1: Step Time =    1.000,"PART-1-1",           410,       10.8479,       12.4309,            0.,NA,NA,"",   237.362E-03,   218.122E-03,  -93.6154E-03,   2.51694E-03
C:/temp/dataset/3/4_3.odb,Step-1,Increment      1: Step Time =    1.000,"PART-1-1",           411,       9.34812,       11.6387,            0.,NA,NA,"",   221.413E-03,   208.107E-03,  -75.5993E-03,   2.02686E-03
C:/temp/dataset/3/4_3.odb,Step-1,Increment      1: Step Time =    1.000,"PART-1-1",           412,       9.99050,       10.5520,            0.,NA,NA,"",   212.933E-03,   197.217E-03,  -80.2866E-03,   2.23964E-03
C:/temp/dataset/3/4_3.odb,Step-1,Increment      1: Step Time =    1.000,"PART-1-1",           413,       11.4903,       11.3442,            0.,NA,NA,"",   229.127E-03,   207.128E-03,  -97.9656E-03,   2.72385E-03
C:/temp/dataset/3/4_3.odb,Step-1,Increment      1: Step Time =    1.000,"PART-1-1",           414,       7.16850,       11.5014,            0.,NA,NA,"",   211.598E-03,   205.125E-03,  -51.9354E-03,   1.32504E-03
C:/temp/dataset/3/4_3.odb,Step-1,Increment      1: Step Time =    1.000,"PART-1-1",           415,       6.10343,       12.5850,            0.,NA,NA,"",   220.334E-03,   216.385E-03,  -41.5310E-03,   975.594E-06
C:/temp/dataset/3/4_3.odb,Step-1,Increment      1: Step Time =    1.000,"PART-1-1",           416,            5.,         11.25,            0.,NA,NA,"",   203.633E-03,   201.623E-03,  -28.5401E-03,   628.545E-06
C:/temp/dataset/3/4_3.odb,Step-1,Increment      1: Step Time =    1.000,"PART-1-1",           417,       6.06507,       10.1664,            0.,NA,NA,"",   194.540E-03,   190.618E-03,  -38.8634E-03,   979.432E-06
C:/temp/dataset/3/4_3.odb,Step-1,Increment      1: Step Time =    1.000,"PART-1-1",           418,       14.0565,       5.06378,            0.,NA,NA,"",   182.868E-03,   149.670E-03,  -105.069E-03,   3.53956E-03
C:/temp/dataset/3/4_3.odb,Step-1,Increment      1: Step Time =    1.000,"PART-1-1",           419,       12.6274,       3.86448,            0.,NA,NA,"",   163.633E-03,   137.276E-03,  -89.0574E-03,   3.07228E-03
C:/temp/dataset/3/4_3.odb,Step-1,Increment      1: Step Time =    1.000,"PART-1-1",           420,           15.,          3.75,            0.,NA,NA,"",   177.252E-03,   139.908E-03,  -108.829E-03,   3.83348E-03
C:/temp/dataset/3/4_3.odb,Step-1,Increment      1: Step Time =    1.000,"PART-1-1",           421,       10.0280,       5.47301,            0.,NA,NA,"",   163.991E-03,   148.209E-03,  -70.1936E-03,   2.24644E-03
C:/temp/dataset/3/4_3.odb,Step-1,Increment      1: Step Time =    1.000,"PART-1-1",           422,       11.0614,       5.01383,            0.,NA,NA,"",   165.046E-03,   145.234E-03,  -78.4060E-03,   2.57564E-03
C:/temp/dataset/3/4_3.odb,Step-1,Increment      1: Step Time =    1.000,"PART-1-1",           423,       11.6033,       6.33570,            0.,NA,NA,"",   179.892E-03,   157.713E-03,  -86.5315E-03,   2.75098E-03
C:/temp/dataset/3/4_3.odb,Step-1,Increment      1: Step Time =    1.000,"PART-1-1",           424,       10.5698,       6.79489,            0.,NA,NA,"",   178.715E-03,   160.797E-03,  -77.9974E-03,   2.41867E-03
C:/temp/dataset/3/4_3.odb,Step-1,Increment      1: Step Time =    1.000,"PART-1-1",           425,      -4.94418,       3.17107,            0.,NA,NA,"",   135.482E-03,   125.379E-03,   51.3377E-03,   19.2363E-06
C:/temp/dataset/3/4_3.odb,Step-1,Increment      1: Step Time =    1.000,"PART-1-1",           426,      -3.90803,       4.11594,            0.,NA,NA,"",   139.349E-03,   132.318E-03,   43.7063E-03,   18.7504E-06
C:/temp/dataset/3/4_3.odb,Step-1,Increment      1: Step Time =    1.000,"PART-1-1",           427,      -5.05000,            5.,            0.,NA,NA,"",   148.278E-03,   138.838E-03,   52.0629E-03,   9.25117E-06
C:/temp/dataset/3/4_3.odb,Step-1,Increment      1: Step Time =    1.000,"PART-1-1",           428,      -6.08615,       4.05513,            0.,NA,NA,"",   144.796E-03,   131.914E-03,   59.7025E-03,   4.94065E-06
C:/temp/dataset/3/4_3.odb,Step-1,Increment      1: Step Time =    1.000,"PART-1-1",           429,      -3.86135,       2.39128,            0.,NA,NA,"",   127.229E-03,   119.596E-03,   43.4054E-03,   30.4987E-06
C:/temp/dataset/3/4_3.odb,Step-1,Increment      1: Step Time =    1.000,"PART-1-1",           430,      -5.85027,       2.20434,            0.,NA,NA,"",   131.744E-03,   118.282E-03,   58.0150E-03,   11.5032E-06
C:/temp/dataset/3/4_3.odb,Step-1,Increment      1: Step Time =    1.000,"PART-1-1",           431,      -4.76744,       1.42454,            0.,NA,NA,"",   123.138E-03,   112.499E-03,   50.0705E-03,   25.8093E-06
C:/temp/dataset/3/4_3.odb,Step-1,Increment      1: Step Time =    1.000,"PART-1-1",           432,      -9.29397,       2.69508,            0.,NA,NA,"",   147.735E-03,   121.991E-03,   83.3299E-03,   1.05851E-06
C:/temp/dataset/3/4_3.odb,Step-1,Increment      1: Step Time =    1.000,"PART-1-1",           433,      -8.28887,       3.92576,            0.,NA,NA,"",   151.418E-03,   131.020E-03,   75.9023E-03,   983.932E-09
C:/temp/dataset/3/4_3.odb,Step-1,Increment      1: Step Time =    1.000,"PART-1-1",           434,          -9.5,            5.,            0.,NA,NA,"",   162.781E-03,   138.958E-03,   84.7844E-03,   1.19946E-06
C:/temp/dataset/3/4_3.odb,Step-1,Increment      1: Step Time =    1.000,"PART-1-1",           435,      -10.5051,       3.76932,            0.,NA,NA,"",   159.327E-03,   129.929E-03,   92.2137E-03,   569.807E-09
C:/temp/dataset/3/4_3.odb,Step-1,Increment      1: Step Time =    1.000,"PART-1-1",           436,      -7.92731,       1.84143,            0.,NA,NA,"",   136.939E-03,   115.671E-03,   73.2966E-03,   3.29622E-06
C:/temp/dataset/3/4_3.odb,Step-1,Increment      1: Step Time =    1.000,"PART-1-1",           437,      -6.68589,       1.06488,            0.,NA,NA,"",   127.283E-03,   109.917E-03,   64.1820E-03,   10.2232E-06
C:/temp/dataset/3/4_3.odb,Step-1,Increment      1: Step Time =    1.000,"PART-1-1",           438,      -7.09169,       2.98089,            0.,NA,NA,"",   141.032E-03,   124.035E-03,   67.1225E-03,   5.93906E-06
C:/temp/dataset/3/4_3.odb,Step-1,Increment      1: Step Time =    1.000,"PART-1-1",           439,      -13.9000,            5.,            0.,NA,NA,"",   181.855E-03,   139.080E-03,   117.167E-03,   142.939E-09
C:/temp/dataset/3/4_3.odb,Step-1,Increment      1: Step Time =    1.000,"PART-1-1",           440,          -15.,          3.75,            0.,NA,NA,"",   180.488E-03,   129.910E-03,   125.297E-03,   142.078E-09
C:/temp/dataset/3/4_3.odb,Step-1,Increment      1: Step Time =    1.000,"PART-1-1",           441,      -12.7489,       3.73428,            0.,NA,NA,"",   169.271E-03,   129.733E-03,   108.729E-03,   433.515E-09
C:/temp/dataset/3/4_3.odb,Step-1,Increment      1: Step Time =    1.000,"PART-1-1",           442,      -9.48823,      -2.88104,            0.,NA,NA,"",   117.312E-03,   80.9519E-03,   84.9051E-03,   747.099E-09
C:/temp/dataset/3/4_3.odb,Step-1,Increment      1: Step Time =    1.000,"PART-1-1",           443,      -8.42388,      -2.23568,            0.,NA,NA,"",   115.225E-03,   85.6740E-03,   77.0507E-03,   1.99882E-06
C:/temp/dataset/3/4_3.odb,Step-1,Increment      1: Step Time =    1.000,"PART-1-1",           444,      -10.2645,      -1.43363,            0.,NA,NA,"",   128.844E-03,   91.6286E-03,   90.5820E-03,   543.536E-09
C:/temp/dataset/3/4_3.odb,Step-1,Increment      1: Step Time =    1.000,"PART-1-1",           445,      -12.6725,      -1.29786,            0.,NA,NA,"",   142.554E-03,   92.6929E-03,   108.304E-03,   401.993E-09
C:/temp/dataset/3/4_3.odb,Step-1,Increment      1: Step Time =    1.000,"PART-1-1",           446,          -15.,         -1.25,            0.,NA,NA,"",   156.215E-03,   93.1078E-03,   125.435E-03,   591.013E-09
C:/temp/dataset/3/4_3.odb,Step-1,Increment      1: Step Time =    1.000,"PART-1-1",           447,      -6.16813,      -3.97275,            0.,NA,NA,"",   94.6614E-03,   72.8249E-03,   60.4758E-03,   4.51498E-06
C:/temp/dataset/3/4_3.odb,Step-1,Increment      1: Step Time =    1.000,"PART-1-1",           448,      -4.95000,           -5.,            0.,NA,NA,"",   83.1208E-03,   65.2272E-03,   51.5217E-03,   11.1265E-06
C:/temp/dataset/3/4_3.odb,Step-1,Increment      1: Step Time =    1.000,"PART-1-1",           449,       1.59412,  -355.999E-03,            0.,NA,NA,"",   98.8130E-03,   98.7596E-03,   3.24862E-03,   147.560E-06
C:/temp/dataset/3/4_3.odb,Step-1,Increment      1: Step Time =    1.000,"PART-1-1",           450,       2.17826,      -1.53992,            0.,NA,NA,"",   90.1083E-03,   90.1023E-03,  -1.04357E-03,   131.857E-06
C:/temp/dataset/3/4_3.odb,Step-1,Increment      1: Step Time =    1.000,"PART-1-1",           451,       2.86763,   426.804E-03,            0.,NA,NA,"",   104.525E-03,   104.344E-03,  -6.14942E-03,   166.541E-06
C:/temp/dataset/3/4_3.odb,Step-1,Increment      1: Step Time =    1.000,"PART-1-1",           452,  -387.277E-03,   5.26357E-03,            0.,NA,NA,"",   103.252E-03,   101.699E-03,   17.8420E-03,   115.831E-06
C:/temp/dataset/3/4_3.odb,Step-1,Increment      1: Step Time =    1.000,"PART-1-1",           453,   283.611E-03,      -1.19839,            0.,NA,NA,"",   93.6941E-03,   92.8103E-03,   12.8390E-03,   136.803E-06
C:/temp/dataset/3/4_3.odb,Step-1,Increment      1: Step Time =    1.000,"PART-1-1",           454,   923.228E-03,   847.652E-03,            0.,NA,NA,"",   108.066E-03,   107.751E-03,   8.24100E-03,   143.838E-06
C:/temp/dataset/3/4_3.odb,Step-1,Increment      1: Step Time =    1.000,"PART-1-1",           455,       6.35531,      -13.1332,            0.,NA,NA,"",   33.5195E-03,   28.3329E-03,  -17.9109E-03,   1.26775E-03
C:/temp/dataset/3/4_3.odb,Step-1,Increment      1: Step Time =    1.000,"PART-1-1",           456,       7.49455,      -12.2656,            0.,NA,NA,"",   40.1623E-03,   32.4794E-03,  -23.6241E-03,   1.56478E-03
C:/temp/dataset/3/4_3.odb,Step-1,Increment      1: Step Time =    1.000,"PART-1-1",           457,       6.13925,      -10.3824,            0.,NA,NA,"",   44.5169E-03,   39.7471E-03,  -20.0480E-03,   1.18132E-03
C:/temp/dataset/3/4_3.odb,Step-1,Increment      1: Step Time =    1.000,"PART-1-1",           458,            5.,        -11.25,            0.,NA,NA,"",   38.1172E-03,   35.3869E-03,  -14.1663E-03,   882.910E-06
C:/temp/dataset/3/4_3.odb,Step-1,Increment      1: Step Time =    1.000,"PART-1-1",           459,       13.3376,      -16.9670,            0.,NA,NA,"",   41.1719E-03,   22.1712E-03,  -34.6924E-03,   3.10721E-03
C:/temp/dataset/3/4_3.odb,Step-1,Increment      1: Step Time =    1.000,"PART-1-1",           460,       11.8219,      -18.0071,            0.,NA,NA,"",   32.5487E-03,   17.2733E-03,  -27.5872E-03,   2.70979E-03
C:/temp/dataset/3/4_3.odb,Step-1,Increment      1: Step Time =    1.000,"PART-1-1",           461,           15.,        -18.75,            0.,NA,NA,"",   39.3155E-03,   19.7963E-03,  -33.9679E-03,   3.51574E-03
C:/temp/dataset/3/4_3.odb,Step-1,Increment      1: Step Time =    1.000,"PART-1-1",           462,       8.42876,      -15.2973,            0.,NA,NA,"",   31.4793E-03,   21.9878E-03,  -22.5274E-03,   1.82440E-03
C:/temp/dataset/3/4_3.odb,Step-1,Increment      1: Step Time =    1.000,"PART-1-1",           463,       10.4111,      -16.6310,            0.,NA,NA,"",   32.9945E-03,   19.5909E-03,  -26.5487E-03,   2.34114E-03
C:/temp/dataset/3/4_3.odb,Step-1,Increment      1: Step Time =    1.000,"PART-1-1",           464,       10.7289,      -14.9294,            0.,NA,NA,"",   40.2808E-03,   25.4045E-03,  -31.2595E-03,   2.42695E-03
C:/temp/dataset/3/4_3.odb,Step-1,Increment      1: Step Time =    1.000,"PART-1-1",           465,       8.74656,      -13.5956,            0.,NA,NA,"",   38.7720E-03,   28.2555E-03,  -26.5499E-03,   1.90744E-03
C:/temp/dataset/3/4_3.odb,Step-1,Increment      1: Step Time =    1.000,"PART-1-1",           466,      -8.72016,      -22.5745,            0.,NA,NA,"",   652.891E-06,   629.333E-06,   173.800E-06,   73.4789E-06
C:/temp/dataset/3/4_3.odb,Step-1,Increment      1: Step Time =    1.000,"PART-1-1",           467,      -7.48342,      -21.2909,            0.,NA,NA,"",   783.654E-06,   761.483E-06,   185.086E-06,   71.4170E-06
C:/temp/dataset/3/4_3.odb,Step-1,Increment      1: Step Time =    1.000,"PART-1-1",           468,         -8.75,          -20.,            0.,NA,NA,"",   744.882E-06,   731.891E-06,   138.506E-06,   44.5606E-06
C:/temp/dataset/3/4_3.odb,Step-1,Increment      1: Step Time =    1.000,"PART-1-1",           469,      -9.98674,      -21.2836,            0.,NA,NA,"",   688.766E-06,   672.556E-06,   148.550E-06,   32.7254E-06
C:/temp/dataset/3/4_3.odb,Step-1,Increment      1: Step Time =    1.000,"PART-1-1",           470,      -4.96670,      -26.3491,            0.,NA,NA,"",   232.173E-06,   154.874E-06,   172.970E-06,   109.929E-06
C:/temp/dataset/3/4_3.odb,Step-1,Increment      1: Step Time =    1.000,"PART-1-1",           471,      -6.21541,      -25.0985,            0.,NA,NA,"",   421.018E-06,   364.992E-06,   209.848E-06,   117.031E-06
C:/temp/dataset/3/4_3.odb,Step-1,Increment      1: Step Time =    1.000,"PART-1-1",           472,      -7.47738,      -26.3212,            0.,NA,NA,"",   286.382E-06,   253.828E-06,   132.611E-06,   85.8169E-06
C:/temp/dataset/3/4_3.odb,Step-1,Increment      1: Step Time =    1.000,"PART-1-1",           473,      -6.22867,      -27.5719,            0.,NA,NA,"",   137.968E-06,   102.512E-06,   92.3388E-06,   81.2723E-06
C:/temp/dataset/3/4_3.odb,Step-1,Increment      1: Step Time =    1.000,"PART-1-1",           474,   49.7896E-03,      -26.4387,            0.,NA,NA,"",   375.269E-06,  -367.701E-06,  -74.9819E-06,   163.712E-06
C:/temp/dataset/3/4_3.odb,Step-1,Increment      1: Step Time =    1.000,"PART-1-1",           475,       1.24862,      -27.7048,            0.,NA,NA,"",   670.822E-06,  -619.123E-06,  -258.240E-06,   268.886E-06
C:/temp/dataset/3/4_3.odb,Step-1,Increment      1: Step Time =    1.000,"PART-1-1",           476,       2.52056,      -26.5649,            0.,NA,NA,"",   1.00425E-03,  -717.841E-06,  -702.297E-06,   316.219E-06
C:/temp/dataset/3/4_3.odb,Step-1,Increment      1: Step Time =    1.000,"PART-1-1",           477,       1.32172,      -25.2988,            0.,NA,NA,"",   453.295E-06,  -240.897E-06,  -383.985E-06,   182.200E-06
C:/temp/dataset/3/4_3.odb,Step-1,Increment      1: Step Time =    1.000,"PART-1-1",           478,        -13.75,          -20.,            0.,NA,NA,"",   720.631E-06,   687.388E-06,   216.346E-06,   1.53203E-06
C:/temp/dataset/3/4_3.odb,Step-1,Increment      1: Step Time =    1.000,"PART-1-1",           479,          -15.,        -21.25,            0.,NA,NA,"",   693.358E-06,   641.024E-06,   264.259E-06,   1.79298E-06
C:/temp/dataset/3/4_3.odb,Step-1,Increment      1: Step Time =    1.000,"PART-1-1",           480,      -13.7430,      -22.5153,            0.,NA,NA,"",   622.950E-06,   585.713E-06,   212.151E-06,   9.42456E-06
C:/temp/dataset/3/4_3.odb,Step-1,Increment      1: Step Time =    1.000,"PART-1-1",           481,      -12.4930,      -21.2653,            0.,NA,NA,"",   667.382E-06,   643.733E-06,   176.088E-06,   9.21970E-06
C:/temp/dataset/3/4_3.odb,Step-1,Increment      1: Step Time =    1.000,"PART-1-1",           482,      -11.2297,      -22.5489,            0.,NA,NA,"",   611.604E-06,   591.704E-06,   154.747E-06,   36.5605E-06
C:/temp/dataset/3/4_3.odb,Step-1,Increment      1: Step Time =    1.000,"PART-1-1",           483,        -11.25,          -20.,            0.,NA,NA,"",   703.191E-06,   687.275E-06,   148.762E-06,   10.1120E-06
C:/temp/dataset/3/4_3.odb,Step-1,Increment      1: Step Time =    1.000,"PART-1-1",           484,      -13.7448,      -25.0201,            0.,NA,NA,"",   469.238E-06,   431.448E-06,   184.491E-06,   27.8132E-06
C:/temp/dataset/3/4_3.odb,Step-1,Increment      1: Step Time =    1.000,"PART-1-1",           485,      -12.4878,      -23.7854,            0.,NA,NA,"",   535.453E-06,   509.911E-06,   163.404E-06,   32.4156E-06
C:/temp/dataset/3/4_3.odb,Step-1,Increment      1: Step Time =    1.000,"PART-1-1",           486,          -15.,        -23.75,            0.,NA,NA,"",   583.848E-06,   520.953E-06,   263.602E-06,   7.26641E-06
C:/temp/dataset/3/4_3.odb,Step-1,Increment      1: Step Time =    1.000,"PART-1-1",           487,       13.7335,      -27.5520,            0.,NA,NA,"",   7.16837E-03,   3.64805E-03,  -6.17067E-03,   3.02658E-03
C:/temp/dataset/3/4_3.odb,Step-1,Increment      1: Step Time =    1.000,"PART-1-1",           488,       12.4835,      -28.8020,            0.,NA,NA,"",   2.48521E-03,   904.856E-06,  -2.31462E-03,   2.43979E-03
C:/temp/dataset/3/4_3.odb,Step-1,Increment      1: Step Time =    1.000,"PART-1-1",           489,         13.75,          -30.,            0.,NA,NA,"",            0.,   181.720E-42,  -4.78266E-39,   3.14778E-03
C:/temp/dataset/3/4_3.odb,Step-1,Increment      1: Step Time =    1.000,"PART-1-1",           490,           15.,        -28.75,            0.,NA,NA,"",   5.43714E-03,   3.68313E-03,  -3.99964E-03,   3.55263E-03
C:/temp/dataset/3/4_3.odb,Step-1,Increment      1: Step Time =    1.000,"PART-1-1",           491,       9.98010,      -28.8907,            0.,NA,NA,"",   1.56558E-03,  -75.0135E-06,  -1.56378E-03,   1.75029E-03
C:/temp/dataset/3/4_3.odb,Step-1,Increment      1: Step Time =    1.000,"PART-1-1",           492,       8.70049,      -27.8380,            0.,NA,NA,"",   2.64642E-03,  -275.129E-06,  -2.63208E-03,   1.56059E-03
C:/temp/dataset/3/4_3.odb,Step-1,Increment      1: Step Time =    1.000,"PART-1-1",           493,          8.75,          -30.,            0.,NA,NA,"",            0.,  -349.851E-42,  -2.72009E-39,   1.45945E-03
C:/temp/dataset/3/4_3.odb,Step-1,Increment      1: Step Time =    1.000,"PART-1-1",           494,       11.2136,      -27.6927,            0.,NA,NA,"",   4.22845E-03,   1.12708E-03,  -4.07547E-03,   2.33365E-03
C:/temp/dataset/3/4_3.odb,Step-1,Increment      1: Step Time =    1.000,"PART-1-1",           495,       12.3768,      -26.3916,            0.,NA,NA,"",   8.65612E-03,   3.42167E-03,  -7.95113E-03,   2.74733E-03
C:/temp/dataset/3/4_3.odb,Step-1,Increment      1: Step Time =    1.000,"PART-1-1",           496,       11.0556,      -25.4315,            0.,NA,NA,"",   9.25506E-03,   3.00698E-03,  -8.75295E-03,   2.42959E-03
C:/temp/dataset/3/4_3.odb,Step-1,Increment      1: Step Time =    1.000,"PART-1-1",           497,       9.89242,      -26.7326,            0.,NA,NA,"",   5.12639E-03,   873.234E-06,  -5.05147E-03,   1.99945E-03
C:/temp/dataset/3/4_3.odb,Step-1,Increment      1: Step Time =    1.000,"PART-1-1",           498,   9.79186E-03,      -28.8313,            0.,NA,NA,"",   341.582E-06,  -332.125E-06,  -79.8184E-06,   206.565E-06
C:/temp/dataset/3/4_3.odb,Step-1,Increment      1: Step Time =    1.000,"PART-1-1",           499,          1.25,          -30.,            0.,NA,NA,"",            0.,  -308.290E-42,  -450.045E-42,   393.493E-06
C:/temp/dataset/3/4_3.odb,Step-1,Increment      1: Step Time =    1.000,"PART-1-1",           500,      -1.18061,      -25.1833,            0.,NA,NA,"",   166.276E-06,   75.4164E-06,   148.189E-06,   167.518E-06
C:/temp/dataset/3/4_3.odb,Step-1,Increment      1: Step Time =    1.000,"PART-1-1",           501,      -2.45538,      -26.3836,            0.,NA,NA,"",   159.178E-06,  -46.3931E-06,   152.267E-06,   134.477E-06
C:/temp/dataset/3/4_3.odb,Step-1,Increment      1: Step Time =    1.000,"PART-1-1",           502,      -1.22498,      -27.6390,            0.,NA,NA,"",   297.077E-06,  -296.876E-06,   10.9371E-06,   152.622E-06
C:/temp/dataset/3/4_3.odb,Step-1,Increment      1: Step Time =    1.000,"PART-1-1",           503,      -3.70005,      -25.1329,            0.,NA,NA,"",   372.429E-06,   271.272E-06,   255.176E-06,   152.433E-06
C:/temp/dataset/3/4_3.odb,Step-1,Increment      1: Step Time =    1.000,"PART-1-1",           504,      -7.49141,      -28.7797,            0.,NA,NA,"",   71.8369E-06,   62.5884E-06,   35.2594E-06,   55.8477E-06
C:/temp/dataset/3/4_3.odb,Step-1,Increment      1: Step Time =    1.000,"PART-1-1",           505,         -6.25,          -30.,            0.,NA,NA,"",            0.,   13.2535E-42,   47.0360E-42,   26.8751E-06
C:/temp/dataset/3/4_3.odb,Step-1,Increment      1: Step Time =    1.000,"PART-1-1",           506,      -12.4949,      -26.2800,            0.,NA,NA,"",   336.149E-06,   316.184E-06,   114.122E-06,   54.1023E-06
C:/temp/dataset/3/4_3.odb,Step-1,Increment      1: Step Time =    1.000,"PART-1-1",           507,          -15.,        -26.25,            0.,NA,NA,"",   422.686E-06,   353.423E-06,   231.852E-06,   33.1349E-06
C:/temp/dataset/3/4_3.odb,Step-1,Increment      1: Step Time =    1.000,"PART-1-1",           508,       12.0036,      -23.8365,            0.,NA,NA,"",   14.9437E-03,   5.94394E-03,  -13.7107E-03,   2.73450E-03
C:/temp/dataset/3/4_3.odb,Step-1,Increment      1: Step Time =    1.000,"PART-1-1",           509,       13.6432,      -25.0896,            0.,NA,NA,"",   14.4180E-03,   6.51864E-03,  -12.8602E-03,   3.02015E-03
C:/temp/dataset/3/4_3.odb,Step-1,Increment      1: Step Time =    1.000,"PART-1-1",           510,           15.,        -23.75,            0.,NA,NA,"",   21.0961E-03,   10.1279E-03,  -18.5060E-03,   3.30324E-03
C:/temp/dataset/3/4_3.odb,Step-1,Increment      1: Step Time =    1.000,"PART-1-1",           511,         11.25,          -30.,            0.,NA,NA,"",            0.,   40.2019E-42,  -3.77061E-39,   1.90948E-03
C:/temp/dataset/3/4_3.odb,Step-1,Increment      1: Step Time =    1.000,"PART-1-1",           512,       13.9281,      -14.6298,            0.,NA,NA,"",   53.0148E-03,   30.5225E-03,  -43.3468E-03,   3.28683E-03
C:/temp/dataset/3/4_3.odb,Step-1,Increment      1: Step Time =    1.000,"PART-1-1",           513,       12.2657,      -15.3468,            0.,NA,NA,"",   43.9670E-03,   25.8086E-03,  -35.5951E-03,   2.83760E-03
C:/temp/dataset/3/4_3.odb,Step-1,Increment      1: Step Time =    1.000,"PART-1-1",           514,           15.,        -16.25,            0.,NA,NA,"",   49.7742E-03,   26.8224E-03,  -41.9289E-03,   3.55674E-03
C:/temp/dataset/3/4_3.odb,Step-1,Increment      1: Step Time =    1.000,"PART-1-1",           515,       7.13425,      -14.5121,            0.,NA,NA,"",   30.4718E-03,   23.7279E-03,  -19.1184E-03,   1.49324E-03
C:/temp/dataset/3/4_3.odb,Step-1,Increment      1: Step Time =    1.000,"PART-1-1",           516,       6.81531,      -16.2905,            0.,NA,NA,"",   23.6166E-03,   17.6365E-03,  -15.7066E-03,   1.42479E-03
C:/temp/dataset/3/4_3.odb,Step-1,Increment      1: Step Time =    1.000,"PART-1-1",           517,       8.10983,      -17.0757,            0.,NA,NA,"",   24.6772E-03,   16.1770E-03,  -18.6351E-03,   1.74685E-03
C:/temp/dataset/3/4_3.odb,Step-1,Increment      1: Step Time =    1.000,"PART-1-1",           518,       13.8641,      -7.41825,            0.,NA,NA,"",   89.5493E-03,   61.9577E-03,  -64.6554E-03,   3.35690E-03
C:/temp/dataset/3/4_3.odb,Step-1,Increment      1: Step Time =    1.000,"PART-1-1",           519,       13.0286,      -8.63342,            0.,NA,NA,"",   78.7186E-03,   54.5354E-03,  -56.7671E-03,   3.10284E-03
C:/temp/dataset/3/4_3.odb,Step-1,Increment      1: Step Time =    1.000,"PART-1-1",           520,       14.1645,      -9.96517,            0.,NA,NA,"",   76.7400E-03,   49.7999E-03,  -58.3867E-03,   3.40984E-03
C:/temp/dataset/3/4_3.odb,Step-1,Increment      1: Step Time =    1.000,"PART-1-1",           521,           15.,         -8.75,            0.,NA,NA,"",   87.3871E-03,   56.9350E-03,  -66.2941E-03,   3.66612E-03
C:/temp/dataset/3/4_3.odb,Step-1,Increment      1: Step Time =    1.000,"PART-1-1",           522,       12.0251,      -10.9831,            0.,NA,NA,"",   62.2665E-03,   42.2561E-03,  -45.7333E-03,   2.80106E-03
C:/temp/dataset/3/4_3.odb,Step-1,Increment      1: Step Time =    1.000,"PART-1-1",           523,       12.8055,      -11.9581,            0.,NA,NA,"",   60.8262E-03,   39.1260E-03,  -46.5723E-03,   3.00713E-03
C:/temp/dataset/3/4_3.odb,Step-1,Increment      1: Step Time =    1.000,"PART-1-1",           524,       13.3751,      -11.0455,            0.,NA,NA,"",   67.6591E-03,   43.7852E-03,  -51.5812E-03,   3.17621E-03
C:/temp/dataset/3/4_3.odb,Step-1,Increment      1: Step Time =    1.000,"PART-1-1",           525,       12.5947,      -10.0706,            0.,NA,NA,"",   69.2029E-03,   47.0813E-03,  -50.7188E-03,   2.96734E-03
C:/temp/dataset/3/4_3.odb,Step-1,Increment      1: Step Time =    1.000,"PART-1-1",           526,       11.4853,  -434.223E-03,            0.,NA,NA,"",   123.234E-03,   102.238E-03,  -68.8034E-03,   2.67967E-03
C:/temp/dataset/3/4_3.odb,Step-1,Increment      1: Step Time =    1.000,"PART-1-1",           527,       10.5886,      -1.82652,            0.,NA,NA,"",   108.982E-03,   91.4819E-03,  -59.2297E-03,   2.39791E-03
C:/temp/dataset/3/4_3.odb,Step-1,Increment      1: Step Time =    1.000,"PART-1-1",           528,       11.9063,      -2.70193,            0.,NA,NA,"",   109.371E-03,   87.1422E-03,  -66.0925E-03,   2.81243E-03
C:/temp/dataset/3/4_3.odb,Step-1,Increment      1: Step Time =    1.000,"PART-1-1",           529,       14.1300,       7.44597,            0.,NA,NA,"",   205.669E-03,   171.547E-03,  -113.453E-03,   3.57263E-03
C:/temp/dataset/3/4_3.odb,Step-1,Increment      1: Step Time =    1.000,"PART-1-1",           530,       13.1865,       6.25975,            0.,NA,NA,"",   188.404E-03,   159.095E-03,  -100.920E-03,   3.26158E-03
C:/temp/dataset/3/4_3.odb,Step-1,Increment      1: Step Time =    1.000,"PART-1-1",           531,           15.,          6.25,            0.,NA,NA,"",   200.021E-03,   161.830E-03,  -117.556E-03,   3.84979E-03
C:/temp/dataset/3/4_3.odb,Step-1,Increment      1: Step Time =    1.000,"PART-1-1",           532,       12.4155,       5.33720,            0.,NA,NA,"",   175.370E-03,   149.736E-03,  -91.2894E-03,   3.00616E-03
C:/temp/dataset/3/4_3.odb,Step-1,Increment      1: Step Time =    1.000,"PART-1-1",           533,       11.2733,       3.54111,            0.,NA,NA,"",   153.440E-03,   132.870E-03,  -76.7417E-03,   2.63673E-03
C:/temp/dataset/3/4_3.odb,Step-1,Increment      1: Step Time =    1.000,"PART-1-1",           534,       12.2480,       13.5548,            0.,NA,NA,"",   257.893E-03,   232.243E-03,  -112.124E-03,   2.98004E-03
C:/temp/dataset/3/4_3.odb,Step-1,Increment      1: Step Time =    1.000,"PART-1-1",           535,           15.,         13.75,            0.,NA,NA,"",   278.639E-03,   238.527E-03,  -144.031E-03,   3.89402E-03
C:/temp/dataset/3/4_3.odb,Step-1,Increment      1: Step Time =    1.000,"PART-1-1",           536,       13.6600,       14.9734,            0.,NA,NA,"",   283.430E-03,   250.478E-03,  -132.639E-03,   3.45547E-03
C:/temp/dataset/3/4_3.odb,Step-1,Increment      1: Step Time =    1.000,"PART-1-1",           537,       8.15326,       10.4556,            0.,NA,NA,"",   204.023E-03,   194.720E-03,  -60.9064E-03,   1.64238E-03
C:/temp/dataset/3/4_3.odb,Step-1,Increment      1: Step Time =    1.000,"PART-1-1",           538,       12.3824,       21.2920,            0.,NA,NA,"",   355.562E-03,   328.785E-03,  -135.369E-03,   3.04665E-03
C:/temp/dataset/3/4_3.odb,Step-1,Increment      1: Step Time =    1.000,"PART-1-1",           539,       13.6892,       20.0188,            0.,NA,NA,"",   347.095E-03,   313.440E-03,  -149.099E-03,   3.46871E-03
C:/temp/dataset/3/4_3.odb,Step-1,Increment      1: Step Time =    1.000,"PART-1-1",           540,           15.,         21.25,            0.,NA,NA,"",   373.472E-03,   332.053E-03,  -170.945E-03,   3.85909E-03
C:/temp/dataset/3/4_3.odb,Step-1,Increment      1: Step Time =    1.000,"PART-1-1",           541,       13.6932,       22.5232,            0.,NA,NA,"",   381.526E-03,   347.666E-03,  -157.132E-03,   3.42769E-03
C:/temp/dataset/3/4_3.odb,Step-1,Increment      1: Step Time =    1.000,"PART-1-1",           542,       9.77662,       16.3041,            0.,NA,NA,"",   276.582E-03,   261.661E-03,  -89.6156E-03,   2.17459E-03
C:/temp/dataset/3/4_3.odb,Step-1,Increment      1: Step Time =    1.000,"PART-1-1",           543,       11.0318,       15.0036,            0.,NA,NA,"",   267.555E-03,   247.443E-03,  -101.772E-03,   2.58245E-03
C:/temp/dataset/3/4_3.odb,Step-1,Increment      1: Step Time =    1.000,"PART-1-1",           544,       12.3430,       16.2301,            0.,NA,NA,"",   289.880E-03,   263.587E-03,  -120.633E-03,   3.01950E-03
C:/temp/dataset/3/4_3.odb,Step-1,Increment      1: Step Time =    1.000,"PART-1-1",           545,         13.75,           30.,            0.,NA,NA,"",   492.920E-03,   458.725E-03,  -180.391E-03,   2.93696E-03
C:/temp/dataset/3/4_3.odb,Step-1,Increment      1: Step Time =    1.000,"PART-1-1",           546,       12.4862,       28.7548,            0.,NA,NA,"",   466.171E-03,   438.534E-03,  -158.124E-03,   2.98238E-03
C:/temp/dataset/3/4_3.odb,Step-1,Increment      1: Step Time =    1.000,"PART-1-1",           547,           15.,         28.75,            0.,NA,NA,"",   482.900E-03,   441.504E-03,  -195.619E-03,   3.08191E-03
C:/temp/dataset/3/4_3.odb,Step-1,Increment      1: Step Time =    1.000,"PART-1-1",           548,       12.4064,       23.7898,            0.,NA,NA,"",   390.974E-03,   363.962E-03,  -142.800E-03,   3.07381E-03
C:/temp/dataset/3/4_3.odb,Step-1,Increment      1: Step Time =    1.000,"PART-1-1",           549,           15.,         23.75,            0.,NA,NA,"",   408.756E-03,   367.106E-03,  -179.763E-03,   3.71293E-03
C:/temp/dataset/3/4_3.odb,Step-1,Increment      1: Step Time =    1.000,"PART-1-1",           550,       9.91541,       26.3072,            0.,NA,NA,"",   413.858E-03,   398.099E-03,  -113.117E-03,   2.67166E-03
C:/temp/dataset/3/4_3.odb,Step-1,Increment      1: Step Time =    1.000,"PART-1-1",           551,       11.1537,       25.0565,            0.,NA,NA,"",   401.911E-03,   380.892E-03,  -128.271E-03,   2.78868E-03
C:/temp/dataset/3/4_3.odb,Step-1,Increment      1: Step Time =    1.000,"PART-1-1",           552,       11.2110,       27.5221,            0.,NA,NA,"",   439.656E-03,   418.160E-03,  -135.793E-03,   2.97159E-03
C:/temp/dataset/3/4_3.odb,Step-1,Increment      1: Step Time =    1.000,"PART-1-1",           553,       8.69233,       27.5515,            0.,NA,NA,"",   426.891E-03,   415.753E-03,  -96.8748E-03,   2.38991E-03
C:/temp/dataset/3/4_3.odb,Step-1,Increment      1: Step Time =    1.000,"PART-1-1",           554,       7.41297,       26.3376,            0.,NA,NA,"",   403.430E-03,   396.507E-03,  -74.4212E-03,   1.44211E-03
C:/temp/dataset/3/4_3.odb,Step-1,Increment      1: Step Time =    1.000,"PART-1-1",           555,       8.63604,       25.0933,            0.,NA,NA,"",   389.649E-03,   378.833E-03,  -91.1705E-03,   1.92107E-03
C:/temp/dataset/3/4_3.odb,Step-1,Increment      1: Step Time =    1.000,"PART-1-1",           556,      -1.26375,       27.5391,            0.,NA,NA,"",   419.363E-03,   415.543E-03,   56.4776E-03,   91.5879E-06
C:/temp/dataset/3/4_3.odb,Step-1,Increment      1: Step Time =    1.000,"PART-1-1",           557,         -1.25,           30.,            0.,NA,NA,"",   455.570E-03,   452.117E-03,   55.9835E-03,   74.6154E-06
C:/temp/dataset/3/4_3.odb,Step-1,Increment      1: Step Time =    1.000,"PART-1-1",           558,      -2.50500,       28.7640,            0.,NA,NA,"",   440.269E-03,   433.886E-03,   74.7017E-03,   31.2310E-06
C:/temp/dataset/3/4_3.odb,Step-1,Increment      1: Step Time =    1.000,"PART-1-1",           559,      -7.50143,       28.7522,            0.,NA,NA,"",   458.986E-03,   434.235E-03,   148.687E-03,   1.06059E-06
C:/temp/dataset/3/4_3.odb,Step-1,Increment      1: Step Time =    1.000,"PART-1-1",           560,         -8.75,           30.,            0.,NA,NA,"",   482.698E-03,   452.868E-03,   167.056E-03,   1.50077E-06
C:/temp/dataset/3/4_3.odb,Step-1,Increment      1: Step Time =    1.000,"PART-1-1",           561,      -6.25460,       27.5081,            0.,NA,NA,"",   435.617E-03,   415.658E-03,   130.347E-03,   8.29662E-06
C:/temp/dataset/3/4_3.odb,Step-1,Increment      1: Step Time =    1.000,"PART-1-1",           562,        -13.75,           30.,            0.,NA,NA,"",   513.573E-03,   453.422E-03,   241.175E-03,   155.982E-09
C:/temp/dataset/3/4_3.odb,Step-1,Increment      1: Step Time =    1.000,"PART-1-1",           563,          -15.,         28.75,            0.,NA,NA,"",   506.723E-03,   435.029E-03,   259.843E-03,   126.671E-09
C:/temp/dataset/3/4_3.odb,Step-1,Increment      1: Step Time =    1.000,"PART-1-1",           564,      -13.7509,       27.5010,            0.,NA,NA,"",   481.325E-03,   416.376E-03,   241.464E-03,   443.376E-09
C:/temp/dataset/3/4_3.odb,Step-1,Increment      1: Step Time =    1.000,"PART-1-1",           565,          -15.,         26.25,            0.,NA,NA,"",   475.437E-03,   397.969E-03,   260.118E-03,   537.006E-09
C:/temp/dataset/3/4_3.odb,Step-1,Increment      1: Step Time =    1.000,"PART-1-1",           566,      -12.5016,       26.2536,            0.,NA,NA,"",   456.035E-03,   397.747E-03,   223.080E-03,   471.720E-09
C:/temp/dataset/3/4_3.odb,Step-1,Increment      1: Step Time =    1.000,"PART-1-1",           567,      -7.50093,       21.2547,            0.,NA,NA,"",   355.994E-03,   323.087E-03,   149.488E-03,   1.16383E-06
C:/temp/dataset/3/4_3.odb,Step-1,Increment      1: Step Time =    1.000,"PART-1-1",           568,         -6.25,           20.,            0.,NA,NA,"",   331.365E-03,   304.341E-03,   131.071E-03,   1.25911E-06
C:/temp/dataset/3/4_3.odb,Step-1,Increment      1: Step Time =    1.000,"PART-1-1",           569,      -4.99978,       21.2574,            0.,NA,NA,"",   341.854E-03,   322.854E-03,   112.383E-03,   7.33864E-06
C:/temp/dataset/3/4_3.odb,Step-1,Increment      1: Step Time =    1.000,"PART-1-1",           570,      -3.74911,       22.5208,            0.,NA,NA,"",   354.057E-03,   341.438E-03,   93.6830E-03,   33.7516E-06
C:/temp/dataset/3/4_3.odb,Step-1,Increment      1: Step Time =    1.000,"PART-1-1",           571,         -3.75,           20.,            0.,NA,NA,"",   318.261E-03,   304.071E-03,   93.9729E-03,   17.7281E-06
C:/temp/dataset/3/4_3.odb,Step-1,Increment      1: Step Time =    1.000,"PART-1-1",           572,      -2.49933,       21.2634,            0.,NA,NA,"",   331.347E-03,   322.690E-03,   75.2486E-03,   32.9616E-06
C:/temp/dataset/3/4_3.odb,Step-1,Increment      1: Step Time =    1.000,"PART-1-1",           573,         -1.25,           20.,            0.,NA,NA,"",   309.143E-03,   303.873E-03,   56.8402E-03,   79.4207E-06
C:/temp/dataset/3/4_3.odb,Step-1,Increment      1: Step Time =    1.000,"PART-1-1",           574,  -2.23348E-03,       21.2694,            0.,NA,NA,"",   324.821E-03,   322.575E-03,   38.1319E-03,   96.5478E-06
C:/temp/dataset/3/4_3.odb,Step-1,Increment      1: Step Time =    1.000,"PART-1-1",           575,      -1.25156,       22.5328,            0.,NA,NA,"",   345.971E-03,   341.314E-03,   56.5743E-03,   92.5444E-06
C:/temp/dataset/3/4_3.odb,Step-1,Increment      1: Step Time =    1.000,"PART-1-1",           576,         -3.75,           30.,            0.,NA,NA,"",   461.781E-03,   452.322E-03,   92.9820E-03,   17.4791E-06
C:/temp/dataset/3/4_3.odb,Step-1,Increment      1: Step Time =    1.000,"PART-1-1",           577,      -5.00318,       28.7559,            0.,NA,NA,"",   448.157E-03,   434.020E-03,   111.675E-03,   7.51339E-06
C:/temp/dataset/3/4_3.odb,Step-1,Increment      1: Step Time =    1.000,"PART-1-1",           578,       7.36074,       18.8052,            0.,NA,NA,"",   297.850E-03,   290.994E-03,  -63.5405E-03,   1.38894E-03
C:/temp/dataset/3/4_3.odb,Step-1,Increment      1: Step Time =    1.000,"PART-1-1",           579,       8.58169,       17.5494,            0.,NA,NA,"",   286.547E-03,   275.960E-03,  -77.1708E-03,   1.77974E-03
C:/temp/dataset/3/4_3.odb,Step-1,Increment      1: Step Time =    1.000,"PART-1-1",           580,       8.60057,       20.0599,            0.,NA,NA,"",   318.858E-03,   308.209E-03,  -81.7156E-03,   1.85254E-03
C:/temp/dataset/3/4_3.odb,Step-1,Increment      1: Step Time =    1.000,"PART-1-1",           581,            5.,         18.75,            0.,NA,NA,"",   291.327E-03,   289.429E-03,  -33.2015E-03,   607.785E-06
C:/temp/dataset/3/4_3.odb,Step-1,Increment      1: Step Time =    1.000,"PART-1-1",           582,       6.17685,       17.5255,            0.,NA,NA,"",   278.338E-03,   274.326E-03,  -47.0839E-03,   973.215E-06
C:/temp/dataset/3/4_3.odb,Step-1,Increment      1: Step Time =    1.000,"PART-1-1",           583,       6.18390,       20.0298,            0.,NA,NA,"",   310.230E-03,   306.243E-03,  -49.5759E-03,   1.04545E-03
C:/temp/dataset/3/4_3.odb,Step-1,Increment      1: Step Time =    1.000,"PART-1-1",           584,            5.,         16.25,            0.,NA,NA,"",   260.299E-03,   258.370E-03,  -31.6290E-03,   606.750E-06
C:/temp/dataset/3/4_3.odb,Step-1,Increment      1: Step Time =    1.000,"PART-1-1",           585,       6.15340,       15.0385,            0.,NA,NA,"",   248.289E-03,   244.283E-03,  -44.4195E-03,   983.640E-06
C:/temp/dataset/3/4_3.odb,Step-1,Increment      1: Step Time =    1.000,"PART-1-1",           586,       7.33024,       16.3140,            0.,NA,NA,"",   266.816E-03,   260.005E-03,  -59.9027E-03,   1.36142E-03
C:/temp/dataset/3/4_3.odb,Step-1,Increment      1: Step Time =    1.000,"PART-1-1",           587,           15.,         16.25,            0.,NA,NA,"",   308.391E-03,   267.777E-03,  -152.971E-03,   3.90969E-03
C:/temp/dataset/3/4_3.odb,Step-1,Increment      1: Step Time =    1.000,"PART-1-1",           588,       13.6830,       17.5067,            0.,NA,NA,"",   314.484E-03,   281.112E-03,  -140.984E-03,   3.47273E-03
C:/temp/dataset/3/4_3.odb,Step-1,Increment      1: Step Time =    1.000,"PART-1-1",           589,           15.,         18.75,            0.,NA,NA,"",   339.993E-03,   298.937E-03,  -161.963E-03,   3.90786E-03
C:/temp/dataset/3/4_3.odb,Step-1,Increment      1: Step Time =    1.000,"PART-1-1",           590,       7.36831,       6.81272,            0.,NA,NA,"",   165.460E-03,   158.354E-03,  -47.9683E-03,   1.37766E-03
C:/temp/dataset/3/4_3.odb,Step-1,Increment      1: Step Time =    1.000,"PART-1-1",           591,       6.10412,       7.73110,            0.,NA,NA,"",   170.483E-03,   166.432E-03,  -36.9418E-03,   1.00532E-03
C:/temp/dataset/3/4_3.odb,Step-1,Increment      1: Step Time =    1.000,"PART-1-1",           592,            5.,          6.25,            0.,NA,NA,"",   154.247E-03,   152.160E-03,  -25.2864E-03,   735.751E-06
C:/temp/dataset/3/4_3.odb,Step-1,Increment      1: Step Time =    1.000,"PART-1-1",           593,       6.26419,       5.33162,            0.,NA,NA,"",   148.699E-03,   144.241E-03,  -36.1364E-03,   1.09380E-03
C:/temp/dataset/3/4_3.odb,Step-1,Increment      1: Step Time =    1.000,"PART-1-1",           594,           15.,          8.75,            0.,NA,NA,"",   224.494E-03,   185.574E-03,  -126.332E-03,   3.86228E-03
C:/temp/dataset/3/4_3.odb,Step-1,Increment      1: Step Time =    1.000,"PART-1-1",           595,       13.1418,       8.51598,            0.,NA,NA,"",   209.838E-03,   180.388E-03,  -107.201E-03,   3.25574E-03
C:/temp/dataset/3/4_3.odb,Step-1,Increment      1: Step Time =    1.000,"PART-1-1",           596,       6.30252,      -5.49102,            0.,NA,NA,"",   70.0474E-03,   65.0066E-03,  -26.0917E-03,   1.18099E-03
C:/temp/dataset/3/4_3.odb,Step-1,Increment      1: Step Time =    1.000,"PART-1-1",           597,            5.,         -6.25,            0.,NA,NA,"",   62.8425E-03,   60.1698E-03,  -18.1320E-03,   889.166E-06
C:/temp/dataset/3/4_3.odb,Step-1,Increment      1: Step Time =    1.000,"PART-1-1",           598,       6.10325,      -7.87566,            0.,NA,NA,"",   56.5832E-03,   51.9000E-03,  -22.5400E-03,   1.14227E-03
C:/temp/dataset/3/4_3.odb,Step-1,Increment      1: Step Time =    1.000,"PART-1-1",           599,       7.40577,      -7.11668,            0.,NA,NA,"",   64.2427E-03,   56.6276E-03,  -30.3387E-03,   1.46648E-03
C:/temp/dataset/3/4_3.odb,Step-1,Increment      1: Step Time =    1.000,"PART-1-1",           600,            5.,         -8.75,            0.,NA,NA,"",   49.6710E-03,   46.9828E-03,  -16.1188E-03,   850.046E-06
C:/temp/dataset/3/4_3.odb,Step-1,Increment      1: Step Time =    1.000,"PART-1-1",           601,            5.,        -13.75,            0.,NA,NA,"",   28.0886E-03,   25.3433E-03,  -12.1114E-03,   919.320E-06
C:/temp/dataset/3/4_3.odb,Step-1,Increment      1: Step Time =    1.000,"PART-1-1",           602,       5.77894,      -15.1288,            0.,NA,NA,"",   24.8599E-03,   20.7975E-03,  -13.6191E-03,   1.15726E-03
C:/temp/dataset/3/4_3.odb,Step-1,Increment      1: Step Time =    1.000,"PART-1-1",           603,            5.,        -16.25,            0.,NA,NA,"",   19.5287E-03,   16.7794E-03,  -9.99098E-03,   982.171E-06
C:/temp/dataset/3/4_3.odb,Step-1,Increment      1: Step Time =    1.000,"PART-1-1",           604,       2.77244,      -24.0596,            0.,NA,NA,"",   1.25335E-03,   267.951E-06,  -1.22438E-03,   194.148E-06
C:/temp/dataset/3/4_3.odb,Step-1,Increment      1: Step Time =    1.000,"PART-1-1",           605,       3.76359,      -25.5842,            0.,NA,NA,"",   1.63826E-03,  -528.011E-06,  -1.55084E-03,   474.735E-06
C:/temp/dataset/3/4_3.odb,Step-1,Increment      1: Step Time =    1.000,"PART-1-1",           606,       5.11162,      -24.8806,            0.,NA,NA,"",   2.98255E-03,  -81.2588E-06,  -2.98144E-03,   758.907E-06
C:/temp/dataset/3/4_3.odb,Step-1,Increment      1: Step Time =    1.000,"PART-1-1",           607,       4.12047,      -23.3559,            0.,NA,NA,"",   2.82068E-03,   863.137E-06,  -2.68537E-03,   477.337E-06
C:/temp/dataset/3/4_3.odb,Step-1,Increment      1: Step Time =    1.000,"PART-1-1",           608,       8.48587,      -2.76980,            0.,NA,NA,"",   93.8032E-03,   83.2314E-03,  -43.2616E-03,   1.76620E-03
C:/temp/dataset/3/4_3.odb,Step-1,Increment      1: Step Time =    1.000,"PART-1-1",           609,       9.66601,      -3.38468,            0.,NA,NA,"",   94.5067E-03,   80.2791E-03,  -49.8676E-03,   2.13960E-03
C:/temp/dataset/3/4_3.odb,Step-1,Increment      1: Step Time =    1.000,"PART-1-1",           610,       9.40849,      -1.21164,            0.,NA,NA,"",   108.053E-03,   94.5908E-03,  -52.2308E-03,   2.01319E-03
C:/temp/dataset/3/4_3.odb,Step-1,Increment      1: Step Time =    1.000,"PART-1-1",           611,       3.88333,            5.,            0.,NA,NA,"",   140.848E-03,   140.098E-03,  -14.5139E-03,   479.251E-06
C:/temp/dataset/3/4_3.odb,Step-1,Increment      1: Step Time =    1.000,"PART-1-1",           612,       3.93709,       2.49951,            0.,NA,NA,"",   120.875E-03,   119.994E-03,  -14.5691E-03,   246.097E-06
C:/temp/dataset/3/4_3.odb,Step-1,Increment      1: Step Time =    1.000,"PART-1-1",           613,       5.14044,       3.62548,            0.,NA,NA,"",   131.387E-03,   129.031E-03,  -24.7677E-03,   620.566E-06
C:/temp/dataset/3/4_3.odb,Step-1,Increment      1: Step Time =    1.000,"PART-1-1",           614,       1.70000,           -5.,            0.,NA,NA,"",   65.6687E-03,   65.6166E-03,   2.61537E-03,   321.341E-06
C:/temp/dataset/3/4_3.odb,Step-1,Increment      1: Step Time =    1.000,"PART-1-1",           615,       2.88648,      -4.17028,            0.,NA,NA,"",   72.0116E-03,   71.7622E-03,  -5.98733E-03,   276.360E-06
C:/temp/dataset/3/4_3.odb,Step-1,Increment      1: Step Time =    1.000,"PART-1-1",           616,       1.90498,      -3.27989,            0.,NA,NA,"",   77.8286E-03,   77.8228E-03,   954.675E-06,   172.815E-06
C:/temp/dataset/3/4_3.odb,Step-1,Increment      1: Step Time =    1.000,"PART-1-1",           617,      -2.82853,       3.20340,            0.,NA,NA,"",   130.576E-03,   125.568E-03,   35.8177E-03,   50.7083E-06
C:/temp/dataset/3/4_3.odb,Step-1,Increment      1: Step Time =    1.000,"PART-1-1",           618,      -1.73717,       4.08745,            0.,NA,NA,"",   134.996E-03,   132.105E-03,   27.7913E-03,   56.8396E-06
C:/temp/dataset/3/4_3.odb,Step-1,Increment      1: Step Time =    1.000,"PART-1-1",           619,      -2.81667,            5.,            0.,NA,NA,"",   143.321E-03,   138.812E-03,   35.6667E-03,   40.8113E-06
C:/temp/dataset/3/4_3.odb,Step-1,Increment      1: Step Time =    1.000,"PART-1-1",           620,      -7.28333,            5.,            0.,NA,NA,"",   154.858E-03,   138.895E-03,   68.4777E-03,   411.418E-09
C:/temp/dataset/3/4_3.odb,Step-1,Increment      1: Step Time =    1.000,"PART-1-1",           621,      -11.7000,            5.,            0.,NA,NA,"",   171.821E-03,   139.020E-03,   100.975E-03,   722.663E-09
C:/temp/dataset/3/4_3.odb,Step-1,Increment      1: Step Time =    1.000,"PART-1-1",           622,      -11.5540,       2.50359,            0.,NA,NA,"",   156.679E-03,   120.643E-03,   99.9676E-03,   459.194E-09
C:/temp/dataset/3/4_3.odb,Step-1,Increment      1: Step Time =    1.000,"PART-1-1",           623,      -8.37698,      -4.01732,            0.,NA,NA,"",   105.618E-03,   72.5550E-03,   76.7523E-03,   786.333E-09
C:/temp/dataset/3/4_3.odb,Step-1,Increment      1: Step Time =    1.000,"PART-1-1",           624,      -10.5279,      -3.86372,            0.,NA,NA,"",   118.366E-03,   73.7450E-03,   92.5862E-03,   588.208E-09
C:/temp/dataset/3/4_3.odb,Step-1,Increment      1: Step Time =    1.000,"PART-1-1",           625,      -9.41667,           -5.,            0.,NA,NA,"",   106.769E-03,   65.3477E-03,   84.4348E-03,   1.21839E-06
C:/temp/dataset/3/4_3.odb,Step-1,Increment      1: Step Time =    1.000,"PART-1-1",           626,          3.75,          -20.,            0.,NA,NA,"",   5.87340E-03,   4.95496E-03,  -3.15361E-03,   863.786E-06
C:/temp/dataset/3/4_3.odb,Step-1,Increment      1: Step Time =    1.000,"PART-1-1",           627,       2.74072,      -21.3682,            0.,NA,NA,"",   3.08466E-03,   2.63945E-03,  -1.59637E-03,   386.781E-06
C:/temp/dataset/3/4_3.odb,Step-1,Increment      1: Step Time =    1.000,"PART-1-1",           628,       4.11640,      -22.1674,            0.,NA,NA,"",   3.75975E-03,   2.03949E-03,  -3.15851E-03,   488.485E-06
C:/temp/dataset/3/4_3.odb,Step-1,Increment      1: Step Time =    1.000,"PART-1-1",           629,       5.12568,      -20.7992,            0.,NA,NA,"",   7.27641E-03,   4.35732E-03,  -5.82751E-03,   1.02524E-03
C:/temp/dataset/3/4_3.odb,Step-1,Increment      1: Step Time =    1.000,"PART-1-1",           630,          1.25,          -20.,            0.,NA,NA,"",   3.19619E-03,   3.07644E-03,  -866.683E-06,   643.759E-06
C:/temp/dataset/3/4_3.odb,Step-1,Increment      1: Step Time =    1.000,"PART-1-1",           631,   73.0809E-03,      -21.3299,            0.,NA,NA,"",   1.86204E-03,   1.85691E-03,  -138.116E-06,   333.303E-06
C:/temp/dataset/3/4_3.odb,Step-1,Increment      1: Step Time =    1.000,"PART-1-1",           632,       1.56380,      -22.6981,            0.,NA,NA,"",   1.34350E-03,   1.20762E-03,  -588.760E-06,   171.760E-06
C:/temp/dataset/3/4_3.odb,Step-1,Increment      1: Step Time =    1.000,"PART-1-1",           633,         -1.25,          -20.,            0.,NA,NA,"",   1.89730E-03,   1.89613E-03,  -66.7159E-06,   400.088E-06
C:/temp/dataset/3/4_3.odb,Step-1,Increment      1: Step Time =    1.000,"PART-1-1",           634,      -2.46493,      -21.3147,            0.,NA,NA,"",   1.31629E-03,   1.29702E-03,   224.416E-06,   223.046E-06
C:/temp/dataset/3/4_3.odb,Step-1,Increment      1: Step Time =    1.000,"PART-1-1",           635,      -1.14185,      -22.6446,            0.,NA,NA,"",   1.04175E-03,   1.02272E-03,   198.198E-06,   229.656E-06
C:/temp/dataset/3/4_3.odb,Step-1,Increment      1: Step Time =    1.000,"PART-1-1",           636,         -3.75,          -20.,            0.,NA,NA,"",   1.23946E-03,   1.23018E-03,   151.369E-06,   223.433E-06
C:/temp/dataset/3/4_3.odb,Step-1,Increment      1: Step Time =    1.000,"PART-1-1",           637,      -4.97847,      -21.2978,            0.,NA,NA,"",   983.582E-06,   952.419E-06,   245.625E-06,   132.941E-06
C:/temp/dataset/3/4_3.odb,Step-1,Increment      1: Step Time =    1.000,"PART-1-1",           638,      -3.69340,      -22.6125,            0.,NA,NA,"",   898.463E-06,   842.603E-06,   311.859E-06,   180.950E-06
C:/temp/dataset/3/4_3.odb,Step-1,Increment      1: Step Time =    1.000,"PART-1-1",           639,      -4.95791,      -23.8547,            0.,NA,NA,"",   616.509E-06,   547.945E-06,   282.560E-06,   133.914E-06
C:/temp/dataset/3/4_3.odb,Step-1,Increment      1: Step Time =    1.000,"PART-1-1",           640,      -6.21189,      -22.5887,            0.,NA,NA,"",   752.739E-06,   710.850E-06,   247.605E-06,   121.616E-06
C:/temp/dataset/3/4_3.odb,Step-1,Increment      1: Step Time =    1.000,"PART-1-1",           641,      -7.46939,      -23.8324,            0.,NA,NA,"",   568.340E-06,   531.020E-06,   202.555E-06,   93.1995E-06
C:/temp/dataset/3/4_3.odb,Step-1,Increment      1: Step Time =    1.000,"PART-1-1",           642,           15.,        -13.75,            0.,NA,NA,"",   61.2012E-03,   35.3414E-03,  -49.9657E-03,   3.58797E-03
C:/temp/dataset/3/4_3.odb,Step-1,Increment      1: Step Time =    1.000,"PART-1-1",           643,       14.2106,      -12.3304,            0.,NA,NA,"",   64.8454E-03,   39.6106E-03,  -51.3412E-03,   3.39132E-03
C:/temp/dataset/3/4_3.odb,Step-1,Increment      1: Step Time =    1.000,"PART-1-1",           644,       13.1387,      -13.2101,            0.,NA,NA,"",   56.3538E-03,   34.5967E-03,  -44.4839E-03,   3.09116E-03
C:/temp/dataset/3/4_3.odb,Step-1,Increment      1: Step Time =    1.000,"PART-1-1",           645,           15.,        -11.25,            0.,NA,NA,"",   73.7007E-03,   45.3665E-03,  -58.0834E-03,   3.62421E-03
C:/temp/dataset/3/4_3.odb,Step-1,Increment      1: Step Time =    1.000,"PART-1-1",           646,           15.,         -6.25,            0.,NA,NA,"",   102.378E-03,   70.0986E-03,  -74.6155E-03,   3.71037E-03
C:/temp/dataset/3/4_3.odb,Step-1,Increment      1: Step Time =    1.000,"PART-1-1",           647,       14.0624,      -4.92369,            0.,NA,NA,"",   105.875E-03,   76.2529E-03,  -73.4503E-03,   3.45251E-03
C:/temp/dataset/3/4_3.odb,Step-1,Increment      1: Step Time =    1.000,"PART-1-1",           648,       12.9264,      -6.09194,            0.,NA,NA,"",   92.8076E-03,   67.8447E-03,  -63.3273E-03,   3.10050E-03
C:/temp/dataset/3/4_3.odb,Step-1,Increment      1: Step Time =    1.000,"PART-1-1",           649,           15.,         -3.75,            0.,NA,NA,"",   118.778E-03,   84.9251E-03,  -83.0421E-03,   3.75199E-03
C:/temp/dataset/3/4_3.odb,Step-1,Increment      1: Step Time =    1.000,"PART-1-1",           650,       13.0440,      -3.68493,            0.,NA,NA,"",   108.619E-03,   82.3351E-03,  -70.8455E-03,   3.15271E-03
C:/temp/dataset/3/4_3.odb,Step-1,Increment      1: Step Time =    1.000,"PART-1-1",           651,       8.06094,   477.426E-03,            0.,NA,NA,"",   115.017E-03,   105.789E-03,  -45.1394E-03,   1.54322E-03
C:/temp/dataset/3/4_3.odb,Step-1,Increment      1: Step Time =    1.000,"PART-1-1",           652,       8.76493,       2.31856,            0.,NA,NA,"",   131.800E-03,   120.456E-03,  -53.4935E-03,   1.83120E-03
C:/temp/dataset/3/4_3.odb,Step-1,Increment      1: Step Time =    1.000,"PART-1-1",           653,       6.73548,       2.80805,            0.,NA,NA,"",   128.657E-03,   123.072E-03,  -37.4958E-03,   1.16822E-03
C:/temp/dataset/3/4_3.odb,Step-1,Increment      1: Step Time =    1.000,"PART-1-1",           654,       6.03149,   966.916E-03,            0.,NA,NA,"",   112.641E-03,   108.520E-03,  -30.1914E-03,   840.078E-06
C:/temp/dataset/3/4_3.odb,Step-1,Increment      1: Step Time =    1.000,"PART-1-1",           655,            5.,          8.75,            0.,NA,NA,"",   178.043E-03,   175.987E-03,  -26.9826E-03,   653.170E-06
C:/temp/dataset/3/4_3.odb,Step-1,Increment      1: Step Time =    1.000,"PART-1-1",           656,       7.16919,       9.14751,            0.,NA,NA,"",   187.328E-03,   180.803E-03,  -49.0093E-03,   1.33389E-03
C:/temp/dataset/3/4_3.odb,Step-1,Increment      1: Step Time =    1.000,"PART-1-1",           657,          3.75,           30.,            0.,NA,NA,"",   453.013E-03,   452.632E-03,  -18.5744E-03,   490.907E-06
C:/temp/dataset/3/4_3.odb,Step-1,Increment      1: Step Time =    1.000,"PART-1-1",           658,       3.71036,       27.5731,            0.,NA,NA,"",   415.707E-03,   415.341E-03,  -17.4269E-03,   192.047E-06
C:/temp/dataset/3/4_3.odb,Step-1,Increment      1: Step Time =    1.000,"PART-1-1",           659,       7.38617,       23.8490,            0.,NA,NA,"",   366.825E-03,   359.941E-03,  -70.7314E-03,   1.35639E-03
C:/temp/dataset/3/4_3.odb,Step-1,Increment      1: Step Time =    1.000,"PART-1-1",           660,       6.16255,       25.1024,            0.,NA,NA,"",   381.677E-03,   377.852E-03,  -53.9038E-03,   822.168E-06
C:/temp/dataset/3/4_3.odb,Step-1,Increment      1: Step Time =    1.000,"PART-1-1",           661,       4.93576,       23.8439,            0.,NA,NA,"",   361.084E-03,   359.390E-03,  -34.9388E-03,   354.205E-06
C:/temp/dataset/3/4_3.odb,Step-1,Increment      1: Step Time =    1.000,"PART-1-1",           662,       6.15938,       22.5905,            0.,NA,NA,"",   345.382E-03,   341.480E-03,  -51.7713E-03,   884.360E-06
C:/temp/dataset/3/4_3.odb,Step-1,Increment      1: Step Time =    1.000,"PART-1-1",           663,      -10.0017,       23.7560,            0.,NA,NA,"",   405.743E-03,   360.447E-03,   186.294E-03,   563.891E-09
C:/temp/dataset/3/4_3.odb,Step-1,Increment      1: Step Time =    1.000,"PART-1-1",           664,      -8.75135,       22.5073,            0.,NA,NA,"",   380.805E-03,   341.796E-03,   167.893E-03,   1.01561E-06
C:/temp/dataset/3/4_3.odb,Step-1,Increment      1: Step Time =    1.000,"PART-1-1",           665,      -10.0004,       21.2526,            0.,NA,NA,"",   373.287E-03,   323.331E-03,   186.550E-03,   762.108E-09
C:/temp/dataset/3/4_3.odb,Step-1,Increment      1: Step Time =    1.000,"PART-1-1",           666,      -11.2505,       22.5043,            0.,NA,NA,"",   398.729E-03,   342.027E-03,   204.945E-03,   637.778E-09
C:/temp/dataset/3/4_3.odb,Step-1,Increment      1: Step Time =    1.000,"PART-1-1",           667,        -11.25,           20.,            0.,NA,NA,"",   367.526E-03,   304.898E-03,   205.213E-03,   859.820E-09
C:/temp/dataset/3/4_3.odb,Step-1,Increment      1: Step Time =    1.000,"PART-1-1",           668,         -8.75,           20.,            0.,NA,NA,"",   347.946E-03,   304.620E-03,   168.147E-03,   1.51412E-06
C:/temp/dataset/3/4_3.odb,Step-1,Increment      1: Step Time =    1.000,"PART-1-1",           669,       7.37456,       21.3253,            0.,NA,NA,"",   331.262E-03,   324.378E-03,  -67.1829E-03,   1.44627E-03
C:/temp/dataset/3/4_3.odb,Step-1,Increment      1: Step Time =    1.000,"PART-1-1",           670,      -1.26076,       25.0501,            0.,NA,NA,"",   382.731E-03,   378.526E-03,   56.5771E-03,   100.579E-06
C:/temp/dataset/3/4_3.odb,Step-1,Increment      1: Step Time =    1.000,"PART-1-1",           671,      -2.50213,       23.7814,            0.,NA,NA,"",   367.683E-03,   359.940E-03,   75.0611E-03,   49.3510E-06
C:/temp/dataset/3/4_3.odb,Step-1,Increment      1: Step Time =    1.000,"PART-1-1",           672,          1.25,           20.,            0.,NA,NA,"",   304.524E-03,   303.881E-03,   19.7704E-03,   240.211E-06
C:/temp/dataset/3/4_3.odb,Step-1,Increment      1: Step Time =    1.000,"PART-1-1",           673,            5.,         13.75,            0.,NA,NA,"",   231.047E-03,   229.080E-03,  -30.0844E-03,   615.068E-06
C:/temp/dataset/3/4_3.odb,Step-1,Increment      1: Step Time =    1.000,"PART-1-1",           674,       7.85923,       4.51418,            0.,NA,NA,"",   146.534E-03,   138.001E-03,  -49.2747E-03,   1.58186E-03
C:/temp/dataset/3/4_3.odb,Step-1,Increment      1: Step Time =    1.000,"PART-1-1",           675,       9.45843,       7.45797,            0.,NA,NA,"",   179.669E-03,   165.961E-03,  -68.8313E-03,   2.05983E-03
C:/temp/dataset/3/4_3.odb,Step-1,Increment      1: Step Time =    1.000,"PART-1-1",           676,       11.3500,       8.04392,            0.,NA,NA,"",   194.703E-03,   173.496E-03,  -88.3649E-03,   2.67217E-03
C:/temp/dataset/3/4_3.odb,Step-1,Increment      1: Step Time =    1.000,"PART-1-1",           677,       10.2386,       8.70699,            0.,NA,NA,"",   195.435E-03,   178.777E-03,  -78.9532E-03,   2.31126E-03
C:/temp/dataset/3/4_3.odb,Step-1,Increment      1: Step Time =    1.000,"PART-1-1",           678,   133.314E-03,       2.02047,            0.,NA,NA,"",   117.475E-03,   116.625E-03,   14.1050E-03,   121.288E-06
C:/temp/dataset/3/4_3.odb,Step-1,Increment      1: Step Time =    1.000,"PART-1-1",           679,       2.26054,       1.70692,            0.,NA,NA,"",   114.042E-03,   114.030E-03,  -1.65680E-03,   136.643E-06
C:/temp/dataset/3/4_3.odb,Step-1,Increment      1: Step Time =    1.000,"PART-1-1",           680,  -583.333E-03,            5.,            0.,NA,NA,"",   140.224E-03,   138.894E-03,   19.2669E-03,   123.908E-06
C:/temp/dataset/3/4_3.odb,Step-1,Increment      1: Step Time =    1.000,"PART-1-1",           681,  -713.179E-03,       3.09316,            0.,NA,NA,"",   126.355E-03,   124.711E-03,   20.3193E-03,   103.514E-06
C:/temp/dataset/3/4_3.odb,Step-1,Increment      1: Step Time =    1.000,"PART-1-1",           682,      -10.2084,       1.19941,            0.,NA,NA,"",   142.971E-03,   111.008E-03,   90.0989E-03,   588.948E-09
C:/temp/dataset/3/4_3.odb,Step-1,Increment      1: Step Time =    1.000,"PART-1-1",           683,      -7.18333,           -5.,            0.,NA,NA,"",   94.2554E-03,   65.2842E-03,   67.9857E-03,   414.141E-09
C:/temp/dataset/3/4_3.odb,Step-1,Increment      1: Step Time =    1.000,"PART-1-1",           684,      -7.36178,      -2.99006,            0.,NA,NA,"",   105.876E-03,   80.0914E-03,   69.2467E-03,   4.70346E-06
C:/temp/dataset/3/4_3.odb,Step-1,Increment      1: Step Time =    1.000,"PART-1-1",           685,      -11.3125,  -91.5578E-03,            0.,NA,NA,"",   141.296E-03,   101.536E-03,   98.2603E-03,   417.245E-09
C:/temp/dataset/3/4_3.odb,Step-1,Increment      1: Step Time =    1.000,"PART-1-1",           686,      -11.6500,           -5.,            0.,NA,NA,"",   120.228E-03,   65.4107E-03,   100.877E-03,   759.707E-09
C:/temp/dataset/3/4_3.odb,Step-1,Increment      1: Step Time =    1.000,"PART-1-1",           687,      -11.6245,      -2.63993,            0.,NA,NA,"",   130.303E-03,   82.7848E-03,   100.626E-03,   482.120E-09
C:/temp/dataset/3/4_3.odb,Step-1,Increment      1: Step Time =    1.000,"PART-1-1",           688,      -1.03706,       1.18772,            0.,NA,NA,"",   112.820E-03,   110.518E-03,   22.6742E-03,   104.872E-06
C:/temp/dataset/3/4_3.odb,Step-1,Increment      1: Step Time =    1.000,"PART-1-1",           689,      -2.26684,   407.252E-03,            0.,NA,NA,"",   109.537E-03,   104.854E-03,   31.6869E-03,   65.4519E-06
C:/temp/dataset/3/4_3.odb,Step-1,Increment      1: Step Time =    1.000,"PART-1-1",           690,      -1.61706,  -775.207E-03,            0.,NA,NA,"",   99.7859E-03,   96.1012E-03,   26.8659E-03,   89.1377E-06
C:/temp/dataset/3/4_3.odb,Step-1,Increment      1: Step Time =    1.000,"PART-1-1",           691,      -4.44627,  -189.662E-03,            0.,NA,NA,"",   111.337E-03,   100.593E-03,   47.7184E-03,   30.9217E-06
C:/temp/dataset/3/4_3.odb,Step-1,Increment      1: Step Time =    1.000,"PART-1-1",           692,      -3.83065,   850.686E-03,            0.,NA,NA,"",   116.524E-03,   108.225E-03,   43.1887E-03,   36.5041E-06
C:/temp/dataset/3/4_3.odb,Step-1,Increment      1: Step Time =    1.000,"PART-1-1",           693,      -5.38306,   384.196E-03,            0.,NA,NA,"",   118.226E-03,   104.859E-03,   54.6085E-03,   17.4898E-06
C:/temp/dataset/3/4_3.odb,Step-1,Increment      1: Step Time =    1.000,"PART-1-1",           694,       3.90000,           -5.,            0.,NA,NA,"",   67.7382E-03,   66.5196E-03,  -12.7908E-03,   516.560E-06
C:/temp/dataset/3/4_3.odb,Step-1,Increment      1: Step Time =    1.000,"PART-1-1",           695,       5.25667,      -4.01677,            0.,NA,NA,"",   76.2656E-03,   73.2144E-03,  -21.3564E-03,   764.117E-06
C:/temp/dataset/3/4_3.odb,Step-1,Increment      1: Step Time =    1.000,"PART-1-1",           696,       4.24316,      -3.18705,            0.,NA,NA,"",   79.9792E-03,   78.5002E-03,  -15.3098E-03,   317.101E-06
C:/temp/dataset/3/4_3.odb,Step-1,Increment      1: Step Time =    1.000,"PART-1-1",           697,       9.51721,      -4.82762,            0.,NA,NA,"",   84.8846E-03,   71.2312E-03,  -46.1683E-03,   2.08930E-03
C:/temp/dataset/3/4_3.odb,Step-1,Increment      1: Step Time =    1.000,"PART-1-1",           698,       8.04384,      -4.93500,            0.,NA,NA,"",   78.6609E-03,   69.3654E-03,  -37.0942E-03,   1.67996E-03
C:/temp/dataset/3/4_3.odb,Step-1,Increment      1: Step Time =    1.000,"PART-1-1",           699,       8.61490,      -6.56470,            0.,NA,NA,"",   71.3489E-03,   60.5025E-03,  -37.8168E-03,   1.83193E-03
C:/temp/dataset/3/4_3.odb,Step-1,Increment      1: Step Time =    1.000,"PART-1-1",           700,       10.0883,      -6.45732,            0.,NA,NA,"",   77.7220E-03,   62.4276E-03,  -46.2980E-03,   2.26601E-03
C:/temp/dataset/3/4_3.odb,Step-1,Increment      1: Step Time =    1.000,"PART-1-1",           701,       9.29828,      -8.00429,            0.,NA,NA,"",   66.1666E-03,   53.4557E-03,  -38.9937E-03,   2.03496E-03
C:/temp/dataset/3/4_3.odb,Step-1,Increment      1: Step Time =    1.000,"PART-1-1",           702,       6.27674,      -21.4047,            0.,NA,NA,"",   8.86556E-03,   4.15702E-03,  -7.83054E-03,   1.39998E-03
C:/temp/dataset/3/4_3.odb,Step-1,Increment      1: Step Time =    1.000,"PART-1-1",           703,       7.27122,      -20.3583,            0.,NA,NA,"",   13.4763E-03,   7.04701E-03,  -11.4870E-03,   1.64260E-03
C:/temp/dataset/3/4_3.odb,Step-1,Increment      1: Step Time =    1.000,"PART-1-1",           704,         -6.25,          -20.,            0.,NA,NA,"",   899.178E-06,   884.250E-06,   163.163E-06,   111.191E-06
C:/temp/dataset/3/4_3.odb,Step-1,Increment      1: Step Time =    1.000,"PART-1-1",           705,         -1.25,          -30.,            0.,NA,NA,"",            0.,  -157.369E-42,  -138.580E-42,   184.901E-06
C:/temp/dataset/3/4_3.odb,Step-1,Increment      1: Step Time =    1.000,"PART-1-1",           706,       8.60683,      -25.8105,            0.,NA,NA,"",   5.51798E-03,   682.033E-06,  -5.47567E-03,   1.69842E-03
C:/temp/dataset/3/4_3.odb,Step-1,Increment      1: Step Time =    1.000,"PART-1-1",           707,       7.41490,      -26.9159,            0.,NA,NA,"",   3.11914E-03,  -441.251E-06,  -3.08777E-03,   1.29138E-03
C:/temp/dataset/3/4_3.odb,Step-1,Increment      1: Step Time =    1.000,"PART-1-1",           708,       6.17638,      -25.8614,            0.,NA,NA,"",   3.24551E-03,  -371.544E-06,  -3.22418E-03,   1.01826E-03
C:/temp/dataset/3/4_3.odb,Step-1,Increment      1: Step Time =    1.000,"PART-1-1",           709,       7.37219,      -25.0876,            0.,NA,NA,"",   5.22304E-03,   537.046E-06,  -5.19535E-03,   1.39257E-03
C:/temp/dataset/3/4_3.odb,Step-1,Increment      1: Step Time =    1.000,"PART-1-1",           710,       6.30743,      -24.1068,            0.,NA,NA,"",   5.06005E-03,   842.288E-06,  -4.98945E-03,   1.13971E-03
C:/temp/dataset/3/4_3.odb,Step-1,Increment      1: Step Time =    1.000,"PART-1-1",           711,   113.079E-03,      -23.9373,            0.,NA,NA,"",   451.893E-06,   451.331E-06,  -22.5325E-06,   164.067E-06
C:/temp/dataset/3/4_3.odb,Step-1,Increment      1: Step Time =    1.000,"PART-1-1",           712,      -2.43554,      -23.8906,            0.,NA,NA,"",   608.401E-06,   534.390E-06,   290.826E-06,   172.222E-06
C:/temp/dataset/3/4_3.odb,Step-1,Increment      1: Step Time =    1.000,"PART-1-1",           713,      -8.72529,      -25.0755,            0.,NA,NA,"",   424.165E-06,   397.575E-06,   147.818E-06,   83.8710E-06
C:/temp/dataset/3/4_3.odb,Step-1,Increment      1: Step Time =    1.000,"PART-1-1",           714,      -9.97606,      -23.8175,            0.,NA,NA,"",   533.648E-06,   512.384E-06,   149.142E-06,   59.9477E-06
C:/temp/dataset/3/4_3.odb,Step-1,Increment      1: Step Time =    1.000,"PART-1-1",           715,      -9.99641,      -28.7682,            0.,NA,NA,"",   94.1594E-06,   88.7622E-06,   31.4209E-06,   58.6131E-06
C:/temp/dataset/3/4_3.odb,Step-1,Increment      1: Step Time =    1.000,"PART-1-1",           716,      -11.2465,      -27.5281,            0.,NA,NA,"",   207.986E-06,   197.650E-06,   64.7479E-06,   63.7183E-06
C:/temp/dataset/3/4_3.odb,Step-1,Increment      1: Step Time =    1.000,"PART-1-1",           717,        -11.25,          -30.,            0.,NA,NA,"",            0.,   45.1106E-42,   64.3518E-42,   54.5854E-06
C:/temp/dataset/3/4_3.odb,Step-1,Increment      1: Step Time =    1.000,"PART-1-1",           718,         -8.75,          -30.,            0.,NA,NA,"",            0.,   38.7081E-42,   55.9833E-42,   47.3635E-06
C:/temp/dataset/3/4_3.odb,Step-1,Increment      1: Step Time =    1.000,"PART-1-1",           719,      -8.73783,      -27.5479,            0.,NA,NA,"",   184.286E-06,   169.744E-06,   71.7523E-06,   68.9403E-06
C:/temp/dataset/3/4_3.odb,Step-1,Increment      1: Step Time =    1.000,"PART-1-1",           720,       9.45286,      -20.3748,            0.,NA,NA,"",   18.7211E-03,   8.95940E-03,  -16.4380E-03,   2.14148E-03
C:/temp/dataset/3/4_3.odb,Step-1,Increment      1: Step Time =    1.000,"PART-1-1",           721,       8.38706,      -19.4374,            0.,NA,NA,"",   18.5634E-03,   10.0758E-03,  -15.5909E-03,   1.85300E-03
C:/temp/dataset/3/4_3.odb,Step-1,Increment      1: Step Time =    1.000,"PART-1-1",           722,       8.33702,      -21.2957,            0.,NA,NA,"",   13.7568E-03,   6.05747E-03,  -12.3514E-03,   1.89002E-03
C:/temp/dataset/3/4_3.odb,Step-1,Increment      1: Step Time =    1.000,"PART-1-1",           723,       9.34035,      -18.0986,            0.,NA,NA,"",   24.9961E-03,   14.3445E-03,  -20.4705E-03,   2.07427E-03
C:/temp/dataset/3/4_3.odb,Step-1,Increment      1: Step Time =    1.000,"PART-1-1",           724,       10.7511,      -19.4747,            0.,NA,NA,"",   24.6824E-03,   12.3415E-03,  -21.3754E-03,   2.44886E-03
C:/temp/dataset/3/4_3.odb,Step-1,Increment      1: Step Time =    1.000,"PART-1-1",           725,       9.57777,      -9.07511,            0.,NA,NA,"",   61.7717E-03,   48.3770E-03,  -38.4111E-03,   2.11795E-03
C:/temp/dataset/3/4_3.odb,Step-1,Increment      1: Step Time =    1.000,"PART-1-1",           726,       10.3854,      -7.79904,            0.,NA,NA,"",   71.5785E-03,   55.5635E-03,  -45.1240E-03,   2.34684E-03
C:/temp/dataset/3/4_3.odb,Step-1,Increment      1: Step Time =    1.000,"PART-1-1",           727,       11.9371,      -7.89361,            0.,NA,NA,"",   77.7879E-03,   56.8430E-03,  -53.1020E-03,   2.79556E-03
C:/temp/dataset/3/4_3.odb,Step-1,Increment      1: Step Time =    1.000,"PART-1-1",           728,       11.6400,      -6.55190,            0.,NA,NA,"",   83.9848E-03,   63.6231E-03,  -54.8229E-03,   2.71579E-03
C:/temp/dataset/3/4_3.odb,Step-1,Increment      1: Step Time =    1.000,"PART-1-1",           729,       9.29748,       3.92298,            0.,NA,NA,"",   147.190E-03,   134.066E-03,  -60.7560E-03,   2.01243E-03
C:/temp/dataset/3/4_3.odb,Step-1,Increment      1: Step Time =    1.000,"PART-1-1",           730,       10.7408,       1.93669,            0.,NA,NA,"",   137.613E-03,   119.267E-03,  -68.6498E-03,   2.45063E-03
C:/temp/dataset/3/4_3.odb,Step-1,Increment      1: Step Time =    1.000,"PART-1-1",           731,       12.1175,       9.30164,            0.,NA,NA,"",   211.508E-03,   186.804E-03,  -99.1974E-03,   2.92771E-03
C:/temp/dataset/3/4_3.odb,Step-1,Increment      1: Step Time =    1.000,"PART-1-1",           732,       12.3743,       7.25826,            0.,NA,NA,"",   192.937E-03,   167.255E-03,  -96.1788E-03,   3.00439E-03
C:/temp/dataset/3/4_3.odb,Step-1,Increment      1: Step Time =    1.000,"PART-1-1",           733,       9.86952,       23.8294,            0.,NA,NA,"",   376.960E-03,   361.548E-03,  -106.684E-03,   2.37791E-03
C:/temp/dataset/3/4_3.odb,Step-1,Increment      1: Step Time =    1.000,"PART-1-1",           734,       8.61965,       22.5851,            0.,NA,NA,"",   353.454E-03,   342.726E-03,  -86.4204E-03,   1.84851E-03
C:/temp/dataset/3/4_3.odb,Step-1,Increment      1: Step Time =    1.000,"PART-1-1",           735,         11.25,           30.,            0.,NA,NA,"",   478.089E-03,   456.200E-03,  -143.005E-03,   2.77771E-03
C:/temp/dataset/3/4_3.odb,Step-1,Increment      1: Step Time =    1.000,"PART-1-1",           736,       9.97488,       28.7673,            0.,NA,NA,"",   452.518E-03,   436.210E-03,  -120.386E-03,   2.94338E-03
C:/temp/dataset/3/4_3.odb,Step-1,Increment      1: Step Time =    1.000,"PART-1-1",           737,          8.75,           30.,            0.,NA,NA,"",   466.962E-03,   455.220E-03,  -104.057E-03,   2.53796E-03
C:/temp/dataset/3/4_3.odb,Step-1,Increment      1: Step Time =    1.000,"PART-1-1",           738,       3.69885,       25.0915,            0.,NA,NA,"",   378.311E-03,   377.930E-03,  -16.9780E-03,   223.774E-06
C:/temp/dataset/3/4_3.odb,Step-1,Increment      1: Step Time =    1.000,"PART-1-1",           739,       4.94207,       26.3392,            0.,NA,NA,"",   397.942E-03,   396.314E-03,  -35.9591E-03,   282.528E-06
C:/temp/dataset/3/4_3.odb,Step-1,Increment      1: Step Time =    1.000,"PART-1-1",           740,         -6.25,           30.,            0.,NA,NA,"",   470.891E-03,   452.589E-03,   130.007E-03,   965.220E-09
C:/temp/dataset/3/4_3.odb,Step-1,Increment      1: Step Time =    1.000,"PART-1-1",           741,      -11.2519,       25.0060,            0.,NA,NA,"",   430.845E-03,   379.116E-03,   204.691E-03,   443.987E-09
C:/temp/dataset/3/4_3.odb,Step-1,Increment      1: Step Time =    1.000,"PART-1-1",           742,       11.7111,      -12.1867,            0.,NA,NA,"",   55.3732E-03,   36.7922E-03,  -41.3827E-03,   2.70685E-03
C:/temp/dataset/3/4_3.odb,Step-1,Increment      1: Step Time =    1.000,"PART-1-1",           743,       12.0443,      -13.4388,            0.,NA,NA,"",   51.1159E-03,   32.2919E-03,  -39.6241E-03,   2.78945E-03
C:/temp/dataset/3/4_3.odb,Step-1,Increment      1: Step Time =    1.000,"PART-1-1",           744,       9.07309,      -22.0228,            0.,NA,NA,"",   13.6848E-03,   5.47381E-03,  -12.5424E-03,   2.04167E-03
C:/temp/dataset/3/4_3.odb,Step-1,Increment      1: Step Time =    1.000,"PART-1-1",           745,       9.10959,      -23.2638,            0.,NA,NA,"",   10.9875E-03,   3.66597E-03,  -10.3579E-03,   2.01193E-03
C:/temp/dataset/3/4_3.odb,Step-1,Increment      1: Step Time =    1.000,"PART-1-1",           746,       10.5828,      -23.1781,            0.,NA,NA,"",   13.9617E-03,   5.23144E-03,  -12.9445E-03,   2.38175E-03
C:/temp/dataset/3/4_3.odb,Step-1,Increment      1: Step Time =    1.000,"PART-1-1",           747,       10.5463,      -21.9372,            0.,NA,NA,"",   17.1078E-03,   7.13434E-03,  -15.5492E-03,   2.40949E-03
C:/temp/dataset/3/4_3.odb,Step-1,Increment      1: Step Time =    1.000,"PART-1-1",           748,      -1.00841,      -2.00181,            0.,NA,NA,"",   89.9205E-03,   87.1007E-03,   22.3418E-03,   89.6281E-06
C:/temp/dataset/3/4_3.odb,Step-1,Increment      1: Step Time =    1.000,"PART-1-1",           749,      -3.17395,      -1.50818,            0.,NA,NA,"",   98.5981E-03,   90.8388E-03,   38.3391E-03,   45.9915E-06
C:/temp/dataset/3/4_3.odb,Step-1,Increment      1: Step Time =    1.000,"PART-1-1",           750,       8.23699,       8.20647,            0.,NA,NA,"",   181.793E-03,   172.194E-03,  -58.2916E-03,   1.67260E-03
C:/temp/dataset/3/4_3.odb,Step-1,Increment      1: Step Time =    1.000,"PART-1-1",           751,       8.58975,       6.06422,            0.,NA,NA,"",   163.032E-03,   152.282E-03,  -58.2180E-03,   1.79034E-03
C:/temp/dataset/3/4_3.odb,Step-1,Increment      1: Step Time =    1.000,"PART-1-1",           752,       1.04870,      -2.29850,            0.,NA,NA,"",   85.1090E-03,   84.8058E-03,   7.17831E-03,   135.096E-06
C:/temp/dataset/3/4_3.odb,Step-1,Increment      1: Step Time =    1.000,"PART-1-1",           753,      -1.88356,       2.26041,            0.,NA,NA,"",   122.020E-03,   118.548E-03,   28.9031E-03,   67.3623E-06
C:/temp/dataset/3/4_3.odb,Step-1,Increment      1: Step Time =    1.000,"PART-1-1",           754,      -2.91638,       1.44829,            0.,NA,NA,"",   118.347E-03,   112.586E-03,   36.4752E-03,   55.8452E-06
C:/temp/dataset/3/4_3.odb,Step-1,Increment      1: Step Time =    1.000,"PART-1-1",           755,       3.03453,      -2.52132,            0.,NA,NA,"",   83.3831E-03,   83.0758E-03,  -7.15257E-03,   87.1709E-06
C:/temp/dataset/3/4_3.odb,Step-1,Increment      1: Step Time =    1.000,"PART-1-1",           756,       6.99799,      -3.46075,            0.,NA,NA,"",   84.2995E-03,   77.7041E-03,  -32.6875E-03,   1.32554E-03
C:/temp/dataset/3/4_3.odb,Step-1,Increment      1: Step Time =    1.000,"PART-1-1",           757,       7.63560,  -984.386E-03,            0.,NA,NA,"",   102.993E-03,   94.8907E-03,  -40.0421E-03,   1.41388E-03
C:/temp/dataset/3/4_3.odb,Step-1,Increment      1: Step Time =    1.000,"PART-1-1",           758,       6.14771,      -1.67534,            0.,NA,NA,"",   93.8924E-03,   89.3272E-03,  -28.9212E-03,   922.852E-06
C:/temp/dataset/3/4_3.odb,Step-1,Increment      1: Step Time =    1.000,"PART-1-1",           759,       4.94795,      -26.8240,            0.,NA,NA,"",   1.91657E-03,  -853.329E-06,  -1.71612E-03,   717.423E-06
C:/temp/dataset/3/4_3.odb,Step-1,Increment      1: Step Time =    1.000,"PART-1-1",           760,      -11.2341,      -25.0541,            0.,NA,NA,"",   429.627E-06,   410.255E-06,   127.553E-06,   57.1736E-06
C:/temp/dataset/3/4_3.odb,Step-1,Increment      1: Step Time =    1.000,"PART-1-1",           761,      -9.98574,      -26.3021,            0.,NA,NA,"",   310.179E-06,   293.528E-06,   100.262E-06,   68.4082E-06
C:/temp/dataset/3/4_3.odb,Step-1,Increment      1: Step Time =    1.000,"PART-1-1",           762,           15.,        -26.25,            0.,NA,NA,"",   13.4035E-03,   7.08856E-03,  -11.3757E-03,   3.22407E-03
C:/temp/dataset/3/4_3.odb,Step-1,Increment      1: Step Time =    1.000,"PART-1-1",           763,       9.63478,      -24.7731,            0.,NA,NA,"",   8.67320E-03,   2.34767E-03,  -8.34942E-03,   2.07566E-03
C:/temp/dataset/3/4_3.odb,Step-1,Increment      1: Step Time =    1.000,"PART-1-1",           764,       9.83383,   250.169E-03,            0.,NA,NA,"",   120.435E-03,   105.496E-03,  -58.0971E-03,   2.14824E-03
C:/temp/dataset/3/4_3.odb,Step-1,Increment      1: Step Time =    1.000,"PART-1-1",           765,       11.1222,       22.5628,            0.,NA,NA,"",   365.615E-03,   344.868E-03,  -121.412E-03,   2.68586E-03
C:/temp/dataset/3/4_3.odb,Step-1,Increment      1: Step Time =    1.000,"PART-1-1",           766,       9.84566,       21.3197,            0.,NA,NA,"",   341.516E-03,   326.267E-03,  -100.913E-03,   2.27914E-03
C:/temp/dataset/3/4_3.odb,Step-1,Increment      1: Step Time =    1.000,"PART-1-1",           767,      -3.18112,  -190.353E-03,            0.,NA,NA,"",   107.604E-03,   100.517E-03,   38.4037E-03,   51.1201E-06
C:/temp/dataset/3/4_3.odb,Step-1,Increment      1: Step Time =    1.000,"PART-1-1",           768,       4.54417,       1.21940,            0.,NA,NA,"",   111.805E-03,   110.196E-03,  -18.9016E-03,   382.662E-06
C:/temp/dataset/3/4_3.odb,Step-1,Increment      1: Step Time =    1.000,"PART-1-1",           769,       9.22107,       9.51460,            0.,NA,NA,"",   198.762E-03,   185.905E-03,  -70.3262E-03,   1.98540E-03
C:/temp/dataset/3/4_3.odb,Step-1,Increment      1: Step Time =    1.000,"PART-1-1",           770,       11.1709,      -3.71800,            0.,NA,NA,"",   99.0877E-03,   79.7421E-03,  -58.8181E-03,   2.58653E-03
C:/temp/dataset/3/4_3.odb,Step-1,Increment      1: Step Time =    1.000,"PART-1-1",           771,       11.0221,      -5.16095,            0.,NA,NA,"",   89.3803E-03,   70.8111E-03,  -54.5402E-03,   2.54238E-03
C:/temp/dataset/3/4_3.odb,Step-1,Increment      1: Step Time =    1.000,"PART-1-1",           772,       12.3085,      -4.70099,            0.,NA,NA,"",   98.3266E-03,   75.1030E-03,  -63.4640E-03,   2.92195E-03
C:/temp/dataset/3/4_3.odb,Step-1,Increment      1: Step Time =    1.000,"PART-1-1",           773,       5.03877,      -2.41022,            0.,NA,NA,"",   86.4993E-03,   83.9336E-03,  -20.9109E-03,   549.097E-06
C:/temp/dataset/3/4_3.odb,Step-1,Increment      1: Step Time =    1.000,"PART-1-1",           774,       11.0080,       9.74440,            0.,NA,NA,"",   209.792E-03,   189.961E-03,  -89.0364E-03,   2.56413E-03
C:/temp/dataset/3/4_3.odb,Step-1,Increment      1: Step Time =    1.000,"PART-1-1",           775,       7.33953,      -23.4839,            0.,NA,NA,"",   7.47036E-03,   2.01556E-03,  -7.19331E-03,   1.50335E-03
C:/temp/dataset/3/4_3.odb,Step-1,Increment      1: Step Time =    1.000,"PART-1-1",           776,       6.60048,      -22.7490,            0.,NA,NA,"",   7.29796E-03,   2.41625E-03,  -6.88636E-03,   1.32409E-03
C:/temp/dataset/3/4_3.odb,Step-1,Increment      1: Step Time =    1.000,"PART-1-1",           777,       5.56839,      -23.3719,            0.,NA,NA,"",   4.78215E-03,   1.22219E-03,  -4.62333E-03,   954.962E-06
C:/temp/dataset/3/4_3.odb,Step-1,Increment      1: Step Time =    1.000,"PART-1-1",           778,       5.56431,      -22.1833,            0.,NA,NA,"",   6.14397E-03,   2.55633E-03,  -5.58691E-03,   1.02323E-03
C:/temp/dataset/3/4_3.odb,Step-1,Increment      1: Step Time =    1.000,"PART-1-1",           779,       7.31291,      -21.9704,            0.,NA,NA,"",   10.0662E-03,   4.01674E-03,  -9.23004E-03,   1.62405E-03
C:/temp/dataset/3/4_3.odb,Step-1,Increment      1: Step Time =    1.000,"PART-1-1",           780,       8.04898,      -22.6975,            0.,NA,NA,"",   10.1418E-03,   3.52870E-03,  -9.50812E-03,   1.75858E-03
C:/temp/dataset/3/4_3.odb,Step-1,Increment      1: Step Time =    1.000,"PART-1-1",           781,       5.89213,  -472.373E-03,            0.,NA,NA,"",   101.785E-03,   97.8402E-03,  -28.0614E-03,   809.302E-06
C:/temp/dataset/3/4_3.odb,Step-1,Increment      1: Step Time =    1.000,"PART-1-1",           782,       8.40014,      -24.0502,            0.,NA,NA,"",   8.22430E-03,   2.12601E-03,  -7.94476E-03,   1.76060E-03
