ODB Name,Step,Frame,Part Instance Name,    êﬂì_ÉâÉxÉã,X,Y,Z,Section Name,Material Name,Section Point,   U-Magnitude,          U-U1,          U-U2,       S-Mises
C:/temp/dataset/3/5_1.odb,Step-1,Increment      1: Step Time =    1.000,"PART-1-1",             1,          -15.,           20.,            0.,NA,NA,"",       3.81988,      -2.80255,      -2.59561,   23.5235E-09
C:/temp/dataset/3/5_1.odb,Step-1,Increment      1: Step Time =    1.000,"PART-1-1",             2,          -15.,           25.,            0.,NA,NA,"",       4.21933,      -3.30647,      -2.62107,   310.780E-09
C:/temp/dataset/3/5_1.odb,Step-1,Increment      1: Step Time =    1.000,"PART-1-1",             3,           -5.,           20.,            0.,NA,NA,"",       3.26547,      -2.85346,      -1.58778,   8.97175E-06
C:/temp/dataset/3/5_1.odb,Step-1,Increment      1: Step Time =    1.000,"PART-1-1",             4,            5.,           20.,            0.,NA,NA,"",       2.96018,      -2.90356,  -576.204E-03,   2.30582E-03
C:/temp/dataset/3/5_1.odb,Step-1,Increment      1: Step Time =    1.000,"PART-1-1",             5,            5.,          12.5,            0.,NA,NA,"",       2.23249,      -2.17356,  -509.532E-03,   6.15943E-03
C:/temp/dataset/3/5_1.odb,Step-1,Increment      1: Step Time =    1.000,"PART-1-1",             6,            5.,            5.,            0.,NA,NA,"",       1.55723,      -1.49993,  -418.539E-03,   11.4522E-03
C:/temp/dataset/3/5_1.odb,Step-1,Increment      1: Step Time =    1.000,"PART-1-1",             7,      -1.70000,            5.,            0.,NA,NA,"",       1.73838,      -1.48308,  -906.880E-03,   430.370E-06
C:/temp/dataset/3/5_1.odb,Step-1,Increment      1: Step Time =    1.000,"PART-1-1",             8,      -8.40000,            5.,            0.,NA,NA,"",       2.03982,      -1.46430,      -1.42010,   13.3872E-06
C:/temp/dataset/3/5_1.odb,Step-1,Increment      1: Step Time =    1.000,"PART-1-1",             9,          -15.,            5.,            0.,NA,NA,"",       2.40752,      -1.44490,      -1.92573,   157.510E-09
C:/temp/dataset/3/5_1.odb,Step-1,Increment      1: Step Time =    1.000,"PART-1-1",            10,          -15.,            0.,            0.,NA,NA,"",       2.18624,      -1.06189,      -1.91103,   1.63835E-06
C:/temp/dataset/3/5_1.odb,Step-1,Increment      1: Step Time =    1.000,"PART-1-1",            11,          -15.,           -5.,            0.,NA,NA,"",       2.01420,  -678.906E-03,      -1.89634,   131.945E-09
C:/temp/dataset/3/5_1.odb,Step-1,Increment      1: Step Time =    1.000,"PART-1-1",            12,      -8.30000,           -5.,            0.,NA,NA,"",       1.54959,  -698.582E-03,      -1.38318,   13.0265E-06
C:/temp/dataset/3/5_1.odb,Step-1,Increment      1: Step Time =    1.000,"PART-1-1",            13,      -1.60000,           -5.,            0.,NA,NA,"",       1.12741,  -717.304E-03,  -869.785E-03,   452.585E-06
C:/temp/dataset/3/5_1.odb,Step-1,Increment      1: Step Time =    1.000,"PART-1-1",            14,            5.,           -5.,            0.,NA,NA,"",   809.320E-03,  -736.749E-03,  -334.963E-03,   15.3969E-03
C:/temp/dataset/3/5_1.odb,Step-1,Increment      1: Step Time =    1.000,"PART-1-1",            15,            5.,         -12.5,            0.,NA,NA,"",   378.947E-03,  -316.505E-03,  -208.387E-03,   17.4305E-03
C:/temp/dataset/3/5_1.odb,Step-1,Increment      1: Step Time =    1.000,"PART-1-1",            16,            5.,          -20.,            0.,NA,NA,"",   70.9735E-03,  -34.5865E-03,  -61.9759E-03,   27.6063E-03
C:/temp/dataset/3/5_1.odb,Step-1,Increment      1: Step Time =    1.000,"PART-1-1",            17,           -5.,          -20.,            0.,NA,NA,"",   11.3234E-03,  -11.3146E-03,   446.533E-06,   119.401E-06
C:/temp/dataset/3/5_1.odb,Step-1,Increment      1: Step Time =    1.000,"PART-1-1",            18,          -15.,          -20.,            0.,NA,NA,"",   11.7050E-03,  -11.3367E-03,  -2.91323E-03,   7.19115E-06
C:/temp/dataset/3/5_1.odb,Step-1,Increment      1: Step Time =    1.000,"PART-1-1",            19,          -15.,          -25.,            0.,NA,NA,"",   7.86644E-03,  -7.25149E-03,  -3.04908E-03,   44.7183E-06
C:/temp/dataset/3/5_1.odb,Step-1,Increment      1: Step Time =    1.000,"PART-1-1",            20,          -15.,          -30.,            0.,NA,NA,"",            0.,  -643.007E-42,  -1.02330E-39,   1.96352E-03
C:/temp/dataset/3/5_1.odb,Step-1,Increment      1: Step Time =    1.000,"PART-1-1",            21,           15.,          -30.,            0.,NA,NA,"",            0.,  -2.76599E-39,   5.18871E-39,   9.75871E-03
C:/temp/dataset/3/5_1.odb,Step-1,Increment      1: Step Time =    1.000,"PART-1-1",            22,           15.,         -22.5,            0.,NA,NA,"",   89.1245E-03,  -34.0816E-03,   82.3506E-03,   16.4427E-03
C:/temp/dataset/3/5_1.odb,Step-1,Increment      1: Step Time =    1.000,"PART-1-1",            23,           15.,          -15.,            0.,NA,NA,"",   301.220E-03,  -219.709E-03,   206.061E-03,   18.8400E-03
C:/temp/dataset/3/5_1.odb,Step-1,Increment      1: Step Time =    1.000,"PART-1-1",            24,           15.,          -7.5,            0.,NA,NA,"",   680.428E-03,  -605.313E-03,   310.770E-03,   14.8960E-03
C:/temp/dataset/3/5_1.odb,Step-1,Increment      1: Step Time =    1.000,"PART-1-1",            25,           15.,            0.,            0.,NA,NA,"",       1.19858,      -1.13911,   372.849E-03,   9.46118E-03
C:/temp/dataset/3/5_1.odb,Step-1,Increment      1: Step Time =    1.000,"PART-1-1",            26,           15.,           7.5,            0.,NA,NA,"",       1.80487,      -1.75865,   405.868E-03,   8.16155E-03
C:/temp/dataset/3/5_1.odb,Step-1,Increment      1: Step Time =    1.000,"PART-1-1",            27,           15.,           15.,            0.,NA,NA,"",       2.49273,      -2.45728,   418.850E-03,   5.10364E-03
C:/temp/dataset/3/5_1.odb,Step-1,Increment      1: Step Time =    1.000,"PART-1-1",            28,           15.,          22.5,            0.,NA,NA,"",       3.23308,      -3.20766,   404.629E-03,   1.83107E-03
C:/temp/dataset/3/5_1.odb,Step-1,Increment      1: Step Time =    1.000,"PART-1-1",            29,           15.,           30.,            0.,NA,NA,"",       3.98465,      -3.96735,   370.959E-03,   1.01265E-03
C:/temp/dataset/3/5_1.odb,Step-1,Increment      1: Step Time =    1.000,"PART-1-1",            30,           7.5,           30.,            0.,NA,NA,"",       3.94272,      -3.92426,  -381.059E-03,   230.244E-06
C:/temp/dataset/3/5_1.odb,Step-1,Increment      1: Step Time =    1.000,"PART-1-1",            31,            0.,           30.,            0.,NA,NA,"",       4.04889,      -3.88663,      -1.13474,   70.1780E-06
C:/temp/dataset/3/5_1.odb,Step-1,Increment      1: Step Time =    1.000,"PART-1-1",            32,          -7.5,           30.,            0.,NA,NA,"",       4.28790,      -3.84859,      -1.89064,   889.684E-09
C:/temp/dataset/3/5_1.odb,Step-1,Increment      1: Step Time =    1.000,"PART-1-1",            33,          -15.,           30.,            0.,NA,NA,"",       4.63931,      -3.81040,      -2.64653,   34.9492E-09
C:/temp/dataset/3/5_1.odb,Step-1,Increment      1: Step Time =    1.000,"PART-1-1",            34,          -15.,          22.5,            0.,NA,NA,"",       4.01665,      -3.05451,      -2.60834,   168.886E-09
C:/temp/dataset/3/5_1.odb,Step-1,Increment      1: Step Time =    1.000,"PART-1-1",            35,          -7.5,           20.,            0.,NA,NA,"",       3.38444,      -2.84074,      -1.83973,   731.121E-09
C:/temp/dataset/3/5_1.odb,Step-1,Increment      1: Step Time =    1.000,"PART-1-1",            36,          -10.,           20.,            0.,NA,NA,"",       3.51750,      -2.82801,      -2.09169,   393.975E-09
C:/temp/dataset/3/5_1.odb,Step-1,Increment      1: Step Time =    1.000,"PART-1-1",            37,         -12.5,           20.,            0.,NA,NA,"",       3.66313,      -2.81528,      -2.34365,   214.276E-09
C:/temp/dataset/3/5_1.odb,Step-1,Increment      1: Step Time =    1.000,"PART-1-1",            38,           2.5,           20.,            0.,NA,NA,"",       3.00835,      -2.89118,  -831.414E-03,   449.495E-06
C:/temp/dataset/3/5_1.odb,Step-1,Increment      1: Step Time =    1.000,"PART-1-1",            39,            0.,           20.,            0.,NA,NA,"",       3.07600,      -2.87874,      -1.08380,   128.446E-06
C:/temp/dataset/3/5_1.odb,Step-1,Increment      1: Step Time =    1.000,"PART-1-1",            40,          -2.5,           20.,            0.,NA,NA,"",       3.16217,      -2.86616,      -1.33584,   28.2441E-06
C:/temp/dataset/3/5_1.odb,Step-1,Increment      1: Step Time =    1.000,"PART-1-1",            41,            5.,           15.,            0.,NA,NA,"",       2.47001,      -2.41172,  -533.458E-03,   4.99601E-03
C:/temp/dataset/3/5_1.odb,Step-1,Increment      1: Step Time =    1.000,"PART-1-1",            42,            5.,          17.5,            0.,NA,NA,"",       2.71296,      -2.65551,  -555.382E-03,   4.03780E-03
C:/temp/dataset/3/5_1.odb,Step-1,Increment      1: Step Time =    1.000,"PART-1-1",            43,            5.,           7.5,            0.,NA,NA,"",       1.77722,      -1.71766,  -456.210E-03,   9.12518E-03
C:/temp/dataset/3/5_1.odb,Step-1,Increment      1: Step Time =    1.000,"PART-1-1",            44,            5.,           10.,            0.,NA,NA,"",       2.00145,      -1.94216,  -483.539E-03,   7.17076E-03
C:/temp/dataset/3/5_1.odb,Step-1,Increment      1: Step Time =    1.000,"PART-1-1",            45,   533.333E-03,            5.,            0.,NA,NA,"",       1.66078,      -1.48823,  -737.123E-03,   1.10928E-03
C:/temp/dataset/3/5_1.odb,Step-1,Increment      1: Step Time =    1.000,"PART-1-1",            46,       2.76667,            5.,            0.,NA,NA,"",       1.59776,      -1.49220,  -571.113E-03,   2.02915E-03
C:/temp/dataset/3/5_1.odb,Step-1,Increment      1: Step Time =    1.000,"PART-1-1",            47,      -6.16667,            5.,            0.,NA,NA,"",       1.92955,      -1.47080,      -1.24896,   55.8514E-06
C:/temp/dataset/3/5_1.odb,Step-1,Increment      1: Step Time =    1.000,"PART-1-1",            48,      -3.93333,            5.,            0.,NA,NA,"",       1.82856,      -1.47714,      -1.07781,   198.355E-06
C:/temp/dataset/3/5_1.odb,Step-1,Increment      1: Step Time =    1.000,"PART-1-1",            49,      -12.8000,            5.,            0.,NA,NA,"",       2.27908,      -1.45137,      -1.75720,   1.25091E-06
C:/temp/dataset/3/5_1.odb,Step-1,Increment      1: Step Time =    1.000,"PART-1-1",            50,      -10.6000,            5.,            0.,NA,NA,"",       2.15618,      -1.45784,      -1.58866,   823.570E-09
C:/temp/dataset/3/5_1.odb,Step-1,Increment      1: Step Time =    1.000,"PART-1-1",            51,          -15.,           2.5,            0.,NA,NA,"",       2.29154,      -1.25339,      -1.91838,   1.41006E-06
C:/temp/dataset/3/5_1.odb,Step-1,Increment      1: Step Time =    1.000,"PART-1-1",            52,          -15.,          -2.5,            0.,NA,NA,"",       2.09323,  -870.395E-03,      -1.90368,   1.40103E-06
C:/temp/dataset/3/5_1.odb,Step-1,Increment      1: Step Time =    1.000,"PART-1-1",            53,      -10.5333,           -5.,            0.,NA,NA,"",       1.70132,  -692.031E-03,      -1.55422,   720.485E-09
C:/temp/dataset/3/5_1.odb,Step-1,Increment      1: Step Time =    1.000,"PART-1-1",            54,      -12.7667,           -5.,            0.,NA,NA,"",       1.85646,  -685.468E-03,      -1.72527,   1.14904E-06
C:/temp/dataset/3/5_1.odb,Step-1,Increment      1: Step Time =    1.000,"PART-1-1",            55,      -3.83333,           -5.,            0.,NA,NA,"",       1.26097,  -711.384E-03,      -1.04114,   209.912E-06
C:/temp/dataset/3/5_1.odb,Step-1,Increment      1: Step Time =    1.000,"PART-1-1",            56,      -6.06667,           -5.,            0.,NA,NA,"",       1.40233,  -705.076E-03,      -1.21218,   56.2700E-06
C:/temp/dataset/3/5_1.odb,Step-1,Increment      1: Step Time =    1.000,"PART-1-1",            57,       2.80000,           -5.,            0.,NA,NA,"",   896.543E-03,  -726.776E-03,  -524.963E-03,   3.51270E-03
C:/temp/dataset/3/5_1.odb,Step-1,Increment      1: Step Time =    1.000,"PART-1-1",            58,   600.000E-03,           -5.,            0.,NA,NA,"",       1.00575,  -722.487E-03,  -699.669E-03,   1.17979E-03
C:/temp/dataset/3/5_1.odb,Step-1,Increment      1: Step Time =    1.000,"PART-1-1",            59,            5.,          -10.,            0.,NA,NA,"",   506.991E-03,  -441.503E-03,  -249.230E-03,   16.0507E-03
C:/temp/dataset/3/5_1.odb,Step-1,Increment      1: Step Time =    1.000,"PART-1-1",            60,            5.,          -7.5,            0.,NA,NA,"",   650.259E-03,  -583.037E-03,  -287.931E-03,   15.8893E-03
C:/temp/dataset/3/5_1.odb,Step-1,Increment      1: Step Time =    1.000,"PART-1-1",            61,            5.,         -17.5,            0.,NA,NA,"",   171.311E-03,  -118.716E-03,  -123.507E-03,   21.0478E-03
C:/temp/dataset/3/5_1.odb,Step-1,Increment      1: Step Time =    1.000,"PART-1-1",            62,            5.,          -15.,            0.,NA,NA,"",   267.568E-03,  -209.593E-03,  -166.323E-03,   17.6359E-03
C:/temp/dataset/3/5_1.odb,Step-1,Increment      1: Step Time =    1.000,"PART-1-1",            63,          -2.5,          -20.,            0.,NA,NA,"",   11.8379E-03,  -11.7319E-03,  -1.58076E-03,   490.534E-06
C:/temp/dataset/3/5_1.odb,Step-1,Increment      1: Step Time =    1.000,"PART-1-1",            64,            0.,          -20.,            0.,NA,NA,"",   14.7046E-03,  -12.8533E-03,  -7.14270E-03,   1.05592E-03
C:/temp/dataset/3/5_1.odb,Step-1,Increment      1: Step Time =    1.000,"PART-1-1",            65,           2.5,          -20.,            0.,NA,NA,"",   25.3297E-03,  -15.1406E-03,  -20.3065E-03,   7.65767E-03
C:/temp/dataset/3/5_1.odb,Step-1,Increment      1: Step Time =    1.000,"PART-1-1",            66,         -12.5,          -20.,            0.,NA,NA,"",   11.3405E-03,  -11.2803E-03,  -1.16702E-03,   54.7984E-06
C:/temp/dataset/3/5_1.odb,Step-1,Increment      1: Step Time =    1.000,"PART-1-1",            67,          -10.,          -20.,            0.,NA,NA,"",   11.1524E-03,  -11.1509E-03,   184.493E-06,   37.7343E-06
C:/temp/dataset/3/5_1.odb,Step-1,Increment      1: Step Time =    1.000,"PART-1-1",            68,          -7.5,          -20.,            0.,NA,NA,"",   11.1768E-03,  -11.1458E-03,   831.279E-06,   57.3727E-06
C:/temp/dataset/3/5_1.odb,Step-1,Increment      1: Step Time =    1.000,"PART-1-1",            69,          -15.,         -22.5,            0.,NA,NA,"",   9.99591E-03,  -9.54428E-03,  -2.97069E-03,   51.9561E-06
C:/temp/dataset/3/5_1.odb,Step-1,Increment      1: Step Time =    1.000,"PART-1-1",            70,          -15.,         -27.5,            0.,NA,NA,"",   4.85187E-03,  -4.08532E-03,  -2.61740E-03,   625.034E-06
C:/temp/dataset/3/5_1.odb,Step-1,Increment      1: Step Time =    1.000,"PART-1-1",            71,          12.5,          -30.,            0.,NA,NA,"",            0.,  -1.42238E-39,   11.1143E-39,   5.80628E-03
C:/temp/dataset/3/5_1.odb,Step-1,Increment      1: Step Time =    1.000,"PART-1-1",            72,           10.,          -30.,            0.,NA,NA,"",            0.,   5.60897E-39,   6.51049E-39,   4.06505E-03
C:/temp/dataset/3/5_1.odb,Step-1,Increment      1: Step Time =    1.000,"PART-1-1",            73,           7.5,          -30.,            0.,NA,NA,"",            0.,   2.71703E-39,  -1.21385E-39,   2.79517E-03
C:/temp/dataset/3/5_1.odb,Step-1,Increment      1: Step Time =    1.000,"PART-1-1",            74,            5.,          -30.,            0.,NA,NA,"",            0.,   1.77735E-39,  -6.47164E-39,   2.67811E-03
C:/temp/dataset/3/5_1.odb,Step-1,Increment      1: Step Time =    1.000,"PART-1-1",            75,           2.5,          -30.,            0.,NA,NA,"",            0.,  -386.451E-42,  -5.35144E-39,   3.08416E-03
C:/temp/dataset/3/5_1.odb,Step-1,Increment      1: Step Time =    1.000,"PART-1-1",            76,            0.,          -30.,            0.,NA,NA,"",            0.,  -1.61196E-39,  -3.07136E-39,   3.04202E-03
C:/temp/dataset/3/5_1.odb,Step-1,Increment      1: Step Time =    1.000,"PART-1-1",            77,          -2.5,          -30.,            0.,NA,NA,"",            0.,  -3.54554E-39,  -4.27224E-39,   2.55526E-03
C:/temp/dataset/3/5_1.odb,Step-1,Increment      1: Step Time =    1.000,"PART-1-1",            78,           -5.,          -30.,            0.,NA,NA,"",            0.,  -1.78385E-39,  -199.253E-42,   1.98962E-03
C:/temp/dataset/3/5_1.odb,Step-1,Increment      1: Step Time =    1.000,"PART-1-1",            79,          -7.5,          -30.,            0.,NA,NA,"",            0.,  -1.45580E-39,   184.430E-42,   1.50244E-03
C:/temp/dataset/3/5_1.odb,Step-1,Increment      1: Step Time =    1.000,"PART-1-1",            80,          -10.,          -30.,            0.,NA,NA,"",            0.,  -1.55134E-39,  -1.44487E-39,   1.15940E-03
C:/temp/dataset/3/5_1.odb,Step-1,Increment      1: Step Time =    1.000,"PART-1-1",            81,         -12.5,          -30.,            0.,NA,NA,"",            0.,  -1.46817E-39,  -1.37759E-39,   850.075E-06
C:/temp/dataset/3/5_1.odb,Step-1,Increment      1: Step Time =    1.000,"PART-1-1",            82,           15.,          -25.,            0.,NA,NA,"",   50.5750E-03,  -14.1863E-03,   48.5446E-03,   13.5634E-03
C:/temp/dataset/3/5_1.odb,Step-1,Increment      1: Step Time =    1.000,"PART-1-1",            83,           15.,         -27.5,            0.,NA,NA,"",   22.4121E-03,  -6.70616E-03,   21.3853E-03,   11.2031E-03
C:/temp/dataset/3/5_1.odb,Step-1,Increment      1: Step Time =    1.000,"PART-1-1",            84,           15.,         -17.5,            0.,NA,NA,"",   212.017E-03,  -133.932E-03,   164.358E-03,   19.3776E-03
C:/temp/dataset/3/5_1.odb,Step-1,Increment      1: Step Time =    1.000,"PART-1-1",            85,           15.,          -20.,            0.,NA,NA,"",   141.744E-03,  -72.4379E-03,   121.836E-03,   18.5552E-03
C:/temp/dataset/3/5_1.odb,Step-1,Increment      1: Step Time =    1.000,"PART-1-1",            86,           15.,          -10.,            0.,NA,NA,"",   536.071E-03,  -457.224E-03,   279.854E-03,   16.4422E-03
C:/temp/dataset/3/5_1.odb,Step-1,Increment      1: Step Time =    1.000,"PART-1-1",            87,           15.,         -12.5,            0.,NA,NA,"",   409.401E-03,  -328.154E-03,   244.795E-03,   17.7078E-03
C:/temp/dataset/3/5_1.odb,Step-1,Increment      1: Step Time =    1.000,"PART-1-1",            88,           15.,          -2.5,            0.,NA,NA,"",       1.01455,  -949.555E-03,   357.293E-03,   10.9403E-03
C:/temp/dataset/3/5_1.odb,Step-1,Increment      1: Step Time =    1.000,"PART-1-1",            89,           15.,           -5.,            0.,NA,NA,"",   840.864E-03,  -770.456E-03,   336.823E-03,   12.9573E-03
C:/temp/dataset/3/5_1.odb,Step-1,Increment      1: Step Time =    1.000,"PART-1-1",            90,           15.,            5.,            0.,NA,NA,"",       1.59322,      -1.54315,   396.264E-03,   8.52670E-03
C:/temp/dataset/3/5_1.odb,Step-1,Increment      1: Step Time =    1.000,"PART-1-1",            91,           15.,           2.5,            0.,NA,NA,"",       1.39134,      -1.33693,   385.262E-03,   8.79981E-03
C:/temp/dataset/3/5_1.odb,Step-1,Increment      1: Step Time =    1.000,"PART-1-1",            92,           15.,          12.5,            0.,NA,NA,"",       2.25595,      -2.21696,   417.610E-03,   6.25245E-03
C:/temp/dataset/3/5_1.odb,Step-1,Increment      1: Step Time =    1.000,"PART-1-1",            93,           15.,           10.,            0.,NA,NA,"",       2.02618,      -1.98360,   413.238E-03,   7.33197E-03
C:/temp/dataset/3/5_1.odb,Step-1,Increment      1: Step Time =    1.000,"PART-1-1",            94,           15.,           20.,            0.,NA,NA,"",       2.98203,      -2.95342,   412.125E-03,   2.85999E-03
C:/temp/dataset/3/5_1.odb,Step-1,Increment      1: Step Time =    1.000,"PART-1-1",            95,           15.,          17.5,            0.,NA,NA,"",       2.73516,      -2.70319,   416.983E-03,   3.96894E-03
C:/temp/dataset/3/5_1.odb,Step-1,Increment      1: Step Time =    1.000,"PART-1-1",            96,           15.,          27.5,            0.,NA,NA,"",       3.73509,      -3.71544,   382.641E-03,   1.01160E-03
C:/temp/dataset/3/5_1.odb,Step-1,Increment      1: Step Time =    1.000,"PART-1-1",            97,           15.,           25.,            0.,NA,NA,"",       3.48491,      -3.46256,   394.063E-03,   1.29555E-03
C:/temp/dataset/3/5_1.odb,Step-1,Increment      1: Step Time =    1.000,"PART-1-1",            98,           10.,           30.,            0.,NA,NA,"",       3.93998,      -3.93780,  -130.844E-03,   674.808E-06
C:/temp/dataset/3/5_1.odb,Step-1,Increment      1: Step Time =    1.000,"PART-1-1",            99,          12.5,           30.,            0.,NA,NA,"",       3.95418,      -3.95237,   119.696E-03,   994.012E-06
C:/temp/dataset/3/5_1.odb,Step-1,Increment      1: Step Time =    1.000,"PART-1-1",           100,           2.5,           30.,            0.,NA,NA,"",       3.99785,      -3.89913,  -882.985E-03,   109.027E-06
C:/temp/dataset/3/5_1.odb,Step-1,Increment      1: Step Time =    1.000,"PART-1-1",           101,            5.,           30.,            0.,NA,NA,"",       3.96223,      -3.91155,  -631.688E-03,   48.8540E-06
C:/temp/dataset/3/5_1.odb,Step-1,Increment      1: Step Time =    1.000,"PART-1-1",           102,           -5.,           30.,            0.,NA,NA,"",       4.19463,      -3.86131,      -1.63866,   7.21639E-06
C:/temp/dataset/3/5_1.odb,Step-1,Increment      1: Step Time =    1.000,"PART-1-1",           103,          -2.5,           30.,            0.,NA,NA,"",       4.11471,      -3.87401,      -1.38668,   28.1238E-06
C:/temp/dataset/3/5_1.odb,Step-1,Increment      1: Step Time =    1.000,"PART-1-1",           104,         -12.5,           30.,            0.,NA,NA,"",       4.51112,      -3.82313,      -2.39457,   190.940E-09
C:/temp/dataset/3/5_1.odb,Step-1,Increment      1: Step Time =    1.000,"PART-1-1",           105,          -10.,           30.,            0.,NA,NA,"",       4.39369,      -3.83586,      -2.14260,   380.594E-09
C:/temp/dataset/3/5_1.odb,Step-1,Increment      1: Step Time =    1.000,"PART-1-1",           106,          -15.,          27.5,            0.,NA,NA,"",       4.42711,      -3.55843,      -2.63380,   165.340E-09
C:/temp/dataset/3/5_1.odb,Step-1,Increment      1: Step Time =    1.000,"PART-1-1",           107,      -12.5013,       25.0052,            0.,NA,NA,"",       4.07847,      -3.31972,      -2.36927,   133.601E-09
C:/temp/dataset/3/5_1.odb,Step-1,Increment      1: Step Time =    1.000,"PART-1-1",           108,      -10.0028,       27.5014,            0.,NA,NA,"",       4.16927,      -3.58402,      -2.13016,   558.498E-09
C:/temp/dataset/3/5_1.odb,Step-1,Increment      1: Step Time =    1.000,"PART-1-1",           109,      -2.49865,       22.5268,            0.,NA,NA,"",       3.39979,      -3.12088,      -1.34858,   34.3528E-06
C:/temp/dataset/3/5_1.odb,Step-1,Increment      1: Step Time =    1.000,"PART-1-1",           110,      -2.51000,       27.5279,            0.,NA,NA,"",       3.87692,      -3.62486,      -1.37510,   31.5251E-06
C:/temp/dataset/3/5_1.odb,Step-1,Increment      1: Step Time =    1.000,"PART-1-1",           111,       12.3864,       22.5464,            0.,NA,NA,"",       3.19986,      -3.19672,   141.913E-03,   2.04174E-03
C:/temp/dataset/3/5_1.odb,Step-1,Increment      1: Step Time =    1.000,"PART-1-1",           112,       7.35369,       17.5509,            0.,NA,NA,"",       2.68857,      -2.66887,  -324.896E-03,   2.39464E-03
C:/temp/dataset/3/5_1.odb,Step-1,Increment      1: Step Time =    1.000,"PART-1-1",           113,       12.3201,       14.9467,            0.,NA,NA,"",       2.44074,      -2.43531,   162.747E-03,   2.86715E-03
C:/temp/dataset/3/5_1.odb,Step-1,Increment      1: Step Time =    1.000,"PART-1-1",           114,       13.2599,       7.39194,            0.,NA,NA,"",       1.75585,      -1.73727,   254.778E-03,   5.42215E-03
C:/temp/dataset/3/5_1.odb,Step-1,Increment      1: Step Time =    1.000,"PART-1-1",           115,       7.60504,      -5.98204,            0.,NA,NA,"",   687.739E-03,  -673.245E-03,  -140.447E-03,   5.34305E-03
C:/temp/dataset/3/5_1.odb,Step-1,Increment      1: Step Time =    1.000,"PART-1-1",           116,       7.71062,      -13.7665,            0.,NA,NA,"",   257.186E-03,  -246.812E-03,  -72.3107E-03,   8.31353E-03
C:/temp/dataset/3/5_1.odb,Step-1,Increment      1: Step Time =    1.000,"PART-1-1",           117,       11.7208,      -22.4938,            0.,NA,NA,"",   41.0991E-03,  -16.4796E-03,   37.6505E-03,   7.83186E-03
C:/temp/dataset/3/5_1.odb,Step-1,Increment      1: Step Time =    1.000,"PART-1-1",           118,       2.59328,       2.74806,            0.,NA,NA,"",       1.44290,      -1.32320,  -575.422E-03,   2.71159E-03
C:/temp/dataset/3/5_1.odb,Step-1,Increment      1: Step Time =    1.000,"PART-1-1",           119,      -1.32361,      -2.98462,            0.,NA,NA,"",       1.22209,  -873.396E-03,  -854.803E-03,   271.582E-06
C:/temp/dataset/3/5_1.odb,Step-1,Increment      1: Step Time =    1.000,"PART-1-1",           120,      -6.00563,       3.11026,            0.,NA,NA,"",       1.80976,      -1.32656,      -1.23104,   85.6796E-06
C:/temp/dataset/3/5_1.odb,Step-1,Increment      1: Step Time =    1.000,"PART-1-1",           121,      -10.4102,       2.53863,            0.,NA,NA,"",       2.01684,      -1.26984,      -1.56689,   9.56482E-06
C:/temp/dataset/3/5_1.odb,Step-1,Increment      1: Step Time =    1.000,"PART-1-1",           122,      -12.6184,  -43.2983E-03,            0.,NA,NA,"",       2.03053,      -1.06557,      -1.72848,   2.30675E-06
C:/temp/dataset/3/5_1.odb,Step-1,Increment      1: Step Time =    1.000,"PART-1-1",           123,      -3.88272,       3.23189,            0.,NA,NA,"",       1.71559,      -1.34209,      -1.06867,   173.458E-06
C:/temp/dataset/3/5_1.odb,Step-1,Increment      1: Step Time =    1.000,"PART-1-1",           124,       2.98144,      -22.7363,            0.,NA,NA,"",   29.9178E-03,  -20.1339E-03,  -22.1292E-03,   9.51200E-03
C:/temp/dataset/3/5_1.odb,Step-1,Increment      1: Step Time =    1.000,"PART-1-1",           125,      -2.42987,      -22.6294,            0.,NA,NA,"",   13.9299E-03,  -13.7019E-03,  -2.51006E-03,   1.41966E-03
C:/temp/dataset/3/5_1.odb,Step-1,Increment      1: Step Time =    1.000,"PART-1-1",           126,      -9.97348,      -22.5672,            0.,NA,NA,"",   9.81666E-03,  -9.81622E-03,   92.9536E-06,   299.725E-06
C:/temp/dataset/3/5_1.odb,Step-1,Increment      1: Step Time =    1.000,"PART-1-1",           127,      -12.4895,      -25.0402,            0.,NA,NA,"",   7.24800E-03,  -7.17714E-03,  -1.01104E-03,   439.919E-06
C:/temp/dataset/3/5_1.odb,Step-1,Increment      1: Step Time =    1.000,"PART-1-1",           128,       12.8561,      -14.2595,            0.,NA,NA,"",   268.640E-03,  -233.707E-03,   132.471E-03,   10.5771E-03
C:/temp/dataset/3/5_1.odb,Step-1,Increment      1: Step Time =    1.000,"PART-1-1",           129,       12.7281,      -7.33650,            0.,NA,NA,"",   624.607E-03,  -599.636E-03,   174.845E-03,   8.48238E-03
C:/temp/dataset/3/5_1.odb,Step-1,Increment      1: Step Time =    1.000,"PART-1-1",           130,       12.6427,  -96.8002E-03,            0.,NA,NA,"",       1.13390,      -1.11713,   194.237E-03,   5.48917E-03
C:/temp/dataset/3/5_1.odb,Step-1,Increment      1: Step Time =    1.000,"PART-1-1",           131,       7.13014,       10.3328,            0.,NA,NA,"",       1.99770,      -1.97613,  -292.771E-03,   4.48534E-03
C:/temp/dataset/3/5_1.odb,Step-1,Increment      1: Step Time =    1.000,"PART-1-1",           132,       4.95005,       27.5805,            0.,NA,NA,"",       3.72081,      -3.66805,  -624.398E-03,   241.515E-06
C:/temp/dataset/3/5_1.odb,Step-1,Increment      1: Step Time =    1.000,"PART-1-1",           133,      -4.99957,       22.5148,            0.,NA,NA,"",       3.49496,      -3.10693,      -1.60055,   12.2271E-06
C:/temp/dataset/3/5_1.odb,Step-1,Increment      1: Step Time =    1.000,"PART-1-1",           134,      -7.50186,       22.5094,            0.,NA,NA,"",       3.60598,      -3.09364,      -1.85270,   3.38835E-06
C:/temp/dataset/3/5_1.odb,Step-1,Increment      1: Step Time =    1.000,"PART-1-1",           135,       4.93744,       22.5898,            0.,NA,NA,"",       3.22098,      -3.16484,  -598.749E-03,   823.107E-06
C:/temp/dataset/3/5_1.odb,Step-1,Increment      1: Step Time =    1.000,"PART-1-1",           136,       2.47758,       22.5593,            0.,NA,NA,"",       3.26148,      -3.14956,  -847.082E-03,   250.721E-06
C:/temp/dataset/3/5_1.odb,Step-1,Increment      1: Step Time =    1.000,"PART-1-1",           137,  -4.46696E-03,       22.5388,            0.,NA,NA,"",       3.32132,      -3.13484,      -1.09726,   74.1921E-06
C:/temp/dataset/3/5_1.odb,Step-1,Increment      1: Step Time =    1.000,"PART-1-1",           138,       7.20686,       12.6699,            0.,NA,NA,"",       2.21556,      -2.19461,  -303.999E-03,   3.68146E-03
C:/temp/dataset/3/5_1.odb,Step-1,Increment      1: Step Time =    1.000,"PART-1-1",           139,       7.30679,       15.0771,            0.,NA,NA,"",       2.44587,      -2.42585,  -312.298E-03,   3.07856E-03
C:/temp/dataset/3/5_1.odb,Step-1,Increment      1: Step Time =    1.000,"PART-1-1",           140,       7.52839,       5.66323,            0.,NA,NA,"",       1.57848,      -1.56253,  -223.854E-03,   2.85183E-03
C:/temp/dataset/3/5_1.odb,Step-1,Increment      1: Step Time =    1.000,"PART-1-1",           141,       7.20823,       7.96221,            0.,NA,NA,"",       1.78188,      -1.76166,  -267.695E-03,   5.32323E-03
C:/temp/dataset/3/5_1.odb,Step-1,Increment      1: Step Time =    1.000,"PART-1-1",           142,      -1.77433,       3.17490,            0.,NA,NA,"",       1.62128,      -1.34381,  -907.052E-03,   272.177E-06
C:/temp/dataset/3/5_1.odb,Step-1,Increment      1: Step Time =    1.000,"PART-1-1",           143,   347.975E-03,       3.01142,            0.,NA,NA,"",       1.53110,      -1.33767,  -744.903E-03,   431.327E-06
C:/temp/dataset/3/5_1.odb,Step-1,Increment      1: Step Time =    1.000,"PART-1-1",           144,      -8.17775,       2.85153,            0.,NA,NA,"",       1.90838,      -1.30037,      -1.39676,   32.9941E-06
C:/temp/dataset/3/5_1.odb,Step-1,Increment      1: Step Time =    1.000,"PART-1-1",           145,      -8.45397,      -3.03463,            0.,NA,NA,"",       1.63779,  -848.671E-03,      -1.40075,   26.8136E-06
C:/temp/dataset/3/5_1.odb,Step-1,Increment      1: Step Time =    1.000,"PART-1-1",           146,      -12.6978,       2.46856,            0.,NA,NA,"",       2.14855,      -1.25775,      -1.74193,   1.23853E-06
C:/temp/dataset/3/5_1.odb,Step-1,Increment      1: Step Time =    1.000,"PART-1-1",           147,      -10.5225,      -2.72745,            0.,NA,NA,"",       1.78437,  -866.126E-03,      -1.56006,   8.57074E-06
C:/temp/dataset/3/5_1.odb,Step-1,Increment      1: Step Time =    1.000,"PART-1-1",           148,      -12.7265,      -2.55241,            0.,NA,NA,"",       1.93727,  -873.059E-03,      -1.72939,   1.18793E-06
C:/temp/dataset/3/5_1.odb,Step-1,Increment      1: Step Time =    1.000,"PART-1-1",           149,      -3.80700,      -2.48494,            0.,NA,NA,"",       1.38331,  -904.521E-03,      -1.04661,   189.430E-06
C:/temp/dataset/3/5_1.odb,Step-1,Increment      1: Step Time =    1.000,"PART-1-1",           150,      -6.26959,      -2.94549,            0.,NA,NA,"",       1.50502,  -861.908E-03,      -1.23378,   78.3714E-06
C:/temp/dataset/3/5_1.odb,Step-1,Increment      1: Step Time =    1.000,"PART-1-1",           151,       2.97297,      -3.34056,            0.,NA,NA,"",       1.00312,  -858.511E-03,  -518.851E-03,   3.36314E-03
C:/temp/dataset/3/5_1.odb,Step-1,Increment      1: Step Time =    1.000,"PART-1-1",           152,   836.982E-03,      -3.21922,            0.,NA,NA,"",       1.10232,  -861.809E-03,  -687.311E-03,   543.089E-06
C:/temp/dataset/3/5_1.odb,Step-1,Increment      1: Step Time =    1.000,"PART-1-1",           153,       7.27849,      -10.7647,            0.,NA,NA,"",   409.107E-03,  -391.391E-03,  -119.086E-03,   9.22831E-03
C:/temp/dataset/3/5_1.odb,Step-1,Increment      1: Step Time =    1.000,"PART-1-1",           154,       7.20650,      -8.25133,            0.,NA,NA,"",   551.239E-03,  -531.585E-03,  -145.885E-03,   8.68549E-03
C:/temp/dataset/3/5_1.odb,Step-1,Increment      1: Step Time =    1.000,"PART-1-1",           155,       7.07274,      -17.3233,            0.,NA,NA,"",   130.398E-03,  -114.271E-03,  -62.8161E-03,   12.5186E-03
C:/temp/dataset/3/5_1.odb,Step-1,Increment      1: Step Time =    1.000,"PART-1-1",           156,       6.55788,      -15.2577,            0.,NA,NA,"",   215.688E-03,  -189.982E-03,  -102.117E-03,   13.8965E-03
C:/temp/dataset/3/5_1.odb,Step-1,Increment      1: Step Time =    1.000,"PART-1-1",           157,      -7.46685,      -22.5818,            0.,NA,NA,"",   10.5322E-03,  -10.5178E-03,   551.689E-06,   519.826E-06
C:/temp/dataset/3/5_1.odb,Step-1,Increment      1: Step Time =    1.000,"PART-1-1",           158,      -4.95694,      -22.5955,            0.,NA,NA,"",   11.8085E-03,  -11.8084E-03,  -56.4841E-06,   854.539E-06
C:/temp/dataset/3/5_1.odb,Step-1,Increment      1: Step Time =    1.000,"PART-1-1",           159,   146.162E-03,      -22.6598,            0.,NA,NA,"",   19.5038E-03,  -17.4209E-03,  -8.76984E-03,   3.52517E-03
C:/temp/dataset/3/5_1.odb,Step-1,Increment      1: Step Time =    1.000,"PART-1-1",           160,      -12.4860,      -22.5306,            0.,NA,NA,"",   9.63247E-03,  -9.56430E-03,  -1.14396E-03,   87.1233E-06
C:/temp/dataset/3/5_1.odb,Step-1,Increment      1: Step Time =    1.000,"PART-1-1",           161,       9.96020,      -27.7814,            0.,NA,NA,"",   7.31840E-03,   6.54904E-03,   3.26635E-03,   3.04789E-03
C:/temp/dataset/3/5_1.odb,Step-1,Increment      1: Step Time =    1.000,"PART-1-1",           162,       7.44077,      -27.8946,            0.,NA,NA,"",   5.37191E-03,   4.24546E-03,  -3.29142E-03,   3.16775E-03
C:/temp/dataset/3/5_1.odb,Step-1,Increment      1: Step Time =    1.000,"PART-1-1",           163,       4.93217,      -27.8625,            0.,NA,NA,"",   6.26192E-03,  -787.554E-06,  -6.21219E-03,   4.40630E-03
C:/temp/dataset/3/5_1.odb,Step-1,Increment      1: Step Time =    1.000,"PART-1-1",           164,       2.47767,      -27.7470,            0.,NA,NA,"",   7.82546E-03,  -5.26630E-03,  -5.78826E-03,   4.07837E-03
C:/temp/dataset/3/5_1.odb,Step-1,Increment      1: Step Time =    1.000,"PART-1-1",           165,   19.5837E-03,      -27.6625,            0.,NA,NA,"",   8.07918E-03,  -7.19326E-03,  -3.67834E-03,   3.08949E-03
C:/temp/dataset/3/5_1.odb,Step-1,Increment      1: Step Time =    1.000,"PART-1-1",           166,      -2.46955,      -27.6154,            0.,NA,NA,"",   7.30380E-03,  -7.07466E-03,  -1.81510E-03,   2.24744E-03
C:/temp/dataset/3/5_1.odb,Step-1,Increment      1: Step Time =    1.000,"PART-1-1",           167,      -4.97450,      -27.5844,            0.,NA,NA,"",   6.09302E-03,  -6.05236E-03,  -702.734E-06,   1.67720E-03
C:/temp/dataset/3/5_1.odb,Step-1,Increment      1: Step Time =    1.000,"PART-1-1",           168,      -7.48283,      -27.5594,            0.,NA,NA,"",   4.97023E-03,  -4.96402E-03,  -248.392E-06,   1.30588E-03
C:/temp/dataset/3/5_1.odb,Step-1,Increment      1: Step Time =    1.000,"PART-1-1",           169,       12.2865,      -25.1793,            0.,NA,NA,"",   27.2364E-03,  -746.153E-06,   27.2262E-03,   8.12086E-03
C:/temp/dataset/3/5_1.odb,Step-1,Increment      1: Step Time =    1.000,"PART-1-1",           170,       11.6753,      -16.4340,            0.,NA,NA,"",   164.163E-03,  -146.060E-03,   74.9407E-03,   6.99002E-03
C:/temp/dataset/3/5_1.odb,Step-1,Increment      1: Step Time =    1.000,"PART-1-1",           171,       11.9685,      -19.5802,            0.,NA,NA,"",   87.3624E-03,  -61.3873E-03,   62.1595E-03,   8.64066E-03
C:/temp/dataset/3/5_1.odb,Step-1,Increment      1: Step Time =    1.000,"PART-1-1",           172,       13.3291,      -9.93034,            0.,NA,NA,"",   487.427E-03,  -448.443E-03,   191.006E-03,   10.9581E-03
C:/temp/dataset/3/5_1.odb,Step-1,Increment      1: Step Time =    1.000,"PART-1-1",           173,       13.4212,      -12.1607,            0.,NA,NA,"",   375.852E-03,  -332.247E-03,   175.717E-03,   12.0241E-03
C:/temp/dataset/3/5_1.odb,Step-1,Increment      1: Step Time =    1.000,"PART-1-1",           174,       12.9633,      -2.52247,            0.,NA,NA,"",   958.224E-03,  -934.599E-03,   211.463E-03,   7.08912E-03
C:/temp/dataset/3/5_1.odb,Step-1,Increment      1: Step Time =    1.000,"PART-1-1",           175,       13.1247,      -4.84738,            0.,NA,NA,"",   796.808E-03,  -767.859E-03,   212.829E-03,   8.59182E-03
C:/temp/dataset/3/5_1.odb,Step-1,Increment      1: Step Time =    1.000,"PART-1-1",           176,       13.1131,       5.12757,            0.,NA,NA,"",       1.55986,      -1.54135,   239.554E-03,   5.56085E-03
C:/temp/dataset/3/5_1.odb,Step-1,Increment      1: Step Time =    1.000,"PART-1-1",           177,       12.1418,       2.60140,            0.,NA,NA,"",       1.33732,      -1.32791,   158.369E-03,   4.06791E-03
C:/temp/dataset/3/5_1.odb,Step-1,Increment      1: Step Time =    1.000,"PART-1-1",           178,       12.1760,       12.1629,            0.,NA,NA,"",       2.17265,      -2.16706,   155.701E-03,   3.22724E-03
C:/temp/dataset/3/5_1.odb,Step-1,Increment      1: Step Time =    1.000,"PART-1-1",           179,       13.0236,       9.64002,            0.,NA,NA,"",       1.95154,      -1.93733,   235.083E-03,   4.63837E-03
C:/temp/dataset/3/5_1.odb,Step-1,Increment      1: Step Time =    1.000,"PART-1-1",           180,       12.3784,       20.0377,            0.,NA,NA,"",       2.94566,      -2.94176,   151.565E-03,   2.07995E-03
C:/temp/dataset/3/5_1.odb,Step-1,Increment      1: Step Time =    1.000,"PART-1-1",           181,       12.3660,       17.5135,            0.,NA,NA,"",       2.69320,      -2.68847,   159.538E-03,   2.45445E-03
C:/temp/dataset/3/5_1.odb,Step-1,Increment      1: Step Time =    1.000,"PART-1-1",           182,       12.4264,       25.0333,            0.,NA,NA,"",       3.45291,      -3.45027,   135.035E-03,   1.50680E-03
C:/temp/dataset/3/5_1.odb,Step-1,Increment      1: Step Time =    1.000,"PART-1-1",           183,       7.43491,       27.5684,            0.,NA,NA,"",       3.69863,      -3.67952,  -375.464E-03,   579.061E-06
C:/temp/dataset/3/5_1.odb,Step-1,Increment      1: Step Time =    1.000,"PART-1-1",           184,  -17.4965E-03,       27.5503,            0.,NA,NA,"",       3.80941,      -3.63981,      -1.12402,   43.4961E-06
C:/temp/dataset/3/5_1.odb,Step-1,Increment      1: Step Time =    1.000,"PART-1-1",           185,       2.47067,       27.5656,            0.,NA,NA,"",       3.75696,      -3.65400,  -873.511E-03,   33.6648E-06
C:/temp/dataset/3/5_1.odb,Step-1,Increment      1: Step Time =    1.000,"PART-1-1",           186,      -7.50286,       27.5043,            0.,NA,NA,"",       4.05789,      -3.59705,      -1.87822,   3.37559E-06
C:/temp/dataset/3/5_1.odb,Step-1,Increment      1: Step Time =    1.000,"PART-1-1",           187,      -5.00635,       27.5119,            0.,NA,NA,"",       3.96003,      -3.61052,      -1.62663,   12.0004E-06
C:/temp/dataset/3/5_1.odb,Step-1,Increment      1: Step Time =    1.000,"PART-1-1",           188,      -12.5019,       27.5019,            0.,NA,NA,"",       4.29286,      -3.57135,      -2.38204,   221.824E-09
C:/temp/dataset/3/5_1.odb,Step-1,Increment      1: Step Time =    1.000,"PART-1-1",           189,      -12.5001,       22.5034,            0.,NA,NA,"",       3.86817,      -3.06759,      -2.35640,   221.511E-09
C:/temp/dataset/3/5_1.odb,Step-1,Increment      1: Step Time =    1.000,"PART-1-1",           190,      -5.00429,       25.0191,            0.,NA,NA,"",       3.72682,      -3.35931,      -1.61375,   13.6206E-06
C:/temp/dataset/3/5_1.odb,Step-1,Increment      1: Step Time =    1.000,"PART-1-1",           191,  -15.9173E-03,       25.0642,            0.,NA,NA,"",       3.56690,      -3.38938,      -1.11122,   50.8021E-06
C:/temp/dataset/3/5_1.odb,Step-1,Increment      1: Step Time =    1.000,"PART-1-1",           192,       9.74355,       15.0604,            0.,NA,NA,"",       2.43496,      -2.43361,  -81.1764E-03,   2.05696E-03
C:/temp/dataset/3/5_1.odb,Step-1,Increment      1: Step Time =    1.000,"PART-1-1",           193,       9.51986,       12.6989,            0.,NA,NA,"",       2.20711,      -2.20526,  -90.2202E-03,   2.11297E-03
C:/temp/dataset/3/5_1.odb,Step-1,Increment      1: Step Time =    1.000,"PART-1-1",           194,       12.1898,      -11.7554,            0.,NA,NA,"",   366.243E-03,  -345.545E-03,   121.378E-03,   7.77747E-03
C:/temp/dataset/3/5_1.odb,Step-1,Increment      1: Step Time =    1.000,"PART-1-1",           195,       9.78251,      -13.4248,            0.,NA,NA,"",   260.217E-03,  -259.964E-03,   11.4628E-03,   2.24367E-03
C:/temp/dataset/3/5_1.odb,Step-1,Increment      1: Step Time =    1.000,"PART-1-1",           196,       7.24032,      -19.5057,            0.,NA,NA,"",   65.0721E-03,  -51.3588E-03,  -39.9582E-03,   7.02724E-03
C:/temp/dataset/3/5_1.odb,Step-1,Increment      1: Step Time =    1.000,"PART-1-1",           197,      -10.0066,  -139.817E-03,            0.,NA,NA,"",       1.86313,      -1.06586,      -1.52813,   16.2550E-06
C:/temp/dataset/3/5_1.odb,Step-1,Increment      1: Step Time =    1.000,"PART-1-1",           198,      -8.39380,      -1.43672,            0.,NA,NA,"",       1.70460,  -971.273E-03,      -1.40082,   33.8486E-06
C:/temp/dataset/3/5_1.odb,Step-1,Increment      1: Step Time =    1.000,"PART-1-1",           199,      -5.07121,  -530.035E-03,            0.,NA,NA,"",       1.55696,      -1.05068,      -1.14900,   141.358E-06
C:/temp/dataset/3/5_1.odb,Step-1,Increment      1: Step Time =    1.000,"PART-1-1",           200,      -12.5003,      -27.5198,            0.,NA,NA,"",   3.89676E-03,  -3.82935E-03,  -721.669E-06,   974.259E-06
C:/temp/dataset/3/5_1.odb,Step-1,Increment      1: Step Time =    1.000,"PART-1-1",           201,       8.97180,      -8.86122,            0.,NA,NA,"",   496.209E-03,  -494.442E-03,  -41.8395E-03,   3.17622E-03
C:/temp/dataset/3/5_1.odb,Step-1,Increment      1: Step Time =    1.000,"PART-1-1",           202,      -2.50561,       25.0360,            0.,NA,NA,"",       3.63833,      -3.37377,      -1.36201,   34.5324E-06
C:/temp/dataset/3/5_1.odb,Step-1,Increment      1: Step Time =    1.000,"PART-1-1",           203,      -7.50383,       25.0106,            0.,NA,NA,"",       3.83071,      -3.34571,      -1.86563,   4.12191E-06
C:/temp/dataset/3/5_1.odb,Step-1,Increment      1: Step Time =    1.000,"PART-1-1",           204,       2.46362,       25.0850,            0.,NA,NA,"",       3.51146,      -3.40415,  -861.457E-03,   111.940E-06
C:/temp/dataset/3/5_1.odb,Step-1,Increment      1: Step Time =    1.000,"PART-1-1",           205,       9.17638,       10.5785,            0.,NA,NA,"",       2.00792,      -2.00488,  -110.543E-03,   2.18387E-03
C:/temp/dataset/3/5_1.odb,Step-1,Increment      1: Step Time =    1.000,"PART-1-1",           206,       9.65111,       6.46520,            0.,NA,NA,"",       1.63882,      -1.63802,  -51.0775E-03,   1.38747E-03
C:/temp/dataset/3/5_1.odb,Step-1,Increment      1: Step Time =    1.000,"PART-1-1",           207,      -1.99278,       1.34592,            0.,NA,NA,"",       1.51419,      -1.20378,  -918.529E-03,   274.461E-06
C:/temp/dataset/3/5_1.odb,Step-1,Increment      1: Step Time =    1.000,"PART-1-1",           208,      -5.69490,       1.29843,            0.,NA,NA,"",       1.69059,      -1.18883,      -1.20198,   111.319E-06
C:/temp/dataset/3/5_1.odb,Step-1,Increment      1: Step Time =    1.000,"PART-1-1",           209,       1.92780,   665.778E-03,            0.,NA,NA,"",       1.31693,      -1.16324,  -617.383E-03,   1.44114E-03
C:/temp/dataset/3/5_1.odb,Step-1,Increment      1: Step Time =    1.000,"PART-1-1",           210,       1.26043,      -1.37778,            0.,NA,NA,"",       1.20259,      -1.00509,  -660.321E-03,   744.956E-06
C:/temp/dataset/3/5_1.odb,Step-1,Increment      1: Step Time =    1.000,"PART-1-1",           211,       9.14691,      -16.8280,            0.,NA,NA,"",   126.711E-03,  -126.646E-03,  -4.06518E-03,   3.33434E-03
C:/temp/dataset/3/5_1.odb,Step-1,Increment      1: Step Time =    1.000,"PART-1-1",           212,   79.9954E-03,      -25.2148,            0.,NA,NA,"",   15.1606E-03,  -13.2345E-03,  -7.39531E-03,   3.38108E-03
C:/temp/dataset/3/5_1.odb,Step-1,Increment      1: Step Time =    1.000,"PART-1-1",           213,      -9.97865,      -25.0679,            0.,NA,NA,"",   7.55443E-03,  -7.55369E-03,  -105.731E-06,   684.612E-06
C:/temp/dataset/3/5_1.odb,Step-1,Increment      1: Step Time =    1.000,"PART-1-1",           214,       12.4671,      -27.6040,            0.,NA,NA,"",   13.3181E-03,   2.76602E-03,   13.0277E-03,   7.59032E-03
C:/temp/dataset/3/5_1.odb,Step-1,Increment      1: Step Time =    1.000,"PART-1-1",           215,       9.82463,      -25.6838,            0.,NA,NA,"",   7.21780E-03,   4.94221E-03,   5.26035E-03,   3.59353E-03
C:/temp/dataset/3/5_1.odb,Step-1,Increment      1: Step Time =    1.000,"PART-1-1",           216,       2.56344,      -25.3828,            0.,NA,NA,"",   18.1277E-03,  -11.9342E-03,  -13.6451E-03,   5.38825E-03
C:/temp/dataset/3/5_1.odb,Step-1,Increment      1: Step Time =    1.000,"PART-1-1",           217,      -2.44121,      -25.1518,            0.,NA,NA,"",   12.2122E-03,  -11.8867E-03,  -2.80073E-03,   2.11188E-03
C:/temp/dataset/3/5_1.odb,Step-1,Increment      1: Step Time =    1.000,"PART-1-1",           218,      -4.95889,      -25.1139,            0.,NA,NA,"",   10.1046E-03,  -10.0839E-03,  -646.585E-06,   1.35490E-03
C:/temp/dataset/3/5_1.odb,Step-1,Increment      1: Step Time =    1.000,"PART-1-1",           219,       10.3279,  -771.646E-03,            0.,NA,NA,"",       1.05689,      -1.05663,   23.4312E-03,   2.61762E-03
C:/temp/dataset/3/5_1.odb,Step-1,Increment      1: Step Time =    1.000,"PART-1-1",           220,       10.4049,       4.48083,            0.,NA,NA,"",       1.47369,      -1.47359,   16.8740E-03,   1.60280E-03
C:/temp/dataset/3/5_1.odb,Step-1,Increment      1: Step Time =    1.000,"PART-1-1",           221,       9.80969,       17.5478,            0.,NA,NA,"",       2.68035,      -2.67892,  -87.3875E-03,   2.08074E-03
C:/temp/dataset/3/5_1.odb,Step-1,Increment      1: Step Time =    1.000,"PART-1-1",           222,       9.88106,       25.0797,            0.,NA,NA,"",       3.44273,      -3.44068,  -118.903E-03,   1.32923E-03
C:/temp/dataset/3/5_1.odb,Step-1,Increment      1: Step Time =    1.000,"PART-1-1",           223,       9.94975,       27.5346,            0.,NA,NA,"",       3.69160,      -3.68952,  -124.055E-03,   859.998E-06
C:/temp/dataset/3/5_1.odb,Step-1,Increment      1: Step Time =    1.000,"PART-1-1",           224,       7.36779,       20.0596,            0.,NA,NA,"",       2.93957,      -2.91985,  -339.901E-03,   2.22042E-03
C:/temp/dataset/3/5_1.odb,Step-1,Increment      1: Step Time =    1.000,"PART-1-1",           225,  -693.206E-03,      -1.01900,            0.,NA,NA,"",       1.30910,      -1.02674,  -812.121E-03,   307.081E-06
C:/temp/dataset/3/5_1.odb,Step-1,Increment      1: Step Time =    1.000,"PART-1-1",           226,      -7.47194,      -25.0831,            0.,NA,NA,"",   8.56014E-03,  -8.55993E-03,   61.0426E-06,   975.844E-06
C:/temp/dataset/3/5_1.odb,Step-1,Increment      1: Step Time =    1.000,"PART-1-1",           227,       5.28089,       2.25097,            0.,NA,NA,"",       1.34137,      -1.28803,  -374.505E-03,   6.35065E-03
C:/temp/dataset/3/5_1.odb,Step-1,Increment      1: Step Time =    1.000,"PART-1-1",           228,       9.26575,       8.45073,            0.,NA,NA,"",       1.81347,      -1.81113,  -92.0599E-03,   2.26190E-03
C:/temp/dataset/3/5_1.odb,Step-1,Increment      1: Step Time =    1.000,"PART-1-1",           229,  -81.3472E-03,       1.02952,            0.,NA,NA,"",       1.41448,      -1.18552,  -771.562E-03,   306.164E-06
C:/temp/dataset/3/5_1.odb,Step-1,Increment      1: Step Time =    1.000,"PART-1-1",           230,      -7.67687,   831.326E-03,            0.,NA,NA,"",       1.77347,      -1.14714,      -1.35249,   50.4738E-06
C:/temp/dataset/3/5_1.odb,Step-1,Increment      1: Step Time =    1.000,"PART-1-1",           231,      -2.54090,  -531.417E-03,            0.,NA,NA,"",       1.42571,      -1.05840,  -955.209E-03,   262.590E-06
C:/temp/dataset/3/5_1.odb,Step-1,Increment      1: Step Time =    1.000,"PART-1-1",           232,      -3.83997,       1.55066,            0.,NA,NA,"",       1.61183,      -1.21375,      -1.06057,   185.281E-06
C:/temp/dataset/3/5_1.odb,Step-1,Increment      1: Step Time =    1.000,"PART-1-1",           233,      -6.84494,  -996.203E-03,            0.,NA,NA,"",       1.63300,      -1.00962,      -1.28349,   75.3650E-06
C:/temp/dataset/3/5_1.odb,Step-1,Increment      1: Step Time =    1.000,"PART-1-1",           234,       5.51335,      -3.03354,            0.,NA,NA,"",   939.490E-03,  -885.167E-03,  -314.832E-03,   8.56861E-03
C:/temp/dataset/3/5_1.odb,Step-1,Increment      1: Step Time =    1.000,"PART-1-1",           235,       9.62476,      -7.14735,            0.,NA,NA,"",   599.761E-03,  -599.685E-03,  -9.58337E-03,   2.70067E-03
C:/temp/dataset/3/5_1.odb,Step-1,Increment      1: Step Time =    1.000,"PART-1-1",           236,       7.38903,      -25.9371,            0.,NA,NA,"",   9.13819E-03,   2.38249E-03,  -8.82214E-03,   4.31226E-03
C:/temp/dataset/3/5_1.odb,Step-1,Increment      1: Step Time =    1.000,"PART-1-1",           237,       4.96373,      -25.7856,            0.,NA,NA,"",   16.1923E-03,  -5.05693E-03,  -15.3823E-03,   6.11217E-03
C:/temp/dataset/3/5_1.odb,Step-1,Increment      1: Step Time =    1.000,"PART-1-1",           238,       9.37191,      -21.3805,            0.,NA,NA,"",   22.8936E-03,  -22.7307E-03,   2.72559E-03,   3.82136E-03
C:/temp/dataset/3/5_1.odb,Step-1,Increment      1: Step Time =    1.000,"PART-1-1",           239,       9.53380,      -19.3691,            0.,NA,NA,"",   57.6388E-03,  -57.1092E-03,   7.79575E-03,   2.77052E-03
C:/temp/dataset/3/5_1.odb,Step-1,Increment      1: Step Time =    1.000,"PART-1-1",           240,       10.5518,      -5.76730,            0.,NA,NA,"",   694.273E-03,  -692.766E-03,   45.7300E-03,   3.75996E-03
C:/temp/dataset/3/5_1.odb,Step-1,Increment      1: Step Time =    1.000,"PART-1-1",           241,       10.8494,      -2.88140,            0.,NA,NA,"",   901.213E-03,  -898.941E-03,   63.9570E-03,   3.92680E-03
C:/temp/dataset/3/5_1.odb,Step-1,Increment      1: Step Time =    1.000,"PART-1-1",           242,       9.33979,       1.27198,            0.,NA,NA,"",       1.21438,      -1.21302,  -57.5932E-03,   2.03202E-03
C:/temp/dataset/3/5_1.odb,Step-1,Increment      1: Step Time =    1.000,"PART-1-1",           243,       9.83335,       20.0603,            0.,NA,NA,"",       2.93268,      -2.93104,  -97.9816E-03,   2.16331E-03
C:/temp/dataset/3/5_1.odb,Step-1,Increment      1: Step Time =    1.000,"PART-1-1",           244,       7.39102,       25.1069,            0.,NA,NA,"",       3.45030,      -3.43072,  -367.065E-03,   938.367E-06
C:/temp/dataset/3/5_1.odb,Step-1,Increment      1: Step Time =    1.000,"PART-1-1",           245,       4.93408,       25.0979,            0.,NA,NA,"",       3.47232,      -3.41779,  -612.984E-03,   440.004E-06
C:/temp/dataset/3/5_1.odb,Step-1,Increment      1: Step Time =    1.000,"PART-1-1",           246,      -10.0026,       25.0068,            0.,NA,NA,"",       3.94839,      -3.33260,      -2.11744,   840.678E-09
C:/temp/dataset/3/5_1.odb,Step-1,Increment      1: Step Time =    1.000,"PART-1-1",           247,      -10.0008,       22.5051,            0.,NA,NA,"",       3.73074,      -3.08048,      -2.10453,   543.654E-09
C:/temp/dataset/3/5_1.odb,Step-1,Increment      1: Step Time =    1.000,"PART-1-1",           248,      -9.99283,      -27.5363,            0.,NA,NA,"",   4.14159E-03,  -4.13592E-03,  -216.724E-06,   1.07495E-03
C:/temp/dataset/3/5_1.odb,Step-1,Increment      1: Step Time =    1.000,"PART-1-1",           249,       3.80746,   187.829E-03,            0.,NA,NA,"",       1.22393,      -1.12936,  -471.748E-03,   3.96987E-03
C:/temp/dataset/3/5_1.odb,Step-1,Increment      1: Step Time =    1.000,"PART-1-1",           250,       11.4886,       7.12458,            0.,NA,NA,"",       1.70688,      -1.70378,   102.856E-03,   3.13977E-03
C:/temp/dataset/3/5_1.odb,Step-1,Increment      1: Step Time =    1.000,"PART-1-1",           251,       5.25951,      -23.9756,            0.,NA,NA,"",   27.1517E-03,  -10.9645E-03,  -24.8394E-03,   8.07267E-03
C:/temp/dataset/3/5_1.odb,Step-1,Increment      1: Step Time =    1.000,"PART-1-1",           252,       9.85798,       22.5791,            0.,NA,NA,"",       3.18839,      -3.18654,  -108.577E-03,   1.88075E-03
C:/temp/dataset/3/5_1.odb,Step-1,Increment      1: Step Time =    1.000,"PART-1-1",           253,       7.38133,       22.5911,            0.,NA,NA,"",       3.19566,      -3.17600,  -353.918E-03,   1.60185E-03
C:/temp/dataset/3/5_1.odb,Step-1,Increment      1: Step Time =    1.000,"PART-1-1",           254,       9.03817,      -10.9527,            0.,NA,NA,"",   380.422E-03,  -379.275E-03,  -29.5228E-03,   3.65908E-03
C:/temp/dataset/3/5_1.odb,Step-1,Increment      1: Step Time =    1.000,"PART-1-1",           255,       7.30212,      -21.2110,            0.,NA,NA,"",   38.5435E-03,  -23.1931E-03,  -30.7844E-03,   7.03584E-03
C:/temp/dataset/3/5_1.odb,Step-1,Increment      1: Step Time =    1.000,"PART-1-1",           256,       8.48263,      -3.88795,            0.,NA,NA,"",   825.920E-03,  -820.545E-03,  -94.0714E-03,   4.99436E-03
C:/temp/dataset/3/5_1.odb,Step-1,Increment      1: Step Time =    1.000,"PART-1-1",           257,       8.48912,      -1.65164,            0.,NA,NA,"",   992.715E-03,  -987.022E-03,  -106.157E-03,   4.56670E-03
C:/temp/dataset/3/5_1.odb,Step-1,Increment      1: Step Time =    1.000,"PART-1-1",           258,       8.19007,       3.36514,            0.,NA,NA,"",       1.38549,      -1.37648,  -157.748E-03,   2.76314E-03
C:/temp/dataset/3/5_1.odb,Step-1,Increment      1: Step Time =    1.000,"PART-1-1",           259,       6.78208,  -317.133E-03,            0.,NA,NA,"",       1.11598,      -1.08952,  -241.615E-03,   5.70305E-03
C:/temp/dataset/3/5_1.odb,Step-1,Increment      1: Step Time =    1.000,"PART-1-1",           260,       11.8604,      -10.2109,            0.,NA,NA,"",   439.789E-03,  -425.128E-03,   112.605E-03,   6.52682E-03
C:/temp/dataset/3/5_1.odb,Step-1,Increment      1: Step Time =    1.000,"PART-1-1",           261,       5.00218,  -627.613E-03,            0.,NA,NA,"",       1.13086,      -1.06709,  -374.375E-03,   5.61987E-03
C:/temp/dataset/3/5_1.odb,Step-1,Increment      1: Step Time =    1.000,"PART-1-1",           262,       11.1460,      -8.45072,            0.,NA,NA,"",   529.436E-03,  -523.484E-03,   79.1660E-03,   4.54507E-03
C:/temp/dataset/3/5_1.odb,Step-1,Increment      1: Step Time =    1.000,"PART-1-1",           263,       11.7180,       5.54683,            0.,NA,NA,"",       1.57399,      -1.56913,   123.668E-03,   3.38934E-03
C:/temp/dataset/3/5_1.odb,Step-1,Increment      1: Step Time =    1.000,"PART-1-1",           264,       5.25136,      -21.5985,            0.,NA,NA,"",   49.1910E-03,  -24.0647E-03,  -42.9027E-03,   12.9369E-03
C:/temp/dataset/3/5_1.odb,Step-1,Increment      1: Step Time =    1.000,"PART-1-1",           265,       12.4723,       27.5096,            0.,NA,NA,"",       3.70357,      -3.70134,   128.456E-03,   997.954E-06
C:/temp/dataset/3/5_1.odb,Step-1,Increment      1: Step Time =    1.000,"PART-1-1",           266,       5.87727,      -22.7682,            0.,NA,NA,"",   35.6870E-03,  -15.4408E-03,  -32.1736E-03,   8.68715E-03
C:/temp/dataset/3/5_1.odb,Step-1,Increment      1: Step Time =    1.000,"PART-1-1",           267,       7.32369,      -22.7299,            0.,NA,NA,"",   25.2374E-03,  -10.6479E-03,  -22.8812E-03,   6.53306E-03
C:/temp/dataset/3/5_1.odb,Step-1,Increment      1: Step Time =    1.000,"PART-1-1",           268,       11.4923,      -4.55460,            0.,NA,NA,"",   787.517E-03,  -780.254E-03,   106.714E-03,   5.27305E-03
C:/temp/dataset/3/5_1.odb,Step-1,Increment      1: Step Time =    1.000,"PART-1-1",           269,       11.2115,       8.96325,            0.,NA,NA,"",       1.86744,      -1.86590,   75.7280E-03,   2.66316E-03
C:/temp/dataset/3/5_1.odb,Step-1,Increment      1: Step Time =    1.000,"PART-1-1",           270,       10.8046,       10.5255,            0.,NA,NA,"",       2.00715,      -2.00683,   35.4741E-03,   2.26043E-03
C:/temp/dataset/3/5_1.odb,Step-1,Increment      1: Step Time =    1.000,"PART-1-1",           271,       7.35536,      -24.2380,            0.,NA,NA,"",   15.5496E-03,  -2.89832E-03,  -15.2771E-03,   5.41270E-03
C:/temp/dataset/3/5_1.odb,Step-1,Increment      1: Step Time =    1.000,"PART-1-1",           272,      -3.82134,   150.711E-03,            0.,NA,NA,"",       1.52911,      -1.10668,      -1.05520,   201.797E-06
C:/temp/dataset/3/5_1.odb,Step-1,Increment      1: Step Time =    1.000,"PART-1-1",           273,       3.09609,      -1.70207,            0.,NA,NA,"",       1.11158,  -984.821E-03,  -515.499E-03,   3.21106E-03
C:/temp/dataset/3/5_1.odb,Step-1,Increment      1: Step Time =    1.000,"PART-1-1",           274,       4.56419,      -1.78689,            0.,NA,NA,"",       1.05793,  -979.641E-03,  -399.396E-03,   5.45409E-03
C:/temp/dataset/3/5_1.odb,Step-1,Increment      1: Step Time =    1.000,"PART-1-1",           275,       9.44492,      -23.8624,            0.,NA,NA,"",   3.57436E-03,  -1.92837E-03,   3.00956E-03,   4.00805E-03
C:/temp/dataset/3/5_1.odb,Step-1,Increment      1: Step Time =    1.000,"PART-1-1",           276,       8.77427,      -22.6651,            0.,NA,NA,"",   11.3227E-03,  -9.67641E-03,  -5.87958E-03,   4.15194E-03
C:/temp/dataset/3/5_1.odb,Step-1,Increment      1: Step Time =    1.000,"PART-1-1",           277,       10.1837,      -9.28900,            0.,NA,NA,"",   472.256E-03,  -471.552E-03,   25.7775E-03,   2.39302E-03
C:/temp/dataset/3/5_1.odb,Step-1,Increment      1: Step Time =    1.000,"PART-1-1",           278,       10.4979,      -10.7612,            0.,NA,NA,"",   393.309E-03,  -391.009E-03,   42.4726E-03,   2.75224E-03
C:/temp/dataset/3/5_1.odb,Step-1,Increment      1: Step Time =    1.000,"PART-1-1",           279,       11.2325,      -12.6180,            0.,NA,NA,"",   308.843E-03,  -299.790E-03,   74.2259E-03,   4.76455E-03
C:/temp/dataset/3/5_1.odb,Step-1,Increment      1: Step Time =    1.000,"PART-1-1",           280,      -13.7500,       22.5017,            0.,NA,NA,"",       3.94109,      -3.06105,      -2.48237,   141.476E-09
C:/temp/dataset/3/5_1.odb,Step-1,Increment      1: Step Time =    1.000,"PART-1-1",           281,          -15.,         21.25,            0.,NA,NA,"",       3.91747,      -2.92853,      -2.60197,   69.1421E-09
C:/temp/dataset/3/5_1.odb,Step-1,Increment      1: Step Time =    1.000,"PART-1-1",           282,        -13.75,           20.,            0.,NA,NA,"",       3.74020,      -2.80892,      -2.46963,   79.1465E-09
C:/temp/dataset/3/5_1.odb,Step-1,Increment      1: Step Time =    1.000,"PART-1-1",           283,      -12.5000,       21.2517,            0.,NA,NA,"",       3.76492,      -2.94143,      -2.35003,   172.391E-09
C:/temp/dataset/3/5_1.odb,Step-1,Increment      1: Step Time =    1.000,"PART-1-1",           284,        -11.25,           30.,            0.,NA,NA,"",       4.45101,      -3.82949,      -2.26858,   237.894E-09
C:/temp/dataset/3/5_1.odb,Step-1,Increment      1: Step Time =    1.000,"PART-1-1",           285,      -12.5009,       28.7510,            0.,NA,NA,"",       4.40154,      -3.69724,      -2.38830,   168.702E-09
C:/temp/dataset/3/5_1.odb,Step-1,Increment      1: Step Time =    1.000,"PART-1-1",           286,      -11.2523,       27.5017,            0.,NA,NA,"",       4.22963,      -3.57768,      -2.25610,   234.055E-09
C:/temp/dataset/3/5_1.odb,Step-1,Increment      1: Step Time =    1.000,"PART-1-1",           287,      -10.0014,       28.7507,            0.,NA,NA,"",       4.28109,      -3.70994,      -2.13638,   235.087E-09
C:/temp/dataset/3/5_1.odb,Step-1,Increment      1: Step Time =    1.000,"PART-1-1",           288,      -8.75282,       27.5029,            0.,NA,NA,"",       4.11202,      -3.59053,      -2.00419,   1.91478E-06
C:/temp/dataset/3/5_1.odb,Step-1,Increment      1: Step Time =    1.000,"PART-1-1",           289,      -10.0027,       26.2541,            0.,NA,NA,"",       4.05838,      -3.45831,      -2.12380,   653.493E-09
C:/temp/dataset/3/5_1.odb,Step-1,Increment      1: Step Time =    1.000,"PART-1-1",           290,      -8.75320,       25.0087,            0.,NA,NA,"",       3.88795,      -3.33916,      -1.99153,   2.46473E-06
C:/temp/dataset/3/5_1.odb,Step-1,Increment      1: Step Time =    1.000,"PART-1-1",           291,      -7.50334,       26.2575,            0.,NA,NA,"",       3.94393,      -3.47138,      -1.87192,   3.34352E-06
C:/temp/dataset/3/5_1.odb,Step-1,Increment      1: Step Time =    1.000,"PART-1-1",           292,  -10.1921E-03,       23.8015,            0.,NA,NA,"",       3.44395,      -3.26212,      -1.10425,   48.2723E-06
C:/temp/dataset/3/5_1.odb,Step-1,Increment      1: Step Time =    1.000,"PART-1-1",           293,       1.23656,       22.5490,            0.,NA,NA,"",       3.28917,      -3.14222,  -972.173E-03,   68.7497E-06
C:/temp/dataset/3/5_1.odb,Step-1,Increment      1: Step Time =    1.000,"PART-1-1",           294,       2.47060,       23.8222,            0.,NA,NA,"",       3.38645,      -3.27693,  -854.253E-03,   120.908E-06
C:/temp/dataset/3/5_1.odb,Step-1,Increment      1: Step Time =    1.000,"PART-1-1",           295,       1.22385,       25.0746,            0.,NA,NA,"",       3.53708,      -3.39678,  -986.346E-03,   57.9581E-06
C:/temp/dataset/3/5_1.odb,Step-1,Increment      1: Step Time =    1.000,"PART-1-1",           296,       13.7132,       25.0166,            0.,NA,NA,"",       3.46642,      -3.45633,   264.199E-03,   1.31967E-03
C:/temp/dataset/3/5_1.odb,Step-1,Increment      1: Step Time =    1.000,"PART-1-1",           297,           15.,         26.25,            0.,NA,NA,"",       3.61014,      -3.58918,   388.441E-03,   1.12027E-03
C:/temp/dataset/3/5_1.odb,Step-1,Increment      1: Step Time =    1.000,"PART-1-1",           298,       13.7362,       27.5048,            0.,NA,NA,"",       3.71714,      -3.70836,   255.397E-03,   989.914E-06
C:/temp/dataset/3/5_1.odb,Step-1,Increment      1: Step Time =    1.000,"PART-1-1",           299,       12.4494,       26.2714,            0.,NA,NA,"",       3.57842,      -3.57599,   131.807E-03,   1.20761E-03
C:/temp/dataset/3/5_1.odb,Step-1,Increment      1: Step Time =    1.000,"PART-1-1",           300,       6.19248,       27.5744,            0.,NA,NA,"",       3.70759,      -3.67374,  -499.824E-03,   404.024E-06
C:/temp/dataset/3/5_1.odb,Step-1,Increment      1: Step Time =    1.000,"PART-1-1",           301,       7.46746,       28.7842,            0.,NA,NA,"",       3.82087,      -3.80209,  -378.302E-03,   361.328E-06
C:/temp/dataset/3/5_1.odb,Step-1,Increment      1: Step Time =    1.000,"PART-1-1",           302,          6.25,           30.,            0.,NA,NA,"",       3.95042,      -3.91784,  -506.290E-03,   87.7520E-06
C:/temp/dataset/3/5_1.odb,Step-1,Increment      1: Step Time =    1.000,"PART-1-1",           303,       4.97503,       28.7903,            0.,NA,NA,"",       3.84158,      -3.78989,  -628.059E-03,   118.781E-06
C:/temp/dataset/3/5_1.odb,Step-1,Increment      1: Step Time =    1.000,"PART-1-1",           304,       11.0878,       17.5306,            0.,NA,NA,"",       2.68365,      -2.68341,   35.9250E-03,   2.04413E-03
C:/temp/dataset/3/5_1.odb,Step-1,Increment      1: Step Time =    1.000,"PART-1-1",           305,       12.3722,       18.7756,            0.,NA,NA,"",       2.81894,      -2.81463,   155.756E-03,   2.24905E-03
C:/temp/dataset/3/5_1.odb,Step-1,Increment      1: Step Time =    1.000,"PART-1-1",           306,       11.1059,       20.0490,            0.,NA,NA,"",       2.93632,      -2.93620,   26.6049E-03,   2.01526E-03
C:/temp/dataset/3/5_1.odb,Step-1,Increment      1: Step Time =    1.000,"PART-1-1",           307,       9.82152,       18.8041,            0.,NA,NA,"",       2.80606,      -2.80453,  -92.6445E-03,   2.12465E-03
C:/temp/dataset/3/5_1.odb,Step-1,Increment      1: Step Time =    1.000,"PART-1-1",           308,       9.63171,       13.8797,            0.,NA,NA,"",       2.32032,      -2.31873,  -85.7860E-03,   2.07539E-03
C:/temp/dataset/3/5_1.odb,Step-1,Increment      1: Step Time =    1.000,"PART-1-1",           309,       8.52517,       15.0687,            0.,NA,NA,"",       2.43735,      -2.42942,  -196.455E-03,   2.27242E-03
C:/temp/dataset/3/5_1.odb,Step-1,Increment      1: Step Time =    1.000,"PART-1-1",           310,       7.25683,       13.8735,            0.,NA,NA,"",       2.32998,      -2.30950,  -308.288E-03,   3.37557E-03
C:/temp/dataset/3/5_1.odb,Step-1,Increment      1: Step Time =    1.000,"PART-1-1",           311,       8.36336,       12.6844,            0.,NA,NA,"",       2.20836,      -2.19957,  -196.834E-03,   2.61393E-03
C:/temp/dataset/3/5_1.odb,Step-1,Increment      1: Step Time =    1.000,"PART-1-1",           312,       14.0118,       9.82001,            0.,NA,NA,"",       1.98664,      -1.96011,   323.621E-03,   5.93947E-03
C:/temp/dataset/3/5_1.odb,Step-1,Increment      1: Step Time =    1.000,"PART-1-1",           313,           15.,         11.25,            0.,NA,NA,"",       2.14011,      -2.09932,   415.828E-03,   6.79094E-03
C:/temp/dataset/3/5_1.odb,Step-1,Increment      1: Step Time =    1.000,"PART-1-1",           314,       13.5880,       12.3315,            0.,NA,NA,"",       2.20995,      -2.19139,   285.755E-03,   4.59958E-03
C:/temp/dataset/3/5_1.odb,Step-1,Increment      1: Step Time =    1.000,"PART-1-1",           315,       12.5998,       10.9015,            0.,NA,NA,"",       2.06050,      -2.05113,   196.246E-03,   3.87545E-03
C:/temp/dataset/3/5_1.odb,Step-1,Increment      1: Step Time =    1.000,"PART-1-1",           316,       4.40482,  -219.892E-03,            0.,NA,NA,"",       1.17714,      -1.09841,  -423.273E-03,   4.86992E-03
C:/temp/dataset/3/5_1.odb,Step-1,Increment      1: Step Time =    1.000,"PART-1-1",           317,       3.45177,  -757.122E-03,            0.,NA,NA,"",       1.16648,      -1.05711,  -493.138E-03,   3.35801E-03
C:/temp/dataset/3/5_1.odb,Step-1,Increment      1: Step Time =    1.000,"PART-1-1",           318,       3.83014,      -1.74448,            0.,NA,NA,"",       1.08374,  -982.396E-03,  -457.598E-03,   4.44728E-03
C:/temp/dataset/3/5_1.odb,Step-1,Increment      1: Step Time =    1.000,"PART-1-1",           319,       4.78319,      -1.20725,            0.,NA,NA,"",       1.09399,      -1.02339,  -386.644E-03,   5.38065E-03
C:/temp/dataset/3/5_1.odb,Step-1,Increment      1: Step Time =    1.000,"PART-1-1",           320,       10.3408,      -10.0251,            0.,NA,NA,"",   431.848E-03,  -430.470E-03,   34.4731E-03,   2.52479E-03
C:/temp/dataset/3/5_1.odb,Step-1,Increment      1: Step Time =    1.000,"PART-1-1",           321,       11.1792,      -10.4860,            0.,NA,NA,"",   414.801E-03,  -407.596E-03,   76.9771E-03,   4.49936E-03
C:/temp/dataset/3/5_1.odb,Step-1,Increment      1: Step Time =    1.000,"PART-1-1",           322,       11.5032,      -9.33080,            0.,NA,NA,"",   482.944E-03,  -473.135E-03,   96.8428E-03,   5.46363E-03
C:/temp/dataset/3/5_1.odb,Step-1,Increment      1: Step Time =    1.000,"PART-1-1",           323,       10.6649,      -8.86986,            0.,NA,NA,"",   499.784E-03,  -497.085E-03,   51.8780E-03,   3.29562E-03
C:/temp/dataset/3/5_1.odb,Step-1,Increment      1: Step Time =    1.000,"PART-1-1",           324,       9.41034,      -12.1888,            0.,NA,NA,"",   317.314E-03,  -317.227E-03,  -7.43139E-03,   2.72891E-03
C:/temp/dataset/3/5_1.odb,Step-1,Increment      1: Step Time =    1.000,"PART-1-1",           325,       10.5075,      -13.0214,            0.,NA,NA,"",   282.419E-03,  -279.297E-03,   41.8792E-03,   2.74244E-03
C:/temp/dataset/3/5_1.odb,Step-1,Increment      1: Step Time =    1.000,"PART-1-1",           326,       10.8652,      -11.6896,            0.,NA,NA,"",   349.118E-03,  -344.026E-03,   59.4138E-03,   3.65050E-03
C:/temp/dataset/3/5_1.odb,Step-1,Increment      1: Step Time =    1.000,"PART-1-1",           327,       9.76802,      -10.8570,            0.,NA,NA,"",   384.763E-03,  -384.711E-03,   6.35966E-03,   2.09775E-03
C:/temp/dataset/3/5_1.odb,Step-1,Increment      1: Step Time =    1.000,"PART-1-1",           328,       6.12016,      -19.7528,            0.,NA,NA,"",   70.3141E-03,  -41.7507E-03,  -56.5770E-03,   15.7468E-03
C:/temp/dataset/3/5_1.odb,Step-1,Increment      1: Step Time =    1.000,"PART-1-1",           329,       7.15653,      -18.4145,            0.,NA,NA,"",   91.8388E-03,  -77.8793E-03,  -48.6743E-03,   8.76137E-03
C:/temp/dataset/3/5_1.odb,Step-1,Increment      1: Step Time =    1.000,"PART-1-1",           330,       6.03637,      -17.4116,            0.,NA,NA,"",   145.702E-03,  -114.492E-03,  -90.1156E-03,   15.9785E-03
C:/temp/dataset/3/5_1.odb,Step-1,Increment      1: Step Time =    1.000,"PART-1-1",           331,            5.,        -18.75,            0.,NA,NA,"",   124.408E-03,  -80.3320E-03,  -94.9960E-03,   26.0841E-03
C:/temp/dataset/3/5_1.odb,Step-1,Increment      1: Step Time =    1.000,"PART-1-1",           332,       13.3604,      -22.4969,            0.,NA,NA,"",   66.0561E-03,  -23.6882E-03,   61.6626E-03,   11.8167E-03
C:/temp/dataset/3/5_1.odb,Step-1,Increment      1: Step Time =    1.000,"PART-1-1",           333,           15.,        -21.25,            0.,NA,NA,"",   113.464E-03,  -50.6137E-03,   101.550E-03,   17.5280E-03
C:/temp/dataset/3/5_1.odb,Step-1,Increment      1: Step Time =    1.000,"PART-1-1",           334,       13.4842,      -19.7901,            0.,NA,NA,"",   114.361E-03,  -65.5055E-03,   93.7410E-03,   13.4907E-03
C:/temp/dataset/3/5_1.odb,Step-1,Increment      1: Step Time =    1.000,"PART-1-1",           335,       11.8446,      -21.0370,            0.,NA,NA,"",   60.4168E-03,  -35.0093E-03,   49.2395E-03,   8.10287E-03
C:/temp/dataset/3/5_1.odb,Step-1,Increment      1: Step Time =    1.000,"PART-1-1",           336,       1.65000,            5.,            0.,NA,NA,"",       1.62678,      -1.49003,  -652.868E-03,   749.181E-06
C:/temp/dataset/3/5_1.odb,Step-1,Increment      1: Step Time =    1.000,"PART-1-1",           337,   440.654E-03,       4.00571,            0.,NA,NA,"",       1.59528,      -1.41285,  -740.780E-03,   452.075E-06
C:/temp/dataset/3/5_1.odb,Step-1,Increment      1: Step Time =    1.000,"PART-1-1",           338,       1.47063,       2.87974,            0.,NA,NA,"",       1.48539,      -1.33071,  -659.984E-03,   1.06958E-03
C:/temp/dataset/3/5_1.odb,Step-1,Increment      1: Step Time =    1.000,"PART-1-1",           339,       2.67998,       3.87403,            0.,NA,NA,"",       1.52155,      -1.40916,  -573.922E-03,   1.07585E-03
C:/temp/dataset/3/5_1.odb,Step-1,Increment      1: Step Time =    1.000,"PART-1-1",           340,      -1.46180,      -3.99231,            0.,NA,NA,"",       1.17306,  -795.286E-03,  -862.312E-03,   295.650E-06
C:/temp/dataset/3/5_1.odb,Step-1,Increment      1: Step Time =    1.000,"PART-1-1",           341,     -500.E-03,           -5.,            0.,NA,NA,"",       1.06526,  -720.047E-03,  -785.050E-03,   765.039E-06
C:/temp/dataset/3/5_1.odb,Step-1,Increment      1: Step Time =    1.000,"PART-1-1",           342,   718.491E-03,      -4.10961,            0.,NA,NA,"",       1.05280,  -791.964E-03,  -693.676E-03,   527.621E-06
C:/temp/dataset/3/5_1.odb,Step-1,Increment      1: Step Time =    1.000,"PART-1-1",           343,  -243.313E-03,      -3.10192,            0.,NA,NA,"",       1.16080,  -867.549E-03,  -771.249E-03,   208.385E-06
C:/temp/dataset/3/5_1.odb,Step-1,Increment      1: Step Time =    1.000,"PART-1-1",           344,      -3.82017,      -3.74247,            0.,NA,NA,"",       1.32002,  -807.882E-03,      -1.04392,   147.614E-06
C:/temp/dataset/3/5_1.odb,Step-1,Increment      1: Step Time =    1.000,"PART-1-1",           345,      -2.71667,           -5.,            0.,NA,NA,"",       1.19309,  -714.406E-03,  -955.556E-03,   336.319E-06
C:/temp/dataset/3/5_1.odb,Step-1,Increment      1: Step Time =    1.000,"PART-1-1",           346,      -2.56530,      -2.73478,            0.,NA,NA,"",       1.30164,  -888.986E-03,  -950.776E-03,   234.774E-06
C:/temp/dataset/3/5_1.odb,Step-1,Increment      1: Step Time =    1.000,"PART-1-1",           347,      -13.8092,  -21.6491E-03,            0.,NA,NA,"",       2.10785,      -1.06373,      -1.81975,   441.724E-09
C:/temp/dataset/3/5_1.odb,Step-1,Increment      1: Step Time =    1.000,"PART-1-1",           348,      -12.6581,       1.21263,            0.,NA,NA,"",       2.08815,      -1.16166,      -1.73520,   1.87121E-06
C:/temp/dataset/3/5_1.odb,Step-1,Increment      1: Step Time =    1.000,"PART-1-1",           349,      -13.8489,       2.48428,            0.,NA,NA,"",       2.21944,      -1.25557,      -1.83015,   307.658E-09
C:/temp/dataset/3/5_1.odb,Step-1,Increment      1: Step Time =    1.000,"PART-1-1",           350,          -15.,          1.25,            0.,NA,NA,"",       2.23746,      -1.15764,      -1.91470,   1.58230E-06
C:/temp/dataset/3/5_1.odb,Step-1,Increment      1: Step Time =    1.000,"PART-1-1",           351,      -8.84172,   345.754E-03,            0.,NA,NA,"",       1.81627,      -1.10650,      -1.44032,   32.1792E-06
C:/temp/dataset/3/5_1.odb,Step-1,Increment      1: Step Time =    1.000,"PART-1-1",           352,      -9.20019,  -788.270E-03,            0.,NA,NA,"",       1.78386,      -1.01857,      -1.46447,   24.1600E-06
C:/temp/dataset/3/5_1.odb,Step-1,Increment      1: Step Time =    1.000,"PART-1-1",           353,      -7.61937,      -1.21646,            0.,NA,NA,"",       1.66804,  -990.440E-03,      -1.34215,   53.2397E-06
C:/temp/dataset/3/5_1.odb,Step-1,Increment      1: Step Time =    1.000,"PART-1-1",           354,      -7.26090,  -82.4387E-03,            0.,NA,NA,"",       1.70294,      -1.07839,      -1.31799,   57.3199E-06
C:/temp/dataset/3/5_1.odb,Step-1,Increment      1: Step Time =    1.000,"PART-1-1",           355,      -12.7466,      -3.77621,            0.,NA,NA,"",       1.89497,  -779.263E-03,      -1.72733,   633.428E-09
C:/temp/dataset/3/5_1.odb,Step-1,Increment      1: Step Time =    1.000,"PART-1-1",           356,      -13.8633,      -2.52621,            0.,NA,NA,"",       2.01487,  -871.727E-03,      -1.81654,   323.194E-09
C:/temp/dataset/3/5_1.odb,Step-1,Increment      1: Step Time =    1.000,"PART-1-1",           357,          -15.,         -3.75,            0.,NA,NA,"",       2.05186,  -774.650E-03,      -1.90001,   558.962E-09
C:/temp/dataset/3/5_1.odb,Step-1,Increment      1: Step Time =    1.000,"PART-1-1",           358,      -13.8833,           -5.,            0.,NA,NA,"",       1.93504,  -682.187E-03,      -1.81080,   445.365E-09
C:/temp/dataset/3/5_1.odb,Step-1,Increment      1: Step Time =    1.000,"PART-1-1",           359,      -5.03830,      -2.71522,            0.,NA,NA,"",       1.44225,  -883.188E-03,      -1.14020,   134.875E-06
C:/temp/dataset/3/5_1.odb,Step-1,Increment      1: Step Time =    1.000,"PART-1-1",           360,      -4.43911,      -1.50749,            0.,NA,NA,"",       1.47003,  -977.652E-03,      -1.09781,   145.279E-06
C:/temp/dataset/3/5_1.odb,Step-1,Increment      1: Step Time =    1.000,"PART-1-1",           361,      -5.95808,  -763.119E-03,            0.,NA,NA,"",       1.59388,      -1.03014,      -1.21625,   105.599E-06
C:/temp/dataset/3/5_1.odb,Step-1,Increment      1: Step Time =    1.000,"PART-1-1",           362,      -6.55726,      -1.97085,            0.,NA,NA,"",       1.56839,  -935.775E-03,      -1.25864,   69.9339E-06
C:/temp/dataset/3/5_1.odb,Step-1,Increment      1: Step Time =    1.000,"PART-1-1",           363,          6.25,          -30.,            0.,NA,NA,"",            0.,   1.44322E-39,  -3.59163E-39,   2.39657E-03
C:/temp/dataset/3/5_1.odb,Step-1,Increment      1: Step Time =    1.000,"PART-1-1",           364,       7.47038,      -28.9473,            0.,NA,NA,"",   3.35996E-03,   3.12697E-03,  -1.22938E-03,   2.73621E-03
C:/temp/dataset/3/5_1.odb,Step-1,Increment      1: Step Time =    1.000,"PART-1-1",           365,       6.18647,      -27.8786,            0.,NA,NA,"",   5.60245E-03,   1.89511E-03,  -5.27220E-03,   3.63096E-03
C:/temp/dataset/3/5_1.odb,Step-1,Increment      1: Step Time =    1.000,"PART-1-1",           366,       4.96608,      -28.9312,            0.,NA,NA,"",   2.61857E-03,   92.6681E-06,  -2.61693E-03,   3.40701E-03
C:/temp/dataset/3/5_1.odb,Step-1,Increment      1: Step Time =    1.000,"PART-1-1",           367,       3.70492,      -27.8047,            0.,NA,NA,"",   7.15977E-03,  -3.26384E-03,  -6.37257E-03,   4.16682E-03
C:/temp/dataset/3/5_1.odb,Step-1,Increment      1: Step Time =    1.000,"PART-1-1",           368,       2.48883,      -28.8735,            0.,NA,NA,"",   3.70983E-03,  -2.63679E-03,  -2.60962E-03,   3.51776E-03
C:/temp/dataset/3/5_1.odb,Step-1,Increment      1: Step Time =    1.000,"PART-1-1",           369,          3.75,          -30.,            0.,NA,NA,"",            0.,  -702.890E-42,  -5.08112E-39,   2.73720E-03
C:/temp/dataset/3/5_1.odb,Step-1,Increment      1: Step Time =    1.000,"PART-1-1",           370,      -3.72203,      -27.5999,            0.,NA,NA,"",   6.71868E-03,  -6.61784E-03,  -1.15971E-03,   1.94333E-03
C:/temp/dataset/3/5_1.odb,Step-1,Increment      1: Step Time =    1.000,"PART-1-1",           371,      -4.98725,      -28.7922,            0.,NA,NA,"",   3.32217E-03,  -3.28834E-03,  -472.894E-06,   1.80599E-03
C:/temp/dataset/3/5_1.odb,Step-1,Increment      1: Step Time =    1.000,"PART-1-1",           372,         -3.75,          -30.,            0.,NA,NA,"",            0.,  -2.03286E-39,  -1.69984E-39,   2.26387E-03
C:/temp/dataset/3/5_1.odb,Step-1,Increment      1: Step Time =    1.000,"PART-1-1",           373,      -2.48478,      -28.8077,            0.,NA,NA,"",   4.00719E-03,  -3.88132E-03,  -996.446E-06,   2.37914E-03
C:/temp/dataset/3/5_1.odb,Step-1,Increment      1: Step Time =    1.000,"PART-1-1",           374,      -13.7501,      -27.5099,            0.,NA,NA,"",   3.98303E-03,  -3.79978E-03,  -1.19424E-03,   642.115E-06
C:/temp/dataset/3/5_1.odb,Step-1,Increment      1: Step Time =    1.000,"PART-1-1",           375,          -15.,        -28.75,            0.,NA,NA,"",   2.67658E-03,  -2.19326E-03,  -1.53417E-03,   1.16981E-03
C:/temp/dataset/3/5_1.odb,Step-1,Increment      1: Step Time =    1.000,"PART-1-1",           376,        -13.75,          -30.,            0.,NA,NA,"",            0.,  -342.610E-42,  -1.26897E-39,   1.28977E-03
C:/temp/dataset/3/5_1.odb,Step-1,Increment      1: Step Time =    1.000,"PART-1-1",           377,      -12.5001,      -28.7599,            0.,NA,NA,"",   1.80570E-03,  -1.77294E-03,  -342.399E-06,   945.426E-06
C:/temp/dataset/3/5_1.odb,Step-1,Increment      1: Step Time =    1.000,"PART-1-1",           378,       8.15833,      -10.8587,            0.,NA,NA,"",   391.802E-03,  -384.797E-03,  -73.7587E-03,   6.23510E-03
C:/temp/dataset/3/5_1.odb,Step-1,Increment      1: Step Time =    1.000,"PART-1-1",           379,       9.00498,      -9.90697,            0.,NA,NA,"",   436.844E-03,  -435.397E-03,  -35.5286E-03,   3.53803E-03
C:/temp/dataset/3/5_1.odb,Step-1,Increment      1: Step Time =    1.000,"PART-1-1",           380,       8.08915,      -8.55627,            0.,NA,NA,"",   520.802E-03,  -512.417E-03,  -93.0739E-03,   5.95730E-03
C:/temp/dataset/3/5_1.odb,Step-1,Increment      1: Step Time =    1.000,"PART-1-1",           381,       7.24249,      -9.50802,            0.,NA,NA,"",   477.946E-03,  -459.187E-03,  -132.588E-03,   8.73257E-03
C:/temp/dataset/3/5_1.odb,Step-1,Increment      1: Step Time =    1.000,"PART-1-1",           382,       13.9816,      -2.51124,            0.,NA,NA,"",   983.362E-03,  -941.536E-03,   283.743E-03,   8.92507E-03
C:/temp/dataset/3/5_1.odb,Step-1,Increment      1: Step Time =    1.000,"PART-1-1",           383,           15.,         -1.25,            0.,NA,NA,"",       1.10540,      -1.04321,   365.557E-03,   10.1873E-03
C:/temp/dataset/3/5_1.odb,Step-1,Increment      1: Step Time =    1.000,"PART-1-1",           384,       13.8213,  -48.4001E-03,            0.,NA,NA,"",       1.16244,      -1.12748,   282.956E-03,   7.42830E-03
C:/temp/dataset/3/5_1.odb,Step-1,Increment      1: Step Time =    1.000,"PART-1-1",           385,       12.8030,      -1.30964,            0.,NA,NA,"",       1.04486,      -1.02485,   203.499E-03,   6.29939E-03
C:/temp/dataset/3/5_1.odb,Step-1,Increment      1: Step Time =    1.000,"PART-1-1",           386,           15.,          1.25,            0.,NA,NA,"",       1.29388,      -1.23703,   379.315E-03,   9.10592E-03
C:/temp/dataset/3/5_1.odb,Step-1,Increment      1: Step Time =    1.000,"PART-1-1",           387,       13.5709,       2.55070,            0.,NA,NA,"",       1.35905,      -1.33162,   271.670E-03,   6.43808E-03
C:/temp/dataset/3/5_1.odb,Step-1,Increment      1: Step Time =    1.000,"PART-1-1",           388,       12.3922,       1.25230,            0.,NA,NA,"",       1.23425,      -1.22149,   177.028E-03,   4.78086E-03
C:/temp/dataset/3/5_1.odb,Step-1,Increment      1: Step Time =    1.000,"PART-1-1",           389,      -5.00532,       26.2655,            0.,NA,NA,"",       3.84313,      -3.48492,      -1.62019,   11.0933E-06
C:/temp/dataset/3/5_1.odb,Step-1,Increment      1: Step Time =    1.000,"PART-1-1",           390,      -3.75495,       25.0275,            0.,NA,NA,"",       3.68067,      -3.36654,      -1.48788,   22.7453E-06
C:/temp/dataset/3/5_1.odb,Step-1,Increment      1: Step Time =    1.000,"PART-1-1",           391,      -2.50780,       26.2820,            0.,NA,NA,"",       3.75742,      -3.49933,      -1.36855,   27.6684E-06
C:/temp/dataset/3/5_1.odb,Step-1,Increment      1: Step Time =    1.000,"PART-1-1",           392,      -3.75817,       27.5199,            0.,NA,NA,"",       3.91667,      -3.61769,      -1.50087,   20.3558E-06
C:/temp/dataset/3/5_1.odb,Step-1,Increment      1: Step Time =    1.000,"PART-1-1",           393,      -5.00193,       23.7670,            0.,NA,NA,"",       3.61054,      -3.23312,      -1.60715,   11.4668E-06
C:/temp/dataset/3/5_1.odb,Step-1,Increment      1: Step Time =    1.000,"PART-1-1",           394,      -6.25406,       25.0149,            0.,NA,NA,"",       3.77701,      -3.35251,      -1.73969,   8.78834E-06
C:/temp/dataset/3/5_1.odb,Step-1,Increment      1: Step Time =    1.000,"PART-1-1",           395,      -7.50285,       23.7600,            0.,NA,NA,"",       3.71790,      -3.21968,      -1.85916,   3.27364E-06
C:/temp/dataset/3/5_1.odb,Step-1,Increment      1: Step Time =    1.000,"PART-1-1",           396,      -6.25071,       22.5121,            0.,NA,NA,"",       3.54866,      -3.10028,      -1.72662,   7.61750E-06
C:/temp/dataset/3/5_1.odb,Step-1,Increment      1: Step Time =    1.000,"PART-1-1",           397,      -12.5007,       23.7543,            0.,NA,NA,"",       3.97271,      -3.19365,      -2.36283,   131.500E-09
C:/temp/dataset/3/5_1.odb,Step-1,Increment      1: Step Time =    1.000,"PART-1-1",           398,      -13.7507,       25.0026,            0.,NA,NA,"",       4.14758,      -3.31309,      -2.49517,   108.658E-09
C:/temp/dataset/3/5_1.odb,Step-1,Increment      1: Step Time =    1.000,"PART-1-1",           399,          -15.,         23.75,            0.,NA,NA,"",       4.11730,      -3.18049,      -2.61470,   248.257E-09
C:/temp/dataset/3/5_1.odb,Step-1,Increment      1: Step Time =    1.000,"PART-1-1",           400,       1.22659,       27.5580,            0.,NA,NA,"",       3.78119,      -3.64691,  -998.719E-03,   21.1831E-06
C:/temp/dataset/3/5_1.odb,Step-1,Increment      1: Step Time =    1.000,"PART-1-1",           401,       2.48534,       28.7828,            0.,NA,NA,"",       3.87735,      -3.77657,  -878.241E-03,   54.4494E-06
C:/temp/dataset/3/5_1.odb,Step-1,Increment      1: Step Time =    1.000,"PART-1-1",           402,          1.25,           30.,            0.,NA,NA,"",       4.02148,      -3.89289,      -1.00883,   88.3093E-06
C:/temp/dataset/3/5_1.odb,Step-1,Increment      1: Step Time =    1.000,"PART-1-1",           403,  -8.74824E-03,       28.7751,            0.,NA,NA,"",       3.92902,      -3.76321,      -1.12937,   42.3237E-06
C:/temp/dataset/3/5_1.odb,Step-1,Increment      1: Step Time =    1.000,"PART-1-1",           404,  -16.7069E-03,       26.3073,            0.,NA,NA,"",       3.68803,      -3.51461,      -1.11762,   37.6959E-06
C:/temp/dataset/3/5_1.odb,Step-1,Increment      1: Step Time =    1.000,"PART-1-1",           405,       2.46714,       26.3253,            0.,NA,NA,"",       3.63416,      -3.52910,  -867.501E-03,   65.7162E-06
C:/temp/dataset/3/5_1.odb,Step-1,Increment      1: Step Time =    1.000,"PART-1-1",           406,       3.70751,       22.5746,            0.,NA,NA,"",       3.23905,      -3.15740,  -722.691E-03,   319.101E-06
C:/temp/dataset/3/5_1.odb,Step-1,Increment      1: Step Time =    1.000,"PART-1-1",           407,       2.48879,       21.2797,            0.,NA,NA,"",       3.13487,      -3.02046,  -839.178E-03,   187.400E-06
C:/temp/dataset/3/5_1.odb,Step-1,Increment      1: Step Time =    1.000,"PART-1-1",           408,          3.75,           20.,            0.,NA,NA,"",       2.98186,      -2.89735,  -704.854E-03,   584.319E-06
C:/temp/dataset/3/5_1.odb,Step-1,Increment      1: Step Time =    1.000,"PART-1-1",           409,       4.96872,       21.2949,            0.,NA,NA,"",       3.09088,      -3.03448,  -587.740E-03,   1.28923E-03
C:/temp/dataset/3/5_1.odb,Step-1,Increment      1: Step Time =    1.000,"PART-1-1",           410,       10.8479,       12.4309,            0.,NA,NA,"",       2.18589,      -2.18564,   33.0374E-03,   2.13676E-03
C:/temp/dataset/3/5_1.odb,Step-1,Increment      1: Step Time =    1.000,"PART-1-1",           411,       9.34812,       11.6387,            0.,NA,NA,"",       2.10682,      -2.10442,  -100.536E-03,   2.15853E-03
C:/temp/dataset/3/5_1.odb,Step-1,Increment      1: Step Time =    1.000,"PART-1-1",           412,       9.99050,       10.5520,            0.,NA,NA,"",       2.00600,      -2.00565,  -37.4901E-03,   1.93576E-03
C:/temp/dataset/3/5_1.odb,Step-1,Increment      1: Step Time =    1.000,"PART-1-1",           413,       11.4903,       11.3442,            0.,NA,NA,"",       2.08858,      -2.08642,   94.9462E-03,   2.67722E-03
C:/temp/dataset/3/5_1.odb,Step-1,Increment      1: Step Time =    1.000,"PART-1-1",           414,       7.16850,       11.5014,            0.,NA,NA,"",       2.10582,      -2.08456,  -298.529E-03,   4.01898E-03
C:/temp/dataset/3/5_1.odb,Step-1,Increment      1: Step Time =    1.000,"PART-1-1",           415,       6.10343,       12.5850,            0.,NA,NA,"",       2.22121,      -2.18374,  -406.291E-03,   4.82354E-03
C:/temp/dataset/3/5_1.odb,Step-1,Increment      1: Step Time =    1.000,"PART-1-1",           416,            5.,         11.25,            0.,NA,NA,"",       2.11610,      -2.05697,  -496.752E-03,   6.69418E-03
C:/temp/dataset/3/5_1.odb,Step-1,Increment      1: Step Time =    1.000,"PART-1-1",           417,       6.06507,       10.1664,            0.,NA,NA,"",       1.99689,      -1.95882,  -388.065E-03,   5.77787E-03
C:/temp/dataset/3/5_1.odb,Step-1,Increment      1: Step Time =    1.000,"PART-1-1",           418,       14.0565,       5.06378,            0.,NA,NA,"",       1.57440,      -1.54196,   317.920E-03,   7.03913E-03
C:/temp/dataset/3/5_1.odb,Step-1,Increment      1: Step Time =    1.000,"PART-1-1",           419,       12.6274,       3.86448,            0.,NA,NA,"",       1.44698,      -1.43335,   198.155E-03,   4.82625E-03
C:/temp/dataset/3/5_1.odb,Step-1,Increment      1: Step Time =    1.000,"PART-1-1",           420,           15.,          3.75,            0.,NA,NA,"",       1.49112,      -1.43896,   390.957E-03,   8.67599E-03
C:/temp/dataset/3/5_1.odb,Step-1,Increment      1: Step Time =    1.000,"PART-1-1",           421,       10.0280,       5.47301,            0.,NA,NA,"",       1.55520,      -1.55511,  -16.5542E-03,   1.35438E-03
C:/temp/dataset/3/5_1.odb,Step-1,Increment      1: Step Time =    1.000,"PART-1-1",           422,       11.0614,       5.01383,            0.,NA,NA,"",       1.52255,      -1.52096,   69.7567E-03,   2.48706E-03
C:/temp/dataset/3/5_1.odb,Step-1,Increment      1: Step Time =    1.000,"PART-1-1",           423,       11.6033,       6.33570,            0.,NA,NA,"",       1.63984,      -1.63591,   113.445E-03,   3.23287E-03
C:/temp/dataset/3/5_1.odb,Step-1,Increment      1: Step Time =    1.000,"PART-1-1",           424,       10.5698,       6.79489,            0.,NA,NA,"",       1.67073,      -1.67053,   25.3956E-03,   1.99712E-03
C:/temp/dataset/3/5_1.odb,Step-1,Increment      1: Step Time =    1.000,"PART-1-1",           425,      -4.94418,       3.17107,            0.,NA,NA,"",       1.76142,      -1.33433,      -1.14985,   127.815E-06
C:/temp/dataset/3/5_1.odb,Step-1,Increment      1: Step Time =    1.000,"PART-1-1",           426,      -3.90803,       4.11594,            0.,NA,NA,"",       1.77162,      -1.40956,      -1.07321,   152.361E-06
C:/temp/dataset/3/5_1.odb,Step-1,Increment      1: Step Time =    1.000,"PART-1-1",           427,      -5.05000,            5.,            0.,NA,NA,"",       1.87781,      -1.47401,      -1.16338,   125.793E-06
C:/temp/dataset/3/5_1.odb,Step-1,Increment      1: Step Time =    1.000,"PART-1-1",           428,      -6.08615,       4.05513,            0.,NA,NA,"",       1.86918,      -1.39866,      -1.23999,   56.6238E-06
C:/temp/dataset/3/5_1.odb,Step-1,Increment      1: Step Time =    1.000,"PART-1-1",           429,      -3.86135,       2.39128,            0.,NA,NA,"",       1.66326,      -1.27792,      -1.06460,   161.257E-06
C:/temp/dataset/3/5_1.odb,Step-1,Increment      1: Step Time =    1.000,"PART-1-1",           430,      -5.85027,       2.20434,            0.,NA,NA,"",       1.74976,      -1.25770,      -1.21650,   88.0631E-06
C:/temp/dataset/3/5_1.odb,Step-1,Increment      1: Step Time =    1.000,"PART-1-1",           431,      -4.76744,       1.42454,            0.,NA,NA,"",       1.65011,      -1.20128,      -1.13128,   147.066E-06
C:/temp/dataset/3/5_1.odb,Step-1,Increment      1: Step Time =    1.000,"PART-1-1",           432,      -9.29397,       2.69508,            0.,NA,NA,"",       1.96146,      -1.28511,      -1.48183,   21.2127E-06
C:/temp/dataset/3/5_1.odb,Step-1,Increment      1: Step Time =    1.000,"PART-1-1",           433,      -8.28887,       3.92576,            0.,NA,NA,"",       1.97344,      -1.38232,      -1.40843,   18.5057E-06
C:/temp/dataset/3/5_1.odb,Step-1,Increment      1: Step Time =    1.000,"PART-1-1",           434,          -9.5,            5.,            0.,NA,NA,"",       2.09712,      -1.46107,      -1.50439,   7.16391E-06
C:/temp/dataset/3/5_1.odb,Step-1,Increment      1: Step Time =    1.000,"PART-1-1",           435,      -10.5051,       3.76932,            0.,NA,NA,"",       2.08553,      -1.36383,      -1.57777,   4.19939E-06
C:/temp/dataset/3/5_1.odb,Step-1,Increment      1: Step Time =    1.000,"PART-1-1",           436,      -7.92731,       1.84143,            0.,NA,NA,"",       1.84042,      -1.22376,      -1.37462,   37.7050E-06
C:/temp/dataset/3/5_1.odb,Step-1,Increment      1: Step Time =    1.000,"PART-1-1",           437,      -6.68589,       1.06488,            0.,NA,NA,"",       1.73076,      -1.16798,      -1.27725,   80.4475E-06
C:/temp/dataset/3/5_1.odb,Step-1,Increment      1: Step Time =    1.000,"PART-1-1",           438,      -7.09169,       2.98089,            0.,NA,NA,"",       1.85784,      -1.31347,      -1.31390,   58.4502E-06
C:/temp/dataset/3/5_1.odb,Step-1,Increment      1: Step Time =    1.000,"PART-1-1",           439,      -13.9000,            5.,            0.,NA,NA,"",       2.34266,      -1.44814,      -1.84146,   439.633E-09
C:/temp/dataset/3/5_1.odb,Step-1,Increment      1: Step Time =    1.000,"PART-1-1",           440,          -15.,          3.75,            0.,NA,NA,"",       2.34829,      -1.34915,      -1.92205,   574.327E-09
C:/temp/dataset/3/5_1.odb,Step-1,Increment      1: Step Time =    1.000,"PART-1-1",           441,      -12.7489,       3.73428,            0.,NA,NA,"",       2.21265,      -1.35456,      -1.74956,   601.478E-09
C:/temp/dataset/3/5_1.odb,Step-1,Increment      1: Step Time =    1.000,"PART-1-1",           442,      -9.48823,      -2.88104,            0.,NA,NA,"",       1.71077,  -857.400E-03,      -1.48040,   17.7656E-06
C:/temp/dataset/3/5_1.odb,Step-1,Increment      1: Step Time =    1.000,"PART-1-1",           443,      -8.42388,      -2.23568,            0.,NA,NA,"",       1.67041,  -909.970E-03,      -1.40079,   28.5575E-06
C:/temp/dataset/3/5_1.odb,Step-1,Increment      1: Step Time =    1.000,"PART-1-1",           444,      -10.2645,      -1.43363,            0.,NA,NA,"",       1.82137,  -965.994E-03,      -1.54410,   11.3277E-06
C:/temp/dataset/3/5_1.odb,Step-1,Increment      1: Step Time =    1.000,"PART-1-1",           445,      -12.6725,      -1.29786,            0.,NA,NA,"",       1.98211,  -969.313E-03,      -1.72893,   1.78552E-06
C:/temp/dataset/3/5_1.odb,Step-1,Increment      1: Step Time =    1.000,"PART-1-1",           446,          -15.,         -1.25,            0.,NA,NA,"",       2.13809,  -966.141E-03,      -1.90736,   1.53743E-06
C:/temp/dataset/3/5_1.odb,Step-1,Increment      1: Step Time =    1.000,"PART-1-1",           447,      -6.16813,      -3.97275,            0.,NA,NA,"",       1.45242,  -783.470E-03,      -1.22298,   55.1869E-06
C:/temp/dataset/3/5_1.odb,Step-1,Increment      1: Step Time =    1.000,"PART-1-1",           448,      -4.95000,           -5.,            0.,NA,NA,"",       1.33081,  -708.272E-03,      -1.12667,   133.537E-06
C:/temp/dataset/3/5_1.odb,Step-1,Increment      1: Step Time =    1.000,"PART-1-1",           449,       1.59412,  -355.999E-03,            0.,NA,NA,"",       1.25834,      -1.08427,  -638.569E-03,   1.05792E-03
C:/temp/dataset/3/5_1.odb,Step-1,Increment      1: Step Time =    1.000,"PART-1-1",           450,       2.17826,      -1.53992,            0.,NA,NA,"",       1.15611,  -995.127E-03,  -588.491E-03,   1.85170E-03
C:/temp/dataset/3/5_1.odb,Step-1,Increment      1: Step Time =    1.000,"PART-1-1",           451,       2.86763,   426.804E-03,            0.,NA,NA,"",       1.26932,      -1.14662,  -544.451E-03,   2.77230E-03
C:/temp/dataset/3/5_1.odb,Step-1,Increment      1: Step Time =    1.000,"PART-1-1",           452,  -387.277E-03,   5.26357E-03,            0.,NA,NA,"",       1.36044,      -1.10629,  -791.788E-03,   236.025E-06
C:/temp/dataset/3/5_1.odb,Step-1,Increment      1: Step Time =    1.000,"PART-1-1",           453,   283.611E-03,      -1.19839,            0.,NA,NA,"",       1.25489,      -1.01601,  -736.514E-03,   421.236E-06
C:/temp/dataset/3/5_1.odb,Step-1,Increment      1: Step Time =    1.000,"PART-1-1",           454,   923.228E-03,   847.652E-03,            0.,NA,NA,"",       1.36439,      -1.17451,  -694.327E-03,   708.796E-06
C:/temp/dataset/3/5_1.odb,Step-1,Increment      1: Step Time =    1.000,"PART-1-1",           455,       6.35531,      -13.1332,            0.,NA,NA,"",   311.497E-03,  -279.733E-03,  -137.039E-03,   12.7270E-03
C:/temp/dataset/3/5_1.odb,Step-1,Increment      1: Step Time =    1.000,"PART-1-1",           456,       7.49455,      -12.2656,            0.,NA,NA,"",   329.708E-03,  -315.799E-03,  -94.7526E-03,   8.77072E-03
C:/temp/dataset/3/5_1.odb,Step-1,Increment      1: Step Time =    1.000,"PART-1-1",           457,       6.13925,      -10.3824,            0.,NA,NA,"",   453.755E-03,  -415.568E-03,  -182.202E-03,   12.6899E-03
C:/temp/dataset/3/5_1.odb,Step-1,Increment      1: Step Time =    1.000,"PART-1-1",           458,            5.,        -11.25,            0.,NA,NA,"",   440.992E-03,  -376.844E-03,  -229.047E-03,   16.7228E-03
C:/temp/dataset/3/5_1.odb,Step-1,Increment      1: Step Time =    1.000,"PART-1-1",           459,       13.3376,      -16.9670,            0.,NA,NA,"",   184.010E-03,  -137.391E-03,   122.407E-03,   13.0537E-03
C:/temp/dataset/3/5_1.odb,Step-1,Increment      1: Step Time =    1.000,"PART-1-1",           460,       11.8219,      -18.0071,            0.,NA,NA,"",   120.683E-03,  -98.6029E-03,   69.5832E-03,   7.72319E-03
C:/temp/dataset/3/5_1.odb,Step-1,Increment      1: Step Time =    1.000,"PART-1-1",           461,           15.,        -18.75,            0.,NA,NA,"",   174.517E-03,  -100.187E-03,   142.893E-03,   18.9966E-03
C:/temp/dataset/3/5_1.odb,Step-1,Increment      1: Step Time =    1.000,"PART-1-1",           462,       8.42876,      -15.2973,            0.,NA,NA,"",   185.703E-03,  -182.545E-03,  -34.0987E-03,   5.84620E-03
C:/temp/dataset/3/5_1.odb,Step-1,Increment      1: Step Time =    1.000,"PART-1-1",           463,       10.4111,      -16.6310,            0.,NA,NA,"",   139.548E-03,  -135.213E-03,   34.5125E-03,   3.21211E-03
C:/temp/dataset/3/5_1.odb,Step-1,Increment      1: Step Time =    1.000,"PART-1-1",           464,       10.7289,      -14.9294,            0.,NA,NA,"",   203.945E-03,  -198.152E-03,   48.2657E-03,   3.50087E-03
C:/temp/dataset/3/5_1.odb,Step-1,Increment      1: Step Time =    1.000,"PART-1-1",           465,       8.74656,      -13.5956,            0.,NA,NA,"",   254.266E-03,  -252.397E-03,  -30.7761E-03,   4.86775E-03
C:/temp/dataset/3/5_1.odb,Step-1,Increment      1: Step Time =    1.000,"PART-1-1",           466,      -8.72016,      -22.5745,            0.,NA,NA,"",   10.1132E-03,  -10.1039E-03,   433.768E-06,   409.652E-06
C:/temp/dataset/3/5_1.odb,Step-1,Increment      1: Step Time =    1.000,"PART-1-1",           467,      -7.48342,      -21.2909,            0.,NA,NA,"",   10.9821E-03,  -10.9572E-03,   739.076E-06,   272.042E-06
C:/temp/dataset/3/5_1.odb,Step-1,Increment      1: Step Time =    1.000,"PART-1-1",           468,         -8.75,          -20.,            0.,NA,NA,"",   11.1432E-03,  -11.1267E-03,   607.278E-06,   24.3405E-06
C:/temp/dataset/3/5_1.odb,Step-1,Increment      1: Step Time =    1.000,"PART-1-1",           469,      -9.98674,      -21.2836,            0.,NA,NA,"",   10.5685E-03,  -10.5671E-03,   170.970E-06,   130.092E-06
C:/temp/dataset/3/5_1.odb,Step-1,Increment      1: Step Time =    1.000,"PART-1-1",           470,      -4.96670,      -26.3491,            0.,NA,NA,"",   8.37782E-03,  -8.34405E-03,  -751.477E-06,   1.50393E-03
C:/temp/dataset/3/5_1.odb,Step-1,Increment      1: Step Time =    1.000,"PART-1-1",           471,      -6.21541,      -25.0985,            0.,NA,NA,"",   9.26546E-03,  -9.26423E-03,  -151.029E-06,   1.16361E-03
C:/temp/dataset/3/5_1.odb,Step-1,Increment      1: Step Time =    1.000,"PART-1-1",           472,      -7.47738,      -26.3212,            0.,NA,NA,"",   6.96291E-03,  -6.96156E-03,  -137.349E-06,   1.12811E-03
C:/temp/dataset/3/5_1.odb,Step-1,Increment      1: Step Time =    1.000,"PART-1-1",           473,      -6.22867,      -27.5719,            0.,NA,NA,"",   5.50316E-03,  -5.48756E-03,  -414.033E-06,   1.48541E-03
C:/temp/dataset/3/5_1.odb,Step-1,Increment      1: Step Time =    1.000,"PART-1-1",           474,   49.7896E-03,      -26.4387,            0.,NA,NA,"",   11.8679E-03,  -10.4117E-03,  -5.69587E-03,   3.20634E-03
C:/temp/dataset/3/5_1.odb,Step-1,Increment      1: Step Time =    1.000,"PART-1-1",           475,       1.24862,      -27.7048,            0.,NA,NA,"",   8.18183E-03,  -6.59111E-03,  -4.84765E-03,   3.48688E-03
C:/temp/dataset/3/5_1.odb,Step-1,Increment      1: Step Time =    1.000,"PART-1-1",           476,       2.52056,      -26.5649,            0.,NA,NA,"",   12.7282E-03,  -8.30520E-03,  -9.64523E-03,   4.68216E-03
C:/temp/dataset/3/5_1.odb,Step-1,Increment      1: Step Time =    1.000,"PART-1-1",           477,       1.32172,      -25.2988,            0.,NA,NA,"",   16.6567E-03,  -13.0327E-03,  -10.3727E-03,   4.27302E-03
C:/temp/dataset/3/5_1.odb,Step-1,Increment      1: Step Time =    1.000,"PART-1-1",           478,        -13.75,          -20.,            0.,NA,NA,"",   11.5037E-03,  -11.3226E-03,  -2.03315E-03,   27.5107E-06
C:/temp/dataset/3/5_1.odb,Step-1,Increment      1: Step Time =    1.000,"PART-1-1",           479,          -15.,        -21.25,            0.,NA,NA,"",   10.8580E-03,  -10.4536E-03,  -2.93562E-03,   23.2331E-06
C:/temp/dataset/3/5_1.odb,Step-1,Increment      1: Step Time =    1.000,"PART-1-1",           480,      -13.7430,      -22.5153,            0.,NA,NA,"",   9.75188E-03,  -9.54098E-03,  -2.01715E-03,   29.2146E-06
C:/temp/dataset/3/5_1.odb,Step-1,Increment      1: Step Time =    1.000,"PART-1-1",           481,      -12.4930,      -21.2653,            0.,NA,NA,"",   10.5199E-03,  -10.4565E-03,  -1.15346E-03,   22.3092E-06
C:/temp/dataset/3/5_1.odb,Step-1,Increment      1: Step Time =    1.000,"PART-1-1",           482,      -11.2297,      -22.5489,            0.,NA,NA,"",   9.64985E-03,  -9.64031E-03,  -428.886E-06,   192.923E-06
C:/temp/dataset/3/5_1.odb,Step-1,Increment      1: Step Time =    1.000,"PART-1-1",           483,        -11.25,          -20.,            0.,NA,NA,"",   11.2208E-03,  -11.2130E-03,  -417.865E-06,   47.9204E-06
C:/temp/dataset/3/5_1.odb,Step-1,Increment      1: Step Time =    1.000,"PART-1-1",           484,      -13.7448,      -25.0201,            0.,NA,NA,"",   7.47053E-03,  -7.22598E-03,  -1.89578E-03,   216.558E-06
C:/temp/dataset/3/5_1.odb,Step-1,Increment      1: Step Time =    1.000,"PART-1-1",           485,      -12.4878,      -23.7854,            0.,NA,NA,"",   8.56379E-03,  -8.49133E-03,  -1.11168E-03,   246.815E-06
C:/temp/dataset/3/5_1.odb,Step-1,Increment      1: Step Time =    1.000,"PART-1-1",           486,          -15.,        -23.75,            0.,NA,NA,"",   9.02199E-03,  -8.49650E-03,  -3.03410E-03,   8.81054E-06
C:/temp/dataset/3/5_1.odb,Step-1,Increment      1: Step Time =    1.000,"PART-1-1",           487,       13.7335,      -27.5520,            0.,NA,NA,"",   17.8342E-03,  -1.10002E-03,   17.8003E-03,   9.35767E-03
C:/temp/dataset/3/5_1.odb,Step-1,Increment      1: Step Time =    1.000,"PART-1-1",           488,       12.4835,      -28.8020,            0.,NA,NA,"",   6.47946E-03,   2.85077E-03,   5.81864E-03,   6.61277E-03
C:/temp/dataset/3/5_1.odb,Step-1,Increment      1: Step Time =    1.000,"PART-1-1",           489,         13.75,          -30.,            0.,NA,NA,"",            0.,   1.36879E-39,   12.3244E-39,   7.10574E-03
C:/temp/dataset/3/5_1.odb,Step-1,Increment      1: Step Time =    1.000,"PART-1-1",           490,           15.,        -28.75,            0.,NA,NA,"",   11.3034E-03,  -5.52902E-03,   9.85883E-03,   9.82463E-03
C:/temp/dataset/3/5_1.odb,Step-1,Increment      1: Step Time =    1.000,"PART-1-1",           491,       9.98010,      -28.8907,            0.,NA,NA,"",   4.97778E-03,   4.67994E-03,   1.69602E-03,   3.50686E-03
C:/temp/dataset/3/5_1.odb,Step-1,Increment      1: Step Time =    1.000,"PART-1-1",           492,       8.70049,      -27.8380,            0.,NA,NA,"",   6.00713E-03,   5.98783E-03,  -481.105E-06,   2.24452E-03
C:/temp/dataset/3/5_1.odb,Step-1,Increment      1: Step Time =    1.000,"PART-1-1",           493,          8.75,          -30.,            0.,NA,NA,"",            0.,   3.23509E-39,   794.463E-42,   3.11640E-03
C:/temp/dataset/3/5_1.odb,Step-1,Increment      1: Step Time =    1.000,"PART-1-1",           494,       11.2136,      -27.6927,            0.,NA,NA,"",   9.61763E-03,   5.64310E-03,   7.78808E-03,   4.99080E-03
C:/temp/dataset/3/5_1.odb,Step-1,Increment      1: Step Time =    1.000,"PART-1-1",           495,       12.3768,      -26.3916,            0.,NA,NA,"",   20.2534E-03,   2.16253E-03,   20.1376E-03,   7.76109E-03
C:/temp/dataset/3/5_1.odb,Step-1,Increment      1: Step Time =    1.000,"PART-1-1",           496,       11.0556,      -25.4315,            0.,NA,NA,"",   15.8920E-03,   3.04868E-03,   15.5969E-03,   5.43989E-03
C:/temp/dataset/3/5_1.odb,Step-1,Increment      1: Step Time =    1.000,"PART-1-1",           497,       9.89242,      -26.7326,            0.,NA,NA,"",   7.88368E-03,   6.50869E-03,   4.44853E-03,   3.33099E-03
C:/temp/dataset/3/5_1.odb,Step-1,Increment      1: Step Time =    1.000,"PART-1-1",           498,   9.79186E-03,      -28.8313,            0.,NA,NA,"",   4.31305E-03,  -3.91509E-03,  -1.80955E-03,   3.02644E-03
C:/temp/dataset/3/5_1.odb,Step-1,Increment      1: Step Time =    1.000,"PART-1-1",           499,          1.25,          -30.,            0.,NA,NA,"",            0.,  -2.01037E-39,  -4.36874E-39,   3.00515E-03
C:/temp/dataset/3/5_1.odb,Step-1,Increment      1: Step Time =    1.000,"PART-1-1",           500,      -1.18061,      -25.1833,            0.,NA,NA,"",   13.6466E-03,  -12.7847E-03,  -4.77287E-03,   2.69790E-03
C:/temp/dataset/3/5_1.odb,Step-1,Increment      1: Step Time =    1.000,"PART-1-1",           501,      -2.45538,      -26.3836,            0.,NA,NA,"",   10.1130E-03,  -9.80931E-03,  -2.45969E-03,   2.14501E-03
C:/temp/dataset/3/5_1.odb,Step-1,Increment      1: Step Time =    1.000,"PART-1-1",           502,      -1.22498,      -27.6390,            0.,NA,NA,"",   7.79786E-03,  -7.32413E-03,  -2.67652E-03,   2.60295E-03
C:/temp/dataset/3/5_1.odb,Step-1,Increment      1: Step Time =    1.000,"PART-1-1",           503,      -3.70005,      -25.1329,            0.,NA,NA,"",   11.0655E-03,  -10.9658E-03,  -1.48187E-03,   1.70260E-03
C:/temp/dataset/3/5_1.odb,Step-1,Increment      1: Step Time =    1.000,"PART-1-1",           504,      -7.49141,      -28.7797,            0.,NA,NA,"",   2.64246E-03,  -2.63305E-03,  -222.797E-06,   1.38271E-03
C:/temp/dataset/3/5_1.odb,Step-1,Increment      1: Step Time =    1.000,"PART-1-1",           505,         -6.25,          -30.,            0.,NA,NA,"",            0.,  -1.60681E-39,  -936.161E-42,   1.74539E-03
C:/temp/dataset/3/5_1.odb,Step-1,Increment      1: Step Time =    1.000,"PART-1-1",           506,      -12.4949,      -26.2800,            0.,NA,NA,"",   5.66318E-03,  -5.59315E-03,  -887.863E-06,   679.639E-06
C:/temp/dataset/3/5_1.odb,Step-1,Increment      1: Step Time =    1.000,"PART-1-1",           507,          -15.,        -26.25,            0.,NA,NA,"",   6.56528E-03,  -5.84673E-03,  -2.98641E-03,   303.297E-06
C:/temp/dataset/3/5_1.odb,Step-1,Increment      1: Step Time =    1.000,"PART-1-1",           508,       12.0036,      -23.8365,            0.,NA,NA,"",   33.7262E-03,  -6.54923E-03,   33.0842E-03,   7.98316E-03
C:/temp/dataset/3/5_1.odb,Step-1,Increment      1: Step Time =    1.000,"PART-1-1",           509,       13.6432,      -25.0896,            0.,NA,NA,"",   39.6165E-03,  -6.56648E-03,   39.0685E-03,   10.6758E-03
C:/temp/dataset/3/5_1.odb,Step-1,Increment      1: Step Time =    1.000,"PART-1-1",           510,           15.,        -23.75,            0.,NA,NA,"",   68.3502E-03,  -22.1630E-03,   64.6572E-03,   14.9675E-03
C:/temp/dataset/3/5_1.odb,Step-1,Increment      1: Step Time =    1.000,"PART-1-1",           511,         11.25,          -30.,            0.,NA,NA,"",            0.,   3.31867E-39,   7.11531E-39,   4.70210E-03
C:/temp/dataset/3/5_1.odb,Step-1,Increment      1: Step Time =    1.000,"PART-1-1",           512,       13.9281,      -14.6298,            0.,NA,NA,"",   282.571E-03,  -225.563E-03,   170.200E-03,   14.6839E-03
C:/temp/dataset/3/5_1.odb,Step-1,Increment      1: Step Time =    1.000,"PART-1-1",           513,       12.2657,      -15.3468,            0.,NA,NA,"",   213.446E-03,  -187.645E-03,   101.729E-03,   8.72662E-03
C:/temp/dataset/3/5_1.odb,Step-1,Increment      1: Step Time =    1.000,"PART-1-1",           514,           15.,        -16.25,            0.,NA,NA,"",   254.127E-03,  -173.841E-03,   185.365E-03,   19.0873E-03
C:/temp/dataset/3/5_1.odb,Step-1,Increment      1: Step Time =    1.000,"PART-1-1",           515,       7.13425,      -14.5121,            0.,NA,NA,"",   234.851E-03,  -217.411E-03,  -88.8115E-03,   10.9602E-03
C:/temp/dataset/3/5_1.odb,Step-1,Increment      1: Step Time =    1.000,"PART-1-1",           516,       6.81531,      -16.2905,            0.,NA,NA,"",   170.143E-03,  -149.710E-03,  -80.8429E-03,   12.2986E-03
C:/temp/dataset/3/5_1.odb,Step-1,Increment      1: Step Time =    1.000,"PART-1-1",           517,       8.10983,      -17.0757,            0.,NA,NA,"",   124.178E-03,  -119.419E-03,  -34.0506E-03,   7.34696E-03
C:/temp/dataset/3/5_1.odb,Step-1,Increment      1: Step Time =    1.000,"PART-1-1",           518,       13.8641,      -7.41825,            0.,NA,NA,"",   648.623E-03,  -601.630E-03,   242.389E-03,   11.5908E-03
C:/temp/dataset/3/5_1.odb,Step-1,Increment      1: Step Time =    1.000,"PART-1-1",           519,       13.0286,      -8.63342,            0.,NA,NA,"",   553.161E-03,  -521.546E-03,   184.326E-03,   9.70956E-03
C:/temp/dataset/3/5_1.odb,Step-1,Increment      1: Step Time =    1.000,"PART-1-1",           520,       14.1645,      -9.96517,            0.,NA,NA,"",   509.824E-03,  -452.321E-03,   235.216E-03,   13.6669E-03
C:/temp/dataset/3/5_1.odb,Step-1,Increment      1: Step Time =    1.000,"PART-1-1",           521,           15.,         -8.75,            0.,NA,NA,"",   606.133E-03,  -528.999E-03,   295.901E-03,   15.6653E-03
C:/temp/dataset/3/5_1.odb,Step-1,Increment      1: Step Time =    1.000,"PART-1-1",           522,       12.0251,      -10.9831,            0.,NA,NA,"",   401.939E-03,  -384.392E-03,   117.465E-03,   7.15458E-03
C:/temp/dataset/3/5_1.odb,Step-1,Increment      1: Step Time =    1.000,"PART-1-1",           523,       12.8055,      -11.9581,            0.,NA,NA,"",   369.860E-03,  -338.594E-03,   148.830E-03,   9.85420E-03
C:/temp/dataset/3/5_1.odb,Step-1,Increment      1: Step Time =    1.000,"PART-1-1",           524,       13.3751,      -11.0455,            0.,NA,NA,"",   429.739E-03,  -388.444E-03,   183.812E-03,   11.4923E-03
C:/temp/dataset/3/5_1.odb,Step-1,Increment      1: Step Time =    1.000,"PART-1-1",           525,       12.5947,      -10.0706,            0.,NA,NA,"",   461.916E-03,  -436.408E-03,   151.376E-03,   8.72733E-03
C:/temp/dataset/3/5_1.odb,Step-1,Increment      1: Step Time =    1.000,"PART-1-1",           526,       11.4853,  -434.223E-03,            0.,NA,NA,"",       1.09140,      -1.08604,   107.974E-03,   3.50524E-03
C:/temp/dataset/3/5_1.odb,Step-1,Increment      1: Step Time =    1.000,"PART-1-1",           527,       10.5886,      -1.82652,            0.,NA,NA,"",   978.014E-03,  -977.004E-03,   44.4464E-03,   3.20137E-03
C:/temp/dataset/3/5_1.odb,Step-1,Increment      1: Step Time =    1.000,"PART-1-1",           528,       11.9063,      -2.70193,            0.,NA,NA,"",   926.348E-03,  -916.148E-03,   137.095E-03,   5.23240E-03
C:/temp/dataset/3/5_1.odb,Step-1,Increment      1: Step Time =    1.000,"PART-1-1",           529,       14.1300,       7.44597,            0.,NA,NA,"",       1.77858,      -1.74768,   330.088E-03,   6.76956E-03
C:/temp/dataset/3/5_1.odb,Step-1,Increment      1: Step Time =    1.000,"PART-1-1",           530,       13.1865,       6.25975,            0.,NA,NA,"",       1.65686,      -1.63831,   247.238E-03,   5.48955E-03
C:/temp/dataset/3/5_1.odb,Step-1,Increment      1: Step Time =    1.000,"PART-1-1",           531,           15.,          6.25,            0.,NA,NA,"",       1.69779,      -1.64969,   401.274E-03,   8.35386E-03
C:/temp/dataset/3/5_1.odb,Step-1,Increment      1: Step Time =    1.000,"PART-1-1",           532,       12.4155,       5.33720,            0.,NA,NA,"",       1.56566,      -1.55507,   181.746E-03,   4.45526E-03
C:/temp/dataset/3/5_1.odb,Step-1,Increment      1: Step Time =    1.000,"PART-1-1",           533,       11.2733,       3.54111,            0.,NA,NA,"",       1.40294,      -1.40013,   88.7037E-03,   2.74182E-03
C:/temp/dataset/3/5_1.odb,Step-1,Increment      1: Step Time =    1.000,"PART-1-1",           534,       12.2480,       13.5548,            0.,NA,NA,"",       2.30570,      -2.30019,   159.395E-03,   3.04791E-03
C:/temp/dataset/3/5_1.odb,Step-1,Increment      1: Step Time =    1.000,"PART-1-1",           535,           15.,         13.75,            0.,NA,NA,"",       2.37355,      -2.33634,   418.637E-03,   5.67793E-03
C:/temp/dataset/3/5_1.odb,Step-1,Increment      1: Step Time =    1.000,"PART-1-1",           536,       13.6600,       14.9734,            0.,NA,NA,"",       2.46298,      -2.44583,   290.151E-03,   3.83560E-03
C:/temp/dataset/3/5_1.odb,Step-1,Increment      1: Step Time =    1.000,"PART-1-1",           537,       8.15326,       10.4556,            0.,NA,NA,"",       2.00034,      -1.99014,  -201.695E-03,   3.15646E-03
C:/temp/dataset/3/5_1.odb,Step-1,Increment      1: Step Time =    1.000,"PART-1-1",           538,       12.3824,       21.2920,            0.,NA,NA,"",       3.07250,      -3.06899,   146.831E-03,   2.03819E-03
C:/temp/dataset/3/5_1.odb,Step-1,Increment      1: Step Time =    1.000,"PART-1-1",           539,       13.6892,       20.0188,            0.,NA,NA,"",       2.96069,      -2.94730,   281.241E-03,   2.19374E-03
C:/temp/dataset/3/5_1.odb,Step-1,Increment      1: Step Time =    1.000,"PART-1-1",           540,           15.,         21.25,            0.,NA,NA,"",       3.10684,      -3.07983,   408.760E-03,   2.31115E-03
C:/temp/dataset/3/5_1.odb,Step-1,Increment      1: Step Time =    1.000,"PART-1-1",           541,       13.6932,       22.5232,            0.,NA,NA,"",       3.21352,      -3.20197,   272.283E-03,   1.81672E-03
C:/temp/dataset/3/5_1.odb,Step-1,Increment      1: Step Time =    1.000,"PART-1-1",           542,       9.77662,       16.3041,            0.,NA,NA,"",       2.55704,      -2.55565,  -84.2656E-03,   2.06212E-03
C:/temp/dataset/3/5_1.odb,Step-1,Increment      1: Step Time =    1.000,"PART-1-1",           543,       11.0318,       15.0036,            0.,NA,NA,"",       2.43442,      -2.43408,   40.7109E-03,   2.11365E-03
C:/temp/dataset/3/5_1.odb,Step-1,Increment      1: Step Time =    1.000,"PART-1-1",           544,       12.3430,       16.2301,            0.,NA,NA,"",       2.56630,      -2.56123,   161.344E-03,   2.65570E-03
C:/temp/dataset/3/5_1.odb,Step-1,Increment      1: Step Time =    1.000,"PART-1-1",           545,         13.75,           30.,            0.,NA,NA,"",       3.96744,      -3.95985,   245.289E-03,   1.00238E-03
C:/temp/dataset/3/5_1.odb,Step-1,Increment      1: Step Time =    1.000,"PART-1-1",           546,       12.4862,       28.7548,            0.,NA,NA,"",       3.82901,      -3.82700,   124.083E-03,   965.886E-06
C:/temp/dataset/3/5_1.odb,Step-1,Increment      1: Step Time =    1.000,"PART-1-1",           547,           15.,         28.75,            0.,NA,NA,"",       3.85988,      -3.84145,   376.800E-03,   1.00658E-03
C:/temp/dataset/3/5_1.odb,Step-1,Increment      1: Step Time =    1.000,"PART-1-1",           548,       12.4064,       23.7898,            0.,NA,NA,"",       3.32645,      -3.32356,   138.502E-03,   1.79655E-03
C:/temp/dataset/3/5_1.odb,Step-1,Increment      1: Step Time =    1.000,"PART-1-1",           549,           15.,         23.75,            0.,NA,NA,"",       3.35948,      -3.33564,   399.536E-03,   1.52599E-03
C:/temp/dataset/3/5_1.odb,Step-1,Increment      1: Step Time =    1.000,"PART-1-1",           550,       9.91541,       26.3072,            0.,NA,NA,"",       3.56733,      -3.56526,  -121.520E-03,   1.06864E-03
C:/temp/dataset/3/5_1.odb,Step-1,Increment      1: Step Time =    1.000,"PART-1-1",           551,       11.1537,       25.0565,            0.,NA,NA,"",       3.44529,      -3.44528,   7.91825E-03,   1.36564E-03
C:/temp/dataset/3/5_1.odb,Step-1,Increment      1: Step Time =    1.000,"PART-1-1",           552,       11.2110,       27.5221,            0.,NA,NA,"",       3.69532,      -3.69532,   2.08143E-03,   899.834E-06
C:/temp/dataset/3/5_1.odb,Step-1,Increment      1: Step Time =    1.000,"PART-1-1",           553,       8.69233,       27.5515,            0.,NA,NA,"",       3.69288,      -3.68443,  -249.734E-03,   710.687E-06
C:/temp/dataset/3/5_1.odb,Step-1,Increment      1: Step Time =    1.000,"PART-1-1",           554,       7.41297,       26.3376,            0.,NA,NA,"",       3.57457,      -3.55523,  -371.368E-03,   737.622E-06
C:/temp/dataset/3/5_1.odb,Step-1,Increment      1: Step Time =    1.000,"PART-1-1",           555,       8.63604,       25.0933,            0.,NA,NA,"",       3.44415,      -3.43558,  -242.893E-03,   1.10920E-03
C:/temp/dataset/3/5_1.odb,Step-1,Increment      1: Step Time =    1.000,"PART-1-1",           556,      -1.26375,       27.5391,            0.,NA,NA,"",       3.84125,      -3.63234,      -1.24955,   34.2346E-06
C:/temp/dataset/3/5_1.odb,Step-1,Increment      1: Step Time =    1.000,"PART-1-1",           557,         -1.25,           30.,            0.,NA,NA,"",       4.07999,      -3.88033,      -1.26071,   47.1550E-06
C:/temp/dataset/3/5_1.odb,Step-1,Increment      1: Step Time =    1.000,"PART-1-1",           558,      -2.50500,       28.7640,            0.,NA,NA,"",       3.99563,      -3.74942,      -1.38089,   21.1506E-06
C:/temp/dataset/3/5_1.odb,Step-1,Increment      1: Step Time =    1.000,"PART-1-1",           559,      -7.50143,       28.7522,            0.,NA,NA,"",       4.17258,      -3.72281,      -1.88443,   1.74119E-06
C:/temp/dataset/3/5_1.odb,Step-1,Increment      1: Step Time =    1.000,"PART-1-1",           560,         -8.75,           30.,            0.,NA,NA,"",       4.33929,      -3.84222,      -2.01662,   331.245E-09
C:/temp/dataset/3/5_1.odb,Step-1,Increment      1: Step Time =    1.000,"PART-1-1",           561,      -6.25460,       27.5081,            0.,NA,NA,"",       4.00727,      -3.60378,      -1.75243,   7.41324E-06
C:/temp/dataset/3/5_1.odb,Step-1,Increment      1: Step Time =    1.000,"PART-1-1",           562,        -13.75,           30.,            0.,NA,NA,"",       4.57393,      -3.81676,      -2.52055,   66.6273E-09
C:/temp/dataset/3/5_1.odb,Step-1,Increment      1: Step Time =    1.000,"PART-1-1",           563,          -15.,         28.75,            0.,NA,NA,"",       4.53270,      -3.68441,      -2.64016,   66.0239E-09
C:/temp/dataset/3/5_1.odb,Step-1,Increment      1: Step Time =    1.000,"PART-1-1",           564,      -13.7509,       27.5010,            0.,NA,NA,"",       4.35868,      -3.56489,      -2.50792,   140.830E-09
C:/temp/dataset/3/5_1.odb,Step-1,Increment      1: Step Time =    1.000,"PART-1-1",           565,          -15.,         26.25,            0.,NA,NA,"",       4.32263,      -3.43245,      -2.62743,   248.222E-09
C:/temp/dataset/3/5_1.odb,Step-1,Increment      1: Step Time =    1.000,"PART-1-1",           566,      -12.5016,       26.2536,            0.,NA,NA,"",       4.18514,      -3.44553,      -2.37565,   125.875E-09
C:/temp/dataset/3/5_1.odb,Step-1,Increment      1: Step Time =    1.000,"PART-1-1",           567,      -7.50093,       21.2547,            0.,NA,NA,"",       3.49467,      -2.96719,      -1.84622,   1.74656E-06
C:/temp/dataset/3/5_1.odb,Step-1,Increment      1: Step Time =    1.000,"PART-1-1",           568,         -6.25,           20.,            0.,NA,NA,"",       3.32309,      -2.84710,      -1.71376,   4.81912E-06
C:/temp/dataset/3/5_1.odb,Step-1,Increment      1: Step Time =    1.000,"PART-1-1",           569,      -4.99978,       21.2574,            0.,NA,NA,"",       3.37978,      -2.98019,      -1.59417,   7.74323E-06
C:/temp/dataset/3/5_1.odb,Step-1,Increment      1: Step Time =    1.000,"PART-1-1",           570,      -3.74911,       22.5208,            0.,NA,NA,"",       3.44539,      -3.11390,      -1.47456,   22.6547E-06
C:/temp/dataset/3/5_1.odb,Step-1,Increment      1: Step Time =    1.000,"PART-1-1",           571,         -3.75,           20.,            0.,NA,NA,"",       3.21176,      -2.85981,      -1.46181,   16.8550E-06
C:/temp/dataset/3/5_1.odb,Step-1,Increment      1: Step Time =    1.000,"PART-1-1",           572,      -2.49933,       21.2634,            0.,NA,NA,"",       3.28064,      -2.99350,      -1.34221,   22.3577E-06
C:/temp/dataset/3/5_1.odb,Step-1,Increment      1: Step Time =    1.000,"PART-1-1",           573,         -1.25,           20.,            0.,NA,NA,"",       3.11686,      -2.87247,      -1.20985,   71.3505E-06
C:/temp/dataset/3/5_1.odb,Step-1,Increment      1: Step Time =    1.000,"PART-1-1",           574,  -2.23348E-03,       21.2694,            0.,NA,NA,"",       3.19844,      -3.00677,      -1.09057,   60.9422E-06
C:/temp/dataset/3/5_1.odb,Step-1,Increment      1: Step Time =    1.000,"PART-1-1",           575,      -1.25156,       22.5328,            0.,NA,NA,"",       3.35842,      -3.12785,      -1.22292,   49.2357E-06
C:/temp/dataset/3/5_1.odb,Step-1,Increment      1: Step Time =    1.000,"PART-1-1",           576,         -3.75,           30.,            0.,NA,NA,"",       4.15295,      -3.86766,      -1.51267,   16.8593E-06
C:/temp/dataset/3/5_1.odb,Step-1,Increment      1: Step Time =    1.000,"PART-1-1",           577,      -5.00318,       28.7559,            0.,NA,NA,"",       4.07708,      -3.73591,      -1.63265,   7.29747E-06
C:/temp/dataset/3/5_1.odb,Step-1,Increment      1: Step Time =    1.000,"PART-1-1",           578,       7.36074,       18.8052,            0.,NA,NA,"",       2.81346,      -2.79373,  -332.575E-03,   2.21535E-03
C:/temp/dataset/3/5_1.odb,Step-1,Increment      1: Step Time =    1.000,"PART-1-1",           579,       8.58169,       17.5494,            0.,NA,NA,"",       2.68159,      -2.67367,  -205.910E-03,   2.06371E-03
C:/temp/dataset/3/5_1.odb,Step-1,Increment      1: Step Time =    1.000,"PART-1-1",           580,       8.60057,       20.0599,            0.,NA,NA,"",       2.93347,      -2.92531,  -218.656E-03,   2.01661E-03
C:/temp/dataset/3/5_1.odb,Step-1,Increment      1: Step Time =    1.000,"PART-1-1",           581,            5.,         18.75,            0.,NA,NA,"",       2.83614,      -2.77908,  -566.052E-03,   3.55315E-03
C:/temp/dataset/3/5_1.odb,Step-1,Increment      1: Step Time =    1.000,"PART-1-1",           582,       6.17685,       17.5255,            0.,NA,NA,"",       2.69796,      -2.66188,  -439.789E-03,   3.06464E-03
C:/temp/dataset/3/5_1.odb,Step-1,Increment      1: Step Time =    1.000,"PART-1-1",           583,       6.18390,       20.0298,            0.,NA,NA,"",       2.94733,      -2.91169,  -456.938E-03,   2.01399E-03
C:/temp/dataset/3/5_1.odb,Step-1,Increment      1: Step Time =    1.000,"PART-1-1",           584,            5.,         16.25,            0.,NA,NA,"",       2.59095,      -2.53306,  -544.646E-03,   4.49826E-03
C:/temp/dataset/3/5_1.odb,Step-1,Increment      1: Step Time =    1.000,"PART-1-1",           585,       6.15340,       15.0385,            0.,NA,NA,"",       2.45515,      -2.41855,  -422.357E-03,   3.93935E-03
C:/temp/dataset/3/5_1.odb,Step-1,Increment      1: Step Time =    1.000,"PART-1-1",           586,       7.33024,       16.3140,            0.,NA,NA,"",       2.56657,      -2.54670,  -318.757E-03,   2.74020E-03
C:/temp/dataset/3/5_1.odb,Step-1,Increment      1: Step Time =    1.000,"PART-1-1",           587,           15.,         16.25,            0.,NA,NA,"",       2.61332,      -2.57962,   418.300E-03,   4.53807E-03
C:/temp/dataset/3/5_1.odb,Step-1,Increment      1: Step Time =    1.000,"PART-1-1",           588,       13.6830,       17.5067,            0.,NA,NA,"",       2.71076,      -2.69545,   287.641E-03,   3.02815E-03
C:/temp/dataset/3/5_1.odb,Step-1,Increment      1: Step Time =    1.000,"PART-1-1",           589,           15.,         18.75,            0.,NA,NA,"",       2.85810,      -2.82783,   414.917E-03,   3.41284E-03
C:/temp/dataset/3/5_1.odb,Step-1,Increment      1: Step Time =    1.000,"PART-1-1",           590,       7.36831,       6.81272,            0.,NA,NA,"",       1.67807,      -1.66016,  -244.521E-03,   3.70203E-03
C:/temp/dataset/3/5_1.odb,Step-1,Increment      1: Step Time =    1.000,"PART-1-1",           591,       6.10412,       7.73110,            0.,NA,NA,"",       1.77582,      -1.73887,  -360.386E-03,   6.76627E-03
C:/temp/dataset/3/5_1.odb,Step-1,Increment      1: Step Time =    1.000,"PART-1-1",           592,            5.,          6.25,            0.,NA,NA,"",       1.66757,      -1.60889,  -438.487E-03,   11.6543E-03
C:/temp/dataset/3/5_1.odb,Step-1,Increment      1: Step Time =    1.000,"PART-1-1",           593,       6.26419,       5.33162,            0.,NA,NA,"",       1.56394,      -1.52987,  -324.653E-03,   6.71227E-03
C:/temp/dataset/3/5_1.odb,Step-1,Increment      1: Step Time =    1.000,"PART-1-1",           594,           15.,          8.75,            0.,NA,NA,"",       1.91438,      -1.86999,   409.893E-03,   7.74493E-03
C:/temp/dataset/3/5_1.odb,Step-1,Increment      1: Step Time =    1.000,"PART-1-1",           595,       13.1418,       8.51598,            0.,NA,NA,"",       1.85266,      -1.83635,   245.314E-03,   5.03057E-03
C:/temp/dataset/3/5_1.odb,Step-1,Increment      1: Step Time =    1.000,"PART-1-1",           596,       6.30252,      -5.49102,            0.,NA,NA,"",   740.901E-03,  -703.973E-03,  -230.991E-03,   9.40455E-03
C:/temp/dataset/3/5_1.odb,Step-1,Increment      1: Step Time =    1.000,"PART-1-1",           597,            5.,         -6.25,            0.,NA,NA,"",   729.075E-03,  -659.567E-03,  -310.679E-03,   17.6140E-03
C:/temp/dataset/3/5_1.odb,Step-1,Increment      1: Step Time =    1.000,"PART-1-1",           598,       6.10325,      -7.87566,            0.,NA,NA,"",   596.675E-03,  -555.903E-03,  -216.777E-03,   12.0703E-03
C:/temp/dataset/3/5_1.odb,Step-1,Increment      1: Step Time =    1.000,"PART-1-1",           599,       7.40577,      -7.11668,            0.,NA,NA,"",   616.727E-03,  -599.493E-03,  -144.778E-03,   6.37698E-03
C:/temp/dataset/3/5_1.odb,Step-1,Increment      1: Step Time =    1.000,"PART-1-1",           600,            5.,         -8.75,            0.,NA,NA,"",   577.080E-03,  -510.814E-03,  -268.496E-03,   15.9676E-03
C:/temp/dataset/3/5_1.odb,Step-1,Increment      1: Step Time =    1.000,"PART-1-1",           601,            5.,        -13.75,            0.,NA,NA,"",   321.142E-03,  -260.744E-03,  -187.469E-03,   17.5332E-03
C:/temp/dataset/3/5_1.odb,Step-1,Increment      1: Step Time =    1.000,"PART-1-1",           602,       5.77894,      -15.1288,            0.,NA,NA,"",   240.619E-03,  -199.759E-03,  -134.140E-03,   15.7154E-03
C:/temp/dataset/3/5_1.odb,Step-1,Increment      1: Step Time =    1.000,"PART-1-1",           603,            5.,        -16.25,            0.,NA,NA,"",   219.017E-03,  -163.483E-03,  -145.745E-03,   19.1480E-03
C:/temp/dataset/3/5_1.odb,Step-1,Increment      1: Step Time =    1.000,"PART-1-1",           604,       2.77244,      -24.0596,            0.,NA,NA,"",   24.1168E-03,  -16.0883E-03,  -17.9662E-03,   6.21804E-03
C:/temp/dataset/3/5_1.odb,Step-1,Increment      1: Step Time =    1.000,"PART-1-1",           605,       3.76359,      -25.5842,            0.,NA,NA,"",   17.5991E-03,  -8.98605E-03,  -15.1320E-03,   5.77917E-03
C:/temp/dataset/3/5_1.odb,Step-1,Increment      1: Step Time =    1.000,"PART-1-1",           606,       5.11162,      -24.8806,            0.,NA,NA,"",   21.0878E-03,  -7.52956E-03,  -19.6978E-03,   7.12753E-03
C:/temp/dataset/3/5_1.odb,Step-1,Increment      1: Step Time =    1.000,"PART-1-1",           607,       4.12047,      -23.3559,            0.,NA,NA,"",   32.3400E-03,  -17.0449E-03,  -27.4837E-03,   8.10140E-03
C:/temp/dataset/3/5_1.odb,Step-1,Increment      1: Step Time =    1.000,"PART-1-1",           608,       8.48587,      -2.76980,            0.,NA,NA,"",   908.509E-03,  -902.970E-03,  -100.163E-03,   4.70577E-03
C:/temp/dataset/3/5_1.odb,Step-1,Increment      1: Step Time =    1.000,"PART-1-1",           609,       9.66601,      -3.38468,            0.,NA,NA,"",   859.078E-03,  -858.928E-03,  -16.0874E-03,   3.50924E-03
C:/temp/dataset/3/5_1.odb,Step-1,Increment      1: Step Time =    1.000,"PART-1-1",           610,       9.40849,      -1.21164,            0.,NA,NA,"",       1.02215,      -1.02129,  -41.8565E-03,   3.11125E-03
C:/temp/dataset/3/5_1.odb,Step-1,Increment      1: Step Time =    1.000,"PART-1-1",           611,       3.88333,            5.,            0.,NA,NA,"",       1.57452,      -1.49612,  -490.644E-03,   4.21399E-03
C:/temp/dataset/3/5_1.odb,Step-1,Increment      1: Step Time =    1.000,"PART-1-1",           612,       3.93709,       2.49951,            0.,NA,NA,"",       1.39125,      -1.30708,  -476.568E-03,   3.89572E-03
C:/temp/dataset/3/5_1.odb,Step-1,Increment      1: Step Time =    1.000,"PART-1-1",           613,       5.14044,       3.62548,            0.,NA,NA,"",       1.45017,      -1.39476,  -397.041E-03,   7.28708E-03
C:/temp/dataset/3/5_1.odb,Step-1,Increment      1: Step Time =    1.000,"PART-1-1",           614,       1.70000,           -5.,            0.,NA,NA,"",   949.695E-03,  -724.521E-03,  -613.994E-03,   940.825E-06
C:/temp/dataset/3/5_1.odb,Step-1,Increment      1: Step Time =    1.000,"PART-1-1",           615,       2.88648,      -4.17028,            0.,NA,NA,"",   949.849E-03,  -793.825E-03,  -521.589E-03,   1.76036E-03
C:/temp/dataset/3/5_1.odb,Step-1,Increment      1: Step Time =    1.000,"PART-1-1",           616,       1.90498,      -3.27989,            0.,NA,NA,"",       1.05064,  -860.219E-03,  -603.223E-03,   1.06541E-03
C:/temp/dataset/3/5_1.odb,Step-1,Increment      1: Step Time =    1.000,"PART-1-1",           617,      -2.82853,       3.20340,            0.,NA,NA,"",       1.66713,      -1.34296,  -987.818E-03,   218.241E-06
C:/temp/dataset/3/5_1.odb,Step-1,Increment      1: Step Time =    1.000,"PART-1-1",           618,      -1.73717,       4.08745,            0.,NA,NA,"",       1.67938,      -1.41341,  -906.955E-03,   291.047E-06
C:/temp/dataset/3/5_1.odb,Step-1,Increment      1: Step Time =    1.000,"PART-1-1",           619,      -2.81667,            5.,            0.,NA,NA,"",       1.78200,      -1.48017,  -992.285E-03,   304.337E-06
C:/temp/dataset/3/5_1.odb,Step-1,Increment      1: Step Time =    1.000,"PART-1-1",           620,      -7.28333,            5.,            0.,NA,NA,"",       1.98361,      -1.46756,      -1.33453,   35.2099E-06
C:/temp/dataset/3/5_1.odb,Step-1,Increment      1: Step Time =    1.000,"PART-1-1",           621,      -11.7000,            5.,            0.,NA,NA,"",       2.21688,      -1.45460,      -1.67293,   539.046E-09
C:/temp/dataset/3/5_1.odb,Step-1,Increment      1: Step Time =    1.000,"PART-1-1",           622,      -11.5540,       2.50359,            0.,NA,NA,"",       2.08189,      -1.26379,      -1.65441,   5.04008E-06
C:/temp/dataset/3/5_1.odb,Step-1,Increment      1: Step Time =    1.000,"PART-1-1",           623,      -8.37698,      -4.01732,            0.,NA,NA,"",       1.59250,  -773.617E-03,      -1.39197,   16.2983E-06
C:/temp/dataset/3/5_1.odb,Step-1,Increment      1: Step Time =    1.000,"PART-1-1",           624,      -10.5279,      -3.86372,            0.,NA,NA,"",       1.74116,  -779.076E-03,      -1.55714,   3.85924E-06
C:/temp/dataset/3/5_1.odb,Step-1,Increment      1: Step Time =    1.000,"PART-1-1",           625,      -9.41667,           -5.,            0.,NA,NA,"",       1.62497,  -695.310E-03,      -1.46870,   6.93860E-06
C:/temp/dataset/3/5_1.odb,Step-1,Increment      1: Step Time =    1.000,"PART-1-1",           626,          3.75,          -20.,            0.,NA,NA,"",   38.2806E-03,  -23.1258E-03,  -30.5057E-03,   12.9573E-03
C:/temp/dataset/3/5_1.odb,Step-1,Increment      1: Step Time =    1.000,"PART-1-1",           627,       2.74072,      -21.3682,            0.,NA,NA,"",   32.7814E-03,  -22.9404E-03,  -23.4171E-03,   5.00966E-03
C:/temp/dataset/3/5_1.odb,Step-1,Increment      1: Step Time =    1.000,"PART-1-1",           628,       4.11640,      -22.1674,            0.,NA,NA,"",   41.6638E-03,  -23.8505E-03,  -34.1618E-03,   10.1086E-03
C:/temp/dataset/3/5_1.odb,Step-1,Increment      1: Step Time =    1.000,"PART-1-1",           629,       5.12568,      -20.7992,            0.,NA,NA,"",   61.3644E-03,  -29.9411E-03,  -53.5641E-03,   17.0126E-03
C:/temp/dataset/3/5_1.odb,Step-1,Increment      1: Step Time =    1.000,"PART-1-1",           630,          1.25,          -20.,            0.,NA,NA,"",   16.9659E-03,  -12.9020E-03,  -11.0172E-03,   2.53274E-03
C:/temp/dataset/3/5_1.odb,Step-1,Increment      1: Step Time =    1.000,"PART-1-1",           631,   73.0809E-03,      -21.3299,            0.,NA,NA,"",   17.4006E-03,  -15.6984E-03,  -7.50616E-03,   1.89207E-03
C:/temp/dataset/3/5_1.odb,Step-1,Increment      1: Step Time =    1.000,"PART-1-1",           632,       1.56380,      -22.6981,            0.,NA,NA,"",   24.5490E-03,  -19.3338E-03,  -15.1280E-03,   5.32640E-03
C:/temp/dataset/3/5_1.odb,Step-1,Increment      1: Step Time =    1.000,"PART-1-1",           633,         -1.25,          -20.,            0.,NA,NA,"",   12.8093E-03,  -12.2273E-03,  -3.81718E-03,   583.580E-06
C:/temp/dataset/3/5_1.odb,Step-1,Increment      1: Step Time =    1.000,"PART-1-1",           634,      -2.46493,      -21.3147,            0.,NA,NA,"",   13.3604E-03,  -13.1981E-03,  -2.07590E-03,   872.051E-06
C:/temp/dataset/3/5_1.odb,Step-1,Increment      1: Step Time =    1.000,"PART-1-1",           635,      -1.14185,      -22.6446,            0.,NA,NA,"",   16.0558E-03,  -15.2658E-03,  -4.97431E-03,   2.23290E-03
C:/temp/dataset/3/5_1.odb,Step-1,Increment      1: Step Time =    1.000,"PART-1-1",           636,         -3.75,          -20.,            0.,NA,NA,"",   11.4262E-03,  -11.4226E-03,  -288.449E-06,   299.490E-06
C:/temp/dataset/3/5_1.odb,Step-1,Increment      1: Step Time =    1.000,"PART-1-1",           637,      -4.97847,      -21.2978,            0.,NA,NA,"",   11.7329E-03,  -11.7293E-03,   292.271E-06,   460.463E-06
C:/temp/dataset/3/5_1.odb,Step-1,Increment      1: Step Time =    1.000,"PART-1-1",           638,      -3.69340,      -22.6125,            0.,NA,NA,"",   12.6857E-03,  -12.6496E-03,  -956.690E-06,   1.14229E-03
C:/temp/dataset/3/5_1.odb,Step-1,Increment      1: Step Time =    1.000,"PART-1-1",           639,      -4.95791,      -23.8547,            0.,NA,NA,"",   11.2274E-03,  -11.2210E-03,  -377.609E-06,   1.09847E-03
C:/temp/dataset/3/5_1.odb,Step-1,Increment      1: Step Time =    1.000,"PART-1-1",           640,      -6.21189,      -22.5887,            0.,NA,NA,"",   11.0832E-03,  -11.0753E-03,   419.537E-06,   688.809E-06
C:/temp/dataset/3/5_1.odb,Step-1,Increment      1: Step Time =    1.000,"PART-1-1",           641,      -7.46939,      -23.8324,            0.,NA,NA,"",   9.74680E-03,  -9.74186E-03,   310.336E-06,   738.543E-06
C:/temp/dataset/3/5_1.odb,Step-1,Increment      1: Step Time =    1.000,"PART-1-1",           642,           15.,        -13.75,            0.,NA,NA,"",   352.902E-03,  -271.186E-03,   225.827E-03,   18.2589E-03
C:/temp/dataset/3/5_1.odb,Step-1,Increment      1: Step Time =    1.000,"PART-1-1",           643,       14.2106,      -12.3304,            0.,NA,NA,"",   391.106E-03,  -329.674E-03,   210.426E-03,   14.8477E-03
C:/temp/dataset/3/5_1.odb,Step-1,Increment      1: Step Time =    1.000,"PART-1-1",           644,       13.1387,      -13.2101,            0.,NA,NA,"",   320.278E-03,  -281.216E-03,   153.282E-03,   11.3179E-03
C:/temp/dataset/3/5_1.odb,Step-1,Increment      1: Step Time =    1.000,"PART-1-1",           645,           15.,        -11.25,            0.,NA,NA,"",   470.441E-03,  -390.182E-03,   262.817E-03,   17.0648E-03
C:/temp/dataset/3/5_1.odb,Step-1,Increment      1: Step Time =    1.000,"PART-1-1",           646,           15.,         -6.25,            0.,NA,NA,"",   758.772E-03,  -685.893E-03,   324.479E-03,   13.9402E-03
C:/temp/dataset/3/5_1.odb,Step-1,Increment      1: Step Time =    1.000,"PART-1-1",           647,       14.0624,      -4.92369,            0.,NA,NA,"",   816.153E-03,  -768.646E-03,   274.388E-03,   10.7084E-03
C:/temp/dataset/3/5_1.odb,Step-1,Increment      1: Step Time =    1.000,"PART-1-1",           648,       12.9264,      -6.09194,            0.,NA,NA,"",   708.769E-03,  -681.822E-03,   193.579E-03,   8.55589E-03
C:/temp/dataset/3/5_1.odb,Step-1,Increment      1: Step Time =    1.000,"PART-1-1",           649,           15.,         -3.75,            0.,NA,NA,"",   926.210E-03,  -858.459E-03,   347.727E-03,   11.9654E-03
C:/temp/dataset/3/5_1.odb,Step-1,Increment      1: Step Time =    1.000,"PART-1-1",           650,       13.0440,      -3.68493,            0.,NA,NA,"",   876.169E-03,  -849.953E-03,   212.728E-03,   7.81583E-03
C:/temp/dataset/3/5_1.odb,Step-1,Increment      1: Step Time =    1.000,"PART-1-1",           651,       8.06094,   477.426E-03,            0.,NA,NA,"",       1.16001,      -1.15019,  -150.592E-03,   3.90873E-03
C:/temp/dataset/3/5_1.odb,Step-1,Increment      1: Step Time =    1.000,"PART-1-1",           652,       8.76493,       2.31856,            0.,NA,NA,"",       1.29872,      -1.29433,  -106.706E-03,   2.26900E-03
C:/temp/dataset/3/5_1.odb,Step-1,Increment      1: Step Time =    1.000,"PART-1-1",           653,       6.73548,       2.80805,            0.,NA,NA,"",       1.35762,      -1.33086,  -268.218E-03,   4.88599E-03
C:/temp/dataset/3/5_1.odb,Step-1,Increment      1: Step Time =    1.000,"PART-1-1",           654,       6.03149,   966.916E-03,            0.,NA,NA,"",       1.22797,      -1.18869,  -308.113E-03,   5.82960E-03
C:/temp/dataset/3/5_1.odb,Step-1,Increment      1: Step Time =    1.000,"PART-1-1",           655,            5.,          8.75,            0.,NA,NA,"",       1.88900,      -1.82950,  -470.387E-03,   8.08442E-03
C:/temp/dataset/3/5_1.odb,Step-1,Increment      1: Step Time =    1.000,"PART-1-1",           656,       7.16919,       9.14751,            0.,NA,NA,"",       1.88871,      -1.86783,  -280.051E-03,   4.66253E-03
C:/temp/dataset/3/5_1.odb,Step-1,Increment      1: Step Time =    1.000,"PART-1-1",           657,          3.75,           30.,            0.,NA,NA,"",       3.97807,      -3.90533,  -757.259E-03,   81.6304E-06
C:/temp/dataset/3/5_1.odb,Step-1,Increment      1: Step Time =    1.000,"PART-1-1",           658,       3.71036,       27.5731,            0.,NA,NA,"",       3.73683,      -3.66102,  -748.859E-03,   125.277E-06
C:/temp/dataset/3/5_1.odb,Step-1,Increment      1: Step Time =    1.000,"PART-1-1",           659,       7.38617,       23.8490,            0.,NA,NA,"",       3.32304,      -3.30341,  -360.671E-03,   1.22610E-03
C:/temp/dataset/3/5_1.odb,Step-1,Increment      1: Step Time =    1.000,"PART-1-1",           660,       6.16255,       25.1024,            0.,NA,NA,"",       3.45911,      -3.42425,  -489.857E-03,   677.576E-06
C:/temp/dataset/3/5_1.odb,Step-1,Increment      1: Step Time =    1.000,"PART-1-1",           661,       4.93576,       23.8439,            0.,NA,NA,"",       3.34661,      -3.29129,  -606.000E-03,   598.268E-06
C:/temp/dataset/3/5_1.odb,Step-1,Increment      1: Step Time =    1.000,"PART-1-1",           662,       6.15938,       22.5905,            0.,NA,NA,"",       3.20598,      -3.17046,  -475.948E-03,   1.15303E-03
C:/temp/dataset/3/5_1.odb,Step-1,Increment      1: Step Time =    1.000,"PART-1-1",           663,      -10.0017,       23.7560,            0.,NA,NA,"",       3.83903,      -3.20654,      -2.11098,   647.351E-09
C:/temp/dataset/3/5_1.odb,Step-1,Increment      1: Step Time =    1.000,"PART-1-1",           664,      -8.75135,       22.5073,            0.,NA,NA,"",       3.66672,      -3.08706,      -1.97861,   1.97333E-06
C:/temp/dataset/3/5_1.odb,Step-1,Increment      1: Step Time =    1.000,"PART-1-1",           665,      -10.0004,       21.2526,            0.,NA,NA,"",       3.62348,      -2.95425,      -2.09811,   206.052E-09
C:/temp/dataset/3/5_1.odb,Step-1,Increment      1: Step Time =    1.000,"PART-1-1",           666,      -11.2505,       22.5043,            0.,NA,NA,"",       3.79798,      -3.07403,      -2.23047,   225.236E-09
C:/temp/dataset/3/5_1.odb,Step-1,Increment      1: Step Time =    1.000,"PART-1-1",           667,        -11.25,           20.,            0.,NA,NA,"",       3.58884,      -2.82165,      -2.21767,   225.132E-09
C:/temp/dataset/3/5_1.odb,Step-1,Increment      1: Step Time =    1.000,"PART-1-1",           668,         -8.75,           20.,            0.,NA,NA,"",       3.44930,      -2.83437,      -1.96571,   201.323E-09
C:/temp/dataset/3/5_1.odb,Step-1,Increment      1: Step Time =    1.000,"PART-1-1",           669,       7.37456,       21.3253,            0.,NA,NA,"",       3.06743,      -3.04774,  -347.050E-03,   1.94358E-03
C:/temp/dataset/3/5_1.odb,Step-1,Increment      1: Step Time =    1.000,"PART-1-1",           670,      -1.26076,       25.0501,            0.,NA,NA,"",       3.60059,      -3.38157,      -1.23662,   42.5330E-06
C:/temp/dataset/3/5_1.odb,Step-1,Increment      1: Step Time =    1.000,"PART-1-1",           671,      -2.50213,       23.7814,            0.,NA,NA,"",       3.51881,      -3.24734,      -1.35530,   27.9185E-06
C:/temp/dataset/3/5_1.odb,Step-1,Increment      1: Step Time =    1.000,"PART-1-1",           672,          1.25,           20.,            0.,NA,NA,"",       3.03977,      -2.88495,  -957.748E-03,   132.350E-06
C:/temp/dataset/3/5_1.odb,Step-1,Increment      1: Step Time =    1.000,"PART-1-1",           673,            5.,         13.75,            0.,NA,NA,"",       2.35050,      -2.29187,  -521.748E-03,   5.57666E-03
C:/temp/dataset/3/5_1.odb,Step-1,Increment      1: Step Time =    1.000,"PART-1-1",           674,       7.85923,       4.51418,            0.,NA,NA,"",       1.47997,      -1.46769,  -190.260E-03,   2.77576E-03
C:/temp/dataset/3/5_1.odb,Step-1,Increment      1: Step Time =    1.000,"PART-1-1",           675,       9.45843,       7.45797,            0.,NA,NA,"",       1.72525,      -1.72378,  -71.3035E-03,   1.80097E-03
C:/temp/dataset/3/5_1.odb,Step-1,Increment      1: Step Time =    1.000,"PART-1-1",           676,       11.3500,       8.04392,            0.,NA,NA,"",       1.78640,      -1.78415,   89.6145E-03,   2.86729E-03
C:/temp/dataset/3/5_1.odb,Step-1,Increment      1: Step Time =    1.000,"PART-1-1",           677,       10.2386,       8.70699,            0.,NA,NA,"",       1.83822,      -1.83820,  -8.54637E-03,   1.98461E-03
C:/temp/dataset/3/5_1.odb,Step-1,Increment      1: Step Time =    1.000,"PART-1-1",           678,   133.314E-03,       2.02047,            0.,NA,NA,"",       1.47197,      -1.26165,  -758.258E-03,   260.224E-06
C:/temp/dataset/3/5_1.odb,Step-1,Increment      1: Step Time =    1.000,"PART-1-1",           679,       2.26054,       1.70692,            0.,NA,NA,"",       1.37899,      -1.24344,  -596.207E-03,   1.60096E-03
C:/temp/dataset/3/5_1.odb,Step-1,Increment      1: Step Time =    1.000,"PART-1-1",           680,  -583.333E-03,            5.,            0.,NA,NA,"",       1.69790,      -1.48581,  -821.725E-03,   693.204E-06
C:/temp/dataset/3/5_1.odb,Step-1,Increment      1: Step Time =    1.000,"PART-1-1",           681,  -713.179E-03,       3.09316,            0.,NA,NA,"",       1.57462,      -1.34070,  -825.813E-03,   230.792E-06
C:/temp/dataset/3/5_1.odb,Step-1,Increment      1: Step Time =    1.000,"PART-1-1",           682,      -10.2084,       1.19941,            0.,NA,NA,"",       1.93872,      -1.16785,      -1.54750,   11.5086E-06
C:/temp/dataset/3/5_1.odb,Step-1,Increment      1: Step Time =    1.000,"PART-1-1",           683,      -7.18333,           -5.,            0.,NA,NA,"",       1.47531,  -701.841E-03,      -1.29768,   35.2162E-06
C:/temp/dataset/3/5_1.odb,Step-1,Increment      1: Step Time =    1.000,"PART-1-1",           684,      -7.36178,      -2.99006,            0.,NA,NA,"",       1.57057,  -855.289E-03,      -1.31726,   50.8322E-06
C:/temp/dataset/3/5_1.odb,Step-1,Increment      1: Step Time =    1.000,"PART-1-1",           685,      -11.3125,  -91.5578E-03,            0.,NA,NA,"",       1.94605,      -1.06571,      -1.62830,   8.97366E-06
C:/temp/dataset/3/5_1.odb,Step-1,Increment      1: Step Time =    1.000,"PART-1-1",           686,      -11.6500,           -5.,            0.,NA,NA,"",       1.77852,  -688.750E-03,      -1.63974,   654.436E-09
C:/temp/dataset/3/5_1.odb,Step-1,Increment      1: Step Time =    1.000,"PART-1-1",           687,      -11.6245,      -2.63993,            0.,NA,NA,"",       1.86046,  -869.593E-03,      -1.64472,   4.51098E-06
C:/temp/dataset/3/5_1.odb,Step-1,Increment      1: Step Time =    1.000,"PART-1-1",           688,      -1.03706,       1.18772,            0.,NA,NA,"",       1.46331,      -1.19468,  -844.990E-03,   217.067E-06
C:/temp/dataset/3/5_1.odb,Step-1,Increment      1: Step Time =    1.000,"PART-1-1",           689,      -2.26684,   407.252E-03,            0.,NA,NA,"",       1.46876,      -1.13117,  -936.870E-03,   247.181E-06
C:/temp/dataset/3/5_1.odb,Step-1,Increment      1: Step Time =    1.000,"PART-1-1",           690,      -1.61706,  -775.207E-03,            0.,NA,NA,"",       1.36674,      -1.04258,  -883.747E-03,   235.942E-06
C:/temp/dataset/3/5_1.odb,Step-1,Increment      1: Step Time =    1.000,"PART-1-1",           691,      -4.44627,  -189.662E-03,            0.,NA,NA,"",       1.54214,      -1.07868,      -1.10210,   167.740E-06
C:/temp/dataset/3/5_1.odb,Step-1,Increment      1: Step Time =    1.000,"PART-1-1",           692,      -3.83065,   850.686E-03,            0.,NA,NA,"",       1.57011,      -1.16023,      -1.05788,   180.378E-06
C:/temp/dataset/3/5_1.odb,Step-1,Increment      1: Step Time =    1.000,"PART-1-1",           693,      -5.38306,   384.196E-03,            0.,NA,NA,"",       1.62347,      -1.11978,      -1.17548,   116.036E-06
C:/temp/dataset/3/5_1.odb,Step-1,Increment      1: Step Time =    1.000,"PART-1-1",           694,       3.90000,           -5.,            0.,NA,NA,"",   851.395E-03,  -731.324E-03,  -435.935E-03,   4.86278E-03
C:/temp/dataset/3/5_1.odb,Step-1,Increment      1: Step Time =    1.000,"PART-1-1",           695,       5.25667,      -4.01677,            0.,NA,NA,"",   874.561E-03,  -812.283E-03,  -324.119E-03,   10.0636E-03
C:/temp/dataset/3/5_1.odb,Step-1,Increment      1: Step Time =    1.000,"PART-1-1",           696,       4.24316,      -3.18705,            0.,NA,NA,"",   967.376E-03,  -873.993E-03,  -414.672E-03,   5.05984E-03
C:/temp/dataset/3/5_1.odb,Step-1,Increment      1: Step Time =    1.000,"PART-1-1",           697,       9.51721,      -4.82762,            0.,NA,NA,"",   755.176E-03,  -754.860E-03,  -21.8318E-03,   3.47289E-03
C:/temp/dataset/3/5_1.odb,Step-1,Increment      1: Step Time =    1.000,"PART-1-1",           698,       8.04384,      -4.93500,            0.,NA,NA,"",   753.880E-03,  -744.541E-03,  -118.295E-03,   5.10791E-03
C:/temp/dataset/3/5_1.odb,Step-1,Increment      1: Step Time =    1.000,"PART-1-1",           699,       8.61490,      -6.56470,            0.,NA,NA,"",   639.848E-03,  -635.685E-03,  -72.8725E-03,   3.29976E-03
C:/temp/dataset/3/5_1.odb,Step-1,Increment      1: Step Time =    1.000,"PART-1-1",           700,       10.0883,      -6.45732,            0.,NA,NA,"",   645.806E-03,  -645.571E-03,   17.4269E-03,   3.00050E-03
C:/temp/dataset/3/5_1.odb,Step-1,Increment      1: Step Time =    1.000,"PART-1-1",           701,       9.29828,      -8.00429,            0.,NA,NA,"",   546.552E-03,  -545.919E-03,  -26.3005E-03,   2.55188E-03
C:/temp/dataset/3/5_1.odb,Step-1,Increment      1: Step Time =    1.000,"PART-1-1",           702,       6.27674,      -21.4047,            0.,NA,NA,"",   46.6849E-03,  -22.1315E-03,  -41.1057E-03,   9.90162E-03
C:/temp/dataset/3/5_1.odb,Step-1,Increment      1: Step Time =    1.000,"PART-1-1",           703,       7.27122,      -20.3583,            0.,NA,NA,"",   48.6793E-03,  -33.7614E-03,  -35.0691E-03,   6.82112E-03
C:/temp/dataset/3/5_1.odb,Step-1,Increment      1: Step Time =    1.000,"PART-1-1",           704,         -6.25,          -20.,            0.,NA,NA,"",   11.2367E-03,  -11.2086E-03,   793.244E-06,   91.9264E-06
C:/temp/dataset/3/5_1.odb,Step-1,Increment      1: Step Time =    1.000,"PART-1-1",           705,         -1.25,          -30.,            0.,NA,NA,"",            0.,  -2.31818E-39,  -2.92255E-39,   2.77650E-03
C:/temp/dataset/3/5_1.odb,Step-1,Increment      1: Step Time =    1.000,"PART-1-1",           706,       8.60683,      -25.8105,            0.,NA,NA,"",   5.24965E-03,   4.43494E-03,  -2.80894E-03,   2.90840E-03
C:/temp/dataset/3/5_1.odb,Step-1,Increment      1: Step Time =    1.000,"PART-1-1",           707,       7.41490,      -26.9159,            0.,NA,NA,"",   6.99520E-03,   3.94926E-03,  -5.77375E-03,   3.69478E-03
C:/temp/dataset/3/5_1.odb,Step-1,Increment      1: Step Time =    1.000,"PART-1-1",           708,       6.17638,      -25.8614,            0.,NA,NA,"",   13.1832E-03,  -1.15606E-03,  -13.1324E-03,   4.91875E-03
C:/temp/dataset/3/5_1.odb,Step-1,Increment      1: Step Time =    1.000,"PART-1-1",           709,       7.37219,      -25.0876,            0.,NA,NA,"",   11.8694E-03,   143.639E-06,  -11.8685E-03,   4.86900E-03
C:/temp/dataset/3/5_1.odb,Step-1,Increment      1: Step Time =    1.000,"PART-1-1",           710,       6.30743,      -24.1068,            0.,NA,NA,"",   22.7984E-03,  -6.72276E-03,  -21.7847E-03,   6.16731E-03
C:/temp/dataset/3/5_1.odb,Step-1,Increment      1: Step Time =    1.000,"PART-1-1",           711,   113.079E-03,      -23.9373,            0.,NA,NA,"",   17.9704E-03,  -15.7819E-03,  -8.59465E-03,   3.41725E-03
C:/temp/dataset/3/5_1.odb,Step-1,Increment      1: Step Time =    1.000,"PART-1-1",           712,      -2.43554,      -23.8906,            0.,NA,NA,"",   13.6309E-03,  -13.3431E-03,  -2.78633E-03,   1.71146E-03
C:/temp/dataset/3/5_1.odb,Step-1,Increment      1: Step Time =    1.000,"PART-1-1",           713,      -8.72529,      -25.0755,            0.,NA,NA,"",   7.98075E-03,  -7.98045E-03,   68.6105E-06,   831.844E-06
C:/temp/dataset/3/5_1.odb,Step-1,Increment      1: Step Time =    1.000,"PART-1-1",           714,      -9.97606,      -23.8175,            0.,NA,NA,"",   8.82989E-03,  -8.82989E-03,  -2.92791E-06,   487.229E-06
C:/temp/dataset/3/5_1.odb,Step-1,Increment      1: Step Time =    1.000,"PART-1-1",           715,      -9.99641,      -28.7682,            0.,NA,NA,"",   2.12383E-03,  -2.11583E-03,  -184.199E-06,   1.10100E-03
C:/temp/dataset/3/5_1.odb,Step-1,Increment      1: Step Time =    1.000,"PART-1-1",           716,      -11.2465,      -27.5281,            0.,NA,NA,"",   3.91732E-03,  -3.90201E-03,  -345.999E-06,   962.021E-06
C:/temp/dataset/3/5_1.odb,Step-1,Increment      1: Step Time =    1.000,"PART-1-1",           717,        -11.25,          -30.,            0.,NA,NA,"",            0.,  -948.512E-42,  -644.181E-42,   1.03273E-03
C:/temp/dataset/3/5_1.odb,Step-1,Increment      1: Step Time =    1.000,"PART-1-1",           718,         -8.75,          -30.,            0.,NA,NA,"",            0.,  -1.22206E-39,  -590.043E-42,   1.32905E-03
C:/temp/dataset/3/5_1.odb,Step-1,Increment      1: Step Time =    1.000,"PART-1-1",           719,      -8.73783,      -27.5479,            0.,NA,NA,"",   4.50903E-03,  -4.50523E-03,  -185.199E-06,   1.17917E-03
C:/temp/dataset/3/5_1.odb,Step-1,Increment      1: Step Time =    1.000,"PART-1-1",           720,       9.45286,      -20.3748,            0.,NA,NA,"",   38.1525E-03,  -37.8030E-03,   5.15166E-03,   3.20053E-03
C:/temp/dataset/3/5_1.odb,Step-1,Increment      1: Step Time =    1.000,"PART-1-1",           721,       8.38706,      -19.4374,            0.,NA,NA,"",   56.5851E-03,  -53.8141E-03,  -17.4905E-03,   3.94914E-03
C:/temp/dataset/3/5_1.odb,Step-1,Increment      1: Step Time =    1.000,"PART-1-1",           722,       8.33702,      -21.2957,            0.,NA,NA,"",   27.0221E-03,  -22.6361E-03,  -14.7582E-03,   4.55354E-03
C:/temp/dataset/3/5_1.odb,Step-1,Increment      1: Step Time =    1.000,"PART-1-1",           723,       9.34035,      -18.0986,            0.,NA,NA,"",   88.4200E-03,  -88.3699E-03,   2.97577E-03,   2.07199E-03
C:/temp/dataset/3/5_1.odb,Step-1,Increment      1: Step Time =    1.000,"PART-1-1",           724,       10.7511,      -19.4747,            0.,NA,NA,"",   68.2932E-03,  -58.5997E-03,   35.0718E-03,   5.19470E-03
C:/temp/dataset/3/5_1.odb,Step-1,Increment      1: Step Time =    1.000,"PART-1-1",           725,       9.57777,      -9.07511,            0.,NA,NA,"",   482.827E-03,  -482.768E-03,  -7.57534E-03,   2.09795E-03
C:/temp/dataset/3/5_1.odb,Step-1,Increment      1: Step Time =    1.000,"PART-1-1",           726,       10.3854,      -7.79904,            0.,NA,NA,"",   561.903E-03,  -560.738E-03,   36.1656E-03,   3.03396E-03
C:/temp/dataset/3/5_1.odb,Step-1,Increment      1: Step Time =    1.000,"PART-1-1",           727,       11.9371,      -7.89361,            0.,NA,NA,"",   574.638E-03,  -560.696E-03,   125.816E-03,   6.46331E-03
C:/temp/dataset/3/5_1.odb,Step-1,Increment      1: Step Time =    1.000,"PART-1-1",           728,       11.6400,      -6.55190,            0.,NA,NA,"",   654.523E-03,  -644.837E-03,   112.186E-03,   5.81656E-03
C:/temp/dataset/3/5_1.odb,Step-1,Increment      1: Step Time =    1.000,"PART-1-1",           729,       9.29748,       3.92298,            0.,NA,NA,"",       1.42574,      -1.42395,  -71.3795E-03,   618.660E-06
C:/temp/dataset/3/5_1.odb,Step-1,Increment      1: Step Time =    1.000,"PART-1-1",           730,       10.7408,       1.93669,            0.,NA,NA,"",       1.26996,      -1.26902,   48.7886E-03,   1.73385E-03
C:/temp/dataset/3/5_1.odb,Step-1,Increment      1: Step Time =    1.000,"PART-1-1",           731,       12.1175,       9.30164,            0.,NA,NA,"",       1.90759,      -1.90130,   154.866E-03,   3.59003E-03
C:/temp/dataset/3/5_1.odb,Step-1,Increment      1: Step Time =    1.000,"PART-1-1",           732,       12.3743,       7.25826,            0.,NA,NA,"",       1.72952,      -1.72028,   178.544E-03,   4.25693E-03
C:/temp/dataset/3/5_1.odb,Step-1,Increment      1: Step Time =    1.000,"PART-1-1",           733,       9.86952,       23.8294,            0.,NA,NA,"",       3.31561,      -3.31366,  -113.792E-03,   1.59509E-03
C:/temp/dataset/3/5_1.odb,Step-1,Increment      1: Step Time =    1.000,"PART-1-1",           734,       8.61965,       22.5851,            0.,NA,NA,"",       3.18949,      -3.18111,  -231.067E-03,   1.67497E-03
C:/temp/dataset/3/5_1.odb,Step-1,Increment      1: Step Time =    1.000,"PART-1-1",           735,         11.25,           30.,            0.,NA,NA,"",       3.94499,      -3.94499,  -5.66931E-03,   842.799E-06
C:/temp/dataset/3/5_1.odb,Step-1,Increment      1: Step Time =    1.000,"PART-1-1",           736,       9.97488,       28.7673,            0.,NA,NA,"",       3.81604,      -3.81391,  -127.490E-03,   699.813E-06
C:/temp/dataset/3/5_1.odb,Step-1,Increment      1: Step Time =    1.000,"PART-1-1",           737,          8.75,           30.,            0.,NA,NA,"",       3.93924,      -3.93092,  -255.942E-03,   449.239E-06
C:/temp/dataset/3/5_1.odb,Step-1,Increment      1: Step Time =    1.000,"PART-1-1",           738,       3.69885,       25.0915,            0.,NA,NA,"",       3.48974,      -3.41100,  -737.135E-03,   250.260E-06
C:/temp/dataset/3/5_1.odb,Step-1,Increment      1: Step Time =    1.000,"PART-1-1",           739,       4.94207,       26.3392,            0.,NA,NA,"",       3.59659,      -3.54296,  -618.767E-03,   323.494E-06
C:/temp/dataset/3/5_1.odb,Step-1,Increment      1: Step Time =    1.000,"PART-1-1",           740,         -6.25,           30.,            0.,NA,NA,"",       4.23965,      -3.85495,      -1.76465,   4.12065E-06
C:/temp/dataset/3/5_1.odb,Step-1,Increment      1: Step Time =    1.000,"PART-1-1",           741,      -11.2519,       25.0060,            0.,NA,NA,"",       4.01198,      -3.32616,      -2.24335,   454.814E-09
C:/temp/dataset/3/5_1.odb,Step-1,Increment      1: Step Time =    1.000,"PART-1-1",           742,       11.7111,      -12.1867,            0.,NA,NA,"",   336.515E-03,  -322.209E-03,   97.0747E-03,   6.23697E-03
C:/temp/dataset/3/5_1.odb,Step-1,Increment      1: Step Time =    1.000,"PART-1-1",           743,       12.0443,      -13.4388,            0.,NA,NA,"",   285.455E-03,  -265.292E-03,   105.378E-03,   7.63431E-03
C:/temp/dataset/3/5_1.odb,Step-1,Increment      1: Step Time =    1.000,"PART-1-1",           744,       9.07309,      -22.0228,            0.,NA,NA,"",   15.4921E-03,  -15.3360E-03,  -2.19335E-03,   3.81692E-03
C:/temp/dataset/3/5_1.odb,Step-1,Increment      1: Step Time =    1.000,"PART-1-1",           745,       9.10959,      -23.2638,            0.,NA,NA,"",   5.57329E-03,  -5.47394E-03,  -1.04764E-03,   3.98628E-03
C:/temp/dataset/3/5_1.odb,Step-1,Increment      1: Step Time =    1.000,"PART-1-1",           746,       10.5828,      -23.1781,            0.,NA,NA,"",   19.6114E-03,  -7.49968E-03,   18.1207E-03,   5.18702E-03
C:/temp/dataset/3/5_1.odb,Step-1,Increment      1: Step Time =    1.000,"PART-1-1",           747,       10.5463,      -21.9372,            0.,NA,NA,"",   28.6542E-03,  -18.8065E-03,   21.6190E-03,   5.37012E-03
C:/temp/dataset/3/5_1.odb,Step-1,Increment      1: Step Time =    1.000,"PART-1-1",           748,      -1.00841,      -2.00181,            0.,NA,NA,"",       1.26391,  -950.157E-03,  -833.465E-03,   223.722E-06
C:/temp/dataset/3/5_1.odb,Step-1,Increment      1: Step Time =    1.000,"PART-1-1",           749,      -3.17395,      -1.50818,            0.,NA,NA,"",       1.40183,  -981.447E-03,      -1.00094,   204.965E-06
C:/temp/dataset/3/5_1.odb,Step-1,Increment      1: Step Time =    1.000,"PART-1-1",           750,       8.23699,       8.20647,            0.,NA,NA,"",       1.79498,      -1.78594,  -179.900E-03,   3.35547E-03
C:/temp/dataset/3/5_1.odb,Step-1,Increment      1: Step Time =    1.000,"PART-1-1",           751,       8.58975,       6.06422,            0.,NA,NA,"",       1.60581,      -1.59983,  -138.388E-03,   2.01545E-03
C:/temp/dataset/3/5_1.odb,Step-1,Increment      1: Step Time =    1.000,"PART-1-1",           752,       1.04870,      -2.29850,            0.,NA,NA,"",       1.15128,  -933.566E-03,  -673.717E-03,   568.445E-06
C:/temp/dataset/3/5_1.odb,Step-1,Increment      1: Step Time =    1.000,"PART-1-1",           753,      -1.88356,       2.26041,            0.,NA,NA,"",       1.56713,      -1.27388,  -912.765E-03,   226.259E-06
C:/temp/dataset/3/5_1.odb,Step-1,Increment      1: Step Time =    1.000,"PART-1-1",           754,      -2.91638,       1.44829,            0.,NA,NA,"",       1.56212,      -1.20874,  -989.530E-03,   215.763E-06
C:/temp/dataset/3/5_1.odb,Step-1,Increment      1: Step Time =    1.000,"PART-1-1",           755,       3.03453,      -2.52132,            0.,NA,NA,"",       1.05707,  -922.069E-03,  -516.897E-03,   2.76655E-03
C:/temp/dataset/3/5_1.odb,Step-1,Increment      1: Step Time =    1.000,"PART-1-1",           756,       6.99799,      -3.46075,            0.,NA,NA,"",   874.835E-03,  -851.492E-03,  -200.746E-03,   6.51712E-03
C:/temp/dataset/3/5_1.odb,Step-1,Increment      1: Step Time =    1.000,"PART-1-1",           757,       7.63560,  -984.386E-03,            0.,NA,NA,"",       1.05245,      -1.03812,  -173.093E-03,   5.14902E-03
C:/temp/dataset/3/5_1.odb,Step-1,Increment      1: Step Time =    1.000,"PART-1-1",           758,       6.14771,      -1.67534,            0.,NA,NA,"",       1.02556,  -986.940E-03,  -278.774E-03,   6.71969E-03
C:/temp/dataset/3/5_1.odb,Step-1,Increment      1: Step Time =    1.000,"PART-1-1",           759,       4.94795,      -26.8240,            0.,NA,NA,"",   10.7227E-03,  -2.48044E-03,  -10.4319E-03,   5.25095E-03
C:/temp/dataset/3/5_1.odb,Step-1,Increment      1: Step Time =    1.000,"PART-1-1",           760,      -11.2341,      -25.0541,            0.,NA,NA,"",   7.30521E-03,  -7.29017E-03,  -468.484E-06,   560.746E-06
C:/temp/dataset/3/5_1.odb,Step-1,Increment      1: Step Time =    1.000,"PART-1-1",           761,      -9.98574,      -26.3021,            0.,NA,NA,"",   5.99474E-03,  -5.99182E-03,  -187.118E-06,   879.812E-06
C:/temp/dataset/3/5_1.odb,Step-1,Increment      1: Step Time =    1.000,"PART-1-1",           762,           15.,        -26.25,            0.,NA,NA,"",   35.5264E-03,  -9.50712E-03,   34.2307E-03,   12.2619E-03
C:/temp/dataset/3/5_1.odb,Step-1,Increment      1: Step Time =    1.000,"PART-1-1",           763,       9.63478,      -24.7731,            0.,NA,NA,"",   4.98554E-03,   2.12452E-03,   4.51022E-03,   3.74829E-03
C:/temp/dataset/3/5_1.odb,Step-1,Increment      1: Step Time =    1.000,"PART-1-1",           764,       9.83383,   250.169E-03,            0.,NA,NA,"",       1.13447,      -1.13436,  -16.1212E-03,   2.05825E-03
C:/temp/dataset/3/5_1.odb,Step-1,Increment      1: Step Time =    1.000,"PART-1-1",           765,       11.1222,       22.5628,            0.,NA,NA,"",       3.19147,      -3.19142,   16.4891E-03,   1.84444E-03
C:/temp/dataset/3/5_1.odb,Step-1,Increment      1: Step Time =    1.000,"PART-1-1",           766,       9.84566,       21.3197,            0.,NA,NA,"",       3.06034,      -3.05860,  -103.295E-03,   2.03118E-03
C:/temp/dataset/3/5_1.odb,Step-1,Increment      1: Step Time =    1.000,"PART-1-1",           767,      -3.18112,  -190.353E-03,            0.,NA,NA,"",       1.47728,      -1.08254,      -1.00521,   220.984E-06
C:/temp/dataset/3/5_1.odb,Step-1,Increment      1: Step Time =    1.000,"PART-1-1",           768,       4.54417,       1.21940,            0.,NA,NA,"",       1.28029,      -1.20853,  -422.596E-03,   4.93577E-03
C:/temp/dataset/3/5_1.odb,Step-1,Increment      1: Step Time =    1.000,"PART-1-1",           769,       9.22107,       9.51460,            0.,NA,NA,"",       1.91002,      -1.90733,  -101.163E-03,   2.25237E-03
C:/temp/dataset/3/5_1.odb,Step-1,Increment      1: Step Time =    1.000,"PART-1-1",           770,       11.1709,      -3.71800,            0.,NA,NA,"",   843.266E-03,  -838.866E-03,   86.0332E-03,   4.54074E-03
C:/temp/dataset/3/5_1.odb,Step-1,Increment      1: Step Time =    1.000,"PART-1-1",           771,       11.0221,      -5.16095,            0.,NA,NA,"",   739.945E-03,  -736.073E-03,   75.5898E-03,   4.53690E-03
C:/temp/dataset/3/5_1.odb,Step-1,Increment      1: Step Time =    1.000,"PART-1-1",           772,       12.3085,      -4.70099,            0.,NA,NA,"",   790.030E-03,  -773.700E-03,   159.800E-03,   6.75881E-03
C:/temp/dataset/3/5_1.odb,Step-1,Increment      1: Step Time =    1.000,"PART-1-1",           773,       5.03877,      -2.41022,            0.,NA,NA,"",   998.704E-03,  -932.520E-03,  -357.513E-03,   6.81385E-03
C:/temp/dataset/3/5_1.odb,Step-1,Increment      1: Step Time =    1.000,"PART-1-1",           774,       11.0080,       9.74440,            0.,NA,NA,"",       1.93672,      -1.93591,   55.9076E-03,   2.41707E-03
C:/temp/dataset/3/5_1.odb,Step-1,Increment      1: Step Time =    1.000,"PART-1-1",           775,       7.33953,      -23.4839,            0.,NA,NA,"",   20.0088E-03,  -6.51618E-03,  -18.9181E-03,   5.92212E-03
C:/temp/dataset/3/5_1.odb,Step-1,Increment      1: Step Time =    1.000,"PART-1-1",           776,       6.60048,      -22.7490,            0.,NA,NA,"",   31.4107E-03,  -12.8895E-03,  -28.6443E-03,   7.58785E-03
C:/temp/dataset/3/5_1.odb,Step-1,Increment      1: Step Time =    1.000,"PART-1-1",           777,       5.56839,      -23.3719,            0.,NA,NA,"",   31.0406E-03,  -12.4923E-03,  -28.4159E-03,   8.26012E-03
C:/temp/dataset/3/5_1.odb,Step-1,Increment      1: Step Time =    1.000,"PART-1-1",           778,       5.56431,      -22.1833,            0.,NA,NA,"",   42.0755E-03,  -19.5342E-03,  -37.2661E-03,   9.97039E-03
C:/temp/dataset/3/5_1.odb,Step-1,Increment      1: Step Time =    1.000,"PART-1-1",           779,       7.31291,      -21.9704,            0.,NA,NA,"",   31.3282E-03,  -16.1460E-03,  -26.8470E-03,   6.66654E-03
C:/temp/dataset/3/5_1.odb,Step-1,Increment      1: Step Time =    1.000,"PART-1-1",           780,       8.04898,      -22.6975,            0.,NA,NA,"",   17.8819E-03,  -9.71314E-03,  -15.0139E-03,   4.82904E-03
C:/temp/dataset/3/5_1.odb,Step-1,Increment      1: Step Time =    1.000,"PART-1-1",           781,       5.89213,  -472.373E-03,            0.,NA,NA,"",       1.12148,      -1.07844,  -307.691E-03,   5.43212E-03
C:/temp/dataset/3/5_1.odb,Step-1,Increment      1: Step Time =    1.000,"PART-1-1",           782,       8.40014,      -24.0502,            0.,NA,NA,"",   7.75212E-03,  -1.62262E-03,  -7.58040E-03,   3.76986E-03
