ODB Name,Step,Frame,Part Instance Name,    êﬂì_ÉâÉxÉã,X,Y,Z,Section Name,Material Name,Section Point,   U-Magnitude,          U-U1,          U-U2,       S-Mises
C:/temp/dataset/0/10_12.odb,Step-1,Increment      1: Step Time =    1.000,"PART-1-1",             1,            5.,           20.,            0.,NA,NA,"",       5.47979,       5.45408,  -530.157E-03,   27.4459E-03
C:/temp/dataset/0/10_12.odb,Step-1,Increment      1: Step Time =    1.000,"PART-1-1",             2,            0.,           20.,            0.,NA,NA,"",       5.40663,       5.38254,  -509.876E-03,   19.7356E-03
C:/temp/dataset/0/10_12.odb,Step-1,Increment      1: Step Time =    1.000,"PART-1-1",             3,            5.,           10.,            0.,NA,NA,"",       5.02903,       5.02546,  -189.641E-03,   45.4667E-03
C:/temp/dataset/0/10_12.odb,Step-1,Increment      1: Step Time =    1.000,"PART-1-1",             4,            5.,            0.,            0.,NA,NA,"",       3.78003,       3.76851,   294.887E-03,   30.9333E-03
C:/temp/dataset/0/10_12.odb,Step-1,Increment      1: Step Time =    1.000,"PART-1-1",             5,            5.,          -10.,            0.,NA,NA,"",       1.95754,       1.88752,   518.869E-03,   19.2973E-03
C:/temp/dataset/0/10_12.odb,Step-1,Increment      1: Step Time =    1.000,"PART-1-1",             6,            5.,          -20.,            0.,NA,NA,"",   338.231E-03,   281.437E-03,   187.600E-03,   89.4685E-03
C:/temp/dataset/0/10_12.odb,Step-1,Increment      1: Step Time =    1.000,"PART-1-1",             7,            0.,          -20.,            0.,NA,NA,"",   148.364E-03,   148.130E-03,   8.32220E-03,   5.21267E-03
C:/temp/dataset/0/10_12.odb,Step-1,Increment      1: Step Time =    1.000,"PART-1-1",             8,           -5.,          -20.,            0.,NA,NA,"",   225.903E-03,   189.218E-03,  -123.404E-03,   58.4826E-03
C:/temp/dataset/0/10_12.odb,Step-1,Increment      1: Step Time =    1.000,"PART-1-1",             9,           -5.,           20.,            0.,NA,NA,"",       5.24886,       5.22972,  -447.867E-03,   65.7077E-03
C:/temp/dataset/0/10_12.odb,Step-1,Increment      1: Step Time =    1.000,"PART-1-1",            10,           15.,           30.,            0.,NA,NA,"",       5.70161,       5.64856,  -775.978E-03,   173.932E-06
C:/temp/dataset/0/10_12.odb,Step-1,Increment      1: Step Time =    1.000,"PART-1-1",            11,           7.5,           30.,            0.,NA,NA,"",       5.67563,       5.63966,  -638.000E-03,   2.78440E-03
C:/temp/dataset/0/10_12.odb,Step-1,Increment      1: Step Time =    1.000,"PART-1-1",            12,            0.,           30.,            0.,NA,NA,"",       5.68832,       5.66395,  -525.909E-03,   13.6961E-03
C:/temp/dataset/0/10_12.odb,Step-1,Increment      1: Step Time =    1.000,"PART-1-1",            13,          -15.,           30.,            0.,NA,NA,"",       5.87345,       5.86687,   277.830E-03,   833.396E-06
C:/temp/dataset/0/10_12.odb,Step-1,Increment      1: Step Time =    1.000,"PART-1-1",            14,          -15.,          -30.,            0.,NA,NA,"",            0.,   16.7134E-39,   29.2425E-39,   45.9127E-03
C:/temp/dataset/0/10_12.odb,Step-1,Increment      1: Step Time =    1.000,"PART-1-1",            15,           15.,          -30.,            0.,NA,NA,"",            0.,   19.3789E-39,  -37.1848E-39,   61.3691E-03
C:/temp/dataset/0/10_12.odb,Step-1,Increment      1: Step Time =    1.000,"PART-1-1",            16,           15.,         -22.5,            0.,NA,NA,"",   453.349E-03,   235.002E-03,  -387.684E-03,   65.2443E-03
C:/temp/dataset/0/10_12.odb,Step-1,Increment      1: Step Time =    1.000,"PART-1-1",            17,           15.,          -15.,            0.,NA,NA,"",       1.29398,   967.475E-03,  -859.285E-03,   53.2560E-03
C:/temp/dataset/0/10_12.odb,Step-1,Increment      1: Step Time =    1.000,"PART-1-1",            18,           15.,          -7.5,            0.,NA,NA,"",       2.53234,       2.23018,      -1.19959,   14.6446E-03
C:/temp/dataset/0/10_12.odb,Step-1,Increment      1: Step Time =    1.000,"PART-1-1",            19,           15.,            0.,            0.,NA,NA,"",       3.85744,       3.63306,      -1.29643,   24.1413E-03
C:/temp/dataset/0/10_12.odb,Step-1,Increment      1: Step Time =    1.000,"PART-1-1",            20,           15.,           7.5,            0.,NA,NA,"",       4.86597,       4.73313,      -1.12922,   41.8092E-03
C:/temp/dataset/0/10_12.odb,Step-1,Increment      1: Step Time =    1.000,"PART-1-1",            21,           15.,           15.,            0.,NA,NA,"",       5.37859,       5.30159,  -906.831E-03,   27.7337E-03
C:/temp/dataset/0/10_12.odb,Step-1,Increment      1: Step Time =    1.000,"PART-1-1",            22,           15.,          22.5,            0.,NA,NA,"",       5.57663,       5.52029,  -790.638E-03,   7.90104E-03
C:/temp/dataset/0/10_12.odb,Step-1,Increment      1: Step Time =    1.000,"PART-1-1",            23,       3.33333,           20.,            0.,NA,NA,"",       5.46334,       5.43613,  -544.654E-03,   13.6927E-03
C:/temp/dataset/0/10_12.odb,Step-1,Increment      1: Step Time =    1.000,"PART-1-1",            24,       1.66667,           20.,            0.,NA,NA,"",       5.43740,       5.41133,  -531.855E-03,   17.9691E-03
C:/temp/dataset/0/10_12.odb,Step-1,Increment      1: Step Time =    1.000,"PART-1-1",            25,            5.,       13.3333,            0.,NA,NA,"",       5.23002,       5.22043,  -316.556E-03,   38.1196E-03
C:/temp/dataset/0/10_12.odb,Step-1,Increment      1: Step Time =    1.000,"PART-1-1",            26,            5.,       16.6667,            0.,NA,NA,"",       5.38309,       5.36625,  -425.491E-03,   33.3635E-03
C:/temp/dataset/0/10_12.odb,Step-1,Increment      1: Step Time =    1.000,"PART-1-1",            27,            5.,       3.33333,            0.,NA,NA,"",       4.31759,       4.31554,   132.974E-03,   44.5160E-03
C:/temp/dataset/0/10_12.odb,Step-1,Increment      1: Step Time =    1.000,"PART-1-1",            28,            5.,       6.66667,            0.,NA,NA,"",       4.73715,       4.73705,  -31.5616E-03,   49.4275E-03
C:/temp/dataset/0/10_12.odb,Step-1,Increment      1: Step Time =    1.000,"PART-1-1",            29,            5.,      -6.66667,            0.,NA,NA,"",       2.56136,       2.51364,   492.090E-03,   2.52760E-03
C:/temp/dataset/0/10_12.odb,Step-1,Increment      1: Step Time =    1.000,"PART-1-1",            30,            5.,      -3.33333,            0.,NA,NA,"",       3.17381,       3.14648,   415.649E-03,   13.8386E-03
C:/temp/dataset/0/10_12.odb,Step-1,Increment      1: Step Time =    1.000,"PART-1-1",            31,            5.,      -16.6667,            0.,NA,NA,"",   870.818E-03,   772.025E-03,   402.867E-03,   52.5426E-03
C:/temp/dataset/0/10_12.odb,Step-1,Increment      1: Step Time =    1.000,"PART-1-1",            32,            5.,      -13.3333,            0.,NA,NA,"",       1.38709,       1.29875,   487.104E-03,   34.6639E-03
C:/temp/dataset/0/10_12.odb,Step-1,Increment      1: Step Time =    1.000,"PART-1-1",            33,           2.5,          -20.,            0.,NA,NA,"",   176.543E-03,   166.650E-03,   58.2677E-03,   25.0089E-03
C:/temp/dataset/0/10_12.odb,Step-1,Increment      1: Step Time =    1.000,"PART-1-1",            34,          -2.5,          -20.,            0.,NA,NA,"",   147.476E-03,   142.939E-03,  -36.2972E-03,   14.8341E-03
C:/temp/dataset/0/10_12.odb,Step-1,Increment      1: Step Time =    1.000,"PART-1-1",            35,           -5.,       16.9231,            0.,NA,NA,"",       4.86895,       4.83696,  -557.213E-03,   33.9917E-03
C:/temp/dataset/0/10_12.odb,Step-1,Increment      1: Step Time =    1.000,"PART-1-1",            36,           -5.,       13.8462,            0.,NA,NA,"",       4.49507,       4.45347,  -610.113E-03,   25.5405E-03
C:/temp/dataset/0/10_12.odb,Step-1,Increment      1: Step Time =    1.000,"PART-1-1",            37,           -5.,       10.7692,            0.,NA,NA,"",       4.09639,       4.04476,  -648.304E-03,   20.5806E-03
C:/temp/dataset/0/10_12.odb,Step-1,Increment      1: Step Time =    1.000,"PART-1-1",            38,           -5.,       7.69231,            0.,NA,NA,"",       3.67417,       3.61309,  -667.138E-03,   14.7338E-03
C:/temp/dataset/0/10_12.odb,Step-1,Increment      1: Step Time =    1.000,"PART-1-1",            39,           -5.,       4.61538,            0.,NA,NA,"",       3.23645,       3.16680,  -667.838E-03,   8.91915E-03
C:/temp/dataset/0/10_12.odb,Step-1,Increment      1: Step Time =    1.000,"PART-1-1",            40,           -5.,       1.53846,            0.,NA,NA,"",       2.79296,       2.71592,  -651.478E-03,   3.05056E-03
C:/temp/dataset/0/10_12.odb,Step-1,Increment      1: Step Time =    1.000,"PART-1-1",            41,           -5.,      -1.53846,            0.,NA,NA,"",       2.35331,       2.27031,  -619.489E-03,   2.84969E-03
C:/temp/dataset/0/10_12.odb,Step-1,Increment      1: Step Time =    1.000,"PART-1-1",            42,           -5.,      -4.61538,            0.,NA,NA,"",       1.92701,       1.83977,  -573.231E-03,   8.74450E-03
C:/temp/dataset/0/10_12.odb,Step-1,Increment      1: Step Time =    1.000,"PART-1-1",            43,           -5.,      -7.69231,            0.,NA,NA,"",       1.52326,       1.43395,  -513.921E-03,   14.6033E-03
C:/temp/dataset/0/10_12.odb,Step-1,Increment      1: Step Time =    1.000,"PART-1-1",            44,           -5.,      -10.7692,            0.,NA,NA,"",       1.15088,       1.06233,  -442.690E-03,   20.6573E-03
C:/temp/dataset/0/10_12.odb,Step-1,Increment      1: Step Time =    1.000,"PART-1-1",            45,           -5.,      -13.8462,            0.,NA,NA,"",   816.650E-03,   733.120E-03,  -359.794E-03,   25.9782E-03
C:/temp/dataset/0/10_12.odb,Step-1,Increment      1: Step Time =    1.000,"PART-1-1",            46,           -5.,      -16.9231,            0.,NA,NA,"",   521.819E-03,   447.518E-03,  -268.370E-03,   35.7217E-03
C:/temp/dataset/0/10_12.odb,Step-1,Increment      1: Step Time =    1.000,"PART-1-1",            47,          -2.5,           20.,            0.,NA,NA,"",       5.35272,       5.33236,  -466.348E-03,   30.2161E-03
C:/temp/dataset/0/10_12.odb,Step-1,Increment      1: Step Time =    1.000,"PART-1-1",            48,        13.125,           30.,            0.,NA,NA,"",       5.69741,       5.64893,  -741.663E-03,   274.782E-06
C:/temp/dataset/0/10_12.odb,Step-1,Increment      1: Step Time =    1.000,"PART-1-1",            49,         11.25,           30.,            0.,NA,NA,"",       5.69199,       5.64804,  -705.935E-03,   1.43045E-03
C:/temp/dataset/0/10_12.odb,Step-1,Increment      1: Step Time =    1.000,"PART-1-1",            50,         9.375,           30.,            0.,NA,NA,"",       5.68434,       5.64466,  -670.512E-03,   2.63018E-03
C:/temp/dataset/0/10_12.odb,Step-1,Increment      1: Step Time =    1.000,"PART-1-1",            51,            5.,           30.,            0.,NA,NA,"",       5.66755,       5.63560,  -600.959E-03,   233.900E-06
C:/temp/dataset/0/10_12.odb,Step-1,Increment      1: Step Time =    1.000,"PART-1-1",            52,           2.5,           30.,            0.,NA,NA,"",       5.67022,       5.64179,  -567.107E-03,   6.09320E-03
C:/temp/dataset/0/10_12.odb,Step-1,Increment      1: Step Time =    1.000,"PART-1-1",            53,           -3.,           30.,            0.,NA,NA,"",       5.72967,       5.71219,  -447.188E-03,   20.7046E-03
C:/temp/dataset/0/10_12.odb,Step-1,Increment      1: Step Time =    1.000,"PART-1-1",            54,           -6.,           30.,            0.,NA,NA,"",       5.78293,       5.77416,  -318.363E-03,   21.1541E-03
C:/temp/dataset/0/10_12.odb,Step-1,Increment      1: Step Time =    1.000,"PART-1-1",            55,           -9.,           30.,            0.,NA,NA,"",       5.83028,       5.82865,  -137.577E-03,   13.4968E-03
C:/temp/dataset/0/10_12.odb,Step-1,Increment      1: Step Time =    1.000,"PART-1-1",            56,          -12.,           30.,            0.,NA,NA,"",       5.85871,       5.85827,   71.7978E-03,   3.40355E-03
C:/temp/dataset/0/10_12.odb,Step-1,Increment      1: Step Time =    1.000,"PART-1-1",            57,          -15.,           27.,            0.,NA,NA,"",       5.67801,       5.67081,   285.759E-03,   3.42089E-03
C:/temp/dataset/0/10_12.odb,Step-1,Increment      1: Step Time =    1.000,"PART-1-1",            58,          -15.,           24.,            0.,NA,NA,"",       5.49019,       5.48119,   314.238E-03,   13.7124E-03
C:/temp/dataset/0/10_12.odb,Step-1,Increment      1: Step Time =    1.000,"PART-1-1",            59,          -15.,           21.,            0.,NA,NA,"",       5.28046,       5.26728,   372.835E-03,   22.4480E-03
C:/temp/dataset/0/10_12.odb,Step-1,Increment      1: Step Time =    1.000,"PART-1-1",            60,          -15.,           18.,            0.,NA,NA,"",       5.02212,       5.00188,   450.465E-03,   24.1593E-03
C:/temp/dataset/0/10_12.odb,Step-1,Increment      1: Step Time =    1.000,"PART-1-1",            61,          -15.,           15.,            0.,NA,NA,"",       4.70903,       4.67923,   528.958E-03,   20.0255E-03
C:/temp/dataset/0/10_12.odb,Step-1,Increment      1: Step Time =    1.000,"PART-1-1",            62,          -15.,           12.,            0.,NA,NA,"",       4.35146,       4.31025,   597.426E-03,   13.8223E-03
C:/temp/dataset/0/10_12.odb,Step-1,Increment      1: Step Time =    1.000,"PART-1-1",            63,          -15.,            9.,            0.,NA,NA,"",       3.96272,       3.90851,   653.220E-03,   7.68392E-03
C:/temp/dataset/0/10_12.odb,Step-1,Increment      1: Step Time =    1.000,"PART-1-1",            64,          -15.,            6.,            0.,NA,NA,"",       3.55363,       3.48484,   695.797E-03,   1.81519E-03
C:/temp/dataset/0/10_12.odb,Step-1,Increment      1: Step Time =    1.000,"PART-1-1",            65,          -15.,            3.,            0.,NA,NA,"",       3.13356,       3.04867,   724.425E-03,   3.99520E-03
C:/temp/dataset/0/10_12.odb,Step-1,Increment      1: Step Time =    1.000,"PART-1-1",            66,          -15.,            0.,            0.,NA,NA,"",       2.71138,       2.60903,   737.940E-03,   9.72434E-03
C:/temp/dataset/0/10_12.odb,Step-1,Increment      1: Step Time =    1.000,"PART-1-1",            67,          -15.,           -3.,            0.,NA,NA,"",       2.29588,       2.17506,   734.981E-03,   15.4910E-03
C:/temp/dataset/0/10_12.odb,Step-1,Increment      1: Step Time =    1.000,"PART-1-1",            68,          -15.,           -6.,            0.,NA,NA,"",       1.89572,       1.75608,   714.096E-03,   21.3415E-03
C:/temp/dataset/0/10_12.odb,Step-1,Increment      1: Step Time =    1.000,"PART-1-1",            69,          -15.,           -9.,            0.,NA,NA,"",       1.51930,       1.36171,   673.817E-03,   27.3566E-03
C:/temp/dataset/0/10_12.odb,Step-1,Increment      1: Step Time =    1.000,"PART-1-1",            70,          -15.,          -12.,            0.,NA,NA,"",       1.17455,       1.00214,   612.595E-03,   33.6711E-03
C:/temp/dataset/0/10_12.odb,Step-1,Increment      1: Step Time =    1.000,"PART-1-1",            71,          -15.,          -15.,            0.,NA,NA,"",   868.992E-03,   689.331E-03,   529.121E-03,   39.9286E-03
C:/temp/dataset/0/10_12.odb,Step-1,Increment      1: Step Time =    1.000,"PART-1-1",            72,          -15.,          -18.,            0.,NA,NA,"",   609.790E-03,   437.115E-03,   425.176E-03,   44.1893E-03
C:/temp/dataset/0/10_12.odb,Step-1,Increment      1: Step Time =    1.000,"PART-1-1",            73,          -15.,          -21.,            0.,NA,NA,"",   402.665E-03,   256.512E-03,   310.388E-03,   43.5934E-03
C:/temp/dataset/0/10_12.odb,Step-1,Increment      1: Step Time =    1.000,"PART-1-1",            74,          -15.,          -24.,            0.,NA,NA,"",   245.204E-03,   141.305E-03,   200.395E-03,   38.8770E-03
C:/temp/dataset/0/10_12.odb,Step-1,Increment      1: Step Time =    1.000,"PART-1-1",            75,          -15.,          -27.,            0.,NA,NA,"",   123.871E-03,   70.0582E-03,   102.156E-03,   37.7524E-03
C:/temp/dataset/0/10_12.odb,Step-1,Increment      1: Step Time =    1.000,"PART-1-1",            76,          -12.,          -30.,            0.,NA,NA,"",            0.,   21.7315E-39,   53.6023E-39,   16.1182E-03
C:/temp/dataset/0/10_12.odb,Step-1,Increment      1: Step Time =    1.000,"PART-1-1",            77,           -9.,          -30.,            0.,NA,NA,"",            0.,  -8.51104E-39,   15.4625E-39,   6.26067E-03
C:/temp/dataset/0/10_12.odb,Step-1,Increment      1: Step Time =    1.000,"PART-1-1",            78,           -6.,          -30.,            0.,NA,NA,"",            0.,   9.85917E-39,   3.38822E-39,   6.79545E-03
C:/temp/dataset/0/10_12.odb,Step-1,Increment      1: Step Time =    1.000,"PART-1-1",            79,           -3.,          -30.,            0.,NA,NA,"",            0.,   20.3797E-39,  -14.5851E-39,   14.0958E-03
C:/temp/dataset/0/10_12.odb,Step-1,Increment      1: Step Time =    1.000,"PART-1-1",            80,            0.,          -30.,            0.,NA,NA,"",            0.,   20.1609E-39,  -4.18905E-39,   17.4859E-03
C:/temp/dataset/0/10_12.odb,Step-1,Increment      1: Step Time =    1.000,"PART-1-1",            81,            3.,          -30.,            0.,NA,NA,"",            0.,   23.8889E-39,   36.2270E-39,   14.5608E-03
C:/temp/dataset/0/10_12.odb,Step-1,Increment      1: Step Time =    1.000,"PART-1-1",            82,            6.,          -30.,            0.,NA,NA,"",            0.,   5.47038E-39,   15.6449E-39,   5.59067E-03
C:/temp/dataset/0/10_12.odb,Step-1,Increment      1: Step Time =    1.000,"PART-1-1",            83,            9.,          -30.,            0.,NA,NA,"",            0.,  -15.7734E-39,  -20.7127E-39,   9.06077E-03
C:/temp/dataset/0/10_12.odb,Step-1,Increment      1: Step Time =    1.000,"PART-1-1",            84,           12.,          -30.,            0.,NA,NA,"",            0.,   15.1668E-39,  -72.6703E-39,   24.0544E-03
C:/temp/dataset/0/10_12.odb,Step-1,Increment      1: Step Time =    1.000,"PART-1-1",            85,           15.,         -27.5,            0.,NA,NA,"",   139.169E-03,   68.5766E-03,  -121.100E-03,   56.8365E-03
C:/temp/dataset/0/10_12.odb,Step-1,Increment      1: Step Time =    1.000,"PART-1-1",            86,           15.,          -25.,            0.,NA,NA,"",   278.398E-03,   130.061E-03,  -246.149E-03,   58.4796E-03
C:/temp/dataset/0/10_12.odb,Step-1,Increment      1: Step Time =    1.000,"PART-1-1",            87,           15.,          -20.,            0.,NA,NA,"",   677.687E-03,   403.501E-03,  -544.470E-03,   67.4715E-03
C:/temp/dataset/0/10_12.odb,Step-1,Increment      1: Step Time =    1.000,"PART-1-1",            88,           15.,         -17.5,            0.,NA,NA,"",   958.626E-03,   648.436E-03,  -706.041E-03,   63.1024E-03
C:/temp/dataset/0/10_12.odb,Step-1,Increment      1: Step Time =    1.000,"PART-1-1",            89,           15.,         -12.5,            0.,NA,NA,"",       1.67545,       1.34795,  -995.077E-03,   40.7283E-03
C:/temp/dataset/0/10_12.odb,Step-1,Increment      1: Step Time =    1.000,"PART-1-1",            90,           15.,          -10.,            0.,NA,NA,"",       2.09214,       1.77384,      -1.10931,   27.7078E-03
C:/temp/dataset/0/10_12.odb,Step-1,Increment      1: Step Time =    1.000,"PART-1-1",            91,           15.,           -5.,            0.,NA,NA,"",       2.98326,       2.70268,      -1.26307,   1.63629E-03
C:/temp/dataset/0/10_12.odb,Step-1,Increment      1: Step Time =    1.000,"PART-1-1",            92,           15.,          -2.5,            0.,NA,NA,"",       3.43047,       3.17611,      -1.29630,   11.6702E-03
C:/temp/dataset/0/10_12.odb,Step-1,Increment      1: Step Time =    1.000,"PART-1-1",            93,           15.,           2.5,            0.,NA,NA,"",       4.24736,       4.05489,      -1.26407,   34.2706E-03
C:/temp/dataset/0/10_12.odb,Step-1,Increment      1: Step Time =    1.000,"PART-1-1",            94,           15.,            5.,            0.,NA,NA,"",       4.58614,       4.42503,      -1.20490,   40.3987E-03
C:/temp/dataset/0/10_12.odb,Step-1,Increment      1: Step Time =    1.000,"PART-1-1",            95,           15.,           10.,            0.,NA,NA,"",       5.08674,       4.97748,      -1.04862,   39.1465E-03
C:/temp/dataset/0/10_12.odb,Step-1,Increment      1: Step Time =    1.000,"PART-1-1",            96,           15.,          12.5,            0.,NA,NA,"",       5.25466,       5.16384,  -972.713E-03,   33.9583E-03
C:/temp/dataset/0/10_12.odb,Step-1,Increment      1: Step Time =    1.000,"PART-1-1",            97,           15.,          17.5,            0.,NA,NA,"",       5.46731,       5.40026,  -853.596E-03,   21.0664E-03
C:/temp/dataset/0/10_12.odb,Step-1,Increment      1: Step Time =    1.000,"PART-1-1",            98,           15.,           20.,            0.,NA,NA,"",       5.52992,       5.46958,  -814.729E-03,   14.2107E-03
C:/temp/dataset/0/10_12.odb,Step-1,Increment      1: Step Time =    1.000,"PART-1-1",            99,           15.,           25.,            0.,NA,NA,"",       5.61703,       5.56275,  -779.000E-03,   3.18485E-03
C:/temp/dataset/0/10_12.odb,Step-1,Increment      1: Step Time =    1.000,"PART-1-1",           100,           15.,          27.5,            0.,NA,NA,"",       5.65773,       5.60431,  -775.677E-03,   481.358E-06
C:/temp/dataset/0/10_12.odb,Step-1,Increment      1: Step Time =    1.000,"PART-1-1",           101,       3.77421,       21.6807,            0.,NA,NA,"",       5.48506,       5.45663,  -557.729E-03,   14.9083E-03
C:/temp/dataset/0/10_12.odb,Step-1,Increment      1: Step Time =    1.000,"PART-1-1",           102,   339.763E-03,       22.0764,            0.,NA,NA,"",       5.45519,       5.42935,  -530.310E-03,   16.4128E-03
C:/temp/dataset/0/10_12.odb,Step-1,Increment      1: Step Time =    1.000,"PART-1-1",           103,       2.04677,       21.7082,            0.,NA,NA,"",       5.46851,       5.44106,  -547.253E-03,   12.8077E-03
C:/temp/dataset/0/10_12.odb,Step-1,Increment      1: Step Time =    1.000,"PART-1-1",           104,       11.0234,       27.4901,            0.,NA,NA,"",       5.64721,       5.60373,  -699.418E-03,   2.94959E-03
C:/temp/dataset/0/10_12.odb,Step-1,Increment      1: Step Time =    1.000,"PART-1-1",           105,       8.98111,       27.5559,            0.,NA,NA,"",       5.64002,       5.60130,  -659.668E-03,   2.82369E-03
C:/temp/dataset/0/10_12.odb,Step-1,Increment      1: Step Time =    1.000,"PART-1-1",           106,      -4.39315,       22.5924,            0.,NA,NA,"",       5.41402,       5.39656,  -434.490E-03,   16.8543E-03
C:/temp/dataset/0/10_12.odb,Step-1,Increment      1: Step Time =    1.000,"PART-1-1",           107,       12.7609,      -22.7550,            0.,NA,NA,"",   295.655E-03,   171.968E-03,  -240.497E-03,   39.8717E-03
C:/temp/dataset/0/10_12.odb,Step-1,Increment      1: Step Time =    1.000,"PART-1-1",           108,       12.5528,      -15.2766,            0.,NA,NA,"",       1.03784,   905.406E-03,  -507.291E-03,   32.9201E-03
C:/temp/dataset/0/10_12.odb,Step-1,Increment      1: Step Time =    1.000,"PART-1-1",           109,       12.2205,       7.28465,            0.,NA,NA,"",       4.83581,       4.76265,  -837.990E-03,   16.5687E-03
C:/temp/dataset/0/10_12.odb,Step-1,Increment      1: Step Time =    1.000,"PART-1-1",           110,       12.4622,       15.2934,            0.,NA,NA,"",       5.39580,       5.33982,  -775.242E-03,   13.9490E-03
C:/temp/dataset/0/10_12.odb,Step-1,Increment      1: Step Time =    1.000,"PART-1-1",           111,       12.8846,       22.6339,            0.,NA,NA,"",       5.57815,       5.52840,  -743.324E-03,   7.33465E-03
C:/temp/dataset/0/10_12.odb,Step-1,Increment      1: Step Time =    1.000,"PART-1-1",           112,  -340.860E-03,      -22.2697,            0.,NA,NA,"",   158.253E-03,   158.101E-03,   6.91770E-03,   17.4001E-03
C:/temp/dataset/0/10_12.odb,Step-1,Increment      1: Step Time =    1.000,"PART-1-1",           113,       6.83628,       27.6500,            0.,NA,NA,"",       5.63252,       5.59785,  -624.037E-03,   3.61533E-03
C:/temp/dataset/0/10_12.odb,Step-1,Increment      1: Step Time =    1.000,"PART-1-1",           114,       12.2535,       9.99399,            0.,NA,NA,"",       5.08672,       5.02112,  -814.283E-03,   16.3130E-03
C:/temp/dataset/0/10_12.odb,Step-1,Increment      1: Step Time =    1.000,"PART-1-1",           115,       12.4991,  -638.118E-03,            0.,NA,NA,"",       3.67856,       3.57014,  -886.496E-03,   18.0216E-03
C:/temp/dataset/0/10_12.odb,Step-1,Increment      1: Step Time =    1.000,"PART-1-1",           116,       12.8164,      -7.55827,            0.,NA,NA,"",       2.38243,       2.24182,  -806.373E-03,   19.3594E-03
C:/temp/dataset/0/10_12.odb,Step-1,Increment      1: Step Time =    1.000,"PART-1-1",           117,       12.7714,      -20.2702,            0.,NA,NA,"",   474.451E-03,   334.438E-03,  -336.534E-03,   39.9169E-03
C:/temp/dataset/0/10_12.odb,Step-1,Increment      1: Step Time =    1.000,"PART-1-1",           118,      -1.80101,       22.4804,            0.,NA,NA,"",       5.44056,       5.41787,  -496.384E-03,   21.6846E-03
C:/temp/dataset/0/10_12.odb,Step-1,Increment      1: Step Time =    1.000,"PART-1-1",           119,       4.41791,       27.8041,            0.,NA,NA,"",       5.62829,       5.59699,  -592.748E-03,   6.40256E-03
C:/temp/dataset/0/10_12.odb,Step-1,Increment      1: Step Time =    1.000,"PART-1-1",           120,       2.00441,       27.9652,            0.,NA,NA,"",       5.63155,       5.60321,  -564.252E-03,   8.84934E-03
C:/temp/dataset/0/10_12.odb,Step-1,Increment      1: Step Time =    1.000,"PART-1-1",           121,      -2.69107,      -22.1951,            0.,NA,NA,"",   154.586E-03,   150.887E-03,  -33.6110E-03,   24.4601E-03
C:/temp/dataset/0/10_12.odb,Step-1,Increment      1: Step Time =    1.000,"PART-1-1",           122,       1.88995,      -22.5465,            0.,NA,NA,"",   165.558E-03,   157.868E-03,   49.8714E-03,   31.7541E-03
C:/temp/dataset/0/10_12.odb,Step-1,Increment      1: Step Time =    1.000,"PART-1-1",           123,       3.76320,      -23.2871,            0.,NA,NA,"",   171.228E-03,   152.093E-03,   78.6553E-03,   33.5077E-03
C:/temp/dataset/0/10_12.odb,Step-1,Increment      1: Step Time =    1.000,"PART-1-1",           124,       12.5645,      -25.1614,            0.,NA,NA,"",   163.520E-03,   74.4171E-03,  -145.605E-03,   37.5907E-03
C:/temp/dataset/0/10_12.odb,Step-1,Increment      1: Step Time =    1.000,"PART-1-1",           125,       12.6631,      -17.7963,            0.,NA,NA,"",   715.505E-03,   576.195E-03,  -424.201E-03,   37.2575E-03
C:/temp/dataset/0/10_12.odb,Step-1,Increment      1: Step Time =    1.000,"PART-1-1",           126,       12.5016,      -12.6810,            0.,NA,NA,"",       1.44109,       1.31347,  -592.905E-03,   28.5446E-03
C:/temp/dataset/0/10_12.odb,Step-1,Increment      1: Step Time =    1.000,"PART-1-1",           127,       12.5761,      -10.0660,            0.,NA,NA,"",       1.90330,       1.77338,  -691.138E-03,   24.1063E-03
C:/temp/dataset/0/10_12.odb,Step-1,Increment      1: Step Time =    1.000,"PART-1-1",           128,       13.0467,      -5.23700,            0.,NA,NA,"",       2.83518,       2.68696,  -904.697E-03,   15.3762E-03
C:/temp/dataset/0/10_12.odb,Step-1,Increment      1: Step Time =    1.000,"PART-1-1",           129,       12.8236,      -2.99729,            0.,NA,NA,"",       3.25228,       3.12250,  -909.582E-03,   16.1590E-03
C:/temp/dataset/0/10_12.odb,Step-1,Increment      1: Step Time =    1.000,"PART-1-1",           130,       12.3116,       1.92449,            0.,NA,NA,"",       4.11371,       4.02004,  -872.867E-03,   17.8164E-03
C:/temp/dataset/0/10_12.odb,Step-1,Increment      1: Step Time =    1.000,"PART-1-1",           131,       12.2319,       4.58053,            0.,NA,NA,"",       4.50844,       4.42599,  -858.241E-03,   16.9444E-03
C:/temp/dataset/0/10_12.odb,Step-1,Increment      1: Step Time =    1.000,"PART-1-1",           132,       12.3276,       12.6723,            0.,NA,NA,"",       5.26859,       5.20866,  -792.421E-03,   15.3393E-03
C:/temp/dataset/0/10_12.odb,Step-1,Increment      1: Step Time =    1.000,"PART-1-1",           133,       12.6288,       17.8043,            0.,NA,NA,"",       5.48048,       5.42731,  -761.537E-03,   12.5056E-03
C:/temp/dataset/0/10_12.odb,Step-1,Increment      1: Step Time =    1.000,"PART-1-1",           134,       12.7774,       20.2190,            0.,NA,NA,"",       5.53650,       5.48537,  -750.659E-03,   10.2405E-03
C:/temp/dataset/0/10_12.odb,Step-1,Increment      1: Step Time =    1.000,"PART-1-1",           135,       2.42682,       23.0828,            0.,NA,NA,"",       5.50211,       5.47380,  -557.449E-03,   13.3253E-03
C:/temp/dataset/0/10_12.odb,Step-1,Increment      1: Step Time =    1.000,"PART-1-1",           136,       13.0358,       27.4773,            0.,NA,NA,"",       5.65316,       5.60457,  -739.646E-03,   2.02326E-03
C:/temp/dataset/0/10_12.odb,Step-1,Increment      1: Step Time =    1.000,"PART-1-1",           137,       10.8553,       25.1313,            0.,NA,NA,"",       5.60916,       5.56618,  -693.055E-03,   5.37556E-03
C:/temp/dataset/0/10_12.odb,Step-1,Increment      1: Step Time =    1.000,"PART-1-1",           138,       5.66135,       21.5046,            0.,NA,NA,"",       5.50344,       5.47492,  -559.550E-03,   21.1802E-03
C:/temp/dataset/0/10_12.odb,Step-1,Increment      1: Step Time =    1.000,"PART-1-1",           139,       1.38191,       23.9574,            0.,NA,NA,"",       5.51682,       5.48918,  -551.544E-03,   13.2073E-03
C:/temp/dataset/0/10_12.odb,Step-1,Increment      1: Step Time =    1.000,"PART-1-1",           140,       8.68595,       25.2651,            0.,NA,NA,"",       5.59934,       5.56183,  -646.959E-03,   6.03588E-03
C:/temp/dataset/0/10_12.odb,Step-1,Increment      1: Step Time =    1.000,"PART-1-1",           141,       12.9664,       25.0396,            0.,NA,NA,"",       5.61483,       5.56585,  -739.997E-03,   4.39750E-03
C:/temp/dataset/0/10_12.odb,Step-1,Increment      1: Step Time =    1.000,"PART-1-1",           142,       9.99676,      -12.8506,            0.,NA,NA,"",       1.31517,       1.29402,  -234.948E-03,   22.5766E-03
C:/temp/dataset/0/10_12.odb,Step-1,Increment      1: Step Time =    1.000,"PART-1-1",           143,       11.3735,      -5.41139,            0.,NA,NA,"",       2.74390,       2.67310,  -619.300E-03,   21.6874E-03
C:/temp/dataset/0/10_12.odb,Step-1,Increment      1: Step Time =    1.000,"PART-1-1",           144,       9.95511,       15.6727,            0.,NA,NA,"",       5.40172,       5.36387,  -638.311E-03,   10.7637E-03
C:/temp/dataset/0/10_12.odb,Step-1,Increment      1: Step Time =    1.000,"PART-1-1",           145,       9.67875,       10.0081,            0.,NA,NA,"",       5.07733,       5.04361,  -584.185E-03,   9.85751E-03
C:/temp/dataset/0/10_12.odb,Step-1,Increment      1: Step Time =    1.000,"PART-1-1",           146,       9.74913,       1.24671,            0.,NA,NA,"",       3.97532,       3.94377,  -499.785E-03,   19.4361E-03
C:/temp/dataset/0/10_12.odb,Step-1,Increment      1: Step Time =    1.000,"PART-1-1",           147,       10.3027,      -18.1986,            0.,NA,NA,"",   539.713E-03,   509.690E-03,  -177.499E-03,   20.3670E-03
C:/temp/dataset/0/10_12.odb,Step-1,Increment      1: Step Time =    1.000,"PART-1-1",           148,       1.33525,      -24.5624,            0.,NA,NA,"",   130.125E-03,   125.618E-03,   33.9487E-03,   28.0944E-03
C:/temp/dataset/0/10_12.odb,Step-1,Increment      1: Step Time =    1.000,"PART-1-1",           149,       9.11730,      -22.7103,            0.,NA,NA,"",   143.775E-03,   140.764E-03,  -29.2697E-03,   6.84733E-03
C:/temp/dataset/0/10_12.odb,Step-1,Increment      1: Step Time =    1.000,"PART-1-1",           150,       12.2648,      -27.5617,            0.,NA,NA,"",   67.1118E-03,   19.3857E-03,  -64.2509E-03,   33.3728E-03
C:/temp/dataset/0/10_12.odb,Step-1,Increment      1: Step Time =    1.000,"PART-1-1",           151,       10.6108,      -20.5371,            0.,NA,NA,"",   325.051E-03,   285.527E-03,  -155.346E-03,   20.8785E-03
C:/temp/dataset/0/10_12.odb,Step-1,Increment      1: Step Time =    1.000,"PART-1-1",           152,       10.0930,      -9.97392,            0.,NA,NA,"",       1.83445,       1.80884,  -305.463E-03,   23.4124E-03
C:/temp/dataset/0/10_12.odb,Step-1,Increment      1: Step Time =    1.000,"PART-1-1",           153,       9.63546,       7.06865,            0.,NA,NA,"",       4.80282,       4.77036,  -557.490E-03,   6.75797E-03
C:/temp/dataset/0/10_12.odb,Step-1,Increment      1: Step Time =    1.000,"PART-1-1",           154,       10.2222,       18.2240,            0.,NA,NA,"",       5.48466,       5.44489,  -659.289E-03,   11.3202E-03
C:/temp/dataset/0/10_12.odb,Step-1,Increment      1: Step Time =    1.000,"PART-1-1",           155,       10.5456,      -3.97788,            0.,NA,NA,"",       3.00723,       2.96241,  -517.218E-03,   23.5054E-03
C:/temp/dataset/0/10_12.odb,Step-1,Increment      1: Step Time =    1.000,"PART-1-1",           156,       10.0733,      -15.6212,            0.,NA,NA,"",   872.491E-03,   849.777E-03,  -197.789E-03,   23.9819E-03
C:/temp/dataset/0/10_12.odb,Step-1,Increment      1: Step Time =    1.000,"PART-1-1",           157,       10.5412,      -7.26051,            0.,NA,NA,"",       2.36277,       2.32159,  -439.200E-03,   23.5186E-03
C:/temp/dataset/0/10_12.odb,Step-1,Increment      1: Step Time =    1.000,"PART-1-1",           158,       9.98625,      -1.55753,            0.,NA,NA,"",       3.46709,       3.43360,  -480.726E-03,   23.5669E-03
C:/temp/dataset/0/10_12.odb,Step-1,Increment      1: Step Time =    1.000,"PART-1-1",           159,       9.65058,       4.13273,            0.,NA,NA,"",       4.43157,       4.39993,  -528.592E-03,   11.8796E-03
C:/temp/dataset/0/10_12.odb,Step-1,Increment      1: Step Time =    1.000,"PART-1-1",           160,       9.76871,       12.8936,            0.,NA,NA,"",       5.26940,       5.23379,  -611.603E-03,   11.6512E-03
C:/temp/dataset/0/10_12.odb,Step-1,Increment      1: Step Time =    1.000,"PART-1-1",           161,       10.4870,       20.5197,            0.,NA,NA,"",       5.53503,       5.49387,  -673.722E-03,   10.9433E-03
C:/temp/dataset/0/10_12.odb,Step-1,Increment      1: Step Time =    1.000,"PART-1-1",           162,       3.57821,       25.4429,            0.,NA,NA,"",       5.56988,       5.53979,  -578.102E-03,   11.8109E-03
C:/temp/dataset/0/10_12.odb,Step-1,Increment      1: Step Time =    1.000,"PART-1-1",           163,       6.34843,       25.4199,            0.,NA,NA,"",       5.58613,       5.55291,  -608.372E-03,   8.44254E-03
C:/temp/dataset/0/10_12.odb,Step-1,Increment      1: Step Time =    1.000,"PART-1-1",           164,       2.85591,      -26.4171,            0.,NA,NA,"",   82.4732E-03,   75.6354E-03,   32.8803E-03,   23.3629E-03
C:/temp/dataset/0/10_12.odb,Step-1,Increment      1: Step Time =    1.000,"PART-1-1",           165,  -631.401E-03,       25.1574,            0.,NA,NA,"",       5.54393,       5.51889,  -526.379E-03,   12.5903E-03
C:/temp/dataset/0/10_12.odb,Step-1,Increment      1: Step Time =    1.000,"PART-1-1",           166,  -516.865E-03,       27.6990,            0.,NA,NA,"",       5.63121,       5.60667,  -525.184E-03,   10.7190E-03
C:/temp/dataset/0/10_12.odb,Step-1,Increment      1: Step Time =    1.000,"PART-1-1",           167,      -6.99102,       22.3744,            0.,NA,NA,"",       5.39074,       5.38234,  -300.847E-03,   15.4317E-03
C:/temp/dataset/0/10_12.odb,Step-1,Increment      1: Step Time =    1.000,"PART-1-1",           168,      -5.11091,      -22.0245,            0.,NA,NA,"",   164.036E-03,   147.131E-03,  -72.5287E-03,   27.9537E-03
C:/temp/dataset/0/10_12.odb,Step-1,Increment      1: Step Time =    1.000,"PART-1-1",           169,       6.75166,      -22.2774,            0.,NA,NA,"",   183.532E-03,   164.250E-03,   81.8888E-03,   20.1068E-03
C:/temp/dataset/0/10_12.odb,Step-1,Increment      1: Step Time =    1.000,"PART-1-1",           170,       8.44380,       23.0750,            0.,NA,NA,"",       5.56134,       5.52572,  -628.408E-03,   11.0637E-03
C:/temp/dataset/0/10_12.odb,Step-1,Increment      1: Step Time =    1.000,"PART-1-1",           171,       3.98751,       23.4543,            0.,NA,NA,"",       5.52361,       5.49409,  -570.344E-03,   15.0124E-03
C:/temp/dataset/0/10_12.odb,Step-1,Increment      1: Step Time =    1.000,"PART-1-1",           172,       7.74283,       18.8612,            0.,NA,NA,"",       5.48287,       5.45343,  -567.439E-03,   15.3295E-03
C:/temp/dataset/0/10_12.odb,Step-1,Increment      1: Step Time =    1.000,"PART-1-1",           173,  -206.614E-03,      -27.1815,            0.,NA,NA,"",   67.3538E-03,   67.0912E-03,   5.94260E-03,   19.0556E-03
C:/temp/dataset/0/10_12.odb,Step-1,Increment      1: Step Time =    1.000,"PART-1-1",           174,       10.6950,       22.8157,            0.,NA,NA,"",       5.57325,       5.53102,  -684.831E-03,   8.57287E-03
C:/temp/dataset/0/10_12.odb,Step-1,Increment      1: Step Time =    1.000,"PART-1-1",           175,       1.78109,       26.2982,            0.,NA,NA,"",       5.58681,       5.55854,  -561.392E-03,   11.2083E-03
C:/temp/dataset/0/10_12.odb,Step-1,Increment      1: Step Time =    1.000,"PART-1-1",           176,       7.62536,      -9.80486,            0.,NA,NA,"",       1.87296,       1.87143,   75.7740E-03,   18.6819E-03
C:/temp/dataset/0/10_12.odb,Step-1,Increment      1: Step Time =    1.000,"PART-1-1",           177,       7.50504,      -2.60802,            0.,NA,NA,"",       3.25788,       3.25742,  -54.9232E-03,   21.8293E-03
C:/temp/dataset/0/10_12.odb,Step-1,Increment      1: Step Time =    1.000,"PART-1-1",           178,       7.24337,       3.70501,            0.,NA,NA,"",       4.36695,       4.36222,  -203.142E-03,   23.4102E-03
C:/temp/dataset/0/10_12.odb,Step-1,Increment      1: Step Time =    1.000,"PART-1-1",           179,       7.25379,       10.0129,            0.,NA,NA,"",       5.05939,       5.04586,  -369.744E-03,   26.2129E-03
C:/temp/dataset/0/10_12.odb,Step-1,Increment      1: Step Time =    1.000,"PART-1-1",           180,       7.22962,       6.85747,            0.,NA,NA,"",       4.77220,       4.76344,  -289.145E-03,   24.0200E-03
C:/temp/dataset/0/10_12.odb,Step-1,Increment      1: Step Time =    1.000,"PART-1-1",           181,       7.49186,      -13.0485,            0.,NA,NA,"",       1.29652,       1.29140,   115.092E-03,   23.4135E-03
C:/temp/dataset/0/10_12.odb,Step-1,Increment      1: Step Time =    1.000,"PART-1-1",           182,       8.10600,      -6.05436,            0.,NA,NA,"",       2.58482,       2.58391,  -68.4903E-03,   20.0940E-03
C:/temp/dataset/0/10_12.odb,Step-1,Increment      1: Step Time =    1.000,"PART-1-1",           183,       7.31265,   557.236E-03,            0.,NA,NA,"",       3.85192,       3.85005,  -120.139E-03,   25.0865E-03
C:/temp/dataset/0/10_12.odb,Step-1,Increment      1: Step Time =    1.000,"PART-1-1",           184,       7.30605,       13.1330,            0.,NA,NA,"",       5.25627,       5.23713,  -448.142E-03,   25.1177E-03
C:/temp/dataset/0/10_12.odb,Step-1,Increment      1: Step Time =    1.000,"PART-1-1",           185,       8.51669,      -21.0731,            0.,NA,NA,"",   232.777E-03,   232.776E-03,   292.787E-06,   11.2738E-03
C:/temp/dataset/0/10_12.odb,Step-1,Increment      1: Step Time =    1.000,"PART-1-1",           186,       7.54046,      -16.1016,            0.,NA,NA,"",   810.605E-03,   804.442E-03,   99.7717E-03,   34.3789E-03
C:/temp/dataset/0/10_12.odb,Step-1,Increment      1: Step Time =    1.000,"PART-1-1",           187,       7.81864,      -18.8426,            0.,NA,NA,"",   435.252E-03,   432.581E-03,   48.1460E-03,   24.1640E-03
C:/temp/dataset/0/10_12.odb,Step-1,Increment      1: Step Time =    1.000,"PART-1-1",           188,       7.43701,       16.1533,            0.,NA,NA,"",       5.39738,       5.37274,  -515.176E-03,   19.5906E-03
C:/temp/dataset/0/10_12.odb,Step-1,Increment      1: Step Time =    1.000,"PART-1-1",           189,       8.13437,       20.9213,            0.,NA,NA,"",       5.52459,       5.49179,  -601.081E-03,   15.1027E-03
C:/temp/dataset/0/10_12.odb,Step-1,Increment      1: Step Time =    1.000,"PART-1-1",           190,       10.1795,      -24.9689,            0.,NA,NA,"",   82.4263E-03,   58.2990E-03,  -58.2694E-03,   14.2601E-03
C:/temp/dataset/0/10_12.odb,Step-1,Increment      1: Step Time =    1.000,"PART-1-1",           191,      -2.92607,      -24.6642,            0.,NA,NA,"",   113.526E-03,   110.538E-03,  -25.8777E-03,   23.4139E-03
C:/temp/dataset/0/10_12.odb,Step-1,Increment      1: Step Time =    1.000,"PART-1-1",           192,      -7.32959,       16.5303,            0.,NA,NA,"",       4.83132,       4.82134,  -310.338E-03,   24.5957E-03
C:/temp/dataset/0/10_12.odb,Step-1,Increment      1: Step Time =    1.000,"PART-1-1",           193,      -3.80789,       25.1547,            0.,NA,NA,"",       5.53765,       5.51976,  -444.733E-03,   8.57030E-03
C:/temp/dataset/0/10_12.odb,Step-1,Increment      1: Step Time =    1.000,"PART-1-1",           194,      -7.16094,      -19.5479,            0.,NA,NA,"",   244.487E-03,   237.429E-03,  -58.3190E-03,   15.1221E-03
C:/temp/dataset/0/10_12.odb,Step-1,Increment      1: Step Time =    1.000,"PART-1-1",           195,       6.10177,       23.3904,            0.,NA,NA,"",       5.54305,       5.51166,  -589.087E-03,   13.4692E-03
C:/temp/dataset/0/10_12.odb,Step-1,Increment      1: Step Time =    1.000,"PART-1-1",           196,      -3.02004,      -27.2699,            0.,NA,NA,"",   57.1531E-03,   56.5279E-03,  -8.43053E-03,   17.3771E-03
C:/temp/dataset/0/10_12.odb,Step-1,Increment      1: Step Time =    1.000,"PART-1-1",           197,      -5.46178,      -24.4382,            0.,NA,NA,"",   101.098E-03,   93.9431E-03,  -37.3561E-03,   17.9310E-03
C:/temp/dataset/0/10_12.odb,Step-1,Increment      1: Step Time =    1.000,"PART-1-1",           198,      -9.66724,       21.9754,            0.,NA,NA,"",       5.35577,       5.35497,  -92.0438E-03,   11.6155E-03
C:/temp/dataset/0/10_12.odb,Step-1,Increment      1: Step Time =    1.000,"PART-1-1",           199,      -7.19512,      -21.6661,            0.,NA,NA,"",   151.877E-03,   146.058E-03,  -41.6380E-03,   11.4799E-03
C:/temp/dataset/0/10_12.odb,Step-1,Increment      1: Step Time =    1.000,"PART-1-1",           200,      -3.42041,       27.6042,            0.,NA,NA,"",       5.64288,       5.62508,  -447.760E-03,   10.5912E-03
C:/temp/dataset/0/10_12.odb,Step-1,Increment      1: Step Time =    1.000,"PART-1-1",           201,       5.45774,      -23.9133,            0.,NA,NA,"",   140.128E-03,   117.792E-03,   75.9016E-03,   29.6941E-03
C:/temp/dataset/0/10_12.odb,Step-1,Increment      1: Step Time =    1.000,"PART-1-1",           202,      -6.69209,       24.9820,            0.,NA,NA,"",       5.53430,       5.52579,  -306.907E-03,   10.5815E-03
C:/temp/dataset/0/10_12.odb,Step-1,Increment      1: Step Time =    1.000,"PART-1-1",           203,      -12.3718,      -14.6182,            0.,NA,NA,"",   746.793E-03,   680.255E-03,   308.144E-03,   22.4429E-03
C:/temp/dataset/0/10_12.odb,Step-1,Increment      1: Step Time =    1.000,"PART-1-1",           204,      -5.91076,      -27.0963,            0.,NA,NA,"",   41.4807E-03,   39.9380E-03,  -11.2073E-03,   13.5138E-03
C:/temp/dataset/0/10_12.odb,Step-1,Increment      1: Step Time =    1.000,"PART-1-1",           205,      -9.09285,      -26.5479,            0.,NA,NA,"",   35.7895E-03,   33.0134E-03,   13.8204E-03,   5.93434E-03
C:/temp/dataset/0/10_12.odb,Step-1,Increment      1: Step Time =    1.000,"PART-1-1",           206,      -12.2958,       24.3839,            0.,NA,NA,"",       5.51099,       5.50989,   110.357E-03,   13.3184E-03
C:/temp/dataset/0/10_12.odb,Step-1,Increment      1: Step Time =    1.000,"PART-1-1",           207,      -12.3670,       18.5668,            0.,NA,NA,"",       5.06841,       5.06522,   180.027E-03,   9.87733E-03
C:/temp/dataset/0/10_12.odb,Step-1,Increment      1: Step Time =    1.000,"PART-1-1",           208,      -12.3673,       12.5421,            0.,NA,NA,"",       4.37791,       4.37028,   258.450E-03,   8.37787E-03
C:/temp/dataset/0/10_12.odb,Step-1,Increment      1: Step Time =    1.000,"PART-1-1",           209,      -12.4084,       3.45294,            0.,NA,NA,"",       3.10522,       3.08481,   355.437E-03,   7.79848E-03
C:/temp/dataset/0/10_12.odb,Step-1,Increment      1: Step Time =    1.000,"PART-1-1",           210,      -12.4043,      -5.59421,            0.,NA,NA,"",       1.81137,       1.77045,   382.824E-03,   14.2018E-03
C:/temp/dataset/0/10_12.odb,Step-1,Increment      1: Step Time =    1.000,"PART-1-1",           211,      -12.3838,       9.50768,            0.,NA,NA,"",       3.97176,       3.96073,   295.777E-03,   7.21701E-03
C:/temp/dataset/0/10_12.odb,Step-1,Increment      1: Step Time =    1.000,"PART-1-1",           212,      -12.4013,       6.47621,            0.,NA,NA,"",       3.54406,       3.52874,   329.122E-03,   6.90131E-03
C:/temp/dataset/0/10_12.odb,Step-1,Increment      1: Step Time =    1.000,"PART-1-1",           213,      -12.4173,   428.232E-03,            0.,NA,NA,"",       2.66345,       2.63693,   374.952E-03,   9.52262E-03
C:/temp/dataset/0/10_12.odb,Step-1,Increment      1: Step Time =    1.000,"PART-1-1",           214,      -12.4160,      -2.58791,            0.,NA,NA,"",       2.22908,       2.19567,   384.483E-03,   11.7364E-03
C:/temp/dataset/0/10_12.odb,Step-1,Increment      1: Step Time =    1.000,"PART-1-1",           215,      -12.4014,      -8.61211,            0.,NA,NA,"",       1.41749,       1.36802,   371.201E-03,   16.8635E-03
C:/temp/dataset/0/10_12.odb,Step-1,Increment      1: Step Time =    1.000,"PART-1-1",           216,      -12.3969,      -11.6247,            0.,NA,NA,"",       1.05905,       1.00055,   347.119E-03,   19.6619E-03
C:/temp/dataset/0/10_12.odb,Step-1,Increment      1: Step Time =    1.000,"PART-1-1",           217,      -12.3009,      -17.6498,            0.,NA,NA,"",   485.528E-03,   415.244E-03,   251.615E-03,   24.6154E-03
C:/temp/dataset/0/10_12.odb,Step-1,Increment      1: Step Time =    1.000,"PART-1-1",           218,      -11.9370,      -20.9397,            0.,NA,NA,"",   267.066E-03,   209.342E-03,   165.832E-03,   23.5105E-03
C:/temp/dataset/0/10_12.odb,Step-1,Increment      1: Step Time =    1.000,"PART-1-1",           219,       6.28266,      -26.4725,            0.,NA,NA,"",   50.9269E-03,   41.9288E-03,   28.9054E-03,   18.1447E-03
C:/temp/dataset/0/10_12.odb,Step-1,Increment      1: Step Time =    1.000,"PART-1-1",           220,      -12.3616,       21.4963,            0.,NA,NA,"",       5.31753,       5.31563,   142.313E-03,   11.4937E-03
C:/temp/dataset/0/10_12.odb,Step-1,Increment      1: Step Time =    1.000,"PART-1-1",           221,       9.42071,      -27.3229,            0.,NA,NA,"",   19.0954E-03,   7.13055E-03,  -17.7142E-03,   8.50620E-03
C:/temp/dataset/0/10_12.odb,Step-1,Increment      1: Step Time =    1.000,"PART-1-1",           222,      -12.3680,       15.5612,            0.,NA,NA,"",       4.74871,       4.74359,   220.427E-03,   9.49259E-03
C:/temp/dataset/0/10_12.odb,Step-1,Increment      1: Step Time =    1.000,"PART-1-1",           223,      -6.37126,       27.5191,            0.,NA,NA,"",       5.66001,       5.65136,  -312.769E-03,   10.7824E-03
C:/temp/dataset/0/10_12.odb,Step-1,Increment      1: Step Time =    1.000,"PART-1-1",           224,      -7.37426,       13.4489,            0.,NA,NA,"",       4.45285,       4.44070,  -328.748E-03,   17.9480E-03
C:/temp/dataset/0/10_12.odb,Step-1,Increment      1: Step Time =    1.000,"PART-1-1",           225,      -7.40401,       7.31385,            0.,NA,NA,"",       3.61027,       3.59434,  -338.739E-03,   11.5612E-03
C:/temp/dataset/0/10_12.odb,Step-1,Increment      1: Step Time =    1.000,"PART-1-1",           226,      -7.40102,      -1.84560,            0.,NA,NA,"",       2.26586,       2.24815,  -282.686E-03,   6.40866E-03
C:/temp/dataset/0/10_12.odb,Step-1,Increment      1: Step Time =    1.000,"PART-1-1",           227,      -7.36253,      -10.9851,            0.,NA,NA,"",       1.05127,       1.03688,  -173.356E-03,   10.9022E-03
C:/temp/dataset/0/10_12.odb,Step-1,Increment      1: Step Time =    1.000,"PART-1-1",           228,      -7.39657,       10.3769,            0.,NA,NA,"",       4.04305,       4.02878,  -339.351E-03,   14.2983E-03
C:/temp/dataset/0/10_12.odb,Step-1,Increment      1: Step Time =    1.000,"PART-1-1",           229,      -7.41369,       4.25226,            0.,NA,NA,"",       3.16273,       3.14575,  -327.227E-03,   9.14137E-03
C:/temp/dataset/0/10_12.odb,Step-1,Increment      1: Step Time =    1.000,"PART-1-1",           230,      -7.41413,       1.19777,            0.,NA,NA,"",       2.71115,       2.69362,  -307.790E-03,   7.29529E-03
C:/temp/dataset/0/10_12.odb,Step-1,Increment      1: Step Time =    1.000,"PART-1-1",           231,      -7.39700,      -4.89906,            0.,NA,NA,"",       1.83319,       1.81607,  -249.978E-03,   6.89997E-03
C:/temp/dataset/0/10_12.odb,Step-1,Increment      1: Step Time =    1.000,"PART-1-1",           232,      -7.39133,      -7.95434,            0.,NA,NA,"",       1.42400,       1.40809,  -212.259E-03,   8.57593E-03
C:/temp/dataset/0/10_12.odb,Step-1,Increment      1: Step Time =    1.000,"PART-1-1",           233,      -7.32483,      -13.9963,            0.,NA,NA,"",   721.692E-03,   709.847E-03,  -130.221E-03,   14.6515E-03
C:/temp/dataset/0/10_12.odb,Step-1,Increment      1: Step Time =    1.000,"PART-1-1",           234,      -9.29453,       27.3932,            0.,NA,NA,"",       5.67394,       5.67258,  -123.986E-03,   12.7865E-03
C:/temp/dataset/0/10_12.odb,Step-1,Increment      1: Step Time =    1.000,"PART-1-1",           235,      -9.79647,       16.0793,            0.,NA,NA,"",       4.79439,       4.79407,  -55.2379E-03,   10.7394E-03
C:/temp/dataset/0/10_12.odb,Step-1,Increment      1: Step Time =    1.000,"PART-1-1",           236,      -10.5694,      -24.3397,            0.,NA,NA,"",   99.3314E-03,   79.3023E-03,   59.8153E-03,   13.0050E-03
C:/temp/dataset/0/10_12.odb,Step-1,Increment      1: Step Time =    1.000,"PART-1-1",           237,      -9.80814,      -14.2636,            0.,NA,NA,"",   695.088E-03,   688.977E-03,   91.9627E-03,   10.0978E-03
C:/temp/dataset/0/10_12.odb,Step-1,Increment      1: Step Time =    1.000,"PART-1-1",           238,      -9.84607,      -11.2856,            0.,NA,NA,"",       1.01707,       1.01317,   88.9413E-03,   9.90381E-03
C:/temp/dataset/0/10_12.odb,Step-1,Increment      1: Step Time =    1.000,"PART-1-1",           239,      -9.85160,       9.96190,            0.,NA,NA,"",       4.00126,       4.00115,  -29.4626E-03,   10.3028E-03
C:/temp/dataset/0/10_12.odb,Step-1,Increment      1: Step Time =    1.000,"PART-1-1",           240,      -9.42013,      -19.6871,            0.,NA,NA,"",   252.053E-03,   245.963E-03,   55.0721E-03,   10.1801E-03
C:/temp/dataset/0/10_12.odb,Step-1,Increment      1: Step Time =    1.000,"PART-1-1",           241,      -9.87385,       6.90801,            0.,NA,NA,"",       3.56549,       3.56548,  -10.2796E-03,   10.0176E-03
C:/temp/dataset/0/10_12.odb,Step-1,Increment      1: Step Time =    1.000,"PART-1-1",           242,      -9.72088,      -17.1529,            0.,NA,NA,"",   432.208E-03,   424.055E-03,   83.5493E-03,   12.5179E-03
C:/temp/dataset/0/10_12.odb,Step-1,Increment      1: Step Time =    1.000,"PART-1-1",           243,      -7.24385,      -16.9197,            0.,NA,NA,"",   447.515E-03,   438.253E-03,  -90.5766E-03,   21.8955E-03
C:/temp/dataset/0/10_12.odb,Step-1,Increment      1: Step Time =    1.000,"PART-1-1",           244,      -9.88569,       3.86363,            0.,NA,NA,"",       3.11739,       3.11737,   10.2845E-03,   9.88938E-03
C:/temp/dataset/0/10_12.odb,Step-1,Increment      1: Step Time =    1.000,"PART-1-1",           245,      -9.88680,   826.149E-03,            0.,NA,NA,"",       2.66624,       2.66607,   30.5277E-03,   9.82547E-03
C:/temp/dataset/0/10_12.odb,Step-1,Increment      1: Step Time =    1.000,"PART-1-1",           246,      -9.87953,      -2.20322,            0.,NA,NA,"",       2.22170,       2.22116,   49.1654E-03,   9.80894E-03
C:/temp/dataset/0/10_12.odb,Step-1,Increment      1: Step Time =    1.000,"PART-1-1",           247,      -9.87339,      -5.23467,            0.,NA,NA,"",       1.79188,       1.79066,   66.1987E-03,   9.82299E-03
C:/temp/dataset/0/10_12.odb,Step-1,Increment      1: Step Time =    1.000,"PART-1-1",           248,      -9.87035,      -8.27303,            0.,NA,NA,"",       1.38583,       1.38348,   80.7533E-03,   9.86204E-03
C:/temp/dataset/0/10_12.odb,Step-1,Increment      1: Step Time =    1.000,"PART-1-1",           249,      -12.1942,       27.2250,            0.,NA,NA,"",       5.68061,       5.67991,   89.4303E-03,   10.1066E-03
C:/temp/dataset/0/10_12.odb,Step-1,Increment      1: Step Time =    1.000,"PART-1-1",           250,      -12.1946,      -27.0241,            0.,NA,NA,"",   66.1266E-03,   37.2488E-03,   54.6374E-03,   23.3986E-03
C:/temp/dataset/0/10_12.odb,Step-1,Increment      1: Step Time =    1.000,"PART-1-1",           251,      -9.83578,       13.0151,            0.,NA,NA,"",       4.41395,       4.41374,  -42.9673E-03,   10.4386E-03
C:/temp/dataset/0/10_12.odb,Step-1,Increment      1: Step Time =    1.000,"PART-1-1",           252,      -12.4960,      -24.1891,            0.,NA,NA,"",   155.364E-03,   99.6256E-03,   119.217E-03,   25.6285E-03
C:/temp/dataset/0/10_12.odb,Step-1,Increment      1: Step Time =    1.000,"PART-1-1",           253,      -7.26398,       19.6069,            0.,NA,NA,"",       5.17648,       5.16834,  -290.164E-03,   17.1021E-03
C:/temp/dataset/0/10_12.odb,Step-1,Increment      1: Step Time =    1.000,"PART-1-1",           254,      -9.78845,      -22.6320,            0.,NA,NA,"",   132.154E-03,   122.252E-03,   50.1904E-03,   9.82761E-03
C:/temp/dataset/0/10_12.odb,Step-1,Increment      1: Step Time =    1.000,"PART-1-1",           255,       8.11622,      -24.1302,            0.,NA,NA,"",   87.3504E-03,   86.2859E-03,   13.5958E-03,   7.56491E-03
C:/temp/dataset/0/10_12.odb,Step-1,Increment      1: Step Time =    1.000,"PART-1-1",           256,       10.7040,      -22.7860,            0.,NA,NA,"",   186.491E-03,   145.318E-03,  -116.883E-03,   20.3349E-03
C:/temp/dataset/0/10_12.odb,Step-1,Increment      1: Step Time =    1.000,"PART-1-1",           257,      -8.82647,      -21.3553,            0.,NA,NA,"",   162.001E-03,   160.928E-03,   18.6177E-03,   8.02271E-03
C:/temp/dataset/0/10_12.odb,Step-1,Increment      1: Step Time =    1.000,"PART-1-1",           258,      -9.77631,       19.1047,            0.,NA,NA,"",       5.11866,       5.11821,  -68.0137E-03,   6.52892E-03
C:/temp/dataset/0/10_12.odb,Step-1,Increment      1: Step Time =    1.000,"PART-1-1",           259,      -7.77355,      -23.8785,            0.,NA,NA,"",   88.6996E-03,   87.8682E-03,  -12.1160E-03,   6.76902E-03
C:/temp/dataset/0/10_12.odb,Step-1,Increment      1: Step Time =    1.000,"PART-1-1",           260,  -536.979E-03,      -24.7394,            0.,NA,NA,"",   120.465E-03,   120.361E-03,   5.00634E-03,   21.5129E-03
C:/temp/dataset/0/10_12.odb,Step-1,Increment      1: Step Time =    1.000,"PART-1-1",           261,      -9.52558,       24.7102,            0.,NA,NA,"",       5.52515,       5.52407,  -108.797E-03,   14.0468E-03
C:/temp/dataset/0/10_12.odb,Step-1,Increment      1: Step Time =    1.000,"PART-1-1",           262,      -2.15050,       21.2402,            0.,NA,NA,"",       5.38876,       5.36681,  -485.809E-03,   22.5608E-03
C:/temp/dataset/0/10_12.odb,Step-1,Increment      1: Step Time =    1.000,"PART-1-1",           263,      -3.09708,       22.5364,            0.,NA,NA,"",       5.42163,       5.40081,  -474.615E-03,   16.0329E-03
C:/temp/dataset/0/10_12.odb,Step-1,Increment      1: Step Time =    1.000,"PART-1-1",           264,      -4.69657,       21.2962,            0.,NA,NA,"",       5.34092,       5.32266,  -441.259E-03,   35.2376E-03
C:/temp/dataset/0/10_12.odb,Step-1,Increment      1: Step Time =    1.000,"PART-1-1",           265,         -3.75,           20.,            0.,NA,NA,"",       5.30732,       5.28895,  -441.245E-03,   45.2840E-03
C:/temp/dataset/0/10_12.odb,Step-1,Increment      1: Step Time =    1.000,"PART-1-1",           266,      -4.10052,       23.8735,            0.,NA,NA,"",       5.47855,       5.46096,  -438.561E-03,   12.4733E-03
C:/temp/dataset/0/10_12.odb,Step-1,Increment      1: Step Time =    1.000,"PART-1-1",           267,      -5.24999,       25.0683,            0.,NA,NA,"",       5.53502,       5.52170,  -383.819E-03,   7.41343E-03
C:/temp/dataset/0/10_12.odb,Step-1,Increment      1: Step Time =    1.000,"PART-1-1",           268,      -6.84155,       23.6782,            0.,NA,NA,"",       5.46595,       5.45749,  -304.077E-03,   11.9139E-03
C:/temp/dataset/0/10_12.odb,Step-1,Increment      1: Step Time =    1.000,"PART-1-1",           269,      -5.69208,       22.4834,            0.,NA,NA,"",       5.40219,       5.38867,  -382.046E-03,   13.5985E-03
C:/temp/dataset/0/10_12.odb,Step-1,Increment      1: Step Time =    1.000,"PART-1-1",           270,      -7.35192,       14.9896,            0.,NA,NA,"",       4.64798,       4.63690,  -320.637E-03,   19.3428E-03
C:/temp/dataset/0/10_12.odb,Step-1,Increment      1: Step Time =    1.000,"PART-1-1",           271,      -8.56303,       16.3048,            0.,NA,NA,"",       4.81368,       4.81021,  -182.714E-03,   16.2833E-03
C:/temp/dataset/0/10_12.odb,Step-1,Increment      1: Step Time =    1.000,"PART-1-1",           272,      -9.81613,       14.5472,            0.,NA,NA,"",       4.60830,       4.60803,  -49.5853E-03,   10.6778E-03
C:/temp/dataset/0/10_12.odb,Step-1,Increment      1: Step Time =    1.000,"PART-1-1",           273,      -8.60502,       13.2320,            0.,NA,NA,"",       4.43240,       4.42848,  -186.272E-03,   13.6339E-03
C:/temp/dataset/0/10_12.odb,Step-1,Increment      1: Step Time =    1.000,"PART-1-1",           274,          -15.,         -16.5,            0.,NA,NA,"",   733.104E-03,   554.866E-03,   479.130E-03,   42.0519E-03
C:/temp/dataset/0/10_12.odb,Step-1,Increment      1: Step Time =    1.000,"PART-1-1",           275,      -13.6504,      -17.8249,            0.,NA,NA,"",   542.397E-03,   423.602E-03,   338.756E-03,   34.1360E-03
C:/temp/dataset/0/10_12.odb,Step-1,Increment      1: Step Time =    1.000,"PART-1-1",           276,      -12.3363,      -16.1340,            0.,NA,NA,"",   607.939E-03,   538.848E-03,   281.483E-03,   23.4211E-03
C:/temp/dataset/0/10_12.odb,Step-1,Increment      1: Step Time =    1.000,"PART-1-1",           277,      -13.6859,      -14.8091,            0.,NA,NA,"",   799.855E-03,   682.011E-03,   417.886E-03,   30.8019E-03
C:/temp/dataset/0/10_12.odb,Step-1,Increment      1: Step Time =    1.000,"PART-1-1",           278,      -4.46540,      -27.1831,            0.,NA,NA,"",   50.7225E-03,   49.1752E-03,  -12.4327E-03,   15.2488E-03
C:/temp/dataset/0/10_12.odb,Step-1,Increment      1: Step Time =    1.000,"PART-1-1",           279,      -2.97305,      -25.9670,            0.,NA,NA,"",   85.5516E-03,   83.9644E-03,  -16.4030E-03,   19.8976E-03
C:/temp/dataset/0/10_12.odb,Step-1,Increment      1: Step Time =    1.000,"PART-1-1",           280,      -4.19392,      -24.5512,            0.,NA,NA,"",   108.353E-03,   102.380E-03,  -35.4788E-03,   20.2679E-03
C:/temp/dataset/0/10_12.odb,Step-1,Increment      1: Step Time =    1.000,"PART-1-1",           281,      -5.68627,      -25.7673,            0.,NA,NA,"",   69.3053E-03,   65.4453E-03,  -22.8063E-03,   15.5368E-03
C:/temp/dataset/0/10_12.odb,Step-1,Increment      1: Step Time =    1.000,"PART-1-1",           282,      -5.28634,      -23.2314,            0.,NA,NA,"",   130.989E-03,   119.792E-03,  -52.9895E-03,   21.7501E-03
C:/temp/dataset/0/10_12.odb,Step-1,Increment      1: Step Time =    1.000,"PART-1-1",           283,      -2.80857,      -23.4296,            0.,NA,NA,"",   139.101E-03,   135.337E-03,  -32.1415E-03,   22.3723E-03
C:/temp/dataset/0/10_12.odb,Step-1,Increment      1: Step Time =    1.000,"PART-1-1",           284,      -3.90099,      -22.1098,            0.,NA,NA,"",   166.214E-03,   153.708E-03,  -63.2550E-03,   23.7629E-03
C:/temp/dataset/0/10_12.odb,Step-1,Increment      1: Step Time =    1.000,"PART-1-1",           285,       1.61260,      -23.5545,            0.,NA,NA,"",   152.982E-03,   147.140E-03,   41.8742E-03,   25.7639E-03
C:/temp/dataset/0/10_12.odb,Step-1,Increment      1: Step Time =    1.000,"PART-1-1",           286,       2.09558,      -25.4897,            0.,NA,NA,"",   106.895E-03,   100.647E-03,   36.0079E-03,   25.2287E-03
C:/temp/dataset/0/10_12.odb,Step-1,Increment      1: Step Time =    1.000,"PART-1-1",           287,       3.30955,      -24.8521,            0.,NA,NA,"",   122.636E-03,   109.857E-03,   54.5077E-03,   28.5561E-03
C:/temp/dataset/0/10_12.odb,Step-1,Increment      1: Step Time =    1.000,"PART-1-1",           288,       2.82657,      -22.9168,            0.,NA,NA,"",   179.479E-03,   163.451E-03,   74.1386E-03,   28.7555E-03
C:/temp/dataset/0/10_12.odb,Step-1,Increment      1: Step Time =    1.000,"PART-1-1",           289,       13.8857,      -20.1351,            0.,NA,NA,"",   570.352E-03,   365.513E-03,  -437.837E-03,   53.5334E-03
C:/temp/dataset/0/10_12.odb,Step-1,Increment      1: Step Time =    1.000,"PART-1-1",           290,           15.,        -18.75,            0.,NA,NA,"",   810.912E-03,   516.143E-03,  -625.440E-03,   65.4078E-03
C:/temp/dataset/0/10_12.odb,Step-1,Increment      1: Step Time =    1.000,"PART-1-1",           291,       13.8316,      -17.6482,            0.,NA,NA,"",   826.817E-03,   609.275E-03,  -558.938E-03,   49.6058E-03
C:/temp/dataset/0/10_12.odb,Step-1,Increment      1: Step Time =    1.000,"PART-1-1",           292,       12.7173,      -19.0333,            0.,NA,NA,"",   585.456E-03,   444.692E-03,  -380.799E-03,   38.2413E-03
C:/temp/dataset/0/10_12.odb,Step-1,Increment      1: Step Time =    1.000,"PART-1-1",           293,       13.7508,      -12.5905,            0.,NA,NA,"",       1.54430,       1.32934,  -785.943E-03,   32.8019E-03
C:/temp/dataset/0/10_12.odb,Step-1,Increment      1: Step Time =    1.000,"PART-1-1",           294,           15.,        -11.25,            0.,NA,NA,"",       1.88023,       1.55634,      -1.05502,   34.1513E-03
C:/temp/dataset/0/10_12.odb,Step-1,Increment      1: Step Time =    1.000,"PART-1-1",           295,       13.7881,      -10.0330,            0.,NA,NA,"",       1.98558,       1.77330,  -893.269E-03,   23.8684E-03
C:/temp/dataset/0/10_12.odb,Step-1,Increment      1: Step Time =    1.000,"PART-1-1",           296,       12.5389,      -11.3735,            0.,NA,NA,"",       1.66725,       1.53835,  -642.812E-03,   26.2744E-03
C:/temp/dataset/0/10_12.odb,Step-1,Increment      1: Step Time =    1.000,"PART-1-1",           297,       11.3345,      -10.0200,            0.,NA,NA,"",       1.85732,       1.78980,  -496.253E-03,   22.7510E-03
C:/temp/dataset/0/10_12.odb,Step-1,Increment      1: Step Time =    1.000,"PART-1-1",           298,       10.0449,      -11.4123,            0.,NA,NA,"",       1.56926,       1.54606,  -268.828E-03,   23.1726E-03
C:/temp/dataset/0/10_12.odb,Step-1,Increment      1: Step Time =    1.000,"PART-1-1",           299,       11.2492,      -12.7658,            0.,NA,NA,"",       1.36478,       1.30151,  -410.721E-03,   24.0143E-03
C:/temp/dataset/0/10_12.odb,Step-1,Increment      1: Step Time =    1.000,"PART-1-1",           300,       9.32361,      -6.65743,            0.,NA,NA,"",       2.46542,       2.45214,  -255.560E-03,   21.7227E-03
C:/temp/dataset/0/10_12.odb,Step-1,Increment      1: Step Time =    1.000,"PART-1-1",           301,       10.9574,      -6.33595,            0.,NA,NA,"",       2.55264,       2.49729,  -528.682E-03,   22.7043E-03
C:/temp/dataset/0/10_12.odb,Step-1,Increment      1: Step Time =    1.000,"PART-1-1",           302,       10.9595,      -4.69463,            0.,NA,NA,"",       2.87448,       2.81787,  -567.688E-03,   22.6332E-03
C:/temp/dataset/0/10_12.odb,Step-1,Increment      1: Step Time =    1.000,"PART-1-1",           303,       9.32578,      -5.01612,            0.,NA,NA,"",       2.78831,       2.77278,  -293.902E-03,   21.6839E-03
C:/temp/dataset/0/10_12.odb,Step-1,Increment      1: Step Time =    1.000,"PART-1-1",           304,       12.9351,      -4.11714,            0.,NA,NA,"",       3.04404,       2.90525,  -908.672E-03,   15.4154E-03
C:/temp/dataset/0/10_12.odb,Step-1,Increment      1: Step Time =    1.000,"PART-1-1",           305,       11.6846,      -3.48758,            0.,NA,NA,"",       3.12620,       3.04399,  -712.227E-03,   19.5639E-03
C:/temp/dataset/0/10_12.odb,Step-1,Increment      1: Step Time =    1.000,"PART-1-1",           306,       12.2101,      -5.32419,            0.,NA,NA,"",       2.78623,       2.68049,  -760.302E-03,   18.4800E-03
C:/temp/dataset/0/10_12.odb,Step-1,Increment      1: Step Time =    1.000,"PART-1-1",           307,       9.86769,  -155.410E-03,            0.,NA,NA,"",       3.72741,       3.69486,  -491.502E-03,   21.5478E-03
C:/temp/dataset/0/10_12.odb,Step-1,Increment      1: Step Time =    1.000,"PART-1-1",           308,       8.53089,   901.975E-03,            0.,NA,NA,"",       3.91112,       3.89842,  -314.989E-03,   20.8848E-03
C:/temp/dataset/0/10_12.odb,Step-1,Increment      1: Step Time =    1.000,"PART-1-1",           309,       7.40884,      -1.02539,            0.,NA,NA,"",       3.56013,       3.55907,  -86.9744E-03,   24.1061E-03
C:/temp/dataset/0/10_12.odb,Step-1,Increment      1: Step Time =    1.000,"PART-1-1",           310,       8.74564,      -2.08278,            0.,NA,NA,"",       3.35793,       3.34680,  -273.214E-03,   22.5219E-03
C:/temp/dataset/0/10_12.odb,Step-1,Increment      1: Step Time =    1.000,"PART-1-1",           311,       9.64302,       5.60069,            0.,NA,NA,"",       4.62960,       4.59748,  -544.406E-03,   8.26522E-03
C:/temp/dataset/0/10_12.odb,Step-1,Increment      1: Step Time =    1.000,"PART-1-1",           312,       10.9412,       4.35663,            0.,NA,NA,"",       4.46912,       4.41474,  -695.032E-03,   11.3600E-03
C:/temp/dataset/0/10_12.odb,Step-1,Increment      1: Step Time =    1.000,"PART-1-1",           313,       12.2262,       5.93259,            0.,NA,NA,"",       4.68194,       4.60421,  -849.603E-03,   16.3437E-03
C:/temp/dataset/0/10_12.odb,Step-1,Increment      1: Step Time =    1.000,"PART-1-1",           314,       10.9280,       7.17665,            0.,NA,NA,"",       4.81919,       4.76828,  -698.654E-03,   8.10474E-03
C:/temp/dataset/0/10_12.odb,Step-1,Increment      1: Step Time =    1.000,"PART-1-1",           315,       13.6103,       7.39232,            0.,NA,NA,"",       4.85207,       4.75094,  -985.426E-03,   29.0004E-03
C:/temp/dataset/0/10_12.odb,Step-1,Increment      1: Step Time =    1.000,"PART-1-1",           316,           15.,          8.75,            0.,NA,NA,"",       4.98346,       4.86303,      -1.08894,   40.4700E-03
C:/temp/dataset/0/10_12.odb,Step-1,Increment      1: Step Time =    1.000,"PART-1-1",           317,       13.6268,       9.99700,            0.,NA,NA,"",       5.08871,       5.00226,  -933.983E-03,   27.2959E-03
C:/temp/dataset/0/10_12.odb,Step-1,Increment      1: Step Time =    1.000,"PART-1-1",           318,       12.2370,       8.63932,            0.,NA,NA,"",       4.97045,       4.90121,  -826.793E-03,   16.1913E-03
C:/temp/dataset/0/10_12.odb,Step-1,Increment      1: Step Time =    1.000,"PART-1-1",           319,       13.8144,       17.6522,            0.,NA,NA,"",       5.47557,       5.41535,  -809.849E-03,   15.7628E-03
C:/temp/dataset/0/10_12.odb,Step-1,Increment      1: Step Time =    1.000,"PART-1-1",           320,           15.,         18.75,            0.,NA,NA,"",       5.50127,       5.43794,  -832.336E-03,   17.6575E-03
C:/temp/dataset/0/10_12.odb,Step-1,Increment      1: Step Time =    1.000,"PART-1-1",           321,       13.8887,       20.1095,            0.,NA,NA,"",       5.53444,       5.47848,  -785.060E-03,   11.1799E-03
C:/temp/dataset/0/10_12.odb,Step-1,Increment      1: Step Time =    1.000,"PART-1-1",           322,       12.7031,       19.0116,            0.,NA,NA,"",       5.51097,       5.45892,  -755.640E-03,   11.3298E-03
C:/temp/dataset/0/10_12.odb,Step-1,Increment      1: Step Time =    1.000,"PART-1-1",           323,       11.4255,       18.0142,            0.,NA,NA,"",       5.48395,       5.43777,  -710.140E-03,   10.3258E-03
C:/temp/dataset/0/10_12.odb,Step-1,Increment      1: Step Time =    1.000,"PART-1-1",           324,       11.6322,       20.3693,            0.,NA,NA,"",       5.53694,       5.49090,  -712.578E-03,   9.60300E-03
C:/temp/dataset/0/10_12.odb,Step-1,Increment      1: Step Time =    1.000,"PART-1-1",           325,       10.3546,       19.3719,            0.,NA,NA,"",       5.51190,       5.47141,  -666.867E-03,   11.1322E-03
C:/temp/dataset/0/10_12.odb,Step-1,Increment      1: Step Time =    1.000,"PART-1-1",           326,       10.9394,       26.3107,            0.,NA,NA,"",       5.62786,       5.58460,  -696.480E-03,   4.07360E-03
C:/temp/dataset/0/10_12.odb,Step-1,Increment      1: Step Time =    1.000,"PART-1-1",           327,       11.9108,       25.0855,            0.,NA,NA,"",       5.61257,       5.56660,  -716.826E-03,   4.56492E-03
C:/temp/dataset/0/10_12.odb,Step-1,Increment      1: Step Time =    1.000,"PART-1-1",           328,       13.0011,       26.2585,            0.,NA,NA,"",       5.63359,       5.58484,  -739.486E-03,   3.18573E-03
C:/temp/dataset/0/10_12.odb,Step-1,Increment      1: Step Time =    1.000,"PART-1-1",           329,       12.0296,       27.4837,            0.,NA,NA,"",       5.65043,       5.60441,  -719.703E-03,   2.42193E-03
C:/temp/dataset/0/10_12.odb,Step-1,Increment      1: Step Time =    1.000,"PART-1-1",           330,       14.0179,       27.4887,            0.,NA,NA,"",       5.65557,       5.60451,  -758.210E-03,   1.09510E-03
C:/temp/dataset/0/10_12.odb,Step-1,Increment      1: Step Time =    1.000,"PART-1-1",           331,       13.9832,       25.0198,            0.,NA,NA,"",       5.61629,       5.56453,  -760.754E-03,   3.26744E-03
C:/temp/dataset/0/10_12.odb,Step-1,Increment      1: Step Time =    1.000,"PART-1-1",           332,           15.,         26.25,            0.,NA,NA,"",       5.63707,       5.58332,  -776.573E-03,   1.83513E-03
C:/temp/dataset/0/10_12.odb,Step-1,Increment      1: Step Time =    1.000,"PART-1-1",           333,       3.55377,       20.8403,            0.,NA,NA,"",       5.47125,       5.44348,  -550.578E-03,   11.3336E-03
C:/temp/dataset/0/10_12.odb,Step-1,Increment      1: Step Time =    1.000,"PART-1-1",           334,       4.16667,           20.,            0.,NA,NA,"",       5.47172,       5.44443,  -545.810E-03,   14.0116E-03
C:/temp/dataset/0/10_12.odb,Step-1,Increment      1: Step Time =    1.000,"PART-1-1",           335,       5.33068,       20.7523,            0.,NA,NA,"",       5.48765,       5.46069,  -543.280E-03,   22.4691E-03
C:/temp/dataset/0/10_12.odb,Step-1,Increment      1: Step Time =    1.000,"PART-1-1",           336,       4.71778,       21.5926,            0.,NA,NA,"",       5.49241,       5.46423,  -555.645E-03,   17.2125E-03
C:/temp/dataset/0/10_12.odb,Step-1,Increment      1: Step Time =    1.000,"PART-1-1",           337,       1.85672,       20.8541,            0.,NA,NA,"",       5.45183,       5.42496,  -540.668E-03,   14.6449E-03
C:/temp/dataset/0/10_12.odb,Step-1,Increment      1: Step Time =    1.000,"PART-1-1",           338,           2.5,           20.,            0.,NA,NA,"",       5.45137,       5.42447,  -540.825E-03,   15.7822E-03
C:/temp/dataset/0/10_12.odb,Step-1,Increment      1: Step Time =    1.000,"PART-1-1",           339,       2.91049,       21.6945,            0.,NA,NA,"",       5.47721,       5.44919,  -553.317E-03,   12.6616E-03
C:/temp/dataset/0/10_12.odb,Step-1,Increment      1: Step Time =    1.000,"PART-1-1",           340,       1.32465,      -26.7993,            0.,NA,NA,"",   77.0460E-03,   74.7733E-03,   18.5754E-03,   20.2432E-03
C:/temp/dataset/0/10_12.odb,Step-1,Increment      1: Step Time =    1.000,"PART-1-1",           341,   399.133E-03,      -24.6509,            0.,NA,NA,"",   124.496E-03,   123.030E-03,   19.0487E-03,   24.4569E-03
C:/temp/dataset/0/10_12.odb,Step-1,Increment      1: Step Time =    1.000,"PART-1-1",           342,  -371.796E-03,      -25.9605,            0.,NA,NA,"",   94.8711E-03,   94.6572E-03,   6.36679E-03,   20.8341E-03
C:/temp/dataset/0/10_12.odb,Step-1,Increment      1: Step Time =    1.000,"PART-1-1",           343,       7.16814,       28.8250,            0.,NA,NA,"",       5.65475,       5.61942,  -631.126E-03,   2.83353E-03
C:/temp/dataset/0/10_12.odb,Step-1,Increment      1: Step Time =    1.000,"PART-1-1",           344,       7.90869,       27.6030,            0.,NA,NA,"",       5.63611,       5.59955,  -640.924E-03,   2.75897E-03
C:/temp/dataset/0/10_12.odb,Step-1,Increment      1: Step Time =    1.000,"PART-1-1",           345,       9.17805,       28.7779,            0.,NA,NA,"",       5.66177,       5.62255,  -665.284E-03,   2.63424E-03
C:/temp/dataset/0/10_12.odb,Step-1,Increment      1: Step Time =    1.000,"PART-1-1",           346,        8.4375,           30.,            0.,NA,NA,"",       5.67994,       5.64219,  -653.766E-03,   2.69702E-03
C:/temp/dataset/0/10_12.odb,Step-1,Increment      1: Step Time =    1.000,"PART-1-1",           347,       1.19326,       21.8923,            0.,NA,NA,"",       5.46216,       5.43543,  -539.721E-03,   14.1252E-03
C:/temp/dataset/0/10_12.odb,Step-1,Increment      1: Step Time =    1.000,"PART-1-1",           348,   169.882E-03,       21.0382,            0.,NA,NA,"",       5.42969,       5.40472,  -520.075E-03,   17.5019E-03
C:/temp/dataset/0/10_12.odb,Step-1,Increment      1: Step Time =    1.000,"PART-1-1",           349,   833.333E-03,           20.,            0.,NA,NA,"",       5.42244,       5.39729,  -521.673E-03,   19.0510E-03
C:/temp/dataset/0/10_12.odb,Step-1,Increment      1: Step Time =    1.000,"PART-1-1",           350,       11.0482,       12.7829,            0.,NA,NA,"",       5.27093,       5.22402,  -701.646E-03,   9.70134E-03
C:/temp/dataset/0/10_12.odb,Step-1,Increment      1: Step Time =    1.000,"PART-1-1",           351,       12.3949,       13.9828,            0.,NA,NA,"",       5.33785,       5.27999,  -783.840E-03,   14.5926E-03
C:/temp/dataset/0/10_12.odb,Step-1,Increment      1: Step Time =    1.000,"PART-1-1",           352,       11.2086,       15.4830,            0.,NA,NA,"",       5.40040,       5.35403,  -706.227E-03,   9.94917E-03
C:/temp/dataset/0/10_12.odb,Step-1,Increment      1: Step Time =    1.000,"PART-1-1",           353,       9.86191,       14.2831,            0.,NA,NA,"",       5.34126,       5.30445,  -626.035E-03,   11.1190E-03
C:/temp/dataset/0/10_12.odb,Step-1,Increment      1: Step Time =    1.000,"PART-1-1",           354,       9.65710,       8.53837,            0.,NA,NA,"",       4.95147,       4.91839,  -571.409E-03,   7.43399E-03
C:/temp/dataset/0/10_12.odb,Step-1,Increment      1: Step Time =    1.000,"PART-1-1",           355,       8.46627,       10.0105,            0.,NA,NA,"",       5.06962,       5.04724,  -475.851E-03,   16.9345E-03
C:/temp/dataset/0/10_12.odb,Step-1,Increment      1: Step Time =    1.000,"PART-1-1",           356,       7.24171,       8.43518,            0.,NA,NA,"",       4.93000,       4.91893,  -330.252E-03,   23.9429E-03
C:/temp/dataset/0/10_12.odb,Step-1,Increment      1: Step Time =    1.000,"PART-1-1",           357,       8.43254,       6.96306,            0.,NA,NA,"",       4.78750,       4.76867,  -424.150E-03,   14.7064E-03
C:/temp/dataset/0/10_12.odb,Step-1,Increment      1: Step Time =    1.000,"PART-1-1",           358,       13.6558,       2.21224,            0.,NA,NA,"",       4.17961,       4.04113,      -1.06697,   24.1394E-03
C:/temp/dataset/0/10_12.odb,Step-1,Increment      1: Step Time =    1.000,"PART-1-1",           359,           15.,          3.75,            0.,NA,NA,"",       4.42382,       4.24728,      -1.23725,   37.3503E-03
C:/temp/dataset/0/10_12.odb,Step-1,Increment      1: Step Time =    1.000,"PART-1-1",           360,       13.6160,       4.79026,            0.,NA,NA,"",       4.54753,       4.42888,      -1.03202,   28.0015E-03
C:/temp/dataset/0/10_12.odb,Step-1,Increment      1: Step Time =    1.000,"PART-1-1",           361,       12.2717,       3.25251,            0.,NA,NA,"",       4.31953,       4.23151,  -867.590E-03,   16.9787E-03
C:/temp/dataset/0/10_12.odb,Step-1,Increment      1: Step Time =    1.000,"PART-1-1",           362,       9.69986,       2.68972,            0.,NA,NA,"",       4.21383,       4.18214,  -515.826E-03,   15.4300E-03
C:/temp/dataset/0/10_12.odb,Step-1,Increment      1: Step Time =    1.000,"PART-1-1",           363,       11.0304,       1.58560,            0.,NA,NA,"",       4.04301,       3.98408,  -687.798E-03,   16.6499E-03
C:/temp/dataset/0/10_12.odb,Step-1,Increment      1: Step Time =    1.000,"PART-1-1",           364,       7.55861,      -11.4267,            0.,NA,NA,"",       1.57765,       1.57445,   100.366E-03,   19.9443E-03
C:/temp/dataset/0/10_12.odb,Step-1,Increment      1: Step Time =    1.000,"PART-1-1",           365,       6.31268,      -9.90243,            0.,NA,NA,"",       1.89844,       1.87599,   291.048E-03,   15.6557E-03
C:/temp/dataset/0/10_12.odb,Step-1,Increment      1: Step Time =    1.000,"PART-1-1",           366,            5.,      -11.6667,            0.,NA,NA,"",       1.66655,       1.58657,   510.080E-03,   27.1731E-03
C:/temp/dataset/0/10_12.odb,Step-1,Increment      1: Step Time =    1.000,"PART-1-1",           367,       6.24593,      -13.1909,            0.,NA,NA,"",       1.32642,       1.29248,   298.138E-03,   26.9508E-03
C:/temp/dataset/0/10_12.odb,Step-1,Increment      1: Step Time =    1.000,"PART-1-1",           368,       14.0233,      -5.11850,            0.,NA,NA,"",       2.90414,       2.69604,      -1.07952,   8.21156E-03
C:/temp/dataset/0/10_12.odb,Step-1,Increment      1: Step Time =    1.000,"PART-1-1",           369,           15.,         -3.75,            0.,NA,NA,"",       3.20829,       2.94033,      -1.28359,   5.06957E-03
C:/temp/dataset/0/10_12.odb,Step-1,Increment      1: Step Time =    1.000,"PART-1-1",           370,       13.9118,      -2.74864,            0.,NA,NA,"",       3.33754,       3.15149,      -1.09874,   11.0486E-03
C:/temp/dataset/0/10_12.odb,Step-1,Increment      1: Step Time =    1.000,"PART-1-1",           371,       12.6080,      -16.5365,            0.,NA,NA,"",   867.381E-03,   730.965E-03,  -466.948E-03,   34.9767E-03
C:/temp/dataset/0/10_12.odb,Step-1,Increment      1: Step Time =    1.000,"PART-1-1",           372,       11.3130,      -15.4489,            0.,NA,NA,"",   942.018E-03,   875.283E-03,  -348.249E-03,   26.0059E-03
C:/temp/dataset/0/10_12.odb,Step-1,Increment      1: Step Time =    1.000,"PART-1-1",           373,       10.1880,      -16.9099,            0.,NA,NA,"",   695.814E-03,   670.016E-03,  -187.714E-03,   21.9146E-03
C:/temp/dataset/0/10_12.odb,Step-1,Increment      1: Step Time =    1.000,"PART-1-1",           374,       11.4829,      -17.9975,            0.,NA,NA,"",   616.655E-03,   540.994E-03,  -295.954E-03,   27.4593E-03
C:/temp/dataset/0/10_12.odb,Step-1,Increment      1: Step Time =    1.000,"PART-1-1",           375,       7.63417,      -21.6752,            0.,NA,NA,"",   197.450E-03,   191.203E-03,   49.2702E-03,   12.1881E-03
C:/temp/dataset/0/10_12.odb,Step-1,Increment      1: Step Time =    1.000,"PART-1-1",           376,       7.43394,      -23.2038,            0.,NA,NA,"",   131.008E-03,   123.246E-03,   44.4229E-03,   13.0148E-03
C:/temp/dataset/0/10_12.odb,Step-1,Increment      1: Step Time =    1.000,"PART-1-1",           377,       8.61676,      -23.4202,            0.,NA,NA,"",   110.878E-03,   110.814E-03,  -3.74780E-03,   3.45193E-03
C:/temp/dataset/0/10_12.odb,Step-1,Increment      1: Step Time =    1.000,"PART-1-1",           378,       8.81699,      -21.8917,            0.,NA,NA,"",   182.648E-03,   181.944E-03,  -16.0280E-03,   6.44549E-03
C:/temp/dataset/0/10_12.odb,Step-1,Increment      1: Step Time =    1.000,"PART-1-1",           379,  -438.919E-03,      -23.5046,            0.,NA,NA,"",   141.351E-03,   141.203E-03,   6.47766E-03,   20.9371E-03
C:/temp/dataset/0/10_12.odb,Step-1,Increment      1: Step Time =    1.000,"PART-1-1",           380,   774.543E-03,      -22.4081,            0.,NA,NA,"",   161.191E-03,   158.640E-03,   28.5650E-03,   22.2998E-03
C:/temp/dataset/0/10_12.odb,Step-1,Increment      1: Step Time =    1.000,"PART-1-1",           381,      -7.50181,      -26.8221,            0.,NA,NA,"",   34.2708E-03,   34.1144E-03,  -3.27031E-03,   8.01806E-03
C:/temp/dataset/0/10_12.odb,Step-1,Increment      1: Step Time =    1.000,"PART-1-1",           382,      -9.04643,      -28.2740,            0.,NA,NA,"",   12.4639E-03,   9.74123E-03,   7.77550E-03,   5.87991E-03
C:/temp/dataset/0/10_12.odb,Step-1,Increment      1: Step Time =    1.000,"PART-1-1",           383,          -7.5,          -30.,            0.,NA,NA,"",            0.,   3.75990E-39,   6.25619E-39,   4.59026E-03
C:/temp/dataset/0/10_12.odb,Step-1,Increment      1: Step Time =    1.000,"PART-1-1",           384,      -5.95538,      -28.5482,            0.,NA,NA,"",   17.9148E-03,   17.6738E-03,  -2.92908E-03,   9.67819E-03
C:/temp/dataset/0/10_12.odb,Step-1,Increment      1: Step Time =    1.000,"PART-1-1",           385,      -10.9107,       24.5471,            0.,NA,NA,"",       5.51836,       5.51836,  -96.7251E-06,   13.1261E-03
C:/temp/dataset/0/10_12.odb,Step-1,Increment      1: Step Time =    1.000,"PART-1-1",           386,      -9.41006,       26.0517,            0.,NA,NA,"",       5.59980,       5.59857,  -117.318E-03,   12.9458E-03
C:/temp/dataset/0/10_12.odb,Step-1,Increment      1: Step Time =    1.000,"PART-1-1",           387,      -10.7443,       27.3091,            0.,NA,NA,"",       5.67780,       5.67777,  -18.1561E-03,   11.1523E-03
C:/temp/dataset/0/10_12.odb,Step-1,Increment      1: Step Time =    1.000,"PART-1-1",           388,      -12.2450,       25.8045,            0.,NA,NA,"",       5.59615,       5.59528,   98.4380E-03,   11.4361E-03
C:/temp/dataset/0/10_12.odb,Step-1,Increment      1: Step Time =    1.000,"PART-1-1",           389,      -1.21620,       23.8189,            0.,NA,NA,"",       5.49306,       5.46904,  -513.152E-03,   14.9667E-03
C:/temp/dataset/0/10_12.odb,Step-1,Increment      1: Step Time =    1.000,"PART-1-1",           390,      -2.21965,       25.1560,            0.,NA,NA,"",       5.54018,       5.51827,  -492.318E-03,   10.3846E-03
C:/temp/dataset/0/10_12.odb,Step-1,Increment      1: Step Time =    1.000,"PART-1-1",           391,      -12.3287,       22.9401,            0.,NA,NA,"",       5.41924,       5.41780,   124.794E-03,   12.1320E-03
C:/temp/dataset/0/10_12.odb,Step-1,Increment      1: Step Time =    1.000,"PART-1-1",           392,      -11.0144,       21.7359,            0.,NA,NA,"",       5.33565,       5.33560,   24.1701E-03,   10.6302E-03
C:/temp/dataset/0/10_12.odb,Step-1,Increment      1: Step Time =    1.000,"PART-1-1",           393,      -9.59641,       23.3428,            0.,NA,NA,"",       5.44472,       5.44377,  -101.868E-03,   12.7055E-03
C:/temp/dataset/0/10_12.odb,Step-1,Increment      1: Step Time =    1.000,"PART-1-1",           394,      -8.52014,       19.3558,            0.,NA,NA,"",       5.14522,       5.14199,  -182.293E-03,   11.2998E-03
C:/temp/dataset/0/10_12.odb,Step-1,Increment      1: Step Time =    1.000,"PART-1-1",           395,      -7.12750,       20.9906,            0.,NA,NA,"",       5.29887,       5.29050,  -297.814E-03,   14.4372E-03
C:/temp/dataset/0/10_12.odb,Step-1,Increment      1: Step Time =    1.000,"PART-1-1",           396,      -8.32913,       22.1749,            0.,NA,NA,"",       5.37341,       5.36961,  -202.054E-03,   12.1774E-03
C:/temp/dataset/0/10_12.odb,Step-1,Increment      1: Step Time =    1.000,"PART-1-1",           397,      -9.72177,       20.5400,            0.,NA,NA,"",       5.24570,       5.24509,  -80.0782E-03,   7.16413E-03
C:/temp/dataset/0/10_12.odb,Step-1,Increment      1: Step Time =    1.000,"PART-1-1",           398,      -6.16480,       16.7267,            0.,NA,NA,"",       4.85216,       4.83330,  -427.352E-03,   26.7033E-03
C:/temp/dataset/0/10_12.odb,Step-1,Increment      1: Step Time =    1.000,"PART-1-1",           399,           -5.,       18.4615,            0.,NA,NA,"",       5.04155,       5.01558,  -511.019E-03,   48.0100E-03
C:/temp/dataset/0/10_12.odb,Step-1,Increment      1: Step Time =    1.000,"PART-1-1",           400,      -6.13199,       19.8034,            0.,NA,NA,"",       5.21363,       5.19992,  -377.835E-03,   37.0190E-03
C:/temp/dataset/0/10_12.odb,Step-1,Increment      1: Step Time =    1.000,"PART-1-1",           401,      -7.29678,       18.0686,            0.,NA,NA,"",       5.01616,       5.00751,  -294.579E-03,   18.7631E-03
C:/temp/dataset/0/10_12.odb,Step-1,Increment      1: Step Time =    1.000,"PART-1-1",           402,      -11.0823,       15.8203,            0.,NA,NA,"",       4.77066,       4.76998,   80.4048E-03,   7.87714E-03
C:/temp/dataset/0/10_12.odb,Step-1,Increment      1: Step Time =    1.000,"PART-1-1",           403,      -12.3677,       14.0517,            0.,NA,NA,"",       4.56869,       4.56239,   239.829E-03,   8.80629E-03
C:/temp/dataset/0/10_12.odb,Step-1,Increment      1: Step Time =    1.000,"PART-1-1",           404,      -11.1015,       12.7786,            0.,NA,NA,"",       4.39460,       4.39333,   105.828E-03,   8.04734E-03
C:/temp/dataset/0/10_12.odb,Step-1,Increment      1: Step Time =    1.000,"PART-1-1",           405,          -15.,          10.5,            0.,NA,NA,"",       4.16016,       4.11265,   626.904E-03,   10.7052E-03
C:/temp/dataset/0/10_12.odb,Step-1,Increment      1: Step Time =    1.000,"PART-1-1",           406,      -13.6919,       9.25384,            0.,NA,NA,"",       3.96309,       3.93502,   470.843E-03,   5.88620E-03
C:/temp/dataset/0/10_12.odb,Step-1,Increment      1: Step Time =    1.000,"PART-1-1",           407,      -12.3755,       11.0249,            0.,NA,NA,"",       4.17838,       4.16915,   277.579E-03,   7.67981E-03
C:/temp/dataset/0/10_12.odb,Step-1,Increment      1: Step Time =    1.000,"PART-1-1",           408,      -13.6836,       12.2710,            0.,NA,NA,"",       4.36181,       4.34119,   423.647E-03,   9.76145E-03
C:/temp/dataset/0/10_12.odb,Step-1,Increment      1: Step Time =    1.000,"PART-1-1",           409,      -7.40029,       8.84536,            0.,NA,NA,"",       3.82919,       3.81402,  -340.480E-03,   12.8706E-03
C:/temp/dataset/0/10_12.odb,Step-1,Increment      1: Step Time =    1.000,"PART-1-1",           410,      -8.62408,       10.1694,            0.,NA,NA,"",       4.02038,       4.01616,  -184.155E-03,   11.8261E-03
C:/temp/dataset/0/10_12.odb,Step-1,Increment      1: Step Time =    1.000,"PART-1-1",           411,      -9.86273,       8.43495,            0.,NA,NA,"",       3.78564,       3.78558,  -20.3638E-03,   10.1824E-03
C:/temp/dataset/0/10_12.odb,Step-1,Increment      1: Step Time =    1.000,"PART-1-1",           412,      -8.63893,       7.11093,            0.,NA,NA,"",       3.58487,       3.58064,  -174.159E-03,   10.5240E-03
C:/temp/dataset/0/10_12.odb,Step-1,Increment      1: Step Time =    1.000,"PART-1-1",           413,          -15.,           1.5,            0.,NA,NA,"",       2.92218,       2.82871,   733.160E-03,   6.85805E-03
C:/temp/dataset/0/10_12.odb,Step-1,Increment      1: Step Time =    1.000,"PART-1-1",           414,      -13.7087,   214.116E-03,            0.,NA,NA,"",       2.68004,       2.62212,   554.178E-03,   8.98221E-03
C:/temp/dataset/0/10_12.odb,Step-1,Increment      1: Step Time =    1.000,"PART-1-1",           415,      -12.4129,       1.94059,            0.,NA,NA,"",       2.88410,       2.86076,   366.177E-03,   8.58766E-03
C:/temp/dataset/0/10_12.odb,Step-1,Increment      1: Step Time =    1.000,"PART-1-1",           416,      -13.7042,       3.22647,            0.,NA,NA,"",       3.11298,       3.06626,   537.287E-03,   5.33083E-03
C:/temp/dataset/0/10_12.odb,Step-1,Increment      1: Step Time =    1.000,"PART-1-1",           417,      -9.88317,  -688.536E-03,            0.,NA,NA,"",       2.44269,       2.44237,   39.9857E-03,   9.81816E-03
C:/temp/dataset/0/10_12.odb,Step-1,Increment      1: Step Time =    1.000,"PART-1-1",           418,      -8.64028,      -2.02441,            0.,NA,NA,"",       2.23724,       2.23426,  -115.450E-03,   7.94469E-03
C:/temp/dataset/0/10_12.odb,Step-1,Increment      1: Step Time =    1.000,"PART-1-1",           419,      -7.40757,  -323.915E-03,            0.,NA,NA,"",       2.48733,       2.46965,  -296.104E-03,   6.69954E-03
C:/temp/dataset/0/10_12.odb,Step-1,Increment      1: Step Time =    1.000,"PART-1-1",           420,      -8.65046,       1.01196,            0.,NA,NA,"",       2.68337,       2.67984,  -137.627E-03,   8.56125E-03
C:/temp/dataset/0/10_12.odb,Step-1,Increment      1: Step Time =    1.000,"PART-1-1",           421,          -15.,          -7.5,            0.,NA,NA,"",       1.70404,       1.55520,   696.481E-03,   24.3467E-03
C:/temp/dataset/0/10_12.odb,Step-1,Increment      1: Step Time =    1.000,"PART-1-1",           422,      -13.7007,      -8.80606,            0.,NA,NA,"",       1.45904,       1.36283,   521.038E-03,   21.6810E-03
C:/temp/dataset/0/10_12.odb,Step-1,Increment      1: Step Time =    1.000,"PART-1-1",           423,      -12.4029,      -7.10316,            0.,NA,NA,"",       1.61067,       1.56557,   378.487E-03,   15.5123E-03
C:/temp/dataset/0/10_12.odb,Step-1,Increment      1: Step Time =    1.000,"PART-1-1",           424,      -13.7022,      -5.79711,            0.,NA,NA,"",       1.84454,       1.76163,   546.780E-03,   17.2847E-03
C:/temp/dataset/0/10_12.odb,Step-1,Increment      1: Step Time =    1.000,"PART-1-1",           425,      -7.34368,      -12.4907,            0.,NA,NA,"",   880.814E-03,   867.515E-03,  -152.482E-03,   12.3906E-03
C:/temp/dataset/0/10_12.odb,Step-1,Increment      1: Step Time =    1.000,"PART-1-1",           426,      -8.60430,      -11.1353,            0.,NA,NA,"",       1.02411,       1.02334,  -39.8920E-03,   8.04891E-03
C:/temp/dataset/0/10_12.odb,Step-1,Increment      1: Step Time =    1.000,"PART-1-1",           427,      -9.82710,      -12.7746,            0.,NA,NA,"",   850.347E-03,   845.458E-03,   91.0571E-03,   10.0962E-03
C:/temp/dataset/0/10_12.odb,Step-1,Increment      1: Step Time =    1.000,"PART-1-1",           428,      -8.56648,      -14.1300,            0.,NA,NA,"",   697.545E-03,   697.334E-03,  -17.1464E-03,   9.47118E-03
C:/temp/dataset/0/10_12.odb,Step-1,Increment      1: Step Time =    1.000,"PART-1-1",           429,  -730.622E-03,       22.2784,            0.,NA,NA,"",       5.44667,       5.42219,  -515.851E-03,   17.1989E-03
C:/temp/dataset/0/10_12.odb,Step-1,Increment      1: Step Time =    1.000,"PART-1-1",           430,         -1.25,           20.,            0.,NA,NA,"",       5.38251,       5.36044,  -486.907E-03,   24.3158E-03
C:/temp/dataset/0/10_12.odb,Step-1,Increment      1: Step Time =    1.000,"PART-1-1",           431,       11.1367,       28.7451,            0.,NA,NA,"",       5.66871,       5.62498,  -702.730E-03,   2.02244E-03
C:/temp/dataset/0/10_12.odb,Step-1,Increment      1: Step Time =    1.000,"PART-1-1",           432,       10.3125,           30.,            0.,NA,NA,"",       5.68835,       5.64659,  -688.019E-03,   2.03848E-03
C:/temp/dataset/0/10_12.odb,Step-1,Increment      1: Step Time =    1.000,"PART-1-1",           433,       10.0023,       27.5230,            0.,NA,NA,"",       5.64375,       5.60274,  -679.115E-03,   2.73046E-03
C:/temp/dataset/0/10_12.odb,Step-1,Increment      1: Step Time =    1.000,"PART-1-1",           434,       10.7751,       23.9735,            0.,NA,NA,"",       5.59121,       5.54857,  -689.163E-03,   6.93376E-03
C:/temp/dataset/0/10_12.odb,Step-1,Increment      1: Step Time =    1.000,"PART-1-1",           435,       11.7898,       22.7248,            0.,NA,NA,"",       5.57667,       5.53071,  -714.466E-03,   7.31405E-03
C:/temp/dataset/0/10_12.odb,Step-1,Increment      1: Step Time =    1.000,"PART-1-1",           436,       12.9255,       23.8368,            0.,NA,NA,"",       5.59663,       5.54733,  -741.174E-03,   5.83016E-03
C:/temp/dataset/0/10_12.odb,Step-1,Increment      1: Step Time =    1.000,"PART-1-1",           437,       2.25220,       28.9826,            0.,NA,NA,"",       5.65381,       5.62541,  -565.969E-03,   6.40433E-03
C:/temp/dataset/0/10_12.odb,Step-1,Increment      1: Step Time =    1.000,"PART-1-1",           438,       3.21116,       27.8846,            0.,NA,NA,"",       5.62888,       5.59903,  -578.851E-03,   7.42972E-03
C:/temp/dataset/0/10_12.odb,Step-1,Increment      1: Step Time =    1.000,"PART-1-1",           439,       4.70896,       28.9020,            0.,NA,NA,"",       5.65003,       5.61841,  -596.960E-03,   3.28460E-03
C:/temp/dataset/0/10_12.odb,Step-1,Increment      1: Step Time =    1.000,"PART-1-1",           440,          3.75,           30.,            0.,NA,NA,"",       5.66726,       5.63707,  -584.135E-03,   3.02757E-03
C:/temp/dataset/0/10_12.odb,Step-1,Increment      1: Step Time =    1.000,"PART-1-1",           441,      -8.10884,       24.8461,            0.,NA,NA,"",       5.53008,       5.52596,  -213.386E-03,   11.8447E-03
C:/temp/dataset/0/10_12.odb,Step-1,Increment      1: Step Time =    1.000,"PART-1-1",           442,      -13.5971,       27.1125,            0.,NA,NA,"",       5.67977,       5.67655,   191.293E-03,   5.87243E-03
C:/temp/dataset/0/10_12.odb,Step-1,Increment      1: Step Time =    1.000,"PART-1-1",           443,          -15.,          25.5,            0.,NA,NA,"",       5.58472,       5.57683,   296.754E-03,   8.60203E-03
C:/temp/dataset/0/10_12.odb,Step-1,Increment      1: Step Time =    1.000,"PART-1-1",           444,      -13.6479,       24.1920,            0.,NA,NA,"",       5.50147,       5.49721,   216.299E-03,   11.6217E-03
C:/temp/dataset/0/10_12.odb,Step-1,Increment      1: Step Time =    1.000,"PART-1-1",           445,      -6.53168,       26.2506,            0.,NA,NA,"",       5.59754,       5.58897,  -309.610E-03,   10.0900E-03
C:/temp/dataset/0/10_12.odb,Step-1,Increment      1: Step Time =    1.000,"PART-1-1",           446,      -7.83289,       27.4562,            0.,NA,NA,"",       5.66730,       5.66287,  -224.023E-03,   11.3376E-03
C:/temp/dataset/0/10_12.odb,Step-1,Increment      1: Step Time =    1.000,"PART-1-1",           447,          -15.,          28.5,            0.,NA,NA,"",       5.77415,       5.76732,   280.819E-03,   1.29607E-03
C:/temp/dataset/0/10_12.odb,Step-1,Increment      1: Step Time =    1.000,"PART-1-1",           448,      -12.0971,       28.6125,            0.,NA,NA,"",       5.76588,       5.76532,   79.9995E-03,   5.88936E-03
C:/temp/dataset/0/10_12.odb,Step-1,Increment      1: Step Time =    1.000,"PART-1-1",           449,         -13.5,           30.,            0.,NA,NA,"",       5.86637,       5.86372,   176.177E-03,   1.28776E-03
C:/temp/dataset/0/10_12.odb,Step-1,Increment      1: Step Time =    1.000,"PART-1-1",           450,      -6.19829,       10.5730,            0.,NA,NA,"",       4.06813,       4.03825,  -492.194E-03,   17.0060E-03
C:/temp/dataset/0/10_12.odb,Step-1,Increment      1: Step Time =    1.000,"PART-1-1",           451,      -6.20201,       7.50308,            0.,NA,NA,"",       3.63938,       3.60470,  -501.216E-03,   12.6509E-03
C:/temp/dataset/0/10_12.odb,Step-1,Increment      1: Step Time =    1.000,"PART-1-1",           452,           -5.,       9.23077,            0.,NA,NA,"",       3.88770,       3.83125,  -660.078E-03,   17.6496E-03
C:/temp/dataset/0/10_12.odb,Step-1,Increment      1: Step Time =    1.000,"PART-1-1",           453,      -12.4049,       4.96458,            0.,NA,NA,"",       3.32557,       3.30783,   343.075E-03,   7.22961E-03
C:/temp/dataset/0/10_12.odb,Step-1,Increment      1: Step Time =    1.000,"PART-1-1",           454,      -13.7007,       6.23810,            0.,NA,NA,"",       3.54353,       3.50673,   509.376E-03,   3.59421E-03
C:/temp/dataset/0/10_12.odb,Step-1,Increment      1: Step Time =    1.000,"PART-1-1",           455,          -15.,           4.5,            0.,NA,NA,"",       3.34440,       3.26775,   711.926E-03,   1.16462E-03
C:/temp/dataset/0/10_12.odb,Step-1,Increment      1: Step Time =    1.000,"PART-1-1",           456,      -9.87977,       5.38582,            0.,NA,NA,"",       3.34252,       3.34252,  -248.305E-06,   9.96106E-03
C:/temp/dataset/0/10_12.odb,Step-1,Increment      1: Step Time =    1.000,"PART-1-1",           457,      -8.64969,       4.05795,            0.,NA,NA,"",       3.13591,       3.13194,  -157.762E-03,   9.42138E-03
C:/temp/dataset/0/10_12.odb,Step-1,Increment      1: Step Time =    1.000,"PART-1-1",           458,      -7.40885,       5.78306,            0.,NA,NA,"",       3.38777,       3.37124,  -334.240E-03,   10.2897E-03
C:/temp/dataset/0/10_12.odb,Step-1,Increment      1: Step Time =    1.000,"PART-1-1",           459,      -7.41391,       2.72502,            0.,NA,NA,"",       2.93697,       2.91965,  -318.551E-03,   8.12850E-03
C:/temp/dataset/0/10_12.odb,Step-1,Increment      1: Step Time =    1.000,"PART-1-1",           460,      -9.88624,       2.34489,            0.,NA,NA,"",       2.89171,       2.89164,   20.3676E-03,   9.85896E-03
C:/temp/dataset/0/10_12.odb,Step-1,Increment      1: Step Time =    1.000,"PART-1-1",           461,      -12.4101,      -4.09106,            0.,NA,NA,"",       2.01770,       1.98064,   384.952E-03,   12.9451E-03
C:/temp/dataset/0/10_12.odb,Step-1,Increment      1: Step Time =    1.000,"PART-1-1",           462,      -13.7080,      -2.79395,            0.,NA,NA,"",       2.25422,       2.18412,   557.773E-03,   13.0554E-03
C:/temp/dataset/0/10_12.odb,Step-1,Increment      1: Step Time =    1.000,"PART-1-1",           463,          -15.,          -4.5,            0.,NA,NA,"",       2.09335,       1.96310,   726.873E-03,   18.4155E-03
C:/temp/dataset/0/10_12.odb,Step-1,Increment      1: Step Time =    1.000,"PART-1-1",           464,      -9.87646,      -3.71895,            0.,NA,NA,"",       2.00432,       2.00348,   57.9814E-03,   9.81858E-03
C:/temp/dataset/0/10_12.odb,Step-1,Increment      1: Step Time =    1.000,"PART-1-1",           465,      -8.63520,      -5.06687,            0.,NA,NA,"",       1.80482,       1.80256,  -90.2907E-03,   7.63614E-03
C:/temp/dataset/0/10_12.odb,Step-1,Increment      1: Step Time =    1.000,"PART-1-1",           466,      -7.39901,      -3.37233,            0.,NA,NA,"",       2.04715,       2.02966,  -267.035E-03,   6.49132E-03
C:/temp/dataset/0/10_12.odb,Step-1,Increment      1: Step Time =    1.000,"PART-1-1",           467,      -7.39417,      -6.42670,            0.,NA,NA,"",       1.62503,       1.60842,  -231.707E-03,   7.62571E-03
C:/temp/dataset/0/10_12.odb,Step-1,Increment      1: Step Time =    1.000,"PART-1-1",           468,      -9.87187,      -6.75385,            0.,NA,NA,"",       1.58517,       1.58344,   73.9147E-03,   9.85134E-03
C:/temp/dataset/0/10_12.odb,Step-1,Increment      1: Step Time =    1.000,"PART-1-1",           469,      -8.63084,      -8.11369,            0.,NA,NA,"",       1.39605,       1.39459,  -63.9498E-03,   7.68531E-03
C:/temp/dataset/0/10_12.odb,Step-1,Increment      1: Step Time =    1.000,"PART-1-1",           470,      -12.3844,      -13.1215,            0.,NA,NA,"",   896.482E-03,   833.797E-03,   329.336E-03,   21.0077E-03
C:/temp/dataset/0/10_12.odb,Step-1,Increment      1: Step Time =    1.000,"PART-1-1",           471,      -13.6984,      -11.8123,            0.,NA,NA,"",       1.10765,   998.907E-03,   478.612E-03,   26.2448E-03
C:/temp/dataset/0/10_12.odb,Step-1,Increment      1: Step Time =    1.000,"PART-1-1",           472,          -15.,         -13.5,            0.,NA,NA,"",       1.01643,   839.148E-03,   573.551E-03,   36.7354E-03
C:/temp/dataset/0/10_12.odb,Step-1,Increment      1: Step Time =    1.000,"PART-1-1",           473,      -7.37693,      -9.46970,            0.,NA,NA,"",       1.23293,       1.21768,  -193.339E-03,   9.69705E-03
C:/temp/dataset/0/10_12.odb,Step-1,Increment      1: Step Time =    1.000,"PART-1-1",           474,      -9.85821,      -9.77933,            0.,NA,NA,"",       1.19664,       1.19359,   85.3139E-03,   9.92175E-03
C:/temp/dataset/0/10_12.odb,Step-1,Increment      1: Step Time =    1.000,"PART-1-1",           475,      -8.48236,      -17.0363,            0.,NA,NA,"",   427.313E-03,   427.312E-03,  -649.090E-06,   12.1159E-03
C:/temp/dataset/0/10_12.odb,Step-1,Increment      1: Step Time =    1.000,"PART-1-1",           476,      -7.28434,      -15.4580,            0.,NA,NA,"",   577.316E-03,   566.654E-03,  -110.437E-03,   16.5492E-03
C:/temp/dataset/0/10_12.odb,Step-1,Increment      1: Step Time =    1.000,"PART-1-1",           477,      -9.76451,      -15.7083,            0.,NA,NA,"",   557.456E-03,   550.327E-03,   88.8681E-03,   10.9419E-03
C:/temp/dataset/0/10_12.odb,Step-1,Increment      1: Step Time =    1.000,"PART-1-1",           478,      -8.29054,      -19.6175,            0.,NA,NA,"",   241.234E-03,   241.210E-03,  -3.35006E-03,   10.2177E-03
C:/temp/dataset/0/10_12.odb,Step-1,Increment      1: Step Time =    1.000,"PART-1-1",           479,      -7.20240,      -18.2338,            0.,NA,NA,"",   332.888E-03,   325.727E-03,  -68.6768E-03,   16.2843E-03
C:/temp/dataset/0/10_12.odb,Step-1,Increment      1: Step Time =    1.000,"PART-1-1",           480,      -9.57051,      -18.4200,            0.,NA,NA,"",   334.821E-03,   327.652E-03,   68.9167E-03,   10.9502E-03
C:/temp/dataset/0/10_12.odb,Step-1,Increment      1: Step Time =    1.000,"PART-1-1",           481,      -11.5327,      -24.2644,            0.,NA,NA,"",   125.439E-03,   88.3579E-03,   89.0388E-03,   19.1394E-03
C:/temp/dataset/0/10_12.odb,Step-1,Increment      1: Step Time =    1.000,"PART-1-1",           482,      -10.1789,      -23.4859,            0.,NA,NA,"",   114.435E-03,   99.4855E-03,   56.5506E-03,   11.3137E-03
C:/temp/dataset/0/10_12.odb,Step-1,Increment      1: Step Time =    1.000,"PART-1-1",           483,      -10.8627,      -21.7859,            0.,NA,NA,"",   190.822E-03,   161.047E-03,   102.356E-03,   16.6002E-03
C:/temp/dataset/0/10_12.odb,Step-1,Increment      1: Step Time =    1.000,"PART-1-1",           484,      -12.2165,      -22.5644,            0.,NA,NA,"",   206.116E-03,   146.572E-03,   144.915E-03,   24.4390E-03
C:/temp/dataset/0/10_12.odb,Step-1,Increment      1: Step Time =    1.000,"PART-1-1",           485,      -6.15301,      -21.8453,            0.,NA,NA,"",   158.016E-03,   142.823E-03,  -67.6056E-03,   18.3890E-03
C:/temp/dataset/0/10_12.odb,Step-1,Increment      1: Step Time =    1.000,"PART-1-1",           486,      -7.48433,      -22.7723,            0.,NA,NA,"",   117.457E-03,   114.725E-03,  -25.1855E-03,   7.99832E-03
C:/temp/dataset/0/10_12.odb,Step-1,Increment      1: Step Time =    1.000,"PART-1-1",           487,      -6.61766,      -24.1583,            0.,NA,NA,"",   94.5324E-03,   89.5135E-03,  -30.3926E-03,   11.9699E-03
C:/temp/dataset/0/10_12.odb,Step-1,Increment      1: Step Time =    1.000,"PART-1-1",           488,      -9.30746,      -21.9937,            0.,NA,NA,"",   145.319E-03,   140.830E-03,   35.8430E-03,   8.32838E-03
C:/temp/dataset/0/10_12.odb,Step-1,Increment      1: Step Time =    1.000,"PART-1-1",           489,      -9.12330,      -20.5212,            0.,NA,NA,"",   202.957E-03,   199.774E-03,   35.8047E-03,   8.82015E-03
C:/temp/dataset/0/10_12.odb,Step-1,Increment      1: Step Time =    1.000,"PART-1-1",           490,      -10.6786,      -20.3134,            0.,NA,NA,"",   252.001E-03,   224.949E-03,   113.587E-03,   16.1520E-03
C:/temp/dataset/0/10_12.odb,Step-1,Increment      1: Step Time =    1.000,"PART-1-1",           491,         -13.5,          -30.,            0.,NA,NA,"",            0.,  -1.68767E-39,   54.7152E-39,   29.6188E-03
C:/temp/dataset/0/10_12.odb,Step-1,Increment      1: Step Time =    1.000,"PART-1-1",           492,      -12.0973,      -28.5120,            0.,NA,NA,"",   26.0570E-03,   10.8277E-03,   23.7008E-03,   20.0250E-03
C:/temp/dataset/0/10_12.odb,Step-1,Increment      1: Step Time =    1.000,"PART-1-1",           493,      -13.5973,      -27.0120,            0.,NA,NA,"",   90.6431E-03,   49.5315E-03,   75.9131E-03,   30.3309E-03
C:/temp/dataset/0/10_12.odb,Step-1,Increment      1: Step Time =    1.000,"PART-1-1",           494,          -15.,         -28.5,            0.,NA,NA,"",   66.9372E-03,   43.5124E-03,   50.8651E-03,   38.5250E-03
C:/temp/dataset/0/10_12.odb,Step-1,Increment      1: Step Time =    1.000,"PART-1-1",           495,      -2.59553,      -21.0976,            0.,NA,NA,"",   163.535E-03,   159.056E-03,  -38.0099E-03,   11.2667E-03
C:/temp/dataset/0/10_12.odb,Step-1,Increment      1: Step Time =    1.000,"PART-1-1",           496,      -1.51596,      -22.2324,            0.,NA,NA,"",   154.161E-03,   153.425E-03,  -15.0520E-03,   17.8385E-03
C:/temp/dataset/0/10_12.odb,Step-1,Increment      1: Step Time =    1.000,"PART-1-1",           497,  -170.430E-03,      -21.1349,            0.,NA,NA,"",   156.099E-03,   155.911E-03,   7.65299E-03,   8.40241E-03
C:/temp/dataset/0/10_12.odb,Step-1,Increment      1: Step Time =    1.000,"PART-1-1",           498,         -1.25,          -20.,            0.,NA,NA,"",   142.819E-03,   142.488E-03,  -9.71295E-03,   2.70422E-03
C:/temp/dataset/0/10_12.odb,Step-1,Increment      1: Step Time =    1.000,"PART-1-1",           499,       2.92795,      -28.2085,            0.,NA,NA,"",   38.6232E-03,   36.2158E-03,   13.4226E-03,   18.9588E-03
C:/temp/dataset/0/10_12.odb,Step-1,Increment      1: Step Time =    1.000,"PART-1-1",           500,  -103.307E-03,      -28.5907,            0.,NA,NA,"",   35.7494E-03,   35.5616E-03,   3.65992E-03,   17.8766E-03
C:/temp/dataset/0/10_12.odb,Step-1,Increment      1: Step Time =    1.000,"PART-1-1",           501,           1.5,          -30.,            0.,NA,NA,"",            0.,   19.2498E-39,   12.6683E-39,   15.5093E-03
C:/temp/dataset/0/10_12.odb,Step-1,Increment      1: Step Time =    1.000,"PART-1-1",           502,       2.19497,      -21.2732,            0.,NA,NA,"",   193.589E-03,   183.860E-03,   60.5973E-03,   20.2604E-03
C:/temp/dataset/0/10_12.odb,Step-1,Increment      1: Step Time =    1.000,"PART-1-1",           503,          1.25,          -20.,            0.,NA,NA,"",   154.507E-03,   152.016E-03,   27.6298E-03,   13.9796E-03
C:/temp/dataset/0/10_12.odb,Step-1,Increment      1: Step Time =    1.000,"PART-1-1",           504,       4.38160,      -21.6436,            0.,NA,NA,"",   240.049E-03,   202.687E-03,   128.613E-03,   53.3246E-03
C:/temp/dataset/0/10_12.odb,Step-1,Increment      1: Step Time =    1.000,"PART-1-1",           505,          3.75,          -20.,            0.,NA,NA,"",   234.796E-03,   213.264E-03,   98.2226E-03,   54.1392E-03
C:/temp/dataset/0/10_12.odb,Step-1,Increment      1: Step Time =    1.000,"PART-1-1",           506,       12.4146,      -26.3616,            0.,NA,NA,"",   110.654E-03,   41.5998E-03,  -102.536E-03,   34.7935E-03
C:/temp/dataset/0/10_12.odb,Step-1,Increment      1: Step Time =    1.000,"PART-1-1",           507,       11.3720,      -25.0651,            0.,NA,NA,"",   120.020E-03,   62.8465E-03,  -102.250E-03,   25.5608E-03
C:/temp/dataset/0/10_12.odb,Step-1,Increment      1: Step Time =    1.000,"PART-1-1",           508,       9.80011,      -26.1459,            0.,NA,NA,"",   44.1915E-03,   27.9678E-03,  -34.2153E-03,   11.0564E-03
C:/temp/dataset/0/10_12.odb,Step-1,Increment      1: Step Time =    1.000,"PART-1-1",           509,       10.8427,      -27.4423,            0.,NA,NA,"",   40.5258E-03,   8.24003E-03,  -39.6793E-03,   20.0214E-03
C:/temp/dataset/0/10_12.odb,Step-1,Increment      1: Step Time =    1.000,"PART-1-1",           510,       10.6574,      -21.6616,            0.,NA,NA,"",   248.015E-03,   207.520E-03,  -135.819E-03,   20.1969E-03
C:/temp/dataset/0/10_12.odb,Step-1,Increment      1: Step Time =    1.000,"PART-1-1",           511,       9.56375,      -20.8051,            0.,NA,NA,"",   267.677E-03,   257.440E-03,  -73.3179E-03,   13.6638E-03
C:/temp/dataset/0/10_12.odb,Step-1,Increment      1: Step Time =    1.000,"PART-1-1",           512,       9.91066,      -22.7482,            0.,NA,NA,"",   159.273E-03,   141.937E-03,  -72.2617E-03,   12.9681E-03
C:/temp/dataset/0/10_12.odb,Step-1,Increment      1: Step Time =    1.000,"PART-1-1",           513,       13.7822,      -25.0807,            0.,NA,NA,"",   221.175E-03,   99.2477E-03,  -197.657E-03,   47.9616E-03
C:/temp/dataset/0/10_12.odb,Step-1,Increment      1: Step Time =    1.000,"PART-1-1",           514,       13.6324,      -27.5308,            0.,NA,NA,"",   97.3461E-03,   37.2665E-03,  -89.9303E-03,   44.8703E-03
C:/temp/dataset/0/10_12.odb,Step-1,Increment      1: Step Time =    1.000,"PART-1-1",           515,           15.,        -26.25,            0.,NA,NA,"",   206.909E-03,   96.9086E-03,  -182.811E-03,   56.8976E-03
C:/temp/dataset/0/10_12.odb,Step-1,Increment      1: Step Time =    1.000,"PART-1-1",           516,          13.5,          -30.,            0.,NA,NA,"",            0.,  -3.59139E-39,  -77.1922E-39,   39.5727E-03
C:/temp/dataset/0/10_12.odb,Step-1,Increment      1: Step Time =    1.000,"PART-1-1",           517,           15.,        -28.75,            0.,NA,NA,"",   73.6638E-03,   44.9628E-03,  -58.3498E-03,   54.4463E-03
C:/temp/dataset/0/10_12.odb,Step-1,Increment      1: Step Time =    1.000,"PART-1-1",           518,       12.1324,      -28.7808,            0.,NA,NA,"",   27.7406E-03,  -430.389E-06,  -27.7373E-03,   28.4604E-03
C:/temp/dataset/0/10_12.odb,Step-1,Increment      1: Step Time =    1.000,"PART-1-1",           519,       10.4418,      -23.8774,            0.,NA,NA,"",   127.951E-03,   96.1907E-03,  -84.3723E-03,   17.1859E-03
C:/temp/dataset/0/10_12.odb,Step-1,Increment      1: Step Time =    1.000,"PART-1-1",           520,       12.6627,      -23.9582,            0.,NA,NA,"",   224.332E-03,   116.739E-03,  -191.564E-03,   38.6748E-03
C:/temp/dataset/0/10_12.odb,Step-1,Increment      1: Step Time =    1.000,"PART-1-1",           521,       11.7324,      -22.7705,            0.,NA,NA,"",   236.757E-03,   156.399E-03,  -177.745E-03,   30.1115E-03
C:/temp/dataset/0/10_12.odb,Step-1,Increment      1: Step Time =    1.000,"PART-1-1",           522,       13.8804,      -22.6275,            0.,NA,NA,"",   372.151E-03,   199.687E-03,  -314.041E-03,   52.3564E-03
C:/temp/dataset/0/10_12.odb,Step-1,Increment      1: Step Time =    1.000,"PART-1-1",           523,           15.,        -23.75,            0.,NA,NA,"",   360.558E-03,   175.786E-03,  -314.804E-03,   61.7563E-03
C:/temp/dataset/0/10_12.odb,Step-1,Increment      1: Step Time =    1.000,"PART-1-1",           524,       10.4567,      -19.3679,            0.,NA,NA,"",   422.666E-03,   387.976E-03,  -167.695E-03,   20.2280E-03
C:/temp/dataset/0/10_12.odb,Step-1,Increment      1: Step Time =    1.000,"PART-1-1",           525,       11.6911,      -20.4036,            0.,NA,NA,"",   393.039E-03,   308.396E-03,  -243.663E-03,   30.2599E-03
C:/temp/dataset/0/10_12.odb,Step-1,Increment      1: Step Time =    1.000,"PART-1-1",           526,       13.7764,      -15.1383,            0.,NA,NA,"",       1.15251,   934.058E-03,  -675.147E-03,   41.7452E-03
C:/temp/dataset/0/10_12.odb,Step-1,Increment      1: Step Time =    1.000,"PART-1-1",           527,           15.,        -16.25,            0.,NA,NA,"",       1.11980,   799.415E-03,  -784.143E-03,   58.2247E-03
C:/temp/dataset/0/10_12.odb,Step-1,Increment      1: Step Time =    1.000,"PART-1-1",           528,       13.9082,      -7.52913,            0.,NA,NA,"",       2.44895,       2.23665,  -997.389E-03,   15.2066E-03
C:/temp/dataset/0/10_12.odb,Step-1,Increment      1: Step Time =    1.000,"PART-1-1",           529,       12.6962,      -8.81215,            0.,NA,NA,"",       2.14073,       2.00518,  -749.658E-03,   21.6173E-03
C:/temp/dataset/0/10_12.odb,Step-1,Increment      1: Step Time =    1.000,"PART-1-1",           530,           15.,         -8.75,            0.,NA,NA,"",       2.31013,       1.99915,      -1.15763,   21.1335E-03
C:/temp/dataset/0/10_12.odb,Step-1,Increment      1: Step Time =    1.000,"PART-1-1",           531,       12.9315,      -6.39763,            0.,NA,NA,"",       2.60862,       2.46380,  -857.080E-03,   17.1506E-03
C:/temp/dataset/0/10_12.odb,Step-1,Increment      1: Step Time =    1.000,"PART-1-1",           532,           15.,         -6.25,            0.,NA,NA,"",       2.75733,       2.46536,      -1.23486,   8.10149E-03
C:/temp/dataset/0/10_12.odb,Step-1,Increment      1: Step Time =    1.000,"PART-1-1",           533,       13.7496,  -319.059E-03,            0.,NA,NA,"",       3.76563,       3.60494,      -1.08829,   18.0257E-03
C:/temp/dataset/0/10_12.odb,Step-1,Increment      1: Step Time =    1.000,"PART-1-1",           534,       12.6614,      -1.81770,            0.,NA,NA,"",       3.46758,       3.34889,  -899.454E-03,   16.8909E-03
C:/temp/dataset/0/10_12.odb,Step-1,Increment      1: Step Time =    1.000,"PART-1-1",           535,           15.,         -1.25,            0.,NA,NA,"",       3.64753,       3.40783,      -1.30043,   17.8656E-03
C:/temp/dataset/0/10_12.odb,Step-1,Increment      1: Step Time =    1.000,"PART-1-1",           536,       12.4054,   643.186E-03,            0.,NA,NA,"",       3.90176,       3.80084,  -881.675E-03,   17.6645E-03
C:/temp/dataset/0/10_12.odb,Step-1,Increment      1: Step Time =    1.000,"PART-1-1",           537,           15.,          1.25,            0.,NA,NA,"",       4.05805,       3.84957,      -1.28400,   29.2199E-03
C:/temp/dataset/0/10_12.odb,Step-1,Increment      1: Step Time =    1.000,"PART-1-1",           538,           15.,          6.25,            0.,NA,NA,"",       4.73360,       4.58712,      -1.16843,   41.1324E-03
C:/temp/dataset/0/10_12.odb,Step-1,Increment      1: Step Time =    1.000,"PART-1-1",           539,       10.9661,       10.0010,            0.,NA,NA,"",       5.08310,       5.03471,  -699.722E-03,   8.96249E-03
C:/temp/dataset/0/10_12.odb,Step-1,Increment      1: Step Time =    1.000,"PART-1-1",           540,       13.7311,       15.1467,            0.,NA,NA,"",       5.38934,       5.32297,  -843.225E-03,   19.9338E-03
C:/temp/dataset/0/10_12.odb,Step-1,Increment      1: Step Time =    1.000,"PART-1-1",           541,       13.6638,       12.5861,            0.,NA,NA,"",       5.26398,       5.18905,  -884.976E-03,   23.8813E-03
C:/temp/dataset/0/10_12.odb,Step-1,Increment      1: Step Time =    1.000,"PART-1-1",           542,           15.,         13.75,            0.,NA,NA,"",       5.32153,       5.23816,  -938.314E-03,   30.8115E-03
C:/temp/dataset/0/10_12.odb,Step-1,Increment      1: Step Time =    1.000,"PART-1-1",           543,       10.0887,       16.9483,            0.,NA,NA,"",       5.44721,       5.40834,  -649.584E-03,   10.9562E-03
C:/temp/dataset/0/10_12.odb,Step-1,Increment      1: Step Time =    1.000,"PART-1-1",           544,       12.5455,       16.5489,            0.,NA,NA,"",       5.44217,       5.38767,  -768.270E-03,   13.1882E-03
C:/temp/dataset/0/10_12.odb,Step-1,Increment      1: Step Time =    1.000,"PART-1-1",           545,       13.9423,       22.5670,            0.,NA,NA,"",       5.57817,       5.52492,  -768.908E-03,   6.71767E-03
C:/temp/dataset/0/10_12.odb,Step-1,Increment      1: Step Time =    1.000,"PART-1-1",           546,       12.8310,       21.4264,            0.,NA,NA,"",       5.55849,       5.50815,  -746.376E-03,   8.76435E-03
C:/temp/dataset/0/10_12.odb,Step-1,Increment      1: Step Time =    1.000,"PART-1-1",           547,           15.,         21.25,            0.,NA,NA,"",       5.55462,       5.49656,  -800.965E-03,   11.0526E-03
C:/temp/dataset/0/10_12.odb,Step-1,Increment      1: Step Time =    1.000,"PART-1-1",           548,       13.0804,       28.7387,            0.,NA,NA,"",       5.67460,       5.62607,  -740.494E-03,   1.01891E-03
C:/temp/dataset/0/10_12.odb,Step-1,Increment      1: Step Time =    1.000,"PART-1-1",           549,       12.1875,           30.,            0.,NA,NA,"",       5.69491,       5.64871,  -723.932E-03,   828.127E-06
C:/temp/dataset/0/10_12.odb,Step-1,Increment      1: Step Time =    1.000,"PART-1-1",           550,           15.,         28.75,            0.,NA,NA,"",       5.67935,       5.62614,  -775.650E-03,   172.380E-06
C:/temp/dataset/0/10_12.odb,Step-1,Increment      1: Step Time =    1.000,"PART-1-1",           551,       14.0625,           30.,            0.,NA,NA,"",       5.69954,       5.64879,  -758.923E-03,   158.963E-06
C:/temp/dataset/0/10_12.odb,Step-1,Increment      1: Step Time =    1.000,"PART-1-1",           552,       8.83353,       26.4105,            0.,NA,NA,"",       5.61966,       5.58147,  -654.122E-03,   4.38441E-03
C:/temp/dataset/0/10_12.odb,Step-1,Increment      1: Step Time =    1.000,"PART-1-1",           553,       9.77062,       25.1982,            0.,NA,NA,"",       5.60473,       5.56464,  -669.195E-03,   5.26776E-03
C:/temp/dataset/0/10_12.odb,Step-1,Increment      1: Step Time =    1.000,"PART-1-1",           554,       5.62710,       27.7270,            0.,NA,NA,"",       5.62971,       5.59684,  -607.480E-03,   4.72599E-03
C:/temp/dataset/0/10_12.odb,Step-1,Increment      1: Step Time =    1.000,"PART-1-1",           555,          6.25,           30.,            0.,NA,NA,"",       5.67072,       5.63688,  -618.625E-03,   1.45407E-03
C:/temp/dataset/0/10_12.odb,Step-1,Increment      1: Step Time =    1.000,"PART-1-1",           556,   375.256E-03,       24.5574,            0.,NA,NA,"",       5.52884,       5.50233,  -540.825E-03,   12.7531E-03
C:/temp/dataset/0/10_12.odb,Step-1,Increment      1: Step Time =    1.000,"PART-1-1",           557,   860.838E-03,       23.0169,            0.,NA,NA,"",       5.48645,       5.45962,  -541.875E-03,   14.2154E-03
C:/temp/dataset/0/10_12.odb,Step-1,Increment      1: Step Time =    1.000,"PART-1-1",           558,       10.5910,       21.6677,            0.,NA,NA,"",       5.55491,       5.51320,  -679.403E-03,   9.85648E-03
C:/temp/dataset/0/10_12.odb,Step-1,Increment      1: Step Time =    1.000,"PART-1-1",           559,       9.14786,      -24.5495,            0.,NA,NA,"",   73.5518E-03,   69.7536E-03,  -23.3302E-03,   5.04790E-03
C:/temp/dataset/0/10_12.odb,Step-1,Increment      1: Step Time =    1.000,"PART-1-1",           560,           15.,        -21.25,            0.,NA,NA,"",   558.822E-03,   310.106E-03,  -464.883E-03,   66.4384E-03
C:/temp/dataset/0/10_12.odb,Step-1,Increment      1: Step Time =    1.000,"PART-1-1",           561,       12.7662,      -21.5126,            0.,NA,NA,"",   376.928E-03,   243.513E-03,  -287.708E-03,   39.8667E-03
C:/temp/dataset/0/10_12.odb,Step-1,Increment      1: Step Time =    1.000,"PART-1-1",           562,           15.,        -13.75,            0.,NA,NA,"",       1.47970,       1.15128,  -929.553E-03,   46.9211E-03
C:/temp/dataset/0/10_12.odb,Step-1,Increment      1: Step Time =    1.000,"PART-1-1",           563,       12.5272,      -13.9788,            0.,NA,NA,"",       1.23181,       1.10166,  -551.088E-03,   30.7193E-03
C:/temp/dataset/0/10_12.odb,Step-1,Increment      1: Step Time =    1.000,"PART-1-1",           564,           15.,         11.25,            0.,NA,NA,"",       5.17678,       5.07735,      -1.00972,   36.5332E-03
C:/temp/dataset/0/10_12.odb,Step-1,Increment      1: Step Time =    1.000,"PART-1-1",           565,       12.2906,       11.3331,            0.,NA,NA,"",       5.18510,       5.12247,  -803.461E-03,   15.7282E-03
C:/temp/dataset/0/10_12.odb,Step-1,Increment      1: Step Time =    1.000,"PART-1-1",           566,       7.23650,       5.28124,            0.,NA,NA,"",       4.58333,       4.57665,  -247.256E-03,   23.9322E-03
C:/temp/dataset/0/10_12.odb,Step-1,Increment      1: Step Time =    1.000,"PART-1-1",           567,       8.44697,       3.91887,            0.,NA,NA,"",       4.39813,       4.38260,  -369.344E-03,   16.3783E-03
C:/temp/dataset/0/10_12.odb,Step-1,Increment      1: Step Time =    1.000,"PART-1-1",           568,       9.72373,       11.4508,            0.,NA,NA,"",       5.18159,       5.14693,  -598.296E-03,   10.7016E-03
C:/temp/dataset/0/10_12.odb,Step-1,Increment      1: Step Time =    1.000,"PART-1-1",           569,           15.,         16.25,            0.,NA,NA,"",       5.42678,       5.35520,  -878.501E-03,   24.4039E-03
C:/temp/dataset/0/10_12.odb,Step-1,Increment      1: Step Time =    1.000,"PART-1-1",           570,       6.21850,       16.4100,            0.,NA,NA,"",       5.39238,       5.37203,  -468.059E-03,   25.9792E-03
C:/temp/dataset/0/10_12.odb,Step-1,Increment      1: Step Time =    1.000,"PART-1-1",           571,       7.58992,       17.5073,            0.,NA,NA,"",       5.44601,       5.41871,  -544.523E-03,   16.5340E-03
C:/temp/dataset/0/10_12.odb,Step-1,Increment      1: Step Time =    1.000,"PART-1-1",           572,       6.37141,       19.4306,            0.,NA,NA,"",       5.48413,       5.45800,  -534.781E-03,   19.1741E-03
C:/temp/dataset/0/10_12.odb,Step-1,Increment      1: Step Time =    1.000,"PART-1-1",           573,            5.,       18.3333,            0.,NA,NA,"",       5.43846,       5.41736,  -478.562E-03,   33.0393E-03
C:/temp/dataset/0/10_12.odb,Step-1,Increment      1: Step Time =    1.000,"PART-1-1",           574,           15.,         23.75,            0.,NA,NA,"",       5.59711,       5.54200,  -783.512E-03,   5.52518E-03
C:/temp/dataset/0/10_12.odb,Step-1,Increment      1: Step Time =    1.000,"PART-1-1",           575,         -3.75,          -20.,            0.,NA,NA,"",   171.822E-03,   161.458E-03,  -58.7716E-03,   27.6295E-03
C:/temp/dataset/0/10_12.odb,Step-1,Increment      1: Step Time =    1.000,"PART-1-1",           576,      -5.05545,      -21.0122,            0.,NA,NA,"",   197.317E-03,   169.966E-03,  -100.227E-03,   35.2822E-03
C:/temp/dataset/0/10_12.odb,Step-1,Increment      1: Step Time =    1.000,"PART-1-1",           577,       7.51719,       25.3425,            0.,NA,NA,"",       5.59282,       5.55768,  -625.985E-03,   6.62127E-03
C:/temp/dataset/0/10_12.odb,Step-1,Increment      1: Step Time =    1.000,"PART-1-1",           578,       6.22510,       24.4051,            0.,NA,NA,"",       5.56451,       5.53208,  -599.868E-03,   10.9162E-03
C:/temp/dataset/0/10_12.odb,Step-1,Increment      1: Step Time =    1.000,"PART-1-1",           579,       7.27278,       23.2327,            0.,NA,NA,"",       5.55233,       5.51918,  -605.797E-03,   11.5048E-03
C:/temp/dataset/0/10_12.odb,Step-1,Increment      1: Step Time =    1.000,"PART-1-1",           580,       8.56487,       24.1701,            0.,NA,NA,"",       5.58009,       5.54341,  -638.744E-03,   8.48921E-03
C:/temp/dataset/0/10_12.odb,Step-1,Increment      1: Step Time =    1.000,"PART-1-1",           581,            5.,      -8.33333,            0.,NA,NA,"",       2.25699,       2.19801,   512.580E-03,   10.7348E-03
C:/temp/dataset/0/10_12.odb,Step-1,Increment      1: Step Time =    1.000,"PART-1-1",           582,       7.86568,      -7.92961,            0.,NA,NA,"",       2.22383,       2.22382,   8.76621E-03,   18.7692E-03
C:/temp/dataset/0/10_12.odb,Step-1,Increment      1: Step Time =    1.000,"PART-1-1",           583,       6.55300,      -6.36051,            0.,NA,NA,"",       2.55398,       2.54584,   203.770E-03,   10.6241E-03
C:/temp/dataset/0/10_12.odb,Step-1,Increment      1: Step Time =    1.000,"PART-1-1",           584,       2.48006,       24.7002,            0.,NA,NA,"",       5.54441,       5.51553,  -565.100E-03,   12.5677E-03
C:/temp/dataset/0/10_12.odb,Step-1,Increment      1: Step Time =    1.000,"PART-1-1",           585,       1.90437,       23.5201,            0.,NA,NA,"",       5.50866,       5.48064,  -554.920E-03,   13.2002E-03
C:/temp/dataset/0/10_12.odb,Step-1,Increment      1: Step Time =    1.000,"PART-1-1",           586,       3.20717,       23.2686,            0.,NA,NA,"",       5.51278,       5.48383,  -564.209E-03,   14.0204E-03
C:/temp/dataset/0/10_12.odb,Step-1,Increment      1: Step Time =    1.000,"PART-1-1",           587,       3.78286,       24.4486,            0.,NA,NA,"",       5.54598,       5.51607,  -575.167E-03,   13.1635E-03
C:/temp/dataset/0/10_12.odb,Step-1,Increment      1: Step Time =    1.000,"PART-1-1",           588,   574.843E-03,       25.7278,            0.,NA,NA,"",       5.56690,       5.54012,  -545.419E-03,   11.7618E-03
C:/temp/dataset/0/10_12.odb,Step-1,Increment      1: Step Time =    1.000,"PART-1-1",           589,       1.89275,       27.1317,            0.,NA,NA,"",       5.61014,       5.58179,  -563.233E-03,   9.71638E-03
C:/temp/dataset/0/10_12.odb,Step-1,Increment      1: Step Time =    1.000,"PART-1-1",           590,   743.770E-03,       27.8321,            0.,NA,NA,"",       5.63091,       5.60428,  -546.957E-03,   9.71794E-03
C:/temp/dataset/0/10_12.odb,Step-1,Increment      1: Step Time =    1.000,"PART-1-1",           591,  -574.133E-03,       26.4282,            0.,NA,NA,"",       5.58889,       5.56402,  -526.656E-03,   10.7609E-03
C:/temp/dataset/0/10_12.odb,Step-1,Increment      1: Step Time =    1.000,"PART-1-1",           592,          1.25,           30.,            0.,NA,NA,"",       5.67736,       5.65083,  -548.169E-03,   9.82197E-03
C:/temp/dataset/0/10_12.odb,Step-1,Increment      1: Step Time =    1.000,"PART-1-1",           593,  -258.432E-03,       28.8495,            0.,NA,NA,"",       5.66382,       5.63929,  -526.501E-03,   10.9830E-03
C:/temp/dataset/0/10_12.odb,Step-1,Increment      1: Step Time =    1.000,"PART-1-1",           594,       3.99806,       26.6235,            0.,NA,NA,"",       5.60076,       5.57002,  -585.982E-03,   9.00672E-03
C:/temp/dataset/0/10_12.odb,Step-1,Increment      1: Step Time =    1.000,"PART-1-1",           595,       4.96332,       25.4314,            0.,NA,NA,"",       5.57731,       5.54583,  -591.750E-03,   9.83199E-03
C:/temp/dataset/0/10_12.odb,Step-1,Increment      1: Step Time =    1.000,"PART-1-1",           596,       6.59236,       26.5350,            0.,NA,NA,"",       5.61000,       5.57594,  -617.176E-03,   6.03090E-03
C:/temp/dataset/0/10_12.odb,Step-1,Increment      1: Step Time =    1.000,"PART-1-1",           597,          -1.5,           30.,            0.,NA,NA,"",       5.70698,       5.68576,  -491.772E-03,   17.2401E-03
C:/temp/dataset/0/10_12.odb,Step-1,Increment      1: Step Time =    1.000,"PART-1-1",           598,      -3.21021,       28.8021,            0.,NA,NA,"",       5.68925,       5.67151,  -448.847E-03,   15.2675E-03
C:/temp/dataset/0/10_12.odb,Step-1,Increment      1: Step Time =    1.000,"PART-1-1",           599,      -1.96864,       27.6516,            0.,NA,NA,"",       5.63619,       5.61465,  -492.331E-03,   10.3118E-03
C:/temp/dataset/0/10_12.odb,Step-1,Increment      1: Step Time =    1.000,"PART-1-1",           600,       2.23679,       22.3955,            0.,NA,NA,"",       5.48447,       5.45656,  -552.599E-03,   12.9563E-03
C:/temp/dataset/0/10_12.odb,Step-1,Increment      1: Step Time =    1.000,"PART-1-1",           601,       6.10470,      -23.0953,            0.,NA,NA,"",   162.458E-03,   137.700E-03,   86.2051E-03,   24.0712E-03
C:/temp/dataset/0/10_12.odb,Step-1,Increment      1: Step Time =    1.000,"PART-1-1",           602,       5.87020,      -25.1929,            0.,NA,NA,"",   90.5691E-03,   75.8305E-03,   49.5227E-03,   23.4540E-03
C:/temp/dataset/0/10_12.odb,Step-1,Increment      1: Step Time =    1.000,"PART-1-1",           603,       7.19944,      -25.3013,            0.,NA,NA,"",   65.9038E-03,   59.2900E-03,   28.7752E-03,   12.4461E-03
C:/temp/dataset/0/10_12.odb,Step-1,Increment      1: Step Time =    1.000,"PART-1-1",           604,       10.0350,      -14.2359,            0.,NA,NA,"",       1.08669,       1.06504,  -215.846E-03,   23.0512E-03
C:/temp/dataset/0/10_12.odb,Step-1,Increment      1: Step Time =    1.000,"PART-1-1",           605,       11.6788,      -7.40939,            0.,NA,NA,"",       2.36438,       2.28153,  -620.397E-03,   21.1461E-03
C:/temp/dataset/0/10_12.odb,Step-1,Increment      1: Step Time =    1.000,"PART-1-1",           606,       11.2427,      -1.09783,            0.,NA,NA,"",       3.57054,       3.50426,  -684.730E-03,   19.6249E-03
C:/temp/dataset/0/10_12.odb,Step-1,Increment      1: Step Time =    1.000,"PART-1-1",           607,       7.93860,       19.8912,            0.,NA,NA,"",       5.50648,       5.47527,  -585.450E-03,   15.5854E-03
C:/temp/dataset/0/10_12.odb,Step-1,Increment      1: Step Time =    1.000,"PART-1-1",           608,       8.98253,       18.5426,            0.,NA,NA,"",       5.48492,       5.45089,  -610.028E-03,   11.9533E-03
C:/temp/dataset/0/10_12.odb,Step-1,Increment      1: Step Time =    1.000,"PART-1-1",           609,       9.31070,       20.7205,            0.,NA,NA,"",       5.53117,       5.49454,  -635.489E-03,   12.0898E-03
C:/temp/dataset/0/10_12.odb,Step-1,Increment      1: Step Time =    1.000,"PART-1-1",           610,       3.88086,       22.5675,            0.,NA,NA,"",       5.50281,       5.47388,  -563.552E-03,   14.9224E-03
C:/temp/dataset/0/10_12.odb,Step-1,Increment      1: Step Time =    1.000,"PART-1-1",           611,       2.67965,       25.8706,            0.,NA,NA,"",       5.57733,       5.54807,  -570.617E-03,   11.3008E-03
C:/temp/dataset/0/10_12.odb,Step-1,Increment      1: Step Time =    1.000,"PART-1-1",           612,            5.,          -15.,            0.,NA,NA,"",       1.12659,       1.03151,   452.969E-03,   44.0314E-03
C:/temp/dataset/0/10_12.odb,Step-1,Increment      1: Step Time =    1.000,"PART-1-1",           613,       6.27023,      -16.3841,            0.,NA,NA,"",   815.510E-03,   779.560E-03,   239.464E-03,   38.1701E-03
C:/temp/dataset/0/10_12.odb,Step-1,Increment      1: Step Time =    1.000,"PART-1-1",           614,       7.51616,      -14.5750,            0.,NA,NA,"",       1.04312,       1.03729,   110.191E-03,   26.7048E-03
C:/temp/dataset/0/10_12.odb,Step-1,Increment      1: Step Time =    1.000,"PART-1-1",           615,       6.15302,       13.2331,            0.,NA,NA,"",       5.24460,       5.23085,  -379.562E-03,   31.4565E-03
C:/temp/dataset/0/10_12.odb,Step-1,Increment      1: Step Time =    1.000,"PART-1-1",           616,       7.37153,       14.6431,            0.,NA,NA,"",       5.33356,       5.31155,  -484.013E-03,   22.0290E-03
C:/temp/dataset/0/10_12.odb,Step-1,Increment      1: Step Time =    1.000,"PART-1-1",           617,            5.,           15.,            0.,NA,NA,"",       5.31241,       5.29930,  -373.015E-03,   35.6888E-03
C:/temp/dataset/0/10_12.odb,Step-1,Increment      1: Step Time =    1.000,"PART-1-1",           618,            5.,       11.6667,            0.,NA,NA,"",       5.13149,       5.12512,  -255.607E-03,   41.3367E-03
C:/temp/dataset/0/10_12.odb,Step-1,Increment      1: Step Time =    1.000,"PART-1-1",           619,       6.12690,       10.0064,            0.,NA,NA,"",       5.04637,       5.03893,  -273.955E-03,   35.4154E-03
C:/temp/dataset/0/10_12.odb,Step-1,Increment      1: Step Time =    1.000,"PART-1-1",           620,       7.27992,       11.5729,            0.,NA,NA,"",       5.16561,       5.14934,  -409.676E-03,   26.2426E-03
C:/temp/dataset/0/10_12.odb,Step-1,Increment      1: Step Time =    1.000,"PART-1-1",           621,       6.15632,   278.618E-03,            0.,NA,NA,"",       3.81083,       3.81009,   75.4538E-03,   26.2772E-03
C:/temp/dataset/0/10_12.odb,Step-1,Increment      1: Step Time =    1.000,"PART-1-1",           622,            5.,      -1.66667,            0.,NA,NA,"",       3.47500,       3.45615,   361.441E-03,   21.8788E-03
C:/temp/dataset/0/10_12.odb,Step-1,Increment      1: Step Time =    1.000,"PART-1-1",           623,       6.25252,      -2.97068,            0.,NA,NA,"",       3.20520,       3.20050,   173.527E-03,   15.7851E-03
C:/temp/dataset/0/10_12.odb,Step-1,Increment      1: Step Time =    1.000,"PART-1-1",           624,       7.67955,      -17.4721,            0.,NA,NA,"",   603.068E-03,   599.437E-03,   66.0737E-03,   26.5432E-03
C:/temp/dataset/0/10_12.odb,Step-1,Increment      1: Step Time =    1.000,"PART-1-1",           625,            5.,      -18.3333,            0.,NA,NA,"",   624.747E-03,   540.293E-03,   313.674E-03,   80.4504E-03
C:/temp/dataset/0/10_12.odb,Step-1,Increment      1: Step Time =    1.000,"PART-1-1",           626,       6.40932,      -19.4213,            0.,NA,NA,"",   381.933E-03,   353.405E-03,   144.835E-03,   54.6948E-03
C:/temp/dataset/0/10_12.odb,Step-1,Increment      1: Step Time =    1.000,"PART-1-1",           627,      -1.73152,      -24.7018,            0.,NA,NA,"",   117.343E-03,   116.843E-03,  -10.8202E-03,   22.0881E-03
C:/temp/dataset/0/10_12.odb,Step-1,Increment      1: Step Time =    1.000,"PART-1-1",           628,       9.06065,      -18.5206,            0.,NA,NA,"",   473.602E-03,   470.041E-03,  -57.9684E-03,   20.1115E-03
C:/temp/dataset/0/10_12.odb,Step-1,Increment      1: Step Time =    1.000,"PART-1-1",           629,       8.80686,      -15.8614,            0.,NA,NA,"",   823.960E-03,   822.505E-03,  -48.9350E-03,   23.5810E-03
C:/temp/dataset/0/10_12.odb,Step-1,Increment      1: Step Time =    1.000,"PART-1-1",           630,       10.3171,      -8.61722,            0.,NA,NA,"",       2.09573,       2.06260,  -371.156E-03,   23.4027E-03
C:/temp/dataset/0/10_12.odb,Step-1,Increment      1: Step Time =    1.000,"PART-1-1",           631,       8.85917,      -9.88939,            0.,NA,NA,"",       1.84184,       1.83808,  -117.615E-03,   20.2960E-03
C:/temp/dataset/0/10_12.odb,Step-1,Increment      1: Step Time =    1.000,"PART-1-1",           632,       8.74431,      -12.9496,            0.,NA,NA,"",       1.29153,       1.29012,  -60.3682E-03,   21.0137E-03
C:/temp/dataset/0/10_12.odb,Step-1,Increment      1: Step Time =    1.000,"PART-1-1",           633,       6.89786,       21.2129,            0.,NA,NA,"",       5.51581,       5.48580,  -574.566E-03,   17.3602E-03
C:/temp/dataset/0/10_12.odb,Step-1,Increment      1: Step Time =    1.000,"PART-1-1",           634,       10.2659,      -2.76771,            0.,NA,NA,"",       3.23859,       3.19991,  -499.088E-03,   23.3572E-03
C:/temp/dataset/0/10_12.odb,Step-1,Increment      1: Step Time =    1.000,"PART-1-1",           635,       7.80552,      -4.33119,            0.,NA,NA,"",       2.92324,       2.92265,  -58.9193E-03,   20.0577E-03
C:/temp/dataset/0/10_12.odb,Step-1,Increment      1: Step Time =    1.000,"PART-1-1",           636,            5.,           -5.,            0.,NA,NA,"",       2.86784,       2.83076,   459.657E-03,   5.78346E-03
C:/temp/dataset/0/10_12.odb,Step-1,Increment      1: Step Time =    1.000,"PART-1-1",           637,       7.27801,       2.13112,            0.,NA,NA,"",       4.12204,       4.11886,  -162.071E-03,   23.0598E-03
C:/temp/dataset/0/10_12.odb,Step-1,Increment      1: Step Time =    1.000,"PART-1-1",           638,       6.12168,       3.51917,            0.,NA,NA,"",       4.34127,       4.34109,  -39.6716E-03,   33.1924E-03
C:/temp/dataset/0/10_12.odb,Step-1,Increment      1: Step Time =    1.000,"PART-1-1",           639,            5.,       1.66667,            0.,NA,NA,"",       4.06746,       4.06174,   215.513E-03,   38.4026E-03
C:/temp/dataset/0/10_12.odb,Step-1,Increment      1: Step Time =    1.000,"PART-1-1",           640,            5.,            5.,            0.,NA,NA,"",       4.54225,       4.54197,   50.7054E-03,   46.5031E-03
C:/temp/dataset/0/10_12.odb,Step-1,Increment      1: Step Time =    1.000,"PART-1-1",           641,       6.11481,       6.76207,            0.,NA,NA,"",       4.75621,       4.75342,  -162.839E-03,   36.3881E-03
C:/temp/dataset/0/10_12.odb,Step-1,Increment      1: Step Time =    1.000,"PART-1-1",           642,       8.53738,       13.0133,            0.,NA,NA,"",       5.26498,       5.23851,  -527.330E-03,   17.0588E-03
C:/temp/dataset/0/10_12.odb,Step-1,Increment      1: Step Time =    1.000,"PART-1-1",           643,       8.69606,       15.9130,            0.,NA,NA,"",       5.40118,       5.37060,  -573.907E-03,   14.1533E-03
C:/temp/dataset/0/10_12.odb,Step-1,Increment      1: Step Time =    1.000,"PART-1-1",           644,       9.56938,       22.9454,            0.,NA,NA,"",       5.56834,       5.52965,  -655.298E-03,   9.04133E-03
C:/temp/dataset/0/10_12.odb,Step-1,Increment      1: Step Time =    1.000,"PART-1-1",           645,       8.28908,       21.9981,            0.,NA,NA,"",       5.54285,       5.50856,  -615.606E-03,   12.9169E-03
C:/temp/dataset/0/10_12.odb,Step-1,Increment      1: Step Time =    1.000,"PART-1-1",           646,      -3.61415,       26.3795,            0.,NA,NA,"",       5.59198,       5.57413,  -446.431E-03,   8.59678E-03
C:/temp/dataset/0/10_12.odb,Step-1,Increment      1: Step Time =    1.000,"PART-1-1",           647,      -6.18563,       28.7596,            0.,NA,NA,"",       5.72092,       5.71213,  -316.959E-03,   15.4326E-03
C:/temp/dataset/0/10_12.odb,Step-1,Increment      1: Step Time =    1.000,"PART-1-1",           648,      -4.89584,       27.5617,            0.,NA,NA,"",       5.65132,       5.63798,  -387.996E-03,   9.76057E-03
C:/temp/dataset/0/10_12.odb,Step-1,Increment      1: Step Time =    1.000,"PART-1-1",           649,          -4.5,           30.,            0.,NA,NA,"",       5.75599,       5.74277,  -389.833E-03,   21.0933E-03
C:/temp/dataset/0/10_12.odb,Step-1,Increment      1: Step Time =    1.000,"PART-1-1",           650,          -15.,          19.5,            0.,NA,NA,"",       5.15834,       5.14199,   410.383E-03,   23.4389E-03
C:/temp/dataset/0/10_12.odb,Step-1,Increment      1: Step Time =    1.000,"PART-1-1",           651,      -13.6835,       18.2834,            0.,NA,NA,"",       5.04497,       5.03529,   312.280E-03,   16.8222E-03
C:/temp/dataset/0/10_12.odb,Step-1,Increment      1: Step Time =    1.000,"PART-1-1",           652,      -12.3643,       20.0316,            0.,NA,NA,"",       5.20074,       5.19827,   160.273E-03,   9.94385E-03
C:/temp/dataset/0/10_12.odb,Step-1,Increment      1: Step Time =    1.000,"PART-1-1",           653,      -13.6808,       21.2481,            0.,NA,NA,"",       5.29979,       5.29349,   258.436E-03,   16.0363E-03
C:/temp/dataset/0/10_12.odb,Step-1,Increment      1: Step Time =    1.000,"PART-1-1",           654,      -6.08047,      -19.7739,            0.,NA,NA,"",   231.971E-03,   209.416E-03,  -99.7767E-03,   32.6854E-03
C:/temp/dataset/0/10_12.odb,Step-1,Increment      1: Step Time =    1.000,"PART-1-1",           655,      -7.17803,      -20.6070,            0.,NA,NA,"",   187.952E-03,   181.082E-03,  -50.3503E-03,   11.6437E-03
C:/temp/dataset/0/10_12.odb,Step-1,Increment      1: Step Time =    1.000,"PART-1-1",           656,       5.87583,      -21.1387,            0.,NA,NA,"",   259.337E-03,   221.061E-03,   135.601E-03,   38.7046E-03
C:/temp/dataset/0/10_12.odb,Step-1,Increment      1: Step Time =    1.000,"PART-1-1",           657,       4.61047,      -23.6002,            0.,NA,NA,"",   162.299E-03,   137.497E-03,   86.2297E-03,   30.9656E-03
C:/temp/dataset/0/10_12.odb,Step-1,Increment      1: Step Time =    1.000,"PART-1-1",           658,       4.56928,      -26.4448,            0.,NA,NA,"",   70.3435E-03,   60.1423E-03,   36.4843E-03,   20.6012E-03
C:/temp/dataset/0/10_12.odb,Step-1,Increment      1: Step Time =    1.000,"PART-1-1",           659,       5.04464,       23.4223,            0.,NA,NA,"",       5.53287,       5.50258,  -578.151E-03,   13.8946E-03
C:/temp/dataset/0/10_12.odb,Step-1,Increment      1: Step Time =    1.000,"PART-1-1",           660,       5.88156,       22.4475,            0.,NA,NA,"",       5.52259,       5.49250,  -575.695E-03,   16.9364E-03
C:/temp/dataset/0/10_12.odb,Step-1,Increment      1: Step Time =    1.000,"PART-1-1",           661,      -1.61333,      -27.2257,            0.,NA,NA,"",   63.9290E-03,   63.8788E-03,  -2.53271E-03,   17.4497E-03
C:/temp/dataset/0/10_12.odb,Step-1,Increment      1: Step Time =    1.000,"PART-1-1",           662,      -3.01002,      -28.6350,            0.,NA,NA,"",   29.1005E-03,   28.9754E-03,  -2.69512E-03,   15.2909E-03
C:/temp/dataset/0/10_12.odb,Step-1,Increment      1: Step Time =    1.000,"PART-1-1",           663,          -1.5,          -30.,            0.,NA,NA,"",            0.,   19.4350E-39,   2.60028E-39,   15.7992E-03
C:/temp/dataset/0/10_12.odb,Step-1,Increment      1: Step Time =    1.000,"PART-1-1",           664,            5.,       8.33333,            0.,NA,NA,"",       4.90403,       4.90272,  -113.538E-03,   47.8826E-03
C:/temp/dataset/0/10_12.odb,Step-1,Increment      1: Step Time =    1.000,"PART-1-1",           665,       8.16766,      -19.9578,            0.,NA,NA,"",   314.847E-03,   314.221E-03,   19.8434E-03,   16.6192E-03
C:/temp/dataset/0/10_12.odb,Step-1,Increment      1: Step Time =    1.000,"PART-1-1",           666,       7.85169,      -26.8977,            0.,NA,NA,"",   20.9223E-03,   19.9438E-03,   6.32351E-03,   8.45275E-03
C:/temp/dataset/0/10_12.odb,Step-1,Increment      1: Step Time =    1.000,"PART-1-1",           667,          -4.5,          -30.,            0.,NA,NA,"",            0.,   12.1140E-39,  -2.29475E-39,   10.3982E-03
C:/temp/dataset/0/10_12.odb,Step-1,Increment      1: Step Time =    1.000,"PART-1-1",           668,      -7.38541,       11.9129,            0.,NA,NA,"",       4.25177,       4.23850,  -335.713E-03,   15.7100E-03
C:/temp/dataset/0/10_12.odb,Step-1,Increment      1: Step Time =    1.000,"PART-1-1",           669,      -9.84369,       11.4885,            0.,NA,NA,"",       4.21097,       4.21081,  -36.8896E-03,   10.4866E-03
C:/temp/dataset/0/10_12.odb,Step-1,Increment      1: Step Time =    1.000,"PART-1-1",           670,           -5.,      -18.4615,            0.,NA,NA,"",   386.123E-03,   327.630E-03,  -204.327E-03,   48.2152E-03
C:/temp/dataset/0/10_12.odb,Step-1,Increment      1: Step Time =    1.000,"PART-1-1",           671,      -6.12192,      -16.9214,            0.,NA,NA,"",   471.256E-03,   439.265E-03,  -170.672E-03,   25.4405E-03
C:/temp/dataset/0/10_12.odb,Step-1,Increment      1: Step Time =    1.000,"PART-1-1",           672,      -12.3453,      -25.6066,            0.,NA,NA,"",   106.713E-03,   64.1171E-03,   85.3037E-03,   23.6871E-03
C:/temp/dataset/0/10_12.odb,Step-1,Increment      1: Step Time =    1.000,"PART-1-1",           673,      -10.6437,      -26.7860,            0.,NA,NA,"",   45.8589E-03,   30.9248E-03,   33.8628E-03,   13.4675E-03
C:/temp/dataset/0/10_12.odb,Step-1,Increment      1: Step Time =    1.000,"PART-1-1",           674,      -9.83114,      -25.4438,            0.,NA,NA,"",   61.7564E-03,   52.9451E-03,   31.7910E-03,   8.57279E-03
C:/temp/dataset/0/10_12.odb,Step-1,Increment      1: Step Time =    1.000,"PART-1-1",           675,      -8.43320,      -25.2132,            0.,NA,NA,"",   58.3405E-03,   58.1133E-03,   5.14363E-03,   3.89148E-03
C:/temp/dataset/0/10_12.odb,Step-1,Increment      1: Step Time =    1.000,"PART-1-1",           676,      -9.78639,       17.5920,            0.,NA,NA,"",       4.96430,       4.96392,  -61.5283E-03,   7.71366E-03
C:/temp/dataset/0/10_12.odb,Step-1,Increment      1: Step Time =    1.000,"PART-1-1",           677,      -11.0716,       18.8358,            0.,NA,NA,"",       5.09228,       5.09200,   53.7121E-03,   6.37035E-03
C:/temp/dataset/0/10_12.odb,Step-1,Increment      1: Step Time =    1.000,"PART-1-1",           678,      -12.3675,       17.0640,            0.,NA,NA,"",       4.91607,       4.91198,   200.374E-03,   9.29994E-03
C:/temp/dataset/0/10_12.odb,Step-1,Increment      1: Step Time =    1.000,"PART-1-1",           679,      -12.1189,      -19.2948,            0.,NA,NA,"",   365.595E-03,   300.421E-03,   208.344E-03,   23.8927E-03
C:/temp/dataset/0/10_12.odb,Step-1,Increment      1: Step Time =    1.000,"PART-1-1",           680,      -11.0109,      -17.4013,            0.,NA,NA,"",   450.187E-03,   417.292E-03,   168.926E-03,   17.2443E-03
C:/temp/dataset/0/10_12.odb,Step-1,Increment      1: Step Time =    1.000,"PART-1-1",           681,      -8.01079,      -21.5107,            0.,NA,NA,"",   152.460E-03,   151.787E-03,  -14.3179E-03,   6.38054E-03
C:/temp/dataset/0/10_12.odb,Step-1,Increment      1: Step Time =    1.000,"PART-1-1",           682,           4.5,          -30.,            0.,NA,NA,"",            0.,   9.12747E-39,   13.5365E-39,   9.99788E-03
C:/temp/dataset/0/10_12.odb,Step-1,Increment      1: Step Time =    1.000,"PART-1-1",           683,       6.14133,      -28.2363,            0.,NA,NA,"",   17.2187E-03,   13.6899E-03,   10.4437E-03,   11.9762E-03
C:/temp/dataset/0/10_12.odb,Step-1,Increment      1: Step Time =    1.000,"PART-1-1",           684,      -9.14726,       28.6966,            0.,NA,NA,"",       5.74827,       5.74677,  -131.653E-03,   11.4685E-03
C:/temp/dataset/0/10_12.odb,Step-1,Increment      1: Step Time =    1.000,"PART-1-1",           685,         -10.5,           30.,            0.,NA,NA,"",       5.84659,       5.84649,  -34.2268E-03,   8.48416E-03
C:/temp/dataset/0/10_12.odb,Step-1,Increment      1: Step Time =    1.000,"PART-1-1",           686,      -6.18127,      -10.8771,            0.,NA,NA,"",       1.09159,       1.04822,  -304.641E-03,   15.0440E-03
C:/temp/dataset/0/10_12.odb,Step-1,Increment      1: Step Time =    1.000,"PART-1-1",           687,      -6.16241,      -13.9212,            0.,NA,NA,"",   760.129E-03,   720.306E-03,  -242.806E-03,   19.7652E-03
C:/temp/dataset/0/10_12.odb,Step-1,Increment      1: Step Time =    1.000,"PART-1-1",           688,           -5.,      -12.3077,            0.,NA,NA,"",   978.648E-03,   892.098E-03,  -402.382E-03,   23.2624E-03
C:/temp/dataset/0/10_12.odb,Step-1,Increment      1: Step Time =    1.000,"PART-1-1",           689,         -10.5,          -30.,            0.,NA,NA,"",            0.,  -784.581E-42,   27.8040E-39,   12.0035E-03
C:/temp/dataset/0/10_12.odb,Step-1,Increment      1: Step Time =    1.000,"PART-1-1",           690,          -15.,          22.5,            0.,NA,NA,"",       5.39020,       5.37945,   340.360E-03,   18.2118E-03
C:/temp/dataset/0/10_12.odb,Step-1,Increment      1: Step Time =    1.000,"PART-1-1",           691,          -15.,          16.5,            0.,NA,NA,"",       4.87189,       4.84717,   490.247E-03,   22.1310E-03
C:/temp/dataset/0/10_12.odb,Step-1,Increment      1: Step Time =    1.000,"PART-1-1",           692,      -13.6840,       15.2806,            0.,NA,NA,"",       4.72736,       4.71285,   370.138E-03,   13.8773E-03
C:/temp/dataset/0/10_12.odb,Step-1,Increment      1: Step Time =    1.000,"PART-1-1",           693,          -15.,          13.5,            0.,NA,NA,"",       4.53476,       4.49948,   564.573E-03,   16.8705E-03
C:/temp/dataset/0/10_12.odb,Step-1,Increment      1: Step Time =    1.000,"PART-1-1",           694,      -6.20685,       4.43382,            0.,NA,NA,"",       3.19563,       3.15699,  -495.430E-03,   8.43774E-03
C:/temp/dataset/0/10_12.odb,Step-1,Increment      1: Step Time =    1.000,"PART-1-1",           695,           -5.,       6.15385,            0.,NA,NA,"",       3.45663,       3.39114,  -669.688E-03,   11.8249E-03
C:/temp/dataset/0/10_12.odb,Step-1,Increment      1: Step Time =    1.000,"PART-1-1",           696,      -6.20051,      -1.69203,            0.,NA,NA,"",       2.30327,       2.25920,  -448.441E-03,   3.52850E-03
C:/temp/dataset/0/10_12.odb,Step-1,Increment      1: Step Time =    1.000,"PART-1-1",           697,      -6.19850,      -4.75722,            0.,NA,NA,"",       1.87262,       1.82748,  -408.707E-03,   6.53893E-03
C:/temp/dataset/0/10_12.odb,Step-1,Increment      1: Step Time =    1.000,"PART-1-1",           698,           -5.,      -3.07692,            0.,NA,NA,"",       2.13791,       2.05256,  -598.064E-03,   5.79227E-03
C:/temp/dataset/0/10_12.odb,Step-1,Increment      1: Step Time =    1.000,"PART-1-1",           699,      -12.3926,       7.99194,            0.,NA,NA,"",       3.76003,       3.74698,   313.046E-03,   6.91148E-03
C:/temp/dataset/0/10_12.odb,Step-1,Increment      1: Step Time =    1.000,"PART-1-1",           700,          -15.,           7.5,            0.,NA,NA,"",       3.76008,       3.69878,   676.201E-03,   4.72194E-03
C:/temp/dataset/0/10_12.odb,Step-1,Increment      1: Step Time =    1.000,"PART-1-1",           701,      -12.4166,      -1.07984,            0.,NA,NA,"",       2.44488,       2.41503,   380.874E-03,   10.5896E-03
C:/temp/dataset/0/10_12.odb,Step-1,Increment      1: Step Time =    1.000,"PART-1-1",           702,          -15.,          -1.5,            0.,NA,NA,"",       2.50225,       2.39076,   738.613E-03,   12.6071E-03
C:/temp/dataset/0/10_12.odb,Step-1,Increment      1: Step Time =    1.000,"PART-1-1",           703,      -12.3992,      -10.1184,            0.,NA,NA,"",       1.23325,       1.17931,   360.754E-03,   18.2347E-03
C:/temp/dataset/0/10_12.odb,Step-1,Increment      1: Step Time =    1.000,"PART-1-1",           704,          -15.,         -10.5,            0.,NA,NA,"",       1.34252,       1.17693,   645.909E-03,   30.4729E-03
C:/temp/dataset/0/10_12.odb,Step-1,Increment      1: Step Time =    1.000,"PART-1-1",           705,      -6.19567,      -7.82333,            0.,NA,NA,"",       1.46515,       1.42022,  -360.049E-03,   10.6329E-03
C:/temp/dataset/0/10_12.odb,Step-1,Increment      1: Step Time =    1.000,"PART-1-1",           706,           -5.,      -6.15385,            0.,NA,NA,"",       1.72175,       1.63318,  -545.115E-03,   11.6696E-03
C:/temp/dataset/0/10_12.odb,Step-1,Increment      1: Step Time =    1.000,"PART-1-1",           707,          -15.,         -22.5,            0.,NA,NA,"",   318.343E-03,   191.716E-03,   254.140E-03,   41.2332E-03
C:/temp/dataset/0/10_12.odb,Step-1,Increment      1: Step Time =    1.000,"PART-1-1",           708,      -13.7480,      -24.0946,            0.,NA,NA,"",   200.192E-03,   118.967E-03,   161.009E-03,   32.2951E-03
C:/temp/dataset/0/10_12.odb,Step-1,Increment      1: Step Time =    1.000,"PART-1-1",           709,      -13.4685,      -20.9699,            0.,NA,NA,"",   331.970E-03,   230.130E-03,   239.257E-03,   33.3493E-03
C:/temp/dataset/0/10_12.odb,Step-1,Increment      1: Step Time =    1.000,"PART-1-1",           710,          -15.,         -25.5,            0.,NA,NA,"",   182.643E-03,   103.107E-03,   150.757E-03,   37.7975E-03
C:/temp/dataset/0/10_12.odb,Step-1,Increment      1: Step Time =    1.000,"PART-1-1",           711,           7.5,          -30.,            0.,NA,NA,"",            0.,  -3.56435E-39,  -2.33687E-39,   2.41999E-03
C:/temp/dataset/0/10_12.odb,Step-1,Increment      1: Step Time =    1.000,"PART-1-1",           712,       9.21036,      -28.6615,            0.,NA,NA,"",   9.09359E-03,  -4.66644E-03,  -7.80499E-03,   8.14290E-03
C:/temp/dataset/0/10_12.odb,Step-1,Increment      1: Step Time =    1.000,"PART-1-1",           713,          10.5,          -30.,            0.,NA,NA,"",            0.,  -8.48230E-39,  -37.6369E-39,   16.8295E-03
C:/temp/dataset/0/10_12.odb,Step-1,Increment      1: Step Time =    1.000,"PART-1-1",           714,          -7.5,           30.,            0.,NA,NA,"",       5.80820,       5.80350,  -233.559E-03,   17.4696E-03
C:/temp/dataset/0/10_12.odb,Step-1,Increment      1: Step Time =    1.000,"PART-1-1",           715,          -15.,         -19.5,            0.,NA,NA,"",   499.578E-03,   337.819E-03,   368.045E-03,   44.0342E-03
C:/temp/dataset/0/10_12.odb,Step-1,Increment      1: Step Time =    1.000,"PART-1-1",           716,      -6.18713,       13.6475,            0.,NA,NA,"",       4.47270,       4.44804,  -469.028E-03,   21.4643E-03
C:/temp/dataset/0/10_12.odb,Step-1,Increment      1: Step Time =    1.000,"PART-1-1",           717,           -5.,       15.3846,            0.,NA,NA,"",       4.68101,       4.64415,  -586.275E-03,   29.1898E-03
C:/temp/dataset/0/10_12.odb,Step-1,Increment      1: Step Time =    1.000,"PART-1-1",           718,           -5.,       12.3077,            0.,NA,NA,"",       4.29879,       4.25216,  -631.402E-03,   23.1886E-03
C:/temp/dataset/0/10_12.odb,Step-1,Increment      1: Step Time =    1.000,"PART-1-1",           719,           -5.,            0.,            0.,NA,NA,"",       2.57206,       2.49184,  -637.344E-03,   338.848E-06
C:/temp/dataset/0/10_12.odb,Step-1,Increment      1: Step Time =    1.000,"PART-1-1",           720,      -6.20706,       1.36812,            0.,NA,NA,"",       2.74688,       2.70511,  -477.237E-03,   4.69657E-03
C:/temp/dataset/0/10_12.odb,Step-1,Increment      1: Step Time =    1.000,"PART-1-1",           721,           -5.,       3.07692,            0.,NA,NA,"",       3.01483,       2.94131,  -661.703E-03,   5.98045E-03
C:/temp/dataset/0/10_12.odb,Step-1,Increment      1: Step Time =    1.000,"PART-1-1",           722,           -5.,      -9.23077,            0.,NA,NA,"",       1.33275,       1.24340,  -479.792E-03,   17.6000E-03
C:/temp/dataset/0/10_12.odb,Step-1,Increment      1: Step Time =    1.000,"PART-1-1",           723,      -8.78100,      -23.2553,            0.,NA,NA,"",   102.183E-03,   101.275E-03,   13.5946E-03,   3.20707E-03
C:/temp/dataset/0/10_12.odb,Step-1,Increment      1: Step Time =    1.000,"PART-1-1",           724,      -11.0900,      -14.4409,            0.,NA,NA,"",   711.026E-03,   682.067E-03,   200.855E-03,   15.1836E-03
C:/temp/dataset/0/10_12.odb,Step-1,Increment      1: Step Time =    1.000,"PART-1-1",           725,      -11.1215,      -11.4552,            0.,NA,NA,"",       1.02834,       1.00481,   218.714E-03,   13.8056E-03
C:/temp/dataset/0/10_12.odb,Step-1,Increment      1: Step Time =    1.000,"PART-1-1",           726,      -11.1359,      -8.44257,            0.,NA,NA,"",       1.39265,       1.37415,   226.228E-03,   12.6497E-03
C:/temp/dataset/0/10_12.odb,Step-1,Increment      1: Step Time =    1.000,"PART-1-1",           727,      -11.1177,       9.73479,            0.,NA,NA,"",       3.98397,       3.98179,   131.640E-03,   8.11045E-03
C:/temp/dataset/0/10_12.odb,Step-1,Increment      1: Step Time =    1.000,"PART-1-1",           728,      -11.1376,       6.69211,            0.,NA,NA,"",       3.55103,       3.54751,   158.181E-03,   8.34203E-03
C:/temp/dataset/0/10_12.odb,Step-1,Increment      1: Step Time =    1.000,"PART-1-1",           729,      -11.1470,       3.65829,            0.,NA,NA,"",       3.10642,       3.10108,   181.989E-03,   8.84310E-03
C:/temp/dataset/0/10_12.odb,Step-1,Increment      1: Step Time =    1.000,"PART-1-1",           730,           -5.,      -15.3846,            0.,NA,NA,"",   668.170E-03,   588.450E-03,  -316.510E-03,   29.9618E-03
C:/temp/dataset/0/10_12.odb,Step-1,Increment      1: Step Time =    1.000,"PART-1-1",           731,      -11.1521,   627.191E-03,            0.,NA,NA,"",       2.65878,       2.65109,   202.181E-03,   9.57831E-03
C:/temp/dataset/0/10_12.odb,Step-1,Increment      1: Step Time =    1.000,"PART-1-1",           732,      -11.1477,      -2.39557,            0.,NA,NA,"",       2.21821,       2.20761,   216.573E-03,   10.4839E-03
C:/temp/dataset/0/10_12.odb,Step-1,Increment      1: Step Time =    1.000,"PART-1-1",           733,      -11.1389,      -5.41444,            0.,NA,NA,"",       1.79347,       1.77936,   224.547E-03,   11.5070E-03
