ODB Name,Step,Frame,Part Instance Name,    êﬂì_ÉâÉxÉã,X,Y,Z,Section Name,Material Name,Section Point,   U-Magnitude,          U-U1,          U-U2,       S-Mises
C:/temp/dataset/0/10_21.odb,Step-1,Increment      1: Step Time =    1.000,"PART-1-1",             1,            5.,           20.,            0.,NA,NA,"",       9.38920,       9.29101,      -1.35439,   44.6309E-03
C:/temp/dataset/0/10_21.odb,Step-1,Increment      1: Step Time =    1.000,"PART-1-1",             2,            0.,           20.,            0.,NA,NA,"",       9.25009,       9.15991,      -1.28849,   34.9897E-03
C:/temp/dataset/0/10_21.odb,Step-1,Increment      1: Step Time =    1.000,"PART-1-1",             3,            5.,           10.,            0.,NA,NA,"",       8.61458,       8.57995,  -771.665E-03,   77.6222E-03
C:/temp/dataset/0/10_21.odb,Step-1,Increment      1: Step Time =    1.000,"PART-1-1",             4,            5.,            0.,            0.,NA,NA,"",       6.48382,       6.48181,   161.525E-03,   52.3718E-03
C:/temp/dataset/0/10_21.odb,Step-1,Increment      1: Step Time =    1.000,"PART-1-1",             5,            5.,          -10.,            0.,NA,NA,"",       3.36421,       3.27860,   754.123E-03,   35.2428E-03
C:/temp/dataset/0/10_21.odb,Step-1,Increment      1: Step Time =    1.000,"PART-1-1",             6,            5.,          -20.,            0.,NA,NA,"",   581.978E-03,   494.220E-03,   307.319E-03,   156.359E-03
C:/temp/dataset/0/10_21.odb,Step-1,Increment      1: Step Time =    1.000,"PART-1-1",             7,            0.,          -20.,            0.,NA,NA,"",   254.802E-03,   254.398E-03,   14.3530E-03,   9.88918E-03
C:/temp/dataset/0/10_21.odb,Step-1,Increment      1: Step Time =    1.000,"PART-1-1",             8,           -5.,          -20.,            0.,NA,NA,"",   385.461E-03,   318.561E-03,  -217.024E-03,   100.515E-03
C:/temp/dataset/0/10_21.odb,Step-1,Increment      1: Step Time =    1.000,"PART-1-1",             9,           -5.,           20.,            0.,NA,NA,"",       8.96646,       8.89332,      -1.14290,   112.098E-03
C:/temp/dataset/0/10_21.odb,Step-1,Increment      1: Step Time =    1.000,"PART-1-1",            10,           15.,           30.,            0.,NA,NA,"",       9.81507,       9.64809,      -1.80280,   276.118E-06
C:/temp/dataset/0/10_21.odb,Step-1,Increment      1: Step Time =    1.000,"PART-1-1",            11,           7.5,           30.,            0.,NA,NA,"",       9.76005,       9.63680,      -1.54615,   4.14189E-03
C:/temp/dataset/0/10_21.odb,Step-1,Increment      1: Step Time =    1.000,"PART-1-1",            12,            0.,           30.,            0.,NA,NA,"",       9.77311,       9.68284,      -1.32529,   23.1960E-03
C:/temp/dataset/0/10_21.odb,Step-1,Increment      1: Step Time =    1.000,"PART-1-1",            13,          -15.,           30.,            0.,NA,NA,"",       10.0555,       10.0550,   90.8506E-03,   1.38633E-03
C:/temp/dataset/0/10_21.odb,Step-1,Increment      1: Step Time =    1.000,"PART-1-1",            14,          -15.,          -30.,            0.,NA,NA,"",            0.,   29.2093E-39,   50.7841E-39,   79.6850E-03
C:/temp/dataset/0/10_21.odb,Step-1,Increment      1: Step Time =    1.000,"PART-1-1",            15,           15.,          -30.,            0.,NA,NA,"",            0.,   31.5834E-39,  -60.5523E-39,   103.258E-03
C:/temp/dataset/0/10_21.odb,Step-1,Increment      1: Step Time =    1.000,"PART-1-1",            16,           15.,         -22.5,            0.,NA,NA,"",   761.721E-03,   376.280E-03,  -662.293E-03,   111.833E-03
C:/temp/dataset/0/10_21.odb,Step-1,Increment      1: Step Time =    1.000,"PART-1-1",            17,           15.,          -15.,            0.,NA,NA,"",       2.18526,       1.57396,      -1.51592,   91.7259E-03
C:/temp/dataset/0/10_21.odb,Step-1,Increment      1: Step Time =    1.000,"PART-1-1",            18,           15.,          -7.5,            0.,NA,NA,"",       4.30859,       3.68500,      -2.23265,   25.1525E-03
C:/temp/dataset/0/10_21.odb,Step-1,Increment      1: Step Time =    1.000,"PART-1-1",            19,           15.,            0.,            0.,NA,NA,"",       6.60311,       6.08620,      -2.56109,   42.2675E-03
C:/temp/dataset/0/10_21.odb,Step-1,Increment      1: Step Time =    1.000,"PART-1-1",            20,           15.,           7.5,            0.,NA,NA,"",       8.35643,       8.01252,      -2.37266,   72.8099E-03
C:/temp/dataset/0/10_21.odb,Step-1,Increment      1: Step Time =    1.000,"PART-1-1",            21,           15.,           15.,            0.,NA,NA,"",       9.23949,       9.01680,      -2.01632,   47.7456E-03
C:/temp/dataset/0/10_21.odb,Step-1,Increment      1: Step Time =    1.000,"PART-1-1",            22,           15.,          22.5,            0.,NA,NA,"",       9.58333,       9.40809,      -1.82433,   12.9593E-03
C:/temp/dataset/0/10_21.odb,Step-1,Increment      1: Step Time =    1.000,"PART-1-1",            23,       3.33333,           20.,            0.,NA,NA,"",       9.35557,       9.25503,      -1.36790,   25.2497E-03
C:/temp/dataset/0/10_21.odb,Step-1,Increment      1: Step Time =    1.000,"PART-1-1",            24,       1.66667,           20.,            0.,NA,NA,"",       9.30709,       9.21069,      -1.33607,   32.0145E-03
C:/temp/dataset/0/10_21.odb,Step-1,Increment      1: Step Time =    1.000,"PART-1-1",            25,            5.,       13.3333,            0.,NA,NA,"",       8.95914,       8.90390,  -993.376E-03,   64.4735E-03
C:/temp/dataset/0/10_21.odb,Step-1,Increment      1: Step Time =    1.000,"PART-1-1",            26,            5.,       16.6667,            0.,NA,NA,"",       9.22310,       9.14721,      -1.18073,   56.0152E-03
C:/temp/dataset/0/10_21.odb,Step-1,Increment      1: Step Time =    1.000,"PART-1-1",            27,            5.,       3.33333,            0.,NA,NA,"",       7.40015,       7.39817,  -171.219E-03,   76.0740E-03
C:/temp/dataset/0/10_21.odb,Step-1,Increment      1: Step Time =    1.000,"PART-1-1",            28,            5.,       6.66667,            0.,NA,NA,"",       8.11611,       8.10155,  -485.898E-03,   84.6679E-03
C:/temp/dataset/0/10_21.odb,Step-1,Increment      1: Step Time =    1.000,"PART-1-1",            29,            5.,      -6.66667,            0.,NA,NA,"",       4.39975,       4.35289,   640.431E-03,   5.85232E-03
C:/temp/dataset/0/10_21.odb,Step-1,Increment      1: Step Time =    1.000,"PART-1-1",            30,            5.,      -3.33333,            0.,NA,NA,"",       5.44801,       5.43034,   438.409E-03,   22.4532E-03
C:/temp/dataset/0/10_21.odb,Step-1,Increment      1: Step Time =    1.000,"PART-1-1",            31,            5.,      -16.6667,            0.,NA,NA,"",       1.49711,       1.34705,   653.275E-03,   91.6886E-03
C:/temp/dataset/0/10_21.odb,Step-1,Increment      1: Step Time =    1.000,"PART-1-1",            32,            5.,      -13.3333,            0.,NA,NA,"",       2.38371,       2.26055,   756.290E-03,   62.4189E-03
C:/temp/dataset/0/10_21.odb,Step-1,Increment      1: Step Time =    1.000,"PART-1-1",            33,           2.5,          -20.,            0.,NA,NA,"",   304.857E-03,   288.847E-03,   97.4949E-03,   43.2475E-03
C:/temp/dataset/0/10_21.odb,Step-1,Increment      1: Step Time =    1.000,"PART-1-1",            34,          -2.5,          -20.,            0.,NA,NA,"",   251.366E-03,   243.470E-03,  -62.5077E-03,   25.3231E-03
C:/temp/dataset/0/10_21.odb,Step-1,Increment      1: Step Time =    1.000,"PART-1-1",            35,           -5.,       16.9231,            0.,NA,NA,"",       8.31116,       8.20897,      -1.29934,   56.8213E-03
C:/temp/dataset/0/10_21.odb,Step-1,Increment      1: Step Time =    1.000,"PART-1-1",            36,           -5.,       13.8462,            0.,NA,NA,"",       7.66774,       7.54644,      -1.35847,   42.8739E-03
C:/temp/dataset/0/10_21.odb,Step-1,Increment      1: Step Time =    1.000,"PART-1-1",            37,           -5.,       10.7692,            0.,NA,NA,"",       6.98331,       6.84381,      -1.38884,   34.4548E-03
C:/temp/dataset/0/10_21.odb,Step-1,Increment      1: Step Time =    1.000,"PART-1-1",            38,           -5.,       7.69231,            0.,NA,NA,"",       6.26092,       6.10620,      -1.38324,   24.7293E-03
C:/temp/dataset/0/10_21.odb,Step-1,Increment      1: Step Time =    1.000,"PART-1-1",            39,           -5.,       4.61538,            0.,NA,NA,"",       5.51416,       5.34751,      -1.34538,   15.1142E-03
C:/temp/dataset/0/10_21.odb,Step-1,Increment      1: Step Time =    1.000,"PART-1-1",            40,           -5.,       1.53846,            0.,NA,NA,"",       4.75916,       4.58414,      -1.27875,   5.44808E-03
C:/temp/dataset/0/10_21.odb,Step-1,Increment      1: Step Time =    1.000,"PART-1-1",            41,           -5.,      -1.53846,            0.,NA,NA,"",       4.01173,       3.83198,      -1.18740,   4.26810E-03
C:/temp/dataset/0/10_21.odb,Step-1,Increment      1: Step Time =    1.000,"PART-1-1",            42,           -5.,      -4.61538,            0.,NA,NA,"",       3.28744,       3.10669,      -1.07507,   14.0118E-03
C:/temp/dataset/0/10_21.odb,Step-1,Increment      1: Step Time =    1.000,"PART-1-1",            43,           -5.,      -7.69231,            0.,NA,NA,"",       2.60139,       2.42367,  -945.009E-03,   23.7606E-03
C:/temp/dataset/0/10_21.odb,Step-1,Increment      1: Step Time =    1.000,"PART-1-1",            44,           -5.,      -10.7692,            0.,NA,NA,"",       1.96807,       1.79815,  -799.959E-03,   33.9620E-03
C:/temp/dataset/0/10_21.odb,Step-1,Increment      1: Step Time =    1.000,"PART-1-1",            45,           -5.,      -13.8462,            0.,NA,NA,"",       1.39864,       1.24317,  -640.887E-03,   42.9454E-03
C:/temp/dataset/0/10_21.odb,Step-1,Increment      1: Step Time =    1.000,"PART-1-1",            46,           -5.,      -16.9231,            0.,NA,NA,"",   894.103E-03,   759.251E-03,  -472.184E-03,   60.2593E-03
C:/temp/dataset/0/10_21.odb,Step-1,Increment      1: Step Time =    1.000,"PART-1-1",            47,          -2.5,           20.,            0.,NA,NA,"",       9.15139,       9.07266,      -1.19785,   52.0501E-03
C:/temp/dataset/0/10_21.odb,Step-1,Increment      1: Step Time =    1.000,"PART-1-1",            48,        13.125,           30.,            0.,NA,NA,"",       9.80474,       9.64927,      -1.73908,   422.715E-06
C:/temp/dataset/0/10_21.odb,Step-1,Increment      1: Step Time =    1.000,"PART-1-1",            49,         11.25,           30.,            0.,NA,NA,"",       9.79252,       9.64854,      -1.67306,   2.21312E-03
C:/temp/dataset/0/10_21.odb,Step-1,Increment      1: Step Time =    1.000,"PART-1-1",            50,         9.375,           30.,            0.,NA,NA,"",       9.77694,       9.64391,      -1.60738,   4.04944E-03
C:/temp/dataset/0/10_21.odb,Step-1,Increment      1: Step Time =    1.000,"PART-1-1",            51,            5.,           30.,            0.,NA,NA,"",       9.74405,       9.63189,      -1.47412,   767.375E-06
C:/temp/dataset/0/10_21.odb,Step-1,Increment      1: Step Time =    1.000,"PART-1-1",            52,           2.5,           30.,            0.,NA,NA,"",       9.74608,       9.64409,      -1.40624,   10.7229E-03
C:/temp/dataset/0/10_21.odb,Step-1,Increment      1: Step Time =    1.000,"PART-1-1",            53,           -3.,           30.,            0.,NA,NA,"",       9.83669,       9.76577,      -1.17912,   34.5943E-03
C:/temp/dataset/0/10_21.odb,Step-1,Increment      1: Step Time =    1.000,"PART-1-1",            54,           -6.,           30.,            0.,NA,NA,"",       9.91901,       9.87341,  -949.976E-03,   35.1251E-03
C:/temp/dataset/0/10_21.odb,Step-1,Increment      1: Step Time =    1.000,"PART-1-1",            55,           -9.,           30.,            0.,NA,NA,"",       9.99183,       9.97167,  -634.306E-03,   22.3134E-03
C:/temp/dataset/0/10_21.odb,Step-1,Increment      1: Step Time =    1.000,"PART-1-1",            56,          -12.,           30.,            0.,NA,NA,"",       10.0345,       10.0308,  -269.727E-03,   5.59524E-03
C:/temp/dataset/0/10_21.odb,Step-1,Increment      1: Step Time =    1.000,"PART-1-1",            57,          -15.,           27.,            0.,NA,NA,"",       9.71156,       9.71090,   113.123E-03,   5.62107E-03
C:/temp/dataset/0/10_21.odb,Step-1,Increment      1: Step Time =    1.000,"PART-1-1",            58,          -15.,           24.,            0.,NA,NA,"",       9.38078,       9.37927,   168.638E-03,   22.6103E-03
C:/temp/dataset/0/10_21.odb,Step-1,Increment      1: Step Time =    1.000,"PART-1-1",            59,          -15.,           21.,            0.,NA,NA,"",       9.01470,       9.01047,   275.886E-03,   36.9788E-03
C:/temp/dataset/0/10_21.odb,Step-1,Increment      1: Step Time =    1.000,"PART-1-1",            60,          -15.,           18.,            0.,NA,NA,"",       8.56921,       8.55894,   419.383E-03,   39.6497E-03
C:/temp/dataset/0/10_21.odb,Step-1,Increment      1: Step Time =    1.000,"PART-1-1",            61,          -15.,           15.,            0.,NA,NA,"",       8.03392,       8.01364,   570.468E-03,   32.6218E-03
C:/temp/dataset/0/10_21.odb,Step-1,Increment      1: Step Time =    1.000,"PART-1-1",            62,          -15.,           12.,            0.,NA,NA,"",       7.42557,       7.39148,   710.760E-03,   22.2335E-03
C:/temp/dataset/0/10_21.odb,Step-1,Increment      1: Step Time =    1.000,"PART-1-1",            63,          -15.,            9.,            0.,NA,NA,"",       6.76602,       6.71433,   834.736E-03,   12.0351E-03
C:/temp/dataset/0/10_21.odb,Step-1,Increment      1: Step Time =    1.000,"PART-1-1",            64,          -15.,            6.,            0.,NA,NA,"",       6.07297,       5.99974,   940.289E-03,   2.36039E-03
C:/temp/dataset/0/10_21.odb,Step-1,Increment      1: Step Time =    1.000,"PART-1-1",            65,          -15.,            3.,            0.,NA,NA,"",       5.36169,       5.26282,       1.02492,   7.22033E-03
C:/temp/dataset/0/10_21.odb,Step-1,Increment      1: Step Time =    1.000,"PART-1-1",            66,          -15.,            0.,            0.,NA,NA,"",       4.64658,       4.51806,       1.08529,   16.6633E-03
C:/temp/dataset/0/10_21.odb,Step-1,Increment      1: Step Time =    1.000,"PART-1-1",            67,          -15.,           -3.,            0.,NA,NA,"",       3.94193,       3.78019,       1.11758,   26.2093E-03
C:/temp/dataset/0/10_21.odb,Step-1,Increment      1: Step Time =    1.000,"PART-1-1",            68,          -15.,           -6.,            0.,NA,NA,"",       3.26195,       3.06447,       1.11773,   35.9740E-03
C:/temp/dataset/0/10_21.odb,Step-1,Increment      1: Step Time =    1.000,"PART-1-1",            69,          -15.,           -9.,            0.,NA,NA,"",       2.62053,       2.38690,       1.08162,   46.1343E-03
C:/temp/dataset/0/10_21.odb,Step-1,Increment      1: Step Time =    1.000,"PART-1-1",            70,          -15.,          -12.,            0.,NA,NA,"",       2.03095,       1.76487,       1.00500,   56.9790E-03
C:/temp/dataset/0/10_21.odb,Step-1,Increment      1: Step Time =    1.000,"PART-1-1",            71,          -15.,          -15.,            0.,NA,NA,"",       1.50607,       1.21935,   883.990E-03,   67.9490E-03
C:/temp/dataset/0/10_21.odb,Step-1,Increment      1: Step Time =    1.000,"PART-1-1",            72,          -15.,          -18.,            0.,NA,NA,"",       1.05853,   775.658E-03,   720.312E-03,   75.6799E-03
C:/temp/dataset/0/10_21.odb,Step-1,Increment      1: Step Time =    1.000,"PART-1-1",            73,          -15.,          -21.,            0.,NA,NA,"",   699.333E-03,   455.491E-03,   530.655E-03,   74.9781E-03
C:/temp/dataset/0/10_21.odb,Step-1,Increment      1: Step Time =    1.000,"PART-1-1",            74,          -15.,          -24.,            0.,NA,NA,"",   425.725E-03,   250.352E-03,   344.333E-03,   67.0320E-03
C:/temp/dataset/0/10_21.odb,Step-1,Increment      1: Step Time =    1.000,"PART-1-1",            75,          -15.,          -27.,            0.,NA,NA,"",   215.105E-03,   123.449E-03,   176.154E-03,   64.9875E-03
C:/temp/dataset/0/10_21.odb,Step-1,Increment      1: Step Time =    1.000,"PART-1-1",            76,          -12.,          -30.,            0.,NA,NA,"",            0.,   47.3835E-39,   111.453E-39,   27.8233E-03
C:/temp/dataset/0/10_21.odb,Step-1,Increment      1: Step Time =    1.000,"PART-1-1",            77,           -9.,          -30.,            0.,NA,NA,"",            0.,  -18.5296E-39,   30.9372E-39,   10.6570E-03
C:/temp/dataset/0/10_21.odb,Step-1,Increment      1: Step Time =    1.000,"PART-1-1",            78,           -6.,          -30.,            0.,NA,NA,"",            0.,   20.3583E-39,   7.69215E-39,   11.6569E-03
C:/temp/dataset/0/10_21.odb,Step-1,Increment      1: Step Time =    1.000,"PART-1-1",            79,           -3.,          -30.,            0.,NA,NA,"",            0.,   42.1937E-39,  -33.9333E-39,   24.0026E-03
C:/temp/dataset/0/10_21.odb,Step-1,Increment      1: Step Time =    1.000,"PART-1-1",            80,            0.,          -30.,            0.,NA,NA,"",            0.,   41.1079E-39,  -12.9108E-39,   29.5999E-03
C:/temp/dataset/0/10_21.odb,Step-1,Increment      1: Step Time =    1.000,"PART-1-1",            81,            3.,          -30.,            0.,NA,NA,"",            0.,   48.9432E-39,   74.7886E-39,   24.3686E-03
C:/temp/dataset/0/10_21.odb,Step-1,Increment      1: Step Time =    1.000,"PART-1-1",            82,            6.,          -30.,            0.,NA,NA,"",            0.,   10.7004E-39,   30.1612E-39,   8.86971E-03
C:/temp/dataset/0/10_21.odb,Step-1,Increment      1: Step Time =    1.000,"PART-1-1",            83,            9.,          -30.,            0.,NA,NA,"",            0.,  -35.7165E-39,  -44.9990E-39,   16.3844E-03
C:/temp/dataset/0/10_21.odb,Step-1,Increment      1: Step Time =    1.000,"PART-1-1",            84,           12.,          -30.,            0.,NA,NA,"",            0.,   31.6647E-39,  -150.080E-39,   41.5232E-03
C:/temp/dataset/0/10_21.odb,Step-1,Increment      1: Step Time =    1.000,"PART-1-1",            85,           15.,         -27.5,            0.,NA,NA,"",   232.785E-03,   111.252E-03,  -204.479E-03,   96.8710E-03
C:/temp/dataset/0/10_21.odb,Step-1,Increment      1: Step Time =    1.000,"PART-1-1",            86,           15.,          -25.,            0.,NA,NA,"",   467.187E-03,   208.195E-03,  -418.232E-03,   100.034E-03
C:/temp/dataset/0/10_21.odb,Step-1,Increment      1: Step Time =    1.000,"PART-1-1",            87,           15.,          -20.,            0.,NA,NA,"",       1.13995,   648.996E-03,  -937.169E-03,   115.847E-03
C:/temp/dataset/0/10_21.odb,Step-1,Increment      1: Step Time =    1.000,"PART-1-1",            88,           15.,         -17.5,            0.,NA,NA,"",       1.61525,       1.04893,      -1.22833,   108.515E-03
C:/temp/dataset/0/10_21.odb,Step-1,Increment      1: Step Time =    1.000,"PART-1-1",            89,           15.,         -12.5,            0.,NA,NA,"",       2.83667,       2.20494,      -1.78464,   70.2303E-03
C:/temp/dataset/0/10_21.odb,Step-1,Increment      1: Step Time =    1.000,"PART-1-1",            90,           15.,          -10.,            0.,NA,NA,"",       3.55110,       2.91659,      -2.02579,   47.7785E-03
C:/temp/dataset/0/10_21.odb,Step-1,Increment      1: Step Time =    1.000,"PART-1-1",            91,           15.,           -5.,            0.,NA,NA,"",       5.08717,       4.48698,      -2.39715,   2.56823E-03
C:/temp/dataset/0/10_21.odb,Step-1,Increment      1: Step Time =    1.000,"PART-1-1",            92,           15.,          -2.5,            0.,NA,NA,"",       5.86171,       5.29730,      -2.50963,   20.5961E-03
C:/temp/dataset/0/10_21.odb,Step-1,Increment      1: Step Time =    1.000,"PART-1-1",            93,           15.,           2.5,            0.,NA,NA,"",       7.28126,       6.82057,      -2.54885,   59.8342E-03
C:/temp/dataset/0/10_21.odb,Step-1,Increment      1: Step Time =    1.000,"PART-1-1",            94,           15.,            5.,            0.,NA,NA,"",       7.87056,       7.46955,      -2.48022,   70.4298E-03
C:/temp/dataset/0/10_21.odb,Step-1,Increment      1: Step Time =    1.000,"PART-1-1",            95,           15.,           10.,            0.,NA,NA,"",       8.73830,       8.44422,      -2.24789,   68.0668E-03
C:/temp/dataset/0/10_21.odb,Step-1,Increment      1: Step Time =    1.000,"PART-1-1",            96,           15.,          12.5,            0.,NA,NA,"",       9.02723,       8.77352,      -2.12515,   58.8518E-03
C:/temp/dataset/0/10_21.odb,Step-1,Increment      1: Step Time =    1.000,"PART-1-1",            97,           15.,          17.5,            0.,NA,NA,"",       9.39145,       9.19147,      -1.92777,   35.8676E-03
C:/temp/dataset/0/10_21.odb,Step-1,Increment      1: Step Time =    1.000,"PART-1-1",            98,           15.,           20.,            0.,NA,NA,"",       9.50000,       9.31544,      -1.86348,   23.8064E-03
C:/temp/dataset/0/10_21.odb,Step-1,Increment      1: Step Time =    1.000,"PART-1-1",            99,           15.,           25.,            0.,NA,NA,"",       9.65777,       9.48738,      -1.80612,   5.08779E-03
C:/temp/dataset/0/10_21.odb,Step-1,Increment      1: Step Time =    1.000,"PART-1-1",           100,           15.,          27.5,            0.,NA,NA,"",       9.73369,       9.56552,      -1.80155,   735.355E-06
C:/temp/dataset/0/10_21.odb,Step-1,Increment      1: Step Time =    1.000,"PART-1-1",           101,       3.77421,       21.6807,            0.,NA,NA,"",       9.40175,       9.29789,      -1.39360,   24.5758E-03
C:/temp/dataset/0/10_21.odb,Step-1,Increment      1: Step Time =    1.000,"PART-1-1",           102,   339.763E-03,       22.0764,            0.,NA,NA,"",       9.34492,       9.25019,      -1.32719,   28.4893E-03
C:/temp/dataset/0/10_21.odb,Step-1,Increment      1: Step Time =    1.000,"PART-1-1",           103,       2.04677,       21.7082,            0.,NA,NA,"",       9.37009,       9.27000,      -1.36590,   22.5991E-03
C:/temp/dataset/0/10_21.odb,Step-1,Increment      1: Step Time =    1.000,"PART-1-1",           104,       11.0234,       27.4901,            0.,NA,NA,"",       9.70886,       9.56576,      -1.66081,   4.70961E-03
C:/temp/dataset/0/10_21.odb,Step-1,Increment      1: Step Time =    1.000,"PART-1-1",           105,       8.98111,       27.5559,            0.,NA,NA,"",       9.69358,       9.56272,      -1.58742,   4.55948E-03
C:/temp/dataset/0/10_21.odb,Step-1,Increment      1: Step Time =    1.000,"PART-1-1",           106,      -4.39315,       22.5924,            0.,NA,NA,"",       9.26450,       9.19461,      -1.13579,   27.5401E-03
C:/temp/dataset/0/10_21.odb,Step-1,Increment      1: Step Time =    1.000,"PART-1-1",           107,       12.7609,      -22.7550,            0.,NA,NA,"",   492.118E-03,   273.987E-03,  -408.792E-03,   66.9818E-03
C:/temp/dataset/0/10_21.odb,Step-1,Increment      1: Step Time =    1.000,"PART-1-1",           108,       12.5528,      -15.2766,            0.,NA,NA,"",       1.74977,       1.49889,  -902.796E-03,   55.8361E-03
C:/temp/dataset/0/10_21.odb,Step-1,Increment      1: Step Time =    1.000,"PART-1-1",           109,       12.2205,       7.28465,            0.,NA,NA,"",       8.29814,       8.08337,      -1.87570,   29.9618E-03
C:/temp/dataset/0/10_21.odb,Step-1,Increment      1: Step Time =    1.000,"PART-1-1",           110,       12.4622,       15.2934,            0.,NA,NA,"",       9.26185,       9.08733,      -1.78948,   24.6057E-03
C:/temp/dataset/0/10_21.odb,Step-1,Increment      1: Step Time =    1.000,"PART-1-1",           111,       12.8846,       22.6339,            0.,NA,NA,"",       9.58178,       9.42269,      -1.73883,   12.3198E-03
C:/temp/dataset/0/10_21.odb,Step-1,Increment      1: Step Time =    1.000,"PART-1-1",           112,  -340.860E-03,      -22.2697,            0.,NA,NA,"",   270.484E-03,   270.198E-03,   12.4532E-03,   29.8103E-03
C:/temp/dataset/0/10_21.odb,Step-1,Increment      1: Step Time =    1.000,"PART-1-1",           113,       6.83628,       27.6500,            0.,NA,NA,"",       9.67819,       9.55809,      -1.51996,   6.03955E-03
C:/temp/dataset/0/10_21.odb,Step-1,Increment      1: Step Time =    1.000,"PART-1-1",           114,       12.2535,       9.99399,            0.,NA,NA,"",       8.73064,       8.53287,      -1.84777,   29.2919E-03
C:/temp/dataset/0/10_21.odb,Step-1,Increment      1: Step Time =    1.000,"PART-1-1",           115,       12.4991,  -638.118E-03,            0.,NA,NA,"",       6.29801,       6.01965,      -1.85168,   31.3472E-03
C:/temp/dataset/0/10_21.odb,Step-1,Increment      1: Step Time =    1.000,"PART-1-1",           116,       12.8164,      -7.55827,            0.,NA,NA,"",       4.05986,       3.74933,      -1.55723,   33.6458E-03
C:/temp/dataset/0/10_21.odb,Step-1,Increment      1: Step Time =    1.000,"PART-1-1",           117,       12.7714,      -20.2702,            0.,NA,NA,"",   791.313E-03,   542.483E-03,  -576.097E-03,   66.6565E-03
C:/temp/dataset/0/10_21.odb,Step-1,Increment      1: Step Time =    1.000,"PART-1-1",           118,      -1.80101,       22.4804,            0.,NA,NA,"",       9.31658,       9.23141,      -1.25690,   36.7871E-03
C:/temp/dataset/0/10_21.odb,Step-1,Increment      1: Step Time =    1.000,"PART-1-1",           119,       4.41791,       27.8041,            0.,NA,NA,"",       9.66860,       9.55810,      -1.45759,   10.6434E-03
C:/temp/dataset/0/10_21.odb,Step-1,Increment      1: Step Time =    1.000,"PART-1-1",           120,       2.00441,       27.9652,            0.,NA,NA,"",       9.67157,       9.56992,      -1.39857,   14.6468E-03
C:/temp/dataset/0/10_21.odb,Step-1,Increment      1: Step Time =    1.000,"PART-1-1",           121,      -2.69107,      -22.1951,            0.,NA,NA,"",   264.847E-03,   258.581E-03,  -57.2705E-03,   42.4349E-03
C:/temp/dataset/0/10_21.odb,Step-1,Increment      1: Step Time =    1.000,"PART-1-1",           122,       1.88995,      -22.5465,            0.,NA,NA,"",   282.193E-03,   269.274E-03,   84.4065E-03,   53.6866E-03
C:/temp/dataset/0/10_21.odb,Step-1,Increment      1: Step Time =    1.000,"PART-1-1",           123,       3.76320,      -23.2871,            0.,NA,NA,"",   290.795E-03,   259.437E-03,   131.355E-03,   56.0851E-03
C:/temp/dataset/0/10_21.odb,Step-1,Increment      1: Step Time =    1.000,"PART-1-1",           124,       12.5645,      -25.1614,            0.,NA,NA,"",   272.357E-03,   115.080E-03,  -246.850E-03,   63.5548E-03
C:/temp/dataset/0/10_21.odb,Step-1,Increment      1: Step Time =    1.000,"PART-1-1",           125,       12.6631,      -17.7963,            0.,NA,NA,"",       1.19935,   946.145E-03,  -737.059E-03,   62.3839E-03
C:/temp/dataset/0/10_21.odb,Step-1,Increment      1: Step Time =    1.000,"PART-1-1",           126,       12.5016,      -12.6810,            0.,NA,NA,"",       2.44141,       2.18599,      -1.08717,   49.0321E-03
C:/temp/dataset/0/10_21.odb,Step-1,Increment      1: Step Time =    1.000,"PART-1-1",           127,       12.5761,      -10.0660,            0.,NA,NA,"",       3.23569,       2.96087,      -1.30497,   41.7398E-03
C:/temp/dataset/0/10_21.odb,Step-1,Increment      1: Step Time =    1.000,"PART-1-1",           128,       13.0467,      -5.23700,            0.,NA,NA,"",       4.83991,       4.50090,      -1.77950,   26.7226E-03
C:/temp/dataset/0/10_21.odb,Step-1,Increment      1: Step Time =    1.000,"PART-1-1",           129,       12.8236,      -2.99729,            0.,NA,NA,"",       5.56083,       5.24763,      -1.83988,   28.0452E-03
C:/temp/dataset/0/10_21.odb,Step-1,Increment      1: Step Time =    1.000,"PART-1-1",           130,       12.3116,       1.92449,            0.,NA,NA,"",       7.05037,       6.79630,      -1.87564,   31.3794E-03
C:/temp/dataset/0/10_21.odb,Step-1,Increment      1: Step Time =    1.000,"PART-1-1",           131,       12.2319,       4.58053,            0.,NA,NA,"",       7.73272,       7.49896,      -1.88693,   30.4132E-03
C:/temp/dataset/0/10_21.odb,Step-1,Increment      1: Step Time =    1.000,"PART-1-1",           132,       12.3276,       12.6723,            0.,NA,NA,"",       9.04334,       8.85908,      -1.81624,   27.2985E-03
C:/temp/dataset/0/10_21.odb,Step-1,Increment      1: Step Time =    1.000,"PART-1-1",           133,       12.6288,       17.8043,            0.,NA,NA,"",       9.40794,       9.24042,      -1.76749,   21.7629E-03
C:/temp/dataset/0/10_21.odb,Step-1,Increment      1: Step Time =    1.000,"PART-1-1",           134,       12.7774,       20.2190,            0.,NA,NA,"",       9.50627,       9.34378,      -1.75012,   17.5496E-03
C:/temp/dataset/0/10_21.odb,Step-1,Increment      1: Step Time =    1.000,"PART-1-1",           135,       2.42682,       23.0828,            0.,NA,NA,"",       9.43376,       9.33134,      -1.38635,   22.3785E-03
C:/temp/dataset/0/10_21.odb,Step-1,Increment      1: Step Time =    1.000,"PART-1-1",           136,       13.0358,       27.4773,            0.,NA,NA,"",       9.72242,       9.56641,      -1.73470,   3.21246E-03
C:/temp/dataset/0/10_21.odb,Step-1,Increment      1: Step Time =    1.000,"PART-1-1",           137,       10.8553,       25.1313,            0.,NA,NA,"",       9.63677,       9.49465,      -1.64896,   8.89830E-03
C:/temp/dataset/0/10_21.odb,Step-1,Increment      1: Step Time =    1.000,"PART-1-1",           138,       5.66135,       21.5046,            0.,NA,NA,"",       9.43530,       9.32997,      -1.40587,   35.7318E-03
C:/temp/dataset/0/10_21.odb,Step-1,Increment      1: Step Time =    1.000,"PART-1-1",           139,       1.38191,       23.9574,            0.,NA,NA,"",       9.46022,       9.36034,      -1.37107,   21.9435E-03
C:/temp/dataset/0/10_21.odb,Step-1,Increment      1: Step Time =    1.000,"PART-1-1",           140,       8.68595,       25.2651,            0.,NA,NA,"",       9.61646,       9.48835,      -1.56451,   10.1631E-03
C:/temp/dataset/0/10_21.odb,Step-1,Increment      1: Step Time =    1.000,"PART-1-1",           141,       12.9664,       25.0396,            0.,NA,NA,"",       9.65028,       9.49316,      -1.73431,   7.19655E-03
C:/temp/dataset/0/10_21.odb,Step-1,Increment      1: Step Time =    1.000,"PART-1-1",           142,       9.99676,      -12.8506,            0.,NA,NA,"",       2.23563,       2.18545,  -471.022E-03,   38.8694E-03
C:/temp/dataset/0/10_21.odb,Step-1,Increment      1: Step Time =    1.000,"PART-1-1",           143,       11.3735,      -5.41139,            0.,NA,NA,"",       4.68714,       4.50698,      -1.28700,   37.7286E-03
C:/temp/dataset/0/10_21.odb,Step-1,Increment      1: Step Time =    1.000,"PART-1-1",           144,       9.95511,       15.6727,            0.,NA,NA,"",       9.26561,       9.13473,      -1.55186,   19.0489E-03
C:/temp/dataset/0/10_21.odb,Step-1,Increment      1: Step Time =    1.000,"PART-1-1",           145,       9.67875,       10.0081,            0.,NA,NA,"",       8.70931,       8.58727,      -1.45290,   17.0563E-03
C:/temp/dataset/0/10_21.odb,Step-1,Increment      1: Step Time =    1.000,"PART-1-1",           146,       9.74913,       1.24671,            0.,NA,NA,"",       6.81113,       6.69969,      -1.22706,   33.8353E-03
C:/temp/dataset/0/10_21.odb,Step-1,Increment      1: Step Time =    1.000,"PART-1-1",           147,       10.3027,      -18.1986,            0.,NA,NA,"",   907.486E-03,   852.576E-03,  -310.879E-03,   33.0963E-03
C:/temp/dataset/0/10_21.odb,Step-1,Increment      1: Step Time =    1.000,"PART-1-1",           148,       1.33525,      -24.5624,            0.,NA,NA,"",   220.987E-03,   213.517E-03,   56.9741E-03,   47.6704E-03
C:/temp/dataset/0/10_21.odb,Step-1,Increment      1: Step Time =    1.000,"PART-1-1",           149,       9.11730,      -22.7103,            0.,NA,NA,"",   239.700E-03,   234.690E-03,  -48.7511E-03,   9.64243E-03
C:/temp/dataset/0/10_21.odb,Step-1,Increment      1: Step Time =    1.000,"PART-1-1",           150,       12.2648,      -27.5617,            0.,NA,NA,"",   112.317E-03,   27.3358E-03,  -108.940E-03,   56.5621E-03
C:/temp/dataset/0/10_21.odb,Step-1,Increment      1: Step Time =    1.000,"PART-1-1",           151,       10.6108,      -20.5371,            0.,NA,NA,"",   541.597E-03,   472.551E-03,  -264.618E-03,   32.9687E-03
C:/temp/dataset/0/10_21.odb,Step-1,Increment      1: Step Time =    1.000,"PART-1-1",           152,       10.0930,      -9.97392,            0.,NA,NA,"",       3.12665,       3.05912,  -646.335E-03,   40.5813E-03
C:/temp/dataset/0/10_21.odb,Step-1,Increment      1: Step Time =    1.000,"PART-1-1",           153,       9.63546,       7.06865,            0.,NA,NA,"",       8.23747,       8.11855,      -1.39465,   12.0701E-03
C:/temp/dataset/0/10_21.odb,Step-1,Increment      1: Step Time =    1.000,"PART-1-1",           154,       10.2222,       18.2240,            0.,NA,NA,"",       9.40907,       9.27402,      -1.58843,   20.0440E-03
C:/temp/dataset/0/10_21.odb,Step-1,Increment      1: Step Time =    1.000,"PART-1-1",           155,       10.5456,      -3.97788,            0.,NA,NA,"",       5.14235,       5.01301,      -1.14610,   40.8937E-03
C:/temp/dataset/0/10_21.odb,Step-1,Increment      1: Step Time =    1.000,"PART-1-1",           156,       10.0733,      -15.6212,            0.,NA,NA,"",       1.47689,       1.43035,  -367.837E-03,   40.3399E-03
C:/temp/dataset/0/10_21.odb,Step-1,Increment      1: Step Time =    1.000,"PART-1-1",           157,       10.5412,      -7.26051,            0.,NA,NA,"",       4.03322,       3.92329,  -935.260E-03,   40.9195E-03
C:/temp/dataset/0/10_21.odb,Step-1,Increment      1: Step Time =    1.000,"PART-1-1",           158,       9.98625,      -1.55753,            0.,NA,NA,"",       5.93517,       5.82494,      -1.13856,   40.9666E-03
C:/temp/dataset/0/10_21.odb,Step-1,Increment      1: Step Time =    1.000,"PART-1-1",           159,       9.65058,       4.13273,            0.,NA,NA,"",       7.59788,       7.48251,      -1.31900,   20.8393E-03
C:/temp/dataset/0/10_21.odb,Step-1,Increment      1: Step Time =    1.000,"PART-1-1",           160,       9.76871,       12.8936,            0.,NA,NA,"",       9.03864,       8.91253,      -1.50456,   20.1026E-03
C:/temp/dataset/0/10_21.odb,Step-1,Increment      1: Step Time =    1.000,"PART-1-1",           161,       10.4870,       20.5197,            0.,NA,NA,"",       9.49840,       9.36027,      -1.61399,   19.0386E-03
C:/temp/dataset/0/10_21.odb,Step-1,Increment      1: Step Time =    1.000,"PART-1-1",           162,       3.57821,       25.4429,            0.,NA,NA,"",       9.55962,       9.45231,      -1.42828,   19.5585E-03
C:/temp/dataset/0/10_21.odb,Step-1,Increment      1: Step Time =    1.000,"PART-1-1",           163,       6.34843,       25.4199,            0.,NA,NA,"",       9.59089,       9.47425,      -1.49125,   14.1968E-03
C:/temp/dataset/0/10_21.odb,Step-1,Increment      1: Step Time =    1.000,"PART-1-1",           164,       2.85591,      -26.4171,            0.,NA,NA,"",   139.310E-03,   128.137E-03,   54.6640E-03,   39.5974E-03
C:/temp/dataset/0/10_21.odb,Step-1,Increment      1: Step Time =    1.000,"PART-1-1",           165,  -631.401E-03,       25.1574,            0.,NA,NA,"",       9.50688,       9.41503,      -1.31833,   20.6793E-03
C:/temp/dataset/0/10_21.odb,Step-1,Increment      1: Step Time =    1.000,"PART-1-1",           166,  -516.865E-03,       27.6990,            0.,NA,NA,"",       9.66548,       9.57492,      -1.31999,   17.6110E-03
C:/temp/dataset/0/10_21.odb,Step-1,Increment      1: Step Time =    1.000,"PART-1-1",           167,      -6.99102,       22.3744,            0.,NA,NA,"",       9.21638,       9.17259,  -897.388E-03,   24.6373E-03
C:/temp/dataset/0/10_21.odb,Step-1,Increment      1: Step Time =    1.000,"PART-1-1",           168,      -5.11091,      -22.0245,            0.,NA,NA,"",   281.360E-03,   251.471E-03,  -126.196E-03,   49.1343E-03
C:/temp/dataset/0/10_21.odb,Step-1,Increment      1: Step Time =    1.000,"PART-1-1",           169,       6.75166,      -22.2774,            0.,NA,NA,"",   313.729E-03,   281.969E-03,   137.546E-03,   34.8406E-03
C:/temp/dataset/0/10_21.odb,Step-1,Increment      1: Step Time =    1.000,"PART-1-1",           170,       8.44380,       23.0750,            0.,NA,NA,"",       9.54435,       9.42061,      -1.53192,   18.8277E-03
C:/temp/dataset/0/10_21.odb,Step-1,Increment      1: Step Time =    1.000,"PART-1-1",           171,       3.98751,       23.4543,            0.,NA,NA,"",       9.47430,       9.36779,      -1.41660,   24.9521E-03
C:/temp/dataset/0/10_21.odb,Step-1,Increment      1: Step Time =    1.000,"PART-1-1",           172,       7.74283,       18.8612,            0.,NA,NA,"",       9.40030,       9.29151,      -1.42600,   26.6381E-03
C:/temp/dataset/0/10_21.odb,Step-1,Increment      1: Step Time =    1.000,"PART-1-1",           173,  -206.614E-03,      -27.1815,            0.,NA,NA,"",   114.453E-03,   114.065E-03,   9.41645E-03,   32.4338E-03
C:/temp/dataset/0/10_21.odb,Step-1,Increment      1: Step Time =    1.000,"PART-1-1",           174,       10.6950,       22.8157,            0.,NA,NA,"",       9.56892,       9.42838,      -1.63396,   14.5868E-03
C:/temp/dataset/0/10_21.odb,Step-1,Increment      1: Step Time =    1.000,"PART-1-1",           175,       1.78109,       26.2982,            0.,NA,NA,"",       9.58885,       9.48733,      -1.39165,   18.3942E-03
C:/temp/dataset/0/10_21.odb,Step-1,Increment      1: Step Time =    1.000,"PART-1-1",           176,       7.62536,      -9.80486,            0.,NA,NA,"",       3.20359,       3.20359,  -232.794E-06,   32.7280E-03
C:/temp/dataset/0/10_21.odb,Step-1,Increment      1: Step Time =    1.000,"PART-1-1",           177,       7.50504,      -2.60802,            0.,NA,NA,"",       5.57932,       5.56603,  -384.887E-03,   37.6579E-03
C:/temp/dataset/0/10_21.odb,Step-1,Increment      1: Step Time =    1.000,"PART-1-1",           178,       7.24337,       3.70501,            0.,NA,NA,"",       7.48512,       7.44682,  -756.228E-03,   39.6870E-03
C:/temp/dataset/0/10_21.odb,Step-1,Increment      1: Step Time =    1.000,"PART-1-1",           179,       7.25379,       10.0129,            0.,NA,NA,"",       8.67354,       8.60564,      -1.08322,   44.2740E-03
C:/temp/dataset/0/10_21.odb,Step-1,Increment      1: Step Time =    1.000,"PART-1-1",           180,       7.22962,       6.85747,            0.,NA,NA,"",       8.18139,       8.12807,  -932.570E-03,   40.4255E-03
C:/temp/dataset/0/10_21.odb,Step-1,Increment      1: Step Time =    1.000,"PART-1-1",           181,       7.49186,      -13.0485,            0.,NA,NA,"",       2.21616,       2.21253,   126.711E-03,   41.2016E-03
C:/temp/dataset/0/10_21.odb,Step-1,Increment      1: Step Time =    1.000,"PART-1-1",           182,       8.10600,      -6.05436,            0.,NA,NA,"",       4.42247,       4.41020,  -329.229E-03,   34.8683E-03
C:/temp/dataset/0/10_21.odb,Step-1,Increment      1: Step Time =    1.000,"PART-1-1",           183,       7.31265,   557.236E-03,            0.,NA,NA,"",       6.59962,       6.57549,  -563.861E-03,   43.2408E-03
C:/temp/dataset/0/10_21.odb,Step-1,Increment      1: Step Time =    1.000,"PART-1-1",           184,       7.30605,       13.1330,            0.,NA,NA,"",       9.01042,       8.92726,      -1.22132,   42.2102E-03
C:/temp/dataset/0/10_21.odb,Step-1,Increment      1: Step Time =    1.000,"PART-1-1",           185,       8.51669,      -21.0731,            0.,NA,NA,"",   394.461E-03,   394.461E-03,   600.266E-06,   16.6979E-03
C:/temp/dataset/0/10_21.odb,Step-1,Increment      1: Step Time =    1.000,"PART-1-1",           186,       7.54046,      -16.1016,            0.,NA,NA,"",       1.38480,       1.37758,   141.229E-03,   59.8144E-03
C:/temp/dataset/0/10_21.odb,Step-1,Increment      1: Step Time =    1.000,"PART-1-1",           187,       7.81864,      -18.8426,            0.,NA,NA,"",   743.435E-03,   739.516E-03,   76.2346E-03,   40.3772E-03
C:/temp/dataset/0/10_21.odb,Step-1,Increment      1: Step Time =    1.000,"PART-1-1",           188,       7.43701,       16.1533,            0.,NA,NA,"",       9.25270,       9.15558,      -1.33710,   32.5853E-03
C:/temp/dataset/0/10_21.odb,Step-1,Increment      1: Step Time =    1.000,"PART-1-1",           189,       8.13437,       20.9213,            0.,NA,NA,"",       9.47518,       9.35821,      -1.48423,   26.2044E-03
C:/temp/dataset/0/10_21.odb,Step-1,Increment      1: Step Time =    1.000,"PART-1-1",           190,       10.1795,      -24.9689,            0.,NA,NA,"",   134.471E-03,   91.9970E-03,  -98.0762E-03,   23.7865E-03
C:/temp/dataset/0/10_21.odb,Step-1,Increment      1: Step Time =    1.000,"PART-1-1",           191,      -2.92607,      -24.6642,            0.,NA,NA,"",   194.560E-03,   189.262E-03,  -45.0919E-03,   40.3883E-03
C:/temp/dataset/0/10_21.odb,Step-1,Increment      1: Step Time =    1.000,"PART-1-1",           192,      -7.32959,       16.5303,            0.,NA,NA,"",       8.24461,       8.19785,  -876.881E-03,   41.4600E-03
C:/temp/dataset/0/10_21.odb,Step-1,Increment      1: Step Time =    1.000,"PART-1-1",           193,      -3.80789,       25.1547,            0.,NA,NA,"",       9.48786,       9.41634,      -1.16281,   13.7565E-03
C:/temp/dataset/0/10_21.odb,Step-1,Increment      1: Step Time =    1.000,"PART-1-1",           194,      -7.16094,      -19.5479,            0.,NA,NA,"",   420.339E-03,   407.960E-03,  -101.258E-03,   27.1299E-03
C:/temp/dataset/0/10_21.odb,Step-1,Increment      1: Step Time =    1.000,"PART-1-1",           195,       6.10177,       23.3904,            0.,NA,NA,"",       9.51004,       9.39770,      -1.45743,   22.7606E-03
C:/temp/dataset/0/10_21.odb,Step-1,Increment      1: Step Time =    1.000,"PART-1-1",           196,      -3.02004,      -27.2699,            0.,NA,NA,"",   97.6822E-03,   96.5100E-03,  -15.0870E-03,   29.7420E-03
C:/temp/dataset/0/10_21.odb,Step-1,Increment      1: Step Time =    1.000,"PART-1-1",           197,      -5.46178,      -24.4382,            0.,NA,NA,"",   173.761E-03,   161.121E-03,  -65.0591E-03,   30.7671E-03
C:/temp/dataset/0/10_21.odb,Step-1,Increment      1: Step Time =    1.000,"PART-1-1",           198,      -9.66724,       21.9754,            0.,NA,NA,"",       9.15021,       9.13464,  -533.680E-03,   18.6195E-03
C:/temp/dataset/0/10_21.odb,Step-1,Increment      1: Step Time =    1.000,"PART-1-1",           199,      -7.19512,      -21.6661,            0.,NA,NA,"",   261.162E-03,   251.115E-03,  -71.7400E-03,   20.5299E-03
C:/temp/dataset/0/10_21.odb,Step-1,Increment      1: Step Time =    1.000,"PART-1-1",           200,      -3.42041,       27.6042,            0.,NA,NA,"",       9.67792,       9.60636,      -1.17476,   17.1937E-03
C:/temp/dataset/0/10_21.odb,Step-1,Increment      1: Step Time =    1.000,"PART-1-1",           201,       5.45774,      -23.9133,            0.,NA,NA,"",   237.675E-03,   200.882E-03,   127.027E-03,   50.2251E-03
C:/temp/dataset/0/10_21.odb,Step-1,Increment      1: Step Time =    1.000,"PART-1-1",           202,      -6.69209,       24.9820,            0.,NA,NA,"",       9.47310,       9.42870,  -916.048E-03,   16.9788E-03
C:/temp/dataset/0/10_21.odb,Step-1,Increment      1: Step Time =    1.000,"PART-1-1",           203,      -12.3718,      -14.6182,            0.,NA,NA,"",       1.29679,       1.19330,   507.650E-03,   38.7148E-03
C:/temp/dataset/0/10_21.odb,Step-1,Increment      1: Step Time =    1.000,"PART-1-1",           204,      -5.91076,      -27.0963,            0.,NA,NA,"",   71.3269E-03,   68.5431E-03,  -19.7325E-03,   23.0883E-03
C:/temp/dataset/0/10_21.odb,Step-1,Increment      1: Step Time =    1.000,"PART-1-1",           205,      -9.09285,      -26.5479,            0.,NA,NA,"",   62.8362E-03,   58.1319E-03,   23.8552E-03,   9.97735E-03
C:/temp/dataset/0/10_21.odb,Step-1,Increment      1: Step Time =    1.000,"PART-1-1",           206,      -12.2958,       24.3839,            0.,NA,NA,"",       9.42058,       9.41870,  -188.382E-03,   21.9951E-03
C:/temp/dataset/0/10_21.odb,Step-1,Increment      1: Step Time =    1.000,"PART-1-1",           207,      -12.3670,       18.5668,            0.,NA,NA,"",       8.64921,       8.64907,  -50.3141E-03,   15.8151E-03
C:/temp/dataset/0/10_21.odb,Step-1,Increment      1: Step Time =    1.000,"PART-1-1",           208,      -12.3673,       12.5421,            0.,NA,NA,"",       7.46748,       7.46638,   128.033E-03,   13.7419E-03
C:/temp/dataset/0/10_21.odb,Step-1,Increment      1: Step Time =    1.000,"PART-1-1",           209,      -12.4084,       3.45294,            0.,NA,NA,"",       5.30753,       5.29268,   396.839E-03,   13.1003E-03
C:/temp/dataset/0/10_21.odb,Step-1,Increment      1: Step Time =    1.000,"PART-1-1",           210,      -12.4043,      -5.59421,            0.,NA,NA,"",       3.11405,       3.06416,   555.171E-03,   24.0640E-03
C:/temp/dataset/0/10_21.odb,Step-1,Increment      1: Step Time =    1.000,"PART-1-1",           211,      -12.3838,       9.50768,            0.,NA,NA,"",       6.77677,       6.77310,   222.837E-03,   11.8897E-03
C:/temp/dataset/0/10_21.odb,Step-1,Increment      1: Step Time =    1.000,"PART-1-1",           212,      -12.4013,       6.47621,            0.,NA,NA,"",       6.05113,       6.04295,   314.652E-03,   11.4855E-03
C:/temp/dataset/0/10_21.odb,Step-1,Increment      1: Step Time =    1.000,"PART-1-1",           213,      -12.4173,   428.232E-03,            0.,NA,NA,"",       4.55924,       4.53511,   468.441E-03,   16.0632E-03
C:/temp/dataset/0/10_21.odb,Step-1,Increment      1: Step Time =    1.000,"PART-1-1",           214,      -12.4160,      -2.58791,            0.,NA,NA,"",       3.82305,       3.78719,   522.420E-03,   19.8380E-03
C:/temp/dataset/0/10_21.odb,Step-1,Increment      1: Step Time =    1.000,"PART-1-1",           215,      -12.4014,      -8.61211,            0.,NA,NA,"",       2.44396,       2.37716,   567.486E-03,   28.6821E-03
C:/temp/dataset/0/10_21.odb,Step-1,Increment      1: Step Time =    1.000,"PART-1-1",           216,      -12.3969,      -11.6247,            0.,NA,NA,"",       1.83217,       1.74657,   553.497E-03,   33.6329E-03
C:/temp/dataset/0/10_21.odb,Step-1,Increment      1: Step Time =    1.000,"PART-1-1",           217,      -12.3009,      -17.6498,            0.,NA,NA,"",   846.089E-03,   731.880E-03,   424.522E-03,   42.8260E-03
C:/temp/dataset/0/10_21.odb,Step-1,Increment      1: Step Time =    1.000,"PART-1-1",           218,      -11.9370,      -20.9397,            0.,NA,NA,"",   466.616E-03,   370.197E-03,   284.049E-03,   41.0750E-03
C:/temp/dataset/0/10_21.odb,Step-1,Increment      1: Step Time =    1.000,"PART-1-1",           219,       6.28266,      -26.4725,            0.,NA,NA,"",   85.0216E-03,   70.1179E-03,   48.0849E-03,   31.0711E-03
C:/temp/dataset/0/10_21.odb,Step-1,Increment      1: Step Time =    1.000,"PART-1-1",           220,      -12.3616,       21.4963,            0.,NA,NA,"",       9.08102,       9.08014,  -126.268E-03,   18.6763E-03
C:/temp/dataset/0/10_21.odb,Step-1,Increment      1: Step Time =    1.000,"PART-1-1",           221,       9.42071,      -27.3229,            0.,NA,NA,"",   31.2410E-03,   8.53553E-03,  -30.0523E-03,   15.0415E-03
C:/temp/dataset/0/10_21.odb,Step-1,Increment      1: Step Time =    1.000,"PART-1-1",           222,      -12.3680,       15.5612,            0.,NA,NA,"",       8.10039,       8.10030,   37.4521E-03,   15.4796E-03
C:/temp/dataset/0/10_21.odb,Step-1,Increment      1: Step Time =    1.000,"PART-1-1",           223,      -6.37126,       27.5191,            0.,NA,NA,"",       9.69861,       9.65358,  -933.464E-03,   17.6519E-03
C:/temp/dataset/0/10_21.odb,Step-1,Increment      1: Step Time =    1.000,"PART-1-1",           224,      -7.37426,       13.4489,            0.,NA,NA,"",       7.59502,       7.54399,  -878.959E-03,   30.2865E-03
C:/temp/dataset/0/10_21.odb,Step-1,Increment      1: Step Time =    1.000,"PART-1-1",           225,      -7.40401,       7.31385,            0.,NA,NA,"",       6.15624,       6.10069,  -825.168E-03,   19.4522E-03
C:/temp/dataset/0/10_21.odb,Step-1,Increment      1: Step Time =    1.000,"PART-1-1",           226,      -7.40102,      -1.84560,            0.,NA,NA,"",       3.87195,       3.82290,  -614.389E-03,   10.6236E-03
C:/temp/dataset/0/10_21.odb,Step-1,Increment      1: Step Time =    1.000,"PART-1-1",           227,      -7.36253,      -10.9851,            0.,NA,NA,"",       1.80630,       1.77451,  -337.341E-03,   17.9306E-03
C:/temp/dataset/0/10_21.odb,Step-1,Increment      1: Step Time =    1.000,"PART-1-1",           228,      -7.39657,       10.3769,            0.,NA,NA,"",       6.89409,       6.83983,  -863.201E-03,   24.1162E-03
C:/temp/dataset/0/10_21.odb,Step-1,Increment      1: Step Time =    1.000,"PART-1-1",           229,      -7.41369,       4.25226,            0.,NA,NA,"",       5.39498,       5.34022,  -766.738E-03,   15.3552E-03
C:/temp/dataset/0/10_21.odb,Step-1,Increment      1: Step Time =    1.000,"PART-1-1",           230,      -7.41413,       1.19777,            0.,NA,NA,"",       4.62794,       4.57551,  -694.661E-03,   12.2079E-03
C:/temp/dataset/0/10_21.odb,Step-1,Increment      1: Step Time =    1.000,"PART-1-1",           231,      -7.39700,      -4.89906,            0.,NA,NA,"",       3.13719,       3.09314,  -523.875E-03,   11.3254E-03
C:/temp/dataset/0/10_21.odb,Step-1,Increment      1: Step Time =    1.000,"PART-1-1",           232,      -7.39133,      -7.95434,            0.,NA,NA,"",       2.44146,       2.40349,  -428.930E-03,   14.0613E-03
C:/temp/dataset/0/10_21.odb,Step-1,Increment      1: Step Time =    1.000,"PART-1-1",           233,      -7.32483,      -13.9963,            0.,NA,NA,"",       1.24295,       1.21870,  -244.344E-03,   24.4129E-03
C:/temp/dataset/0/10_21.odb,Step-1,Increment      1: Step Time =    1.000,"PART-1-1",           234,      -9.29453,       27.3932,            0.,NA,NA,"",       9.71487,       9.69614,  -602.894E-03,   21.1959E-03
C:/temp/dataset/0/10_21.odb,Step-1,Increment      1: Step Time =    1.000,"PART-1-1",           235,      -9.79647,       16.0793,            0.,NA,NA,"",       8.17917,       8.16741,  -438.487E-03,   18.2900E-03
C:/temp/dataset/0/10_21.odb,Step-1,Increment      1: Step Time =    1.000,"PART-1-1",           236,      -10.5694,      -24.3397,            0.,NA,NA,"",   174.112E-03,   140.173E-03,   103.278E-03,   22.7167E-03
C:/temp/dataset/0/10_21.odb,Step-1,Increment      1: Step Time =    1.000,"PART-1-1",           237,      -9.80814,      -14.2636,            0.,NA,NA,"",       1.20423,       1.19631,   137.850E-03,   17.7968E-03
C:/temp/dataset/0/10_21.odb,Step-1,Increment      1: Step Time =    1.000,"PART-1-1",           238,      -9.84607,      -11.2856,            0.,NA,NA,"",       1.75541,       1.75181,   112.422E-03,   17.1018E-03
C:/temp/dataset/0/10_21.odb,Step-1,Increment      1: Step Time =    1.000,"PART-1-1",           239,      -9.85160,       9.96190,            0.,NA,NA,"",       6.82448,       6.81630,  -333.946E-03,   17.3675E-03
C:/temp/dataset/0/10_21.odb,Step-1,Increment      1: Step Time =    1.000,"PART-1-1",           240,      -9.42013,      -19.6871,            0.,NA,NA,"",   439.079E-03,   428.939E-03,   93.8188E-03,   18.8583E-03
C:/temp/dataset/0/10_21.odb,Step-1,Increment      1: Step Time =    1.000,"PART-1-1",           241,      -9.87385,       6.90801,            0.,NA,NA,"",       6.08356,       6.07778,  -264.988E-03,   16.7728E-03
C:/temp/dataset/0/10_21.odb,Step-1,Increment      1: Step Time =    1.000,"PART-1-1",           242,      -9.72088,      -17.1529,            0.,NA,NA,"",   751.607E-03,   739.047E-03,   136.832E-03,   22.6695E-03
C:/temp/dataset/0/10_21.odb,Step-1,Increment      1: Step Time =    1.000,"PART-1-1",           243,      -7.24385,      -16.9197,            0.,NA,NA,"",   771.779E-03,   754.307E-03,  -163.293E-03,   37.4096E-03
C:/temp/dataset/0/10_21.odb,Step-1,Increment      1: Step Time =    1.000,"PART-1-1",           244,      -9.88569,       3.86363,            0.,NA,NA,"",       5.32304,       5.31959,  -191.639E-03,   16.4995E-03
C:/temp/dataset/0/10_21.odb,Step-1,Increment      1: Step Time =    1.000,"PART-1-1",           245,      -9.88680,   826.149E-03,            0.,NA,NA,"",       4.55804,       4.55650,  -118.307E-03,   16.3938E-03
C:/temp/dataset/0/10_21.odb,Step-1,Increment      1: Step Time =    1.000,"PART-1-1",           246,      -9.87953,      -2.20322,            0.,NA,NA,"",       3.80419,       3.80388,  -48.7300E-03,   16.4246E-03
C:/temp/dataset/0/10_21.odb,Step-1,Increment      1: Step Time =    1.000,"PART-1-1",           247,      -9.87339,      -5.23467,            0.,NA,NA,"",       3.07466,       3.07462,   15.6980E-03,   16.5629E-03
C:/temp/dataset/0/10_21.odb,Step-1,Increment      1: Step Time =    1.000,"PART-1-1",           248,      -9.87035,      -8.27303,            0.,NA,NA,"",       2.38424,       2.38315,   72.1290E-03,   16.8018E-03
C:/temp/dataset/0/10_21.odb,Step-1,Increment      1: Step Time =    1.000,"PART-1-1",           249,      -12.1942,       27.2250,            0.,NA,NA,"",       9.72054,       9.71780,  -230.952E-03,   16.7056E-03
C:/temp/dataset/0/10_21.odb,Step-1,Increment      1: Step Time =    1.000,"PART-1-1",           250,      -12.1946,      -27.0241,            0.,NA,NA,"",   115.465E-03,   66.7043E-03,   94.2475E-03,   40.5211E-03
C:/temp/dataset/0/10_21.odb,Step-1,Increment      1: Step Time =    1.000,"PART-1-1",           251,      -9.83578,       13.0151,            0.,NA,NA,"",       7.52815,       7.51805,  -389.720E-03,   17.7560E-03
C:/temp/dataset/0/10_21.odb,Step-1,Increment      1: Step Time =    1.000,"PART-1-1",           252,      -12.4960,      -24.1891,            0.,NA,NA,"",   271.119E-03,   177.180E-03,   205.214E-03,   44.3534E-03
C:/temp/dataset/0/10_21.odb,Step-1,Increment      1: Step Time =    1.000,"PART-1-1",           253,      -7.26398,       19.6069,            0.,NA,NA,"",       8.83935,       8.79677,  -866.538E-03,   28.7023E-03
C:/temp/dataset/0/10_21.odb,Step-1,Increment      1: Step Time =    1.000,"PART-1-1",           254,      -9.78845,      -22.6320,            0.,NA,NA,"",   231.023E-03,   214.142E-03,   86.6883E-03,   17.5875E-03
C:/temp/dataset/0/10_21.odb,Step-1,Increment      1: Step Time =    1.000,"PART-1-1",           255,       8.11622,      -24.1302,            0.,NA,NA,"",   146.121E-03,   144.287E-03,   23.0794E-03,   14.0536E-03
C:/temp/dataset/0/10_21.odb,Step-1,Increment      1: Step Time =    1.000,"PART-1-1",           256,       10.7040,      -22.7860,            0.,NA,NA,"",   307.740E-03,   236.167E-03,  -197.305E-03,   33.0862E-03
C:/temp/dataset/0/10_21.odb,Step-1,Increment      1: Step Time =    1.000,"PART-1-1",           257,      -8.82647,      -21.3553,            0.,NA,NA,"",   281.323E-03,   279.479E-03,   32.1553E-03,   15.3456E-03
C:/temp/dataset/0/10_21.odb,Step-1,Increment      1: Step Time =    1.000,"PART-1-1",           258,      -9.77631,       19.1047,            0.,NA,NA,"",       8.73733,       8.72410,  -480.648E-03,   10.8330E-03
C:/temp/dataset/0/10_21.odb,Step-1,Increment      1: Step Time =    1.000,"PART-1-1",           259,      -7.77355,      -23.8785,            0.,NA,NA,"",   153.285E-03,   151.828E-03,  -21.0801E-03,   11.1438E-03
C:/temp/dataset/0/10_21.odb,Step-1,Increment      1: Step Time =    1.000,"PART-1-1",           260,  -536.979E-03,      -24.7394,            0.,NA,NA,"",   205.420E-03,   205.261E-03,   8.08229E-03,   36.7809E-03
C:/temp/dataset/0/10_21.odb,Step-1,Increment      1: Step Time =    1.000,"PART-1-1",           261,      -9.52558,       24.7102,            0.,NA,NA,"",       9.45001,       9.43281,  -569.885E-03,   23.0843E-03
C:/temp/dataset/0/10_21.odb,Step-1,Increment      1: Step Time =    1.000,"PART-1-1",           262,      -2.15050,       21.2402,            0.,NA,NA,"",       9.22128,       9.13827,      -1.23450,   39.0959E-03
C:/temp/dataset/0/10_21.odb,Step-1,Increment      1: Step Time =    1.000,"PART-1-1",           263,      -3.09708,       22.5364,            0.,NA,NA,"",       9.28138,       9.20202,      -1.21114,   27.0935E-03
C:/temp/dataset/0/10_21.odb,Step-1,Increment      1: Step Time =    1.000,"PART-1-1",           264,      -4.69657,       21.2962,            0.,NA,NA,"",       9.13296,       9.06153,      -1.13998,   59.8738E-03
C:/temp/dataset/0/10_21.odb,Step-1,Increment      1: Step Time =    1.000,"PART-1-1",           265,         -3.75,           20.,            0.,NA,NA,"",       9.07022,       8.99760,      -1.14549,   78.6087E-03
C:/temp/dataset/0/10_21.odb,Step-1,Increment      1: Step Time =    1.000,"PART-1-1",           266,      -4.10052,       23.8735,            0.,NA,NA,"",       9.38106,       9.31057,      -1.14790,   20.4921E-03
C:/temp/dataset/0/10_21.odb,Step-1,Increment      1: Step Time =    1.000,"PART-1-1",           267,      -5.24999,       25.0683,            0.,NA,NA,"",       9.47886,       9.42023,      -1.05262,   11.7588E-03
C:/temp/dataset/0/10_21.odb,Step-1,Increment      1: Step Time =    1.000,"PART-1-1",           268,      -6.84155,       23.6782,            0.,NA,NA,"",       9.35057,       9.30646,  -907.250E-03,   19.1372E-03
C:/temp/dataset/0/10_21.odb,Step-1,Increment      1: Step Time =    1.000,"PART-1-1",           269,      -5.69208,       22.4834,            0.,NA,NA,"",       9.23968,       9.18099,      -1.03977,   22.5673E-03
C:/temp/dataset/0/10_21.odb,Step-1,Increment      1: Step Time =    1.000,"PART-1-1",           270,      -7.35192,       14.9896,            0.,NA,NA,"",       7.92950,       7.88044,  -880.636E-03,   32.7190E-03
C:/temp/dataset/0/10_21.odb,Step-1,Increment      1: Step Time =    1.000,"PART-1-1",           271,      -8.56303,       16.3048,            0.,NA,NA,"",       8.21313,       8.18674,  -657.901E-03,   27.6867E-03
C:/temp/dataset/0/10_21.odb,Step-1,Increment      1: Step Time =    1.000,"PART-1-1",           272,      -9.81613,       14.5472,            0.,NA,NA,"",       7.86044,       7.84945,  -415.526E-03,   18.2022E-03
C:/temp/dataset/0/10_21.odb,Step-1,Increment      1: Step Time =    1.000,"PART-1-1",           273,      -8.60502,       13.2320,            0.,NA,NA,"",       7.55975,       7.53301,  -635.215E-03,   23.1269E-03
C:/temp/dataset/0/10_21.odb,Step-1,Increment      1: Step Time =    1.000,"PART-1-1",           274,          -15.,         -16.5,            0.,NA,NA,"",       1.27173,   983.277E-03,   806.519E-03,   71.7738E-03
C:/temp/dataset/0/10_21.odb,Step-1,Increment      1: Step Time =    1.000,"PART-1-1",           275,      -13.6504,      -17.8249,            0.,NA,NA,"",   943.698E-03,   749.757E-03,   573.089E-03,   58.7656E-03
C:/temp/dataset/0/10_21.odb,Step-1,Increment      1: Step Time =    1.000,"PART-1-1",           276,      -12.3363,      -16.1340,            0.,NA,NA,"",       1.05764,   947.538E-03,   469.873E-03,   40.5277E-03
C:/temp/dataset/0/10_21.odb,Step-1,Increment      1: Step Time =    1.000,"PART-1-1",           277,      -13.6859,      -14.8091,            0.,NA,NA,"",       1.38816,       1.20178,   694.770E-03,   52.6641E-03
C:/temp/dataset/0/10_21.odb,Step-1,Increment      1: Step Time =    1.000,"PART-1-1",           278,      -4.46540,      -27.1831,            0.,NA,NA,"",   86.9383E-03,   84.1225E-03,  -21.9472E-03,   26.0963E-03
C:/temp/dataset/0/10_21.odb,Step-1,Increment      1: Step Time =    1.000,"PART-1-1",           279,      -2.97305,      -25.9670,            0.,NA,NA,"",   146.426E-03,   143.552E-03,  -28.8684E-03,   34.1893E-03
C:/temp/dataset/0/10_21.odb,Step-1,Increment      1: Step Time =    1.000,"PART-1-1",           280,      -4.19392,      -24.5512,            0.,NA,NA,"",   185.927E-03,   175.376E-03,  -61.7441E-03,   34.8448E-03
C:/temp/dataset/0/10_21.odb,Step-1,Increment      1: Step Time =    1.000,"PART-1-1",           281,      -5.68627,      -25.7673,            0.,NA,NA,"",   119.160E-03,   112.301E-03,  -39.8443E-03,   26.5776E-03
C:/temp/dataset/0/10_21.odb,Step-1,Increment      1: Step Time =    1.000,"PART-1-1",           282,      -5.28634,      -23.2314,            0.,NA,NA,"",   225.046E-03,   205.321E-03,  -92.1367E-03,   37.6665E-03
C:/temp/dataset/0/10_21.odb,Step-1,Increment      1: Step Time =    1.000,"PART-1-1",           283,      -2.80857,      -23.4296,            0.,NA,NA,"",   238.459E-03,   231.925E-03,  -55.4392E-03,   38.7326E-03
C:/temp/dataset/0/10_21.odb,Step-1,Increment      1: Step Time =    1.000,"PART-1-1",           284,      -3.90099,      -22.1098,            0.,NA,NA,"",   285.389E-03,   263.490E-03,  -109.636E-03,   41.2228E-03
C:/temp/dataset/0/10_21.odb,Step-1,Increment      1: Step Time =    1.000,"PART-1-1",           285,       1.61260,      -23.5545,            0.,NA,NA,"",   260.229E-03,   250.446E-03,   70.6814E-03,   43.5924E-03
C:/temp/dataset/0/10_21.odb,Step-1,Increment      1: Step Time =    1.000,"PART-1-1",           286,       2.09558,      -25.4897,            0.,NA,NA,"",   181.092E-03,   170.821E-03,   60.1216E-03,   42.7941E-03
C:/temp/dataset/0/10_21.odb,Step-1,Increment      1: Step Time =    1.000,"PART-1-1",           287,       3.30955,      -24.8521,            0.,NA,NA,"",   207.624E-03,   186.563E-03,   91.1161E-03,   48.2742E-03
C:/temp/dataset/0/10_21.odb,Step-1,Increment      1: Step Time =    1.000,"PART-1-1",           288,       2.82657,      -22.9168,            0.,NA,NA,"",   304.946E-03,   278.586E-03,   124.025E-03,   48.5905E-03
C:/temp/dataset/0/10_21.odb,Step-1,Increment      1: Step Time =    1.000,"PART-1-1",           289,       13.8857,      -20.1351,            0.,NA,NA,"",   954.881E-03,   589.171E-03,  -751.449E-03,   90.9355E-03
C:/temp/dataset/0/10_21.odb,Step-1,Increment      1: Step Time =    1.000,"PART-1-1",           290,           15.,        -18.75,            0.,NA,NA,"",       1.36499,   832.408E-03,      -1.08180,   112.312E-03
C:/temp/dataset/0/10_21.odb,Step-1,Increment      1: Step Time =    1.000,"PART-1-1",           291,       13.8316,      -17.6482,            0.,NA,NA,"",       1.38842,   992.386E-03,  -971.015E-03,   84.3295E-03
C:/temp/dataset/0/10_21.odb,Step-1,Increment      1: Step Time =    1.000,"PART-1-1",           292,       12.7173,      -19.0333,            0.,NA,NA,"",   978.663E-03,   726.237E-03,  -656.018E-03,   63.9944E-03
C:/temp/dataset/0/10_21.odb,Step-1,Increment      1: Step Time =    1.000,"PART-1-1",           293,       13.7508,      -12.5905,            0.,NA,NA,"",       2.61460,       2.19458,      -1.42125,   56.2286E-03
C:/temp/dataset/0/10_21.odb,Step-1,Increment      1: Step Time =    1.000,"PART-1-1",           294,           15.,        -11.25,            0.,NA,NA,"",       3.18746,       2.55251,      -1.90907,   58.8835E-03
C:/temp/dataset/0/10_21.odb,Step-1,Increment      1: Step Time =    1.000,"PART-1-1",           295,       13.7881,      -10.0330,            0.,NA,NA,"",       3.37264,       2.93976,      -1.65303,   41.0571E-03
C:/temp/dataset/0/10_21.odb,Step-1,Increment      1: Step Time =    1.000,"PART-1-1",           296,       12.5389,      -11.3735,            0.,NA,NA,"",       2.82989,       2.56465,      -1.19616,   45.3232E-03
C:/temp/dataset/0/10_21.odb,Step-1,Increment      1: Step Time =    1.000,"PART-1-1",           297,       11.3345,      -10.0200,            0.,NA,NA,"",       3.16122,       3.00816,  -971.732E-03,   39.3625E-03
C:/temp/dataset/0/10_21.odb,Step-1,Increment      1: Step Time =    1.000,"PART-1-1",           298,       10.0449,      -11.4123,            0.,NA,NA,"",       2.67140,       2.61314,  -554.856E-03,   39.9919E-03
C:/temp/dataset/0/10_21.odb,Step-1,Increment      1: Step Time =    1.000,"PART-1-1",           299,       11.2492,      -12.7658,            0.,NA,NA,"",       2.31524,       2.18239,  -772.983E-03,   41.0945E-03
C:/temp/dataset/0/10_21.odb,Step-1,Increment      1: Step Time =    1.000,"PART-1-1",           300,       9.32361,      -6.65743,            0.,NA,NA,"",       4.21338,       4.16524,  -635.136E-03,   37.7487E-03
C:/temp/dataset/0/10_21.odb,Step-1,Increment      1: Step Time =    1.000,"PART-1-1",           301,       10.9574,      -6.33595,            0.,NA,NA,"",       4.35886,       4.21515,      -1.11006,   39.4950E-03
C:/temp/dataset/0/10_21.odb,Step-1,Increment      1: Step Time =    1.000,"PART-1-1",           302,       10.9595,      -4.69463,            0.,NA,NA,"",       4.91303,       4.76027,      -1.21561,   39.3744E-03
C:/temp/dataset/0/10_21.odb,Step-1,Increment      1: Step Time =    1.000,"PART-1-1",           303,       9.32578,      -5.01612,            0.,NA,NA,"",       4.76827,       4.71062,  -739.209E-03,   37.6774E-03
C:/temp/dataset/0/10_21.odb,Step-1,Increment      1: Step Time =    1.000,"PART-1-1",           304,       12.9351,      -4.11714,            0.,NA,NA,"",       5.20085,       4.87481,      -1.81249,   26.7508E-03
C:/temp/dataset/0/10_21.odb,Step-1,Increment      1: Step Time =    1.000,"PART-1-1",           305,       11.6846,      -3.48758,            0.,NA,NA,"",       5.34551,       5.13328,      -1.49129,   34.0154E-03
C:/temp/dataset/0/10_21.odb,Step-1,Increment      1: Step Time =    1.000,"PART-1-1",           306,       12.2101,      -5.32419,            0.,NA,NA,"",       4.75799,       4.50514,      -1.53042,   32.1345E-03
C:/temp/dataset/0/10_21.odb,Step-1,Increment      1: Step Time =    1.000,"PART-1-1",           307,       9.86769,  -155.410E-03,            0.,NA,NA,"",       6.38376,       6.27255,      -1.18642,   37.4300E-03
C:/temp/dataset/0/10_21.odb,Step-1,Increment      1: Step Time =    1.000,"PART-1-1",           308,       8.53089,   901.975E-03,            0.,NA,NA,"",       6.70060,       6.63926,  -904.536E-03,   36.0239E-03
C:/temp/dataset/0/10_21.odb,Step-1,Increment      1: Step Time =    1.000,"PART-1-1",           309,       7.40884,      -1.02539,            0.,NA,NA,"",       6.09822,       6.07971,  -474.738E-03,   41.5429E-03
C:/temp/dataset/0/10_21.odb,Step-1,Increment      1: Step Time =    1.000,"PART-1-1",           310,       8.74564,      -2.08278,            0.,NA,NA,"",       5.74854,       5.69656,  -771.315E-03,   39.0291E-03
C:/temp/dataset/0/10_21.odb,Step-1,Increment      1: Step Time =    1.000,"PART-1-1",           311,       9.64302,       5.60069,            0.,NA,NA,"",       7.93918,       7.82162,      -1.36118,   14.5326E-03
C:/temp/dataset/0/10_21.odb,Step-1,Increment      1: Step Time =    1.000,"PART-1-1",           312,       10.9412,       4.35663,            0.,NA,NA,"",       7.66365,       7.49348,      -1.60601,   20.6418E-03
C:/temp/dataset/0/10_21.odb,Step-1,Increment      1: Step Time =    1.000,"PART-1-1",           313,       12.2262,       5.93259,            0.,NA,NA,"",       8.03247,       7.80806,      -1.88543,   29.4037E-03
C:/temp/dataset/0/10_21.odb,Step-1,Increment      1: Step Time =    1.000,"PART-1-1",           314,       10.9280,       7.17665,            0.,NA,NA,"",       8.26747,       8.10378,      -1.63698,   15.6085E-03
C:/temp/dataset/0/10_21.odb,Step-1,Increment      1: Step Time =    1.000,"PART-1-1",           315,       13.6103,       7.39232,            0.,NA,NA,"",       8.32883,       8.05249,      -2.12764,   51.0348E-03
C:/temp/dataset/0/10_21.odb,Step-1,Increment      1: Step Time =    1.000,"PART-1-1",           316,           15.,          8.75,            0.,NA,NA,"",       8.55986,       8.24193,      -2.31122,   70.3955E-03
C:/temp/dataset/0/10_21.odb,Step-1,Increment      1: Step Time =    1.000,"PART-1-1",           317,       13.6268,       9.99700,            0.,NA,NA,"",       8.73745,       8.49297,      -2.05240,   47.9285E-03
C:/temp/dataset/0/10_21.odb,Step-1,Increment      1: Step Time =    1.000,"PART-1-1",           318,       12.2370,       8.63932,            0.,NA,NA,"",       8.53036,       8.32423,      -1.86395,   29.1239E-03
C:/temp/dataset/0/10_21.odb,Step-1,Increment      1: Step Time =    1.000,"PART-1-1",           319,       13.8144,       17.6522,            0.,NA,NA,"",       9.40257,       9.21843,      -1.85170,   27.0239E-03
C:/temp/dataset/0/10_21.odb,Step-1,Increment      1: Step Time =    1.000,"PART-1-1",           320,           15.,         18.75,            0.,NA,NA,"",       9.45004,       9.25860,      -1.89251,   29.8629E-03
C:/temp/dataset/0/10_21.odb,Step-1,Increment      1: Step Time =    1.000,"PART-1-1",           321,       13.8887,       20.1095,            0.,NA,NA,"",       9.50530,       9.33120,      -1.81092,   18.8718E-03
C:/temp/dataset/0/10_21.odb,Step-1,Increment      1: Step Time =    1.000,"PART-1-1",           322,       12.7031,       19.0116,            0.,NA,NA,"",       9.46113,       9.29637,      -1.75801,   19.5764E-03
C:/temp/dataset/0/10_21.odb,Step-1,Increment      1: Step Time =    1.000,"PART-1-1",           323,       11.4255,       18.0142,            0.,NA,NA,"",       9.41084,       9.26010,      -1.67766,   18.2921E-03
C:/temp/dataset/0/10_21.odb,Step-1,Increment      1: Step Time =    1.000,"PART-1-1",           324,       11.6322,       20.3693,            0.,NA,NA,"",       9.50438,       9.35422,      -1.68281,   16.6433E-03
C:/temp/dataset/0/10_21.odb,Step-1,Increment      1: Step Time =    1.000,"PART-1-1",           325,       10.3546,       19.3719,            0.,NA,NA,"",       9.45701,       9.32037,      -1.60179,   19.5444E-03
C:/temp/dataset/0/10_21.odb,Step-1,Increment      1: Step Time =    1.000,"PART-1-1",           326,       10.9394,       26.3107,            0.,NA,NA,"",       9.67227,       9.52957,      -1.65531,   6.65884E-03
C:/temp/dataset/0/10_21.odb,Step-1,Increment      1: Step Time =    1.000,"PART-1-1",           327,       11.9108,       25.0855,            0.,NA,NA,"",       9.64450,       9.49489,      -1.69216,   7.51082E-03
C:/temp/dataset/0/10_21.odb,Step-1,Increment      1: Step Time =    1.000,"PART-1-1",           328,       13.0011,       26.2585,            0.,NA,NA,"",       9.68562,       9.52915,      -1.73395,   5.16360E-03
C:/temp/dataset/0/10_21.odb,Step-1,Increment      1: Step Time =    1.000,"PART-1-1",           329,       12.0296,       27.4837,            0.,NA,NA,"",       9.71605,       9.56652,      -1.69805,   3.85441E-03
C:/temp/dataset/0/10_21.odb,Step-1,Increment      1: Step Time =    1.000,"PART-1-1",           330,       14.0179,       27.4887,            0.,NA,NA,"",       9.72826,       9.56607,      -1.76900,   1.72580E-03
C:/temp/dataset/0/10_21.odb,Step-1,Increment      1: Step Time =    1.000,"PART-1-1",           331,       13.9832,       25.0198,            0.,NA,NA,"",       9.65468,       9.49062,      -1.77228,   5.28729E-03
C:/temp/dataset/0/10_21.odb,Step-1,Increment      1: Step Time =    1.000,"PART-1-1",           332,           15.,         26.25,            0.,NA,NA,"",       9.69513,       9.52608,      -1.80259,   2.91421E-03
C:/temp/dataset/0/10_21.odb,Step-1,Increment      1: Step Time =    1.000,"PART-1-1",           333,       3.55377,       20.8403,            0.,NA,NA,"",       9.37459,       9.27245,      -1.38008,   20.5415E-03
C:/temp/dataset/0/10_21.odb,Step-1,Increment      1: Step Time =    1.000,"PART-1-1",           334,       4.16667,           20.,            0.,NA,NA,"",       9.37315,       9.27173,      -1.37514,   25.0957E-03
C:/temp/dataset/0/10_21.odb,Step-1,Increment      1: Step Time =    1.000,"PART-1-1",           335,       5.33068,       20.7523,            0.,NA,NA,"",       9.40513,       9.30370,      -1.37758,   37.6342E-03
C:/temp/dataset/0/10_21.odb,Step-1,Increment      1: Step Time =    1.000,"PART-1-1",           336,       4.71778,       21.5926,            0.,NA,NA,"",       9.41545,       9.31148,      -1.39536,   28.7900E-03
C:/temp/dataset/0/10_21.odb,Step-1,Increment      1: Step Time =    1.000,"PART-1-1",           337,       1.85672,       20.8541,            0.,NA,NA,"",       9.33688,       9.23836,      -1.35276,   26.3211E-03
C:/temp/dataset/0/10_21.odb,Step-1,Increment      1: Step Time =    1.000,"PART-1-1",           338,           2.5,           20.,            0.,NA,NA,"",       9.33296,       9.23392,      -1.35609,   28.7685E-03
C:/temp/dataset/0/10_21.odb,Step-1,Increment      1: Step Time =    1.000,"PART-1-1",           339,       2.91049,       21.6945,            0.,NA,NA,"",       9.38678,       9.28459,      -1.38132,   21.8343E-03
C:/temp/dataset/0/10_21.odb,Step-1,Increment      1: Step Time =    1.000,"PART-1-1",           340,       1.32465,      -26.7993,            0.,NA,NA,"",   130.525E-03,   126.864E-03,   30.7004E-03,   34.3442E-03
C:/temp/dataset/0/10_21.odb,Step-1,Increment      1: Step Time =    1.000,"PART-1-1",           341,   399.133E-03,      -24.6509,            0.,NA,NA,"",   211.856E-03,   209.432E-03,   31.9526E-03,   41.6600E-03
C:/temp/dataset/0/10_21.odb,Step-1,Increment      1: Step Time =    1.000,"PART-1-1",           342,  -371.796E-03,      -25.9605,            0.,NA,NA,"",   161.484E-03,   161.166E-03,   10.1262E-03,   35.5536E-03
C:/temp/dataset/0/10_21.odb,Step-1,Increment      1: Step Time =    1.000,"PART-1-1",           343,       7.16814,       28.8250,            0.,NA,NA,"",       9.72037,       9.59867,      -1.53330,   4.48192E-03
C:/temp/dataset/0/10_21.odb,Step-1,Increment      1: Step Time =    1.000,"PART-1-1",           344,       7.90869,       27.6030,            0.,NA,NA,"",       9.68556,       9.56037,      -1.55224,   4.55688E-03
C:/temp/dataset/0/10_21.odb,Step-1,Increment      1: Step Time =    1.000,"PART-1-1",           345,       9.17805,       28.7779,            0.,NA,NA,"",       9.73471,       9.60269,      -1.59775,   4.16310E-03
C:/temp/dataset/0/10_21.odb,Step-1,Increment      1: Step Time =    1.000,"PART-1-1",           346,        8.4375,           30.,            0.,NA,NA,"",       9.76835,       9.64038,      -1.57601,   4.07911E-03
C:/temp/dataset/0/10_21.odb,Step-1,Increment      1: Step Time =    1.000,"PART-1-1",           347,       1.19326,       21.8923,            0.,NA,NA,"",       9.35799,       9.26037,      -1.34816,   24.7999E-03
C:/temp/dataset/0/10_21.odb,Step-1,Increment      1: Step Time =    1.000,"PART-1-1",           348,   169.882E-03,       21.0382,            0.,NA,NA,"",       9.29573,       9.20326,      -1.30787,   30.8897E-03
C:/temp/dataset/0/10_21.odb,Step-1,Increment      1: Step Time =    1.000,"PART-1-1",           349,   833.333E-03,           20.,            0.,NA,NA,"",       9.27936,       9.18589,      -1.31375,   33.8578E-03
C:/temp/dataset/0/10_21.odb,Step-1,Increment      1: Step Time =    1.000,"PART-1-1",           350,       11.0482,       12.7829,            0.,NA,NA,"",       9.04420,       8.89056,      -1.66001,   17.5639E-03
C:/temp/dataset/0/10_21.odb,Step-1,Increment      1: Step Time =    1.000,"PART-1-1",           351,       12.3949,       13.9828,            0.,NA,NA,"",       9.16229,       8.98312,      -1.80311,   25.8248E-03
C:/temp/dataset/0/10_21.odb,Step-1,Increment      1: Step Time =    1.000,"PART-1-1",           352,       11.2086,       15.4830,            0.,NA,NA,"",       9.26648,       9.11477,      -1.66990,   17.9057E-03
C:/temp/dataset/0/10_21.odb,Step-1,Increment      1: Step Time =    1.000,"PART-1-1",           353,       9.86191,       14.2831,            0.,NA,NA,"",       9.16191,       9.03321,      -1.53028,   19.3934E-03
C:/temp/dataset/0/10_21.odb,Step-1,Increment      1: Step Time =    1.000,"PART-1-1",           354,       9.65710,       8.53837,            0.,NA,NA,"",       8.49317,       8.37259,      -1.42610,   12.9410E-03
C:/temp/dataset/0/10_21.odb,Step-1,Increment      1: Step Time =    1.000,"PART-1-1",           355,       8.46627,       10.0105,            0.,NA,NA,"",       8.69372,       8.60100,      -1.26629,   28.4110E-03
C:/temp/dataset/0/10_21.odb,Step-1,Increment      1: Step Time =    1.000,"PART-1-1",           356,       7.24171,       8.43518,            0.,NA,NA,"",       8.45205,       8.39138,      -1.01091,   40.3141E-03
C:/temp/dataset/0/10_21.odb,Step-1,Increment      1: Step Time =    1.000,"PART-1-1",           357,       8.43254,       6.96306,            0.,NA,NA,"",       8.20949,       8.12636,      -1.16535,   24.6445E-03
C:/temp/dataset/0/10_21.odb,Step-1,Increment      1: Step Time =    1.000,"PART-1-1",           358,       13.6558,       2.21224,            0.,NA,NA,"",       7.16426,       6.81472,      -2.21049,   42.4416E-03
C:/temp/dataset/0/10_21.odb,Step-1,Increment      1: Step Time =    1.000,"PART-1-1",           359,           15.,          3.75,            0.,NA,NA,"",       7.58824,       7.15735,      -2.52065,   65.1306E-03
C:/temp/dataset/0/10_21.odb,Step-1,Increment      1: Step Time =    1.000,"PART-1-1",           360,       13.6160,       4.79026,            0.,NA,NA,"",       7.80174,       7.48954,      -2.18491,   49.2912E-03
C:/temp/dataset/0/10_21.odb,Step-1,Increment      1: Step Time =    1.000,"PART-1-1",           361,       12.2717,       3.25251,            0.,NA,NA,"",       7.40620,       7.16192,      -1.88646,   30.1088E-03
C:/temp/dataset/0/10_21.odb,Step-1,Increment      1: Step Time =    1.000,"PART-1-1",           362,       9.69986,       2.68972,            0.,NA,NA,"",       7.22244,       7.10848,      -1.27796,   26.8585E-03
C:/temp/dataset/0/10_21.odb,Step-1,Increment      1: Step Time =    1.000,"PART-1-1",           363,       11.0304,       1.58560,            0.,NA,NA,"",       6.92811,       6.75151,      -1.55431,   29.1703E-03
C:/temp/dataset/0/10_21.odb,Step-1,Increment      1: Step Time =    1.000,"PART-1-1",           364,       7.55861,      -11.4267,            0.,NA,NA,"",       2.69764,       2.69664,   73.5014E-03,   35.0266E-03
C:/temp/dataset/0/10_21.odb,Step-1,Increment      1: Step Time =    1.000,"PART-1-1",           365,       6.31268,      -9.90243,            0.,NA,NA,"",       3.25457,       3.23380,   367.119E-03,   28.3808E-03
C:/temp/dataset/0/10_21.odb,Step-1,Increment      1: Step Time =    1.000,"PART-1-1",           366,            5.,      -11.6667,            0.,NA,NA,"",       2.86417,       2.75893,   769.284E-03,   49.1673E-03
C:/temp/dataset/0/10_21.odb,Step-1,Increment      1: Step Time =    1.000,"PART-1-1",           367,       6.24593,      -13.1909,            0.,NA,NA,"",       2.27395,       2.23150,   437.336E-03,   48.4440E-03
C:/temp/dataset/0/10_21.odb,Step-1,Increment      1: Step Time =    1.000,"PART-1-1",           368,       14.0233,      -5.11850,            0.,NA,NA,"",       4.95530,       4.49711,      -2.08110,   14.2091E-03
C:/temp/dataset/0/10_21.odb,Step-1,Increment      1: Step Time =    1.000,"PART-1-1",           369,           15.,         -3.75,            0.,NA,NA,"",       5.47668,       4.89292,      -2.46036,   9.11224E-03
C:/temp/dataset/0/10_21.odb,Step-1,Increment      1: Step Time =    1.000,"PART-1-1",           370,       13.9118,      -2.74864,            0.,NA,NA,"",       5.70521,       5.27719,      -2.16811,   19.3988E-03
C:/temp/dataset/0/10_21.odb,Step-1,Increment      1: Step Time =    1.000,"PART-1-1",           371,       12.6080,      -16.5365,            0.,NA,NA,"",       1.45821,       1.20566,  -820.228E-03,   59.0164E-03
C:/temp/dataset/0/10_21.odb,Step-1,Increment      1: Step Time =    1.000,"PART-1-1",           372,       11.3130,      -15.4489,            0.,NA,NA,"",       1.59008,       1.46110,  -627.338E-03,   43.6824E-03
C:/temp/dataset/0/10_21.odb,Step-1,Increment      1: Step Time =    1.000,"PART-1-1",           373,       10.1880,      -16.9099,            0.,NA,NA,"",       1.17445,       1.12481,  -337.829E-03,   36.3479E-03
C:/temp/dataset/0/10_21.odb,Step-1,Increment      1: Step Time =    1.000,"PART-1-1",           374,       11.4829,      -17.9975,            0.,NA,NA,"",       1.03376,   896.302E-03,  -515.065E-03,   45.2198E-03
C:/temp/dataset/0/10_21.odb,Step-1,Increment      1: Step Time =    1.000,"PART-1-1",           375,       7.63417,      -21.6752,            0.,NA,NA,"",   337.187E-03,   326.909E-03,   82.6161E-03,   21.3990E-03
C:/temp/dataset/0/10_21.odb,Step-1,Increment      1: Step Time =    1.000,"PART-1-1",           376,       7.43394,      -23.2038,            0.,NA,NA,"",   222.308E-03,   209.301E-03,   74.9244E-03,   22.8496E-03
C:/temp/dataset/0/10_21.odb,Step-1,Increment      1: Step Time =    1.000,"PART-1-1",           377,       8.61676,      -23.4202,            0.,NA,NA,"",   185.100E-03,   185.009E-03,  -5.80860E-03,   6.24860E-03
C:/temp/dataset/0/10_21.odb,Step-1,Increment      1: Step Time =    1.000,"PART-1-1",           378,       8.81699,      -21.8917,            0.,NA,NA,"",   307.327E-03,   306.186E-03,  -26.4515E-03,   8.30241E-03
C:/temp/dataset/0/10_21.odb,Step-1,Increment      1: Step Time =    1.000,"PART-1-1",           379,  -438.919E-03,      -23.5046,            0.,NA,NA,"",   241.320E-03,   241.062E-03,   11.1656E-03,   35.7976E-03
C:/temp/dataset/0/10_21.odb,Step-1,Increment      1: Step Time =    1.000,"PART-1-1",           380,   774.543E-03,      -22.4081,            0.,NA,NA,"",   275.194E-03,   270.822E-03,   48.8637E-03,   38.0805E-03
C:/temp/dataset/0/10_21.odb,Step-1,Increment      1: Step Time =    1.000,"PART-1-1",           381,      -7.50181,      -26.8221,            0.,NA,NA,"",   59.3846E-03,   59.0973E-03,  -5.83492E-03,   13.4851E-03
C:/temp/dataset/0/10_21.odb,Step-1,Increment      1: Step Time =    1.000,"PART-1-1",           382,      -9.04643,      -28.2740,            0.,NA,NA,"",   21.9496E-03,   17.4393E-03,   13.3288E-03,   9.99389E-03
C:/temp/dataset/0/10_21.odb,Step-1,Increment      1: Step Time =    1.000,"PART-1-1",           383,          -7.5,          -30.,            0.,NA,NA,"",            0.,   6.53494E-39,   10.0654E-39,   7.85283E-03
C:/temp/dataset/0/10_21.odb,Step-1,Increment      1: Step Time =    1.000,"PART-1-1",           384,      -5.95538,      -28.5482,            0.,NA,NA,"",   30.7515E-03,   30.2892E-03,  -5.31210E-03,   16.5821E-03
C:/temp/dataset/0/10_21.odb,Step-1,Increment      1: Step Time =    1.000,"PART-1-1",           385,      -10.9107,       24.5471,            0.,NA,NA,"",       9.43556,       9.42788,  -380.731E-03,   21.6255E-03
C:/temp/dataset/0/10_21.odb,Step-1,Increment      1: Step Time =    1.000,"PART-1-1",           386,      -9.41006,       26.0517,            0.,NA,NA,"",       9.58293,       9.56487,  -587.932E-03,   21.3439E-03
C:/temp/dataset/0/10_21.odb,Step-1,Increment      1: Step Time =    1.000,"PART-1-1",           387,      -10.7443,       27.3091,            0.,NA,NA,"",       9.71839,       9.70938,  -418.454E-03,   18.4915E-03
C:/temp/dataset/0/10_21.odb,Step-1,Increment      1: Step Time =    1.000,"PART-1-1",           388,      -12.2450,       25.8045,            0.,NA,NA,"",       9.57110,       9.56875,  -212.063E-03,   18.9177E-03
C:/temp/dataset/0/10_21.odb,Step-1,Increment      1: Step Time =    1.000,"PART-1-1",           389,      -1.21620,       23.8189,            0.,NA,NA,"",       9.41343,       9.32452,      -1.29077,   25.1837E-03
C:/temp/dataset/0/10_21.odb,Step-1,Increment      1: Step Time =    1.000,"PART-1-1",           390,      -2.21965,       25.1560,            0.,NA,NA,"",       9.49651,       9.41363,      -1.25188,   16.9441E-03
C:/temp/dataset/0/10_21.odb,Step-1,Increment      1: Step Time =    1.000,"PART-1-1",           391,      -12.3287,       22.9401,            0.,NA,NA,"",       9.25900,       9.25761,  -160.238E-03,   19.9249E-03
C:/temp/dataset/0/10_21.odb,Step-1,Increment      1: Step Time =    1.000,"PART-1-1",           392,      -11.0144,       21.7359,            0.,NA,NA,"",       9.11376,       9.10772,  -331.703E-03,   17.1539E-03
C:/temp/dataset/0/10_21.odb,Step-1,Increment      1: Step Time =    1.000,"PART-1-1",           393,      -9.59641,       23.3428,            0.,NA,NA,"",       9.30732,       9.29079,  -554.472E-03,   20.6568E-03
C:/temp/dataset/0/10_21.odb,Step-1,Increment      1: Step Time =    1.000,"PART-1-1",           394,      -8.52014,       19.3558,            0.,NA,NA,"",       8.78423,       8.75795,  -678.990E-03,   19.1070E-03
C:/temp/dataset/0/10_21.odb,Step-1,Increment      1: Step Time =    1.000,"PART-1-1",           395,      -7.12750,       20.9906,            0.,NA,NA,"",       9.05277,       9.00925,  -886.616E-03,   24.1090E-03
C:/temp/dataset/0/10_21.odb,Step-1,Increment      1: Step Time =    1.000,"PART-1-1",           396,      -8.32913,       22.1749,            0.,NA,NA,"",       9.18306,       9.15440,  -724.849E-03,   19.5946E-03
C:/temp/dataset/0/10_21.odb,Step-1,Increment      1: Step Time =    1.000,"PART-1-1",           397,      -9.72177,       20.5400,            0.,NA,NA,"",       8.95783,       8.94341,  -508.071E-03,   11.4160E-03
C:/temp/dataset/0/10_21.odb,Step-1,Increment      1: Step Time =    1.000,"PART-1-1",           398,      -6.16480,       16.7267,            0.,NA,NA,"",       8.28151,       8.21105,      -1.07796,   44.8933E-03
C:/temp/dataset/0/10_21.odb,Step-1,Increment      1: Step Time =    1.000,"PART-1-1",           399,           -5.,       18.4615,            0.,NA,NA,"",       8.61012,       8.52118,      -1.23431,   81.8532E-03
C:/temp/dataset/0/10_21.odb,Step-1,Increment      1: Step Time =    1.000,"PART-1-1",           400,      -6.13199,       19.8034,            0.,NA,NA,"",       8.90368,       8.84505,      -1.02015,   62.9454E-03
C:/temp/dataset/0/10_21.odb,Step-1,Increment      1: Step Time =    1.000,"PART-1-1",           401,      -7.29678,       18.0686,            0.,NA,NA,"",       8.56237,       8.51867,  -863.936E-03,   31.8893E-03
C:/temp/dataset/0/10_21.odb,Step-1,Increment      1: Step Time =    1.000,"PART-1-1",           402,      -11.0823,       15.8203,            0.,NA,NA,"",       8.13807,       8.13550,  -204.340E-03,   13.1927E-03
C:/temp/dataset/0/10_21.odb,Step-1,Increment      1: Step Time =    1.000,"PART-1-1",           403,      -12.3677,       14.0517,            0.,NA,NA,"",       7.79274,       7.79230,   82.6052E-03,   14.4182E-03
C:/temp/dataset/0/10_21.odb,Step-1,Increment      1: Step Time =    1.000,"PART-1-1",           404,      -11.1015,       12.7786,            0.,NA,NA,"",       7.49532,       7.49412,  -134.223E-03,   13.5505E-03
C:/temp/dataset/0/10_21.odb,Step-1,Increment      1: Step Time =    1.000,"PART-1-1",           405,          -15.,          10.5,            0.,NA,NA,"",       7.10084,       7.05843,   774.875E-03,   17.0538E-03
C:/temp/dataset/0/10_21.odb,Step-1,Increment      1: Step Time =    1.000,"PART-1-1",           406,      -13.6919,       9.25384,            0.,NA,NA,"",       6.76400,       6.74378,   522.685E-03,   9.27316E-03
C:/temp/dataset/0/10_21.odb,Step-1,Increment      1: Step Time =    1.000,"PART-1-1",           407,      -12.3755,       11.0249,            0.,NA,NA,"",       7.12788,       7.12572,   175.637E-03,   12.6237E-03
C:/temp/dataset/0/10_21.odb,Step-1,Increment      1: Step Time =    1.000,"PART-1-1",           408,      -13.6836,       12.2710,            0.,NA,NA,"",       7.44123,       7.42981,   412.090E-03,   15.6163E-03
C:/temp/dataset/0/10_21.odb,Step-1,Increment      1: Step Time =    1.000,"PART-1-1",           409,      -7.40029,       8.84536,            0.,NA,NA,"",       6.52922,       6.47405,  -846.969E-03,   21.6847E-03
C:/temp/dataset/0/10_21.odb,Step-1,Increment      1: Step Time =    1.000,"PART-1-1",           410,      -8.62408,       10.1694,            0.,NA,NA,"",       6.85622,       6.83006,  -598.349E-03,   19.9839E-03
C:/temp/dataset/0/10_21.odb,Step-1,Increment      1: Step Time =    1.000,"PART-1-1",           411,      -9.86273,       8.43495,            0.,NA,NA,"",       6.45764,       6.45064,  -300.658E-03,   17.1041E-03
C:/temp/dataset/0/10_21.odb,Step-1,Increment      1: Step Time =    1.000,"PART-1-1",           412,      -8.63893,       7.11093,            0.,NA,NA,"",       6.11478,       6.09048,  -544.630E-03,   17.6915E-03
C:/temp/dataset/0/10_21.odb,Step-1,Increment      1: Step Time =    1.000,"PART-1-1",           413,          -15.,           1.5,            0.,NA,NA,"",       5.00371,       4.89050,       1.05838,   11.9395E-03
C:/temp/dataset/0/10_21.odb,Step-1,Increment      1: Step Time =    1.000,"PART-1-1",           414,      -13.7087,   214.116E-03,            0.,NA,NA,"",       4.59041,       4.52480,   773.335E-03,   15.3499E-03
C:/temp/dataset/0/10_21.odb,Step-1,Increment      1: Step Time =    1.000,"PART-1-1",           415,      -12.4129,       1.94059,            0.,NA,NA,"",       4.93300,       4.91384,   434.285E-03,   14.4681E-03
C:/temp/dataset/0/10_21.odb,Step-1,Increment      1: Step Time =    1.000,"PART-1-1",           416,      -13.7042,       3.22647,            0.,NA,NA,"",       5.32363,       5.27652,   706.664E-03,   9.22346E-03
C:/temp/dataset/0/10_21.odb,Step-1,Increment      1: Step Time =    1.000,"PART-1-1",           417,      -9.88317,  -688.536E-03,            0.,NA,NA,"",       4.17899,       4.17817,  -83.0690E-03,   16.4108E-03
C:/temp/dataset/0/10_21.odb,Step-1,Increment      1: Step Time =    1.000,"PART-1-1",           418,      -8.64028,      -2.02441,            0.,NA,NA,"",       3.82714,       3.81294,  -329.329E-03,   13.2676E-03
C:/temp/dataset/0/10_21.odb,Step-1,Increment      1: Step Time =    1.000,"PART-1-1",           419,      -7.40757,  -323.915E-03,            0.,NA,NA,"",       4.24795,       4.19704,  -655.738E-03,   11.1754E-03
C:/temp/dataset/0/10_21.odb,Step-1,Increment      1: Step Time =    1.000,"PART-1-1",           420,      -8.65046,       1.01196,            0.,NA,NA,"",       4.58406,       4.56615,  -404.834E-03,   14.3039E-03
C:/temp/dataset/0/10_21.odb,Step-1,Increment      1: Step Time =    1.000,"PART-1-1",           421,          -15.,          -7.5,            0.,NA,NA,"",       2.93558,       2.71988,       1.10448,   41.0469E-03
C:/temp/dataset/0/10_21.odb,Step-1,Increment      1: Step Time =    1.000,"PART-1-1",           422,      -13.7007,      -8.80606,            0.,NA,NA,"",       2.51671,       2.37855,   822.407E-03,   36.7101E-03
C:/temp/dataset/0/10_21.odb,Step-1,Increment      1: Step Time =    1.000,"PART-1-1",           423,      -12.4029,      -7.10316,            0.,NA,NA,"",       2.77285,       2.71480,   564.385E-03,   26.3338E-03
C:/temp/dataset/0/10_21.odb,Step-1,Increment      1: Step Time =    1.000,"PART-1-1",           424,      -13.7022,      -5.79711,            0.,NA,NA,"",       3.17297,       3.06141,   833.960E-03,   29.2396E-03
C:/temp/dataset/0/10_21.odb,Step-1,Increment      1: Step Time =    1.000,"PART-1-1",           425,      -7.34368,      -12.4907,            0.,NA,NA,"",       1.51516,       1.48690,  -291.299E-03,   20.4790E-03
C:/temp/dataset/0/10_21.odb,Step-1,Increment      1: Step Time =    1.000,"PART-1-1",           426,      -8.60430,      -11.1353,            0.,NA,NA,"",       1.76395,       1.76062,  -108.286E-03,   13.5484E-03
C:/temp/dataset/0/10_21.odb,Step-1,Increment      1: Step Time =    1.000,"PART-1-1",           427,      -9.82710,      -12.7746,            0.,NA,NA,"",       1.47035,       1.46486,   126.907E-03,   17.6063E-03
C:/temp/dataset/0/10_21.odb,Step-1,Increment      1: Step Time =    1.000,"PART-1-1",           428,      -8.56648,      -14.1300,            0.,NA,NA,"",       1.20523,       1.20421,  -49.5562E-03,   16.1267E-03
C:/temp/dataset/0/10_21.odb,Step-1,Increment      1: Step Time =    1.000,"PART-1-1",           429,  -730.622E-03,       22.2784,            0.,NA,NA,"",       9.32882,       9.23833,      -1.29623,   29.6471E-03
C:/temp/dataset/0/10_21.odb,Step-1,Increment      1: Step Time =    1.000,"PART-1-1",           430,         -1.25,           20.,            0.,NA,NA,"",       9.20543,       9.12131,      -1.24161,   42.5979E-03
C:/temp/dataset/0/10_21.odb,Step-1,Increment      1: Step Time =    1.000,"PART-1-1",           431,       11.1367,       28.7451,            0.,NA,NA,"",       9.74931,       9.60573,      -1.66703,   3.21017E-03
C:/temp/dataset/0/10_21.odb,Step-1,Increment      1: Step Time =    1.000,"PART-1-1",           432,       10.3125,           30.,            0.,NA,NA,"",       9.78499,       9.64659,      -1.63991,   3.14452E-03
C:/temp/dataset/0/10_21.odb,Step-1,Increment      1: Step Time =    1.000,"PART-1-1",           433,       10.0023,       27.5230,            0.,NA,NA,"",       9.70141,       9.56461,      -1.62345,   4.36556E-03
C:/temp/dataset/0/10_21.odb,Step-1,Increment      1: Step Time =    1.000,"PART-1-1",           434,       10.7751,       23.9735,            0.,NA,NA,"",       9.60274,       9.46134,      -1.64184,   11.6664E-03
C:/temp/dataset/0/10_21.odb,Step-1,Increment      1: Step Time =    1.000,"PART-1-1",           435,       11.7898,       22.7248,            0.,NA,NA,"",       9.57701,       9.42724,      -1.68710,   12.3784E-03
C:/temp/dataset/0/10_21.odb,Step-1,Increment      1: Step Time =    1.000,"PART-1-1",           436,       12.9255,       23.8368,            0.,NA,NA,"",       9.61613,       9.45817,      -1.73574,   9.69546E-03
C:/temp/dataset/0/10_21.odb,Step-1,Increment      1: Step Time =    1.000,"PART-1-1",           437,       2.25220,       28.9826,            0.,NA,NA,"",       9.71373,       9.61187,      -1.40303,   10.8548E-03
C:/temp/dataset/0/10_21.odb,Step-1,Increment      1: Step Time =    1.000,"PART-1-1",           438,       3.21116,       27.8846,            0.,NA,NA,"",       9.66839,       9.56223,      -1.42881,   12.3299E-03
C:/temp/dataset/0/10_21.odb,Step-1,Increment      1: Step Time =    1.000,"PART-1-1",           439,       4.70896,       28.9020,            0.,NA,NA,"",       9.70990,       9.59858,      -1.46614,   5.46525E-03
C:/temp/dataset/0/10_21.odb,Step-1,Increment      1: Step Time =    1.000,"PART-1-1",           440,          3.75,           30.,            0.,NA,NA,"",       9.74239,       9.63531,      -1.44049,   5.64086E-03
C:/temp/dataset/0/10_21.odb,Step-1,Increment      1: Step Time =    1.000,"PART-1-1",           441,      -8.10884,       24.8461,            0.,NA,NA,"",       9.46187,       9.43192,  -752.252E-03,   19.3331E-03
C:/temp/dataset/0/10_21.odb,Step-1,Increment      1: Step Time =    1.000,"PART-1-1",           442,      -13.5971,       27.1125,            0.,NA,NA,"",       9.71674,       9.71660,  -52.8925E-03,   9.69137E-03
C:/temp/dataset/0/10_21.odb,Step-1,Increment      1: Step Time =    1.000,"PART-1-1",           443,          -15.,          25.5,            0.,NA,NA,"",       9.54710,       9.54614,   135.472E-03,   14.1733E-03
C:/temp/dataset/0/10_21.odb,Step-1,Increment      1: Step Time =    1.000,"PART-1-1",           444,      -13.6479,       24.1920,            0.,NA,NA,"",       9.40211,       9.40211,  -3.34442E-03,   19.1547E-03
C:/temp/dataset/0/10_21.odb,Step-1,Increment      1: Step Time =    1.000,"PART-1-1",           445,      -6.53168,       26.2506,            0.,NA,NA,"",       9.58660,       9.54192,  -924.468E-03,   16.3312E-03
C:/temp/dataset/0/10_21.odb,Step-1,Increment      1: Step Time =    1.000,"PART-1-1",           446,      -7.83289,       27.4562,            0.,NA,NA,"",       9.70705,       9.67586,  -777.541E-03,   18.7490E-03
C:/temp/dataset/0/10_21.odb,Step-1,Increment      1: Step Time =    1.000,"PART-1-1",           447,          -15.,          28.5,            0.,NA,NA,"",       9.88089,       9.88038,   100.510E-03,   2.12806E-03
C:/temp/dataset/0/10_21.odb,Step-1,Increment      1: Step Time =    1.000,"PART-1-1",           448,      -12.0971,       28.6125,            0.,NA,NA,"",       9.87123,       9.86803,  -251.021E-03,   9.71740E-03
C:/temp/dataset/0/10_21.odb,Step-1,Increment      1: Step Time =    1.000,"PART-1-1",           449,         -13.5,           30.,            0.,NA,NA,"",       10.0453,       10.0450,  -87.2802E-03,   2.11594E-03
C:/temp/dataset/0/10_21.odb,Step-1,Increment      1: Step Time =    1.000,"PART-1-1",           450,      -6.19829,       10.5730,            0.,NA,NA,"",       6.93606,       6.84445,      -1.12355,   28.5885E-03
C:/temp/dataset/0/10_21.odb,Step-1,Increment      1: Step Time =    1.000,"PART-1-1",           451,      -6.20201,       7.50308,            0.,NA,NA,"",       6.20390,       6.10532,      -1.10157,   21.3037E-03
C:/temp/dataset/0/10_21.odb,Step-1,Increment      1: Step Time =    1.000,"PART-1-1",           452,           -5.,       9.23077,            0.,NA,NA,"",       6.62597,       6.47847,      -1.39032,   29.5798E-03
C:/temp/dataset/0/10_21.odb,Step-1,Increment      1: Step Time =    1.000,"PART-1-1",           453,      -12.4049,       4.96458,            0.,NA,NA,"",       5.68083,       5.66961,   356.885E-03,   12.1045E-03
C:/temp/dataset/0/10_21.odb,Step-1,Increment      1: Step Time =    1.000,"PART-1-1",           454,      -13.7007,       6.23810,            0.,NA,NA,"",       6.05280,       6.02071,   622.435E-03,   5.90358E-03
C:/temp/dataset/0/10_21.odb,Step-1,Increment      1: Step Time =    1.000,"PART-1-1",           455,          -15.,           4.5,            0.,NA,NA,"",       5.71870,       5.63316,   985.427E-03,   2.53664E-03
C:/temp/dataset/0/10_21.odb,Step-1,Increment      1: Step Time =    1.000,"PART-1-1",           456,      -9.87977,       5.38582,            0.,NA,NA,"",       5.70500,       5.70041,  -228.911E-03,   16.6476E-03
C:/temp/dataset/0/10_21.odb,Step-1,Increment      1: Step Time =    1.000,"PART-1-1",           457,      -8.64969,       4.05795,            0.,NA,NA,"",       5.35204,       5.33064,  -478.093E-03,   15.7769E-03
C:/temp/dataset/0/10_21.odb,Step-1,Increment      1: Step Time =    1.000,"PART-1-1",           458,      -7.40885,       5.78306,            0.,NA,NA,"",       5.77759,       5.72218,  -798.226E-03,   17.3035E-03
C:/temp/dataset/0/10_21.odb,Step-1,Increment      1: Step Time =    1.000,"PART-1-1",           459,      -7.41391,       2.72502,            0.,NA,NA,"",       5.01143,       4.95762,  -732.404E-03,   13.6407E-03
C:/temp/dataset/0/10_21.odb,Step-1,Increment      1: Step Time =    1.000,"PART-1-1",           460,      -9.88624,       2.34489,            0.,NA,NA,"",       4.94033,       4.93789,  -155.017E-03,   16.4491E-03
C:/temp/dataset/0/10_21.odb,Step-1,Increment      1: Step Time =    1.000,"PART-1-1",           461,      -12.4101,      -4.09106,            0.,NA,NA,"",       3.46443,       3.42187,   541.363E-03,   21.9090E-03
C:/temp/dataset/0/10_21.odb,Step-1,Increment      1: Step Time =    1.000,"PART-1-1",           462,      -13.7080,      -2.79395,            0.,NA,NA,"",       3.86861,       3.78136,   817.023E-03,   22.1403E-03
C:/temp/dataset/0/10_21.odb,Step-1,Increment      1: Step Time =    1.000,"PART-1-1",           463,          -15.,          -4.5,            0.,NA,NA,"",       3.59798,       3.41859,       1.12194,   31.0889E-03
C:/temp/dataset/0/10_21.odb,Step-1,Increment      1: Step Time =    1.000,"PART-1-1",           464,      -9.87646,      -3.71895,            0.,NA,NA,"",       3.43536,       3.43532,  -15.6100E-03,   16.4981E-03
C:/temp/dataset/0/10_21.odb,Step-1,Increment      1: Step Time =    1.000,"PART-1-1",           465,      -8.63520,      -5.06687,            0.,NA,NA,"",       3.09303,       3.08280,  -251.300E-03,   12.7709E-03
C:/temp/dataset/0/10_21.odb,Step-1,Increment      1: Step Time =    1.000,"PART-1-1",           466,      -7.39901,      -3.37233,            0.,NA,NA,"",       3.50062,       3.45392,  -569.892E-03,   10.7113E-03
C:/temp/dataset/0/10_21.odb,Step-1,Increment      1: Step Time =    1.000,"PART-1-1",           467,      -7.39417,      -6.42670,            0.,NA,NA,"",       2.78340,       2.74226,  -476.815E-03,   12.5122E-03
C:/temp/dataset/0/10_21.odb,Step-1,Increment      1: Step Time =    1.000,"PART-1-1",           468,      -9.87187,      -6.75385,            0.,NA,NA,"",       2.72337,       2.72300,   45.2242E-03,   16.6972E-03
C:/temp/dataset/0/10_21.odb,Step-1,Increment      1: Step Time =    1.000,"PART-1-1",           469,      -8.63084,      -8.11369,            0.,NA,NA,"",       2.39798,       2.39157,  -175.194E-03,   12.8910E-03
C:/temp/dataset/0/10_21.odb,Step-1,Increment      1: Step Time =    1.000,"PART-1-1",           470,      -12.3844,      -13.1215,            0.,NA,NA,"",       1.55379,       1.45900,   534.387E-03,   36.0683E-03
C:/temp/dataset/0/10_21.odb,Step-1,Increment      1: Step Time =    1.000,"PART-1-1",           471,      -13.6984,      -11.8123,            0.,NA,NA,"",       1.91642,       1.75163,   777.449E-03,   44.5993E-03
C:/temp/dataset/0/10_21.odb,Step-1,Increment      1: Step Time =    1.000,"PART-1-1",           472,          -15.,         -13.5,            0.,NA,NA,"",       1.75966,       1.48120,   949.978E-03,   62.3340E-03
C:/temp/dataset/0/10_21.odb,Step-1,Increment      1: Step Time =    1.000,"PART-1-1",           473,      -7.37693,      -9.46970,            0.,NA,NA,"",       2.11606,       2.08105,  -383.341E-03,   15.9313E-03
C:/temp/dataset/0/10_21.odb,Step-1,Increment      1: Step Time =    1.000,"PART-1-1",           474,      -9.85821,      -9.77933,            0.,NA,NA,"",       2.06188,       2.05975,   93.7550E-03,   17.0198E-03
C:/temp/dataset/0/10_21.odb,Step-1,Increment      1: Step Time =    1.000,"PART-1-1",           475,      -8.48236,      -17.0363,            0.,NA,NA,"",   740.319E-03,   740.279E-03,  -7.75678E-03,   21.1314E-03
C:/temp/dataset/0/10_21.odb,Step-1,Increment      1: Step Time =    1.000,"PART-1-1",           476,      -7.28434,      -15.4580,            0.,NA,NA,"",   995.086E-03,   974.153E-03,  -203.031E-03,   27.7495E-03
C:/temp/dataset/0/10_21.odb,Step-1,Increment      1: Step Time =    1.000,"PART-1-1",           477,      -9.76451,      -15.7083,            0.,NA,NA,"",   967.664E-03,   957.484E-03,   139.990E-03,   19.5434E-03
C:/temp/dataset/0/10_21.odb,Step-1,Increment      1: Step Time =    1.000,"PART-1-1",           478,      -8.29054,      -19.6175,            0.,NA,NA,"",   417.706E-03,   417.656E-03,  -6.43729E-03,   18.9290E-03
C:/temp/dataset/0/10_21.odb,Step-1,Increment      1: Step Time =    1.000,"PART-1-1",           479,      -7.20240,      -18.2338,            0.,NA,NA,"",   573.529E-03,   560.617E-03,  -121.012E-03,   27.9938E-03
C:/temp/dataset/0/10_21.odb,Step-1,Increment      1: Step Time =    1.000,"PART-1-1",           480,      -9.57051,      -18.4200,            0.,NA,NA,"",   582.840E-03,   571.325E-03,   115.283E-03,   20.0493E-03
C:/temp/dataset/0/10_21.odb,Step-1,Increment      1: Step Time =    1.000,"PART-1-1",           481,      -11.5327,      -24.2644,            0.,NA,NA,"",   219.435E-03,   156.865E-03,   153.444E-03,   33.2583E-03
C:/temp/dataset/0/10_21.odb,Step-1,Increment      1: Step Time =    1.000,"PART-1-1",           482,      -10.1789,      -23.4859,            0.,NA,NA,"",   200.419E-03,   175.038E-03,   97.6188E-03,   19.9693E-03
C:/temp/dataset/0/10_21.odb,Step-1,Increment      1: Step Time =    1.000,"PART-1-1",           483,      -10.8627,      -21.7859,            0.,NA,NA,"",   333.855E-03,   283.714E-03,   175.971E-03,   29.1960E-03
C:/temp/dataset/0/10_21.odb,Step-1,Increment      1: Step Time =    1.000,"PART-1-1",           484,      -12.2165,      -22.5644,            0.,NA,NA,"",   359.967E-03,   259.969E-03,   248.982E-03,   42.4418E-03
C:/temp/dataset/0/10_21.odb,Step-1,Increment      1: Step Time =    1.000,"PART-1-1",           485,      -6.15301,      -21.8453,            0.,NA,NA,"",   270.867E-03,   243.910E-03,  -117.800E-03,   31.4188E-03
C:/temp/dataset/0/10_21.odb,Step-1,Increment      1: Step Time =    1.000,"PART-1-1",           486,      -7.48433,      -22.7723,            0.,NA,NA,"",   202.324E-03,   197.597E-03,  -43.4809E-03,   13.5197E-03
C:/temp/dataset/0/10_21.odb,Step-1,Increment      1: Step Time =    1.000,"PART-1-1",           487,      -6.61766,      -24.1583,            0.,NA,NA,"",   162.742E-03,   153.921E-03,  -52.8496E-03,   20.2688E-03
C:/temp/dataset/0/10_21.odb,Step-1,Increment      1: Step Time =    1.000,"PART-1-1",           488,      -9.30746,      -21.9937,            0.,NA,NA,"",   253.332E-03,   245.647E-03,   61.9234E-03,   15.3972E-03
C:/temp/dataset/0/10_21.odb,Step-1,Increment      1: Step Time =    1.000,"PART-1-1",           489,      -9.12330,      -20.5212,            0.,NA,NA,"",   353.209E-03,   347.799E-03,   61.5837E-03,   16.6118E-03
C:/temp/dataset/0/10_21.odb,Step-1,Increment      1: Step Time =    1.000,"PART-1-1",           490,      -10.6786,      -20.3134,            0.,NA,NA,"",   440.439E-03,   395.224E-03,   194.381E-03,   28.6943E-03
C:/temp/dataset/0/10_21.odb,Step-1,Increment      1: Step Time =    1.000,"PART-1-1",           491,         -13.5,          -30.,            0.,NA,NA,"",            0.,  -2.58350E-39,   94.5166E-39,   51.4194E-03
C:/temp/dataset/0/10_21.odb,Step-1,Increment      1: Step Time =    1.000,"PART-1-1",           492,      -12.0973,      -28.5120,            0.,NA,NA,"",   45.5632E-03,   20.0084E-03,   40.9349E-03,   34.6472E-03
C:/temp/dataset/0/10_21.odb,Step-1,Increment      1: Step Time =    1.000,"PART-1-1",           493,      -13.5973,      -27.0120,            0.,NA,NA,"",   157.909E-03,   88.2041E-03,   130.978E-03,   52.3545E-03
C:/temp/dataset/0/10_21.odb,Step-1,Increment      1: Step Time =    1.000,"PART-1-1",           494,          -15.,         -28.5,            0.,NA,NA,"",   116.301E-03,   76.1307E-03,   87.9205E-03,   66.7430E-03
C:/temp/dataset/0/10_21.odb,Step-1,Increment      1: Step Time =    1.000,"PART-1-1",           495,      -2.59553,      -21.0976,            0.,NA,NA,"",   279.446E-03,   271.855E-03,  -64.6908E-03,   19.3160E-03
C:/temp/dataset/0/10_21.odb,Step-1,Increment      1: Step Time =    1.000,"PART-1-1",           496,      -1.51596,      -22.2324,            0.,NA,NA,"",   263.746E-03,   262.539E-03,  -25.2017E-03,   30.5937E-03
C:/temp/dataset/0/10_21.odb,Step-1,Increment      1: Step Time =    1.000,"PART-1-1",           497,  -170.430E-03,      -21.1349,            0.,NA,NA,"",   267.424E-03,   267.071E-03,   13.7342E-03,   14.7346E-03
C:/temp/dataset/0/10_21.odb,Step-1,Increment      1: Step Time =    1.000,"PART-1-1",           498,         -1.25,          -20.,            0.,NA,NA,"",   244.235E-03,   243.690E-03,  -16.3118E-03,   4.46919E-03
C:/temp/dataset/0/10_21.odb,Step-1,Increment      1: Step Time =    1.000,"PART-1-1",           499,       2.92795,      -28.2085,            0.,NA,NA,"",   65.0764E-03,   61.2075E-03,   22.1037E-03,   31.9484E-03
C:/temp/dataset/0/10_21.odb,Step-1,Increment      1: Step Time =    1.000,"PART-1-1",           500,  -103.307E-03,      -28.5907,            0.,NA,NA,"",   60.6577E-03,   60.3858E-03,   5.73643E-03,   30.3568E-03
C:/temp/dataset/0/10_21.odb,Step-1,Increment      1: Step Time =    1.000,"PART-1-1",           501,           1.5,          -30.,            0.,NA,NA,"",            0.,   32.6424E-39,   20.5307E-39,   26.1309E-03
C:/temp/dataset/0/10_21.odb,Step-1,Increment      1: Step Time =    1.000,"PART-1-1",           502,       2.19497,      -21.2732,            0.,NA,NA,"",   331.527E-03,   315.276E-03,   102.522E-03,   35.1517E-03
C:/temp/dataset/0/10_21.odb,Step-1,Increment      1: Step Time =    1.000,"PART-1-1",           503,          1.25,          -20.,            0.,NA,NA,"",   266.580E-03,   262.443E-03,   46.7825E-03,   24.9798E-03
C:/temp/dataset/0/10_21.odb,Step-1,Increment      1: Step Time =    1.000,"PART-1-1",           504,       4.38160,      -21.6436,            0.,NA,NA,"",   408.232E-03,   348.178E-03,   213.132E-03,   91.3075E-03
C:/temp/dataset/0/10_21.odb,Step-1,Increment      1: Step Time =    1.000,"PART-1-1",           505,          3.75,          -20.,            0.,NA,NA,"",   406.145E-03,   372.059E-03,   162.869E-03,   95.7229E-03
C:/temp/dataset/0/10_21.odb,Step-1,Increment      1: Step Time =    1.000,"PART-1-1",           506,       12.4146,      -26.3616,            0.,NA,NA,"",   184.559E-03,   62.2738E-03,  -173.736E-03,   58.9214E-03
C:/temp/dataset/0/10_21.odb,Step-1,Increment      1: Step Time =    1.000,"PART-1-1",           507,       11.3720,      -25.0651,            0.,NA,NA,"",   198.320E-03,   97.2496E-03,  -172.839E-03,   42.9605E-03
C:/temp/dataset/0/10_21.odb,Step-1,Increment      1: Step Time =    1.000,"PART-1-1",           508,       9.80011,      -26.1459,            0.,NA,NA,"",   71.5604E-03,   42.3130E-03,  -57.7105E-03,   18.9004E-03
C:/temp/dataset/0/10_21.odb,Step-1,Increment      1: Step Time =    1.000,"PART-1-1",           509,       10.8427,      -27.4423,            0.,NA,NA,"",   67.8392E-03,   9.19411E-03,  -67.2133E-03,   33.9392E-03
C:/temp/dataset/0/10_21.odb,Step-1,Increment      1: Step Time =    1.000,"PART-1-1",           510,       10.6574,      -21.6616,            0.,NA,NA,"",   411.151E-03,   340.816E-03,  -229.977E-03,   32.4159E-03
C:/temp/dataset/0/10_21.odb,Step-1,Increment      1: Step Time =    1.000,"PART-1-1",           511,       9.56375,      -20.8051,            0.,NA,NA,"",   448.540E-03,   430.939E-03,  -124.418E-03,   20.2766E-03
C:/temp/dataset/0/10_21.odb,Step-1,Increment      1: Step Time =    1.000,"PART-1-1",           512,       9.91066,      -22.7482,            0.,NA,NA,"",   263.235E-03,   233.537E-03,  -121.464E-03,   20.2968E-03
C:/temp/dataset/0/10_21.odb,Step-1,Increment      1: Step Time =    1.000,"PART-1-1",           513,       13.7822,      -25.0807,            0.,NA,NA,"",   370.185E-03,   155.849E-03,  -335.780E-03,   81.6222E-03
C:/temp/dataset/0/10_21.odb,Step-1,Increment      1: Step Time =    1.000,"PART-1-1",           514,       13.6324,      -27.5308,            0.,NA,NA,"",   162.771E-03,   57.3329E-03,  -152.339E-03,   76.2793E-03
C:/temp/dataset/0/10_21.odb,Step-1,Increment      1: Step Time =    1.000,"PART-1-1",           515,           15.,        -26.25,            0.,NA,NA,"",   346.846E-03,   155.942E-03,  -309.813E-03,   97.1241E-03
C:/temp/dataset/0/10_21.odb,Step-1,Increment      1: Step Time =    1.000,"PART-1-1",           516,          13.5,          -30.,            0.,NA,NA,"",            0.,  -6.03799E-39,  -129.338E-39,   66.8452E-03
C:/temp/dataset/0/10_21.odb,Step-1,Increment      1: Step Time =    1.000,"PART-1-1",           517,           15.,        -28.75,            0.,NA,NA,"",   123.080E-03,   74.2128E-03,  -98.1896E-03,   91.9822E-03
C:/temp/dataset/0/10_21.odb,Step-1,Increment      1: Step Time =    1.000,"PART-1-1",           518,       12.1324,      -28.7808,            0.,NA,NA,"",   47.2243E-03,  -3.68433E-03,  -47.0803E-03,   48.5986E-03
C:/temp/dataset/0/10_21.odb,Step-1,Increment      1: Step Time =    1.000,"PART-1-1",           519,       10.4418,      -23.8774,            0.,NA,NA,"",   210.066E-03,   154.713E-03,  -142.096E-03,   28.2535E-03
C:/temp/dataset/0/10_21.odb,Step-1,Increment      1: Step Time =    1.000,"PART-1-1",           520,       12.6627,      -23.9582,            0.,NA,NA,"",   373.405E-03,   183.725E-03,  -325.079E-03,   65.1922E-03
C:/temp/dataset/0/10_21.odb,Step-1,Increment      1: Step Time =    1.000,"PART-1-1",           521,       11.7324,      -22.7705,            0.,NA,NA,"",   392.117E-03,   251.056E-03,  -301.208E-03,   50.0703E-03
C:/temp/dataset/0/10_21.odb,Step-1,Increment      1: Step Time =    1.000,"PART-1-1",           522,       13.8804,      -22.6275,            0.,NA,NA,"",   622.609E-03,   317.819E-03,  -535.381E-03,   89.0187E-03
C:/temp/dataset/0/10_21.odb,Step-1,Increment      1: Step Time =    1.000,"PART-1-1",           523,           15.,        -23.75,            0.,NA,NA,"",   605.516E-03,   281.150E-03,  -536.287E-03,   105.703E-03
C:/temp/dataset/0/10_21.odb,Step-1,Increment      1: Step Time =    1.000,"PART-1-1",           524,       10.4567,      -19.3679,            0.,NA,NA,"",   707.525E-03,   645.940E-03,  -288.709E-03,   32.3071E-03
C:/temp/dataset/0/10_21.odb,Step-1,Increment      1: Step Time =    1.000,"PART-1-1",           525,       11.6911,      -20.4036,            0.,NA,NA,"",   654.097E-03,   504.689E-03,  -416.091E-03,   49.6404E-03
C:/temp/dataset/0/10_21.odb,Step-1,Increment      1: Step Time =    1.000,"PART-1-1",           526,       13.7764,      -15.1383,            0.,NA,NA,"",       1.94349,       1.53328,      -1.19424,   71.2303E-03
C:/temp/dataset/0/10_21.odb,Step-1,Increment      1: Step Time =    1.000,"PART-1-1",           527,           15.,        -16.25,            0.,NA,NA,"",       1.88883,       1.29689,      -1.37323,   100.143E-03
C:/temp/dataset/0/10_21.odb,Step-1,Increment      1: Step Time =    1.000,"PART-1-1",           528,       13.9082,      -7.52913,            0.,NA,NA,"",       4.17016,       3.71964,      -1.88534,   26.1907E-03
C:/temp/dataset/0/10_21.odb,Step-1,Increment      1: Step Time =    1.000,"PART-1-1",           529,       12.6962,      -8.81215,            0.,NA,NA,"",       3.64394,       3.35077,      -1.43200,   37.5140E-03
C:/temp/dataset/0/10_21.odb,Step-1,Increment      1: Step Time =    1.000,"PART-1-1",           530,           15.,         -8.75,            0.,NA,NA,"",       3.92592,       3.29526,      -2.13403,   36.3926E-03
C:/temp/dataset/0/10_21.odb,Step-1,Increment      1: Step Time =    1.000,"PART-1-1",           531,       12.9315,      -6.39763,            0.,NA,NA,"",       4.44941,       4.12377,      -1.67086,   29.8157E-03
C:/temp/dataset/0/10_21.odb,Step-1,Increment      1: Step Time =    1.000,"PART-1-1",           532,           15.,         -6.25,            0.,NA,NA,"",       4.69679,       4.08338,      -2.32074,   13.7808E-03
C:/temp/dataset/0/10_21.odb,Step-1,Increment      1: Step Time =    1.000,"PART-1-1",           533,       13.7496,  -319.059E-03,            0.,NA,NA,"",       6.44687,       6.05922,      -2.20180,   31.6502E-03
C:/temp/dataset/0/10_21.odb,Step-1,Increment      1: Step Time =    1.000,"PART-1-1",           534,       12.6614,      -1.81770,            0.,NA,NA,"",       5.93317,       5.63774,      -1.84889,   29.2915E-03
C:/temp/dataset/0/10_21.odb,Step-1,Increment      1: Step Time =    1.000,"PART-1-1",           535,           15.,         -1.25,            0.,NA,NA,"",       6.23845,       5.69655,      -2.54314,   31.3558E-03
C:/temp/dataset/0/10_21.odb,Step-1,Increment      1: Step Time =    1.000,"PART-1-1",           536,       12.4054,   643.186E-03,            0.,NA,NA,"",       6.68392,       6.41746,      -1.86843,   30.8297E-03
C:/temp/dataset/0/10_21.odb,Step-1,Increment      1: Step Time =    1.000,"PART-1-1",           537,           15.,          1.25,            0.,NA,NA,"",       6.95194,       6.46239,      -2.56261,   51.0595E-03
C:/temp/dataset/0/10_21.odb,Step-1,Increment      1: Step Time =    1.000,"PART-1-1",           538,           15.,          6.25,            0.,NA,NA,"",       8.12674,       7.75492,      -2.43003,   71.6330E-03
C:/temp/dataset/0/10_21.odb,Step-1,Increment      1: Step Time =    1.000,"PART-1-1",           539,       10.9661,       10.0010,            0.,NA,NA,"",       8.72172,       8.56395,      -1.65141,   16.6477E-03
C:/temp/dataset/0/10_21.odb,Step-1,Increment      1: Step Time =    1.000,"PART-1-1",           540,       13.7311,       15.1467,            0.,NA,NA,"",       9.25422,       9.05563,      -1.90686,   34.5855E-03
C:/temp/dataset/0/10_21.odb,Step-1,Increment      1: Step Time =    1.000,"PART-1-1",           541,       13.6638,       12.5861,            0.,NA,NA,"",       9.03905,       8.82064,      -1.97506,   41.7497E-03
C:/temp/dataset/0/10_21.odb,Step-1,Increment      1: Step Time =    1.000,"PART-1-1",           542,           15.,         13.75,            0.,NA,NA,"",       9.14187,       8.90478,      -2.06851,   53.2293E-03
C:/temp/dataset/0/10_21.odb,Step-1,Increment      1: Step Time =    1.000,"PART-1-1",           543,       10.0887,       16.9483,            0.,NA,NA,"",       9.34408,       9.21097,      -1.57156,   19.4285E-03
C:/temp/dataset/0/10_21.odb,Step-1,Increment      1: Step Time =    1.000,"PART-1-1",           544,       12.5455,       16.5489,            0.,NA,NA,"",       9.34167,       9.17085,      -1.77833,   23.1009E-03
C:/temp/dataset/0/10_21.odb,Step-1,Increment      1: Step Time =    1.000,"PART-1-1",           545,       13.9423,       22.5670,            0.,NA,NA,"",       9.58396,       9.41629,      -1.78485,   11.1237E-03
C:/temp/dataset/0/10_21.odb,Step-1,Increment      1: Step Time =    1.000,"PART-1-1",           546,       12.8310,       21.4264,            0.,NA,NA,"",       9.54579,       9.38524,      -1.74342,   14.8882E-03
C:/temp/dataset/0/10_21.odb,Step-1,Increment      1: Step Time =    1.000,"PART-1-1",           547,           15.,         21.25,            0.,NA,NA,"",       9.54370,       9.36446,      -1.84099,   18.3726E-03
C:/temp/dataset/0/10_21.odb,Step-1,Increment      1: Step Time =    1.000,"PART-1-1",           548,       13.0804,       28.7387,            0.,NA,NA,"",       9.76248,       9.60677,      -1.73662,   1.61081E-03
C:/temp/dataset/0/10_21.odb,Step-1,Increment      1: Step Time =    1.000,"PART-1-1",           549,       12.1875,           30.,            0.,NA,NA,"",       9.79895,       9.64925,      -1.70630,   1.27449E-03
C:/temp/dataset/0/10_21.odb,Step-1,Increment      1: Step Time =    1.000,"PART-1-1",           550,           15.,         28.75,            0.,NA,NA,"",       9.77386,       9.60633,      -1.80189,   264.749E-06
C:/temp/dataset/0/10_21.odb,Step-1,Increment      1: Step Time =    1.000,"PART-1-1",           551,       14.0625,           30.,            0.,NA,NA,"",       9.80995,       9.64875,      -1.77110,   251.526E-06
C:/temp/dataset/0/10_21.odb,Step-1,Increment      1: Step Time =    1.000,"PART-1-1",           552,       8.83353,       26.4105,            0.,NA,NA,"",       9.65504,       9.52532,      -1.57734,   7.29453E-03
C:/temp/dataset/0/10_21.odb,Step-1,Increment      1: Step Time =    1.000,"PART-1-1",           553,       9.77062,       25.1982,            0.,NA,NA,"",       9.62738,       9.49258,      -1.60544,   8.80301E-03
C:/temp/dataset/0/10_21.odb,Step-1,Increment      1: Step Time =    1.000,"PART-1-1",           554,       5.62710,       27.7270,            0.,NA,NA,"",       9.67219,       9.55713,      -1.48741,   7.89554E-03
C:/temp/dataset/0/10_21.odb,Step-1,Increment      1: Step Time =    1.000,"PART-1-1",           555,          6.25,           30.,            0.,NA,NA,"",       9.75053,       9.63308,      -1.50886,   1.86838E-03
C:/temp/dataset/0/10_21.odb,Step-1,Increment      1: Step Time =    1.000,"PART-1-1",           556,   375.256E-03,       24.5574,            0.,NA,NA,"",       9.48097,       9.38468,      -1.34780,   21.1141E-03
C:/temp/dataset/0/10_21.odb,Step-1,Increment      1: Step Time =    1.000,"PART-1-1",           557,   860.838E-03,       23.0169,            0.,NA,NA,"",       9.40360,       9.30606,      -1.35086,   24.2283E-03
C:/temp/dataset/0/10_21.odb,Step-1,Increment      1: Step Time =    1.000,"PART-1-1",           558,       10.5910,       21.6677,            0.,NA,NA,"",       9.53474,       9.39539,      -1.62416,   16.9565E-03
C:/temp/dataset/0/10_21.odb,Step-1,Increment      1: Step Time =    1.000,"PART-1-1",           559,       9.14786,      -24.5495,            0.,NA,NA,"",   120.207E-03,   113.719E-03,  -38.9582E-03,   8.85360E-03
C:/temp/dataset/0/10_21.odb,Step-1,Increment      1: Step Time =    1.000,"PART-1-1",           560,           15.,        -21.25,            0.,NA,NA,"",   939.362E-03,   497.365E-03,  -796.887E-03,   113.917E-03
C:/temp/dataset/0/10_21.odb,Step-1,Increment      1: Step Time =    1.000,"PART-1-1",           561,       12.7662,      -21.5126,            0.,NA,NA,"",   627.738E-03,   391.899E-03,  -490.377E-03,   66.7924E-03
C:/temp/dataset/0/10_21.odb,Step-1,Increment      1: Step Time =    1.000,"PART-1-1",           562,           15.,        -13.75,            0.,NA,NA,"",       2.50209,       1.87824,      -1.65308,   80.8315E-03
C:/temp/dataset/0/10_21.odb,Step-1,Increment      1: Step Time =    1.000,"PART-1-1",           563,       12.5272,      -13.9788,            0.,NA,NA,"",       2.08218,       1.82907,  -994.961E-03,   52.4679E-03
C:/temp/dataset/0/10_21.odb,Step-1,Increment      1: Step Time =    1.000,"PART-1-1",           564,           15.,         11.25,            0.,NA,NA,"",       8.89342,       8.62071,      -2.18545,   63.4082E-03
C:/temp/dataset/0/10_21.odb,Step-1,Increment      1: Step Time =    1.000,"PART-1-1",           565,       12.2906,       11.3331,            0.,NA,NA,"",       8.89989,       8.70913,      -1.83277,   28.0594E-03
C:/temp/dataset/0/10_21.odb,Step-1,Increment      1: Step Time =    1.000,"PART-1-1",           566,       7.23650,       5.28124,            0.,NA,NA,"",       7.85704,       7.81108,  -848.645E-03,   40.4174E-03
C:/temp/dataset/0/10_21.odb,Step-1,Increment      1: Step Time =    1.000,"PART-1-1",           567,       8.44697,       3.91887,            0.,NA,NA,"",       7.53942,       7.46681,      -1.04388,   27.8685E-03
C:/temp/dataset/0/10_21.odb,Step-1,Increment      1: Step Time =    1.000,"PART-1-1",           568,       9.72373,       11.4508,            0.,NA,NA,"",       8.88815,       8.76406,      -1.48004,   18.4210E-03
C:/temp/dataset/0/10_21.odb,Step-1,Increment      1: Step Time =    1.000,"PART-1-1",           569,           15.,         16.25,            0.,NA,NA,"",       9.32196,       9.11159,      -1.96921,   41.8049E-03
C:/temp/dataset/0/10_21.odb,Step-1,Increment      1: Step Time =    1.000,"PART-1-1",           570,       6.21850,       16.4100,            0.,NA,NA,"",       9.24150,       9.15596,      -1.25446,   43.3155E-03
C:/temp/dataset/0/10_21.odb,Step-1,Increment      1: Step Time =    1.000,"PART-1-1",           571,       7.58992,       17.5073,            0.,NA,NA,"",       9.33613,       9.23256,      -1.38681,   28.0808E-03
C:/temp/dataset/0/10_21.odb,Step-1,Increment      1: Step Time =    1.000,"PART-1-1",           572,       6.37141,       19.4306,            0.,NA,NA,"",       9.39901,       9.29916,      -1.36644,   31.9999E-03
C:/temp/dataset/0/10_21.odb,Step-1,Increment      1: Step Time =    1.000,"PART-1-1",           573,            5.,       18.3333,            0.,NA,NA,"",       9.31956,       9.23264,      -1.26990,   54.3825E-03
C:/temp/dataset/0/10_21.odb,Step-1,Increment      1: Step Time =    1.000,"PART-1-1",           574,           15.,         23.75,            0.,NA,NA,"",       9.62085,       9.44847,      -1.81304,   8.99123E-03
C:/temp/dataset/0/10_21.odb,Step-1,Increment      1: Step Time =    1.000,"PART-1-1",           575,         -3.75,          -20.,            0.,NA,NA,"",   291.681E-03,   273.546E-03,  -101.246E-03,   45.8779E-03
C:/temp/dataset/0/10_21.odb,Step-1,Increment      1: Step Time =    1.000,"PART-1-1",           576,      -5.05545,      -21.0122,            0.,NA,NA,"",   338.859E-03,   289.766E-03,  -175.674E-03,   60.8858E-03
C:/temp/dataset/0/10_21.odb,Step-1,Increment      1: Step Time =    1.000,"PART-1-1",           577,       7.51719,       25.3425,            0.,NA,NA,"",       9.60373,       9.48184,      -1.52521,   11.1853E-03
C:/temp/dataset/0/10_21.odb,Step-1,Increment      1: Step Time =    1.000,"PART-1-1",           578,       6.22510,       24.4051,            0.,NA,NA,"",       9.55035,       9.43556,      -1.47625,   18.4021E-03
C:/temp/dataset/0/10_21.odb,Step-1,Increment      1: Step Time =    1.000,"PART-1-1",           579,       7.27278,       23.2327,            0.,NA,NA,"",       9.52726,       9.41004,      -1.48989,   19.5585E-03
C:/temp/dataset/0/10_21.odb,Step-1,Increment      1: Step Time =    1.000,"PART-1-1",           580,       8.56487,       24.1701,            0.,NA,NA,"",       9.57994,       9.45372,      -1.55000,   14.3863E-03
C:/temp/dataset/0/10_21.odb,Step-1,Increment      1: Step Time =    1.000,"PART-1-1",           581,            5.,      -8.33333,            0.,NA,NA,"",       3.87807,       3.81247,   710.304E-03,   20.3249E-03
C:/temp/dataset/0/10_21.odb,Step-1,Increment      1: Step Time =    1.000,"PART-1-1",           582,       7.86568,      -7.92961,            0.,NA,NA,"",       3.80413,       3.80099,  -154.637E-03,   32.6174E-03
C:/temp/dataset/0/10_21.odb,Step-1,Increment      1: Step Time =    1.000,"PART-1-1",           583,       6.55300,      -6.36051,            0.,NA,NA,"",       4.37675,       4.37442,   142.661E-03,   18.5004E-03
C:/temp/dataset/0/10_21.odb,Step-1,Increment      1: Step Time =    1.000,"PART-1-1",           584,       2.48006,       24.7002,            0.,NA,NA,"",       9.51194,       9.40828,      -1.40049,   20.8317E-03
C:/temp/dataset/0/10_21.odb,Step-1,Increment      1: Step Time =    1.000,"PART-1-1",           585,       1.90437,       23.5201,            0.,NA,NA,"",       9.44564,       9.34437,      -1.37941,   22.0590E-03
C:/temp/dataset/0/10_21.odb,Step-1,Increment      1: Step Time =    1.000,"PART-1-1",           586,       3.20717,       23.2686,            0.,NA,NA,"",       9.45399,       9.34944,      -1.40211,   23.4018E-03
C:/temp/dataset/0/10_21.odb,Step-1,Increment      1: Step Time =    1.000,"PART-1-1",           587,       3.78286,       24.4486,            0.,NA,NA,"",       9.51566,       9.40851,      -1.42397,   21.8505E-03
C:/temp/dataset/0/10_21.odb,Step-1,Increment      1: Step Time =    1.000,"PART-1-1",           588,   574.843E-03,       25.7278,            0.,NA,NA,"",       9.55067,       9.45365,      -1.35785,   19.3081E-03
C:/temp/dataset/0/10_21.odb,Step-1,Increment      1: Step Time =    1.000,"PART-1-1",           589,       1.89275,       27.1317,            0.,NA,NA,"",       9.63182,       9.53014,      -1.39585,   15.9581E-03
C:/temp/dataset/0/10_21.odb,Step-1,Increment      1: Step Time =    1.000,"PART-1-1",           590,   743.770E-03,       27.8321,            0.,NA,NA,"",       9.66792,       9.57134,      -1.36315,   16.0404E-03
C:/temp/dataset/0/10_21.odb,Step-1,Increment      1: Step Time =    1.000,"PART-1-1",           591,  -574.133E-03,       26.4282,            0.,NA,NA,"",       9.58839,       9.49699,      -1.32076,   17.5193E-03
C:/temp/dataset/0/10_21.odb,Step-1,Increment      1: Step Time =    1.000,"PART-1-1",           592,          1.25,           30.,            0.,NA,NA,"",       9.75654,       9.66008,      -1.36860,   16.8393E-03
C:/temp/dataset/0/10_21.odb,Step-1,Increment      1: Step Time =    1.000,"PART-1-1",           593,  -258.432E-03,       28.8495,            0.,NA,NA,"",       9.72611,       9.63551,      -1.32448,   18.3337E-03
C:/temp/dataset/0/10_21.odb,Step-1,Increment      1: Step Time =    1.000,"PART-1-1",           594,       3.99806,       26.6235,            0.,NA,NA,"",       9.61698,       9.50795,      -1.44397,   14.9087E-03
C:/temp/dataset/0/10_21.odb,Step-1,Increment      1: Step Time =    1.000,"PART-1-1",           595,       4.96332,       25.4314,            0.,NA,NA,"",       9.57408,       9.46247,      -1.45759,   16.4260E-03
C:/temp/dataset/0/10_21.odb,Step-1,Increment      1: Step Time =    1.000,"PART-1-1",           596,       6.59236,       26.5350,            0.,NA,NA,"",       9.63571,       9.51710,      -1.50725,   10.1108E-03
C:/temp/dataset/0/10_21.odb,Step-1,Increment      1: Step Time =    1.000,"PART-1-1",           597,          -1.5,           30.,            0.,NA,NA,"",       9.80177,       9.72033,      -1.26089,   28.9622E-03
C:/temp/dataset/0/10_21.odb,Step-1,Increment      1: Step Time =    1.000,"PART-1-1",           598,      -3.21021,       28.8021,            0.,NA,NA,"",       9.76231,       9.69078,      -1.17953,   25.2583E-03
C:/temp/dataset/0/10_21.odb,Step-1,Increment      1: Step Time =    1.000,"PART-1-1",           599,      -1.96864,       27.6516,            0.,NA,NA,"",       9.67049,       9.58842,      -1.25720,   16.8821E-03
C:/temp/dataset/0/10_21.odb,Step-1,Increment      1: Step Time =    1.000,"PART-1-1",           600,       2.23679,       22.3955,            0.,NA,NA,"",       9.40061,       9.29927,      -1.37660,   22.1788E-03
C:/temp/dataset/0/10_21.odb,Step-1,Increment      1: Step Time =    1.000,"PART-1-1",           601,       6.10470,      -23.0953,            0.,NA,NA,"",   276.661E-03,   236.275E-03,   143.928E-03,   41.4760E-03
C:/temp/dataset/0/10_21.odb,Step-1,Increment      1: Step Time =    1.000,"PART-1-1",           602,       5.87020,      -25.1929,            0.,NA,NA,"",   152.667E-03,   128.247E-03,   82.8233E-03,   39.9604E-03
C:/temp/dataset/0/10_21.odb,Step-1,Increment      1: Step Time =    1.000,"PART-1-1",           603,       7.19944,      -25.3013,            0.,NA,NA,"",   110.246E-03,   99.1112E-03,   48.2817E-03,   21.9966E-03
C:/temp/dataset/0/10_21.odb,Step-1,Increment      1: Step Time =    1.000,"PART-1-1",           604,       10.0350,      -14.2359,            0.,NA,NA,"",       1.84373,       1.79597,  -416.927E-03,   39.3089E-03
C:/temp/dataset/0/10_21.odb,Step-1,Increment      1: Step Time =    1.000,"PART-1-1",           605,       11.6788,      -7.40939,            0.,NA,NA,"",       4.03260,       3.83656,      -1.24205,   36.7494E-03
C:/temp/dataset/0/10_21.odb,Step-1,Increment      1: Step Time =    1.000,"PART-1-1",           606,       11.2427,      -1.09783,            0.,NA,NA,"",       6.11256,       5.92627,      -1.49756,   34.1140E-03
C:/temp/dataset/0/10_21.odb,Step-1,Increment      1: Step Time =    1.000,"PART-1-1",           607,       7.93860,       19.8912,            0.,NA,NA,"",       9.44194,       9.32885,      -1.45703,   27.0872E-03
C:/temp/dataset/0/10_21.odb,Step-1,Increment      1: Step Time =    1.000,"PART-1-1",           608,       8.98253,       18.5426,            0.,NA,NA,"",       9.40659,       9.28596,      -1.50165,   20.9514E-03
C:/temp/dataset/0/10_21.odb,Step-1,Increment      1: Step Time =    1.000,"PART-1-1",           609,       9.31070,       20.7205,            0.,NA,NA,"",       9.48911,       9.36232,      -1.54598,   21.0107E-03
C:/temp/dataset/0/10_21.odb,Step-1,Increment      1: Step Time =    1.000,"PART-1-1",           610,       3.88086,       22.5675,            0.,NA,NA,"",       9.43553,       9.33044,      -1.40433,   24.8873E-03
C:/temp/dataset/0/10_21.odb,Step-1,Increment      1: Step Time =    1.000,"PART-1-1",           611,       2.67965,       25.8706,            0.,NA,NA,"",       9.57256,       9.46793,      -1.41148,   18.6373E-03
C:/temp/dataset/0/10_21.odb,Step-1,Increment      1: Step Time =    1.000,"PART-1-1",           612,            5.,          -15.,            0.,NA,NA,"",       1.93548,       1.79675,   719.567E-03,   78.3264E-03
C:/temp/dataset/0/10_21.odb,Step-1,Increment      1: Step Time =    1.000,"PART-1-1",           613,       6.27023,      -16.3841,            0.,NA,NA,"",       1.39894,       1.34659,   379.125E-03,   67.4474E-03
C:/temp/dataset/0/10_21.odb,Step-1,Increment      1: Step Time =    1.000,"PART-1-1",           614,       7.51616,      -14.5750,            0.,NA,NA,"",       1.78250,       1.77690,   141.185E-03,   46.9759E-03
C:/temp/dataset/0/10_21.odb,Step-1,Increment      1: Step Time =    1.000,"PART-1-1",           615,       6.15302,       13.2331,            0.,NA,NA,"",       8.98740,       8.91951,      -1.10252,   52.9753E-03
C:/temp/dataset/0/10_21.odb,Step-1,Increment      1: Step Time =    1.000,"PART-1-1",           616,       7.37153,       14.6431,            0.,NA,NA,"",       9.14293,       9.05237,      -1.28360,   36.9072E-03
C:/temp/dataset/0/10_21.odb,Step-1,Increment      1: Step Time =    1.000,"PART-1-1",           617,            5.,           15.,            0.,NA,NA,"",       9.10123,       9.03561,      -1.09095,   60.0719E-03
C:/temp/dataset/0/10_21.odb,Step-1,Increment      1: Step Time =    1.000,"PART-1-1",           618,            5.,       11.6667,            0.,NA,NA,"",       8.78992,       8.74504,  -887.080E-03,   70.2020E-03
C:/temp/dataset/0/10_21.odb,Step-1,Increment      1: Step Time =    1.000,"PART-1-1",           619,       6.12690,       10.0064,            0.,NA,NA,"",       8.64824,       8.59944,  -917.376E-03,   60.0283E-03
C:/temp/dataset/0/10_21.odb,Step-1,Increment      1: Step Time =    1.000,"PART-1-1",           620,       7.27992,       11.5729,            0.,NA,NA,"",       8.85522,       8.77970,      -1.15406,   44.1967E-03
C:/temp/dataset/0/10_21.odb,Step-1,Increment      1: Step Time =    1.000,"PART-1-1",           621,       6.15632,   278.618E-03,            0.,NA,NA,"",       6.53110,       6.52731,  -222.361E-03,   44.4623E-03
C:/temp/dataset/0/10_21.odb,Step-1,Increment      1: Step Time =    1.000,"PART-1-1",           622,            5.,      -1.66667,            0.,NA,NA,"",       5.96288,       5.95476,   311.094E-03,   36.5013E-03
C:/temp/dataset/0/10_21.odb,Step-1,Increment      1: Step Time =    1.000,"PART-1-1",           623,       6.25252,      -2.97068,            0.,NA,NA,"",       5.49393,       5.49390,   15.3155E-03,   26.4028E-03
C:/temp/dataset/0/10_21.odb,Step-1,Increment      1: Step Time =    1.000,"PART-1-1",           624,       7.67955,      -17.4721,            0.,NA,NA,"",       1.03035,       1.02565,   98.2898E-03,   46.1540E-03
C:/temp/dataset/0/10_21.odb,Step-1,Increment      1: Step Time =    1.000,"PART-1-1",           625,            5.,      -18.3333,            0.,NA,NA,"",       1.07238,   941.574E-03,   513.265E-03,   143.278E-03
C:/temp/dataset/0/10_21.odb,Step-1,Increment      1: Step Time =    1.000,"PART-1-1",           626,       6.40932,      -19.4213,            0.,NA,NA,"",   659.748E-03,   614.086E-03,   241.176E-03,   95.9888E-03
C:/temp/dataset/0/10_21.odb,Step-1,Increment      1: Step Time =    1.000,"PART-1-1",           627,      -1.73152,      -24.7018,            0.,NA,NA,"",   200.622E-03,   199.725E-03,  -18.9470E-03,   37.9124E-03
C:/temp/dataset/0/10_21.odb,Step-1,Increment      1: Step Time =    1.000,"PART-1-1",           628,       9.06065,      -18.5206,            0.,NA,NA,"",   801.708E-03,   794.733E-03,  -105.524E-03,   33.1172E-03
C:/temp/dataset/0/10_21.odb,Step-1,Increment      1: Step Time =    1.000,"PART-1-1",           629,       8.80686,      -15.8614,            0.,NA,NA,"",       1.40065,       1.39617,  -111.921E-03,   40.7552E-03
C:/temp/dataset/0/10_21.odb,Step-1,Increment      1: Step Time =    1.000,"PART-1-1",           630,       10.3171,      -8.61722,            0.,NA,NA,"",       3.57476,       3.48683,  -787.980E-03,   40.6146E-03
C:/temp/dataset/0/10_21.odb,Step-1,Increment      1: Step Time =    1.000,"PART-1-1",           631,       8.85917,      -9.88939,            0.,NA,NA,"",       3.14433,       3.12722,  -327.517E-03,   35.3002E-03
C:/temp/dataset/0/10_21.odb,Step-1,Increment      1: Step Time =    1.000,"PART-1-1",           632,       8.74431,      -12.9496,            0.,NA,NA,"",       2.20121,       2.19445,  -172.344E-03,   36.5340E-03
C:/temp/dataset/0/10_21.odb,Step-1,Increment      1: Step Time =    1.000,"PART-1-1",           633,       6.89786,       21.2129,            0.,NA,NA,"",       9.45784,       9.34825,      -1.43557,   29.6039E-03
C:/temp/dataset/0/10_21.odb,Step-1,Increment      1: Step Time =    1.000,"PART-1-1",           634,       10.2659,      -2.76771,            0.,NA,NA,"",       5.54126,       5.42208,      -1.14305,   40.6072E-03
C:/temp/dataset/0/10_21.odb,Step-1,Increment      1: Step Time =    1.000,"PART-1-1",           635,       7.80552,      -4.33119,            0.,NA,NA,"",       5.00422,       4.99178,  -352.702E-03,   34.7028E-03
C:/temp/dataset/0/10_21.odb,Step-1,Increment      1: Step Time =    1.000,"PART-1-1",           636,            5.,           -5.,            0.,NA,NA,"",       4.92451,       4.89377,   549.363E-03,   8.45712E-03
C:/temp/dataset/0/10_21.odb,Step-1,Increment      1: Step Time =    1.000,"PART-1-1",           637,       7.27801,       2.13112,            0.,NA,NA,"",       7.06403,       7.03281,  -663.473E-03,   39.4726E-03
C:/temp/dataset/0/10_21.odb,Step-1,Increment      1: Step Time =    1.000,"PART-1-1",           638,       6.12168,       3.51917,            0.,NA,NA,"",       7.44081,       7.42580,  -472.396E-03,   56.3535E-03
C:/temp/dataset/0/10_21.odb,Step-1,Increment      1: Step Time =    1.000,"PART-1-1",           639,            5.,       1.66667,            0.,NA,NA,"",       6.97385,       6.97385,  -6.21333E-03,   65.4202E-03
C:/temp/dataset/0/10_21.odb,Step-1,Increment      1: Step Time =    1.000,"PART-1-1",           640,            5.,            5.,            0.,NA,NA,"",       7.78355,       7.77651,  -331.069E-03,   79.5956E-03
C:/temp/dataset/0/10_21.odb,Step-1,Increment      1: Step Time =    1.000,"PART-1-1",           641,       6.11481,       6.76207,            0.,NA,NA,"",       8.15184,       8.12050,  -714.185E-03,   61.8440E-03
C:/temp/dataset/0/10_21.odb,Step-1,Increment      1: Step Time =    1.000,"PART-1-1",           642,       8.53738,       13.0133,            0.,NA,NA,"",       9.02828,       8.92545,      -1.35873,   28.6477E-03
C:/temp/dataset/0/10_21.odb,Step-1,Increment      1: Step Time =    1.000,"PART-1-1",           643,       8.69606,       15.9130,            0.,NA,NA,"",       9.26182,       9.14926,      -1.43956,   23.9282E-03
C:/temp/dataset/0/10_21.odb,Step-1,Increment      1: Step Time =    1.000,"PART-1-1",           644,       9.56938,       22.9454,            0.,NA,NA,"",       9.55833,       9.42670,      -1.58078,   15.4080E-03
C:/temp/dataset/0/10_21.odb,Step-1,Increment      1: Step Time =    1.000,"PART-1-1",           645,       8.28908,       21.9981,            0.,NA,NA,"",       9.50937,       9.38879,      -1.50955,   22.1807E-03
C:/temp/dataset/0/10_21.odb,Step-1,Increment      1: Step Time =    1.000,"PART-1-1",           646,      -3.61415,       26.3795,            0.,NA,NA,"",       9.58584,       9.51426,      -1.16929,   13.7295E-03
C:/temp/dataset/0/10_21.odb,Step-1,Increment      1: Step Time =    1.000,"PART-1-1",           647,      -6.18563,       28.7596,            0.,NA,NA,"",       9.80783,       9.76229,  -944.110E-03,   25.4681E-03
C:/temp/dataset/0/10_21.odb,Step-1,Increment      1: Step Time =    1.000,"PART-1-1",           648,      -4.89584,       27.5617,            0.,NA,NA,"",       9.68802,       9.62909,      -1.06696,   15.9026E-03
C:/temp/dataset/0/10_21.odb,Step-1,Increment      1: Step Time =    1.000,"PART-1-1",           649,          -4.5,           30.,            0.,NA,NA,"",       9.87738,       9.81857,      -1.07629,   35.1278E-03
C:/temp/dataset/0/10_21.odb,Step-1,Increment      1: Step Time =    1.000,"PART-1-1",           650,          -15.,          19.5,            0.,NA,NA,"",       8.80354,       8.79678,   344.792E-03,   38.5360E-03
C:/temp/dataset/0/10_21.odb,Step-1,Increment      1: Step Time =    1.000,"PART-1-1",           651,      -13.6835,       18.2834,            0.,NA,NA,"",       8.60851,       8.60665,   179.237E-03,   27.3881E-03
C:/temp/dataset/0/10_21.odb,Step-1,Increment      1: Step Time =    1.000,"PART-1-1",           652,      -12.3643,       20.0316,            0.,NA,NA,"",       8.87795,       8.87749,  -90.5233E-03,   15.9999E-03
C:/temp/dataset/0/10_21.odb,Step-1,Increment      1: Step Time =    1.000,"PART-1-1",           653,      -13.6808,       21.2481,            0.,NA,NA,"",       9.04916,       9.04884,   75.9975E-03,   26.2779E-03
C:/temp/dataset/0/10_21.odb,Step-1,Increment      1: Step Time =    1.000,"PART-1-1",           654,      -6.08047,      -19.7739,            0.,NA,NA,"",   395.414E-03,   355.774E-03,  -172.561E-03,   56.2053E-03
C:/temp/dataset/0/10_21.odb,Step-1,Increment      1: Step Time =    1.000,"PART-1-1",           655,      -7.17803,      -20.6070,            0.,NA,NA,"",   322.324E-03,   310.343E-03,  -87.0633E-03,   20.2391E-03
C:/temp/dataset/0/10_21.odb,Step-1,Increment      1: Step Time =    1.000,"PART-1-1",           656,       5.87583,      -21.1387,            0.,NA,NA,"",   445.277E-03,   384.595E-03,   224.408E-03,   67.5189E-03
C:/temp/dataset/0/10_21.odb,Step-1,Increment      1: Step Time =    1.000,"PART-1-1",           657,       4.61047,      -23.6002,            0.,NA,NA,"",   275.345E-03,   234.926E-03,   143.612E-03,   52.3008E-03
C:/temp/dataset/0/10_21.odb,Step-1,Increment      1: Step Time =    1.000,"PART-1-1",           658,       4.56928,      -26.4448,            0.,NA,NA,"",   118.337E-03,   101.552E-03,   60.7523E-03,   35.0150E-03
C:/temp/dataset/0/10_21.odb,Step-1,Increment      1: Step Time =    1.000,"PART-1-1",           659,       5.04464,       23.4223,            0.,NA,NA,"",       9.49132,       9.38227,      -1.43463,   23.2981E-03
C:/temp/dataset/0/10_21.odb,Step-1,Increment      1: Step Time =    1.000,"PART-1-1",           660,       5.88156,       22.4475,            0.,NA,NA,"",       9.47150,       9.36233,      -1.43389,   28.5992E-03
C:/temp/dataset/0/10_21.odb,Step-1,Increment      1: Step Time =    1.000,"PART-1-1",           661,      -1.61333,      -27.2257,            0.,NA,NA,"",   108.965E-03,   108.848E-03,  -5.03883E-03,   29.7720E-03
C:/temp/dataset/0/10_21.odb,Step-1,Increment      1: Step Time =    1.000,"PART-1-1",           662,      -3.01002,      -28.6350,            0.,NA,NA,"",   49.6371E-03,   49.3832E-03,  -5.01390E-03,   26.1461E-03
C:/temp/dataset/0/10_21.odb,Step-1,Increment      1: Step Time =    1.000,"PART-1-1",           663,          -1.5,          -30.,            0.,NA,NA,"",            0.,   33.0491E-39,   3.50041E-39,   26.8091E-03
C:/temp/dataset/0/10_21.odb,Step-1,Increment      1: Step Time =    1.000,"PART-1-1",           664,            5.,       8.33333,            0.,NA,NA,"",       8.40132,       8.37719,  -636.270E-03,   81.9219E-03
C:/temp/dataset/0/10_21.odb,Step-1,Increment      1: Step Time =    1.000,"PART-1-1",           665,       8.16766,      -19.9578,            0.,NA,NA,"",   536.910E-03,   535.947E-03,   32.1371E-03,   27.7439E-03
C:/temp/dataset/0/10_21.odb,Step-1,Increment      1: Step Time =    1.000,"PART-1-1",           666,       7.85169,      -26.8977,            0.,NA,NA,"",   33.3047E-03,   31.6432E-03,   10.3883E-03,   15.1027E-03
C:/temp/dataset/0/10_21.odb,Step-1,Increment      1: Step Time =    1.000,"PART-1-1",           667,          -4.5,          -30.,            0.,NA,NA,"",            0.,   20.6551E-39,  -4.76510E-39,   17.7498E-03
C:/temp/dataset/0/10_21.odb,Step-1,Increment      1: Step Time =    1.000,"PART-1-1",           668,      -7.38541,       11.9129,            0.,NA,NA,"",       7.25076,       7.19784,  -874.434E-03,   26.5217E-03
C:/temp/dataset/0/10_21.odb,Step-1,Increment      1: Step Time =    1.000,"PART-1-1",           669,      -9.84369,       11.4885,            0.,NA,NA,"",       7.18178,       7.17258,  -363.492E-03,   17.7465E-03
C:/temp/dataset/0/10_21.odb,Step-1,Increment      1: Step Time =    1.000,"PART-1-1",           670,           -5.,      -18.4615,            0.,NA,NA,"",   662.614E-03,   556.733E-03,  -359.313E-03,   80.4343E-03
C:/temp/dataset/0/10_21.odb,Step-1,Increment      1: Step Time =    1.000,"PART-1-1",           671,      -6.12192,      -16.9214,            0.,NA,NA,"",   809.791E-03,   751.371E-03,  -301.997E-03,   42.6043E-03
C:/temp/dataset/0/10_21.odb,Step-1,Increment      1: Step Time =    1.000,"PART-1-1",           672,      -12.3453,      -25.6066,            0.,NA,NA,"",   186.310E-03,   114.374E-03,   147.072E-03,   41.0080E-03
C:/temp/dataset/0/10_21.odb,Step-1,Increment      1: Step Time =    1.000,"PART-1-1",           673,      -10.6437,      -26.7860,            0.,NA,NA,"",   80.5038E-03,   55.3141E-03,   58.4912E-03,   23.3740E-03
C:/temp/dataset/0/10_21.odb,Step-1,Increment      1: Step Time =    1.000,"PART-1-1",           674,      -9.83114,      -25.4438,            0.,NA,NA,"",   108.360E-03,   93.4006E-03,   54.9387E-03,   14.8997E-03
C:/temp/dataset/0/10_21.odb,Step-1,Increment      1: Step Time =    1.000,"PART-1-1",           675,      -8.43320,      -25.2132,            0.,NA,NA,"",   101.557E-03,   101.171E-03,   8.84669E-03,   6.03996E-03
C:/temp/dataset/0/10_21.odb,Step-1,Increment      1: Step Time =    1.000,"PART-1-1",           676,      -9.78639,       17.5920,            0.,NA,NA,"",       8.47105,       8.45854,  -460.306E-03,   13.2079E-03
C:/temp/dataset/0/10_21.odb,Step-1,Increment      1: Step Time =    1.000,"PART-1-1",           677,      -11.0716,       18.8358,            0.,NA,NA,"",       8.69095,       8.68678,  -269.421E-03,   10.1588E-03
C:/temp/dataset/0/10_21.odb,Step-1,Increment      1: Step Time =    1.000,"PART-1-1",           678,      -12.3675,       17.0640,            0.,NA,NA,"",       8.38719,       8.38718,  -7.12632E-03,   15.0434E-03
C:/temp/dataset/0/10_21.odb,Step-1,Increment      1: Step Time =    1.000,"PART-1-1",           679,      -12.1189,      -19.2948,            0.,NA,NA,"",   638.094E-03,   530.454E-03,   354.658E-03,   41.5931E-03
C:/temp/dataset/0/10_21.odb,Step-1,Increment      1: Step Time =    1.000,"PART-1-1",           680,      -11.0109,      -17.4013,            0.,NA,NA,"",   784.558E-03,   731.676E-03,   283.165E-03,   30.4677E-03
C:/temp/dataset/0/10_21.odb,Step-1,Increment      1: Step Time =    1.000,"PART-1-1",           681,      -8.01079,      -21.5107,            0.,NA,NA,"",   263.243E-03,   262.086E-03,  -24.6534E-03,   11.7720E-03
C:/temp/dataset/0/10_21.odb,Step-1,Increment      1: Step Time =    1.000,"PART-1-1",           682,           4.5,          -30.,            0.,NA,NA,"",            0.,   15.2205E-39,   21.7307E-39,   16.4214E-03
C:/temp/dataset/0/10_21.odb,Step-1,Increment      1: Step Time =    1.000,"PART-1-1",           683,       6.14133,      -28.2363,            0.,NA,NA,"",   28.2290E-03,   22.4415E-03,   17.1247E-03,   20.1726E-03
C:/temp/dataset/0/10_21.odb,Step-1,Increment      1: Step Time =    1.000,"PART-1-1",           684,      -9.14726,       28.6966,            0.,NA,NA,"",       9.84689,       9.82737,  -619.741E-03,   18.9449E-03
C:/temp/dataset/0/10_21.odb,Step-1,Increment      1: Step Time =    1.000,"PART-1-1",           685,         -10.5,           30.,            0.,NA,NA,"",       10.0165,       10.0062,  -454.416E-03,   14.0096E-03
C:/temp/dataset/0/10_21.odb,Step-1,Increment      1: Step Time =    1.000,"PART-1-1",           686,      -6.18127,      -10.8771,            0.,NA,NA,"",       1.87104,       1.78442,  -562.699E-03,   24.6121E-03
C:/temp/dataset/0/10_21.odb,Step-1,Increment      1: Step Time =    1.000,"PART-1-1",           687,      -6.16241,      -13.9212,            0.,NA,NA,"",       1.30514,       1.22924,  -438.584E-03,   32.6269E-03
C:/temp/dataset/0/10_21.odb,Step-1,Increment      1: Step Time =    1.000,"PART-1-1",           688,           -5.,      -12.3077,            0.,NA,NA,"",       1.67486,       1.51142,  -721.640E-03,   38.3199E-03
C:/temp/dataset/0/10_21.odb,Step-1,Increment      1: Step Time =    1.000,"PART-1-1",           689,         -10.5,          -30.,            0.,NA,NA,"",            0.,  -1.12942E-39,   47.4535E-39,   20.6043E-03
C:/temp/dataset/0/10_21.odb,Step-1,Increment      1: Step Time =    1.000,"PART-1-1",           690,          -15.,          22.5,            0.,NA,NA,"",       9.20572,       9.20317,   216.580E-03,   30.0111E-03
C:/temp/dataset/0/10_21.odb,Step-1,Increment      1: Step Time =    1.000,"PART-1-1",           691,          -15.,          16.5,            0.,NA,NA,"",       8.31193,       8.29717,   495.025E-03,   36.1972E-03
C:/temp/dataset/0/10_21.odb,Step-1,Increment      1: Step Time =    1.000,"PART-1-1",           692,      -13.6840,       15.2806,            0.,NA,NA,"",       8.06422,       8.05878,   296.064E-03,   22.4442E-03
C:/temp/dataset/0/10_21.odb,Step-1,Increment      1: Step Time =    1.000,"PART-1-1",           693,          -15.,          13.5,            0.,NA,NA,"",       7.73714,       7.71044,   642.259E-03,   27.3345E-03
C:/temp/dataset/0/10_21.odb,Step-1,Increment      1: Step Time =    1.000,"PART-1-1",           694,      -6.20685,       4.43382,            0.,NA,NA,"",       5.44806,       5.34537,      -1.05276,   14.2965E-03
C:/temp/dataset/0/10_21.odb,Step-1,Increment      1: Step Time =    1.000,"PART-1-1",           695,           -5.,       6.15385,            0.,NA,NA,"",       5.88957,       5.72846,      -1.36813,   19.9193E-03
C:/temp/dataset/0/10_21.odb,Step-1,Increment      1: Step Time =    1.000,"PART-1-1",           696,      -6.20051,      -1.69203,            0.,NA,NA,"",       3.93141,       3.82782,  -896.537E-03,   5.69080E-03
C:/temp/dataset/0/10_21.odb,Step-1,Increment      1: Step Time =    1.000,"PART-1-1",           697,      -6.19850,      -4.75722,            0.,NA,NA,"",       3.19986,       3.09964,  -794.588E-03,   10.4410E-03
C:/temp/dataset/0/10_21.odb,Step-1,Increment      1: Step Time =    1.000,"PART-1-1",           698,           -5.,      -3.07692,            0.,NA,NA,"",       3.64575,       3.46502,      -1.13364,   9.13133E-03
C:/temp/dataset/0/10_21.odb,Step-1,Increment      1: Step Time =    1.000,"PART-1-1",           699,      -12.3926,       7.99194,            0.,NA,NA,"",       6.41738,       6.41173,   269.366E-03,   11.4489E-03
C:/temp/dataset/0/10_21.odb,Step-1,Increment      1: Step Time =    1.000,"PART-1-1",           700,          -15.,           7.5,            0.,NA,NA,"",       6.42265,       6.36069,   889.967E-03,   7.14678E-03
C:/temp/dataset/0/10_21.odb,Step-1,Increment      1: Step Time =    1.000,"PART-1-1",           701,      -12.4166,      -1.07984,            0.,NA,NA,"",       4.18889,       4.15924,   497.564E-03,   17.8863E-03
C:/temp/dataset/0/10_21.odb,Step-1,Increment      1: Step Time =    1.000,"PART-1-1",           702,          -15.,          -1.5,            0.,NA,NA,"",       4.29206,       4.14732,       1.10521,   21.4348E-03
C:/temp/dataset/0/10_21.odb,Step-1,Increment      1: Step Time =    1.000,"PART-1-1",           703,      -12.3992,      -10.1184,            0.,NA,NA,"",       2.12979,       2.05378,   563.930E-03,   31.0987E-03
C:/temp/dataset/0/10_21.odb,Step-1,Increment      1: Step Time =    1.000,"PART-1-1",           704,          -15.,         -10.5,            0.,NA,NA,"",       2.31851,       2.06782,       1.04862,   51.4767E-03
C:/temp/dataset/0/10_21.odb,Step-1,Increment      1: Step Time =    1.000,"PART-1-1",           705,      -6.19567,      -7.82333,            0.,NA,NA,"",       2.50716,       2.41269,  -681.725E-03,   17.2118E-03
C:/temp/dataset/0/10_21.odb,Step-1,Increment      1: Step Time =    1.000,"PART-1-1",           706,           -5.,      -6.15385,            0.,NA,NA,"",       2.93872,       2.75896,      -1.01204,   18.8768E-03
C:/temp/dataset/0/10_21.odb,Step-1,Increment      1: Step Time =    1.000,"PART-1-1",           707,          -15.,         -22.5,            0.,NA,NA,"",   552.831E-03,   340.184E-03,   435.772E-03,   70.9981E-03
C:/temp/dataset/0/10_21.odb,Step-1,Increment      1: Step Time =    1.000,"PART-1-1",           708,      -13.7480,      -24.0946,            0.,NA,NA,"",   348.288E-03,   211.410E-03,   276.786E-03,   55.7643E-03
C:/temp/dataset/0/10_21.odb,Step-1,Increment      1: Step Time =    1.000,"PART-1-1",           709,      -13.4685,      -20.9699,            0.,NA,NA,"",   578.288E-03,   408.567E-03,   409.254E-03,   57.6697E-03
C:/temp/dataset/0/10_21.odb,Step-1,Increment      1: Step Time =    1.000,"PART-1-1",           710,          -15.,         -25.5,            0.,NA,NA,"",   317.011E-03,   182.173E-03,   259.440E-03,   65.1487E-03
C:/temp/dataset/0/10_21.odb,Step-1,Increment      1: Step Time =    1.000,"PART-1-1",           711,           7.5,          -30.,            0.,NA,NA,"",            0.,  -6.66064E-39,  -5.52046E-39,   4.83325E-03
C:/temp/dataset/0/10_21.odb,Step-1,Increment      1: Step Time =    1.000,"PART-1-1",           712,       9.21036,      -28.6615,            0.,NA,NA,"",   16.6786E-03,  -9.79063E-03,  -13.5026E-03,   14.5640E-03
C:/temp/dataset/0/10_21.odb,Step-1,Increment      1: Step Time =    1.000,"PART-1-1",           713,          10.5,          -30.,            0.,NA,NA,"",            0.,  -15.2312E-39,  -64.8387E-39,   29.4658E-03
C:/temp/dataset/0/10_21.odb,Step-1,Increment      1: Step Time =    1.000,"PART-1-1",           714,          -7.5,           30.,            0.,NA,NA,"",       9.95794,       9.92563,  -801.534E-03,   28.9537E-03
C:/temp/dataset/0/10_21.odb,Step-1,Increment      1: Step Time =    1.000,"PART-1-1",           715,          -15.,         -19.5,            0.,NA,NA,"",   867.562E-03,   599.911E-03,   626.715E-03,   75.5579E-03
C:/temp/dataset/0/10_21.odb,Step-1,Increment      1: Step Time =    1.000,"PART-1-1",           716,      -6.18713,       13.6475,            0.,NA,NA,"",       7.62919,       7.54680,      -1.11823,   36.1296E-03
C:/temp/dataset/0/10_21.odb,Step-1,Increment      1: Step Time =    1.000,"PART-1-1",           717,           -5.,       15.3846,            0.,NA,NA,"",       7.98785,       7.87580,      -1.33326,   49.0889E-03
C:/temp/dataset/0/10_21.odb,Step-1,Increment      1: Step Time =    1.000,"PART-1-1",           718,           -5.,       12.3077,            0.,NA,NA,"",       7.33053,       7.19988,      -1.37783,   38.8942E-03
C:/temp/dataset/0/10_21.odb,Step-1,Increment      1: Step Time =    1.000,"PART-1-1",           719,           -5.,            0.,            0.,NA,NA,"",       4.38352,       4.20569,      -1.23591,   799.750E-06
C:/temp/dataset/0/10_21.odb,Step-1,Increment      1: Step Time =    1.000,"PART-1-1",           720,      -6.20706,       1.36812,            0.,NA,NA,"",       4.68503,       4.58078,  -982.850E-03,   8.03552E-03
C:/temp/dataset/0/10_21.odb,Step-1,Increment      1: Step Time =    1.000,"PART-1-1",           721,           -5.,       3.07692,            0.,NA,NA,"",       5.13670,       4.96542,      -1.31541,   10.2745E-03
C:/temp/dataset/0/10_21.odb,Step-1,Increment      1: Step Time =    1.000,"PART-1-1",           722,           -5.,      -9.23077,            0.,NA,NA,"",       2.27749,       2.10298,  -874.325E-03,   28.8026E-03
C:/temp/dataset/0/10_21.odb,Step-1,Increment      1: Step Time =    1.000,"PART-1-1",           723,      -8.78100,      -23.2553,            0.,NA,NA,"",   177.816E-03,   176.243E-03,   23.6061E-03,   5.79186E-03
C:/temp/dataset/0/10_21.odb,Step-1,Increment      1: Step Time =    1.000,"PART-1-1",           724,      -11.0900,      -14.4409,            0.,NA,NA,"",       1.23402,       1.19063,   324.390E-03,   26.4685E-03
C:/temp/dataset/0/10_21.odb,Step-1,Increment      1: Step Time =    1.000,"PART-1-1",           725,      -11.1215,      -11.4552,            0.,NA,NA,"",       1.77762,       1.74588,   334.392E-03,   23.7785E-03
C:/temp/dataset/0/10_21.odb,Step-1,Increment      1: Step Time =    1.000,"PART-1-1",           726,      -11.1359,      -8.44257,            0.,NA,NA,"",       2.39906,       2.37756,   320.467E-03,   21.5945E-03
C:/temp/dataset/0/10_21.odb,Step-1,Increment      1: Step Time =    1.000,"PART-1-1",           727,      -11.1177,       9.73479,            0.,NA,NA,"",       6.79612,       6.79587,  -58.2008E-03,   13.6048E-03
C:/temp/dataset/0/10_21.odb,Step-1,Increment      1: Step Time =    1.000,"PART-1-1",           728,      -11.1376,       6.69211,            0.,NA,NA,"",       6.06085,       6.06081,   22.7314E-03,   13.9570E-03
C:/temp/dataset/0/10_21.odb,Step-1,Increment      1: Step Time =    1.000,"PART-1-1",           729,      -11.1470,       3.65829,            0.,NA,NA,"",       5.30693,       5.30597,   101.183E-03,   14.7998E-03
C:/temp/dataset/0/10_21.odb,Step-1,Increment      1: Step Time =    1.000,"PART-1-1",           730,           -5.,      -15.3846,            0.,NA,NA,"",       1.14525,   998.680E-03,  -560.561E-03,   49.7646E-03
C:/temp/dataset/0/10_21.odb,Step-1,Increment      1: Step Time =    1.000,"PART-1-1",           731,      -11.1521,   627.191E-03,            0.,NA,NA,"",       4.54837,       4.54503,   174.237E-03,   16.0708E-03
C:/temp/dataset/0/10_21.odb,Step-1,Increment      1: Step Time =    1.000,"PART-1-1",           732,      -11.1477,      -2.39557,            0.,NA,NA,"",       3.80153,       3.79416,   236.584E-03,   17.6654E-03
C:/temp/dataset/0/10_21.odb,Step-1,Increment      1: Step Time =    1.000,"PART-1-1",           733,      -11.1389,      -5.41444,            0.,NA,NA,"",       3.08069,       3.06741,   285.700E-03,   19.5017E-03
