ODB Name,Step,Frame,Part Instance Name,    êﬂì_ÉâÉxÉã,X,Y,Z,Section Name,Material Name,Section Point,   U-Magnitude,          U-U1,          U-U2,       S-Mises
C:/temp/dataset/0/13_12.odb,Step-1,Increment      1: Step Time =    1.000,"PART-1-1",             1,            5.,           20.,            0.,NA,NA,"",   356.231E-03,   175.574E-03,  -309.959E-03,   13.6418E-03
C:/temp/dataset/0/13_12.odb,Step-1,Increment      1: Step Time =    1.000,"PART-1-1",             2,            0.,           20.,            0.,NA,NA,"",   333.090E-03,   110.026E-03,  -314.393E-03,   12.7538E-03
C:/temp/dataset/0/13_12.odb,Step-1,Increment      1: Step Time =    1.000,"PART-1-1",             3,            5.,           10.,            0.,NA,NA,"",   291.804E-03,   203.869E-03,  -208.775E-03,   9.45156E-03
C:/temp/dataset/0/13_12.odb,Step-1,Increment      1: Step Time =    1.000,"PART-1-1",             4,            5.,            0.,            0.,NA,NA,"",   209.199E-03,   162.990E-03,  -131.144E-03,   7.80075E-03
C:/temp/dataset/0/13_12.odb,Step-1,Increment      1: Step Time =    1.000,"PART-1-1",             5,            5.,          -10.,            0.,NA,NA,"",   114.144E-03,   91.0781E-03,  -68.8022E-03,   6.02136E-03
C:/temp/dataset/0/13_12.odb,Step-1,Increment      1: Step Time =    1.000,"PART-1-1",             6,            5.,          -20.,            0.,NA,NA,"",   26.9666E-03,   17.8906E-03,  -20.1774E-03,   4.20138E-03
C:/temp/dataset/0/13_12.odb,Step-1,Increment      1: Step Time =    1.000,"PART-1-1",             7,            0.,          -20.,            0.,NA,NA,"",   4.42608E-03,   3.75644E-03,  -2.34079E-03,   2.55911E-03
C:/temp/dataset/0/13_12.odb,Step-1,Increment      1: Step Time =    1.000,"PART-1-1",             8,           -5.,          -20.,            0.,NA,NA,"",   12.0166E-03,  -7.48116E-03,  -9.40376E-03,   2.47576E-03
C:/temp/dataset/0/13_12.odb,Step-1,Increment      1: Step Time =    1.000,"PART-1-1",             9,           -5.,           20.,            0.,NA,NA,"",   221.574E-03,   74.9632E-03,  -208.508E-03,   9.75781E-03
C:/temp/dataset/0/13_12.odb,Step-1,Increment      1: Step Time =    1.000,"PART-1-1",            10,           15.,           30.,            0.,NA,NA,"",   282.393E-03,   142.526E-03,  -243.788E-03,   28.6605E-06
C:/temp/dataset/0/13_12.odb,Step-1,Increment      1: Step Time =    1.000,"PART-1-1",            11,           7.5,           30.,            0.,NA,NA,"",   372.383E-03,   141.737E-03,  -344.354E-03,   8.22154E-03
C:/temp/dataset/0/13_12.odb,Step-1,Increment      1: Step Time =    1.000,"PART-1-1",            12,            0.,           30.,            0.,NA,NA,"",   401.233E-03,   209.845E-03,  -341.984E-03,   10.4821E-03
C:/temp/dataset/0/13_12.odb,Step-1,Increment      1: Step Time =    1.000,"PART-1-1",            13,          -15.,           30.,            0.,NA,NA,"",   237.778E-03,   233.200E-03,  -46.4311E-03,   22.9842E-06
C:/temp/dataset/0/13_12.odb,Step-1,Increment      1: Step Time =    1.000,"PART-1-1",            14,          -15.,          -30.,            0.,NA,NA,"",            0.,  -1.94897E-39,  -3.36520E-39,   5.31936E-03
C:/temp/dataset/0/13_12.odb,Step-1,Increment      1: Step Time =    1.000,"PART-1-1",            15,           15.,          -30.,            0.,NA,NA,"",            0.,   4.02576E-39,  -7.24458E-39,   11.8789E-03
C:/temp/dataset/0/13_12.odb,Step-1,Increment      1: Step Time =    1.000,"PART-1-1",            16,           15.,         -22.5,            0.,NA,NA,"",   67.1452E-03,   34.5219E-03,  -57.5910E-03,   8.28256E-03
C:/temp/dataset/0/13_12.odb,Step-1,Increment      1: Step Time =    1.000,"PART-1-1",            17,           15.,          -15.,            0.,NA,NA,"",   136.236E-03,   80.3735E-03,  -110.002E-03,   7.05628E-03
C:/temp/dataset/0/13_12.odb,Step-1,Increment      1: Step Time =    1.000,"PART-1-1",            18,           15.,          -7.5,            0.,NA,NA,"",   205.541E-03,   137.330E-03,  -152.930E-03,   5.65334E-03
C:/temp/dataset/0/13_12.odb,Step-1,Increment      1: Step Time =    1.000,"PART-1-1",            19,           15.,            0.,            0.,NA,NA,"",   266.519E-03,   190.174E-03,  -186.725E-03,   4.33966E-03
C:/temp/dataset/0/13_12.odb,Step-1,Increment      1: Step Time =    1.000,"PART-1-1",            20,           15.,           7.5,            0.,NA,NA,"",   309.229E-03,   225.445E-03,  -211.653E-03,   3.06690E-03
C:/temp/dataset/0/13_12.odb,Step-1,Increment      1: Step Time =    1.000,"PART-1-1",            21,           15.,           15.,            0.,NA,NA,"",   324.458E-03,   230.051E-03,  -228.801E-03,   2.18762E-03
C:/temp/dataset/0/13_12.odb,Step-1,Increment      1: Step Time =    1.000,"PART-1-1",            22,           15.,          22.5,            0.,NA,NA,"",   314.929E-03,   200.401E-03,  -242.940E-03,   1.42178E-03
C:/temp/dataset/0/13_12.odb,Step-1,Increment      1: Step Time =    1.000,"PART-1-1",            23,       3.33333,           20.,            0.,NA,NA,"",   364.466E-03,   153.067E-03,  -330.766E-03,   14.4628E-03
C:/temp/dataset/0/13_12.odb,Step-1,Increment      1: Step Time =    1.000,"PART-1-1",            24,       1.66667,           20.,            0.,NA,NA,"",   354.342E-03,   130.635E-03,  -329.382E-03,   14.3826E-03
C:/temp/dataset/0/13_12.odb,Step-1,Increment      1: Step Time =    1.000,"PART-1-1",            25,            5.,       13.3333,            0.,NA,NA,"",   314.564E-03,   205.435E-03,  -238.216E-03,   10.1046E-03
C:/temp/dataset/0/13_12.odb,Step-1,Increment      1: Step Time =    1.000,"PART-1-1",            26,            5.,       16.6667,            0.,NA,NA,"",   334.924E-03,   199.438E-03,  -269.071E-03,   11.2058E-03
C:/temp/dataset/0/13_12.odb,Step-1,Increment      1: Step Time =    1.000,"PART-1-1",            27,            5.,       3.33333,            0.,NA,NA,"",   238.985E-03,   181.573E-03,  -155.387E-03,   8.36831E-03
C:/temp/dataset/0/13_12.odb,Step-1,Increment      1: Step Time =    1.000,"PART-1-1",            28,            5.,       6.66667,            0.,NA,NA,"",   266.661E-03,   195.545E-03,  -181.301E-03,   8.91533E-03
C:/temp/dataset/0/13_12.odb,Step-1,Increment      1: Step Time =    1.000,"PART-1-1",            29,            5.,      -6.66667,            0.,NA,NA,"",   145.943E-03,   116.559E-03,  -87.8258E-03,   6.62811E-03
C:/temp/dataset/0/13_12.odb,Step-1,Increment      1: Step Time =    1.000,"PART-1-1",            30,            5.,      -3.33333,            0.,NA,NA,"",   177.914E-03,   140.925E-03,  -108.598E-03,   7.22501E-03
C:/temp/dataset/0/13_12.odb,Step-1,Increment      1: Step Time =    1.000,"PART-1-1",            31,            5.,      -16.6667,            0.,NA,NA,"",   54.9909E-03,   41.5890E-03,  -35.9772E-03,   5.01555E-03
C:/temp/dataset/0/13_12.odb,Step-1,Increment      1: Step Time =    1.000,"PART-1-1",            32,            5.,      -13.3333,            0.,NA,NA,"",   83.4439E-03,   65.6712E-03,  -51.4798E-03,   5.45638E-03
C:/temp/dataset/0/13_12.odb,Step-1,Increment      1: Step Time =    1.000,"PART-1-1",            33,           2.5,          -20.,            0.,NA,NA,"",   11.5877E-03,   9.95677E-03,  -5.92764E-03,   3.14125E-03
C:/temp/dataset/0/13_12.odb,Step-1,Increment      1: Step Time =    1.000,"PART-1-1",            34,          -2.5,          -20.,            0.,NA,NA,"",   3.36462E-03,  -1.65910E-03,  -2.92712E-03,   2.37129E-03
C:/temp/dataset/0/13_12.odb,Step-1,Increment      1: Step Time =    1.000,"PART-1-1",            35,           -5.,       16.9231,            0.,NA,NA,"",   181.601E-03,   35.4439E-03,  -178.108E-03,   8.13339E-03
C:/temp/dataset/0/13_12.odb,Step-1,Increment      1: Step Time =    1.000,"PART-1-1",            36,           -5.,       13.8462,            0.,NA,NA,"",   157.532E-03,   4.64858E-03,  -157.463E-03,   7.31434E-03
C:/temp/dataset/0/13_12.odb,Step-1,Increment      1: Step Time =    1.000,"PART-1-1",            37,           -5.,       10.7692,            0.,NA,NA,"",   138.873E-03,  -19.5007E-03,  -137.497E-03,   6.90054E-03
C:/temp/dataset/0/13_12.odb,Step-1,Increment      1: Step Time =    1.000,"PART-1-1",            38,           -5.,       7.69231,            0.,NA,NA,"",   124.597E-03,  -36.8704E-03,  -119.016E-03,   6.45646E-03
C:/temp/dataset/0/13_12.odb,Step-1,Increment      1: Step Time =    1.000,"PART-1-1",            39,           -5.,       4.61538,            0.,NA,NA,"",   112.523E-03,  -48.0791E-03,  -101.734E-03,   6.01259E-03
C:/temp/dataset/0/13_12.odb,Step-1,Increment      1: Step Time =    1.000,"PART-1-1",            40,           -5.,       1.53846,            0.,NA,NA,"",   101.243E-03,  -53.8468E-03,  -85.7361E-03,   5.54964E-03
C:/temp/dataset/0/13_12.odb,Step-1,Increment      1: Step Time =    1.000,"PART-1-1",            41,           -5.,      -1.53846,            0.,NA,NA,"",   89.8063E-03,  -54.9512E-03,  -71.0319E-03,   5.07861E-03
C:/temp/dataset/0/13_12.odb,Step-1,Increment      1: Step Time =    1.000,"PART-1-1",            42,           -5.,      -4.61538,            0.,NA,NA,"",   77.7606E-03,  -52.1932E-03,  -57.6419E-03,   4.60025E-03
C:/temp/dataset/0/13_12.odb,Step-1,Increment      1: Step Time =    1.000,"PART-1-1",            43,           -5.,      -7.69231,            0.,NA,NA,"",   65.0299E-03,  -46.3867E-03,  -45.5759E-03,   4.11633E-03
C:/temp/dataset/0/13_12.odb,Step-1,Increment      1: Step Time =    1.000,"PART-1-1",            44,           -5.,      -10.7692,            0.,NA,NA,"",   51.8273E-03,  -38.3621E-03,  -34.8486E-03,   3.63501E-03
C:/temp/dataset/0/13_12.odb,Step-1,Increment      1: Step Time =    1.000,"PART-1-1",            45,           -5.,      -13.8462,            0.,NA,NA,"",   38.4944E-03,  -28.9264E-03,  -25.3985E-03,   3.16835E-03
C:/temp/dataset/0/13_12.odb,Step-1,Increment      1: Step Time =    1.000,"PART-1-1",            46,           -5.,      -16.9231,            0.,NA,NA,"",   25.5703E-03,  -18.8603E-03,  -17.2665E-03,   2.78765E-03
C:/temp/dataset/0/13_12.odb,Step-1,Increment      1: Step Time =    1.000,"PART-1-1",            47,          -2.5,           20.,            0.,NA,NA,"",   286.448E-03,   86.1721E-03,  -273.179E-03,   8.71147E-03
C:/temp/dataset/0/13_12.odb,Step-1,Increment      1: Step Time =    1.000,"PART-1-1",            48,        13.125,           30.,            0.,NA,NA,"",   297.655E-03,   142.388E-03,  -261.389E-03,   406.124E-06
C:/temp/dataset/0/13_12.odb,Step-1,Increment      1: Step Time =    1.000,"PART-1-1",            49,         11.25,           30.,            0.,NA,NA,"",   314.405E-03,   141.382E-03,  -280.823E-03,   559.831E-06
C:/temp/dataset/0/13_12.odb,Step-1,Increment      1: Step Time =    1.000,"PART-1-1",            50,         9.375,           30.,            0.,NA,NA,"",   336.235E-03,   140.965E-03,  -305.259E-03,   2.12026E-03
C:/temp/dataset/0/13_12.odb,Step-1,Increment      1: Step Time =    1.000,"PART-1-1",            51,            5.,           30.,            0.,NA,NA,"",   416.868E-03,   160.806E-03,  -384.604E-03,   14.4774E-03
C:/temp/dataset/0/13_12.odb,Step-1,Increment      1: Step Time =    1.000,"PART-1-1",            52,           2.5,           30.,            0.,NA,NA,"",   426.229E-03,   183.164E-03,  -384.867E-03,   16.0212E-03
C:/temp/dataset/0/13_12.odb,Step-1,Increment      1: Step Time =    1.000,"PART-1-1",            53,           -3.,           30.,            0.,NA,NA,"",   351.022E-03,   224.059E-03,  -270.211E-03,   4.33357E-03
C:/temp/dataset/0/13_12.odb,Step-1,Increment      1: Step Time =    1.000,"PART-1-1",            54,           -6.,           30.,            0.,NA,NA,"",   312.573E-03,   232.146E-03,  -209.309E-03,   1.26309E-03
C:/temp/dataset/0/13_12.odb,Step-1,Increment      1: Step Time =    1.000,"PART-1-1",            55,           -9.,           30.,            0.,NA,NA,"",   278.412E-03,   233.444E-03,  -151.713E-03,   208.869E-06
C:/temp/dataset/0/13_12.odb,Step-1,Increment      1: Step Time =    1.000,"PART-1-1",            56,          -12.,           30.,            0.,NA,NA,"",   252.880E-03,   233.009E-03,  -98.2607E-03,   260.383E-06
C:/temp/dataset/0/13_12.odb,Step-1,Increment      1: Step Time =    1.000,"PART-1-1",            57,          -15.,           27.,            0.,NA,NA,"",   187.008E-03,   181.203E-03,  -46.2307E-03,   270.925E-06
C:/temp/dataset/0/13_12.odb,Step-1,Increment      1: Step Time =    1.000,"PART-1-1",            58,          -15.,           24.,            0.,NA,NA,"",   138.441E-03,   130.178E-03,  -47.1127E-03,   717.650E-06
C:/temp/dataset/0/13_12.odb,Step-1,Increment      1: Step Time =    1.000,"PART-1-1",            59,          -15.,           21.,            0.,NA,NA,"",   95.8532E-03,   82.1351E-03,  -49.4130E-03,   1.30579E-03
C:/temp/dataset/0/13_12.odb,Step-1,Increment      1: Step Time =    1.000,"PART-1-1",            60,          -15.,           18.,            0.,NA,NA,"",   66.4229E-03,   39.5177E-03,  -53.3886E-03,   1.77547E-03
C:/temp/dataset/0/13_12.odb,Step-1,Increment      1: Step Time =    1.000,"PART-1-1",            61,          -15.,           15.,            0.,NA,NA,"",   58.3501E-03,   4.42594E-03,  -58.1820E-03,   1.81251E-03
C:/temp/dataset/0/13_12.odb,Step-1,Increment      1: Step Time =    1.000,"PART-1-1",            62,          -15.,           12.,            0.,NA,NA,"",   66.5554E-03,  -22.7387E-03,  -62.5505E-03,   1.49390E-03
C:/temp/dataset/0/13_12.odb,Step-1,Increment      1: Step Time =    1.000,"PART-1-1",            63,          -15.,            9.,            0.,NA,NA,"",   78.5374E-03,  -42.7005E-03,  -65.9151E-03,   1.06495E-03
C:/temp/dataset/0/13_12.odb,Step-1,Increment      1: Step Time =    1.000,"PART-1-1",            64,          -15.,            6.,            0.,NA,NA,"",   88.3822E-03,  -56.3103E-03,  -68.1216E-03,   613.184E-06
C:/temp/dataset/0/13_12.odb,Step-1,Increment      1: Step Time =    1.000,"PART-1-1",            65,          -15.,            3.,            0.,NA,NA,"",   94.4524E-03,  -64.3541E-03,  -69.1361E-03,   162.282E-06
C:/temp/dataset/0/13_12.odb,Step-1,Increment      1: Step Time =    1.000,"PART-1-1",            66,          -15.,            0.,            0.,NA,NA,"",   96.5310E-03,  -67.5763E-03,  -68.9324E-03,   300.408E-06
C:/temp/dataset/0/13_12.odb,Step-1,Increment      1: Step Time =    1.000,"PART-1-1",            67,          -15.,           -3.,            0.,NA,NA,"",   94.9043E-03,  -66.7246E-03,  -67.4882E-03,   763.404E-06
C:/temp/dataset/0/13_12.odb,Step-1,Increment      1: Step Time =    1.000,"PART-1-1",            68,          -15.,           -6.,            0.,NA,NA,"",   90.0542E-03,  -62.5531E-03,  -64.7833E-03,   1.23235E-03
C:/temp/dataset/0/13_12.odb,Step-1,Increment      1: Step Time =    1.000,"PART-1-1",            69,          -15.,           -9.,            0.,NA,NA,"",   82.5404E-03,  -55.8221E-03,  -60.8015E-03,   1.70746E-03
C:/temp/dataset/0/13_12.odb,Step-1,Increment      1: Step Time =    1.000,"PART-1-1",            70,          -15.,          -12.,            0.,NA,NA,"",   72.9370E-03,  -47.2970E-03,  -55.5230E-03,   2.19307E-03
C:/temp/dataset/0/13_12.odb,Step-1,Increment      1: Step Time =    1.000,"PART-1-1",            71,          -15.,          -15.,            0.,NA,NA,"",   61.7915E-03,  -37.7765E-03,  -48.8992E-03,   2.70532E-03
C:/temp/dataset/0/13_12.odb,Step-1,Increment      1: Step Time =    1.000,"PART-1-1",            72,          -15.,          -18.,            0.,NA,NA,"",   49.6362E-03,  -28.1629E-03,  -40.8730E-03,   3.22833E-03
C:/temp/dataset/0/13_12.odb,Step-1,Increment      1: Step Time =    1.000,"PART-1-1",            73,          -15.,          -21.,            0.,NA,NA,"",   37.0917E-03,  -19.5859E-03,  -31.4989E-03,   3.65789E-03
C:/temp/dataset/0/13_12.odb,Step-1,Increment      1: Step Time =    1.000,"PART-1-1",            74,          -15.,          -24.,            0.,NA,NA,"",   24.9224E-03,  -12.8464E-03,  -21.3563E-03,   3.76298E-03
C:/temp/dataset/0/13_12.odb,Step-1,Increment      1: Step Time =    1.000,"PART-1-1",            75,          -15.,          -27.,            0.,NA,NA,"",   13.6403E-03,  -7.66171E-03,  -11.2853E-03,   4.00863E-03
C:/temp/dataset/0/13_12.odb,Step-1,Increment      1: Step Time =    1.000,"PART-1-1",            76,          -12.,          -30.,            0.,NA,NA,"",            0.,  -3.11728E-39,  -7.70841E-39,   2.31258E-03
C:/temp/dataset/0/13_12.odb,Step-1,Increment      1: Step Time =    1.000,"PART-1-1",            77,           -9.,          -30.,            0.,NA,NA,"",            0.,   2.34459E-39,  -5.06719E-39,   1.76885E-03
C:/temp/dataset/0/13_12.odb,Step-1,Increment      1: Step Time =    1.000,"PART-1-1",            78,           -6.,          -30.,            0.,NA,NA,"",            0.,  -178.712E-42,  -2.52129E-39,   1.13447E-03
C:/temp/dataset/0/13_12.odb,Step-1,Increment      1: Step Time =    1.000,"PART-1-1",            79,           -3.,          -30.,            0.,NA,NA,"",            0.,   897.059E-42,  -1.64641E-39,   560.070E-06
C:/temp/dataset/0/13_12.odb,Step-1,Increment      1: Step Time =    1.000,"PART-1-1",            80,            0.,          -30.,            0.,NA,NA,"",            0.,   4.09319E-42,  -1.04550E-39,   583.819E-06
C:/temp/dataset/0/13_12.odb,Step-1,Increment      1: Step Time =    1.000,"PART-1-1",            81,            3.,          -30.,            0.,NA,NA,"",            0.,  -3.12590E-39,  -4.20703E-39,   1.46736E-03
C:/temp/dataset/0/13_12.odb,Step-1,Increment      1: Step Time =    1.000,"PART-1-1",            82,            6.,          -30.,            0.,NA,NA,"",            0.,  -4.18755E-39,  -7.60615E-39,   2.56881E-03
C:/temp/dataset/0/13_12.odb,Step-1,Increment      1: Step Time =    1.000,"PART-1-1",            83,            9.,          -30.,            0.,NA,NA,"",            0.,  -4.03600E-39,  -10.2846E-39,   3.94043E-03
C:/temp/dataset/0/13_12.odb,Step-1,Increment      1: Step Time =    1.000,"PART-1-1",            84,           12.,          -30.,            0.,NA,NA,"",            0.,   5.81212E-39,  -16.7339E-39,   5.00335E-03
C:/temp/dataset/0/13_12.odb,Step-1,Increment      1: Step Time =    1.000,"PART-1-1",            85,           15.,         -27.5,            0.,NA,NA,"",   26.0499E-03,   15.3258E-03,  -21.0645E-03,   8.85235E-03
C:/temp/dataset/0/13_12.odb,Step-1,Increment      1: Step Time =    1.000,"PART-1-1",            86,           15.,          -25.,            0.,NA,NA,"",   46.0029E-03,   24.2930E-03,  -39.0655E-03,   8.09327E-03
C:/temp/dataset/0/13_12.odb,Step-1,Increment      1: Step Time =    1.000,"PART-1-1",            87,           15.,          -20.,            0.,NA,NA,"",   89.5443E-03,   47.4005E-03,  -75.9695E-03,   8.00748E-03
C:/temp/dataset/0/13_12.odb,Step-1,Increment      1: Step Time =    1.000,"PART-1-1",            88,           15.,         -17.5,            0.,NA,NA,"",   112.738E-03,   62.9353E-03,  -93.5361E-03,   7.56728E-03
C:/temp/dataset/0/13_12.odb,Step-1,Increment      1: Step Time =    1.000,"PART-1-1",            89,           15.,         -12.5,            0.,NA,NA,"",   159.716E-03,   98.9725E-03,  -125.354E-03,   6.56842E-03
C:/temp/dataset/0/13_12.odb,Step-1,Increment      1: Step Time =    1.000,"PART-1-1",            90,           15.,          -10.,            0.,NA,NA,"",   182.914E-03,   118.131E-03,  -139.651E-03,   6.10393E-03
C:/temp/dataset/0/13_12.odb,Step-1,Increment      1: Step Time =    1.000,"PART-1-1",            91,           15.,           -5.,            0.,NA,NA,"",   227.264E-03,   156.071E-03,  -165.200E-03,   5.21122E-03
C:/temp/dataset/0/13_12.odb,Step-1,Increment      1: Step Time =    1.000,"PART-1-1",            92,           15.,          -2.5,            0.,NA,NA,"",   247.719E-03,   173.854E-03,  -176.464E-03,   4.77282E-03
C:/temp/dataset/0/13_12.odb,Step-1,Increment      1: Step Time =    1.000,"PART-1-1",            93,           15.,           2.5,            0.,NA,NA,"",   283.288E-03,   204.539E-03,  -195.999E-03,   3.90784E-03
C:/temp/dataset/0/13_12.odb,Step-1,Increment      1: Step Time =    1.000,"PART-1-1",            94,           15.,            5.,            0.,NA,NA,"",   297.647E-03,   216.460E-03,  -204.301E-03,   3.48142E-03
C:/temp/dataset/0/13_12.odb,Step-1,Increment      1: Step Time =    1.000,"PART-1-1",            95,           15.,           10.,            0.,NA,NA,"",   317.693E-03,   231.004E-03,  -218.096E-03,   2.67740E-03
C:/temp/dataset/0/13_12.odb,Step-1,Increment      1: Step Time =    1.000,"PART-1-1",            96,           15.,          12.5,            0.,NA,NA,"",   322.781E-03,   232.661E-03,  -223.734E-03,   2.36402E-03
C:/temp/dataset/0/13_12.odb,Step-1,Increment      1: Step Time =    1.000,"PART-1-1",            97,           15.,          17.5,            0.,NA,NA,"",   323.165E-03,   223.198E-03,  -233.705E-03,   2.20103E-03
C:/temp/dataset/0/13_12.odb,Step-1,Increment      1: Step Time =    1.000,"PART-1-1",            98,           15.,           20.,            0.,NA,NA,"",   319.865E-03,   212.943E-03,  -238.681E-03,   2.11382E-03
C:/temp/dataset/0/13_12.odb,Step-1,Increment      1: Step Time =    1.000,"PART-1-1",            99,           15.,           25.,            0.,NA,NA,"",   307.037E-03,   185.285E-03,  -244.829E-03,   146.375E-06
C:/temp/dataset/0/13_12.odb,Step-1,Increment      1: Step Time =    1.000,"PART-1-1",           100,           15.,          27.5,            0.,NA,NA,"",   295.152E-03,   165.736E-03,  -244.226E-03,   456.035E-06
C:/temp/dataset/0/13_12.odb,Step-1,Increment      1: Step Time =    1.000,"PART-1-1",           101,       3.77421,       21.6807,            0.,NA,NA,"",   370.954E-03,   152.701E-03,  -338.066E-03,   8.39017E-03
C:/temp/dataset/0/13_12.odb,Step-1,Increment      1: Step Time =    1.000,"PART-1-1",           102,   339.763E-03,       22.0764,            0.,NA,NA,"",   353.284E-03,   132.014E-03,  -327.692E-03,   6.81809E-03
C:/temp/dataset/0/13_12.odb,Step-1,Increment      1: Step Time =    1.000,"PART-1-1",           103,       2.04677,       21.7082,            0.,NA,NA,"",   367.903E-03,   140.871E-03,  -339.864E-03,   7.74449E-03
C:/temp/dataset/0/13_12.odb,Step-1,Increment      1: Step Time =    1.000,"PART-1-1",           104,       11.0234,       27.4901,            0.,NA,NA,"",   328.844E-03,   167.021E-03,  -283.271E-03,   2.56694E-03
C:/temp/dataset/0/13_12.odb,Step-1,Increment      1: Step Time =    1.000,"PART-1-1",           105,       8.98111,       27.5559,            0.,NA,NA,"",   354.305E-03,   169.184E-03,  -311.302E-03,   7.23735E-03
C:/temp/dataset/0/13_12.odb,Step-1,Increment      1: Step Time =    1.000,"PART-1-1",           106,      -4.39315,       22.5924,            0.,NA,NA,"",   266.562E-03,   120.295E-03,  -237.874E-03,   8.79602E-03
C:/temp/dataset/0/13_12.odb,Step-1,Increment      1: Step Time =    1.000,"PART-1-1",           107,       12.7609,      -22.7550,            0.,NA,NA,"",   52.4713E-03,   25.5032E-03,  -45.8565E-03,   7.27722E-03
C:/temp/dataset/0/13_12.odb,Step-1,Increment      1: Step Time =    1.000,"PART-1-1",           108,       12.5528,      -15.2766,            0.,NA,NA,"",   115.797E-03,   70.8892E-03,  -91.5618E-03,   6.59699E-03
C:/temp/dataset/0/13_12.odb,Step-1,Increment      1: Step Time =    1.000,"PART-1-1",           109,       12.2205,       7.28465,            0.,NA,NA,"",   299.714E-03,   219.894E-03,  -203.655E-03,   4.79238E-03
C:/temp/dataset/0/13_12.odb,Step-1,Increment      1: Step Time =    1.000,"PART-1-1",           110,       12.4622,       15.2934,            0.,NA,NA,"",   326.059E-03,   225.958E-03,  -235.068E-03,   3.99225E-03
C:/temp/dataset/0/13_12.odb,Step-1,Increment      1: Step Time =    1.000,"PART-1-1",           111,       12.8846,       22.6339,            0.,NA,NA,"",   324.046E-03,   197.685E-03,  -256.761E-03,   3.13096E-03
C:/temp/dataset/0/13_12.odb,Step-1,Increment      1: Step Time =    1.000,"PART-1-1",           112,  -340.860E-03,      -22.2697,            0.,NA,NA,"",   1.77547E-03,   1.71012E-03,  -477.244E-06,   887.483E-06
C:/temp/dataset/0/13_12.odb,Step-1,Increment      1: Step Time =    1.000,"PART-1-1",           113,       6.83628,       27.6500,            0.,NA,NA,"",   387.463E-03,   169.422E-03,  -348.460E-03,   11.9327E-03
C:/temp/dataset/0/13_12.odb,Step-1,Increment      1: Step Time =    1.000,"PART-1-1",           114,       12.2535,       9.99399,            0.,NA,NA,"",   312.334E-03,   226.545E-03,  -215.011E-03,   4.56400E-03
C:/temp/dataset/0/13_12.odb,Step-1,Increment      1: Step Time =    1.000,"PART-1-1",           115,       12.4991,  -638.118E-03,            0.,NA,NA,"",   247.598E-03,   180.753E-03,  -169.213E-03,   5.29731E-03
C:/temp/dataset/0/13_12.odb,Step-1,Increment      1: Step Time =    1.000,"PART-1-1",           116,       12.8164,      -7.55827,            0.,NA,NA,"",   189.513E-03,   131.277E-03,  -136.679E-03,   5.86987E-03
C:/temp/dataset/0/13_12.odb,Step-1,Increment      1: Step Time =    1.000,"PART-1-1",           117,       12.7714,      -20.2702,            0.,NA,NA,"",   72.8817E-03,   38.2564E-03,  -62.0338E-03,   7.14555E-03
C:/temp/dataset/0/13_12.odb,Step-1,Increment      1: Step Time =    1.000,"PART-1-1",           118,      -1.80101,       22.4804,            0.,NA,NA,"",   320.864E-03,   125.948E-03,  -295.112E-03,   7.14200E-03
C:/temp/dataset/0/13_12.odb,Step-1,Increment      1: Step Time =    1.000,"PART-1-1",           119,       4.41791,       27.8041,            0.,NA,NA,"",   411.481E-03,   168.426E-03,  -375.432E-03,   10.4014E-03
C:/temp/dataset/0/13_12.odb,Step-1,Increment      1: Step Time =    1.000,"PART-1-1",           120,       2.00441,       27.9652,            0.,NA,NA,"",   408.878E-03,   170.550E-03,  -371.610E-03,   9.72193E-03
C:/temp/dataset/0/13_12.odb,Step-1,Increment      1: Step Time =    1.000,"PART-1-1",           121,      -2.69107,      -22.1951,            0.,NA,NA,"",   1.47802E-03,  -13.1242E-06,  -1.47796E-03,   786.500E-06
C:/temp/dataset/0/13_12.odb,Step-1,Increment      1: Step Time =    1.000,"PART-1-1",           122,       1.88995,      -22.5465,            0.,NA,NA,"",   3.78690E-03,   2.89577E-03,  -2.44032E-03,   571.814E-06
C:/temp/dataset/0/13_12.odb,Step-1,Increment      1: Step Time =    1.000,"PART-1-1",           123,       3.76320,      -23.2871,            0.,NA,NA,"",   7.38852E-03,   2.51890E-03,  -6.94588E-03,   1.41439E-03
C:/temp/dataset/0/13_12.odb,Step-1,Increment      1: Step Time =    1.000,"PART-1-1",           124,       12.5645,      -25.1614,            0.,NA,NA,"",   32.8977E-03,   15.2786E-03,  -29.1346E-03,   7.46297E-03
C:/temp/dataset/0/13_12.odb,Step-1,Increment      1: Step Time =    1.000,"PART-1-1",           125,       12.6631,      -17.7963,            0.,NA,NA,"",   93.7282E-03,   53.3994E-03,  -77.0291E-03,   6.86880E-03
C:/temp/dataset/0/13_12.odb,Step-1,Increment      1: Step Time =    1.000,"PART-1-1",           126,       12.5016,      -12.6810,            0.,NA,NA,"",   139.536E-03,   90.3894E-03,  -106.301E-03,   6.35177E-03
C:/temp/dataset/0/13_12.odb,Step-1,Increment      1: Step Time =    1.000,"PART-1-1",           127,       12.5761,      -10.0660,            0.,NA,NA,"",   164.560E-03,   111.018E-03,  -121.470E-03,   6.12047E-03
C:/temp/dataset/0/13_12.odb,Step-1,Increment      1: Step Time =    1.000,"PART-1-1",           128,       13.0467,      -5.23700,            0.,NA,NA,"",   212.031E-03,   149.614E-03,  -150.243E-03,   5.59421E-03
C:/temp/dataset/0/13_12.odb,Step-1,Increment      1: Step Time =    1.000,"PART-1-1",           129,       12.8236,      -2.99729,            0.,NA,NA,"",   230.052E-03,   165.444E-03,  -159.851E-03,   5.41452E-03
C:/temp/dataset/0/13_12.odb,Step-1,Increment      1: Step Time =    1.000,"PART-1-1",           130,       12.3116,       1.92449,            0.,NA,NA,"",   266.211E-03,   195.946E-03,  -180.203E-03,   5.15678E-03
C:/temp/dataset/0/13_12.odb,Step-1,Increment      1: Step Time =    1.000,"PART-1-1",           131,       12.2319,       4.58053,            0.,NA,NA,"",   284.010E-03,   209.377E-03,  -191.893E-03,   4.98968E-03
C:/temp/dataset/0/13_12.odb,Step-1,Increment      1: Step Time =    1.000,"PART-1-1",           132,       12.3276,       12.6723,            0.,NA,NA,"",   321.214E-03,   228.661E-03,  -225.593E-03,   4.28196E-03
C:/temp/dataset/0/13_12.odb,Step-1,Increment      1: Step Time =    1.000,"PART-1-1",           133,       12.6288,       17.8043,            0.,NA,NA,"",   327.265E-03,   218.948E-03,  -243.236E-03,   3.72373E-03
C:/temp/dataset/0/13_12.odb,Step-1,Increment      1: Step Time =    1.000,"PART-1-1",           134,       12.7774,       20.2190,            0.,NA,NA,"",   326.270E-03,   209.092E-03,  -250.464E-03,   3.52604E-03
C:/temp/dataset/0/13_12.odb,Step-1,Increment      1: Step Time =    1.000,"PART-1-1",           135,       2.42682,       23.0828,            0.,NA,NA,"",   376.784E-03,   147.679E-03,  -346.637E-03,   5.68497E-03
C:/temp/dataset/0/13_12.odb,Step-1,Increment      1: Step Time =    1.000,"PART-1-1",           136,       13.0358,       27.4773,            0.,NA,NA,"",   310.241E-03,   166.270E-03,  -261.923E-03,   535.016E-06
C:/temp/dataset/0/13_12.odb,Step-1,Increment      1: Step Time =    1.000,"PART-1-1",           137,       10.8553,       25.1313,            0.,NA,NA,"",   335.745E-03,   182.292E-03,  -281.947E-03,   4.88396E-03
C:/temp/dataset/0/13_12.odb,Step-1,Increment      1: Step Time =    1.000,"PART-1-1",           138,       5.66135,       21.5046,            0.,NA,NA,"",   358.073E-03,   168.354E-03,  -316.026E-03,   14.3765E-03
C:/temp/dataset/0/13_12.odb,Step-1,Increment      1: Step Time =    1.000,"PART-1-1",           139,       1.38191,       23.9574,            0.,NA,NA,"",   374.741E-03,   147.392E-03,  -344.537E-03,   5.04456E-03
C:/temp/dataset/0/13_12.odb,Step-1,Increment      1: Step Time =    1.000,"PART-1-1",           140,       8.68595,       25.2651,            0.,NA,NA,"",   357.048E-03,   178.523E-03,  -309.213E-03,   8.94507E-03
C:/temp/dataset/0/13_12.odb,Step-1,Increment      1: Step Time =    1.000,"PART-1-1",           141,       12.9664,       25.0396,            0.,NA,NA,"",   319.402E-03,   184.401E-03,  -260.795E-03,   2.22333E-03
C:/temp/dataset/0/13_12.odb,Step-1,Increment      1: Step Time =    1.000,"PART-1-1",           142,       9.99676,      -12.8506,            0.,NA,NA,"",   120.867E-03,   82.1761E-03,  -88.6335E-03,   6.09124E-03
C:/temp/dataset/0/13_12.odb,Step-1,Increment      1: Step Time =    1.000,"PART-1-1",           143,       11.3735,      -5.41139,            0.,NA,NA,"",   199.628E-03,   144.022E-03,  -138.235E-03,   5.89763E-03
C:/temp/dataset/0/13_12.odb,Step-1,Increment      1: Step Time =    1.000,"PART-1-1",           144,       9.95511,       15.6727,            0.,NA,NA,"",   328.217E-03,   219.862E-03,  -243.694E-03,   5.67052E-03
C:/temp/dataset/0/13_12.odb,Step-1,Increment      1: Step Time =    1.000,"PART-1-1",           145,       9.67875,       10.0081,            0.,NA,NA,"",   306.687E-03,   220.382E-03,  -213.281E-03,   6.28118E-03
C:/temp/dataset/0/13_12.odb,Step-1,Increment      1: Step Time =    1.000,"PART-1-1",           146,       9.74913,       1.24671,            0.,NA,NA,"",   247.978E-03,   185.515E-03,  -164.552E-03,   6.21410E-03
C:/temp/dataset/0/13_12.odb,Step-1,Increment      1: Step Time =    1.000,"PART-1-1",           147,       10.3027,      -18.1986,            0.,NA,NA,"",   75.3105E-03,   43.7453E-03,  -61.3026E-03,   6.18120E-03
C:/temp/dataset/0/13_12.odb,Step-1,Increment      1: Step Time =    1.000,"PART-1-1",           148,       1.33525,      -24.5624,            0.,NA,NA,"",   1.26203E-03,   41.2709E-06,  -1.26135E-03,   348.614E-06
C:/temp/dataset/0/13_12.odb,Step-1,Increment      1: Step Time =    1.000,"PART-1-1",           149,       9.11730,      -22.7103,            0.,NA,NA,"",   34.3815E-03,   14.5755E-03,  -31.1391E-03,   5.79043E-03
C:/temp/dataset/0/13_12.odb,Step-1,Increment      1: Step Time =    1.000,"PART-1-1",           150,       12.2648,      -27.5617,            0.,NA,NA,"",   15.1465E-03,   6.87395E-03,  -13.4969E-03,   7.14887E-03
C:/temp/dataset/0/13_12.odb,Step-1,Increment      1: Step Time =    1.000,"PART-1-1",           151,       10.6108,      -20.5371,            0.,NA,NA,"",   58.0468E-03,   29.9491E-03,  -49.7241E-03,   6.43969E-03
C:/temp/dataset/0/13_12.odb,Step-1,Increment      1: Step Time =    1.000,"PART-1-1",           152,       10.0930,      -9.97392,            0.,NA,NA,"",   148.497E-03,   105.015E-03,  -104.992E-03,   6.11131E-03
C:/temp/dataset/0/13_12.odb,Step-1,Increment      1: Step Time =    1.000,"PART-1-1",           153,       9.63546,       7.06865,            0.,NA,NA,"",   289.764E-03,   212.781E-03,  -196.691E-03,   6.31612E-03
C:/temp/dataset/0/13_12.odb,Step-1,Increment      1: Step Time =    1.000,"PART-1-1",           154,       10.2222,       18.2240,            0.,NA,NA,"",   332.106E-03,   212.011E-03,  -255.629E-03,   5.64493E-03
C:/temp/dataset/0/13_12.odb,Step-1,Increment      1: Step Time =    1.000,"PART-1-1",           155,       10.5456,      -3.97788,            0.,NA,NA,"",   207.464E-03,   152.557E-03,  -140.597E-03,   6.01985E-03
C:/temp/dataset/0/13_12.odb,Step-1,Increment      1: Step Time =    1.000,"PART-1-1",           156,       10.0733,      -15.6212,            0.,NA,NA,"",   96.1918E-03,   61.3983E-03,  -74.0480E-03,   6.05228E-03
C:/temp/dataset/0/13_12.odb,Step-1,Increment      1: Step Time =    1.000,"PART-1-1",           157,       10.5412,      -7.26051,            0.,NA,NA,"",   177.097E-03,   127.580E-03,  -122.828E-03,   6.06194E-03
C:/temp/dataset/0/13_12.odb,Step-1,Increment      1: Step Time =    1.000,"PART-1-1",           158,       9.98625,      -1.55753,            0.,NA,NA,"",   225.625E-03,   168.230E-03,  -150.350E-03,   6.12637E-03
C:/temp/dataset/0/13_12.odb,Step-1,Increment      1: Step Time =    1.000,"PART-1-1",           159,       9.65058,       4.13273,            0.,NA,NA,"",   269.810E-03,   200.789E-03,  -180.227E-03,   6.28141E-03
C:/temp/dataset/0/13_12.odb,Step-1,Increment      1: Step Time =    1.000,"PART-1-1",           160,       9.76871,       12.8936,            0.,NA,NA,"",   319.689E-03,   222.790E-03,  -229.272E-03,   6.13328E-03
C:/temp/dataset/0/13_12.odb,Step-1,Increment      1: Step Time =    1.000,"PART-1-1",           161,       10.4870,       20.5197,            0.,NA,NA,"",   334.003E-03,   202.255E-03,  -265.802E-03,   5.86182E-03
C:/temp/dataset/0/13_12.odb,Step-1,Increment      1: Step Time =    1.000,"PART-1-1",           162,       3.57821,       25.4429,            0.,NA,NA,"",   394.692E-03,   160.857E-03,  -360.426E-03,   8.57107E-03
C:/temp/dataset/0/13_12.odb,Step-1,Increment      1: Step Time =    1.000,"PART-1-1",           163,       6.34843,       25.4199,            0.,NA,NA,"",   381.081E-03,   171.171E-03,  -340.475E-03,   11.6084E-03
C:/temp/dataset/0/13_12.odb,Step-1,Increment      1: Step Time =    1.000,"PART-1-1",           164,       2.85591,      -26.4171,            0.,NA,NA,"",   2.89052E-03,  -1.58650E-03,  -2.41621E-03,   1.01268E-03
C:/temp/dataset/0/13_12.odb,Step-1,Increment      1: Step Time =    1.000,"PART-1-1",           165,  -631.401E-03,       25.1574,            0.,NA,NA,"",   355.485E-03,   151.477E-03,  -321.596E-03,   7.18702E-03
C:/temp/dataset/0/13_12.odb,Step-1,Increment      1: Step Time =    1.000,"PART-1-1",           166,  -516.865E-03,       27.6990,            0.,NA,NA,"",   371.001E-03,   173.946E-03,  -327.695E-03,   9.53008E-03
C:/temp/dataset/0/13_12.odb,Step-1,Increment      1: Step Time =    1.000,"PART-1-1",           167,      -6.99102,       22.3744,            0.,NA,NA,"",   210.446E-03,   109.702E-03,  -179.591E-03,   5.76056E-03
C:/temp/dataset/0/13_12.odb,Step-1,Increment      1: Step Time =    1.000,"PART-1-1",           168,      -5.11091,      -22.0245,            0.,NA,NA,"",   6.96200E-03,  -2.34608E-03,  -6.55480E-03,   1.89521E-03
C:/temp/dataset/0/13_12.odb,Step-1,Increment      1: Step Time =    1.000,"PART-1-1",           169,       6.75166,      -22.2774,            0.,NA,NA,"",   24.9432E-03,   10.0491E-03,  -22.8294E-03,   4.73069E-03
C:/temp/dataset/0/13_12.odb,Step-1,Increment      1: Step Time =    1.000,"PART-1-1",           170,       8.44380,       23.0750,            0.,NA,NA,"",   350.858E-03,   183.120E-03,  -299.280E-03,   9.78428E-03
C:/temp/dataset/0/13_12.odb,Step-1,Increment      1: Step Time =    1.000,"PART-1-1",           171,       3.98751,       23.4543,            0.,NA,NA,"",   380.042E-03,   156.477E-03,  -346.334E-03,   9.10652E-03
C:/temp/dataset/0/13_12.odb,Step-1,Increment      1: Step Time =    1.000,"PART-1-1",           172,       7.74283,       18.8612,            0.,NA,NA,"",   339.007E-03,   200.746E-03,  -273.179E-03,   7.52337E-03
C:/temp/dataset/0/13_12.odb,Step-1,Increment      1: Step Time =    1.000,"PART-1-1",           173,  -206.614E-03,      -27.1815,            0.,NA,NA,"",   680.302E-06,  -567.734E-06,  -374.819E-06,   670.230E-06
C:/temp/dataset/0/13_12.odb,Step-1,Increment      1: Step Time =    1.000,"PART-1-1",           174,       10.6950,       22.8157,            0.,NA,NA,"",   335.951E-03,   192.453E-03,  -275.363E-03,   5.92529E-03
C:/temp/dataset/0/13_12.odb,Step-1,Increment      1: Step Time =    1.000,"PART-1-1",           175,       1.78109,       26.2982,            0.,NA,NA,"",   393.135E-03,   160.555E-03,  -358.856E-03,   6.90588E-03
C:/temp/dataset/0/13_12.odb,Step-1,Increment      1: Step Time =    1.000,"PART-1-1",           176,       7.62536,      -9.80486,            0.,NA,NA,"",   133.686E-03,   99.6809E-03,  -89.0818E-03,   6.09988E-03
C:/temp/dataset/0/13_12.odb,Step-1,Increment      1: Step Time =    1.000,"PART-1-1",           177,       7.50504,      -2.60802,            0.,NA,NA,"",   201.204E-03,   153.842E-03,  -129.676E-03,   6.72421E-03
C:/temp/dataset/0/13_12.odb,Step-1,Increment      1: Step Time =    1.000,"PART-1-1",           178,       7.24337,       3.70501,            0.,NA,NA,"",   254.783E-03,   191.348E-03,  -168.227E-03,   7.38211E-03
C:/temp/dataset/0/13_12.odb,Step-1,Increment      1: Step Time =    1.000,"PART-1-1",           179,       7.25379,       10.0129,            0.,NA,NA,"",   300.020E-03,   212.718E-03,  -211.572E-03,   7.93164E-03
C:/temp/dataset/0/13_12.odb,Step-1,Increment      1: Step Time =    1.000,"PART-1-1",           180,       7.22962,       6.85747,            0.,NA,NA,"",   278.803E-03,   204.528E-03,  -189.472E-03,   7.67462E-03
C:/temp/dataset/0/13_12.odb,Step-1,Increment      1: Step Time =    1.000,"PART-1-1",           181,       7.49186,      -13.0485,            0.,NA,NA,"",   102.481E-03,   74.0766E-03,  -70.8172E-03,   5.79805E-03
C:/temp/dataset/0/13_12.odb,Step-1,Increment      1: Step Time =    1.000,"PART-1-1",           182,       8.10600,      -6.05436,            0.,NA,NA,"",   172.647E-03,   130.210E-03,  -113.368E-03,   6.35982E-03
C:/temp/dataset/0/13_12.odb,Step-1,Increment      1: Step Time =    1.000,"PART-1-1",           183,       7.31265,   557.236E-03,            0.,NA,NA,"",   228.623E-03,   174.122E-03,  -148.155E-03,   7.06768E-03
C:/temp/dataset/0/13_12.odb,Step-1,Increment      1: Step Time =    1.000,"PART-1-1",           184,       7.30605,       13.1330,            0.,NA,NA,"",   317.838E-03,   215.025E-03,  -234.063E-03,   8.13285E-03
C:/temp/dataset/0/13_12.odb,Step-1,Increment      1: Step Time =    1.000,"PART-1-1",           185,       8.51669,      -21.0731,            0.,NA,NA,"",   42.4594E-03,   20.9152E-03,  -36.9507E-03,   5.75828E-03
C:/temp/dataset/0/13_12.odb,Step-1,Increment      1: Step Time =    1.000,"PART-1-1",           186,       7.54046,      -16.1016,            0.,NA,NA,"",   75.8515E-03,   51.4607E-03,  -55.7247E-03,   5.44491E-03
C:/temp/dataset/0/13_12.odb,Step-1,Increment      1: Step Time =    1.000,"PART-1-1",           187,       7.81864,      -18.8426,            0.,NA,NA,"",   55.0843E-03,   32.8970E-03,  -44.1822E-03,   5.28684E-03
C:/temp/dataset/0/13_12.odb,Step-1,Increment      1: Step Time =    1.000,"PART-1-1",           188,       7.43701,       16.1533,            0.,NA,NA,"",   331.531E-03,   211.242E-03,  -255.519E-03,   8.01886E-03
C:/temp/dataset/0/13_12.odb,Step-1,Increment      1: Step Time =    1.000,"PART-1-1",           189,       8.13437,       20.9213,            0.,NA,NA,"",   343.095E-03,   189.902E-03,  -285.747E-03,   9.59783E-03
C:/temp/dataset/0/13_12.odb,Step-1,Increment      1: Step Time =    1.000,"PART-1-1",           190,       10.1795,      -24.9689,            0.,NA,NA,"",   24.7180E-03,   8.99612E-03,  -23.0228E-03,   5.94644E-03
C:/temp/dataset/0/13_12.odb,Step-1,Increment      1: Step Time =    1.000,"PART-1-1",           191,      -2.92607,      -24.6642,            0.,NA,NA,"",   1.22332E-03,   557.546E-06,  -1.08887E-03,   601.636E-06
C:/temp/dataset/0/13_12.odb,Step-1,Increment      1: Step Time =    1.000,"PART-1-1",           192,      -7.32959,       16.5303,            0.,NA,NA,"",   149.788E-03,   25.0411E-03,  -147.680E-03,   5.55979E-03
C:/temp/dataset/0/13_12.odb,Step-1,Increment      1: Step Time =    1.000,"PART-1-1",           193,      -3.80789,       25.1547,            0.,NA,NA,"",   298.069E-03,   152.398E-03,  -256.165E-03,   7.19230E-03
C:/temp/dataset/0/13_12.odb,Step-1,Increment      1: Step Time =    1.000,"PART-1-1",           194,      -7.16094,      -19.5479,            0.,NA,NA,"",   21.5889E-03,  -12.3547E-03,  -17.7042E-03,   2.70352E-03
C:/temp/dataset/0/13_12.odb,Step-1,Increment      1: Step Time =    1.000,"PART-1-1",           195,       6.10177,       23.3904,            0.,NA,NA,"",   369.011E-03,   169.095E-03,  -327.988E-03,   12.2002E-03
C:/temp/dataset/0/13_12.odb,Step-1,Increment      1: Step Time =    1.000,"PART-1-1",           196,      -3.02004,      -27.2699,            0.,NA,NA,"",   905.062E-06,   564.435E-06,  -707.496E-06,   598.626E-06
C:/temp/dataset/0/13_12.odb,Step-1,Increment      1: Step Time =    1.000,"PART-1-1",           197,      -5.46178,      -24.4382,            0.,NA,NA,"",   4.45641E-03,  -178.442E-06,  -4.45283E-03,   1.32118E-03
C:/temp/dataset/0/13_12.odb,Step-1,Increment      1: Step Time =    1.000,"PART-1-1",           198,      -9.66724,       21.9754,            0.,NA,NA,"",   163.877E-03,   98.0370E-03,  -131.318E-03,   2.26378E-03
C:/temp/dataset/0/13_12.odb,Step-1,Increment      1: Step Time =    1.000,"PART-1-1",           199,      -7.19512,      -21.6661,            0.,NA,NA,"",   14.1375E-03,  -5.96220E-03,  -12.8188E-03,   2.73110E-03
C:/temp/dataset/0/13_12.odb,Step-1,Increment      1: Step Time =    1.000,"PART-1-1",           200,      -3.42041,       27.6042,            0.,NA,NA,"",   321.797E-03,   183.584E-03,  -264.291E-03,   5.64340E-03
C:/temp/dataset/0/13_12.odb,Step-1,Increment      1: Step Time =    1.000,"PART-1-1",           201,       5.45774,      -23.9133,            0.,NA,NA,"",   12.0764E-03,   2.64188E-03,  -11.7839E-03,   2.87983E-03
C:/temp/dataset/0/13_12.odb,Step-1,Increment      1: Step Time =    1.000,"PART-1-1",           202,      -6.69209,       24.9820,            0.,NA,NA,"",   244.288E-03,   149.022E-03,  -193.569E-03,   4.42529E-03
C:/temp/dataset/0/13_12.odb,Step-1,Increment      1: Step Time =    1.000,"PART-1-1",           203,      -12.3718,      -14.6182,            0.,NA,NA,"",   55.5115E-03,  -35.8638E-03,  -42.3712E-03,   2.76829E-03
C:/temp/dataset/0/13_12.odb,Step-1,Increment      1: Step Time =    1.000,"PART-1-1",           204,      -5.91076,      -27.0963,            0.,NA,NA,"",   2.50893E-03,   777.496E-06,  -2.38543E-03,   1.09223E-03
C:/temp/dataset/0/13_12.odb,Step-1,Increment      1: Step Time =    1.000,"PART-1-1",           205,      -9.09285,      -26.5479,            0.,NA,NA,"",   5.82722E-03,  -985.075E-06,  -5.74336E-03,   2.20008E-03
C:/temp/dataset/0/13_12.odb,Step-1,Increment      1: Step Time =    1.000,"PART-1-1",           206,      -12.2958,       24.3839,            0.,NA,NA,"",   163.977E-03,   136.076E-03,  -91.4968E-03,   500.650E-06
C:/temp/dataset/0/13_12.odb,Step-1,Increment      1: Step Time =    1.000,"PART-1-1",           207,      -12.3670,       18.5668,            0.,NA,NA,"",   98.8020E-03,   45.9424E-03,  -87.4707E-03,   472.301E-06
C:/temp/dataset/0/13_12.odb,Step-1,Increment      1: Step Time =    1.000,"PART-1-1",           208,      -12.3673,       12.5421,            0.,NA,NA,"",   86.3840E-03,  -18.9596E-03,  -84.2777E-03,   873.894E-06
C:/temp/dataset/0/13_12.odb,Step-1,Increment      1: Step Time =    1.000,"PART-1-1",           209,      -12.4084,       3.45294,            0.,NA,NA,"",   98.1371E-03,  -62.8152E-03,  -75.3999E-03,   1.44921E-03
C:/temp/dataset/0/13_12.odb,Step-1,Increment      1: Step Time =    1.000,"PART-1-1",           210,      -12.4043,      -5.59421,            0.,NA,NA,"",   87.0432E-03,  -61.4178E-03,  -61.6796E-03,   2.09598E-03
C:/temp/dataset/0/13_12.odb,Step-1,Increment      1: Step Time =    1.000,"PART-1-1",           211,      -12.3838,       9.50768,            0.,NA,NA,"",   91.0267E-03,  -39.9477E-03,  -81.7927E-03,   1.07432E-03
C:/temp/dataset/0/13_12.odb,Step-1,Increment      1: Step Time =    1.000,"PART-1-1",           212,      -12.4013,       6.47621,            0.,NA,NA,"",   95.7126E-03,  -54.2920E-03,  -78.8244E-03,   1.25104E-03
C:/temp/dataset/0/13_12.odb,Step-1,Increment      1: Step Time =    1.000,"PART-1-1",           213,      -12.4173,   428.232E-03,            0.,NA,NA,"",   97.4654E-03,  -66.3338E-03,  -71.4096E-03,   1.65461E-03
C:/temp/dataset/0/13_12.odb,Step-1,Increment      1: Step Time =    1.000,"PART-1-1",           214,      -12.4160,      -2.58791,            0.,NA,NA,"",   93.6627E-03,  -65.6026E-03,  -66.8506E-03,   1.87201E-03
C:/temp/dataset/0/13_12.odb,Step-1,Increment      1: Step Time =    1.000,"PART-1-1",           215,      -12.4014,      -8.61211,            0.,NA,NA,"",   78.0677E-03,  -54.5325E-03,  -55.8638E-03,   2.31937E-03
C:/temp/dataset/0/13_12.odb,Step-1,Increment      1: Step Time =    1.000,"PART-1-1",           216,      -12.3969,      -11.6247,            0.,NA,NA,"",   67.3464E-03,  -45.7415E-03,  -49.4292E-03,   2.54410E-03
C:/temp/dataset/0/13_12.odb,Step-1,Increment      1: Step Time =    1.000,"PART-1-1",           217,      -12.3009,      -17.6498,            0.,NA,NA,"",   42.9111E-03,  -25.5474E-03,  -34.4774E-03,   3.00626E-03
C:/temp/dataset/0/13_12.odb,Step-1,Increment      1: Step Time =    1.000,"PART-1-1",           218,      -11.9370,      -20.9397,            0.,NA,NA,"",   28.8311E-03,  -15.0204E-03,  -24.6093E-03,   3.17074E-03
C:/temp/dataset/0/13_12.odb,Step-1,Increment      1: Step Time =    1.000,"PART-1-1",           219,       6.28266,      -26.4725,            0.,NA,NA,"",   7.82794E-03,  -730.912E-06,  -7.79374E-03,   2.88211E-03
C:/temp/dataset/0/13_12.odb,Step-1,Increment      1: Step Time =    1.000,"PART-1-1",           220,      -12.3616,       21.4963,            0.,NA,NA,"",   125.846E-03,   89.0479E-03,  -88.9253E-03,   699.566E-06
C:/temp/dataset/0/13_12.odb,Step-1,Increment      1: Step Time =    1.000,"PART-1-1",           221,       9.42071,      -27.3229,            0.,NA,NA,"",   10.1161E-03,   1.57377E-03,  -9.99292E-03,   4.88204E-03
C:/temp/dataset/0/13_12.odb,Step-1,Increment      1: Step Time =    1.000,"PART-1-1",           222,      -12.3680,       15.5612,            0.,NA,NA,"",   86.6182E-03,   9.41401E-03,  -86.1051E-03,   570.668E-06
C:/temp/dataset/0/13_12.odb,Step-1,Increment      1: Step Time =    1.000,"PART-1-1",           223,      -6.37126,       27.5191,            0.,NA,NA,"",   276.241E-03,   187.982E-03,  -202.415E-03,   3.01897E-03
C:/temp/dataset/0/13_12.odb,Step-1,Increment      1: Step Time =    1.000,"PART-1-1",           224,      -7.37426,       13.4489,            0.,NA,NA,"",   133.047E-03,  -5.34625E-03,  -132.939E-03,   5.21989E-03
C:/temp/dataset/0/13_12.odb,Step-1,Increment      1: Step Time =    1.000,"PART-1-1",           225,      -7.40401,       7.31385,            0.,NA,NA,"",   114.471E-03,  -44.5428E-03,  -105.450E-03,   4.70071E-03
C:/temp/dataset/0/13_12.odb,Step-1,Increment      1: Step Time =    1.000,"PART-1-1",           226,      -7.40102,      -1.84560,            0.,NA,NA,"",   91.8820E-03,  -59.7007E-03,  -69.8436E-03,   3.99384E-03
C:/temp/dataset/0/13_12.odb,Step-1,Increment      1: Step Time =    1.000,"PART-1-1",           227,      -7.36253,      -10.9851,            0.,NA,NA,"",   57.6991E-03,  -41.3611E-03,  -40.2299E-03,   3.26213E-03
C:/temp/dataset/0/13_12.odb,Step-1,Increment      1: Step Time =    1.000,"PART-1-1",           228,      -7.39657,       10.3769,            0.,NA,NA,"",   122.047E-03,  -28.3512E-03,  -118.708E-03,   4.93116E-03
C:/temp/dataset/0/13_12.odb,Step-1,Increment      1: Step Time =    1.000,"PART-1-1",           229,      -7.41369,       4.25226,            0.,NA,NA,"",   107.748E-03,  -54.6699E-03,  -92.8489E-03,   4.46016E-03
C:/temp/dataset/0/13_12.odb,Step-1,Increment      1: Step Time =    1.000,"PART-1-1",           230,      -7.41413,       1.19777,            0.,NA,NA,"",   100.474E-03,  -59.4554E-03,  -80.9948E-03,   4.22584E-03
C:/temp/dataset/0/13_12.odb,Step-1,Increment      1: Step Time =    1.000,"PART-1-1",           231,      -7.39700,      -4.89906,            0.,NA,NA,"",   81.7270E-03,  -56.2388E-03,  -59.3001E-03,   3.75223E-03
C:/temp/dataset/0/13_12.odb,Step-1,Increment      1: Step Time =    1.000,"PART-1-1",           232,      -7.39133,      -7.95434,            0.,NA,NA,"",   70.1827E-03,  -49.8381E-03,  -49.4143E-03,   3.50838E-03
C:/temp/dataset/0/13_12.odb,Step-1,Increment      1: Step Time =    1.000,"PART-1-1",           233,      -7.32483,      -13.9963,            0.,NA,NA,"",   44.8157E-03,  -31.6497E-03,  -31.7292E-03,   3.01330E-03
C:/temp/dataset/0/13_12.odb,Step-1,Increment      1: Step Time =    1.000,"PART-1-1",           234,      -9.29453,       27.3932,            0.,NA,NA,"",   237.228E-03,   187.269E-03,  -145.629E-03,   917.250E-06
C:/temp/dataset/0/13_12.odb,Step-1,Increment      1: Step Time =    1.000,"PART-1-1",           235,      -9.79647,       16.0793,            0.,NA,NA,"",   117.465E-03,   16.2206E-03,  -116.340E-03,   2.62765E-03
C:/temp/dataset/0/13_12.odb,Step-1,Increment      1: Step Time =    1.000,"PART-1-1",           236,      -10.5694,      -24.3397,            0.,NA,NA,"",   13.8005E-03,  -5.47261E-03,  -12.6690E-03,   2.91442E-03
C:/temp/dataset/0/13_12.odb,Step-1,Increment      1: Step Time =    1.000,"PART-1-1",           237,      -9.80814,      -14.2636,            0.,NA,NA,"",   50.2907E-03,  -33.9215E-03,  -37.1280E-03,   2.87592E-03
C:/temp/dataset/0/13_12.odb,Step-1,Increment      1: Step Time =    1.000,"PART-1-1",           238,      -9.84607,      -11.2856,            0.,NA,NA,"",   62.6037E-03,  -43.7859E-03,  -44.7439E-03,   2.91036E-03
C:/temp/dataset/0/13_12.odb,Step-1,Increment      1: Step Time =    1.000,"PART-1-1",           239,      -9.85160,       9.96190,            0.,NA,NA,"",   105.843E-03,  -35.1584E-03,  -99.8329E-03,   2.99389E-03
C:/temp/dataset/0/13_12.odb,Step-1,Increment      1: Step Time =    1.000,"PART-1-1",           240,      -9.42013,      -19.6871,            0.,NA,NA,"",   27.1613E-03,  -15.0155E-03,  -22.6334E-03,   2.91917E-03
C:/temp/dataset/0/13_12.odb,Step-1,Increment      1: Step Time =    1.000,"PART-1-1",           241,      -9.87385,       6.90801,            0.,NA,NA,"",   104.605E-03,  -50.3782E-03,  -91.6751E-03,   2.97308E-03
C:/temp/dataset/0/13_12.odb,Step-1,Increment      1: Step Time =    1.000,"PART-1-1",           242,      -9.72088,      -17.1529,            0.,NA,NA,"",   38.0929E-03,  -23.8654E-03,  -29.6902E-03,   2.85075E-03
C:/temp/dataset/0/13_12.odb,Step-1,Increment      1: Step Time =    1.000,"PART-1-1",           243,      -7.24385,      -16.9197,            0.,NA,NA,"",   32.3915E-03,  -21.6654E-03,  -24.0794E-03,   2.68139E-03
C:/temp/dataset/0/13_12.odb,Step-1,Increment      1: Step Time =    1.000,"PART-1-1",           244,      -9.88569,       3.86363,            0.,NA,NA,"",   102.749E-03,  -59.5966E-03,  -83.6993E-03,   2.95580E-03
C:/temp/dataset/0/13_12.odb,Step-1,Increment      1: Step Time =    1.000,"PART-1-1",           245,      -9.88680,   826.149E-03,            0.,NA,NA,"",   98.9992E-03,  -63.6251E-03,  -75.8465E-03,   2.94759E-03
C:/temp/dataset/0/13_12.odb,Step-1,Increment      1: Step Time =    1.000,"PART-1-1",           246,      -9.87953,      -2.20322,            0.,NA,NA,"",   92.9140E-03,  -63.2637E-03,  -68.0494E-03,   2.94342E-03
C:/temp/dataset/0/13_12.odb,Step-1,Increment      1: Step Time =    1.000,"PART-1-1",           247,      -9.87339,      -5.23467,            0.,NA,NA,"",   84.5510E-03,  -59.3112E-03,  -60.2583E-03,   2.93709E-03
C:/temp/dataset/0/13_12.odb,Step-1,Increment      1: Step Time =    1.000,"PART-1-1",           248,      -9.87035,      -8.27303,            0.,NA,NA,"",   74.2508E-03,  -52.5348E-03,  -52.4717E-03,   2.92649E-03
C:/temp/dataset/0/13_12.odb,Step-1,Increment      1: Step Time =    1.000,"PART-1-1",           249,      -12.1942,       27.2250,            0.,NA,NA,"",   207.268E-03,   184.597E-03,  -94.2532E-03,   270.127E-06
C:/temp/dataset/0/13_12.odb,Step-1,Increment      1: Step Time =    1.000,"PART-1-1",           250,      -12.1946,      -27.0241,            0.,NA,NA,"",   8.46905E-03,  -3.73105E-03,  -7.60290E-03,   3.30219E-03
C:/temp/dataset/0/13_12.odb,Step-1,Increment      1: Step Time =    1.000,"PART-1-1",           251,      -9.83578,       13.0151,            0.,NA,NA,"",   108.868E-03,  -13.2516E-03,  -108.059E-03,   2.95651E-03
C:/temp/dataset/0/13_12.odb,Step-1,Increment      1: Step Time =    1.000,"PART-1-1",           252,      -12.4960,      -24.1891,            0.,NA,NA,"",   18.2499E-03,  -8.50960E-03,  -16.1445E-03,   3.37747E-03
C:/temp/dataset/0/13_12.odb,Step-1,Increment      1: Step Time =    1.000,"PART-1-1",           253,      -7.26398,       19.6069,            0.,NA,NA,"",   174.790E-03,   64.3024E-03,  -162.533E-03,   4.12163E-03
C:/temp/dataset/0/13_12.odb,Step-1,Increment      1: Step Time =    1.000,"PART-1-1",           254,      -9.78845,      -22.6320,            0.,NA,NA,"",   17.5301E-03,  -7.66242E-03,  -15.7668E-03,   2.92438E-03
C:/temp/dataset/0/13_12.odb,Step-1,Increment      1: Step Time =    1.000,"PART-1-1",           255,       8.11622,      -24.1302,            0.,NA,NA,"",   21.6986E-03,   6.77662E-03,  -20.6132E-03,   4.78470E-03
C:/temp/dataset/0/13_12.odb,Step-1,Increment      1: Step Time =    1.000,"PART-1-1",           256,       10.7040,      -22.7860,            0.,NA,NA,"",   41.6384E-03,   18.8221E-03,  -37.1414E-03,   6.49589E-03
C:/temp/dataset/0/13_12.odb,Step-1,Increment      1: Step Time =    1.000,"PART-1-1",           257,      -8.82647,      -21.3553,            0.,NA,NA,"",   19.4759E-03,  -9.28890E-03,  -17.1180E-03,   2.86752E-03
C:/temp/dataset/0/13_12.odb,Step-1,Increment      1: Step Time =    1.000,"PART-1-1",           258,      -9.77631,       19.1047,            0.,NA,NA,"",   134.829E-03,   54.2813E-03,  -123.419E-03,   2.33884E-03
C:/temp/dataset/0/13_12.odb,Step-1,Increment      1: Step Time =    1.000,"PART-1-1",           259,      -7.77355,      -23.8785,            0.,NA,NA,"",   9.65960E-03,  -2.74773E-03,  -9.26055E-03,   2.25023E-03
C:/temp/dataset/0/13_12.odb,Step-1,Increment      1: Step Time =    1.000,"PART-1-1",           260,  -536.979E-03,      -24.7394,            0.,NA,NA,"",   326.982E-06,   278.379E-06,  -171.528E-06,   391.040E-06
C:/temp/dataset/0/13_12.odb,Step-1,Increment      1: Step Time =    1.000,"PART-1-1",           261,      -9.52558,       24.7102,            0.,NA,NA,"",   198.992E-03,   142.497E-03,  -138.896E-03,   1.86005E-03
C:/temp/dataset/0/13_12.odb,Step-1,Increment      1: Step Time =    1.000,"PART-1-1",           262,      -2.15050,       21.2402,            0.,NA,NA,"",   304.894E-03,   109.587E-03,  -284.519E-03,   6.60660E-03
C:/temp/dataset/0/13_12.odb,Step-1,Increment      1: Step Time =    1.000,"PART-1-1",           263,      -3.09708,       22.5364,            0.,NA,NA,"",   294.414E-03,   123.385E-03,  -267.312E-03,   7.60120E-03
C:/temp/dataset/0/13_12.odb,Step-1,Increment      1: Step Time =    1.000,"PART-1-1",           264,      -4.69657,       21.2962,            0.,NA,NA,"",   245.977E-03,   101.160E-03,  -224.213E-03,   8.22091E-03
C:/temp/dataset/0/13_12.odb,Step-1,Increment      1: Step Time =    1.000,"PART-1-1",           265,         -3.75,           20.,            0.,NA,NA,"",   258.212E-03,   78.5210E-03,  -245.984E-03,   6.02272E-03
C:/temp/dataset/0/13_12.odb,Step-1,Increment      1: Step Time =    1.000,"PART-1-1",           266,      -4.10052,       23.8735,            0.,NA,NA,"",   283.327E-03,   137.028E-03,  -247.987E-03,   7.44024E-03
C:/temp/dataset/0/13_12.odb,Step-1,Increment      1: Step Time =    1.000,"PART-1-1",           267,      -5.24999,       25.0683,            0.,NA,NA,"",   270.647E-03,   151.214E-03,  -224.464E-03,   5.70105E-03
C:/temp/dataset/0/13_12.odb,Step-1,Increment      1: Step Time =    1.000,"PART-1-1",           268,      -6.84155,       23.6782,            0.,NA,NA,"",   227.853E-03,   129.660E-03,  -187.364E-03,   4.88985E-03
C:/temp/dataset/0/13_12.odb,Step-1,Increment      1: Step Time =    1.000,"PART-1-1",           269,      -5.69208,       22.4834,            0.,NA,NA,"",   236.978E-03,   115.054E-03,  -207.174E-03,   7.29005E-03
C:/temp/dataset/0/13_12.odb,Step-1,Increment      1: Step Time =    1.000,"PART-1-1",           270,      -7.35192,       14.9896,            0.,NA,NA,"",   140.571E-03,   8.77641E-03,  -140.297E-03,   5.30588E-03
C:/temp/dataset/0/13_12.odb,Step-1,Increment      1: Step Time =    1.000,"PART-1-1",           271,      -8.56303,       16.3048,            0.,NA,NA,"",   133.311E-03,   20.2460E-03,  -131.764E-03,   4.08882E-03
C:/temp/dataset/0/13_12.odb,Step-1,Increment      1: Step Time =    1.000,"PART-1-1",           272,      -9.81613,       14.5472,            0.,NA,NA,"",   112.249E-03,   565.825E-06,  -112.248E-03,   2.86480E-03
C:/temp/dataset/0/13_12.odb,Step-1,Increment      1: Step Time =    1.000,"PART-1-1",           273,      -8.60502,       13.2320,            0.,NA,NA,"",   120.684E-03,  -9.61428E-03,  -120.300E-03,   4.05591E-03
C:/temp/dataset/0/13_12.odb,Step-1,Increment      1: Step Time =    1.000,"PART-1-1",           274,          -15.,         -16.5,            0.,NA,NA,"",   55.8017E-03,  -32.9180E-03,  -45.0582E-03,   2.96342E-03
C:/temp/dataset/0/13_12.odb,Step-1,Increment      1: Step Time =    1.000,"PART-1-1",           275,      -13.6504,      -17.8249,            0.,NA,NA,"",   46.0617E-03,  -26.8115E-03,  -37.4543E-03,   3.10094E-03
C:/temp/dataset/0/13_12.odb,Step-1,Increment      1: Step Time =    1.000,"PART-1-1",           276,      -12.3363,      -16.1340,            0.,NA,NA,"",   49.2257E-03,  -30.6701E-03,  -38.5035E-03,   2.88245E-03
C:/temp/dataset/0/13_12.odb,Step-1,Increment      1: Step Time =    1.000,"PART-1-1",           277,      -13.6859,      -14.8091,            0.,NA,NA,"",   58.4423E-03,  -36.8116E-03,  -45.3916E-03,   2.72319E-03
C:/temp/dataset/0/13_12.odb,Step-1,Increment      1: Step Time =    1.000,"PART-1-1",           278,      -4.46540,      -27.1831,            0.,NA,NA,"",   1.64512E-03,   847.295E-06,  -1.41015E-03,   765.151E-06
C:/temp/dataset/0/13_12.odb,Step-1,Increment      1: Step Time =    1.000,"PART-1-1",           279,      -2.97305,      -25.9670,            0.,NA,NA,"",   1.07895E-03,   613.885E-06,  -887.292E-06,   555.929E-06
C:/temp/dataset/0/13_12.odb,Step-1,Increment      1: Step Time =    1.000,"PART-1-1",           280,      -4.19392,      -24.5512,            0.,NA,NA,"",   2.54706E-03,   394.295E-06,  -2.51635E-03,   884.617E-06
C:/temp/dataset/0/13_12.odb,Step-1,Increment      1: Step Time =    1.000,"PART-1-1",           281,      -5.68627,      -25.7673,            0.,NA,NA,"",   3.44606E-03,   453.226E-06,  -3.41612E-03,   1.17960E-03
C:/temp/dataset/0/13_12.odb,Step-1,Increment      1: Step Time =    1.000,"PART-1-1",           282,      -5.28634,      -23.2314,            0.,NA,NA,"",   5.57456E-03,  -1.01740E-03,  -5.48094E-03,   1.52573E-03
C:/temp/dataset/0/13_12.odb,Step-1,Increment      1: Step Time =    1.000,"PART-1-1",           283,      -2.80857,      -23.4296,            0.,NA,NA,"",   1.30754E-03,   395.237E-06,  -1.24638E-03,   624.315E-06
C:/temp/dataset/0/13_12.odb,Step-1,Increment      1: Step Time =    1.000,"PART-1-1",           284,      -3.90099,      -22.1098,            0.,NA,NA,"",   3.75350E-03,  -1.03010E-03,  -3.60939E-03,   1.17677E-03
C:/temp/dataset/0/13_12.odb,Step-1,Increment      1: Step Time =    1.000,"PART-1-1",           285,       1.61260,      -23.5545,            0.,NA,NA,"",   2.13333E-03,   1.20473E-03,  -1.76061E-03,   250.136E-06
C:/temp/dataset/0/13_12.odb,Step-1,Increment      1: Step Time =    1.000,"PART-1-1",           286,       2.09558,      -25.4897,            0.,NA,NA,"",   2.10291E-03,  -847.694E-06,  -1.92448E-03,   675.991E-06
C:/temp/dataset/0/13_12.odb,Step-1,Increment      1: Step Time =    1.000,"PART-1-1",           287,       3.30955,      -24.8521,            0.,NA,NA,"",   4.24096E-03,  -258.745E-06,  -4.23306E-03,   1.11581E-03
C:/temp/dataset/0/13_12.odb,Step-1,Increment      1: Step Time =    1.000,"PART-1-1",           288,       2.82657,      -22.9168,            0.,NA,NA,"",   5.40046E-03,   2.68136E-03,  -4.68777E-03,   670.681E-06
C:/temp/dataset/0/13_12.odb,Step-1,Increment      1: Step Time =    1.000,"PART-1-1",           289,       13.8857,      -20.1351,            0.,NA,NA,"",   80.9867E-03,   42.7366E-03,  -68.7926E-03,   7.56712E-03
C:/temp/dataset/0/13_12.odb,Step-1,Increment      1: Step Time =    1.000,"PART-1-1",           290,           15.,        -18.75,            0.,NA,NA,"",   101.071E-03,   54.8803E-03,  -84.8729E-03,   7.78750E-03
C:/temp/dataset/0/13_12.odb,Step-1,Increment      1: Step Time =    1.000,"PART-1-1",           291,       13.8316,      -17.6482,            0.,NA,NA,"",   102.951E-03,   58.0760E-03,  -85.0059E-03,   7.20887E-03
C:/temp/dataset/0/13_12.odb,Step-1,Increment      1: Step Time =    1.000,"PART-1-1",           292,       12.7173,      -19.0333,            0.,NA,NA,"",   83.1731E-03,   45.5131E-03,  -69.6155E-03,   7.00743E-03
C:/temp/dataset/0/13_12.odb,Step-1,Increment      1: Step Time =    1.000,"PART-1-1",           293,       13.7508,      -12.5905,            0.,NA,NA,"",   149.383E-03,   94.6490E-03,  -115.572E-03,   6.45382E-03
C:/temp/dataset/0/13_12.odb,Step-1,Increment      1: Step Time =    1.000,"PART-1-1",           294,           15.,        -11.25,            0.,NA,NA,"",   171.369E-03,   108.516E-03,  -132.633E-03,   6.33650E-03
C:/temp/dataset/0/13_12.odb,Step-1,Increment      1: Step Time =    1.000,"PART-1-1",           295,       13.7881,      -10.0330,            0.,NA,NA,"",   173.536E-03,   114.576E-03,  -130.334E-03,   6.10672E-03
C:/temp/dataset/0/13_12.odb,Step-1,Increment      1: Step Time =    1.000,"PART-1-1",           296,       12.5389,      -11.3735,            0.,NA,NA,"",   152.047E-03,   100.664E-03,  -113.952E-03,   6.23639E-03
C:/temp/dataset/0/13_12.odb,Step-1,Increment      1: Step Time =    1.000,"PART-1-1",           297,       11.3345,      -10.0200,            0.,NA,NA,"",   156.431E-03,   108.013E-03,  -113.155E-03,   6.11583E-03
C:/temp/dataset/0/13_12.odb,Step-1,Increment      1: Step Time =    1.000,"PART-1-1",           298,       10.0449,      -11.4123,            0.,NA,NA,"",   134.617E-03,   93.5436E-03,  -96.8060E-03,   6.10051E-03
C:/temp/dataset/0/13_12.odb,Step-1,Increment      1: Step Time =    1.000,"PART-1-1",           299,       11.2492,      -12.7658,            0.,NA,NA,"",   130.083E-03,   86.2428E-03,  -97.3845E-03,   6.21994E-03
C:/temp/dataset/0/13_12.odb,Step-1,Increment      1: Step Time =    1.000,"PART-1-1",           300,       9.32361,      -6.65743,            0.,NA,NA,"",   174.832E-03,   128.955E-03,  -118.055E-03,   6.20904E-03
C:/temp/dataset/0/13_12.odb,Step-1,Increment      1: Step Time =    1.000,"PART-1-1",           301,       10.9574,      -6.33595,            0.,NA,NA,"",   188.429E-03,   135.858E-03,  -130.568E-03,   5.98473E-03
C:/temp/dataset/0/13_12.odb,Step-1,Increment      1: Step Time =    1.000,"PART-1-1",           302,       10.9595,      -4.69463,            0.,NA,NA,"",   203.522E-03,   148.331E-03,  -139.352E-03,   5.95329E-03
C:/temp/dataset/0/13_12.odb,Step-1,Increment      1: Step Time =    1.000,"PART-1-1",           303,       9.32578,      -5.01612,            0.,NA,NA,"",   190.267E-03,   141.506E-03,  -127.192E-03,   6.19252E-03
C:/temp/dataset/0/13_12.odb,Step-1,Increment      1: Step Time =    1.000,"PART-1-1",           304,       12.9351,      -4.11714,            0.,NA,NA,"",   221.128E-03,   157.635E-03,  -155.078E-03,   5.50337E-03
C:/temp/dataset/0/13_12.odb,Step-1,Increment      1: Step Time =    1.000,"PART-1-1",           305,       11.6846,      -3.48758,            0.,NA,NA,"",   218.829E-03,   159.101E-03,  -150.243E-03,   5.71505E-03
C:/temp/dataset/0/13_12.odb,Step-1,Increment      1: Step Time =    1.000,"PART-1-1",           306,       12.2101,      -5.32419,            0.,NA,NA,"",   205.799E-03,   146.845E-03,  -144.186E-03,   5.74740E-03
C:/temp/dataset/0/13_12.odb,Step-1,Increment      1: Step Time =    1.000,"PART-1-1",           307,       9.86769,  -155.410E-03,            0.,NA,NA,"",   236.996E-03,   177.178E-03,  -157.401E-03,   6.17079E-03
C:/temp/dataset/0/13_12.odb,Step-1,Increment      1: Step Time =    1.000,"PART-1-1",           308,       8.53089,   901.975E-03,            0.,NA,NA,"",   238.540E-03,   179.955E-03,  -156.581E-03,   6.63980E-03
C:/temp/dataset/0/13_12.odb,Step-1,Increment      1: Step Time =    1.000,"PART-1-1",           309,       7.40884,      -1.02539,            0.,NA,NA,"",   215.099E-03,   164.342E-03,  -138.778E-03,   6.89809E-03
C:/temp/dataset/0/13_12.odb,Step-1,Increment      1: Step Time =    1.000,"PART-1-1",           310,       8.74564,      -2.08278,            0.,NA,NA,"",   213.639E-03,   161.150E-03,  -140.258E-03,   6.42917E-03
C:/temp/dataset/0/13_12.odb,Step-1,Increment      1: Step Time =    1.000,"PART-1-1",           311,       9.64302,       5.60069,            0.,NA,NA,"",   280.160E-03,   207.308E-03,  -188.448E-03,   6.29785E-03
C:/temp/dataset/0/13_12.odb,Step-1,Increment      1: Step Time =    1.000,"PART-1-1",           312,       10.9412,       4.35663,            0.,NA,NA,"",   277.105E-03,   205.283E-03,  -186.135E-03,   5.63555E-03
C:/temp/dataset/0/13_12.odb,Step-1,Increment      1: Step Time =    1.000,"PART-1-1",           313,       12.2262,       5.93259,            0.,NA,NA,"",   292.238E-03,   215.092E-03,  -197.834E-03,   4.89108E-03
C:/temp/dataset/0/13_12.odb,Step-1,Increment      1: Step Time =    1.000,"PART-1-1",           314,       10.9280,       7.17665,            0.,NA,NA,"",   294.918E-03,   216.563E-03,  -200.193E-03,   5.55303E-03
C:/temp/dataset/0/13_12.odb,Step-1,Increment      1: Step Time =    1.000,"PART-1-1",           315,       13.6103,       7.39232,            0.,NA,NA,"",   304.554E-03,   222.941E-03,  -207.487E-03,   3.92497E-03
C:/temp/dataset/0/13_12.odb,Step-1,Increment      1: Step Time =    1.000,"PART-1-1",           316,           15.,          8.75,            0.,NA,NA,"",   313.870E-03,   228.684E-03,  -214.984E-03,   2.87311E-03
C:/temp/dataset/0/13_12.odb,Step-1,Increment      1: Step Time =    1.000,"PART-1-1",           317,       13.6268,       9.99700,            0.,NA,NA,"",   315.068E-03,   229.059E-03,  -216.333E-03,   3.61925E-03
C:/temp/dataset/0/13_12.odb,Step-1,Increment      1: Step Time =    1.000,"PART-1-1",           318,       12.2370,       8.63932,            0.,NA,NA,"",   306.463E-03,   223.758E-03,  -209.408E-03,   4.67890E-03
C:/temp/dataset/0/13_12.odb,Step-1,Increment      1: Step Time =    1.000,"PART-1-1",           319,       13.8144,       17.6522,            0.,NA,NA,"",   325.205E-03,   221.292E-03,  -238.303E-03,   2.96263E-03
C:/temp/dataset/0/13_12.odb,Step-1,Increment      1: Step Time =    1.000,"PART-1-1",           320,           15.,         18.75,            0.,NA,NA,"",   321.725E-03,   218.419E-03,  -236.220E-03,   2.15724E-03
C:/temp/dataset/0/13_12.odb,Step-1,Increment      1: Step Time =    1.000,"PART-1-1",           321,       13.8887,       20.1095,            0.,NA,NA,"",   322.949E-03,   211.230E-03,  -244.291E-03,   2.79987E-03
C:/temp/dataset/0/13_12.odb,Step-1,Increment      1: Step Time =    1.000,"PART-1-1",           322,       12.7031,       19.0116,            0.,NA,NA,"",   326.972E-03,   214.289E-03,  -246.963E-03,   3.62020E-03
C:/temp/dataset/0/13_12.odb,Step-1,Increment      1: Step Time =    1.000,"PART-1-1",           323,       11.4255,       18.0142,            0.,NA,NA,"",   329.556E-03,   215.812E-03,  -249.063E-03,   4.69031E-03
C:/temp/dataset/0/13_12.odb,Step-1,Increment      1: Step Time =    1.000,"PART-1-1",           324,       11.6322,       20.3693,            0.,NA,NA,"",   330.008E-03,   206.101E-03,  -257.735E-03,   4.69890E-03
C:/temp/dataset/0/13_12.odb,Step-1,Increment      1: Step Time =    1.000,"PART-1-1",           325,       10.3546,       19.3719,            0.,NA,NA,"",   333.090E-03,   207.260E-03,  -260.753E-03,   5.69057E-03
C:/temp/dataset/0/13_12.odb,Step-1,Increment      1: Step Time =    1.000,"PART-1-1",           326,       10.9394,       26.3107,            0.,NA,NA,"",   333.305E-03,   175.676E-03,  -283.250E-03,   3.61715E-03
C:/temp/dataset/0/13_12.odb,Step-1,Increment      1: Step Time =    1.000,"PART-1-1",           327,       11.9108,       25.0855,            0.,NA,NA,"",   327.044E-03,   183.458E-03,  -270.741E-03,   3.50994E-03
C:/temp/dataset/0/13_12.odb,Step-1,Increment      1: Step Time =    1.000,"PART-1-1",           328,       13.0011,       26.2585,            0.,NA,NA,"",   315.394E-03,   176.048E-03,  -261.688E-03,   1.36954E-03
C:/temp/dataset/0/13_12.odb,Step-1,Increment      1: Step Time =    1.000,"PART-1-1",           329,       12.0296,       27.4837,            0.,NA,NA,"",   318.872E-03,   166.453E-03,  -271.979E-03,   1.52514E-03
C:/temp/dataset/0/13_12.odb,Step-1,Increment      1: Step Time =    1.000,"PART-1-1",           330,       14.0179,       27.4887,            0.,NA,NA,"",   302.527E-03,   166.003E-03,  -252.914E-03,   206.066E-06
C:/temp/dataset/0/13_12.odb,Step-1,Increment      1: Step Time =    1.000,"PART-1-1",           331,       13.9832,       25.0198,            0.,NA,NA,"",   312.810E-03,   184.969E-03,  -252.263E-03,   1.19228E-03
C:/temp/dataset/0/13_12.odb,Step-1,Increment      1: Step Time =    1.000,"PART-1-1",           332,           15.,         26.25,            0.,NA,NA,"",   301.510E-03,   176.173E-03,  -244.686E-03,   211.180E-06
C:/temp/dataset/0/13_12.odb,Step-1,Increment      1: Step Time =    1.000,"PART-1-1",           333,       3.55377,       20.8403,            0.,NA,NA,"",   368.178E-03,   152.803E-03,  -334.972E-03,   10.4478E-03
C:/temp/dataset/0/13_12.odb,Step-1,Increment      1: Step Time =    1.000,"PART-1-1",           334,       4.16667,           20.,            0.,NA,NA,"",   364.886E-03,   164.325E-03,  -325.790E-03,   13.5039E-03
C:/temp/dataset/0/13_12.odb,Step-1,Increment      1: Step Time =    1.000,"PART-1-1",           335,       5.33068,       20.7523,            0.,NA,NA,"",   354.999E-03,   168.770E-03,  -312.316E-03,   13.9260E-03
C:/temp/dataset/0/13_12.odb,Step-1,Increment      1: Step Time =    1.000,"PART-1-1",           336,       4.71778,       21.5926,            0.,NA,NA,"",   364.853E-03,   159.788E-03,  -328.002E-03,   11.2648E-03
C:/temp/dataset/0/13_12.odb,Step-1,Increment      1: Step Time =    1.000,"PART-1-1",           337,       1.85672,       20.8541,            0.,NA,NA,"",   361.904E-03,   136.432E-03,  -335.203E-03,   10.9945E-03
C:/temp/dataset/0/13_12.odb,Step-1,Increment      1: Step Time =    1.000,"PART-1-1",           338,           2.5,           20.,            0.,NA,NA,"",   361.146E-03,   141.747E-03,  -332.165E-03,   14.6008E-03
C:/temp/dataset/0/13_12.odb,Step-1,Increment      1: Step Time =    1.000,"PART-1-1",           339,       2.91049,       21.6945,            0.,NA,NA,"",   371.299E-03,   146.900E-03,  -341.003E-03,   7.58799E-03
C:/temp/dataset/0/13_12.odb,Step-1,Increment      1: Step Time =    1.000,"PART-1-1",           340,       1.32465,      -26.7993,            0.,NA,NA,"",   1.52436E-03,  -1.19711E-03,  -943.708E-06,   742.104E-06
C:/temp/dataset/0/13_12.odb,Step-1,Increment      1: Step Time =    1.000,"PART-1-1",           341,   399.133E-03,      -24.6509,            0.,NA,NA,"",   481.768E-06,   121.974E-06,  -466.072E-06,   297.062E-06
C:/temp/dataset/0/13_12.odb,Step-1,Increment      1: Step Time =    1.000,"PART-1-1",           342,  -371.796E-03,      -25.9605,            0.,NA,NA,"",   370.727E-06,  -253.469E-06,  -270.540E-06,   484.785E-06
C:/temp/dataset/0/13_12.odb,Step-1,Increment      1: Step Time =    1.000,"PART-1-1",           343,       7.16814,       28.8250,            0.,NA,NA,"",   384.647E-03,   163.168E-03,  -348.323E-03,   10.0745E-03
C:/temp/dataset/0/13_12.odb,Step-1,Increment      1: Step Time =    1.000,"PART-1-1",           344,       7.90869,       27.6030,            0.,NA,NA,"",   371.379E-03,   169.948E-03,  -330.212E-03,   9.71951E-03
C:/temp/dataset/0/13_12.odb,Step-1,Increment      1: Step Time =    1.000,"PART-1-1",           345,       9.17805,       28.7779,            0.,NA,NA,"",   346.235E-03,   157.187E-03,  -308.498E-03,   3.46025E-03
C:/temp/dataset/0/13_12.odb,Step-1,Increment      1: Step Time =    1.000,"PART-1-1",           346,        8.4375,           30.,            0.,NA,NA,"",   350.024E-03,   140.800E-03,  -320.456E-03,   2.92894E-03
C:/temp/dataset/0/13_12.odb,Step-1,Increment      1: Step Time =    1.000,"PART-1-1",           347,       1.19326,       21.8923,            0.,NA,NA,"",   361.967E-03,   135.917E-03,  -335.480E-03,   7.12750E-03
C:/temp/dataset/0/13_12.odb,Step-1,Increment      1: Step Time =    1.000,"PART-1-1",           348,   169.882E-03,       21.0382,            0.,NA,NA,"",   344.333E-03,   122.499E-03,  -321.806E-03,   9.48544E-03
C:/temp/dataset/0/13_12.odb,Step-1,Increment      1: Step Time =    1.000,"PART-1-1",           349,   833.333E-03,           20.,            0.,NA,NA,"",   344.943E-03,   119.978E-03,  -323.405E-03,   13.5656E-03
C:/temp/dataset/0/13_12.odb,Step-1,Increment      1: Step Time =    1.000,"PART-1-1",           350,       11.0482,       12.7829,            0.,NA,NA,"",   320.490E-03,   225.988E-03,  -227.252E-03,   5.20493E-03
C:/temp/dataset/0/13_12.odb,Step-1,Increment      1: Step Time =    1.000,"PART-1-1",           351,       12.3949,       13.9828,            0.,NA,NA,"",   324.127E-03,   227.939E-03,  -230.440E-03,   4.12676E-03
C:/temp/dataset/0/13_12.odb,Step-1,Increment      1: Step Time =    1.000,"PART-1-1",           352,       11.2086,       15.4830,            0.,NA,NA,"",   327.029E-03,   223.136E-03,  -239.078E-03,   4.82600E-03
C:/temp/dataset/0/13_12.odb,Step-1,Increment      1: Step Time =    1.000,"PART-1-1",           353,       9.86191,       14.2831,            0.,NA,NA,"",   324.507E-03,   222.041E-03,  -236.648E-03,   5.94388E-03
C:/temp/dataset/0/13_12.odb,Step-1,Increment      1: Step Time =    1.000,"PART-1-1",           354,       9.65710,       8.53837,            0.,NA,NA,"",   298.673E-03,   217.201E-03,  -205.010E-03,   6.29851E-03
C:/temp/dataset/0/13_12.odb,Step-1,Increment      1: Step Time =    1.000,"PART-1-1",           355,       8.46627,       10.0105,            0.,NA,NA,"",   303.577E-03,   216.785E-03,  -212.517E-03,   7.10460E-03
C:/temp/dataset/0/13_12.odb,Step-1,Increment      1: Step Time =    1.000,"PART-1-1",           356,       7.24171,       8.43518,            0.,NA,NA,"",   289.808E-03,   209.315E-03,  -200.440E-03,   7.80525E-03
C:/temp/dataset/0/13_12.odb,Step-1,Increment      1: Step Time =    1.000,"PART-1-1",           357,       8.43254,       6.96306,            0.,NA,NA,"",   284.525E-03,   208.844E-03,  -193.233E-03,   6.99247E-03
C:/temp/dataset/0/13_12.odb,Step-1,Increment      1: Step Time =    1.000,"PART-1-1",           358,       13.6558,       2.21224,            0.,NA,NA,"",   274.820E-03,   200.454E-03,  -188.001E-03,   4.52486E-03
C:/temp/dataset/0/13_12.odb,Step-1,Increment      1: Step Time =    1.000,"PART-1-1",           359,           15.,          3.75,            0.,NA,NA,"",   290.793E-03,   210.836E-03,  -200.272E-03,   3.69487E-03
C:/temp/dataset/0/13_12.odb,Step-1,Increment      1: Step Time =    1.000,"PART-1-1",           360,       13.6160,       4.79026,            0.,NA,NA,"",   290.920E-03,   213.167E-03,  -197.976E-03,   4.22927E-03
C:/temp/dataset/0/13_12.odb,Step-1,Increment      1: Step Time =    1.000,"PART-1-1",           361,       12.2717,       3.25251,            0.,NA,NA,"",   275.407E-03,   203.027E-03,  -186.090E-03,   5.07316E-03
C:/temp/dataset/0/13_12.odb,Step-1,Increment      1: Step Time =    1.000,"PART-1-1",           362,       9.69986,       2.68972,            0.,NA,NA,"",   259.181E-03,   193.567E-03,  -172.356E-03,   6.24788E-03
C:/temp/dataset/0/13_12.odb,Step-1,Increment      1: Step Time =    1.000,"PART-1-1",           363,       11.0304,       1.58560,            0.,NA,NA,"",   257.278E-03,   190.906E-03,  -172.473E-03,   5.68609E-03
C:/temp/dataset/0/13_12.odb,Step-1,Increment      1: Step Time =    1.000,"PART-1-1",           364,       7.55861,      -11.4267,            0.,NA,NA,"",   117.931E-03,   86.7967E-03,  -79.8381E-03,   5.94322E-03
C:/temp/dataset/0/13_12.odb,Step-1,Increment      1: Step Time =    1.000,"PART-1-1",           365,       6.31268,      -9.90243,            0.,NA,NA,"",   123.951E-03,   95.3642E-03,  -79.1805E-03,   6.05648E-03
C:/temp/dataset/0/13_12.odb,Step-1,Increment      1: Step Time =    1.000,"PART-1-1",           366,            5.,      -11.6667,            0.,NA,NA,"",   98.6086E-03,   78.3055E-03,  -59.9324E-03,   5.74299E-03
C:/temp/dataset/0/13_12.odb,Step-1,Increment      1: Step Time =    1.000,"PART-1-1",           367,       6.24593,      -13.1909,            0.,NA,NA,"",   92.9817E-03,   69.8274E-03,  -61.3982E-03,   5.62771E-03
C:/temp/dataset/0/13_12.odb,Step-1,Increment      1: Step Time =    1.000,"PART-1-1",           368,       14.0233,      -5.11850,            0.,NA,NA,"",   219.561E-03,   152.888E-03,  -157.583E-03,   5.39737E-03
C:/temp/dataset/0/13_12.odb,Step-1,Increment      1: Step Time =    1.000,"PART-1-1",           369,           15.,         -3.75,            0.,NA,NA,"",   237.672E-03,   165.113E-03,  -170.955E-03,   4.99220E-03
C:/temp/dataset/0/13_12.odb,Step-1,Increment      1: Step Time =    1.000,"PART-1-1",           370,       13.9118,      -2.74864,            0.,NA,NA,"",   238.844E-03,   169.739E-03,  -168.033E-03,   5.08674E-03
C:/temp/dataset/0/13_12.odb,Step-1,Increment      1: Step Time =    1.000,"PART-1-1",           371,       12.6080,      -16.5365,            0.,NA,NA,"",   104.670E-03,   61.9394E-03,  -84.3764E-03,   6.72939E-03
C:/temp/dataset/0/13_12.odb,Step-1,Increment      1: Step Time =    1.000,"PART-1-1",           372,       11.3130,      -15.4489,            0.,NA,NA,"",   105.845E-03,   66.0610E-03,  -82.6984E-03,   6.32333E-03
C:/temp/dataset/0/13_12.odb,Step-1,Increment      1: Step Time =    1.000,"PART-1-1",           373,       10.1880,      -16.9099,            0.,NA,NA,"",   85.6220E-03,   52.3640E-03,  -67.7432E-03,   6.11963E-03
C:/temp/dataset/0/13_12.odb,Step-1,Increment      1: Step Time =    1.000,"PART-1-1",           374,       11.4829,      -17.9975,            0.,NA,NA,"",   84.3573E-03,   48.4852E-03,  -69.0315E-03,   6.52302E-03
C:/temp/dataset/0/13_12.odb,Step-1,Increment      1: Step Time =    1.000,"PART-1-1",           375,       7.63417,      -21.6752,            0.,NA,NA,"",   33.2227E-03,   15.1262E-03,  -29.5795E-03,   5.29074E-03
C:/temp/dataset/0/13_12.odb,Step-1,Increment      1: Step Time =    1.000,"PART-1-1",           376,       7.43394,      -23.2038,            0.,NA,NA,"",   23.4932E-03,   8.31357E-03,  -21.9731E-03,   4.66632E-03
C:/temp/dataset/0/13_12.odb,Step-1,Increment      1: Step Time =    1.000,"PART-1-1",           377,       8.61676,      -23.4202,            0.,NA,NA,"",   27.6438E-03,   10.3646E-03,  -25.6273E-03,   5.28236E-03
C:/temp/dataset/0/13_12.odb,Step-1,Increment      1: Step Time =    1.000,"PART-1-1",           378,       8.81699,      -21.8917,            0.,NA,NA,"",   38.3048E-03,   17.4308E-03,  -34.1091E-03,   5.79359E-03
C:/temp/dataset/0/13_12.odb,Step-1,Increment      1: Step Time =    1.000,"PART-1-1",           379,  -438.919E-03,      -23.5046,            0.,NA,NA,"",   918.970E-06,   900.497E-06,  -183.334E-06,   359.119E-06
C:/temp/dataset/0/13_12.odb,Step-1,Increment      1: Step Time =    1.000,"PART-1-1",           380,   774.543E-03,      -22.4081,            0.,NA,NA,"",   2.61371E-03,   2.39168E-03,  -1.05421E-03,   780.627E-06
C:/temp/dataset/0/13_12.odb,Step-1,Increment      1: Step Time =    1.000,"PART-1-1",           381,      -7.50181,      -26.8221,            0.,NA,NA,"",   3.91910E-03,   198.221E-06,  -3.91409E-03,   1.60982E-03
C:/temp/dataset/0/13_12.odb,Step-1,Increment      1: Step Time =    1.000,"PART-1-1",           382,      -9.04643,      -28.2740,            0.,NA,NA,"",   2.61874E-03,   108.747E-06,  -2.61648E-03,   1.91036E-03
C:/temp/dataset/0/13_12.odb,Step-1,Increment      1: Step Time =    1.000,"PART-1-1",           383,          -7.5,          -30.,            0.,NA,NA,"",            0.,   552.965E-42,  -3.19488E-39,   1.43467E-03
C:/temp/dataset/0/13_12.odb,Step-1,Increment      1: Step Time =    1.000,"PART-1-1",           384,      -5.95538,      -28.5482,            0.,NA,NA,"",   1.39394E-03,   749.536E-06,  -1.17527E-03,   1.09951E-03
C:/temp/dataset/0/13_12.odb,Step-1,Increment      1: Step Time =    1.000,"PART-1-1",           385,      -10.9107,       24.5471,            0.,NA,NA,"",   180.268E-03,   139.082E-03,  -114.685E-03,   1.02018E-03
C:/temp/dataset/0/13_12.odb,Step-1,Increment      1: Step Time =    1.000,"PART-1-1",           386,      -9.41006,       26.0517,            0.,NA,NA,"",   217.825E-03,   164.666E-03,  -142.594E-03,   1.30324E-03
C:/temp/dataset/0/13_12.odb,Step-1,Increment      1: Step Time =    1.000,"PART-1-1",           387,      -10.7443,       27.3091,            0.,NA,NA,"",   221.052E-03,   185.982E-03,  -119.477E-03,   376.175E-06
C:/temp/dataset/0/13_12.odb,Step-1,Increment      1: Step Time =    1.000,"PART-1-1",           388,      -12.2450,       25.8045,            0.,NA,NA,"",   185.144E-03,   160.129E-03,  -92.9355E-03,   357.987E-06
C:/temp/dataset/0/13_12.odb,Step-1,Increment      1: Step Time =    1.000,"PART-1-1",           389,      -1.21620,       23.8189,            0.,NA,NA,"",   339.019E-03,   140.223E-03,  -308.660E-03,   6.84010E-03
C:/temp/dataset/0/13_12.odb,Step-1,Increment      1: Step Time =    1.000,"PART-1-1",           390,      -2.21965,       25.1560,            0.,NA,NA,"",   327.967E-03,   151.621E-03,  -290.815E-03,   7.27307E-03
C:/temp/dataset/0/13_12.odb,Step-1,Increment      1: Step Time =    1.000,"PART-1-1",           391,      -12.3287,       22.9401,            0.,NA,NA,"",   143.931E-03,   112.147E-03,  -90.2185E-03,   609.013E-06
C:/temp/dataset/0/13_12.odb,Step-1,Increment      1: Step Time =    1.000,"PART-1-1",           392,      -11.0144,       21.7359,            0.,NA,NA,"",   143.895E-03,   93.1969E-03,  -109.636E-03,   1.37096E-03
C:/temp/dataset/0/13_12.odb,Step-1,Increment      1: Step Time =    1.000,"PART-1-1",           393,      -9.59641,       23.3428,            0.,NA,NA,"",   180.960E-03,   120.198E-03,  -135.274E-03,   2.05388E-03
C:/temp/dataset/0/13_12.odb,Step-1,Increment      1: Step Time =    1.000,"PART-1-1",           394,      -8.52014,       19.3558,            0.,NA,NA,"",   153.985E-03,   59.0420E-03,  -142.217E-03,   3.16622E-03
C:/temp/dataset/0/13_12.odb,Step-1,Increment      1: Step Time =    1.000,"PART-1-1",           395,      -7.12750,       20.9906,            0.,NA,NA,"",   191.283E-03,   86.3606E-03,  -170.679E-03,   5.05743E-03
C:/temp/dataset/0/13_12.odb,Step-1,Increment      1: Step Time =    1.000,"PART-1-1",           396,      -8.32913,       22.1749,            0.,NA,NA,"",   185.500E-03,   103.179E-03,  -154.157E-03,   3.77458E-03
C:/temp/dataset/0/13_12.odb,Step-1,Increment      1: Step Time =    1.000,"PART-1-1",           397,      -9.72177,       20.5400,            0.,NA,NA,"",   148.069E-03,   75.4996E-03,  -127.375E-03,   2.23872E-03
C:/temp/dataset/0/13_12.odb,Step-1,Increment      1: Step Time =    1.000,"PART-1-1",           398,      -6.16480,       16.7267,            0.,NA,NA,"",   166.568E-03,   29.7166E-03,  -163.896E-03,   6.66792E-03
C:/temp/dataset/0/13_12.odb,Step-1,Increment      1: Step Time =    1.000,"PART-1-1",           399,           -5.,       18.4615,            0.,NA,NA,"",   199.372E-03,   53.9173E-03,  -191.943E-03,   10.1817E-03
C:/temp/dataset/0/13_12.odb,Step-1,Increment      1: Step Time =    1.000,"PART-1-1",           400,      -6.13199,       19.8034,            0.,NA,NA,"",   195.043E-03,   68.5988E-03,  -182.581E-03,   7.25394E-03
C:/temp/dataset/0/13_12.odb,Step-1,Increment      1: Step Time =    1.000,"PART-1-1",           401,      -7.29678,       18.0686,            0.,NA,NA,"",   161.557E-03,   42.7976E-03,  -155.785E-03,   4.52481E-03
C:/temp/dataset/0/13_12.odb,Step-1,Increment      1: Step Time =    1.000,"PART-1-1",           402,      -11.0823,       15.8203,            0.,NA,NA,"",   101.634E-03,   12.5595E-03,  -100.854E-03,   1.59188E-03
C:/temp/dataset/0/13_12.odb,Step-1,Increment      1: Step Time =    1.000,"PART-1-1",           403,      -12.3677,       14.0517,            0.,NA,NA,"",   85.4620E-03,  -5.79948E-03,  -85.2650E-03,   719.061E-06
C:/temp/dataset/0/13_12.odb,Step-1,Increment      1: Step Time =    1.000,"PART-1-1",           404,      -11.1015,       12.7786,            0.,NA,NA,"",   97.2765E-03,  -16.4291E-03,  -95.8791E-03,   1.89199E-03
C:/temp/dataset/0/13_12.odb,Step-1,Increment      1: Step Time =    1.000,"PART-1-1",           405,          -15.,          10.5,            0.,NA,NA,"",   72.5870E-03,  -33.5579E-03,  -64.3641E-03,   1.27369E-03
C:/temp/dataset/0/13_12.odb,Step-1,Increment      1: Step Time =    1.000,"PART-1-1",           406,      -13.6919,       9.25384,            0.,NA,NA,"",   84.3952E-03,  -41.6285E-03,  -73.4141E-03,   282.621E-06
C:/temp/dataset/0/13_12.odb,Step-1,Increment      1: Step Time =    1.000,"PART-1-1",           407,      -12.3755,       11.0249,            0.,NA,NA,"",   88.4662E-03,  -30.3484E-03,  -83.0979E-03,   966.802E-06
C:/temp/dataset/0/13_12.odb,Step-1,Increment      1: Step Time =    1.000,"PART-1-1",           408,      -13.6836,       12.2710,            0.,NA,NA,"",   75.9673E-03,  -21.1892E-03,  -72.9524E-03,   449.749E-06
C:/temp/dataset/0/13_12.odb,Step-1,Increment      1: Step Time =    1.000,"PART-1-1",           409,      -7.40029,       8.84536,            0.,NA,NA,"",   118.027E-03,  -37.2514E-03,  -111.994E-03,   4.81657E-03
C:/temp/dataset/0/13_12.odb,Step-1,Increment      1: Step Time =    1.000,"PART-1-1",           410,      -8.62408,       10.1694,            0.,NA,NA,"",   113.782E-03,  -32.0532E-03,  -109.174E-03,   3.95580E-03
C:/temp/dataset/0/13_12.odb,Step-1,Increment      1: Step Time =    1.000,"PART-1-1",           411,      -9.86273,       8.43495,            0.,NA,NA,"",   105.180E-03,  -43.5578E-03,  -95.7370E-03,   2.98337E-03
C:/temp/dataset/0/13_12.odb,Step-1,Increment      1: Step Time =    1.000,"PART-1-1",           412,      -8.63893,       7.11093,            0.,NA,NA,"",   109.420E-03,  -47.7207E-03,  -98.4652E-03,   3.83011E-03
C:/temp/dataset/0/13_12.odb,Step-1,Increment      1: Step Time =    1.000,"PART-1-1",           413,          -15.,           1.5,            0.,NA,NA,"",   95.9795E-03,  -66.5211E-03,  -69.1882E-03,   75.7958E-06
C:/temp/dataset/0/13_12.odb,Step-1,Increment      1: Step Time =    1.000,"PART-1-1",           414,      -13.7087,   214.116E-03,            0.,NA,NA,"",   96.8750E-03,  -67.1419E-03,  -69.8337E-03,   974.146E-06
C:/temp/dataset/0/13_12.odb,Step-1,Increment      1: Step Time =    1.000,"PART-1-1",           415,      -12.4129,       1.94059,            0.,NA,NA,"",   98.2023E-03,  -65.1535E-03,  -73.4760E-03,   1.55135E-03
C:/temp/dataset/0/13_12.odb,Step-1,Increment      1: Step Time =    1.000,"PART-1-1",           416,      -13.7042,       3.22647,            0.,NA,NA,"",   96.1319E-03,  -63.8096E-03,  -71.9005E-03,   657.397E-06
C:/temp/dataset/0/13_12.odb,Step-1,Increment      1: Step Time =    1.000,"PART-1-1",           417,      -9.88317,  -688.536E-03,            0.,NA,NA,"",   96.2542E-03,  -63.9415E-03,  -71.9468E-03,   2.94557E-03
C:/temp/dataset/0/13_12.odb,Step-1,Increment      1: Step Time =    1.000,"PART-1-1",           418,      -8.64028,      -2.02441,            0.,NA,NA,"",   92.4752E-03,  -61.6444E-03,  -68.9321E-03,   3.46342E-03
C:/temp/dataset/0/13_12.odb,Step-1,Increment      1: Step Time =    1.000,"PART-1-1",           419,      -7.40757,  -323.915E-03,            0.,NA,NA,"",   96.3699E-03,  -60.0904E-03,  -75.3413E-03,   4.10983E-03
C:/temp/dataset/0/13_12.odb,Step-1,Increment      1: Step Time =    1.000,"PART-1-1",           420,      -8.65046,       1.01196,            0.,NA,NA,"",   99.7741E-03,  -61.7356E-03,  -78.3810E-03,   3.58097E-03
C:/temp/dataset/0/13_12.odb,Step-1,Increment      1: Step Time =    1.000,"PART-1-1",           421,          -15.,          -7.5,            0.,NA,NA,"",   86.5944E-03,  -59.4599E-03,  -62.9533E-03,   1.47007E-03
C:/temp/dataset/0/13_12.odb,Step-1,Increment      1: Step Time =    1.000,"PART-1-1",           422,      -13.7007,      -8.80606,            0.,NA,NA,"",   80.1496E-03,  -55.2543E-03,  -58.0596E-03,   2.00107E-03
C:/temp/dataset/0/13_12.odb,Step-1,Increment      1: Step Time =    1.000,"PART-1-1",           423,      -12.4029,      -7.10316,            0.,NA,NA,"",   82.8133E-03,  -58.2640E-03,  -58.8502E-03,   2.20740E-03
C:/temp/dataset/0/13_12.odb,Step-1,Increment      1: Step Time =    1.000,"PART-1-1",           424,      -13.7022,      -5.79711,            0.,NA,NA,"",   88.4167E-03,  -62.1003E-03,  -62.9371E-03,   1.65280E-03
C:/temp/dataset/0/13_12.odb,Step-1,Increment      1: Step Time =    1.000,"PART-1-1",           425,      -7.34368,      -12.4907,            0.,NA,NA,"",   51.2729E-03,  -36.6113E-03,  -35.8959E-03,   3.13569E-03
C:/temp/dataset/0/13_12.odb,Step-1,Increment      1: Step Time =    1.000,"PART-1-1",           426,      -8.60430,      -11.1353,            0.,NA,NA,"",   60.2253E-03,  -42.6332E-03,  -42.5382E-03,   3.08331E-03
C:/temp/dataset/0/13_12.odb,Step-1,Increment      1: Step Time =    1.000,"PART-1-1",           427,      -9.82710,      -12.7746,            0.,NA,NA,"",   56.5038E-03,  -38.9591E-03,  -40.9252E-03,   2.89391E-03
C:/temp/dataset/0/13_12.odb,Step-1,Increment      1: Step Time =    1.000,"PART-1-1",           428,      -8.56648,      -14.1300,            0.,NA,NA,"",   47.6237E-03,  -32.8173E-03,  -34.5114E-03,   2.93408E-03
C:/temp/dataset/0/13_12.odb,Step-1,Increment      1: Step Time =    1.000,"PART-1-1",           429,  -730.622E-03,       22.2784,            0.,NA,NA,"",   338.542E-03,   128.302E-03,  -313.288E-03,   6.79946E-03
C:/temp/dataset/0/13_12.odb,Step-1,Increment      1: Step Time =    1.000,"PART-1-1",           430,         -1.25,           20.,            0.,NA,NA,"",   311.872E-03,   96.7612E-03,  -296.481E-03,   10.5351E-03
C:/temp/dataset/0/13_12.odb,Step-1,Increment      1: Step Time =    1.000,"PART-1-1",           431,       11.1367,       28.7451,            0.,NA,NA,"",   321.824E-03,   155.128E-03,  -281.968E-03,   976.640E-06
C:/temp/dataset/0/13_12.odb,Step-1,Increment      1: Step Time =    1.000,"PART-1-1",           432,       10.3125,           30.,            0.,NA,NA,"",   324.265E-03,   140.898E-03,  -292.054E-03,   290.807E-06
C:/temp/dataset/0/13_12.odb,Step-1,Increment      1: Step Time =    1.000,"PART-1-1",           433,       10.0023,       27.5230,            0.,NA,NA,"",   340.518E-03,   167.834E-03,  -296.284E-03,   4.48639E-03
C:/temp/dataset/0/13_12.odb,Step-1,Increment      1: Step Time =    1.000,"PART-1-1",           434,       10.7751,       23.9735,            0.,NA,NA,"",   336.440E-03,   187.646E-03,  -279.251E-03,   5.29196E-03
C:/temp/dataset/0/13_12.odb,Step-1,Increment      1: Step Time =    1.000,"PART-1-1",           435,       11.7898,       22.7248,            0.,NA,NA,"",   329.701E-03,   195.452E-03,  -265.521E-03,   4.50831E-03
C:/temp/dataset/0/13_12.odb,Step-1,Increment      1: Step Time =    1.000,"PART-1-1",           436,       12.9255,       23.8368,            0.,NA,NA,"",   322.162E-03,   191.423E-03,  -259.125E-03,   2.66453E-03
C:/temp/dataset/0/13_12.odb,Step-1,Increment      1: Step Time =    1.000,"PART-1-1",           437,       2.25220,       28.9826,            0.,NA,NA,"",   419.302E-03,   178.266E-03,  -379.521E-03,   11.9399E-03
C:/temp/dataset/0/13_12.odb,Step-1,Increment      1: Step Time =    1.000,"PART-1-1",           438,       3.21116,       27.8846,            0.,NA,NA,"",   413.618E-03,   169.124E-03,  -377.461E-03,   9.56705E-03
C:/temp/dataset/0/13_12.odb,Step-1,Increment      1: Step Time =    1.000,"PART-1-1",           439,       4.70896,       28.9020,            0.,NA,NA,"",   415.736E-03,   166.597E-03,  -380.897E-03,   11.3749E-03
C:/temp/dataset/0/13_12.odb,Step-1,Increment      1: Step Time =    1.000,"PART-1-1",           440,          3.75,           30.,            0.,NA,NA,"",   424.993E-03,   171.171E-03,  -388.998E-03,   14.2837E-03
C:/temp/dataset/0/13_12.odb,Step-1,Increment      1: Step Time =    1.000,"PART-1-1",           441,      -8.10884,       24.8461,            0.,NA,NA,"",   220.417E-03,   145.829E-03,  -165.280E-03,   2.97273E-03
C:/temp/dataset/0/13_12.odb,Step-1,Increment      1: Step Time =    1.000,"PART-1-1",           442,      -13.5971,       27.1125,            0.,NA,NA,"",   195.889E-03,   182.847E-03,  -70.2818E-03,   182.500E-06
C:/temp/dataset/0/13_12.odb,Step-1,Increment      1: Step Time =    1.000,"PART-1-1",           443,          -15.,          25.5,            0.,NA,NA,"",   162.257E-03,   155.444E-03,  -46.5233E-03,   496.483E-06
C:/temp/dataset/0/13_12.odb,Step-1,Increment      1: Step Time =    1.000,"PART-1-1",           444,      -13.6479,       24.1920,            0.,NA,NA,"",   149.921E-03,   132.937E-03,  -69.3113E-03,   259.742E-06
C:/temp/dataset/0/13_12.odb,Step-1,Increment      1: Step Time =    1.000,"PART-1-1",           445,      -6.53168,       26.2506,            0.,NA,NA,"",   260.177E-03,   168.090E-03,  -198.589E-03,   3.49962E-03
C:/temp/dataset/0/13_12.odb,Step-1,Increment      1: Step Time =    1.000,"PART-1-1",           446,      -7.83289,       27.4562,            0.,NA,NA,"",   255.666E-03,   187.947E-03,  -173.323E-03,   1.91950E-03
C:/temp/dataset/0/13_12.odb,Step-1,Increment      1: Step Time =    1.000,"PART-1-1",           447,          -15.,          28.5,            0.,NA,NA,"",   212.328E-03,   207.230E-03,  -46.2481E-03,   121.338E-06
C:/temp/dataset/0/13_12.odb,Step-1,Increment      1: Step Time =    1.000,"PART-1-1",           448,      -12.0971,       28.6125,            0.,NA,NA,"",   229.937E-03,   208.823E-03,  -96.2475E-03,   224.900E-06
C:/temp/dataset/0/13_12.odb,Step-1,Increment      1: Step Time =    1.000,"PART-1-1",           449,         -13.5,           30.,            0.,NA,NA,"",   244.010E-03,   233.040E-03,  -72.3420E-03,   104.342E-06
C:/temp/dataset/0/13_12.odb,Step-1,Increment      1: Step Time =    1.000,"PART-1-1",           450,      -6.19829,       10.5730,            0.,NA,NA,"",   130.427E-03,  -24.2303E-03,  -128.156E-03,   5.90531E-03
C:/temp/dataset/0/13_12.odb,Step-1,Increment      1: Step Time =    1.000,"PART-1-1",           451,      -6.20201,       7.50308,            0.,NA,NA,"",   119.491E-03,  -40.9639E-03,  -112.250E-03,   5.57265E-03
C:/temp/dataset/0/13_12.odb,Step-1,Increment      1: Step Time =    1.000,"PART-1-1",           452,           -5.,       9.23077,            0.,NA,NA,"",   131.335E-03,  -28.9817E-03,  -128.098E-03,   6.67808E-03
C:/temp/dataset/0/13_12.odb,Step-1,Increment      1: Step Time =    1.000,"PART-1-1",           453,      -12.4049,       4.96458,            0.,NA,NA,"",   97.2873E-03,  -59.2275E-03,  -77.1811E-03,   1.34904E-03
C:/temp/dataset/0/13_12.odb,Step-1,Increment      1: Step Time =    1.000,"PART-1-1",           454,      -13.7007,       6.23810,            0.,NA,NA,"",   91.7997E-03,  -55.5642E-03,  -73.0739E-03,   381.712E-06
C:/temp/dataset/0/13_12.odb,Step-1,Increment      1: Step Time =    1.000,"PART-1-1",           455,          -15.,           4.5,            0.,NA,NA,"",   91.9202E-03,  -60.9810E-03,  -68.7796E-03,   386.908E-06
C:/temp/dataset/0/13_12.odb,Step-1,Increment      1: Step Time =    1.000,"PART-1-1",           456,      -9.87977,       5.38582,            0.,NA,NA,"",   103.862E-03,  -55.6813E-03,  -87.6753E-03,   2.96426E-03
C:/temp/dataset/0/13_12.odb,Step-1,Increment      1: Step Time =    1.000,"PART-1-1",           457,      -8.64969,       4.05795,            0.,NA,NA,"",   105.222E-03,  -57.3633E-03,  -88.2108E-03,   3.70175E-03
C:/temp/dataset/0/13_12.odb,Step-1,Increment      1: Step Time =    1.000,"PART-1-1",           458,      -7.40885,       5.78306,            0.,NA,NA,"",   111.109E-03,  -50.3191E-03,  -99.0615E-03,   4.57928E-03
C:/temp/dataset/0/13_12.odb,Step-1,Increment      1: Step Time =    1.000,"PART-1-1",           459,      -7.41391,       2.72502,            0.,NA,NA,"",   104.248E-03,  -57.6768E-03,  -86.8394E-03,   4.34308E-03
C:/temp/dataset/0/13_12.odb,Step-1,Increment      1: Step Time =    1.000,"PART-1-1",           460,      -9.88624,       2.34489,            0.,NA,NA,"",   101.157E-03,  -62.2071E-03,  -79.7680E-03,   2.95167E-03
C:/temp/dataset/0/13_12.odb,Step-1,Increment      1: Step Time =    1.000,"PART-1-1",           461,      -12.4101,      -4.09106,            0.,NA,NA,"",   90.6785E-03,  -63.8929E-03,  -64.3450E-03,   1.98382E-03
C:/temp/dataset/0/13_12.odb,Step-1,Increment      1: Step Time =    1.000,"PART-1-1",           462,      -13.7080,      -2.79395,            0.,NA,NA,"",   94.1662E-03,  -66.3142E-03,  -66.8559E-03,   1.30883E-03
C:/temp/dataset/0/13_12.odb,Step-1,Increment      1: Step Time =    1.000,"PART-1-1",           463,          -15.,          -4.5,            0.,NA,NA,"",   92.8481E-03,  -65.0064E-03,  -66.2944E-03,   997.928E-06
C:/temp/dataset/0/13_12.odb,Step-1,Increment      1: Step Time =    1.000,"PART-1-1",           464,      -9.87646,      -3.71895,            0.,NA,NA,"",   88.9995E-03,  -61.6879E-03,  -64.1523E-03,   2.94022E-03
C:/temp/dataset/0/13_12.odb,Step-1,Increment      1: Step Time =    1.000,"PART-1-1",           465,      -8.63520,      -5.06687,            0.,NA,NA,"",   83.2305E-03,  -57.9020E-03,  -59.7886E-03,   3.34018E-03
C:/temp/dataset/0/13_12.odb,Step-1,Increment      1: Step Time =    1.000,"PART-1-1",           466,      -7.39901,      -3.37233,            0.,NA,NA,"",   86.9932E-03,  -58.3865E-03,  -64.4891E-03,   3.87299E-03
C:/temp/dataset/0/13_12.odb,Step-1,Increment      1: Step Time =    1.000,"PART-1-1",           467,      -7.39417,      -6.42670,            0.,NA,NA,"",   76.1072E-03,  -53.3542E-03,  -54.2737E-03,   3.62999E-03
C:/temp/dataset/0/13_12.odb,Step-1,Increment      1: Step Time =    1.000,"PART-1-1",           468,      -9.87187,      -6.75385,            0.,NA,NA,"",   79.6117E-03,  -56.2263E-03,  -56.3615E-03,   2.93161E-03
C:/temp/dataset/0/13_12.odb,Step-1,Increment      1: Step Time =    1.000,"PART-1-1",           469,      -8.63084,      -8.11369,            0.,NA,NA,"",   72.3047E-03,  -51.2795E-03,  -50.9744E-03,   3.21327E-03
C:/temp/dataset/0/13_12.odb,Step-1,Increment      1: Step Time =    1.000,"PART-1-1",           470,      -12.3844,      -13.1215,            0.,NA,NA,"",   61.5292E-03,  -40.8896E-03,  -45.9769E-03,   2.65621E-03
C:/temp/dataset/0/13_12.odb,Step-1,Increment      1: Step Time =    1.000,"PART-1-1",           471,      -13.6984,      -11.8123,            0.,NA,NA,"",   69.9604E-03,  -46.5570E-03,  -52.2198E-03,   2.35570E-03
C:/temp/dataset/0/13_12.odb,Step-1,Increment      1: Step Time =    1.000,"PART-1-1",           472,          -15.,         -13.5,            0.,NA,NA,"",   67.5245E-03,  -42.6096E-03,  -52.3830E-03,   2.44782E-03
C:/temp/dataset/0/13_12.odb,Step-1,Increment      1: Step Time =    1.000,"PART-1-1",           473,      -7.37693,      -9.46970,            0.,NA,NA,"",   64.0323E-03,  -45.8086E-03,  -44.7405E-03,   3.38535E-03
C:/temp/dataset/0/13_12.odb,Step-1,Increment      1: Step Time =    1.000,"PART-1-1",           474,      -9.85821,      -9.77933,            0.,NA,NA,"",   68.5651E-03,  -48.3615E-03,  -48.6039E-03,   2.91881E-03
C:/temp/dataset/0/13_12.odb,Step-1,Increment      1: Step Time =    1.000,"PART-1-1",           475,      -8.48236,      -17.0363,            0.,NA,NA,"",   35.3117E-03,  -22.7366E-03,  -27.0179E-03,   2.78413E-03
C:/temp/dataset/0/13_12.odb,Step-1,Increment      1: Step Time =    1.000,"PART-1-1",           476,      -7.28434,      -15.4580,            0.,NA,NA,"",   38.5393E-03,  -26.6782E-03,  -27.8128E-03,   2.86759E-03
C:/temp/dataset/0/13_12.odb,Step-1,Increment      1: Step Time =    1.000,"PART-1-1",           477,      -9.76451,      -15.7083,            0.,NA,NA,"",   44.1739E-03,  -28.9095E-03,  -33.4002E-03,   2.86558E-03
C:/temp/dataset/0/13_12.odb,Step-1,Increment      1: Step Time =    1.000,"PART-1-1",           478,      -8.29054,      -19.6175,            0.,NA,NA,"",   24.4641E-03,  -13.6601E-03,  -20.2952E-03,   2.78332E-03
C:/temp/dataset/0/13_12.odb,Step-1,Increment      1: Step Time =    1.000,"PART-1-1",           479,      -7.20240,      -18.2338,            0.,NA,NA,"",   26.8769E-03,  -16.9736E-03,  -20.8390E-03,   2.58304E-03
C:/temp/dataset/0/13_12.odb,Step-1,Increment      1: Step Time =    1.000,"PART-1-1",           480,      -9.57051,      -18.4200,            0.,NA,NA,"",   32.5613E-03,  -19.3537E-03,  -26.1854E-03,   2.88383E-03
C:/temp/dataset/0/13_12.odb,Step-1,Increment      1: Step Time =    1.000,"PART-1-1",           481,      -11.5327,      -24.2644,            0.,NA,NA,"",   15.9878E-03,  -6.96539E-03,  -14.3908E-03,   3.14099E-03
C:/temp/dataset/0/13_12.odb,Step-1,Increment      1: Step Time =    1.000,"PART-1-1",           482,      -10.1789,      -23.4859,            0.,NA,NA,"",   15.6417E-03,  -6.47144E-03,  -14.2402E-03,   2.91062E-03
C:/temp/dataset/0/13_12.odb,Step-1,Increment      1: Step Time =    1.000,"PART-1-1",           483,      -10.8627,      -21.7859,            0.,NA,NA,"",   22.9835E-03,  -11.2235E-03,  -20.0568E-03,   3.05057E-03
C:/temp/dataset/0/13_12.odb,Step-1,Increment      1: Step Time =    1.000,"PART-1-1",           484,      -12.2165,      -22.5644,            0.,NA,NA,"",   23.4409E-03,  -11.4060E-03,  -20.4788E-03,   3.25429E-03
C:/temp/dataset/0/13_12.odb,Step-1,Increment      1: Step Time =    1.000,"PART-1-1",           485,      -6.15301,      -21.8453,            0.,NA,NA,"",   10.4899E-03,  -4.00038E-03,  -9.69716E-03,   2.35930E-03
C:/temp/dataset/0/13_12.odb,Step-1,Increment      1: Step Time =    1.000,"PART-1-1",           486,      -7.48433,      -22.7723,            0.,NA,NA,"",   11.7428E-03,  -4.13884E-03,  -10.9893E-03,   2.46340E-03
C:/temp/dataset/0/13_12.odb,Step-1,Increment      1: Step Time =    1.000,"PART-1-1",           487,      -6.61766,      -24.1583,            0.,NA,NA,"",   6.84890E-03,  -1.23413E-03,  -6.73679E-03,   1.76950E-03
C:/temp/dataset/0/13_12.odb,Step-1,Increment      1: Step Time =    1.000,"PART-1-1",           488,      -9.30746,      -21.9937,            0.,NA,NA,"",   18.5205E-03,  -8.41276E-03,  -16.4995E-03,   2.88580E-03
C:/temp/dataset/0/13_12.odb,Step-1,Increment      1: Step Time =    1.000,"PART-1-1",           489,      -9.12330,      -20.5212,            0.,NA,NA,"",   23.2496E-03,  -12.0604E-03,  -19.8768E-03,   2.89226E-03
C:/temp/dataset/0/13_12.odb,Step-1,Increment      1: Step Time =    1.000,"PART-1-1",           490,      -10.6786,      -20.3134,            0.,NA,NA,"",   27.9943E-03,  -14.9300E-03,  -23.6807E-03,   3.04812E-03
C:/temp/dataset/0/13_12.odb,Step-1,Increment      1: Step Time =    1.000,"PART-1-1",           491,         -13.5,          -30.,            0.,NA,NA,"",            0.,  -118.009E-42,  -6.65514E-39,   3.65057E-03
C:/temp/dataset/0/13_12.odb,Step-1,Increment      1: Step Time =    1.000,"PART-1-1",           492,      -12.0973,      -28.5120,            0.,NA,NA,"",   3.57297E-03,  -1.28966E-03,  -3.33210E-03,   2.83199E-03
C:/temp/dataset/0/13_12.odb,Step-1,Increment      1: Step Time =    1.000,"PART-1-1",           493,      -13.5973,      -27.0120,            0.,NA,NA,"",   10.5048E-03,  -5.37198E-03,  -9.02734E-03,   3.61266E-03
C:/temp/dataset/0/13_12.odb,Step-1,Increment      1: Step Time =    1.000,"PART-1-1",           494,          -15.,         -28.5,            0.,NA,NA,"",   7.69137E-03,  -5.15219E-03,  -5.71070E-03,   4.22975E-03
C:/temp/dataset/0/13_12.odb,Step-1,Increment      1: Step Time =    1.000,"PART-1-1",           495,      -2.59553,      -21.0976,            0.,NA,NA,"",   2.19608E-03,  -864.761E-06,  -2.01865E-03,   1.49700E-03
C:/temp/dataset/0/13_12.odb,Step-1,Increment      1: Step Time =    1.000,"PART-1-1",           496,      -1.51596,      -22.2324,            0.,NA,NA,"",   1.03047E-03,   846.084E-06,  -588.218E-06,   848.191E-06
C:/temp/dataset/0/13_12.odb,Step-1,Increment      1: Step Time =    1.000,"PART-1-1",           497,  -170.430E-03,      -21.1349,            0.,NA,NA,"",   2.96378E-03,   2.73396E-03,  -1.14433E-03,   1.71230E-03
C:/temp/dataset/0/13_12.odb,Step-1,Increment      1: Step Time =    1.000,"PART-1-1",           498,         -1.25,          -20.,            0.,NA,NA,"",   2.34581E-03,   992.666E-06,  -2.12543E-03,   2.43610E-03
C:/temp/dataset/0/13_12.odb,Step-1,Increment      1: Step Time =    1.000,"PART-1-1",           499,       2.92795,      -28.2085,            0.,NA,NA,"",   2.18704E-03,  -1.67431E-03,  -1.40706E-03,   1.21253E-03
C:/temp/dataset/0/13_12.odb,Step-1,Increment      1: Step Time =    1.000,"PART-1-1",           500,  -103.307E-03,      -28.5907,            0.,NA,NA,"",   608.722E-06,  -493.785E-06,  -355.975E-06,   541.704E-06
C:/temp/dataset/0/13_12.odb,Step-1,Increment      1: Step Time =    1.000,"PART-1-1",           501,           1.5,          -30.,            0.,NA,NA,"",            0.,  -749.227E-42,  -1.84351E-39,   1.02561E-03
C:/temp/dataset/0/13_12.odb,Step-1,Increment      1: Step Time =    1.000,"PART-1-1",           502,       2.19497,      -21.2732,            0.,NA,NA,"",   7.31078E-03,   6.15426E-03,  -3.94621E-03,   1.76829E-03
C:/temp/dataset/0/13_12.odb,Step-1,Increment      1: Step Time =    1.000,"PART-1-1",           503,          1.25,          -20.,            0.,NA,NA,"",   7.63467E-03,   6.78642E-03,  -3.49754E-03,   2.72020E-03
C:/temp/dataset/0/13_12.odb,Step-1,Increment      1: Step Time =    1.000,"PART-1-1",           504,       4.38160,      -21.6436,            0.,NA,NA,"",   14.0823E-03,   7.53277E-03,  -11.8983E-03,   2.32366E-03
C:/temp/dataset/0/13_12.odb,Step-1,Increment      1: Step Time =    1.000,"PART-1-1",           505,          3.75,          -20.,            0.,NA,NA,"",   17.6504E-03,   14.0987E-03,  -10.6190E-03,   3.17348E-03
C:/temp/dataset/0/13_12.odb,Step-1,Increment      1: Step Time =    1.000,"PART-1-1",           506,       12.4146,      -26.3616,            0.,NA,NA,"",   23.6305E-03,   10.7381E-03,  -21.0498E-03,   7.15614E-03
C:/temp/dataset/0/13_12.odb,Step-1,Increment      1: Step Time =    1.000,"PART-1-1",           507,       11.3720,      -25.0651,            0.,NA,NA,"",   28.7266E-03,   11.9572E-03,  -26.1198E-03,   6.68256E-03
C:/temp/dataset/0/13_12.odb,Step-1,Increment      1: Step Time =    1.000,"PART-1-1",           508,       9.80011,      -26.1459,            0.,NA,NA,"",   16.7989E-03,   4.82249E-03,  -16.0918E-03,   5.45410E-03
C:/temp/dataset/0/13_12.odb,Step-1,Increment      1: Step Time =    1.000,"PART-1-1",           509,       10.8427,      -27.4423,            0.,NA,NA,"",   12.1225E-03,   3.86125E-03,  -11.4911E-03,   5.94535E-03
C:/temp/dataset/0/13_12.odb,Step-1,Increment      1: Step Time =    1.000,"PART-1-1",           510,       10.6574,      -21.6616,            0.,NA,NA,"",   49.6713E-03,   24.0476E-03,  -43.4621E-03,   6.44966E-03
C:/temp/dataset/0/13_12.odb,Step-1,Increment      1: Step Time =    1.000,"PART-1-1",           511,       9.56375,      -20.8051,            0.,NA,NA,"",   50.1484E-03,   25.3665E-03,  -43.2597E-03,   6.02435E-03
C:/temp/dataset/0/13_12.odb,Step-1,Increment      1: Step Time =    1.000,"PART-1-1",           512,       9.91066,      -22.7482,            0.,NA,NA,"",   37.9851E-03,   16.6563E-03,  -34.1385E-03,   6.13491E-03
C:/temp/dataset/0/13_12.odb,Step-1,Increment      1: Step Time =    1.000,"PART-1-1",           513,       13.7822,      -25.0807,            0.,NA,NA,"",   39.4516E-03,   19.7938E-03,  -34.1267E-03,   7.78671E-03
C:/temp/dataset/0/13_12.odb,Step-1,Increment      1: Step Time =    1.000,"PART-1-1",           514,       13.6324,      -27.5308,            0.,NA,NA,"",   19.0869E-03,   10.2798E-03,  -16.0821E-03,   7.89220E-03
C:/temp/dataset/0/13_12.odb,Step-1,Increment      1: Step Time =    1.000,"PART-1-1",           515,           15.,        -26.25,            0.,NA,NA,"",   36.3459E-03,   20.1670E-03,  -30.2376E-03,   8.34773E-03
C:/temp/dataset/0/13_12.odb,Step-1,Increment      1: Step Time =    1.000,"PART-1-1",           516,          13.5,          -30.,            0.,NA,NA,"",            0.,   758.037E-42,  -14.7725E-39,   8.05007E-03
C:/temp/dataset/0/13_12.odb,Step-1,Increment      1: Step Time =    1.000,"PART-1-1",           517,           15.,        -28.75,            0.,NA,NA,"",   14.5761E-03,   10.0154E-03,  -10.5904E-03,   9.42451E-03
C:/temp/dataset/0/13_12.odb,Step-1,Increment      1: Step Time =    1.000,"PART-1-1",           518,       12.1324,      -28.7808,            0.,NA,NA,"",   6.37938E-03,   2.34326E-03,  -5.93343E-03,   6.10740E-03
C:/temp/dataset/0/13_12.odb,Step-1,Increment      1: Step Time =    1.000,"PART-1-1",           519,       10.4418,      -23.8774,            0.,NA,NA,"",   32.8005E-03,   13.5522E-03,  -29.8699E-03,   6.23149E-03
C:/temp/dataset/0/13_12.odb,Step-1,Increment      1: Step Time =    1.000,"PART-1-1",           520,       12.6627,      -23.9582,            0.,NA,NA,"",   42.5514E-03,   20.1031E-03,  -37.5032E-03,   7.34082E-03
C:/temp/dataset/0/13_12.odb,Step-1,Increment      1: Step Time =    1.000,"PART-1-1",           521,       11.7324,      -22.7705,            0.,NA,NA,"",   46.9196E-03,   22.0824E-03,  -41.3983E-03,   6.89102E-03
C:/temp/dataset/0/13_12.odb,Step-1,Increment      1: Step Time =    1.000,"PART-1-1",           522,       13.8804,      -22.6275,            0.,NA,NA,"",   59.6018E-03,   29.8681E-03,  -51.5778E-03,   7.77541E-03
C:/temp/dataset/0/13_12.odb,Step-1,Increment      1: Step Time =    1.000,"PART-1-1",           523,           15.,        -23.75,            0.,NA,NA,"",   56.3723E-03,   29.1043E-03,  -48.2781E-03,   8.19233E-03
C:/temp/dataset/0/13_12.odb,Step-1,Increment      1: Step Time =    1.000,"PART-1-1",           524,       10.4567,      -19.3679,            0.,NA,NA,"",   66.5642E-03,   36.5641E-03,  -55.6225E-03,   6.30781E-03
C:/temp/dataset/0/13_12.odb,Step-1,Increment      1: Step Time =    1.000,"PART-1-1",           525,       11.6911,      -20.4036,            0.,NA,NA,"",   65.3448E-03,   34.0414E-03,  -55.7774E-03,   6.79304E-03
C:/temp/dataset/0/13_12.odb,Step-1,Increment      1: Step Time =    1.000,"PART-1-1",           526,       13.7764,      -15.1383,            0.,NA,NA,"",   125.743E-03,   75.5666E-03,  -100.504E-03,   6.81925E-03
C:/temp/dataset/0/13_12.odb,Step-1,Increment      1: Step Time =    1.000,"PART-1-1",           527,           15.,        -16.25,            0.,NA,NA,"",   124.471E-03,   71.4654E-03,  -101.910E-03,   7.31019E-03
C:/temp/dataset/0/13_12.odb,Step-1,Increment      1: Step Time =    1.000,"PART-1-1",           528,       13.9082,      -7.52913,            0.,NA,NA,"",   197.381E-03,   134.331E-03,  -144.618E-03,   5.75778E-03
C:/temp/dataset/0/13_12.odb,Step-1,Increment      1: Step Time =    1.000,"PART-1-1",           529,       12.6962,      -8.81215,            0.,NA,NA,"",   177.098E-03,   121.182E-03,  -129.145E-03,   5.99424E-03
C:/temp/dataset/0/13_12.odb,Step-1,Increment      1: Step Time =    1.000,"PART-1-1",           530,           15.,         -8.75,            0.,NA,NA,"",   194.319E-03,   127.757E-03,  -146.418E-03,   5.87848E-03
C:/temp/dataset/0/13_12.odb,Step-1,Increment      1: Step Time =    1.000,"PART-1-1",           531,       12.9315,      -6.39763,            0.,NA,NA,"",   200.875E-03,   140.526E-03,  -143.538E-03,   5.73296E-03
C:/temp/dataset/0/13_12.odb,Step-1,Increment      1: Step Time =    1.000,"PART-1-1",           532,           15.,         -6.25,            0.,NA,NA,"",   216.538E-03,   146.790E-03,  -159.190E-03,   5.43161E-03
C:/temp/dataset/0/13_12.odb,Step-1,Increment      1: Step Time =    1.000,"PART-1-1",           533,       13.7496,  -319.059E-03,            0.,NA,NA,"",   257.081E-03,   185.620E-03,  -177.865E-03,   4.80975E-03
C:/temp/dataset/0/13_12.odb,Step-1,Increment      1: Step Time =    1.000,"PART-1-1",           534,       12.6614,      -1.81770,            0.,NA,NA,"",   238.946E-03,   173.270E-03,  -164.537E-03,   5.35723E-03
C:/temp/dataset/0/13_12.odb,Step-1,Increment      1: Step Time =    1.000,"PART-1-1",           535,           15.,         -1.25,            0.,NA,NA,"",   257.346E-03,   182.226E-03,  -181.716E-03,   4.55706E-03
C:/temp/dataset/0/13_12.odb,Step-1,Increment      1: Step Time =    1.000,"PART-1-1",           536,       12.4054,   643.186E-03,            0.,NA,NA,"",   257.116E-03,   188.620E-03,  -174.731E-03,   5.22643E-03
C:/temp/dataset/0/13_12.odb,Step-1,Increment      1: Step Time =    1.000,"PART-1-1",           537,           15.,          1.25,            0.,NA,NA,"",   275.181E-03,   197.632E-03,  -191.485E-03,   4.12377E-03
C:/temp/dataset/0/13_12.odb,Step-1,Increment      1: Step Time =    1.000,"PART-1-1",           538,           15.,          6.25,            0.,NA,NA,"",   303.808E-03,   221.350E-03,  -208.095E-03,   3.27453E-03
C:/temp/dataset/0/13_12.odb,Step-1,Increment      1: Step Time =    1.000,"PART-1-1",           539,       10.9661,       10.0010,            0.,NA,NA,"",   309.639E-03,   223.707E-03,  -214.083E-03,   5.41957E-03
C:/temp/dataset/0/13_12.odb,Step-1,Increment      1: Step Time =    1.000,"PART-1-1",           540,       13.7311,       15.1467,            0.,NA,NA,"",   325.262E-03,   228.256E-03,  -231.720E-03,   3.09715E-03
C:/temp/dataset/0/13_12.odb,Step-1,Increment      1: Step Time =    1.000,"PART-1-1",           541,       13.6638,       12.5861,            0.,NA,NA,"",   322.016E-03,   230.936E-03,  -224.417E-03,   3.32626E-03
C:/temp/dataset/0/13_12.odb,Step-1,Increment      1: Step Time =    1.000,"PART-1-1",           542,           15.,         13.75,            0.,NA,NA,"",   324.030E-03,   231.898E-03,  -226.315E-03,   2.27425E-03
C:/temp/dataset/0/13_12.odb,Step-1,Increment      1: Step Time =    1.000,"PART-1-1",           543,       10.0887,       16.9483,            0.,NA,NA,"",   330.489E-03,   216.524E-03,  -249.680E-03,   5.64317E-03
C:/temp/dataset/0/13_12.odb,Step-1,Increment      1: Step Time =    1.000,"PART-1-1",           544,       12.5455,       16.5489,            0.,NA,NA,"",   327.047E-03,   222.955E-03,  -239.272E-03,   3.84613E-03
C:/temp/dataset/0/13_12.odb,Step-1,Increment      1: Step Time =    1.000,"PART-1-1",           545,       13.9423,       22.5670,            0.,NA,NA,"",   319.137E-03,   199.230E-03,  -249.310E-03,   2.22426E-03
C:/temp/dataset/0/13_12.odb,Step-1,Increment      1: Step Time =    1.000,"PART-1-1",           546,       12.8310,       21.4264,            0.,NA,NA,"",   325.369E-03,   203.552E-03,  -253.834E-03,   3.29721E-03
C:/temp/dataset/0/13_12.odb,Step-1,Increment      1: Step Time =    1.000,"PART-1-1",           547,           15.,         21.25,            0.,NA,NA,"",   317.640E-03,   206.920E-03,  -240.996E-03,   1.78689E-03
C:/temp/dataset/0/13_12.odb,Step-1,Increment      1: Step Time =    1.000,"PART-1-1",           548,       13.0804,       28.7387,            0.,NA,NA,"",   303.914E-03,   154.539E-03,  -261.690E-03,   138.856E-06
C:/temp/dataset/0/13_12.odb,Step-1,Increment      1: Step Time =    1.000,"PART-1-1",           549,       12.1875,           30.,            0.,NA,NA,"",   305.617E-03,   141.882E-03,  -270.686E-03,   443.885E-06
C:/temp/dataset/0/13_12.odb,Step-1,Increment      1: Step Time =    1.000,"PART-1-1",           550,           15.,         28.75,            0.,NA,NA,"",   288.616E-03,   154.302E-03,  -243.906E-03,   211.822E-06
C:/temp/dataset/0/13_12.odb,Step-1,Increment      1: Step Time =    1.000,"PART-1-1",           551,       14.0625,           30.,            0.,NA,NA,"",   290.047E-03,   142.510E-03,  -252.622E-03,   192.387E-06
C:/temp/dataset/0/13_12.odb,Step-1,Increment      1: Step Time =    1.000,"PART-1-1",           552,       8.83353,       26.4105,            0.,NA,NA,"",   357.304E-03,   175.048E-03,  -311.487E-03,   7.84826E-03
C:/temp/dataset/0/13_12.odb,Step-1,Increment      1: Step Time =    1.000,"PART-1-1",           553,       9.77062,       25.1982,            0.,NA,NA,"",   345.906E-03,   180.723E-03,  -294.940E-03,   6.85290E-03
C:/temp/dataset/0/13_12.odb,Step-1,Increment      1: Step Time =    1.000,"PART-1-1",           554,       5.62710,       27.7270,            0.,NA,NA,"",   402.053E-03,   168.777E-03,  -364.912E-03,   10.9595E-03
C:/temp/dataset/0/13_12.odb,Step-1,Increment      1: Step Time =    1.000,"PART-1-1",           555,          6.25,           30.,            0.,NA,NA,"",   401.580E-03,   149.849E-03,  -372.575E-03,   12.0348E-03
C:/temp/dataset/0/13_12.odb,Step-1,Increment      1: Step Time =    1.000,"PART-1-1",           556,   375.256E-03,       24.5574,            0.,NA,NA,"",   367.026E-03,   148.301E-03,  -335.731E-03,   5.55457E-03
C:/temp/dataset/0/13_12.odb,Step-1,Increment      1: Step Time =    1.000,"PART-1-1",           557,   860.838E-03,       23.0169,            0.,NA,NA,"",   364.601E-03,   140.460E-03,  -336.460E-03,   5.71685E-03
C:/temp/dataset/0/13_12.odb,Step-1,Increment      1: Step Time =    1.000,"PART-1-1",           558,       10.5910,       21.6677,            0.,NA,NA,"",   335.048E-03,   197.262E-03,  -270.823E-03,   5.82331E-03
C:/temp/dataset/0/13_12.odb,Step-1,Increment      1: Step Time =    1.000,"PART-1-1",           559,       9.14786,      -24.5495,            0.,NA,NA,"",   23.4002E-03,   7.79916E-03,  -22.0622E-03,   5.38495E-03
C:/temp/dataset/0/13_12.odb,Step-1,Increment      1: Step Time =    1.000,"PART-1-1",           560,           15.,        -21.25,            0.,NA,NA,"",   78.2205E-03,   40.6038E-03,  -66.8564E-03,   8.15008E-03
C:/temp/dataset/0/13_12.odb,Step-1,Increment      1: Step Time =    1.000,"PART-1-1",           561,       12.7662,      -21.5126,            0.,NA,NA,"",   62.4941E-03,   31.4905E-03,  -53.9802E-03,   7.21523E-03
C:/temp/dataset/0/13_12.odb,Step-1,Increment      1: Step Time =    1.000,"PART-1-1",           562,           15.,        -13.75,            0.,NA,NA,"",   147.995E-03,   89.5679E-03,  -117.814E-03,   6.81180E-03
C:/temp/dataset/0/13_12.odb,Step-1,Increment      1: Step Time =    1.000,"PART-1-1",           563,       12.5272,      -13.9788,            0.,NA,NA,"",   127.616E-03,   80.5229E-03,  -99.0040E-03,   6.47219E-03
C:/temp/dataset/0/13_12.odb,Step-1,Increment      1: Step Time =    1.000,"PART-1-1",           564,           15.,         11.25,            0.,NA,NA,"",   320.667E-03,   232.348E-03,  -221.001E-03,   2.52107E-03
C:/temp/dataset/0/13_12.odb,Step-1,Increment      1: Step Time =    1.000,"PART-1-1",           565,       12.2906,       11.3331,            0.,NA,NA,"",   317.258E-03,   228.205E-03,  -220.397E-03,   4.42448E-03
C:/temp/dataset/0/13_12.odb,Step-1,Increment      1: Step Time =    1.000,"PART-1-1",           566,       7.23650,       5.28124,            0.,NA,NA,"",   267.138E-03,   198.525E-03,  -178.747E-03,   7.52743E-03
C:/temp/dataset/0/13_12.odb,Step-1,Increment      1: Step Time =    1.000,"PART-1-1",           567,       8.44697,       3.91887,            0.,NA,NA,"",   262.547E-03,   196.228E-03,  -174.428E-03,   6.83013E-03
C:/temp/dataset/0/13_12.odb,Step-1,Increment      1: Step Time =    1.000,"PART-1-1",           568,       9.72373,       11.4508,            0.,NA,NA,"",   313.693E-03,   222.278E-03,  -221.349E-03,   6.20420E-03
C:/temp/dataset/0/13_12.odb,Step-1,Increment      1: Step Time =    1.000,"PART-1-1",           569,           15.,         16.25,            0.,NA,NA,"",   324.131E-03,   227.121E-03,  -231.250E-03,   2.18893E-03
C:/temp/dataset/0/13_12.odb,Step-1,Increment      1: Step Time =    1.000,"PART-1-1",           570,       6.21850,       16.4100,            0.,NA,NA,"",   333.927E-03,   205.684E-03,  -263.061E-03,   9.49510E-03
C:/temp/dataset/0/13_12.odb,Step-1,Increment      1: Step Time =    1.000,"PART-1-1",           571,       7.58992,       17.5073,            0.,NA,NA,"",   335.903E-03,   206.815E-03,  -264.686E-03,   7.29926E-03
C:/temp/dataset/0/13_12.odb,Step-1,Increment      1: Step Time =    1.000,"PART-1-1",           572,       6.37141,       19.4306,            0.,NA,NA,"",   344.594E-03,   190.611E-03,  -287.076E-03,   9.99120E-03
C:/temp/dataset/0/13_12.odb,Step-1,Increment      1: Step Time =    1.000,"PART-1-1",           573,            5.,       18.3333,            0.,NA,NA,"",   346.778E-03,   192.188E-03,  -288.650E-03,   12.7423E-03
C:/temp/dataset/0/13_12.odb,Step-1,Increment      1: Step Time =    1.000,"PART-1-1",           574,           15.,         23.75,            0.,NA,NA,"",   311.443E-03,   193.275E-03,  -244.216E-03,   797.558E-06
C:/temp/dataset/0/13_12.odb,Step-1,Increment      1: Step Time =    1.000,"PART-1-1",           575,         -3.75,          -20.,            0.,NA,NA,"",   6.53691E-03,  -4.57092E-03,  -4.67309E-03,   2.30665E-03
C:/temp/dataset/0/13_12.odb,Step-1,Increment      1: Step Time =    1.000,"PART-1-1",           576,      -5.05545,      -21.0122,            0.,NA,NA,"",   8.86283E-03,  -4.00995E-03,  -7.90380E-03,   2.12348E-03
C:/temp/dataset/0/13_12.odb,Step-1,Increment      1: Step Time =    1.000,"PART-1-1",           577,       7.51719,       25.3425,            0.,NA,NA,"",   369.523E-03,   175.234E-03,  -325.331E-03,   10.2341E-03
C:/temp/dataset/0/13_12.odb,Step-1,Increment      1: Step Time =    1.000,"PART-1-1",           578,       6.22510,       24.4051,            0.,NA,NA,"",   375.275E-03,   170.122E-03,  -334.499E-03,   11.7406E-03
C:/temp/dataset/0/13_12.odb,Step-1,Increment      1: Step Time =    1.000,"PART-1-1",           579,       7.27278,       23.2327,            0.,NA,NA,"",   359.768E-03,   176.291E-03,  -313.615E-03,   11.0657E-03
C:/temp/dataset/0/13_12.odb,Step-1,Increment      1: Step Time =    1.000,"PART-1-1",           580,       8.56487,       24.1701,            0.,NA,NA,"",   354.572E-03,   180.791E-03,  -305.017E-03,   9.14615E-03
C:/temp/dataset/0/13_12.odb,Step-1,Increment      1: Step Time =    1.000,"PART-1-1",           581,            5.,      -8.33333,            0.,NA,NA,"",   129.953E-03,   103.879E-03,  -78.0815E-03,   6.32566E-03
C:/temp/dataset/0/13_12.odb,Step-1,Increment      1: Step Time =    1.000,"PART-1-1",           582,       7.86568,      -7.92961,            0.,NA,NA,"",   153.174E-03,   115.033E-03,  -101.142E-03,   6.23220E-03
C:/temp/dataset/0/13_12.odb,Step-1,Increment      1: Step Time =    1.000,"PART-1-1",           583,       6.55300,      -6.36051,            0.,NA,NA,"",   159.466E-03,   123.426E-03,  -100.972E-03,   6.48593E-03
C:/temp/dataset/0/13_12.odb,Step-1,Increment      1: Step Time =    1.000,"PART-1-1",           584,       2.48006,       24.7002,            0.,NA,NA,"",   386.792E-03,   154.346E-03,  -354.662E-03,   6.08965E-03
C:/temp/dataset/0/13_12.odb,Step-1,Increment      1: Step Time =    1.000,"PART-1-1",           585,       1.90437,       23.5201,            0.,NA,NA,"",   376.410E-03,   147.153E-03,  -346.454E-03,   5.07458E-03
C:/temp/dataset/0/13_12.odb,Step-1,Increment      1: Step Time =    1.000,"PART-1-1",           586,       3.20717,       23.2686,            0.,NA,NA,"",   379.627E-03,   151.994E-03,  -347.871E-03,   7.08132E-03
C:/temp/dataset/0/13_12.odb,Step-1,Increment      1: Step Time =    1.000,"PART-1-1",           587,       3.78286,       24.4486,            0.,NA,NA,"",   387.191E-03,   158.346E-03,  -353.332E-03,   8.54649E-03
C:/temp/dataset/0/13_12.odb,Step-1,Increment      1: Step Time =    1.000,"PART-1-1",           588,   574.843E-03,       25.7278,            0.,NA,NA,"",   376.162E-03,   156.026E-03,  -342.278E-03,   6.41255E-03
C:/temp/dataset/0/13_12.odb,Step-1,Increment      1: Step Time =    1.000,"PART-1-1",           589,       1.89275,       27.1317,            0.,NA,NA,"",   400.558E-03,   165.271E-03,  -364.872E-03,   8.13602E-03
C:/temp/dataset/0/13_12.odb,Step-1,Increment      1: Step Time =    1.000,"PART-1-1",           590,   743.770E-03,       27.8321,            0.,NA,NA,"",   392.184E-03,   171.528E-03,  -352.685E-03,   8.69167E-03
C:/temp/dataset/0/13_12.odb,Step-1,Increment      1: Step Time =    1.000,"PART-1-1",           591,  -574.133E-03,       26.4282,            0.,NA,NA,"",   362.969E-03,   161.700E-03,  -324.961E-03,   7.63651E-03
C:/temp/dataset/0/13_12.odb,Step-1,Increment      1: Step Time =    1.000,"PART-1-1",           592,          1.25,           30.,            0.,NA,NA,"",   421.440E-03,   196.896E-03,  -372.617E-03,   13.9986E-03
C:/temp/dataset/0/13_12.odb,Step-1,Increment      1: Step Time =    1.000,"PART-1-1",           593,  -258.432E-03,       28.8495,            0.,NA,NA,"",   383.054E-03,   186.708E-03,  -334.470E-03,   9.53872E-03
C:/temp/dataset/0/13_12.odb,Step-1,Increment      1: Step Time =    1.000,"PART-1-1",           594,       3.99806,       26.6235,            0.,NA,NA,"",   403.745E-03,   165.723E-03,  -368.166E-03,   9.42848E-03
C:/temp/dataset/0/13_12.odb,Step-1,Increment      1: Step Time =    1.000,"PART-1-1",           595,       4.96332,       25.4314,            0.,NA,NA,"",   391.071E-03,   165.922E-03,  -354.128E-03,   10.0392E-03
C:/temp/dataset/0/13_12.odb,Step-1,Increment      1: Step Time =    1.000,"PART-1-1",           596,       6.59236,       26.5350,            0.,NA,NA,"",   385.454E-03,   171.776E-03,  -345.062E-03,   11.0584E-03
C:/temp/dataset/0/13_12.odb,Step-1,Increment      1: Step Time =    1.000,"PART-1-1",           597,          -1.5,           30.,            0.,NA,NA,"",   371.975E-03,   218.664E-03,  -300.918E-03,   6.04878E-03
C:/temp/dataset/0/13_12.odb,Step-1,Increment      1: Step Time =    1.000,"PART-1-1",           598,      -3.21021,       28.8021,            0.,NA,NA,"",   335.638E-03,   202.581E-03,  -267.608E-03,   4.36054E-03
C:/temp/dataset/0/13_12.odb,Step-1,Increment      1: Step Time =    1.000,"PART-1-1",           599,      -1.96864,       27.6516,            0.,NA,NA,"",   346.200E-03,   178.954E-03,  -296.361E-03,   7.55981E-03
C:/temp/dataset/0/13_12.odb,Step-1,Increment      1: Step Time =    1.000,"PART-1-1",           600,       2.23679,       22.3955,            0.,NA,NA,"",   372.429E-03,   144.338E-03,  -343.322E-03,   6.58980E-03
C:/temp/dataset/0/13_12.odb,Step-1,Increment      1: Step Time =    1.000,"PART-1-1",           601,       6.10470,      -23.0953,            0.,NA,NA,"",   17.8134E-03,   5.91631E-03,  -16.8023E-03,   3.83003E-03
C:/temp/dataset/0/13_12.odb,Step-1,Increment      1: Step Time =    1.000,"PART-1-1",           602,       5.87020,      -25.1929,            0.,NA,NA,"",   10.0584E-03,   578.426E-06,  -10.0418E-03,   2.81293E-03
C:/temp/dataset/0/13_12.odb,Step-1,Increment      1: Step Time =    1.000,"PART-1-1",           603,       7.19944,      -25.3013,            0.,NA,NA,"",   13.4538E-03,   2.04061E-03,  -13.2981E-03,   3.80231E-03
C:/temp/dataset/0/13_12.odb,Step-1,Increment      1: Step Time =    1.000,"PART-1-1",           604,       10.0350,      -14.2359,            0.,NA,NA,"",   108.395E-03,   71.6487E-03,  -81.3381E-03,   6.08092E-03
C:/temp/dataset/0/13_12.odb,Step-1,Increment      1: Step Time =    1.000,"PART-1-1",           605,       11.6788,      -7.40939,            0.,NA,NA,"",   183.212E-03,   129.452E-03,  -129.649E-03,   5.96243E-03
C:/temp/dataset/0/13_12.odb,Step-1,Increment      1: Step Time =    1.000,"PART-1-1",           606,       11.2427,      -1.09783,            0.,NA,NA,"",   236.767E-03,   174.640E-03,  -159.873E-03,   5.71103E-03
C:/temp/dataset/0/13_12.odb,Step-1,Increment      1: Step Time =    1.000,"PART-1-1",           607,       7.93860,       19.8912,            0.,NA,NA,"",   340.980E-03,   195.455E-03,  -279.401E-03,   8.69679E-03
C:/temp/dataset/0/13_12.odb,Step-1,Increment      1: Step Time =    1.000,"PART-1-1",           608,       8.98253,       18.5426,            0.,NA,NA,"",   335.185E-03,   206.820E-03,  -263.770E-03,   6.66711E-03
C:/temp/dataset/0/13_12.odb,Step-1,Increment      1: Step Time =    1.000,"PART-1-1",           609,       9.31070,       20.7205,            0.,NA,NA,"",   338.398E-03,   196.916E-03,  -275.204E-03,   7.53922E-03
C:/temp/dataset/0/13_12.odb,Step-1,Increment      1: Step Time =    1.000,"PART-1-1",           610,       3.88086,       22.5675,            0.,NA,NA,"",   374.870E-03,   154.048E-03,  -341.756E-03,   8.86987E-03
C:/temp/dataset/0/13_12.odb,Step-1,Increment      1: Step Time =    1.000,"PART-1-1",           611,       2.67965,       25.8706,            0.,NA,NA,"",   395.986E-03,   159.943E-03,  -362.248E-03,   7.06562E-03
C:/temp/dataset/0/13_12.odb,Step-1,Increment      1: Step Time =    1.000,"PART-1-1",           612,            5.,          -15.,            0.,NA,NA,"",   68.8707E-03,   53.3564E-03,  -43.5461E-03,   5.20570E-03
C:/temp/dataset/0/13_12.odb,Step-1,Increment      1: Step Time =    1.000,"PART-1-1",           613,       6.27023,      -16.3841,            0.,NA,NA,"",   65.2265E-03,   46.4240E-03,  -45.8182E-03,   5.19726E-03
C:/temp/dataset/0/13_12.odb,Step-1,Increment      1: Step Time =    1.000,"PART-1-1",           614,       7.51616,      -14.5750,            0.,NA,NA,"",   88.9334E-03,   62.6009E-03,  -63.1687E-03,   5.64653E-03
C:/temp/dataset/0/13_12.odb,Step-1,Increment      1: Step Time =    1.000,"PART-1-1",           615,       6.15302,       13.2331,            0.,NA,NA,"",   316.335E-03,   210.524E-03,  -236.109E-03,   9.14036E-03
C:/temp/dataset/0/13_12.odb,Step-1,Increment      1: Step Time =    1.000,"PART-1-1",           616,       7.37153,       14.6431,            0.,NA,NA,"",   325.194E-03,   214.012E-03,  -244.846E-03,   8.18961E-03
C:/temp/dataset/0/13_12.odb,Step-1,Increment      1: Step Time =    1.000,"PART-1-1",           617,            5.,           15.,            0.,NA,NA,"",   324.807E-03,   203.302E-03,  -253.314E-03,   10.5046E-03
C:/temp/dataset/0/13_12.odb,Step-1,Increment      1: Step Time =    1.000,"PART-1-1",           618,            5.,       11.6667,            0.,NA,NA,"",   303.504E-03,   205.618E-03,  -223.239E-03,   9.78957E-03
C:/temp/dataset/0/13_12.odb,Step-1,Increment      1: Step Time =    1.000,"PART-1-1",           619,       6.12690,       10.0064,            0.,NA,NA,"",   296.217E-03,   208.494E-03,  -210.416E-03,   8.68480E-03
C:/temp/dataset/0/13_12.odb,Step-1,Increment      1: Step Time =    1.000,"PART-1-1",           620,       7.27992,       11.5729,            0.,NA,NA,"",   309.354E-03,   214.643E-03,  -222.774E-03,   8.01472E-03
C:/temp/dataset/0/13_12.odb,Step-1,Increment      1: Step Time =    1.000,"PART-1-1",           621,       6.15632,   278.618E-03,            0.,NA,NA,"",   219.161E-03,   168.656E-03,  -139.952E-03,   7.42799E-03
C:/temp/dataset/0/13_12.odb,Step-1,Increment      1: Step Time =    1.000,"PART-1-1",           622,            5.,      -1.66667,            0.,NA,NA,"",   193.701E-03,   152.322E-03,  -119.658E-03,   7.51234E-03
C:/temp/dataset/0/13_12.odb,Step-1,Increment      1: Step Time =    1.000,"PART-1-1",           623,       6.25252,      -2.97068,            0.,NA,NA,"",   189.784E-03,   147.461E-03,  -119.472E-03,   6.96516E-03
C:/temp/dataset/0/13_12.odb,Step-1,Increment      1: Step Time =    1.000,"PART-1-1",           624,       7.67955,      -17.4721,            0.,NA,NA,"",   65.1903E-03,   41.9746E-03,  -49.8790E-03,   5.25049E-03
C:/temp/dataset/0/13_12.odb,Step-1,Increment      1: Step Time =    1.000,"PART-1-1",           625,            5.,      -18.3333,            0.,NA,NA,"",   41.1781E-03,   30.1612E-03,  -28.0346E-03,   5.03549E-03
C:/temp/dataset/0/13_12.odb,Step-1,Increment      1: Step Time =    1.000,"PART-1-1",           626,       6.40932,      -19.4213,            0.,NA,NA,"",   41.9225E-03,   25.5700E-03,  -33.2215E-03,   4.85738E-03
C:/temp/dataset/0/13_12.odb,Step-1,Increment      1: Step Time =    1.000,"PART-1-1",           627,      -1.73152,      -24.7018,            0.,NA,NA,"",   576.529E-06,   483.138E-06,  -314.584E-06,   441.154E-06
C:/temp/dataset/0/13_12.odb,Step-1,Increment      1: Step Time =    1.000,"PART-1-1",           628,       9.06065,      -18.5206,            0.,NA,NA,"",   65.1384E-03,   38.2151E-03,  -52.7505E-03,   5.77311E-03
C:/temp/dataset/0/13_12.odb,Step-1,Increment      1: Step Time =    1.000,"PART-1-1",           629,       8.80686,      -15.8614,            0.,NA,NA,"",   85.9708E-03,   56.3335E-03,  -64.9423E-03,   5.77781E-03
C:/temp/dataset/0/13_12.odb,Step-1,Increment      1: Step Time =    1.000,"PART-1-1",           630,       10.3171,      -8.61722,            0.,NA,NA,"",   162.829E-03,   116.330E-03,  -113.932E-03,   6.08796E-03
C:/temp/dataset/0/13_12.odb,Step-1,Increment      1: Step Time =    1.000,"PART-1-1",           631,       8.85917,      -9.88939,            0.,NA,NA,"",   141.094E-03,   102.350E-03,  -97.1190E-03,   6.09998E-03
C:/temp/dataset/0/13_12.odb,Step-1,Increment      1: Step Time =    1.000,"PART-1-1",           632,       8.74431,      -12.9496,            0.,NA,NA,"",   111.656E-03,   78.0858E-03,  -79.8104E-03,   5.93464E-03
C:/temp/dataset/0/13_12.odb,Step-1,Increment      1: Step Time =    1.000,"PART-1-1",           633,       6.89786,       21.2129,            0.,NA,NA,"",   349.751E-03,   180.105E-03,  -299.813E-03,   12.1774E-03
C:/temp/dataset/0/13_12.odb,Step-1,Increment      1: Step Time =    1.000,"PART-1-1",           634,       10.2659,      -2.76771,            0.,NA,NA,"",   216.620E-03,   160.563E-03,  -145.408E-03,   6.06977E-03
C:/temp/dataset/0/13_12.odb,Step-1,Increment      1: Step Time =    1.000,"PART-1-1",           635,       7.80552,      -4.33119,            0.,NA,NA,"",   187.021E-03,   142.308E-03,  -121.347E-03,   6.53937E-03
C:/temp/dataset/0/13_12.odb,Step-1,Increment      1: Step Time =    1.000,"PART-1-1",           636,            5.,           -5.,            0.,NA,NA,"",   161.958E-03,   128.953E-03,  -97.9881E-03,   6.92612E-03
C:/temp/dataset/0/13_12.odb,Step-1,Increment      1: Step Time =    1.000,"PART-1-1",           637,       7.27801,       2.13112,            0.,NA,NA,"",   241.975E-03,   183.207E-03,  -158.073E-03,   7.22562E-03
C:/temp/dataset/0/13_12.odb,Step-1,Increment      1: Step Time =    1.000,"PART-1-1",           638,       6.12168,       3.51917,            0.,NA,NA,"",   247.159E-03,   186.590E-03,  -162.086E-03,   7.86955E-03
C:/temp/dataset/0/13_12.odb,Step-1,Increment      1: Step Time =    1.000,"PART-1-1",           639,            5.,       1.66667,            0.,NA,NA,"",   224.321E-03,   172.786E-03,  -143.056E-03,   8.08463E-03
C:/temp/dataset/0/13_12.odb,Step-1,Increment      1: Step Time =    1.000,"PART-1-1",           640,            5.,            5.,            0.,NA,NA,"",   253.123E-03,   189.208E-03,  -168.141E-03,   8.64297E-03
C:/temp/dataset/0/13_12.odb,Step-1,Increment      1: Step Time =    1.000,"PART-1-1",           641,       6.11481,       6.76207,            0.,NA,NA,"",   273.001E-03,   200.195E-03,  -185.611E-03,   8.29175E-03
C:/temp/dataset/0/13_12.odb,Step-1,Increment      1: Step Time =    1.000,"PART-1-1",           642,       8.53738,       13.0133,            0.,NA,NA,"",   318.869E-03,   219.193E-03,  -231.586E-03,   7.10448E-03
C:/temp/dataset/0/13_12.odb,Step-1,Increment      1: Step Time =    1.000,"PART-1-1",           643,       8.69606,       15.9130,            0.,NA,NA,"",   329.751E-03,   215.890E-03,  -249.253E-03,   6.90505E-03
C:/temp/dataset/0/13_12.odb,Step-1,Increment      1: Step Time =    1.000,"PART-1-1",           644,       9.56938,       22.9454,            0.,NA,NA,"",   343.092E-03,   188.333E-03,  -286.781E-03,   7.74861E-03
C:/temp/dataset/0/13_12.odb,Step-1,Increment      1: Step Time =    1.000,"PART-1-1",           645,       8.28908,       21.9981,            0.,NA,NA,"",   346.917E-03,   185.821E-03,  -292.953E-03,   9.60248E-03
C:/temp/dataset/0/13_12.odb,Step-1,Increment      1: Step Time =    1.000,"PART-1-1",           646,      -3.61415,       26.3795,            0.,NA,NA,"",   309.850E-03,   167.110E-03,  -260.924E-03,   6.18582E-03
C:/temp/dataset/0/13_12.odb,Step-1,Increment      1: Step Time =    1.000,"PART-1-1",           647,      -6.18563,       28.7596,            0.,NA,NA,"",   293.333E-03,   208.841E-03,  -205.985E-03,   1.81084E-03
C:/temp/dataset/0/13_12.odb,Step-1,Increment      1: Step Time =    1.000,"PART-1-1",           648,      -4.89584,       27.5617,            0.,NA,NA,"",   298.467E-03,   186.449E-03,  -233.065E-03,   4.06346E-03
C:/temp/dataset/0/13_12.odb,Step-1,Increment      1: Step Time =    1.000,"PART-1-1",           649,          -4.5,           30.,            0.,NA,NA,"",   331.357E-03,   229.127E-03,  -239.371E-03,   2.81839E-03
C:/temp/dataset/0/13_12.odb,Step-1,Increment      1: Step Time =    1.000,"PART-1-1",           650,          -15.,          19.5,            0.,NA,NA,"",   78.8834E-03,   59.9787E-03,  -51.2361E-03,   1.55018E-03
C:/temp/dataset/0/13_12.odb,Step-1,Increment      1: Step Time =    1.000,"PART-1-1",           651,      -13.6835,       18.2834,            0.,NA,NA,"",   82.0340E-03,   42.4046E-03,  -70.2241E-03,   707.854E-06
C:/temp/dataset/0/13_12.odb,Step-1,Increment      1: Step Time =    1.000,"PART-1-1",           652,      -12.3643,       20.0316,            0.,NA,NA,"",   110.560E-03,   66.7091E-03,  -88.1667E-03,   593.623E-06
C:/temp/dataset/0/13_12.odb,Step-1,Increment      1: Step Time =    1.000,"PART-1-1",           653,      -13.6808,       21.2481,            0.,NA,NA,"",   109.804E-03,   85.2940E-03,  -69.1508E-03,   516.394E-06
C:/temp/dataset/0/13_12.odb,Step-1,Increment      1: Step Time =    1.000,"PART-1-1",           654,      -6.08047,      -19.7739,            0.,NA,NA,"",   17.3853E-03,  -10.0198E-03,  -14.2075E-03,   2.58117E-03
C:/temp/dataset/0/13_12.odb,Step-1,Increment      1: Step Time =    1.000,"PART-1-1",           655,      -7.17803,      -20.6070,            0.,NA,NA,"",   17.6547E-03,  -8.90348E-03,  -15.2453E-03,   2.78622E-03
C:/temp/dataset/0/13_12.odb,Step-1,Increment      1: Step Time =    1.000,"PART-1-1",           656,       5.87583,      -21.1387,            0.,NA,NA,"",   26.0177E-03,   13.1246E-03,  -22.4648E-03,   4.45969E-03
C:/temp/dataset/0/13_12.odb,Step-1,Increment      1: Step Time =    1.000,"PART-1-1",           657,       4.61047,      -23.6002,            0.,NA,NA,"",   9.76346E-03,   2.57769E-03,  -9.41704E-03,   2.17403E-03
C:/temp/dataset/0/13_12.odb,Step-1,Increment      1: Step Time =    1.000,"PART-1-1",           658,       4.56928,      -26.4448,            0.,NA,NA,"",   5.08257E-03,  -1.61979E-03,  -4.81755E-03,   1.84093E-03
C:/temp/dataset/0/13_12.odb,Step-1,Increment      1: Step Time =    1.000,"PART-1-1",           659,       5.04464,       23.4223,            0.,NA,NA,"",   375.569E-03,   162.468E-03,  -338.610E-03,   10.7626E-03
C:/temp/dataset/0/13_12.odb,Step-1,Increment      1: Step Time =    1.000,"PART-1-1",           660,       5.88156,       22.4475,            0.,NA,NA,"",   363.488E-03,   167.873E-03,  -322.401E-03,   12.8726E-03
C:/temp/dataset/0/13_12.odb,Step-1,Increment      1: Step Time =    1.000,"PART-1-1",           661,      -1.61333,      -27.2257,            0.,NA,NA,"",   361.072E-06,   74.7479E-06,  -353.250E-06,   596.149E-06
C:/temp/dataset/0/13_12.odb,Step-1,Increment      1: Step Time =    1.000,"PART-1-1",           662,      -3.01002,      -28.6350,            0.,NA,NA,"",   603.551E-06,   408.962E-06,  -443.874E-06,   547.871E-06
C:/temp/dataset/0/13_12.odb,Step-1,Increment      1: Step Time =    1.000,"PART-1-1",           663,          -1.5,          -30.,            0.,NA,NA,"",            0.,  -6.30865E-42,  -1.11640E-39,   486.208E-06
C:/temp/dataset/0/13_12.odb,Step-1,Increment      1: Step Time =    1.000,"PART-1-1",           664,            5.,       8.33333,            0.,NA,NA,"",   279.548E-03,   200.464E-03,  -194.836E-03,   9.18643E-03
C:/temp/dataset/0/13_12.odb,Step-1,Increment      1: Step Time =    1.000,"PART-1-1",           665,       8.16766,      -19.9578,            0.,NA,NA,"",   48.5140E-03,   26.4859E-03,  -40.6461E-03,   5.57408E-03
C:/temp/dataset/0/13_12.odb,Step-1,Increment      1: Step Time =    1.000,"PART-1-1",           666,       7.85169,      -26.8977,            0.,NA,NA,"",   9.24122E-03,   211.247E-06,  -9.23880E-03,   3.84788E-03
C:/temp/dataset/0/13_12.odb,Step-1,Increment      1: Step Time =    1.000,"PART-1-1",           667,          -4.5,          -30.,            0.,NA,NA,"",            0.,   529.900E-42,  -1.76618E-39,   849.404E-06
C:/temp/dataset/0/13_12.odb,Step-1,Increment      1: Step Time =    1.000,"PART-1-1",           668,      -7.38541,       11.9129,            0.,NA,NA,"",   126.979E-03,  -17.7390E-03,  -125.734E-03,   5.04018E-03
C:/temp/dataset/0/13_12.odb,Step-1,Increment      1: Step Time =    1.000,"PART-1-1",           669,      -9.84369,       11.4885,            0.,NA,NA,"",   106.929E-03,  -25.0839E-03,  -103.945E-03,   2.97717E-03
C:/temp/dataset/0/13_12.odb,Step-1,Increment      1: Step Time =    1.000,"PART-1-1",           670,           -5.,      -18.4615,            0.,NA,NA,"",   19.1241E-03,  -13.7660E-03,  -13.2751E-03,   2.69612E-03
C:/temp/dataset/0/13_12.odb,Step-1,Increment      1: Step Time =    1.000,"PART-1-1",           671,      -6.12192,      -16.9214,            0.,NA,NA,"",   28.9939E-03,  -20.2655E-03,  -20.7354E-03,   2.70580E-03
C:/temp/dataset/0/13_12.odb,Step-1,Increment      1: Step Time =    1.000,"PART-1-1",           672,      -12.3453,      -25.6066,            0.,NA,NA,"",   13.1305E-03,  -5.85026E-03,  -11.7552E-03,   3.26379E-03
C:/temp/dataset/0/13_12.odb,Step-1,Increment      1: Step Time =    1.000,"PART-1-1",           673,      -10.6437,      -26.7860,            0.,NA,NA,"",   6.98000E-03,  -2.18308E-03,  -6.62983E-03,   2.73648E-03
C:/temp/dataset/0/13_12.odb,Step-1,Increment      1: Step Time =    1.000,"PART-1-1",           674,      -9.83114,      -25.4438,            0.,NA,NA,"",   9.38337E-03,  -2.92649E-03,  -8.91534E-03,   2.58319E-03
C:/temp/dataset/0/13_12.odb,Step-1,Increment      1: Step Time =    1.000,"PART-1-1",           675,      -8.43320,      -25.2132,            0.,NA,NA,"",   7.82393E-03,  -1.75549E-03,  -7.62445E-03,   2.21653E-03
C:/temp/dataset/0/13_12.odb,Step-1,Increment      1: Step Time =    1.000,"PART-1-1",           676,      -9.78639,       17.5920,            0.,NA,NA,"",   124.642E-03,   34.1183E-03,  -119.882E-03,   2.39847E-03
C:/temp/dataset/0/13_12.odb,Step-1,Increment      1: Step Time =    1.000,"PART-1-1",           677,      -11.0716,       18.8358,            0.,NA,NA,"",   116.261E-03,   49.8334E-03,  -105.040E-03,   1.38150E-03
C:/temp/dataset/0/13_12.odb,Step-1,Increment      1: Step Time =    1.000,"PART-1-1",           678,      -12.3675,       17.0640,            0.,NA,NA,"",   90.8254E-03,   26.6213E-03,  -86.8364E-03,   456.619E-06
C:/temp/dataset/0/13_12.odb,Step-1,Increment      1: Step Time =    1.000,"PART-1-1",           679,      -12.1189,      -19.2948,            0.,NA,NA,"",   35.7402E-03,  -20.0401E-03,  -29.5932E-03,   3.08502E-03
C:/temp/dataset/0/13_12.odb,Step-1,Increment      1: Step Time =    1.000,"PART-1-1",           680,      -11.0109,      -17.4013,            0.,NA,NA,"",   40.4546E-03,  -24.6707E-03,  -32.0614E-03,   2.92824E-03
C:/temp/dataset/0/13_12.odb,Step-1,Increment      1: Step Time =    1.000,"PART-1-1",           681,      -8.01079,      -21.5107,            0.,NA,NA,"",   16.8626E-03,  -7.64942E-03,  -15.0277E-03,   2.75844E-03
C:/temp/dataset/0/13_12.odb,Step-1,Increment      1: Step Time =    1.000,"PART-1-1",           682,           4.5,          -30.,            0.,NA,NA,"",            0.,  -1.25038E-39,  -4.05114E-39,   1.99318E-03
C:/temp/dataset/0/13_12.odb,Step-1,Increment      1: Step Time =    1.000,"PART-1-1",           683,       6.14133,      -28.2363,            0.,NA,NA,"",   3.90771E-03,  -1.69982E-03,  -3.51864E-03,   2.64472E-03
C:/temp/dataset/0/13_12.odb,Step-1,Increment      1: Step Time =    1.000,"PART-1-1",           684,      -9.14726,       28.6966,            0.,NA,NA,"",   257.306E-03,   209.969E-03,  -148.727E-03,   441.371E-06
C:/temp/dataset/0/13_12.odb,Step-1,Increment      1: Step Time =    1.000,"PART-1-1",           685,         -10.5,           30.,            0.,NA,NA,"",   264.464E-03,   233.278E-03,  -124.589E-03,   236.979E-06
C:/temp/dataset/0/13_12.odb,Step-1,Increment      1: Step Time =    1.000,"PART-1-1",           686,      -6.18127,      -10.8771,            0.,NA,NA,"",   54.9104E-03,  -39.9216E-03,  -37.7017E-03,   3.43876E-03
C:/temp/dataset/0/13_12.odb,Step-1,Increment      1: Step Time =    1.000,"PART-1-1",           687,      -6.16241,      -13.9212,            0.,NA,NA,"",   41.7891E-03,  -30.3174E-03,  -28.7609E-03,   3.08589E-03
C:/temp/dataset/0/13_12.odb,Step-1,Increment      1: Step Time =    1.000,"PART-1-1",           688,           -5.,      -12.3077,            0.,NA,NA,"",   45.1569E-03,  -33.7809E-03,  -29.9666E-03,   3.40466E-03
C:/temp/dataset/0/13_12.odb,Step-1,Increment      1: Step Time =    1.000,"PART-1-1",           689,         -10.5,          -30.,            0.,NA,NA,"",            0.,   54.6983E-42,  -4.95119E-39,   2.10875E-03
C:/temp/dataset/0/13_12.odb,Step-1,Increment      1: Step Time =    1.000,"PART-1-1",           690,          -15.,          22.5,            0.,NA,NA,"",   116.068E-03,   105.648E-03,  -48.0650E-03,   1.00464E-03
C:/temp/dataset/0/13_12.odb,Step-1,Increment      1: Step Time =    1.000,"PART-1-1",           691,          -15.,          16.5,            0.,NA,NA,"",   59.5668E-03,   20.9685E-03,  -55.7541E-03,   1.80280E-03
C:/temp/dataset/0/13_12.odb,Step-1,Increment      1: Step Time =    1.000,"PART-1-1",           692,      -13.6840,       15.2806,            0.,NA,NA,"",   72.0310E-03,   6.57140E-03,  -71.7306E-03,   648.763E-06
C:/temp/dataset/0/13_12.odb,Step-1,Increment      1: Step Time =    1.000,"PART-1-1",           693,          -15.,          13.5,            0.,NA,NA,"",   61.2911E-03,  -10.1017E-03,  -60.4529E-03,   1.65218E-03
C:/temp/dataset/0/13_12.odb,Step-1,Increment      1: Step Time =    1.000,"PART-1-1",           694,      -6.20685,       4.43382,            0.,NA,NA,"",   110.186E-03,  -51.6072E-03,  -97.3530E-03,   5.22853E-03
C:/temp/dataset/0/13_12.odb,Step-1,Increment      1: Step Time =    1.000,"PART-1-1",           695,           -5.,       6.15385,            0.,NA,NA,"",   118.384E-03,  -43.2037E-03,  -110.219E-03,   6.23543E-03
C:/temp/dataset/0/13_12.odb,Step-1,Increment      1: Step Time =    1.000,"PART-1-1",           696,      -6.20051,      -1.69203,            0.,NA,NA,"",   91.0094E-03,  -57.4877E-03,  -70.5541E-03,   4.52753E-03
C:/temp/dataset/0/13_12.odb,Step-1,Increment      1: Step Time =    1.000,"PART-1-1",           697,      -6.19850,      -4.75722,            0.,NA,NA,"",   79.9264E-03,  -54.3437E-03,  -58.6088E-03,   4.16699E-03
C:/temp/dataset/0/13_12.odb,Step-1,Increment      1: Step Time =    1.000,"PART-1-1",           698,           -5.,      -3.07692,            0.,NA,NA,"",   83.8721E-03,  -54.0042E-03,  -64.1722E-03,   4.83944E-03
C:/temp/dataset/0/13_12.odb,Step-1,Increment      1: Step Time =    1.000,"PART-1-1",           699,      -12.3926,       7.99194,            0.,NA,NA,"",   93.5576E-03,  -47.8961E-03,  -80.3678E-03,   1.16008E-03
C:/temp/dataset/0/13_12.odb,Step-1,Increment      1: Step Time =    1.000,"PART-1-1",           700,          -15.,           7.5,            0.,NA,NA,"",   83.8802E-03,  -50.2464E-03,  -67.1653E-03,   836.442E-06
C:/temp/dataset/0/13_12.odb,Step-1,Increment      1: Step Time =    1.000,"PART-1-1",           701,      -12.4166,      -1.07984,            0.,NA,NA,"",   95.9431E-03,  -66.4490E-03,  -69.2069E-03,   1.76301E-03
C:/temp/dataset/0/13_12.odb,Step-1,Increment      1: Step Time =    1.000,"PART-1-1",           702,          -15.,          -1.5,            0.,NA,NA,"",   96.1536E-03,  -67.6129E-03,  -68.3668E-03,   531.654E-06
C:/temp/dataset/0/13_12.odb,Step-1,Increment      1: Step Time =    1.000,"PART-1-1",           703,      -12.3992,      -10.1184,            0.,NA,NA,"",   72.8883E-03,  -50.3273E-03,  -52.7244E-03,   2.43174E-03
C:/temp/dataset/0/13_12.odb,Step-1,Increment      1: Step Time =    1.000,"PART-1-1",           704,          -15.,         -10.5,            0.,NA,NA,"",   77.9657E-03,  -51.7365E-03,  -58.3266E-03,   1.95012E-03
C:/temp/dataset/0/13_12.odb,Step-1,Increment      1: Step Time =    1.000,"PART-1-1",           705,      -6.19567,      -7.82333,            0.,NA,NA,"",   67.7840E-03,  -48.2057E-03,  -47.6538E-03,   3.80300E-03
C:/temp/dataset/0/13_12.odb,Step-1,Increment      1: Step Time =    1.000,"PART-1-1",           706,           -5.,      -6.15385,            0.,NA,NA,"",   71.4740E-03,  -49.6203E-03,  -51.4428E-03,   4.35862E-03
C:/temp/dataset/0/13_12.odb,Step-1,Increment      1: Step Time =    1.000,"PART-1-1",           707,          -15.,         -22.5,            0.,NA,NA,"",   30.9095E-03,  -15.9631E-03,  -26.4684E-03,   3.71712E-03
C:/temp/dataset/0/13_12.odb,Step-1,Increment      1: Step Time =    1.000,"PART-1-1",           708,      -13.7480,      -24.0946,            0.,NA,NA,"",   21.5762E-03,  -10.6777E-03,  -18.7488E-03,   3.57399E-03
C:/temp/dataset/0/13_12.odb,Step-1,Increment      1: Step Time =    1.000,"PART-1-1",           709,      -13.4685,      -20.9699,            0.,NA,NA,"",   32.7622E-03,  -17.2258E-03,  -27.8681E-03,   3.39569E-03
C:/temp/dataset/0/13_12.odb,Step-1,Increment      1: Step Time =    1.000,"PART-1-1",           710,          -15.,         -25.5,            0.,NA,NA,"",   19.3630E-03,  -10.3256E-03,  -16.3800E-03,   3.83345E-03
C:/temp/dataset/0/13_12.odb,Step-1,Increment      1: Step Time =    1.000,"PART-1-1",           711,           7.5,          -30.,            0.,NA,NA,"",            0.,  -1.17317E-39,  -7.18385E-39,   3.25226E-03
C:/temp/dataset/0/13_12.odb,Step-1,Increment      1: Step Time =    1.000,"PART-1-1",           712,       9.21036,      -28.6615,            0.,NA,NA,"",   4.52480E-03,  -146.364E-06,  -4.52243E-03,   4.25967E-03
C:/temp/dataset/0/13_12.odb,Step-1,Increment      1: Step Time =    1.000,"PART-1-1",           713,          10.5,          -30.,            0.,NA,NA,"",            0.,   3.29445E-42,  -10.9427E-39,   4.62268E-03
C:/temp/dataset/0/13_12.odb,Step-1,Increment      1: Step Time =    1.000,"PART-1-1",           714,          -7.5,           30.,            0.,NA,NA,"",   294.596E-03,   233.289E-03,  -179.897E-03,   507.946E-06
C:/temp/dataset/0/13_12.odb,Step-1,Increment      1: Step Time =    1.000,"PART-1-1",           715,          -15.,         -19.5,            0.,NA,NA,"",   43.3578E-03,  -23.6728E-03,  -36.3249E-03,   3.44496E-03
C:/temp/dataset/0/13_12.odb,Step-1,Increment      1: Step Time =    1.000,"PART-1-1",           716,      -6.18713,       13.6475,            0.,NA,NA,"",   145.011E-03,  -634.599E-06,  -145.009E-03,   6.29100E-03
C:/temp/dataset/0/13_12.odb,Step-1,Increment      1: Step Time =    1.000,"PART-1-1",           717,           -5.,       15.3846,            0.,NA,NA,"",   168.628E-03,   19.6445E-03,  -167.479E-03,   7.70968E-03
C:/temp/dataset/0/13_12.odb,Step-1,Increment      1: Step Time =    1.000,"PART-1-1",           718,           -5.,       12.3077,            0.,NA,NA,"",   147.548E-03,  -8.31636E-03,  -147.313E-03,   7.13071E-03
C:/temp/dataset/0/13_12.odb,Step-1,Increment      1: Step Time =    1.000,"PART-1-1",           719,           -5.,            0.,            0.,NA,NA,"",   95.5831E-03,  -54.9323E-03,  -78.2213E-03,   5.31415E-03
C:/temp/dataset/0/13_12.odb,Step-1,Increment      1: Step Time =    1.000,"PART-1-1",           720,      -6.20706,       1.36812,            0.,NA,NA,"",   100.976E-03,  -56.8488E-03,  -83.4530E-03,   4.87955E-03
C:/temp/dataset/0/13_12.odb,Step-1,Increment      1: Step Time =    1.000,"PART-1-1",           721,           -5.,       3.07692,            0.,NA,NA,"",   106.856E-03,  -51.5946E-03,  -93.5743E-03,   5.78098E-03
C:/temp/dataset/0/13_12.odb,Step-1,Increment      1: Step Time =    1.000,"PART-1-1",           722,           -5.,      -9.23077,            0.,NA,NA,"",   58.4678E-03,  -42.5988E-03,  -40.0477E-03,   3.87628E-03
C:/temp/dataset/0/13_12.odb,Step-1,Increment      1: Step Time =    1.000,"PART-1-1",           723,      -8.78100,      -23.2553,            0.,NA,NA,"",   13.3656E-03,  -4.99308E-03,  -12.3979E-03,   2.58081E-03
C:/temp/dataset/0/13_12.odb,Step-1,Increment      1: Step Time =    1.000,"PART-1-1",           724,      -11.0900,      -14.4409,            0.,NA,NA,"",   52.8509E-03,  -34.9031E-03,  -39.6862E-03,   2.82159E-03
C:/temp/dataset/0/13_12.odb,Step-1,Increment      1: Step Time =    1.000,"PART-1-1",           725,      -11.1215,      -11.4552,            0.,NA,NA,"",   64.9385E-03,  -44.8128E-03,  -46.9981E-03,   2.72669E-03
C:/temp/dataset/0/13_12.odb,Step-1,Increment      1: Step Time =    1.000,"PART-1-1",           726,      -11.1359,      -8.44257,            0.,NA,NA,"",   76.1399E-03,  -53.6189E-03,  -54.0583E-03,   2.62255E-03
C:/temp/dataset/0/13_12.odb,Step-1,Increment      1: Step Time =    1.000,"PART-1-1",           727,      -11.1177,       9.73479,            0.,NA,NA,"",   98.1490E-03,  -37.8461E-03,  -90.5588E-03,   2.01760E-03
C:/temp/dataset/0/13_12.odb,Step-1,Increment      1: Step Time =    1.000,"PART-1-1",           728,      -11.1376,       6.69211,            0.,NA,NA,"",   99.9722E-03,  -52.5970E-03,  -85.0177E-03,   2.10306E-03
C:/temp/dataset/0/13_12.odb,Step-1,Increment      1: Step Time =    1.000,"PART-1-1",           729,      -11.1470,       3.65829,            0.,NA,NA,"",   100.349E-03,  -61.4319E-03,  -79.3472E-03,   2.19754E-03
C:/temp/dataset/0/13_12.odb,Step-1,Increment      1: Step Time =    1.000,"PART-1-1",           730,           -5.,      -15.3846,            0.,NA,NA,"",   31.9732E-03,  -23.9355E-03,  -21.1985E-03,   2.96741E-03
C:/temp/dataset/0/13_12.odb,Step-1,Increment      1: Step Time =    1.000,"PART-1-1",           731,      -11.1521,   627.191E-03,            0.,NA,NA,"",   98.1929E-03,  -65.1715E-03,  -73.4475E-03,   2.29884E-03
C:/temp/dataset/0/13_12.odb,Step-1,Increment      1: Step Time =    1.000,"PART-1-1",           732,      -11.1477,      -2.39557,            0.,NA,NA,"",   93.2754E-03,  -64.5906E-03,  -67.2931E-03,   2.40685E-03
C:/temp/dataset/0/13_12.odb,Step-1,Increment      1: Step Time =    1.000,"PART-1-1",           733,      -11.1389,      -5.41444,            0.,NA,NA,"",   85.7887E-03,  -60.4855E-03,  -60.8375E-03,   2.51636E-03
