ODB Name,Step,Frame,Part Instance Name,    êﬂì_ÉâÉxÉã,X,Y,Z,Section Name,Material Name,Section Point,   U-Magnitude,          U-U1,          U-U2,       S-Mises
C:/temp/dataset/0/13_21.odb,Step-1,Increment      1: Step Time =    1.000,"PART-1-1",             1,            5.,           20.,            0.,NA,NA,"",   636.862E-03,   336.227E-03,  -540.874E-03,   23.9513E-03
C:/temp/dataset/0/13_21.odb,Step-1,Increment      1: Step Time =    1.000,"PART-1-1",             2,            0.,           20.,            0.,NA,NA,"",   591.542E-03,   221.245E-03,  -548.610E-03,   22.4379E-03
C:/temp/dataset/0/13_21.odb,Step-1,Increment      1: Step Time =    1.000,"PART-1-1",             3,            5.,           10.,            0.,NA,NA,"",   527.471E-03,   383.542E-03,  -362.107E-03,   16.7726E-03
C:/temp/dataset/0/13_21.odb,Step-1,Increment      1: Step Time =    1.000,"PART-1-1",             4,            5.,            0.,            0.,NA,NA,"",   378.262E-03,   304.445E-03,  -224.488E-03,   13.7362E-03
C:/temp/dataset/0/13_21.odb,Step-1,Increment      1: Step Time =    1.000,"PART-1-1",             5,            5.,          -10.,            0.,NA,NA,"",   204.100E-03,   168.274E-03,  -115.500E-03,   10.3112E-03
C:/temp/dataset/0/13_21.odb,Step-1,Increment      1: Step Time =    1.000,"PART-1-1",             6,            5.,          -20.,            0.,NA,NA,"",   46.4557E-03,   31.9649E-03,  -33.7101E-03,   7.01619E-03
C:/temp/dataset/0/13_21.odb,Step-1,Increment      1: Step Time =    1.000,"PART-1-1",             7,            0.,          -20.,            0.,NA,NA,"",   7.95398E-03,   6.91551E-03,  -3.92957E-03,   4.44272E-03
C:/temp/dataset/0/13_21.odb,Step-1,Increment      1: Step Time =    1.000,"PART-1-1",             8,           -5.,          -20.,            0.,NA,NA,"",   20.7038E-03,  -12.4180E-03,  -16.5663E-03,   4.34911E-03
C:/temp/dataset/0/13_21.odb,Step-1,Increment      1: Step Time =    1.000,"PART-1-1",             9,           -5.,           20.,            0.,NA,NA,"",   397.574E-03,   159.770E-03,  -364.059E-03,   16.5339E-03
C:/temp/dataset/0/13_21.odb,Step-1,Increment      1: Step Time =    1.000,"PART-1-1",            10,           15.,           30.,            0.,NA,NA,"",   508.170E-03,   277.822E-03,  -425.502E-03,   48.8561E-06
C:/temp/dataset/0/13_21.odb,Step-1,Increment      1: Step Time =    1.000,"PART-1-1",            11,           7.5,           30.,            0.,NA,NA,"",   661.999E-03,   277.145E-03,  -601.193E-03,   14.2527E-03
C:/temp/dataset/0/13_21.odb,Step-1,Increment      1: Step Time =    1.000,"PART-1-1",            12,            0.,           30.,            0.,NA,NA,"",   717.007E-03,   395.923E-03,  -597.783E-03,   18.2964E-03
C:/temp/dataset/0/13_21.odb,Step-1,Increment      1: Step Time =    1.000,"PART-1-1",            13,          -15.,           30.,            0.,NA,NA,"",   448.577E-03,   441.764E-03,  -77.8883E-03,   35.2652E-06
C:/temp/dataset/0/13_21.odb,Step-1,Increment      1: Step Time =    1.000,"PART-1-1",            14,          -15.,          -30.,            0.,NA,NA,"",            0.,  -3.31105E-39,  -5.71317E-39,   9.04253E-03
C:/temp/dataset/0/13_21.odb,Step-1,Increment      1: Step Time =    1.000,"PART-1-1",            15,           15.,          -30.,            0.,NA,NA,"",            0.,   7.06838E-39,  -12.7451E-39,   20.8926E-03
C:/temp/dataset/0/13_21.odb,Step-1,Increment      1: Step Time =    1.000,"PART-1-1",            16,           15.,         -22.5,            0.,NA,NA,"",   118.883E-03,   60.7347E-03,  -102.198E-03,   14.7832E-03
C:/temp/dataset/0/13_21.odb,Step-1,Increment      1: Step Time =    1.000,"PART-1-1",            17,           15.,          -15.,            0.,NA,NA,"",   243.655E-03,   144.490E-03,  -196.190E-03,   12.6017E-03
C:/temp/dataset/0/13_21.odb,Step-1,Increment      1: Step Time =    1.000,"PART-1-1",            18,           15.,          -7.5,            0.,NA,NA,"",   370.669E-03,   251.173E-03,  -272.594E-03,   9.90199E-03
C:/temp/dataset/0/13_21.odb,Step-1,Increment      1: Step Time =    1.000,"PART-1-1",            19,           15.,            0.,            0.,NA,NA,"",   483.084E-03,   351.548E-03,  -331.337E-03,   7.37655E-03
C:/temp/dataset/0/13_21.odb,Step-1,Increment      1: Step Time =    1.000,"PART-1-1",            20,           15.,           7.5,            0.,NA,NA,"",   561.506E-03,   419.613E-03,  -373.113E-03,   5.01211E-03
C:/temp/dataset/0/13_21.odb,Step-1,Increment      1: Step Time =    1.000,"PART-1-1",            21,           15.,           15.,            0.,NA,NA,"",   588.436E-03,   430.905E-03,  -400.721E-03,   3.50450E-03
C:/temp/dataset/0/13_21.odb,Step-1,Increment      1: Step Time =    1.000,"PART-1-1",            22,           15.,          22.5,            0.,NA,NA,"",   568.968E-03,   379.437E-03,  -423.972E-03,   2.36084E-03
C:/temp/dataset/0/13_21.odb,Step-1,Increment      1: Step Time =    1.000,"PART-1-1",            23,       3.33333,           20.,            0.,NA,NA,"",   649.080E-03,   296.703E-03,  -577.297E-03,   25.4565E-03
C:/temp/dataset/0/13_21.odb,Step-1,Increment      1: Step Time =    1.000,"PART-1-1",            24,       1.66667,           20.,            0.,NA,NA,"",   629.818E-03,   257.365E-03,  -574.834E-03,   25.2539E-03
C:/temp/dataset/0/13_21.odb,Step-1,Increment      1: Step Time =    1.000,"PART-1-1",            25,            5.,       13.3333,            0.,NA,NA,"",   567.375E-03,   387.640E-03,  -414.306E-03,   17.9003E-03
C:/temp/dataset/0/13_21.odb,Step-1,Increment      1: Step Time =    1.000,"PART-1-1",            26,            5.,       16.6667,            0.,NA,NA,"",   602.229E-03,   377.905E-03,  -468.901E-03,   19.8038E-03
C:/temp/dataset/0/13_21.odb,Step-1,Increment      1: Step Time =    1.000,"PART-1-1",            27,            5.,       3.33333,            0.,NA,NA,"",   432.539E-03,   339.999E-03,  -267.377E-03,   14.8046E-03
C:/temp/dataset/0/13_21.odb,Step-1,Increment      1: Step Time =    1.000,"PART-1-1",            28,            5.,       6.66667,            0.,NA,NA,"",   482.569E-03,   367.001E-03,  -313.342E-03,   15.8120E-03
C:/temp/dataset/0/13_21.odb,Step-1,Increment      1: Step Time =    1.000,"PART-1-1",            29,            5.,      -6.66667,            0.,NA,NA,"",   262.356E-03,   216.310E-03,  -148.461E-03,   11.4856E-03
C:/temp/dataset/0/13_21.odb,Step-1,Increment      1: Step Time =    1.000,"PART-1-1",            30,            5.,      -3.33333,            0.,NA,NA,"",   320.985E-03,   262.463E-03,  -184.784E-03,   12.6360E-03
C:/temp/dataset/0/13_21.odb,Step-1,Increment      1: Step Time =    1.000,"PART-1-1",            31,            5.,      -16.6667,            0.,NA,NA,"",   96.4605E-03,   75.7875E-03,  -59.6730E-03,   8.35295E-03
C:/temp/dataset/0/13_21.odb,Step-1,Increment      1: Step Time =    1.000,"PART-1-1",            32,            5.,      -13.3333,            0.,NA,NA,"",   148.082E-03,   120.654E-03,  -85.8545E-03,   9.22466E-03
C:/temp/dataset/0/13_21.odb,Step-1,Increment      1: Step Time =    1.000,"PART-1-1",            33,           2.5,          -20.,            0.,NA,NA,"",   20.2727E-03,   17.7095E-03,  -9.86709E-03,   5.51160E-03
C:/temp/dataset/0/13_21.odb,Step-1,Increment      1: Step Time =    1.000,"PART-1-1",            34,          -2.5,          -20.,            0.,NA,NA,"",   5.68636E-03,  -2.47596E-03,  -5.11901E-03,   4.09163E-03
C:/temp/dataset/0/13_21.odb,Step-1,Increment      1: Step Time =    1.000,"PART-1-1",            35,           -5.,       16.9231,            0.,NA,NA,"",   324.079E-03,   88.0104E-03,  -311.900E-03,   13.9344E-03
C:/temp/dataset/0/13_21.odb,Step-1,Increment      1: Step Time =    1.000,"PART-1-1",            36,           -5.,       13.8462,            0.,NA,NA,"",   278.008E-03,   31.6068E-03,  -276.205E-03,   12.5823E-03
C:/temp/dataset/0/13_21.odb,Step-1,Increment      1: Step Time =    1.000,"PART-1-1",            37,           -5.,       10.7692,            0.,NA,NA,"",   241.983E-03,  -13.2848E-03,  -241.618E-03,   11.9273E-03
C:/temp/dataset/0/13_21.odb,Step-1,Increment      1: Step Time =    1.000,"PART-1-1",            38,           -5.,       7.69231,            0.,NA,NA,"",   214.586E-03,  -46.4099E-03,  -209.507E-03,   11.2120E-03
C:/temp/dataset/0/13_21.odb,Step-1,Increment      1: Step Time =    1.000,"PART-1-1",            39,           -5.,       4.61538,            0.,NA,NA,"",   192.111E-03,  -68.7533E-03,  -179.387E-03,   10.4858E-03
C:/temp/dataset/0/13_21.odb,Step-1,Increment      1: Step Time =    1.000,"PART-1-1",            40,           -5.,       1.53846,            0.,NA,NA,"",   171.951E-03,  -81.4845E-03,  -151.418E-03,   9.71502E-03
C:/temp/dataset/0/13_21.odb,Step-1,Increment      1: Step Time =    1.000,"PART-1-1",            41,           -5.,      -1.53846,            0.,NA,NA,"",   152.188E-03,  -85.8927E-03,  -125.633E-03,   8.91973E-03
C:/temp/dataset/0/13_21.odb,Step-1,Increment      1: Step Time =    1.000,"PART-1-1",            42,           -5.,      -4.61538,            0.,NA,NA,"",   131.774E-03,  -83.3258E-03,  -102.084E-03,   8.10275E-03
C:/temp/dataset/0/13_21.odb,Step-1,Increment      1: Step Time =    1.000,"PART-1-1",            43,           -5.,      -7.69231,            0.,NA,NA,"",   110.363E-03,  -75.1707E-03,  -80.8047E-03,   7.26857E-03
C:/temp/dataset/0/13_21.odb,Step-1,Increment      1: Step Time =    1.000,"PART-1-1",            44,           -5.,      -10.7692,            0.,NA,NA,"",   88.1739E-03,  -62.8567E-03,  -61.8359E-03,   6.43363E-03
C:/temp/dataset/0/13_21.odb,Step-1,Increment      1: Step Time =    1.000,"PART-1-1",            45,           -5.,      -13.8462,            0.,NA,NA,"",   65.6972E-03,  -47.7869E-03,  -45.0836E-03,   5.61811E-03
C:/temp/dataset/0/13_21.odb,Step-1,Increment      1: Step Time =    1.000,"PART-1-1",            46,           -5.,      -16.9231,            0.,NA,NA,"",   43.8291E-03,  -31.3422E-03,  -30.6375E-03,   4.95462E-03
C:/temp/dataset/0/13_21.odb,Step-1,Increment      1: Step Time =    1.000,"PART-1-1",            47,          -2.5,           20.,            0.,NA,NA,"",   509.269E-03,   179.546E-03,  -476.569E-03,   15.5018E-03
C:/temp/dataset/0/13_21.odb,Step-1,Increment      1: Step Time =    1.000,"PART-1-1",            48,        13.125,           30.,            0.,NA,NA,"",   534.169E-03,   277.692E-03,  -456.315E-03,   709.734E-06
C:/temp/dataset/0/13_21.odb,Step-1,Increment      1: Step Time =    1.000,"PART-1-1",            49,         11.25,           30.,            0.,NA,NA,"",   562.666E-03,   276.053E-03,  -490.293E-03,   1.00141E-03
C:/temp/dataset/0/13_21.odb,Step-1,Increment      1: Step Time =    1.000,"PART-1-1",            50,         9.375,           30.,            0.,NA,NA,"",   599.934E-03,   275.437E-03,  -532.968E-03,   3.63536E-03
C:/temp/dataset/0/13_21.odb,Step-1,Increment      1: Step Time =    1.000,"PART-1-1",            51,            5.,           30.,            0.,NA,NA,"",   739.590E-03,   310.385E-03,  -671.308E-03,   25.0693E-03
C:/temp/dataset/0/13_21.odb,Step-1,Increment      1: Step Time =    1.000,"PART-1-1",            52,           2.5,           30.,            0.,NA,NA,"",   757.242E-03,   349.034E-03,  -672.005E-03,   27.7876E-03
C:/temp/dataset/0/13_21.odb,Step-1,Increment      1: Step Time =    1.000,"PART-1-1",            53,           -3.,           30.,            0.,NA,NA,"",   633.637E-03,   421.999E-03,  -472.666E-03,   7.63500E-03
C:/temp/dataset/0/13_21.odb,Step-1,Increment      1: Step Time =    1.000,"PART-1-1",            54,           -6.,           30.,            0.,NA,NA,"",   570.211E-03,   437.282E-03,  -365.958E-03,   2.35873E-03
C:/temp/dataset/0/13_21.odb,Step-1,Increment      1: Step Time =    1.000,"PART-1-1",            55,           -9.,           30.,            0.,NA,NA,"",   513.916E-03,   440.687E-03,  -264.396E-03,   265.560E-06
C:/temp/dataset/0/13_21.odb,Step-1,Increment      1: Step Time =    1.000,"PART-1-1",            56,          -12.,           30.,            0.,NA,NA,"",   472.333E-03,   440.787E-03,  -169.722E-03,   421.749E-06
C:/temp/dataset/0/13_21.odb,Step-1,Increment      1: Step Time =    1.000,"PART-1-1",            57,          -15.,           27.,            0.,NA,NA,"",   358.073E-03,   349.719E-03,  -76.8947E-03,   440.256E-06
C:/temp/dataset/0/13_21.odb,Step-1,Increment      1: Step Time =    1.000,"PART-1-1",            58,          -15.,           24.,            0.,NA,NA,"",   270.723E-03,   259.355E-03,  -77.6285E-03,   1.13528E-03
C:/temp/dataset/0/13_21.odb,Step-1,Increment      1: Step Time =    1.000,"PART-1-1",            59,          -15.,           21.,            0.,NA,NA,"",   191.687E-03,   173.879E-03,  -80.6838E-03,   2.10706E-03
C:/temp/dataset/0/13_21.odb,Step-1,Increment      1: Step Time =    1.000,"PART-1-1",            60,          -15.,           18.,            0.,NA,NA,"",   130.361E-03,   97.3384E-03,  -86.7137E-03,   2.94891E-03
C:/temp/dataset/0/13_21.odb,Step-1,Increment      1: Step Time =    1.000,"PART-1-1",            61,          -15.,           15.,            0.,NA,NA,"",   100.200E-03,   33.4535E-03,  -94.4509E-03,   3.09129E-03
C:/temp/dataset/0/13_21.odb,Step-1,Increment      1: Step Time =    1.000,"PART-1-1",            62,          -15.,           12.,            0.,NA,NA,"",   103.183E-03,  -16.8549E-03,  -101.797E-03,   2.62098E-03
C:/temp/dataset/0/13_21.odb,Step-1,Increment      1: Step Time =    1.000,"PART-1-1",            63,          -15.,            9.,            0.,NA,NA,"",   120.765E-03,  -54.6587E-03,  -107.687E-03,   1.94268E-03
C:/temp/dataset/0/13_21.odb,Step-1,Increment      1: Step Time =    1.000,"PART-1-1",            64,          -15.,            6.,            0.,NA,NA,"",   138.231E-03,  -81.3204E-03,  -111.781E-03,   1.20859E-03
C:/temp/dataset/0/13_21.odb,Step-1,Increment      1: Step Time =    1.000,"PART-1-1",            65,          -15.,            3.,            0.,NA,NA,"",   150.385E-03,  -98.1305E-03,  -113.956E-03,   460.942E-06
C:/temp/dataset/0/13_21.odb,Step-1,Increment      1: Step Time =    1.000,"PART-1-1",            66,          -15.,            0.,            0.,NA,NA,"",   155.981E-03,  -106.331E-03,  -114.122E-03,   315.632E-06
C:/temp/dataset/0/13_21.odb,Step-1,Increment      1: Step Time =    1.000,"PART-1-1",            67,          -15.,           -3.,            0.,NA,NA,"",   155.170E-03,  -107.186E-03,  -112.200E-03,   1.10123E-03
C:/temp/dataset/0/13_21.odb,Step-1,Increment      1: Step Time =    1.000,"PART-1-1",            68,          -15.,           -6.,            0.,NA,NA,"",   148.633E-03,  -101.986E-03,  -108.124E-03,   1.90602E-03
C:/temp/dataset/0/13_21.odb,Step-1,Increment      1: Step Time =    1.000,"PART-1-1",            69,          -15.,           -9.,            0.,NA,NA,"",   137.272E-03,  -92.0412E-03,  -101.843E-03,   2.72754E-03
C:/temp/dataset/0/13_21.odb,Step-1,Increment      1: Step Time =    1.000,"PART-1-1",            70,          -15.,          -12.,            0.,NA,NA,"",   122.055E-03,  -78.6819E-03,  -93.3086E-03,   3.57150E-03
C:/temp/dataset/0/13_21.odb,Step-1,Increment      1: Step Time =    1.000,"PART-1-1",            71,          -15.,          -15.,            0.,NA,NA,"",   103.927E-03,  -63.2977E-03,  -82.4267E-03,   4.46529E-03
C:/temp/dataset/0/13_21.odb,Step-1,Increment      1: Step Time =    1.000,"PART-1-1",            72,          -15.,          -18.,            0.,NA,NA,"",   83.8193E-03,  -47.4597E-03,  -69.0887E-03,   5.38447E-03
C:/temp/dataset/0/13_21.odb,Step-1,Increment      1: Step Time =    1.000,"PART-1-1",            73,          -15.,          -21.,            0.,NA,NA,"",   62.8225E-03,  -33.1450E-03,  -53.3674E-03,   6.15272E-03
C:/temp/dataset/0/13_21.odb,Step-1,Increment      1: Step Time =    1.000,"PART-1-1",            74,          -15.,          -24.,            0.,NA,NA,"",   42.2952E-03,  -21.7997E-03,  -36.2444E-03,   6.36592E-03
C:/temp/dataset/0/13_21.odb,Step-1,Increment      1: Step Time =    1.000,"PART-1-1",            75,          -15.,          -27.,            0.,NA,NA,"",   23.1792E-03,  -13.0245E-03,  -19.1738E-03,   6.80372E-03
C:/temp/dataset/0/13_21.odb,Step-1,Increment      1: Step Time =    1.000,"PART-1-1",            76,          -12.,          -30.,            0.,NA,NA,"",            0.,  -6.68778E-39,  -15.9216E-39,   3.93520E-03
C:/temp/dataset/0/13_21.odb,Step-1,Increment      1: Step Time =    1.000,"PART-1-1",            77,           -9.,          -30.,            0.,NA,NA,"",            0.,   5.24128E-39,  -10.4677E-39,   3.02704E-03
C:/temp/dataset/0/13_21.odb,Step-1,Increment      1: Step Time =    1.000,"PART-1-1",            78,           -6.,          -30.,            0.,NA,NA,"",            0.,  -546.705E-42,  -5.09640E-39,   1.96054E-03
C:/temp/dataset/0/13_21.odb,Step-1,Increment      1: Step Time =    1.000,"PART-1-1",            79,           -3.,          -30.,            0.,NA,NA,"",            0.,   2.05319E-39,  -3.48800E-39,   979.795E-06
C:/temp/dataset/0/13_21.odb,Step-1,Increment      1: Step Time =    1.000,"PART-1-1",            80,            0.,          -30.,            0.,NA,NA,"",            0.,   205.272E-42,  -2.06442E-39,   956.683E-06
C:/temp/dataset/0/13_21.odb,Step-1,Increment      1: Step Time =    1.000,"PART-1-1",            81,            3.,          -30.,            0.,NA,NA,"",            0.,  -6.75840E-39,  -8.80050E-39,   2.49378E-03
C:/temp/dataset/0/13_21.odb,Step-1,Increment      1: Step Time =    1.000,"PART-1-1",            82,            6.,          -30.,            0.,NA,NA,"",            0.,  -9.33804E-39,  -16.0084E-39,   4.44619E-03
C:/temp/dataset/0/13_21.odb,Step-1,Increment      1: Step Time =    1.000,"PART-1-1",            83,            9.,          -30.,            0.,NA,NA,"",            0.,  -9.33826E-39,  -21.4512E-39,   6.88484E-03
C:/temp/dataset/0/13_21.odb,Step-1,Increment      1: Step Time =    1.000,"PART-1-1",            84,           12.,          -30.,            0.,NA,NA,"",            0.,   12.6720E-39,  -35.6561E-39,   8.79787E-03
C:/temp/dataset/0/13_21.odb,Step-1,Increment      1: Step Time =    1.000,"PART-1-1",            85,           15.,         -27.5,            0.,NA,NA,"",   45.8375E-03,   26.7973E-03,  -37.1884E-03,   15.6819E-03
C:/temp/dataset/0/13_21.odb,Step-1,Increment      1: Step Time =    1.000,"PART-1-1",            86,           15.,          -25.,            0.,NA,NA,"",   81.1956E-03,   42.5331E-03,  -69.1640E-03,   14.3963E-03
C:/temp/dataset/0/13_21.odb,Step-1,Increment      1: Step Time =    1.000,"PART-1-1",            87,           15.,          -20.,            0.,NA,NA,"",   159.066E-03,   83.9593E-03,  -135.103E-03,   14.3326E-03
C:/temp/dataset/0/13_21.odb,Step-1,Increment      1: Step Time =    1.000,"PART-1-1",            88,           15.,         -17.5,            0.,NA,NA,"",   200.955E-03,   112.316E-03,  -166.637E-03,   13.5490E-03
C:/temp/dataset/0/13_21.odb,Step-1,Increment      1: Step Time =    1.000,"PART-1-1",            89,           15.,         -12.5,            0.,NA,NA,"",   286.534E-03,   179.106E-03,  -223.657E-03,   11.6714E-03
C:/temp/dataset/0/13_21.odb,Step-1,Increment      1: Step Time =    1.000,"PART-1-1",            90,           15.,          -10.,            0.,NA,NA,"",   329.064E-03,   215.006E-03,  -249.110E-03,   10.7749E-03
C:/temp/dataset/0/13_21.odb,Step-1,Increment      1: Step Time =    1.000,"PART-1-1",            91,           15.,           -5.,            0.,NA,NA,"",   410.691E-03,   286.635E-03,  -294.122E-03,   9.04677E-03
C:/temp/dataset/0/13_21.odb,Step-1,Increment      1: Step Time =    1.000,"PART-1-1",            92,           15.,          -2.5,            0.,NA,NA,"",   448.414E-03,   320.420E-03,  -313.698E-03,   8.20341E-03
C:/temp/dataset/0/13_21.odb,Step-1,Increment      1: Step Time =    1.000,"PART-1-1",            93,           15.,           2.5,            0.,NA,NA,"",   513.970E-03,   379.076E-03,  -347.083E-03,   6.56157E-03
C:/temp/dataset/0/13_21.odb,Step-1,Increment      1: Step Time =    1.000,"PART-1-1",            94,           15.,            5.,            0.,NA,NA,"",   540.343E-03,   402.071E-03,  -360.984E-03,   5.76860E-03
C:/temp/dataset/0/13_21.odb,Step-1,Increment      1: Step Time =    1.000,"PART-1-1",            95,           15.,           10.,            0.,NA,NA,"",   576.822E-03,   430.799E-03,  -383.583E-03,   4.31829E-03
C:/temp/dataset/0/13_21.odb,Step-1,Increment      1: Step Time =    1.000,"PART-1-1",            96,           15.,          12.5,            0.,NA,NA,"",   585.820E-03,   434.774E-03,  -392.628E-03,   3.77958E-03
C:/temp/dataset/0/13_21.odb,Step-1,Increment      1: Step Time =    1.000,"PART-1-1",            97,           15.,          17.5,            0.,NA,NA,"",   585.476E-03,   419.278E-03,  -408.642E-03,   3.58295E-03
C:/temp/dataset/0/13_21.odb,Step-1,Increment      1: Step Time =    1.000,"PART-1-1",            98,           15.,           20.,            0.,NA,NA,"",   578.720E-03,   401.443E-03,  -416.846E-03,   3.49865E-03
C:/temp/dataset/0/13_21.odb,Step-1,Increment      1: Step Time =    1.000,"PART-1-1",            99,           15.,           25.,            0.,NA,NA,"",   554.022E-03,   352.841E-03,  -427.134E-03,   201.422E-06
C:/temp/dataset/0/13_21.odb,Step-1,Increment      1: Step Time =    1.000,"PART-1-1",           100,           15.,          27.5,            0.,NA,NA,"",   531.992E-03,   318.490E-03,  -426.121E-03,   801.820E-06
C:/temp/dataset/0/13_21.odb,Step-1,Increment      1: Step Time =    1.000,"PART-1-1",           101,       3.77421,       21.6807,            0.,NA,NA,"",   660.267E-03,   296.123E-03,  -590.139E-03,   14.7252E-03
C:/temp/dataset/0/13_21.odb,Step-1,Increment      1: Step Time =    1.000,"PART-1-1",           102,   339.763E-03,       22.0764,            0.,NA,NA,"",   628.194E-03,   259.495E-03,  -572.093E-03,   12.0565E-03
C:/temp/dataset/0/13_21.odb,Step-1,Increment      1: Step Time =    1.000,"PART-1-1",           103,       2.04677,       21.7082,            0.,NA,NA,"",   653.989E-03,   275.214E-03,  -593.262E-03,   13.7429E-03
C:/temp/dataset/0/13_21.odb,Step-1,Increment      1: Step Time =    1.000,"PART-1-1",           104,       11.0234,       27.4901,            0.,NA,NA,"",   589.428E-03,   320.970E-03,  -494.372E-03,   4.40197E-03
C:/temp/dataset/0/13_21.odb,Step-1,Increment      1: Step Time =    1.000,"PART-1-1",           105,       8.98111,       27.5559,            0.,NA,NA,"",   633.002E-03,   324.906E-03,  -543.257E-03,   12.5460E-03
C:/temp/dataset/0/13_21.odb,Step-1,Increment      1: Step Time =    1.000,"PART-1-1",           106,      -4.39315,       22.5924,            0.,NA,NA,"",   479.538E-03,   239.468E-03,  -415.466E-03,   15.1748E-03
C:/temp/dataset/0/13_21.odb,Step-1,Increment      1: Step Time =    1.000,"PART-1-1",           107,       12.7609,      -22.7550,            0.,NA,NA,"",   92.4760E-03,   44.6792E-03,  -80.9665E-03,   12.8665E-03
C:/temp/dataset/0/13_21.odb,Step-1,Increment      1: Step Time =    1.000,"PART-1-1",           108,       12.5528,      -15.2766,            0.,NA,NA,"",   206.143E-03,   127.546E-03,  -161.947E-03,   11.6472E-03
C:/temp/dataset/0/13_21.odb,Step-1,Increment      1: Step Time =    1.000,"PART-1-1",           109,       12.2205,       7.28465,            0.,NA,NA,"",   543.937E-03,   410.098E-03,  -357.334E-03,   8.20593E-03
C:/temp/dataset/0/13_21.odb,Step-1,Increment      1: Step Time =    1.000,"PART-1-1",           110,       12.4622,       15.2934,            0.,NA,NA,"",   590.583E-03,   424.088E-03,  -411.021E-03,   6.79810E-03
C:/temp/dataset/0/13_21.odb,Step-1,Increment      1: Step Time =    1.000,"PART-1-1",           111,       12.8846,       22.6339,            0.,NA,NA,"",   584.248E-03,   374.833E-03,  -448.158E-03,   5.35665E-03
C:/temp/dataset/0/13_21.odb,Step-1,Increment      1: Step Time =    1.000,"PART-1-1",           112,  -340.860E-03,      -22.2697,            0.,NA,NA,"",   3.51621E-03,   3.44382E-03,  -709.801E-06,   1.59317E-03
C:/temp/dataset/0/13_21.odb,Step-1,Increment      1: Step Time =    1.000,"PART-1-1",           113,       6.83628,       27.6500,            0.,NA,NA,"",   689.796E-03,   325.483E-03,  -608.177E-03,   20.7953E-03
C:/temp/dataset/0/13_21.odb,Step-1,Increment      1: Step Time =    1.000,"PART-1-1",           114,       12.2535,       9.99399,            0.,NA,NA,"",   566.717E-03,   423.332E-03,  -376.773E-03,   7.79314E-03
C:/temp/dataset/0/13_21.odb,Step-1,Increment      1: Step Time =    1.000,"PART-1-1",           115,       12.4991,  -638.118E-03,            0.,NA,NA,"",   448.294E-03,   334.668E-03,  -298.270E-03,   9.15468E-03
C:/temp/dataset/0/13_21.odb,Step-1,Increment      1: Step Time =    1.000,"PART-1-1",           116,       12.8164,      -7.55827,            0.,NA,NA,"",   341.122E-03,   240.603E-03,  -241.815E-03,   10.2615E-03
C:/temp/dataset/0/13_21.odb,Step-1,Increment      1: Step Time =    1.000,"PART-1-1",           117,       12.7714,      -20.2702,            0.,NA,NA,"",   128.825E-03,   67.6295E-03,  -109.645E-03,   12.6500E-03
C:/temp/dataset/0/13_21.odb,Step-1,Increment      1: Step Time =    1.000,"PART-1-1",           118,      -1.80101,       22.4804,            0.,NA,NA,"",   572.320E-03,   248.906E-03,  -515.360E-03,   12.3375E-03
C:/temp/dataset/0/13_21.odb,Step-1,Increment      1: Step Time =    1.000,"PART-1-1",           119,       4.41791,       27.8041,            0.,NA,NA,"",   730.995E-03,   323.625E-03,  -655.454E-03,   18.1400E-03
C:/temp/dataset/0/13_21.odb,Step-1,Increment      1: Step Time =    1.000,"PART-1-1",           120,       2.00441,       27.9652,            0.,NA,NA,"",   726.775E-03,   327.057E-03,  -649.027E-03,   16.9196E-03
C:/temp/dataset/0/13_21.odb,Step-1,Increment      1: Step Time =    1.000,"PART-1-1",           121,      -2.69107,      -22.1951,            0.,NA,NA,"",   2.63149E-03,   404.154E-06,  -2.60027E-03,   1.40013E-03
C:/temp/dataset/0/13_21.odb,Step-1,Increment      1: Step Time =    1.000,"PART-1-1",           122,       1.88995,      -22.5465,            0.,NA,NA,"",   6.74039E-03,   5.50766E-03,  -3.88568E-03,   1.06726E-03
C:/temp/dataset/0/13_21.odb,Step-1,Increment      1: Step Time =    1.000,"PART-1-1",           123,       3.76320,      -23.2871,            0.,NA,NA,"",   12.4769E-03,   4.81454E-03,  -11.5106E-03,   2.27328E-03
C:/temp/dataset/0/13_21.odb,Step-1,Increment      1: Step Time =    1.000,"PART-1-1",           124,       12.5645,      -25.1614,            0.,NA,NA,"",   57.8187E-03,   26.5352E-03,  -51.3701E-03,   13.1653E-03
C:/temp/dataset/0/13_21.odb,Step-1,Increment      1: Step Time =    1.000,"PART-1-1",           125,       12.6631,      -17.7963,            0.,NA,NA,"",   166.225E-03,   95.2556E-03,  -136.224E-03,   12.1567E-03
C:/temp/dataset/0/13_21.odb,Step-1,Increment      1: Step Time =    1.000,"PART-1-1",           126,       12.5016,      -12.6810,            0.,NA,NA,"",   249.392E-03,   163.868E-03,  -187.999E-03,   11.1801E-03
C:/temp/dataset/0/13_21.odb,Step-1,Increment      1: Step Time =    1.000,"PART-1-1",           127,       12.5761,      -10.0660,            0.,NA,NA,"",   295.238E-03,   202.516E-03,  -214.832E-03,   10.7379E-03
C:/temp/dataset/0/13_21.odb,Step-1,Increment      1: Step Time =    1.000,"PART-1-1",           128,       13.0467,      -5.23700,            0.,NA,NA,"",   382.623E-03,   275.206E-03,  -265.823E-03,   9.73632E-03
C:/temp/dataset/0/13_21.odb,Step-1,Increment      1: Step Time =    1.000,"PART-1-1",           129,       12.8236,      -2.99729,            0.,NA,NA,"",   415.894E-03,   305.361E-03,  -282.351E-03,   9.38569E-03
C:/temp/dataset/0/13_21.odb,Step-1,Increment      1: Step Time =    1.000,"PART-1-1",           130,       12.3116,       1.92449,            0.,NA,NA,"",   482.601E-03,   363.807E-03,  -317.093E-03,   8.88431E-03
C:/temp/dataset/0/13_21.odb,Step-1,Increment      1: Step Time =    1.000,"PART-1-1",           131,       12.2319,       4.58053,            0.,NA,NA,"",   515.284E-03,   389.668E-03,  -337.159E-03,   8.56983E-03
C:/temp/dataset/0/13_21.odb,Step-1,Increment      1: Step Time =    1.000,"PART-1-1",           132,       12.3276,       12.6723,            0.,NA,NA,"",   582.430E-03,   428.155E-03,  -394.852E-03,   7.29537E-03
C:/temp/dataset/0/13_21.odb,Step-1,Increment      1: Step Time =    1.000,"PART-1-1",           133,       12.6288,       17.8043,            0.,NA,NA,"",   591.967E-03,   412.103E-03,  -424.965E-03,   6.35233E-03
C:/temp/dataset/0/13_21.odb,Step-1,Increment      1: Step Time =    1.000,"PART-1-1",           134,       12.7774,       20.2190,            0.,NA,NA,"",   589.243E-03,   394.895E-03,  -437.339E-03,   6.02748E-03
C:/temp/dataset/0/13_21.odb,Step-1,Increment      1: Step Time =    1.000,"PART-1-1",           135,       2.42682,       23.0828,            0.,NA,NA,"",   669.870E-03,   287.121E-03,  -605.217E-03,   10.0748E-03
C:/temp/dataset/0/13_21.odb,Step-1,Increment      1: Step Time =    1.000,"PART-1-1",           136,       13.0358,       27.4773,            0.,NA,NA,"",   557.716E-03,   319.536E-03,  -457.104E-03,   899.099E-06
C:/temp/dataset/0/13_21.odb,Step-1,Increment      1: Step Time =    1.000,"PART-1-1",           137,       10.8553,       25.1313,            0.,NA,NA,"",   602.580E-03,   347.865E-03,  -492.030E-03,   8.43185E-03
C:/temp/dataset/0/13_21.odb,Step-1,Increment      1: Step Time =    1.000,"PART-1-1",           138,       5.66135,       21.5046,            0.,NA,NA,"",   639.472E-03,   323.626E-03,  -551.534E-03,   25.1783E-03
C:/temp/dataset/0/13_21.odb,Step-1,Increment      1: Step Time =    1.000,"PART-1-1",           139,       1.38191,       23.9574,            0.,NA,NA,"",   666.408E-03,   286.518E-03,  -601.670E-03,   8.87595E-03
C:/temp/dataset/0/13_21.odb,Step-1,Increment      1: Step Time =    1.000,"PART-1-1",           140,       8.68595,       25.2651,            0.,NA,NA,"",   638.541E-03,   341.385E-03,  -539.621E-03,   15.5610E-03
C:/temp/dataset/0/13_21.odb,Step-1,Increment      1: Step Time =    1.000,"PART-1-1",           141,       12.9664,       25.0396,            0.,NA,NA,"",   574.995E-03,   351.419E-03,  -455.109E-03,   3.79902E-03
C:/temp/dataset/0/13_21.odb,Step-1,Increment      1: Step Time =    1.000,"PART-1-1",           142,       9.99676,      -12.8506,            0.,NA,NA,"",   215.308E-03,   149.399E-03,  -155.041E-03,   10.6134E-03
C:/temp/dataset/0/13_21.odb,Step-1,Increment      1: Step Time =    1.000,"PART-1-1",           143,       11.3735,      -5.41139,            0.,NA,NA,"",   359.873E-03,   265.323E-03,  -243.131E-03,   10.2762E-03
C:/temp/dataset/0/13_21.odb,Step-1,Increment      1: Step Time =    1.000,"PART-1-1",           144,       9.95511,       15.6727,            0.,NA,NA,"",   593.341E-03,   413.628E-03,  -425.399E-03,   9.83841E-03
C:/temp/dataset/0/13_21.odb,Step-1,Increment      1: Step Time =    1.000,"PART-1-1",           145,       9.67875,       10.0081,            0.,NA,NA,"",   555.888E-03,   412.686E-03,  -372.427E-03,   10.9348E-03
C:/temp/dataset/0/13_21.odb,Step-1,Increment      1: Step Time =    1.000,"PART-1-1",           146,       9.74913,       1.24671,            0.,NA,NA,"",   449.140E-03,   345.053E-03,  -287.516E-03,   10.8294E-03
C:/temp/dataset/0/13_21.odb,Step-1,Increment      1: Step Time =    1.000,"PART-1-1",           147,       10.3027,      -18.1986,            0.,NA,NA,"",   132.755E-03,   78.0582E-03,  -107.382E-03,   10.8186E-03
C:/temp/dataset/0/13_21.odb,Step-1,Increment      1: Step Time =    1.000,"PART-1-1",           148,       1.33525,      -24.5624,            0.,NA,NA,"",   1.98705E-03,   452.818E-06,  -1.93477E-03,   545.035E-06
C:/temp/dataset/0/13_21.odb,Step-1,Increment      1: Step Time =    1.000,"PART-1-1",           149,       9.11730,      -22.7103,            0.,NA,NA,"",   59.8368E-03,   25.4996E-03,  -54.1314E-03,   10.0548E-03
C:/temp/dataset/0/13_21.odb,Step-1,Increment      1: Step Time =    1.000,"PART-1-1",           150,       12.2648,      -27.5617,            0.,NA,NA,"",   26.5439E-03,   11.8198E-03,  -23.7670E-03,   12.5797E-03
C:/temp/dataset/0/13_21.odb,Step-1,Increment      1: Step Time =    1.000,"PART-1-1",           151,       10.6108,      -20.5371,            0.,NA,NA,"",   101.954E-03,   52.8959E-03,  -87.1582E-03,   11.2937E-03
C:/temp/dataset/0/13_21.odb,Step-1,Increment      1: Step Time =    1.000,"PART-1-1",           152,       10.0930,      -9.97392,            0.,NA,NA,"",   265.891E-03,   192.201E-03,  -183.729E-03,   10.6519E-03
C:/temp/dataset/0/13_21.odb,Step-1,Increment      1: Step Time =    1.000,"PART-1-1",           153,       9.63546,       7.06865,            0.,NA,NA,"",   525.459E-03,   397.638E-03,  -343.499E-03,   11.0051E-03
C:/temp/dataset/0/13_21.odb,Step-1,Increment      1: Step Time =    1.000,"PART-1-1",           154,       10.2222,       18.2240,            0.,NA,NA,"",   599.311E-03,   400.117E-03,  -446.184E-03,   9.79720E-03
C:/temp/dataset/0/13_21.odb,Step-1,Increment      1: Step Time =    1.000,"PART-1-1",           155,       10.5456,      -3.97788,            0.,NA,NA,"",   374.422E-03,   281.881E-03,  -246.445E-03,   10.4876E-03
C:/temp/dataset/0/13_21.odb,Step-1,Increment      1: Step Time =    1.000,"PART-1-1",           156,       10.0733,      -15.6212,            0.,NA,NA,"",   170.412E-03,   110.667E-03,  -129.589E-03,   10.5674E-03
C:/temp/dataset/0/13_21.odb,Step-1,Increment      1: Step Time =    1.000,"PART-1-1",           157,       10.5412,      -7.26051,            0.,NA,NA,"",   318.436E-03,   234.563E-03,  -215.364E-03,   10.5694E-03
C:/temp/dataset/0/13_21.odb,Step-1,Increment      1: Step Time =    1.000,"PART-1-1",           158,       9.98625,      -1.55753,            0.,NA,NA,"",   407.977E-03,   311.947E-03,  -262.934E-03,   10.6732E-03
C:/temp/dataset/0/13_21.odb,Step-1,Increment      1: Step Time =    1.000,"PART-1-1",           159,       9.65058,       4.13273,            0.,NA,NA,"",   489.157E-03,   374.406E-03,  -314.794E-03,   10.9481E-03
C:/temp/dataset/0/13_21.odb,Step-1,Increment      1: Step Time =    1.000,"PART-1-1",           160,       9.76871,       12.8936,            0.,NA,NA,"",   578.821E-03,   418.094E-03,  -400.288E-03,   10.6598E-03
C:/temp/dataset/0/13_21.odb,Step-1,Increment      1: Step Time =    1.000,"PART-1-1",           161,       10.4870,       20.5197,            0.,NA,NA,"",   601.617E-03,   383.048E-03,  -463.915E-03,   10.1744E-03
C:/temp/dataset/0/13_21.odb,Step-1,Increment      1: Step Time =    1.000,"PART-1-1",           162,       3.57821,       25.4429,            0.,NA,NA,"",   701.674E-03,   310.263E-03,  -629.351E-03,   15.0211E-03
C:/temp/dataset/0/13_21.odb,Step-1,Increment      1: Step Time =    1.000,"PART-1-1",           163,       6.34843,       25.4199,            0.,NA,NA,"",   679.050E-03,   328.520E-03,  -594.292E-03,   20.2806E-03
C:/temp/dataset/0/13_21.odb,Step-1,Increment      1: Step Time =    1.000,"PART-1-1",           164,       2.85591,      -26.4171,            0.,NA,NA,"",   4.72432E-03,  -2.57389E-03,  -3.96160E-03,   1.69181E-03
C:/temp/dataset/0/13_21.odb,Step-1,Increment      1: Step Time =    1.000,"PART-1-1",           165,  -631.401E-03,       25.1574,            0.,NA,NA,"",   633.972E-03,   293.755E-03,  -561.808E-03,   12.4133E-03
C:/temp/dataset/0/13_21.odb,Step-1,Increment      1: Step Time =    1.000,"PART-1-1",           166,  -516.865E-03,       27.6990,            0.,NA,NA,"",   662.508E-03,   333.295E-03,  -572.566E-03,   16.5565E-03
C:/temp/dataset/0/13_21.odb,Step-1,Increment      1: Step Time =    1.000,"PART-1-1",           167,      -6.99102,       22.3744,            0.,NA,NA,"",   383.426E-03,   221.617E-03,  -312.892E-03,   10.0175E-03
C:/temp/dataset/0/13_21.odb,Step-1,Increment      1: Step Time =    1.000,"PART-1-1",           168,      -5.11091,      -22.0245,            0.,NA,NA,"",   12.0599E-03,  -3.65587E-03,  -11.4925E-03,   3.34828E-03
C:/temp/dataset/0/13_21.odb,Step-1,Increment      1: Step Time =    1.000,"PART-1-1",           169,       6.75166,      -22.2774,            0.,NA,NA,"",   42.8772E-03,   17.7928E-03,  -39.0111E-03,   8.06417E-03
C:/temp/dataset/0/13_21.odb,Step-1,Increment      1: Step Time =    1.000,"PART-1-1",           170,       8.44380,       23.0750,            0.,NA,NA,"",   628.445E-03,   349.527E-03,  -522.278E-03,   17.0607E-03
C:/temp/dataset/0/13_21.odb,Step-1,Increment      1: Step Time =    1.000,"PART-1-1",           171,       3.98751,       23.4543,            0.,NA,NA,"",   676.176E-03,   302.666E-03,  -604.654E-03,   15.9850E-03
C:/temp/dataset/0/13_21.odb,Step-1,Increment      1: Step Time =    1.000,"PART-1-1",           172,       7.74283,       18.8612,            0.,NA,NA,"",   609.745E-03,   380.442E-03,  -476.500E-03,   13.1956E-03
C:/temp/dataset/0/13_21.odb,Step-1,Increment      1: Step Time =    1.000,"PART-1-1",           173,  -206.614E-03,      -27.1815,            0.,NA,NA,"",   977.535E-06,  -789.074E-06,  -577.006E-06,   1.15355E-03
C:/temp/dataset/0/13_21.odb,Step-1,Increment      1: Step Time =    1.000,"PART-1-1",           174,       10.6950,       22.8157,            0.,NA,NA,"",   603.954E-03,   365.800E-03,  -480.573E-03,   10.2617E-03
C:/temp/dataset/0/13_21.odb,Step-1,Increment      1: Step Time =    1.000,"PART-1-1",           175,       1.78109,       26.2982,            0.,NA,NA,"",   699.071E-03,   309.620E-03,  -626.766E-03,   12.0200E-03
C:/temp/dataset/0/13_21.odb,Step-1,Increment      1: Step Time =    1.000,"PART-1-1",           176,       7.62536,      -9.80486,            0.,NA,NA,"",   239.105E-03,   183.224E-03,  -153.624E-03,   10.5519E-03
C:/temp/dataset/0/13_21.odb,Step-1,Increment      1: Step Time =    1.000,"PART-1-1",           177,       7.50504,      -2.60802,            0.,NA,NA,"",   363.309E-03,   285.751E-03,  -224.366E-03,   11.7447E-03
C:/temp/dataset/0/13_21.odb,Step-1,Increment      1: Step Time =    1.000,"PART-1-1",           178,       7.24337,       3.70501,            0.,NA,NA,"",   461.531E-03,   357.529E-03,  -291.864E-03,   12.9736E-03
C:/temp/dataset/0/13_21.odb,Step-1,Increment      1: Step Time =    1.000,"PART-1-1",           179,       7.25379,       10.0129,            0.,NA,NA,"",   543.102E-03,   399.244E-03,  -368.190E-03,   13.9584E-03
C:/temp/dataset/0/13_21.odb,Step-1,Increment      1: Step Time =    1.000,"PART-1-1",           180,       7.22962,       6.85747,            0.,NA,NA,"",   505.096E-03,   383.025E-03,  -329.263E-03,   13.5062E-03
C:/temp/dataset/0/13_21.odb,Step-1,Increment      1: Step Time =    1.000,"PART-1-1",           181,       7.49186,      -13.0485,            0.,NA,NA,"",   182.053E-03,   135.253E-03,  -121.860E-03,   9.96172E-03
C:/temp/dataset/0/13_21.odb,Step-1,Increment      1: Step Time =    1.000,"PART-1-1",           182,       8.10600,      -6.05436,            0.,NA,NA,"",   310.628E-03,   240.628E-03,  -196.438E-03,   11.0673E-03
C:/temp/dataset/0/13_21.odb,Step-1,Increment      1: Step Time =    1.000,"PART-1-1",           183,       7.31265,   557.236E-03,            0.,NA,NA,"",   413.700E-03,   324.493E-03,  -256.617E-03,   12.3894E-03
C:/temp/dataset/0/13_21.odb,Step-1,Increment      1: Step Time =    1.000,"PART-1-1",           184,       7.30605,       13.1330,            0.,NA,NA,"",   574.419E-03,   404.568E-03,  -407.776E-03,   14.2953E-03
C:/temp/dataset/0/13_21.odb,Step-1,Increment      1: Step Time =    1.000,"PART-1-1",           185,       8.51669,      -21.0731,            0.,NA,NA,"",   73.9041E-03,   36.9289E-03,  -64.0162E-03,   9.98918E-03
C:/temp/dataset/0/13_21.odb,Step-1,Increment      1: Step Time =    1.000,"PART-1-1",           186,       7.54046,      -16.1016,            0.,NA,NA,"",   133.658E-03,   93.1079E-03,  -95.8920E-03,   9.30085E-03
C:/temp/dataset/0/13_21.odb,Step-1,Increment      1: Step Time =    1.000,"PART-1-1",           187,       7.81864,      -18.8426,            0.,NA,NA,"",   96.2702E-03,   58.7703E-03,  -76.2497E-03,   9.15340E-03
C:/temp/dataset/0/13_21.odb,Step-1,Increment      1: Step Time =    1.000,"PART-1-1",           188,       7.43701,       16.1533,            0.,NA,NA,"",   597.811E-03,   398.656E-03,  -445.478E-03,   14.0300E-03
C:/temp/dataset/0/13_21.odb,Step-1,Increment      1: Step Time =    1.000,"PART-1-1",           189,       8.13437,       20.9213,            0.,NA,NA,"",   615.811E-03,   361.450E-03,  -498.575E-03,   16.8010E-03
C:/temp/dataset/0/13_21.odb,Step-1,Increment      1: Step Time =    1.000,"PART-1-1",           190,       10.1795,      -24.9689,            0.,NA,NA,"",   43.1276E-03,   15.5035E-03,  -40.2446E-03,   10.3821E-03
C:/temp/dataset/0/13_21.odb,Step-1,Increment      1: Step Time =    1.000,"PART-1-1",           191,      -2.92607,      -24.6642,            0.,NA,NA,"",   2.29829E-03,   1.28604E-03,  -1.90479E-03,   1.09756E-03
C:/temp/dataset/0/13_21.odb,Step-1,Increment      1: Step Time =    1.000,"PART-1-1",           192,      -7.32959,       16.5303,            0.,NA,NA,"",   266.113E-03,   69.8982E-03,  -256.769E-03,   9.43867E-03
C:/temp/dataset/0/13_21.odb,Step-1,Increment      1: Step Time =    1.000,"PART-1-1",           193,      -3.80789,       25.1547,            0.,NA,NA,"",   536.576E-03,   295.989E-03,  -447.553E-03,   12.4330E-03
C:/temp/dataset/0/13_21.odb,Step-1,Increment      1: Step Time =    1.000,"PART-1-1",           194,      -7.16094,      -19.5479,            0.,NA,NA,"",   37.0728E-03,  -20.7392E-03,  -30.7291E-03,   4.69286E-03
C:/temp/dataset/0/13_21.odb,Step-1,Increment      1: Step Time =    1.000,"PART-1-1",           195,       6.10177,       23.3904,            0.,NA,NA,"",   658.255E-03,   324.912E-03,  -572.479E-03,   21.3526E-03
C:/temp/dataset/0/13_21.odb,Step-1,Increment      1: Step Time =    1.000,"PART-1-1",           196,      -3.02004,      -27.2699,            0.,NA,NA,"",   1.66996E-03,   1.14461E-03,  -1.21600E-03,   1.04262E-03
C:/temp/dataset/0/13_21.odb,Step-1,Increment      1: Step Time =    1.000,"PART-1-1",           197,      -5.46178,      -24.4382,            0.,NA,NA,"",   7.76103E-03,  -47.7595E-06,  -7.76089E-03,   2.32685E-03
C:/temp/dataset/0/13_21.odb,Step-1,Increment      1: Step Time =    1.000,"PART-1-1",           198,      -9.66724,       21.9754,            0.,NA,NA,"",   303.635E-03,   201.556E-03,  -227.090E-03,   3.96369E-03
C:/temp/dataset/0/13_21.odb,Step-1,Increment      1: Step Time =    1.000,"PART-1-1",           199,      -7.19512,      -21.6661,            0.,NA,NA,"",   24.3419E-03,  -9.92921E-03,  -22.2248E-03,   4.74640E-03
C:/temp/dataset/0/13_21.odb,Step-1,Increment      1: Step Time =    1.000,"PART-1-1",           200,      -3.42041,       27.6042,            0.,NA,NA,"",   580.115E-03,   350.939E-03,  -461.925E-03,   9.82561E-03
C:/temp/dataset/0/13_21.odb,Step-1,Increment      1: Step Time =    1.000,"PART-1-1",           201,       5.45774,      -23.9133,            0.,NA,NA,"",   20.4903E-03,   4.81668E-03,  -19.9161E-03,   4.80661E-03
C:/temp/dataset/0/13_21.odb,Step-1,Increment      1: Step Time =    1.000,"PART-1-1",           202,      -6.69209,       24.9820,            0.,NA,NA,"",   445.685E-03,   290.940E-03,  -337.623E-03,   7.69742E-03
C:/temp/dataset/0/13_21.odb,Step-1,Increment      1: Step Time =    1.000,"PART-1-1",           203,      -12.3718,      -14.6182,            0.,NA,NA,"",   93.6998E-03,  -60.0692E-03,  -71.9121E-03,   4.67285E-03
C:/temp/dataset/0/13_21.odb,Step-1,Increment      1: Step Time =    1.000,"PART-1-1",           204,      -5.91076,      -27.0963,            0.,NA,NA,"",   4.37871E-03,   1.45918E-03,  -4.12842E-03,   1.90095E-03
C:/temp/dataset/0/13_21.odb,Step-1,Increment      1: Step Time =    1.000,"PART-1-1",           205,      -9.09285,      -26.5479,            0.,NA,NA,"",   9.97831E-03,  -1.61463E-03,  -9.84681E-03,   3.77915E-03
C:/temp/dataset/0/13_21.odb,Step-1,Increment      1: Step Time =    1.000,"PART-1-1",           206,      -12.2958,       24.3839,            0.,NA,NA,"",   311.597E-03,   269.401E-03,  -156.575E-03,   853.537E-06
C:/temp/dataset/0/13_21.odb,Step-1,Increment      1: Step Time =    1.000,"PART-1-1",           207,      -12.3670,       18.5668,            0.,NA,NA,"",   183.857E-03,   108.782E-03,  -148.222E-03,   889.844E-06
C:/temp/dataset/0/13_21.odb,Step-1,Increment      1: Step Time =    1.000,"PART-1-1",           208,      -12.3673,       12.5421,            0.,NA,NA,"",   142.451E-03,  -9.92097E-03,  -142.105E-03,   1.43657E-03
C:/temp/dataset/0/13_21.odb,Step-1,Increment      1: Step Time =    1.000,"PART-1-1",           209,      -12.4084,       3.45294,            0.,NA,NA,"",   158.805E-03,  -95.2334E-03,  -127.081E-03,   2.39750E-03
C:/temp/dataset/0/13_21.odb,Step-1,Increment      1: Step Time =    1.000,"PART-1-1",           210,      -12.4043,      -5.59421,            0.,NA,NA,"",   144.478E-03,  -99.9700E-03,  -104.306E-03,   3.50300E-03
C:/temp/dataset/0/13_21.odb,Step-1,Increment      1: Step Time =    1.000,"PART-1-1",           211,      -12.3838,       9.50768,            0.,NA,NA,"",   146.430E-03,  -49.5418E-03,  -137.795E-03,   1.76994E-03
C:/temp/dataset/0/13_21.odb,Step-1,Increment      1: Step Time =    1.000,"PART-1-1",           212,      -12.4013,       6.47621,            0.,NA,NA,"",   153.760E-03,  -77.5320E-03,  -132.781E-03,   2.06476E-03
C:/temp/dataset/0/13_21.odb,Step-1,Increment      1: Step Time =    1.000,"PART-1-1",           213,      -12.4173,   428.232E-03,            0.,NA,NA,"",   159.155E-03,  -104.015E-03,  -120.463E-03,   2.74528E-03
C:/temp/dataset/0/13_21.odb,Step-1,Increment      1: Step Time =    1.000,"PART-1-1",           214,      -12.4160,      -2.58791,            0.,NA,NA,"",   154.278E-03,  -105.140E-03,  -112.904E-03,   3.11693E-03
C:/temp/dataset/0/13_21.odb,Step-1,Increment      1: Step Time =    1.000,"PART-1-1",           215,      -12.4014,      -8.61211,            0.,NA,NA,"",   130.436E-03,  -89.8136E-03,  -94.5890E-03,   3.88997E-03
C:/temp/dataset/0/13_21.odb,Step-1,Increment      1: Step Time =    1.000,"PART-1-1",           216,      -12.3969,      -11.6247,            0.,NA,NA,"",   113.151E-03,  -76.0390E-03,  -83.7933E-03,   4.28105E-03
C:/temp/dataset/0/13_21.odb,Step-1,Increment      1: Step Time =    1.000,"PART-1-1",           217,      -12.3009,      -17.6498,            0.,NA,NA,"",   72.7045E-03,  -43.0532E-03,  -58.5864E-03,   5.09076E-03
C:/temp/dataset/0/13_21.odb,Step-1,Increment      1: Step Time =    1.000,"PART-1-1",           218,      -11.9370,      -20.9397,            0.,NA,NA,"",   49.0073E-03,  -25.4280E-03,  -41.8943E-03,   5.39087E-03
C:/temp/dataset/0/13_21.odb,Step-1,Increment      1: Step Time =    1.000,"PART-1-1",           219,       6.28266,      -26.4725,            0.,NA,NA,"",   13.3754E-03,  -1.32433E-03,  -13.3096E-03,   4.90796E-03
C:/temp/dataset/0/13_21.odb,Step-1,Increment      1: Step Time =    1.000,"PART-1-1",           220,      -12.3616,       21.4963,            0.,NA,NA,"",   239.777E-03,   185.952E-03,  -151.376E-03,   1.24201E-03
C:/temp/dataset/0/13_21.odb,Step-1,Increment      1: Step Time =    1.000,"PART-1-1",           221,       9.42071,      -27.3229,            0.,NA,NA,"",   17.5973E-03,   2.51825E-03,  -17.4161E-03,   8.49825E-03
C:/temp/dataset/0/13_21.odb,Step-1,Increment      1: Step Time =    1.000,"PART-1-1",           222,      -12.3680,       15.5612,            0.,NA,NA,"",   151.517E-03,   42.4762E-03,  -145.442E-03,   955.930E-06
C:/temp/dataset/0/13_21.odb,Step-1,Increment      1: Step Time =    1.000,"PART-1-1",           223,      -6.37126,       27.5191,            0.,NA,NA,"",   504.185E-03,   359.584E-03,  -353.414E-03,   5.28652E-03
C:/temp/dataset/0/13_21.odb,Step-1,Increment      1: Step Time =    1.000,"PART-1-1",           224,      -7.37426,       13.4489,            0.,NA,NA,"",   231.649E-03,   14.1217E-03,  -231.218E-03,   8.94845E-03
C:/temp/dataset/0/13_21.odb,Step-1,Increment      1: Step Time =    1.000,"PART-1-1",           225,      -7.40401,       7.31385,            0.,NA,NA,"",   193.157E-03,  -60.0433E-03,  -183.588E-03,   8.12352E-03
C:/temp/dataset/0/13_21.odb,Step-1,Increment      1: Step Time =    1.000,"PART-1-1",           226,      -7.40102,      -1.84560,            0.,NA,NA,"",   154.078E-03,  -94.4550E-03,  -121.730E-03,   6.95335E-03
C:/temp/dataset/0/13_21.odb,Step-1,Increment      1: Step Time =    1.000,"PART-1-1",           227,      -7.36253,      -10.9851,            0.,NA,NA,"",   97.8201E-03,  -68.2535E-03,  -70.0730E-03,   5.70004E-03
C:/temp/dataset/0/13_21.odb,Step-1,Increment      1: Step Time =    1.000,"PART-1-1",           228,      -7.39657,       10.3769,            0.,NA,NA,"",   208.579E-03,  -28.8936E-03,  -206.568E-03,   8.49113E-03
C:/temp/dataset/0/13_21.odb,Step-1,Increment      1: Step Time =    1.000,"PART-1-1",           229,      -7.41369,       4.25226,            0.,NA,NA,"",   180.666E-03,  -80.5427E-03,  -161.719E-03,   7.73048E-03
C:/temp/dataset/0/13_21.odb,Step-1,Increment      1: Step Time =    1.000,"PART-1-1",           230,      -7.41413,       1.19777,            0.,NA,NA,"",   168.228E-03,  -91.5680E-03,  -141.124E-03,   7.34233E-03
C:/temp/dataset/0/13_21.odb,Step-1,Increment      1: Step Time =    1.000,"PART-1-1",           231,      -7.39700,      -4.89906,            0.,NA,NA,"",   137.466E-03,  -90.6323E-03,  -103.358E-03,   6.54287E-03
C:/temp/dataset/0/13_21.odb,Step-1,Increment      1: Step Time =    1.000,"PART-1-1",           232,      -7.39133,      -7.95434,            0.,NA,NA,"",   118.497E-03,  -81.4063E-03,  -86.1075E-03,   6.12484E-03
C:/temp/dataset/0/13_21.odb,Step-1,Increment      1: Step Time =    1.000,"PART-1-1",           233,      -7.32483,      -13.9963,            0.,NA,NA,"",   76.2942E-03,  -52.6497E-03,  -55.2161E-03,   5.27017E-03
C:/temp/dataset/0/13_21.odb,Step-1,Increment      1: Step Time =    1.000,"PART-1-1",           234,      -9.29453,       27.3932,            0.,NA,NA,"",   439.457E-03,   359.197E-03,  -253.180E-03,   1.66830E-03
C:/temp/dataset/0/13_21.odb,Step-1,Increment      1: Step Time =    1.000,"PART-1-1",           235,      -9.79647,       16.0793,            0.,NA,NA,"",   207.471E-03,   54.5395E-03,  -200.174E-03,   4.47299E-03
C:/temp/dataset/0/13_21.odb,Step-1,Increment      1: Step Time =    1.000,"PART-1-1",           236,      -10.5694,      -24.3397,            0.,NA,NA,"",   23.5421E-03,  -9.25675E-03,  -21.6459E-03,   4.98580E-03
C:/temp/dataset/0/13_21.odb,Step-1,Increment      1: Step Time =    1.000,"PART-1-1",           237,      -9.80814,      -14.2636,            0.,NA,NA,"",   85.2604E-03,  -56.6845E-03,  -63.6883E-03,   4.94683E-03
C:/temp/dataset/0/13_21.odb,Step-1,Increment      1: Step Time =    1.000,"PART-1-1",           238,      -9.84607,      -11.2856,            0.,NA,NA,"",   105.663E-03,  -72.5984E-03,  -76.7739E-03,   5.00499E-03
C:/temp/dataset/0/13_21.odb,Step-1,Increment      1: Step Time =    1.000,"PART-1-1",           239,      -9.85160,       9.96190,            0.,NA,NA,"",   176.294E-03,  -40.9472E-03,  -171.473E-03,   5.11517E-03
C:/temp/dataset/0/13_21.odb,Step-1,Increment      1: Step Time =    1.000,"PART-1-1",           240,      -9.42013,      -19.6871,            0.,NA,NA,"",   46.3821E-03,  -25.3322E-03,  -38.8533E-03,   5.01966E-03
C:/temp/dataset/0/13_21.odb,Step-1,Increment      1: Step Time =    1.000,"PART-1-1",           241,      -9.87385,       6.90801,            0.,NA,NA,"",   172.439E-03,  -70.4594E-03,  -157.387E-03,   5.08690E-03
C:/temp/dataset/0/13_21.odb,Step-1,Increment      1: Step Time =    1.000,"PART-1-1",           242,      -9.72088,      -17.1529,            0.,NA,NA,"",   64.8344E-03,  -40.1291E-03,  -50.9230E-03,   4.89727E-03
C:/temp/dataset/0/13_21.odb,Step-1,Increment      1: Step Time =    1.000,"PART-1-1",           243,      -7.24385,      -16.9197,            0.,NA,NA,"",   55.3806E-03,  -36.2645E-03,  -41.8556E-03,   4.69184E-03
C:/temp/dataset/0/13_21.odb,Step-1,Increment      1: Step Time =    1.000,"PART-1-1",           244,      -9.88569,       3.86363,            0.,NA,NA,"",   169.201E-03,  -89.3911E-03,  -143.660E-03,   5.06306E-03
C:/temp/dataset/0/13_21.odb,Step-1,Increment      1: Step Time =    1.000,"PART-1-1",           245,      -9.88680,   826.149E-03,            0.,NA,NA,"",   163.596E-03,  -99.0893E-03,  -130.173E-03,   5.05412E-03
C:/temp/dataset/0/13_21.odb,Step-1,Increment      1: Step Time =    1.000,"PART-1-1",           246,      -9.87953,      -2.20322,            0.,NA,NA,"",   154.341E-03,  -100.898E-03,  -116.794E-03,   5.05172E-03
C:/temp/dataset/0/13_21.odb,Step-1,Increment      1: Step Time =    1.000,"PART-1-1",           247,      -9.87339,      -5.23467,            0.,NA,NA,"",   141.234E-03,  -96.1828E-03,  -103.421E-03,   5.04489E-03
C:/temp/dataset/0/13_21.odb,Step-1,Increment      1: Step Time =    1.000,"PART-1-1",           248,      -9.87035,      -8.27303,            0.,NA,NA,"",   124.699E-03,  -86.2638E-03,  -90.0464E-03,   5.02982E-03
C:/temp/dataset/0/13_21.odb,Step-1,Increment      1: Step Time =    1.000,"PART-1-1",           249,      -12.1942,       27.2250,            0.,NA,NA,"",   390.408E-03,   355.179E-03,  -162.069E-03,   406.236E-06
C:/temp/dataset/0/13_21.odb,Step-1,Increment      1: Step Time =    1.000,"PART-1-1",           250,      -12.1946,      -27.0241,            0.,NA,NA,"",   14.4075E-03,  -6.33864E-03,  -12.9382E-03,   5.62110E-03
C:/temp/dataset/0/13_21.odb,Step-1,Increment      1: Step Time =    1.000,"PART-1-1",           251,      -9.83578,       13.0151,            0.,NA,NA,"",   185.719E-03,   242.634E-06,  -185.719E-03,   5.04101E-03
C:/temp/dataset/0/13_21.odb,Step-1,Increment      1: Step Time =    1.000,"PART-1-1",           252,      -12.4960,      -24.1891,            0.,NA,NA,"",   31.0291E-03,  -14.4424E-03,  -27.4631E-03,   5.74192E-03
C:/temp/dataset/0/13_21.odb,Step-1,Increment      1: Step Time =    1.000,"PART-1-1",           253,      -7.26398,       19.6069,            0.,NA,NA,"",   315.890E-03,   141.048E-03,  -282.652E-03,   7.13404E-03
C:/temp/dataset/0/13_21.odb,Step-1,Increment      1: Step Time =    1.000,"PART-1-1",           254,      -9.78845,      -22.6320,            0.,NA,NA,"",   29.9557E-03,  -12.9401E-03,  -27.0167E-03,   5.02033E-03
C:/temp/dataset/0/13_21.odb,Step-1,Increment      1: Step Time =    1.000,"PART-1-1",           255,       8.11622,      -24.1302,            0.,NA,NA,"",   37.5063E-03,   11.7608E-03,  -35.6147E-03,   8.24242E-03
C:/temp/dataset/0/13_21.odb,Step-1,Increment      1: Step Time =    1.000,"PART-1-1",           256,       10.7040,      -22.7860,            0.,NA,NA,"",   72.9351E-03,   32.9050E-03,  -65.0906E-03,   11.3792E-03
C:/temp/dataset/0/13_21.odb,Step-1,Increment      1: Step Time =    1.000,"PART-1-1",           257,      -8.82647,      -21.3553,            0.,NA,NA,"",   33.3538E-03,  -15.6530E-03,  -29.4527E-03,   4.94179E-03
C:/temp/dataset/0/13_21.odb,Step-1,Increment      1: Step Time =    1.000,"PART-1-1",           258,      -9.77631,       19.1047,            0.,NA,NA,"",   245.991E-03,   123.473E-03,  -212.758E-03,   4.05503E-03
C:/temp/dataset/0/13_21.odb,Step-1,Increment      1: Step Time =    1.000,"PART-1-1",           259,      -7.77355,      -23.8785,            0.,NA,NA,"",   16.6132E-03,  -4.52182E-03,  -15.9860E-03,   3.89987E-03
C:/temp/dataset/0/13_21.odb,Step-1,Increment      1: Step Time =    1.000,"PART-1-1",           260,  -536.979E-03,      -24.7394,            0.,NA,NA,"",   867.654E-06,   845.760E-06,  -193.686E-06,   719.378E-06
C:/temp/dataset/0/13_21.odb,Step-1,Increment      1: Step Time =    1.000,"PART-1-1",           261,      -9.52558,       24.7102,            0.,NA,NA,"",   369.501E-03,   280.201E-03,  -240.870E-03,   3.27347E-03
C:/temp/dataset/0/13_21.odb,Step-1,Increment      1: Step Time =    1.000,"PART-1-1",           262,      -2.15050,       21.2402,            0.,NA,NA,"",   543.347E-03,   220.210E-03,  -496.723E-03,   11.7318E-03
C:/temp/dataset/0/13_21.odb,Step-1,Increment      1: Step Time =    1.000,"PART-1-1",           263,      -3.09708,       22.5364,            0.,NA,NA,"",   527.118E-03,   244.545E-03,  -466.960E-03,   13.1229E-03
C:/temp/dataset/0/13_21.odb,Step-1,Increment      1: Step Time =    1.000,"PART-1-1",           264,      -4.69657,       21.2962,            0.,NA,NA,"",   442.463E-03,   205.852E-03,  -391.661E-03,   14.1307E-03
C:/temp/dataset/0/13_21.odb,Step-1,Increment      1: Step Time =    1.000,"PART-1-1",           265,         -3.75,           20.,            0.,NA,NA,"",   460.090E-03,   166.036E-03,  -429.086E-03,   10.8119E-03
C:/temp/dataset/0/13_21.odb,Step-1,Increment      1: Step Time =    1.000,"PART-1-1",           266,      -4.10052,       23.8735,            0.,NA,NA,"",   509.874E-03,   268.919E-03,  -433.191E-03,   12.8335E-03
C:/temp/dataset/0/13_21.odb,Step-1,Increment      1: Step Time =    1.000,"PART-1-1",           267,      -5.24999,       25.0683,            0.,NA,NA,"",   490.172E-03,   294.330E-03,  -391.967E-03,   9.88323E-03
C:/temp/dataset/0/13_21.odb,Step-1,Increment      1: Step Time =    1.000,"PART-1-1",           268,      -6.84155,       23.6782,            0.,NA,NA,"",   415.504E-03,   256.814E-03,  -326.634E-03,   8.49146E-03
C:/temp/dataset/0/13_21.odb,Step-1,Increment      1: Step Time =    1.000,"PART-1-1",           269,      -5.69208,       22.4834,            0.,NA,NA,"",   428.927E-03,   230.675E-03,  -361.618E-03,   12.6312E-03
C:/temp/dataset/0/13_21.odb,Step-1,Increment      1: Step Time =    1.000,"PART-1-1",           270,      -7.35192,       14.9896,            0.,NA,NA,"",   247.253E-03,   40.1792E-03,  -243.966E-03,   9.07109E-03
C:/temp/dataset/0/13_21.odb,Step-1,Increment      1: Step Time =    1.000,"PART-1-1",           271,      -8.56303,       16.3048,            0.,NA,NA,"",   236.190E-03,   61.5720E-03,  -228.024E-03,   6.95413E-03
C:/temp/dataset/0/13_21.odb,Step-1,Increment      1: Step Time =    1.000,"PART-1-1",           272,      -9.81613,       14.5472,            0.,NA,NA,"",   194.734E-03,   25.7998E-03,  -193.017E-03,   4.87955E-03
C:/temp/dataset/0/13_21.odb,Step-1,Increment      1: Step Time =    1.000,"PART-1-1",           273,      -8.60502,       13.2320,            0.,NA,NA,"",   208.216E-03,   6.63753E-03,  -208.110E-03,   6.93998E-03
C:/temp/dataset/0/13_21.odb,Step-1,Increment      1: Step Time =    1.000,"PART-1-1",           274,          -15.,         -16.5,            0.,NA,NA,"",   94.0534E-03,  -55.3250E-03,  -76.0605E-03,   4.91894E-03
C:/temp/dataset/0/13_21.odb,Step-1,Increment      1: Step Time =    1.000,"PART-1-1",           275,      -13.6504,      -17.8249,            0.,NA,NA,"",   77.8904E-03,  -45.1937E-03,  -63.4385E-03,   5.20831E-03
C:/temp/dataset/0/13_21.odb,Step-1,Increment      1: Step Time =    1.000,"PART-1-1",           276,      -12.3363,      -16.1340,            0.,NA,NA,"",   83.2579E-03,  -51.5383E-03,  -65.3887E-03,   4.87337E-03
C:/temp/dataset/0/13_21.odb,Step-1,Increment      1: Step Time =    1.000,"PART-1-1",           277,      -13.6859,      -14.8091,            0.,NA,NA,"",   98.4532E-03,  -61.6838E-03,  -76.7343E-03,   4.54476E-03
C:/temp/dataset/0/13_21.odb,Step-1,Increment      1: Step Time =    1.000,"PART-1-1",           278,      -4.46540,      -27.1831,            0.,NA,NA,"",   2.92830E-03,   1.61005E-03,  -2.44594E-03,   1.33320E-03
C:/temp/dataset/0/13_21.odb,Step-1,Increment      1: Step Time =    1.000,"PART-1-1",           279,      -2.97305,      -25.9670,            0.,NA,NA,"",   2.01945E-03,   1.30946E-03,  -1.53737E-03,   993.514E-06
C:/temp/dataset/0/13_21.odb,Step-1,Increment      1: Step Time =    1.000,"PART-1-1",           280,      -4.19392,      -24.5512,            0.,NA,NA,"",   4.51365E-03,   973.528E-06,  -4.40741E-03,   1.57867E-03
C:/temp/dataset/0/13_21.odb,Step-1,Increment      1: Step Time =    1.000,"PART-1-1",           281,      -5.68627,      -25.7673,            0.,NA,NA,"",   6.01244E-03,   968.079E-06,  -5.93399E-03,   2.06813E-03
C:/temp/dataset/0/13_21.odb,Step-1,Increment      1: Step Time =    1.000,"PART-1-1",           282,      -5.28634,      -23.2314,            0.,NA,NA,"",   9.68681E-03,  -1.43109E-03,  -9.58051E-03,   2.69616E-03
C:/temp/dataset/0/13_21.odb,Step-1,Increment      1: Step Time =    1.000,"PART-1-1",           283,      -2.80857,      -23.4296,            0.,NA,NA,"",   2.44145E-03,   1.07383E-03,  -2.19262E-03,   1.14398E-03
C:/temp/dataset/0/13_21.odb,Step-1,Increment      1: Step Time =    1.000,"PART-1-1",           284,      -3.90099,      -22.1098,            0.,NA,NA,"",   6.51591E-03,  -1.35717E-03,  -6.37301E-03,   2.09336E-03
C:/temp/dataset/0/13_21.odb,Step-1,Increment      1: Step Time =    1.000,"PART-1-1",           285,       1.61260,      -23.5545,            0.,NA,NA,"",   3.75156E-03,   2.54921E-03,  -2.75240E-03,   380.149E-06
C:/temp/dataset/0/13_21.odb,Step-1,Increment      1: Step Time =    1.000,"PART-1-1",           286,       2.09558,      -25.4897,            0.,NA,NA,"",   3.30441E-03,  -1.19342E-03,  -3.08138E-03,   1.09994E-03
C:/temp/dataset/0/13_21.odb,Step-1,Increment      1: Step Time =    1.000,"PART-1-1",           287,       3.30955,      -24.8521,            0.,NA,NA,"",   6.97060E-03,  -164.951E-06,  -6.96865E-03,   1.79303E-03
C:/temp/dataset/0/13_21.odb,Step-1,Increment      1: Step Time =    1.000,"PART-1-1",           288,       2.82657,      -22.9168,            0.,NA,NA,"",   9.21311E-03,   5.16932E-03,  -7.62624E-03,   1.04618E-03
C:/temp/dataset/0/13_21.odb,Step-1,Increment      1: Step Time =    1.000,"PART-1-1",           289,       13.8857,      -20.1351,            0.,NA,NA,"",   143.529E-03,   75.6113E-03,  -121.997E-03,   13.4740E-03
C:/temp/dataset/0/13_21.odb,Step-1,Increment      1: Step Time =    1.000,"PART-1-1",           290,           15.,        -18.75,            0.,NA,NA,"",   179.849E-03,   97.5710E-03,  -151.081E-03,   13.9418E-03
C:/temp/dataset/0/13_21.odb,Step-1,Increment      1: Step Time =    1.000,"PART-1-1",           291,       13.8316,      -17.6482,            0.,NA,NA,"",   183.054E-03,   103.605E-03,  -150.913E-03,   12.8347E-03
C:/temp/dataset/0/13_21.odb,Step-1,Increment      1: Step Time =    1.000,"PART-1-1",           292,       12.7173,      -19.0333,            0.,NA,NA,"",   147.250E-03,   80.8247E-03,  -123.085E-03,   12.4025E-03
C:/temp/dataset/0/13_21.odb,Step-1,Increment      1: Step Time =    1.000,"PART-1-1",           293,       13.7508,      -12.5905,            0.,NA,NA,"",   267.477E-03,   171.417E-03,  -205.329E-03,   11.4117E-03
C:/temp/dataset/0/13_21.odb,Step-1,Increment      1: Step Time =    1.000,"PART-1-1",           294,           15.,        -11.25,            0.,NA,NA,"",   307.880E-03,   196.962E-03,  -236.635E-03,   11.2233E-03
C:/temp/dataset/0/13_21.odb,Step-1,Increment      1: Step Time =    1.000,"PART-1-1",           295,       13.7881,      -10.0330,            0.,NA,NA,"",   311.744E-03,   208.756E-03,  -231.528E-03,   10.7441E-03
C:/temp/dataset/0/13_21.odb,Step-1,Increment      1: Step Time =    1.000,"PART-1-1",           296,       12.5389,      -11.3735,            0.,NA,NA,"",   272.287E-03,   183.088E-03,  -201.542E-03,   10.9600E-03
C:/temp/dataset/0/13_21.odb,Step-1,Increment      1: Step Time =    1.000,"PART-1-1",           297,       11.3345,      -10.0200,            0.,NA,NA,"",   280.354E-03,   197.342E-03,  -199.135E-03,   10.6941E-03
C:/temp/dataset/0/13_21.odb,Step-1,Increment      1: Step Time =    1.000,"PART-1-1",           298,       10.0449,      -11.4123,            0.,NA,NA,"",   240.448E-03,   170.672E-03,  -169.370E-03,   10.6310E-03
C:/temp/dataset/0/13_21.odb,Step-1,Increment      1: Step Time =    1.000,"PART-1-1",           299,       11.2492,      -12.7658,            0.,NA,NA,"",   232.099E-03,   156.547E-03,  -171.356E-03,   10.8939E-03
C:/temp/dataset/0/13_21.odb,Step-1,Increment      1: Step Time =    1.000,"PART-1-1",           300,       9.32361,      -6.65743,            0.,NA,NA,"",   314.436E-03,   237.698E-03,  -205.839E-03,   10.8144E-03
C:/temp/dataset/0/13_21.odb,Step-1,Increment      1: Step Time =    1.000,"PART-1-1",           301,       10.9574,      -6.33595,            0.,NA,NA,"",   339.267E-03,   250.042E-03,  -229.306E-03,   10.4323E-03
C:/temp/dataset/0/13_21.odb,Step-1,Increment      1: Step Time =    1.000,"PART-1-1",           302,       10.9595,      -4.69463,            0.,NA,NA,"",   367.101E-03,   273.675E-03,  -244.673E-03,   10.3716E-03
C:/temp/dataset/0/13_21.odb,Step-1,Increment      1: Step Time =    1.000,"PART-1-1",           303,       9.32578,      -5.01612,            0.,NA,NA,"",   342.877E-03,   261.465E-03,  -221.813E-03,   10.7824E-03
C:/temp/dataset/0/13_21.odb,Step-1,Increment      1: Step Time =    1.000,"PART-1-1",           304,       12.9351,      -4.11714,            0.,NA,NA,"",   399.415E-03,   290.472E-03,  -274.151E-03,   9.55910E-03
C:/temp/dataset/0/13_21.odb,Step-1,Increment      1: Step Time =    1.000,"PART-1-1",           305,       11.6846,      -3.48758,            0.,NA,NA,"",   395.270E-03,   293.803E-03,  -264.420E-03,   9.93252E-03
C:/temp/dataset/0/13_21.odb,Step-1,Increment      1: Step Time =    1.000,"PART-1-1",           306,       12.2101,      -5.32419,            0.,NA,NA,"",   371.181E-03,   270.314E-03,  -254.373E-03,   10.0084E-03
C:/temp/dataset/0/13_21.odb,Step-1,Increment      1: Step Time =    1.000,"PART-1-1",           307,       9.86769,  -155.410E-03,            0.,NA,NA,"",   428.934E-03,   329.064E-03,  -275.139E-03,   10.7524E-03
C:/temp/dataset/0/13_21.odb,Step-1,Increment      1: Step Time =    1.000,"PART-1-1",           308,       8.53089,   901.975E-03,            0.,NA,NA,"",   431.847E-03,   335.022E-03,  -272.493E-03,   11.6069E-03
C:/temp/dataset/0/13_21.odb,Step-1,Increment      1: Step Time =    1.000,"PART-1-1",           309,       7.40884,      -1.02539,            0.,NA,NA,"",   388.869E-03,   305.786E-03,  -240.237E-03,   12.0711E-03
C:/temp/dataset/0/13_21.odb,Step-1,Increment      1: Step Time =    1.000,"PART-1-1",           310,       8.74564,      -2.08278,            0.,NA,NA,"",   386.032E-03,   299.054E-03,  -244.105E-03,   11.2161E-03
C:/temp/dataset/0/13_21.odb,Step-1,Increment      1: Step Time =    1.000,"PART-1-1",           311,       9.64302,       5.60069,            0.,NA,NA,"",   508.029E-03,   386.996E-03,  -329.131E-03,   10.9751E-03
C:/temp/dataset/0/13_21.odb,Step-1,Increment      1: Step Time =    1.000,"PART-1-1",           312,       10.9412,       4.35663,            0.,NA,NA,"",   502.579E-03,   382.406E-03,  -326.116E-03,   9.75880E-03
C:/temp/dataset/0/13_21.odb,Step-1,Increment      1: Step Time =    1.000,"PART-1-1",           313,       12.2262,       5.93259,            0.,NA,NA,"",   530.326E-03,   400.732E-03,  -347.360E-03,   8.38799E-03
C:/temp/dataset/0/13_21.odb,Step-1,Increment      1: Step Time =    1.000,"PART-1-1",           314,       10.9280,       7.17665,            0.,NA,NA,"",   535.037E-03,   404.282E-03,  -350.457E-03,   9.60312E-03
C:/temp/dataset/0/13_21.odb,Step-1,Increment      1: Step Time =    1.000,"PART-1-1",           315,       13.6103,       7.39232,            0.,NA,NA,"",   552.896E-03,   415.360E-03,  -364.926E-03,   6.60091E-03
C:/temp/dataset/0/13_21.odb,Step-1,Increment      1: Step Time =    1.000,"PART-1-1",           316,           15.,          8.75,            0.,NA,NA,"",   569.931E-03,   426.057E-03,  -378.545E-03,   4.66680E-03
C:/temp/dataset/0/13_21.odb,Step-1,Increment      1: Step Time =    1.000,"PART-1-1",           317,       13.6268,       9.99700,            0.,NA,NA,"",   571.905E-03,   427.591E-03,  -379.791E-03,   6.05400E-03
C:/temp/dataset/0/13_21.odb,Step-1,Increment      1: Step Time =    1.000,"PART-1-1",           318,       12.2370,       8.63932,            0.,NA,NA,"",   556.160E-03,   417.713E-03,  -367.192E-03,   8.00086E-03
C:/temp/dataset/0/13_21.odb,Step-1,Increment      1: Step Time =    1.000,"PART-1-1",           319,       13.8144,       17.6522,            0.,NA,NA,"",   588.752E-03,   416.089E-03,  -416.532E-03,   4.96894E-03
C:/temp/dataset/0/13_21.odb,Step-1,Increment      1: Step Time =    1.000,"PART-1-1",           320,           15.,         18.75,            0.,NA,NA,"",   582.492E-03,   410.995E-03,  -412.771E-03,   3.54070E-03
C:/temp/dataset/0/13_21.odb,Step-1,Increment      1: Step Time =    1.000,"PART-1-1",           321,       13.8887,       20.1095,            0.,NA,NA,"",   583.825E-03,   398.550E-03,  -426.625E-03,   4.73053E-03
C:/temp/dataset/0/13_21.odb,Step-1,Increment      1: Step Time =    1.000,"PART-1-1",           322,       12.7031,       19.0116,            0.,NA,NA,"",   590.987E-03,   403.993E-03,  -431.341E-03,   6.18158E-03
C:/temp/dataset/0/13_21.odb,Step-1,Increment      1: Step Time =    1.000,"PART-1-1",           323,       11.4255,       18.0142,            0.,NA,NA,"",   595.460E-03,   406.706E-03,  -434.929E-03,   8.08483E-03
C:/temp/dataset/0/13_21.odb,Step-1,Increment      1: Step Time =    1.000,"PART-1-1",           324,       11.6322,       20.3693,            0.,NA,NA,"",   595.259E-03,   389.731E-03,  -449.937E-03,   8.10857E-03
C:/temp/dataset/0/13_21.odb,Step-1,Increment      1: Step Time =    1.000,"PART-1-1",           325,       10.3546,       19.3719,            0.,NA,NA,"",   600.544E-03,   391.821E-03,  -455.114E-03,   9.87764E-03
C:/temp/dataset/0/13_21.odb,Step-1,Increment      1: Step Time =    1.000,"PART-1-1",           326,       10.9394,       26.3107,            0.,NA,NA,"",   597.799E-03,   336.198E-03,  -494.302E-03,   6.22707E-03
C:/temp/dataset/0/13_21.odb,Step-1,Increment      1: Step Time =    1.000,"PART-1-1",           327,       11.9108,       25.0855,            0.,NA,NA,"",   587.895E-03,   349.837E-03,  -472.477E-03,   6.03971E-03
C:/temp/dataset/0/13_21.odb,Step-1,Increment      1: Step Time =    1.000,"PART-1-1",           328,       13.0011,       26.2585,            0.,NA,NA,"",   567.380E-03,   336.716E-03,  -456.665E-03,   2.32808E-03
C:/temp/dataset/0/13_21.odb,Step-1,Increment      1: Step Time =    1.000,"PART-1-1",           329,       12.0296,       27.4837,            0.,NA,NA,"",   572.413E-03,   319.915E-03,  -474.669E-03,   2.60386E-03
C:/temp/dataset/0/13_21.odb,Step-1,Increment      1: Step Time =    1.000,"PART-1-1",           330,       14.0179,       27.4887,            0.,NA,NA,"",   544.568E-03,   319.013E-03,  -441.344E-03,   354.810E-06
C:/temp/dataset/0/13_21.odb,Step-1,Increment      1: Step Time =    1.000,"PART-1-1",           331,       13.9832,       25.0198,            0.,NA,NA,"",   563.834E-03,   352.347E-03,  -440.183E-03,   2.01999E-03
C:/temp/dataset/0/13_21.odb,Step-1,Increment      1: Step Time =    1.000,"PART-1-1",           332,           15.,         26.25,            0.,NA,NA,"",   543.761E-03,   336.816E-03,  -426.885E-03,   397.796E-06
C:/temp/dataset/0/13_21.odb,Step-1,Increment      1: Step Time =    1.000,"PART-1-1",           333,       3.55377,       20.8403,            0.,NA,NA,"",   655.486E-03,   296.335E-03,  -584.678E-03,   18.4086E-03
C:/temp/dataset/0/13_21.odb,Step-1,Increment      1: Step Time =    1.000,"PART-1-1",           334,       4.16667,           20.,            0.,NA,NA,"",   650.764E-03,   316.526E-03,  -568.599E-03,   23.7882E-03
C:/temp/dataset/0/13_21.odb,Step-1,Increment      1: Step Time =    1.000,"PART-1-1",           335,       5.33068,       20.7523,            0.,NA,NA,"",   634.266E-03,   324.328E-03,  -545.073E-03,   24.4499E-03
C:/temp/dataset/0/13_21.odb,Step-1,Increment      1: Step Time =    1.000,"PART-1-1",           336,       4.71778,       21.5926,            0.,NA,NA,"",   650.411E-03,   308.591E-03,  -572.544E-03,   19.7235E-03
C:/temp/dataset/0/13_21.odb,Step-1,Increment      1: Step Time =    1.000,"PART-1-1",           337,       1.85672,       20.8541,            0.,NA,NA,"",   643.267E-03,   267.448E-03,  -585.034E-03,   19.3839E-03
C:/temp/dataset/0/13_21.odb,Step-1,Increment      1: Step Time =    1.000,"PART-1-1",           338,           2.5,           20.,            0.,NA,NA,"",   642.421E-03,   276.842E-03,  -579.709E-03,   25.6518E-03
C:/temp/dataset/0/13_21.odb,Step-1,Increment      1: Step Time =    1.000,"PART-1-1",           339,       2.91049,       21.6945,            0.,NA,NA,"",   660.348E-03,   285.878E-03,  -595.259E-03,   13.4220E-03
C:/temp/dataset/0/13_21.odb,Step-1,Increment      1: Step Time =    1.000,"PART-1-1",           340,       1.32465,      -26.7993,            0.,NA,NA,"",   2.39200E-03,  -1.86861E-03,  -1.49332E-03,   1.25548E-03
C:/temp/dataset/0/13_21.odb,Step-1,Increment      1: Step Time =    1.000,"PART-1-1",           341,   399.133E-03,      -24.6509,            0.,NA,NA,"",   864.126E-06,   584.140E-06,  -636.785E-06,   527.406E-06
C:/temp/dataset/0/13_21.odb,Step-1,Increment      1: Step Time =    1.000,"PART-1-1",           342,  -371.796E-03,      -25.9605,            0.,NA,NA,"",   406.140E-06,  -157.717E-06,  -374.265E-06,   850.391E-06
C:/temp/dataset/0/13_21.odb,Step-1,Increment      1: Step Time =    1.000,"PART-1-1",           343,       7.16814,       28.8250,            0.,NA,NA,"",   684.455E-03,   314.583E-03,  -607.879E-03,   17.5089E-03
C:/temp/dataset/0/13_21.odb,Step-1,Increment      1: Step Time =    1.000,"PART-1-1",           344,       7.90869,       27.6030,            0.,NA,NA,"",   662.259E-03,   326.354E-03,  -576.264E-03,   16.8957E-03
C:/temp/dataset/0/13_21.odb,Step-1,Increment      1: Step Time =    1.000,"PART-1-1",           345,       9.17805,       28.7779,            0.,NA,NA,"",   618.253E-03,   303.834E-03,  -538.444E-03,   5.95083E-03
C:/temp/dataset/0/13_21.odb,Step-1,Increment      1: Step Time =    1.000,"PART-1-1",           346,        8.4375,           30.,            0.,NA,NA,"",   623.534E-03,   275.229E-03,  -559.503E-03,   5.03550E-03
C:/temp/dataset/0/13_21.odb,Step-1,Increment      1: Step Time =    1.000,"PART-1-1",           347,       1.19326,       21.8923,            0.,NA,NA,"",   643.390E-03,   266.422E-03,  -585.637E-03,   12.6351E-03
C:/temp/dataset/0/13_21.odb,Step-1,Increment      1: Step Time =    1.000,"PART-1-1",           348,   169.882E-03,       21.0382,            0.,NA,NA,"",   611.935E-03,   242.896E-03,  -561.664E-03,   16.7563E-03
C:/temp/dataset/0/13_21.odb,Step-1,Increment      1: Step Time =    1.000,"PART-1-1",           349,   833.333E-03,           20.,            0.,NA,NA,"",   612.766E-03,   238.680E-03,  -564.370E-03,   23.8412E-03
C:/temp/dataset/0/13_21.odb,Step-1,Increment      1: Step Time =    1.000,"PART-1-1",           350,       11.0482,       12.7829,            0.,NA,NA,"",   580.729E-03,   423.603E-03,  -397.249E-03,   8.97283E-03
C:/temp/dataset/0/13_21.odb,Step-1,Increment      1: Step Time =    1.000,"PART-1-1",           351,       12.3949,       13.9828,            0.,NA,NA,"",   587.428E-03,   427.272E-03,  -403.125E-03,   7.02827E-03
C:/temp/dataset/0/13_21.odb,Step-1,Increment      1: Step Time =    1.000,"PART-1-1",           352,       11.2086,       15.4830,            0.,NA,NA,"",   591.811E-03,   419.269E-03,  -417.676E-03,   8.30911E-03
C:/temp/dataset/0/13_21.odb,Step-1,Increment      1: Step Time =    1.000,"PART-1-1",           353,       9.86191,       14.2831,            0.,NA,NA,"",   587.125E-03,   417.173E-03,  -413.137E-03,   10.3211E-03
C:/temp/dataset/0/13_21.odb,Step-1,Increment      1: Step Time =    1.000,"PART-1-1",           354,       9.65710,       8.53837,            0.,NA,NA,"",   541.536E-03,   406.312E-03,  -358.011E-03,   10.9697E-03
C:/temp/dataset/0/13_21.odb,Step-1,Increment      1: Step Time =    1.000,"PART-1-1",           355,       8.46627,       10.0105,            0.,NA,NA,"",   549.915E-03,   406.397E-03,  -370.470E-03,   12.4429E-03
C:/temp/dataset/0/13_21.odb,Step-1,Increment      1: Step Time =    1.000,"PART-1-1",           356,       7.24171,       8.43518,            0.,NA,NA,"",   524.883E-03,   392.416E-03,  -348.585E-03,   13.7361E-03
C:/temp/dataset/0/13_21.odb,Step-1,Increment      1: Step Time =    1.000,"PART-1-1",           357,       8.43254,       6.96306,            0.,NA,NA,"",   515.724E-03,   390.681E-03,  -336.659E-03,   12.2500E-03
C:/temp/dataset/0/13_21.odb,Step-1,Increment      1: Step Time =    1.000,"PART-1-1",           358,       13.6558,       2.21224,            0.,NA,NA,"",   498.414E-03,   371.836E-03,  -331.895E-03,   7.70828E-03
C:/temp/dataset/0/13_21.odb,Step-1,Increment      1: Step Time =    1.000,"PART-1-1",           359,           15.,          3.75,            0.,NA,NA,"",   527.767E-03,   391.198E-03,  -354.263E-03,   6.16548E-03
C:/temp/dataset/0/13_21.odb,Step-1,Increment      1: Step Time =    1.000,"PART-1-1",           360,       13.6160,       4.79026,            0.,NA,NA,"",   527.992E-03,   396.332E-03,  -348.850E-03,   7.15741E-03
C:/temp/dataset/0/13_21.odb,Step-1,Increment      1: Step Time =    1.000,"PART-1-1",           361,       12.2717,       3.25251,            0.,NA,NA,"",   499.508E-03,   377.417E-03,  -327.208E-03,   8.72696E-03
C:/temp/dataset/0/13_21.odb,Step-1,Increment      1: Step Time =    1.000,"PART-1-1",           362,       9.69986,       2.68972,            0.,NA,NA,"",   469.704E-03,   360.502E-03,  -301.099E-03,   10.8890E-03
C:/temp/dataset/0/13_21.odb,Step-1,Increment      1: Step Time =    1.000,"PART-1-1",           363,       11.0304,       1.58560,            0.,NA,NA,"",   466.201E-03,   354.753E-03,  -302.479E-03,   9.85792E-03
C:/temp/dataset/0/13_21.odb,Step-1,Increment      1: Step Time =    1.000,"PART-1-1",           364,       7.55861,      -11.4267,            0.,NA,NA,"",   210.256E-03,   159.045E-03,  -137.523E-03,   10.2482E-03
C:/temp/dataset/0/13_21.odb,Step-1,Increment      1: Step Time =    1.000,"PART-1-1",           365,       6.31268,      -9.90243,            0.,NA,NA,"",   221.594E-03,   175.703E-03,  -135.028E-03,   10.4223E-03
C:/temp/dataset/0/13_21.odb,Step-1,Increment      1: Step Time =    1.000,"PART-1-1",           366,            5.,      -11.6667,            0.,NA,NA,"",   175.716E-03,   144.296E-03,  -100.274E-03,   9.77411E-03
C:/temp/dataset/0/13_21.odb,Step-1,Increment      1: Step Time =    1.000,"PART-1-1",           367,       6.24593,      -13.1909,            0.,NA,NA,"",   165.011E-03,   127.853E-03,  -104.318E-03,   9.58943E-03
C:/temp/dataset/0/13_21.odb,Step-1,Increment      1: Step Time =    1.000,"PART-1-1",           368,       14.0233,      -5.11850,            0.,NA,NA,"",   396.480E-03,   281.004E-03,  -279.701E-03,   9.38026E-03
C:/temp/dataset/0/13_21.odb,Step-1,Increment      1: Step Time =    1.000,"PART-1-1",           369,           15.,         -3.75,            0.,NA,NA,"",   429.883E-03,   303.797E-03,  -304.149E-03,   8.62545E-03
C:/temp/dataset/0/13_21.odb,Step-1,Increment      1: Step Time =    1.000,"PART-1-1",           370,       13.9118,      -2.74864,            0.,NA,NA,"",   432.062E-03,   313.057E-03,  -297.780E-03,   8.78003E-03
C:/temp/dataset/0/13_21.odb,Step-1,Increment      1: Step Time =    1.000,"PART-1-1",           371,       12.6080,      -16.5365,            0.,NA,NA,"",   185.979E-03,   110.978E-03,  -149.238E-03,   11.8958E-03
C:/temp/dataset/0/13_21.odb,Step-1,Increment      1: Step Time =    1.000,"PART-1-1",           372,       11.3130,      -15.4489,            0.,NA,NA,"",   187.974E-03,   118.945E-03,  -145.555E-03,   11.1040E-03
C:/temp/dataset/0/13_21.odb,Step-1,Increment      1: Step Time =    1.000,"PART-1-1",           373,       10.1880,      -16.9099,            0.,NA,NA,"",   151.299E-03,   93.9335E-03,  -118.608E-03,   10.7002E-03
C:/temp/dataset/0/13_21.odb,Step-1,Increment      1: Step Time =    1.000,"PART-1-1",           374,       11.4829,      -17.9975,            0.,NA,NA,"",   149.172E-03,   86.4899E-03,  -121.540E-03,   11.4826E-03
C:/temp/dataset/0/13_21.odb,Step-1,Increment      1: Step Time =    1.000,"PART-1-1",           375,       7.63417,      -21.6752,            0.,NA,NA,"",   57.4918E-03,   26.6932E-03,  -50.9194E-03,   9.09966E-03
C:/temp/dataset/0/13_21.odb,Step-1,Increment      1: Step Time =    1.000,"PART-1-1",           376,       7.43394,      -23.2038,            0.,NA,NA,"",   40.4920E-03,   14.5892E-03,  -37.7724E-03,   7.99768E-03
C:/temp/dataset/0/13_21.odb,Step-1,Increment      1: Step Time =    1.000,"PART-1-1",           377,       8.61676,      -23.4202,            0.,NA,NA,"",   47.9513E-03,   18.0734E-03,  -44.4148E-03,   9.14145E-03
C:/temp/dataset/0/13_21.odb,Step-1,Increment      1: Step Time =    1.000,"PART-1-1",           378,       8.81699,      -21.8917,            0.,NA,NA,"",   66.6545E-03,   30.6398E-03,  -59.1948E-03,   10.0492E-03
C:/temp/dataset/0/13_21.odb,Step-1,Increment      1: Step Time =    1.000,"PART-1-1",           379,  -438.919E-03,      -23.5046,            0.,NA,NA,"",   1.99784E-03,   1.98760E-03,  -202.070E-06,   696.948E-06
C:/temp/dataset/0/13_21.odb,Step-1,Increment      1: Step Time =    1.000,"PART-1-1",           380,   774.543E-03,      -22.4081,            0.,NA,NA,"",   4.90481E-03,   4.63590E-03,  -1.60177E-03,   1.41634E-03
C:/temp/dataset/0/13_21.odb,Step-1,Increment      1: Step Time =    1.000,"PART-1-1",           381,      -7.50181,      -26.8221,            0.,NA,NA,"",   6.75716E-03,   436.642E-06,  -6.74303E-03,   2.77755E-03
C:/temp/dataset/0/13_21.odb,Step-1,Increment      1: Step Time =    1.000,"PART-1-1",           382,      -9.04643,      -28.2740,            0.,NA,NA,"",   4.48502E-03,   215.179E-06,  -4.47985E-03,   3.27462E-03
C:/temp/dataset/0/13_21.odb,Step-1,Increment      1: Step Time =    1.000,"PART-1-1",           383,          -7.5,          -30.,            0.,NA,NA,"",            0.,   964.168E-42,  -5.47039E-39,   2.46366E-03
C:/temp/dataset/0/13_21.odb,Step-1,Increment      1: Step Time =    1.000,"PART-1-1",           384,      -5.95538,      -28.5482,            0.,NA,NA,"",   2.43311E-03,   1.34831E-03,  -2.02536E-03,   1.90572E-03
C:/temp/dataset/0/13_21.odb,Step-1,Increment      1: Step Time =    1.000,"PART-1-1",           385,      -10.9107,       24.5471,            0.,NA,NA,"",   338.338E-03,   274.467E-03,  -197.840E-03,   1.81510E-03
C:/temp/dataset/0/13_21.odb,Step-1,Increment      1: Step Time =    1.000,"PART-1-1",           386,      -9.41006,       26.0517,            0.,NA,NA,"",   404.072E-03,   319.322E-03,  -247.604E-03,   2.31157E-03
C:/temp/dataset/0/13_21.odb,Step-1,Increment      1: Step Time =    1.000,"PART-1-1",           387,      -10.7443,       27.3091,            0.,NA,NA,"",   412.843E-03,   357.296E-03,  -206.831E-03,   717.568E-06
C:/temp/dataset/0/13_21.odb,Step-1,Increment      1: Step Time =    1.000,"PART-1-1",           388,      -12.2450,       25.8045,            0.,NA,NA,"",   350.319E-03,   311.937E-03,  -159.433E-03,   588.169E-06
C:/temp/dataset/0/13_21.odb,Step-1,Increment      1: Step Time =    1.000,"PART-1-1",           389,      -1.21620,       23.8189,            0.,NA,NA,"",   604.758E-03,   273.962E-03,  -539.145E-03,   11.8160E-03
C:/temp/dataset/0/13_21.odb,Step-1,Increment      1: Step Time =    1.000,"PART-1-1",           390,      -2.21965,       25.1560,            0.,NA,NA,"",   587.156E-03,   294.251E-03,  -508.103E-03,   12.5503E-03
C:/temp/dataset/0/13_21.odb,Step-1,Increment      1: Step Time =    1.000,"PART-1-1",           391,      -12.3287,       22.9401,            0.,NA,NA,"",   274.306E-03,   227.006E-03,  -153.988E-03,   1.06147E-03
C:/temp/dataset/0/13_21.odb,Step-1,Increment      1: Step Time =    1.000,"PART-1-1",           392,      -11.0144,       21.7359,            0.,NA,NA,"",   269.818E-03,   193.159E-03,  -188.393E-03,   2.42380E-03
C:/temp/dataset/0/13_21.odb,Step-1,Increment      1: Step Time =    1.000,"PART-1-1",           393,      -9.59641,       23.3428,            0.,NA,NA,"",   335.963E-03,   240.799E-03,  -234.281E-03,   3.59064E-03
C:/temp/dataset/0/13_21.odb,Step-1,Increment      1: Step Time =    1.000,"PART-1-1",           394,      -8.52014,       19.3558,            0.,NA,NA,"",   279.440E-03,   131.819E-03,  -246.395E-03,   5.47046E-03
C:/temp/dataset/0/13_21.odb,Step-1,Increment      1: Step Time =    1.000,"PART-1-1",           395,      -7.12750,       20.9906,            0.,NA,NA,"",   347.584E-03,   180.398E-03,  -297.104E-03,   8.76845E-03
C:/temp/dataset/0/13_21.odb,Step-1,Increment      1: Step Time =    1.000,"PART-1-1",           396,      -8.32913,       22.1749,            0.,NA,NA,"",   340.550E-03,   210.417E-03,  -267.767E-03,   6.57945E-03
C:/temp/dataset/0/13_21.odb,Step-1,Increment      1: Step Time =    1.000,"PART-1-1",           397,      -9.72177,       20.5400,            0.,NA,NA,"",   272.813E-03,   161.448E-03,  -219.913E-03,   3.91028E-03
C:/temp/dataset/0/13_21.odb,Step-1,Increment      1: Step Time =    1.000,"PART-1-1",           398,      -6.16480,       16.7267,            0.,NA,NA,"",   296.444E-03,   78.0389E-03,  -285.988E-03,   11.3945E-03
C:/temp/dataset/0/13_21.odb,Step-1,Increment      1: Step Time =    1.000,"PART-1-1",           399,           -5.,       18.4615,            0.,NA,NA,"",   356.992E-03,   121.408E-03,  -335.713E-03,   17.2921E-03
C:/temp/dataset/0/13_21.odb,Step-1,Increment      1: Step Time =    1.000,"PART-1-1",           400,      -6.13199,       19.8034,            0.,NA,NA,"",   351.266E-03,   148.678E-03,  -318.249E-03,   12.3723E-03
C:/temp/dataset/0/13_21.odb,Step-1,Increment      1: Step Time =    1.000,"PART-1-1",           401,      -7.29678,       18.0686,            0.,NA,NA,"",   289.459E-03,   102.299E-03,  -270.780E-03,   7.71349E-03
C:/temp/dataset/0/13_21.odb,Step-1,Increment      1: Step Time =    1.000,"PART-1-1",           402,      -11.0823,       15.8203,            0.,NA,NA,"",   178.766E-03,   48.0709E-03,  -172.181E-03,   2.70800E-03
C:/temp/dataset/0/13_21.odb,Step-1,Increment      1: Step Time =    1.000,"PART-1-1",           403,      -12.3677,       14.0517,            0.,NA,NA,"",   144.603E-03,   14.5127E-03,  -143.873E-03,   1.18719E-03
C:/temp/dataset/0/13_21.odb,Step-1,Increment      1: Step Time =    1.000,"PART-1-1",           404,      -11.1015,       12.7786,            0.,NA,NA,"",   163.506E-03,  -5.39221E-03,  -163.417E-03,   3.20382E-03
C:/temp/dataset/0/13_21.odb,Step-1,Increment      1: Step Time =    1.000,"PART-1-1",           405,          -15.,          10.5,            0.,NA,NA,"",   111.345E-03,  -37.2215E-03,  -104.940E-03,   2.27238E-03
C:/temp/dataset/0/13_21.odb,Step-1,Increment      1: Step Time =    1.000,"PART-1-1",           406,      -13.6919,       9.25384,            0.,NA,NA,"",   132.868E-03,  -52.6287E-03,  -122.000E-03,   481.119E-06
C:/temp/dataset/0/13_21.odb,Step-1,Increment      1: Step Time =    1.000,"PART-1-1",           407,      -12.3755,       11.0249,            0.,NA,NA,"",   143.491E-03,  -31.2885E-03,  -140.038E-03,   1.59202E-03
C:/temp/dataset/0/13_21.odb,Step-1,Increment      1: Step Time =    1.000,"PART-1-1",           408,      -13.6836,       12.2710,            0.,NA,NA,"",   121.985E-03,  -13.9714E-03,  -121.183E-03,   784.563E-06
C:/temp/dataset/0/13_21.odb,Step-1,Increment      1: Step Time =    1.000,"PART-1-1",           409,      -7.40029,       8.84536,            0.,NA,NA,"",   200.260E-03,  -45.8739E-03,  -194.934E-03,   8.30867E-03
C:/temp/dataset/0/13_21.odb,Step-1,Increment      1: Step Time =    1.000,"PART-1-1",           410,      -8.62408,       10.1694,            0.,NA,NA,"",   192.136E-03,  -35.4385E-03,  -188.839E-03,   6.79304E-03
C:/temp/dataset/0/13_21.odb,Step-1,Increment      1: Step Time =    1.000,"PART-1-1",           411,      -9.86273,       8.43495,            0.,NA,NA,"",   174.026E-03,  -57.0888E-03,  -164.395E-03,   5.10061E-03
C:/temp/dataset/0/13_21.odb,Step-1,Increment      1: Step Time =    1.000,"PART-1-1",           412,      -8.63893,       7.11093,            0.,NA,NA,"",   182.543E-03,  -65.7079E-03,  -170.307E-03,   6.59434E-03
C:/temp/dataset/0/13_21.odb,Step-1,Increment      1: Step Time =    1.000,"PART-1-1",           413,          -15.,           1.5,            0.,NA,NA,"",   154.012E-03,  -103.228E-03,  -114.296E-03,   88.3044E-06
C:/temp/dataset/0/13_21.odb,Step-1,Increment      1: Step Time =    1.000,"PART-1-1",           414,      -13.7087,   214.116E-03,            0.,NA,NA,"",   157.331E-03,  -105.509E-03,  -116.709E-03,   1.52856E-03
C:/temp/dataset/0/13_21.odb,Step-1,Increment      1: Step Time =    1.000,"PART-1-1",           415,      -12.4129,       1.94059,            0.,NA,NA,"",   159.629E-03,  -100.661E-03,  -123.889E-03,   2.57051E-03
C:/temp/dataset/0/13_21.odb,Step-1,Increment      1: Step Time =    1.000,"PART-1-1",           416,      -13.7042,       3.22647,            0.,NA,NA,"",   154.266E-03,  -97.0819E-03,  -119.888E-03,   1.00140E-03
C:/temp/dataset/0/13_21.odb,Step-1,Increment      1: Step Time =    1.000,"PART-1-1",           417,      -9.88317,  -688.536E-03,            0.,NA,NA,"",   159.458E-03,  -100.891E-03,  -123.482E-03,   5.05303E-03
C:/temp/dataset/0/13_21.odb,Step-1,Increment      1: Step Time =    1.000,"PART-1-1",           418,      -8.64028,      -2.02441,            0.,NA,NA,"",   154.316E-03,  -97.9699E-03,  -119.229E-03,   5.99334E-03
C:/temp/dataset/0/13_21.odb,Step-1,Increment      1: Step Time =    1.000,"PART-1-1",           419,      -7.40757,  -323.915E-03,            0.,NA,NA,"",   161.438E-03,  -93.9343E-03,  -131.295E-03,   7.14783E-03
C:/temp/dataset/0/13_21.odb,Step-1,Increment      1: Step Time =    1.000,"PART-1-1",           420,      -8.65046,       1.01196,            0.,NA,NA,"",   165.932E-03,  -95.6782E-03,  -135.570E-03,   6.18839E-03
C:/temp/dataset/0/13_21.odb,Step-1,Increment      1: Step Time =    1.000,"PART-1-1",           421,          -15.,          -7.5,            0.,NA,NA,"",   143.496E-03,  -97.5238E-03,  -105.262E-03,   2.31706E-03
C:/temp/dataset/0/13_21.odb,Step-1,Increment      1: Step Time =    1.000,"PART-1-1",           422,      -13.7007,      -8.80606,            0.,NA,NA,"",   133.592E-03,  -91.0767E-03,  -97.7337E-03,   3.28739E-03
C:/temp/dataset/0/13_21.odb,Step-1,Increment      1: Step Time =    1.000,"PART-1-1",           423,      -12.4029,      -7.10316,            0.,NA,NA,"",   137.928E-03,  -95.4318E-03,  -99.5841E-03,   3.69600E-03
C:/temp/dataset/0/13_21.odb,Step-1,Increment      1: Step Time =    1.000,"PART-1-1",           424,      -13.7022,      -5.79711,            0.,NA,NA,"",   146.328E-03,  -101.192E-03,  -105.698E-03,   2.68567E-03
C:/temp/dataset/0/13_21.odb,Step-1,Increment      1: Step Time =    1.000,"PART-1-1",           425,      -7.34368,      -12.4907,            0.,NA,NA,"",   87.1062E-03,  -60.6724E-03,  -62.5008E-03,   5.48135E-03
C:/temp/dataset/0/13_21.odb,Step-1,Increment      1: Step Time =    1.000,"PART-1-1",           426,      -8.60430,      -11.1353,            0.,NA,NA,"",   101.880E-03,  -70.5425E-03,  -73.5070E-03,   5.34699E-03
C:/temp/dataset/0/13_21.odb,Step-1,Increment      1: Step Time =    1.000,"PART-1-1",           427,      -9.82710,      -12.7746,            0.,NA,NA,"",   95.5864E-03,  -64.8601E-03,  -70.2135E-03,   4.97716E-03
C:/temp/dataset/0/13_21.odb,Step-1,Increment      1: Step Time =    1.000,"PART-1-1",           428,      -8.56648,      -14.1300,            0.,NA,NA,"",   80.9145E-03,  -54.7343E-03,  -59.5930E-03,   5.08903E-03
C:/temp/dataset/0/13_21.odb,Step-1,Increment      1: Step Time =    1.000,"PART-1-1",           429,  -730.622E-03,       22.2784,            0.,NA,NA,"",   602.682E-03,   252.958E-03,  -547.026E-03,   11.8941E-03
C:/temp/dataset/0/13_21.odb,Step-1,Increment      1: Step Time =    1.000,"PART-1-1",           430,         -1.25,           20.,            0.,NA,NA,"",   553.871E-03,   198.049E-03,  -517.252E-03,   18.6326E-03
C:/temp/dataset/0/13_21.odb,Step-1,Increment      1: Step Time =    1.000,"PART-1-1",           431,       11.1367,       28.7451,            0.,NA,NA,"",   576.455E-03,   300.097E-03,  -492.181E-03,   1.65600E-03
C:/temp/dataset/0/13_21.odb,Step-1,Increment      1: Step Time =    1.000,"PART-1-1",           432,       10.3125,           30.,            0.,NA,NA,"",   579.466E-03,   275.258E-03,  -509.916E-03,   477.619E-06
C:/temp/dataset/0/13_21.odb,Step-1,Increment      1: Step Time =    1.000,"PART-1-1",           433,       10.0023,       27.5230,            0.,NA,NA,"",   609.374E-03,   322.460E-03,  -517.066E-03,   7.74743E-03
C:/temp/dataset/0/13_21.odb,Step-1,Increment      1: Step Time =    1.000,"PART-1-1",           434,       10.7751,       23.9735,            0.,NA,NA,"",   604.296E-03,   357.317E-03,  -487.338E-03,   9.14731E-03
C:/temp/dataset/0/13_21.odb,Step-1,Increment      1: Step Time =    1.000,"PART-1-1",           435,       11.7898,       22.7248,            0.,NA,NA,"",   593.632E-03,   370.993E-03,  -463.426E-03,   7.77516E-03
C:/temp/dataset/0/13_21.odb,Step-1,Increment      1: Step Time =    1.000,"PART-1-1",           436,       12.9255,       23.8368,            0.,NA,NA,"",   580.394E-03,   363.796E-03,  -452.227E-03,   4.55526E-03
C:/temp/dataset/0/13_21.odb,Step-1,Increment      1: Step Time =    1.000,"PART-1-1",           437,       2.25220,       28.9826,            0.,NA,NA,"",   745.175E-03,   340.525E-03,  -662.818E-03,   20.7302E-03
C:/temp/dataset/0/13_21.odb,Step-1,Increment      1: Step Time =    1.000,"PART-1-1",           438,       3.21116,       27.8846,            0.,NA,NA,"",   734.762E-03,   324.693E-03,  -659.128E-03,   16.6568E-03
C:/temp/dataset/0/13_21.odb,Step-1,Increment      1: Step Time =    1.000,"PART-1-1",           439,       4.70896,       28.9020,            0.,NA,NA,"",   738.130E-03,   320.473E-03,  -664.930E-03,   19.7394E-03
C:/temp/dataset/0/13_21.odb,Step-1,Increment      1: Step Time =    1.000,"PART-1-1",           440,          3.75,           30.,            0.,NA,NA,"",   754.257E-03,   328.264E-03,  -679.077E-03,   24.7577E-03
C:/temp/dataset/0/13_21.odb,Step-1,Increment      1: Step Time =    1.000,"PART-1-1",           441,      -8.10884,       24.8461,            0.,NA,NA,"",   405.431E-03,   285.722E-03,  -287.640E-03,   5.20418E-03
C:/temp/dataset/0/13_21.odb,Step-1,Increment      1: Step Time =    1.000,"PART-1-1",           442,      -13.5971,       27.1125,            0.,NA,NA,"",   372.083E-03,   352.364E-03,  -119.521E-03,   269.277E-06
C:/temp/dataset/0/13_21.odb,Step-1,Increment      1: Step Time =    1.000,"PART-1-1",           443,          -15.,          25.5,            0.,NA,NA,"",   313.728E-03,   304.126E-03,  -77.0232E-03,   790.933E-06
C:/temp/dataset/0/13_21.odb,Step-1,Increment      1: Step Time =    1.000,"PART-1-1",           444,      -13.6479,       24.1920,            0.,NA,NA,"",   288.852E-03,   264.059E-03,  -117.083E-03,   369.018E-06
C:/temp/dataset/0/13_21.odb,Step-1,Increment      1: Step Time =    1.000,"PART-1-1",           445,      -6.53168,       26.2506,            0.,NA,NA,"",   474.779E-03,   324.534E-03,  -346.544E-03,   6.09792E-03
C:/temp/dataset/0/13_21.odb,Step-1,Increment      1: Step Time =    1.000,"PART-1-1",           446,      -7.83289,       27.4562,            0.,NA,NA,"",   469.968E-03,   359.973E-03,  -302.141E-03,   3.39761E-03
C:/temp/dataset/0/13_21.odb,Step-1,Increment      1: Step Time =    1.000,"PART-1-1",           447,          -15.,          28.5,            0.,NA,NA,"",   403.251E-03,   395.781E-03,  -77.2575E-03,   199.884E-06
C:/temp/dataset/0/13_21.odb,Step-1,Increment      1: Step Time =    1.000,"PART-1-1",           448,      -12.0971,       28.6125,            0.,NA,NA,"",   431.177E-03,   397.989E-03,  -165.886E-03,   346.640E-06
C:/temp/dataset/0/13_21.odb,Step-1,Increment      1: Step Time =    1.000,"PART-1-1",           449,         -13.5,           30.,            0.,NA,NA,"",   458.210E-03,   441.172E-03,  -123.786E-03,   170.008E-06
C:/temp/dataset/0/13_21.odb,Step-1,Increment      1: Step Time =    1.000,"PART-1-1",           450,      -6.19829,       10.5730,            0.,NA,NA,"",   225.198E-03,  -21.6226E-03,  -224.158E-03,   10.1926E-03
C:/temp/dataset/0/13_21.odb,Step-1,Increment      1: Step Time =    1.000,"PART-1-1",           451,      -6.20201,       7.50308,            0.,NA,NA,"",   203.753E-03,  -53.6817E-03,  -196.554E-03,   9.65861E-03
C:/temp/dataset/0/13_21.odb,Step-1,Increment      1: Step Time =    1.000,"PART-1-1",           452,           -5.,       9.23077,            0.,NA,NA,"",   227.454E-03,  -31.2358E-03,  -225.299E-03,   11.5689E-03
C:/temp/dataset/0/13_21.odb,Step-1,Increment      1: Step Time =    1.000,"PART-1-1",           453,      -12.4049,       4.96458,            0.,NA,NA,"",   156.782E-03,  -87.5786E-03,  -130.041E-03,   2.22948E-03
C:/temp/dataset/0/13_21.odb,Step-1,Increment      1: Step Time =    1.000,"PART-1-1",           454,      -13.7007,       6.23810,            0.,NA,NA,"",   145.496E-03,  -79.8884E-03,  -121.602E-03,   565.764E-06
C:/temp/dataset/0/13_21.odb,Step-1,Increment      1: Step Time =    1.000,"PART-1-1",           455,          -15.,           4.5,            0.,NA,NA,"",   145.099E-03,  -90.8792E-03,  -113.114E-03,   833.962E-06
C:/temp/dataset/0/13_21.odb,Step-1,Increment      1: Step Time =    1.000,"PART-1-1",           456,      -9.87977,       5.38582,            0.,NA,NA,"",   170.985E-03,  -81.1537E-03,  -150.500E-03,   5.07458E-03
C:/temp/dataset/0/13_21.odb,Step-1,Increment      1: Step Time =    1.000,"PART-1-1",           457,      -8.64969,       4.05795,            0.,NA,NA,"",   174.831E-03,  -85.3744E-03,  -152.569E-03,   6.38646E-03
C:/temp/dataset/0/13_21.odb,Step-1,Increment      1: Step Time =    1.000,"PART-1-1",           458,      -7.40885,       5.78306,            0.,NA,NA,"",   186.755E-03,  -71.5504E-03,  -172.505E-03,   7.92507E-03
C:/temp/dataset/0/13_21.odb,Step-1,Increment      1: Step Time =    1.000,"PART-1-1",           459,      -7.41391,       2.72502,            0.,NA,NA,"",   174.589E-03,  -87.1495E-03,  -151.282E-03,   7.53656E-03
C:/temp/dataset/0/13_21.odb,Step-1,Increment      1: Step Time =    1.000,"PART-1-1",           460,      -9.88624,       2.34489,            0.,NA,NA,"",   166.813E-03,  -95.3058E-03,  -136.906E-03,   5.05852E-03
C:/temp/dataset/0/13_21.odb,Step-1,Increment      1: Step Time =    1.000,"PART-1-1",           461,      -12.4101,      -4.09106,            0.,NA,NA,"",   149.957E-03,  -103.257E-03,  -108.743E-03,   3.30966E-03
C:/temp/dataset/0/13_21.odb,Step-1,Increment      1: Step Time =    1.000,"PART-1-1",           462,      -13.7080,      -2.79395,            0.,NA,NA,"",   154.513E-03,  -106.439E-03,  -112.005E-03,   2.09586E-03
C:/temp/dataset/0/13_21.odb,Step-1,Increment      1: Step Time =    1.000,"PART-1-1",           463,          -15.,          -4.5,            0.,NA,NA,"",   152.564E-03,  -105.261E-03,  -110.434E-03,   1.50368E-03
C:/temp/dataset/0/13_21.odb,Step-1,Increment      1: Step Time =    1.000,"PART-1-1",           464,      -9.87646,      -3.71895,            0.,NA,NA,"",   148.251E-03,  -99.2731E-03,  -110.106E-03,   5.04825E-03
C:/temp/dataset/0/13_21.odb,Step-1,Increment      1: Step Time =    1.000,"PART-1-1",           465,      -8.63520,      -5.06687,            0.,NA,NA,"",   139.499E-03,  -93.6407E-03,  -103.399E-03,   5.78575E-03
C:/temp/dataset/0/13_21.odb,Step-1,Increment      1: Step Time =    1.000,"PART-1-1",           466,      -7.39901,      -3.37233,            0.,NA,NA,"",   146.083E-03,  -93.3040E-03,  -112.403E-03,   6.74804E-03
C:/temp/dataset/0/13_21.odb,Step-1,Increment      1: Step Time =    1.000,"PART-1-1",           467,      -7.39417,      -6.42670,            0.,NA,NA,"",   128.249E-03,  -86.6062E-03,  -94.5898E-03,   6.33330E-03
C:/temp/dataset/0/13_21.odb,Step-1,Increment      1: Step Time =    1.000,"PART-1-1",           468,      -9.87187,      -6.75385,            0.,NA,NA,"",   133.348E-03,  -91.7886E-03,  -96.7289E-03,   5.03703E-03
C:/temp/dataset/0/13_21.odb,Step-1,Increment      1: Step Time =    1.000,"PART-1-1",           469,      -8.63084,      -8.11369,            0.,NA,NA,"",   121.753E-03,  -84.0093E-03,  -88.1257E-03,   5.56965E-03
C:/temp/dataset/0/13_21.odb,Step-1,Increment      1: Step Time =    1.000,"PART-1-1",           470,      -12.3844,      -13.1215,            0.,NA,NA,"",   103.630E-03,  -68.2427E-03,  -77.9872E-03,   4.47692E-03
C:/temp/dataset/0/13_21.odb,Step-1,Increment      1: Step Time =    1.000,"PART-1-1",           471,      -13.6984,      -11.8123,            0.,NA,NA,"",   117.295E-03,  -77.4415E-03,  -88.0959E-03,   3.90352E-03
C:/temp/dataset/0/13_21.odb,Step-1,Increment      1: Step Time =    1.000,"PART-1-1",           472,          -15.,         -13.5,            0.,NA,NA,"",   113.298E-03,  -71.1530E-03,  -88.1682E-03,   4.01615E-03
C:/temp/dataset/0/13_21.odb,Step-1,Increment      1: Step Time =    1.000,"PART-1-1",           473,      -7.37693,      -9.46970,            0.,NA,NA,"",   108.333E-03,  -75.2311E-03,  -77.9503E-03,   5.91265E-03
C:/temp/dataset/0/13_21.odb,Step-1,Increment      1: Step Time =    1.000,"PART-1-1",           474,      -9.85821,      -9.77933,            0.,NA,NA,"",   115.444E-03,  -79.8183E-03,  -83.4049E-03,   5.01798E-03
C:/temp/dataset/0/13_21.odb,Step-1,Increment      1: Step Time =    1.000,"PART-1-1",           475,      -8.48236,      -17.0363,            0.,NA,NA,"",   60.2442E-03,  -38.1612E-03,  -46.6164E-03,   4.82568E-03
C:/temp/dataset/0/13_21.odb,Step-1,Increment      1: Step Time =    1.000,"PART-1-1",           476,      -7.28434,      -15.4580,            0.,NA,NA,"",   65.7503E-03,  -44.5286E-03,  -48.3766E-03,   5.01476E-03
C:/temp/dataset/0/13_21.odb,Step-1,Increment      1: Step Time =    1.000,"PART-1-1",           477,      -9.76451,      -15.7083,            0.,NA,NA,"",   75.0408E-03,  -48.4663E-03,  -57.2900E-03,   4.92722E-03
C:/temp/dataset/0/13_21.odb,Step-1,Increment      1: Step Time =    1.000,"PART-1-1",           478,      -8.29054,      -19.6175,            0.,NA,NA,"",   41.8941E-03,  -22.9958E-03,  -35.0186E-03,   4.80760E-03
C:/temp/dataset/0/13_21.odb,Step-1,Increment      1: Step Time =    1.000,"PART-1-1",           479,      -7.20240,      -18.2338,            0.,NA,NA,"",   46.0502E-03,  -28.4798E-03,  -36.1872E-03,   4.50198E-03
C:/temp/dataset/0/13_21.odb,Step-1,Increment      1: Step Time =    1.000,"PART-1-1",           480,      -9.57051,      -18.4200,            0.,NA,NA,"",   55.5176E-03,  -32.6071E-03,  -44.9330E-03,   4.95593E-03
C:/temp/dataset/0/13_21.odb,Step-1,Increment      1: Step Time =    1.000,"PART-1-1",           481,      -11.5327,      -24.2644,            0.,NA,NA,"",   27.2216E-03,  -11.8095E-03,  -24.5266E-03,   5.35614E-03
C:/temp/dataset/0/13_21.odb,Step-1,Increment      1: Step Time =    1.000,"PART-1-1",           482,      -10.1789,      -23.4859,            0.,NA,NA,"",   26.7054E-03,  -10.9361E-03,  -24.3635E-03,   4.98772E-03
C:/temp/dataset/0/13_21.odb,Step-1,Increment      1: Step Time =    1.000,"PART-1-1",           483,      -10.8627,      -21.7859,            0.,NA,NA,"",   39.1644E-03,  -18.9960E-03,  -34.2491E-03,   5.21022E-03
C:/temp/dataset/0/13_21.odb,Step-1,Increment      1: Step Time =    1.000,"PART-1-1",           484,      -12.2165,      -22.5644,            0.,NA,NA,"",   39.8535E-03,  -19.3365E-03,  -34.8483E-03,   5.53179E-03
C:/temp/dataset/0/13_21.odb,Step-1,Increment      1: Step Time =    1.000,"PART-1-1",           485,      -6.15301,      -21.8453,            0.,NA,NA,"",   18.1268E-03,  -6.53530E-03,  -16.9078E-03,   4.12848E-03
C:/temp/dataset/0/13_21.odb,Step-1,Increment      1: Step Time =    1.000,"PART-1-1",           486,      -7.48433,      -22.7723,            0.,NA,NA,"",   20.2101E-03,  -6.85815E-03,  -19.0109E-03,   4.27726E-03
C:/temp/dataset/0/13_21.odb,Step-1,Increment      1: Step Time =    1.000,"PART-1-1",           487,      -6.61766,      -24.1583,            0.,NA,NA,"",   11.8376E-03,  -1.89304E-03,  -11.6852E-03,   3.08435E-03
C:/temp/dataset/0/13_21.odb,Step-1,Increment      1: Step Time =    1.000,"PART-1-1",           488,      -9.30746,      -21.9937,            0.,NA,NA,"",   31.6836E-03,  -14.1906E-03,  -28.3280E-03,   4.96388E-03
C:/temp/dataset/0/13_21.odb,Step-1,Increment      1: Step Time =    1.000,"PART-1-1",           489,      -9.12330,      -20.5212,            0.,NA,NA,"",   39.7603E-03,  -20.3450E-03,  -34.1608E-03,   4.97808E-03
C:/temp/dataset/0/13_21.odb,Step-1,Increment      1: Step Time =    1.000,"PART-1-1",           490,      -10.6786,      -20.3134,            0.,NA,NA,"",   47.6873E-03,  -25.2394E-03,  -40.4604E-03,   5.21070E-03
C:/temp/dataset/0/13_21.odb,Step-1,Increment      1: Step Time =    1.000,"PART-1-1",           491,         -13.5,          -30.,            0.,NA,NA,"",            0.,  -206.745E-42,  -11.3051E-39,   6.20728E-03
C:/temp/dataset/0/13_21.odb,Step-1,Increment      1: Step Time =    1.000,"PART-1-1",           492,      -12.0973,      -28.5120,            0.,NA,NA,"",   6.07932E-03,  -2.19284E-03,  -5.67006E-03,   4.81965E-03
C:/temp/dataset/0/13_21.odb,Step-1,Increment      1: Step Time =    1.000,"PART-1-1",           493,      -13.5973,      -27.0120,            0.,NA,NA,"",   17.8511E-03,  -9.13261E-03,  -15.3381E-03,   6.13850E-03
C:/temp/dataset/0/13_21.odb,Step-1,Increment      1: Step Time =    1.000,"PART-1-1",           494,          -15.,         -28.5,            0.,NA,NA,"",   13.0763E-03,  -8.76329E-03,  -9.70533E-03,   7.18311E-03
C:/temp/dataset/0/13_21.odb,Step-1,Increment      1: Step Time =    1.000,"PART-1-1",           495,      -2.59553,      -21.0976,            0.,NA,NA,"",   3.70389E-03,  -1.05168E-03,  -3.55145E-03,   2.58746E-03
C:/temp/dataset/0/13_21.odb,Step-1,Increment      1: Step Time =    1.000,"PART-1-1",           496,      -1.51596,      -22.2324,            0.,NA,NA,"",   2.15641E-03,   1.91430E-03,  -992.760E-06,   1.50857E-03
C:/temp/dataset/0/13_21.odb,Step-1,Increment      1: Step Time =    1.000,"PART-1-1",           497,  -170.430E-03,      -21.1349,            0.,NA,NA,"",   5.51579E-03,   5.19006E-03,  -1.86741E-03,   2.99281E-03
C:/temp/dataset/0/13_21.odb,Step-1,Increment      1: Step Time =    1.000,"PART-1-1",           498,         -1.25,          -20.,            0.,NA,NA,"",   4.20942E-03,   2.11348E-03,  -3.64038E-03,   4.21669E-03
C:/temp/dataset/0/13_21.odb,Step-1,Increment      1: Step Time =    1.000,"PART-1-1",           499,       2.92795,      -28.2085,            0.,NA,NA,"",   3.67928E-03,  -2.83472E-03,  -2.34551E-03,   2.03525E-03
C:/temp/dataset/0/13_21.odb,Step-1,Increment      1: Step Time =    1.000,"PART-1-1",           500,  -103.307E-03,      -28.5907,            0.,NA,NA,"",   948.071E-06,  -751.576E-06,  -577.903E-06,   904.226E-06
C:/temp/dataset/0/13_21.odb,Step-1,Increment      1: Step Time =    1.000,"PART-1-1",           501,           1.5,          -30.,            0.,NA,NA,"",            0.,  -1.24435E-39,  -3.09706E-39,   1.72712E-03
C:/temp/dataset/0/13_21.odb,Step-1,Increment      1: Step Time =    1.000,"PART-1-1",           502,       2.19497,      -21.2732,            0.,NA,NA,"",   12.9668E-03,   11.2588E-03,  -6.43252E-03,   3.14503E-03
C:/temp/dataset/0/13_21.odb,Step-1,Increment      1: Step Time =    1.000,"PART-1-1",           503,          1.25,          -20.,            0.,NA,NA,"",   13.4906E-03,   12.1634E-03,  -5.83499E-03,   4.76513E-03
C:/temp/dataset/0/13_21.odb,Step-1,Increment      1: Step Time =    1.000,"PART-1-1",           504,       4.38160,      -21.6436,            0.,NA,NA,"",   24.0611E-03,   13.7241E-03,  -19.7633E-03,   3.83430E-03
C:/temp/dataset/0/13_21.odb,Step-1,Increment      1: Step Time =    1.000,"PART-1-1",           505,          3.75,          -20.,            0.,NA,NA,"",   30.7368E-03,   25.0937E-03,  -17.7498E-03,   5.66513E-03
C:/temp/dataset/0/13_21.odb,Step-1,Increment      1: Step Time =    1.000,"PART-1-1",           506,       12.4146,      -26.3616,            0.,NA,NA,"",   41.4719E-03,   18.5558E-03,  -37.0890E-03,   12.6090E-03
C:/temp/dataset/0/13_21.odb,Step-1,Increment      1: Step Time =    1.000,"PART-1-1",           507,       11.3720,      -25.0651,            0.,NA,NA,"",   50.3307E-03,   20.6819E-03,  -45.8850E-03,   11.7342E-03
C:/temp/dataset/0/13_21.odb,Step-1,Increment      1: Step Time =    1.000,"PART-1-1",           508,       9.80011,      -26.1459,            0.,NA,NA,"",   29.2509E-03,   8.17752E-03,  -28.0846E-03,   9.50925E-03
C:/temp/dataset/0/13_21.odb,Step-1,Increment      1: Step Time =    1.000,"PART-1-1",           509,       10.8427,      -27.4423,            0.,NA,NA,"",   21.1691E-03,   6.50767E-03,  -20.1440E-03,   10.4156E-03
C:/temp/dataset/0/13_21.odb,Step-1,Increment      1: Step Time =    1.000,"PART-1-1",           510,       10.6574,      -21.6616,            0.,NA,NA,"",   87.1114E-03,   42.2632E-03,  -76.1722E-03,   11.3039E-03
C:/temp/dataset/0/13_21.odb,Step-1,Increment      1: Step Time =    1.000,"PART-1-1",           511,       9.56375,      -20.8051,            0.,NA,NA,"",   87.7198E-03,   44.7832E-03,  -75.4270E-03,   10.5143E-03
C:/temp/dataset/0/13_21.odb,Step-1,Increment      1: Step Time =    1.000,"PART-1-1",           512,       9.91066,      -22.7482,            0.,NA,NA,"",   66.3367E-03,   29.1202E-03,  -59.6035E-03,   10.7028E-03
C:/temp/dataset/0/13_21.odb,Step-1,Increment      1: Step Time =    1.000,"PART-1-1",           513,       13.7822,      -25.0807,            0.,NA,NA,"",   69.5149E-03,   34.5286E-03,  -60.3332E-03,   13.7964E-03
C:/temp/dataset/0/13_21.odb,Step-1,Increment      1: Step Time =    1.000,"PART-1-1",           514,       13.6324,      -27.5308,            0.,NA,NA,"",   33.5295E-03,   17.8463E-03,  -28.3855E-03,   13.9423E-03
C:/temp/dataset/0/13_21.odb,Step-1,Increment      1: Step Time =    1.000,"PART-1-1",           515,           15.,        -26.25,            0.,NA,NA,"",   64.0524E-03,   35.2721E-03,  -53.4659E-03,   14.8170E-03
C:/temp/dataset/0/13_21.odb,Step-1,Increment      1: Step Time =    1.000,"PART-1-1",           516,          13.5,          -30.,            0.,NA,NA,"",            0.,   1.24736E-39,  -26.0267E-39,   14.1451E-03
C:/temp/dataset/0/13_21.odb,Step-1,Increment      1: Step Time =    1.000,"PART-1-1",           517,           15.,        -28.75,            0.,NA,NA,"",   25.6185E-03,   17.5440E-03,  -18.6686E-03,   16.6256E-03
C:/temp/dataset/0/13_21.odb,Step-1,Increment      1: Step Time =    1.000,"PART-1-1",           518,       12.1324,      -28.7808,            0.,NA,NA,"",   11.1629E-03,   3.94860E-03,  -10.4412E-03,   10.7392E-03
C:/temp/dataset/0/13_21.odb,Step-1,Increment      1: Step Time =    1.000,"PART-1-1",           519,       10.4418,      -23.8774,            0.,NA,NA,"",   57.3371E-03,   23.5489E-03,  -52.2781E-03,   10.8983E-03
C:/temp/dataset/0/13_21.odb,Step-1,Increment      1: Step Time =    1.000,"PART-1-1",           520,       12.6627,      -23.9582,            0.,NA,NA,"",   74.8869E-03,   35.0659E-03,  -66.1697E-03,   12.9648E-03
C:/temp/dataset/0/13_21.odb,Step-1,Increment      1: Step Time =    1.000,"PART-1-1",           521,       11.7324,      -22.7705,            0.,NA,NA,"",   82.4619E-03,   38.6370E-03,  -72.8502E-03,   12.1312E-03
C:/temp/dataset/0/13_21.odb,Step-1,Increment      1: Step Time =    1.000,"PART-1-1",           522,       13.8804,      -22.6275,            0.,NA,NA,"",   105.313E-03,   52.4307E-03,  -91.3332E-03,   13.8165E-03
C:/temp/dataset/0/13_21.odb,Step-1,Increment      1: Step Time =    1.000,"PART-1-1",           523,           15.,        -23.75,            0.,NA,NA,"",   99.6527E-03,   51.0632E-03,  -85.5758E-03,   14.5964E-03
C:/temp/dataset/0/13_21.odb,Step-1,Increment      1: Step Time =    1.000,"PART-1-1",           524,       10.4567,      -19.3679,            0.,NA,NA,"",   117.111E-03,   64.9216E-03,  -97.4689E-03,   11.0558E-03
C:/temp/dataset/0/13_21.odb,Step-1,Increment      1: Step Time =    1.000,"PART-1-1",           525,       11.6911,      -20.4036,            0.,NA,NA,"",   115.166E-03,   60.1439E-03,  -98.2132E-03,   11.9730E-03
C:/temp/dataset/0/13_21.odb,Step-1,Increment      1: Step Time =    1.000,"PART-1-1",           526,       13.7764,      -15.1383,            0.,NA,NA,"",   224.363E-03,   135.886E-03,  -178.533E-03,   12.1084E-03
C:/temp/dataset/0/13_21.odb,Step-1,Increment      1: Step Time =    1.000,"PART-1-1",           527,           15.,        -16.25,            0.,NA,NA,"",   222.244E-03,   128.015E-03,  -181.672E-03,   13.0730E-03
C:/temp/dataset/0/13_21.odb,Step-1,Increment      1: Step Time =    1.000,"PART-1-1",           528,       13.9082,      -7.52913,            0.,NA,NA,"",   355.601E-03,   245.937E-03,  -256.840E-03,   10.0729E-03
C:/temp/dataset/0/13_21.odb,Step-1,Increment      1: Step Time =    1.000,"PART-1-1",           529,       12.6962,      -8.81215,            0.,NA,NA,"",   318.276E-03,   221.603E-03,  -228.456E-03,   10.4979E-03
C:/temp/dataset/0/13_21.odb,Step-1,Increment      1: Step Time =    1.000,"PART-1-1",           530,           15.,         -8.75,            0.,NA,NA,"",   350.023E-03,   233.118E-03,  -261.098E-03,   10.3379E-03
C:/temp/dataset/0/13_21.odb,Step-1,Increment      1: Step Time =    1.000,"PART-1-1",           531,       12.9315,      -6.39763,            0.,NA,NA,"",   362.055E-03,   258.043E-03,  -253.964E-03,   10.0006E-03
C:/temp/dataset/0/13_21.odb,Step-1,Increment      1: Step Time =    1.000,"PART-1-1",           532,           15.,         -6.25,            0.,NA,NA,"",   390.922E-03,   269.055E-03,  -283.601E-03,   9.47313E-03
C:/temp/dataset/0/13_21.odb,Step-1,Increment      1: Step Time =    1.000,"PART-1-1",           533,       13.7496,  -319.059E-03,            0.,NA,NA,"",   465.722E-03,   343.401E-03,  -314.599E-03,   8.24796E-03
C:/temp/dataset/0/13_21.odb,Step-1,Increment      1: Step Time =    1.000,"PART-1-1",           534,       12.6614,      -1.81770,            0.,NA,NA,"",   432.319E-03,   320.328E-03,  -290.327E-03,   9.27268E-03
C:/temp/dataset/0/13_21.odb,Step-1,Increment      1: Step Time =    1.000,"PART-1-1",           535,           15.,         -1.25,            0.,NA,NA,"",   466.171E-03,   336.372E-03,  -322.753E-03,   7.79154E-03
C:/temp/dataset/0/13_21.odb,Step-1,Increment      1: Step Time =    1.000,"PART-1-1",           536,       12.4054,   643.186E-03,            0.,NA,NA,"",   465.848E-03,   349.739E-03,  -307.729E-03,   9.01833E-03
C:/temp/dataset/0/13_21.odb,Step-1,Increment      1: Step Time =    1.000,"PART-1-1",           537,           15.,          1.25,            0.,NA,NA,"",   499.046E-03,   365.821E-03,  -339.444E-03,   6.96907E-03
C:/temp/dataset/0/13_21.odb,Step-1,Increment      1: Step Time =    1.000,"PART-1-1",           538,           15.,          6.25,            0.,NA,NA,"",   551.618E-03,   411.580E-03,  -367.266E-03,   5.39095E-03
C:/temp/dataset/0/13_21.odb,Step-1,Increment      1: Step Time =    1.000,"PART-1-1",           539,       10.9661,       10.0010,            0.,NA,NA,"",   561.559E-03,   418.457E-03,  -374.489E-03,   9.35843E-03
C:/temp/dataset/0/13_21.odb,Step-1,Increment      1: Step Time =    1.000,"PART-1-1",           540,       13.7311,       15.1467,            0.,NA,NA,"",   589.565E-03,   427.958E-03,  -405.511E-03,   5.16490E-03
C:/temp/dataset/0/13_21.odb,Step-1,Increment      1: Step Time =    1.000,"PART-1-1",           541,       13.6638,       12.5861,            0.,NA,NA,"",   584.205E-03,   431.972E-03,  -393.314E-03,   5.54443E-03
C:/temp/dataset/0/13_21.odb,Step-1,Increment      1: Step Time =    1.000,"PART-1-1",           542,           15.,         13.75,            0.,NA,NA,"",   587.896E-03,   433.835E-03,  -396.748E-03,   3.63914E-03
C:/temp/dataset/0/13_21.odb,Step-1,Increment      1: Step Time =    1.000,"PART-1-1",           543,       10.0887,       16.9483,            0.,NA,NA,"",   596.957E-03,   407.939E-03,  -435.825E-03,   9.79105E-03
C:/temp/dataset/0/13_21.odb,Step-1,Increment      1: Step Time =    1.000,"PART-1-1",           544,       12.5455,       16.5489,            0.,NA,NA,"",   591.995E-03,   419.010E-03,  -418.196E-03,   6.55404E-03
C:/temp/dataset/0/13_21.odb,Step-1,Increment      1: Step Time =    1.000,"PART-1-1",           545,       13.9423,       22.5670,            0.,NA,NA,"",   576.047E-03,   377.465E-03,  -435.144E-03,   3.77325E-03
C:/temp/dataset/0/13_21.odb,Step-1,Increment      1: Step Time =    1.000,"PART-1-1",           546,       12.8310,       21.4264,            0.,NA,NA,"",   587.121E-03,   385.164E-03,  -443.125E-03,   5.63635E-03
C:/temp/dataset/0/13_21.odb,Step-1,Increment      1: Step Time =    1.000,"PART-1-1",           547,           15.,         21.25,            0.,NA,NA,"",   574.276E-03,   390.890E-03,  -420.711E-03,   2.96313E-03
C:/temp/dataset/0/13_21.odb,Step-1,Increment      1: Step Time =    1.000,"PART-1-1",           548,       13.0804,       28.7387,            0.,NA,NA,"",   545.906E-03,   298.966E-03,  -456.763E-03,   244.165E-06
C:/temp/dataset/0/13_21.odb,Step-1,Increment      1: Step Time =    1.000,"PART-1-1",           549,       12.1875,           30.,            0.,NA,NA,"",   547.710E-03,   276.867E-03,  -472.579E-03,   788.491E-06
C:/temp/dataset/0/13_21.odb,Step-1,Increment      1: Step Time =    1.000,"PART-1-1",           550,           15.,         28.75,            0.,NA,NA,"",   519.839E-03,   298.447E-03,  -425.631E-03,   370.696E-06
C:/temp/dataset/0/13_21.odb,Step-1,Increment      1: Step Time =    1.000,"PART-1-1",           551,       14.0625,           30.,            0.,NA,NA,"",   521.205E-03,   277.852E-03,  -440.969E-03,   335.026E-06
C:/temp/dataset/0/13_21.odb,Step-1,Increment      1: Step Time =    1.000,"PART-1-1",           552,       8.83353,       26.4105,            0.,NA,NA,"",   638.644E-03,   335.241E-03,  -543.580E-03,   13.6223E-03
C:/temp/dataset/0/13_21.odb,Step-1,Increment      1: Step Time =    1.000,"PART-1-1",           553,       9.77062,       25.1982,            0.,NA,NA,"",   619.733E-03,   345.185E-03,  -514.700E-03,   11.8868E-03
C:/temp/dataset/0/13_21.odb,Step-1,Increment      1: Step Time =    1.000,"PART-1-1",           554,       5.62710,       27.7270,            0.,NA,NA,"",   714.797E-03,   324.331E-03,  -636.981E-03,   19.1020E-03
C:/temp/dataset/0/13_21.odb,Step-1,Increment      1: Step Time =    1.000,"PART-1-1",           555,          6.25,           30.,            0.,NA,NA,"",   712.690E-03,   291.459E-03,  -650.368E-03,   20.8511E-03
C:/temp/dataset/0/13_21.odb,Step-1,Increment      1: Step Time =    1.000,"PART-1-1",           556,   375.256E-03,       24.5574,            0.,NA,NA,"",   653.344E-03,   288.105E-03,  -586.391E-03,   9.63316E-03
C:/temp/dataset/0/13_21.odb,Step-1,Increment      1: Step Time =    1.000,"PART-1-1",           557,   860.838E-03,       23.0169,            0.,NA,NA,"",   648.391E-03,   274.334E-03,  -587.496E-03,   10.0890E-03
C:/temp/dataset/0/13_21.odb,Step-1,Increment      1: Step Time =    1.000,"PART-1-1",           558,       10.5910,       21.6677,            0.,NA,NA,"",   602.903E-03,   374.274E-03,  -472.664E-03,   10.0931E-03
C:/temp/dataset/0/13_21.odb,Step-1,Increment      1: Step Time =    1.000,"PART-1-1",           559,       9.14786,      -24.5495,            0.,NA,NA,"",   40.6548E-03,   13.4614E-03,  -38.3615E-03,   9.34608E-03
C:/temp/dataset/0/13_21.odb,Step-1,Increment      1: Step Time =    1.000,"PART-1-1",           560,           15.,        -21.25,            0.,NA,NA,"",   138.718E-03,   71.6649E-03,  -118.773E-03,   14.5673E-03
C:/temp/dataset/0/13_21.odb,Step-1,Increment      1: Step Time =    1.000,"PART-1-1",           561,       12.7662,      -21.5126,            0.,NA,NA,"",   110.292E-03,   55.4147E-03,  -95.3600E-03,   12.7649E-03
C:/temp/dataset/0/13_21.odb,Step-1,Increment      1: Step Time =    1.000,"PART-1-1",           562,           15.,        -13.75,            0.,NA,NA,"",   265.106E-03,   161.571E-03,  -210.181E-03,   12.1352E-03
C:/temp/dataset/0/13_21.odb,Step-1,Increment      1: Step Time =    1.000,"PART-1-1",           563,       12.5272,      -13.9788,            0.,NA,NA,"",   227.640E-03,   145.451E-03,  -175.111E-03,   11.4103E-03
C:/temp/dataset/0/13_21.odb,Step-1,Increment      1: Step Time =    1.000,"PART-1-1",           564,           15.,         11.25,            0.,NA,NA,"",   582.126E-03,   433.738E-03,  -388.255E-03,   4.04935E-03
C:/temp/dataset/0/13_21.odb,Step-1,Increment      1: Step Time =    1.000,"PART-1-1",           565,       12.2906,       11.3331,            0.,NA,NA,"",   575.487E-03,   426.853E-03,  -385.981E-03,   7.54690E-03
C:/temp/dataset/0/13_21.odb,Step-1,Increment      1: Step Time =    1.000,"PART-1-1",           566,       7.23650,       5.28124,            0.,NA,NA,"",   483.994E-03,   371.369E-03,  -310.380E-03,   13.2382E-03
C:/temp/dataset/0/13_21.odb,Step-1,Increment      1: Step Time =    1.000,"PART-1-1",           567,       8.44697,       3.91887,            0.,NA,NA,"",   475.799E-03,   366.263E-03,  -303.703E-03,   11.9573E-03
C:/temp/dataset/0/13_21.odb,Step-1,Increment      1: Step Time =    1.000,"PART-1-1",           568,       9.72373,       11.4508,            0.,NA,NA,"",   568.320E-03,   416.668E-03,  -386.491E-03,   10.7921E-03
C:/temp/dataset/0/13_21.odb,Step-1,Increment      1: Step Time =    1.000,"PART-1-1",           569,           15.,         16.25,            0.,NA,NA,"",   587.559E-03,   425.999E-03,  -404.660E-03,   3.53429E-03
C:/temp/dataset/0/13_21.odb,Step-1,Increment      1: Step Time =    1.000,"PART-1-1",           570,       6.21850,       16.4100,            0.,NA,NA,"",   601.227E-03,   388.923E-03,  -458.490E-03,   16.7115E-03
C:/temp/dataset/0/13_21.odb,Step-1,Increment      1: Step Time =    1.000,"PART-1-1",           571,       7.58992,       17.5073,            0.,NA,NA,"",   604.932E-03,   391.024E-03,  -461.566E-03,   12.7734E-03
C:/temp/dataset/0/13_21.odb,Step-1,Increment      1: Step Time =    1.000,"PART-1-1",           572,       6.37141,       19.4306,            0.,NA,NA,"",   618.205E-03,   362.628E-03,  -500.678E-03,   17.5187E-03
C:/temp/dataset/0/13_21.odb,Step-1,Increment      1: Step Time =    1.000,"PART-1-1",           573,            5.,       18.3333,            0.,NA,NA,"",   622.068E-03,   365.431E-03,  -503.417E-03,   22.3819E-03
C:/temp/dataset/0/13_21.odb,Step-1,Increment      1: Step Time =    1.000,"PART-1-1",           574,           15.,         23.75,            0.,NA,NA,"",   562.304E-03,   366.901E-03,  -426.110E-03,   1.30407E-03
C:/temp/dataset/0/13_21.odb,Step-1,Increment      1: Step Time =    1.000,"PART-1-1",           575,         -3.75,          -20.,            0.,NA,NA,"",   11.0978E-03,  -7.46485E-03,  -8.21201E-03,   3.94748E-03
C:/temp/dataset/0/13_21.odb,Step-1,Increment      1: Step Time =    1.000,"PART-1-1",           576,      -5.05545,      -21.0122,            0.,NA,NA,"",   15.3336E-03,  -6.47328E-03,  -13.9003E-03,   3.73188E-03
C:/temp/dataset/0/13_21.odb,Step-1,Increment      1: Step Time =    1.000,"PART-1-1",           577,       7.51719,       25.3425,            0.,NA,NA,"",   659.584E-03,   335.650E-03,  -567.794E-03,   17.8425E-03
C:/temp/dataset/0/13_21.odb,Step-1,Increment      1: Step Time =    1.000,"PART-1-1",           578,       6.22510,       24.4051,            0.,NA,NA,"",   669.048E-03,   326.693E-03,  -583.863E-03,   20.5288E-03
C:/temp/dataset/0/13_21.odb,Step-1,Increment      1: Step Time =    1.000,"PART-1-1",           579,       7.27278,       23.2327,            0.,NA,NA,"",   643.053E-03,   337.561E-03,  -547.329E-03,   19.3367E-03
C:/temp/dataset/0/13_21.odb,Step-1,Increment      1: Step Time =    1.000,"PART-1-1",           580,       8.56487,       24.1701,            0.,NA,NA,"",   634.548E-03,   345.407E-03,  -532.302E-03,   15.9239E-03
C:/temp/dataset/0/13_21.odb,Step-1,Increment      1: Step Time =    1.000,"PART-1-1",           581,            5.,      -8.33333,            0.,NA,NA,"",   233.044E-03,   192.377E-03,  -131.532E-03,   10.9004E-03
C:/temp/dataset/0/13_21.odb,Step-1,Increment      1: Step Time =    1.000,"PART-1-1",           582,       7.86568,      -7.92961,            0.,NA,NA,"",   274.848E-03,   212.050E-03,  -174.860E-03,   10.8141E-03
C:/temp/dataset/0/13_21.odb,Step-1,Increment      1: Step Time =    1.000,"PART-1-1",           583,       6.55300,      -6.36051,            0.,NA,NA,"",   286.726E-03,   228.529E-03,  -173.165E-03,   11.2588E-03
C:/temp/dataset/0/13_21.odb,Step-1,Increment      1: Step Time =    1.000,"PART-1-1",           584,       2.48006,       24.7002,            0.,NA,NA,"",   687.638E-03,   298.778E-03,  -619.337E-03,   10.6961E-03
C:/temp/dataset/0/13_21.odb,Step-1,Increment      1: Step Time =    1.000,"PART-1-1",           585,       1.90437,       23.5201,            0.,NA,NA,"",   669.212E-03,   286.139E-03,  -604.954E-03,   8.97918E-03
C:/temp/dataset/0/13_21.odb,Step-1,Increment      1: Step Time =    1.000,"PART-1-1",           586,       3.20717,       23.2686,            0.,NA,NA,"",   675.104E-03,   294.751E-03,  -607.361E-03,   12.4744E-03
C:/temp/dataset/0/13_21.odb,Step-1,Increment      1: Step Time =    1.000,"PART-1-1",           587,       3.78286,       24.4486,            0.,NA,NA,"",   688.595E-03,   305.893E-03,  -616.921E-03,   14.9973E-03
C:/temp/dataset/0/13_21.odb,Step-1,Increment      1: Step Time =    1.000,"PART-1-1",           588,   574.843E-03,       25.7278,            0.,NA,NA,"",   669.683E-03,   301.684E-03,  -597.881E-03,   11.1033E-03
C:/temp/dataset/0/13_21.odb,Step-1,Increment      1: Step Time =    1.000,"PART-1-1",           589,       1.89275,       27.1317,            0.,NA,NA,"",   712.156E-03,   317.874E-03,  -637.277E-03,   14.1487E-03
C:/temp/dataset/0/13_21.odb,Step-1,Increment      1: Step Time =    1.000,"PART-1-1",           590,   743.770E-03,       27.8321,            0.,NA,NA,"",   698.374E-03,   328.849E-03,  -616.104E-03,   15.0736E-03
C:/temp/dataset/0/13_21.odb,Step-1,Increment      1: Step Time =    1.000,"PART-1-1",           591,  -574.133E-03,       26.4282,            0.,NA,NA,"",   647.705E-03,   311.765E-03,  -567.736E-03,   13.2024E-03
C:/temp/dataset/0/13_21.odb,Step-1,Increment      1: Step Time =    1.000,"PART-1-1",           592,          1.25,           30.,            0.,NA,NA,"",   750.173E-03,   372.899E-03,  -650.927E-03,   24.3479E-03
C:/temp/dataset/0/13_21.odb,Step-1,Increment      1: Step Time =    1.000,"PART-1-1",           593,  -258.432E-03,       28.8495,            0.,NA,NA,"",   684.098E-03,   355.581E-03,  -584.424E-03,   16.5836E-03
C:/temp/dataset/0/13_21.odb,Step-1,Increment      1: Step Time =    1.000,"PART-1-1",           594,       3.99806,       26.6235,            0.,NA,NA,"",   717.554E-03,   318.822E-03,  -642.835E-03,   16.4742E-03
C:/temp/dataset/0/13_21.odb,Step-1,Increment      1: Step Time =    1.000,"PART-1-1",           595,       4.96332,       25.4314,            0.,NA,NA,"",   695.802E-03,   319.248E-03,  -618.240E-03,   17.5623E-03
C:/temp/dataset/0/13_21.odb,Step-1,Increment      1: Step Time =    1.000,"PART-1-1",           596,       6.59236,       26.5350,            0.,NA,NA,"",   686.557E-03,   329.584E-03,  -602.275E-03,   19.2956E-03
C:/temp/dataset/0/13_21.odb,Step-1,Increment      1: Step Time =    1.000,"PART-1-1",           597,          -1.5,           30.,            0.,NA,NA,"",   668.422E-03,   412.077E-03,  -526.290E-03,   10.6241E-03
C:/temp/dataset/0/13_21.odb,Step-1,Increment      1: Step Time =    1.000,"PART-1-1",           598,      -3.21021,       28.8021,            0.,NA,NA,"",   605.490E-03,   384.321E-03,  -467.884E-03,   7.64868E-03
C:/temp/dataset/0/13_21.odb,Step-1,Increment      1: Step Time =    1.000,"PART-1-1",           599,      -1.96864,       27.6516,            0.,NA,NA,"",   620.872E-03,   342.400E-03,  -517.923E-03,   13.1338E-03
C:/temp/dataset/0/13_21.odb,Step-1,Increment      1: Step Time =    1.000,"PART-1-1",           600,       2.23679,       22.3955,            0.,NA,NA,"",   662.088E-03,   281.274E-03,  -599.370E-03,   11.6857E-03
C:/temp/dataset/0/13_21.odb,Step-1,Increment      1: Step Time =    1.000,"PART-1-1",           601,       6.10470,      -23.0953,            0.,NA,NA,"",   30.4223E-03,   10.5391E-03,  -28.5384E-03,   6.48186E-03
C:/temp/dataset/0/13_21.odb,Step-1,Increment      1: Step Time =    1.000,"PART-1-1",           602,       5.87020,      -25.1929,            0.,NA,NA,"",   17.1021E-03,   1.06240E-03,  -17.0691E-03,   4.74265E-03
C:/temp/dataset/0/13_21.odb,Step-1,Increment      1: Step Time =    1.000,"PART-1-1",           603,       7.19944,      -25.3013,            0.,NA,NA,"",   23.1093E-03,   3.48648E-03,  -22.8448E-03,   6.51933E-03
C:/temp/dataset/0/13_21.odb,Step-1,Increment      1: Step Time =    1.000,"PART-1-1",           604,       10.0350,      -14.2359,            0.,NA,NA,"",   192.577E-03,   129.743E-03,  -142.312E-03,   10.6002E-03
C:/temp/dataset/0/13_21.odb,Step-1,Increment      1: Step Time =    1.000,"PART-1-1",           605,       11.6788,      -7.40939,            0.,NA,NA,"",   329.585E-03,   237.621E-03,  -228.391E-03,   10.4088E-03
C:/temp/dataset/0/13_21.odb,Step-1,Increment      1: Step Time =    1.000,"PART-1-1",           606,       11.2427,      -1.09783,            0.,NA,NA,"",   428.407E-03,   323.580E-03,  -280.765E-03,   9.91214E-03
C:/temp/dataset/0/13_21.odb,Step-1,Increment      1: Step Time =    1.000,"PART-1-1",           607,       7.93860,       19.8912,            0.,NA,NA,"",   612.664E-03,   371.173E-03,  -487.430E-03,   15.2365E-03
C:/temp/dataset/0/13_21.odb,Step-1,Increment      1: Step Time =    1.000,"PART-1-1",           608,       8.98253,       18.5426,            0.,NA,NA,"",   603.924E-03,   391.071E-03,  -460.204E-03,   11.6323E-03
C:/temp/dataset/0/13_21.odb,Step-1,Increment      1: Step Time =    1.000,"PART-1-1",           609,       9.31070,       20.7205,            0.,NA,NA,"",   608.523E-03,   373.728E-03,  -480.237E-03,   13.1496E-03
C:/temp/dataset/0/13_21.odb,Step-1,Increment      1: Step Time =    1.000,"PART-1-1",           610,       3.88086,       22.5675,            0.,NA,NA,"",   667.102E-03,   298.441E-03,  -596.622E-03,   15.5691E-03
C:/temp/dataset/0/13_21.odb,Step-1,Increment      1: Step Time =    1.000,"PART-1-1",           611,       2.67965,       25.8706,            0.,NA,NA,"",   703.863E-03,   308.589E-03,  -632.611E-03,   12.3437E-03
C:/temp/dataset/0/13_21.odb,Step-1,Increment      1: Step Time =    1.000,"PART-1-1",           612,            5.,          -15.,            0.,NA,NA,"",   121.609E-03,   97.7109E-03,  -72.3972E-03,   8.72831E-03
C:/temp/dataset/0/13_21.odb,Step-1,Increment      1: Step Time =    1.000,"PART-1-1",           613,       6.27023,      -16.3841,            0.,NA,NA,"",   114.660E-03,   84.2206E-03,  -77.8067E-03,   8.76844E-03
C:/temp/dataset/0/13_21.odb,Step-1,Increment      1: Step Time =    1.000,"PART-1-1",           614,       7.51616,      -14.5750,            0.,NA,NA,"",   157.376E-03,   113.814E-03,  -108.690E-03,   9.68398E-03
C:/temp/dataset/0/13_21.odb,Step-1,Increment      1: Step Time =    1.000,"PART-1-1",           615,       6.15302,       13.2331,            0.,NA,NA,"",   571.163E-03,   396.644E-03,  -410.975E-03,   16.1357E-03
C:/temp/dataset/0/13_21.odb,Step-1,Increment      1: Step Time =    1.000,"PART-1-1",           616,       7.37153,       14.6431,            0.,NA,NA,"",   587.102E-03,   403.213E-03,  -426.740E-03,   14.3686E-03
C:/temp/dataset/0/13_21.odb,Step-1,Increment      1: Step Time =    1.000,"PART-1-1",           617,            5.,           15.,            0.,NA,NA,"",   585.022E-03,   384.362E-03,  -441.041E-03,   18.5816E-03
C:/temp/dataset/0/13_21.odb,Step-1,Increment      1: Step Time =    1.000,"PART-1-1",           618,            5.,       11.6667,            0.,NA,NA,"",   548.096E-03,   387.360E-03,  -387.765E-03,   17.3565E-03
C:/temp/dataset/0/13_21.odb,Step-1,Increment      1: Step Time =    1.000,"PART-1-1",           619,       6.12690,       10.0064,            0.,NA,NA,"",   535.845E-03,   391.768E-03,  -365.579E-03,   15.3531E-03
C:/temp/dataset/0/13_21.odb,Step-1,Increment      1: Step Time =    1.000,"PART-1-1",           620,       7.27992,       11.5729,            0.,NA,NA,"",   559.599E-03,   403.328E-03,  -387.915E-03,   14.0962E-03
C:/temp/dataset/0/13_21.odb,Step-1,Increment      1: Step Time =    1.000,"PART-1-1",           621,       6.15632,   278.618E-03,            0.,NA,NA,"",   396.418E-03,   314.653E-03,  -241.125E-03,   13.0497E-03
C:/temp/dataset/0/13_21.odb,Step-1,Increment      1: Step Time =    1.000,"PART-1-1",           622,            5.,      -1.66667,            0.,NA,NA,"",   349.911E-03,   284.124E-03,  -204.232E-03,   13.1851E-03
C:/temp/dataset/0/13_21.odb,Step-1,Increment      1: Step Time =    1.000,"PART-1-1",           623,       6.25252,      -2.97068,            0.,NA,NA,"",   342.521E-03,   274.243E-03,  -205.211E-03,   12.1706E-03
C:/temp/dataset/0/13_21.odb,Step-1,Increment      1: Step Time =    1.000,"PART-1-1",           624,       7.67955,      -17.4721,            0.,NA,NA,"",   114.414E-03,   75.4598E-03,  -86.0026E-03,   9.02930E-03
C:/temp/dataset/0/13_21.odb,Step-1,Increment      1: Step Time =    1.000,"PART-1-1",           625,            5.,      -18.3333,            0.,NA,NA,"",   71.7834E-03,   54.6724E-03,  -46.5165E-03,   8.24379E-03
C:/temp/dataset/0/13_21.odb,Step-1,Increment      1: Step Time =    1.000,"PART-1-1",           626,       6.40932,      -19.4213,            0.,NA,NA,"",   72.7133E-03,   45.6167E-03,  -56.6246E-03,   8.22457E-03
C:/temp/dataset/0/13_21.odb,Step-1,Increment      1: Step Time =    1.000,"PART-1-1",           627,      -1.73152,      -24.7018,            0.,NA,NA,"",   1.28888E-03,   1.18375E-03,  -509.834E-06,   817.415E-06
C:/temp/dataset/0/13_21.odb,Step-1,Increment      1: Step Time =    1.000,"PART-1-1",           628,       9.06065,      -18.5206,            0.,NA,NA,"",   114.360E-03,   68.2166E-03,  -91.7866E-03,   10.0480E-03
C:/temp/dataset/0/13_21.odb,Step-1,Increment      1: Step Time =    1.000,"PART-1-1",           629,       8.80686,      -15.8614,            0.,NA,NA,"",   151.900E-03,   101.689E-03,  -112.840E-03,   9.98207E-03
C:/temp/dataset/0/13_21.odb,Step-1,Increment      1: Step Time =    1.000,"PART-1-1",           630,       10.3171,      -8.61722,            0.,NA,NA,"",   292.200E-03,   213.420E-03,  -199.581E-03,   10.6134E-03
C:/temp/dataset/0/13_21.odb,Step-1,Increment      1: Step Time =    1.000,"PART-1-1",           631,       8.85917,      -9.88939,            0.,NA,NA,"",   252.469E-03,   187.705E-03,  -168.841E-03,   10.5908E-03
C:/temp/dataset/0/13_21.odb,Step-1,Increment      1: Step Time =    1.000,"PART-1-1",           632,       8.74431,      -12.9496,            0.,NA,NA,"",   198.601E-03,   142.237E-03,  -138.605E-03,   10.2716E-03
C:/temp/dataset/0/13_21.odb,Step-1,Increment      1: Step Time =    1.000,"PART-1-1",           633,       6.89786,       21.2129,            0.,NA,NA,"",   626.254E-03,   344.256E-03,  -523.146E-03,   21.3292E-03
C:/temp/dataset/0/13_21.odb,Step-1,Increment      1: Step Time =    1.000,"PART-1-1",           634,       10.2659,      -2.76771,            0.,NA,NA,"",   391.344E-03,   297.224E-03,  -254.575E-03,   10.5741E-03
C:/temp/dataset/0/13_21.odb,Step-1,Increment      1: Step Time =    1.000,"PART-1-1",           635,       7.80552,      -4.33119,            0.,NA,NA,"",   337.153E-03,   263.698E-03,  -210.084E-03,   11.4008E-03
C:/temp/dataset/0/13_21.odb,Step-1,Increment      1: Step Time =    1.000,"PART-1-1",           636,            5.,           -5.,            0.,NA,NA,"",   291.727E-03,   239.760E-03,  -166.193E-03,   12.0599E-03
C:/temp/dataset/0/13_21.odb,Step-1,Increment      1: Step Time =    1.000,"PART-1-1",           637,       7.27801,       2.13112,            0.,NA,NA,"",   438.152E-03,   341.888E-03,  -274.025E-03,   12.6829E-03
C:/temp/dataset/0/13_21.odb,Step-1,Increment      1: Step Time =    1.000,"PART-1-1",           638,       6.12168,       3.51917,            0.,NA,NA,"",   447.533E-03,   349.006E-03,  -280.144E-03,   13.8776E-03
C:/temp/dataset/0/13_21.odb,Step-1,Increment      1: Step Time =    1.000,"PART-1-1",           639,            5.,       1.66667,            0.,NA,NA,"",   405.860E-03,   323.158E-03,  -245.544E-03,   14.2705E-03
C:/temp/dataset/0/13_21.odb,Step-1,Increment      1: Step Time =    1.000,"PART-1-1",           640,            5.,            5.,            0.,NA,NA,"",   458.159E-03,   354.704E-03,  -289.991E-03,   15.3103E-03
C:/temp/dataset/0/13_21.odb,Step-1,Increment      1: Step Time =    1.000,"PART-1-1",           641,       6.11481,       6.76207,            0.,NA,NA,"",   494.328E-03,   375.310E-03,  -321.717E-03,   14.6524E-03
C:/temp/dataset/0/13_21.odb,Step-1,Increment      1: Step Time =    1.000,"PART-1-1",           642,       8.53738,       13.0133,            0.,NA,NA,"",   576.835E-03,   411.853E-03,  -403.877E-03,   12.4272E-03
C:/temp/dataset/0/13_21.odb,Step-1,Increment      1: Step Time =    1.000,"PART-1-1",           643,       8.69606,       15.9130,            0.,NA,NA,"",   595.392E-03,   406.749E-03,  -434.796E-03,   12.0425E-03
C:/temp/dataset/0/13_21.odb,Step-1,Increment      1: Step Time =    1.000,"PART-1-1",           644,       9.56938,       22.9454,            0.,NA,NA,"",   615.701E-03,   358.632E-03,  -500.470E-03,   13.4741E-03
C:/temp/dataset/0/13_21.odb,Step-1,Increment      1: Step Time =    1.000,"PART-1-1",           645,       8.28908,       21.9981,            0.,NA,NA,"",   621.976E-03,   354.287E-03,  -511.209E-03,   16.7668E-03
C:/temp/dataset/0/13_21.odb,Step-1,Increment      1: Step Time =    1.000,"PART-1-1",           646,      -3.61415,       26.3795,            0.,NA,NA,"",   558.136E-03,   321.932E-03,  -455.933E-03,   10.7098E-03
C:/temp/dataset/0/13_21.odb,Step-1,Increment      1: Step Time =    1.000,"PART-1-1",           647,      -6.18563,       28.7596,            0.,NA,NA,"",   535.325E-03,   396.306E-03,  -359.882E-03,   3.22591E-03
C:/temp/dataset/0/13_21.odb,Step-1,Increment      1: Step Time =    1.000,"PART-1-1",           648,      -4.89584,       27.5617,            0.,NA,NA,"",   541.191E-03,   356.423E-03,  -407.246E-03,   7.08515E-03
C:/temp/dataset/0/13_21.odb,Step-1,Increment      1: Step Time =    1.000,"PART-1-1",           649,          -4.5,           30.,            0.,NA,NA,"",   601.201E-03,   431.416E-03,  -418.715E-03,   5.04234E-03
C:/temp/dataset/0/13_21.odb,Step-1,Increment      1: Step Time =    1.000,"PART-1-1",           650,          -15.,          19.5,            0.,NA,NA,"",   157.997E-03,   134.199E-03,  -83.3892E-03,   2.54314E-03
C:/temp/dataset/0/13_21.odb,Step-1,Increment      1: Step Time =    1.000,"PART-1-1",           651,      -13.6835,       18.2834,            0.,NA,NA,"",   155.663E-03,   102.508E-03,  -117.145E-03,   1.15093E-03
C:/temp/dataset/0/13_21.odb,Step-1,Increment      1: Step Time =    1.000,"PART-1-1",           652,      -12.3643,       20.0316,            0.,NA,NA,"",   209.175E-03,   146.070E-03,  -149.726E-03,   1.08248E-03
C:/temp/dataset/0/13_21.odb,Step-1,Increment      1: Step Time =    1.000,"PART-1-1",           653,      -13.6808,       21.2481,            0.,NA,NA,"",   213.645E-03,   179.411E-03,  -115.998E-03,   804.699E-06
C:/temp/dataset/0/13_21.odb,Step-1,Increment      1: Step Time =    1.000,"PART-1-1",           654,      -6.08047,      -19.7739,            0.,NA,NA,"",   29.9498E-03,  -16.7616E-03,  -24.8201E-03,   4.51973E-03
C:/temp/dataset/0/13_21.odb,Step-1,Increment      1: Step Time =    1.000,"PART-1-1",           655,      -7.17803,      -20.6070,            0.,NA,NA,"",   30.3667E-03,  -14.9218E-03,  -26.4476E-03,   4.84107E-03
C:/temp/dataset/0/13_21.odb,Step-1,Increment      1: Step Time =    1.000,"PART-1-1",           656,       5.87583,      -21.1387,            0.,NA,NA,"",   44.6400E-03,   23.3999E-03,  -38.0154E-03,   7.53900E-03
C:/temp/dataset/0/13_21.odb,Step-1,Increment      1: Step Time =    1.000,"PART-1-1",           657,       4.61047,      -23.6002,            0.,NA,NA,"",   16.4665E-03,   4.82342E-03,  -15.7442E-03,   3.58733E-03
C:/temp/dataset/0/13_21.odb,Step-1,Increment      1: Step Time =    1.000,"PART-1-1",           658,       4.56928,      -26.4448,            0.,NA,NA,"",   8.55416E-03,  -2.73861E-03,  -8.10393E-03,   3.10386E-03
C:/temp/dataset/0/13_21.odb,Step-1,Increment      1: Step Time =    1.000,"PART-1-1",           659,       5.04464,       23.4223,            0.,NA,NA,"",   668.960E-03,   313.237E-03,  -591.092E-03,   18.8583E-03
C:/temp/dataset/0/13_21.odb,Step-1,Increment      1: Step Time =    1.000,"PART-1-1",           660,       5.88156,       22.4475,            0.,NA,NA,"",   648.706E-03,   322.782E-03,  -562.700E-03,   22.5541E-03
C:/temp/dataset/0/13_21.odb,Step-1,Increment      1: Step Time =    1.000,"PART-1-1",           661,      -1.61333,      -27.2257,            0.,NA,NA,"",   659.806E-06,   319.173E-06,  -577.471E-06,   1.02964E-03
C:/temp/dataset/0/13_21.odb,Step-1,Increment      1: Step Time =    1.000,"PART-1-1",           662,      -3.01002,      -28.6350,            0.,NA,NA,"",   1.09957E-03,   795.591E-06,  -759.005E-06,   958.954E-06
C:/temp/dataset/0/13_21.odb,Step-1,Increment      1: Step Time =    1.000,"PART-1-1",           663,          -1.5,          -30.,            0.,NA,NA,"",            0.,   50.0081E-42,  -1.88046E-39,   815.905E-06
C:/temp/dataset/0/13_21.odb,Step-1,Increment      1: Step Time =    1.000,"PART-1-1",           664,            5.,       8.33333,            0.,NA,NA,"",   505.666E-03,   376.673E-03,  -337.366E-03,   16.2974E-03
C:/temp/dataset/0/13_21.odb,Step-1,Increment      1: Step Time =    1.000,"PART-1-1",           665,       8.16766,      -19.9578,            0.,NA,NA,"",   84.5662E-03,   47.0025E-03,  -70.3008E-03,   9.65194E-03
C:/temp/dataset/0/13_21.odb,Step-1,Increment      1: Step Time =    1.000,"PART-1-1",           666,       7.85169,      -26.8977,            0.,NA,NA,"",   15.9597E-03,   199.173E-06,  -15.9585E-03,   6.64139E-03
C:/temp/dataset/0/13_21.odb,Step-1,Increment      1: Step Time =    1.000,"PART-1-1",           667,          -4.5,          -30.,            0.,NA,NA,"",            0.,   952.740E-42,  -3.02640E-39,   1.47335E-03
C:/temp/dataset/0/13_21.odb,Step-1,Increment      1: Step Time =    1.000,"PART-1-1",           668,      -7.38541,       11.9129,            0.,NA,NA,"",   218.922E-03,  -8.92642E-03,  -218.740E-03,   8.66167E-03
C:/temp/dataset/0/13_21.odb,Step-1,Increment      1: Step Time =    1.000,"PART-1-1",           669,      -9.84369,       11.4885,            0.,NA,NA,"",   179.924E-03,  -21.8823E-03,  -178.588E-03,   5.08042E-03
C:/temp/dataset/0/13_21.odb,Step-1,Increment      1: Step Time =    1.000,"PART-1-1",           670,           -5.,      -18.4615,            0.,NA,NA,"",   32.8267E-03,  -22.9071E-03,  -23.5130E-03,   4.81712E-03
C:/temp/dataset/0/13_21.odb,Step-1,Increment      1: Step Time =    1.000,"PART-1-1",           671,      -6.12192,      -16.9214,            0.,NA,NA,"",   49.6468E-03,  -33.8230E-03,  -36.3429E-03,   4.77399E-03
C:/temp/dataset/0/13_21.odb,Step-1,Increment      1: Step Time =    1.000,"PART-1-1",           672,      -12.3453,      -25.6066,            0.,NA,NA,"",   22.3324E-03,  -9.93347E-03,  -20.0015E-03,   5.55261E-03
C:/temp/dataset/0/13_21.odb,Step-1,Increment      1: Step Time =    1.000,"PART-1-1",           673,      -10.6437,      -26.7860,            0.,NA,NA,"",   11.9029E-03,  -3.68835E-03,  -11.3170E-03,   4.67537E-03
C:/temp/dataset/0/13_21.odb,Step-1,Increment      1: Step Time =    1.000,"PART-1-1",           674,      -9.83114,      -25.4438,            0.,NA,NA,"",   16.0337E-03,  -4.92110E-03,  -15.2598E-03,   4.42689E-03
C:/temp/dataset/0/13_21.odb,Step-1,Increment      1: Step Time =    1.000,"PART-1-1",           675,      -8.43320,      -25.2132,            0.,NA,NA,"",   13.4263E-03,  -2.88283E-03,  -13.1132E-03,   3.82481E-03
C:/temp/dataset/0/13_21.odb,Step-1,Increment      1: Step Time =    1.000,"PART-1-1",           676,      -9.78639,       17.5920,            0.,NA,NA,"",   224.057E-03,   87.0897E-03,  -206.439E-03,   4.11778E-03
C:/temp/dataset/0/13_21.odb,Step-1,Increment      1: Step Time =    1.000,"PART-1-1",           677,      -11.0716,       18.8358,            0.,NA,NA,"",   213.783E-03,   115.646E-03,  -179.803E-03,   2.42441E-03
C:/temp/dataset/0/13_21.odb,Step-1,Increment      1: Step Time =    1.000,"PART-1-1",           678,      -12.3675,       17.0640,            0.,NA,NA,"",   164.400E-03,   73.8425E-03,  -146.883E-03,   819.697E-06
C:/temp/dataset/0/13_21.odb,Step-1,Increment      1: Step Time =    1.000,"PART-1-1",           679,      -12.1189,      -19.2948,            0.,NA,NA,"",   60.6639E-03,  -33.8597E-03,  -50.3352E-03,   5.23484E-03
C:/temp/dataset/0/13_21.odb,Step-1,Increment      1: Step Time =    1.000,"PART-1-1",           680,      -11.0109,      -17.4013,            0.,NA,NA,"",   68.6904E-03,  -41.5410E-03,  -54.7057E-03,   4.99386E-03
C:/temp/dataset/0/13_21.odb,Step-1,Increment      1: Step Time =    1.000,"PART-1-1",           681,      -8.01079,      -21.5107,            0.,NA,NA,"",   28.9528E-03,  -12.8375E-03,  -25.9512E-03,   4.77280E-03
C:/temp/dataset/0/13_21.odb,Step-1,Increment      1: Step Time =    1.000,"PART-1-1",           682,           4.5,          -30.,            0.,NA,NA,"",            0.,  -2.17674E-39,  -6.92785E-39,   3.42584E-03
C:/temp/dataset/0/13_21.odb,Step-1,Increment      1: Step Time =    1.000,"PART-1-1",           683,       6.14133,      -28.2363,            0.,NA,NA,"",   6.74465E-03,  -3.02870E-03,  -6.02638E-03,   4.53745E-03
C:/temp/dataset/0/13_21.odb,Step-1,Increment      1: Step Time =    1.000,"PART-1-1",           684,      -9.14726,       28.6966,            0.,NA,NA,"",   475.830E-03,   399.241E-03,  -258.884E-03,   804.162E-06
C:/temp/dataset/0/13_21.odb,Step-1,Increment      1: Step Time =    1.000,"PART-1-1",           685,         -10.5,           30.,            0.,NA,NA,"",   491.100E-03,   440.860E-03,  -216.384E-03,   341.784E-06
C:/temp/dataset/0/13_21.odb,Step-1,Increment      1: Step Time =    1.000,"PART-1-1",           686,      -6.18127,      -10.8771,            0.,NA,NA,"",   93.2722E-03,  -65.6715E-03,  -66.2341E-03,   6.04950E-03
C:/temp/dataset/0/13_21.odb,Step-1,Increment      1: Step Time =    1.000,"PART-1-1",           687,      -6.16241,      -13.9212,            0.,NA,NA,"",   71.2571E-03,  -50.2782E-03,  -50.4943E-03,   5.43589E-03
C:/temp/dataset/0/13_21.odb,Step-1,Increment      1: Step Time =    1.000,"PART-1-1",           688,           -5.,      -12.3077,            0.,NA,NA,"",   76.9397E-03,  -55.5966E-03,  -53.1859E-03,   6.03098E-03
C:/temp/dataset/0/13_21.odb,Step-1,Increment      1: Step Time =    1.000,"PART-1-1",           689,         -10.5,          -30.,            0.,NA,NA,"",            0.,   90.1904E-42,  -8.43821E-39,   3.59646E-03
C:/temp/dataset/0/13_21.odb,Step-1,Increment      1: Step Time =    1.000,"PART-1-1",           690,          -15.,          22.5,            0.,NA,NA,"",   229.732E-03,   215.788E-03,  -78.8184E-03,   1.60732E-03
C:/temp/dataset/0/13_21.odb,Step-1,Increment      1: Step Time =    1.000,"PART-1-1",           691,          -15.,          16.5,            0.,NA,NA,"",   110.655E-03,   63.6917E-03,  -90.4876E-03,   3.03513E-03
C:/temp/dataset/0/13_21.odb,Step-1,Increment      1: Step Time =    1.000,"PART-1-1",           692,      -13.6840,       15.2806,            0.,NA,NA,"",   124.990E-03,   37.3730E-03,  -119.272E-03,   1.09080E-03
C:/temp/dataset/0/13_21.odb,Step-1,Increment      1: Step Time =    1.000,"PART-1-1",           693,          -15.,          13.5,            0.,NA,NA,"",   98.4613E-03,   6.66664E-03,  -98.2353E-03,   2.85500E-03
C:/temp/dataset/0/13_21.odb,Step-1,Increment      1: Step Time =    1.000,"PART-1-1",           694,      -6.20685,       4.43382,            0.,NA,NA,"",   186.420E-03,  -75.0630E-03,  -170.640E-03,   9.09541E-03
C:/temp/dataset/0/13_21.odb,Step-1,Increment      1: Step Time =    1.000,"PART-1-1",           695,           -5.,       6.15385,            0.,NA,NA,"",   202.912E-03,  -58.8635E-03,  -194.186E-03,   10.8505E-03
C:/temp/dataset/0/13_21.odb,Step-1,Increment      1: Step Time =    1.000,"PART-1-1",           696,      -6.20051,      -1.69203,            0.,NA,NA,"",   153.391E-03,  -90.4680E-03,  -123.873E-03,   7.92178E-03
C:/temp/dataset/0/13_21.odb,Step-1,Increment      1: Step Time =    1.000,"PART-1-1",           697,      -6.19850,      -4.75722,            0.,NA,NA,"",   134.928E-03,  -87.2141E-03,  -102.953E-03,   7.30686E-03
C:/temp/dataset/0/13_21.odb,Step-1,Increment      1: Step Time =    1.000,"PART-1-1",           698,           -5.,      -3.07692,            0.,NA,NA,"",   142.099E-03,  -85.3951E-03,  -113.577E-03,   8.51125E-03
C:/temp/dataset/0/13_21.odb,Step-1,Increment      1: Step Time =    1.000,"PART-1-1",           699,      -12.3926,       7.99194,            0.,NA,NA,"",   150.130E-03,  -64.9018E-03,  -135.376E-03,   1.91356E-03
C:/temp/dataset/0/13_21.odb,Step-1,Increment      1: Step Time =    1.000,"PART-1-1",           700,          -15.,           7.5,            0.,NA,NA,"",   129.979E-03,  -69.2960E-03,  -109.966E-03,   1.57128E-03
C:/temp/dataset/0/13_21.odb,Step-1,Increment      1: Step Time =    1.000,"PART-1-1",           701,      -12.4166,      -1.07984,            0.,NA,NA,"",   157.368E-03,  -105.448E-03,  -116.813E-03,   2.93060E-03
C:/temp/dataset/0/13_21.odb,Step-1,Increment      1: Step Time =    1.000,"PART-1-1",           702,          -15.,          -1.5,            0.,NA,NA,"",   156.342E-03,  -107.597E-03,  -113.426E-03,   707.503E-06
C:/temp/dataset/0/13_21.odb,Step-1,Increment      1: Step Time =    1.000,"PART-1-1",           703,      -12.3992,      -10.1184,            0.,NA,NA,"",   122.137E-03,  -83.2949E-03,  -89.3273E-03,   4.08551E-03
C:/temp/dataset/0/13_21.odb,Step-1,Increment      1: Step Time =    1.000,"PART-1-1",           704,          -15.,         -10.5,            0.,NA,NA,"",   130.087E-03,  -85.7060E-03,  -97.8621E-03,   3.14934E-03
C:/temp/dataset/0/13_21.odb,Step-1,Increment      1: Step Time =    1.000,"PART-1-1",           705,      -6.19567,      -7.82333,            0.,NA,NA,"",   114.746E-03,  -78.4632E-03,  -83.7271E-03,   6.68035E-03
C:/temp/dataset/0/13_21.odb,Step-1,Increment      1: Step Time =    1.000,"PART-1-1",           706,           -5.,      -6.15385,            0.,NA,NA,"",   121.192E-03,  -79.8598E-03,  -91.1587E-03,   7.68622E-03
C:/temp/dataset/0/13_21.odb,Step-1,Increment      1: Step Time =    1.000,"PART-1-1",           707,          -15.,         -22.5,            0.,NA,NA,"",   52.4099E-03,  -27.0557E-03,  -44.8864E-03,   6.27093E-03
C:/temp/dataset/0/13_21.odb,Step-1,Increment      1: Step Time =    1.000,"PART-1-1",           708,      -13.7480,      -24.0946,            0.,NA,NA,"",   36.6390E-03,  -18.1256E-03,  -31.8415E-03,   6.05948E-03
C:/temp/dataset/0/13_21.odb,Step-1,Increment      1: Step Time =    1.000,"PART-1-1",           709,      -13.4685,      -20.9699,            0.,NA,NA,"",   55.5623E-03,  -29.1649E-03,  -47.2924E-03,   5.73854E-03
C:/temp/dataset/0/13_21.odb,Step-1,Increment      1: Step Time =    1.000,"PART-1-1",           710,          -15.,         -25.5,            0.,NA,NA,"",   32.8855E-03,  -17.5411E-03,  -27.8166E-03,   6.49563E-03
C:/temp/dataset/0/13_21.odb,Step-1,Increment      1: Step Time =    1.000,"PART-1-1",           711,           7.5,          -30.,            0.,NA,NA,"",            0.,  -2.11859E-39,  -12.4530E-39,   5.66291E-03
C:/temp/dataset/0/13_21.odb,Step-1,Increment      1: Step Time =    1.000,"PART-1-1",           712,       9.21036,      -28.6615,            0.,NA,NA,"",   7.89002E-03,  -414.332E-06,  -7.87914E-03,   7.42629E-03
C:/temp/dataset/0/13_21.odb,Step-1,Increment      1: Step Time =    1.000,"PART-1-1",           713,          10.5,          -30.,            0.,NA,NA,"",            0.,  -110.134E-42,  -19.1752E-39,   8.10733E-03
C:/temp/dataset/0/13_21.odb,Step-1,Increment      1: Step Time =    1.000,"PART-1-1",           714,          -7.5,           30.,            0.,NA,NA,"",   540.549E-03,   439.873E-03,  -314.173E-03,   1.02028E-03
C:/temp/dataset/0/13_21.odb,Step-1,Increment      1: Step Time =    1.000,"PART-1-1",           715,          -15.,         -19.5,            0.,NA,NA,"",   73.3354E-03,  -39.9842E-03,  -61.4763E-03,   5.77152E-03
C:/temp/dataset/0/13_21.odb,Step-1,Increment      1: Step Time =    1.000,"PART-1-1",           716,      -6.18713,       13.6475,            0.,NA,NA,"",   254.341E-03,   22.3660E-03,  -253.355E-03,   10.8079E-03
C:/temp/dataset/0/13_21.odb,Step-1,Increment      1: Step Time =    1.000,"PART-1-1",           717,           -5.,       15.3846,            0.,NA,NA,"",   299.431E-03,   59.0770E-03,  -293.546E-03,   13.2262E-03
C:/temp/dataset/0/13_21.odb,Step-1,Increment      1: Step Time =    1.000,"PART-1-1",           718,           -5.,       12.3077,            0.,NA,NA,"",   258.747E-03,   7.61705E-03,  -258.635E-03,   12.2938E-03
C:/temp/dataset/0/13_21.odb,Step-1,Increment      1: Step Time =    1.000,"PART-1-1",           719,           -5.,            0.,            0.,NA,NA,"",   162.105E-03,  -84.6460E-03,  -138.250E-03,   9.31740E-03
C:/temp/dataset/0/13_21.odb,Step-1,Increment      1: Step Time =    1.000,"PART-1-1",           720,      -6.20706,       1.36812,            0.,NA,NA,"",   170.246E-03,  -86.8822E-03,  -146.408E-03,   8.51506E-03
C:/temp/dataset/0/13_21.odb,Step-1,Increment      1: Step Time =    1.000,"PART-1-1",           721,           -5.,       3.07692,            0.,NA,NA,"",   181.882E-03,  -76.2407E-03,  -165.132E-03,   10.1002E-03
C:/temp/dataset/0/13_21.odb,Step-1,Increment      1: Step Time =    1.000,"PART-1-1",           722,           -5.,      -9.23077,            0.,NA,NA,"",   99.3389E-03,  -69.4418E-03,  -71.0356E-03,   6.85209E-03
C:/temp/dataset/0/13_21.odb,Step-1,Increment      1: Step Time =    1.000,"PART-1-1",           723,      -8.78100,      -23.2553,            0.,NA,NA,"",   22.9066E-03,  -8.37558E-03,  -21.3204E-03,   4.44778E-03
C:/temp/dataset/0/13_21.odb,Step-1,Increment      1: Step Time =    1.000,"PART-1-1",           724,      -11.0900,      -14.4409,            0.,NA,NA,"",   89.4006E-03,  -58.4086E-03,  -67.6824E-03,   4.80883E-03
C:/temp/dataset/0/13_21.odb,Step-1,Increment      1: Step Time =    1.000,"PART-1-1",           725,      -11.1215,      -11.4552,            0.,NA,NA,"",   109.351E-03,  -74.4177E-03,  -80.1225E-03,   4.64219E-03
C:/temp/dataset/0/13_21.odb,Step-1,Increment      1: Step Time =    1.000,"PART-1-1",           726,      -11.1359,      -8.44257,            0.,NA,NA,"",   127.537E-03,  -88.2001E-03,  -92.1212E-03,   4.45921E-03
C:/temp/dataset/0/13_21.odb,Step-1,Increment      1: Step Time =    1.000,"PART-1-1",           727,      -11.1177,       9.73479,            0.,NA,NA,"",   160.841E-03,  -45.7516E-03,  -154.197E-03,   3.41548E-03
C:/temp/dataset/0/13_21.odb,Step-1,Increment      1: Step Time =    1.000,"PART-1-1",           728,      -11.1376,       6.69211,            0.,NA,NA,"",   162.715E-03,  -74.4538E-03,  -144.682E-03,   3.55979E-03
C:/temp/dataset/0/13_21.odb,Step-1,Increment      1: Step Time =    1.000,"PART-1-1",           729,      -11.1470,       3.65829,            0.,NA,NA,"",   163.784E-03,  -92.7119E-03,  -135.018E-03,   3.72085E-03
C:/temp/dataset/0/13_21.odb,Step-1,Increment      1: Step Time =    1.000,"PART-1-1",           730,           -5.,      -15.3846,            0.,NA,NA,"",   54.6709E-03,  -39.6616E-03,  -37.6280E-03,   5.26924E-03
C:/temp/dataset/0/13_21.odb,Step-1,Increment      1: Step Time =    1.000,"PART-1-1",           731,      -11.1521,   627.191E-03,            0.,NA,NA,"",   161.270E-03,  -101.896E-03,  -125.001E-03,   3.89503E-03
C:/temp/dataset/0/13_21.odb,Step-1,Increment      1: Step Time =    1.000,"PART-1-1",           732,      -11.1477,      -2.39557,            0.,NA,NA,"",   154.267E-03,  -103.304E-03,  -114.572E-03,   4.08234E-03
C:/temp/dataset/0/13_21.odb,Step-1,Increment      1: Step Time =    1.000,"PART-1-1",           733,      -11.1389,      -5.41444,            0.,NA,NA,"",   142.835E-03,  -98.2995E-03,  -103.630E-03,   4.27342E-03
