ODB Name,Step,Frame,Part Instance Name,    êﬂì_ÉâÉxÉã,X,Y,Z,Section Name,Material Name,Section Point,   U-Magnitude,          U-U1,          U-U2,       S-Mises
C:/temp/dataset/0/14_30.odb,Step-1,Increment      4: Step Time =    1.000,"PART-1-1",             1,            5.,           20.,            0.,NA,NA,"",   784.903E-03,   318.451E-03,  -717.400E-03,   6.33426E-03
C:/temp/dataset/0/14_30.odb,Step-1,Increment      4: Step Time =    1.000,"PART-1-1",             2,            0.,           20.,            0.,NA,NA,"",   572.080E-03,   328.913E-03,  -468.073E-03,   4.28101E-03
C:/temp/dataset/0/14_30.odb,Step-1,Increment      4: Step Time =    1.000,"PART-1-1",             3,            5.,           10.,            0.,NA,NA,"",   639.315E-03,   22.9039E-03,  -638.905E-03,   9.73936E-03
C:/temp/dataset/0/14_30.odb,Step-1,Increment      4: Step Time =    1.000,"PART-1-1",             4,            5.,            0.,            0.,NA,NA,"",   531.230E-03,  -57.1218E-03,  -528.150E-03,   15.1533E-03
C:/temp/dataset/0/14_30.odb,Step-1,Increment      4: Step Time =    1.000,"PART-1-1",             5,            5.,          -10.,            0.,NA,NA,"",   362.178E-03,  -22.3677E-03,  -361.487E-03,   22.0621E-03
C:/temp/dataset/0/14_30.odb,Step-1,Increment      4: Step Time =    1.000,"PART-1-1",             6,            5.,          -20.,            0.,NA,NA,"",   117.786E-03,   21.7788E-03,  -115.755E-03,   28.2338E-03
C:/temp/dataset/0/14_30.odb,Step-1,Increment      4: Step Time =    1.000,"PART-1-1",             7,            0.,          -20.,            0.,NA,NA,"",   12.3019E-03,   6.86142E-03,  -10.2106E-03,   4.99707E-03
C:/temp/dataset/0/14_30.odb,Step-1,Increment      4: Step Time =    1.000,"PART-1-1",             8,           -5.,          -20.,            0.,NA,NA,"",   9.04095E-03,  -9.00772E-03,  -774.492E-06,   2.07534E-03
C:/temp/dataset/0/14_30.odb,Step-1,Increment      4: Step Time =    1.000,"PART-1-1",             9,           -5.,           20.,            0.,NA,NA,"",   423.735E-03,   371.202E-03,  -204.353E-03,   15.4660E-03
C:/temp/dataset/0/14_30.odb,Step-1,Increment      4: Step Time =    1.000,"PART-1-1",            10,           15.,           30.,            0.,NA,NA,"",       1.73585,   928.365E-03,      -1.46674,   29.3709E-03
C:/temp/dataset/0/14_30.odb,Step-1,Increment      4: Step Time =    1.000,"PART-1-1",            11,           7.5,           30.,            0.,NA,NA,"",       1.30667,   880.189E-03,  -965.738E-03,   16.0086E-03
C:/temp/dataset/0/14_30.odb,Step-1,Increment      4: Step Time =    1.000,"PART-1-1",            12,            0.,           30.,            0.,NA,NA,"",   957.693E-03,   830.019E-03,  -477.749E-03,   6.97130E-03
C:/temp/dataset/0/14_30.odb,Step-1,Increment      4: Step Time =    1.000,"PART-1-1",            13,          -15.,           30.,            0.,NA,NA,"",   800.303E-03,   785.743E-03,   151.964E-03,   233.756E-06
C:/temp/dataset/0/14_30.odb,Step-1,Increment      4: Step Time =    1.000,"PART-1-1",            14,          -15.,          -30.,            0.,NA,NA,"",            0.,  -117.726E-42,  -212.650E-42,   2.61703E-03
C:/temp/dataset/0/14_30.odb,Step-1,Increment      4: Step Time =    1.000,"PART-1-1",            15,           15.,          -30.,            0.,NA,NA,"",            0.,  -107.209E-42,   216.076E-42,   33.1008E-03
C:/temp/dataset/0/14_30.odb,Step-1,Increment      4: Step Time =    1.000,"PART-1-1",            16,           15.,         -22.5,            0.,NA,NA,"",   161.153E-03,   83.4584E-03,  -137.858E-03,   17.5465E-03
C:/temp/dataset/0/14_30.odb,Step-1,Increment      4: Step Time =    1.000,"PART-1-1",            17,           15.,          -15.,            0.,NA,NA,"",   268.054E-03,   96.2799E-03,  -250.166E-03,   17.4289E-03
C:/temp/dataset/0/14_30.odb,Step-1,Increment      4: Step Time =    1.000,"PART-1-1",            18,           15.,          -7.5,            0.,NA,NA,"",   390.130E-03,   62.9463E-03,  -385.019E-03,   22.7188E-03
C:/temp/dataset/0/14_30.odb,Step-1,Increment      4: Step Time =    1.000,"PART-1-1",            19,           15.,            0.,            0.,NA,NA,"",   557.188E-03,   40.8533E-03,  -555.689E-03,   27.8055E-03
C:/temp/dataset/0/14_30.odb,Step-1,Increment      4: Step Time =    1.000,"PART-1-1",            20,           15.,           7.5,            0.,NA,NA,"",   763.005E-03,   82.8306E-03,  -758.496E-03,   32.1070E-03
C:/temp/dataset/0/14_30.odb,Step-1,Increment      4: Step Time =    1.000,"PART-1-1",            21,           15.,           15.,            0.,NA,NA,"",       1.01394,   231.677E-03,  -987.119E-03,   35.0081E-03
C:/temp/dataset/0/14_30.odb,Step-1,Increment      4: Step Time =    1.000,"PART-1-1",            22,           15.,          22.5,            0.,NA,NA,"",       1.33673,   516.038E-03,      -1.23310,   35.8507E-03
C:/temp/dataset/0/14_30.odb,Step-1,Increment      4: Step Time =    1.000,"PART-1-1",            23,       3.33333,           20.,            0.,NA,NA,"",   715.624E-03,   317.190E-03,  -641.489E-03,   1.73800E-03
C:/temp/dataset/0/14_30.odb,Step-1,Increment      4: Step Time =    1.000,"PART-1-1",            24,       1.66667,           20.,            0.,NA,NA,"",   641.621E-03,   321.168E-03,  -555.454E-03,   2.62026E-03
C:/temp/dataset/0/14_30.odb,Step-1,Increment      4: Step Time =    1.000,"PART-1-1",            25,            5.,       13.3333,            0.,NA,NA,"",   673.404E-03,   93.5033E-03,  -666.880E-03,   8.45223E-03
C:/temp/dataset/0/14_30.odb,Step-1,Increment      4: Step Time =    1.000,"PART-1-1",            26,            5.,       16.6667,            0.,NA,NA,"",   717.926E-03,   191.165E-03,  -692.007E-03,   7.51517E-03
C:/temp/dataset/0/14_30.odb,Step-1,Increment      4: Step Time =    1.000,"PART-1-1",            27,            5.,       3.33333,            0.,NA,NA,"",   572.605E-03,  -48.8893E-03,  -570.515E-03,   13.1168E-03
C:/temp/dataset/0/14_30.odb,Step-1,Increment      4: Step Time =    1.000,"PART-1-1",            28,            5.,       6.66667,            0.,NA,NA,"",   607.599E-03,  -23.4789E-03,  -607.145E-03,   11.2945E-03
C:/temp/dataset/0/14_30.odb,Step-1,Increment      4: Step Time =    1.000,"PART-1-1",            29,            5.,      -6.66667,            0.,NA,NA,"",   425.627E-03,  -39.2566E-03,  -423.813E-03,   19.6433E-03
C:/temp/dataset/0/14_30.odb,Step-1,Increment      4: Step Time =    1.000,"PART-1-1",            30,            5.,      -3.33333,            0.,NA,NA,"",   482.296E-03,  -52.3784E-03,  -479.443E-03,   17.3376E-03
C:/temp/dataset/0/14_30.odb,Step-1,Increment      4: Step Time =    1.000,"PART-1-1",            31,            5.,      -16.6667,            0.,NA,NA,"",   217.490E-03,   8.01125E-03,  -217.342E-03,   27.0293E-03
C:/temp/dataset/0/14_30.odb,Step-1,Increment      4: Step Time =    1.000,"PART-1-1",            32,            5.,      -13.3333,            0.,NA,NA,"",   291.894E-03,  -6.07806E-03,  -291.831E-03,   24.0625E-03
C:/temp/dataset/0/14_30.odb,Step-1,Increment      4: Step Time =    1.000,"PART-1-1",            33,           2.5,          -20.,            0.,NA,NA,"",   39.6006E-03,   19.5688E-03,  -34.4277E-03,   7.35636E-03
C:/temp/dataset/0/14_30.odb,Step-1,Increment      4: Step Time =    1.000,"PART-1-1",            34,          -2.5,          -20.,            0.,NA,NA,"",   2.25710E-03,  -1.79259E-03,  -1.37155E-03,   3.24889E-03
C:/temp/dataset/0/14_30.odb,Step-1,Increment      4: Step Time =    1.000,"PART-1-1",            35,           -5.,       16.9231,            0.,NA,NA,"",   341.455E-03,   295.823E-03,  -170.530E-03,   9.33545E-03
C:/temp/dataset/0/14_30.odb,Step-1,Increment      4: Step Time =    1.000,"PART-1-1",            36,           -5.,       13.8462,            0.,NA,NA,"",   265.984E-03,   221.666E-03,  -147.008E-03,   8.10814E-03
C:/temp/dataset/0/14_30.odb,Step-1,Increment      4: Step Time =    1.000,"PART-1-1",            37,           -5.,       10.7692,            0.,NA,NA,"",   200.938E-03,   157.950E-03,  -124.209E-03,   7.73206E-03
C:/temp/dataset/0/14_30.odb,Step-1,Increment      4: Step Time =    1.000,"PART-1-1",            38,           -5.,       7.69231,            0.,NA,NA,"",   147.798E-03,   105.712E-03,  -103.292E-03,   7.09130E-03
C:/temp/dataset/0/14_30.odb,Step-1,Increment      4: Step Time =    1.000,"PART-1-1",            39,           -5.,       4.61538,            0.,NA,NA,"",   106.021E-03,   64.3306E-03,  -84.2732E-03,   6.44521E-03
C:/temp/dataset/0/14_30.odb,Step-1,Increment      4: Step Time =    1.000,"PART-1-1",            40,           -5.,       1.53846,            0.,NA,NA,"",   74.7381E-03,   32.6968E-03,  -67.2064E-03,   5.77169E-03
C:/temp/dataset/0/14_30.odb,Step-1,Increment      4: Step Time =    1.000,"PART-1-1",            41,           -5.,      -1.53846,            0.,NA,NA,"",   52.9737E-03,   9.68587E-03,  -52.0807E-03,   5.09621E-03
C:/temp/dataset/0/14_30.odb,Step-1,Increment      4: Step Time =    1.000,"PART-1-1",            42,           -5.,      -4.61538,            0.,NA,NA,"",   39.3151E-03,  -5.84828E-03,  -38.8777E-03,   4.41665E-03
C:/temp/dataset/0/14_30.odb,Step-1,Increment      4: Step Time =    1.000,"PART-1-1",            43,           -5.,      -7.69231,            0.,NA,NA,"",   31.4201E-03,  -15.0525E-03,  -27.5798E-03,   3.73619E-03
C:/temp/dataset/0/14_30.odb,Step-1,Increment      4: Step Time =    1.000,"PART-1-1",            44,           -5.,      -10.7692,            0.,NA,NA,"",   26.3544E-03,  -19.0829E-03,  -18.1768E-03,   3.05653E-03
C:/temp/dataset/0/14_30.odb,Step-1,Increment      4: Step Time =    1.000,"PART-1-1",            45,           -5.,      -13.8462,            0.,NA,NA,"",   21.8016E-03,  -19.0480E-03,  -10.6058E-03,   2.40600E-03
C:/temp/dataset/0/14_30.odb,Step-1,Increment      4: Step Time =    1.000,"PART-1-1",            46,           -5.,      -16.9231,            0.,NA,NA,"",   16.6490E-03,  -15.9280E-03,  -4.84625E-03,   1.80905E-03
C:/temp/dataset/0/14_30.odb,Step-1,Increment      4: Step Time =    1.000,"PART-1-1",            47,          -2.5,           20.,            0.,NA,NA,"",   483.153E-03,   344.231E-03,  -339.030E-03,   7.33692E-03
C:/temp/dataset/0/14_30.odb,Step-1,Increment      4: Step Time =    1.000,"PART-1-1",            48,        13.125,           30.,            0.,NA,NA,"",       1.63113,   906.557E-03,      -1.35601,   29.0662E-03
C:/temp/dataset/0/14_30.odb,Step-1,Increment      4: Step Time =    1.000,"PART-1-1",            49,         11.25,           30.,            0.,NA,NA,"",       1.53022,   889.496E-03,      -1.24514,   27.7259E-03
C:/temp/dataset/0/14_30.odb,Step-1,Increment      4: Step Time =    1.000,"PART-1-1",            50,         9.375,           30.,            0.,NA,NA,"",       1.42747,   879.114E-03,      -1.12464,   30.1700E-03
C:/temp/dataset/0/14_30.odb,Step-1,Increment      4: Step Time =    1.000,"PART-1-1",            51,            5.,           30.,            0.,NA,NA,"",       1.14726,   857.955E-03,  -761.652E-03,   11.3063E-03
C:/temp/dataset/0/14_30.odb,Step-1,Increment      4: Step Time =    1.000,"PART-1-1",            52,           2.5,           30.,            0.,NA,NA,"",       1.04209,   843.349E-03,  -612.139E-03,   8.07698E-03
C:/temp/dataset/0/14_30.odb,Step-1,Increment      4: Step Time =    1.000,"PART-1-1",            53,           -3.,           30.,            0.,NA,NA,"",   879.098E-03,   814.831E-03,  -329.946E-03,   6.98197E-03
C:/temp/dataset/0/14_30.odb,Step-1,Increment      4: Step Time =    1.000,"PART-1-1",            54,           -6.,           30.,            0.,NA,NA,"",   823.190E-03,   799.406E-03,  -196.446E-03,   6.21335E-03
C:/temp/dataset/0/14_30.odb,Step-1,Increment      4: Step Time =    1.000,"PART-1-1",            55,           -9.,           30.,            0.,NA,NA,"",   791.529E-03,   787.838E-03,  -76.3498E-03,   3.75470E-03
C:/temp/dataset/0/14_30.odb,Step-1,Increment      4: Step Time =    1.000,"PART-1-1",            56,          -12.,           30.,            0.,NA,NA,"",   784.770E-03,   783.898E-03,   36.9940E-03,   896.599E-06
C:/temp/dataset/0/14_30.odb,Step-1,Increment      4: Step Time =    1.000,"PART-1-1",            57,          -15.,           27.,            0.,NA,NA,"",   685.441E-03,   667.935E-03,   153.920E-03,   903.486E-06
C:/temp/dataset/0/14_30.odb,Step-1,Increment      4: Step Time =    1.000,"PART-1-1",            58,          -15.,           24.,            0.,NA,NA,"",   568.182E-03,   547.979E-03,   150.163E-03,   3.83482E-03
C:/temp/dataset/0/14_30.odb,Step-1,Increment      4: Step Time =    1.000,"PART-1-1",            59,          -15.,           21.,            0.,NA,NA,"",   455.440E-03,   434.106E-03,   137.759E-03,   6.61117E-03
C:/temp/dataset/0/14_30.odb,Step-1,Increment      4: Step Time =    1.000,"PART-1-1",            60,          -15.,           18.,            0.,NA,NA,"",   354.774E-03,   334.086E-03,   119.379E-03,   7.77222E-03
C:/temp/dataset/0/14_30.odb,Step-1,Increment      4: Step Time =    1.000,"PART-1-1",            61,          -15.,           15.,            0.,NA,NA,"",   269.469E-03,   250.392E-03,   99.5850E-03,   7.54954E-03
C:/temp/dataset/0/14_30.odb,Step-1,Increment      4: Step Time =    1.000,"PART-1-1",            62,          -15.,           12.,            0.,NA,NA,"",   198.697E-03,   181.425E-03,   81.0272E-03,   6.82095E-03
C:/temp/dataset/0/14_30.odb,Step-1,Increment      4: Step Time =    1.000,"PART-1-1",            63,          -15.,            9.,            0.,NA,NA,"",   140.541E-03,   125.011E-03,   64.2182E-03,   6.09199E-03
C:/temp/dataset/0/14_30.odb,Step-1,Increment      4: Step Time =    1.000,"PART-1-1",            64,          -15.,            6.,            0.,NA,NA,"",   93.5711E-03,   79.6453E-03,   49.1139E-03,   5.40508E-03
C:/temp/dataset/0/14_30.odb,Step-1,Increment      4: Step Time =    1.000,"PART-1-1",            65,          -15.,            3.,            0.,NA,NA,"",   56.7716E-03,   44.1639E-03,   35.6730E-03,   4.74314E-03
C:/temp/dataset/0/14_30.odb,Step-1,Increment      4: Step Time =    1.000,"PART-1-1",            66,          -15.,            0.,            0.,NA,NA,"",   29.6368E-03,   17.4986E-03,   23.9195E-03,   4.08278E-03
C:/temp/dataset/0/14_30.odb,Step-1,Increment      4: Step Time =    1.000,"PART-1-1",            67,          -15.,           -3.,            0.,NA,NA,"",   13.9610E-03,  -1.42338E-03,   13.8882E-03,   3.42056E-03
C:/temp/dataset/0/14_30.odb,Step-1,Increment      4: Step Time =    1.000,"PART-1-1",            68,          -15.,           -6.,            0.,NA,NA,"",   14.7875E-03,  -13.6814E-03,   5.61168E-03,   2.75536E-03
C:/temp/dataset/0/14_30.odb,Step-1,Increment      4: Step Time =    1.000,"PART-1-1",            69,          -15.,           -9.,            0.,NA,NA,"",   20.3773E-03,  -20.3581E-03,  -883.529E-06,   2.08503E-03
C:/temp/dataset/0/14_30.odb,Step-1,Increment      4: Step Time =    1.000,"PART-1-1",            70,          -15.,          -12.,            0.,NA,NA,"",   23.2212E-03,  -22.5437E-03,  -5.56837E-03,   1.40446E-03
C:/temp/dataset/0/14_30.odb,Step-1,Increment      4: Step Time =    1.000,"PART-1-1",            71,          -15.,          -15.,            0.,NA,NA,"",   22.9668E-03,  -21.3774E-03,  -8.39527E-03,   708.062E-06
C:/temp/dataset/0/14_30.odb,Step-1,Increment      4: Step Time =    1.000,"PART-1-1",            72,          -15.,          -18.,            0.,NA,NA,"",   20.3773E-03,  -18.0963E-03,  -9.36779E-03,   60.5683E-06
C:/temp/dataset/0/14_30.odb,Step-1,Increment      4: Step Time =    1.000,"PART-1-1",            73,          -15.,          -21.,            0.,NA,NA,"",   16.5014E-03,  -14.0257E-03,  -8.69330E-03,   457.730E-06
C:/temp/dataset/0/14_30.odb,Step-1,Increment      4: Step Time =    1.000,"PART-1-1",            74,          -15.,          -24.,            0.,NA,NA,"",   12.1196E-03,  -9.87641E-03,  -7.02438E-03,   728.268E-06
C:/temp/dataset/0/14_30.odb,Step-1,Increment      4: Step Time =    1.000,"PART-1-1",            75,          -15.,          -27.,            0.,NA,NA,"",   7.24263E-03,  -5.51886E-03,  -4.69020E-03,   1.25669E-03
C:/temp/dataset/0/14_30.odb,Step-1,Increment      4: Step Time =    1.000,"PART-1-1",            76,          -12.,          -30.,            0.,NA,NA,"",            0.,  -4.01673E-39,  -5.42228E-39,   930.121E-06
C:/temp/dataset/0/14_30.odb,Step-1,Increment      4: Step Time =    1.000,"PART-1-1",            77,           -9.,          -30.,            0.,NA,NA,"",            0.,  -659.890E-42,   899.156E-42,   1.11990E-03
C:/temp/dataset/0/14_30.odb,Step-1,Increment      4: Step Time =    1.000,"PART-1-1",            78,           -6.,          -30.,            0.,NA,NA,"",            0.,  -5.21950E-39,  -5.77566E-39,   1.73940E-03
C:/temp/dataset/0/14_30.odb,Step-1,Increment      4: Step Time =    1.000,"PART-1-1",            79,           -3.,          -30.,            0.,NA,NA,"",            0.,  -3.85595E-39,   1.55761E-39,   3.15709E-03
C:/temp/dataset/0/14_30.odb,Step-1,Increment      4: Step Time =    1.000,"PART-1-1",            80,            0.,          -30.,            0.,NA,NA,"",            0.,  -2.81825E-39,  -3.16338E-39,   5.50953E-03
C:/temp/dataset/0/14_30.odb,Step-1,Increment      4: Step Time =    1.000,"PART-1-1",            81,            3.,          -30.,            0.,NA,NA,"",            0.,  -33.2930E-39,  -46.0480E-39,   8.34425E-03
C:/temp/dataset/0/14_30.odb,Step-1,Increment      4: Step Time =    1.000,"PART-1-1",            82,            6.,          -30.,            0.,NA,NA,"",            0.,  -36.5796E-39,  -54.4692E-39,   10.8848E-03
C:/temp/dataset/0/14_30.odb,Step-1,Increment      4: Step Time =    1.000,"PART-1-1",            83,            9.,          -30.,            0.,NA,NA,"",            0.,  -29.4573E-39,  -51.4471E-39,   13.6410E-03
C:/temp/dataset/0/14_30.odb,Step-1,Increment      4: Step Time =    1.000,"PART-1-1",            84,           12.,          -30.,            0.,NA,NA,"",            0.,   39.2967E-39,  -84.9119E-39,   14.4567E-03
C:/temp/dataset/0/14_30.odb,Step-1,Increment      4: Step Time =    1.000,"PART-1-1",            85,           15.,         -27.5,            0.,NA,NA,"",   71.9884E-03,   45.6118E-03,  -55.6947E-03,   21.8302E-03
C:/temp/dataset/0/14_30.odb,Step-1,Increment      4: Step Time =    1.000,"PART-1-1",            86,           15.,          -25.,            0.,NA,NA,"",   118.578E-03,   67.5211E-03,  -97.4767E-03,   18.1545E-03
C:/temp/dataset/0/14_30.odb,Step-1,Increment      4: Step Time =    1.000,"PART-1-1",            87,           15.,          -20.,            0.,NA,NA,"",   199.650E-03,   94.5629E-03,  -175.835E-03,   16.4779E-03
C:/temp/dataset/0/14_30.odb,Step-1,Increment      4: Step Time =    1.000,"PART-1-1",            88,           15.,         -17.5,            0.,NA,NA,"",   234.404E-03,   99.1028E-03,  -212.424E-03,   16.4550E-03
C:/temp/dataset/0/14_30.odb,Step-1,Increment      4: Step Time =    1.000,"PART-1-1",            89,           15.,         -12.5,            0.,NA,NA,"",   304.007E-03,   87.6261E-03,  -291.104E-03,   19.0768E-03
C:/temp/dataset/0/14_30.odb,Step-1,Increment      4: Step Time =    1.000,"PART-1-1",            90,           15.,          -10.,            0.,NA,NA,"",   344.442E-03,   75.7032E-03,  -336.020E-03,   20.8927E-03
C:/temp/dataset/0/14_30.odb,Step-1,Increment      4: Step Time =    1.000,"PART-1-1",            91,           15.,           -5.,            0.,NA,NA,"",   441.061E-03,   51.5397E-03,  -438.039E-03,   24.4786E-03
C:/temp/dataset/0/14_30.odb,Step-1,Increment      4: Step Time =    1.000,"PART-1-1",            92,           15.,          -2.5,            0.,NA,NA,"",   496.883E-03,   43.5190E-03,  -494.974E-03,   26.1791E-03
C:/temp/dataset/0/14_30.odb,Step-1,Increment      4: Step Time =    1.000,"PART-1-1",            93,           15.,           2.5,            0.,NA,NA,"",   621.646E-03,   45.3794E-03,  -619.987E-03,   29.3558E-03
C:/temp/dataset/0/14_30.odb,Step-1,Increment      4: Step Time =    1.000,"PART-1-1",            94,           15.,            5.,            0.,NA,NA,"",   690.181E-03,   58.8347E-03,  -687.669E-03,   30.7988E-03
C:/temp/dataset/0/14_30.odb,Step-1,Increment      4: Step Time =    1.000,"PART-1-1",            95,           15.,           10.,            0.,NA,NA,"",   840.648E-03,   118.821E-03,  -832.208E-03,   33.2567E-03
C:/temp/dataset/0/14_30.odb,Step-1,Increment      4: Step Time =    1.000,"PART-1-1",            96,           15.,          12.5,            0.,NA,NA,"",   923.937E-03,   168.080E-03,  -908.520E-03,   34.2288E-03
C:/temp/dataset/0/14_30.odb,Step-1,Increment      4: Step Time =    1.000,"PART-1-1",            97,           15.,          17.5,            0.,NA,NA,"",       1.11190,   310.457E-03,      -1.06768,   35.5903E-03
C:/temp/dataset/0/14_30.odb,Step-1,Increment      4: Step Time =    1.000,"PART-1-1",            98,           15.,           20.,            0.,NA,NA,"",       1.21913,   405.078E-03,      -1.14986,   35.9363E-03
C:/temp/dataset/0/14_30.odb,Step-1,Increment      4: Step Time =    1.000,"PART-1-1",            99,           15.,           25.,            0.,NA,NA,"",       1.46476,   643.290E-03,      -1.31594,   34.6386E-03
C:/temp/dataset/0/14_30.odb,Step-1,Increment      4: Step Time =    1.000,"PART-1-1",           100,           15.,          27.5,            0.,NA,NA,"",       1.60000,   784.012E-03,      -1.39474,   31.5034E-03
C:/temp/dataset/0/14_30.odb,Step-1,Increment      4: Step Time =    1.000,"PART-1-1",           101,       3.77421,       21.6807,            0.,NA,NA,"",   775.477E-03,   397.894E-03,  -665.617E-03,   3.35571E-03
C:/temp/dataset/0/14_30.odb,Step-1,Increment      4: Step Time =    1.000,"PART-1-1",           102,   339.763E-03,       22.0764,            0.,NA,NA,"",   649.487E-03,   432.234E-03,  -484.775E-03,   4.84614E-03
C:/temp/dataset/0/14_30.odb,Step-1,Increment      4: Step Time =    1.000,"PART-1-1",           103,       2.04677,       21.7082,            0.,NA,NA,"",   704.228E-03,   406.007E-03,  -575.409E-03,   4.21542E-03
C:/temp/dataset/0/14_30.odb,Step-1,Increment      4: Step Time =    1.000,"PART-1-1",           104,       11.0234,       27.4901,            0.,NA,NA,"",       1.37573,   734.811E-03,      -1.16306,   29.2857E-03
C:/temp/dataset/0/14_30.odb,Step-1,Increment      4: Step Time =    1.000,"PART-1-1",           105,       8.98111,       27.5559,            0.,NA,NA,"",       1.25786,   715.530E-03,      -1.03451,   27.1752E-03
C:/temp/dataset/0/14_30.odb,Step-1,Increment      4: Step Time =    1.000,"PART-1-1",           106,      -4.39315,       22.5924,            0.,NA,NA,"",   535.403E-03,   475.966E-03,  -245.178E-03,   3.79295E-03
C:/temp/dataset/0/14_30.odb,Step-1,Increment      4: Step Time =    1.000,"PART-1-1",           107,       12.7609,      -22.7550,            0.,NA,NA,"",   138.479E-03,   63.3553E-03,  -123.137E-03,   19.0644E-03
C:/temp/dataset/0/14_30.odb,Step-1,Increment      4: Step Time =    1.000,"PART-1-1",           108,       12.5528,      -15.2766,            0.,NA,NA,"",   259.870E-03,   76.4661E-03,  -248.365E-03,   19.5034E-03
C:/temp/dataset/0/14_30.odb,Step-1,Increment      4: Step Time =    1.000,"PART-1-1",           109,       12.2205,       7.28465,            0.,NA,NA,"",   716.625E-03,   43.7177E-03,  -715.290E-03,   26.1112E-03
C:/temp/dataset/0/14_30.odb,Step-1,Increment      4: Step Time =    1.000,"PART-1-1",           110,       12.4622,       15.2934,            0.,NA,NA,"",   939.915E-03,   204.748E-03,  -917.344E-03,   28.0502E-03
C:/temp/dataset/0/14_30.odb,Step-1,Increment      4: Step Time =    1.000,"PART-1-1",           111,       12.8846,       22.6339,            0.,NA,NA,"",       1.23453,   493.125E-03,      -1.13177,   30.0518E-03
C:/temp/dataset/0/14_30.odb,Step-1,Increment      4: Step Time =    1.000,"PART-1-1",           112,  -340.860E-03,      -22.2697,            0.,NA,NA,"",   8.96187E-03,  -6.76978E-03,  -5.87240E-03,   974.370E-06
C:/temp/dataset/0/14_30.odb,Step-1,Increment      4: Step Time =    1.000,"PART-1-1",           113,       6.83628,       27.6500,            0.,NA,NA,"",       1.12856,   710.019E-03,  -877.219E-03,   13.8578E-03
C:/temp/dataset/0/14_30.odb,Step-1,Increment      4: Step Time =    1.000,"PART-1-1",           114,       12.2535,       9.99399,            0.,NA,NA,"",   784.551E-03,   81.6289E-03,  -780.293E-03,   26.7103E-03
C:/temp/dataset/0/14_30.odb,Step-1,Increment      4: Step Time =    1.000,"PART-1-1",           115,       12.4991,  -638.118E-03,            0.,NA,NA,"",   537.211E-03,   11.3456E-03,  -537.091E-03,   24.4918E-03
C:/temp/dataset/0/14_30.odb,Step-1,Increment      4: Step Time =    1.000,"PART-1-1",           116,       12.8164,      -7.55827,            0.,NA,NA,"",   393.792E-03,   40.9283E-03,  -391.659E-03,   22.2810E-03
C:/temp/dataset/0/14_30.odb,Step-1,Increment      4: Step Time =    1.000,"PART-1-1",           117,       12.7714,      -20.2702,            0.,NA,NA,"",   181.508E-03,   75.9544E-03,  -164.852E-03,   18.5246E-03
C:/temp/dataset/0/14_30.odb,Step-1,Increment      4: Step Time =    1.000,"PART-1-1",           118,      -1.80101,       22.4804,            0.,NA,NA,"",   593.601E-03,   461.244E-03,  -373.653E-03,   5.43026E-03
C:/temp/dataset/0/14_30.odb,Step-1,Increment      4: Step Time =    1.000,"PART-1-1",           119,       4.41791,       27.8041,            0.,NA,NA,"",       1.01423,   719.918E-03,  -714.409E-03,   2.42116E-03
C:/temp/dataset/0/14_30.odb,Step-1,Increment      4: Step Time =    1.000,"PART-1-1",           120,       2.00441,       27.9652,            0.,NA,NA,"",   929.066E-03,   728.482E-03,  -576.609E-03,   2.67263E-03
C:/temp/dataset/0/14_30.odb,Step-1,Increment      4: Step Time =    1.000,"PART-1-1",           121,      -2.69107,      -22.1951,            0.,NA,NA,"",   6.64262E-03,  -6.61506E-03,   604.400E-06,   859.095E-06
C:/temp/dataset/0/14_30.odb,Step-1,Increment      4: Step Time =    1.000,"PART-1-1",           122,       1.88995,      -22.5465,            0.,NA,NA,"",   22.9745E-03,  -7.33948E-03,  -21.7706E-03,   5.27942E-03
C:/temp/dataset/0/14_30.odb,Step-1,Increment      4: Step Time =    1.000,"PART-1-1",           123,       3.76320,      -23.2871,            0.,NA,NA,"",   45.7572E-03,  -11.0720E-03,  -44.3974E-03,   10.8614E-03
C:/temp/dataset/0/14_30.odb,Step-1,Increment      4: Step Time =    1.000,"PART-1-1",           124,       12.5645,      -25.1614,            0.,NA,NA,"",   91.6861E-03,   45.3087E-03,  -79.7087E-03,   20.4604E-03
C:/temp/dataset/0/14_30.odb,Step-1,Increment      4: Step Time =    1.000,"PART-1-1",           125,       12.6631,      -17.7963,            0.,NA,NA,"",   220.812E-03,   80.5011E-03,  -205.615E-03,   18.5510E-03
C:/temp/dataset/0/14_30.odb,Step-1,Increment      4: Step Time =    1.000,"PART-1-1",           126,       12.5016,      -12.6810,            0.,NA,NA,"",   301.957E-03,   65.9815E-03,  -294.660E-03,   20.4772E-03
C:/temp/dataset/0/14_30.odb,Step-1,Increment      4: Step Time =    1.000,"PART-1-1",           127,       12.5761,      -10.0660,            0.,NA,NA,"",   347.365E-03,   52.7838E-03,  -343.332E-03,   21.3814E-03
C:/temp/dataset/0/14_30.odb,Step-1,Increment      4: Step Time =    1.000,"PART-1-1",           128,       13.0467,      -5.23700,            0.,NA,NA,"",   439.612E-03,   31.3313E-03,  -438.494E-03,   23.2897E-03
C:/temp/dataset/0/14_30.odb,Step-1,Increment      4: Step Time =    1.000,"PART-1-1",           129,       12.8236,      -2.99729,            0.,NA,NA,"",   486.566E-03,   20.0177E-03,  -486.154E-03,   24.0141E-03
C:/temp/dataset/0/14_30.odb,Step-1,Increment      4: Step Time =    1.000,"PART-1-1",           130,       12.3116,       1.92449,            0.,NA,NA,"",   593.262E-03,   10.5348E-03,  -593.169E-03,   24.9918E-03
C:/temp/dataset/0/14_30.odb,Step-1,Increment      4: Step Time =    1.000,"PART-1-1",           131,       12.2319,       4.58053,            0.,NA,NA,"",   653.050E-03,   20.5714E-03,  -652.726E-03,   25.5322E-03
C:/temp/dataset/0/14_30.odb,Step-1,Increment      4: Step Time =    1.000,"PART-1-1",           132,       12.3276,       12.6723,            0.,NA,NA,"",   858.158E-03,   135.217E-03,  -847.438E-03,   27.3356E-03
C:/temp/dataset/0/14_30.odb,Step-1,Increment      4: Step Time =    1.000,"PART-1-1",           133,       12.6288,       17.8043,            0.,NA,NA,"",       1.02962,   287.857E-03,  -988.564E-03,   28.7888E-03
C:/temp/dataset/0/14_30.odb,Step-1,Increment      4: Step Time =    1.000,"PART-1-1",           134,       12.7774,       20.2190,            0.,NA,NA,"",       1.12676,   382.991E-03,      -1.05967,   29.4639E-03
C:/temp/dataset/0/14_30.odb,Step-1,Increment      4: Step Time =    1.000,"PART-1-1",           135,       2.42682,       23.0828,            0.,NA,NA,"",   759.853E-03,   472.232E-03,  -595.293E-03,   4.43953E-03
C:/temp/dataset/0/14_30.odb,Step-1,Increment      4: Step Time =    1.000,"PART-1-1",           136,       13.0358,       27.4773,            0.,NA,NA,"",       1.48723,   758.047E-03,      -1.27954,   30.4481E-03
C:/temp/dataset/0/14_30.odb,Step-1,Increment      4: Step Time =    1.000,"PART-1-1",           137,       10.8553,       25.1313,            0.,NA,NA,"",       1.24371,   597.725E-03,      -1.09066,   26.7892E-03
C:/temp/dataset/0/14_30.odb,Step-1,Increment      4: Step Time =    1.000,"PART-1-1",           138,       5.66135,       21.5046,            0.,NA,NA,"",   849.357E-03,   387.003E-03,  -756.067E-03,   6.75980E-03
C:/temp/dataset/0/14_30.odb,Step-1,Increment      4: Step Time =    1.000,"PART-1-1",           139,       1.38191,       23.9574,            0.,NA,NA,"",   749.265E-03,   520.305E-03,  -539.148E-03,   3.78597E-03
C:/temp/dataset/0/14_30.odb,Step-1,Increment      4: Step Time =    1.000,"PART-1-1",           140,       8.68595,       25.2651,            0.,NA,NA,"",       1.12912,   584.419E-03,  -966.110E-03,   19.6369E-03
C:/temp/dataset/0/14_30.odb,Step-1,Increment      4: Step Time =    1.000,"PART-1-1",           141,       12.9664,       25.0396,            0.,NA,NA,"",       1.35408,   618.029E-03,      -1.20482,   30.6002E-03
C:/temp/dataset/0/14_30.odb,Step-1,Increment      4: Step Time =    1.000,"PART-1-1",           142,       9.99676,      -12.8506,            0.,NA,NA,"",   296.357E-03,   43.2780E-03,  -293.180E-03,   21.7083E-03
C:/temp/dataset/0/14_30.odb,Step-1,Increment      4: Step Time =    1.000,"PART-1-1",           143,       11.3735,      -5.41139,            0.,NA,NA,"",   437.012E-03,   14.8462E-03,  -436.759E-03,   22.4311E-03
C:/temp/dataset/0/14_30.odb,Step-1,Increment      4: Step Time =    1.000,"PART-1-1",           144,       9.95511,       15.6727,            0.,NA,NA,"",   865.833E-03,   189.235E-03,  -844.901E-03,   21.3558E-03
C:/temp/dataset/0/14_30.odb,Step-1,Increment      4: Step Time =    1.000,"PART-1-1",           145,       9.67875,       10.0081,            0.,NA,NA,"",   731.104E-03,   54.6565E-03,  -729.058E-03,   20.8258E-03
C:/temp/dataset/0/14_30.odb,Step-1,Increment      4: Step Time =    1.000,"PART-1-1",           146,       9.74913,       1.24671,            0.,NA,NA,"",   564.942E-03,  -17.3403E-03,  -564.676E-03,   21.3253E-03
C:/temp/dataset/0/14_30.odb,Step-1,Increment      4: Step Time =    1.000,"PART-1-1",           147,       10.3027,      -18.1986,            0.,NA,NA,"",   203.108E-03,   61.0575E-03,  -193.713E-03,   19.8385E-03
C:/temp/dataset/0/14_30.odb,Step-1,Increment      4: Step Time =    1.000,"PART-1-1",           148,       1.33525,      -24.5624,            0.,NA,NA,"",   21.7435E-03,  -15.9253E-03,  -14.8043E-03,   5.16452E-03
C:/temp/dataset/0/14_30.odb,Step-1,Increment      4: Step Time =    1.000,"PART-1-1",           149,       9.11730,      -22.7103,            0.,NA,NA,"",   114.782E-03,   31.7375E-03,  -110.307E-03,   20.2453E-03
C:/temp/dataset/0/14_30.odb,Step-1,Increment      4: Step Time =    1.000,"PART-1-1",           150,       12.2648,      -27.5617,            0.,NA,NA,"",   44.6163E-03,   23.7969E-03,  -37.7401E-03,   20.3438E-03
C:/temp/dataset/0/14_30.odb,Step-1,Increment      4: Step Time =    1.000,"PART-1-1",           151,       10.6108,      -20.5371,            0.,NA,NA,"",   164.411E-03,   57.1970E-03,  -154.141E-03,   19.3630E-03
C:/temp/dataset/0/14_30.odb,Step-1,Increment      4: Step Time =    1.000,"PART-1-1",           152,       10.0930,      -9.97392,            0.,NA,NA,"",   350.024E-03,   28.0209E-03,  -348.901E-03,   21.8002E-03
C:/temp/dataset/0/14_30.odb,Step-1,Increment      4: Step Time =    1.000,"PART-1-1",           153,       9.63546,       7.06865,            0.,NA,NA,"",   673.435E-03,   14.1566E-03,  -673.286E-03,   20.8607E-03
C:/temp/dataset/0/14_30.odb,Step-1,Increment      4: Step Time =    1.000,"PART-1-1",           154,       10.2222,       18.2240,            0.,NA,NA,"",   947.124E-03,   276.993E-03,  -905.715E-03,   22.1115E-03
C:/temp/dataset/0/14_30.odb,Step-1,Increment      4: Step Time =    1.000,"PART-1-1",           155,       10.5456,      -3.97788,            0.,NA,NA,"",   465.278E-03,  -92.5901E-06,  -465.278E-03,   22.0720E-03
C:/temp/dataset/0/14_30.odb,Step-1,Increment      4: Step Time =    1.000,"PART-1-1",           156,       10.0733,      -15.6212,            0.,NA,NA,"",   246.697E-03,   55.8634E-03,  -240.289E-03,   20.8712E-03
C:/temp/dataset/0/14_30.odb,Step-1,Increment      4: Step Time =    1.000,"PART-1-1",           157,       10.5412,      -7.26051,            0.,NA,NA,"",   401.300E-03,   16.4451E-03,  -400.963E-03,   21.9512E-03
C:/temp/dataset/0/14_30.odb,Step-1,Increment      4: Step Time =    1.000,"PART-1-1",           158,       9.98625,      -1.55753,            0.,NA,NA,"",   512.031E-03,  -13.3886E-03,  -511.856E-03,   21.6872E-03
C:/temp/dataset/0/14_30.odb,Step-1,Increment      4: Step Time =    1.000,"PART-1-1",           159,       9.65058,       4.13273,            0.,NA,NA,"",   618.541E-03,  -9.09226E-03,  -618.474E-03,   21.0368E-03
C:/temp/dataset/0/14_30.odb,Step-1,Increment      4: Step Time =    1.000,"PART-1-1",           160,       9.76871,       12.8936,            0.,NA,NA,"",   793.791E-03,   113.189E-03,  -785.679E-03,   20.9480E-03
C:/temp/dataset/0/14_30.odb,Step-1,Increment      4: Step Time =    1.000,"PART-1-1",           161,       10.4870,       20.5197,            0.,NA,NA,"",       1.03382,   370.505E-03,  -965.143E-03,   23.0470E-03
C:/temp/dataset/0/14_30.odb,Step-1,Increment      4: Step Time =    1.000,"PART-1-1",           162,       3.57821,       25.4429,            0.,NA,NA,"",   884.509E-03,   588.894E-03,  -659.970E-03,   3.01351E-03
C:/temp/dataset/0/14_30.odb,Step-1,Increment      4: Step Time =    1.000,"PART-1-1",           163,       6.34843,       25.4199,            0.,NA,NA,"",       1.00950,   583.501E-03,  -823.785E-03,   9.51440E-03
C:/temp/dataset/0/14_30.odb,Step-1,Increment      4: Step Time =    1.000,"PART-1-1",           164,       2.85591,      -26.4171,            0.,NA,NA,"",   24.1152E-03,  -16.1705E-03,  -17.8902E-03,   7.31687E-03
C:/temp/dataset/0/14_30.odb,Step-1,Increment      4: Step Time =    1.000,"PART-1-1",           165,  -631.401E-03,       25.1574,            0.,NA,NA,"",   728.989E-03,   586.044E-03,  -433.564E-03,   2.13920E-03
C:/temp/dataset/0/14_30.odb,Step-1,Increment      4: Step Time =    1.000,"PART-1-1",           166,  -516.865E-03,       27.6990,            0.,NA,NA,"",   838.512E-03,   711.661E-03,  -443.442E-03,   2.85311E-03
C:/temp/dataset/0/14_30.odb,Step-1,Increment      4: Step Time =    1.000,"PART-1-1",           167,      -6.99102,       22.3744,            0.,NA,NA,"",   489.013E-03,   469.889E-03,  -135.416E-03,   4.66293E-03
C:/temp/dataset/0/14_30.odb,Step-1,Increment      4: Step Time =    1.000,"PART-1-1",           168,      -5.11091,      -22.0245,            0.,NA,NA,"",   7.81529E-03,  -7.78881E-03,   642.807E-06,   1.22267E-03
C:/temp/dataset/0/14_30.odb,Step-1,Increment      4: Step Time =    1.000,"PART-1-1",           169,       6.75166,      -22.2774,            0.,NA,NA,"",   103.279E-03,   12.8347E-03,  -102.478E-03,   20.7197E-03
C:/temp/dataset/0/14_30.odb,Step-1,Increment      4: Step Time =    1.000,"PART-1-1",           170,       8.44380,       23.0750,            0.,NA,NA,"",       1.02851,   471.220E-03,  -914.216E-03,   17.0608E-03
C:/temp/dataset/0/14_30.odb,Step-1,Increment      4: Step Time =    1.000,"PART-1-1",           171,       3.98751,       23.4543,            0.,NA,NA,"",   834.351E-03,   484.886E-03,  -678.990E-03,   3.63631E-03
C:/temp/dataset/0/14_30.odb,Step-1,Increment      4: Step Time =    1.000,"PART-1-1",           172,       7.74283,       18.8612,            0.,NA,NA,"",   865.195E-03,   282.215E-03,  -817.873E-03,   14.8937E-03
C:/temp/dataset/0/14_30.odb,Step-1,Increment      4: Step Time =    1.000,"PART-1-1",           173,  -206.614E-03,      -27.1815,            0.,NA,NA,"",   13.6753E-03,  -12.9596E-03,  -4.36600E-03,   3.87348E-03
C:/temp/dataset/0/14_30.odb,Step-1,Increment      4: Step Time =    1.000,"PART-1-1",           174,       10.6950,       22.8157,            0.,NA,NA,"",       1.13175,   477.065E-03,      -1.02629,   24.3554E-03
C:/temp/dataset/0/14_30.odb,Step-1,Increment      4: Step Time =    1.000,"PART-1-1",           175,       1.78109,       26.2982,            0.,NA,NA,"",   850.538E-03,   638.867E-03,  -561.484E-03,   1.09091E-03
C:/temp/dataset/0/14_30.odb,Step-1,Increment      4: Step Time =    1.000,"PART-1-1",           176,       7.62536,      -9.80486,            0.,NA,NA,"",   355.977E-03,   2.63141E-03,  -355.967E-03,   21.8306E-03
C:/temp/dataset/0/14_30.odb,Step-1,Increment      4: Step Time =    1.000,"PART-1-1",           177,       7.50504,      -2.60802,            0.,NA,NA,"",   489.848E-03,  -33.6724E-03,  -488.690E-03,   19.3954E-03
C:/temp/dataset/0/14_30.odb,Step-1,Increment      4: Step Time =    1.000,"PART-1-1",           178,       7.24337,       3.70501,            0.,NA,NA,"",   590.954E-03,  -31.8508E-03,  -590.095E-03,   16.9369E-03
C:/temp/dataset/0/14_30.odb,Step-1,Increment      4: Step Time =    1.000,"PART-1-1",           179,       7.25379,       10.0129,            0.,NA,NA,"",   681.883E-03,   35.4600E-03,  -680.960E-03,   15.1901E-03
C:/temp/dataset/0/14_30.odb,Step-1,Increment      4: Step Time =    1.000,"PART-1-1",           180,       7.22962,       6.85747,            0.,NA,NA,"",   636.410E-03,  -7.86441E-03,  -636.361E-03,   15.9619E-03
C:/temp/dataset/0/14_30.odb,Step-1,Increment      4: Step Time =    1.000,"PART-1-1",           181,       7.49186,      -13.0485,            0.,NA,NA,"",   291.559E-03,   19.0252E-03,  -290.937E-03,   23.1852E-03
C:/temp/dataset/0/14_30.odb,Step-1,Increment      4: Step Time =    1.000,"PART-1-1",           182,       8.10600,      -6.05436,            0.,NA,NA,"",   426.596E-03,  -13.8063E-03,  -426.373E-03,   20.8676E-03
C:/temp/dataset/0/14_30.odb,Step-1,Increment      4: Step Time =    1.000,"PART-1-1",           183,       7.31265,   557.236E-03,            0.,NA,NA,"",   542.688E-03,  -39.5112E-03,  -541.248E-03,   18.0827E-03
C:/temp/dataset/0/14_30.odb,Step-1,Increment      4: Step Time =    1.000,"PART-1-1",           184,       7.30605,       13.1330,            0.,NA,NA,"",   731.348E-03,   99.8655E-03,  -724.497E-03,   14.6849E-03
C:/temp/dataset/0/14_30.odb,Step-1,Increment      4: Step Time =    1.000,"PART-1-1",           185,       8.51669,      -21.0731,            0.,NA,NA,"",   142.275E-03,   37.1332E-03,  -137.344E-03,   20.0772E-03
C:/temp/dataset/0/14_30.odb,Step-1,Increment      4: Step Time =    1.000,"PART-1-1",           186,       7.54046,      -16.1016,            0.,NA,NA,"",   230.849E-03,   32.4201E-03,  -228.561E-03,   24.3775E-03
C:/temp/dataset/0/14_30.odb,Step-1,Increment      4: Step Time =    1.000,"PART-1-1",           187,       7.81864,      -18.8426,            0.,NA,NA,"",   178.015E-03,   40.3654E-03,  -173.378E-03,   19.6340E-03
C:/temp/dataset/0/14_30.odb,Step-1,Increment      4: Step Time =    1.000,"PART-1-1",           188,       7.43701,       16.1533,            0.,NA,NA,"",   790.891E-03,   184.997E-03,  -768.950E-03,   14.5711E-03
C:/temp/dataset/0/14_30.odb,Step-1,Increment      4: Step Time =    1.000,"PART-1-1",           189,       8.13437,       20.9213,            0.,NA,NA,"",   940.554E-03,   369.644E-03,  -864.872E-03,   15.9288E-03
C:/temp/dataset/0/14_30.odb,Step-1,Increment      4: Step Time =    1.000,"PART-1-1",           190,       10.1795,      -24.9689,            0.,NA,NA,"",   78.8491E-03,   26.0961E-03,  -74.4054E-03,   19.4933E-03
C:/temp/dataset/0/14_30.odb,Step-1,Increment      4: Step Time =    1.000,"PART-1-1",           191,      -2.92607,      -24.6642,            0.,NA,NA,"",   10.4440E-03,  -10.4400E-03,   287.609E-06,   1.48482E-03
C:/temp/dataset/0/14_30.odb,Step-1,Increment      4: Step Time =    1.000,"PART-1-1",           192,      -7.32959,       16.5303,            0.,NA,NA,"",   300.336E-03,   281.528E-03,  -104.613E-03,   5.99025E-03
C:/temp/dataset/0/14_30.odb,Step-1,Increment      4: Step Time =    1.000,"PART-1-1",           193,      -3.80789,       25.1547,            0.,NA,NA,"",   651.963E-03,   589.699E-03,  -278.049E-03,   1.51023E-03
C:/temp/dataset/0/14_30.odb,Step-1,Increment      4: Step Time =    1.000,"PART-1-1",           194,      -7.16094,      -19.5479,            0.,NA,NA,"",   13.3292E-03,  -12.6896E-03,  -4.07941E-03,   1.65275E-03
C:/temp/dataset/0/14_30.odb,Step-1,Increment      4: Step Time =    1.000,"PART-1-1",           195,       6.10177,       23.3904,            0.,NA,NA,"",   925.737E-03,   478.615E-03,  -792.412E-03,   7.97613E-03
C:/temp/dataset/0/14_30.odb,Step-1,Increment      4: Step Time =    1.000,"PART-1-1",           196,      -3.02004,      -27.2699,            0.,NA,NA,"",   8.92093E-03,  -8.89355E-03,  -698.423E-06,   2.35246E-03
C:/temp/dataset/0/14_30.odb,Step-1,Increment      4: Step Time =    1.000,"PART-1-1",           197,      -5.46178,      -24.4382,            0.,NA,NA,"",   8.36003E-03,  -8.32648E-03,   748.316E-06,   694.729E-06
C:/temp/dataset/0/14_30.odb,Step-1,Increment      4: Step Time =    1.000,"PART-1-1",           198,      -9.66724,       21.9754,            0.,NA,NA,"",   459.403E-03,   457.590E-03,  -40.7791E-03,   3.95794E-03
C:/temp/dataset/0/14_30.odb,Step-1,Increment      4: Step Time =    1.000,"PART-1-1",           199,      -7.19512,      -21.6661,            0.,NA,NA,"",   9.66738E-03,  -9.50265E-03,  -1.77708E-03,   1.29773E-03
C:/temp/dataset/0/14_30.odb,Step-1,Increment      4: Step Time =    1.000,"PART-1-1",           200,      -3.42041,       27.6042,            0.,NA,NA,"",   764.457E-03,   702.229E-03,  -302.108E-03,   3.42545E-03
C:/temp/dataset/0/14_30.odb,Step-1,Increment      4: Step Time =    1.000,"PART-1-1",           201,       5.45774,      -23.9133,            0.,NA,NA,"",   61.5020E-03,  -5.84938E-03,  -61.2232E-03,   16.3625E-03
C:/temp/dataset/0/14_30.odb,Step-1,Increment      4: Step Time =    1.000,"PART-1-1",           202,      -6.69209,       24.9820,            0.,NA,NA,"",   601.025E-03,   581.050E-03,  -153.662E-03,   3.51527E-03
C:/temp/dataset/0/14_30.odb,Step-1,Increment      4: Step Time =    1.000,"PART-1-1",           203,      -12.3718,      -14.6182,            0.,NA,NA,"",   23.4628E-03,  -22.1622E-03,  -7.70323E-03,   813.104E-06
C:/temp/dataset/0/14_30.odb,Step-1,Increment      4: Step Time =    1.000,"PART-1-1",           204,      -5.91076,      -27.0963,            0.,NA,NA,"",   6.04000E-03,  -6.04000E-03,   960.070E-09,   1.30305E-03
C:/temp/dataset/0/14_30.odb,Step-1,Increment      4: Step Time =    1.000,"PART-1-1",           205,      -9.09285,      -26.5479,            0.,NA,NA,"",   5.26769E-03,  -5.20145E-03,  -832.720E-06,   795.639E-06
C:/temp/dataset/0/14_30.odb,Step-1,Increment      4: Step Time =    1.000,"PART-1-1",           206,      -12.2958,       24.3839,            0.,NA,NA,"",   560.476E-03,   558.194E-03,   50.5316E-03,   3.99388E-03
C:/temp/dataset/0/14_30.odb,Step-1,Increment      4: Step Time =    1.000,"PART-1-1",           207,      -12.3670,       18.5668,            0.,NA,NA,"",   346.192E-03,   343.659E-03,   41.8029E-03,   3.57366E-03
C:/temp/dataset/0/14_30.odb,Step-1,Increment      4: Step Time =    1.000,"PART-1-1",           208,      -12.3673,       12.5421,            0.,NA,NA,"",   188.405E-03,   186.530E-03,   26.5135E-03,   2.98147E-03
C:/temp/dataset/0/14_30.odb,Step-1,Increment      4: Step Time =    1.000,"PART-1-1",           209,      -12.4084,       3.45294,            0.,NA,NA,"",   45.6108E-03,   44.8033E-03,   8.54489E-03,   2.13035E-03
C:/temp/dataset/0/14_30.odb,Step-1,Increment      4: Step Time =    1.000,"PART-1-1",           210,      -12.4043,      -5.59421,            0.,NA,NA,"",   15.0322E-03,  -14.6369E-03,  -3.42470E-03,   1.28200E-03
C:/temp/dataset/0/14_30.odb,Step-1,Increment      4: Step Time =    1.000,"PART-1-1",           211,      -12.3838,       9.50768,            0.,NA,NA,"",   129.748E-03,   128.199E-03,   19.9933E-03,   2.70112E-03
C:/temp/dataset/0/14_30.odb,Step-1,Increment      4: Step Time =    1.000,"PART-1-1",           212,      -12.4013,       6.47621,            0.,NA,NA,"",   82.5496E-03,   81.3498E-03,   14.0236E-03,   2.42370E-03
C:/temp/dataset/0/14_30.odb,Step-1,Increment      4: Step Time =    1.000,"PART-1-1",           213,      -12.4173,   428.232E-03,            0.,NA,NA,"",   17.7441E-03,   17.3306E-03,   3.80815E-03,   1.84213E-03
C:/temp/dataset/0/14_30.odb,Step-1,Increment      4: Step Time =    1.000,"PART-1-1",           214,      -12.4160,      -2.58791,            0.,NA,NA,"",   2.11206E-03,  -2.10122E-03,  -213.708E-06,   1.55497E-03
C:/temp/dataset/0/14_30.odb,Step-1,Increment      4: Step Time =    1.000,"PART-1-1",           215,      -12.4014,      -8.61211,            0.,NA,NA,"",   22.1930E-03,  -21.4414E-03,  -5.72677E-03,   1.04839E-03
C:/temp/dataset/0/14_30.odb,Step-1,Increment      4: Step Time =    1.000,"PART-1-1",           216,      -12.3969,      -11.6247,            0.,NA,NA,"",   24.6243E-03,  -23.5627E-03,  -7.15239E-03,   882.849E-06
C:/temp/dataset/0/14_30.odb,Step-1,Increment      4: Step Time =    1.000,"PART-1-1",           217,      -12.3009,      -17.6498,            0.,NA,NA,"",   19.8123E-03,  -18.4156E-03,  -7.30712E-03,   823.326E-06
C:/temp/dataset/0/14_30.odb,Step-1,Increment      4: Step Time =    1.000,"PART-1-1",           218,      -11.9370,      -20.9397,            0.,NA,NA,"",   14.4505E-03,  -13.3097E-03,  -5.62761E-03,   835.175E-06
C:/temp/dataset/0/14_30.odb,Step-1,Increment      4: Step Time =    1.000,"PART-1-1",           219,       6.28266,      -26.4725,            0.,NA,NA,"",   36.8425E-03,  -6.61453E-03,  -36.2438E-03,   13.9637E-03
C:/temp/dataset/0/14_30.odb,Step-1,Increment      4: Step Time =    1.000,"PART-1-1",           220,      -12.3616,       21.4963,            0.,NA,NA,"",   447.574E-03,   444.910E-03,   48.7566E-03,   3.88618E-03
C:/temp/dataset/0/14_30.odb,Step-1,Increment      4: Step Time =    1.000,"PART-1-1",           221,       9.42071,      -27.3229,            0.,NA,NA,"",   34.8822E-03,   7.22881E-03,  -34.1249E-03,   17.0497E-03
C:/temp/dataset/0/14_30.odb,Step-1,Increment      4: Step Time =    1.000,"PART-1-1",           222,      -12.3680,       15.5612,            0.,NA,NA,"",   259.754E-03,   257.531E-03,   33.9108E-03,   3.26533E-03
C:/temp/dataset/0/14_30.odb,Step-1,Increment      4: Step Time =    1.000,"PART-1-1",           223,      -6.37126,       27.5191,            0.,NA,NA,"",   713.641E-03,   692.239E-03,  -173.461E-03,   3.64483E-03
C:/temp/dataset/0/14_30.odb,Step-1,Increment      4: Step Time =    1.000,"PART-1-1",           224,      -7.37426,       13.4489,            0.,NA,NA,"",   225.406E-03,   206.812E-03,  -89.6476E-03,   4.92058E-03
C:/temp/dataset/0/14_30.odb,Step-1,Increment      4: Step Time =    1.000,"PART-1-1",           225,      -7.40401,       7.31385,            0.,NA,NA,"",   114.040E-03,   94.4006E-03,  -63.9824E-03,   4.03463E-03
C:/temp/dataset/0/14_30.odb,Step-1,Increment      4: Step Time =    1.000,"PART-1-1",           226,      -7.40102,      -1.84560,            0.,NA,NA,"",   35.2464E-03,   3.56317E-03,  -35.0658E-03,   3.02560E-03
C:/temp/dataset/0/14_30.odb,Step-1,Increment      4: Step Time =    1.000,"PART-1-1",           227,      -7.36253,      -10.9851,            0.,NA,NA,"",   26.6103E-03,  -21.8180E-03,  -15.2342E-03,   2.03722E-03
C:/temp/dataset/0/14_30.odb,Step-1,Increment      4: Step Time =    1.000,"PART-1-1",           228,      -7.39657,       10.3769,            0.,NA,NA,"",   163.380E-03,   144.670E-03,  -75.9181E-03,   4.37929E-03
C:/temp/dataset/0/14_30.odb,Step-1,Increment      4: Step Time =    1.000,"PART-1-1",           229,      -7.41369,       4.25226,            0.,NA,NA,"",   76.3779E-03,   54.8640E-03,  -53.1369E-03,   3.68270E-03
C:/temp/dataset/0/14_30.odb,Step-1,Increment      4: Step Time =    1.000,"PART-1-1",           230,      -7.41413,       1.19777,            0.,NA,NA,"",   50.1852E-03,   24.9711E-03,  -43.5316E-03,   3.34902E-03
C:/temp/dataset/0/14_30.odb,Step-1,Increment      4: Step Time =    1.000,"PART-1-1",           231,      -7.39700,      -4.89906,            0.,NA,NA,"",   29.4636E-03,  -10.6702E-03,  -27.4637E-03,   2.69198E-03
C:/temp/dataset/0/14_30.odb,Step-1,Increment      4: Step Time =    1.000,"PART-1-1",           232,      -7.39133,      -7.95434,            0.,NA,NA,"",   28.0348E-03,  -18.7625E-03,  -20.8308E-03,   2.35950E-03
C:/temp/dataset/0/14_30.odb,Step-1,Increment      4: Step Time =    1.000,"PART-1-1",           233,      -7.32483,      -13.9963,            0.,NA,NA,"",   23.5545E-03,  -21.0477E-03,  -10.5740E-03,   1.71205E-03
C:/temp/dataset/0/14_30.odb,Step-1,Increment      4: Step Time =    1.000,"PART-1-1",           234,      -9.29453,       27.3932,            0.,NA,NA,"",   684.894E-03,   682.278E-03,  -59.8115E-03,   3.83653E-03
C:/temp/dataset/0/14_30.odb,Step-1,Increment      4: Step Time =    1.000,"PART-1-1",           235,      -9.79647,       16.0793,            0.,NA,NA,"",   270.087E-03,   267.758E-03,  -35.3978E-03,   1.39506E-03
C:/temp/dataset/0/14_30.odb,Step-1,Increment      4: Step Time =    1.000,"PART-1-1",           236,      -10.5694,      -24.3397,            0.,NA,NA,"",   8.45994E-03,  -8.08540E-03,  -2.48935E-03,   716.708E-06
C:/temp/dataset/0/14_30.odb,Step-1,Increment      4: Step Time =    1.000,"PART-1-1",           237,      -9.80814,      -14.2636,            0.,NA,NA,"",   23.8633E-03,  -22.0718E-03,  -9.07149E-03,   1.23758E-03
C:/temp/dataset/0/14_30.odb,Step-1,Increment      4: Step Time =    1.000,"PART-1-1",           238,      -9.84607,      -11.2856,            0.,NA,NA,"",   25.7947E-03,  -23.3362E-03,  -10.9906E-03,   1.24480E-03
C:/temp/dataset/0/14_30.odb,Step-1,Increment      4: Step Time =    1.000,"PART-1-1",           239,      -9.85160,       9.96190,            0.,NA,NA,"",   137.499E-03,   134.730E-03,  -27.4577E-03,   1.33184E-03
C:/temp/dataset/0/14_30.odb,Step-1,Increment      4: Step Time =    1.000,"PART-1-1",           240,      -9.42013,      -19.6871,            0.,NA,NA,"",   14.9806E-03,  -14.0764E-03,  -5.12564E-03,   1.27018E-03
C:/temp/dataset/0/14_30.odb,Step-1,Increment      4: Step Time =    1.000,"PART-1-1",           241,      -9.87385,       6.90801,            0.,NA,NA,"",   89.5706E-03,   86.2145E-03,  -24.2889E-03,   1.28316E-03
C:/temp/dataset/0/14_30.odb,Step-1,Increment      4: Step Time =    1.000,"PART-1-1",           242,      -9.72088,      -17.1529,            0.,NA,NA,"",   19.7422E-03,  -18.4008E-03,  -7.15313E-03,   1.29642E-03
C:/temp/dataset/0/14_30.odb,Step-1,Increment      4: Step Time =    1.000,"PART-1-1",           243,      -7.24385,      -16.9197,            0.,NA,NA,"",   18.9232E-03,  -17.6276E-03,  -6.88156E-03,   1.39613E-03
C:/temp/dataset/0/14_30.odb,Step-1,Increment      4: Step Time =    1.000,"PART-1-1",           244,      -9.88569,       3.86363,            0.,NA,NA,"",   52.9373E-03,   48.3188E-03,  -21.6253E-03,   1.26734E-03
C:/temp/dataset/0/14_30.odb,Step-1,Increment      4: Step Time =    1.000,"PART-1-1",           245,      -9.88680,   826.149E-03,            0.,NA,NA,"",   27.6669E-03,   19.8171E-03,  -19.3064E-03,   1.26211E-03
C:/temp/dataset/0/14_30.odb,Step-1,Increment      4: Step Time =    1.000,"PART-1-1",           246,      -9.87953,      -2.20322,            0.,NA,NA,"",   17.1645E-03,  -440.933E-06,  -17.1589E-03,   1.26217E-03
C:/temp/dataset/0/14_30.odb,Step-1,Increment      4: Step Time =    1.000,"PART-1-1",           247,      -9.87339,      -5.23467,            0.,NA,NA,"",   20.3217E-03,  -13.6561E-03,  -15.0493E-03,   1.25919E-03
C:/temp/dataset/0/14_30.odb,Step-1,Increment      4: Step Time =    1.000,"PART-1-1",           248,      -9.87035,      -8.27303,            0.,NA,NA,"",   24.6221E-03,  -20.9306E-03,  -12.9677E-03,   1.25208E-03
C:/temp/dataset/0/14_30.odb,Step-1,Increment      4: Step Time =    1.000,"PART-1-1",           249,      -12.1942,       27.2250,            0.,NA,NA,"",   676.089E-03,   674.456E-03,   46.9593E-03,   2.85612E-03
C:/temp/dataset/0/14_30.odb,Step-1,Increment      4: Step Time =    1.000,"PART-1-1",           250,      -12.1946,      -27.0241,            0.,NA,NA,"",   5.01382E-03,  -4.58433E-03,  -2.03034E-03,   1.14235E-03
C:/temp/dataset/0/14_30.odb,Step-1,Increment      4: Step Time =    1.000,"PART-1-1",           251,      -9.83578,       13.0151,            0.,NA,NA,"",   197.225E-03,   194.762E-03,  -31.0732E-03,   1.34183E-03
C:/temp/dataset/0/14_30.odb,Step-1,Increment      4: Step Time =    1.000,"PART-1-1",           252,      -12.4960,      -24.1891,            0.,NA,NA,"",   9.69550E-03,  -8.81212E-03,  -4.04340E-03,   836.088E-06
C:/temp/dataset/0/14_30.odb,Step-1,Increment      4: Step Time =    1.000,"PART-1-1",           253,      -7.26398,       19.6069,            0.,NA,NA,"",   386.121E-03,   367.243E-03,  -119.254E-03,   3.84090E-03
C:/temp/dataset/0/14_30.odb,Step-1,Increment      4: Step Time =    1.000,"PART-1-1",           254,      -9.78845,      -22.6320,            0.,NA,NA,"",   10.4642E-03,  -10.0296E-03,  -2.98422E-03,   904.024E-06
C:/temp/dataset/0/14_30.odb,Step-1,Increment      4: Step Time =    1.000,"PART-1-1",           255,       8.11622,      -24.1302,            0.,NA,NA,"",   81.5682E-03,   13.9885E-03,  -80.3598E-03,   18.9847E-03
C:/temp/dataset/0/14_30.odb,Step-1,Increment      4: Step Time =    1.000,"PART-1-1",           256,       10.7040,      -22.7860,            0.,NA,NA,"",   123.590E-03,   45.1686E-03,  -115.040E-03,   19.9686E-03
C:/temp/dataset/0/14_30.odb,Step-1,Increment      4: Step Time =    1.000,"PART-1-1",           257,      -8.82647,      -21.3553,            0.,NA,NA,"",   11.6208E-03,  -11.1413E-03,  -3.30384E-03,   1.15551E-03
C:/temp/dataset/0/14_30.odb,Step-1,Increment      4: Step Time =    1.000,"PART-1-1",           258,      -9.77631,       19.1047,            0.,NA,NA,"",   357.484E-03,   355.509E-03,  -37.5242E-03,   1.65530E-03
C:/temp/dataset/0/14_30.odb,Step-1,Increment      4: Step Time =    1.000,"PART-1-1",           259,      -7.77355,      -23.8785,            0.,NA,NA,"",   8.19397E-03,  -8.15664E-03,  -781.267E-06,   444.308E-06
C:/temp/dataset/0/14_30.odb,Step-1,Increment      4: Step Time =    1.000,"PART-1-1",           260,  -536.979E-03,      -24.7394,            0.,NA,NA,"",   14.6014E-03,  -13.7591E-03,  -4.88735E-03,   2.30461E-03
C:/temp/dataset/0/14_30.odb,Step-1,Increment      4: Step Time =    1.000,"PART-1-1",           261,      -9.52558,       24.7102,            0.,NA,NA,"",   571.159E-03,   569.184E-03,  -47.4582E-03,   4.40701E-03
C:/temp/dataset/0/14_30.odb,Step-1,Increment      4: Step Time =    1.000,"PART-1-1",           262,      -2.15050,       21.2402,            0.,NA,NA,"",   538.598E-03,   404.717E-03,  -355.376E-03,   5.56134E-03
C:/temp/dataset/0/14_30.odb,Step-1,Increment      4: Step Time =    1.000,"PART-1-1",           263,      -3.09708,       22.5364,            0.,NA,NA,"",   561.628E-03,   470.346E-03,  -306.921E-03,   3.63543E-03
C:/temp/dataset/0/14_30.odb,Step-1,Increment      4: Step Time =    1.000,"PART-1-1",           264,      -4.69657,       21.2962,            0.,NA,NA,"",   477.754E-03,   421.561E-03,  -224.800E-03,   8.15014E-03
C:/temp/dataset/0/14_30.odb,Step-1,Increment      4: Step Time =    1.000,"PART-1-1",           265,         -3.75,           20.,            0.,NA,NA,"",   450.291E-03,   356.003E-03,  -275.724E-03,   10.4366E-03
C:/temp/dataset/0/14_30.odb,Step-1,Increment      4: Step Time =    1.000,"PART-1-1",           266,      -4.10052,       23.8735,            0.,NA,NA,"",   593.047E-03,   532.086E-03,  -261.896E-03,   2.42732E-03
C:/temp/dataset/0/14_30.odb,Step-1,Increment      4: Step Time =    1.000,"PART-1-1",           267,      -5.24999,       25.0683,            0.,NA,NA,"",   623.471E-03,   585.678E-03,  -213.769E-03,   2.22512E-03
C:/temp/dataset/0/14_30.odb,Step-1,Increment      4: Step Time =    1.000,"PART-1-1",           268,      -6.84155,       23.6782,            0.,NA,NA,"",   544.152E-03,   524.623E-03,  -144.471E-03,   3.74404E-03
C:/temp/dataset/0/14_30.odb,Step-1,Increment      4: Step Time =    1.000,"PART-1-1",           269,      -5.69208,       22.4834,            0.,NA,NA,"",   508.477E-03,   473.062E-03,  -186.443E-03,   3.29664E-03
C:/temp/dataset/0/14_30.odb,Step-1,Increment      4: Step Time =    1.000,"PART-1-1",           270,      -7.35192,       14.9896,            0.,NA,NA,"",   260.999E-03,   242.248E-03,  -97.1399E-03,   4.98849E-03
C:/temp/dataset/0/14_30.odb,Step-1,Increment      4: Step Time =    1.000,"PART-1-1",           271,      -8.56303,       16.3048,            0.,NA,NA,"",   282.676E-03,   273.906E-03,  -69.8657E-03,   3.40292E-03
C:/temp/dataset/0/14_30.odb,Step-1,Increment      4: Step Time =    1.000,"PART-1-1",           272,      -9.81613,       14.5472,            0.,NA,NA,"",   232.162E-03,   229.775E-03,  -33.2055E-03,   1.37970E-03
C:/temp/dataset/0/14_30.odb,Step-1,Increment      4: Step Time =    1.000,"PART-1-1",           273,      -8.60502,       13.2320,            0.,NA,NA,"",   209.098E-03,   200.291E-03,  -60.0460E-03,   3.01723E-03
C:/temp/dataset/0/14_30.odb,Step-1,Increment      4: Step Time =    1.000,"PART-1-1",           274,          -15.,         -16.5,            0.,NA,NA,"",   21.9015E-03,  -19.9216E-03,  -9.09982E-03,   379.809E-06
C:/temp/dataset/0/14_30.odb,Step-1,Increment      4: Step Time =    1.000,"PART-1-1",           275,      -13.6504,      -17.8249,            0.,NA,NA,"",   19.9877E-03,  -18.3156E-03,  -8.00287E-03,   422.327E-06
C:/temp/dataset/0/14_30.odb,Step-1,Increment      4: Step Time =    1.000,"PART-1-1",           276,      -12.3363,      -16.1340,            0.,NA,NA,"",   21.8614E-03,  -20.4865E-03,  -7.63055E-03,   797.224E-06
C:/temp/dataset/0/14_30.odb,Step-1,Increment      4: Step Time =    1.000,"PART-1-1",           277,      -13.6859,      -14.8091,            0.,NA,NA,"",   23.1672E-03,  -21.8621E-03,  -7.66605E-03,   572.458E-06
C:/temp/dataset/0/14_30.odb,Step-1,Increment      4: Step Time =    1.000,"PART-1-1",           278,      -4.46540,      -27.1831,            0.,NA,NA,"",   7.27730E-03,  -7.27691E-03,  -74.8988E-06,   1.82022E-03
C:/temp/dataset/0/14_30.odb,Step-1,Increment      4: Step Time =    1.000,"PART-1-1",           279,      -2.97305,      -25.9670,            0.,NA,NA,"",   10.5293E-03,  -10.5259E-03,  -268.303E-06,   1.77945E-03
C:/temp/dataset/0/14_30.odb,Step-1,Increment      4: Step Time =    1.000,"PART-1-1",           280,      -4.19392,      -24.5512,            0.,NA,NA,"",   9.16562E-03,  -9.11478E-03,   964.065E-06,   1.05146E-03
C:/temp/dataset/0/14_30.odb,Step-1,Increment      4: Step Time =    1.000,"PART-1-1",           281,      -5.68627,      -25.7673,            0.,NA,NA,"",   7.63119E-03,  -7.62070E-03,   400.007E-06,   849.746E-06
C:/temp/dataset/0/14_30.odb,Step-1,Increment      4: Step Time =    1.000,"PART-1-1",           282,      -5.28634,      -23.2314,            0.,NA,NA,"",   8.19432E-03,  -8.14979E-03,   853.069E-06,   617.975E-06
C:/temp/dataset/0/14_30.odb,Step-1,Increment      4: Step Time =    1.000,"PART-1-1",           283,      -2.80857,      -23.4296,            0.,NA,NA,"",   9.15434E-03,  -9.13209E-03,   637.861E-06,   683.266E-06
C:/temp/dataset/0/14_30.odb,Step-1,Increment      4: Step Time =    1.000,"PART-1-1",           284,      -3.90099,      -22.1098,            0.,NA,NA,"",   7.24113E-03,  -7.12767E-03,   1.27683E-03,   972.304E-06
C:/temp/dataset/0/14_30.odb,Step-1,Increment      4: Step Time =    1.000,"PART-1-1",           285,       1.61260,      -23.5545,            0.,NA,NA,"",   22.5997E-03,  -13.4604E-03,  -18.1540E-03,   4.48503E-03
C:/temp/dataset/0/14_30.odb,Step-1,Increment      4: Step Time =    1.000,"PART-1-1",           286,       2.09558,      -25.4897,            0.,NA,NA,"",   23.9452E-03,  -16.5761E-03,  -17.2802E-03,   6.12395E-03
C:/temp/dataset/0/14_30.odb,Step-1,Increment      4: Step Time =    1.000,"PART-1-1",           287,       3.30955,      -24.8521,            0.,NA,NA,"",   33.2368E-03,  -15.3440E-03,  -29.4830E-03,   9.08440E-03
C:/temp/dataset/0/14_30.odb,Step-1,Increment      4: Step Time =    1.000,"PART-1-1",           288,       2.82657,      -22.9168,            0.,NA,NA,"",   37.0395E-03,  -11.3373E-03,  -35.2618E-03,   6.68254E-03
C:/temp/dataset/0/14_30.odb,Step-1,Increment      4: Step Time =    1.000,"PART-1-1",           289,       13.8857,      -20.1351,            0.,NA,NA,"",   190.515E-03,   85.5110E-03,  -170.247E-03,   17.5073E-03
C:/temp/dataset/0/14_30.odb,Step-1,Increment      4: Step Time =    1.000,"PART-1-1",           290,           15.,        -18.75,            0.,NA,NA,"",   217.368E-03,   97.7748E-03,  -194.137E-03,   16.4372E-03
C:/temp/dataset/0/14_30.odb,Step-1,Increment      4: Step Time =    1.000,"PART-1-1",           291,       13.8316,      -17.6482,            0.,NA,NA,"",   227.958E-03,   90.0146E-03,  -209.433E-03,   17.5253E-03
C:/temp/dataset/0/14_30.odb,Step-1,Increment      4: Step Time =    1.000,"PART-1-1",           292,       12.7173,      -19.0333,            0.,NA,NA,"",   201.427E-03,   79.2570E-03,  -185.178E-03,   18.5719E-03
C:/temp/dataset/0/14_30.odb,Step-1,Increment      4: Step Time =    1.000,"PART-1-1",           293,       13.7508,      -12.5905,            0.,NA,NA,"",   303.769E-03,   76.9657E-03,  -293.856E-03,   19.7533E-03
C:/temp/dataset/0/14_30.odb,Step-1,Increment      4: Step Time =    1.000,"PART-1-1",           294,           15.,        -11.25,            0.,NA,NA,"",   323.601E-03,   81.8850E-03,  -313.070E-03,   19.9997E-03
C:/temp/dataset/0/14_30.odb,Step-1,Increment      4: Step Time =    1.000,"PART-1-1",           295,       13.7881,      -10.0330,            0.,NA,NA,"",   346.614E-03,   64.2875E-03,  -340.600E-03,   21.1002E-03
C:/temp/dataset/0/14_30.odb,Step-1,Increment      4: Step Time =    1.000,"PART-1-1",           296,       12.5389,      -11.3735,            0.,NA,NA,"",   324.264E-03,   59.7122E-03,  -318.719E-03,   20.9052E-03
C:/temp/dataset/0/14_30.odb,Step-1,Increment      4: Step Time =    1.000,"PART-1-1",           297,       11.3345,      -10.0200,            0.,NA,NA,"",   348.730E-03,   40.4519E-03,  -346.376E-03,   21.5890E-03
C:/temp/dataset/0/14_30.odb,Step-1,Increment      4: Step Time =    1.000,"PART-1-1",           298,       10.0449,      -11.4123,            0.,NA,NA,"",   323.021E-03,   35.8992E-03,  -321.020E-03,   21.7791E-03
C:/temp/dataset/0/14_30.odb,Step-1,Increment      4: Step Time =    1.000,"PART-1-1",           299,       11.2492,      -12.7658,            0.,NA,NA,"",   299.316E-03,   54.8022E-03,  -294.256E-03,   21.0824E-03
C:/temp/dataset/0/14_30.odb,Step-1,Increment      4: Step Time =    1.000,"PART-1-1",           300,       9.32361,      -6.65743,            0.,NA,NA,"",   413.805E-03,   1.10162E-03,  -413.803E-03,   21.4106E-03
C:/temp/dataset/0/14_30.odb,Step-1,Increment      4: Step Time =    1.000,"PART-1-1",           301,       10.9574,      -6.33595,            0.,NA,NA,"",   419.039E-03,   15.4453E-03,  -418.754E-03,   22.1762E-03
C:/temp/dataset/0/14_30.odb,Step-1,Increment      4: Step Time =    1.000,"PART-1-1",           302,       10.9595,      -4.69463,            0.,NA,NA,"",   451.305E-03,   7.23275E-03,  -451.248E-03,   22.2745E-03
C:/temp/dataset/0/14_30.odb,Step-1,Increment      4: Step Time =    1.000,"PART-1-1",           303,       9.32578,      -5.01612,            0.,NA,NA,"",   445.167E-03,  -7.37289E-03,  -445.106E-03,   21.4513E-03
C:/temp/dataset/0/14_30.odb,Step-1,Increment      4: Step Time =    1.000,"PART-1-1",           304,       12.9351,      -4.11714,            0.,NA,NA,"",   462.896E-03,   25.2939E-03,  -462.205E-03,   23.6556E-03
C:/temp/dataset/0/14_30.odb,Step-1,Increment      4: Step Time =    1.000,"PART-1-1",           305,       11.6846,      -3.48758,            0.,NA,NA,"",   475.787E-03,   9.60100E-03,  -475.690E-03,   23.0425E-03
C:/temp/dataset/0/14_30.odb,Step-1,Increment      4: Step Time =    1.000,"PART-1-1",           306,       12.2101,      -5.32419,            0.,NA,NA,"",   438.448E-03,   22.9965E-03,  -437.844E-03,   22.8461E-03
C:/temp/dataset/0/14_30.odb,Step-1,Increment      4: Step Time =    1.000,"PART-1-1",           307,       9.86769,  -155.410E-03,            0.,NA,NA,"",   538.706E-03,  -16.5069E-03,  -538.453E-03,   21.5039E-03
C:/temp/dataset/0/14_30.odb,Step-1,Increment      4: Step Time =    1.000,"PART-1-1",           308,       8.53089,   901.975E-03,            0.,NA,NA,"",   552.893E-03,  -28.9239E-03,  -552.136E-03,   19.7014E-03
C:/temp/dataset/0/14_30.odb,Step-1,Increment      4: Step Time =    1.000,"PART-1-1",           309,       7.40884,      -1.02539,            0.,NA,NA,"",   516.883E-03,  -37.9383E-03,  -515.488E-03,   18.7300E-03
C:/temp/dataset/0/14_30.odb,Step-1,Increment      4: Step Time =    1.000,"PART-1-1",           310,       8.74564,      -2.08278,            0.,NA,NA,"",   499.944E-03,  -23.9495E-03,  -499.370E-03,   20.5219E-03
C:/temp/dataset/0/14_30.odb,Step-1,Increment      4: Step Time =    1.000,"PART-1-1",           311,       9.64302,       5.60069,            0.,NA,NA,"",   645.917E-03,   601.002E-06,  -645.917E-03,   20.9481E-03
C:/temp/dataset/0/14_30.odb,Step-1,Increment      4: Step Time =    1.000,"PART-1-1",           312,       10.9412,       4.35663,            0.,NA,NA,"",   635.348E-03,   5.01889E-03,  -635.329E-03,   23.2803E-03
C:/temp/dataset/0/14_30.odb,Step-1,Increment      4: Step Time =    1.000,"PART-1-1",           313,       12.2262,       5.93259,            0.,NA,NA,"",   684.496E-03,   30.4918E-03,  -683.816E-03,   25.8214E-03
C:/temp/dataset/0/14_30.odb,Step-1,Increment      4: Step Time =    1.000,"PART-1-1",           314,       10.9280,       7.17665,            0.,NA,NA,"",   694.760E-03,   28.1372E-03,  -694.190E-03,   23.4833E-03
C:/temp/dataset/0/14_30.odb,Step-1,Increment      4: Step Time =    1.000,"PART-1-1",           315,       13.6103,       7.39232,            0.,NA,NA,"",   740.006E-03,   62.2435E-03,  -737.383E-03,   29.0866E-03
C:/temp/dataset/0/14_30.odb,Step-1,Increment      4: Step Time =    1.000,"PART-1-1",           316,           15.,          8.75,            0.,NA,NA,"",   801.176E-03,   99.2428E-03,  -795.005E-03,   32.6825E-03
C:/temp/dataset/0/14_30.odb,Step-1,Increment      4: Step Time =    1.000,"PART-1-1",           317,       13.6268,       9.99700,            0.,NA,NA,"",   812.962E-03,   99.1334E-03,  -806.895E-03,   29.9648E-03
C:/temp/dataset/0/14_30.odb,Step-1,Increment      4: Step Time =    1.000,"PART-1-1",           318,       12.2370,       8.63932,            0.,NA,NA,"",   750.021E-03,   60.7873E-03,  -747.553E-03,   26.4106E-03
C:/temp/dataset/0/14_30.odb,Step-1,Increment      4: Step Time =    1.000,"PART-1-1",           319,       13.8144,       17.6522,            0.,NA,NA,"",       1.07112,   298.136E-03,      -1.02879,   32.1776E-03
C:/temp/dataset/0/14_30.odb,Step-1,Increment      4: Step Time =    1.000,"PART-1-1",           320,           15.,         18.75,            0.,NA,NA,"",       1.16428,   355.752E-03,      -1.10860,   35.7552E-03
C:/temp/dataset/0/14_30.odb,Step-1,Increment      4: Step Time =    1.000,"PART-1-1",           321,       13.8887,       20.1095,            0.,NA,NA,"",       1.17299,   393.145E-03,      -1.10515,   32.6804E-03
C:/temp/dataset/0/14_30.odb,Step-1,Increment      4: Step Time =    1.000,"PART-1-1",           322,       12.7031,       19.0116,            0.,NA,NA,"",       1.07670,   333.509E-03,      -1.02375,   29.1306E-03
C:/temp/dataset/0/14_30.odb,Step-1,Increment      4: Step Time =    1.000,"PART-1-1",           323,       11.4255,       18.0142,            0.,NA,NA,"",   988.729E-03,   281.405E-03,  -947.838E-03,   25.4536E-03
C:/temp/dataset/0/14_30.odb,Step-1,Increment      4: Step Time =    1.000,"PART-1-1",           324,       11.6322,       20.3693,            0.,NA,NA,"",       1.08043,   375.841E-03,      -1.01295,   26.2563E-03
C:/temp/dataset/0/14_30.odb,Step-1,Increment      4: Step Time =    1.000,"PART-1-1",           325,       10.3546,       19.3719,            0.,NA,NA,"",   988.807E-03,   322.019E-03,  -934.903E-03,   22.5816E-03
C:/temp/dataset/0/14_30.odb,Step-1,Increment      4: Step Time =    1.000,"PART-1-1",           326,       10.9394,       26.3107,            0.,NA,NA,"",       1.30756,   664.474E-03,      -1.12614,   27.9652E-03
C:/temp/dataset/0/14_30.odb,Step-1,Increment      4: Step Time =    1.000,"PART-1-1",           327,       11.9108,       25.0855,            0.,NA,NA,"",       1.29906,   607.451E-03,      -1.14829,   28.6651E-03
C:/temp/dataset/0/14_30.odb,Step-1,Increment      4: Step Time =    1.000,"PART-1-1",           328,       13.0011,       26.2585,            0.,NA,NA,"",       1.41934,   686.746E-03,      -1.24214,   30.5954E-03
C:/temp/dataset/0/14_30.odb,Step-1,Increment      4: Step Time =    1.000,"PART-1-1",           329,       12.0296,       27.4837,            0.,NA,NA,"",       1.43190,   746.369E-03,      -1.22199,   29.7917E-03
C:/temp/dataset/0/14_30.odb,Step-1,Increment      4: Step Time =    1.000,"PART-1-1",           330,       14.0179,       27.4887,            0.,NA,NA,"",       1.54274,   770.942E-03,      -1.33630,   30.9365E-03
C:/temp/dataset/0/14_30.odb,Step-1,Increment      4: Step Time =    1.000,"PART-1-1",           331,       13.9832,       25.0198,            0.,NA,NA,"",       1.40870,   630.252E-03,      -1.25985,   32.5593E-03
C:/temp/dataset/0/14_30.odb,Step-1,Increment      4: Step Time =    1.000,"PART-1-1",           332,           15.,         26.25,            0.,NA,NA,"",       1.53179,   712.376E-03,      -1.35607,   33.1894E-03
C:/temp/dataset/0/14_30.odb,Step-1,Increment      4: Step Time =    1.000,"PART-1-1",           333,       3.55377,       20.8403,            0.,NA,NA,"",   745.401E-03,   358.176E-03,  -653.706E-03,   2.28092E-03
C:/temp/dataset/0/14_30.odb,Step-1,Increment      4: Step Time =    1.000,"PART-1-1",           334,       4.16667,           20.,            0.,NA,NA,"",   752.869E-03,   317.008E-03,  -682.874E-03,   1.47323E-03
C:/temp/dataset/0/14_30.odb,Step-1,Increment      4: Step Time =    1.000,"PART-1-1",           335,       5.33068,       20.7523,            0.,NA,NA,"",   815.447E-03,   351.575E-03,  -735.764E-03,   6.13966E-03
C:/temp/dataset/0/14_30.odb,Step-1,Increment      4: Step Time =    1.000,"PART-1-1",           336,       4.71778,       21.5926,            0.,NA,NA,"",   812.056E-03,   391.336E-03,  -711.541E-03,   3.35165E-03
C:/temp/dataset/0/14_30.odb,Step-1,Increment      4: Step Time =    1.000,"PART-1-1",           337,       1.85672,       20.8541,            0.,NA,NA,"",   672.710E-03,   364.357E-03,  -565.494E-03,   3.31072E-03
C:/temp/dataset/0/14_30.odb,Step-1,Increment      4: Step Time =    1.000,"PART-1-1",           338,           2.5,           20.,            0.,NA,NA,"",   678.453E-03,   318.624E-03,  -598.980E-03,   1.27216E-03
C:/temp/dataset/0/14_30.odb,Step-1,Increment      4: Step Time =    1.000,"PART-1-1",           339,       2.91049,       21.6945,            0.,NA,NA,"",   739.610E-03,   401.812E-03,  -620.944E-03,   3.82350E-03
C:/temp/dataset/0/14_30.odb,Step-1,Increment      4: Step Time =    1.000,"PART-1-1",           340,       1.32465,      -26.7993,            0.,NA,NA,"",   18.1384E-03,  -15.4694E-03,  -9.47105E-03,   5.25063E-03
C:/temp/dataset/0/14_30.odb,Step-1,Increment      4: Step Time =    1.000,"PART-1-1",           341,   399.133E-03,      -24.6509,            0.,NA,NA,"",   17.3289E-03,  -14.8566E-03,  -8.92034E-03,   3.60943E-03
C:/temp/dataset/0/14_30.odb,Step-1,Increment      4: Step Time =    1.000,"PART-1-1",           342,  -371.796E-03,      -25.9605,            0.,NA,NA,"",   15.3115E-03,  -14.4898E-03,  -4.94836E-03,   3.07838E-03
C:/temp/dataset/0/14_30.odb,Step-1,Increment      4: Step Time =    1.000,"PART-1-1",           343,       7.16814,       28.8250,            0.,NA,NA,"",       1.20503,   782.531E-03,  -916.376E-03,   15.3463E-03
C:/temp/dataset/0/14_30.odb,Step-1,Increment      4: Step Time =    1.000,"PART-1-1",           344,       7.90869,       27.6030,            0.,NA,NA,"",       1.19112,   710.205E-03,  -956.235E-03,   20.7690E-03
C:/temp/dataset/0/14_30.odb,Step-1,Increment      4: Step Time =    1.000,"PART-1-1",           345,       9.17805,       28.7779,            0.,NA,NA,"",       1.34146,   796.350E-03,      -1.07950,   28.3855E-03
C:/temp/dataset/0/14_30.odb,Step-1,Increment      4: Step Time =    1.000,"PART-1-1",           346,        8.4375,           30.,            0.,NA,NA,"",       1.37402,   878.184E-03,      -1.05675,   24.7727E-03
C:/temp/dataset/0/14_30.odb,Step-1,Increment      4: Step Time =    1.000,"PART-1-1",           347,       1.19326,       21.8923,            0.,NA,NA,"",   675.664E-03,   419.005E-03,  -530.053E-03,   4.42250E-03
C:/temp/dataset/0/14_30.odb,Step-1,Increment      4: Step Time =    1.000,"PART-1-1",           348,   169.882E-03,       21.0382,            0.,NA,NA,"",   610.272E-03,   381.151E-03,  -476.608E-03,   4.33997E-03
C:/temp/dataset/0/14_30.odb,Step-1,Increment      4: Step Time =    1.000,"PART-1-1",           349,   833.333E-03,           20.,            0.,NA,NA,"",   606.064E-03,   324.722E-03,  -511.732E-03,   3.46412E-03
C:/temp/dataset/0/14_30.odb,Step-1,Increment      4: Step Time =    1.000,"PART-1-1",           350,       11.0482,       12.7829,            0.,NA,NA,"",   826.232E-03,   123.236E-03,  -816.990E-03,   24.1396E-03
C:/temp/dataset/0/14_30.odb,Step-1,Increment      4: Step Time =    1.000,"PART-1-1",           351,       12.3949,       13.9828,            0.,NA,NA,"",   897.862E-03,   167.903E-03,  -882.023E-03,   27.6910E-03
C:/temp/dataset/0/14_30.odb,Step-1,Increment      4: Step Time =    1.000,"PART-1-1",           352,       11.2086,       15.4830,            0.,NA,NA,"",   903.298E-03,   195.953E-03,  -881.788E-03,   24.7029E-03
C:/temp/dataset/0/14_30.odb,Step-1,Increment      4: Step Time =    1.000,"PART-1-1",           353,       9.86191,       14.2831,            0.,NA,NA,"",   828.397E-03,   148.810E-03,  -814.921E-03,   21.1717E-03
C:/temp/dataset/0/14_30.odb,Step-1,Increment      4: Step Time =    1.000,"PART-1-1",           354,       9.65710,       8.53837,            0.,NA,NA,"",   701.845E-03,   32.1777E-03,  -701.107E-03,   20.8427E-03
C:/temp/dataset/0/14_30.odb,Step-1,Increment      4: Step Time =    1.000,"PART-1-1",           355,       8.46627,       10.0105,            0.,NA,NA,"",   706.174E-03,   44.2942E-03,  -704.783E-03,   18.0100E-03
C:/temp/dataset/0/14_30.odb,Step-1,Increment      4: Step Time =    1.000,"PART-1-1",           356,       7.24171,       8.43518,            0.,NA,NA,"",   658.965E-03,   11.2409E-03,  -658.869E-03,   15.5763E-03
C:/temp/dataset/0/14_30.odb,Step-1,Increment      4: Step Time =    1.000,"PART-1-1",           357,       8.43254,       6.96306,            0.,NA,NA,"",   654.318E-03,   2.48289E-03,  -654.314E-03,   18.4120E-03
C:/temp/dataset/0/14_30.odb,Step-1,Increment      4: Step Time =    1.000,"PART-1-1",           358,       13.6558,       2.21224,            0.,NA,NA,"",   607.549E-03,   27.1509E-03,  -606.942E-03,   27.1484E-03
C:/temp/dataset/0/14_30.odb,Step-1,Increment      4: Step Time =    1.000,"PART-1-1",           359,           15.,          3.75,            0.,NA,NA,"",   655.395E-03,   50.8866E-03,  -653.416E-03,   30.0772E-03
C:/temp/dataset/0/14_30.odb,Step-1,Increment      4: Step Time =    1.000,"PART-1-1",           360,       13.6160,       4.79026,            0.,NA,NA,"",   671.699E-03,   38.7595E-03,  -670.579E-03,   28.1405E-03
C:/temp/dataset/0/14_30.odb,Step-1,Increment      4: Step Time =    1.000,"PART-1-1",           361,       12.2717,       3.25251,            0.,NA,NA,"",   622.975E-03,   14.2044E-03,  -622.813E-03,   25.2620E-03
C:/temp/dataset/0/14_30.odb,Step-1,Increment      4: Step Time =    1.000,"PART-1-1",           362,       9.69986,       2.68972,            0.,NA,NA,"",   591.881E-03,  -14.7666E-03,  -591.697E-03,   21.1794E-03
C:/temp/dataset/0/14_30.odb,Step-1,Increment      4: Step Time =    1.000,"PART-1-1",           363,       11.0304,       1.58560,            0.,NA,NA,"",   578.599E-03,  -4.04317E-03,  -578.585E-03,   23.1516E-03
C:/temp/dataset/0/14_30.odb,Step-1,Increment      4: Step Time =    1.000,"PART-1-1",           364,       7.55861,      -11.4267,            0.,NA,NA,"",   324.080E-03,   11.2297E-03,  -323.885E-03,   22.4132E-03
C:/temp/dataset/0/14_30.odb,Step-1,Increment      4: Step Time =    1.000,"PART-1-1",           365,       6.31268,      -9.90243,            0.,NA,NA,"",   357.715E-03,  -9.73846E-03,  -357.582E-03,   21.8818E-03
C:/temp/dataset/0/14_30.odb,Step-1,Increment      4: Step Time =    1.000,"PART-1-1",           366,            5.,      -11.6667,            0.,NA,NA,"",   327.736E-03,  -13.9232E-03,  -327.440E-03,   23.1093E-03
C:/temp/dataset/0/14_30.odb,Step-1,Increment      4: Step Time =    1.000,"PART-1-1",           367,       6.24593,      -13.1909,            0.,NA,NA,"",   291.080E-03,   6.50753E-03,  -291.008E-03,   23.6567E-03
C:/temp/dataset/0/14_30.odb,Step-1,Increment      4: Step Time =    1.000,"PART-1-1",           368,       14.0233,      -5.11850,            0.,NA,NA,"",   440.773E-03,   41.2743E-03,  -438.837E-03,   23.8625E-03
C:/temp/dataset/0/14_30.odb,Step-1,Increment      4: Step Time =    1.000,"PART-1-1",           369,           15.,         -3.75,            0.,NA,NA,"",   468.397E-03,   46.9837E-03,  -466.035E-03,   25.3284E-03
C:/temp/dataset/0/14_30.odb,Step-1,Increment      4: Step Time =    1.000,"PART-1-1",           370,       13.9118,      -2.74864,            0.,NA,NA,"",   492.082E-03,   31.4316E-03,  -491.077E-03,   25.0772E-03
C:/temp/dataset/0/14_30.odb,Step-1,Increment      4: Step Time =    1.000,"PART-1-1",           371,       12.6080,      -16.5365,            0.,NA,NA,"",   240.225E-03,   79.5516E-03,  -226.671E-03,   19.0192E-03
C:/temp/dataset/0/14_30.odb,Step-1,Increment      4: Step Time =    1.000,"PART-1-1",           372,       11.3130,      -15.4489,            0.,NA,NA,"",   253.559E-03,   66.2347E-03,  -244.755E-03,   20.1575E-03
C:/temp/dataset/0/14_30.odb,Step-1,Increment      4: Step Time =    1.000,"PART-1-1",           373,       10.1880,      -16.9099,            0.,NA,NA,"",   225.009E-03,   59.4941E-03,  -217.001E-03,   20.2595E-03
C:/temp/dataset/0/14_30.odb,Step-1,Increment      4: Step Time =    1.000,"PART-1-1",           374,       11.4829,      -17.9975,            0.,NA,NA,"",   212.281E-03,   70.7773E-03,  -200.135E-03,   19.2379E-03
C:/temp/dataset/0/14_30.odb,Step-1,Increment      4: Step Time =    1.000,"PART-1-1",           375,       7.63417,      -21.6752,            0.,NA,NA,"",   123.138E-03,   25.4696E-03,  -120.475E-03,   20.7432E-03
C:/temp/dataset/0/14_30.odb,Step-1,Increment      4: Step Time =    1.000,"PART-1-1",           376,       7.43394,      -23.2038,            0.,NA,NA,"",   92.6860E-03,   13.3965E-03,  -91.7127E-03,   19.4925E-03
C:/temp/dataset/0/14_30.odb,Step-1,Increment      4: Step Time =    1.000,"PART-1-1",           377,       8.61676,      -23.4202,            0.,NA,NA,"",   97.8073E-03,   22.3679E-03,  -95.2152E-03,   19.5405E-03
C:/temp/dataset/0/14_30.odb,Step-1,Increment      4: Step Time =    1.000,"PART-1-1",           378,       8.81699,      -21.8917,            0.,NA,NA,"",   128.461E-03,   34.3660E-03,  -123.779E-03,   20.3785E-03
C:/temp/dataset/0/14_30.odb,Step-1,Increment      4: Step Time =    1.000,"PART-1-1",           379,  -438.919E-03,      -23.5046,            0.,NA,NA,"",   12.2395E-03,  -11.0367E-03,  -5.29124E-03,   1.41363E-03
C:/temp/dataset/0/14_30.odb,Step-1,Increment      4: Step Time =    1.000,"PART-1-1",           380,   774.543E-03,      -22.4081,            0.,NA,NA,"",   14.3271E-03,  -7.07338E-03,  -12.4593E-03,   1.91093E-03
C:/temp/dataset/0/14_30.odb,Step-1,Increment      4: Step Time =    1.000,"PART-1-1",           381,      -7.50181,      -26.8221,            0.,NA,NA,"",   5.38952E-03,  -5.38265E-03,  -271.993E-06,   991.689E-06
C:/temp/dataset/0/14_30.odb,Step-1,Increment      4: Step Time =    1.000,"PART-1-1",           382,      -9.04643,      -28.2740,            0.,NA,NA,"",   2.73072E-03,  -2.68667E-03,  -488.492E-06,   955.431E-06
C:/temp/dataset/0/14_30.odb,Step-1,Increment      4: Step Time =    1.000,"PART-1-1",           383,          -7.5,          -30.,            0.,NA,NA,"",            0.,   19.7849E-42,  -47.6161E-42,   1.42074E-03
C:/temp/dataset/0/14_30.odb,Step-1,Increment      4: Step Time =    1.000,"PART-1-1",           384,      -5.95538,      -28.5482,            0.,NA,NA,"",   3.43569E-03,  -3.42685E-03,  -246.176E-06,   1.42211E-03
C:/temp/dataset/0/14_30.odb,Step-1,Increment      4: Step Time =    1.000,"PART-1-1",           385,      -10.9107,       24.5471,            0.,NA,NA,"",   563.246E-03,   563.243E-03,   1.63360E-03,   4.04783E-03
C:/temp/dataset/0/14_30.odb,Step-1,Increment      4: Step Time =    1.000,"PART-1-1",           386,      -9.41006,       26.0517,            0.,NA,NA,"",   628.070E-03,   625.801E-03,  -53.3441E-03,   3.99447E-03
C:/temp/dataset/0/14_30.odb,Step-1,Increment      4: Step Time =    1.000,"PART-1-1",           387,      -10.7443,       27.3091,            0.,NA,NA,"",   677.913E-03,   677.884E-03,  -6.30958E-03,   3.26281E-03
C:/temp/dataset/0/14_30.odb,Step-1,Increment      4: Step Time =    1.000,"PART-1-1",           388,      -12.2450,       25.8045,            0.,NA,NA,"",   618.282E-03,   616.322E-03,   49.1900E-03,   3.34454E-03
C:/temp/dataset/0/14_30.odb,Step-1,Increment      4: Step Time =    1.000,"PART-1-1",           389,      -1.21620,       23.8189,            0.,NA,NA,"",   660.444E-03,   523.029E-03,  -403.271E-03,   3.50261E-03
C:/temp/dataset/0/14_30.odb,Step-1,Increment      4: Step Time =    1.000,"PART-1-1",           390,      -2.21965,       25.1560,            0.,NA,NA,"",   686.678E-03,   588.449E-03,  -353.913E-03,   1.37558E-03
C:/temp/dataset/0/14_30.odb,Step-1,Increment      4: Step Time =    1.000,"PART-1-1",           391,      -12.3287,       22.9401,            0.,NA,NA,"",   502.794E-03,   500.291E-03,   50.1050E-03,   3.86724E-03
C:/temp/dataset/0/14_30.odb,Step-1,Increment      4: Step Time =    1.000,"PART-1-1",           392,      -11.0144,       21.7359,            0.,NA,NA,"",   451.085E-03,   451.066E-03,   4.12241E-03,   3.66983E-03
C:/temp/dataset/0/14_30.odb,Step-1,Increment      4: Step Time =    1.000,"PART-1-1",           393,      -9.59641,       23.3428,            0.,NA,NA,"",   514.237E-03,   512.375E-03,  -43.7211E-03,   4.16461E-03
C:/temp/dataset/0/14_30.odb,Step-1,Increment      4: Step Time =    1.000,"PART-1-1",           394,      -8.52014,       19.3558,            0.,NA,NA,"",   369.793E-03,   361.585E-03,  -77.4833E-03,   2.34995E-03
C:/temp/dataset/0/14_30.odb,Step-1,Increment      4: Step Time =    1.000,"PART-1-1",           395,      -7.12750,       20.9906,            0.,NA,NA,"",   433.563E-03,   414.602E-03,  -126.813E-03,   3.72697E-03
C:/temp/dataset/0/14_30.odb,Step-1,Increment      4: Step Time =    1.000,"PART-1-1",           396,      -8.32913,       22.1749,            0.,NA,NA,"",   471.382E-03,   463.353E-03,  -86.6316E-03,   3.91590E-03
C:/temp/dataset/0/14_30.odb,Step-1,Increment      4: Step Time =    1.000,"PART-1-1",           397,      -9.72177,       20.5400,            0.,NA,NA,"",   406.234E-03,   404.338E-03,  -39.1972E-03,   2.65349E-03
C:/temp/dataset/0/14_30.odb,Step-1,Increment      4: Step Time =    1.000,"PART-1-1",           398,      -6.16480,       16.7267,            0.,NA,NA,"",   319.436E-03,   287.695E-03,  -138.820E-03,   7.19719E-03
C:/temp/dataset/0/14_30.odb,Step-1,Increment      4: Step Time =    1.000,"PART-1-1",           399,           -5.,       18.4615,            0.,NA,NA,"",   385.330E-03,   337.634E-03,  -185.693E-03,   11.8533E-03
C:/temp/dataset/0/14_30.odb,Step-1,Increment      4: Step Time =    1.000,"PART-1-1",           400,      -6.13199,       19.8034,            0.,NA,NA,"",   401.848E-03,   368.797E-03,  -159.595E-03,   8.62712E-03
C:/temp/dataset/0/14_30.odb,Step-1,Increment      4: Step Time =    1.000,"PART-1-1",           401,      -7.29678,       18.0686,            0.,NA,NA,"",   340.559E-03,   321.029E-03,  -113.669E-03,   4.25302E-03
C:/temp/dataset/0/14_30.odb,Step-1,Increment      4: Step Time =    1.000,"PART-1-1",           402,      -11.0823,       15.8203,            0.,NA,NA,"",   262.166E-03,   262.166E-03,  -225.139E-06,   1.56278E-03
C:/temp/dataset/0/14_30.odb,Step-1,Increment      4: Step Time =    1.000,"PART-1-1",           403,      -12.3677,       14.0517,            0.,NA,NA,"",   222.259E-03,   220.209E-03,   30.1159E-03,   3.10986E-03
C:/temp/dataset/0/14_30.odb,Step-1,Increment      4: Step Time =    1.000,"PART-1-1",           404,      -11.1015,       12.7786,            0.,NA,NA,"",   190.077E-03,   190.069E-03,  -1.80366E-03,   1.29943E-03
C:/temp/dataset/0/14_30.odb,Step-1,Increment      4: Step Time =    1.000,"PART-1-1",           405,          -15.,          10.5,            0.,NA,NA,"",   168.167E-03,   151.775E-03,   72.4185E-03,   6.44503E-03
C:/temp/dataset/0/14_30.odb,Step-1,Increment      4: Step Time =    1.000,"PART-1-1",           406,      -13.6919,       9.25384,            0.,NA,NA,"",   133.159E-03,   126.080E-03,   42.8389E-03,   4.35680E-03
C:/temp/dataset/0/14_30.odb,Step-1,Increment      4: Step Time =    1.000,"PART-1-1",           407,      -12.3755,       11.0249,            0.,NA,NA,"",   157.533E-03,   155.819E-03,   23.1777E-03,   2.85051E-03
C:/temp/dataset/0/14_30.odb,Step-1,Increment      4: Step Time =    1.000,"PART-1-1",           408,      -13.6836,       12.2710,            0.,NA,NA,"",   191.337E-03,   183.384E-03,   54.5923E-03,   4.86218E-03
C:/temp/dataset/0/14_30.odb,Step-1,Increment      4: Step Time =    1.000,"PART-1-1",           409,      -7.40029,       8.84536,            0.,NA,NA,"",   137.201E-03,   118.115E-03,  -69.8061E-03,   4.20138E-03
C:/temp/dataset/0/14_30.odb,Step-1,Increment      4: Step Time =    1.000,"PART-1-1",           410,      -8.62408,       10.1694,            0.,NA,NA,"",   148.412E-03,   139.186E-03,  -51.5098E-03,   2.74563E-03
C:/temp/dataset/0/14_30.odb,Step-1,Increment      4: Step Time =    1.000,"PART-1-1",           411,      -9.86273,       8.43495,            0.,NA,NA,"",   112.113E-03,   109.101E-03,  -25.8120E-03,   1.31294E-03
C:/temp/dataset/0/14_30.odb,Step-1,Increment      4: Step Time =    1.000,"PART-1-1",           412,      -8.63893,       7.11093,            0.,NA,NA,"",   100.020E-03,   89.8522E-03,  -43.9385E-03,   2.54889E-03
C:/temp/dataset/0/14_30.odb,Step-1,Increment      4: Step Time =    1.000,"PART-1-1",           413,          -15.,           1.5,            0.,NA,NA,"",   41.9876E-03,   29.7964E-03,   29.5827E-03,   4.41284E-03
C:/temp/dataset/0/14_30.odb,Step-1,Increment      4: Step Time =    1.000,"PART-1-1",           414,      -13.7087,   214.116E-03,            0.,NA,NA,"",   22.3308E-03,   17.0629E-03,   14.4056E-03,   2.90707E-03
C:/temp/dataset/0/14_30.odb,Step-1,Increment      4: Step Time =    1.000,"PART-1-1",           415,      -12.4129,       1.94059,            0.,NA,NA,"",   30.6087E-03,   29.9982E-03,   6.08293E-03,   1.98527E-03
C:/temp/dataset/0/14_30.odb,Step-1,Increment      4: Step Time =    1.000,"PART-1-1",           416,      -13.7042,       3.22647,            0.,NA,NA,"",   49.5805E-03,   44.0779E-03,   22.7017E-03,   3.38961E-03
C:/temp/dataset/0/14_30.odb,Step-1,Increment      4: Step Time =    1.000,"PART-1-1",           417,      -9.88317,  -688.536E-03,            0.,NA,NA,"",   20.2125E-03,   8.73788E-03,  -18.2263E-03,   1.26234E-03
C:/temp/dataset/0/14_30.odb,Step-1,Increment      4: Step Time =    1.000,"PART-1-1",           418,      -8.64028,      -2.02441,            0.,NA,NA,"",   26.0721E-03,   1.24484E-03,  -26.0423E-03,   2.04729E-03
C:/temp/dataset/0/14_30.odb,Step-1,Increment      4: Step Time =    1.000,"PART-1-1",           419,      -7.40757,  -323.915E-03,            0.,NA,NA,"",   41.3765E-03,   13.2945E-03,  -39.1825E-03,   3.18716E-03
C:/temp/dataset/0/14_30.odb,Step-1,Increment      4: Step Time =    1.000,"PART-1-1",           420,      -8.65046,       1.01196,            0.,NA,NA,"",   38.2849E-03,   22.0307E-03,  -31.3110E-03,   2.20098E-03
C:/temp/dataset/0/14_30.odb,Step-1,Increment      4: Step Time =    1.000,"PART-1-1",           421,          -15.,          -7.5,            0.,NA,NA,"",   17.7789E-03,  -17.6497E-03,   2.13934E-03,   2.42006E-03
C:/temp/dataset/0/14_30.odb,Step-1,Increment      4: Step Time =    1.000,"PART-1-1",           422,      -13.7007,      -8.80606,            0.,NA,NA,"",   21.2950E-03,  -21.1011E-03,  -2.86760E-03,   1.44968E-03
C:/temp/dataset/0/14_30.odb,Step-1,Increment      4: Step Time =    1.000,"PART-1-1",           423,      -12.4029,      -7.10316,            0.,NA,NA,"",   19.2718E-03,  -18.6937E-03,  -4.68497E-03,   1.15943E-03
C:/temp/dataset/0/14_30.odb,Step-1,Increment      4: Step Time =    1.000,"PART-1-1",           424,      -13.7022,      -5.79711,            0.,NA,NA,"",   14.4972E-03,  -14.4124E-03,   1.56562E-03,   1.93092E-03
C:/temp/dataset/0/14_30.odb,Step-1,Increment      4: Step Time =    1.000,"PART-1-1",           425,      -7.34368,      -12.4907,            0.,NA,NA,"",   25.3040E-03,  -21.8329E-03,  -12.7913E-03,   1.87168E-03
C:/temp/dataset/0/14_30.odb,Step-1,Increment      4: Step Time =    1.000,"PART-1-1",           426,      -8.60430,      -11.1353,            0.,NA,NA,"",   26.2723E-03,  -22.7461E-03,  -13.1472E-03,   1.57800E-03
C:/temp/dataset/0/14_30.odb,Step-1,Increment      4: Step Time =    1.000,"PART-1-1",           427,      -9.82710,      -12.7746,            0.,NA,NA,"",   25.1803E-03,  -23.0962E-03,  -10.0305E-03,   1.24383E-03
C:/temp/dataset/0/14_30.odb,Step-1,Increment      4: Step Time =    1.000,"PART-1-1",           428,      -8.56648,      -14.1300,            0.,NA,NA,"",   23.8367E-03,  -21.6881E-03,  -9.89009E-03,   1.42428E-03
C:/temp/dataset/0/14_30.odb,Step-1,Increment      4: Step Time =    1.000,"PART-1-1",           429,  -730.622E-03,       22.2784,            0.,NA,NA,"",   619.316E-03,   447.134E-03,  -428.512E-03,   4.66539E-03
C:/temp/dataset/0/14_30.odb,Step-1,Increment      4: Step Time =    1.000,"PART-1-1",           430,         -1.25,           20.,            0.,NA,NA,"",   525.101E-03,   335.730E-03,  -403.753E-03,   5.64371E-03
C:/temp/dataset/0/14_30.odb,Step-1,Increment      4: Step Time =    1.000,"PART-1-1",           431,       11.1367,       28.7451,            0.,NA,NA,"",       1.45323,   812.787E-03,      -1.20468,   28.5170E-03
C:/temp/dataset/0/14_30.odb,Step-1,Increment      4: Step Time =    1.000,"PART-1-1",           432,       10.3125,           30.,            0.,NA,NA,"",       1.48002,   883.639E-03,      -1.18729,   27.4025E-03
C:/temp/dataset/0/14_30.odb,Step-1,Increment      4: Step Time =    1.000,"PART-1-1",           433,       10.0023,       27.5230,            0.,NA,NA,"",       1.31840,   724.959E-03,      -1.10119,   27.7812E-03
C:/temp/dataset/0/14_30.odb,Step-1,Increment      4: Step Time =    1.000,"PART-1-1",           434,       10.7751,       23.9735,            0.,NA,NA,"",       1.18558,   535.656E-03,      -1.05767,   25.4856E-03
C:/temp/dataset/0/14_30.odb,Step-1,Increment      4: Step Time =    1.000,"PART-1-1",           435,       11.7898,       22.7248,            0.,NA,NA,"",       1.18316,   484.360E-03,      -1.07947,   27.2080E-03
C:/temp/dataset/0/14_30.odb,Step-1,Increment      4: Step Time =    1.000,"PART-1-1",           436,       12.9255,       23.8368,            0.,NA,NA,"",       1.29262,   553.689E-03,      -1.16803,   30.3039E-03
C:/temp/dataset/0/14_30.odb,Step-1,Increment      4: Step Time =    1.000,"PART-1-1",           437,       2.25220,       28.9826,            0.,NA,NA,"",   984.361E-03,   785.300E-03,  -593.523E-03,   5.38677E-03
C:/temp/dataset/0/14_30.odb,Step-1,Increment      4: Step Time =    1.000,"PART-1-1",           438,       3.21116,       27.8846,            0.,NA,NA,"",   969.290E-03,   724.700E-03,  -643.687E-03,   2.24734E-03
C:/temp/dataset/0/14_30.odb,Step-1,Increment      4: Step Time =    1.000,"PART-1-1",           439,       4.70896,       28.9020,            0.,NA,NA,"",       1.07946,   788.407E-03,  -737.325E-03,   5.75667E-03
C:/temp/dataset/0/14_30.odb,Step-1,Increment      4: Step Time =    1.000,"PART-1-1",           440,          3.75,           30.,            0.,NA,NA,"",       1.09158,   850.556E-03,  -684.176E-03,   8.55696E-03
C:/temp/dataset/0/14_30.odb,Step-1,Increment      4: Step Time =    1.000,"PART-1-1",           441,      -8.10884,       24.8461,            0.,NA,NA,"",   583.261E-03,   574.764E-03,  -99.1949E-03,   3.88924E-03
C:/temp/dataset/0/14_30.odb,Step-1,Increment      4: Step Time =    1.000,"PART-1-1",           442,      -13.5971,       27.1125,            0.,NA,NA,"",   678.208E-03,   670.888E-03,   99.3717E-03,   1.63985E-03
C:/temp/dataset/0/14_30.odb,Step-1,Increment      4: Step Time =    1.000,"PART-1-1",           443,          -15.,          25.5,            0.,NA,NA,"",   626.752E-03,   607.800E-03,   152.961E-03,   2.37694E-03
C:/temp/dataset/0/14_30.odb,Step-1,Increment      4: Step Time =    1.000,"PART-1-1",           444,      -13.6479,       24.1920,            0.,NA,NA,"",   561.472E-03,   552.656E-03,   99.1065E-03,   3.38903E-03
C:/temp/dataset/0/14_30.odb,Step-1,Increment      4: Step Time =    1.000,"PART-1-1",           445,      -6.53168,       26.2506,            0.,NA,NA,"",   657.339E-03,   636.665E-03,  -163.560E-03,   3.42047E-03
C:/temp/dataset/0/14_30.odb,Step-1,Increment      4: Step Time =    1.000,"PART-1-1",           446,      -7.83289,       27.4562,            0.,NA,NA,"",   696.485E-03,   686.884E-03,  -115.246E-03,   3.64023E-03
C:/temp/dataset/0/14_30.odb,Step-1,Increment      4: Step Time =    1.000,"PART-1-1",           447,          -15.,          28.5,            0.,NA,NA,"",   743.233E-03,   727.270E-03,   153.212E-03,   341.459E-06
C:/temp/dataset/0/14_30.odb,Step-1,Increment      4: Step Time =    1.000,"PART-1-1",           448,      -12.0971,       28.6125,            0.,NA,NA,"",   731.465E-03,   730.248E-03,   42.1800E-03,   1.64359E-03
C:/temp/dataset/0/14_30.odb,Step-1,Increment      4: Step Time =    1.000,"PART-1-1",           449,         -13.5,           30.,            0.,NA,NA,"",   790.146E-03,   784.525E-03,   94.0771E-03,   338.720E-06
C:/temp/dataset/0/14_30.odb,Step-1,Increment      4: Step Time =    1.000,"PART-1-1",           450,      -6.19829,       10.5730,            0.,NA,NA,"",   180.959E-03,   150.784E-03,  -100.052E-03,   6.03322E-03
C:/temp/dataset/0/14_30.odb,Step-1,Increment      4: Step Time =    1.000,"PART-1-1",           451,      -6.20201,       7.50308,            0.,NA,NA,"",   130.055E-03,   99.6097E-03,  -83.6201E-03,   5.54312E-03
C:/temp/dataset/0/14_30.odb,Step-1,Increment      4: Step Time =    1.000,"PART-1-1",           452,           -5.,       9.23077,            0.,NA,NA,"",   172.909E-03,   130.435E-03,  -113.509E-03,   7.40946E-03
C:/temp/dataset/0/14_30.odb,Step-1,Increment      4: Step Time =    1.000,"PART-1-1",           453,      -12.4049,       4.96458,            0.,NA,NA,"",   62.8767E-03,   61.8720E-03,   11.1955E-03,   2.27659E-03
C:/temp/dataset/0/14_30.odb,Step-1,Increment      4: Step Time =    1.000,"PART-1-1",           454,      -13.7007,       6.23810,            0.,NA,NA,"",   86.2789E-03,   80.0374E-03,   32.2190E-03,   3.87418E-03
C:/temp/dataset/0/14_30.odb,Step-1,Increment      4: Step Time =    1.000,"PART-1-1",           455,          -15.,           4.5,            0.,NA,NA,"",   73.9487E-03,   60.7364E-03,   42.1841E-03,   5.07402E-03
C:/temp/dataset/0/14_30.odb,Step-1,Increment      4: Step Time =    1.000,"PART-1-1",           456,      -9.87977,       5.38582,            0.,NA,NA,"",   69.8979E-03,   66.0324E-03,  -22.9223E-03,   1.27740E-03
C:/temp/dataset/0/14_30.odb,Step-1,Increment      4: Step Time =    1.000,"PART-1-1",           457,      -8.64969,       4.05795,            0.,NA,NA,"",   63.2909E-03,   51.1777E-03,  -37.2369E-03,   2.36442E-03
C:/temp/dataset/0/14_30.odb,Step-1,Increment      4: Step Time =    1.000,"PART-1-1",           458,      -7.40885,       5.78306,            0.,NA,NA,"",   93.7781E-03,   73.3616E-03,  -58.4157E-03,   3.85685E-03
C:/temp/dataset/0/14_30.odb,Step-1,Increment      4: Step Time =    1.000,"PART-1-1",           459,      -7.41391,       2.72502,            0.,NA,NA,"",   61.8783E-03,   38.7961E-03,  -48.2056E-03,   3.51554E-03
C:/temp/dataset/0/14_30.odb,Step-1,Increment      4: Step Time =    1.000,"PART-1-1",           460,      -9.88624,       2.34489,            0.,NA,NA,"",   38.8009E-03,   32.9747E-03,  -20.4494E-03,   1.26518E-03
C:/temp/dataset/0/14_30.odb,Step-1,Increment      4: Step Time =    1.000,"PART-1-1",           461,      -12.4101,      -4.09106,            0.,NA,NA,"",   9.35635E-03,  -9.15493E-03,  -1.93095E-03,   1.41511E-03
C:/temp/dataset/0/14_30.odb,Step-1,Increment      4: Step Time =    1.000,"PART-1-1",           462,      -13.7080,      -2.79395,            0.,NA,NA,"",   7.62441E-03,  -2.06410E-03,   7.33969E-03,   2.41954E-03
C:/temp/dataset/0/14_30.odb,Step-1,Increment      4: Step Time =    1.000,"PART-1-1",           463,          -15.,          -4.5,            0.,NA,NA,"",   12.6486E-03,  -8.31791E-03,   9.52889E-03,   3.08787E-03
C:/temp/dataset/0/14_30.odb,Step-1,Increment      4: Step Time =    1.000,"PART-1-1",           464,      -9.87646,      -3.71895,            0.,NA,NA,"",   17.9161E-03,  -7.86193E-03,  -16.0990E-03,   1.26075E-03
C:/temp/dataset/0/14_30.odb,Step-1,Increment      4: Step Time =    1.000,"PART-1-1",           465,      -8.63520,      -5.06687,            0.,NA,NA,"",   24.5953E-03,  -12.4290E-03,  -21.2238E-03,   1.88898E-03
C:/temp/dataset/0/14_30.odb,Step-1,Increment      4: Step Time =    1.000,"PART-1-1",           466,      -7.39901,      -3.37233,            0.,NA,NA,"",   31.4517E-03,  -4.39193E-03,  -31.1435E-03,   2.85841E-03
C:/temp/dataset/0/14_30.odb,Step-1,Increment      4: Step Time =    1.000,"PART-1-1",           467,      -7.39417,      -6.42670,            0.,NA,NA,"",   28.5462E-03,  -15.4135E-03,  -24.0273E-03,   2.52499E-03
C:/temp/dataset/0/14_30.odb,Step-1,Increment      4: Step Time =    1.000,"PART-1-1",           468,      -9.87187,      -6.75385,            0.,NA,NA,"",   22.7820E-03,  -17.9711E-03,  -14.0021E-03,   1.25577E-03
C:/temp/dataset/0/14_30.odb,Step-1,Increment      4: Step Time =    1.000,"PART-1-1",           469,      -8.63084,      -8.11369,            0.,NA,NA,"",   26.2326E-03,  -20.0645E-03,  -16.8986E-03,   1.72982E-03
C:/temp/dataset/0/14_30.odb,Step-1,Increment      4: Step Time =    1.000,"PART-1-1",           470,      -12.3844,      -13.1215,            0.,NA,NA,"",   24.4165E-03,  -23.2225E-03,  -7.54198E-03,   829.527E-06
C:/temp/dataset/0/14_30.odb,Step-1,Increment      4: Step Time =    1.000,"PART-1-1",           471,      -13.6984,      -11.8123,            0.,NA,NA,"",   23.9524E-03,  -23.2012E-03,  -5.95171E-03,   983.284E-06
C:/temp/dataset/0/14_30.odb,Step-1,Increment      4: Step Time =    1.000,"PART-1-1",           472,          -15.,         -13.5,            0.,NA,NA,"",   23.4454E-03,  -22.3078E-03,  -7.21447E-03,   1.05822E-03
C:/temp/dataset/0/14_30.odb,Step-1,Increment      4: Step Time =    1.000,"PART-1-1",           473,      -7.37693,      -9.46970,            0.,NA,NA,"",   27.4826E-03,  -20.8348E-03,  -17.9222E-03,   2.19739E-03
C:/temp/dataset/0/14_30.odb,Step-1,Increment      4: Step Time =    1.000,"PART-1-1",           474,      -9.85821,      -9.77933,            0.,NA,NA,"",   25.6347E-03,  -22.6639E-03,  -11.9784E-03,   1.24988E-03
C:/temp/dataset/0/14_30.odb,Step-1,Increment      4: Step Time =    1.000,"PART-1-1",           475,      -8.48236,      -17.0363,            0.,NA,NA,"",   19.4112E-03,  -18.0449E-03,  -7.15369E-03,   1.34481E-03
C:/temp/dataset/0/14_30.odb,Step-1,Increment      4: Step Time =    1.000,"PART-1-1",           476,      -7.28434,      -15.4580,            0.,NA,NA,"",   21.3984E-03,  -19.5800E-03,  -8.63218E-03,   1.56027E-03
C:/temp/dataset/0/14_30.odb,Step-1,Increment      4: Step Time =    1.000,"PART-1-1",           477,      -9.76451,      -15.7083,            0.,NA,NA,"",   22.0452E-03,  -20.4902E-03,  -8.13259E-03,   1.25955E-03
C:/temp/dataset/0/14_30.odb,Step-1,Increment      4: Step Time =    1.000,"PART-1-1",           478,      -8.29054,      -19.6175,            0.,NA,NA,"",   14.2470E-03,  -13.4593E-03,  -4.67168E-03,   1.41431E-03
C:/temp/dataset/0/14_30.odb,Step-1,Increment      4: Step Time =    1.000,"PART-1-1",           479,      -7.20240,      -18.2338,            0.,NA,NA,"",   16.1332E-03,  -15.1591E-03,  -5.52109E-03,   1.43214E-03
C:/temp/dataset/0/14_30.odb,Step-1,Increment      4: Step Time =    1.000,"PART-1-1",           480,      -9.57051,      -18.4200,            0.,NA,NA,"",   17.4200E-03,  -16.2805E-03,  -6.19673E-03,   1.28002E-03
C:/temp/dataset/0/14_30.odb,Step-1,Increment      4: Step Time =    1.000,"PART-1-1",           481,      -11.5327,      -24.2644,            0.,NA,NA,"",   9.03848E-03,  -8.44091E-03,  -3.23189E-03,   786.286E-06
C:/temp/dataset/0/14_30.odb,Step-1,Increment      4: Step Time =    1.000,"PART-1-1",           482,      -10.1789,      -23.4859,            0.,NA,NA,"",   9.45914E-03,  -9.06826E-03,  -2.69112E-03,   793.742E-06
C:/temp/dataset/0/14_30.odb,Step-1,Increment      4: Step Time =    1.000,"PART-1-1",           483,      -10.8627,      -21.7859,            0.,NA,NA,"",   12.4157E-03,  -11.6387E-03,  -4.32323E-03,   863.836E-06
C:/temp/dataset/0/14_30.odb,Step-1,Increment      4: Step Time =    1.000,"PART-1-1",           484,      -12.2165,      -22.5644,            0.,NA,NA,"",   12.0461E-03,  -11.0240E-03,  -4.85598E-03,   805.324E-06
C:/temp/dataset/0/14_30.odb,Step-1,Increment      4: Step Time =    1.000,"PART-1-1",           485,      -6.15301,      -21.8453,            0.,NA,NA,"",   8.52678E-03,  -8.51283E-03,  -487.530E-06,   1.19570E-03
C:/temp/dataset/0/14_30.odb,Step-1,Increment      4: Step Time =    1.000,"PART-1-1",           486,      -7.48433,      -22.7723,            0.,NA,NA,"",   8.91041E-03,  -8.83818E-03,  -1.13228E-03,   810.113E-06
C:/temp/dataset/0/14_30.odb,Step-1,Increment      4: Step Time =    1.000,"PART-1-1",           487,      -6.61766,      -24.1583,            0.,NA,NA,"",   8.00330E-03,  -8.00234E-03,   124.412E-06,   409.032E-06
C:/temp/dataset/0/14_30.odb,Step-1,Increment      4: Step Time =    1.000,"PART-1-1",           488,      -9.30746,      -21.9937,            0.,NA,NA,"",   11.0524E-03,  -10.6001E-03,  -3.12970E-03,   1.01613E-03
C:/temp/dataset/0/14_30.odb,Step-1,Increment      4: Step Time =    1.000,"PART-1-1",           489,      -9.12330,      -20.5212,            0.,NA,NA,"",   13.2660E-03,  -12.5622E-03,  -4.26366E-03,   1.20840E-03
C:/temp/dataset/0/14_30.odb,Step-1,Increment      4: Step Time =    1.000,"PART-1-1",           490,      -10.6786,      -20.3134,            0.,NA,NA,"",   14.7100E-03,  -13.7461E-03,  -5.23727E-03,   1.05841E-03
C:/temp/dataset/0/14_30.odb,Step-1,Increment      4: Step Time =    1.000,"PART-1-1",           491,         -13.5,          -30.,            0.,NA,NA,"",            0.,   28.9634E-42,  -429.415E-42,   1.68390E-03
C:/temp/dataset/0/14_30.odb,Step-1,Increment      4: Step Time =    1.000,"PART-1-1",           492,      -12.0973,      -28.5120,            0.,NA,NA,"",   2.20723E-03,  -2.01768E-03,  -894.902E-06,   1.08008E-03
C:/temp/dataset/0/14_30.odb,Step-1,Increment      4: Step Time =    1.000,"PART-1-1",           493,      -13.5973,      -27.0120,            0.,NA,NA,"",   5.62376E-03,  -4.84061E-03,  -2.86272E-03,   1.07792E-03
C:/temp/dataset/0/14_30.odb,Step-1,Increment      4: Step Time =    1.000,"PART-1-1",           494,          -15.,         -28.5,            0.,NA,NA,"",   4.05782E-03,  -3.13251E-03,  -2.57939E-03,   1.74589E-03
C:/temp/dataset/0/14_30.odb,Step-1,Increment      4: Step Time =    1.000,"PART-1-1",           495,      -2.59553,      -21.0976,            0.,NA,NA,"",   4.32204E-03,  -4.32153E-03,  -66.6802E-06,   1.87076E-03
C:/temp/dataset/0/14_30.odb,Step-1,Increment      4: Step Time =    1.000,"PART-1-1",           496,      -1.51596,      -22.2324,            0.,NA,NA,"",   6.67334E-03,  -6.47636E-03,  -1.60943E-03,   650.684E-06
C:/temp/dataset/0/14_30.odb,Step-1,Increment      4: Step Time =    1.000,"PART-1-1",           497,  -170.430E-03,      -21.1349,            0.,NA,NA,"",   7.10112E-03,   204.693E-06,  -7.09817E-03,   2.29721E-03
C:/temp/dataset/0/14_30.odb,Step-1,Increment      4: Step Time =    1.000,"PART-1-1",           498,         -1.25,          -20.,            0.,NA,NA,"",   5.01072E-03,   2.11556E-03,  -4.54221E-03,   3.99073E-03
C:/temp/dataset/0/14_30.odb,Step-1,Increment      4: Step Time =    1.000,"PART-1-1",           499,       2.92795,      -28.2085,            0.,NA,NA,"",   14.5204E-03,  -11.3382E-03,  -9.07122E-03,   7.83624E-03
C:/temp/dataset/0/14_30.odb,Step-1,Increment      4: Step Time =    1.000,"PART-1-1",           500,  -103.307E-03,      -28.5907,            0.,NA,NA,"",   8.75973E-03,  -8.30139E-03,  -2.79641E-03,   4.51952E-03
C:/temp/dataset/0/14_30.odb,Step-1,Increment      4: Step Time =    1.000,"PART-1-1",           501,           1.5,          -30.,            0.,NA,NA,"",            0.,  -90.7215E-42,  -27.9965E-42,   6.76550E-03
C:/temp/dataset/0/14_30.odb,Step-1,Increment      4: Step Time =    1.000,"PART-1-1",           502,       2.19497,      -21.2732,            0.,NA,NA,"",   28.6203E-03,   1.33410E-03,  -28.5892E-03,   2.21106E-03
C:/temp/dataset/0/14_30.odb,Step-1,Increment      4: Step Time =    1.000,"PART-1-1",           503,          1.25,          -20.,            0.,NA,NA,"",   23.3102E-03,   13.7051E-03,  -18.8557E-03,   4.70168E-03
C:/temp/dataset/0/14_30.odb,Step-1,Increment      4: Step Time =    1.000,"PART-1-1",           504,       4.38160,      -21.6436,            0.,NA,NA,"",   72.7602E-03,  -1.65940E-03,  -72.7413E-03,   16.9025E-03
C:/temp/dataset/0/14_30.odb,Step-1,Increment      4: Step Time =    1.000,"PART-1-1",           505,          3.75,          -20.,            0.,NA,NA,"",   64.7544E-03,   23.4401E-03,  -60.3630E-03,   8.97291E-03
C:/temp/dataset/0/14_30.odb,Step-1,Increment      4: Step Time =    1.000,"PART-1-1",           506,       12.4146,      -26.3616,            0.,NA,NA,"",   67.6443E-03,   34.4942E-03,  -58.1885E-03,   19.9673E-03
C:/temp/dataset/0/14_30.odb,Step-1,Increment      4: Step Time =    1.000,"PART-1-1",           507,       11.3720,      -25.0651,            0.,NA,NA,"",   84.9215E-03,   35.6286E-03,  -77.0861E-03,   19.9092E-03
C:/temp/dataset/0/14_30.odb,Step-1,Increment      4: Step Time =    1.000,"PART-1-1",           508,       9.80011,      -26.1459,            0.,NA,NA,"",   55.8887E-03,   16.0676E-03,  -53.5292E-03,   18.4201E-03
C:/temp/dataset/0/14_30.odb,Step-1,Increment      4: Step Time =    1.000,"PART-1-1",           509,       10.8427,      -27.4423,            0.,NA,NA,"",   38.2264E-03,   15.1223E-03,  -35.1080E-03,   18.4088E-03
C:/temp/dataset/0/14_30.odb,Step-1,Increment      4: Step Time =    1.000,"PART-1-1",           510,       10.6574,      -21.6616,            0.,NA,NA,"",   144.270E-03,   51.6706E-03,  -134.700E-03,   19.6258E-03
C:/temp/dataset/0/14_30.odb,Step-1,Increment      4: Step Time =    1.000,"PART-1-1",           511,       9.56375,      -20.8051,            0.,NA,NA,"",   153.571E-03,   47.2092E-03,  -146.134E-03,   19.4175E-03
C:/temp/dataset/0/14_30.odb,Step-1,Increment      4: Step Time =    1.000,"PART-1-1",           512,       9.91066,      -22.7482,            0.,NA,NA,"",   119.144E-03,   38.4608E-03,  -112.765E-03,   20.0681E-03
C:/temp/dataset/0/14_30.odb,Step-1,Increment      4: Step Time =    1.000,"PART-1-1",           513,       13.7822,      -25.0807,            0.,NA,NA,"",   105.094E-03,   57.0185E-03,  -88.2814E-03,   19.3106E-03
C:/temp/dataset/0/14_30.odb,Step-1,Increment      4: Step Time =    1.000,"PART-1-1",           514,       13.6324,      -27.5308,            0.,NA,NA,"",   53.5202E-03,   32.8205E-03,  -42.2756E-03,   20.6304E-03
C:/temp/dataset/0/14_30.odb,Step-1,Increment      4: Step Time =    1.000,"PART-1-1",           515,           15.,        -26.25,            0.,NA,NA,"",   97.2295E-03,   58.6782E-03,  -77.5271E-03,   19.6506E-03
C:/temp/dataset/0/14_30.odb,Step-1,Increment      4: Step Time =    1.000,"PART-1-1",           516,          13.5,          -30.,            0.,NA,NA,"",            0.,   30.2078E-42,   455.824E-42,   22.8413E-03
C:/temp/dataset/0/14_30.odb,Step-1,Increment      4: Step Time =    1.000,"PART-1-1",           517,           15.,        -28.75,            0.,NA,NA,"",   41.1527E-03,   29.5758E-03,  -28.6150E-03,   24.7841E-03
C:/temp/dataset/0/14_30.odb,Step-1,Increment      4: Step Time =    1.000,"PART-1-1",           518,       12.1324,      -28.7808,            0.,NA,NA,"",   19.3544E-03,   9.78707E-03,  -16.6974E-03,   17.5495E-03
C:/temp/dataset/0/14_30.odb,Step-1,Increment      4: Step Time =    1.000,"PART-1-1",           519,       10.4418,      -23.8774,            0.,NA,NA,"",   101.064E-03,   35.6446E-03,  -94.5695E-03,   19.7902E-03
C:/temp/dataset/0/14_30.odb,Step-1,Increment      4: Step Time =    1.000,"PART-1-1",           520,       12.6627,      -23.9582,            0.,NA,NA,"",   115.562E-03,   54.8041E-03,  -101.740E-03,   19.6556E-03
C:/temp/dataset/0/14_30.odb,Step-1,Increment      4: Step Time =    1.000,"PART-1-1",           521,       11.7324,      -22.7705,            0.,NA,NA,"",   130.675E-03,   54.3319E-03,  -118.845E-03,   19.5137E-03
C:/temp/dataset/0/14_30.odb,Step-1,Increment      4: Step Time =    1.000,"PART-1-1",           522,       13.8804,      -22.6275,            0.,NA,NA,"",   149.375E-03,   73.5358E-03,  -130.020E-03,   18.3080E-03
C:/temp/dataset/0/14_30.odb,Step-1,Increment      4: Step Time =    1.000,"PART-1-1",           523,           15.,        -23.75,            0.,NA,NA,"",   140.203E-03,   75.9607E-03,  -117.842E-03,   17.8835E-03
C:/temp/dataset/0/14_30.odb,Step-1,Increment      4: Step Time =    1.000,"PART-1-1",           524,       10.4567,      -19.3679,            0.,NA,NA,"",   183.945E-03,   60.0337E-03,  -173.873E-03,   19.3938E-03
C:/temp/dataset/0/14_30.odb,Step-1,Increment      4: Step Time =    1.000,"PART-1-1",           525,       11.6911,      -20.4036,            0.,NA,NA,"",   172.883E-03,   66.5563E-03,  -159.558E-03,   18.9313E-03
C:/temp/dataset/0/14_30.odb,Step-1,Increment      4: Step Time =    1.000,"PART-1-1",           526,       13.7764,      -15.1383,            0.,NA,NA,"",   264.680E-03,   86.6104E-03,  -250.109E-03,   18.4702E-03
C:/temp/dataset/0/14_30.odb,Step-1,Increment      4: Step Time =    1.000,"PART-1-1",           527,           15.,        -16.25,            0.,NA,NA,"",   251.184E-03,   98.5394E-03,  -231.048E-03,   16.9222E-03
C:/temp/dataset/0/14_30.odb,Step-1,Increment      4: Step Time =    1.000,"PART-1-1",           528,       13.9082,      -7.52913,            0.,NA,NA,"",   392.548E-03,   51.8587E-03,  -389.108E-03,   22.4625E-03
C:/temp/dataset/0/14_30.odb,Step-1,Increment      4: Step Time =    1.000,"PART-1-1",           529,       12.6962,      -8.81215,            0.,NA,NA,"",   370.206E-03,   46.7999E-03,  -367.236E-03,   21.8310E-03
C:/temp/dataset/0/14_30.odb,Step-1,Increment      4: Step Time =    1.000,"PART-1-1",           530,           15.,         -8.75,            0.,NA,NA,"",   366.617E-03,   69.2785E-03,  -360.012E-03,   21.8154E-03
C:/temp/dataset/0/14_30.odb,Step-1,Increment      4: Step Time =    1.000,"PART-1-1",           531,       12.9315,      -6.39763,            0.,NA,NA,"",   416.340E-03,   35.8565E-03,  -414.793E-03,   22.7806E-03
C:/temp/dataset/0/14_30.odb,Step-1,Increment      4: Step Time =    1.000,"PART-1-1",           532,           15.,         -6.25,            0.,NA,NA,"",   414.962E-03,   56.9405E-03,  -411.037E-03,   23.6016E-03
C:/temp/dataset/0/14_30.odb,Step-1,Increment      4: Step Time =    1.000,"PART-1-1",           533,       13.7496,  -319.059E-03,            0.,NA,NA,"",   547.400E-03,   25.5011E-03,  -546.806E-03,   26.1272E-03
C:/temp/dataset/0/14_30.odb,Step-1,Increment      4: Step Time =    1.000,"PART-1-1",           534,       12.6614,      -1.81770,            0.,NA,NA,"",   511.827E-03,   15.0475E-03,  -511.605E-03,   24.2475E-03
C:/temp/dataset/0/14_30.odb,Step-1,Increment      4: Step Time =    1.000,"PART-1-1",           535,           15.,         -1.25,            0.,NA,NA,"",   526.511E-03,   41.4063E-03,  -524.881E-03,   26.9889E-03
C:/temp/dataset/0/14_30.odb,Step-1,Increment      4: Step Time =    1.000,"PART-1-1",           536,       12.4054,   643.186E-03,            0.,NA,NA,"",   565.146E-03,   9.93098E-03,  -565.059E-03,   24.7441E-03
C:/temp/dataset/0/14_30.odb,Step-1,Increment      4: Step Time =    1.000,"PART-1-1",           537,           15.,          1.25,            0.,NA,NA,"",   588.910E-03,   42.1069E-03,  -587.403E-03,   28.5804E-03
C:/temp/dataset/0/14_30.odb,Step-1,Increment      4: Step Time =    1.000,"PART-1-1",           538,           15.,          6.25,            0.,NA,NA,"",   726.027E-03,   69.4211E-03,  -722.701E-03,   31.4530E-03
C:/temp/dataset/0/14_30.odb,Step-1,Increment      4: Step Time =    1.000,"PART-1-1",           539,       10.9661,       10.0010,            0.,NA,NA,"",   757.824E-03,   67.2641E-03,  -754.833E-03,   23.7672E-03
C:/temp/dataset/0/14_30.odb,Step-1,Increment      4: Step Time =    1.000,"PART-1-1",           540,       13.7311,       15.1467,            0.,NA,NA,"",   977.456E-03,   217.106E-03,  -953.040E-03,   31.5176E-03
C:/temp/dataset/0/14_30.odb,Step-1,Increment      4: Step Time =    1.000,"PART-1-1",           541,       13.6638,       12.5861,            0.,NA,NA,"",   891.550E-03,   150.521E-03,  -878.752E-03,   30.7673E-03
C:/temp/dataset/0/14_30.odb,Step-1,Increment      4: Step Time =    1.000,"PART-1-1",           542,           15.,         13.75,            0.,NA,NA,"",   968.021E-03,   198.023E-03,  -947.550E-03,   34.6194E-03
C:/temp/dataset/0/14_30.odb,Step-1,Increment      4: Step Time =    1.000,"PART-1-1",           543,       10.0887,       16.9483,            0.,NA,NA,"",   904.771E-03,   231.017E-03,  -874.781E-03,   21.7293E-03
C:/temp/dataset/0/14_30.odb,Step-1,Increment      4: Step Time =    1.000,"PART-1-1",           544,       12.5455,       16.5489,            0.,NA,NA,"",   983.383E-03,   244.302E-03,  -952.553E-03,   28.4189E-03
C:/temp/dataset/0/14_30.odb,Step-1,Increment      4: Step Time =    1.000,"PART-1-1",           545,       13.9423,       22.5670,            0.,NA,NA,"",       1.28534,   503.857E-03,      -1.18247,   32.9110E-03
C:/temp/dataset/0/14_30.odb,Step-1,Increment      4: Step Time =    1.000,"PART-1-1",           546,       12.8310,       21.4264,            0.,NA,NA,"",       1.17901,   436.098E-03,      -1.09540,   29.7464E-03
C:/temp/dataset/0/14_30.odb,Step-1,Increment      4: Step Time =    1.000,"PART-1-1",           547,           15.,         21.25,            0.,NA,NA,"",       1.27660,   458.489E-03,      -1.19142,   35.8847E-03
C:/temp/dataset/0/14_30.odb,Step-1,Increment      4: Step Time =    1.000,"PART-1-1",           548,       13.0804,       28.7387,            0.,NA,NA,"",       1.55940,   833.229E-03,      -1.31812,   29.6702E-03
C:/temp/dataset/0/14_30.odb,Step-1,Increment      4: Step Time =    1.000,"PART-1-1",           549,       12.1875,           30.,            0.,NA,NA,"",       1.58047,   897.345E-03,      -1.30102,   28.2378E-03
C:/temp/dataset/0/14_30.odb,Step-1,Increment      4: Step Time =    1.000,"PART-1-1",           550,           15.,         28.75,            0.,NA,NA,"",       1.66794,   856.415E-03,      -1.43129,   30.3073E-03
C:/temp/dataset/0/14_30.odb,Step-1,Increment      4: Step Time =    1.000,"PART-1-1",           551,       14.0625,           30.,            0.,NA,NA,"",       1.68298,   917.241E-03,      -1.41106,   29.2520E-03
C:/temp/dataset/0/14_30.odb,Step-1,Increment      4: Step Time =    1.000,"PART-1-1",           552,       8.83353,       26.4105,            0.,NA,NA,"",       1.19016,   648.088E-03,  -998.226E-03,   22.8867E-03
C:/temp/dataset/0/14_30.odb,Step-1,Increment      4: Step Time =    1.000,"PART-1-1",           553,       9.77062,       25.1982,            0.,NA,NA,"",       1.18672,   589.930E-03,      -1.02971,   23.2163E-03
C:/temp/dataset/0/14_30.odb,Step-1,Increment      4: Step Time =    1.000,"PART-1-1",           554,       5.62710,       27.7270,            0.,NA,NA,"",       1.06733,   714.280E-03,  -793.093E-03,   6.01626E-03
C:/temp/dataset/0/14_30.odb,Step-1,Increment      4: Step Time =    1.000,"PART-1-1",           555,          6.25,           30.,            0.,NA,NA,"",       1.21574,   871.327E-03,  -847.830E-03,   10.3029E-03
C:/temp/dataset/0/14_30.odb,Step-1,Increment      4: Step Time =    1.000,"PART-1-1",           556,   375.256E-03,       24.5574,            0.,NA,NA,"",   736.613E-03,   553.709E-03,  -485.804E-03,   2.98850E-03
C:/temp/dataset/0/14_30.odb,Step-1,Increment      4: Step Time =    1.000,"PART-1-1",           557,   860.838E-03,       23.0169,            0.,NA,NA,"",   698.880E-03,   475.917E-03,  -511.797E-03,   4.33503E-03
C:/temp/dataset/0/14_30.odb,Step-1,Increment      4: Step Time =    1.000,"PART-1-1",           558,       10.5910,       21.6677,            0.,NA,NA,"",       1.08094,   422.084E-03,  -995.126E-03,   23.7004E-03
C:/temp/dataset/0/14_30.odb,Step-1,Increment      4: Step Time =    1.000,"PART-1-1",           559,       9.14786,      -24.5495,            0.,NA,NA,"",   80.5857E-03,   20.1441E-03,  -78.0274E-03,   19.2897E-03
C:/temp/dataset/0/14_30.odb,Step-1,Increment      4: Step Time =    1.000,"PART-1-1",           560,           15.,        -21.25,            0.,NA,NA,"",   180.937E-03,   89.7028E-03,  -157.136E-03,   17.0115E-03
C:/temp/dataset/0/14_30.odb,Step-1,Increment      4: Step Time =    1.000,"PART-1-1",           561,       12.7662,      -21.5126,            0.,NA,NA,"",   160.399E-03,   70.3766E-03,  -144.136E-03,   18.7924E-03
C:/temp/dataset/0/14_30.odb,Step-1,Increment      4: Step Time =    1.000,"PART-1-1",           562,           15.,        -13.75,            0.,NA,NA,"",   285.591E-03,   92.4773E-03,  -270.204E-03,   18.2643E-03
C:/temp/dataset/0/14_30.odb,Step-1,Increment      4: Step Time =    1.000,"PART-1-1",           563,       12.5272,      -13.9788,            0.,NA,NA,"",   280.588E-03,   72.0016E-03,  -271.192E-03,   19.9682E-03
C:/temp/dataset/0/14_30.odb,Step-1,Increment      4: Step Time =    1.000,"PART-1-1",           564,           15.,         11.25,            0.,NA,NA,"",   881.521E-03,   141.718E-03,  -870.055E-03,   33.7438E-03
C:/temp/dataset/0/14_30.odb,Step-1,Increment      4: Step Time =    1.000,"PART-1-1",           565,       12.2906,       11.3331,            0.,NA,NA,"",   820.506E-03,   106.395E-03,  -813.578E-03,   27.0210E-03
C:/temp/dataset/0/14_30.odb,Step-1,Increment      4: Step Time =    1.000,"PART-1-1",           566,       7.23650,       5.28124,            0.,NA,NA,"",   613.951E-03,  -22.0467E-03,  -613.555E-03,   16.4489E-03
C:/temp/dataset/0/14_30.odb,Step-1,Increment      4: Step Time =    1.000,"PART-1-1",           567,       8.44697,       3.91887,            0.,NA,NA,"",   603.950E-03,  -21.0458E-03,  -603.583E-03,   18.9863E-03
C:/temp/dataset/0/14_30.odb,Step-1,Increment      4: Step Time =    1.000,"PART-1-1",           568,       9.72373,       11.4508,            0.,NA,NA,"",   761.573E-03,   81.5339E-03,  -757.196E-03,   20.8885E-03
C:/temp/dataset/0/14_30.odb,Step-1,Increment      4: Step Time =    1.000,"PART-1-1",           569,           15.,         16.25,            0.,NA,NA,"",       1.06184,   269.121E-03,      -1.02717,   35.2958E-03
C:/temp/dataset/0/14_30.odb,Step-1,Increment      4: Step Time =    1.000,"PART-1-1",           570,       6.21850,       16.4100,            0.,NA,NA,"",   754.715E-03,   187.051E-03,  -731.169E-03,   11.0264E-03
C:/temp/dataset/0/14_30.odb,Step-1,Increment      4: Step Time =    1.000,"PART-1-1",           571,       7.58992,       17.5073,            0.,NA,NA,"",   826.122E-03,   231.399E-03,  -793.053E-03,   14.6580E-03
C:/temp/dataset/0/14_30.odb,Step-1,Increment      4: Step Time =    1.000,"PART-1-1",           572,       6.37141,       19.4306,            0.,NA,NA,"",   824.531E-03,   298.563E-03,  -768.578E-03,   10.6797E-03
C:/temp/dataset/0/14_30.odb,Step-1,Increment      4: Step Time =    1.000,"PART-1-1",           573,            5.,       18.3333,            0.,NA,NA,"",   747.823E-03,   250.742E-03,  -704.534E-03,   7.50957E-03
C:/temp/dataset/0/14_30.odb,Step-1,Increment      4: Step Time =    1.000,"PART-1-1",           574,           15.,         23.75,            0.,NA,NA,"",       1.39953,   577.660E-03,      -1.27475,   35.2715E-03
C:/temp/dataset/0/14_30.odb,Step-1,Increment      4: Step Time =    1.000,"PART-1-1",           575,         -3.75,          -20.,            0.,NA,NA,"",   5.55393E-03,  -5.55266E-03,  -119.019E-06,   2.94976E-03
C:/temp/dataset/0/14_30.odb,Step-1,Increment      4: Step Time =    1.000,"PART-1-1",           576,      -5.05545,      -21.0122,            0.,NA,NA,"",   7.60602E-03,  -7.60485E-03,   133.335E-06,   1.58518E-03
C:/temp/dataset/0/14_30.odb,Step-1,Increment      4: Step Time =    1.000,"PART-1-1",           577,       7.51719,       25.3425,            0.,NA,NA,"",       1.06797,   582.123E-03,  -895.377E-03,   14.3968E-03
C:/temp/dataset/0/14_30.odb,Step-1,Increment      4: Step Time =    1.000,"PART-1-1",           578,       6.22510,       24.4051,            0.,NA,NA,"",   966.193E-03,   530.125E-03,  -807.772E-03,   8.65447E-03
C:/temp/dataset/0/14_30.odb,Step-1,Increment      4: Step Time =    1.000,"PART-1-1",           579,       7.27278,       23.2327,            0.,NA,NA,"",   976.334E-03,   473.311E-03,  -853.935E-03,   12.5066E-03
C:/temp/dataset/0/14_30.odb,Step-1,Increment      4: Step Time =    1.000,"PART-1-1",           580,       8.56487,       24.1701,            0.,NA,NA,"",       1.07679,   526.550E-03,  -939.270E-03,   18.3328E-03
C:/temp/dataset/0/14_30.odb,Step-1,Increment      4: Step Time =    1.000,"PART-1-1",           581,            5.,      -8.33333,            0.,NA,NA,"",   394.793E-03,  -31.0401E-03,  -393.571E-03,   20.8432E-03
C:/temp/dataset/0/14_30.odb,Step-1,Increment      4: Step Time =    1.000,"PART-1-1",           582,       7.86568,      -7.92961,            0.,NA,NA,"",   391.560E-03,  -5.83048E-03,  -391.516E-03,   21.3457E-03
C:/temp/dataset/0/14_30.odb,Step-1,Increment      4: Step Time =    1.000,"PART-1-1",           583,       6.55300,      -6.36051,            0.,NA,NA,"",   424.508E-03,  -26.6984E-03,  -423.667E-03,   20.2182E-03
C:/temp/dataset/0/14_30.odb,Step-1,Increment      4: Step Time =    1.000,"PART-1-1",           584,       2.48006,       24.7002,            0.,NA,NA,"",   815.292E-03,   553.734E-03,  -598.397E-03,   3.27538E-03
C:/temp/dataset/0/14_30.odb,Step-1,Increment      4: Step Time =    1.000,"PART-1-1",           585,       1.90437,       23.5201,            0.,NA,NA,"",   753.708E-03,   496.362E-03,  -567.186E-03,   4.13890E-03
C:/temp/dataset/0/14_30.odb,Step-1,Increment      4: Step Time =    1.000,"PART-1-1",           586,       3.20717,       23.2686,            0.,NA,NA,"",   796.643E-03,   478.318E-03,  -637.065E-03,   3.78581E-03
C:/temp/dataset/0/14_30.odb,Step-1,Increment      4: Step Time =    1.000,"PART-1-1",           587,       3.78286,       24.4486,            0.,NA,NA,"",   858.044E-03,   536.233E-03,  -669.846E-03,   3.30784E-03
C:/temp/dataset/0/14_30.odb,Step-1,Increment      4: Step Time =    1.000,"PART-1-1",           588,   574.843E-03,       25.7278,            0.,NA,NA,"",   788.011E-03,   611.751E-03,  -496.711E-03,   1.56512E-03
C:/temp/dataset/0/14_30.odb,Step-1,Increment      4: Step Time =    1.000,"PART-1-1",           589,       1.89275,       27.1317,            0.,NA,NA,"",   888.914E-03,   683.172E-03,  -568.721E-03,   1.01592E-03
C:/temp/dataset/0/14_30.odb,Step-1,Increment      4: Step Time =    1.000,"PART-1-1",           590,   743.770E-03,       27.8321,            0.,NA,NA,"",   881.687E-03,   720.050E-03,  -508.822E-03,   2.72872E-03
C:/temp/dataset/0/14_30.odb,Step-1,Increment      4: Step Time =    1.000,"PART-1-1",           591,  -574.133E-03,       26.4282,            0.,NA,NA,"",   782.360E-03,   648.298E-03,  -437.947E-03,   1.39672E-03
C:/temp/dataset/0/14_30.odb,Step-1,Increment      4: Step Time =    1.000,"PART-1-1",           592,          1.25,           30.,            0.,NA,NA,"",   997.472E-03,   836.459E-03,  -543.404E-03,   7.46073E-03
C:/temp/dataset/0/14_30.odb,Step-1,Increment      4: Step Time =    1.000,"PART-1-1",           593,  -258.432E-03,       28.8495,            0.,NA,NA,"",   897.264E-03,   770.378E-03,  -459.999E-03,   4.91395E-03
C:/temp/dataset/0/14_30.odb,Step-1,Increment      4: Step Time =    1.000,"PART-1-1",           594,       3.99806,       26.6235,            0.,NA,NA,"",   946.893E-03,   652.342E-03,  -686.335E-03,   1.90245E-03
C:/temp/dataset/0/14_30.odb,Step-1,Increment      4: Step Time =    1.000,"PART-1-1",           595,       4.96332,       25.4314,            0.,NA,NA,"",   943.302E-03,   584.883E-03,  -740.088E-03,   5.43488E-03
C:/temp/dataset/0/14_30.odb,Step-1,Increment      4: Step Time =    1.000,"PART-1-1",           596,       6.59236,       26.5350,            0.,NA,NA,"",       1.06642,   644.692E-03,  -849.482E-03,   10.5804E-03
C:/temp/dataset/0/14_30.odb,Step-1,Increment      4: Step Time =    1.000,"PART-1-1",           597,          -1.5,           30.,            0.,NA,NA,"",   915.535E-03,   822.462E-03,  -402.193E-03,   6.96023E-03
C:/temp/dataset/0/14_30.odb,Step-1,Increment      4: Step Time =    1.000,"PART-1-1",           598,      -3.21021,       28.8021,            0.,NA,NA,"",   821.250E-03,   758.200E-03,  -315.569E-03,   5.19884E-03
C:/temp/dataset/0/14_30.odb,Step-1,Increment      4: Step Time =    1.000,"PART-1-1",           599,      -1.96864,       27.6516,            0.,NA,NA,"",   798.624E-03,   707.167E-03,  -371.100E-03,   3.12708E-03
C:/temp/dataset/0/14_30.odb,Step-1,Increment      4: Step Time =    1.000,"PART-1-1",           600,       2.23679,       22.3955,            0.,NA,NA,"",   731.746E-03,   439.148E-03,  -585.321E-03,   4.27025E-03
C:/temp/dataset/0/14_30.odb,Step-1,Increment      4: Step Time =    1.000,"PART-1-1",           601,       6.10470,      -23.0953,            0.,NA,NA,"",   81.8158E-03,   2.85820E-03,  -81.7659E-03,   18.4688E-03
C:/temp/dataset/0/14_30.odb,Step-1,Increment      4: Step Time =    1.000,"PART-1-1",           602,       5.87020,      -25.1929,            0.,NA,NA,"",   49.5975E-03,  -6.82503E-03,  -49.1256E-03,   14.8575E-03
C:/temp/dataset/0/14_30.odb,Step-1,Increment      4: Step Time =    1.000,"PART-1-1",           603,       7.19944,      -25.3013,            0.,NA,NA,"",   56.5663E-03,   1.27722E-03,  -56.5519E-03,   16.3870E-03
C:/temp/dataset/0/14_30.odb,Step-1,Increment      4: Step Time =    1.000,"PART-1-1",           604,       10.0350,      -14.2359,            0.,NA,NA,"",   271.257E-03,   49.9923E-03,  -266.611E-03,   21.5331E-03
C:/temp/dataset/0/14_30.odb,Step-1,Increment      4: Step Time =    1.000,"PART-1-1",           605,       11.6788,      -7.40939,            0.,NA,NA,"",   397.752E-03,   28.6205E-03,  -396.721E-03,   22.1167E-03
C:/temp/dataset/0/14_30.odb,Step-1,Increment      4: Step Time =    1.000,"PART-1-1",           606,       11.2427,      -1.09783,            0.,NA,NA,"",   524.166E-03,  -1.56462E-03,  -524.163E-03,   23.0836E-03
C:/temp/dataset/0/14_30.odb,Step-1,Increment      4: Step Time =    1.000,"PART-1-1",           607,       7.93860,       19.8912,            0.,NA,NA,"",   901.404E-03,   324.732E-03,  -840.879E-03,   15.5022E-03
C:/temp/dataset/0/14_30.odb,Step-1,Increment      4: Step Time =    1.000,"PART-1-1",           608,       8.98253,       18.5426,            0.,NA,NA,"",   906.470E-03,   278.388E-03,  -862.663E-03,   18.5176E-03
C:/temp/dataset/0/14_30.odb,Step-1,Increment      4: Step Time =    1.000,"PART-1-1",           609,       9.31070,       20.7205,            0.,NA,NA,"",   987.245E-03,   368.950E-03,  -915.712E-03,   19.4507E-03
C:/temp/dataset/0/14_30.odb,Step-1,Increment      4: Step Time =    1.000,"PART-1-1",           610,       3.88086,       22.5675,            0.,NA,NA,"",   803.730E-03,   440.987E-03,  -671.947E-03,   3.23083E-03
C:/temp/dataset/0/14_30.odb,Step-1,Increment      4: Step Time =    1.000,"PART-1-1",           611,       2.67965,       25.8706,            0.,NA,NA,"",   865.865E-03,   614.255E-03,  -610.256E-03,   1.94069E-03
C:/temp/dataset/0/14_30.odb,Step-1,Increment      4: Step Time =    1.000,"PART-1-1",           612,            5.,          -15.,            0.,NA,NA,"",   255.800E-03,   10.2233E-06,  -255.800E-03,   25.6025E-03
C:/temp/dataset/0/14_30.odb,Step-1,Increment      4: Step Time =    1.000,"PART-1-1",           613,       6.27023,      -16.3841,            0.,NA,NA,"",   220.443E-03,   21.3597E-03,  -219.406E-03,   25.2215E-03
C:/temp/dataset/0/14_30.odb,Step-1,Increment      4: Step Time =    1.000,"PART-1-1",           614,       7.51616,      -14.5750,            0.,NA,NA,"",   261.068E-03,   26.7939E-03,  -259.689E-03,   23.4044E-03
C:/temp/dataset/0/14_30.odb,Step-1,Increment      4: Step Time =    1.000,"PART-1-1",           615,       6.15302,       13.2331,            0.,NA,NA,"",   702.068E-03,   95.8473E-03,  -695.495E-03,   11.5710E-03
C:/temp/dataset/0/14_30.odb,Step-1,Increment      4: Step Time =    1.000,"PART-1-1",           616,       7.37153,       14.6431,            0.,NA,NA,"",   759.527E-03,   139.632E-03,  -746.581E-03,   14.5994E-03
C:/temp/dataset/0/14_30.odb,Step-1,Increment      4: Step Time =    1.000,"PART-1-1",           617,            5.,           15.,            0.,NA,NA,"",   693.668E-03,   138.698E-03,  -679.661E-03,   8.00113E-03
C:/temp/dataset/0/14_30.odb,Step-1,Increment      4: Step Time =    1.000,"PART-1-1",           618,            5.,       11.6667,            0.,NA,NA,"",   655.612E-03,   54.9983E-03,  -653.301E-03,   9.09936E-03
C:/temp/dataset/0/14_30.odb,Step-1,Increment      4: Step Time =    1.000,"PART-1-1",           619,       6.12690,       10.0064,            0.,NA,NA,"",   660.048E-03,   28.5027E-03,  -659.432E-03,   12.4563E-03
C:/temp/dataset/0/14_30.odb,Step-1,Increment      4: Step Time =    1.000,"PART-1-1",           620,       7.27992,       11.5729,            0.,NA,NA,"",   705.784E-03,   64.8689E-03,  -702.797E-03,   14.9307E-03
C:/temp/dataset/0/14_30.odb,Step-1,Increment      4: Step Time =    1.000,"PART-1-1",           621,       6.15632,   278.618E-03,            0.,NA,NA,"",   535.795E-03,  -48.7026E-03,  -533.577E-03,   16.5967E-03
C:/temp/dataset/0/14_30.odb,Step-1,Increment      4: Step Time =    1.000,"PART-1-1",           622,            5.,      -1.66667,            0.,NA,NA,"",   507.725E-03,  -56.1009E-03,  -504.616E-03,   16.2470E-03
C:/temp/dataset/0/14_30.odb,Step-1,Increment      4: Step Time =    1.000,"PART-1-1",           623,       6.25252,      -2.97068,            0.,NA,NA,"",   484.721E-03,  -43.3183E-03,  -482.782E-03,   18.3477E-03
C:/temp/dataset/0/14_30.odb,Step-1,Increment      4: Step Time =    1.000,"PART-1-1",           624,       7.67955,      -17.4721,            0.,NA,NA,"",   202.511E-03,   39.3971E-03,  -198.642E-03,   21.5370E-03
C:/temp/dataset/0/14_30.odb,Step-1,Increment      4: Step Time =    1.000,"PART-1-1",           625,            5.,      -18.3333,            0.,NA,NA,"",   170.635E-03,   12.0267E-03,  -170.211E-03,   32.3990E-03
C:/temp/dataset/0/14_30.odb,Step-1,Increment      4: Step Time =    1.000,"PART-1-1",           626,       6.40932,      -19.4213,            0.,NA,NA,"",   155.818E-03,   32.6245E-03,  -152.364E-03,   24.8197E-03
C:/temp/dataset/0/14_30.odb,Step-1,Increment      4: Step Time =    1.000,"PART-1-1",           627,      -1.73152,      -24.7018,            0.,NA,NA,"",   12.1261E-03,  -12.0343E-03,  -1.48941E-03,   1.80191E-03
C:/temp/dataset/0/14_30.odb,Step-1,Increment      4: Step Time =    1.000,"PART-1-1",           628,       9.06065,      -18.5206,            0.,NA,NA,"",   191.465E-03,   50.4677E-03,  -184.694E-03,   20.0458E-03
C:/temp/dataset/0/14_30.odb,Step-1,Increment      4: Step Time =    1.000,"PART-1-1",           629,       8.80686,      -15.8614,            0.,NA,NA,"",   238.304E-03,   44.5776E-03,  -234.097E-03,   22.6953E-03
C:/temp/dataset/0/14_30.odb,Step-1,Increment      4: Step Time =    1.000,"PART-1-1",           630,       10.3171,      -8.61722,            0.,NA,NA,"",   375.519E-03,   22.1603E-03,  -374.864E-03,   21.8642E-03
C:/temp/dataset/0/14_30.odb,Step-1,Increment      4: Step Time =    1.000,"PART-1-1",           631,       8.85917,      -9.88939,            0.,NA,NA,"",   352.336E-03,   15.3714E-03,  -352.001E-03,   21.8362E-03
C:/temp/dataset/0/14_30.odb,Step-1,Increment      4: Step Time =    1.000,"PART-1-1",           632,       8.74431,      -12.9496,            0.,NA,NA,"",   293.640E-03,   31.2999E-03,  -291.967E-03,   22.3907E-03
C:/temp/dataset/0/14_30.odb,Step-1,Increment      4: Step Time =    1.000,"PART-1-1",           633,       6.89786,       21.2129,            0.,NA,NA,"",   894.524E-03,   376.565E-03,  -811.401E-03,   11.5933E-03
C:/temp/dataset/0/14_30.odb,Step-1,Increment      4: Step Time =    1.000,"PART-1-1",           634,       10.2659,      -2.76771,            0.,NA,NA,"",   488.859E-03,  -7.36824E-03,  -488.804E-03,   21.8879E-03
C:/temp/dataset/0/14_30.odb,Step-1,Increment      4: Step Time =    1.000,"PART-1-1",           635,       7.80552,      -4.33119,            0.,NA,NA,"",   458.862E-03,  -24.7678E-03,  -458.193E-03,   20.1431E-03
C:/temp/dataset/0/14_30.odb,Step-1,Increment      4: Step Time =    1.000,"PART-1-1",           636,            5.,           -5.,            0.,NA,NA,"",   454.889E-03,  -46.5577E-03,  -452.500E-03,   18.4952E-03
C:/temp/dataset/0/14_30.odb,Step-1,Increment      4: Step Time =    1.000,"PART-1-1",           637,       7.27801,       2.13112,            0.,NA,NA,"",   567.334E-03,  -37.4522E-03,  -566.096E-03,   17.5077E-03
C:/temp/dataset/0/14_30.odb,Step-1,Increment      4: Step Time =    1.000,"PART-1-1",           638,       6.12168,       3.51917,            0.,NA,NA,"",   580.765E-03,  -40.8513E-03,  -579.327E-03,   15.0097E-03
C:/temp/dataset/0/14_30.odb,Step-1,Increment      4: Step Time =    1.000,"PART-1-1",           639,            5.,       1.66667,            0.,NA,NA,"",   552.820E-03,  -54.8951E-03,  -550.087E-03,   14.1354E-03
C:/temp/dataset/0/14_30.odb,Step-1,Increment      4: Step Time =    1.000,"PART-1-1",           640,            5.,            5.,            0.,NA,NA,"",   590.752E-03,  -38.5791E-03,  -589.491E-03,   12.2054E-03
C:/temp/dataset/0/14_30.odb,Step-1,Increment      4: Step Time =    1.000,"PART-1-1",           641,       6.11481,       6.76207,            0.,NA,NA,"",   621.190E-03,  -16.2488E-03,  -620.977E-03,   13.6159E-03
C:/temp/dataset/0/14_30.odb,Step-1,Increment      4: Step Time =    1.000,"PART-1-1",           642,       8.53738,       13.0133,            0.,NA,NA,"",   762.558E-03,   105.627E-03,  -755.207E-03,   17.8131E-03
C:/temp/dataset/0/14_30.odb,Step-1,Increment      4: Step Time =    1.000,"PART-1-1",           643,       8.69606,       15.9130,            0.,NA,NA,"",   828.715E-03,   186.045E-03,  -807.562E-03,   17.9843E-03
C:/temp/dataset/0/14_30.odb,Step-1,Increment      4: Step Time =    1.000,"PART-1-1",           644,       9.56938,       22.9454,            0.,NA,NA,"",       1.08009,   473.055E-03,  -970.981E-03,   20.7494E-03
C:/temp/dataset/0/14_30.odb,Step-1,Increment      4: Step Time =    1.000,"PART-1-1",           645,       8.28908,       21.9981,            0.,NA,NA,"",   982.793E-03,   419.088E-03,  -888.958E-03,   16.5262E-03
C:/temp/dataset/0/14_30.odb,Step-1,Increment      4: Step Time =    1.000,"PART-1-1",           646,      -3.61415,       26.3795,            0.,NA,NA,"",   707.688E-03,   645.572E-03,  -289.928E-03,   2.21704E-03
C:/temp/dataset/0/14_30.odb,Step-1,Increment      4: Step Time =    1.000,"PART-1-1",           647,      -6.18563,       28.7596,            0.,NA,NA,"",   768.729E-03,   746.240E-03,  -184.583E-03,   4.73417E-03
C:/temp/dataset/0/14_30.odb,Step-1,Increment      4: Step Time =    1.000,"PART-1-1",           648,      -4.89584,       27.5617,            0.,NA,NA,"",   735.980E-03,   697.179E-03,  -235.813E-03,   3.40263E-03
C:/temp/dataset/0/14_30.odb,Step-1,Increment      4: Step Time =    1.000,"PART-1-1",           649,          -4.5,           30.,            0.,NA,NA,"",   848.176E-03,   806.912E-03,  -261.336E-03,   6.64648E-03
C:/temp/dataset/0/14_30.odb,Step-1,Increment      4: Step Time =    1.000,"PART-1-1",           650,          -15.,          19.5,            0.,NA,NA,"",   403.268E-03,   382.069E-03,   129.030E-03,   7.22528E-03
C:/temp/dataset/0/14_30.odb,Step-1,Increment      4: Step Time =    1.000,"PART-1-1",           651,      -13.6835,       18.2834,            0.,NA,NA,"",   347.848E-03,   338.287E-03,   80.9947E-03,   5.61588E-03
C:/temp/dataset/0/14_30.odb,Step-1,Increment      4: Step Time =    1.000,"PART-1-1",           652,      -12.3643,       20.0316,            0.,NA,NA,"",   394.840E-03,   392.206E-03,   45.5357E-03,   3.59844E-03
C:/temp/dataset/0/14_30.odb,Step-1,Increment      4: Step Time =    1.000,"PART-1-1",           653,      -13.6808,       21.2481,            0.,NA,NA,"",   448.644E-03,   438.953E-03,   92.7459E-03,   4.92920E-03
C:/temp/dataset/0/14_30.odb,Step-1,Increment      4: Step Time =    1.000,"PART-1-1",           654,      -6.08047,      -19.7739,            0.,NA,NA,"",   11.3883E-03,  -11.0010E-03,  -2.94457E-03,   1.68481E-03
C:/temp/dataset/0/14_30.odb,Step-1,Increment      4: Step Time =    1.000,"PART-1-1",           655,      -7.17803,      -20.6070,            0.,NA,NA,"",   11.2167E-03,  -10.8398E-03,  -2.88310E-03,   1.51993E-03
C:/temp/dataset/0/14_30.odb,Step-1,Increment      4: Step Time =    1.000,"PART-1-1",           656,       5.87583,      -21.1387,            0.,NA,NA,"",   113.630E-03,   14.6985E-03,  -112.675E-03,   21.8680E-03
C:/temp/dataset/0/14_30.odb,Step-1,Increment      4: Step Time =    1.000,"PART-1-1",           657,       4.61047,      -23.6002,            0.,NA,NA,"",   55.7930E-03,  -9.11009E-03,  -55.0442E-03,   13.4848E-03
C:/temp/dataset/0/14_30.odb,Step-1,Increment      4: Step Time =    1.000,"PART-1-1",           658,       4.56928,      -26.4448,            0.,NA,NA,"",   30.2142E-03,  -13.2662E-03,  -27.1461E-03,   10.4418E-03
C:/temp/dataset/0/14_30.odb,Step-1,Increment      4: Step Time =    1.000,"PART-1-1",           659,       5.04464,       23.4223,            0.,NA,NA,"",   878.970E-03,   480.722E-03,  -735.863E-03,   4.99722E-03
C:/temp/dataset/0/14_30.odb,Step-1,Increment      4: Step Time =    1.000,"PART-1-1",           660,       5.88156,       22.4475,            0.,NA,NA,"",   886.200E-03,   432.168E-03,  -773.681E-03,   7.20438E-03
C:/temp/dataset/0/14_30.odb,Step-1,Increment      4: Step Time =    1.000,"PART-1-1",           661,      -1.61333,      -27.2257,            0.,NA,NA,"",   11.1166E-03,  -10.9385E-03,  -1.98201E-03,   3.00977E-03
C:/temp/dataset/0/14_30.odb,Step-1,Increment      4: Step Time =    1.000,"PART-1-1",           662,      -3.01002,      -28.6350,            0.,NA,NA,"",   5.43677E-03,  -5.38835E-03,  -723.942E-06,   2.58339E-03
C:/temp/dataset/0/14_30.odb,Step-1,Increment      4: Step Time =    1.000,"PART-1-1",           663,          -1.5,          -30.,            0.,NA,NA,"",            0.,  -90.4846E-42,   28.1661E-42,   4.33302E-03
C:/temp/dataset/0/14_30.odb,Step-1,Increment      4: Step Time =    1.000,"PART-1-1",           664,            5.,       8.33333,            0.,NA,NA,"",   623.573E-03,  -3.12783E-03,  -623.565E-03,   10.5158E-03
C:/temp/dataset/0/14_30.odb,Step-1,Increment      4: Step Time =    1.000,"PART-1-1",           665,       8.16766,      -19.9578,            0.,NA,NA,"",   160.105E-03,   41.2879E-03,  -154.690E-03,   20.1707E-03
C:/temp/dataset/0/14_30.odb,Step-1,Increment      4: Step Time =    1.000,"PART-1-1",           666,       7.85169,      -26.8977,            0.,NA,NA,"",   36.5083E-03,   455.966E-06,  -36.5055E-03,   15.4119E-03
C:/temp/dataset/0/14_30.odb,Step-1,Increment      4: Step Time =    1.000,"PART-1-1",           667,          -4.5,          -30.,            0.,NA,NA,"",            0.,  -38.6758E-42,   41.0538E-42,   2.43358E-03
C:/temp/dataset/0/14_30.odb,Step-1,Increment      4: Step Time =    1.000,"PART-1-1",           668,      -7.38541,       11.9129,            0.,NA,NA,"",   192.764E-03,   174.166E-03,  -82.6082E-03,   4.56819E-03
C:/temp/dataset/0/14_30.odb,Step-1,Increment      4: Step Time =    1.000,"PART-1-1",           669,      -9.84369,       11.4885,            0.,NA,NA,"",   165.860E-03,   163.271E-03,  -29.1914E-03,   1.36427E-03
C:/temp/dataset/0/14_30.odb,Step-1,Increment      4: Step Time =    1.000,"PART-1-1",           670,           -5.,      -18.4615,            0.,NA,NA,"",   13.7888E-03,  -13.5488E-03,  -2.56131E-03,   1.43777E-03
C:/temp/dataset/0/14_30.odb,Step-1,Increment      4: Step Time =    1.000,"PART-1-1",           671,      -6.12192,      -16.9214,            0.,NA,NA,"",   17.8803E-03,  -16.7994E-03,  -6.12241E-03,   1.49504E-03
C:/temp/dataset/0/14_30.odb,Step-1,Increment      4: Step Time =    1.000,"PART-1-1",           672,      -12.3453,      -25.6066,            0.,NA,NA,"",   7.33802E-03,  -6.69313E-03,  -3.00809E-03,   930.541E-06
C:/temp/dataset/0/14_30.odb,Step-1,Increment      4: Step Time =    1.000,"PART-1-1",           673,      -10.6437,      -26.7860,            0.,NA,NA,"",   4.92108E-03,  -4.73262E-03,  -1.34882E-03,   895.751E-06
C:/temp/dataset/0/14_30.odb,Step-1,Increment      4: Step Time =    1.000,"PART-1-1",           674,      -9.83114,      -25.4438,            0.,NA,NA,"",   6.76063E-03,  -6.59176E-03,  -1.50159E-03,   705.493E-06
C:/temp/dataset/0/14_30.odb,Step-1,Increment      4: Step Time =    1.000,"PART-1-1",           675,      -8.43320,      -25.2132,            0.,NA,NA,"",   6.96796E-03,  -6.92144E-03,  -803.830E-06,   496.831E-06
C:/temp/dataset/0/14_30.odb,Step-1,Increment      4: Step Time =    1.000,"PART-1-1",           676,      -9.78639,       17.5920,            0.,NA,NA,"",   311.575E-03,   309.418E-03,  -36.5944E-03,   1.01498E-03
C:/temp/dataset/0/14_30.odb,Step-1,Increment      4: Step Time =    1.000,"PART-1-1",           677,      -11.0716,       18.8358,            0.,NA,NA,"",   349.373E-03,   349.363E-03,   2.64374E-03,   2.25403E-03
C:/temp/dataset/0/14_30.odb,Step-1,Increment      4: Step Time =    1.000,"PART-1-1",           678,      -12.3675,       17.0640,            0.,NA,NA,"",   300.812E-03,   298.426E-03,   37.8118E-03,   3.34678E-03
C:/temp/dataset/0/14_30.odb,Step-1,Increment      4: Step Time =    1.000,"PART-1-1",           679,      -12.1189,      -19.2948,            0.,NA,NA,"",   17.1954E-03,  -15.8776E-03,  -6.60189E-03,   810.944E-06
C:/temp/dataset/0/14_30.odb,Step-1,Increment      4: Step Time =    1.000,"PART-1-1",           680,      -11.0109,      -17.4013,            0.,NA,NA,"",   19.7918E-03,  -18.4738E-03,  -7.10186E-03,   1.04507E-03
C:/temp/dataset/0/14_30.odb,Step-1,Increment      4: Step Time =    1.000,"PART-1-1",           681,      -8.01079,      -21.5107,            0.,NA,NA,"",   10.6838E-03,  -10.3618E-03,  -2.60333E-03,   1.17016E-03
C:/temp/dataset/0/14_30.odb,Step-1,Increment      4: Step Time =    1.000,"PART-1-1",           682,           4.5,          -30.,            0.,NA,NA,"",            0.,  -29.8056E-42,  -36.0288E-42,   9.49714E-03
C:/temp/dataset/0/14_30.odb,Step-1,Increment      4: Step Time =    1.000,"PART-1-1",           683,       6.14133,      -28.2363,            0.,NA,NA,"",   17.3587E-03,  -6.73426E-03,  -15.9992E-03,   12.1503E-03
C:/temp/dataset/0/14_30.odb,Step-1,Increment      4: Step Time =    1.000,"PART-1-1",           684,      -9.14726,       28.6966,            0.,NA,NA,"",   739.344E-03,   736.227E-03,  -67.8276E-03,   3.33408E-03
C:/temp/dataset/0/14_30.odb,Step-1,Increment      4: Step Time =    1.000,"PART-1-1",           685,         -10.5,           30.,            0.,NA,NA,"",   785.230E-03,   784.989E-03,  -19.4319E-03,   2.33518E-03
C:/temp/dataset/0/14_30.odb,Step-1,Increment      4: Step Time =    1.000,"PART-1-1",           686,      -6.18127,      -10.8771,            0.,NA,NA,"",   26.6613E-03,  -20.6097E-03,  -16.9134E-03,   2.50932E-03
C:/temp/dataset/0/14_30.odb,Step-1,Increment      4: Step Time =    1.000,"PART-1-1",           687,      -6.16241,      -13.9212,            0.,NA,NA,"",   22.8939E-03,  -20.1734E-03,  -10.8243E-03,   2.01304E-03
C:/temp/dataset/0/14_30.odb,Step-1,Increment      4: Step Time =    1.000,"PART-1-1",           688,           -5.,      -12.3077,            0.,NA,NA,"",   24.1188E-03,  -19.5167E-03,  -14.1710E-03,   2.73424E-03
C:/temp/dataset/0/14_30.odb,Step-1,Increment      4: Step Time =    1.000,"PART-1-1",           689,         -10.5,          -30.,            0.,NA,NA,"",            0.,   44.7266E-42,  -228.975E-42,   1.07694E-03
C:/temp/dataset/0/14_30.odb,Step-1,Increment      4: Step Time =    1.000,"PART-1-1",           690,          -15.,          22.5,            0.,NA,NA,"",   510.677E-03,   489.687E-03,   144.906E-03,   5.25674E-03
C:/temp/dataset/0/14_30.odb,Step-1,Increment      4: Step Time =    1.000,"PART-1-1",           691,          -15.,          16.5,            0.,NA,NA,"",   310.228E-03,   290.263E-03,   109.494E-03,   7.67023E-03
C:/temp/dataset/0/14_30.odb,Step-1,Increment      4: Step Time =    1.000,"PART-1-1",           692,      -13.6840,       15.2806,            0.,NA,NA,"",   262.186E-03,   253.329E-03,   67.5696E-03,   5.37606E-03
C:/temp/dataset/0/14_30.odb,Step-1,Increment      4: Step Time =    1.000,"PART-1-1",           693,          -15.,          13.5,            0.,NA,NA,"",   232.434E-03,   214.249E-03,   90.1289E-03,   7.17317E-03
C:/temp/dataset/0/14_30.odb,Step-1,Increment      4: Step Time =    1.000,"PART-1-1",           694,      -6.20685,       4.43382,            0.,NA,NA,"",   90.7099E-03,   59.1809E-03,  -68.7453E-03,   5.04180E-03
C:/temp/dataset/0/14_30.odb,Step-1,Increment      4: Step Time =    1.000,"PART-1-1",           695,           -5.,       6.15385,            0.,NA,NA,"",   125.547E-03,   83.7357E-03,  -93.5433E-03,   6.76770E-03
C:/temp/dataset/0/14_30.odb,Step-1,Increment      4: Step Time =    1.000,"PART-1-1",           696,      -6.20051,      -1.69203,            0.,NA,NA,"",   44.1515E-03,   6.31325E-03,  -43.6978E-03,   4.03398E-03
C:/temp/dataset/0/14_30.odb,Step-1,Increment      4: Step Time =    1.000,"PART-1-1",           697,      -6.19850,      -4.75722,            0.,NA,NA,"",   34.3999E-03,  -8.52089E-03,  -33.3279E-03,   3.52412E-03
C:/temp/dataset/0/14_30.odb,Step-1,Increment      4: Step Time =    1.000,"PART-1-1",           698,           -5.,      -3.07692,            0.,NA,NA,"",   45.2526E-03,   1.05588E-03,  -45.2403E-03,   4.75646E-03
C:/temp/dataset/0/14_30.odb,Step-1,Increment      4: Step Time =    1.000,"PART-1-1",           699,      -12.3926,       7.99194,            0.,NA,NA,"",   104.798E-03,   103.421E-03,   16.9385E-03,   2.56342E-03
C:/temp/dataset/0/14_30.odb,Step-1,Increment      4: Step Time =    1.000,"PART-1-1",           700,          -15.,           7.5,            0.,NA,NA,"",   115.735E-03,   101.030E-03,   56.4574E-03,   5.74347E-03
C:/temp/dataset/0/14_30.odb,Step-1,Increment      4: Step Time =    1.000,"PART-1-1",           701,      -12.4166,      -1.07984,            0.,NA,NA,"",   6.89850E-03,   6.68762E-03,   1.69265E-03,   1.69669E-03
C:/temp/dataset/0/14_30.odb,Step-1,Increment      4: Step Time =    1.000,"PART-1-1",           702,          -15.,          -1.5,            0.,NA,NA,"",   20.0028E-03,   7.13678E-03,   18.6863E-03,   3.75173E-03
C:/temp/dataset/0/14_30.odb,Step-1,Increment      4: Step Time =    1.000,"PART-1-1",           703,      -12.3992,      -10.1184,            0.,NA,NA,"",   23.9290E-03,  -23.0153E-03,  -6.54928E-03,   954.014E-06
C:/temp/dataset/0/14_30.odb,Step-1,Increment      4: Step Time =    1.000,"PART-1-1",           704,          -15.,         -10.5,            0.,NA,NA,"",   22.2153E-03,  -21.9450E-03,  -3.45471E-03,   1.74555E-03
C:/temp/dataset/0/14_30.odb,Step-1,Increment      4: Step Time =    1.000,"PART-1-1",           705,      -6.19567,      -7.82333,            0.,NA,NA,"",   29.8007E-03,  -17.1212E-03,  -24.3915E-03,   3.01395E-03
C:/temp/dataset/0/14_30.odb,Step-1,Increment      4: Step Time =    1.000,"PART-1-1",           706,           -5.,      -6.15385,            0.,NA,NA,"",   34.8317E-03,  -11.1702E-03,  -32.9920E-03,   4.07676E-03
C:/temp/dataset/0/14_30.odb,Step-1,Increment      4: Step Time =    1.000,"PART-1-1",           707,          -15.,         -22.5,            0.,NA,NA,"",   14.3551E-03,  -11.9435E-03,  -7.96391E-03,   599.174E-06
C:/temp/dataset/0/14_30.odb,Step-1,Increment      4: Step Time =    1.000,"PART-1-1",           708,      -13.7480,      -24.0946,            0.,NA,NA,"",   10.8371E-03,  -9.37333E-03,  -5.43899E-03,   763.220E-06
C:/temp/dataset/0/14_30.odb,Step-1,Increment      4: Step Time =    1.000,"PART-1-1",           709,      -13.4685,      -20.9699,            0.,NA,NA,"",   15.3553E-03,  -13.7133E-03,  -6.90880E-03,   611.831E-06
C:/temp/dataset/0/14_30.odb,Step-1,Increment      4: Step Time =    1.000,"PART-1-1",           710,          -15.,         -25.5,            0.,NA,NA,"",   9.90718E-03,  -7.86258E-03,  -6.02761E-03,   953.634E-06
C:/temp/dataset/0/14_30.odb,Step-1,Increment      4: Step Time =    1.000,"PART-1-1",           711,           7.5,          -30.,            0.,NA,NA,"",            0.,   43.9938E-42,   51.0521E-42,   12.1762E-03
C:/temp/dataset/0/14_30.odb,Step-1,Increment      4: Step Time =    1.000,"PART-1-1",           712,       9.21036,      -28.6615,            0.,NA,NA,"",   15.7159E-03,   1.90700E-03,  -15.5998E-03,   14.8378E-03
C:/temp/dataset/0/14_30.odb,Step-1,Increment      4: Step Time =    1.000,"PART-1-1",           713,          10.5,          -30.,            0.,NA,NA,"",            0.,   70.9225E-42,   249.221E-42,   14.5599E-03
C:/temp/dataset/0/14_30.odb,Step-1,Increment      4: Step Time =    1.000,"PART-1-1",           714,          -7.5,           30.,            0.,NA,NA,"",   804.293E-03,   792.881E-03,  -135.007E-03,   5.02853E-03
C:/temp/dataset/0/14_30.odb,Step-1,Increment      4: Step Time =    1.000,"PART-1-1",           715,          -15.,         -19.5,            0.,NA,NA,"",   18.5329E-03,  -16.0895E-03,  -9.19765E-03,   217.587E-06
C:/temp/dataset/0/14_30.odb,Step-1,Increment      4: Step Time =    1.000,"PART-1-1",           716,      -6.18713,       13.6475,            0.,NA,NA,"",   244.286E-03,   213.867E-03,  -118.053E-03,   6.52194E-03
C:/temp/dataset/0/14_30.odb,Step-1,Increment      4: Step Time =    1.000,"PART-1-1",           717,           -5.,       15.3846,            0.,NA,NA,"",   303.239E-03,   258.574E-03,  -158.408E-03,   8.56840E-03
C:/temp/dataset/0/14_30.odb,Step-1,Increment      4: Step Time =    1.000,"PART-1-1",           718,           -5.,       12.3077,            0.,NA,NA,"",   232.058E-03,   188.436E-03,  -135.437E-03,   7.94520E-03
C:/temp/dataset/0/14_30.odb,Step-1,Increment      4: Step Time =    1.000,"PART-1-1",           719,           -5.,            0.,            0.,NA,NA,"",   62.7388E-03,   20.1854E-03,  -59.4030E-03,   5.43387E-03
C:/temp/dataset/0/14_30.odb,Step-1,Increment      4: Step Time =    1.000,"PART-1-1",           720,      -6.20706,       1.36812,            0.,NA,NA,"",   62.3323E-03,   28.4698E-03,  -55.4507E-03,   4.53582E-03
C:/temp/dataset/0/14_30.odb,Step-1,Increment      4: Step Time =    1.000,"PART-1-1",           721,           -5.,       3.07692,            0.,NA,NA,"",   89.1240E-03,   47.3652E-03,  -75.4958E-03,   6.10799E-03
C:/temp/dataset/0/14_30.odb,Step-1,Increment      4: Step Time =    1.000,"PART-1-1",           722,           -5.,      -9.23077,            0.,NA,NA,"",   28.7066E-03,  -17.6437E-03,  -22.6444E-03,   3.39741E-03
C:/temp/dataset/0/14_30.odb,Step-1,Increment      4: Step Time =    1.000,"PART-1-1",           723,      -8.78100,      -23.2553,            0.,NA,NA,"",   9.09249E-03,  -8.90295E-03,  -1.84687E-03,   646.577E-06
C:/temp/dataset/0/14_30.odb,Step-1,Increment      4: Step Time =    1.000,"PART-1-1",           724,      -11.0900,      -14.4409,            0.,NA,NA,"",   23.7065E-03,  -22.2275E-03,  -8.24212E-03,   973.252E-06
C:/temp/dataset/0/14_30.odb,Step-1,Increment      4: Step Time =    1.000,"PART-1-1",           725,      -11.1215,      -11.4552,            0.,NA,NA,"",   25.2322E-03,  -23.6100E-03,  -8.90114E-03,   920.747E-06
C:/temp/dataset/0/14_30.odb,Step-1,Increment      4: Step Time =    1.000,"PART-1-1",           726,      -11.1359,      -8.44257,            0.,NA,NA,"",   23.2683E-03,  -21.3954E-03,  -9.14604E-03,   895.477E-06
C:/temp/dataset/0/14_30.odb,Step-1,Increment      4: Step Time =    1.000,"PART-1-1",           727,      -11.1177,       9.73479,            0.,NA,NA,"",   130.988E-03,   130.946E-03,  -3.30810E-03,   1.21245E-03
C:/temp/dataset/0/14_30.odb,Step-1,Increment      4: Step Time =    1.000,"PART-1-1",           728,      -11.1376,       6.69211,            0.,NA,NA,"",   83.4557E-03,   83.3214E-03,  -4.73261E-03,   1.14260E-03
C:/temp/dataset/0/14_30.odb,Step-1,Increment      4: Step Time =    1.000,"PART-1-1",           729,      -11.1470,       3.65829,            0.,NA,NA,"",   46.5664E-03,   46.1530E-03,  -6.19084E-03,   1.05988E-03
C:/temp/dataset/0/14_30.odb,Step-1,Increment      4: Step Time =    1.000,"PART-1-1",           730,           -5.,      -15.3846,            0.,NA,NA,"",   19.4015E-03,  -17.8901E-03,  -7.50740E-03,   2.07892E-03
C:/temp/dataset/0/14_30.odb,Step-1,Increment      4: Step Time =    1.000,"PART-1-1",           731,      -11.1521,   627.191E-03,            0.,NA,NA,"",   19.6732E-03,   18.2143E-03,  -7.43469E-03,   987.609E-06
C:/temp/dataset/0/14_30.odb,Step-1,Increment      4: Step Time =    1.000,"PART-1-1",           732,      -11.1477,      -2.39557,            0.,NA,NA,"",   8.55684E-03,  -1.58238E-03,  -8.40925E-03,   930.688E-06
C:/temp/dataset/0/14_30.odb,Step-1,Increment      4: Step Time =    1.000,"PART-1-1",           733,      -11.1389,      -5.41444,            0.,NA,NA,"",   16.9869E-03,  -14.4058E-03,  -9.00142E-03,   899.066E-06
