ODB Name,Step,Frame,Part Instance Name,    êﬂì_ÉâÉxÉã,X,Y,Z,Section Name,Material Name,Section Point,   U-Magnitude,          U-U1,          U-U2,       S-Mises
C:/temp/dataset/0/2_24.odb,Step-1,Increment      1: Step Time =    1.000,"PART-1-1",             1,            5.,           20.,            0.,NA,NA,"",       12.0901,      -12.0012,      -1.46299,   146.562E-03
C:/temp/dataset/0/2_24.odb,Step-1,Increment      1: Step Time =    1.000,"PART-1-1",             2,            0.,           20.,            0.,NA,NA,"",       12.1586,      -12.0701,      -1.46380,   13.5208E-03
C:/temp/dataset/0/2_24.odb,Step-1,Increment      1: Step Time =    1.000,"PART-1-1",             3,            5.,           10.,            0.,NA,NA,"",       9.59768,      -9.37428,      -2.05872,   67.1492E-03
C:/temp/dataset/0/2_24.odb,Step-1,Increment      1: Step Time =    1.000,"PART-1-1",             4,            5.,            0.,            0.,NA,NA,"",       6.29005,      -6.00901,      -1.85917,   15.3965E-03
C:/temp/dataset/0/2_24.odb,Step-1,Increment      1: Step Time =    1.000,"PART-1-1",             5,            5.,          -10.,            0.,NA,NA,"",       3.06060,      -2.79869,      -1.23881,   35.1169E-03
C:/temp/dataset/0/2_24.odb,Step-1,Increment      1: Step Time =    1.000,"PART-1-1",             6,            5.,          -20.,            0.,NA,NA,"",   497.034E-03,  -387.216E-03,  -311.620E-03,   127.484E-03
C:/temp/dataset/0/2_24.odb,Step-1,Increment      1: Step Time =    1.000,"PART-1-1",             7,            0.,          -20.,            0.,NA,NA,"",   235.145E-03,  -235.143E-03,  -778.420E-06,   4.35727E-03
C:/temp/dataset/0/2_24.odb,Step-1,Increment      1: Step Time =    1.000,"PART-1-1",             8,           -5.,          -20.,            0.,NA,NA,"",   434.210E-03,  -366.562E-03,   232.746E-03,   130.872E-03
C:/temp/dataset/0/2_24.odb,Step-1,Increment      1: Step Time =    1.000,"PART-1-1",             9,           -5.,           20.,            0.,NA,NA,"",       11.9596,      -11.8694,      -1.46619,   150.143E-03
C:/temp/dataset/0/2_24.odb,Step-1,Increment      1: Step Time =    1.000,"PART-1-1",            10,           15.,           30.,            0.,NA,NA,"",       13.0488,      -13.0457,  -287.742E-03,   1.02078E-03
C:/temp/dataset/0/2_24.odb,Step-1,Increment      1: Step Time =    1.000,"PART-1-1",            11,           7.5,           30.,            0.,NA,NA,"",       12.9761,      -12.9353,      -1.02838,   28.6625E-03
C:/temp/dataset/0/2_24.odb,Step-1,Increment      1: Step Time =    1.000,"PART-1-1",            12,            0.,           30.,            0.,NA,NA,"",       12.8796,      -12.7955,      -1.46972,   10.5112E-03
C:/temp/dataset/0/2_24.odb,Step-1,Increment      1: Step Time =    1.000,"PART-1-1",            13,          -15.,           30.,            0.,NA,NA,"",       13.4279,      -13.0363,      -3.21890,   1.92475E-03
C:/temp/dataset/0/2_24.odb,Step-1,Increment      1: Step Time =    1.000,"PART-1-1",            14,          -15.,          -30.,            0.,NA,NA,"",            0.,  -29.6238E-39,  -53.1365E-39,   88.6283E-03
C:/temp/dataset/0/2_24.odb,Step-1,Increment      1: Step Time =    1.000,"PART-1-1",            15,           15.,          -30.,            0.,NA,NA,"",            0.,  -38.1694E-39,   70.1407E-39,   113.784E-03
C:/temp/dataset/0/2_24.odb,Step-1,Increment      1: Step Time =    1.000,"PART-1-1",            16,           15.,         -22.5,            0.,NA,NA,"",   812.510E-03,  -475.753E-03,   658.659E-03,   112.651E-03
C:/temp/dataset/0/2_24.odb,Step-1,Increment      1: Step Time =    1.000,"PART-1-1",            17,           15.,          -15.,            0.,NA,NA,"",       2.24748,      -1.83232,       1.30144,   100.394E-03
C:/temp/dataset/0/2_24.odb,Step-1,Increment      1: Step Time =    1.000,"PART-1-1",            18,           15.,          -7.5,            0.,NA,NA,"",       4.32873,      -4.05794,       1.50700,   56.2177E-03
C:/temp/dataset/0/2_24.odb,Step-1,Increment      1: Step Time =    1.000,"PART-1-1",            19,           15.,            0.,            0.,NA,NA,"",       6.73701,      -6.60541,       1.32506,   18.4814E-03
C:/temp/dataset/0/2_24.odb,Step-1,Increment      1: Step Time =    1.000,"PART-1-1",            20,           15.,           7.5,            0.,NA,NA,"",       9.13623,      -9.09188,   899.117E-03,   18.6634E-03
C:/temp/dataset/0/2_24.odb,Step-1,Increment      1: Step Time =    1.000,"PART-1-1",            21,           15.,           15.,            0.,NA,NA,"",       11.2180,      -11.2129,   339.040E-03,   58.5640E-03
C:/temp/dataset/0/2_24.odb,Step-1,Increment      1: Step Time =    1.000,"PART-1-1",            22,           15.,          22.5,            0.,NA,NA,"",       12.4110,      -12.4096,  -186.330E-03,   41.7084E-03
C:/temp/dataset/0/2_24.odb,Step-1,Increment      1: Step Time =    1.000,"PART-1-1",            23,       3.33333,           20.,            0.,NA,NA,"",       12.1670,      -12.0861,      -1.40064,   42.3558E-03
C:/temp/dataset/0/2_24.odb,Step-1,Increment      1: Step Time =    1.000,"PART-1-1",            24,       1.66667,           20.,            0.,NA,NA,"",       12.1689,      -12.0854,      -1.42316,   8.55062E-03
C:/temp/dataset/0/2_24.odb,Step-1,Increment      1: Step Time =    1.000,"PART-1-1",            25,            5.,       13.3333,            0.,NA,NA,"",       10.5622,      -10.3766,      -1.97147,   85.9264E-03
C:/temp/dataset/0/2_24.odb,Step-1,Increment      1: Step Time =    1.000,"PART-1-1",            26,            5.,       16.6667,            0.,NA,NA,"",       11.3936,      -11.2506,      -1.79978,   103.448E-03
C:/temp/dataset/0/2_24.odb,Step-1,Increment      1: Step Time =    1.000,"PART-1-1",            27,            5.,       3.33333,            0.,NA,NA,"",       7.42561,      -7.15465,      -1.98764,   31.8105E-03
C:/temp/dataset/0/2_24.odb,Step-1,Increment      1: Step Time =    1.000,"PART-1-1",            28,            5.,       6.66667,            0.,NA,NA,"",       8.53931,      -8.28751,      -2.05840,   48.7164E-03
C:/temp/dataset/0/2_24.odb,Step-1,Increment      1: Step Time =    1.000,"PART-1-1",            29,            5.,      -6.66667,            0.,NA,NA,"",       4.07750,      -3.80143,      -1.47485,   17.4921E-03
C:/temp/dataset/0/2_24.odb,Step-1,Increment      1: Step Time =    1.000,"PART-1-1",            30,            5.,      -3.33333,            0.,NA,NA,"",       5.16384,      -4.88116,      -1.68507,   1.08968E-03
C:/temp/dataset/0/2_24.odb,Step-1,Increment      1: Step Time =    1.000,"PART-1-1",            31,            5.,      -16.6667,            0.,NA,NA,"",       1.31988,      -1.11344,  -708.760E-03,   74.6572E-03
C:/temp/dataset/0/2_24.odb,Step-1,Increment      1: Step Time =    1.000,"PART-1-1",            32,            5.,      -13.3333,            0.,NA,NA,"",       2.13766,      -1.89952,  -980.526E-03,   50.0777E-03
C:/temp/dataset/0/2_24.odb,Step-1,Increment      1: Step Time =    1.000,"PART-1-1",            33,           2.5,          -20.,            0.,NA,NA,"",   262.979E-03,  -248.927E-03,  -84.8138E-03,   34.1410E-03
C:/temp/dataset/0/2_24.odb,Step-1,Increment      1: Step Time =    1.000,"PART-1-1",            34,          -2.5,          -20.,            0.,NA,NA,"",   253.688E-03,  -241.701E-03,   77.0627E-03,   34.0529E-03
C:/temp/dataset/0/2_24.odb,Step-1,Increment      1: Step Time =    1.000,"PART-1-1",            35,           -5.,       16.9231,            0.,NA,NA,"",       11.1180,      -11.0693,      -1.04033,   86.4546E-03
C:/temp/dataset/0/2_24.odb,Step-1,Increment      1: Step Time =    1.000,"PART-1-1",            36,           -5.,       13.8462,            0.,NA,NA,"",       10.2730,      -10.2471,  -729.957E-03,   65.1035E-03
C:/temp/dataset/0/2_24.odb,Step-1,Increment      1: Step Time =    1.000,"PART-1-1",            37,           -5.,       10.7692,            0.,NA,NA,"",       9.36741,      -9.35778,  -424.800E-03,   53.1963E-03
C:/temp/dataset/0/2_24.odb,Step-1,Increment      1: Step Time =    1.000,"PART-1-1",            38,           -5.,       7.69231,            0.,NA,NA,"",       8.39817,      -8.39703,  -138.048E-03,   37.9949E-03
C:/temp/dataset/0/2_24.odb,Step-1,Increment      1: Step Time =    1.000,"PART-1-1",            39,           -5.,       4.61538,            0.,NA,NA,"",       7.38408,      -7.38305,   122.877E-03,   22.4642E-03
C:/temp/dataset/0/2_24.odb,Step-1,Increment      1: Step Time =    1.000,"PART-1-1",            40,           -5.,       1.53846,            0.,NA,NA,"",       6.34942,      -6.33988,   347.908E-03,   6.54375E-03
C:/temp/dataset/0/2_24.odb,Step-1,Increment      1: Step Time =    1.000,"PART-1-1",            41,           -5.,      -1.53846,            0.,NA,NA,"",       5.31923,      -5.29302,   527.336E-03,   9.47033E-03
C:/temp/dataset/0/2_24.odb,Step-1,Increment      1: Step Time =    1.000,"PART-1-1",            42,           -5.,      -4.61538,            0.,NA,NA,"",       4.31896,      -4.26943,   652.153E-03,   25.1430E-03
C:/temp/dataset/0/2_24.odb,Step-1,Increment      1: Step Time =    1.000,"PART-1-1",            43,           -5.,      -7.69231,            0.,NA,NA,"",       3.37368,      -3.29708,   714.803E-03,   40.2196E-03
C:/temp/dataset/0/2_24.odb,Step-1,Increment      1: Step Time =    1.000,"PART-1-1",            44,           -5.,      -10.7692,            0.,NA,NA,"",       2.50744,      -2.40449,   711.091E-03,   54.6782E-03
C:/temp/dataset/0/2_24.odb,Step-1,Increment      1: Step Time =    1.000,"PART-1-1",            45,           -5.,      -13.8462,            0.,NA,NA,"",       1.73914,      -1.61788,   638.029E-03,   67.0671E-03
C:/temp/dataset/0/2_24.odb,Step-1,Increment      1: Step Time =    1.000,"PART-1-1",            46,           -5.,      -16.9231,            0.,NA,NA,"",       1.07984,  -952.130E-03,   509.419E-03,   82.8424E-03
C:/temp/dataset/0/2_24.odb,Step-1,Increment      1: Step Time =    1.000,"PART-1-1",            47,          -2.5,           20.,            0.,NA,NA,"",       12.1175,      -12.0211,      -1.52506,   46.8728E-03
C:/temp/dataset/0/2_24.odb,Step-1,Increment      1: Step Time =    1.000,"PART-1-1",            48,        13.125,           30.,            0.,NA,NA,"",       13.0456,      -13.0371,  -469.530E-03,   1.47236E-03
C:/temp/dataset/0/2_24.odb,Step-1,Increment      1: Step Time =    1.000,"PART-1-1",            49,         11.25,           30.,            0.,NA,NA,"",       13.0376,      -13.0208,  -660.724E-03,   9.10942E-03
C:/temp/dataset/0/2_24.odb,Step-1,Increment      1: Step Time =    1.000,"PART-1-1",            50,         9.375,           30.,            0.,NA,NA,"",       13.0144,      -12.9865,  -852.414E-03,   19.8882E-03
C:/temp/dataset/0/2_24.odb,Step-1,Increment      1: Step Time =    1.000,"PART-1-1",            51,            5.,           30.,            0.,NA,NA,"",       12.9164,      -12.8589,      -1.21794,   28.6825E-03
C:/temp/dataset/0/2_24.odb,Step-1,Increment      1: Step Time =    1.000,"PART-1-1",            52,           2.5,           30.,            0.,NA,NA,"",       12.8751,      -12.8035,      -1.35562,   13.8885E-03
C:/temp/dataset/0/2_24.odb,Step-1,Increment      1: Step Time =    1.000,"PART-1-1",            53,           -3.,           30.,            0.,NA,NA,"",       12.9596,      -12.8553,      -1.64118,   36.4165E-03
C:/temp/dataset/0/2_24.odb,Step-1,Increment      1: Step Time =    1.000,"PART-1-1",            54,           -6.,           30.,            0.,NA,NA,"",       13.1011,      -12.9602,      -1.91623,   45.7094E-03
C:/temp/dataset/0/2_24.odb,Step-1,Increment      1: Step Time =    1.000,"PART-1-1",            55,           -9.,           30.,            0.,NA,NA,"",       13.2489,      -13.0456,      -2.31217,   31.9434E-03
C:/temp/dataset/0/2_24.odb,Step-1,Increment      1: Step Time =    1.000,"PART-1-1",            56,          -12.,           30.,            0.,NA,NA,"",       13.3562,      -13.0653,      -2.77228,   8.68367E-03
C:/temp/dataset/0/2_24.odb,Step-1,Increment      1: Step Time =    1.000,"PART-1-1",            57,          -15.,           27.,            0.,NA,NA,"",       13.0110,      -12.6130,      -3.19334,   8.78837E-03
C:/temp/dataset/0/2_24.odb,Step-1,Increment      1: Step Time =    1.000,"PART-1-1",            58,          -15.,           24.,            0.,NA,NA,"",       12.6086,      -12.1904,      -3.22034,   33.9012E-03
C:/temp/dataset/0/2_24.odb,Step-1,Increment      1: Step Time =    1.000,"PART-1-1",            59,          -15.,           21.,            0.,NA,NA,"",       12.1457,      -11.6875,      -3.30473,   55.7261E-03
C:/temp/dataset/0/2_24.odb,Step-1,Increment      1: Step Time =    1.000,"PART-1-1",            60,          -15.,           18.,            0.,NA,NA,"",       11.5541,      -11.0422,      -3.40084,   60.8723E-03
C:/temp/dataset/0/2_24.odb,Step-1,Increment      1: Step Time =    1.000,"PART-1-1",            61,          -15.,           15.,            0.,NA,NA,"",       10.8178,      -10.2515,      -3.45397,   51.4332E-03
C:/temp/dataset/0/2_24.odb,Step-1,Increment      1: Step Time =    1.000,"PART-1-1",            62,          -15.,           12.,            0.,NA,NA,"",       9.96424,      -9.35200,      -3.43892,   36.0982E-03
C:/temp/dataset/0/2_24.odb,Step-1,Increment      1: Step Time =    1.000,"PART-1-1",            63,          -15.,            9.,            0.,NA,NA,"",       9.02973,      -8.38245,      -3.35718,   20.2293E-03
C:/temp/dataset/0/2_24.odb,Step-1,Increment      1: Step Time =    1.000,"PART-1-1",            64,          -15.,            6.,            0.,NA,NA,"",       8.04450,      -7.37328,      -3.21694,   4.54726E-03
C:/temp/dataset/0/2_24.odb,Step-1,Increment      1: Step Time =    1.000,"PART-1-1",            65,          -15.,            3.,            0.,NA,NA,"",       7.03527,      -6.35069,      -3.02717,   11.2387E-03
C:/temp/dataset/0/2_24.odb,Step-1,Increment      1: Step Time =    1.000,"PART-1-1",            66,          -15.,            0.,            0.,NA,NA,"",       6.02717,      -5.33903,      -2.79670,   26.7431E-03
C:/temp/dataset/0/2_24.odb,Step-1,Increment      1: Step Time =    1.000,"PART-1-1",            67,          -15.,           -3.,            0.,NA,NA,"",       5.04448,      -4.36160,      -2.53440,   42.0339E-03
C:/temp/dataset/0/2_24.odb,Step-1,Increment      1: Step Time =    1.000,"PART-1-1",            68,          -15.,           -6.,            0.,NA,NA,"",       4.11025,      -3.44063,      -2.24860,   56.9615E-03
C:/temp/dataset/0/2_24.odb,Step-1,Increment      1: Step Time =    1.000,"PART-1-1",            69,          -15.,           -9.,            0.,NA,NA,"",       3.24568,      -2.59724,      -1.94647,   71.4397E-03
C:/temp/dataset/0/2_24.odb,Step-1,Increment      1: Step Time =    1.000,"PART-1-1",            70,          -15.,          -12.,            0.,NA,NA,"",       2.46947,      -1.85204,      -1.63346,   85.4568E-03
C:/temp/dataset/0/2_24.odb,Step-1,Increment      1: Step Time =    1.000,"PART-1-1",            71,          -15.,          -15.,            0.,NA,NA,"",       1.79759,      -1.22687,      -1.31382,   97.9717E-03
C:/temp/dataset/0/2_24.odb,Step-1,Increment      1: Step Time =    1.000,"PART-1-1",            72,          -15.,          -18.,            0.,NA,NA,"",       1.24218,  -743.602E-03,  -995.020E-03,   104.959E-03
C:/temp/dataset/0/2_24.odb,Step-1,Increment      1: Step Time =    1.000,"PART-1-1",            73,          -15.,          -21.,            0.,NA,NA,"",   807.905E-03,  -414.532E-03,  -693.451E-03,   100.951E-03
C:/temp/dataset/0/2_24.odb,Step-1,Increment      1: Step Time =    1.000,"PART-1-1",            74,          -15.,          -24.,            0.,NA,NA,"",   482.130E-03,  -218.876E-03,  -429.584E-03,   88.1506E-03
C:/temp/dataset/0/2_24.odb,Step-1,Increment      1: Step Time =    1.000,"PART-1-1",            75,          -15.,          -27.,            0.,NA,NA,"",   235.637E-03,  -111.210E-03,  -207.743E-03,   81.6142E-03
C:/temp/dataset/0/2_24.odb,Step-1,Increment      1: Step Time =    1.000,"PART-1-1",            76,          -12.,          -30.,            0.,NA,NA,"",            0.,  -65.8477E-39,  -187.153E-39,   36.3981E-03
C:/temp/dataset/0/2_24.odb,Step-1,Increment      1: Step Time =    1.000,"PART-1-1",            77,           -9.,          -30.,            0.,NA,NA,"",            0.,   58.5844E-39,  -78.2745E-39,   16.3772E-03
C:/temp/dataset/0/2_24.odb,Step-1,Increment      1: Step Time =    1.000,"PART-1-1",            78,           -6.,          -30.,            0.,NA,NA,"",            0.,  -15.1988E-39,  -4.45862E-39,   5.33821E-03
C:/temp/dataset/0/2_24.odb,Step-1,Increment      1: Step Time =    1.000,"PART-1-1",            79,           -3.,          -30.,            0.,NA,NA,"",            0.,  -49.6648E-39,   49.0042E-39,   20.5232E-03
C:/temp/dataset/0/2_24.odb,Step-1,Increment      1: Step Time =    1.000,"PART-1-1",            80,            0.,          -30.,            0.,NA,NA,"",            0.,  -52.5174E-39,   26.8725E-39,   27.0417E-03
C:/temp/dataset/0/2_24.odb,Step-1,Increment      1: Step Time =    1.000,"PART-1-1",            81,            3.,          -30.,            0.,NA,NA,"",            0.,  -62.2108E-39,  -97.7665E-39,   22.1765E-03
C:/temp/dataset/0/2_24.odb,Step-1,Increment      1: Step Time =    1.000,"PART-1-1",            82,            6.,          -30.,            0.,NA,NA,"",            0.,  -8.77470E-39,  -29.7257E-39,   7.27341E-03
C:/temp/dataset/0/2_24.odb,Step-1,Increment      1: Step Time =    1.000,"PART-1-1",            83,            9.,          -30.,            0.,NA,NA,"",            0.,   45.8392E-39,   64.9981E-39,   15.9079E-03
C:/temp/dataset/0/2_24.odb,Step-1,Increment      1: Step Time =    1.000,"PART-1-1",            84,           12.,          -30.,            0.,NA,NA,"",            0.,  -63.4602E-39,   212.633E-39,   42.4018E-03
C:/temp/dataset/0/2_24.odb,Step-1,Increment      1: Step Time =    1.000,"PART-1-1",            85,           15.,         -27.5,            0.,NA,NA,"",   258.071E-03,  -141.587E-03,   215.763E-03,   98.3991E-03
C:/temp/dataset/0/2_24.odb,Step-1,Increment      1: Step Time =    1.000,"PART-1-1",            86,           15.,          -25.,            0.,NA,NA,"",   504.992E-03,  -269.723E-03,   426.927E-03,   100.634E-03
C:/temp/dataset/0/2_24.odb,Step-1,Increment      1: Step Time =    1.000,"PART-1-1",            87,           15.,          -20.,            0.,NA,NA,"",       1.20214,  -797.063E-03,   899.903E-03,   117.822E-03
C:/temp/dataset/0/2_24.odb,Step-1,Increment      1: Step Time =    1.000,"PART-1-1",            88,           15.,         -17.5,            0.,NA,NA,"",       1.68255,      -1.25274,       1.12322,   112.975E-03
C:/temp/dataset/0/2_24.odb,Step-1,Increment      1: Step Time =    1.000,"PART-1-1",            89,           15.,         -12.5,            0.,NA,NA,"",       2.88487,      -2.50957,       1.42286,   85.0051E-03
C:/temp/dataset/0/2_24.odb,Step-1,Increment      1: Step Time =    1.000,"PART-1-1",            90,           15.,          -10.,            0.,NA,NA,"",       3.58251,      -3.25825,       1.48937,   70.1054E-03
C:/temp/dataset/0/2_24.odb,Step-1,Increment      1: Step Time =    1.000,"PART-1-1",            91,           15.,           -5.,            0.,NA,NA,"",       5.11149,      -4.89200,       1.48179,   43.1938E-03
C:/temp/dataset/0/2_24.odb,Step-1,Increment      1: Step Time =    1.000,"PART-1-1",            92,           15.,          -2.5,            0.,NA,NA,"",       5.91843,      -5.74571,       1.41937,   30.7613E-03
C:/temp/dataset/0/2_24.odb,Step-1,Increment      1: Step Time =    1.000,"PART-1-1",            93,           15.,           2.5,            0.,NA,NA,"",       7.55462,      -7.45807,       1.20393,   6.25830E-03
C:/temp/dataset/0/2_24.odb,Step-1,Increment      1: Step Time =    1.000,"PART-1-1",            94,           15.,            5.,            0.,NA,NA,"",       8.35861,      -8.29105,       1.06057,   6.31533E-03
C:/temp/dataset/0/2_24.odb,Step-1,Increment      1: Step Time =    1.000,"PART-1-1",            95,           15.,           10.,            0.,NA,NA,"",       9.87550,      -9.84896,   723.568E-03,   31.0466E-03
C:/temp/dataset/0/2_24.odb,Step-1,Increment      1: Step Time =    1.000,"PART-1-1",            96,           15.,          12.5,            0.,NA,NA,"",       10.5661,      -10.5525,   536.224E-03,   43.3408E-03
C:/temp/dataset/0/2_24.odb,Step-1,Increment      1: Step Time =    1.000,"PART-1-1",            97,           15.,          17.5,            0.,NA,NA,"",       11.7647,      -11.7640,   124.743E-03,   68.8231E-03
C:/temp/dataset/0/2_24.odb,Step-1,Increment      1: Step Time =    1.000,"PART-1-1",            98,           15.,           20.,            0.,NA,NA,"",       12.1589,      -12.1588,  -51.8906E-03,   63.5716E-03
C:/temp/dataset/0/2_24.odb,Step-1,Increment      1: Step Time =    1.000,"PART-1-1",            99,           15.,           25.,            0.,NA,NA,"",       12.6024,      -12.5999,  -248.526E-03,   16.5400E-03
C:/temp/dataset/0/2_24.odb,Step-1,Increment      1: Step Time =    1.000,"PART-1-1",           100,           15.,          27.5,            0.,NA,NA,"",       12.8155,      -12.8125,  -277.193E-03,   2.47384E-03
C:/temp/dataset/0/2_24.odb,Step-1,Increment      1: Step Time =    1.000,"PART-1-1",           101,       3.77421,       21.6807,            0.,NA,NA,"",       12.2347,      -12.1557,      -1.38783,   62.1695E-03
C:/temp/dataset/0/2_24.odb,Step-1,Increment      1: Step Time =    1.000,"PART-1-1",           102,   339.763E-03,       22.0764,            0.,NA,NA,"",       12.2552,      -12.1695,      -1.44667,   29.9720E-03
C:/temp/dataset/0/2_24.odb,Step-1,Increment      1: Step Time =    1.000,"PART-1-1",           103,       2.04677,       21.7082,            0.,NA,NA,"",       12.2363,      -12.1543,      -1.41397,   30.5007E-03
C:/temp/dataset/0/2_24.odb,Step-1,Increment      1: Step Time =    1.000,"PART-1-1",           104,       11.0234,       27.4901,            0.,NA,NA,"",       12.8041,      -12.7859,  -683.040E-03,   20.4328E-03
C:/temp/dataset/0/2_24.odb,Step-1,Increment      1: Step Time =    1.000,"PART-1-1",           105,       8.98111,       27.5559,            0.,NA,NA,"",       12.7902,      -12.7583,  -903.044E-03,   22.3943E-03
C:/temp/dataset/0/2_24.odb,Step-1,Increment      1: Step Time =    1.000,"PART-1-1",           106,      -4.39315,       22.5924,            0.,NA,NA,"",       12.2632,      -12.1602,      -1.58587,   56.3950E-03
C:/temp/dataset/0/2_24.odb,Step-1,Increment      1: Step Time =    1.000,"PART-1-1",           107,       12.7609,      -22.7550,            0.,NA,NA,"",   553.727E-03,  -349.733E-03,   429.302E-03,   75.4946E-03
C:/temp/dataset/0/2_24.odb,Step-1,Increment      1: Step Time =    1.000,"PART-1-1",           108,       12.5528,      -15.2766,            0.,NA,NA,"",       1.79429,      -1.61957,   772.328E-03,   64.1351E-03
C:/temp/dataset/0/2_24.odb,Step-1,Increment      1: Step Time =    1.000,"PART-1-1",           109,       12.2205,       7.28465,            0.,NA,NA,"",       8.90076,      -8.90057,   58.2282E-03,   18.5712E-03
C:/temp/dataset/0/2_24.odb,Step-1,Increment      1: Step Time =    1.000,"PART-1-1",           110,       12.4622,       15.2934,            0.,NA,NA,"",       11.2359,      -11.2321,  -288.920E-03,   28.6612E-03
C:/temp/dataset/0/2_24.odb,Step-1,Increment      1: Step Time =    1.000,"PART-1-1",           111,       12.8846,       22.6339,            0.,NA,NA,"",       12.4252,      -12.4180,  -422.058E-03,   38.7724E-03
C:/temp/dataset/0/2_24.odb,Step-1,Increment      1: Step Time =    1.000,"PART-1-1",           112,  -340.860E-03,      -22.2697,            0.,NA,NA,"",   255.573E-03,  -255.482E-03,   6.80950E-03,   28.6279E-03
C:/temp/dataset/0/2_24.odb,Step-1,Increment      1: Step Time =    1.000,"PART-1-1",           113,       6.83628,       27.6500,            0.,NA,NA,"",       12.7699,      -12.7220,      -1.10440,   19.8136E-03
C:/temp/dataset/0/2_24.odb,Step-1,Increment      1: Step Time =    1.000,"PART-1-1",           114,       12.2535,       9.99399,            0.,NA,NA,"",       9.75226,      -9.75197,  -74.4782E-03,   19.8808E-03
C:/temp/dataset/0/2_24.odb,Step-1,Increment      1: Step Time =    1.000,"PART-1-1",           115,       12.4991,  -638.118E-03,            0.,NA,NA,"",       6.25141,      -6.22788,   541.898E-03,   25.2935E-03
C:/temp/dataset/0/2_24.odb,Step-1,Increment      1: Step Time =    1.000,"PART-1-1",           116,       12.8164,      -7.55827,            0.,NA,NA,"",       3.98774,      -3.89334,   862.505E-03,   42.5049E-03
C:/temp/dataset/0/2_24.odb,Step-1,Increment      1: Step Time =    1.000,"PART-1-1",           117,       12.7714,      -20.2702,            0.,NA,NA,"",   868.047E-03,  -641.237E-03,   585.083E-03,   77.7373E-03
C:/temp/dataset/0/2_24.odb,Step-1,Increment      1: Step Time =    1.000,"PART-1-1",           118,      -1.80101,       22.4804,            0.,NA,NA,"",       12.2681,      -12.1758,      -1.50156,   50.9029E-03
C:/temp/dataset/0/2_24.odb,Step-1,Increment      1: Step Time =    1.000,"PART-1-1",           119,       4.41791,       27.8041,            0.,NA,NA,"",       12.7501,      -12.6865,      -1.27154,   21.8716E-03
C:/temp/dataset/0/2_24.odb,Step-1,Increment      1: Step Time =    1.000,"PART-1-1",           120,       2.00441,       27.9652,            0.,NA,NA,"",       12.7444,      -12.6691,      -1.38318,   25.9864E-03
C:/temp/dataset/0/2_24.odb,Step-1,Increment      1: Step Time =    1.000,"PART-1-1",           121,      -2.69107,      -22.1951,            0.,NA,NA,"",   261.015E-03,  -249.549E-03,   76.5127E-03,   46.9359E-03
C:/temp/dataset/0/2_24.odb,Step-1,Increment      1: Step Time =    1.000,"PART-1-1",           122,       1.88995,      -22.5465,            0.,NA,NA,"",   259.784E-03,  -251.164E-03,  -66.3671E-03,   49.6161E-03
C:/temp/dataset/0/2_24.odb,Step-1,Increment      1: Step Time =    1.000,"PART-1-1",           123,       3.76320,      -23.2871,            0.,NA,NA,"",   265.333E-03,  -237.830E-03,  -117.639E-03,   55.6363E-03
C:/temp/dataset/0/2_24.odb,Step-1,Increment      1: Step Time =    1.000,"PART-1-1",           124,       12.5645,      -25.1614,            0.,NA,NA,"",   312.560E-03,  -166.891E-03,   264.275E-03,   69.6898E-03
C:/temp/dataset/0/2_24.odb,Step-1,Increment      1: Step Time =    1.000,"PART-1-1",           125,       12.6631,      -17.7963,            0.,NA,NA,"",       1.27200,      -1.06089,   701.786E-03,   73.3870E-03
C:/temp/dataset/0/2_24.odb,Step-1,Increment      1: Step Time =    1.000,"PART-1-1",           126,       12.5016,      -12.6810,            0.,NA,NA,"",       2.44128,      -2.30470,   805.110E-03,   55.4246E-03
C:/temp/dataset/0/2_24.odb,Step-1,Increment      1: Step Time =    1.000,"PART-1-1",           127,       12.5761,      -10.0660,            0.,NA,NA,"",       3.19066,      -3.08196,   825.742E-03,   48.3033E-03
C:/temp/dataset/0/2_24.odb,Step-1,Increment      1: Step Time =    1.000,"PART-1-1",           128,       13.0467,      -5.23700,            0.,NA,NA,"",       4.76190,      -4.67999,   879.388E-03,   36.5188E-03
C:/temp/dataset/0/2_24.odb,Step-1,Increment      1: Step Time =    1.000,"PART-1-1",           129,       12.8236,      -2.99729,            0.,NA,NA,"",       5.48135,      -5.43125,   739.429E-03,   29.9812E-03
C:/temp/dataset/0/2_24.odb,Step-1,Increment      1: Step Time =    1.000,"PART-1-1",           130,       12.3116,       1.92449,            0.,NA,NA,"",       7.11380,      -7.10455,   362.687E-03,   21.7800E-03
C:/temp/dataset/0/2_24.odb,Step-1,Increment      1: Step Time =    1.000,"PART-1-1",           131,       12.2319,       4.58053,            0.,NA,NA,"",       8.00967,      -8.00709,   203.275E-03,   19.5063E-03
C:/temp/dataset/0/2_24.odb,Step-1,Increment      1: Step Time =    1.000,"PART-1-1",           132,       12.3276,       12.6723,            0.,NA,NA,"",       10.5359,      -10.5341,  -194.340E-03,   25.6298E-03
C:/temp/dataset/0/2_24.odb,Step-1,Increment      1: Step Time =    1.000,"PART-1-1",           133,       12.6288,       17.8043,            0.,NA,NA,"",       11.7903,      -11.7852,  -350.045E-03,   22.7668E-03
C:/temp/dataset/0/2_24.odb,Step-1,Increment      1: Step Time =    1.000,"PART-1-1",           134,       12.7774,       20.2190,            0.,NA,NA,"",       12.1749,      -12.1687,  -390.477E-03,   28.8899E-03
C:/temp/dataset/0/2_24.odb,Step-1,Increment      1: Step Time =    1.000,"PART-1-1",           135,       2.42682,       23.0828,            0.,NA,NA,"",       12.3354,      -12.2557,      -1.40023,   39.7595E-03
C:/temp/dataset/0/2_24.odb,Step-1,Increment      1: Step Time =    1.000,"PART-1-1",           136,       13.0358,       27.4773,            0.,NA,NA,"",       12.8115,      -12.8030,  -466.865E-03,   12.2803E-03
C:/temp/dataset/0/2_24.odb,Step-1,Increment      1: Step Time =    1.000,"PART-1-1",           137,       10.8553,       25.1313,            0.,NA,NA,"",       12.6156,      -12.5961,  -700.270E-03,   31.1055E-03
C:/temp/dataset/0/2_24.odb,Step-1,Increment      1: Step Time =    1.000,"PART-1-1",           138,       5.66135,       21.5046,            0.,NA,NA,"",       12.2355,      -12.1611,      -1.34775,   63.7211E-03
C:/temp/dataset/0/2_24.odb,Step-1,Increment      1: Step Time =    1.000,"PART-1-1",           139,       1.38191,       23.9574,            0.,NA,NA,"",       12.4018,      -12.3206,      -1.41717,   42.1799E-03
C:/temp/dataset/0/2_24.odb,Step-1,Increment      1: Step Time =    1.000,"PART-1-1",           140,       8.68595,       25.2651,            0.,NA,NA,"",       12.6054,      -12.5694,  -952.796E-03,   29.4037E-03
C:/temp/dataset/0/2_24.odb,Step-1,Increment      1: Step Time =    1.000,"PART-1-1",           141,       12.9664,       25.0396,            0.,NA,NA,"",       12.6126,      -12.6046,  -450.417E-03,   25.8824E-03
C:/temp/dataset/0/2_24.odb,Step-1,Increment      1: Step Time =    1.000,"PART-1-1",           142,       9.99676,      -12.8506,            0.,NA,NA,"",       2.15652,      -2.14494,   223.166E-03,   30.5245E-03
C:/temp/dataset/0/2_24.odb,Step-1,Increment      1: Step Time =    1.000,"PART-1-1",           143,       11.3735,      -5.41139,            0.,NA,NA,"",       4.53787,      -4.52164,   383.380E-03,   31.9610E-03
C:/temp/dataset/0/2_24.odb,Step-1,Increment      1: Step Time =    1.000,"PART-1-1",           144,       9.95511,       15.6727,            0.,NA,NA,"",       11.2794,      -11.2490,  -827.746E-03,   30.3728E-03
C:/temp/dataset/0/2_24.odb,Step-1,Increment      1: Step Time =    1.000,"PART-1-1",           145,       9.67875,       10.0081,            0.,NA,NA,"",       9.68131,      -9.65018,  -775.737E-03,   31.0923E-03
C:/temp/dataset/0/2_24.odb,Step-1,Increment      1: Step Time =    1.000,"PART-1-1",           146,       9.74913,       1.24671,            0.,NA,NA,"",       6.73727,      -6.72525,  -402.340E-03,   27.5958E-03
C:/temp/dataset/0/2_24.odb,Step-1,Increment      1: Step Time =    1.000,"PART-1-1",           147,       10.3027,      -18.1986,            0.,NA,NA,"",   934.556E-03,  -879.821E-03,   315.133E-03,   41.3383E-03
C:/temp/dataset/0/2_24.odb,Step-1,Increment      1: Step Time =    1.000,"PART-1-1",           148,       1.33525,      -24.5624,            0.,NA,NA,"",   206.325E-03,  -201.572E-03,  -44.0292E-03,   45.3881E-03
C:/temp/dataset/0/2_24.odb,Step-1,Increment      1: Step Time =    1.000,"PART-1-1",           149,       9.11730,      -22.7103,            0.,NA,NA,"",   258.273E-03,  -243.828E-03,   85.1648E-03,   24.3071E-03
C:/temp/dataset/0/2_24.odb,Step-1,Increment      1: Step Time =    1.000,"PART-1-1",           150,       12.2648,      -27.5617,            0.,NA,NA,"",   130.327E-03,  -55.6982E-03,   117.826E-03,   61.9412E-03
C:/temp/dataset/0/2_24.odb,Step-1,Increment      1: Step Time =    1.000,"PART-1-1",           151,       10.6108,      -20.5371,            0.,NA,NA,"",   592.242E-03,  -511.588E-03,   298.374E-03,   48.7962E-03
C:/temp/dataset/0/2_24.odb,Step-1,Increment      1: Step Time =    1.000,"PART-1-1",           152,       10.0930,      -9.97392,            0.,NA,NA,"",       2.99075,      -2.98592,   169.803E-03,   30.0079E-03
C:/temp/dataset/0/2_24.odb,Step-1,Increment      1: Step Time =    1.000,"PART-1-1",           153,       9.63546,       7.06865,            0.,NA,NA,"",       8.73257,      -8.70550,  -687.042E-03,   29.6558E-03
C:/temp/dataset/0/2_24.odb,Step-1,Increment      1: Step Time =    1.000,"PART-1-1",           154,       10.2222,       18.2240,            0.,NA,NA,"",       11.8270,      -11.8004,  -792.404E-03,   17.2328E-03
C:/temp/dataset/0/2_24.odb,Step-1,Increment      1: Step Time =    1.000,"PART-1-1",           155,       10.5456,      -3.97788,            0.,NA,NA,"",       4.96216,      -4.96151,   80.4032E-03,   29.2517E-03
C:/temp/dataset/0/2_24.odb,Step-1,Increment      1: Step Time =    1.000,"PART-1-1",           156,       10.0733,      -15.6212,            0.,NA,NA,"",       1.45756,      -1.42981,   283.104E-03,   38.1770E-03
C:/temp/dataset/0/2_24.odb,Step-1,Increment      1: Step Time =    1.000,"PART-1-1",           157,       10.5412,      -7.26051,            0.,NA,NA,"",       3.86961,      -3.86415,   205.370E-03,   30.7505E-03
C:/temp/dataset/0/2_24.odb,Step-1,Increment      1: Step Time =    1.000,"PART-1-1",           158,       9.98625,      -1.55753,            0.,NA,NA,"",       5.76697,      -5.76356,  -198.365E-03,   27.6110E-03
C:/temp/dataset/0/2_24.odb,Step-1,Increment      1: Step Time =    1.000,"PART-1-1",           159,       9.65058,       4.13273,            0.,NA,NA,"",       7.73778,      -7.71729,  -562.847E-03,   28.4355E-03
C:/temp/dataset/0/2_24.odb,Step-1,Increment      1: Step Time =    1.000,"PART-1-1",           160,       9.76871,       12.8936,            0.,NA,NA,"",       10.5433,      -10.5109,  -826.786E-03,   32.7015E-03
C:/temp/dataset/0/2_24.odb,Step-1,Increment      1: Step Time =    1.000,"PART-1-1",           161,       10.4870,       20.5197,            0.,NA,NA,"",       12.1837,      -12.1604,  -753.929E-03,   25.1305E-03
C:/temp/dataset/0/2_24.odb,Step-1,Increment      1: Step Time =    1.000,"PART-1-1",           162,       3.57821,       25.4429,            0.,NA,NA,"",       12.5466,      -12.4753,      -1.33626,   36.3877E-03
C:/temp/dataset/0/2_24.odb,Step-1,Increment      1: Step Time =    1.000,"PART-1-1",           163,       6.34843,       25.4199,            0.,NA,NA,"",       12.5835,      -12.5286,      -1.17379,   28.0093E-03
C:/temp/dataset/0/2_24.odb,Step-1,Increment      1: Step Time =    1.000,"PART-1-1",           164,       2.85591,      -26.4171,            0.,NA,NA,"",   129.660E-03,  -120.644E-03,  -47.5051E-03,   36.4674E-03
C:/temp/dataset/0/2_24.odb,Step-1,Increment      1: Step Time =    1.000,"PART-1-1",           165,  -631.401E-03,       25.1574,            0.,NA,NA,"",       12.5023,      -12.4158,      -1.46872,   42.6038E-03
C:/temp/dataset/0/2_24.odb,Step-1,Increment      1: Step Time =    1.000,"PART-1-1",           166,  -516.865E-03,       27.6990,            0.,NA,NA,"",       12.7314,      -12.6452,      -1.47947,   30.1415E-03
C:/temp/dataset/0/2_24.odb,Step-1,Increment      1: Step Time =    1.000,"PART-1-1",           167,      -6.99102,       22.3744,            0.,NA,NA,"",       12.2736,      -12.1335,      -1.84944,   46.7492E-03
C:/temp/dataset/0/2_24.odb,Step-1,Increment      1: Step Time =    1.000,"PART-1-1",           168,      -5.11091,      -22.0245,            0.,NA,NA,"",   288.942E-03,  -251.465E-03,   142.313E-03,   52.6340E-03
C:/temp/dataset/0/2_24.odb,Step-1,Increment      1: Step Time =    1.000,"PART-1-1",           169,       6.75166,      -22.2774,            0.,NA,NA,"",   274.361E-03,  -252.665E-03,  -106.932E-03,   28.5248E-03
C:/temp/dataset/0/2_24.odb,Step-1,Increment      1: Step Time =    1.000,"PART-1-1",           170,       8.44380,       23.0750,            0.,NA,NA,"",       12.4239,      -12.3824,      -1.01507,   38.6107E-03
C:/temp/dataset/0/2_24.odb,Step-1,Increment      1: Step Time =    1.000,"PART-1-1",           171,       3.98751,       23.4543,            0.,NA,NA,"",       12.3791,      -12.3046,      -1.35556,   48.1706E-03
C:/temp/dataset/0/2_24.odb,Step-1,Increment      1: Step Time =    1.000,"PART-1-1",           172,       7.74283,       18.8612,            0.,NA,NA,"",       11.9046,      -11.8439,      -1.20082,   40.9484E-03
C:/temp/dataset/0/2_24.odb,Step-1,Increment      1: Step Time =    1.000,"PART-1-1",           173,  -206.614E-03,      -27.1815,            0.,NA,NA,"",   105.916E-03,  -105.845E-03,  -3.89943E-03,   30.7912E-03
C:/temp/dataset/0/2_24.odb,Step-1,Increment      1: Step Time =    1.000,"PART-1-1",           174,       10.6950,       22.8157,            0.,NA,NA,"",       12.4267,      -12.4058,  -721.010E-03,   36.0476E-03
C:/temp/dataset/0/2_24.odb,Step-1,Increment      1: Step Time =    1.000,"PART-1-1",           175,       1.78109,       26.2982,            0.,NA,NA,"",       12.6076,      -12.5300,      -1.39594,   36.6146E-03
C:/temp/dataset/0/2_24.odb,Step-1,Increment      1: Step Time =    1.000,"PART-1-1",           176,       7.62536,      -9.80486,            0.,NA,NA,"",       2.98241,      -2.94031,  -499.380E-03,   20.1081E-03
C:/temp/dataset/0/2_24.odb,Step-1,Increment      1: Step Time =    1.000,"PART-1-1",           177,       7.50504,      -2.60802,            0.,NA,NA,"",       5.34383,      -5.26457,  -916.966E-03,   19.2316E-03
C:/temp/dataset/0/2_24.odb,Step-1,Increment      1: Step Time =    1.000,"PART-1-1",           178,       7.24337,       3.70501,            0.,NA,NA,"",       7.54031,      -7.43027,      -1.28348,   30.2651E-03
C:/temp/dataset/0/2_24.odb,Step-1,Increment      1: Step Time =    1.000,"PART-1-1",           179,       7.25379,       10.0129,            0.,NA,NA,"",       9.63187,      -9.52538,      -1.42830,   47.7508E-03
C:/temp/dataset/0/2_24.odb,Step-1,Increment      1: Step Time =    1.000,"PART-1-1",           180,       7.22962,       6.85747,            0.,NA,NA,"",       8.61207,      -8.50026,      -1.38322,   38.6309E-03
C:/temp/dataset/0/2_24.odb,Step-1,Increment      1: Step Time =    1.000,"PART-1-1",           181,       7.49186,      -13.0485,            0.,NA,NA,"",       2.05111,      -2.01889,  -362.170E-03,   27.5569E-03
C:/temp/dataset/0/2_24.odb,Step-1,Increment      1: Step Time =    1.000,"PART-1-1",           182,       8.10600,      -6.05436,            0.,NA,NA,"",       4.17666,      -4.13968,  -554.530E-03,   20.5164E-03
C:/temp/dataset/0/2_24.odb,Step-1,Increment      1: Step Time =    1.000,"PART-1-1",           183,       7.31265,   557.236E-03,            0.,NA,NA,"",       6.44497,      -6.34480,      -1.13186,   23.3330E-03
C:/temp/dataset/0/2_24.odb,Step-1,Increment      1: Step Time =    1.000,"PART-1-1",           184,       7.30605,       13.1330,            0.,NA,NA,"",       10.5566,      -10.4618,      -1.41190,   57.8163E-03
C:/temp/dataset/0/2_24.odb,Step-1,Increment      1: Step Time =    1.000,"PART-1-1",           185,       8.51669,      -21.0731,            0.,NA,NA,"",   384.396E-03,  -382.146E-03,   41.5305E-03,   31.6749E-03
C:/temp/dataset/0/2_24.odb,Step-1,Increment      1: Step Time =    1.000,"PART-1-1",           186,       7.54046,      -16.1016,            0.,NA,NA,"",       1.27895,      -1.26242,  -205.016E-03,   44.5232E-03
C:/temp/dataset/0/2_24.odb,Step-1,Increment      1: Step Time =    1.000,"PART-1-1",           187,       7.81864,      -18.8426,            0.,NA,NA,"",   688.725E-03,  -686.881E-03,  -50.3696E-03,   40.5239E-03
C:/temp/dataset/0/2_24.odb,Step-1,Increment      1: Step Time =    1.000,"PART-1-1",           188,       7.43701,       16.1533,            0.,NA,NA,"",       11.3348,      -11.2563,      -1.33218,   66.8281E-03
C:/temp/dataset/0/2_24.odb,Step-1,Increment      1: Step Time =    1.000,"PART-1-1",           189,       8.13437,       20.9213,            0.,NA,NA,"",       12.2085,      -12.1588,      -1.10096,   35.7076E-03
C:/temp/dataset/0/2_24.odb,Step-1,Increment      1: Step Time =    1.000,"PART-1-1",           190,       10.1795,      -24.9689,            0.,NA,NA,"",   171.775E-03,  -120.706E-03,   122.216E-03,   32.0032E-03
C:/temp/dataset/0/2_24.odb,Step-1,Increment      1: Step Time =    1.000,"PART-1-1",           191,      -2.92607,      -24.6642,            0.,NA,NA,"",   183.856E-03,  -174.600E-03,   57.6028E-03,   42.1063E-03
C:/temp/dataset/0/2_24.odb,Step-1,Increment      1: Step Time =    1.000,"PART-1-1",           192,      -7.32959,       16.5303,            0.,NA,NA,"",       11.0515,      -10.9338,      -1.60906,   61.2189E-03
C:/temp/dataset/0/2_24.odb,Step-1,Increment      1: Step Time =    1.000,"PART-1-1",           193,      -3.80789,       25.1547,            0.,NA,NA,"",       12.5290,      -12.4250,      -1.61144,   32.7917E-03
C:/temp/dataset/0/2_24.odb,Step-1,Increment      1: Step Time =    1.000,"PART-1-1",           194,      -7.16094,      -19.5479,            0.,NA,NA,"",   456.526E-03,  -443.677E-03,   107.547E-03,   28.8627E-03
C:/temp/dataset/0/2_24.odb,Step-1,Increment      1: Step Time =    1.000,"PART-1-1",           195,       6.10177,       23.3904,            0.,NA,NA,"",       12.4102,      -12.3478,      -1.24254,   41.0041E-03
C:/temp/dataset/0/2_24.odb,Step-1,Increment      1: Step Time =    1.000,"PART-1-1",           196,      -3.02004,      -27.2699,            0.,NA,NA,"",   86.5047E-03,  -84.2430E-03,   19.6515E-03,   29.4903E-03
C:/temp/dataset/0/2_24.odb,Step-1,Increment      1: Step Time =    1.000,"PART-1-1",           197,      -5.46178,      -24.4382,            0.,NA,NA,"",   160.260E-03,  -142.528E-03,   73.2734E-03,   33.8907E-03
C:/temp/dataset/0/2_24.odb,Step-1,Increment      1: Step Time =    1.000,"PART-1-1",           198,      -9.66724,       21.9754,            0.,NA,NA,"",       12.2495,      -12.0313,      -2.30150,   31.1487E-03
C:/temp/dataset/0/2_24.odb,Step-1,Increment      1: Step Time =    1.000,"PART-1-1",           199,      -7.19512,      -21.6661,            0.,NA,NA,"",   257.999E-03,  -245.984E-03,   77.8185E-03,   22.4436E-03
C:/temp/dataset/0/2_24.odb,Step-1,Increment      1: Step Time =    1.000,"PART-1-1",           200,      -3.42041,       27.6042,            0.,NA,NA,"",       12.7702,      -12.6657,      -1.63109,   27.4765E-03
C:/temp/dataset/0/2_24.odb,Step-1,Increment      1: Step Time =    1.000,"PART-1-1",           201,       5.45774,      -23.9133,            0.,NA,NA,"",   213.679E-03,  -183.899E-03,  -108.811E-03,   46.0234E-03
C:/temp/dataset/0/2_24.odb,Step-1,Increment      1: Step Time =    1.000,"PART-1-1",           202,      -6.69209,       24.9820,            0.,NA,NA,"",       12.5757,      -12.4340,      -1.88256,   28.6985E-03
C:/temp/dataset/0/2_24.odb,Step-1,Increment      1: Step Time =    1.000,"PART-1-1",           203,      -12.3718,      -14.6182,            0.,NA,NA,"",       1.50341,      -1.26651,  -810.057E-03,   51.6101E-03
C:/temp/dataset/0/2_24.odb,Step-1,Increment      1: Step Time =    1.000,"PART-1-1",           204,      -5.91076,      -27.0963,            0.,NA,NA,"",   53.4029E-03,  -49.0064E-03,   21.2190E-03,   23.8976E-03
C:/temp/dataset/0/2_24.odb,Step-1,Increment      1: Step Time =    1.000,"PART-1-1",           205,      -9.09285,      -26.5479,            0.,NA,NA,"",   43.1683E-03,  -27.1639E-03,  -33.5503E-03,   13.8999E-03
C:/temp/dataset/0/2_24.odb,Step-1,Increment      1: Step Time =    1.000,"PART-1-1",           206,      -12.2958,       24.3839,            0.,NA,NA,"",       12.6187,      -12.3081,      -2.78259,   31.5649E-03
C:/temp/dataset/0/2_24.odb,Step-1,Increment      1: Step Time =    1.000,"PART-1-1",           207,      -12.3670,       18.5668,            0.,NA,NA,"",       11.6386,      -11.2915,      -2.82090,   26.2133E-03
C:/temp/dataset/0/2_24.odb,Step-1,Increment      1: Step Time =    1.000,"PART-1-1",           208,      -12.3673,       12.5421,            0.,NA,NA,"",       10.0293,      -9.65946,      -2.69842,   21.0697E-03
C:/temp/dataset/0/2_24.odb,Step-1,Increment      1: Step Time =    1.000,"PART-1-1",           209,      -12.4084,       3.45294,            0.,NA,NA,"",       6.99368,      -6.64031,      -2.19498,   21.5379E-03
C:/temp/dataset/0/2_24.odb,Step-1,Increment      1: Step Time =    1.000,"PART-1-1",           210,      -12.4043,      -5.59421,            0.,NA,NA,"",       3.92592,      -3.63291,      -1.48824,   37.1483E-03
C:/temp/dataset/0/2_24.odb,Step-1,Increment      1: Step Time =    1.000,"PART-1-1",           211,      -12.3838,       9.50768,            0.,NA,NA,"",       9.06505,      -8.69395,      -2.56716,   18.6614E-03
C:/temp/dataset/0/2_24.odb,Step-1,Increment      1: Step Time =    1.000,"PART-1-1",           212,      -12.4013,       6.47621,            0.,NA,NA,"",       8.04357,      -7.67790,      -2.39768,   18.6302E-03
C:/temp/dataset/0/2_24.odb,Step-1,Increment      1: Step Time =    1.000,"PART-1-1",           213,      -12.4173,   428.232E-03,            0.,NA,NA,"",       5.93898,      -5.60231,      -1.97120,   26.1665E-03
C:/temp/dataset/0/2_24.odb,Step-1,Increment      1: Step Time =    1.000,"PART-1-1",           214,      -12.4160,      -2.58791,            0.,NA,NA,"",       4.90799,      -4.59204,      -1.73248,   31.5962E-03
C:/temp/dataset/0/2_24.odb,Step-1,Increment      1: Step Time =    1.000,"PART-1-1",           215,      -12.4014,      -8.61211,            0.,NA,NA,"",       3.01223,      -2.74034,      -1.25063,   42.6001E-03
C:/temp/dataset/0/2_24.odb,Step-1,Increment      1: Step Time =    1.000,"PART-1-1",           216,      -12.3969,      -11.6247,            0.,NA,NA,"",       2.19614,      -1.94274,      -1.02411,   47.5972E-03
C:/temp/dataset/0/2_24.odb,Step-1,Increment      1: Step Time =    1.000,"PART-1-1",           217,      -12.3009,      -17.6498,            0.,NA,NA,"",   945.184E-03,  -726.846E-03,  -604.208E-03,   53.9746E-03
C:/temp/dataset/0/2_24.odb,Step-1,Increment      1: Step Time =    1.000,"PART-1-1",           218,      -11.9370,      -20.9397,            0.,NA,NA,"",   499.712E-03,  -329.173E-03,  -375.976E-03,   50.9428E-03
C:/temp/dataset/0/2_24.odb,Step-1,Increment      1: Step Time =    1.000,"PART-1-1",           219,       6.28266,      -26.4725,            0.,NA,NA,"",   78.2982E-03,  -68.6591E-03,  -37.6369E-03,   25.2631E-03
C:/temp/dataset/0/2_24.odb,Step-1,Increment      1: Step Time =    1.000,"PART-1-1",           220,      -12.3616,       21.4963,            0.,NA,NA,"",       12.1983,      -11.8702,      -2.81001,   28.8338E-03
C:/temp/dataset/0/2_24.odb,Step-1,Increment      1: Step Time =    1.000,"PART-1-1",           221,       9.42071,      -27.3229,            0.,NA,NA,"",   47.4092E-03,  -24.0153E-03,   40.8767E-03,   18.1737E-03
C:/temp/dataset/0/2_24.odb,Step-1,Increment      1: Step Time =    1.000,"PART-1-1",           222,      -12.3680,       15.5612,            0.,NA,NA,"",       10.9002,      -10.5379,      -2.78728,   23.9681E-03
C:/temp/dataset/0/2_24.odb,Step-1,Increment      1: Step Time =    1.000,"PART-1-1",           223,      -6.37126,       27.5191,            0.,NA,NA,"",       12.8453,      -12.7033,      -1.90473,   23.9496E-03
C:/temp/dataset/0/2_24.odb,Step-1,Increment      1: Step Time =    1.000,"PART-1-1",           224,      -7.37426,       13.4489,            0.,NA,NA,"",       10.1844,      -10.0901,      -1.38282,   45.2140E-03
C:/temp/dataset/0/2_24.odb,Step-1,Increment      1: Step Time =    1.000,"PART-1-1",           225,      -7.40401,       7.31385,            0.,NA,NA,"",       8.22560,      -8.17687,  -893.978E-03,   30.3808E-03
C:/temp/dataset/0/2_24.odb,Step-1,Increment      1: Step Time =    1.000,"PART-1-1",           226,      -7.40102,      -1.84560,            0.,NA,NA,"",       5.06080,      -5.05551,  -231.408E-03,   17.0687E-03
C:/temp/dataset/0/2_24.odb,Step-1,Increment      1: Step Time =    1.000,"PART-1-1",           227,      -7.36253,      -10.9851,            0.,NA,NA,"",       2.23427,      -2.23055,   128.839E-03,   27.9302E-03
C:/temp/dataset/0/2_24.odb,Step-1,Increment      1: Step Time =    1.000,"PART-1-1",           228,      -7.39657,       10.3769,            0.,NA,NA,"",       9.23642,      -9.16587,      -1.13937,   36.6894E-03
C:/temp/dataset/0/2_24.odb,Step-1,Increment      1: Step Time =    1.000,"PART-1-1",           229,      -7.41369,       4.25226,            0.,NA,NA,"",       7.17398,      -7.14391,  -656.167E-03,   24.4085E-03
C:/temp/dataset/0/2_24.odb,Step-1,Increment      1: Step Time =    1.000,"PART-1-1",           230,      -7.41413,       1.19777,            0.,NA,NA,"",       6.10975,      -6.09442,  -432.529E-03,   19.5969E-03
C:/temp/dataset/0/2_24.odb,Step-1,Increment      1: Step Time =    1.000,"PART-1-1",           231,      -7.39700,      -4.89906,            0.,NA,NA,"",       4.04517,      -4.04460,  -68.0235E-03,   18.1220E-03
C:/temp/dataset/0/2_24.odb,Step-1,Increment      1: Step Time =    1.000,"PART-1-1",           232,      -7.39133,      -7.95434,            0.,NA,NA,"",       3.09184,      -3.09139,   52.2484E-03,   22.2118E-03
C:/temp/dataset/0/2_24.odb,Step-1,Increment      1: Step Time =    1.000,"PART-1-1",           233,      -7.32483,      -13.9963,            0.,NA,NA,"",       1.48925,      -1.48137,   153.048E-03,   35.6225E-03
C:/temp/dataset/0/2_24.odb,Step-1,Increment      1: Step Time =    1.000,"PART-1-1",           234,      -9.29453,       27.3932,            0.,NA,NA,"",       12.9218,      -12.7141,      -2.30729,   28.3572E-03
C:/temp/dataset/0/2_24.odb,Step-1,Increment      1: Step Time =    1.000,"PART-1-1",           235,      -9.79647,       16.0793,            0.,NA,NA,"",       10.9889,      -10.7697,      -2.18390,   25.8636E-03
C:/temp/dataset/0/2_24.odb,Step-1,Increment      1: Step Time =    1.000,"PART-1-1",           236,      -10.5694,      -24.3397,            0.,NA,NA,"",   167.070E-03,  -98.5888E-03,  -134.880E-03,   30.2922E-03
C:/temp/dataset/0/2_24.odb,Step-1,Increment      1: Step Time =    1.000,"PART-1-1",           237,      -9.80814,      -14.2636,            0.,NA,NA,"",       1.39638,      -1.35711,  -328.815E-03,   19.8392E-03
C:/temp/dataset/0/2_24.odb,Step-1,Increment      1: Step Time =    1.000,"PART-1-1",           238,      -9.84607,      -11.2856,            0.,NA,NA,"",       2.11795,      -2.07041,  -446.220E-03,   22.0249E-03
C:/temp/dataset/0/2_24.odb,Step-1,Increment      1: Step Time =    1.000,"PART-1-1",           239,      -9.85160,       9.96190,            0.,NA,NA,"",       9.13738,      -8.94985,      -1.84168,   26.7165E-03
C:/temp/dataset/0/2_24.odb,Step-1,Increment      1: Step Time =    1.000,"PART-1-1",           240,      -9.42013,      -19.6871,            0.,NA,NA,"",   450.272E-03,  -428.673E-03,  -137.783E-03,   15.5694E-03
C:/temp/dataset/0/2_24.odb,Step-1,Increment      1: Step Time =    1.000,"PART-1-1",           241,      -9.87385,       6.90801,            0.,NA,NA,"",       8.10700,      -7.93998,      -1.63716,   26.9041E-03
C:/temp/dataset/0/2_24.odb,Step-1,Increment      1: Step Time =    1.000,"PART-1-1",           242,      -9.72088,      -17.1529,            0.,NA,NA,"",   826.061E-03,  -792.543E-03,  -232.922E-03,   20.8413E-03
C:/temp/dataset/0/2_24.odb,Step-1,Increment      1: Step Time =    1.000,"PART-1-1",           243,      -7.24385,      -16.9197,            0.,NA,NA,"",   887.340E-03,  -875.943E-03,   141.762E-03,   48.6663E-03
C:/temp/dataset/0/2_24.odb,Step-1,Increment      1: Step Time =    1.000,"PART-1-1",           244,      -9.88569,       3.86363,            0.,NA,NA,"",       7.04314,      -6.89879,      -1.41861,   27.0140E-03
C:/temp/dataset/0/2_24.odb,Step-1,Increment      1: Step Time =    1.000,"PART-1-1",           245,      -9.88680,   826.149E-03,            0.,NA,NA,"",       5.97155,      -5.85079,      -1.19484,   26.7905E-03
C:/temp/dataset/0/2_24.odb,Step-1,Increment      1: Step Time =    1.000,"PART-1-1",           246,      -9.87953,      -2.20322,            0.,NA,NA,"",       4.91892,      -4.82111,  -976.049E-03,   26.1977E-03
C:/temp/dataset/0/2_24.odb,Step-1,Increment      1: Step Time =    1.000,"PART-1-1",           247,      -9.87339,      -5.23467,            0.,NA,NA,"",       3.90789,      -3.83050,  -773.848E-03,   25.2173E-03
C:/temp/dataset/0/2_24.odb,Step-1,Increment      1: Step Time =    1.000,"PART-1-1",           248,      -9.87035,      -8.27303,            0.,NA,NA,"",       2.96282,      -2.90210,  -596.755E-03,   23.8482E-03
C:/temp/dataset/0/2_24.odb,Step-1,Increment      1: Step Time =    1.000,"PART-1-1",           249,      -12.1942,       27.2250,            0.,NA,NA,"",       12.9792,      -12.6800,      -2.77067,   24.1201E-03
C:/temp/dataset/0/2_24.odb,Step-1,Increment      1: Step Time =    1.000,"PART-1-1",           250,      -12.1946,      -27.0241,            0.,NA,NA,"",   124.754E-03,  -38.8394E-03,  -118.555E-03,   50.9037E-03
C:/temp/dataset/0/2_24.odb,Step-1,Increment      1: Step Time =    1.000,"PART-1-1",           251,      -9.83578,       13.0151,            0.,NA,NA,"",       10.1056,      -9.89955,      -2.03037,   25.8616E-03
C:/temp/dataset/0/2_24.odb,Step-1,Increment      1: Step Time =    1.000,"PART-1-1",           252,      -12.4960,      -24.1891,            0.,NA,NA,"",   294.145E-03,  -133.016E-03,  -262.351E-03,   57.2172E-03
C:/temp/dataset/0/2_24.odb,Step-1,Increment      1: Step Time =    1.000,"PART-1-1",           253,      -7.26398,       19.6069,            0.,NA,NA,"",       11.8298,      -11.6920,      -1.80078,   41.8216E-03
C:/temp/dataset/0/2_24.odb,Step-1,Increment      1: Step Time =    1.000,"PART-1-1",           254,      -9.78845,      -22.6320,            0.,NA,NA,"",   214.366E-03,  -179.581E-03,  -117.061E-03,   21.7476E-03
C:/temp/dataset/0/2_24.odb,Step-1,Increment      1: Step Time =    1.000,"PART-1-1",           255,       8.11622,      -24.1302,            0.,NA,NA,"",   145.996E-03,  -145.959E-03,   3.24574E-03,   6.86606E-03
C:/temp/dataset/0/2_24.odb,Step-1,Increment      1: Step Time =    1.000,"PART-1-1",           256,       10.7040,      -22.7860,            0.,NA,NA,"",   359.897E-03,  -276.190E-03,   230.750E-03,   45.3418E-03
C:/temp/dataset/0/2_24.odb,Step-1,Increment      1: Step Time =    1.000,"PART-1-1",           257,      -8.82647,      -21.3553,            0.,NA,NA,"",   268.871E-03,  -263.836E-03,  -51.7895E-03,   12.6051E-03
C:/temp/dataset/0/2_24.odb,Step-1,Increment      1: Step Time =    1.000,"PART-1-1",           258,      -9.77631,       19.1047,            0.,NA,NA,"",       11.7275,      -11.5032,      -2.28281,   17.0860E-03
C:/temp/dataset/0/2_24.odb,Step-1,Increment      1: Step Time =    1.000,"PART-1-1",           259,      -7.77355,      -23.8785,            0.,NA,NA,"",   126.548E-03,  -125.356E-03,   17.3284E-03,   15.9961E-03
C:/temp/dataset/0/2_24.odb,Step-1,Increment      1: Step Time =    1.000,"PART-1-1",           260,  -536.979E-03,      -24.7394,            0.,NA,NA,"",   192.781E-03,  -192.711E-03,   5.18692E-03,   36.3220E-03
C:/temp/dataset/0/2_24.odb,Step-1,Increment      1: Step Time =    1.000,"PART-1-1",           261,      -9.52558,       24.7102,            0.,NA,NA,"",       12.6085,      -12.3958,      -2.30640,   32.9017E-03
C:/temp/dataset/0/2_24.odb,Step-1,Increment      1: Step Time =    1.000,"PART-1-1",           262,      -2.15050,       21.2402,            0.,NA,NA,"",       12.1670,      -12.0738,      -1.50383,   34.1482E-03
C:/temp/dataset/0/2_24.odb,Step-1,Increment      1: Step Time =    1.000,"PART-1-1",           263,      -3.09708,       22.5364,            0.,NA,NA,"",       12.2487,      -12.1539,      -1.52136,   43.5411E-03
C:/temp/dataset/0/2_24.odb,Step-1,Increment      1: Step Time =    1.000,"PART-1-1",           264,      -4.69657,       21.2962,            0.,NA,NA,"",       12.1131,      -12.0165,      -1.52735,   83.8401E-03
C:/temp/dataset/0/2_24.odb,Step-1,Increment      1: Step Time =    1.000,"PART-1-1",           265,         -3.75,           20.,            0.,NA,NA,"",       12.0588,      -11.9587,      -1.55042,   77.3118E-03
C:/temp/dataset/0/2_24.odb,Step-1,Increment      1: Step Time =    1.000,"PART-1-1",           266,      -4.10052,       23.8735,            0.,NA,NA,"",       12.3979,      -12.2937,      -1.60415,   41.9463E-03
C:/temp/dataset/0/2_24.odb,Step-1,Increment      1: Step Time =    1.000,"PART-1-1",           267,      -5.24999,       25.0683,            0.,NA,NA,"",       12.5484,      -12.4289,      -1.72720,   25.0239E-03
C:/temp/dataset/0/2_24.odb,Step-1,Increment      1: Step Time =    1.000,"PART-1-1",           268,      -6.84155,       23.6782,            0.,NA,NA,"",       12.4314,      -12.2904,      -1.86739,   33.7489E-03
C:/temp/dataset/0/2_24.odb,Step-1,Increment      1: Step Time =    1.000,"PART-1-1",           269,      -5.69208,       22.4834,            0.,NA,NA,"",       12.2691,      -12.1540,      -1.67673,   39.3006E-03
C:/temp/dataset/0/2_24.odb,Step-1,Increment      1: Step Time =    1.000,"PART-1-1",           270,      -7.35192,       14.9896,            0.,NA,NA,"",       10.6332,      -10.5269,      -1.49973,   48.2186E-03
C:/temp/dataset/0/2_24.odb,Step-1,Increment      1: Step Time =    1.000,"PART-1-1",           271,      -8.56303,       16.3048,            0.,NA,NA,"",       11.0227,      -10.8579,      -1.89902,   39.5389E-03
C:/temp/dataset/0/2_24.odb,Step-1,Increment      1: Step Time =    1.000,"PART-1-1",           272,      -9.81613,       14.5472,            0.,NA,NA,"",       10.5579,      -10.3448,      -2.11060,   25.9322E-03
C:/temp/dataset/0/2_24.odb,Step-1,Increment      1: Step Time =    1.000,"PART-1-1",           273,      -8.60502,       13.2320,            0.,NA,NA,"",       10.1430,      -9.99832,      -1.70713,   34.0857E-03
C:/temp/dataset/0/2_24.odb,Step-1,Increment      1: Step Time =    1.000,"PART-1-1",           274,          -15.,         -16.5,            0.,NA,NA,"",       1.50453,  -966.391E-03,      -1.15313,   101.397E-03
C:/temp/dataset/0/2_24.odb,Step-1,Increment      1: Step Time =    1.000,"PART-1-1",           275,      -13.6504,      -17.8249,            0.,NA,NA,"",       1.08022,  -725.963E-03,  -799.905E-03,   78.9957E-03
C:/temp/dataset/0/2_24.odb,Step-1,Increment      1: Step Time =    1.000,"PART-1-1",           276,      -12.3363,      -16.1340,            0.,NA,NA,"",       1.20356,  -975.965E-03,  -704.307E-03,   52.7912E-03
C:/temp/dataset/0/2_24.odb,Step-1,Increment      1: Step Time =    1.000,"PART-1-1",           277,      -13.6859,      -14.8091,            0.,NA,NA,"",       1.62910,      -1.23845,      -1.05839,   74.0042E-03
C:/temp/dataset/0/2_24.odb,Step-1,Increment      1: Step Time =    1.000,"PART-1-1",           278,      -4.46540,      -27.1831,            0.,NA,NA,"",   73.2169E-03,  -68.6185E-03,   25.5386E-03,   26.0902E-03
C:/temp/dataset/0/2_24.odb,Step-1,Increment      1: Step Time =    1.000,"PART-1-1",           279,      -2.97305,      -25.9670,            0.,NA,NA,"",   134.259E-03,  -128.993E-03,   37.2316E-03,   34.8633E-03
C:/temp/dataset/0/2_24.odb,Step-1,Increment      1: Step Time =    1.000,"PART-1-1",           280,      -4.19392,      -24.5512,            0.,NA,NA,"",   175.196E-03,  -159.278E-03,   72.9669E-03,   37.2533E-03
C:/temp/dataset/0/2_24.odb,Step-1,Increment      1: Step Time =    1.000,"PART-1-1",           281,      -5.68627,      -25.7673,            0.,NA,NA,"",   101.211E-03,  -90.9947E-03,   44.3132E-03,   28.4995E-03
C:/temp/dataset/0/2_24.odb,Step-1,Increment      1: Step Time =    1.000,"PART-1-1",           282,      -5.28634,      -23.2314,            0.,NA,NA,"",   219.247E-03,  -192.840E-03,   104.317E-03,   41.6889E-03
C:/temp/dataset/0/2_24.odb,Step-1,Increment      1: Step Time =    1.000,"PART-1-1",           283,      -2.80857,      -23.4296,            0.,NA,NA,"",   231.084E-03,  -219.566E-03,   72.0451E-03,   40.8185E-03
C:/temp/dataset/0/2_24.odb,Step-1,Increment      1: Step Time =    1.000,"PART-1-1",           284,      -3.90099,      -22.1098,            0.,NA,NA,"",   289.579E-03,  -259.639E-03,   128.231E-03,   45.5018E-03
C:/temp/dataset/0/2_24.odb,Step-1,Increment      1: Step Time =    1.000,"PART-1-1",           285,       1.61260,      -23.5545,            0.,NA,NA,"",   241.582E-03,  -235.276E-03,  -54.8377E-03,   41.5047E-03
C:/temp/dataset/0/2_24.odb,Step-1,Increment      1: Step Time =    1.000,"PART-1-1",           286,       2.09558,      -25.4897,            0.,NA,NA,"",   168.595E-03,  -160.935E-03,  -50.2410E-03,   40.2075E-03
C:/temp/dataset/0/2_24.odb,Step-1,Increment      1: Step Time =    1.000,"PART-1-1",           287,       3.30955,      -24.8521,            0.,NA,NA,"",   191.914E-03,  -174.666E-03,  -79.5171E-03,   45.1154E-03
C:/temp/dataset/0/2_24.odb,Step-1,Increment      1: Step Time =    1.000,"PART-1-1",           288,       2.82657,      -22.9168,            0.,NA,NA,"",   280.594E-03,  -258.361E-03,  -109.465E-03,   45.5667E-03
C:/temp/dataset/0/2_24.odb,Step-1,Increment      1: Step Time =    1.000,"PART-1-1",           289,       13.8857,      -20.1351,            0.,NA,NA,"",       1.02967,  -715.476E-03,   740.480E-03,   97.5683E-03
C:/temp/dataset/0/2_24.odb,Step-1,Increment      1: Step Time =    1.000,"PART-1-1",           290,           15.,        -18.75,            0.,NA,NA,"",       1.43114,      -1.00826,       1.01567,   115.553E-03
C:/temp/dataset/0/2_24.odb,Step-1,Increment      1: Step Time =    1.000,"PART-1-1",           291,       13.8316,      -17.6482,            0.,NA,NA,"",       1.46602,      -1.15205,   906.637E-03,   92.7861E-03
C:/temp/dataset/0/2_24.odb,Step-1,Increment      1: Step Time =    1.000,"PART-1-1",           292,       12.7173,      -19.0333,            0.,NA,NA,"",       1.05620,  -833.897E-03,   648.213E-03,   74.7536E-03
C:/temp/dataset/0/2_24.odb,Step-1,Increment      1: Step Time =    1.000,"PART-1-1",           293,       13.7508,      -12.5905,            0.,NA,NA,"",       2.64423,      -2.40133,       1.10707,   69.2784E-03
C:/temp/dataset/0/2_24.odb,Step-1,Increment      1: Step Time =    1.000,"PART-1-1",           294,           15.,        -11.25,            0.,NA,NA,"",       3.22698,      -2.87655,       1.46249,   77.4170E-03
C:/temp/dataset/0/2_24.odb,Step-1,Increment      1: Step Time =    1.000,"PART-1-1",           295,       13.7881,      -10.0330,            0.,NA,NA,"",       3.36846,      -3.16535,       1.15201,   58.2971E-03
C:/temp/dataset/0/2_24.odb,Step-1,Increment      1: Step Time =    1.000,"PART-1-1",           296,       12.5389,      -11.3735,            0.,NA,NA,"",       2.80686,      -2.68437,   820.137E-03,   51.8974E-03
C:/temp/dataset/0/2_24.odb,Step-1,Increment      1: Step Time =    1.000,"PART-1-1",           297,       11.3345,      -10.0200,            0.,NA,NA,"",       3.07069,      -3.03011,   497.611E-03,   37.6958E-03
C:/temp/dataset/0/2_24.odb,Step-1,Increment      1: Step Time =    1.000,"PART-1-1",           298,       10.0449,      -11.4123,            0.,NA,NA,"",       2.56309,      -2.55535,   199.073E-03,   30.4348E-03
C:/temp/dataset/0/2_24.odb,Step-1,Increment      1: Step Time =    1.000,"PART-1-1",           299,       11.2492,      -12.7658,            0.,NA,NA,"",       2.27781,      -2.21950,   512.107E-03,   41.5025E-03
C:/temp/dataset/0/2_24.odb,Step-1,Increment      1: Step Time =    1.000,"PART-1-1",           300,       9.32361,      -6.65743,            0.,NA,NA,"",       4.00420,      -4.00066,  -168.336E-03,   24.7196E-03
C:/temp/dataset/0/2_24.odb,Step-1,Increment      1: Step Time =    1.000,"PART-1-1",           301,       10.9574,      -6.33595,            0.,NA,NA,"",       4.20012,      -4.18990,   292.757E-03,   31.4376E-03
C:/temp/dataset/0/2_24.odb,Step-1,Increment      1: Step Time =    1.000,"PART-1-1",           302,       10.9595,      -4.69463,            0.,NA,NA,"",       4.74637,      -4.74063,   233.404E-03,   30.4673E-03
C:/temp/dataset/0/2_24.odb,Step-1,Increment      1: Step Time =    1.000,"PART-1-1",           303,       9.32578,      -5.01612,            0.,NA,NA,"",       4.55118,      -4.54480,  -240.898E-03,   24.1648E-03
C:/temp/dataset/0/2_24.odb,Step-1,Increment      1: Step Time =    1.000,"PART-1-1",           304,       12.9351,      -4.11714,            0.,NA,NA,"",       5.11864,      -5.05376,   812.355E-03,   33.1563E-03
C:/temp/dataset/0/2_24.odb,Step-1,Increment      1: Step Time =    1.000,"PART-1-1",           305,       11.6846,      -3.48758,            0.,NA,NA,"",       5.20983,      -5.19397,   406.192E-03,   29.3032E-03
C:/temp/dataset/0/2_24.odb,Step-1,Increment      1: Step Time =    1.000,"PART-1-1",           306,       12.2101,      -5.32419,            0.,NA,NA,"",       4.64236,      -4.59946,   629.627E-03,   33.8091E-03
C:/temp/dataset/0/2_24.odb,Step-1,Increment      1: Step Time =    1.000,"PART-1-1",           307,       9.86769,  -155.410E-03,            0.,NA,NA,"",       6.25125,      -6.24404,  -300.168E-03,   27.6081E-03
C:/temp/dataset/0/2_24.odb,Step-1,Increment      1: Step Time =    1.000,"PART-1-1",           308,       8.53089,   901.975E-03,            0.,NA,NA,"",       6.58046,      -6.53588,  -764.640E-03,   25.3984E-03
C:/temp/dataset/0/2_24.odb,Step-1,Increment      1: Step Time =    1.000,"PART-1-1",           309,       7.40884,      -1.02539,            0.,NA,NA,"",       5.89289,      -5.80279,      -1.02651,   21.0353E-03
C:/temp/dataset/0/2_24.odb,Step-1,Increment      1: Step Time =    1.000,"PART-1-1",           310,       8.74564,      -2.08278,            0.,NA,NA,"",       5.54114,      -5.51314,  -556.315E-03,   23.4966E-03
C:/temp/dataset/0/2_24.odb,Step-1,Increment      1: Step Time =    1.000,"PART-1-1",           311,       9.64302,       5.60069,            0.,NA,NA,"",       8.23981,      -8.21593,  -626.947E-03,   29.0598E-03
C:/temp/dataset/0/2_24.odb,Step-1,Increment      1: Step Time =    1.000,"PART-1-1",           312,       10.9412,       4.35663,            0.,NA,NA,"",       7.86564,      -7.86356,  -180.915E-03,   23.6929E-03
C:/temp/dataset/0/2_24.odb,Step-1,Increment      1: Step Time =    1.000,"PART-1-1",           313,       12.2262,       5.93259,            0.,NA,NA,"",       8.45955,      -8.45853,   131.073E-03,   18.8333E-03
C:/temp/dataset/0/2_24.odb,Step-1,Increment      1: Step Time =    1.000,"PART-1-1",           314,       10.9280,       7.17665,            0.,NA,NA,"",       8.81091,      -8.80523,  -316.175E-03,   22.9761E-03
C:/temp/dataset/0/2_24.odb,Step-1,Increment      1: Step Time =    1.000,"PART-1-1",           315,       13.6103,       7.39232,            0.,NA,NA,"",       9.00947,      -8.99714,   471.053E-03,   13.1396E-03
C:/temp/dataset/0/2_24.odb,Step-1,Increment      1: Step Time =    1.000,"PART-1-1",           316,           15.,          8.75,            0.,NA,NA,"",       9.51134,      -9.47653,   812.998E-03,   24.8198E-03
C:/temp/dataset/0/2_24.odb,Step-1,Increment      1: Step Time =    1.000,"PART-1-1",           317,       13.6268,       9.99700,            0.,NA,NA,"",       9.80697,      -9.80190,   315.394E-03,   20.7470E-03
C:/temp/dataset/0/2_24.odb,Step-1,Increment      1: Step Time =    1.000,"PART-1-1",           318,       12.2370,       8.63932,            0.,NA,NA,"",       9.33305,      -9.33304,  -8.12549E-03,   18.9640E-03
C:/temp/dataset/0/2_24.odb,Step-1,Increment      1: Step Time =    1.000,"PART-1-1",           319,       13.8144,       17.6522,            0.,NA,NA,"",       11.7812,      -11.7806,  -116.982E-03,   43.8549E-03
C:/temp/dataset/0/2_24.odb,Step-1,Increment      1: Step Time =    1.000,"PART-1-1",           320,           15.,         18.75,            0.,NA,NA,"",       11.9793,      -11.9793,   32.0963E-03,   65.5644E-03
C:/temp/dataset/0/2_24.odb,Step-1,Increment      1: Step Time =    1.000,"PART-1-1",           321,       13.8887,       20.1095,            0.,NA,NA,"",       12.1718,      -12.1698,  -219.118E-03,   42.3234E-03
C:/temp/dataset/0/2_24.odb,Step-1,Increment      1: Step Time =    1.000,"PART-1-1",           322,       12.7031,       19.0116,            0.,NA,NA,"",       12.0002,      -11.9944,  -372.389E-03,   24.3060E-03
C:/temp/dataset/0/2_24.odb,Step-1,Increment      1: Step Time =    1.000,"PART-1-1",           323,       11.4255,       18.0142,            0.,NA,NA,"",       11.8083,      -11.7942,  -576.350E-03,   12.3962E-03
C:/temp/dataset/0/2_24.odb,Step-1,Increment      1: Step Time =    1.000,"PART-1-1",           324,       11.6322,       20.3693,            0.,NA,NA,"",       12.1789,      -12.1654,  -572.333E-03,   24.1126E-03
C:/temp/dataset/0/2_24.odb,Step-1,Increment      1: Step Time =    1.000,"PART-1-1",           325,       10.3546,       19.3719,            0.,NA,NA,"",       12.0208,      -11.9959,  -773.639E-03,   16.8566E-03
C:/temp/dataset/0/2_24.odb,Step-1,Increment      1: Step Time =    1.000,"PART-1-1",           326,       10.9394,       26.3107,            0.,NA,NA,"",       12.7080,      -12.6892,  -691.359E-03,   25.2282E-03
C:/temp/dataset/0/2_24.odb,Step-1,Increment      1: Step Time =    1.000,"PART-1-1",           327,       11.9108,       25.0855,            0.,NA,NA,"",       12.6164,      -12.6034,  -572.914E-03,   27.4843E-03
C:/temp/dataset/0/2_24.odb,Step-1,Increment      1: Step Time =    1.000,"PART-1-1",           328,       13.0011,       26.2585,            0.,NA,NA,"",       12.7099,      -12.7015,  -460.766E-03,   18.2995E-03
C:/temp/dataset/0/2_24.odb,Step-1,Increment      1: Step Time =    1.000,"PART-1-1",           329,       12.0296,       27.4837,            0.,NA,NA,"",       12.8089,      -12.7960,  -573.296E-03,   15.9977E-03
C:/temp/dataset/0/2_24.odb,Step-1,Increment      1: Step Time =    1.000,"PART-1-1",           330,       14.0179,       27.4887,            0.,NA,NA,"",       12.8137,      -12.8084,  -368.531E-03,   6.41959E-03
C:/temp/dataset/0/2_24.odb,Step-1,Increment      1: Step Time =    1.000,"PART-1-1",           331,       13.9832,       25.0198,            0.,NA,NA,"",       12.6083,      -12.6036,  -343.447E-03,   18.4388E-03
C:/temp/dataset/0/2_24.odb,Step-1,Increment      1: Step Time =    1.000,"PART-1-1",           332,           15.,         26.25,            0.,NA,NA,"",       12.7065,      -12.7037,  -266.467E-03,   9.47032E-03
C:/temp/dataset/0/2_24.odb,Step-1,Increment      1: Step Time =    1.000,"PART-1-1",           333,       3.55377,       20.8403,            0.,NA,NA,"",       12.1773,      -12.0960,      -1.40460,   33.2371E-03
C:/temp/dataset/0/2_24.odb,Step-1,Increment      1: Step Time =    1.000,"PART-1-1",           334,       4.16667,           20.,            0.,NA,NA,"",       12.1282,      -12.0464,      -1.40574,   81.6960E-03
C:/temp/dataset/0/2_24.odb,Step-1,Increment      1: Step Time =    1.000,"PART-1-1",           335,       5.33068,       20.7523,            0.,NA,NA,"",       12.1635,      -12.0812,      -1.41211,   87.9617E-03
C:/temp/dataset/0/2_24.odb,Step-1,Increment      1: Step Time =    1.000,"PART-1-1",           336,       4.71778,       21.5926,            0.,NA,NA,"",       12.2285,      -12.1494,      -1.38923,   57.0814E-03
C:/temp/dataset/0/2_24.odb,Step-1,Increment      1: Step Time =    1.000,"PART-1-1",           337,       1.85672,       20.8541,            0.,NA,NA,"",       12.1972,      -12.1148,      -1.41532,   12.3161E-03
C:/temp/dataset/0/2_24.odb,Step-1,Increment      1: Step Time =    1.000,"PART-1-1",           338,           2.5,           20.,            0.,NA,NA,"",       12.1721,      -12.0912,      -1.40125,   10.4784E-03
C:/temp/dataset/0/2_24.odb,Step-1,Increment      1: Step Time =    1.000,"PART-1-1",           339,       2.91049,       21.6945,            0.,NA,NA,"",       12.2349,      -12.1542,      -1.40274,   40.2524E-03
C:/temp/dataset/0/2_24.odb,Step-1,Increment      1: Step Time =    1.000,"PART-1-1",           340,       1.32465,      -26.7993,            0.,NA,NA,"",   121.702E-03,  -119.243E-03,  -24.3425E-03,   31.8877E-03
C:/temp/dataset/0/2_24.odb,Step-1,Increment      1: Step Time =    1.000,"PART-1-1",           341,   399.133E-03,      -24.6509,            0.,NA,NA,"",   198.407E-03,  -197.531E-03,  -18.6225E-03,   40.1914E-03
C:/temp/dataset/0/2_24.odb,Step-1,Increment      1: Step Time =    1.000,"PART-1-1",           342,  -371.796E-03,      -25.9605,            0.,NA,NA,"",   150.422E-03,  -150.419E-03,  -1.00168E-03,   34.4910E-03
C:/temp/dataset/0/2_24.odb,Step-1,Increment      1: Step Time =    1.000,"PART-1-1",           343,       7.16814,       28.8250,            0.,NA,NA,"",       12.8693,      -12.8250,      -1.06683,   23.7704E-03
C:/temp/dataset/0/2_24.odb,Step-1,Increment      1: Step Time =    1.000,"PART-1-1",           344,       7.90869,       27.6030,            0.,NA,NA,"",       12.7805,      -12.7406,      -1.00895,   20.2273E-03
C:/temp/dataset/0/2_24.odb,Step-1,Increment      1: Step Time =    1.000,"PART-1-1",           345,       9.17805,       28.7779,            0.,NA,NA,"",       12.8958,      -12.8659,  -876.972E-03,   19.6606E-03
C:/temp/dataset/0/2_24.odb,Step-1,Increment      1: Step Time =    1.000,"PART-1-1",           346,        8.4375,           30.,            0.,NA,NA,"",       12.9967,      -12.9624,  -943.240E-03,   24.2383E-03
C:/temp/dataset/0/2_24.odb,Step-1,Increment      1: Step Time =    1.000,"PART-1-1",           347,       1.19326,       21.8923,            0.,NA,NA,"",       12.2481,      -12.1644,      -1.42931,   26.3768E-03
C:/temp/dataset/0/2_24.odb,Step-1,Increment      1: Step Time =    1.000,"PART-1-1",           348,   169.882E-03,       21.0382,            0.,NA,NA,"",       12.1996,      -12.1123,      -1.45696,   17.7478E-03
C:/temp/dataset/0/2_24.odb,Step-1,Increment      1: Step Time =    1.000,"PART-1-1",           349,   833.333E-03,           20.,            0.,NA,NA,"",       12.1650,      -12.0791,      -1.44320,   9.95016E-03
C:/temp/dataset/0/2_24.odb,Step-1,Increment      1: Step Time =    1.000,"PART-1-1",           350,       11.0482,       12.7829,            0.,NA,NA,"",       10.5393,      -10.5267,  -516.366E-03,   24.0341E-03
C:/temp/dataset/0/2_24.odb,Step-1,Increment      1: Step Time =    1.000,"PART-1-1",           351,       12.3949,       13.9828,            0.,NA,NA,"",       10.8978,      -10.8950,  -244.190E-03,   27.8860E-03
C:/temp/dataset/0/2_24.odb,Step-1,Increment      1: Step Time =    1.000,"PART-1-1",           352,       11.2086,       15.4830,            0.,NA,NA,"",       11.2577,      -11.2435,  -565.064E-03,   22.0948E-03
C:/temp/dataset/0/2_24.odb,Step-1,Increment      1: Step Time =    1.000,"PART-1-1",           353,       9.86191,       14.2831,            0.,NA,NA,"",       10.9247,      -10.8931,  -830.439E-03,   32.1008E-03
C:/temp/dataset/0/2_24.odb,Step-1,Increment      1: Step Time =    1.000,"PART-1-1",           354,       9.65710,       8.53837,            0.,NA,NA,"",       9.21443,      -9.18516,  -733.939E-03,   30.4071E-03
C:/temp/dataset/0/2_24.odb,Step-1,Increment      1: Step Time =    1.000,"PART-1-1",           355,       8.46627,       10.0105,            0.,NA,NA,"",       9.65462,      -9.59171,      -1.10038,   38.1463E-03
C:/temp/dataset/0/2_24.odb,Step-1,Increment      1: Step Time =    1.000,"PART-1-1",           356,       7.24171,       8.43518,            0.,NA,NA,"",       9.13063,      -9.02083,      -1.41178,   43.1014E-03
C:/temp/dataset/0/2_24.odb,Step-1,Increment      1: Step Time =    1.000,"PART-1-1",           357,       8.43254,       6.96306,            0.,NA,NA,"",       8.66756,      -8.60581,      -1.03275,   33.3741E-03
C:/temp/dataset/0/2_24.odb,Step-1,Increment      1: Step Time =    1.000,"PART-1-1",           358,       13.6558,       2.21224,            0.,NA,NA,"",       7.32174,      -7.28041,   776.802E-03,   13.3134E-03
C:/temp/dataset/0/2_24.odb,Step-1,Increment      1: Step Time =    1.000,"PART-1-1",           359,           15.,          3.75,            0.,NA,NA,"",       7.95911,      -7.87780,       1.13481,   1.10995E-03
C:/temp/dataset/0/2_24.odb,Step-1,Increment      1: Step Time =    1.000,"PART-1-1",           360,       13.6160,       4.79026,            0.,NA,NA,"",       8.17311,      -8.14918,   625.031E-03,   9.64694E-03
C:/temp/dataset/0/2_24.odb,Step-1,Increment      1: Step Time =    1.000,"PART-1-1",           361,       12.2717,       3.25251,            0.,NA,NA,"",       7.56370,      -7.55837,   283.845E-03,   20.4833E-03
C:/temp/dataset/0/2_24.odb,Step-1,Increment      1: Step Time =    1.000,"PART-1-1",           362,       9.69986,       2.68972,            0.,NA,NA,"",       7.23935,      -7.22318,  -483.700E-03,   28.0143E-03
C:/temp/dataset/0/2_24.odb,Step-1,Increment      1: Step Time =    1.000,"PART-1-1",           363,       11.0304,       1.58560,            0.,NA,NA,"",       6.91518,      -6.91515,  -21.2346E-03,   24.7055E-03
C:/temp/dataset/0/2_24.odb,Step-1,Increment      1: Step Time =    1.000,"PART-1-1",           364,       7.55861,      -11.4267,            0.,NA,NA,"",       2.50270,      -2.46530,  -431.092E-03,   22.4444E-03
C:/temp/dataset/0/2_24.odb,Step-1,Increment      1: Step Time =    1.000,"PART-1-1",           365,       6.31268,      -9.90243,            0.,NA,NA,"",       2.99331,      -2.86685,  -860.875E-03,   23.1141E-03
C:/temp/dataset/0/2_24.odb,Step-1,Increment      1: Step Time =    1.000,"PART-1-1",           366,            5.,      -11.6667,            0.,NA,NA,"",       2.58645,      -2.33542,      -1.11156,   42.7303E-03
C:/temp/dataset/0/2_24.odb,Step-1,Increment      1: Step Time =    1.000,"PART-1-1",           367,       6.24593,      -13.1909,            0.,NA,NA,"",       2.06699,      -1.95640,  -667.053E-03,   36.0028E-03
C:/temp/dataset/0/2_24.odb,Step-1,Increment      1: Step Time =    1.000,"PART-1-1",           368,       14.0233,      -5.11850,            0.,NA,NA,"",       4.92618,      -4.78365,       1.17639,   39.2142E-03
C:/temp/dataset/0/2_24.odb,Step-1,Increment      1: Step Time =    1.000,"PART-1-1",           369,           15.,         -3.75,            0.,NA,NA,"",       5.51268,      -5.31724,       1.45485,   36.9846E-03
C:/temp/dataset/0/2_24.odb,Step-1,Increment      1: Step Time =    1.000,"PART-1-1",           370,       13.9118,      -2.74864,            0.,NA,NA,"",       5.68850,      -5.58616,       1.07418,   29.3859E-03
C:/temp/dataset/0/2_24.odb,Step-1,Increment      1: Step Time =    1.000,"PART-1-1",           371,       12.6080,      -16.5365,            0.,NA,NA,"",       1.51980,      -1.32510,   744.235E-03,   68.3067E-03
C:/temp/dataset/0/2_24.odb,Step-1,Increment      1: Step Time =    1.000,"PART-1-1",           372,       11.3130,      -15.4489,            0.,NA,NA,"",       1.60711,      -1.51944,   523.566E-03,   48.7305E-03
C:/temp/dataset/0/2_24.odb,Step-1,Increment      1: Step Time =    1.000,"PART-1-1",           373,       10.1880,      -16.9099,            0.,NA,NA,"",       1.17994,      -1.13988,   304.822E-03,   39.2784E-03
C:/temp/dataset/0/2_24.odb,Step-1,Increment      1: Step Time =    1.000,"PART-1-1",           374,       11.4829,      -17.9975,            0.,NA,NA,"",       1.08925,  -966.236E-03,   502.847E-03,   56.1267E-03
C:/temp/dataset/0/2_24.odb,Step-1,Increment      1: Step Time =    1.000,"PART-1-1",           375,       7.63417,      -21.6752,            0.,NA,NA,"",   303.732E-03,  -299.960E-03,  -47.7238E-03,   18.6799E-03
C:/temp/dataset/0/2_24.odb,Step-1,Increment      1: Step Time =    1.000,"PART-1-1",           376,       7.43394,      -23.2038,            0.,NA,NA,"",   202.688E-03,  -197.531E-03,  -45.4301E-03,   16.1311E-03
C:/temp/dataset/0/2_24.odb,Step-1,Increment      1: Step Time =    1.000,"PART-1-1",           377,       8.61676,      -23.4202,            0.,NA,NA,"",   193.954E-03,  -190.252E-03,   37.7159E-03,   13.1325E-03
C:/temp/dataset/0/2_24.odb,Step-1,Increment      1: Step Time =    1.000,"PART-1-1",           378,       8.81699,      -21.8917,            0.,NA,NA,"",   312.652E-03,  -305.415E-03,   66.8796E-03,   23.6886E-03
C:/temp/dataset/0/2_24.odb,Step-1,Increment      1: Step Time =    1.000,"PART-1-1",           379,  -438.919E-03,      -23.5046,            0.,NA,NA,"",   227.608E-03,  -227.532E-03,   5.88009E-03,   35.2324E-03
C:/temp/dataset/0/2_24.odb,Step-1,Increment      1: Step Time =    1.000,"PART-1-1",           380,   774.543E-03,      -22.4081,            0.,NA,NA,"",   255.631E-03,  -253.826E-03,  -30.3303E-03,   34.6315E-03
C:/temp/dataset/0/2_24.odb,Step-1,Increment      1: Step Time =    1.000,"PART-1-1",           381,      -7.50181,      -26.8221,            0.,NA,NA,"",   33.9707E-03,  -33.8089E-03,   3.31240E-03,   13.7494E-03
C:/temp/dataset/0/2_24.odb,Step-1,Increment      1: Step Time =    1.000,"PART-1-1",           382,      -9.04643,      -28.2740,            0.,NA,NA,"",   18.6683E-03,   2.26080E-03,  -18.5309E-03,   14.2526E-03
C:/temp/dataset/0/2_24.odb,Step-1,Increment      1: Step Time =    1.000,"PART-1-1",           383,          -7.5,          -30.,            0.,NA,NA,"",            0.,   2.43837E-39,  -16.9717E-39,   6.83476E-03
C:/temp/dataset/0/2_24.odb,Step-1,Increment      1: Step Time =    1.000,"PART-1-1",           384,      -5.95538,      -28.5482,            0.,NA,NA,"",   18.8901E-03,  -18.1763E-03,   5.14377E-03,   14.3205E-03
C:/temp/dataset/0/2_24.odb,Step-1,Increment      1: Step Time =    1.000,"PART-1-1",           385,      -10.9107,       24.5471,            0.,NA,NA,"",       12.6155,      -12.3566,      -2.54274,   30.6150E-03
C:/temp/dataset/0/2_24.odb,Step-1,Increment      1: Step Time =    1.000,"PART-1-1",           386,      -9.41006,       26.0517,            0.,NA,NA,"",       12.7655,      -12.5556,      -2.30519,   29.7404E-03
C:/temp/dataset/0/2_24.odb,Step-1,Increment      1: Step Time =    1.000,"PART-1-1",           387,      -10.7443,       27.3091,            0.,NA,NA,"",       12.9522,      -12.7014,      -2.53654,   25.2547E-03
C:/temp/dataset/0/2_24.odb,Step-1,Increment      1: Step Time =    1.000,"PART-1-1",           388,      -12.2450,       25.8045,            0.,NA,NA,"",       12.8003,      -12.4963,      -2.77338,   26.9639E-03
C:/temp/dataset/0/2_24.odb,Step-1,Increment      1: Step Time =    1.000,"PART-1-1",           389,      -1.21620,       23.8189,            0.,NA,NA,"",       12.3813,      -12.2921,      -1.48361,   42.5154E-03
C:/temp/dataset/0/2_24.odb,Step-1,Increment      1: Step Time =    1.000,"PART-1-1",           390,      -2.21965,       25.1560,            0.,NA,NA,"",       12.5123,      -12.4187,      -1.52762,   37.4274E-03
C:/temp/dataset/0/2_24.odb,Step-1,Increment      1: Step Time =    1.000,"PART-1-1",           391,      -12.3287,       22.9401,            0.,NA,NA,"",       12.4212,      -12.1026,      -2.79510,   29.2219E-03
C:/temp/dataset/0/2_24.odb,Step-1,Increment      1: Step Time =    1.000,"PART-1-1",           392,      -11.0144,       21.7359,            0.,NA,NA,"",       12.2226,      -11.9529,      -2.55385,   26.8840E-03
C:/temp/dataset/0/2_24.odb,Step-1,Increment      1: Step Time =    1.000,"PART-1-1",           393,      -9.59641,       23.3428,            0.,NA,NA,"",       12.4379,      -12.2230,      -2.30213,   31.7252E-03
C:/temp/dataset/0/2_24.odb,Step-1,Increment      1: Step Time =    1.000,"PART-1-1",           394,      -8.52014,       19.3558,            0.,NA,NA,"",       11.7738,      -11.5966,      -2.03469,   27.2039E-03
C:/temp/dataset/0/2_24.odb,Step-1,Increment      1: Step Time =    1.000,"PART-1-1",           395,      -7.12750,       20.9906,            0.,NA,NA,"",       12.0918,      -11.9535,      -1.82355,   37.2918E-03
C:/temp/dataset/0/2_24.odb,Step-1,Increment      1: Step Time =    1.000,"PART-1-1",           396,      -8.32913,       22.1749,            0.,NA,NA,"",       12.2658,      -12.0914,      -2.06105,   32.9357E-03
C:/temp/dataset/0/2_24.odb,Step-1,Increment      1: Step Time =    1.000,"PART-1-1",           397,      -9.72177,       20.5400,            0.,NA,NA,"",       12.0097,      -11.7879,      -2.29764,   19.3829E-03
C:/temp/dataset/0/2_24.odb,Step-1,Increment      1: Step Time =    1.000,"PART-1-1",           398,      -6.16480,       16.7267,            0.,NA,NA,"",       11.0874,      -11.0056,      -1.34457,   66.9385E-03
C:/temp/dataset/0/2_24.odb,Step-1,Increment      1: Step Time =    1.000,"PART-1-1",           399,           -5.,       18.4615,            0.,NA,NA,"",       11.4985,      -11.4330,      -1.22564,   111.931E-03
C:/temp/dataset/0/2_24.odb,Step-1,Increment      1: Step Time =    1.000,"PART-1-1",           400,      -6.13199,       19.8034,            0.,NA,NA,"",       11.9039,      -11.7936,      -1.61667,   87.6123E-03
C:/temp/dataset/0/2_24.odb,Step-1,Increment      1: Step Time =    1.000,"PART-1-1",           401,      -7.29678,       18.0686,            0.,NA,NA,"",       11.4715,      -11.3402,      -1.73023,   44.9175E-03
C:/temp/dataset/0/2_24.odb,Step-1,Increment      1: Step Time =    1.000,"PART-1-1",           402,      -11.0823,       15.8203,            0.,NA,NA,"",       10.9431,      -10.6581,      -2.48152,   19.3505E-03
C:/temp/dataset/0/2_24.odb,Step-1,Increment      1: Step Time =    1.000,"PART-1-1",           403,      -12.3677,       14.0517,            0.,NA,NA,"",       10.4789,      -10.1117,      -2.74970,   21.8993E-03
C:/temp/dataset/0/2_24.odb,Step-1,Increment      1: Step Time =    1.000,"PART-1-1",           404,      -11.1015,       12.7786,            0.,NA,NA,"",       10.0653,      -9.78439,      -2.36140,   20.0066E-03
C:/temp/dataset/0/2_24.odb,Step-1,Increment      1: Step Time =    1.000,"PART-1-1",           405,          -15.,          10.5,            0.,NA,NA,"",       9.50492,      -8.87381,      -3.40572,   28.0339E-03
C:/temp/dataset/0/2_24.odb,Step-1,Increment      1: Step Time =    1.000,"PART-1-1",           406,      -13.6919,       9.25384,            0.,NA,NA,"",       9.03961,      -8.54325,      -2.95425,   15.4780E-03
C:/temp/dataset/0/2_24.odb,Step-1,Increment      1: Step Time =    1.000,"PART-1-1",           407,      -12.3755,       11.0249,            0.,NA,NA,"",       9.55660,      -9.18518,      -2.63838,   19.3750E-03
C:/temp/dataset/0/2_24.odb,Step-1,Increment      1: Step Time =    1.000,"PART-1-1",           408,      -13.6836,       12.2710,            0.,NA,NA,"",       9.99211,      -9.51198,      -3.06013,   25.5543E-03
C:/temp/dataset/0/2_24.odb,Step-1,Increment      1: Step Time =    1.000,"PART-1-1",           409,      -7.40029,       8.84536,            0.,NA,NA,"",       8.73787,      -8.67855,      -1.01641,   33.4194E-03
C:/temp/dataset/0/2_24.odb,Step-1,Increment      1: Step Time =    1.000,"PART-1-1",           410,      -8.62408,       10.1694,            0.,NA,NA,"",       9.18244,      -9.06032,      -1.49262,   30.4865E-03
C:/temp/dataset/0/2_24.odb,Step-1,Increment      1: Step Time =    1.000,"PART-1-1",           411,      -9.86273,       8.43495,            0.,NA,NA,"",       8.62830,      -8.45078,      -1.74124,   26.8743E-03
C:/temp/dataset/0/2_24.odb,Step-1,Increment      1: Step Time =    1.000,"PART-1-1",           412,      -8.63893,       7.11093,            0.,NA,NA,"",       8.15862,      -8.05958,      -1.26742,   27.9598E-03
C:/temp/dataset/0/2_24.odb,Step-1,Increment      1: Step Time =    1.000,"PART-1-1",           413,          -15.,           1.5,            0.,NA,NA,"",       6.52955,      -5.84203,      -2.91646,   18.9864E-03
C:/temp/dataset/0/2_24.odb,Step-1,Increment      1: Step Time =    1.000,"PART-1-1",           414,      -13.7087,   214.116E-03,            0.,NA,NA,"",       5.96560,      -5.47153,      -2.37712,   24.6025E-03
C:/temp/dataset/0/2_24.odb,Step-1,Increment      1: Step Time =    1.000,"PART-1-1",           415,      -12.4129,       1.94059,            0.,NA,NA,"",       6.46527,      -6.11977,      -2.08521,   23.6740E-03
C:/temp/dataset/0/2_24.odb,Step-1,Increment      1: Step Time =    1.000,"PART-1-1",           416,      -13.7042,       3.22647,            0.,NA,NA,"",       7.00018,      -6.49782,      -2.60401,   14.7787E-03
C:/temp/dataset/0/2_24.odb,Step-1,Increment      1: Step Time =    1.000,"PART-1-1",           417,      -9.88317,  -688.536E-03,            0.,NA,NA,"",       5.44157,      -5.33252,      -1.08396,   26.4920E-03
C:/temp/dataset/0/2_24.odb,Step-1,Increment      1: Step Time =    1.000,"PART-1-1",           418,      -8.64028,      -2.02441,            0.,NA,NA,"",       4.97284,      -4.93573,  -606.347E-03,   21.1322E-03
C:/temp/dataset/0/2_24.odb,Step-1,Increment      1: Step Time =    1.000,"PART-1-1",           419,      -7.40757,  -323.915E-03,            0.,NA,NA,"",       5.58225,      -5.57260,  -328.097E-03,   17.8715E-03
C:/temp/dataset/0/2_24.odb,Step-1,Increment      1: Step Time =    1.000,"PART-1-1",           420,      -8.65046,       1.01196,            0.,NA,NA,"",       6.02672,      -5.97120,  -816.110E-03,   23.1805E-03
C:/temp/dataset/0/2_24.odb,Step-1,Increment      1: Step Time =    1.000,"PART-1-1",           421,          -15.,          -7.5,            0.,NA,NA,"",       3.66805,      -3.00799,      -2.09918,   64.1770E-03
C:/temp/dataset/0/2_24.odb,Step-1,Increment      1: Step Time =    1.000,"PART-1-1",           422,      -13.7007,      -8.80606,            0.,NA,NA,"",       3.10421,      -2.66456,      -1.59256,   55.8722E-03
C:/temp/dataset/0/2_24.odb,Step-1,Increment      1: Step Time =    1.000,"PART-1-1",           423,      -12.4029,      -7.10316,            0.,NA,NA,"",       3.45856,      -3.17635,      -1.36838,   39.8545E-03
C:/temp/dataset/0/2_24.odb,Step-1,Increment      1: Step Time =    1.000,"PART-1-1",           424,      -13.7022,      -5.79711,            0.,NA,NA,"",       3.99485,      -3.53433,      -1.86207,   45.6788E-03
C:/temp/dataset/0/2_24.odb,Step-1,Increment      1: Step Time =    1.000,"PART-1-1",           425,      -7.34368,      -12.4907,            0.,NA,NA,"",       1.84706,      -1.84114,   147.735E-03,   30.9931E-03
C:/temp/dataset/0/2_24.odb,Step-1,Increment      1: Step Time =    1.000,"PART-1-1",           426,      -8.60430,      -11.1353,            0.,NA,NA,"",       2.15102,      -2.14490,  -162.135E-03,   18.9199E-03
C:/temp/dataset/0/2_24.odb,Step-1,Increment      1: Step Time =    1.000,"PART-1-1",           427,      -9.82710,      -12.7746,            0.,NA,NA,"",       1.74185,      -1.69913,  -383.434E-03,   21.1254E-03
C:/temp/dataset/0/2_24.odb,Step-1,Increment      1: Step Time =    1.000,"PART-1-1",           428,      -8.56648,      -14.1300,            0.,NA,NA,"",       1.41643,      -1.41354,  -90.4421E-03,   20.8455E-03
C:/temp/dataset/0/2_24.odb,Step-1,Increment      1: Step Time =    1.000,"PART-1-1",           429,  -730.622E-03,       22.2784,            0.,NA,NA,"",       12.2597,      -12.1713,      -1.47017,   35.7256E-03
C:/temp/dataset/0/2_24.odb,Step-1,Increment      1: Step Time =    1.000,"PART-1-1",           430,         -1.25,           20.,            0.,NA,NA,"",       12.1468,      -12.0535,      -1.50260,   25.7219E-03
C:/temp/dataset/0/2_24.odb,Step-1,Increment      1: Step Time =    1.000,"PART-1-1",           431,       11.1367,       28.7451,            0.,NA,NA,"",       12.9139,      -12.8964,  -671.408E-03,   13.2749E-03
C:/temp/dataset/0/2_24.odb,Step-1,Increment      1: Step Time =    1.000,"PART-1-1",           432,       10.3125,           30.,            0.,NA,NA,"",       13.0278,      -13.0057,  -757.386E-03,   14.4908E-03
C:/temp/dataset/0/2_24.odb,Step-1,Increment      1: Step Time =    1.000,"PART-1-1",           433,       10.0023,       27.5230,            0.,NA,NA,"",       12.7982,      -12.7736,  -794.676E-03,   21.1556E-03
C:/temp/dataset/0/2_24.odb,Step-1,Increment      1: Step Time =    1.000,"PART-1-1",           434,       10.7751,       23.9735,            0.,NA,NA,"",       12.5246,      -12.5045,  -709.917E-03,   33.5324E-03
C:/temp/dataset/0/2_24.odb,Step-1,Increment      1: Step Time =    1.000,"PART-1-1",           435,       11.7898,       22.7248,            0.,NA,NA,"",       12.4275,      -12.4144,  -569.697E-03,   34.5469E-03
C:/temp/dataset/0/2_24.odb,Step-1,Increment      1: Step Time =    1.000,"PART-1-1",           436,       12.9255,       23.8368,            0.,NA,NA,"",       12.5213,      -12.5136,  -436.935E-03,   32.9673E-03
C:/temp/dataset/0/2_24.odb,Step-1,Increment      1: Step Time =    1.000,"PART-1-1",           437,       2.25220,       28.9826,            0.,NA,NA,"",       12.8167,      -12.7432,      -1.37089,   16.5465E-03
C:/temp/dataset/0/2_24.odb,Step-1,Increment      1: Step Time =    1.000,"PART-1-1",           438,       3.21116,       27.8846,            0.,NA,NA,"",       12.7449,      -12.6750,      -1.33233,   22.9389E-03
C:/temp/dataset/0/2_24.odb,Step-1,Increment      1: Step Time =    1.000,"PART-1-1",           439,       4.70896,       28.9020,            0.,NA,NA,"",       12.8359,      -12.7752,      -1.24639,   23.3765E-03
C:/temp/dataset/0/2_24.odb,Step-1,Increment      1: Step Time =    1.000,"PART-1-1",           440,          3.75,           30.,            0.,NA,NA,"",       12.8919,      -12.8270,      -1.29237,   21.4778E-03
C:/temp/dataset/0/2_24.odb,Step-1,Increment      1: Step Time =    1.000,"PART-1-1",           441,      -8.10884,       24.8461,            0.,NA,NA,"",       12.5936,      -12.4205,      -2.08121,   27.7882E-03
C:/temp/dataset/0/2_24.odb,Step-1,Increment      1: Step Time =    1.000,"PART-1-1",           442,      -13.5971,       27.1125,            0.,NA,NA,"",       12.9965,      -12.6477,      -2.99104,   14.2137E-03
C:/temp/dataset/0/2_24.odb,Step-1,Increment      1: Step Time =    1.000,"PART-1-1",           443,          -15.,          25.5,            0.,NA,NA,"",       12.8121,      -12.4062,      -3.19962,   21.4206E-03
C:/temp/dataset/0/2_24.odb,Step-1,Increment      1: Step Time =    1.000,"PART-1-1",           444,      -13.6479,       24.1920,            0.,NA,NA,"",       12.6160,      -12.2514,      -3.01102,   28.1091E-03
C:/temp/dataset/0/2_24.odb,Step-1,Increment      1: Step Time =    1.000,"PART-1-1",           445,      -6.53168,       26.2506,            0.,NA,NA,"",       12.7111,      -12.5690,      -1.89572,   25.0134E-03
C:/temp/dataset/0/2_24.odb,Step-1,Increment      1: Step Time =    1.000,"PART-1-1",           446,      -7.83289,       27.4562,            0.,NA,NA,"",       12.8843,      -12.7134,      -2.09191,   24.0562E-03
C:/temp/dataset/0/2_24.odb,Step-1,Increment      1: Step Time =    1.000,"PART-1-1",           447,          -15.,          28.5,            0.,NA,NA,"",       13.2157,      -12.8217,      -3.20292,   3.35354E-03
C:/temp/dataset/0/2_24.odb,Step-1,Increment      1: Step Time =    1.000,"PART-1-1",           448,      -12.0971,       28.6125,            0.,NA,NA,"",       13.1589,      -12.8645,      -2.76811,   14.3025E-03
C:/temp/dataset/0/2_24.odb,Step-1,Increment      1: Step Time =    1.000,"PART-1-1",           449,         -13.5,           30.,            0.,NA,NA,"",       13.3931,      -13.0530,      -2.99928,   3.29302E-03
C:/temp/dataset/0/2_24.odb,Step-1,Increment      1: Step Time =    1.000,"PART-1-1",           450,      -6.19829,       10.5730,            0.,NA,NA,"",       9.29715,      -9.26369,  -788.051E-03,   43.6795E-03
C:/temp/dataset/0/2_24.odb,Step-1,Increment      1: Step Time =    1.000,"PART-1-1",           451,      -6.20201,       7.50308,            0.,NA,NA,"",       8.30349,      -8.28708,  -521.776E-03,   32.6999E-03
C:/temp/dataset/0/2_24.odb,Step-1,Increment      1: Step Time =    1.000,"PART-1-1",           452,           -5.,       9.23077,            0.,NA,NA,"",       8.88959,      -8.88522,  -278.627E-03,   45.5595E-03
C:/temp/dataset/0/2_24.odb,Step-1,Increment      1: Step Time =    1.000,"PART-1-1",           453,      -12.4049,       4.96458,            0.,NA,NA,"",       7.52084,      -7.16064,      -2.29962,   19.7466E-03
C:/temp/dataset/0/2_24.odb,Step-1,Increment      1: Step Time =    1.000,"PART-1-1",           454,      -13.7007,       6.23810,            0.,NA,NA,"",       8.03303,      -7.52928,      -2.79993,   9.71251E-03
C:/temp/dataset/0/2_24.odb,Step-1,Increment      1: Step Time =    1.000,"PART-1-1",           455,          -15.,           4.5,            0.,NA,NA,"",       7.54131,      -6.86213,      -3.12771,   3.52810E-03
C:/temp/dataset/0/2_24.odb,Step-1,Increment      1: Step Time =    1.000,"PART-1-1",           456,      -9.87977,       5.38582,            0.,NA,NA,"",       7.57795,      -7.42214,      -1.52875,   26.9839E-03
C:/temp/dataset/0/2_24.odb,Step-1,Increment      1: Step Time =    1.000,"PART-1-1",           457,      -8.64969,       4.05795,            0.,NA,NA,"",       7.09776,      -7.02120,      -1.03965,   25.4770E-03
C:/temp/dataset/0/2_24.odb,Step-1,Increment      1: Step Time =    1.000,"PART-1-1",           458,      -7.40885,       5.78306,            0.,NA,NA,"",       7.70336,      -7.66442,  -773.610E-03,   27.2518E-03
C:/temp/dataset/0/2_24.odb,Step-1,Increment      1: Step Time =    1.000,"PART-1-1",           459,      -7.41391,       2.72502,            0.,NA,NA,"",       6.64211,      -6.61999,  -541.701E-03,   21.7558E-03
C:/temp/dataset/0/2_24.odb,Step-1,Increment      1: Step Time =    1.000,"PART-1-1",           460,      -9.88624,       2.34489,            0.,NA,NA,"",       6.50694,      -6.37443,      -1.30645,   26.9063E-03
C:/temp/dataset/0/2_24.odb,Step-1,Increment      1: Step Time =    1.000,"PART-1-1",           461,      -12.4101,      -4.09106,            0.,NA,NA,"",       4.40963,      -4.10514,      -1.61019,   34.3405E-03
C:/temp/dataset/0/2_24.odb,Step-1,Increment      1: Step Time =    1.000,"PART-1-1",           462,      -13.7080,      -2.79395,            0.,NA,NA,"",       4.95571,      -4.47612,      -2.12682,   35.1944E-03
C:/temp/dataset/0/2_24.odb,Step-1,Increment      1: Step Time =    1.000,"PART-1-1",           463,          -15.,          -4.5,            0.,NA,NA,"",       4.56995,      -3.89275,      -2.39395,   49.4896E-03
C:/temp/dataset/0/2_24.odb,Step-1,Increment      1: Step Time =    1.000,"PART-1-1",           464,      -9.87646,      -3.71895,            0.,NA,NA,"",       4.40650,      -4.31929,  -872.350E-03,   25.7003E-03
C:/temp/dataset/0/2_24.odb,Step-1,Increment      1: Step Time =    1.000,"PART-1-1",           465,      -8.63520,      -5.06687,            0.,NA,NA,"",       3.95666,      -3.93391,  -423.711E-03,   19.6004E-03
C:/temp/dataset/0/2_24.odb,Step-1,Increment      1: Step Time =    1.000,"PART-1-1",           466,      -7.39901,      -3.37233,            0.,NA,NA,"",       4.54671,      -4.54441,  -144.738E-03,   17.0431E-03
C:/temp/dataset/0/2_24.odb,Step-1,Increment      1: Step Time =    1.000,"PART-1-1",           467,      -7.39417,      -6.42670,            0.,NA,NA,"",       3.55903,      -3.55903,  -1.99154E-03,   19.7305E-03
C:/temp/dataset/0/2_24.odb,Step-1,Increment      1: Step Time =    1.000,"PART-1-1",           468,      -9.87187,      -6.75385,            0.,NA,NA,"",       3.42523,      -3.35669,  -681.787E-03,   24.5258E-03
C:/temp/dataset/0/2_24.odb,Step-1,Increment      1: Step Time =    1.000,"PART-1-1",           469,      -8.63084,      -8.11369,            0.,NA,NA,"",       3.00487,      -2.99225,  -275.083E-03,   18.8409E-03
C:/temp/dataset/0/2_24.odb,Step-1,Increment      1: Step Time =    1.000,"PART-1-1",           470,      -12.3844,      -13.1215,            0.,NA,NA,"",       1.83282,      -1.58821,  -914.784E-03,   49.6260E-03
C:/temp/dataset/0/2_24.odb,Step-1,Increment      1: Step Time =    1.000,"PART-1-1",           471,      -13.6984,      -11.8123,            0.,NA,NA,"",       2.30829,      -1.89122,      -1.32343,   65.5205E-03
C:/temp/dataset/0/2_24.odb,Step-1,Increment      1: Step Time =    1.000,"PART-1-1",           472,          -15.,         -13.5,            0.,NA,NA,"",       2.11963,      -1.52325,      -1.47396,   91.5415E-03
C:/temp/dataset/0/2_24.odb,Step-1,Increment      1: Step Time =    1.000,"PART-1-1",           473,      -7.37693,      -9.46970,            0.,NA,NA,"",       2.65068,      -2.64891,   97.0409E-03,   24.8235E-03
C:/temp/dataset/0/2_24.odb,Step-1,Increment      1: Step Time =    1.000,"PART-1-1",           474,      -9.85821,      -9.77933,            0.,NA,NA,"",       2.52739,      -2.47389,  -517.297E-03,   22.9819E-03
C:/temp/dataset/0/2_24.odb,Step-1,Increment      1: Step Time =    1.000,"PART-1-1",           475,      -8.48236,      -17.0363,            0.,NA,NA,"",   826.675E-03,  -825.230E-03,  -48.8527E-03,   24.2274E-03
C:/temp/dataset/0/2_24.odb,Step-1,Increment      1: Step Time =    1.000,"PART-1-1",           476,      -7.28434,      -15.4580,            0.,NA,NA,"",       1.17059,      -1.16053,   153.124E-03,   39.2762E-03
C:/temp/dataset/0/2_24.odb,Step-1,Increment      1: Step Time =    1.000,"PART-1-1",           477,      -9.76451,      -15.7083,            0.,NA,NA,"",       1.09486,      -1.05889,  -278.350E-03,   19.7107E-03
C:/temp/dataset/0/2_24.odb,Step-1,Increment      1: Step Time =    1.000,"PART-1-1",           478,      -8.29054,      -19.6175,            0.,NA,NA,"",   435.301E-03,  -435.176E-03,  -10.4302E-03,   15.0987E-03
C:/temp/dataset/0/2_24.odb,Step-1,Increment      1: Step Time =    1.000,"PART-1-1",           479,      -7.20240,      -18.2338,            0.,NA,NA,"",   643.811E-03,  -632.741E-03,   118.874E-03,   35.6773E-03
C:/temp/dataset/0/2_24.odb,Step-1,Increment      1: Step Time =    1.000,"PART-1-1",           480,      -9.57051,      -18.4200,            0.,NA,NA,"",   621.348E-03,  -594.404E-03,  -180.990E-03,   17.2521E-03
C:/temp/dataset/0/2_24.odb,Step-1,Increment      1: Step Time =    1.000,"PART-1-1",           481,      -11.5327,      -24.2644,            0.,NA,NA,"",   227.790E-03,  -112.917E-03,  -197.833E-03,   43.1143E-03
C:/temp/dataset/0/2_24.odb,Step-1,Increment      1: Step Time =    1.000,"PART-1-1",           482,      -10.1789,      -23.4859,            0.,NA,NA,"",   187.210E-03,  -135.235E-03,  -129.457E-03,   25.8657E-03
C:/temp/dataset/0/2_24.odb,Step-1,Increment      1: Step Time =    1.000,"PART-1-1",           483,      -10.8627,      -21.7859,            0.,NA,NA,"",   338.374E-03,  -245.632E-03,  -232.727E-03,   35.9812E-03
C:/temp/dataset/0/2_24.odb,Step-1,Increment      1: Step Time =    1.000,"PART-1-1",           484,      -12.2165,      -22.5644,            0.,NA,NA,"",   387.041E-03,  -212.950E-03,  -323.191E-03,   54.0550E-03
C:/temp/dataset/0/2_24.odb,Step-1,Increment      1: Step Time =    1.000,"PART-1-1",           485,      -6.15301,      -21.8453,            0.,NA,NA,"",   276.756E-03,  -244.745E-03,   129.205E-03,   38.2819E-03
C:/temp/dataset/0/2_24.odb,Step-1,Increment      1: Step Time =    1.000,"PART-1-1",           486,      -7.48433,      -22.7723,            0.,NA,NA,"",   184.921E-03,  -179.604E-03,   44.0243E-03,   17.9551E-03
C:/temp/dataset/0/2_24.odb,Step-1,Increment      1: Step Time =    1.000,"PART-1-1",           487,      -6.61766,      -24.1583,            0.,NA,NA,"",   143.757E-03,  -132.020E-03,   56.8913E-03,   23.5885E-03
C:/temp/dataset/0/2_24.odb,Step-1,Increment      1: Step Time =    1.000,"PART-1-1",           488,      -9.30746,      -21.9937,            0.,NA,NA,"",   235.855E-03,  -219.050E-03,  -87.4343E-03,   16.4015E-03
C:/temp/dataset/0/2_24.odb,Step-1,Increment      1: Step Time =    1.000,"PART-1-1",           489,      -9.12330,      -20.5212,            0.,NA,NA,"",   350.661E-03,  -338.725E-03,  -90.7132E-03,   13.2741E-03
C:/temp/dataset/0/2_24.odb,Step-1,Increment      1: Step Time =    1.000,"PART-1-1",           490,      -10.6786,      -20.3134,            0.,NA,NA,"",   454.934E-03,  -370.663E-03,  -263.769E-03,   32.5409E-03
C:/temp/dataset/0/2_24.odb,Step-1,Increment      1: Step Time =    1.000,"PART-1-1",           491,         -13.5,          -30.,            0.,NA,NA,"",            0.,   5.80819E-39,  -111.285E-39,   58.6096E-03
C:/temp/dataset/0/2_24.odb,Step-1,Increment      1: Step Time =    1.000,"PART-1-1",           492,      -12.0973,      -28.5120,            0.,NA,NA,"",   51.4235E-03,  -3.14854E-03,  -51.3271E-03,   43.8419E-03
C:/temp/dataset/0/2_24.odb,Step-1,Increment      1: Step Time =    1.000,"PART-1-1",           493,      -13.5973,      -27.0120,            0.,NA,NA,"",   173.930E-03,  -65.5263E-03,  -161.115E-03,   65.9061E-03
C:/temp/dataset/0/2_24.odb,Step-1,Increment      1: Step Time =    1.000,"PART-1-1",           494,          -15.,         -28.5,            0.,NA,NA,"",   125.951E-03,  -75.5578E-03,  -100.771E-03,   78.1056E-03
C:/temp/dataset/0/2_24.odb,Step-1,Increment      1: Step Time =    1.000,"PART-1-1",           495,      -2.59553,      -21.0976,            0.,NA,NA,"",   282.612E-03,  -269.578E-03,   84.8374E-03,   24.4543E-03
C:/temp/dataset/0/2_24.odb,Step-1,Increment      1: Step Time =    1.000,"PART-1-1",           496,      -1.51596,      -22.2324,            0.,NA,NA,"",   254.852E-03,  -250.911E-03,   44.6428E-03,   32.7314E-03
C:/temp/dataset/0/2_24.odb,Step-1,Increment      1: Step Time =    1.000,"PART-1-1",           497,  -170.430E-03,      -21.1349,            0.,NA,NA,"",   250.043E-03,  -250.020E-03,   3.38897E-03,   11.7292E-03
C:/temp/dataset/0/2_24.odb,Step-1,Increment      1: Step Time =    1.000,"PART-1-1",           498,         -1.25,          -20.,            0.,NA,NA,"",   234.586E-03,  -232.704E-03,   29.6525E-03,   10.6945E-03
C:/temp/dataset/0/2_24.odb,Step-1,Increment      1: Step Time =    1.000,"PART-1-1",           499,       2.92795,      -28.2085,            0.,NA,NA,"",   60.7221E-03,  -57.6781E-03,  -18.9844E-03,   29.3704E-03
C:/temp/dataset/0/2_24.odb,Step-1,Increment      1: Step Time =    1.000,"PART-1-1",           500,  -103.307E-03,      -28.5907,            0.,NA,NA,"",   55.9965E-03,  -55.8781E-03,  -3.64004E-03,   28.1990E-03
C:/temp/dataset/0/2_24.odb,Step-1,Increment      1: Step Time =    1.000,"PART-1-1",           501,           1.5,          -30.,            0.,NA,NA,"",            0.,  -30.2821E-39,  -15.7157E-39,   23.8187E-03
C:/temp/dataset/0/2_24.odb,Step-1,Increment      1: Step Time =    1.000,"PART-1-1",           502,       2.19497,      -21.2732,            0.,NA,NA,"",   296.195E-03,  -284.326E-03,  -83.0044E-03,   26.5872E-03
C:/temp/dataset/0/2_24.odb,Step-1,Increment      1: Step Time =    1.000,"PART-1-1",           503,          1.25,          -20.,            0.,NA,NA,"",   236.295E-03,  -233.875E-03,  -33.7337E-03,   15.2064E-03
C:/temp/dataset/0/2_24.odb,Step-1,Increment      1: Step Time =    1.000,"PART-1-1",           504,       4.38160,      -21.6436,            0.,NA,NA,"",   370.110E-03,  -310.156E-03,  -201.953E-03,   79.4568E-03
C:/temp/dataset/0/2_24.odb,Step-1,Increment      1: Step Time =    1.000,"PART-1-1",           505,          3.75,          -20.,            0.,NA,NA,"",   339.254E-03,  -303.463E-03,  -151.669E-03,   68.7165E-03
C:/temp/dataset/0/2_24.odb,Step-1,Increment      1: Step Time =    1.000,"PART-1-1",           506,       12.4146,      -26.3616,            0.,NA,NA,"",   213.730E-03,  -102.609E-03,   187.489E-03,   64.4903E-03
C:/temp/dataset/0/2_24.odb,Step-1,Increment      1: Step Time =    1.000,"PART-1-1",           507,       11.3720,      -25.0651,            0.,NA,NA,"",   239.053E-03,  -139.058E-03,   194.446E-03,   50.3426E-03
C:/temp/dataset/0/2_24.odb,Step-1,Increment      1: Step Time =    1.000,"PART-1-1",           508,       9.80011,      -26.1459,            0.,NA,NA,"",   98.7609E-03,  -64.2414E-03,   75.0117E-03,   24.6755E-03
C:/temp/dataset/0/2_24.odb,Step-1,Increment      1: Step Time =    1.000,"PART-1-1",           509,       10.8427,      -27.4423,            0.,NA,NA,"",   83.8413E-03,  -32.1553E-03,   77.4300E-03,   39.4584E-03
C:/temp/dataset/0/2_24.odb,Step-1,Increment      1: Step Time =    1.000,"PART-1-1",           510,       10.6574,      -21.6616,            0.,NA,NA,"",   464.842E-03,  -381.411E-03,   265.713E-03,   46.2872E-03
C:/temp/dataset/0/2_24.odb,Step-1,Increment      1: Step Time =    1.000,"PART-1-1",           511,       9.56375,      -20.8051,            0.,NA,NA,"",   472.258E-03,  -442.744E-03,   164.331E-03,   36.5939E-03
C:/temp/dataset/0/2_24.odb,Step-1,Increment      1: Step Time =    1.000,"PART-1-1",           512,       9.91066,      -22.7482,            0.,NA,NA,"",   302.509E-03,  -258.381E-03,   157.323E-03,   33.9397E-03
C:/temp/dataset/0/2_24.odb,Step-1,Increment      1: Step Time =    1.000,"PART-1-1",           513,       13.7822,      -25.0807,            0.,NA,NA,"",   409.795E-03,  -215.551E-03,   348.525E-03,   85.1126E-03
C:/temp/dataset/0/2_24.odb,Step-1,Increment      1: Step Time =    1.000,"PART-1-1",           514,       13.6324,      -27.5308,            0.,NA,NA,"",   184.139E-03,  -89.0318E-03,   161.185E-03,   79.8467E-03
C:/temp/dataset/0/2_24.odb,Step-1,Increment      1: Step Time =    1.000,"PART-1-1",           515,           15.,        -26.25,            0.,NA,NA,"",   378.570E-03,  -201.396E-03,   320.554E-03,   98.3094E-03
C:/temp/dataset/0/2_24.odb,Step-1,Increment      1: Step Time =    1.000,"PART-1-1",           516,          13.5,          -30.,            0.,NA,NA,"",            0.,   2.08677E-39,   141.885E-39,   73.5318E-03
C:/temp/dataset/0/2_24.odb,Step-1,Increment      1: Step Time =    1.000,"PART-1-1",           517,           15.,        -28.75,            0.,NA,NA,"",   138.305E-03,  -89.1381E-03,   105.748E-03,   98.3810E-03
C:/temp/dataset/0/2_24.odb,Step-1,Increment      1: Step Time =    1.000,"PART-1-1",           518,       12.1324,      -28.7808,            0.,NA,NA,"",   52.4487E-03,  -11.7996E-03,   51.1042E-03,   51.9774E-03
C:/temp/dataset/0/2_24.odb,Step-1,Increment      1: Step Time =    1.000,"PART-1-1",           519,       10.4418,      -23.8774,            0.,NA,NA,"",   255.101E-03,  -188.628E-03,   171.744E-03,   38.4327E-03
C:/temp/dataset/0/2_24.odb,Step-1,Increment      1: Step Time =    1.000,"PART-1-1",           520,       12.6627,      -23.9582,            0.,NA,NA,"",   424.568E-03,  -247.241E-03,   345.152E-03,   72.3775E-03
C:/temp/dataset/0/2_24.odb,Step-1,Increment      1: Step Time =    1.000,"PART-1-1",           521,       11.7324,      -22.7705,            0.,NA,NA,"",   452.365E-03,  -309.960E-03,   329.482E-03,   60.3406E-03
C:/temp/dataset/0/2_24.odb,Step-1,Increment      1: Step Time =    1.000,"PART-1-1",           522,       13.8804,      -22.6275,            0.,NA,NA,"",   681.074E-03,  -408.894E-03,   544.672E-03,   93.7441E-03
C:/temp/dataset/0/2_24.odb,Step-1,Increment      1: Step Time =    1.000,"PART-1-1",           523,           15.,        -23.75,            0.,NA,NA,"",   649.738E-03,  -360.529E-03,   540.535E-03,   106.489E-03
C:/temp/dataset/0/2_24.odb,Step-1,Increment      1: Step Time =    1.000,"PART-1-1",           524,       10.4567,      -19.3679,            0.,NA,NA,"",   749.675E-03,  -681.190E-03,   313.040E-03,   45.0168E-03
C:/temp/dataset/0/2_24.odb,Step-1,Increment      1: Step Time =    1.000,"PART-1-1",           525,       11.6911,      -20.4036,            0.,NA,NA,"",   723.107E-03,  -574.241E-03,   439.467E-03,   62.9623E-03
C:/temp/dataset/0/2_24.odb,Step-1,Increment      1: Step Time =    1.000,"PART-1-1",           526,       13.7764,      -15.1383,            0.,NA,NA,"",       2.00450,      -1.72002,       1.02933,   81.4798E-03
C:/temp/dataset/0/2_24.odb,Step-1,Increment      1: Step Time =    1.000,"PART-1-1",           527,           15.,        -16.25,            0.,NA,NA,"",       1.95495,      -1.52863,       1.21866,   106.708E-03
C:/temp/dataset/0/2_24.odb,Step-1,Increment      1: Step Time =    1.000,"PART-1-1",           528,       13.9082,      -7.52913,            0.,NA,NA,"",       4.14390,      -3.97229,       1.18017,   48.6416E-03
C:/temp/dataset/0/2_24.odb,Step-1,Increment      1: Step Time =    1.000,"PART-1-1",           529,       12.6962,      -8.81215,            0.,NA,NA,"",       3.58327,      -3.48175,   846.903E-03,   45.3469E-03
C:/temp/dataset/0/2_24.odb,Step-1,Increment      1: Step Time =    1.000,"PART-1-1",           530,           15.,         -8.75,            0.,NA,NA,"",       3.95035,      -3.65288,       1.50392,   63.0770E-03
C:/temp/dataset/0/2_24.odb,Step-1,Increment      1: Step Time =    1.000,"PART-1-1",           531,       12.9315,      -6.39763,            0.,NA,NA,"",       4.37140,      -4.28331,   873.135E-03,   39.5239E-03
C:/temp/dataset/0/2_24.odb,Step-1,Increment      1: Step Time =    1.000,"PART-1-1",           532,           15.,         -6.25,            0.,NA,NA,"",       4.71630,      -4.47161,       1.49939,   49.6986E-03
C:/temp/dataset/0/2_24.odb,Step-1,Increment      1: Step Time =    1.000,"PART-1-1",           533,       13.7496,  -319.059E-03,            0.,NA,NA,"",       6.48148,      -6.41480,   927.338E-03,   20.6608E-03
C:/temp/dataset/0/2_24.odb,Step-1,Increment      1: Step Time =    1.000,"PART-1-1",           534,       12.6614,      -1.81770,            0.,NA,NA,"",       5.86401,      -5.82865,   643.026E-03,   27.5156E-03
C:/temp/dataset/0/2_24.odb,Step-1,Increment      1: Step Time =    1.000,"PART-1-1",           535,           15.,         -1.25,            0.,NA,NA,"",       6.32702,      -6.17561,       1.37587,   24.6320E-03
C:/temp/dataset/0/2_24.odb,Step-1,Increment      1: Step Time =    1.000,"PART-1-1",           536,       12.4054,   643.186E-03,            0.,NA,NA,"",       6.68228,      -6.66684,   453.903E-03,   23.3828E-03
C:/temp/dataset/0/2_24.odb,Step-1,Increment      1: Step Time =    1.000,"PART-1-1",           537,           15.,          1.25,            0.,NA,NA,"",       7.14671,      -7.03340,       1.26757,   12.3565E-03
C:/temp/dataset/0/2_24.odb,Step-1,Increment      1: Step Time =    1.000,"PART-1-1",           538,           15.,          6.25,            0.,NA,NA,"",       8.75151,      -8.69625,   981.897E-03,   12.4796E-03
C:/temp/dataset/0/2_24.odb,Step-1,Increment      1: Step Time =    1.000,"PART-1-1",           539,       10.9661,       10.0010,            0.,NA,NA,"",       9.71334,      -9.70389,  -428.436E-03,   22.5495E-03
C:/temp/dataset/0/2_24.odb,Step-1,Increment      1: Step Time =    1.000,"PART-1-1",           540,       13.7311,       15.1467,            0.,NA,NA,"",       11.2252,      -11.2252,   4.06348E-03,   39.8597E-03
C:/temp/dataset/0/2_24.odb,Step-1,Increment      1: Step Time =    1.000,"PART-1-1",           541,       13.6638,       12.5861,            0.,NA,NA,"",       10.5467,      -10.5454,   160.658E-03,   30.6204E-03
C:/temp/dataset/0/2_24.odb,Step-1,Increment      1: Step Time =    1.000,"PART-1-1",           542,           15.,         13.75,            0.,NA,NA,"",       10.8909,      -10.8820,   441.346E-03,   49.8979E-03
C:/temp/dataset/0/2_24.odb,Step-1,Increment      1: Step Time =    1.000,"PART-1-1",           543,       10.0887,       16.9483,            0.,NA,NA,"",       11.5707,      -11.5421,  -812.695E-03,   21.9802E-03
C:/temp/dataset/0/2_24.odb,Step-1,Increment      1: Step Time =    1.000,"PART-1-1",           544,       12.5455,       16.5489,            0.,NA,NA,"",       11.5311,      -11.5266,  -322.221E-03,   23.0658E-03
C:/temp/dataset/0/2_24.odb,Step-1,Increment      1: Step Time =    1.000,"PART-1-1",           545,       13.9423,       22.5670,            0.,NA,NA,"",       12.4211,      -12.4178,  -288.127E-03,   36.4149E-03
C:/temp/dataset/0/2_24.odb,Step-1,Increment      1: Step Time =    1.000,"PART-1-1",           546,       12.8310,       21.4264,            0.,NA,NA,"",       12.3135,      -12.3068,  -407.153E-03,   33.0858E-03
C:/temp/dataset/0/2_24.odb,Step-1,Increment      1: Step Time =    1.000,"PART-1-1",           547,           15.,         21.25,            0.,NA,NA,"",       12.3083,      -12.3076,  -126.703E-03,   53.6842E-03
C:/temp/dataset/0/2_24.odb,Step-1,Increment      1: Step Time =    1.000,"PART-1-1",           548,       13.0804,       28.7387,            0.,NA,NA,"",       12.9244,      -12.9159,  -468.819E-03,   5.94614E-03
C:/temp/dataset/0/2_24.odb,Step-1,Increment      1: Step Time =    1.000,"PART-1-1",           549,       12.1875,           30.,            0.,NA,NA,"",       13.0429,      -13.0307,  -564.076E-03,   5.10833E-03
C:/temp/dataset/0/2_24.odb,Step-1,Increment      1: Step Time =    1.000,"PART-1-1",           550,           15.,         28.75,            0.,NA,NA,"",       12.9300,      -12.9269,  -283.140E-03,   849.169E-06
C:/temp/dataset/0/2_24.odb,Step-1,Increment      1: Step Time =    1.000,"PART-1-1",           551,       14.0625,           30.,            0.,NA,NA,"",       13.0472,      -13.0417,  -378.229E-03,   916.210E-06
C:/temp/dataset/0/2_24.odb,Step-1,Increment      1: Step Time =    1.000,"PART-1-1",           552,       8.83353,       26.4105,            0.,NA,NA,"",       12.6970,      -12.6632,  -925.831E-03,   25.4189E-03
C:/temp/dataset/0/2_24.odb,Step-1,Increment      1: Step Time =    1.000,"PART-1-1",           553,       9.77062,       25.1982,            0.,NA,NA,"",       12.6122,      -12.5849,  -829.774E-03,   29.1259E-03
C:/temp/dataset/0/2_24.odb,Step-1,Increment      1: Step Time =    1.000,"PART-1-1",           554,       5.62710,       27.7270,            0.,NA,NA,"",       12.7593,      -12.7031,      -1.19598,   19.0725E-03
C:/temp/dataset/0/2_24.odb,Step-1,Increment      1: Step Time =    1.000,"PART-1-1",           555,          6.25,           30.,            0.,NA,NA,"",       12.9460,      -12.8966,      -1.13048,   28.9278E-03
C:/temp/dataset/0/2_24.odb,Step-1,Increment      1: Step Time =    1.000,"PART-1-1",           556,   375.256E-03,       24.5574,            0.,NA,NA,"",       12.4504,      -12.3668,      -1.44064,   41.7193E-03
C:/temp/dataset/0/2_24.odb,Step-1,Increment      1: Step Time =    1.000,"PART-1-1",           557,   860.838E-03,       23.0169,            0.,NA,NA,"",       12.3242,      -12.2406,      -1.43256,   36.0842E-03
C:/temp/dataset/0/2_24.odb,Step-1,Increment      1: Step Time =    1.000,"PART-1-1",           558,       10.5910,       21.6677,            0.,NA,NA,"",       12.3162,      -12.2941,  -737.255E-03,   30.9990E-03
C:/temp/dataset/0/2_24.odb,Step-1,Increment      1: Step Time =    1.000,"PART-1-1",           559,       9.14786,      -24.5495,            0.,NA,NA,"",   145.046E-03,  -129.501E-03,   65.3267E-03,   15.5066E-03
C:/temp/dataset/0/2_24.odb,Step-1,Increment      1: Step Time =    1.000,"PART-1-1",           560,           15.,        -21.25,            0.,NA,NA,"",   996.528E-03,  -620.364E-03,   779.883E-03,   115.300E-03
C:/temp/dataset/0/2_24.odb,Step-1,Increment      1: Step Time =    1.000,"PART-1-1",           561,       12.7662,      -21.5126,            0.,NA,NA,"",   698.369E-03,  -479.042E-03,   508.171E-03,   76.4134E-03
C:/temp/dataset/0/2_24.odb,Step-1,Increment      1: Step Time =    1.000,"PART-1-1",           562,           15.,        -13.75,            0.,NA,NA,"",       2.55791,      -2.16075,       1.36896,   92.5444E-03
C:/temp/dataset/0/2_24.odb,Step-1,Increment      1: Step Time =    1.000,"PART-1-1",           563,       12.5272,      -13.9788,            0.,NA,NA,"",       2.10590,      -1.94995,   795.282E-03,   59.6852E-03
C:/temp/dataset/0/2_24.odb,Step-1,Increment      1: Step Time =    1.000,"PART-1-1",           564,           15.,         11.25,            0.,NA,NA,"",       10.2270,      -10.2075,   631.257E-03,   36.9513E-03
C:/temp/dataset/0/2_24.odb,Step-1,Increment      1: Step Time =    1.000,"PART-1-1",           565,       12.2906,       11.3331,            0.,NA,NA,"",       10.1525,      -10.1516,  -134.316E-03,   21.7255E-03
C:/temp/dataset/0/2_24.odb,Step-1,Increment      1: Step Time =    1.000,"PART-1-1",           566,       7.23650,       5.28124,            0.,NA,NA,"",       8.08109,      -7.96950,      -1.33829,   34.3470E-03
C:/temp/dataset/0/2_24.odb,Step-1,Increment      1: Step Time =    1.000,"PART-1-1",           567,       8.44697,       3.91887,            0.,NA,NA,"",       7.63157,      -7.57587,  -920.349E-03,   28.9208E-03
C:/temp/dataset/0/2_24.odb,Step-1,Increment      1: Step Time =    1.000,"PART-1-1",           568,       9.72373,       11.4508,            0.,NA,NA,"",       10.1224,      -10.0904,  -804.433E-03,   31.9286E-03
C:/temp/dataset/0/2_24.odb,Step-1,Increment      1: Step Time =    1.000,"PART-1-1",           569,           15.,         16.25,            0.,NA,NA,"",       11.5176,      -11.5153,   227.922E-03,   64.7288E-03
C:/temp/dataset/0/2_24.odb,Step-1,Increment      1: Step Time =    1.000,"PART-1-1",           570,       6.21850,       16.4100,            0.,NA,NA,"",       11.3706,      -11.2635,      -1.55650,   82.0556E-03
C:/temp/dataset/0/2_24.odb,Step-1,Increment      1: Step Time =    1.000,"PART-1-1",           571,       7.58992,       17.5073,            0.,NA,NA,"",       11.6471,      -11.5789,      -1.25890,   50.7679E-03
C:/temp/dataset/0/2_24.odb,Step-1,Increment      1: Step Time =    1.000,"PART-1-1",           572,       6.37141,       19.4306,            0.,NA,NA,"",       12.0015,      -11.9221,      -1.37743,   80.1246E-03
C:/temp/dataset/0/2_24.odb,Step-1,Increment      1: Step Time =    1.000,"PART-1-1",           573,            5.,       18.3333,            0.,NA,NA,"",       11.7410,      -11.6243,      -1.65118,   132.330E-03
C:/temp/dataset/0/2_24.odb,Step-1,Increment      1: Step Time =    1.000,"PART-1-1",           574,           15.,         23.75,            0.,NA,NA,"",       12.4986,      -12.4966,  -223.127E-03,   27.4478E-03
C:/temp/dataset/0/2_24.odb,Step-1,Increment      1: Step Time =    1.000,"PART-1-1",           575,         -3.75,          -20.,            0.,NA,NA,"",   314.346E-03,  -290.947E-03,   119.011E-03,   67.8652E-03
C:/temp/dataset/0/2_24.odb,Step-1,Increment      1: Step Time =    1.000,"PART-1-1",           576,      -5.05545,      -21.0122,            0.,NA,NA,"",   359.962E-03,  -304.850E-03,   191.414E-03,   74.9450E-03
C:/temp/dataset/0/2_24.odb,Step-1,Increment      1: Step Time =    1.000,"PART-1-1",           577,       7.51719,       25.3425,            0.,NA,NA,"",       12.5955,      -12.5498,      -1.07202,   26.3126E-03
C:/temp/dataset/0/2_24.odb,Step-1,Increment      1: Step Time =    1.000,"PART-1-1",           578,       6.22510,       24.4051,            0.,NA,NA,"",       12.4978,      -12.4396,      -1.20501,   34.2923E-03
C:/temp/dataset/0/2_24.odb,Step-1,Increment      1: Step Time =    1.000,"PART-1-1",           579,       7.27278,       23.2327,            0.,NA,NA,"",       12.4178,      -12.3652,      -1.14194,   36.8227E-03
C:/temp/dataset/0/2_24.odb,Step-1,Increment      1: Step Time =    1.000,"PART-1-1",           580,       8.56487,       24.1701,            0.,NA,NA,"",       12.5168,      -12.4783,  -981.201E-03,   33.6625E-03
C:/temp/dataset/0/2_24.odb,Step-1,Increment      1: Step Time =    1.000,"PART-1-1",           581,            5.,      -8.33333,            0.,NA,NA,"",       3.55891,      -3.28876,      -1.36013,   26.2024E-03
C:/temp/dataset/0/2_24.odb,Step-1,Increment      1: Step Time =    1.000,"PART-1-1",           582,       7.86568,      -7.92961,            0.,NA,NA,"",       3.56541,      -3.52594,  -529.004E-03,   19.5043E-03
C:/temp/dataset/0/2_24.odb,Step-1,Increment      1: Step Time =    1.000,"PART-1-1",           583,       6.55300,      -6.36051,            0.,NA,NA,"",       4.09423,      -3.96839,      -1.00730,   12.4599E-03
C:/temp/dataset/0/2_24.odb,Step-1,Increment      1: Step Time =    1.000,"PART-1-1",           584,       2.48006,       24.7002,            0.,NA,NA,"",       12.4719,      -12.3949,      -1.38344,   39.0144E-03
C:/temp/dataset/0/2_24.odb,Step-1,Increment      1: Step Time =    1.000,"PART-1-1",           585,       1.90437,       23.5201,            0.,NA,NA,"",       12.3676,      -12.2872,      -1.40823,   40.9157E-03
C:/temp/dataset/0/2_24.odb,Step-1,Increment      1: Step Time =    1.000,"PART-1-1",           586,       3.20717,       23.2686,            0.,NA,NA,"",       12.3553,      -12.2780,      -1.37980,   43.7578E-03
C:/temp/dataset/0/2_24.odb,Step-1,Increment      1: Step Time =    1.000,"PART-1-1",           587,       3.78286,       24.4486,            0.,NA,NA,"",       12.4624,      -12.3898,      -1.34319,   41.3027E-03
C:/temp/dataset/0/2_24.odb,Step-1,Increment      1: Step Time =    1.000,"PART-1-1",           588,   574.843E-03,       25.7278,            0.,NA,NA,"",       12.5546,      -12.4723,      -1.43436,   39.1280E-03
C:/temp/dataset/0/2_24.odb,Step-1,Increment      1: Step Time =    1.000,"PART-1-1",           589,       1.89275,       27.1317,            0.,NA,NA,"",       12.6783,      -12.6020,      -1.38932,   31.1113E-03
C:/temp/dataset/0/2_24.odb,Step-1,Increment      1: Step Time =    1.000,"PART-1-1",           590,   743.770E-03,       27.8321,            0.,NA,NA,"",       12.7344,      -12.6538,      -1.43078,   27.2085E-03
C:/temp/dataset/0/2_24.odb,Step-1,Increment      1: Step Time =    1.000,"PART-1-1",           591,  -574.133E-03,       26.4282,            0.,NA,NA,"",       12.6206,      -12.5342,      -1.47392,   36.1481E-03
C:/temp/dataset/0/2_24.odb,Step-1,Increment      1: Step Time =    1.000,"PART-1-1",           592,          1.25,           30.,            0.,NA,NA,"",       12.8708,      -12.7930,      -1.41312,   2.43954E-03
C:/temp/dataset/0/2_24.odb,Step-1,Increment      1: Step Time =    1.000,"PART-1-1",           593,  -258.432E-03,       28.8495,            0.,NA,NA,"",       12.8163,      -12.7312,      -1.47507,   17.9351E-03
C:/temp/dataset/0/2_24.odb,Step-1,Increment      1: Step Time =    1.000,"PART-1-1",           594,       3.99806,       26.6235,            0.,NA,NA,"",       12.6510,      -12.5836,      -1.30404,   28.5363E-03
C:/temp/dataset/0/2_24.odb,Step-1,Increment      1: Step Time =    1.000,"PART-1-1",           595,       4.96332,       25.4314,            0.,NA,NA,"",       12.5631,      -12.4990,      -1.26812,   29.2675E-03
C:/temp/dataset/0/2_24.odb,Step-1,Increment      1: Step Time =    1.000,"PART-1-1",           596,       6.59236,       26.5350,            0.,NA,NA,"",       12.6773,      -12.6263,      -1.13642,   23.4327E-03
C:/temp/dataset/0/2_24.odb,Step-1,Increment      1: Step Time =    1.000,"PART-1-1",           597,          -1.5,           30.,            0.,NA,NA,"",       12.9106,      -12.8177,      -1.54640,   23.4631E-03
C:/temp/dataset/0/2_24.odb,Step-1,Increment      1: Step Time =    1.000,"PART-1-1",           598,      -3.21021,       28.8021,            0.,NA,NA,"",       12.8740,      -12.7697,      -1.63569,   29.8045E-03
C:/temp/dataset/0/2_24.odb,Step-1,Increment      1: Step Time =    1.000,"PART-1-1",           599,      -1.96864,       27.6516,            0.,NA,NA,"",       12.7455,      -12.6516,      -1.54465,   27.4324E-03
C:/temp/dataset/0/2_24.odb,Step-1,Increment      1: Step Time =    1.000,"PART-1-1",           600,       2.23679,       22.3955,            0.,NA,NA,"",       12.2829,      -12.2019,      -1.40812,   36.4585E-03
C:/temp/dataset/0/2_24.odb,Step-1,Increment      1: Step Time =    1.000,"PART-1-1",           601,       6.10470,      -23.0953,            0.,NA,NA,"",   243.820E-03,  -210.225E-03,  -123.505E-03,   32.9601E-03
C:/temp/dataset/0/2_24.odb,Step-1,Increment      1: Step Time =    1.000,"PART-1-1",           602,       5.87020,      -25.1929,            0.,NA,NA,"",   138.813E-03,  -121.060E-03,  -67.9219E-03,   34.1424E-03
C:/temp/dataset/0/2_24.odb,Step-1,Increment      1: Step Time =    1.000,"PART-1-1",           603,       7.19944,      -25.3013,            0.,NA,NA,"",   103.290E-03,  -98.8223E-03,  -30.0488E-03,   13.4785E-03
C:/temp/dataset/0/2_24.odb,Step-1,Increment      1: Step Time =    1.000,"PART-1-1",           604,       10.0350,      -14.2359,            0.,NA,NA,"",       1.79531,      -1.77677,   257.304E-03,   33.2342E-03
C:/temp/dataset/0/2_24.odb,Step-1,Increment      1: Step Time =    1.000,"PART-1-1",           605,       11.6788,      -7.40939,            0.,NA,NA,"",       3.91264,      -3.87611,   533.349E-03,   35.7840E-03
C:/temp/dataset/0/2_24.odb,Step-1,Increment      1: Step Time =    1.000,"PART-1-1",           606,       11.2427,      -1.09783,            0.,NA,NA,"",       5.99692,      -5.99453,   169.397E-03,   26.2416E-03
C:/temp/dataset/0/2_24.odb,Step-1,Increment      1: Step Time =    1.000,"PART-1-1",           607,       7.93860,       19.8912,            0.,NA,NA,"",       12.0757,      -12.0210,      -1.14757,   37.3336E-03
C:/temp/dataset/0/2_24.odb,Step-1,Increment      1: Step Time =    1.000,"PART-1-1",           608,       8.98253,       18.5426,            0.,NA,NA,"",       11.8645,      -11.8218,      -1.00650,   28.7541E-03
C:/temp/dataset/0/2_24.odb,Step-1,Increment      1: Step Time =    1.000,"PART-1-1",           609,       9.31070,       20.7205,            0.,NA,NA,"",       12.1952,      -12.1594,  -933.610E-03,   27.9363E-03
C:/temp/dataset/0/2_24.odb,Step-1,Increment      1: Step Time =    1.000,"PART-1-1",           610,       3.88086,       22.5675,            0.,NA,NA,"",       12.3019,      -12.2248,      -1.37493,   49.3978E-03
C:/temp/dataset/0/2_24.odb,Step-1,Increment      1: Step Time =    1.000,"PART-1-1",           611,       2.67965,       25.8706,            0.,NA,NA,"",       12.5755,      -12.5010,      -1.36689,   35.8460E-03
C:/temp/dataset/0/2_24.odb,Step-1,Increment      1: Step Time =    1.000,"PART-1-1",           612,            5.,          -15.,            0.,NA,NA,"",       1.72460,      -1.49952,  -851.876E-03,   61.6121E-03
C:/temp/dataset/0/2_24.odb,Step-1,Increment      1: Step Time =    1.000,"PART-1-1",           613,       6.27023,      -16.3841,            0.,NA,NA,"",       1.25745,      -1.17945,  -435.977E-03,   50.1782E-03
C:/temp/dataset/0/2_24.odb,Step-1,Increment      1: Step Time =    1.000,"PART-1-1",           614,       7.51616,      -14.5750,            0.,NA,NA,"",       1.64778,      -1.62395,  -279.223E-03,   31.5749E-03
C:/temp/dataset/0/2_24.odb,Step-1,Increment      1: Step Time =    1.000,"PART-1-1",           615,       6.15302,       13.2331,            0.,NA,NA,"",       10.5588,      -10.4226,      -1.69026,   71.1904E-03
C:/temp/dataset/0/2_24.odb,Step-1,Increment      1: Step Time =    1.000,"PART-1-1",           616,       7.37153,       14.6431,            0.,NA,NA,"",       10.9651,      -10.8783,      -1.37707,   60.0869E-03
C:/temp/dataset/0/2_24.odb,Step-1,Increment      1: Step Time =    1.000,"PART-1-1",           617,            5.,           15.,            0.,NA,NA,"",       10.9915,      -10.8267,      -1.89665,   95.7756E-03
C:/temp/dataset/0/2_24.odb,Step-1,Increment      1: Step Time =    1.000,"PART-1-1",           618,            5.,       11.6667,            0.,NA,NA,"",       10.0943,      -9.88884,      -2.02622,   76.6411E-03
C:/temp/dataset/0/2_24.odb,Step-1,Increment      1: Step Time =    1.000,"PART-1-1",           619,       6.12690,       10.0064,            0.,NA,NA,"",       9.61273,      -9.45427,      -1.73821,   56.5820E-03
C:/temp/dataset/0/2_24.odb,Step-1,Increment      1: Step Time =    1.000,"PART-1-1",           620,       7.27992,       11.5729,            0.,NA,NA,"",       10.1074,      -10.0062,      -1.42709,   52.0563E-03
C:/temp/dataset/0/2_24.odb,Step-1,Increment      1: Step Time =    1.000,"PART-1-1",           621,       6.15632,   278.618E-03,            0.,NA,NA,"",       6.35546,      -6.17828,      -1.49021,   18.2723E-03
C:/temp/dataset/0/2_24.odb,Step-1,Increment      1: Step Time =    1.000,"PART-1-1",           622,            5.,      -1.66667,            0.,NA,NA,"",       5.72391,      -5.44104,      -1.77713,   7.31268E-03
C:/temp/dataset/0/2_24.odb,Step-1,Increment      1: Step Time =    1.000,"PART-1-1",           623,       6.25252,      -2.97068,            0.,NA,NA,"",       5.23567,      -5.07287,      -1.29549,   9.77060E-03
C:/temp/dataset/0/2_24.odb,Step-1,Increment      1: Step Time =    1.000,"PART-1-1",           624,       7.67955,      -17.4721,            0.,NA,NA,"",   953.622E-03,  -947.873E-03,  -104.551E-03,   34.2093E-03
C:/temp/dataset/0/2_24.odb,Step-1,Increment      1: Step Time =    1.000,"PART-1-1",           625,            5.,      -18.3333,            0.,NA,NA,"",   946.639E-03,  -779.224E-03,  -537.527E-03,   103.401E-03
C:/temp/dataset/0/2_24.odb,Step-1,Increment      1: Step Time =    1.000,"PART-1-1",           626,       6.40932,      -19.4213,            0.,NA,NA,"",   564.106E-03,  -524.797E-03,  -206.888E-03,   75.4355E-03
C:/temp/dataset/0/2_24.odb,Step-1,Increment      1: Step Time =    1.000,"PART-1-1",           627,      -1.73152,      -24.7018,            0.,NA,NA,"",   188.935E-03,  -186.162E-03,   32.2503E-03,   38.6107E-03
C:/temp/dataset/0/2_24.odb,Step-1,Increment      1: Step Time =    1.000,"PART-1-1",           628,       9.06065,      -18.5206,            0.,NA,NA,"",   789.157E-03,  -779.497E-03,   123.097E-03,   36.1591E-03
C:/temp/dataset/0/2_24.odb,Step-1,Increment      1: Step Time =    1.000,"PART-1-1",           629,       8.80686,      -15.8614,            0.,NA,NA,"",       1.33954,      -1.33889,   41.6866E-03,   29.1324E-03
C:/temp/dataset/0/2_24.odb,Step-1,Increment      1: Step Time =    1.000,"PART-1-1",           630,       10.3171,      -8.61722,            0.,NA,NA,"",       3.42281,      -3.41765,   187.868E-03,   30.4061E-03
C:/temp/dataset/0/2_24.odb,Step-1,Increment      1: Step Time =    1.000,"PART-1-1",           631,       8.85917,      -9.88939,            0.,NA,NA,"",       2.96510,      -2.96080,  -159.768E-03,   21.9063E-03
C:/temp/dataset/0/2_24.odb,Step-1,Increment      1: Step Time =    1.000,"PART-1-1",           632,       8.74431,      -12.9496,            0.,NA,NA,"",       2.07850,      -2.07739,  -67.9249E-03,   23.2051E-03
C:/temp/dataset/0/2_24.odb,Step-1,Increment      1: Step Time =    1.000,"PART-1-1",           633,       6.89786,       21.2129,            0.,NA,NA,"",       12.2280,      -12.1644,      -1.24602,   50.0474E-03
C:/temp/dataset/0/2_24.odb,Step-1,Increment      1: Step Time =    1.000,"PART-1-1",           634,       10.2659,      -2.76771,            0.,NA,NA,"",       5.36137,      -5.36107,  -57.1527E-03,   28.3459E-03
C:/temp/dataset/0/2_24.odb,Step-1,Increment      1: Step Time =    1.000,"PART-1-1",           635,       7.80552,      -4.33119,            0.,NA,NA,"",       4.75403,      -4.69698,  -734.275E-03,   19.7028E-03
C:/temp/dataset/0/2_24.odb,Step-1,Increment      1: Step Time =    1.000,"PART-1-1",           636,            5.,           -5.,            0.,NA,NA,"",       4.61382,      -4.33342,      -1.58392,   9.20334E-03
C:/temp/dataset/0/2_24.odb,Step-1,Increment      1: Step Time =    1.000,"PART-1-1",           637,       7.27801,       2.13112,            0.,NA,NA,"",       6.99423,      -6.88854,      -1.21132,   26.6727E-03
C:/temp/dataset/0/2_24.odb,Step-1,Increment      1: Step Time =    1.000,"PART-1-1",           638,       6.12168,       3.51917,            0.,NA,NA,"",       7.47490,      -7.29497,      -1.63020,   30.0441E-03
C:/temp/dataset/0/2_24.odb,Step-1,Increment      1: Step Time =    1.000,"PART-1-1",           639,            5.,       1.66667,            0.,NA,NA,"",       6.85857,      -6.58147,      -1.92981,   23.5961E-03
C:/temp/dataset/0/2_24.odb,Step-1,Increment      1: Step Time =    1.000,"PART-1-1",           640,            5.,            5.,            0.,NA,NA,"",       7.98726,      -7.72473,      -2.03098,   40.2553E-03
C:/temp/dataset/0/2_24.odb,Step-1,Increment      1: Step Time =    1.000,"PART-1-1",           641,       6.11481,       6.76207,            0.,NA,NA,"",       8.57058,      -8.39708,      -1.71576,   42.8210E-03
C:/temp/dataset/0/2_24.odb,Step-1,Increment      1: Step Time =    1.000,"PART-1-1",           642,       8.53738,       13.0133,            0.,NA,NA,"",       10.5499,      -10.4902,      -1.12072,   43.7340E-03
C:/temp/dataset/0/2_24.odb,Step-1,Increment      1: Step Time =    1.000,"PART-1-1",           643,       8.69606,       15.9130,            0.,NA,NA,"",       11.3095,      -11.2576,      -1.08244,   46.7570E-03
C:/temp/dataset/0/2_24.odb,Step-1,Increment      1: Step Time =    1.000,"PART-1-1",           644,       9.56938,       22.9454,            0.,NA,NA,"",       12.4272,      -12.3965,  -873.375E-03,   35.1080E-03
C:/temp/dataset/0/2_24.odb,Step-1,Increment      1: Step Time =    1.000,"PART-1-1",           645,       8.28908,       21.9981,            0.,NA,NA,"",       12.3234,      -12.2780,      -1.05706,   37.4915E-03
C:/temp/dataset/0/2_24.odb,Step-1,Increment      1: Step Time =    1.000,"PART-1-1",           646,      -3.61415,       26.3795,            0.,NA,NA,"",       12.6536,      -12.5491,      -1.62299,   28.8907E-03
C:/temp/dataset/0/2_24.odb,Step-1,Increment      1: Step Time =    1.000,"PART-1-1",           647,      -6.18563,       28.7596,            0.,NA,NA,"",       12.9741,      -12.8330,      -1.90863,   34.0447E-03
C:/temp/dataset/0/2_24.odb,Step-1,Increment      1: Step Time =    1.000,"PART-1-1",           648,      -4.89584,       27.5617,            0.,NA,NA,"",       12.8054,      -12.6852,      -1.75026,   22.6085E-03
C:/temp/dataset/0/2_24.odb,Step-1,Increment      1: Step Time =    1.000,"PART-1-1",           649,          -4.5,           30.,            0.,NA,NA,"",       13.0261,      -12.9062,      -1.76293,   41.4751E-03
C:/temp/dataset/0/2_24.odb,Step-1,Increment      1: Step Time =    1.000,"PART-1-1",           650,          -15.,          19.5,            0.,NA,NA,"",       11.8683,      -11.3842,      -3.35501,   58.5715E-03
C:/temp/dataset/0/2_24.odb,Step-1,Increment      1: Step Time =    1.000,"PART-1-1",           651,      -13.6835,       18.2834,            0.,NA,NA,"",       11.5959,      -11.1722,      -3.10587,   43.0655E-03
C:/temp/dataset/0/2_24.odb,Step-1,Increment      1: Step Time =    1.000,"PART-1-1",           652,      -12.3643,       20.0316,            0.,NA,NA,"",       11.9380,      -11.6006,      -2.81830,   25.5965E-03
C:/temp/dataset/0/2_24.odb,Step-1,Increment      1: Step Time =    1.000,"PART-1-1",           653,      -13.6808,       21.2481,            0.,NA,NA,"",       12.1736,      -11.7827,      -3.06036,   39.9202E-03
C:/temp/dataset/0/2_24.odb,Step-1,Increment      1: Step Time =    1.000,"PART-1-1",           654,      -6.08047,      -19.7739,            0.,NA,NA,"",   447.790E-03,  -402.500E-03,   196.239E-03,   72.7424E-03
C:/temp/dataset/0/2_24.odb,Step-1,Increment      1: Step Time =    1.000,"PART-1-1",           655,      -7.17803,      -20.6070,            0.,NA,NA,"",   337.926E-03,  -324.685E-03,   93.6670E-03,   24.6719E-03
C:/temp/dataset/0/2_24.odb,Step-1,Increment      1: Step Time =    1.000,"PART-1-1",           656,       5.87583,      -21.1387,            0.,NA,NA,"",   381.032E-03,  -318.976E-03,  -208.422E-03,   56.8146E-03
C:/temp/dataset/0/2_24.odb,Step-1,Increment      1: Step Time =    1.000,"PART-1-1",           657,       4.61047,      -23.6002,            0.,NA,NA,"",   249.762E-03,  -213.005E-03,  -130.422E-03,   48.2090E-03
C:/temp/dataset/0/2_24.odb,Step-1,Increment      1: Step Time =    1.000,"PART-1-1",           658,       4.56928,      -26.4448,            0.,NA,NA,"",   109.409E-03,  -96.0533E-03,  -52.3846E-03,   30.8370E-03
C:/temp/dataset/0/2_24.odb,Step-1,Increment      1: Step Time =    1.000,"PART-1-1",           659,       5.04464,       23.4223,            0.,NA,NA,"",       12.3936,      -12.3242,      -1.30962,   42.4755E-03
C:/temp/dataset/0/2_24.odb,Step-1,Increment      1: Step Time =    1.000,"PART-1-1",           660,       5.88156,       22.4475,            0.,NA,NA,"",       12.3252,      -12.2575,      -1.29085,   51.6643E-03
C:/temp/dataset/0/2_24.odb,Step-1,Increment      1: Step Time =    1.000,"PART-1-1",           661,      -1.61333,      -27.2257,            0.,NA,NA,"",   99.4326E-03,  -98.9030E-03,   10.2488E-03,   28.6718E-03
C:/temp/dataset/0/2_24.odb,Step-1,Increment      1: Step Time =    1.000,"PART-1-1",           662,      -3.01002,      -28.6350,            0.,NA,NA,"",   42.7759E-03,  -42.2597E-03,   6.62492E-03,   24.0447E-03
C:/temp/dataset/0/2_24.odb,Step-1,Increment      1: Step Time =    1.000,"PART-1-1",           663,          -1.5,          -30.,            0.,NA,NA,"",            0.,  -29.6747E-39,   70.7838E-42,   23.7540E-03
C:/temp/dataset/0/2_24.odb,Step-1,Increment      1: Step Time =    1.000,"PART-1-1",           664,            5.,       8.33333,            0.,NA,NA,"",       9.07744,      -8.83867,      -2.06829,   57.8407E-03
C:/temp/dataset/0/2_24.odb,Step-1,Increment      1: Step Time =    1.000,"PART-1-1",           665,       8.16766,      -19.9578,            0.,NA,NA,"",   503.447E-03,  -503.385E-03,   7.88583E-03,   29.5063E-03
C:/temp/dataset/0/2_24.odb,Step-1,Increment      1: Step Time =    1.000,"PART-1-1",           666,       7.85169,      -26.8977,            0.,NA,NA,"",   38.3448E-03,  -38.3260E-03,   1.20243E-03,   9.77034E-03
C:/temp/dataset/0/2_24.odb,Step-1,Increment      1: Step Time =    1.000,"PART-1-1",           667,          -4.5,          -30.,            0.,NA,NA,"",            0.,  -14.7092E-39,   4.99253E-39,   12.7672E-03
C:/temp/dataset/0/2_24.odb,Step-1,Increment      1: Step Time =    1.000,"PART-1-1",           668,      -7.38541,       11.9129,            0.,NA,NA,"",       9.72058,      -9.63837,      -1.26159,   39.8696E-03
C:/temp/dataset/0/2_24.odb,Step-1,Increment      1: Step Time =    1.000,"PART-1-1",           669,      -9.84369,       11.4885,            0.,NA,NA,"",       9.63049,      -9.43336,      -1.93858,   26.5981E-03
C:/temp/dataset/0/2_24.odb,Step-1,Increment      1: Step Time =    1.000,"PART-1-1",           670,           -5.,      -18.4615,            0.,NA,NA,"",   776.322E-03,  -670.625E-03,   391.073E-03,   116.528E-03
C:/temp/dataset/0/2_24.odb,Step-1,Increment      1: Step Time =    1.000,"PART-1-1",           671,      -6.12192,      -16.9214,            0.,NA,NA,"",   955.571E-03,  -903.527E-03,   311.054E-03,   60.9248E-03
C:/temp/dataset/0/2_24.odb,Step-1,Increment      1: Step Time =    1.000,"PART-1-1",           672,      -12.3453,      -25.6066,            0.,NA,NA,"",   201.450E-03,  -76.7058E-03,  -186.275E-03,   52.6178E-03
C:/temp/dataset/0/2_24.odb,Step-1,Increment      1: Step Time =    1.000,"PART-1-1",           673,      -10.6437,      -26.7860,            0.,NA,NA,"",   79.3431E-03,  -23.4115E-03,  -75.8104E-03,   29.9454E-03
C:/temp/dataset/0/2_24.odb,Step-1,Increment      1: Step Time =    1.000,"PART-1-1",           674,      -9.83114,      -25.4438,            0.,NA,NA,"",   92.6127E-03,  -56.4625E-03,  -73.4105E-03,   21.1673E-03
C:/temp/dataset/0/2_24.odb,Step-1,Increment      1: Step Time =    1.000,"PART-1-1",           675,      -8.43320,      -25.2132,            0.,NA,NA,"",   71.1026E-03,  -69.0229E-03,  -17.0713E-03,   10.6528E-03
C:/temp/dataset/0/2_24.odb,Step-1,Increment      1: Step Time =    1.000,"PART-1-1",           676,      -9.78639,       17.5920,            0.,NA,NA,"",       11.3787,      -11.1560,      -2.23994,   18.2313E-03
C:/temp/dataset/0/2_24.odb,Step-1,Increment      1: Step Time =    1.000,"PART-1-1",           677,      -11.0716,       18.8358,            0.,NA,NA,"",       11.6810,      -11.3999,      -2.54718,   16.8886E-03
C:/temp/dataset/0/2_24.odb,Step-1,Increment      1: Step Time =    1.000,"PART-1-1",           678,      -12.3675,       17.0640,            0.,NA,NA,"",       11.2886,      -10.9330,      -2.81107,   23.7292E-03
C:/temp/dataset/0/2_24.odb,Step-1,Increment      1: Step Time =    1.000,"PART-1-1",           679,      -12.1189,      -19.2948,            0.,NA,NA,"",   697.377E-03,  -502.438E-03,  -483.622E-03,   52.2743E-03
C:/temp/dataset/0/2_24.odb,Step-1,Increment      1: Step Time =    1.000,"PART-1-1",           680,      -11.0109,      -17.4013,            0.,NA,NA,"",   862.305E-03,  -752.782E-03,  -420.582E-03,   35.0071E-03
C:/temp/dataset/0/2_24.odb,Step-1,Increment      1: Step Time =    1.000,"PART-1-1",           681,      -8.01079,      -21.5107,            0.,NA,NA,"",   253.421E-03,  -252.703E-03,   19.0596E-03,   11.6842E-03
C:/temp/dataset/0/2_24.odb,Step-1,Increment      1: Step Time =    1.000,"PART-1-1",           682,           4.5,          -30.,            0.,NA,NA,"",            0.,  -14.6663E-39,  -16.9323E-39,   14.8922E-03
C:/temp/dataset/0/2_24.odb,Step-1,Increment      1: Step Time =    1.000,"PART-1-1",           683,       6.14133,      -28.2363,            0.,NA,NA,"",   26.2878E-03,  -22.9261E-03,  -12.8625E-03,   16.6414E-03
C:/temp/dataset/0/2_24.odb,Step-1,Increment      1: Step Time =    1.000,"PART-1-1",           684,      -9.14726,       28.6966,            0.,NA,NA,"",       13.0778,      -12.8728,      -2.30645,   26.6747E-03
C:/temp/dataset/0/2_24.odb,Step-1,Increment      1: Step Time =    1.000,"PART-1-1",           685,         -10.5,           30.,            0.,NA,NA,"",       13.3076,      -13.0630,      -2.53948,   20.3996E-03
C:/temp/dataset/0/2_24.odb,Step-1,Increment      1: Step Time =    1.000,"PART-1-1",           686,      -6.18127,      -10.8771,            0.,NA,NA,"",       2.34882,      -2.31203,   414.088E-03,   40.0002E-03
C:/temp/dataset/0/2_24.odb,Step-1,Increment      1: Step Time =    1.000,"PART-1-1",           687,      -6.16241,      -13.9212,            0.,NA,NA,"",       1.59475,      -1.54566,   392.650E-03,   50.6589E-03
C:/temp/dataset/0/2_24.odb,Step-1,Increment      1: Step Time =    1.000,"PART-1-1",           688,           -5.,      -12.3077,            0.,NA,NA,"",       2.10980,      -1.99634,   682.574E-03,   60.8887E-03
C:/temp/dataset/0/2_24.odb,Step-1,Increment      1: Step Time =    1.000,"PART-1-1",           689,         -10.5,          -30.,            0.,NA,NA,"",            0.,   9.92244E-39,  -62.7686E-39,   27.6732E-03
C:/temp/dataset/0/2_24.odb,Step-1,Increment      1: Step Time =    1.000,"PART-1-1",           690,          -15.,          22.5,            0.,NA,NA,"",       12.3899,      -11.9539,      -3.25794,   45.0787E-03
C:/temp/dataset/0/2_24.odb,Step-1,Increment      1: Step Time =    1.000,"PART-1-1",           691,          -15.,          16.5,            0.,NA,NA,"",       11.2027,      -10.6632,      -3.43456,   56.2024E-03
C:/temp/dataset/0/2_24.odb,Step-1,Increment      1: Step Time =    1.000,"PART-1-1",           692,      -13.6840,       15.2806,            0.,NA,NA,"",       10.8570,      -10.4014,      -3.11208,   36.0119E-03
C:/temp/dataset/0/2_24.odb,Step-1,Increment      1: Step Time =    1.000,"PART-1-1",           693,          -15.,          13.5,            0.,NA,NA,"",       10.4030,      -9.81258,      -3.45478,   43.6323E-03
C:/temp/dataset/0/2_24.odb,Step-1,Increment      1: Step Time =    1.000,"PART-1-1",           694,      -6.20685,       4.43382,            0.,NA,NA,"",       7.26741,      -7.26229,  -272.848E-03,   21.7087E-03
C:/temp/dataset/0/2_24.odb,Step-1,Increment      1: Step Time =    1.000,"PART-1-1",           695,           -5.,       6.15385,            0.,NA,NA,"",       7.89516,      -7.89516,  -3.75169E-03,   30.2216E-03
C:/temp/dataset/0/2_24.odb,Step-1,Increment      1: Step Time =    1.000,"PART-1-1",           696,      -6.20051,      -1.69203,            0.,NA,NA,"",       5.17274,      -5.17079,   141.784E-03,   10.0180E-03
C:/temp/dataset/0/2_24.odb,Step-1,Increment      1: Step Time =    1.000,"PART-1-1",           697,      -6.19850,      -4.75722,            0.,NA,NA,"",       4.16254,      -4.15270,   285.981E-03,   18.5680E-03
C:/temp/dataset/0/2_24.odb,Step-1,Increment      1: Step Time =    1.000,"PART-1-1",           698,           -5.,      -3.07692,            0.,NA,NA,"",       4.81376,      -4.77658,   597.087E-03,   17.2874E-03
C:/temp/dataset/0/2_24.odb,Step-1,Increment      1: Step Time =    1.000,"PART-1-1",           699,      -12.3926,       7.99194,            0.,NA,NA,"",       8.55989,      -8.19071,      -2.48677,   18.1575E-03
C:/temp/dataset/0/2_24.odb,Step-1,Increment      1: Step Time =    1.000,"PART-1-1",           700,          -15.,           7.5,            0.,NA,NA,"",       8.54169,      -7.88108,      -3.29379,   12.2980E-03
C:/temp/dataset/0/2_24.odb,Step-1,Increment      1: Step Time =    1.000,"PART-1-1",           701,      -12.4166,      -1.07984,            0.,NA,NA,"",       5.41924,      -5.09267,      -1.85279,   28.8023E-03
C:/temp/dataset/0/2_24.odb,Step-1,Increment      1: Step Time =    1.000,"PART-1-1",           702,          -15.,          -1.5,            0.,NA,NA,"",       5.53120,      -4.84465,      -2.66898,   34.3858E-03
C:/temp/dataset/0/2_24.odb,Step-1,Increment      1: Step Time =    1.000,"PART-1-1",           703,      -12.3992,      -10.1184,            0.,NA,NA,"",       2.59053,      -2.32837,      -1.13558,   45.0846E-03
C:/temp/dataset/0/2_24.odb,Step-1,Increment      1: Step Time =    1.000,"PART-1-1",           704,          -15.,         -10.5,            0.,NA,NA,"",       2.84555,      -2.21118,      -1.79103,   78.3360E-03
C:/temp/dataset/0/2_24.odb,Step-1,Increment      1: Step Time =    1.000,"PART-1-1",           705,      -6.19567,      -7.82333,            0.,NA,NA,"",       3.21177,      -3.18947,   377.776E-03,   29.2348E-03
C:/temp/dataset/0/2_24.odb,Step-1,Increment      1: Step Time =    1.000,"PART-1-1",           706,           -5.,      -6.15385,            0.,NA,NA,"",       3.83786,      -3.77503,   691.587E-03,   32.6620E-03
C:/temp/dataset/0/2_24.odb,Step-1,Increment      1: Step Time =    1.000,"PART-1-1",           707,          -15.,         -22.5,            0.,NA,NA,"",   633.126E-03,  -302.244E-03,  -556.325E-03,   94.4587E-03
C:/temp/dataset/0/2_24.odb,Step-1,Increment      1: Step Time =    1.000,"PART-1-1",           708,      -13.7480,      -24.0946,            0.,NA,NA,"",   389.692E-03,  -170.834E-03,  -350.251E-03,   72.4987E-03
C:/temp/dataset/0/2_24.odb,Step-1,Increment      1: Step Time =    1.000,"PART-1-1",           709,      -13.4685,      -20.9699,            0.,NA,NA,"",   648.627E-03,  -361.649E-03,  -538.448E-03,   75.3407E-03
C:/temp/dataset/0/2_24.odb,Step-1,Increment      1: Step Time =    1.000,"PART-1-1",           710,          -15.,         -25.5,            0.,NA,NA,"",   354.039E-03,  -160.046E-03,  -315.799E-03,   83.7133E-03
C:/temp/dataset/0/2_24.odb,Step-1,Increment      1: Step Time =    1.000,"PART-1-1",           711,           7.5,          -30.,            0.,NA,NA,"",            0.,   4.73805E-39,   9.57071E-39,   5.45188E-03
C:/temp/dataset/0/2_24.odb,Step-1,Increment      1: Step Time =    1.000,"PART-1-1",           712,       9.21036,      -28.6615,            0.,NA,NA,"",   17.5941E-03,   1.38368E-03,   17.5396E-03,   16.2197E-03
C:/temp/dataset/0/2_24.odb,Step-1,Increment      1: Step Time =    1.000,"PART-1-1",           713,          10.5,          -30.,            0.,NA,NA,"",            0.,   10.3047E-39,   70.4820E-39,   29.7380E-03
C:/temp/dataset/0/2_24.odb,Step-1,Increment      1: Step Time =    1.000,"PART-1-1",           714,          -7.5,           30.,            0.,NA,NA,"",       13.1775,      -13.0089,      -2.10123,   39.2151E-03
C:/temp/dataset/0/2_24.odb,Step-1,Increment      1: Step Time =    1.000,"PART-1-1",           715,          -15.,         -19.5,            0.,NA,NA,"",       1.00994,  -560.060E-03,  -840.424E-03,   103.151E-03
C:/temp/dataset/0/2_24.odb,Step-1,Increment      1: Step Time =    1.000,"PART-1-1",           716,      -6.18713,       13.6475,            0.,NA,NA,"",       10.2258,      -10.1708,      -1.05883,   54.4003E-03
C:/temp/dataset/0/2_24.odb,Step-1,Increment      1: Step Time =    1.000,"PART-1-1",           717,           -5.,       15.3846,            0.,NA,NA,"",       10.6923,      -10.6562,  -878.296E-03,   73.3871E-03
C:/temp/dataset/0/2_24.odb,Step-1,Increment      1: Step Time =    1.000,"PART-1-1",           718,           -5.,       12.3077,            0.,NA,NA,"",       9.82819,      -9.81130,  -575.825E-03,   59.3446E-03
C:/temp/dataset/0/2_24.odb,Step-1,Increment      1: Step Time =    1.000,"PART-1-1",           719,           -5.,            0.,            0.,NA,NA,"",       5.83214,      -5.81522,   443.902E-03,   1.69244E-03
C:/temp/dataset/0/2_24.odb,Step-1,Increment      1: Step Time =    1.000,"PART-1-1",           720,      -6.20706,       1.36812,            0.,NA,NA,"",       6.21487,      -6.21468,  -48.5854E-03,   11.9444E-03
C:/temp/dataset/0/2_24.odb,Step-1,Increment      1: Step Time =    1.000,"PART-1-1",           721,           -5.,       3.07692,            0.,NA,NA,"",       6.86775,      -6.86353,   240.495E-03,   14.4872E-03
C:/temp/dataset/0/2_24.odb,Step-1,Increment      1: Step Time =    1.000,"PART-1-1",           722,           -5.,      -9.23077,            0.,NA,NA,"",       2.92951,      -2.83929,   721.426E-03,   47.3803E-03
C:/temp/dataset/0/2_24.odb,Step-1,Increment      1: Step Time =    1.000,"PART-1-1",           723,      -8.78100,      -23.2553,            0.,NA,NA,"",   150.513E-03,  -145.734E-03,  -37.6266E-03,   11.0155E-03
C:/temp/dataset/0/2_24.odb,Step-1,Increment      1: Step Time =    1.000,"PART-1-1",           724,      -11.0900,      -14.4409,            0.,NA,NA,"",       1.42387,      -1.30499,  -569.585E-03,   33.1546E-03
C:/temp/dataset/0/2_24.odb,Step-1,Increment      1: Step Time =    1.000,"PART-1-1",           725,      -11.1215,      -11.4552,            0.,NA,NA,"",       2.13160,      -2.00093,  -734.836E-03,   32.3764E-03
C:/temp/dataset/0/2_24.odb,Step-1,Increment      1: Step Time =    1.000,"PART-1-1",           726,      -11.1359,      -8.44257,            0.,NA,NA,"",       2.96423,      -2.81700,  -922.570E-03,   31.3412E-03
C:/temp/dataset/0/2_24.odb,Step-1,Increment      1: Step Time =    1.000,"PART-1-1",           727,      -11.1177,       9.73479,            0.,NA,NA,"",       9.09598,      -8.82544,      -2.20190,   21.0992E-03
C:/temp/dataset/0/2_24.odb,Step-1,Increment      1: Step Time =    1.000,"PART-1-1",           728,      -11.1376,       6.69211,            0.,NA,NA,"",       8.06698,      -7.81127,      -2.01499,   22.5060E-03
C:/temp/dataset/0/2_24.odb,Step-1,Increment      1: Step Time =    1.000,"PART-1-1",           729,      -11.1470,       3.65829,            0.,NA,NA,"",       7.00696,      -6.77057,      -1.80469,   24.2529E-03
C:/temp/dataset/0/2_24.odb,Step-1,Increment      1: Step Time =    1.000,"PART-1-1",           730,           -5.,      -15.3846,            0.,NA,NA,"",       1.40208,      -1.27603,   581.016E-03,   74.8501E-03
C:/temp/dataset/0/2_24.odb,Step-1,Increment      1: Step Time =    1.000,"PART-1-1",           731,      -11.1521,   627.191E-03,            0.,NA,NA,"",       5.94053,      -5.72625,      -1.58111,   26.1798E-03
C:/temp/dataset/0/2_24.odb,Step-1,Increment      1: Step Time =    1.000,"PART-1-1",           732,      -11.1477,      -2.39557,            0.,NA,NA,"",       4.89550,      -4.70493,      -1.35260,   28.0864E-03
C:/temp/dataset/0/2_24.odb,Step-1,Increment      1: Step Time =    1.000,"PART-1-1",           733,      -11.1389,      -5.41444,            0.,NA,NA,"",       3.89611,      -3.72874,      -1.12966,   29.8146E-03
