ODB Name,Step,Frame,Part Instance Name,    êﬂì_ÉâÉxÉã,X,Y,Z,Section Name,Material Name,Section Point,   U-Magnitude,          U-U1,          U-U2,       S-Mises
C:/temp/dataset/0/2_6.odb,Step-1,Increment      1: Step Time =    1.000,"PART-1-1",             1,            5.,           20.,            0.,NA,NA,"",       3.14934,      -3.14852,  -71.7233E-03,   36.0200E-03
C:/temp/dataset/0/2_6.odb,Step-1,Increment      1: Step Time =    1.000,"PART-1-1",             2,            0.,           20.,            0.,NA,NA,"",       3.15501,      -3.15427,  -68.1840E-03,   5.06373E-03
C:/temp/dataset/0/2_6.odb,Step-1,Increment      1: Step Time =    1.000,"PART-1-1",             3,            5.,           10.,            0.,NA,NA,"",       2.51141,      -2.49456,  -290.371E-03,   17.8450E-03
C:/temp/dataset/0/2_6.odb,Step-1,Increment      1: Step Time =    1.000,"PART-1-1",             4,            5.,            0.,            0.,NA,NA,"",       1.64489,      -1.60820,  -345.468E-03,   3.43687E-03
C:/temp/dataset/0/2_6.odb,Step-1,Increment      1: Step Time =    1.000,"PART-1-1",             5,            5.,          -10.,            0.,NA,NA,"",   791.983E-03,  -742.733E-03,  -274.927E-03,   10.7694E-03
C:/temp/dataset/0/2_6.odb,Step-1,Increment      1: Step Time =    1.000,"PART-1-1",             6,            5.,          -20.,            0.,NA,NA,"",   129.098E-03,  -105.029E-03,  -75.0683E-03,   32.7959E-03
C:/temp/dataset/0/2_6.odb,Step-1,Increment      1: Step Time =    1.000,"PART-1-1",             7,            0.,          -20.,            0.,NA,NA,"",   63.2707E-03,  -63.2670E-03,  -685.534E-06,   1.16749E-03
C:/temp/dataset/0/2_6.odb,Step-1,Increment      1: Step Time =    1.000,"PART-1-1",             8,           -5.,          -20.,            0.,NA,NA,"",   116.604E-03,  -97.7554E-03,   63.5636E-03,   33.9475E-03
C:/temp/dataset/0/2_6.odb,Step-1,Increment      1: Step Time =    1.000,"PART-1-1",             9,           -5.,           20.,            0.,NA,NA,"",       3.09119,      -3.09022,  -77.5357E-03,   39.1731E-03
C:/temp/dataset/0/2_6.odb,Step-1,Increment      1: Step Time =    1.000,"PART-1-1",            10,           15.,           30.,            0.,NA,NA,"",       3.40809,      -3.39932,   244.331E-03,   277.394E-06
C:/temp/dataset/0/2_6.odb,Step-1,Increment      1: Step Time =    1.000,"PART-1-1",            11,           7.5,           30.,            0.,NA,NA,"",       3.37753,      -3.37712,   52.1798E-03,   7.65429E-03
C:/temp/dataset/0/2_6.odb,Step-1,Increment      1: Step Time =    1.000,"PART-1-1",            12,            0.,           30.,            0.,NA,NA,"",       3.34249,      -3.34189,  -62.9943E-03,   2.42826E-03
C:/temp/dataset/0/2_6.odb,Step-1,Increment      1: Step Time =    1.000,"PART-1-1",            13,          -15.,           30.,            0.,NA,NA,"",       3.45825,      -3.42114,  -505.302E-03,   479.920E-06
C:/temp/dataset/0/2_6.odb,Step-1,Increment      1: Step Time =    1.000,"PART-1-1",            14,          -15.,          -30.,            0.,NA,NA,"",            0.,  -8.80412E-39,  -15.7991E-39,   25.0063E-03
C:/temp/dataset/0/2_6.odb,Step-1,Increment      1: Step Time =    1.000,"PART-1-1",            15,           15.,          -30.,            0.,NA,NA,"",            0.,  -9.29411E-39,   17.3893E-39,   28.1825E-03
C:/temp/dataset/0/2_6.odb,Step-1,Increment      1: Step Time =    1.000,"PART-1-1",            16,           15.,         -22.5,            0.,NA,NA,"",   201.225E-03,  -109.895E-03,   168.567E-03,   28.6015E-03
C:/temp/dataset/0/2_6.odb,Step-1,Increment      1: Step Time =    1.000,"PART-1-1",            17,           15.,          -15.,            0.,NA,NA,"",   561.174E-03,  -431.529E-03,   358.747E-03,   26.5201E-03
C:/temp/dataset/0/2_6.odb,Step-1,Increment      1: Step Time =    1.000,"PART-1-1",            18,           15.,          -7.5,            0.,NA,NA,"",       1.10143,  -992.006E-03,   478.617E-03,   15.2780E-03
C:/temp/dataset/0/2_6.odb,Step-1,Increment      1: Step Time =    1.000,"PART-1-1",            19,           15.,            0.,            0.,NA,NA,"",       1.74118,      -1.66309,   515.608E-03,   4.69829E-03
C:/temp/dataset/0/2_6.odb,Step-1,Increment      1: Step Time =    1.000,"PART-1-1",            20,           15.,           7.5,            0.,NA,NA,"",       2.38356,      -2.33452,   481.012E-03,   5.87061E-03
C:/temp/dataset/0/2_6.odb,Step-1,Increment      1: Step Time =    1.000,"PART-1-1",            21,           15.,           15.,            0.,NA,NA,"",       2.93607,      -2.91046,   386.989E-03,   16.3578E-03
C:/temp/dataset/0/2_6.odb,Step-1,Increment      1: Step Time =    1.000,"PART-1-1",            22,           15.,          22.5,            0.,NA,NA,"",       3.24566,      -3.23470,   266.566E-03,   11.2143E-03
C:/temp/dataset/0/2_6.odb,Step-1,Increment      1: Step Time =    1.000,"PART-1-1",            23,       3.33333,           20.,            0.,NA,NA,"",       3.16424,      -3.16381,  -52.3994E-03,   9.71354E-03
C:/temp/dataset/0/2_6.odb,Step-1,Increment      1: Step Time =    1.000,"PART-1-1",            24,       1.66667,           20.,            0.,NA,NA,"",       3.16128,      -3.16076,  -57.5378E-03,   3.69757E-03
C:/temp/dataset/0/2_6.odb,Step-1,Increment      1: Step Time =    1.000,"PART-1-1",            25,            5.,       13.3333,            0.,NA,NA,"",       2.76012,      -2.74977,  -238.803E-03,   22.6286E-03
C:/temp/dataset/0/2_6.odb,Step-1,Increment      1: Step Time =    1.000,"PART-1-1",            26,            5.,       16.6667,            0.,NA,NA,"",       2.97290,      -2.96791,  -172.214E-03,   27.4214E-03
C:/temp/dataset/0/2_6.odb,Step-1,Increment      1: Step Time =    1.000,"PART-1-1",            27,            5.,       3.33333,            0.,NA,NA,"",       1.94413,      -1.91376,  -342.307E-03,   8.11786E-03
C:/temp/dataset/0/2_6.odb,Step-1,Increment      1: Step Time =    1.000,"PART-1-1",            28,            5.,       6.66667,            0.,NA,NA,"",       2.23605,      -2.21241,  -324.278E-03,   12.8402E-03
C:/temp/dataset/0/2_6.odb,Step-1,Increment      1: Step Time =    1.000,"PART-1-1",            29,            5.,      -6.66667,            0.,NA,NA,"",       1.06009,      -1.01350,  -310.825E-03,   5.92367E-03
C:/temp/dataset/0/2_6.odb,Step-1,Increment      1: Step Time =    1.000,"PART-1-1",            30,            5.,      -3.33333,            0.,NA,NA,"",       1.34726,      -1.30500,  -334.782E-03,   1.22407E-03
C:/temp/dataset/0/2_6.odb,Step-1,Increment      1: Step Time =    1.000,"PART-1-1",            31,            5.,      -16.6667,            0.,NA,NA,"",   338.225E-03,  -292.454E-03,  -169.903E-03,   20.7883E-03
C:/temp/dataset/0/2_6.odb,Step-1,Increment      1: Step Time =    1.000,"PART-1-1",            32,            5.,      -13.3333,            0.,NA,NA,"",   550.011E-03,  -501.003E-03,  -226.953E-03,   14.8842E-03
C:/temp/dataset/0/2_6.odb,Step-1,Increment      1: Step Time =    1.000,"PART-1-1",            33,           2.5,          -20.,            0.,NA,NA,"",   70.5026E-03,  -67.0791E-03,  -21.7026E-03,   8.67472E-03
C:/temp/dataset/0/2_6.odb,Step-1,Increment      1: Step Time =    1.000,"PART-1-1",            34,          -2.5,          -20.,            0.,NA,NA,"",   68.3904E-03,  -65.3603E-03,   20.1312E-03,   9.54739E-03
C:/temp/dataset/0/2_6.odb,Step-1,Increment      1: Step Time =    1.000,"PART-1-1",            35,           -5.,       16.9231,            0.,NA,NA,"",       2.87345,      -2.87342,   14.0826E-03,   22.3085E-03
C:/temp/dataset/0/2_6.odb,Step-1,Increment      1: Step Time =    1.000,"PART-1-1",            36,           -5.,       13.8462,            0.,NA,NA,"",       2.65578,      -2.65480,   72.2265E-03,   16.9981E-03
C:/temp/dataset/0/2_6.odb,Step-1,Increment      1: Step Time =    1.000,"PART-1-1",            37,           -5.,       10.7692,            0.,NA,NA,"",       2.42215,      -2.41893,   124.883E-03,   13.9428E-03
C:/temp/dataset/0/2_6.odb,Step-1,Increment      1: Step Time =    1.000,"PART-1-1",            38,           -5.,       7.69231,            0.,NA,NA,"",       2.17267,      -2.16610,   168.793E-03,   10.2211E-03
C:/temp/dataset/0/2_6.odb,Step-1,Increment      1: Step Time =    1.000,"PART-1-1",            39,           -5.,       4.61538,            0.,NA,NA,"",       1.91225,      -1.90140,   203.477E-03,   6.47108E-03
C:/temp/dataset/0/2_6.odb,Step-1,Increment      1: Step Time =    1.000,"PART-1-1",            40,           -5.,       1.53846,            0.,NA,NA,"",       1.64701,      -1.63114,   228.094E-03,   2.64975E-03
C:/temp/dataset/0/2_6.odb,Step-1,Increment      1: Step Time =    1.000,"PART-1-1",            41,           -5.,      -1.53846,            0.,NA,NA,"",       1.38315,      -1.36182,   242.015E-03,   1.19562E-03
C:/temp/dataset/0/2_6.odb,Step-1,Increment      1: Step Time =    1.000,"PART-1-1",            42,           -5.,      -4.61538,            0.,NA,NA,"",       1.12688,      -1.09999,   244.696E-03,   4.99196E-03
C:/temp/dataset/0/2_6.odb,Step-1,Increment      1: Step Time =    1.000,"PART-1-1",            43,           -5.,      -7.69231,            0.,NA,NA,"",   884.252E-03,  -852.255E-03,   235.717E-03,   8.71672E-03
C:/temp/dataset/0/2_6.odb,Step-1,Increment      1: Step Time =    1.000,"PART-1-1",            44,           -5.,      -10.7692,            0.,NA,NA,"",   661.063E-03,  -625.127E-03,   214.992E-03,   12.4372E-03
C:/temp/dataset/0/2_6.odb,Step-1,Increment      1: Step Time =    1.000,"PART-1-1",            45,           -5.,      -13.8462,            0.,NA,NA,"",   461.878E-03,  -424.396E-03,   182.263E-03,   15.6770E-03
C:/temp/dataset/0/2_6.odb,Step-1,Increment      1: Step Time =    1.000,"PART-1-1",            46,           -5.,      -16.9231,            0.,NA,NA,"",   288.541E-03,  -252.190E-03,   140.200E-03,   20.7464E-03
C:/temp/dataset/0/2_6.odb,Step-1,Increment      1: Step Time =    1.000,"PART-1-1",            47,          -2.5,           20.,            0.,NA,NA,"",       3.13873,      -3.13755,  -85.9330E-03,   13.5620E-03
C:/temp/dataset/0/2_6.odb,Step-1,Increment      1: Step Time =    1.000,"PART-1-1",            48,        13.125,           30.,            0.,NA,NA,"",       3.40455,      -3.39882,   197.533E-03,   401.849E-06
C:/temp/dataset/0/2_6.odb,Step-1,Increment      1: Step Time =    1.000,"PART-1-1",            49,         11.25,           30.,            0.,NA,NA,"",       3.39960,      -3.39637,   148.084E-03,   2.45981E-03
C:/temp/dataset/0/2_6.odb,Step-1,Increment      1: Step Time =    1.000,"PART-1-1",            50,         9.375,           30.,            0.,NA,NA,"",       3.39054,      -3.38912,   98.1976E-03,   5.33585E-03
C:/temp/dataset/0/2_6.odb,Step-1,Increment      1: Step Time =    1.000,"PART-1-1",            51,            5.,           30.,            0.,NA,NA,"",       3.35825,      -3.35825,   2.47693E-03,   7.66849E-03
C:/temp/dataset/0/2_6.odb,Step-1,Increment      1: Step Time =    1.000,"PART-1-1",            52,           2.5,           30.,            0.,NA,NA,"",       3.34428,      -3.34411,  -33.5224E-03,   3.83669E-03
C:/temp/dataset/0/2_6.odb,Step-1,Increment      1: Step Time =    1.000,"PART-1-1",            53,           -3.,           30.,            0.,NA,NA,"",       3.35897,      -3.35728,  -106.459E-03,   8.97564E-03
C:/temp/dataset/0/2_6.odb,Step-1,Increment      1: Step Time =    1.000,"PART-1-1",            54,           -6.,           30.,            0.,NA,NA,"",       3.39003,      -3.38549,  -175.351E-03,   11.2764E-03
C:/temp/dataset/0/2_6.odb,Step-1,Increment      1: Step Time =    1.000,"PART-1-1",            55,           -9.,           30.,            0.,NA,NA,"",       3.42222,      -3.41119,  -274.579E-03,   7.84200E-03
C:/temp/dataset/0/2_6.odb,Step-1,Increment      1: Step Time =    1.000,"PART-1-1",            56,          -12.,           30.,            0.,NA,NA,"",       3.44455,      -3.42228,  -391.020E-03,   2.11023E-03
C:/temp/dataset/0/2_6.odb,Step-1,Increment      1: Step Time =    1.000,"PART-1-1",            57,          -15.,           27.,            0.,NA,NA,"",       3.35084,      -3.31266,  -504.380E-03,   2.12884E-03
C:/temp/dataset/0/2_6.odb,Step-1,Increment      1: Step Time =    1.000,"PART-1-1",            58,          -15.,           24.,            0.,NA,NA,"",       3.24721,      -3.20592,  -516.187E-03,   8.27912E-03
C:/temp/dataset/0/2_6.odb,Step-1,Increment      1: Step Time =    1.000,"PART-1-1",            59,          -15.,           21.,            0.,NA,NA,"",       3.12922,      -3.08153,  -544.254E-03,   13.5885E-03
C:/temp/dataset/0/2_6.odb,Step-1,Increment      1: Step Time =    1.000,"PART-1-1",            60,          -15.,           18.,            0.,NA,NA,"",       2.98028,      -2.92332,  -579.904E-03,   14.7733E-03
C:/temp/dataset/0/2_6.odb,Step-1,Increment      1: Step Time =    1.000,"PART-1-1",            61,          -15.,           15.,            0.,NA,NA,"",       2.79615,      -2.72859,  -610.941E-03,   12.3615E-03
C:/temp/dataset/0/2_6.odb,Step-1,Increment      1: Step Time =    1.000,"PART-1-1",            62,          -15.,           12.,            0.,NA,NA,"",       2.58307,      -2.50489,  -630.724E-03,   8.54141E-03
C:/temp/dataset/0/2_6.odb,Step-1,Increment      1: Step Time =    1.000,"PART-1-1",            63,          -15.,            9.,            0.,NA,NA,"",       2.34955,      -2.26116,  -638.401E-03,   4.65208E-03
C:/temp/dataset/0/2_6.odb,Step-1,Increment      1: Step Time =    1.000,"PART-1-1",            64,          -15.,            6.,            0.,NA,NA,"",       2.10269,      -2.00463,  -634.642E-03,   871.852E-06
C:/temp/dataset/0/2_6.odb,Step-1,Increment      1: Step Time =    1.000,"PART-1-1",            65,          -15.,            3.,            0.,NA,NA,"",       1.84876,      -1.74164,  -620.159E-03,   2.91945E-03
C:/temp/dataset/0/2_6.odb,Step-1,Increment      1: Step Time =    1.000,"PART-1-1",            66,          -15.,            0.,            0.,NA,NA,"",       1.59369,      -1.47824,  -595.531E-03,   6.64548E-03
C:/temp/dataset/0/2_6.odb,Step-1,Increment      1: Step Time =    1.000,"PART-1-1",            67,          -15.,           -3.,            0.,NA,NA,"",       1.34332,      -1.22041,  -561.324E-03,   10.3585E-03
C:/temp/dataset/0/2_6.odb,Step-1,Increment      1: Step Time =    1.000,"PART-1-1",            68,          -15.,           -6.,            0.,NA,NA,"",       1.10327,  -974.073E-03,  -518.063E-03,   14.0560E-03
C:/temp/dataset/0/2_6.odb,Step-1,Increment      1: Step Time =    1.000,"PART-1-1",            69,          -15.,           -9.,            0.,NA,NA,"",   878.908E-03,  -745.069E-03,  -466.209E-03,   17.7539E-03
C:/temp/dataset/0/2_6.odb,Step-1,Increment      1: Step Time =    1.000,"PART-1-1",            70,          -15.,          -12.,            0.,NA,NA,"",   675.089E-03,  -539.319E-03,  -406.054E-03,   21.4955E-03
C:/temp/dataset/0/2_6.odb,Step-1,Increment      1: Step Time =    1.000,"PART-1-1",            71,          -15.,          -15.,            0.,NA,NA,"",   496.180E-03,  -363.362E-03,  -337.880E-03,   25.0552E-03
C:/temp/dataset/0/2_6.odb,Step-1,Increment      1: Step Time =    1.000,"PART-1-1",            72,          -15.,          -18.,            0.,NA,NA,"",   345.892E-03,  -224.262E-03,  -263.339E-03,   27.3582E-03
C:/temp/dataset/0/2_6.odb,Step-1,Increment      1: Step Time =    1.000,"PART-1-1",            73,          -15.,          -21.,            0.,NA,NA,"",   226.538E-03,  -127.064E-03,  -187.548E-03,   26.8082E-03
C:/temp/dataset/0/2_6.odb,Step-1,Increment      1: Step Time =    1.000,"PART-1-1",            74,          -15.,          -24.,            0.,NA,NA,"",   136.006E-03,  -67.5391E-03,  -118.051E-03,   23.7874E-03
C:/temp/dataset/0/2_6.odb,Step-1,Increment      1: Step Time =    1.000,"PART-1-1",            75,          -15.,          -27.,            0.,NA,NA,"",   66.9969E-03,  -33.6445E-03,  -57.9364E-03,   22.3348E-03
C:/temp/dataset/0/2_6.odb,Step-1,Increment      1: Step Time =    1.000,"PART-1-1",            76,          -12.,          -30.,            0.,NA,NA,"",            0.,  -7.76161E-39,  -24.9915E-39,   9.82696E-03
C:/temp/dataset/0/2_6.odb,Step-1,Increment      1: Step Time =    1.000,"PART-1-1",            77,           -9.,          -30.,            0.,NA,NA,"",            0.,   5.77062E-39,  -9.39059E-39,   4.20225E-03
C:/temp/dataset/0/2_6.odb,Step-1,Increment      1: Step Time =    1.000,"PART-1-1",            78,           -6.,          -30.,            0.,NA,NA,"",            0.,  -1.77663E-39,   218.409E-42,   1.57976E-03
C:/temp/dataset/0/2_6.odb,Step-1,Increment      1: Step Time =    1.000,"PART-1-1",            79,           -3.,          -30.,            0.,NA,NA,"",            0.,  -6.57170E-39,   5.71922E-39,   5.48216E-03
C:/temp/dataset/0/2_6.odb,Step-1,Increment      1: Step Time =    1.000,"PART-1-1",            80,            0.,          -30.,            0.,NA,NA,"",            0.,  -7.26055E-39,   2.60216E-39,   7.01892E-03
C:/temp/dataset/0/2_6.odb,Step-1,Increment      1: Step Time =    1.000,"PART-1-1",            81,            3.,          -30.,            0.,NA,NA,"",            0.,  -6.98168E-39,  -9.28337E-39,   5.59414E-03
C:/temp/dataset/0/2_6.odb,Step-1,Increment      1: Step Time =    1.000,"PART-1-1",            82,            6.,          -30.,            0.,NA,NA,"",            0.,  -915.688E-42,  -3.00845E-39,   1.61683E-03
C:/temp/dataset/0/2_6.odb,Step-1,Increment      1: Step Time =    1.000,"PART-1-1",            83,            9.,          -30.,            0.,NA,NA,"",            0.,   5.00326E-39,   8.91960E-39,   4.36302E-03
C:/temp/dataset/0/2_6.odb,Step-1,Increment      1: Step Time =    1.000,"PART-1-1",            84,           12.,          -30.,            0.,NA,NA,"",            0.,  -6.10456E-39,   26.7406E-39,   10.8359E-03
C:/temp/dataset/0/2_6.odb,Step-1,Increment      1: Step Time =    1.000,"PART-1-1",            85,           15.,         -27.5,            0.,NA,NA,"",   63.8146E-03,  -33.6447E-03,   54.2248E-03,   24.8690E-03
C:/temp/dataset/0/2_6.odb,Step-1,Increment      1: Step Time =    1.000,"PART-1-1",            86,           15.,          -25.,            0.,NA,NA,"",   125.076E-03,  -62.7428E-03,   108.201E-03,   25.4422E-03
C:/temp/dataset/0/2_6.odb,Step-1,Increment      1: Step Time =    1.000,"PART-1-1",            87,           15.,          -20.,            0.,NA,NA,"",   297.922E-03,  -184.337E-03,   234.046E-03,   30.1748E-03
C:/temp/dataset/0/2_6.odb,Step-1,Increment      1: Step Time =    1.000,"PART-1-1",            88,           15.,         -17.5,            0.,NA,NA,"",   418.101E-03,  -291.813E-03,   299.422E-03,   29.3524E-03
C:/temp/dataset/0/2_6.odb,Step-1,Increment      1: Step Time =    1.000,"PART-1-1",            89,           15.,         -12.5,            0.,NA,NA,"",   724.733E-03,  -598.544E-03,   408.634E-03,   22.7843E-03
C:/temp/dataset/0/2_6.odb,Step-1,Increment      1: Step Time =    1.000,"PART-1-1",            90,           15.,          -10.,            0.,NA,NA,"",   905.838E-03,  -787.037E-03,   448.458E-03,   18.9751E-03
C:/temp/dataset/0/2_6.odb,Step-1,Increment      1: Step Time =    1.000,"PART-1-1",            91,           15.,           -5.,            0.,NA,NA,"",       1.30821,      -1.20907,   499.574E-03,   11.6959E-03
C:/temp/dataset/0/2_6.odb,Step-1,Increment      1: Step Time =    1.000,"PART-1-1",            92,           15.,          -2.5,            0.,NA,NA,"",       1.52268,      -1.43410,   511.768E-03,   8.19872E-03
C:/temp/dataset/0/2_6.odb,Step-1,Increment      1: Step Time =    1.000,"PART-1-1",            93,           15.,           2.5,            0.,NA,NA,"",       1.96001,      -1.89209,   511.511E-03,   1.20947E-03
C:/temp/dataset/0/2_6.odb,Step-1,Increment      1: Step Time =    1.000,"PART-1-1",            94,           15.,            5.,            0.,NA,NA,"",       2.17541,      -2.11720,   499.855E-03,   2.38241E-03
C:/temp/dataset/0/2_6.odb,Step-1,Increment      1: Step Time =    1.000,"PART-1-1",            95,           15.,           10.,            0.,NA,NA,"",       2.58091,      -2.54040,   455.504E-03,   9.28536E-03
C:/temp/dataset/0/2_6.odb,Step-1,Increment      1: Step Time =    1.000,"PART-1-1",            96,           15.,          12.5,            0.,NA,NA,"",       2.76434,      -2.73168,   423.666E-03,   12.5793E-03
C:/temp/dataset/0/2_6.odb,Step-1,Increment      1: Step Time =    1.000,"PART-1-1",            97,           15.,          17.5,            0.,NA,NA,"",       3.07931,      -3.06032,   341.473E-03,   18.7749E-03
C:/temp/dataset/0/2_6.odb,Step-1,Increment      1: Step Time =    1.000,"PART-1-1",            98,           15.,           20.,            0.,NA,NA,"",       3.18132,      -3.16713,   300.141E-03,   17.1375E-03
C:/temp/dataset/0/2_6.odb,Step-1,Increment      1: Step Time =    1.000,"PART-1-1",            99,           15.,           25.,            0.,NA,NA,"",       3.29423,      -3.28466,   250.953E-03,   4.53110E-03
C:/temp/dataset/0/2_6.odb,Step-1,Increment      1: Step Time =    1.000,"PART-1-1",           100,           15.,          27.5,            0.,NA,NA,"",       3.34840,      -3.33942,   244.970E-03,   677.264E-06
C:/temp/dataset/0/2_6.odb,Step-1,Increment      1: Step Time =    1.000,"PART-1-1",           101,       3.77421,       21.6807,            0.,NA,NA,"",       3.18081,      -3.18045,  -47.8444E-03,   16.0168E-03
C:/temp/dataset/0/2_6.odb,Step-1,Increment      1: Step Time =    1.000,"PART-1-1",           102,   339.763E-03,       22.0764,            0.,NA,NA,"",       3.18120,      -3.18060,  -62.0926E-03,   8.12096E-03
C:/temp/dataset/0/2_6.odb,Step-1,Increment      1: Step Time =    1.000,"PART-1-1",           103,       2.04677,       21.7082,            0.,NA,NA,"",       3.17886,      -3.17841,  -53.8670E-03,   7.63657E-03
C:/temp/dataset/0/2_6.odb,Step-1,Increment      1: Step Time =    1.000,"PART-1-1",           104,       11.0234,       27.4901,            0.,NA,NA,"",       3.33937,      -3.33643,   140.124E-03,   5.47752E-03
C:/temp/dataset/0/2_6.odb,Step-1,Increment      1: Step Time =    1.000,"PART-1-1",           105,       8.98111,       27.5559,            0.,NA,NA,"",       3.33226,      -3.33123,   82.9174E-03,   6.01880E-03
C:/temp/dataset/0/2_6.odb,Step-1,Increment      1: Step Time =    1.000,"PART-1-1",           106,      -4.39315,       22.5924,            0.,NA,NA,"",       3.17593,      -3.17432,  -101.083E-03,   13.2572E-03
C:/temp/dataset/0/2_6.odb,Step-1,Increment      1: Step Time =    1.000,"PART-1-1",           107,       12.7609,      -22.7550,            0.,NA,NA,"",   135.442E-03,  -79.9034E-03,   109.361E-03,   18.8225E-03
C:/temp/dataset/0/2_6.odb,Step-1,Increment      1: Step Time =    1.000,"PART-1-1",           108,       12.5528,      -15.2766,            0.,NA,NA,"",   443.871E-03,  -387.584E-03,   216.333E-03,   16.3178E-03
C:/temp/dataset/0/2_6.odb,Step-1,Increment      1: Step Time =    1.000,"PART-1-1",           109,       12.2205,       7.28465,            0.,NA,NA,"",       2.32447,      -2.31052,   254.259E-03,   5.16067E-03
C:/temp/dataset/0/2_6.odb,Step-1,Increment      1: Step Time =    1.000,"PART-1-1",           110,       12.4622,       15.2934,            0.,NA,NA,"",       2.94010,      -2.93149,   224.778E-03,   7.50524E-03
C:/temp/dataset/0/2_6.odb,Step-1,Increment      1: Step Time =    1.000,"PART-1-1",           111,       12.8846,       22.6339,            0.,NA,NA,"",       3.24626,      -3.23974,   205.654E-03,   10.3007E-03
C:/temp/dataset/0/2_6.odb,Step-1,Increment      1: Step Time =    1.000,"PART-1-1",           112,  -340.860E-03,      -22.2697,            0.,NA,NA,"",   68.1766E-03,  -68.1588E-03,   1.55610E-03,   7.67143E-03
C:/temp/dataset/0/2_6.odb,Step-1,Increment      1: Step Time =    1.000,"PART-1-1",           113,       6.83628,       27.6500,            0.,NA,NA,"",       3.32327,      -3.32313,   30.5403E-03,   5.44143E-03
C:/temp/dataset/0/2_6.odb,Step-1,Increment      1: Step Time =    1.000,"PART-1-1",           114,       12.2535,       9.99399,            0.,NA,NA,"",       2.55055,      -2.53884,   244.122E-03,   5.57286E-03
C:/temp/dataset/0/2_6.odb,Step-1,Increment      1: Step Time =    1.000,"PART-1-1",           115,       12.4991,  -638.118E-03,            0.,NA,NA,"",       1.61631,      -1.58905,   295.588E-03,   6.80519E-03
C:/temp/dataset/0/2_6.odb,Step-1,Increment      1: Step Time =    1.000,"PART-1-1",           116,       12.8164,      -7.55827,            0.,NA,NA,"",       1.01393,  -967.477E-03,   303.392E-03,   11.3220E-03
C:/temp/dataset/0/2_6.odb,Step-1,Increment      1: Step Time =    1.000,"PART-1-1",           117,       12.7714,      -20.2702,            0.,NA,NA,"",   212.184E-03,  -148.711E-03,   151.351E-03,   19.3388E-03
C:/temp/dataset/0/2_6.odb,Step-1,Increment      1: Step Time =    1.000,"PART-1-1",           118,      -1.80101,       22.4804,            0.,NA,NA,"",       3.18169,      -3.18076,  -76.9019E-03,   13.2456E-03
C:/temp/dataset/0/2_6.odb,Step-1,Increment      1: Step Time =    1.000,"PART-1-1",           119,       4.41791,       27.8041,            0.,NA,NA,"",       3.31438,      -3.31436,  -12.8188E-03,   5.89027E-03
C:/temp/dataset/0/2_6.odb,Step-1,Increment      1: Step Time =    1.000,"PART-1-1",           120,       2.00441,       27.9652,            0.,NA,NA,"",       3.30987,      -3.30960,  -41.6676E-03,   6.73649E-03
C:/temp/dataset/0/2_6.odb,Step-1,Increment      1: Step Time =    1.000,"PART-1-1",           121,      -2.69107,      -22.1951,            0.,NA,NA,"",   70.6841E-03,  -67.7606E-03,   20.1182E-03,   12.9993E-03
C:/temp/dataset/0/2_6.odb,Step-1,Increment      1: Step Time =    1.000,"PART-1-1",           122,       1.88995,      -22.5465,            0.,NA,NA,"",   67.9134E-03,  -65.7503E-03,  -17.0039E-03,   12.5799E-03
C:/temp/dataset/0/2_6.odb,Step-1,Increment      1: Step Time =    1.000,"PART-1-1",           123,       3.76320,      -23.2871,            0.,NA,NA,"",   68.1371E-03,  -61.6620E-03,  -28.9909E-03,   13.7185E-03
C:/temp/dataset/0/2_6.odb,Step-1,Increment      1: Step Time =    1.000,"PART-1-1",           124,       12.5645,      -25.1614,            0.,NA,NA,"",   76.5770E-03,  -37.3898E-03,   66.8284E-03,   17.4758E-03
C:/temp/dataset/0/2_6.odb,Step-1,Increment      1: Step Time =    1.000,"PART-1-1",           125,       12.6631,      -17.7963,            0.,NA,NA,"",   312.122E-03,  -249.856E-03,   187.062E-03,   18.3615E-03
C:/temp/dataset/0/2_6.odb,Step-1,Increment      1: Step Time =    1.000,"PART-1-1",           126,       12.5016,      -12.6810,            0.,NA,NA,"",   609.960E-03,  -560.028E-03,   241.702E-03,   14.3745E-03
C:/temp/dataset/0/2_6.odb,Step-1,Increment      1: Step Time =    1.000,"PART-1-1",           127,       12.5761,      -10.0660,            0.,NA,NA,"",   804.842E-03,  -758.583E-03,   268.926E-03,   12.7279E-03
C:/temp/dataset/0/2_6.odb,Step-1,Increment      1: Step Time =    1.000,"PART-1-1",           128,       13.0467,      -5.23700,            0.,NA,NA,"",       1.21841,      -1.17196,   333.195E-03,   9.76528E-03
C:/temp/dataset/0/2_6.odb,Step-1,Increment      1: Step Time =    1.000,"PART-1-1",           129,       12.8236,      -2.99729,            0.,NA,NA,"",       1.41016,      -1.37311,   321.141E-03,   8.02168E-03
C:/temp/dataset/0/2_6.odb,Step-1,Increment      1: Step Time =    1.000,"PART-1-1",           130,       12.3116,       1.92449,            0.,NA,NA,"",       1.84721,      -1.82627,   277.399E-03,   5.91023E-03
C:/temp/dataset/0/2_6.odb,Step-1,Increment      1: Step Time =    1.000,"PART-1-1",           131,       12.2319,       4.58053,            0.,NA,NA,"",       2.08680,      -2.06995,   264.665E-03,   5.35106E-03
C:/temp/dataset/0/2_6.odb,Step-1,Increment      1: Step Time =    1.000,"PART-1-1",           132,       12.3276,       12.6723,            0.,NA,NA,"",       2.75725,      -2.74735,   233.377E-03,   7.05826E-03
C:/temp/dataset/0/2_6.odb,Step-1,Increment      1: Step Time =    1.000,"PART-1-1",           133,       12.6288,       17.8043,            0.,NA,NA,"",       3.08355,      -3.07578,   218.788E-03,   6.26796E-03
C:/temp/dataset/0/2_6.odb,Step-1,Increment      1: Step Time =    1.000,"PART-1-1",           134,       12.7774,       20.2190,            0.,NA,NA,"",       3.18231,      -3.17520,   212.537E-03,   7.85527E-03
C:/temp/dataset/0/2_6.odb,Step-1,Increment      1: Step Time =    1.000,"PART-1-1",           135,       2.42682,       23.0828,            0.,NA,NA,"",       3.20464,      -3.20426,  -49.5060E-03,   10.3366E-03
C:/temp/dataset/0/2_6.odb,Step-1,Increment      1: Step Time =    1.000,"PART-1-1",           136,       13.0358,       27.4773,            0.,NA,NA,"",       3.34452,      -3.33876,   196.143E-03,   3.32233E-03
C:/temp/dataset/0/2_6.odb,Step-1,Increment      1: Step Time =    1.000,"PART-1-1",           137,       10.8553,       25.1313,            0.,NA,NA,"",       3.29111,      -3.28837,   134.237E-03,   8.36561E-03
C:/temp/dataset/0/2_6.odb,Step-1,Increment      1: Step Time =    1.000,"PART-1-1",           138,       5.66135,       21.5046,            0.,NA,NA,"",       3.18488,      -3.18464,  -38.9700E-03,   17.6396E-03
C:/temp/dataset/0/2_6.odb,Step-1,Increment      1: Step Time =    1.000,"PART-1-1",           139,       1.38191,       23.9574,            0.,NA,NA,"",       3.22056,      -3.22012,  -53.1806E-03,   10.9299E-03
C:/temp/dataset/0/2_6.odb,Step-1,Increment      1: Step Time =    1.000,"PART-1-1",           140,       8.68595,       25.2651,            0.,NA,NA,"",       3.28454,      -3.28383,   68.3482E-03,   8.00137E-03
C:/temp/dataset/0/2_6.odb,Step-1,Increment      1: Step Time =    1.000,"PART-1-1",           141,       12.9664,       25.0396,            0.,NA,NA,"",       3.29393,      -3.28791,   199.026E-03,   6.92966E-03
C:/temp/dataset/0/2_6.odb,Step-1,Increment      1: Step Time =    1.000,"PART-1-1",           142,       9.99676,      -12.8506,            0.,NA,NA,"",   539.701E-03,  -532.708E-03,   86.5995E-03,   7.57844E-03
C:/temp/dataset/0/2_6.odb,Step-1,Increment      1: Step Time =    1.000,"PART-1-1",           143,       11.3735,      -5.41139,            0.,NA,NA,"",       1.16216,      -1.14524,   197.577E-03,   8.53298E-03
C:/temp/dataset/0/2_6.odb,Step-1,Increment      1: Step Time =    1.000,"PART-1-1",           144,       9.95511,       15.6727,            0.,NA,NA,"",       2.94959,      -2.94839,   83.9524E-03,   7.04477E-03
C:/temp/dataset/0/2_6.odb,Step-1,Increment      1: Step Time =    1.000,"PART-1-1",           145,       9.67875,       10.0081,            0.,NA,NA,"",       2.53240,      -2.53176,   57.2094E-03,   8.04316E-03
C:/temp/dataset/0/2_6.odb,Step-1,Increment      1: Step Time =    1.000,"PART-1-1",           146,       9.74913,       1.24671,            0.,NA,NA,"",       1.75120,      -1.75006,   63.2182E-03,   7.52148E-03
C:/temp/dataset/0/2_6.odb,Step-1,Increment      1: Step Time =    1.000,"PART-1-1",           147,       10.3027,      -18.1986,            0.,NA,NA,"",   227.725E-03,  -211.537E-03,   84.3242E-03,   9.47313E-03
C:/temp/dataset/0/2_6.odb,Step-1,Increment      1: Step Time =    1.000,"PART-1-1",           148,       1.33525,      -24.5624,            0.,NA,NA,"",   53.6957E-03,  -52.6229E-03,  -10.6797E-03,   11.6719E-03
C:/temp/dataset/0/2_6.odb,Step-1,Increment      1: Step Time =    1.000,"PART-1-1",           149,       9.11730,      -22.7103,            0.,NA,NA,"",   62.3892E-03,  -58.7253E-03,   21.0654E-03,   5.20763E-03
C:/temp/dataset/0/2_6.odb,Step-1,Increment      1: Step Time =    1.000,"PART-1-1",           150,       12.2648,      -27.5617,            0.,NA,NA,"",   32.0117E-03,  -11.8774E-03,   29.7267E-03,   15.5278E-03
C:/temp/dataset/0/2_6.odb,Step-1,Increment      1: Step Time =    1.000,"PART-1-1",           151,       10.6108,      -20.5371,            0.,NA,NA,"",   143.110E-03,  -121.112E-03,   76.2379E-03,   11.2880E-03
C:/temp/dataset/0/2_6.odb,Step-1,Increment      1: Step Time =    1.000,"PART-1-1",           152,       10.0930,      -9.97392,            0.,NA,NA,"",   756.875E-03,  -750.875E-03,   95.1136E-03,   7.74666E-03
C:/temp/dataset/0/2_6.odb,Step-1,Increment      1: Step Time =    1.000,"PART-1-1",           153,       9.63546,       7.06865,            0.,NA,NA,"",       2.28188,      -2.28128,   52.2262E-03,   7.86981E-03
C:/temp/dataset/0/2_6.odb,Step-1,Increment      1: Step Time =    1.000,"PART-1-1",           154,       10.2222,       18.2240,            0.,NA,NA,"",       3.09047,      -3.08876,   102.909E-03,   3.69182E-03
C:/temp/dataset/0/2_6.odb,Step-1,Increment      1: Step Time =    1.000,"PART-1-1",           155,       10.5456,      -3.97788,            0.,NA,NA,"",       1.27665,      -1.26978,   132.215E-03,   7.88980E-03
C:/temp/dataset/0/2_6.odb,Step-1,Increment      1: Step Time =    1.000,"PART-1-1",           156,       10.0733,      -15.6212,            0.,NA,NA,"",   359.924E-03,  -349.567E-03,   85.7185E-03,   9.00396E-03
C:/temp/dataset/0/2_6.odb,Step-1,Increment      1: Step Time =    1.000,"PART-1-1",           157,       10.5412,      -7.26051,            0.,NA,NA,"",   987.062E-03,  -978.428E-03,   130.269E-03,   8.13392E-03
C:/temp/dataset/0/2_6.odb,Step-1,Increment      1: Step Time =    1.000,"PART-1-1",           158,       9.98625,      -1.55753,            0.,NA,NA,"",       1.49214,      -1.48970,   85.1524E-03,   7.52380E-03
C:/temp/dataset/0/2_6.odb,Step-1,Increment      1: Step Time =    1.000,"PART-1-1",           159,       9.65058,       4.13273,            0.,NA,NA,"",       2.01778,      -2.01707,   53.4811E-03,   7.67911E-03
C:/temp/dataset/0/2_6.odb,Step-1,Increment      1: Step Time =    1.000,"PART-1-1",           160,       9.76871,       12.8936,            0.,NA,NA,"",       2.75836,      -2.75754,   67.1906E-03,   8.09683E-03
C:/temp/dataset/0/2_6.odb,Step-1,Increment      1: Step Time =    1.000,"PART-1-1",           161,       10.4870,       20.5197,            0.,NA,NA,"",       3.18147,      -3.17931,   117.270E-03,   6.95525E-03
C:/temp/dataset/0/2_6.odb,Step-1,Increment      1: Step Time =    1.000,"PART-1-1",           162,       3.57821,       25.4429,            0.,NA,NA,"",       3.26067,      -3.26052,  -31.3742E-03,   9.59573E-03
C:/temp/dataset/0/2_6.odb,Step-1,Increment      1: Step Time =    1.000,"PART-1-1",           163,       6.34843,       25.4199,            0.,NA,NA,"",       3.27453,      -3.27452,   10.6653E-03,   7.65022E-03
C:/temp/dataset/0/2_6.odb,Step-1,Increment      1: Step Time =    1.000,"PART-1-1",           164,       2.85591,      -26.4171,            0.,NA,NA,"",   33.2666E-03,  -31.2720E-03,  -11.3459E-03,   9.35644E-03
C:/temp/dataset/0/2_6.odb,Step-1,Increment      1: Step Time =    1.000,"PART-1-1",           165,  -631.401E-03,       25.1574,            0.,NA,NA,"",       3.24440,      -3.24372,  -66.0024E-03,   10.8264E-03
C:/temp/dataset/0/2_6.odb,Step-1,Increment      1: Step Time =    1.000,"PART-1-1",           166,  -516.865E-03,       27.6990,            0.,NA,NA,"",       3.30364,      -3.30297,  -66.7343E-03,   7.66798E-03
C:/temp/dataset/0/2_6.odb,Step-1,Increment      1: Step Time =    1.000,"PART-1-1",           167,      -6.99102,       22.3744,            0.,NA,NA,"",       3.17299,      -3.16851,  -168.625E-03,   10.5772E-03
C:/temp/dataset/0/2_6.odb,Step-1,Increment      1: Step Time =    1.000,"PART-1-1",           168,      -5.11091,      -22.0245,            0.,NA,NA,"",   78.5605E-03,  -68.7766E-03,   37.9676E-03,   14.2467E-03
C:/temp/dataset/0/2_6.odb,Step-1,Increment      1: Step Time =    1.000,"PART-1-1",           169,       6.75166,      -22.2774,            0.,NA,NA,"",   70.0065E-03,  -64.5603E-03,  -27.0717E-03,   7.26105E-03
C:/temp/dataset/0/2_6.odb,Step-1,Increment      1: Step Time =    1.000,"PART-1-1",           170,       8.44380,       23.0750,            0.,NA,NA,"",       3.23823,      -3.23783,   50.4420E-03,   10.6492E-03
C:/temp/dataset/0/2_6.odb,Step-1,Increment      1: Step Time =    1.000,"PART-1-1",           171,       3.98751,       23.4543,            0.,NA,NA,"",       3.21791,      -3.21768,  -38.1873E-03,   12.7966E-03
C:/temp/dataset/0/2_6.odb,Step-1,Increment      1: Step Time =    1.000,"PART-1-1",           172,       7.74283,       18.8612,            0.,NA,NA,"",       3.10700,      -3.10700,  -4.18881E-03,   10.0693E-03
C:/temp/dataset/0/2_6.odb,Step-1,Increment      1: Step Time =    1.000,"PART-1-1",           173,  -206.614E-03,      -27.1815,            0.,NA,NA,"",   27.8420E-03,  -27.8393E-03,  -391.515E-06,   8.07710E-03
C:/temp/dataset/0/2_6.odb,Step-1,Increment      1: Step Time =    1.000,"PART-1-1",           174,       10.6950,       22.8157,            0.,NA,NA,"",       3.24312,      -3.24061,   127.679E-03,   9.77269E-03
C:/temp/dataset/0/2_6.odb,Step-1,Increment      1: Step Time =    1.000,"PART-1-1",           175,       1.78109,       26.2982,            0.,NA,NA,"",       3.27425,      -3.27392,  -46.0910E-03,   9.49031E-03
C:/temp/dataset/0/2_6.odb,Step-1,Increment      1: Step Time =    1.000,"PART-1-1",           176,       7.62536,      -9.80486,            0.,NA,NA,"",   761.684E-03,  -757.486E-03,  -79.8654E-03,   5.78250E-03
C:/temp/dataset/0/2_6.odb,Step-1,Increment      1: Step Time =    1.000,"PART-1-1",           177,       7.50504,      -2.60802,            0.,NA,NA,"",       1.38587,      -1.38065,  -120.154E-03,   5.17319E-03
C:/temp/dataset/0/2_6.odb,Step-1,Increment      1: Step Time =    1.000,"PART-1-1",           178,       7.24337,       3.70501,            0.,NA,NA,"",       1.96909,      -1.96366,  -146.192E-03,   7.92801E-03
C:/temp/dataset/0/2_6.odb,Step-1,Increment      1: Step Time =    1.000,"PART-1-1",           179,       7.25379,       10.0129,            0.,NA,NA,"",       2.51963,      -2.51684,  -118.515E-03,   12.4259E-03
C:/temp/dataset/0/2_6.odb,Step-1,Increment      1: Step Time =    1.000,"PART-1-1",           180,       7.22962,       6.85747,            0.,NA,NA,"",       2.25205,      -2.24782,  -138.022E-03,   10.1270E-03
C:/temp/dataset/0/2_6.odb,Step-1,Increment      1: Step Time =    1.000,"PART-1-1",           181,       7.49186,      -13.0485,            0.,NA,NA,"",   519.139E-03,  -514.803E-03,  -66.9547E-03,   7.82136E-03
C:/temp/dataset/0/2_6.odb,Step-1,Increment      1: Step Time =    1.000,"PART-1-1",           182,       8.10600,      -6.05436,            0.,NA,NA,"",       1.07472,      -1.07304,  -60.0758E-03,   5.61722E-03
C:/temp/dataset/0/2_6.odb,Step-1,Increment      1: Step Time =    1.000,"PART-1-1",           183,       7.31265,   557.236E-03,            0.,NA,NA,"",       1.67865,      -1.67265,  -141.765E-03,   6.12192E-03
C:/temp/dataset/0/2_6.odb,Step-1,Increment      1: Step Time =    1.000,"PART-1-1",           184,       7.30605,       13.1330,            0.,NA,NA,"",       2.76037,      -2.75896,  -88.2138E-03,   14.8941E-03
C:/temp/dataset/0/2_6.odb,Step-1,Increment      1: Step Time =    1.000,"PART-1-1",           185,       8.51669,      -21.0731,            0.,NA,NA,"",   94.2907E-03,  -93.7789E-03,   9.81011E-03,   6.17822E-03
C:/temp/dataset/0/2_6.odb,Step-1,Increment      1: Step Time =    1.000,"PART-1-1",           186,       7.54046,      -16.1016,            0.,NA,NA,"",   320.548E-03,  -317.797E-03,  -41.8994E-03,   11.6887E-03
C:/temp/dataset/0/2_6.odb,Step-1,Increment      1: Step Time =    1.000,"PART-1-1",           187,       7.81864,      -18.8426,            0.,NA,NA,"",   171.298E-03,  -170.909E-03,  -11.5354E-03,   8.76348E-03
C:/temp/dataset/0/2_6.odb,Step-1,Increment      1: Step Time =    1.000,"PART-1-1",           188,       7.43701,       16.1533,            0.,NA,NA,"",       2.96143,      -2.96103,  -48.8926E-03,   16.7798E-03
C:/temp/dataset/0/2_6.odb,Step-1,Increment      1: Step Time =    1.000,"PART-1-1",           189,       8.13437,       20.9213,            0.,NA,NA,"",       3.18376,      -3.18366,   25.9128E-03,   10.0034E-03
C:/temp/dataset/0/2_6.odb,Step-1,Increment      1: Step Time =    1.000,"PART-1-1",           190,       10.1795,      -24.9689,            0.,NA,NA,"",   41.0910E-03,  -27.3644E-03,   30.6538E-03,   7.79076E-03
C:/temp/dataset/0/2_6.odb,Step-1,Increment      1: Step Time =    1.000,"PART-1-1",           191,      -2.92607,      -24.6642,            0.,NA,NA,"",   49.7712E-03,  -47.2120E-03,   15.7544E-03,   11.3046E-03
C:/temp/dataset/0/2_6.odb,Step-1,Increment      1: Step Time =    1.000,"PART-1-1",           192,      -7.32959,       16.5303,            0.,NA,NA,"",       2.85665,      -2.85369,  -129.883E-03,   15.9625E-03
C:/temp/dataset/0/2_6.odb,Step-1,Increment      1: Step Time =    1.000,"PART-1-1",           193,      -3.80789,       25.1547,            0.,NA,NA,"",       3.24659,      -3.24494,  -103.662E-03,   8.05608E-03
C:/temp/dataset/0/2_6.odb,Step-1,Increment      1: Step Time =    1.000,"PART-1-1",           194,      -7.16094,      -19.5479,            0.,NA,NA,"",   125.726E-03,  -122.919E-03,   26.4149E-03,   8.05931E-03
C:/temp/dataset/0/2_6.odb,Step-1,Increment      1: Step Time =    1.000,"PART-1-1",           195,       6.10177,       23.3904,            0.,NA,NA,"",       3.22981,      -3.22980,  -9.15617E-03,   11.1231E-03
C:/temp/dataset/0/2_6.odb,Step-1,Increment      1: Step Time =    1.000,"PART-1-1",           196,      -3.02004,      -27.2699,            0.,NA,NA,"",   23.2903E-03,  -22.5919E-03,   5.66051E-03,   7.86198E-03
C:/temp/dataset/0/2_6.odb,Step-1,Increment      1: Step Time =    1.000,"PART-1-1",           197,      -5.46178,      -24.4382,            0.,NA,NA,"",   44.0961E-03,  -39.5259E-03,   19.5492E-03,   8.81023E-03
C:/temp/dataset/0/2_6.odb,Step-1,Increment      1: Step Time =    1.000,"PART-1-1",           198,      -9.66724,       21.9754,            0.,NA,NA,"",       3.16193,      -3.14916,  -283.901E-03,   7.05900E-03
C:/temp/dataset/0/2_6.odb,Step-1,Increment      1: Step Time =    1.000,"PART-1-1",           199,      -7.19512,      -21.6661,            0.,NA,NA,"",   71.7253E-03,  -69.1675E-03,   18.9833E-03,   5.77912E-03
C:/temp/dataset/0/2_6.odb,Step-1,Increment      1: Step Time =    1.000,"PART-1-1",           200,      -3.42041,       27.6042,            0.,NA,NA,"",       3.30955,      -3.30786,  -105.780E-03,   6.68755E-03
C:/temp/dataset/0/2_6.odb,Step-1,Increment      1: Step Time =    1.000,"PART-1-1",           201,       5.45774,      -23.9133,            0.,NA,NA,"",   54.3791E-03,  -47.2497E-03,  -26.9176E-03,   11.4907E-03
C:/temp/dataset/0/2_6.odb,Step-1,Increment      1: Step Time =    1.000,"PART-1-1",           202,      -6.69209,       24.9820,            0.,NA,NA,"",       3.25272,      -3.24810,  -173.350E-03,   6.61172E-03
C:/temp/dataset/0/2_6.odb,Step-1,Increment      1: Step Time =    1.000,"PART-1-1",           203,      -12.3718,      -14.6182,            0.,NA,NA,"",   419.354E-03,  -365.060E-03,  -206.372E-03,   13.9592E-03
C:/temp/dataset/0/2_6.odb,Step-1,Increment      1: Step Time =    1.000,"PART-1-1",           204,      -5.91076,      -27.0963,            0.,NA,NA,"",   15.0302E-03,  -13.8762E-03,   5.77564E-03,   6.22427E-03
C:/temp/dataset/0/2_6.odb,Step-1,Increment      1: Step Time =    1.000,"PART-1-1",           205,      -9.09285,      -26.5479,            0.,NA,NA,"",   13.6525E-03,  -9.72157E-03,  -9.58551E-03,   3.57234E-03
C:/temp/dataset/0/2_6.odb,Step-1,Increment      1: Step Time =    1.000,"PART-1-1",           206,      -12.2958,       24.3839,            0.,NA,NA,"",       3.25386,      -3.22882,  -402.936E-03,   7.72472E-03
C:/temp/dataset/0/2_6.odb,Step-1,Increment      1: Step Time =    1.000,"PART-1-1",           207,      -12.3670,       18.5668,            0.,NA,NA,"",       3.00345,      -2.97290,  -427.259E-03,   5.91184E-03
C:/temp/dataset/0/2_6.odb,Step-1,Increment      1: Step Time =    1.000,"PART-1-1",           208,      -12.3673,       12.5421,            0.,NA,NA,"",       2.59743,      -2.56073,  -435.103E-03,   5.02888E-03
C:/temp/dataset/0/2_6.odb,Step-1,Increment      1: Step Time =    1.000,"PART-1-1",           209,      -12.4084,       3.45294,            0.,NA,NA,"",       1.83236,      -1.78774,  -401.891E-03,   5.34916E-03
C:/temp/dataset/0/2_6.odb,Step-1,Increment      1: Step Time =    1.000,"PART-1-1",           210,      -12.4043,      -5.59421,            0.,NA,NA,"",       1.05154,      -1.00162,  -320.164E-03,   9.46882E-03
C:/temp/dataset/0/2_6.odb,Step-1,Increment      1: Step Time =    1.000,"PART-1-1",           211,      -12.3838,       9.50768,            0.,NA,NA,"",       2.35464,      -2.31504,  -430.054E-03,   4.51723E-03
C:/temp/dataset/0/2_6.odb,Step-1,Increment      1: Step Time =    1.000,"PART-1-1",           212,      -12.4013,       6.47621,            0.,NA,NA,"",       2.09733,      -2.05502,  -419.140E-03,   4.57729E-03
C:/temp/dataset/0/2_6.odb,Step-1,Increment      1: Step Time =    1.000,"PART-1-1",           213,      -12.4173,   428.232E-03,            0.,NA,NA,"",       1.56531,      -1.51855,  -379.719E-03,   6.54451E-03
C:/temp/dataset/0/2_6.odb,Step-1,Increment      1: Step Time =    1.000,"PART-1-1",           214,      -12.4160,      -2.58791,            0.,NA,NA,"",       1.30300,      -1.25448,  -352.246E-03,   7.96496E-03
C:/temp/dataset/0/2_6.odb,Step-1,Increment      1: Step Time =    1.000,"PART-1-1",           215,      -12.4014,      -8.61211,            0.,NA,NA,"",   815.703E-03,  -764.176E-03,  -285.319E-03,   11.0188E-03
C:/temp/dataset/0/2_6.odb,Step-1,Increment      1: Step Time =    1.000,"PART-1-1",           216,      -12.3969,      -11.6247,            0.,NA,NA,"",   602.782E-03,  -549.612E-03,  -247.533E-03,   12.5539E-03
C:/temp/dataset/0/2_6.odb,Step-1,Increment      1: Step Time =    1.000,"PART-1-1",           217,      -12.3009,      -17.6498,            0.,NA,NA,"",   268.324E-03,  -214.907E-03,  -160.663E-03,   14.9573E-03
C:/temp/dataset/0/2_6.odb,Step-1,Increment      1: Step Time =    1.000,"PART-1-1",           218,      -11.9370,      -20.9397,            0.,NA,NA,"",   144.312E-03,  -101.026E-03,  -103.052E-03,   14.2128E-03
C:/temp/dataset/0/2_6.odb,Step-1,Increment      1: Step Time =    1.000,"PART-1-1",           219,       6.28266,      -26.4725,            0.,NA,NA,"",   19.5329E-03,  -17.3263E-03,  -9.01850E-03,   6.61775E-03
C:/temp/dataset/0/2_6.odb,Step-1,Increment      1: Step Time =    1.000,"PART-1-1",           220,      -12.3616,       21.4963,            0.,NA,NA,"",       3.14580,      -3.11828,  -415.204E-03,   6.79331E-03
C:/temp/dataset/0/2_6.odb,Step-1,Increment      1: Step Time =    1.000,"PART-1-1",           221,       9.42071,      -27.3229,            0.,NA,NA,"",   11.3760E-03,  -4.70980E-03,   10.3552E-03,   4.68680E-03
C:/temp/dataset/0/2_6.odb,Step-1,Increment      1: Step Time =    1.000,"PART-1-1",           222,      -12.3680,       15.5612,            0.,NA,NA,"",       2.81692,      -2.78316,  -434.860E-03,   5.59758E-03
C:/temp/dataset/0/2_6.odb,Step-1,Increment      1: Step Time =    1.000,"PART-1-1",           223,      -6.37126,       27.5191,            0.,NA,NA,"",       3.32334,      -3.31870,  -175.420E-03,   5.62372E-03
C:/temp/dataset/0/2_6.odb,Step-1,Increment      1: Step Time =    1.000,"PART-1-1",           224,      -7.37426,       13.4489,            0.,NA,NA,"",       2.63498,      -2.63331,  -93.8115E-03,   11.9432E-03
C:/temp/dataset/0/2_6.odb,Step-1,Increment      1: Step Time =    1.000,"PART-1-1",           225,      -7.40401,       7.31385,            0.,NA,NA,"",       2.13497,      -2.13480,  -26.3813E-03,   8.01244E-03
C:/temp/dataset/0/2_6.odb,Step-1,Increment      1: Step Time =    1.000,"PART-1-1",           226,      -7.40102,      -1.84560,            0.,NA,NA,"",       1.32725,      -1.32657,   42.3215E-03,   4.24751E-03
C:/temp/dataset/0/2_6.odb,Step-1,Increment      1: Step Time =    1.000,"PART-1-1",           227,      -7.36253,      -10.9851,            0.,NA,NA,"",   598.632E-03,  -595.792E-03,   58.2362E-03,   6.31133E-03
C:/temp/dataset/0/2_6.odb,Step-1,Increment      1: Step Time =    1.000,"PART-1-1",           228,      -7.39657,       10.3769,            0.,NA,NA,"",       2.39279,      -2.39208,  -58.2868E-03,   9.70676E-03
C:/temp/dataset/0/2_6.odb,Step-1,Increment      1: Step Time =    1.000,"PART-1-1",           229,      -7.41369,       4.25226,            0.,NA,NA,"",       1.86686,      -1.86686,   937.309E-06,   6.43045E-03
C:/temp/dataset/0/2_6.odb,Step-1,Increment      1: Step Time =    1.000,"PART-1-1",           230,      -7.41413,       1.19777,            0.,NA,NA,"",       1.59537,      -1.59519,   23.8957E-03,   5.10660E-03
C:/temp/dataset/0/2_6.odb,Step-1,Increment      1: Step Time =    1.000,"PART-1-1",           231,      -7.39700,      -4.89906,            0.,NA,NA,"",       1.06685,      -1.06549,   53.8732E-03,   4.19999E-03
C:/temp/dataset/0/2_6.odb,Step-1,Increment      1: Step Time =    1.000,"PART-1-1",           232,      -7.39133,      -7.95434,            0.,NA,NA,"",   821.232E-03,  -819.125E-03,   58.7962E-03,   4.99342E-03
C:/temp/dataset/0/2_6.odb,Step-1,Increment      1: Step Time =    1.000,"PART-1-1",           233,      -7.32483,      -13.9963,            0.,NA,NA,"",   403.314E-03,  -400.190E-03,   50.1055E-03,   8.39067E-03
C:/temp/dataset/0/2_6.odb,Step-1,Increment      1: Step Time =    1.000,"PART-1-1",           234,      -9.29453,       27.3932,            0.,NA,NA,"",       3.33734,      -3.32578,  -277.573E-03,   6.96143E-03
C:/temp/dataset/0/2_6.odb,Step-1,Increment      1: Step Time =    1.000,"PART-1-1",           235,      -9.79647,       16.0793,            0.,NA,NA,"",       2.83995,      -2.82638,  -277.223E-03,   6.78827E-03
C:/temp/dataset/0/2_6.odb,Step-1,Increment      1: Step Time =    1.000,"PART-1-1",           236,      -10.5694,      -24.3397,            0.,NA,NA,"",   49.6453E-03,  -32.1475E-03,  -37.8311E-03,   8.42528E-03
C:/temp/dataset/0/2_6.odb,Step-1,Increment      1: Step Time =    1.000,"PART-1-1",           237,      -9.80814,      -14.2636,            0.,NA,NA,"",   386.757E-03,  -378.570E-03,  -79.1570E-03,   5.94310E-03
C:/temp/dataset/0/2_6.odb,Step-1,Increment      1: Step Time =    1.000,"PART-1-1",           238,      -9.84607,      -11.2856,            0.,NA,NA,"",   576.811E-03,  -568.906E-03,  -95.1659E-03,   6.15553E-03
C:/temp/dataset/0/2_6.odb,Step-1,Increment      1: Step Time =    1.000,"PART-1-1",           239,      -9.85160,       9.96190,            0.,NA,NA,"",       2.37038,      -2.35817,  -240.247E-03,   6.87682E-03
C:/temp/dataset/0/2_6.odb,Step-1,Increment      1: Step Time =    1.000,"PART-1-1",           240,      -9.42013,      -19.6871,            0.,NA,NA,"",   130.377E-03,  -124.191E-03,  -39.6811E-03,   5.63435E-03
C:/temp/dataset/0/2_6.odb,Step-1,Increment      1: Step Time =    1.000,"PART-1-1",           241,      -9.87385,       6.90801,            0.,NA,NA,"",       2.10933,      -2.09783,  -219.905E-03,   6.79221E-03
C:/temp/dataset/0/2_6.odb,Step-1,Increment      1: Step Time =    1.000,"PART-1-1",           242,      -9.72088,      -17.1529,            0.,NA,NA,"",   233.794E-03,  -225.350E-03,  -62.2651E-03,   6.91043E-03
C:/temp/dataset/0/2_6.odb,Step-1,Increment      1: Step Time =    1.000,"PART-1-1",           243,      -7.24385,      -16.9197,            0.,NA,NA,"",   242.925E-03,  -239.819E-03,   38.7260E-03,   12.2996E-03
C:/temp/dataset/0/2_6.odb,Step-1,Increment      1: Step Time =    1.000,"PART-1-1",           244,      -9.88569,       3.86363,            0.,NA,NA,"",       1.83962,      -1.82889,  -198.383E-03,   6.75566E-03
C:/temp/dataset/0/2_6.odb,Step-1,Increment      1: Step Time =    1.000,"PART-1-1",           245,      -9.88680,   826.149E-03,            0.,NA,NA,"",       1.56741,      -1.55749,  -176.087E-03,   6.70659E-03
C:/temp/dataset/0/2_6.odb,Step-1,Increment      1: Step Time =    1.000,"PART-1-1",           246,      -9.87953,      -2.20322,            0.,NA,NA,"",       1.29913,      -1.29000,  -153.723E-03,   6.63211E-03
C:/temp/dataset/0/2_6.odb,Step-1,Increment      1: Step Time =    1.000,"PART-1-1",           247,      -9.87339,      -5.23467,            0.,NA,NA,"",       1.04021,      -1.03173,  -132.597E-03,   6.52206E-03
C:/temp/dataset/0/2_6.odb,Step-1,Increment      1: Step Time =    1.000,"PART-1-1",           248,      -9.87035,      -8.27303,            0.,NA,NA,"",   796.604E-03,  -788.490E-03,  -113.414E-03,   6.37169E-03
C:/temp/dataset/0/2_6.odb,Step-1,Increment      1: Step Time =    1.000,"PART-1-1",           249,      -12.1942,       27.2250,            0.,NA,NA,"",       3.34711,      -3.32364,  -395.706E-03,   5.91930E-03
C:/temp/dataset/0/2_6.odb,Step-1,Increment      1: Step Time =    1.000,"PART-1-1",           250,      -12.1946,      -27.0241,            0.,NA,NA,"",   35.5367E-03,  -13.8636E-03,  -32.7209E-03,   14.0347E-03
C:/temp/dataset/0/2_6.odb,Step-1,Increment      1: Step Time =    1.000,"PART-1-1",           251,      -9.83578,       13.0151,            0.,NA,NA,"",       2.61584,      -2.60283,  -260.609E-03,   6.82737E-03
C:/temp/dataset/0/2_6.odb,Step-1,Increment      1: Step Time =    1.000,"PART-1-1",           252,      -12.4960,      -24.1891,            0.,NA,NA,"",   84.2227E-03,  -43.3117E-03,  -72.2327E-03,   15.6652E-03
C:/temp/dataset/0/2_6.odb,Step-1,Increment      1: Step Time =    1.000,"PART-1-1",           253,      -7.26398,       19.6069,            0.,NA,NA,"",       3.05579,      -3.05146,  -162.495E-03,   10.5640E-03
C:/temp/dataset/0/2_6.odb,Step-1,Increment      1: Step Time =    1.000,"PART-1-1",           254,      -9.78845,      -22.6320,            0.,NA,NA,"",   64.2817E-03,  -54.7690E-03,  -33.6525E-03,   6.33641E-03
C:/temp/dataset/0/2_6.odb,Step-1,Increment      1: Step Time =    1.000,"PART-1-1",           255,       8.11622,      -24.1302,            0.,NA,NA,"",   35.7527E-03,  -35.7445E-03,   768.889E-06,   2.05961E-03
C:/temp/dataset/0/2_6.odb,Step-1,Increment      1: Step Time =    1.000,"PART-1-1",           256,       10.7040,      -22.7860,            0.,NA,NA,"",   86.6294E-03,  -64.1842E-03,   58.1812E-03,   10.8750E-03
C:/temp/dataset/0/2_6.odb,Step-1,Increment      1: Step Time =    1.000,"PART-1-1",           257,      -8.82647,      -21.3553,            0.,NA,NA,"",   78.6148E-03,  -76.8726E-03,  -16.4589E-03,   4.44538E-03
C:/temp/dataset/0/2_6.odb,Step-1,Increment      1: Step Time =    1.000,"PART-1-1",           258,      -9.77631,       19.1047,            0.,NA,NA,"",       3.02792,      -3.01427,  -287.104E-03,   4.10063E-03
C:/temp/dataset/0/2_6.odb,Step-1,Increment      1: Step Time =    1.000,"PART-1-1",           259,      -7.77355,      -23.8785,            0.,NA,NA,"",   36.8430E-03,  -36.6727E-03,   3.53838E-03,   3.45453E-03
C:/temp/dataset/0/2_6.odb,Step-1,Increment      1: Step Time =    1.000,"PART-1-1",           260,  -536.979E-03,      -24.7394,            0.,NA,NA,"",   51.1355E-03,  -51.0995E-03,   1.92080E-03,   9.60103E-03
C:/temp/dataset/0/2_6.odb,Step-1,Increment      1: Step Time =    1.000,"PART-1-1",           261,      -9.52558,       24.7102,            0.,NA,NA,"",       3.25558,      -3.24342,  -281.069E-03,   7.92271E-03
C:/temp/dataset/0/2_6.odb,Step-1,Increment      1: Step Time =    1.000,"PART-1-1",           262,      -2.15050,       21.2402,            0.,NA,NA,"",       3.15391,      -3.15292,  -78.8275E-03,   10.0037E-03
C:/temp/dataset/0/2_6.odb,Step-1,Increment      1: Step Time =    1.000,"PART-1-1",           263,      -3.09708,       22.5364,            0.,NA,NA,"",       3.17504,      -3.17394,  -83.5059E-03,   11.0510E-03
C:/temp/dataset/0/2_6.odb,Step-1,Increment      1: Step Time =    1.000,"PART-1-1",           264,      -4.69657,       21.2962,            0.,NA,NA,"",       3.13604,      -3.13476,  -89.7551E-03,   21.6887E-03
C:/temp/dataset/0/2_6.odb,Step-1,Increment      1: Step Time =    1.000,"PART-1-1",           265,         -3.75,           20.,            0.,NA,NA,"",       3.11958,      -3.11816,  -94.1112E-03,   22.4324E-03
C:/temp/dataset/0/2_6.odb,Step-1,Increment      1: Step Time =    1.000,"PART-1-1",           266,      -4.10052,       23.8735,            0.,NA,NA,"",       3.21208,      -3.21041,  -103.573E-03,   10.2872E-03
C:/temp/dataset/0/2_6.odb,Step-1,Increment      1: Step Time =    1.000,"PART-1-1",           267,      -5.24999,       25.0683,            0.,NA,NA,"",       3.24881,      -3.24606,  -133.651E-03,   5.98239E-03
C:/temp/dataset/0/2_6.odb,Step-1,Increment      1: Step Time =    1.000,"PART-1-1",           268,      -6.84155,       23.6782,            0.,NA,NA,"",       3.21459,      -3.21002,  -171.276E-03,   7.88213E-03
C:/temp/dataset/0/2_6.odb,Step-1,Increment      1: Step Time =    1.000,"PART-1-1",           269,      -5.69208,       22.4834,            0.,NA,NA,"",       3.17449,      -3.17201,  -125.290E-03,   9.75959E-03
C:/temp/dataset/0/2_6.odb,Step-1,Increment      1: Step Time =    1.000,"PART-1-1",           270,      -7.35192,       14.9896,            0.,NA,NA,"",       2.74963,      -2.74735,  -111.938E-03,   12.7541E-03
C:/temp/dataset/0/2_6.odb,Step-1,Increment      1: Step Time =    1.000,"PART-1-1",           271,      -8.56303,       16.3048,            0.,NA,NA,"",       2.84894,      -2.84164,  -203.828E-03,   10.5365E-03
C:/temp/dataset/0/2_6.odb,Step-1,Increment      1: Step Time =    1.000,"PART-1-1",           272,      -9.81613,       14.5472,            0.,NA,NA,"",       2.73060,      -2.71730,  -269.180E-03,   6.87974E-03
C:/temp/dataset/0/2_6.odb,Step-1,Increment      1: Step Time =    1.000,"PART-1-1",           273,      -8.60502,       13.2320,            0.,NA,NA,"",       2.62493,      -2.61895,  -177.109E-03,   9.06038E-03
C:/temp/dataset/0/2_6.odb,Step-1,Increment      1: Step Time =    1.000,"PART-1-1",           274,          -15.,         -16.5,            0.,NA,NA,"",   417.215E-03,  -288.830E-03,  -301.074E-03,   26.2055E-03
C:/temp/dataset/0/2_6.odb,Step-1,Increment      1: Step Time =    1.000,"PART-1-1",           275,      -13.6504,      -17.8249,            0.,NA,NA,"",   303.924E-03,  -217.661E-03,  -212.116E-03,   21.0191E-03
C:/temp/dataset/0/2_6.odb,Step-1,Increment      1: Step Time =    1.000,"PART-1-1",           276,      -12.3363,      -16.1340,            0.,NA,NA,"",   338.718E-03,  -284.608E-03,  -183.652E-03,   14.4329E-03
C:/temp/dataset/0/2_6.odb,Step-1,Increment      1: Step Time =    1.000,"PART-1-1",           277,      -13.6859,      -14.8091,            0.,NA,NA,"",   452.750E-03,  -362.351E-03,  -271.448E-03,   19.2969E-03
C:/temp/dataset/0/2_6.odb,Step-1,Increment      1: Step Time =    1.000,"PART-1-1",           278,      -4.46540,      -27.1831,            0.,NA,NA,"",   20.0330E-03,  -18.7264E-03,   7.11641E-03,   6.91446E-03
C:/temp/dataset/0/2_6.odb,Step-1,Increment      1: Step Time =    1.000,"PART-1-1",           279,      -2.97305,      -25.9670,            0.,NA,NA,"",   36.2574E-03,  -34.7377E-03,   10.3873E-03,   9.31733E-03
C:/temp/dataset/0/2_6.odb,Step-1,Increment      1: Step Time =    1.000,"PART-1-1",           280,      -4.19392,      -24.5512,            0.,NA,NA,"",   47.7552E-03,  -43.4980E-03,   19.7099E-03,   9.85119E-03
C:/temp/dataset/0/2_6.odb,Step-1,Increment      1: Step Time =    1.000,"PART-1-1",           281,      -5.68627,      -25.7673,            0.,NA,NA,"",   28.0885E-03,  -25.4512E-03,   11.8829E-03,   7.40860E-03
C:/temp/dataset/0/2_6.odb,Step-1,Increment      1: Step Time =    1.000,"PART-1-1",           282,      -5.28634,      -23.2314,            0.,NA,NA,"",   59.9690E-03,  -53.1648E-03,   27.7450E-03,   11.0126E-03
C:/temp/dataset/0/2_6.odb,Step-1,Increment      1: Step Time =    1.000,"PART-1-1",           283,      -2.80857,      -23.4296,            0.,NA,NA,"",   62.5784E-03,  -59.5146E-03,   19.3408E-03,   11.1235E-03
C:/temp/dataset/0/2_6.odb,Step-1,Increment      1: Step Time =    1.000,"PART-1-1",           284,      -3.90099,      -22.1098,            0.,NA,NA,"",   78.7752E-03,  -70.8448E-03,   34.4463E-03,   12.3468E-03
C:/temp/dataset/0/2_6.odb,Step-1,Increment      1: Step Time =    1.000,"PART-1-1",           285,       1.61260,      -23.5545,            0.,NA,NA,"",   62.9758E-03,  -61.4662E-03,  -13.7060E-03,   10.5900E-03
C:/temp/dataset/0/2_6.odb,Step-1,Increment      1: Step Time =    1.000,"PART-1-1",           286,       2.09558,      -25.4897,            0.,NA,NA,"",   43.5865E-03,  -41.8766E-03,  -12.0884E-03,   10.3563E-03
C:/temp/dataset/0/2_6.odb,Step-1,Increment      1: Step Time =    1.000,"PART-1-1",           287,       3.30955,      -24.8521,            0.,NA,NA,"",   49.2050E-03,  -45.1991E-03,  -19.4465E-03,   11.4248E-03
C:/temp/dataset/0/2_6.odb,Step-1,Increment      1: Step Time =    1.000,"PART-1-1",           288,       2.82657,      -22.9168,            0.,NA,NA,"",   72.3453E-03,  -67.0371E-03,  -27.2005E-03,   11.5502E-03
C:/temp/dataset/0/2_6.odb,Step-1,Increment      1: Step Time =    1.000,"PART-1-1",           289,       13.8857,      -20.1351,            0.,NA,NA,"",   253.518E-03,  -165.333E-03,   192.187E-03,   24.7070E-03
C:/temp/dataset/0/2_6.odb,Step-1,Increment      1: Step Time =    1.000,"PART-1-1",           290,           15.,        -18.75,            0.,NA,NA,"",   355.036E-03,  -233.858E-03,   267.135E-03,   29.8195E-03
C:/temp/dataset/0/2_6.odb,Step-1,Increment      1: Step Time =    1.000,"PART-1-1",           291,       13.8316,      -17.6482,            0.,NA,NA,"",   361.945E-03,  -269.492E-03,   241.616E-03,   23.7616E-03
C:/temp/dataset/0/2_6.odb,Step-1,Increment      1: Step Time =    1.000,"PART-1-1",           292,       12.7173,      -19.0333,            0.,NA,NA,"",   258.516E-03,  -194.882E-03,   169.858E-03,   18.7040E-03
C:/temp/dataset/0/2_6.odb,Step-1,Increment      1: Step Time =    1.000,"PART-1-1",           293,       13.7508,      -12.5905,            0.,NA,NA,"",   662.055E-03,  -577.913E-03,   323.007E-03,   18.3155E-03
C:/temp/dataset/0/2_6.odb,Step-1,Increment      1: Step Time =    1.000,"PART-1-1",           294,           15.,        -11.25,            0.,NA,NA,"",   813.309E-03,  -690.489E-03,   429.764E-03,   20.8525E-03
C:/temp/dataset/0/2_6.odb,Step-1,Increment      1: Step Time =    1.000,"PART-1-1",           295,       13.7881,      -10.0330,            0.,NA,NA,"",   850.260E-03,  -771.735E-03,   356.885E-03,   15.5817E-03
C:/temp/dataset/0/2_6.odb,Step-1,Increment      1: Step Time =    1.000,"PART-1-1",           296,       12.5389,      -11.3735,            0.,NA,NA,"",   704.753E-03,  -656.620E-03,   255.981E-03,   13.5669E-03
C:/temp/dataset/0/2_6.odb,Step-1,Increment      1: Step Time =    1.000,"PART-1-1",           297,       11.3345,      -10.0200,            0.,NA,NA,"",   775.264E-03,  -753.664E-03,   181.731E-03,   9.78791E-03
C:/temp/dataset/0/2_6.odb,Step-1,Increment      1: Step Time =    1.000,"PART-1-1",           298,       10.0449,      -11.4123,            0.,NA,NA,"",   645.215E-03,  -638.776E-03,   90.9323E-03,   7.70983E-03
C:/temp/dataset/0/2_6.odb,Step-1,Increment      1: Step Time =    1.000,"PART-1-1",           299,       11.2492,      -12.7658,            0.,NA,NA,"",   568.930E-03,  -544.985E-03,   163.317E-03,   10.5134E-03
C:/temp/dataset/0/2_6.odb,Step-1,Increment      1: Step Time =    1.000,"PART-1-1",           300,       9.32361,      -6.65743,            0.,NA,NA,"",       1.02565,      -1.02499,   36.7257E-03,   6.57506E-03
C:/temp/dataset/0/2_6.odb,Step-1,Increment      1: Step Time =    1.000,"PART-1-1",           301,       10.9574,      -6.33595,            0.,NA,NA,"",       1.07355,      -1.06106,   163.261E-03,   8.35000E-03
C:/temp/dataset/0/2_6.odb,Step-1,Increment      1: Step Time =    1.000,"PART-1-1",           302,       10.9595,      -4.69463,            0.,NA,NA,"",       1.21840,      -1.20714,   165.249E-03,   8.17064E-03
C:/temp/dataset/0/2_6.odb,Step-1,Increment      1: Step Time =    1.000,"PART-1-1",           303,       9.32578,      -5.01612,            0.,NA,NA,"",       1.17049,      -1.16997,   34.5820E-03,   6.49391E-03
C:/temp/dataset/0/2_6.odb,Step-1,Increment      1: Step Time =    1.000,"PART-1-1",           304,       12.9351,      -4.11714,            0.,NA,NA,"",       1.31338,      -1.27181,   327.839E-03,   8.86496E-03
C:/temp/dataset/0/2_6.odb,Step-1,Increment      1: Step Time =    1.000,"PART-1-1",           305,       11.6846,      -3.48758,            0.,NA,NA,"",       1.34010,      -1.32100,   225.455E-03,   7.85232E-03
C:/temp/dataset/0/2_6.odb,Step-1,Increment      1: Step Time =    1.000,"PART-1-1",           306,       12.2101,      -5.32419,            0.,NA,NA,"",       1.18821,      -1.15833,   264.800E-03,   9.01044E-03
C:/temp/dataset/0/2_6.odb,Step-1,Increment      1: Step Time =    1.000,"PART-1-1",           307,       9.86769,  -155.410E-03,            0.,NA,NA,"",       1.62143,      -1.61973,   74.2167E-03,   7.52356E-03
C:/temp/dataset/0/2_6.odb,Step-1,Increment      1: Step Time =    1.000,"PART-1-1",           308,       8.53089,   901.975E-03,            0.,NA,NA,"",       1.71183,      -1.71140,  -38.5340E-03,   6.80739E-03
C:/temp/dataset/0/2_6.odb,Step-1,Increment      1: Step Time =    1.000,"PART-1-1",           309,       7.40884,      -1.02539,            0.,NA,NA,"",       1.53187,      -1.52620,  -131.658E-03,   5.55851E-03
C:/temp/dataset/0/2_6.odb,Step-1,Increment      1: Step Time =    1.000,"PART-1-1",           310,       8.74564,      -2.08278,            0.,NA,NA,"",       1.43490,      -1.43480,  -17.2125E-03,   6.35029E-03
C:/temp/dataset/0/2_6.odb,Step-1,Increment      1: Step Time =    1.000,"PART-1-1",           311,       9.64302,       5.60069,            0.,NA,NA,"",       2.15120,      -2.15055,   52.6430E-03,   7.77924E-03
C:/temp/dataset/0/2_6.odb,Step-1,Increment      1: Step Time =    1.000,"PART-1-1",           312,       10.9412,       4.35663,            0.,NA,NA,"",       2.05013,      -2.04396,   158.852E-03,   6.42257E-03
C:/temp/dataset/0/2_6.odb,Step-1,Increment      1: Step Time =    1.000,"PART-1-1",           313,       12.2262,       5.93259,            0.,NA,NA,"",       2.20689,      -2.19154,   259.876E-03,   5.18779E-03
C:/temp/dataset/0/2_6.odb,Step-1,Increment      1: Step Time =    1.000,"PART-1-1",           314,       10.9280,       7.17665,            0.,NA,NA,"",       2.30170,      -2.29661,   152.915E-03,   6.15556E-03
C:/temp/dataset/0/2_6.odb,Step-1,Increment      1: Step Time =    1.000,"PART-1-1",           315,       13.6103,       7.39232,            0.,NA,NA,"",       2.35187,      -2.32327,   365.666E-03,   4.11986E-03
C:/temp/dataset/0/2_6.odb,Step-1,Increment      1: Step Time =    1.000,"PART-1-1",           316,           15.,          8.75,            0.,NA,NA,"",       2.48379,      -2.43909,   469.082E-03,   7.56809E-03
C:/temp/dataset/0/2_6.odb,Step-1,Increment      1: Step Time =    1.000,"PART-1-1",           317,       13.6268,       9.99700,            0.,NA,NA,"",       2.56419,      -2.54053,   347.545E-03,   6.31357E-03
C:/temp/dataset/0/2_6.odb,Step-1,Increment      1: Step Time =    1.000,"PART-1-1",           318,       12.2370,       8.63932,            0.,NA,NA,"",       2.43940,      -2.42660,   249.629E-03,   5.28275E-03
C:/temp/dataset/0/2_6.odb,Step-1,Increment      1: Step Time =    1.000,"PART-1-1",           319,       13.8144,       17.6522,            0.,NA,NA,"",       3.08226,      -3.06957,   279.366E-03,   12.1715E-03
C:/temp/dataset/0/2_6.odb,Step-1,Increment      1: Step Time =    1.000,"PART-1-1",           320,           15.,         18.75,            0.,NA,NA,"",       3.13496,      -3.11857,   320.184E-03,   17.7796E-03
C:/temp/dataset/0/2_6.odb,Step-1,Increment      1: Step Time =    1.000,"PART-1-1",           321,       13.8887,       20.1095,            0.,NA,NA,"",       3.18296,      -3.17256,   257.104E-03,   11.5490E-03
C:/temp/dataset/0/2_6.odb,Step-1,Increment      1: Step Time =    1.000,"PART-1-1",           322,       12.7031,       19.0116,            0.,NA,NA,"",       3.13751,      -3.13010,   215.594E-03,   6.73843E-03
C:/temp/dataset/0/2_6.odb,Step-1,Increment      1: Step Time =    1.000,"PART-1-1",           323,       11.4255,       18.0142,            0.,NA,NA,"",       3.08696,      -3.08283,   159.615E-03,   2.85067E-03
C:/temp/dataset/0/2_6.odb,Step-1,Increment      1: Step Time =    1.000,"PART-1-1",           324,       11.6322,       20.3693,            0.,NA,NA,"",       3.18182,      -3.17754,   164.984E-03,   6.64788E-03
C:/temp/dataset/0/2_6.odb,Step-1,Increment      1: Step Time =    1.000,"PART-1-1",           325,       10.3546,       19.3719,            0.,NA,NA,"",       3.13994,      -3.13800,   110.403E-03,   4.45604E-03
C:/temp/dataset/0/2_6.odb,Step-1,Increment      1: Step Time =    1.000,"PART-1-1",           326,       10.9394,       26.3107,            0.,NA,NA,"",       3.31473,      -3.31188,   137.201E-03,   6.77755E-03
C:/temp/dataset/0/2_6.odb,Step-1,Increment      1: Step Time =    1.000,"PART-1-1",           327,       11.9108,       25.0855,            0.,NA,NA,"",       3.29315,      -3.28890,   167.332E-03,   7.37285E-03
C:/temp/dataset/0/2_6.odb,Step-1,Increment      1: Step Time =    1.000,"PART-1-1",           328,       13.0011,       26.2585,            0.,NA,NA,"",       3.31863,      -3.31278,   196.970E-03,   4.92900E-03
C:/temp/dataset/0/2_6.odb,Step-1,Increment      1: Step Time =    1.000,"PART-1-1",           329,       12.0296,       27.4837,            0.,NA,NA,"",       3.34225,      -3.33800,   168.597E-03,   4.30439E-03
C:/temp/dataset/0/2_6.odb,Step-1,Increment      1: Step Time =    1.000,"PART-1-1",           330,       14.0179,       27.4887,            0.,NA,NA,"",       3.34656,      -3.33922,   221.510E-03,   1.74540E-03
C:/temp/dataset/0/2_6.odb,Step-1,Increment      1: Step Time =    1.000,"PART-1-1",           331,       13.9832,       25.0198,            0.,NA,NA,"",       3.29437,      -3.28657,   226.629E-03,   4.99816E-03
C:/temp/dataset/0/2_6.odb,Step-1,Increment      1: Step Time =    1.000,"PART-1-1",           332,           15.,         26.25,            0.,NA,NA,"",       3.32065,      -3.31146,   246.928E-03,   2.59845E-03
C:/temp/dataset/0/2_6.odb,Step-1,Increment      1: Step Time =    1.000,"PART-1-1",           333,       3.55377,       20.8403,            0.,NA,NA,"",       3.16646,      -3.16602,  -52.7709E-03,   7.86399E-03
C:/temp/dataset/0/2_6.odb,Step-1,Increment      1: Step Time =    1.000,"PART-1-1",           334,       4.16667,           20.,            0.,NA,NA,"",       3.15637,      -3.15590,  -54.4457E-03,   18.6110E-03
C:/temp/dataset/0/2_6.odb,Step-1,Increment      1: Step Time =    1.000,"PART-1-1",           335,       5.33068,       20.7523,            0.,NA,NA,"",       3.16628,      -3.16576,  -57.2824E-03,   22.5063E-03
C:/temp/dataset/0/2_6.odb,Step-1,Increment      1: Step Time =    1.000,"PART-1-1",           336,       4.71778,       21.5926,            0.,NA,NA,"",       3.18074,      -3.18036,  -49.3692E-03,   15.1284E-03
C:/temp/dataset/0/2_6.odb,Step-1,Increment      1: Step Time =    1.000,"PART-1-1",           337,       1.85672,       20.8541,            0.,NA,NA,"",       3.16879,      -3.16832,  -54.8047E-03,   3.37872E-03
C:/temp/dataset/0/2_6.odb,Step-1,Increment      1: Step Time =    1.000,"PART-1-1",           338,           2.5,           20.,            0.,NA,NA,"",       3.16396,      -3.16353,  -52.0371E-03,   1.66520E-03
C:/temp/dataset/0/2_6.odb,Step-1,Increment      1: Step Time =    1.000,"PART-1-1",           339,       2.91049,       21.6945,            0.,NA,NA,"",       3.17965,      -3.17924,  -51.2576E-03,   10.0805E-03
C:/temp/dataset/0/2_6.odb,Step-1,Increment      1: Step Time =    1.000,"PART-1-1",           340,       1.32465,      -26.7993,            0.,NA,NA,"",   31.5966E-03,  -31.1053E-03,  -5.55030E-03,   8.25114E-03
C:/temp/dataset/0/2_6.odb,Step-1,Increment      1: Step Time =    1.000,"PART-1-1",           341,   399.133E-03,      -24.6509,            0.,NA,NA,"",   52.1380E-03,  -51.9639E-03,  -4.25703E-03,   10.4723E-03
C:/temp/dataset/0/2_6.odb,Step-1,Increment      1: Step Time =    1.000,"PART-1-1",           342,  -371.796E-03,      -25.9605,            0.,NA,NA,"",   39.7044E-03,  -39.7020E-03,   434.950E-06,   9.08841E-03
C:/temp/dataset/0/2_6.odb,Step-1,Increment      1: Step Time =    1.000,"PART-1-1",           343,       7.16814,       28.8250,            0.,NA,NA,"",       3.34944,      -3.34919,   41.2203E-03,   6.42938E-03
C:/temp/dataset/0/2_6.odb,Step-1,Increment      1: Step Time =    1.000,"PART-1-1",           344,       7.90869,       27.6030,            0.,NA,NA,"",       3.32786,      -3.32740,   55.3649E-03,   5.48916E-03
C:/temp/dataset/0/2_6.odb,Step-1,Increment      1: Step Time =    1.000,"PART-1-1",           345,       9.17805,       28.7779,            0.,NA,NA,"",       3.35969,      -3.35847,   90.6476E-03,   5.29753E-03
C:/temp/dataset/0/2_6.odb,Step-1,Increment      1: Step Time =    1.000,"PART-1-1",           346,        8.4375,           30.,            0.,NA,NA,"",       3.38439,      -3.38357,   74.4640E-03,   6.48390E-03
C:/temp/dataset/0/2_6.odb,Step-1,Increment      1: Step Time =    1.000,"PART-1-1",           347,       1.19326,       21.8923,            0.,NA,NA,"",       3.18062,      -3.18010,  -57.6326E-03,   6.92566E-03
C:/temp/dataset/0/2_6.odb,Step-1,Increment      1: Step Time =    1.000,"PART-1-1",           348,   169.882E-03,       21.0382,            0.,NA,NA,"",       3.16627,      -3.16559,  -65.5452E-03,   5.62968E-03
C:/temp/dataset/0/2_6.odb,Step-1,Increment      1: Step Time =    1.000,"PART-1-1",           349,   833.333E-03,           20.,            0.,NA,NA,"",       3.15845,      -3.15783,  -62.7005E-03,   4.29170E-03
C:/temp/dataset/0/2_6.odb,Step-1,Increment      1: Step Time =    1.000,"PART-1-1",           350,       11.0482,       12.7829,            0.,NA,NA,"",       2.75784,      -2.75381,   149.008E-03,   6.11149E-03
C:/temp/dataset/0/2_6.odb,Step-1,Increment      1: Step Time =    1.000,"PART-1-1",           351,       12.3949,       13.9828,            0.,NA,NA,"",       2.85204,      -2.84282,   229.078E-03,   7.51928E-03
C:/temp/dataset/0/2_6.odb,Step-1,Increment      1: Step Time =    1.000,"PART-1-1",           352,       11.2086,       15.4830,            0.,NA,NA,"",       2.94493,      -2.94097,   152.797E-03,   5.22271E-03
C:/temp/dataset/0/2_6.odb,Step-1,Increment      1: Step Time =    1.000,"PART-1-1",           353,       9.86191,       14.2831,            0.,NA,NA,"",       2.85766,      -2.85667,   75.4519E-03,   7.74996E-03
C:/temp/dataset/0/2_6.odb,Step-1,Increment      1: Step Time =    1.000,"PART-1-1",           354,       9.65710,       8.53837,            0.,NA,NA,"",       2.40932,      -2.40870,   54.5344E-03,   7.96643E-03
C:/temp/dataset/0/2_6.odb,Step-1,Increment      1: Step Time =    1.000,"PART-1-1",           355,       8.46627,       10.0105,            0.,NA,NA,"",       2.52546,      -2.52528,  -29.9594E-03,   9.84681E-03
C:/temp/dataset/0/2_6.odb,Step-1,Increment      1: Step Time =    1.000,"PART-1-1",           356,       7.24171,       8.43518,            0.,NA,NA,"",       2.38835,      -2.38484,  -129.316E-03,   11.2587E-03
C:/temp/dataset/0/2_6.odb,Step-1,Increment      1: Step Time =    1.000,"PART-1-1",           357,       8.43254,       6.96306,            0.,NA,NA,"",       2.26560,      -2.26521,  -42.0401E-03,   8.75689E-03
C:/temp/dataset/0/2_6.odb,Step-1,Increment      1: Step Time =    1.000,"PART-1-1",           358,       13.6558,       2.21224,            0.,NA,NA,"",       1.90038,      -1.85939,   392.564E-03,   3.41096E-03
C:/temp/dataset/0/2_6.odb,Step-1,Increment      1: Step Time =    1.000,"PART-1-1",           359,           15.,          3.75,            0.,NA,NA,"",       2.06838,      -2.00538,   506.616E-03,   668.440E-06
C:/temp/dataset/0/2_6.odb,Step-1,Increment      1: Step Time =    1.000,"PART-1-1",           360,       13.6160,       4.79026,            0.,NA,NA,"",       2.12835,      -2.09408,   380.378E-03,   2.78383E-03
C:/temp/dataset/0/2_6.odb,Step-1,Increment      1: Step Time =    1.000,"PART-1-1",           361,       12.2717,       3.25251,            0.,NA,NA,"",       1.96757,      -1.94876,   271.454E-03,   5.57740E-03
C:/temp/dataset/0/2_6.odb,Step-1,Increment      1: Step Time =    1.000,"PART-1-1",           362,       9.69986,       2.68972,            0.,NA,NA,"",       1.88504,      -1.88414,   58.1965E-03,   7.59969E-03
C:/temp/dataset/0/2_6.odb,Step-1,Increment      1: Step Time =    1.000,"PART-1-1",           363,       11.0304,       1.58560,            0.,NA,NA,"",       1.79638,      -1.78832,   169.919E-03,   6.71813E-03
C:/temp/dataset/0/2_6.odb,Step-1,Increment      1: Step Time =    1.000,"PART-1-1",           364,       7.55861,      -11.4267,            0.,NA,NA,"",   636.432E-03,  -632.082E-03,  -74.2908E-03,   6.46739E-03
C:/temp/dataset/0/2_6.odb,Step-1,Increment      1: Step Time =    1.000,"PART-1-1",           365,       6.31268,      -9.90243,            0.,NA,NA,"",   769.198E-03,  -748.922E-03,  -175.448E-03,   7.24640E-03
C:/temp/dataset/0/2_6.odb,Step-1,Increment      1: Step Time =    1.000,"PART-1-1",           366,            5.,      -11.6667,            0.,NA,NA,"",   667.371E-03,  -617.873E-03,  -252.223E-03,   12.8826E-03
C:/temp/dataset/0/2_6.odb,Step-1,Increment      1: Step Time =    1.000,"PART-1-1",           367,       6.24593,      -13.1909,            0.,NA,NA,"",   527.514E-03,  -506.858E-03,  -146.171E-03,   10.7665E-03
C:/temp/dataset/0/2_6.odb,Step-1,Increment      1: Step Time =    1.000,"PART-1-1",           368,       14.0233,      -5.11850,            0.,NA,NA,"",       1.26041,      -1.19012,   415.032E-03,   10.5223E-03
C:/temp/dataset/0/2_6.odb,Step-1,Increment      1: Step Time =    1.000,"PART-1-1",           369,           15.,         -3.75,            0.,NA,NA,"",       1.41470,      -1.32084,   506.724E-03,   9.94930E-03
C:/temp/dataset/0/2_6.odb,Step-1,Increment      1: Step Time =    1.000,"PART-1-1",           370,       13.9118,      -2.74864,            0.,NA,NA,"",       1.46333,      -1.40330,   414.802E-03,   7.79147E-03
C:/temp/dataset/0/2_6.odb,Step-1,Increment      1: Step Time =    1.000,"PART-1-1",           371,       12.6080,      -16.5365,            0.,NA,NA,"",   374.295E-03,  -314.572E-03,   202.834E-03,   17.2770E-03
C:/temp/dataset/0/2_6.odb,Step-1,Increment      1: Step Time =    1.000,"PART-1-1",           372,       11.3130,      -15.4489,            0.,NA,NA,"",   396.581E-03,  -367.245E-03,   149.693E-03,   12.0154E-03
C:/temp/dataset/0/2_6.odb,Step-1,Increment      1: Step Time =    1.000,"PART-1-1",           373,       10.1880,      -16.9099,            0.,NA,NA,"",   289.461E-03,  -276.434E-03,   85.8581E-03,   9.11238E-03
C:/temp/dataset/0/2_6.odb,Step-1,Increment      1: Step Time =    1.000,"PART-1-1",           374,       11.4829,      -17.9975,            0.,NA,NA,"",   265.913E-03,  -229.634E-03,   134.083E-03,   13.6302E-03
C:/temp/dataset/0/2_6.odb,Step-1,Increment      1: Step Time =    1.000,"PART-1-1",           375,       7.63417,      -21.6752,            0.,NA,NA,"",   76.5440E-03,  -75.5572E-03,  -12.2509E-03,   4.22150E-03
C:/temp/dataset/0/2_6.odb,Step-1,Increment      1: Step Time =    1.000,"PART-1-1",           376,       7.43394,      -23.2038,            0.,NA,NA,"",   50.8311E-03,  -49.4970E-03,  -11.5695E-03,   4.21214E-03
C:/temp/dataset/0/2_6.odb,Step-1,Increment      1: Step Time =    1.000,"PART-1-1",           377,       8.61676,      -23.4202,            0.,NA,NA,"",   47.0189E-03,  -46.1041E-03,   9.22999E-03,   2.72652E-03
C:/temp/dataset/0/2_6.odb,Step-1,Increment      1: Step Time =    1.000,"PART-1-1",           378,       8.81699,      -21.8917,            0.,NA,NA,"",   76.1484E-03,  -74.3945E-03,   16.2495E-03,   4.62014E-03
C:/temp/dataset/0/2_6.odb,Step-1,Increment      1: Step Time =    1.000,"PART-1-1",           379,  -438.919E-03,      -23.5046,            0.,NA,NA,"",   60.5309E-03,  -60.5060E-03,   1.73809E-03,   9.34835E-03
C:/temp/dataset/0/2_6.odb,Step-1,Increment      1: Step Time =    1.000,"PART-1-1",           380,   774.543E-03,      -22.4081,            0.,NA,NA,"",   67.5581E-03,  -67.0900E-03,  -7.93877E-03,   9.09638E-03
C:/temp/dataset/0/2_6.odb,Step-1,Increment      1: Step Time =    1.000,"PART-1-1",           381,      -7.50181,      -26.8221,            0.,NA,NA,"",   10.5337E-03,  -10.5131E-03,   657.914E-06,   3.33648E-03
C:/temp/dataset/0/2_6.odb,Step-1,Increment      1: Step Time =    1.000,"PART-1-1",           382,      -9.04643,      -28.2740,            0.,NA,NA,"",   5.15267E-03,  -554.870E-06,  -5.12271E-03,   3.69266E-03
C:/temp/dataset/0/2_6.odb,Step-1,Increment      1: Step Time =    1.000,"PART-1-1",           383,          -7.5,          -30.,            0.,NA,NA,"",            0.,   387.339E-42,  -4.20507E-39,   1.70343E-03
C:/temp/dataset/0/2_6.odb,Step-1,Increment      1: Step Time =    1.000,"PART-1-1",           384,      -5.95538,      -28.5482,            0.,NA,NA,"",   5.40707E-03,  -5.19583E-03,   1.49656E-03,   3.82984E-03
C:/temp/dataset/0/2_6.odb,Step-1,Increment      1: Step Time =    1.000,"PART-1-1",           385,      -10.9107,       24.5471,            0.,NA,NA,"",       3.25510,      -3.23714,  -341.388E-03,   7.42706E-03
C:/temp/dataset/0/2_6.odb,Step-1,Increment      1: Step Time =    1.000,"PART-1-1",           386,      -9.41006,       26.0517,            0.,NA,NA,"",       3.29663,      -3.28481,  -278.937E-03,   7.20992E-03
C:/temp/dataset/0/2_6.odb,Step-1,Increment      1: Step Time =    1.000,"PART-1-1",           387,      -10.7443,       27.3091,            0.,NA,NA,"",       3.34258,      -3.32566,  -335.959E-03,   6.22741E-03
C:/temp/dataset/0/2_6.odb,Step-1,Increment      1: Step Time =    1.000,"PART-1-1",           388,      -12.2450,       25.8045,            0.,NA,NA,"",       3.30080,      -3.27666,  -398.512E-03,   6.63365E-03
C:/temp/dataset/0/2_6.odb,Step-1,Increment      1: Step Time =    1.000,"PART-1-1",           389,      -1.21620,       23.8189,            0.,NA,NA,"",       3.21218,      -3.21139,  -71.0448E-03,   10.9216E-03
C:/temp/dataset/0/2_6.odb,Step-1,Increment      1: Step Time =    1.000,"PART-1-1",           390,      -2.21965,       25.1560,            0.,NA,NA,"",       3.24478,      -3.24375,  -81.6226E-03,   9.42362E-03
C:/temp/dataset/0/2_6.odb,Step-1,Increment      1: Step Time =    1.000,"PART-1-1",           391,      -12.3287,       22.9401,            0.,NA,NA,"",       3.20292,      -3.17677,  -408.465E-03,   7.06883E-03
C:/temp/dataset/0/2_6.odb,Step-1,Increment      1: Step Time =    1.000,"PART-1-1",           392,      -11.0144,       21.7359,            0.,NA,NA,"",       3.15350,      -3.13414,  -348.910E-03,   6.20445E-03
C:/temp/dataset/0/2_6.odb,Step-1,Increment      1: Step Time =    1.000,"PART-1-1",           393,      -9.59641,       23.3428,            0.,NA,NA,"",       3.21111,      -3.19871,  -281.890E-03,   7.46567E-03
C:/temp/dataset/0/2_6.odb,Step-1,Increment      1: Step Time =    1.000,"PART-1-1",           394,      -8.52014,       19.3558,            0.,NA,NA,"",       3.04061,      -3.03244,  -222.793E-03,   6.94801E-03
C:/temp/dataset/0/2_6.odb,Step-1,Increment      1: Step Time =    1.000,"PART-1-1",           395,      -7.12750,       20.9906,            0.,NA,NA,"",       3.12391,      -3.11957,  -164.591E-03,   9.30693E-03
C:/temp/dataset/0/2_6.odb,Step-1,Increment      1: Step Time =    1.000,"PART-1-1",           396,      -8.32913,       22.1749,            0.,NA,NA,"",       3.16815,      -3.16032,  -222.542E-03,   7.62099E-03
C:/temp/dataset/0/2_6.odb,Step-1,Increment      1: Step Time =    1.000,"PART-1-1",           397,      -9.72177,       20.5400,            0.,NA,NA,"",       3.10014,      -3.08691,  -286.124E-03,   4.35985E-03
C:/temp/dataset/0/2_6.odb,Step-1,Increment      1: Step Time =    1.000,"PART-1-1",           398,      -6.16480,       16.7267,            0.,NA,NA,"",       2.86616,      -2.86548,  -62.4884E-03,   17.5253E-03
C:/temp/dataset/0/2_6.odb,Step-1,Increment      1: Step Time =    1.000,"PART-1-1",           399,           -5.,       18.4615,            0.,NA,NA,"",       2.97235,      -2.97224,  -25.5602E-03,   30.0628E-03
C:/temp/dataset/0/2_6.odb,Step-1,Increment      1: Step Time =    1.000,"PART-1-1",           400,      -6.13199,       19.8034,            0.,NA,NA,"",       3.07504,      -3.07291,  -114.614E-03,   22.6964E-03
C:/temp/dataset/0/2_6.odb,Step-1,Increment      1: Step Time =    1.000,"PART-1-1",           401,      -7.29678,       18.0686,            0.,NA,NA,"",       2.96408,      -2.96023,  -151.071E-03,   11.9666E-03
C:/temp/dataset/0/2_6.odb,Step-1,Increment      1: Step Time =    1.000,"PART-1-1",           402,      -11.0823,       15.8203,            0.,NA,NA,"",       2.82804,      -2.80569,  -354.799E-03,   4.76533E-03
C:/temp/dataset/0/2_6.odb,Step-1,Increment      1: Step Time =    1.000,"PART-1-1",           403,      -12.3677,       14.0517,            0.,NA,NA,"",       2.71070,      -2.67542,  -435.924E-03,   5.19337E-03
C:/temp/dataset/0/2_6.odb,Step-1,Increment      1: Step Time =    1.000,"PART-1-1",           404,      -11.1015,       12.7786,            0.,NA,NA,"",       2.60602,      -2.58283,  -346.837E-03,   5.07678E-03
C:/temp/dataset/0/2_6.odb,Step-1,Increment      1: Step Time =    1.000,"PART-1-1",           405,          -15.,          10.5,            0.,NA,NA,"",       2.46834,      -2.38500,  -636.001E-03,   6.56633E-03
C:/temp/dataset/0/2_6.odb,Step-1,Increment      1: Step Time =    1.000,"PART-1-1",           406,      -13.6919,       9.25384,            0.,NA,NA,"",       2.34988,      -2.28887,  -532.011E-03,   3.50346E-03
C:/temp/dataset/0/2_6.odb,Step-1,Increment      1: Step Time =    1.000,"PART-1-1",           407,      -12.3755,       11.0249,            0.,NA,NA,"",       2.47840,      -2.44021,  -433.394E-03,   4.66865E-03
C:/temp/dataset/0/2_6.odb,Step-1,Increment      1: Step Time =    1.000,"PART-1-1",           408,      -13.6836,       12.2710,            0.,NA,NA,"",       2.58884,      -2.53391,  -530.429E-03,   5.90580E-03
C:/temp/dataset/0/2_6.odb,Step-1,Increment      1: Step Time =    1.000,"PART-1-1",           409,      -7.40029,       8.84536,            0.,NA,NA,"",       2.26560,      -2.26521,  -41.8167E-03,   8.83070E-03
C:/temp/dataset/0/2_6.odb,Step-1,Increment      1: Step Time =    1.000,"PART-1-1",           410,      -8.62408,       10.1694,            0.,NA,NA,"",       2.38056,      -2.37585,  -149.592E-03,   8.01620E-03
C:/temp/dataset/0/2_6.odb,Step-1,Increment      1: Step Time =    1.000,"PART-1-1",           411,      -9.86273,       8.43495,            0.,NA,NA,"",       2.24140,      -2.22955,  -230.125E-03,   6.84918E-03
C:/temp/dataset/0/2_6.odb,Step-1,Increment      1: Step Time =    1.000,"PART-1-1",           412,      -8.63893,       7.11093,            0.,NA,NA,"",       2.12033,      -2.11674,  -123.476E-03,   7.24155E-03
C:/temp/dataset/0/2_6.odb,Step-1,Increment      1: Step Time =    1.000,"PART-1-1",           413,          -15.,           1.5,            0.,NA,NA,"",       1.72100,      -1.60962,  -609.079E-03,   4.78167E-03
C:/temp/dataset/0/2_6.odb,Step-1,Increment      1: Step Time =    1.000,"PART-1-1",           414,      -13.7087,   214.116E-03,            0.,NA,NA,"",       1.57507,      -1.49821,  -486.016E-03,   6.19700E-03
C:/temp/dataset/0/2_6.odb,Step-1,Increment      1: Step Time =    1.000,"PART-1-1",           415,      -12.4129,       1.94059,            0.,NA,NA,"",       1.69869,      -1.65298,  -391.408E-03,   5.90730E-03
C:/temp/dataset/0/2_6.odb,Step-1,Increment      1: Step Time =    1.000,"PART-1-1",           416,      -13.7042,       3.22647,            0.,NA,NA,"",       1.83682,      -1.76482,  -509.249E-03,   3.77534E-03
C:/temp/dataset/0/2_6.odb,Step-1,Increment      1: Step Time =    1.000,"PART-1-1",           417,      -9.88317,  -688.536E-03,            0.,NA,NA,"",       1.43247,      -1.42296,  -164.797E-03,   6.66978E-03
C:/temp/dataset/0/2_6.odb,Step-1,Increment      1: Step Time =    1.000,"PART-1-1",           418,      -8.64028,      -2.02441,            0.,NA,NA,"",       1.30908,      -1.30787,  -56.4597E-03,   5.36839E-03
C:/temp/dataset/0/2_6.odb,Step-1,Increment      1: Step Time =    1.000,"PART-1-1",           419,      -7.40757,  -323.915E-03,            0.,NA,NA,"",       1.46062,      -1.46023,   33.8446E-03,   4.59005E-03
C:/temp/dataset/0/2_6.odb,Step-1,Increment      1: Step Time =    1.000,"PART-1-1",           420,      -8.65046,       1.01196,            0.,NA,NA,"",       1.57806,      -1.57619,  -76.7270E-03,   5.90450E-03
C:/temp/dataset/0/2_6.odb,Step-1,Increment      1: Step Time =    1.000,"PART-1-1",           421,          -15.,          -7.5,            0.,NA,NA,"",   988.818E-03,  -857.045E-03,  -493.189E-03,   15.9041E-03
C:/temp/dataset/0/2_6.odb,Step-1,Increment      1: Step Time =    1.000,"PART-1-1",           422,      -13.7007,      -8.80606,            0.,NA,NA,"",   841.426E-03,  -753.460E-03,  -374.561E-03,   14.1245E-03
C:/temp/dataset/0/2_6.odb,Step-1,Increment      1: Step Time =    1.000,"PART-1-1",           423,      -12.4029,      -7.10316,            0.,NA,NA,"",   931.182E-03,  -880.462E-03,  -303.129E-03,   10.2366E-03
C:/temp/dataset/0/2_6.odb,Step-1,Increment      1: Step Time =    1.000,"PART-1-1",           424,      -13.7022,      -5.79711,            0.,NA,NA,"",       1.07179,  -987.013E-03,  -417.789E-03,   11.4590E-03
C:/temp/dataset/0/2_6.odb,Step-1,Increment      1: Step Time =    1.000,"PART-1-1",           425,      -7.34368,      -12.4907,            0.,NA,NA,"",   497.392E-03,  -494.319E-03,   55.2065E-03,   7.12826E-03
C:/temp/dataset/0/2_6.odb,Step-1,Increment      1: Step Time =    1.000,"PART-1-1",           426,      -8.60430,      -11.1353,            0.,NA,NA,"",   581.441E-03,  -581.109E-03,  -19.6344E-03,   4.71428E-03
C:/temp/dataset/0/2_6.odb,Step-1,Increment      1: Step Time =    1.000,"PART-1-1",           427,      -9.82710,      -12.7746,            0.,NA,NA,"",   478.107E-03,  -470.149E-03,  -86.8694E-03,   6.10581E-03
C:/temp/dataset/0/2_6.odb,Step-1,Increment      1: Step Time =    1.000,"PART-1-1",           428,      -8.56648,      -14.1300,            0.,NA,NA,"",   388.309E-03,  -388.001E-03,  -15.4710E-03,   5.27218E-03
C:/temp/dataset/0/2_6.odb,Step-1,Increment      1: Step Time =    1.000,"PART-1-1",           429,  -730.622E-03,       22.2784,            0.,NA,NA,"",       3.18096,      -3.18022,  -68.4339E-03,   9.58796E-03
C:/temp/dataset/0/2_6.odb,Step-1,Increment      1: Step Time =    1.000,"PART-1-1",           430,         -1.25,           20.,            0.,NA,NA,"",       3.14908,      -3.14809,  -78.7503E-03,   8.45413E-03
C:/temp/dataset/0/2_6.odb,Step-1,Increment      1: Step Time =    1.000,"PART-1-1",           431,       11.1367,       28.7451,            0.,NA,NA,"",       3.36764,      -3.36456,   144.094E-03,   3.57489E-03
C:/temp/dataset/0/2_6.odb,Step-1,Increment      1: Step Time =    1.000,"PART-1-1",           432,       10.3125,           30.,            0.,NA,NA,"",       3.39555,      -3.39332,   122.953E-03,   3.89782E-03
C:/temp/dataset/0/2_6.odb,Step-1,Increment      1: Step Time =    1.000,"PART-1-1",           433,       10.0023,       27.5230,            0.,NA,NA,"",       3.33610,      -3.33425,   111.111E-03,   5.67142E-03
C:/temp/dataset/0/2_6.odb,Step-1,Increment      1: Step Time =    1.000,"PART-1-1",           434,       10.7751,       23.9735,            0.,NA,NA,"",       3.26797,      -3.26533,   131.152E-03,   9.07015E-03
C:/temp/dataset/0/2_6.odb,Step-1,Increment      1: Step Time =    1.000,"PART-1-1",           435,       11.7898,       22.7248,            0.,NA,NA,"",       3.24513,      -3.24082,   167.229E-03,   9.31959E-03
C:/temp/dataset/0/2_6.odb,Step-1,Increment      1: Step Time =    1.000,"PART-1-1",           436,       12.9255,       23.8368,            0.,NA,NA,"",       3.27072,      -3.26447,   202.104E-03,   8.79488E-03
C:/temp/dataset/0/2_6.odb,Step-1,Increment      1: Step Time =    1.000,"PART-1-1",           437,       2.25220,       28.9826,            0.,NA,NA,"",       3.32884,      -3.32863,  -37.9121E-03,   4.42926E-03
C:/temp/dataset/0/2_6.odb,Step-1,Increment      1: Step Time =    1.000,"PART-1-1",           438,       3.21116,       27.8846,            0.,NA,NA,"",       3.31143,      -3.31131,  -28.5406E-03,   6.04320E-03
C:/temp/dataset/0/2_6.odb,Step-1,Increment      1: Step Time =    1.000,"PART-1-1",           439,       4.70896,       28.9020,            0.,NA,NA,"",       3.33696,      -3.33695,  -5.54150E-03,   6.32320E-03
C:/temp/dataset/0/2_6.odb,Step-1,Increment      1: Step Time =    1.000,"PART-1-1",           440,          3.75,           30.,            0.,NA,NA,"",       3.35019,      -3.35015,  -17.0051E-03,   5.80020E-03
C:/temp/dataset/0/2_6.odb,Step-1,Increment      1: Step Time =    1.000,"PART-1-1",           441,      -8.10884,       24.8461,            0.,NA,NA,"",       3.25446,      -3.24676,  -223.727E-03,   6.56783E-03
C:/temp/dataset/0/2_6.odb,Step-1,Increment      1: Step Time =    1.000,"PART-1-1",           442,      -13.5971,       27.1125,            0.,NA,NA,"",       3.34932,      -3.31865,  -452.234E-03,   3.47734E-03
C:/temp/dataset/0/2_6.odb,Step-1,Increment      1: Step Time =    1.000,"PART-1-1",           443,          -15.,          25.5,            0.,NA,NA,"",       3.29954,      -3.26014,  -508.408E-03,   5.22570E-03
C:/temp/dataset/0/2_6.odb,Step-1,Increment      1: Step Time =    1.000,"PART-1-1",           444,      -13.6479,       24.1920,            0.,NA,NA,"",       3.25115,      -3.21817,  -461.895E-03,   6.84469E-03
C:/temp/dataset/0/2_6.odb,Step-1,Increment      1: Step Time =    1.000,"PART-1-1",           445,      -6.53168,       26.2506,            0.,NA,NA,"",       3.28828,      -3.28363,  -174.870E-03,   5.81851E-03
C:/temp/dataset/0/2_6.odb,Step-1,Increment      1: Step Time =    1.000,"PART-1-1",           446,      -7.83289,       27.4562,            0.,NA,NA,"",       3.33046,      -3.32299,  -222.937E-03,   5.81720E-03
C:/temp/dataset/0/2_6.odb,Step-1,Increment      1: Step Time =    1.000,"PART-1-1",           447,          -15.,          28.5,            0.,NA,NA,"",       3.40362,      -3.36608,  -504.145E-03,   811.922E-06
C:/temp/dataset/0/2_6.odb,Step-1,Increment      1: Step Time =    1.000,"PART-1-1",           448,      -12.0971,       28.6125,            0.,NA,NA,"",       3.39365,      -3.37084,  -392.770E-03,   3.50025E-03
C:/temp/dataset/0/2_6.odb,Step-1,Increment      1: Step Time =    1.000,"PART-1-1",           449,         -13.5,           30.,            0.,NA,NA,"",       3.45165,      -3.42232,  -449.007E-03,   798.984E-06
C:/temp/dataset/0/2_6.odb,Step-1,Increment      1: Step Time =    1.000,"PART-1-1",           450,      -6.19829,       10.5730,            0.,NA,NA,"",       2.40648,      -2.40626,   32.0459E-03,   11.5559E-03
C:/temp/dataset/0/2_6.odb,Step-1,Increment      1: Step Time =    1.000,"PART-1-1",           451,      -6.20201,       7.50308,            0.,NA,NA,"",       2.15199,      -2.15085,   69.9396E-03,   8.80938E-03
C:/temp/dataset/0/2_6.odb,Step-1,Increment      1: Step Time =    1.000,"PART-1-1",           452,           -5.,       9.23077,            0.,NA,NA,"",       2.29908,      -2.29431,   147.971E-03,   12.0763E-03
C:/temp/dataset/0/2_6.odb,Step-1,Increment      1: Step Time =    1.000,"PART-1-1",           453,      -12.4049,       4.96458,            0.,NA,NA,"",       1.96549,      -1.92200,  -411.184E-03,   4.89124E-03
C:/temp/dataset/0/2_6.odb,Step-1,Increment      1: Step Time =    1.000,"PART-1-1",           454,      -13.7007,       6.23810,            0.,NA,NA,"",       2.09703,      -2.03026,  -524.926E-03,   2.33786E-03
C:/temp/dataset/0/2_6.odb,Step-1,Increment      1: Step Time =    1.000,"PART-1-1",           455,          -15.,           4.5,            0.,NA,NA,"",       1.97624,      -1.87356,  -628.705E-03,   1.06490E-03
C:/temp/dataset/0/2_6.odb,Step-1,Increment      1: Step Time =    1.000,"PART-1-1",           456,      -9.87977,       5.38582,            0.,NA,NA,"",       1.97524,      -1.96414,  -209.166E-03,   6.77940E-03
C:/temp/dataset/0/2_6.odb,Step-1,Increment      1: Step Time =    1.000,"PART-1-1",           457,      -8.64969,       4.05795,            0.,NA,NA,"",       1.85068,      -1.84802,  -99.2313E-03,   6.52833E-03
C:/temp/dataset/0/2_6.odb,Step-1,Increment      1: Step Time =    1.000,"PART-1-1",           458,      -7.40885,       5.78306,            0.,NA,NA,"",       2.00183,      -2.00179,  -12.1238E-03,   7.19102E-03
C:/temp/dataset/0/2_6.odb,Step-1,Increment      1: Step Time =    1.000,"PART-1-1",           459,      -7.41391,       2.72502,            0.,NA,NA,"",       1.73122,      -1.73117,   13.0752E-03,   5.72283E-03
C:/temp/dataset/0/2_6.odb,Step-1,Increment      1: Step Time =    1.000,"PART-1-1",           460,      -9.88624,       2.34489,            0.,NA,NA,"",       1.70350,      -1.69318,  -187.202E-03,   6.73214E-03
C:/temp/dataset/0/2_6.odb,Step-1,Increment      1: Step Time =    1.000,"PART-1-1",           461,      -12.4101,      -4.09106,            0.,NA,NA,"",       1.17562,      -1.12639,  -336.647E-03,   8.70691E-03
C:/temp/dataset/0/2_6.odb,Step-1,Increment      1: Step Time =    1.000,"PART-1-1",           462,      -13.7080,      -2.79395,            0.,NA,NA,"",       1.31809,      -1.23695,  -455.319E-03,   8.81185E-03
C:/temp/dataset/0/2_6.odb,Step-1,Increment      1: Step Time =    1.000,"PART-1-1",           463,          -15.,          -4.5,            0.,NA,NA,"",       1.22166,      -1.09544,  -540.793E-03,   12.2072E-03
C:/temp/dataset/0/2_6.odb,Step-1,Increment      1: Step Time =    1.000,"PART-1-1",           464,      -9.87646,      -3.71895,            0.,NA,NA,"",       1.16809,      -1.15930,  -142.977E-03,   6.57806E-03
C:/temp/dataset/0/2_6.odb,Step-1,Increment      1: Step Time =    1.000,"PART-1-1",           465,      -8.63520,      -5.06687,            0.,NA,NA,"",       1.04869,      -1.04792,  -40.2330E-03,   4.96709E-03
C:/temp/dataset/0/2_6.odb,Step-1,Increment      1: Step Time =    1.000,"PART-1-1",           466,      -7.39901,      -3.37233,            0.,NA,NA,"",       1.19557,      -1.19457,   48.9037E-03,   4.10317E-03
C:/temp/dataset/0/2_6.odb,Step-1,Increment      1: Step Time =    1.000,"PART-1-1",           467,      -7.39417,      -6.42670,            0.,NA,NA,"",   941.784E-03,  -940.045E-03,   57.2102E-03,   4.49277E-03
C:/temp/dataset/0/2_6.odb,Step-1,Increment      1: Step Time =    1.000,"PART-1-1",           468,      -9.87187,      -6.75385,            0.,NA,NA,"",   916.033E-03,  -907.770E-03,  -122.758E-03,   6.45058E-03
C:/temp/dataset/0/2_6.odb,Step-1,Increment      1: Step Time =    1.000,"PART-1-1",           469,      -8.63084,      -8.11369,            0.,NA,NA,"",   803.367E-03,  -802.870E-03,  -28.2481E-03,   4.74789E-03
C:/temp/dataset/0/2_6.odb,Step-1,Increment      1: Step Time =    1.000,"PART-1-1",           470,      -12.3844,      -13.1215,            0.,NA,NA,"",   506.978E-03,  -453.208E-03,  -227.221E-03,   13.2506E-03
C:/temp/dataset/0/2_6.odb,Step-1,Increment      1: Step Time =    1.000,"PART-1-1",           471,      -13.6984,      -11.8123,            0.,NA,NA,"",   633.173E-03,  -542.953E-03,  -325.746E-03,   16.7795E-03
C:/temp/dataset/0/2_6.odb,Step-1,Increment      1: Step Time =    1.000,"PART-1-1",           472,          -15.,         -13.5,            0.,NA,NA,"",   582.280E-03,  -447.234E-03,  -372.869E-03,   23.2429E-03
C:/temp/dataset/0/2_6.odb,Step-1,Increment      1: Step Time =    1.000,"PART-1-1",           473,      -7.37693,      -9.46970,            0.,NA,NA,"",   706.949E-03,  -704.445E-03,   59.4507E-03,   5.59991E-03
C:/temp/dataset/0/2_6.odb,Step-1,Increment      1: Step Time =    1.000,"PART-1-1",           474,      -9.85821,      -9.77933,            0.,NA,NA,"",   683.616E-03,  -675.665E-03,  -103.960E-03,   6.28475E-03
C:/temp/dataset/0/2_6.odb,Step-1,Increment      1: Step Time =    1.000,"PART-1-1",           475,      -8.48236,      -17.0363,            0.,NA,NA,"",   230.601E-03,  -230.230E-03,  -13.0795E-03,   6.50993E-03
C:/temp/dataset/0/2_6.odb,Step-1,Increment      1: Step Time =    1.000,"PART-1-1",           476,      -7.28434,      -15.4580,            0.,NA,NA,"",   318.657E-03,  -315.441E-03,   45.1530E-03,   9.45852E-03
C:/temp/dataset/0/2_6.odb,Step-1,Increment      1: Step Time =    1.000,"PART-1-1",           477,      -9.76451,      -15.7083,            0.,NA,NA,"",   306.317E-03,  -298.037E-03,  -70.7388E-03,   6.23151E-03
C:/temp/dataset/0/2_6.odb,Step-1,Increment      1: Step Time =    1.000,"PART-1-1",           478,      -8.29054,      -19.6175,            0.,NA,NA,"",   123.381E-03,  -123.257E-03,  -5.54835E-03,   5.20452E-03
C:/temp/dataset/0/2_6.odb,Step-1,Increment      1: Step Time =    1.000,"PART-1-1",           479,      -7.20240,      -18.2338,            0.,NA,NA,"",   176.834E-03,  -174.241E-03,   30.1750E-03,   9.09466E-03
C:/temp/dataset/0/2_6.odb,Step-1,Increment      1: Step Time =    1.000,"PART-1-1",           480,      -9.57051,      -18.4200,            0.,NA,NA,"",   177.733E-03,  -170.468E-03,  -50.2954E-03,   6.06560E-03
C:/temp/dataset/0/2_6.odb,Step-1,Increment      1: Step Time =    1.000,"PART-1-1",           481,      -11.5327,      -24.2644,            0.,NA,NA,"",   66.1554E-03,  -37.0477E-03,  -54.8088E-03,   11.9217E-03
C:/temp/dataset/0/2_6.odb,Step-1,Increment      1: Step Time =    1.000,"PART-1-1",           482,      -10.1789,      -23.4859,            0.,NA,NA,"",   56.1349E-03,  -42.5159E-03,  -36.6541E-03,   7.33551E-03
C:/temp/dataset/0/2_6.odb,Step-1,Increment      1: Step Time =    1.000,"PART-1-1",           483,      -10.8627,      -21.7859,            0.,NA,NA,"",   99.4256E-03,  -75.3352E-03,  -64.8849E-03,   10.2196E-03
C:/temp/dataset/0/2_6.odb,Step-1,Increment      1: Step Time =    1.000,"PART-1-1",           484,      -12.2165,      -22.5644,            0.,NA,NA,"",   111.454E-03,  -67.2892E-03,  -88.8492E-03,   14.9041E-03
C:/temp/dataset/0/2_6.odb,Step-1,Increment      1: Step Time =    1.000,"PART-1-1",           485,      -6.15301,      -21.8453,            0.,NA,NA,"",   75.4921E-03,  -67.4316E-03,   33.9418E-03,   9.73164E-03
C:/temp/dataset/0/2_6.odb,Step-1,Increment      1: Step Time =    1.000,"PART-1-1",           486,      -7.48433,      -22.7723,            0.,NA,NA,"",   52.3733E-03,  -51.3484E-03,   10.3106E-03,   4.11681E-03
C:/temp/dataset/0/2_6.odb,Step-1,Increment      1: Step Time =    1.000,"PART-1-1",           487,      -6.61766,      -24.1583,            0.,NA,NA,"",   40.2047E-03,  -37.4305E-03,   14.6757E-03,   5.75730E-03
C:/temp/dataset/0/2_6.odb,Step-1,Increment      1: Step Time =    1.000,"PART-1-1",           488,      -9.30746,      -21.9937,            0.,NA,NA,"",   70.1541E-03,  -65.2045E-03,  -25.8840E-03,   5.13400E-03
C:/temp/dataset/0/2_6.odb,Step-1,Increment      1: Step Time =    1.000,"PART-1-1",           489,      -9.12330,      -20.5212,            0.,NA,NA,"",   102.138E-03,  -98.4430E-03,  -27.2229E-03,   4.90818E-03
C:/temp/dataset/0/2_6.odb,Step-1,Increment      1: Step Time =    1.000,"PART-1-1",           490,      -10.6786,      -20.3134,            0.,NA,NA,"",   132.752E-03,  -110.720E-03,  -73.2395E-03,   9.63545E-03
C:/temp/dataset/0/2_6.odb,Step-1,Increment      1: Step Time =    1.000,"PART-1-1",           491,         -13.5,          -30.,            0.,NA,NA,"",            0.,   1.69243E-39,  -31.4025E-39,   16.4212E-03
C:/temp/dataset/0/2_6.odb,Step-1,Increment      1: Step Time =    1.000,"PART-1-1",           492,      -12.0973,      -28.5120,            0.,NA,NA,"",   14.3718E-03,  -2.45657E-03,  -14.1603E-03,   11.9993E-03
C:/temp/dataset/0/2_6.odb,Step-1,Increment      1: Step Time =    1.000,"PART-1-1",           493,      -13.5973,      -27.0120,            0.,NA,NA,"",   49.3788E-03,  -21.3314E-03,  -44.5335E-03,   18.0906E-03
C:/temp/dataset/0/2_6.odb,Step-1,Increment      1: Step Time =    1.000,"PART-1-1",           494,          -15.,         -28.5,            0.,NA,NA,"",   35.9030E-03,  -22.0769E-03,  -28.3132E-03,   21.7749E-03
C:/temp/dataset/0/2_6.odb,Step-1,Increment      1: Step Time =    1.000,"PART-1-1",           495,      -2.59553,      -21.0976,            0.,NA,NA,"",   76.3775E-03,  -73.0856E-03,   22.1813E-03,   6.92385E-03
C:/temp/dataset/0/2_6.odb,Step-1,Increment      1: Step Time =    1.000,"PART-1-1",           496,      -1.51596,      -22.2324,            0.,NA,NA,"",   68.5572E-03,  -67.5681E-03,   11.6032E-03,   8.89347E-03
C:/temp/dataset/0/2_6.odb,Step-1,Increment      1: Step Time =    1.000,"PART-1-1",           497,  -170.430E-03,      -21.1349,            0.,NA,NA,"",   67.0183E-03,  -67.0171E-03,   401.406E-06,   3.16171E-03
C:/temp/dataset/0/2_6.odb,Step-1,Increment      1: Step Time =    1.000,"PART-1-1",           498,         -1.25,          -20.,            0.,NA,NA,"",   63.1544E-03,  -62.7395E-03,   7.22701E-03,   2.94052E-03
C:/temp/dataset/0/2_6.odb,Step-1,Increment      1: Step Time =    1.000,"PART-1-1",           499,       2.92795,      -28.2085,            0.,NA,NA,"",   15.5835E-03,  -14.9571E-03,  -4.37353E-03,   7.45786E-03
C:/temp/dataset/0/2_6.odb,Step-1,Increment      1: Step Time =    1.000,"PART-1-1",           500,  -103.307E-03,      -28.5907,            0.,NA,NA,"",   14.6451E-03,  -14.6348E-03,  -548.346E-06,   7.37859E-03
C:/temp/dataset/0/2_6.odb,Step-1,Increment      1: Step Time =    1.000,"PART-1-1",           501,           1.5,          -30.,            0.,NA,NA,"",            0.,  -7.87372E-39,  -3.22129E-39,   6.12323E-03
C:/temp/dataset/0/2_6.odb,Step-1,Increment      1: Step Time =    1.000,"PART-1-1",           502,       2.19497,      -21.2732,            0.,NA,NA,"",   78.1059E-03,  -75.0717E-03,  -21.5586E-03,   6.94026E-03
C:/temp/dataset/0/2_6.odb,Step-1,Increment      1: Step Time =    1.000,"PART-1-1",           503,          1.25,          -20.,            0.,NA,NA,"",   63.6946E-03,  -63.0433E-03,  -9.08569E-03,   4.00272E-03
C:/temp/dataset/0/2_6.odb,Step-1,Increment      1: Step Time =    1.000,"PART-1-1",           504,       4.38160,      -21.6436,            0.,NA,NA,"",   94.4829E-03,  -80.4452E-03,  -49.5538E-03,   20.1025E-03
C:/temp/dataset/0/2_6.odb,Step-1,Increment      1: Step Time =    1.000,"PART-1-1",           505,          3.75,          -20.,            0.,NA,NA,"",   90.5896E-03,  -82.2874E-03,  -37.8849E-03,   18.5237E-03
C:/temp/dataset/0/2_6.odb,Step-1,Increment      1: Step Time =    1.000,"PART-1-1",           506,       12.4146,      -26.3616,            0.,NA,NA,"",   52.3898E-03,  -22.5270E-03,   47.2993E-03,   16.1734E-03
C:/temp/dataset/0/2_6.odb,Step-1,Increment      1: Step Time =    1.000,"PART-1-1",           507,       11.3720,      -25.0651,            0.,NA,NA,"",   58.0040E-03,  -31.0121E-03,   49.0175E-03,   12.4882E-03
C:/temp/dataset/0/2_6.odb,Step-1,Increment      1: Step Time =    1.000,"PART-1-1",           508,       9.80011,      -26.1459,            0.,NA,NA,"",   23.5612E-03,  -14.1044E-03,   18.8731E-03,   6.13051E-03
C:/temp/dataset/0/2_6.odb,Step-1,Increment      1: Step Time =    1.000,"PART-1-1",           509,       10.8427,      -27.4423,            0.,NA,NA,"",   20.4896E-03,  -6.24119E-03,   19.5160E-03,   9.87335E-03
C:/temp/dataset/0/2_6.odb,Step-1,Increment      1: Step Time =    1.000,"PART-1-1",           510,       10.6574,      -21.6616,            0.,NA,NA,"",   111.994E-03,  -89.5149E-03,   67.3041E-03,   10.9626E-03
C:/temp/dataset/0/2_6.odb,Step-1,Increment      1: Step Time =    1.000,"PART-1-1",           511,       9.56375,      -20.8051,            0.,NA,NA,"",   114.247E-03,  -106.470E-03,   41.4321E-03,   7.98755E-03
C:/temp/dataset/0/2_6.odb,Step-1,Increment      1: Step Time =    1.000,"PART-1-1",           512,       9.91066,      -22.7482,            0.,NA,NA,"",   72.5867E-03,  -60.9699E-03,   39.3890E-03,   7.81920E-03
C:/temp/dataset/0/2_6.odb,Step-1,Increment      1: Step Time =    1.000,"PART-1-1",           513,       13.7822,      -25.0807,            0.,NA,NA,"",   101.099E-03,  -49.1568E-03,   88.3437E-03,   21.4442E-03
C:/temp/dataset/0/2_6.odb,Step-1,Increment      1: Step Time =    1.000,"PART-1-1",           514,       13.6324,      -27.5308,            0.,NA,NA,"",   45.2809E-03,  -20.1339E-03,   40.5585E-03,   20.1021E-03
C:/temp/dataset/0/2_6.odb,Step-1,Increment      1: Step Time =    1.000,"PART-1-1",           515,           15.,        -26.25,            0.,NA,NA,"",   93.7596E-03,  -47.3095E-03,   80.9486E-03,   24.8348E-03
C:/temp/dataset/0/2_6.odb,Step-1,Increment      1: Step Time =    1.000,"PART-1-1",           516,          13.5,          -30.,            0.,NA,NA,"",            0.,   859.286E-42,   35.4541E-39,   18.2787E-03
C:/temp/dataset/0/2_6.odb,Step-1,Increment      1: Step Time =    1.000,"PART-1-1",           517,           15.,        -28.75,            0.,NA,NA,"",   34.1560E-03,  -21.6453E-03,   26.4218E-03,   24.4913E-03
C:/temp/dataset/0/2_6.odb,Step-1,Increment      1: Step Time =    1.000,"PART-1-1",           518,       12.1324,      -28.7808,            0.,NA,NA,"",   13.0063E-03,  -1.82300E-03,   12.8779E-03,   13.1209E-03
C:/temp/dataset/0/2_6.odb,Step-1,Increment      1: Step Time =    1.000,"PART-1-1",           519,       10.4418,      -23.8774,            0.,NA,NA,"",   61.2289E-03,  -43.4552E-03,   43.1349E-03,   9.29219E-03
C:/temp/dataset/0/2_6.odb,Step-1,Increment      1: Step Time =    1.000,"PART-1-1",           520,       12.6627,      -23.9582,            0.,NA,NA,"",   103.939E-03,  -56.0180E-03,   87.5523E-03,   18.1099E-03
C:/temp/dataset/0/2_6.odb,Step-1,Increment      1: Step Time =    1.000,"PART-1-1",           521,       11.7324,      -22.7705,            0.,NA,NA,"",   109.763E-03,  -71.1547E-03,   83.5752E-03,   14.8315E-03
C:/temp/dataset/0/2_6.odb,Step-1,Increment      1: Step Time =    1.000,"PART-1-1",           522,       13.8804,      -22.6275,            0.,NA,NA,"",   167.780E-03,  -93.6540E-03,   139.209E-03,   23.6243E-03
C:/temp/dataset/0/2_6.odb,Step-1,Increment      1: Step Time =    1.000,"PART-1-1",           523,           15.,        -23.75,            0.,NA,NA,"",   160.921E-03,  -83.4557E-03,   137.589E-03,   26.9890E-03
C:/temp/dataset/0/2_6.odb,Step-1,Increment      1: Step Time =    1.000,"PART-1-1",           524,       10.4567,      -19.3679,            0.,NA,NA,"",   181.713E-03,  -162.477E-03,   81.3691E-03,   10.3809E-03
C:/temp/dataset/0/2_6.odb,Step-1,Increment      1: Step Time =    1.000,"PART-1-1",           525,       11.6911,      -20.4036,            0.,NA,NA,"",   175.547E-03,  -134.219E-03,   113.146E-03,   15.2688E-03
C:/temp/dataset/0/2_6.odb,Step-1,Increment      1: Step Time =    1.000,"PART-1-1",           526,       13.7764,      -15.1383,            0.,NA,NA,"",   497.923E-03,  -408.074E-03,   285.311E-03,   21.2123E-03
C:/temp/dataset/0/2_6.odb,Step-1,Increment      1: Step Time =    1.000,"PART-1-1",           527,           15.,        -16.25,            0.,NA,NA,"",   486.857E-03,  -357.926E-03,   330.028E-03,   27.9592E-03
C:/temp/dataset/0/2_6.odb,Step-1,Increment      1: Step Time =    1.000,"PART-1-1",           528,       13.9082,      -7.52913,            0.,NA,NA,"",       1.05369,  -979.057E-03,   389.501E-03,   13.0733E-03
C:/temp/dataset/0/2_6.odb,Step-1,Increment      1: Step Time =    1.000,"PART-1-1",           529,       12.6962,      -8.81215,            0.,NA,NA,"",   907.622E-03,  -861.222E-03,   286.488E-03,   12.0122E-03
C:/temp/dataset/0/2_6.odb,Step-1,Increment      1: Step Time =    1.000,"PART-1-1",           530,           15.,         -8.75,            0.,NA,NA,"",       1.00204,  -887.763E-03,   464.718E-03,   17.1085E-03
C:/temp/dataset/0/2_6.odb,Step-1,Increment      1: Step Time =    1.000,"PART-1-1",           531,       12.9315,      -6.39763,            0.,NA,NA,"",       1.11512,      -1.06863,   318.636E-03,   10.5487E-03
C:/temp/dataset/0/2_6.odb,Step-1,Increment      1: Step Time =    1.000,"PART-1-1",           532,           15.,         -6.25,            0.,NA,NA,"",       1.20364,      -1.09929,   490.211E-03,   13.4858E-03
C:/temp/dataset/0/2_6.odb,Step-1,Increment      1: Step Time =    1.000,"PART-1-1",           533,       13.7496,  -319.059E-03,            0.,NA,NA,"",       1.67536,      -1.62599,   403.720E-03,   5.36685E-03
C:/temp/dataset/0/2_6.odb,Step-1,Increment      1: Step Time =    1.000,"PART-1-1",           534,       12.6614,      -1.81770,            0.,NA,NA,"",       1.51254,      -1.48065,   308.949E-03,   7.37301E-03
C:/temp/dataset/0/2_6.odb,Step-1,Increment      1: Step Time =    1.000,"PART-1-1",           535,           15.,         -1.25,            0.,NA,NA,"",       1.63165,      -1.54834,   514.698E-03,   6.45153E-03
C:/temp/dataset/0/2_6.odb,Step-1,Increment      1: Step Time =    1.000,"PART-1-1",           536,       12.4054,   643.186E-03,            0.,NA,NA,"",       1.73165,      -1.70771,   286.984E-03,   6.30829E-03
C:/temp/dataset/0/2_6.odb,Step-1,Increment      1: Step Time =    1.000,"PART-1-1",           537,           15.,          1.25,            0.,NA,NA,"",       1.85079,      -1.77783,   514.530E-03,   2.94545E-03
C:/temp/dataset/0/2_6.odb,Step-1,Increment      1: Step Time =    1.000,"PART-1-1",           538,           15.,          6.25,            0.,NA,NA,"",       2.28063,      -2.22708,   491.317E-03,   4.12452E-03
C:/temp/dataset/0/2_6.odb,Step-1,Increment      1: Step Time =    1.000,"PART-1-1",           539,       10.9661,       10.0010,            0.,NA,NA,"",       2.54067,      -2.53624,   149.983E-03,   5.92212E-03
C:/temp/dataset/0/2_6.odb,Step-1,Increment      1: Step Time =    1.000,"PART-1-1",           540,       13.7311,       15.1467,            0.,NA,NA,"",       2.93803,      -2.92257,   300.970E-03,   11.2318E-03
C:/temp/dataset/0/2_6.odb,Step-1,Increment      1: Step Time =    1.000,"PART-1-1",           541,       13.6638,       12.5861,            0.,NA,NA,"",       2.75996,      -2.74063,   326.074E-03,   8.97750E-03
C:/temp/dataset/0/2_6.odb,Step-1,Increment      1: Step Time =    1.000,"PART-1-1",           542,           15.,         13.75,            0.,NA,NA,"",       2.85012,      -2.82103,   406.194E-03,   14.2203E-03
C:/temp/dataset/0/2_6.odb,Step-1,Increment      1: Step Time =    1.000,"PART-1-1",           543,       10.0887,       16.9483,            0.,NA,NA,"",       3.02470,      -3.02325,   93.4227E-03,   4.74742E-03
C:/temp/dataset/0/2_6.odb,Step-1,Increment      1: Step Time =    1.000,"PART-1-1",           544,       12.5455,       16.5489,            0.,NA,NA,"",       3.01664,      -3.00847,   221.829E-03,   6.13798E-03
C:/temp/dataset/0/2_6.odb,Step-1,Increment      1: Step Time =    1.000,"PART-1-1",           545,       13.9423,       22.5670,            0.,NA,NA,"",       3.24683,      -3.23793,   240.261E-03,   9.81346E-03
C:/temp/dataset/0/2_6.odb,Step-1,Increment      1: Step Time =    1.000,"PART-1-1",           546,       12.8310,       21.4264,            0.,NA,NA,"",       3.21776,      -3.21096,   209.067E-03,   8.90345E-03
C:/temp/dataset/0/2_6.odb,Step-1,Increment      1: Step Time =    1.000,"PART-1-1",           547,           15.,         21.25,            0.,NA,NA,"",       3.21951,      -3.20715,   281.789E-03,   14.4205E-03
C:/temp/dataset/0/2_6.odb,Step-1,Increment      1: Step Time =    1.000,"PART-1-1",           548,       13.0804,       28.7387,            0.,NA,NA,"",       3.37342,      -3.36769,   196.591E-03,   1.61378E-03
C:/temp/dataset/0/2_6.odb,Step-1,Increment      1: Step Time =    1.000,"PART-1-1",           549,       12.1875,           30.,            0.,NA,NA,"",       3.40243,      -3.39802,   173.116E-03,   1.38548E-03
C:/temp/dataset/0/2_6.odb,Step-1,Increment      1: Step Time =    1.000,"PART-1-1",           550,           15.,         28.75,            0.,NA,NA,"",       3.37766,      -3.36880,   244.426E-03,   231.521E-06
C:/temp/dataset/0/2_6.odb,Step-1,Increment      1: Step Time =    1.000,"PART-1-1",           551,       14.0625,           30.,            0.,NA,NA,"",       3.40633,      -3.39915,   221.050E-03,   247.277E-06
C:/temp/dataset/0/2_6.odb,Step-1,Increment      1: Step Time =    1.000,"PART-1-1",           552,       8.83353,       26.4105,            0.,NA,NA,"",       3.30813,      -3.30725,   76.1711E-03,   6.89049E-03
C:/temp/dataset/0/2_6.odb,Step-1,Increment      1: Step Time =    1.000,"PART-1-1",           553,       9.77062,       25.1982,            0.,NA,NA,"",       3.28830,      -3.28676,   100.471E-03,   7.87513E-03
C:/temp/dataset/0/2_6.odb,Step-1,Increment      1: Step Time =    1.000,"PART-1-1",           554,       5.62710,       27.7270,            0.,NA,NA,"",       3.31856,      -3.31856,   6.76783E-03,   5.21951E-03
C:/temp/dataset/0/2_6.odb,Step-1,Increment      1: Step Time =    1.000,"PART-1-1",           555,          6.25,           30.,            0.,NA,NA,"",       3.36775,      -3.36766,   25.4277E-03,   7.72643E-03
C:/temp/dataset/0/2_6.odb,Step-1,Increment      1: Step Time =    1.000,"PART-1-1",           556,   375.256E-03,       24.5574,            0.,NA,NA,"",       3.23204,      -3.23151,  -58.9077E-03,   10.7404E-03
C:/temp/dataset/0/2_6.odb,Step-1,Increment      1: Step Time =    1.000,"PART-1-1",           557,   860.838E-03,       23.0169,            0.,NA,NA,"",       3.19985,      -3.19933,  -57.7534E-03,   9.45646E-03
C:/temp/dataset/0/2_6.odb,Step-1,Increment      1: Step Time =    1.000,"PART-1-1",           558,       10.5910,       21.6677,            0.,NA,NA,"",       3.21504,      -3.21270,   122.728E-03,   8.54847E-03
C:/temp/dataset/0/2_6.odb,Step-1,Increment      1: Step Time =    1.000,"PART-1-1",           559,       9.14786,      -24.5495,            0.,NA,NA,"",   34.5748E-03,  -30.4951E-03,   16.2932E-03,   3.66757E-03
C:/temp/dataset/0/2_6.odb,Step-1,Increment      1: Step Time =    1.000,"PART-1-1",           560,           15.,        -21.25,            0.,NA,NA,"",   246.822E-03,  -143.225E-03,   201.016E-03,   29.4230E-03
C:/temp/dataset/0/2_6.odb,Step-1,Increment      1: Step Time =    1.000,"PART-1-1",           561,       12.7662,      -21.5126,            0.,NA,NA,"",   170.684E-03,  -110.301E-03,   130.256E-03,   19.0642E-03
C:/temp/dataset/0/2_6.odb,Step-1,Increment      1: Step Time =    1.000,"PART-1-1",           562,           15.,        -13.75,            0.,NA,NA,"",   640.589E-03,  -512.078E-03,   384.877E-03,   24.6257E-03
C:/temp/dataset/0/2_6.odb,Step-1,Increment      1: Step Time =    1.000,"PART-1-1",           563,       12.5272,      -13.9788,            0.,NA,NA,"",   523.529E-03,  -470.285E-03,   230.031E-03,   15.3475E-03
C:/temp/dataset/0/2_6.odb,Step-1,Increment      1: Step Time =    1.000,"PART-1-1",           564,           15.,         11.25,            0.,NA,NA,"",       2.67441,      -2.63791,   440.324E-03,   10.8796E-03
C:/temp/dataset/0/2_6.odb,Step-1,Increment      1: Step Time =    1.000,"PART-1-1",           565,       12.2906,       11.3331,            0.,NA,NA,"",       2.65633,      -2.64553,   239.274E-03,   6.05257E-03
C:/temp/dataset/0/2_6.odb,Step-1,Increment      1: Step Time =    1.000,"PART-1-1",           566,       7.23650,       5.28124,            0.,NA,NA,"",       2.11204,      -2.10719,  -143.131E-03,   8.99849E-03
C:/temp/dataset/0/2_6.odb,Step-1,Increment      1: Step Time =    1.000,"PART-1-1",           567,       8.44697,       3.91887,            0.,NA,NA,"",       1.99126,      -1.99074,  -45.4270E-03,   7.67386E-03
C:/temp/dataset/0/2_6.odb,Step-1,Increment      1: Step Time =    1.000,"PART-1-1",           568,       9.72373,       11.4508,            0.,NA,NA,"",       2.64826,      -2.64754,   62.0026E-03,   8.09692E-03
C:/temp/dataset/0/2_6.odb,Step-1,Increment      1: Step Time =    1.000,"PART-1-1",           569,           15.,         16.25,            0.,NA,NA,"",       3.01464,      -2.99254,   364.352E-03,   17.8089E-03
C:/temp/dataset/0/2_6.odb,Step-1,Increment      1: Step Time =    1.000,"PART-1-1",           570,       6.21850,       16.4100,            0.,NA,NA,"",       2.96902,      -2.96707,  -107.785E-03,   21.2786E-03
C:/temp/dataset/0/2_6.odb,Step-1,Increment      1: Step Time =    1.000,"PART-1-1",           571,       7.58992,       17.5073,            0.,NA,NA,"",       3.04163,      -3.04154,  -23.5308E-03,   12.5363E-03
C:/temp/dataset/0/2_6.odb,Step-1,Increment      1: Step Time =    1.000,"PART-1-1",           572,       6.37141,       19.4306,            0.,NA,NA,"",       3.12982,      -3.12943,  -49.7592E-03,   19.6924E-03
C:/temp/dataset/0/2_6.odb,Step-1,Increment      1: Step Time =    1.000,"PART-1-1",           573,            5.,       18.3333,            0.,NA,NA,"",       3.06100,      -3.05840,  -126.138E-03,   33.5406E-03
C:/temp/dataset/0/2_6.odb,Step-1,Increment      1: Step Time =    1.000,"PART-1-1",           574,           15.,         23.75,            0.,NA,NA,"",       3.26793,      -3.25780,   257.095E-03,   7.45328E-03
C:/temp/dataset/0/2_6.odb,Step-1,Increment      1: Step Time =    1.000,"PART-1-1",           575,         -3.75,          -20.,            0.,NA,NA,"",   84.5683E-03,  -78.5454E-03,   31.3437E-03,   17.7687E-03
C:/temp/dataset/0/2_6.odb,Step-1,Increment      1: Step Time =    1.000,"PART-1-1",           576,      -5.05545,      -21.0122,            0.,NA,NA,"",   97.7368E-03,  -82.8136E-03,   51.9075E-03,   19.8079E-03
C:/temp/dataset/0/2_6.odb,Step-1,Increment      1: Step Time =    1.000,"PART-1-1",           577,       7.51719,       25.3425,            0.,NA,NA,"",       3.27978,      -3.27957,   37.2054E-03,   7.18210E-03
C:/temp/dataset/0/2_6.odb,Step-1,Increment      1: Step Time =    1.000,"PART-1-1",           578,       6.22510,       24.4051,            0.,NA,NA,"",       3.25237,      -3.25237,   1.62922E-03,   9.32106E-03
C:/temp/dataset/0/2_6.odb,Step-1,Increment      1: Step Time =    1.000,"PART-1-1",           579,       7.27278,       23.2327,            0.,NA,NA,"",       3.23418,      -3.23413,   17.1048E-03,   10.0477E-03
C:/temp/dataset/0/2_6.odb,Step-1,Increment      1: Step Time =    1.000,"PART-1-1",           580,       8.56487,       24.1701,            0.,NA,NA,"",       3.26184,      -3.26129,   60.1495E-03,   9.23831E-03
C:/temp/dataset/0/2_6.odb,Step-1,Increment      1: Step Time =    1.000,"PART-1-1",           581,            5.,      -8.33333,            0.,NA,NA,"",   923.242E-03,  -875.026E-03,  -294.457E-03,   8.32503E-03
C:/temp/dataset/0/2_6.odb,Step-1,Increment      1: Step Time =    1.000,"PART-1-1",           582,       7.86568,      -7.92961,            0.,NA,NA,"",   914.121E-03,  -911.324E-03,  -71.4604E-03,   5.44223E-03
C:/temp/dataset/0/2_6.odb,Step-1,Increment      1: Step Time =    1.000,"PART-1-1",           583,       6.55300,      -6.36051,            0.,NA,NA,"",       1.05819,      -1.04213,  -183.656E-03,   4.02524E-03
C:/temp/dataset/0/2_6.odb,Step-1,Increment      1: Step Time =    1.000,"PART-1-1",           584,       2.48006,       24.7002,            0.,NA,NA,"",       3.23995,      -3.23965,  -44.0377E-03,   10.1885E-03
C:/temp/dataset/0/2_6.odb,Step-1,Increment      1: Step Time =    1.000,"PART-1-1",           585,       1.90437,       23.5201,            0.,NA,NA,"",       3.21231,      -3.21190,  -51.1984E-03,   10.6200E-03
C:/temp/dataset/0/2_6.odb,Step-1,Increment      1: Step Time =    1.000,"PART-1-1",           586,       3.20717,       23.2686,            0.,NA,NA,"",       3.21073,      -3.21042,  -44.3085E-03,   11.4665E-03
C:/temp/dataset/0/2_6.odb,Step-1,Increment      1: Step Time =    1.000,"PART-1-1",           587,       3.78286,       24.4486,            0.,NA,NA,"",       3.23917,      -3.23899,  -34.0334E-03,   10.9520E-03
C:/temp/dataset/0/2_6.odb,Step-1,Increment      1: Step Time =    1.000,"PART-1-1",           588,   574.843E-03,       25.7278,            0.,NA,NA,"",       3.25923,      -3.25874,  -56.4650E-03,   10.0527E-03
C:/temp/dataset/0/2_6.odb,Step-1,Increment      1: Step Time =    1.000,"PART-1-1",           589,       1.89275,       27.1317,            0.,NA,NA,"",       3.29267,      -3.29238,  -43.8031E-03,   8.07173E-03
C:/temp/dataset/0/2_6.odb,Step-1,Increment      1: Step Time =    1.000,"PART-1-1",           590,   743.770E-03,       27.8321,            0.,NA,NA,"",       3.30588,      -3.30544,  -54.0805E-03,   6.98206E-03
C:/temp/dataset/0/2_6.odb,Step-1,Increment      1: Step Time =    1.000,"PART-1-1",           591,  -574.133E-03,       26.4282,            0.,NA,NA,"",       3.27496,      -3.27429,  -66.2842E-03,   9.17614E-03
C:/temp/dataset/0/2_6.odb,Step-1,Increment      1: Step Time =    1.000,"PART-1-1",           592,          1.25,           30.,            0.,NA,NA,"",       3.34170,      -3.34135,  -48.4413E-03,   860.033E-06
C:/temp/dataset/0/2_6.odb,Step-1,Increment      1: Step Time =    1.000,"PART-1-1",           593,  -258.432E-03,       28.8495,            0.,NA,NA,"",       3.32587,      -3.32524,  -64.8819E-03,   4.45165E-03
C:/temp/dataset/0/2_6.odb,Step-1,Increment      1: Step Time =    1.000,"PART-1-1",           594,       3.99806,       26.6235,            0.,NA,NA,"",       3.28820,      -3.28813,  -22.1182E-03,   7.58415E-03
C:/temp/dataset/0/2_6.odb,Step-1,Increment      1: Step Time =    1.000,"PART-1-1",           595,       4.96332,       25.4314,            0.,NA,NA,"",       3.26695,      -3.26692,  -13.8243E-03,   7.81614E-03
C:/temp/dataset/0/2_6.odb,Step-1,Increment      1: Step Time =    1.000,"PART-1-1",           596,       6.59236,       26.5350,            0.,NA,NA,"",       3.29905,      -3.29898,   21.3352E-03,   6.43147E-03
C:/temp/dataset/0/2_6.odb,Step-1,Increment      1: Step Time =    1.000,"PART-1-1",           597,          -1.5,           30.,            0.,NA,NA,"",       3.34855,      -3.34754,  -82.5312E-03,   5.70869E-03
C:/temp/dataset/0/2_6.odb,Step-1,Increment      1: Step Time =    1.000,"PART-1-1",           598,      -3.21021,       28.8021,            0.,NA,NA,"",       3.33665,      -3.33497,  -105.818E-03,   7.22496E-03
C:/temp/dataset/0/2_6.odb,Step-1,Increment      1: Step Time =    1.000,"PART-1-1",           599,      -1.96864,       27.6516,            0.,NA,NA,"",       3.30541,      -3.30435,  -83.5788E-03,   6.88170E-03
C:/temp/dataset/0/2_6.odb,Step-1,Increment      1: Step Time =    1.000,"PART-1-1",           600,       2.23679,       22.3955,            0.,NA,NA,"",       3.19094,      -3.19052,  -51.9361E-03,   9.38446E-03
C:/temp/dataset/0/2_6.odb,Step-1,Increment      1: Step Time =    1.000,"PART-1-1",           601,       6.10470,      -23.0953,            0.,NA,NA,"",   62.2419E-03,  -54.2943E-03,  -30.4333E-03,   8.66500E-03
C:/temp/dataset/0/2_6.odb,Step-1,Increment      1: Step Time =    1.000,"PART-1-1",           602,       5.87020,      -25.1929,            0.,NA,NA,"",   35.0488E-03,  -30.8425E-03,  -16.6482E-03,   8.75767E-03
C:/temp/dataset/0/2_6.odb,Step-1,Increment      1: Step Time =    1.000,"PART-1-1",           603,       7.19944,      -25.3013,            0.,NA,NA,"",   25.6244E-03,  -24.5427E-03,  -7.36667E-03,   3.88529E-03
C:/temp/dataset/0/2_6.odb,Step-1,Increment      1: Step Time =    1.000,"PART-1-1",           604,       10.0350,      -14.2359,            0.,NA,NA,"",   446.429E-03,  -437.931E-03,   86.6928E-03,   8.04936E-03
C:/temp/dataset/0/2_6.odb,Step-1,Increment      1: Step Time =    1.000,"PART-1-1",           605,       11.6788,      -7.40939,            0.,NA,NA,"",   996.059E-03,  -972.247E-03,   216.493E-03,   9.45688E-03
C:/temp/dataset/0/2_6.odb,Step-1,Increment      1: Step Time =    1.000,"PART-1-1",           606,       11.2427,      -1.09783,            0.,NA,NA,"",       1.55083,      -1.53919,   189.602E-03,   7.09882E-03
C:/temp/dataset/0/2_6.odb,Step-1,Increment      1: Step Time =    1.000,"PART-1-1",           607,       7.93860,       19.8912,            0.,NA,NA,"",       3.15056,      -3.15053,   12.1094E-03,   9.63609E-03
C:/temp/dataset/0/2_6.odb,Step-1,Increment      1: Step Time =    1.000,"PART-1-1",           608,       8.98253,       18.5426,            0.,NA,NA,"",       3.09853,      -3.09818,   46.7519E-03,   6.67335E-03
C:/temp/dataset/0/2_6.odb,Step-1,Increment      1: Step Time =    1.000,"PART-1-1",           609,       9.31070,       20.7205,            0.,NA,NA,"",       3.18251,      -3.18174,   69.9815E-03,   7.79942E-03
C:/temp/dataset/0/2_6.odb,Step-1,Increment      1: Step Time =    1.000,"PART-1-1",           610,       3.88086,       22.5675,            0.,NA,NA,"",       3.19797,      -3.19767,  -43.9250E-03,   13.0013E-03
C:/temp/dataset/0/2_6.odb,Step-1,Increment      1: Step Time =    1.000,"PART-1-1",           611,       2.67965,       25.8706,            0.,NA,NA,"",       3.26701,      -3.26677,  -38.9084E-03,   9.35548E-03
C:/temp/dataset/0/2_6.odb,Step-1,Increment      1: Step Time =    1.000,"PART-1-1",           612,            5.,          -15.,            0.,NA,NA,"",   442.432E-03,  -394.372E-03,  -200.542E-03,   17.8181E-03
C:/temp/dataset/0/2_6.odb,Step-1,Increment      1: Step Time =    1.000,"PART-1-1",           613,       6.27023,      -16.3841,            0.,NA,NA,"",   318.702E-03,  -302.173E-03,  -101.304E-03,   14.2182E-03
C:/temp/dataset/0/2_6.odb,Step-1,Increment      1: Step Time =    1.000,"PART-1-1",           614,       7.51616,      -14.5750,            0.,NA,NA,"",   415.020E-03,  -411.472E-03,  -54.1510E-03,   8.77577E-03
C:/temp/dataset/0/2_6.odb,Step-1,Increment      1: Step Time =    1.000,"PART-1-1",           615,       6.15302,       13.2331,            0.,NA,NA,"",       2.76012,      -2.75531,  -162.878E-03,   18.5645E-03
C:/temp/dataset/0/2_6.odb,Step-1,Increment      1: Step Time =    1.000,"PART-1-1",           616,       7.37153,       14.6431,            0.,NA,NA,"",       2.86614,      -2.86532,  -68.7841E-03,   15.2730E-03
C:/temp/dataset/0/2_6.odb,Step-1,Increment      1: Step Time =    1.000,"PART-1-1",           617,            5.,           15.,            0.,NA,NA,"",       2.87012,      -2.86259,  -207.677E-03,   25.1833E-03
C:/temp/dataset/0/2_6.odb,Step-1,Increment      1: Step Time =    1.000,"PART-1-1",           618,            5.,       11.6667,            0.,NA,NA,"",       2.63970,      -2.62619,  -266.657E-03,   20.2626E-03
C:/temp/dataset/0/2_6.odb,Step-1,Increment      1: Step Time =    1.000,"PART-1-1",           619,       6.12690,       10.0064,            0.,NA,NA,"",       2.51485,      -2.50667,  -202.729E-03,   14.8712E-03
C:/temp/dataset/0/2_6.odb,Step-1,Increment      1: Step Time =    1.000,"PART-1-1",           620,       7.27992,       11.5729,            0.,NA,NA,"",       2.64368,      -2.64162,  -104.425E-03,   13.4819E-03
C:/temp/dataset/0/2_6.odb,Step-1,Increment      1: Step Time =    1.000,"PART-1-1",           621,       6.15632,   278.618E-03,            0.,NA,NA,"",       1.65816,      -1.64041,  -242.031E-03,   4.44959E-03
C:/temp/dataset/0/2_6.odb,Step-1,Increment      1: Step Time =    1.000,"PART-1-1",           622,            5.,      -1.66667,            0.,NA,NA,"",       1.49532,      -1.45573,  -341.790E-03,   1.12966E-03
C:/temp/dataset/0/2_6.odb,Step-1,Increment      1: Step Time =    1.000,"PART-1-1",           623,       6.25252,      -2.97068,            0.,NA,NA,"",       1.36128,      -1.34240,  -225.954E-03,   2.55763E-03
C:/temp/dataset/0/2_6.odb,Step-1,Increment      1: Step Time =    1.000,"PART-1-1",           624,       7.67955,      -17.4721,            0.,NA,NA,"",   237.855E-03,  -236.828E-03,  -22.0790E-03,   8.52898E-03
C:/temp/dataset/0/2_6.odb,Step-1,Increment      1: Step Time =    1.000,"PART-1-1",           625,            5.,      -18.3333,            0.,NA,NA,"",   241.305E-03,  -204.075E-03,  -128.768E-03,   29.1453E-03
C:/temp/dataset/0/2_6.odb,Step-1,Increment      1: Step Time =    1.000,"PART-1-1",           626,       6.40932,      -19.4213,            0.,NA,NA,"",   144.966E-03,  -135.075E-03,  -52.6300E-03,   19.3392E-03
C:/temp/dataset/0/2_6.odb,Step-1,Increment      1: Step Time =    1.000,"PART-1-1",           627,      -1.73152,      -24.7018,            0.,NA,NA,"",   50.6563E-03,  -49.8555E-03,   8.97147E-03,   10.2910E-03
C:/temp/dataset/0/2_6.odb,Step-1,Increment      1: Step Time =    1.000,"PART-1-1",           628,       9.06065,      -18.5206,            0.,NA,NA,"",   193.279E-03,  -190.318E-03,   33.6983E-03,   7.72347E-03
C:/temp/dataset/0/2_6.odb,Step-1,Increment      1: Step Time =    1.000,"PART-1-1",           629,       8.80686,      -15.8614,            0.,NA,NA,"",   332.407E-03,  -331.677E-03,   22.0141E-03,   7.08439E-03
C:/temp/dataset/0/2_6.odb,Step-1,Increment      1: Step Time =    1.000,"PART-1-1",           630,       10.3171,      -8.61722,            0.,NA,NA,"",   869.789E-03,  -862.513E-03,   112.268E-03,   7.93951E-03
C:/temp/dataset/0/2_6.odb,Step-1,Increment      1: Step Time =    1.000,"PART-1-1",           631,       8.85917,      -9.88939,            0.,NA,NA,"",   753.312E-03,  -753.260E-03,   8.79035E-03,   5.77516E-03
C:/temp/dataset/0/2_6.odb,Step-1,Increment      1: Step Time =    1.000,"PART-1-1",           632,       8.74431,      -12.9496,            0.,NA,NA,"",   522.551E-03,  -522.456E-03,   9.94048E-03,   6.00691E-03
C:/temp/dataset/0/2_6.odb,Step-1,Increment      1: Step Time =    1.000,"PART-1-1",           633,       6.89786,       21.2129,            0.,NA,NA,"",       3.18621,      -3.18619,  -12.4480E-03,   13.5108E-03
C:/temp/dataset/0/2_6.odb,Step-1,Increment      1: Step Time =    1.000,"PART-1-1",           634,       10.2659,      -2.76771,            0.,NA,NA,"",       1.38350,      -1.37919,   109.082E-03,   7.68512E-03
C:/temp/dataset/0/2_6.odb,Step-1,Increment      1: Step Time =    1.000,"PART-1-1",           635,       7.80552,      -4.33119,            0.,NA,NA,"",       1.22853,      -1.22522,  -90.0512E-03,   5.35094E-03
C:/temp/dataset/0/2_6.odb,Step-1,Increment      1: Step Time =    1.000,"PART-1-1",           636,            5.,           -5.,            0.,NA,NA,"",       1.20181,      -1.15720,  -324.413E-03,   3.57505E-03
C:/temp/dataset/0/2_6.odb,Step-1,Increment      1: Step Time =    1.000,"PART-1-1",           637,       7.27801,       2.13112,            0.,NA,NA,"",       1.82439,      -1.81863,  -144.892E-03,   6.97963E-03
C:/temp/dataset/0/2_6.odb,Step-1,Increment      1: Step Time =    1.000,"PART-1-1",           638,       6.12168,       3.51917,            0.,NA,NA,"",       1.95414,      -1.93903,  -242.561E-03,   7.69606E-03
C:/temp/dataset/0/2_6.odb,Step-1,Increment      1: Step Time =    1.000,"PART-1-1",           639,            5.,       1.66667,            0.,NA,NA,"",       1.79485,      -1.76125,  -345.671E-03,   5.77491E-03
C:/temp/dataset/0/2_6.odb,Step-1,Increment      1: Step Time =    1.000,"PART-1-1",           640,            5.,            5.,            0.,NA,NA,"",       2.09158,      -2.06454,  -335.194E-03,   10.4782E-03
C:/temp/dataset/0/2_6.odb,Step-1,Increment      1: Step Time =    1.000,"PART-1-1",           641,       6.11481,       6.76207,            0.,NA,NA,"",       2.24246,      -2.23069,  -229.506E-03,   11.2065E-03
C:/temp/dataset/0/2_6.odb,Step-1,Increment      1: Step Time =    1.000,"PART-1-1",           642,       8.53738,       13.0133,            0.,NA,NA,"",       2.75944,      -2.75942,  -10.6876E-03,   11.0513E-03
C:/temp/dataset/0/2_6.odb,Step-1,Increment      1: Step Time =    1.000,"PART-1-1",           643,       8.69606,       15.9130,            0.,NA,NA,"",       2.95619,      -2.95614,   17.0735E-03,   11.3911E-03
C:/temp/dataset/0/2_6.odb,Step-1,Increment      1: Step Time =    1.000,"PART-1-1",           644,       9.56938,       22.9454,            0.,NA,NA,"",       3.24123,      -3.24004,   87.7457E-03,   9.59818E-03
C:/temp/dataset/0/2_6.odb,Step-1,Increment      1: Step Time =    1.000,"PART-1-1",           645,       8.28908,       21.9981,            0.,NA,NA,"",       3.21275,      -3.21251,   38.5299E-03,   10.3530E-03
C:/temp/dataset/0/2_6.odb,Step-1,Increment      1: Step Time =    1.000,"PART-1-1",           646,      -3.61415,       26.3795,            0.,NA,NA,"",       3.27913,      -3.27744,  -105.066E-03,   7.08274E-03
C:/temp/dataset/0/2_6.odb,Step-1,Increment      1: Step Time =    1.000,"PART-1-1",           647,      -6.18563,       28.7596,            0.,NA,NA,"",       3.35695,      -3.35240,  -174.812E-03,   8.25422E-03
C:/temp/dataset/0/2_6.odb,Step-1,Increment      1: Step Time =    1.000,"PART-1-1",           648,      -4.89584,       27.5617,            0.,NA,NA,"",       3.31595,      -3.31315,  -136.153E-03,   5.38546E-03
C:/temp/dataset/0/2_6.odb,Step-1,Increment      1: Step Time =    1.000,"PART-1-1",           649,          -4.5,           30.,            0.,NA,NA,"",       3.37353,      -3.37075,  -136.969E-03,   10.2361E-03
C:/temp/dataset/0/2_6.odb,Step-1,Increment      1: Step Time =    1.000,"PART-1-1",           650,          -15.,          19.5,            0.,NA,NA,"",       3.05922,      -3.00717,  -561.918E-03,   14.2611E-03
C:/temp/dataset/0/2_6.odb,Step-1,Increment      1: Step Time =    1.000,"PART-1-1",           651,      -13.6835,       18.2834,            0.,NA,NA,"",       2.99179,      -2.94937,  -502.029E-03,   10.2225E-03
C:/temp/dataset/0/2_6.odb,Step-1,Increment      1: Step Time =    1.000,"PART-1-1",           652,      -12.3643,       20.0316,            0.,NA,NA,"",       3.07946,      -3.05051,  -421.294E-03,   5.88729E-03
C:/temp/dataset/0/2_6.odb,Step-1,Increment      1: Step Time =    1.000,"PART-1-1",           653,      -13.6808,       21.2481,            0.,NA,NA,"",       3.13803,      -3.10105,  -480.336E-03,   9.59769E-03
C:/temp/dataset/0/2_6.odb,Step-1,Increment      1: Step Time =    1.000,"PART-1-1",           654,      -6.08047,      -19.7739,            0.,NA,NA,"",   120.207E-03,  -108.865E-03,   50.9718E-03,   18.7537E-03
C:/temp/dataset/0/2_6.odb,Step-1,Increment      1: Step Time =    1.000,"PART-1-1",           655,      -7.17803,      -20.6070,            0.,NA,NA,"",   93.1383E-03,  -90.2753E-03,   22.9152E-03,   6.38144E-03
C:/temp/dataset/0/2_6.odb,Step-1,Increment      1: Step Time =    1.000,"PART-1-1",           656,       5.87583,      -21.1387,            0.,NA,NA,"",   98.6104E-03,  -84.3526E-03,  -51.0749E-03,   14.1457E-03
C:/temp/dataset/0/2_6.odb,Step-1,Increment      1: Step Time =    1.000,"PART-1-1",           657,       4.61047,      -23.6002,            0.,NA,NA,"",   63.7314E-03,  -55.1659E-03,  -31.9127E-03,   12.1406E-03
C:/temp/dataset/0/2_6.odb,Step-1,Increment      1: Step Time =    1.000,"PART-1-1",           658,       4.56928,      -26.4448,            0.,NA,NA,"",   27.7380E-03,  -24.6981E-03,  -12.6254E-03,   7.92521E-03
C:/temp/dataset/0/2_6.odb,Step-1,Increment      1: Step Time =    1.000,"PART-1-1",           659,       5.04464,       23.4223,            0.,NA,NA,"",       3.22349,      -3.22338,  -26.5286E-03,   11.3582E-03
C:/temp/dataset/0/2_6.odb,Step-1,Increment      1: Step Time =    1.000,"PART-1-1",           660,       5.88156,       22.4475,            0.,NA,NA,"",       3.20780,      -3.20772,  -22.8074E-03,   14.0877E-03
C:/temp/dataset/0/2_6.odb,Step-1,Increment      1: Step Time =    1.000,"PART-1-1",           661,      -1.61333,      -27.2257,            0.,NA,NA,"",   26.4414E-03,  -26.2383E-03,   3.27048E-03,   7.59365E-03
C:/temp/dataset/0/2_6.odb,Step-1,Increment      1: Step Time =    1.000,"PART-1-1",           662,      -3.01002,      -28.6350,            0.,NA,NA,"",   11.4386E-03,  -11.2557E-03,   2.03743E-03,   6.44966E-03
C:/temp/dataset/0/2_6.odb,Step-1,Increment      1: Step Time =    1.000,"PART-1-1",           663,          -1.5,          -30.,            0.,NA,NA,"",            0.,  -7.78364E-39,   786.241E-42,   6.23748E-03
C:/temp/dataset/0/2_6.odb,Step-1,Increment      1: Step Time =    1.000,"PART-1-1",           664,            5.,       8.33333,            0.,NA,NA,"",       2.37634,      -2.35611,  -309.405E-03,   15.3206E-03
C:/temp/dataset/0/2_6.odb,Step-1,Increment      1: Step Time =    1.000,"PART-1-1",           665,       8.16766,      -19.9578,            0.,NA,NA,"",   124.806E-03,  -124.795E-03,   1.64235E-03,   6.09280E-03
C:/temp/dataset/0/2_6.odb,Step-1,Increment      1: Step Time =    1.000,"PART-1-1",           666,       7.85169,      -26.8977,            0.,NA,NA,"",   9.00400E-03,  -8.99069E-03,   489.387E-06,   2.90321E-03
C:/temp/dataset/0/2_6.odb,Step-1,Increment      1: Step Time =    1.000,"PART-1-1",           667,          -4.5,          -30.,            0.,NA,NA,"",            0.,  -3.96850E-39,   1.89116E-39,   3.49406E-03
C:/temp/dataset/0/2_6.odb,Step-1,Increment      1: Step Time =    1.000,"PART-1-1",           668,      -7.38541,       11.9129,            0.,NA,NA,"",       2.51642,      -2.51528,  -75.5485E-03,   10.5682E-03
C:/temp/dataset/0/2_6.odb,Step-1,Increment      1: Step Time =    1.000,"PART-1-1",           669,      -9.84369,       11.4885,            0.,NA,NA,"",       2.49536,      -2.48276,  -250.508E-03,   6.92633E-03
C:/temp/dataset/0/2_6.odb,Step-1,Increment      1: Step Time =    1.000,"PART-1-1",           670,           -5.,      -18.4615,            0.,NA,NA,"",   208.785E-03,  -179.403E-03,   106.798E-03,   28.7738E-03
C:/temp/dataset/0/2_6.odb,Step-1,Increment      1: Step Time =    1.000,"PART-1-1",           671,      -6.12192,      -16.9214,            0.,NA,NA,"",   257.867E-03,  -243.462E-03,   84.9794E-03,   14.8448E-03
C:/temp/dataset/0/2_6.odb,Step-1,Increment      1: Step Time =    1.000,"PART-1-1",           672,      -12.3453,      -25.6066,            0.,NA,NA,"",   57.5892E-03,  -25.9680E-03,  -51.4021E-03,   14.4377E-03
C:/temp/dataset/0/2_6.odb,Step-1,Increment      1: Step Time =    1.000,"PART-1-1",           673,      -10.6437,      -26.7860,            0.,NA,NA,"",   23.0552E-03,  -9.34726E-03,  -21.0754E-03,   8.32187E-03
C:/temp/dataset/0/2_6.odb,Step-1,Increment      1: Step Time =    1.000,"PART-1-1",           674,      -9.83114,      -25.4438,            0.,NA,NA,"",   28.1677E-03,  -19.0169E-03,  -20.7793E-03,   5.79891E-03
C:/temp/dataset/0/2_6.odb,Step-1,Increment      1: Step Time =    1.000,"PART-1-1",           675,      -8.43320,      -25.2132,            0.,NA,NA,"",   22.1117E-03,  -21.4308E-03,  -5.44500E-03,   2.20554E-03
C:/temp/dataset/0/2_6.odb,Step-1,Increment      1: Step Time =    1.000,"PART-1-1",           676,      -9.78639,       17.5920,            0.,NA,NA,"",       2.93895,      -2.92530,  -282.954E-03,   4.81196E-03
C:/temp/dataset/0/2_6.odb,Step-1,Increment      1: Step Time =    1.000,"PART-1-1",           677,      -11.0716,       18.8358,            0.,NA,NA,"",       3.01511,      -2.99404,  -355.819E-03,   3.68074E-03
C:/temp/dataset/0/2_6.odb,Step-1,Increment      1: Step Time =    1.000,"PART-1-1",           678,      -12.3675,       17.0640,            0.,NA,NA,"",       2.91496,      -2.88278,  -431.946E-03,   5.45499E-03
C:/temp/dataset/0/2_6.odb,Step-1,Increment      1: Step Time =    1.000,"PART-1-1",           679,      -12.1189,      -19.2948,            0.,NA,NA,"",   199.849E-03,  -151.027E-03,  -130.883E-03,   14.5200E-03
C:/temp/dataset/0/2_6.odb,Step-1,Increment      1: Step Time =    1.000,"PART-1-1",           680,      -11.0109,      -17.4013,            0.,NA,NA,"",   245.619E-03,  -218.521E-03,  -112.149E-03,   10.2778E-03
C:/temp/dataset/0/2_6.odb,Step-1,Increment      1: Step Time =    1.000,"PART-1-1",           681,      -8.01079,      -21.5107,            0.,NA,NA,"",   72.3336E-03,  -72.2786E-03,   2.82208E-03,   3.32990E-03
C:/temp/dataset/0/2_6.odb,Step-1,Increment      1: Step Time =    1.000,"PART-1-1",           682,           4.5,          -30.,            0.,NA,NA,"",            0.,  -3.79235E-39,  -3.51743E-39,   3.63771E-03
C:/temp/dataset/0/2_6.odb,Step-1,Increment      1: Step Time =    1.000,"PART-1-1",           683,       6.14133,      -28.2363,            0.,NA,NA,"",   6.45804E-03,  -5.75802E-03,  -2.92429E-03,   4.21376E-03
C:/temp/dataset/0/2_6.odb,Step-1,Increment      1: Step Time =    1.000,"PART-1-1",           684,      -9.14726,       28.6966,            0.,NA,NA,"",       3.37787,      -3.36662,  -275.425E-03,   6.51866E-03
C:/temp/dataset/0/2_6.odb,Step-1,Increment      1: Step Time =    1.000,"PART-1-1",           685,         -10.5,           30.,            0.,NA,NA,"",       3.43460,      -3.41852,  -331.961E-03,   4.99863E-03
C:/temp/dataset/0/2_6.odb,Step-1,Increment      1: Step Time =    1.000,"PART-1-1",           686,      -6.18127,      -10.8771,            0.,NA,NA,"",   624.043E-03,  -609.311E-03,   134.794E-03,   8.92854E-03
C:/temp/dataset/0/2_6.odb,Step-1,Increment      1: Step Time =    1.000,"PART-1-1",           687,      -6.16241,      -13.9212,            0.,NA,NA,"",   427.192E-03,  -411.392E-03,   115.109E-03,   11.7453E-03
C:/temp/dataset/0/2_6.odb,Step-1,Increment      1: Step Time =    1.000,"PART-1-1",           688,           -5.,      -12.3077,            0.,NA,NA,"",   558.199E-03,  -521.161E-03,   199.943E-03,   14.0467E-03
C:/temp/dataset/0/2_6.odb,Step-1,Increment      1: Step Time =    1.000,"PART-1-1",           689,         -10.5,          -30.,            0.,NA,NA,"",            0.,   2.34380E-39,  -16.9951E-39,   7.37738E-03
C:/temp/dataset/0/2_6.odb,Step-1,Increment      1: Step Time =    1.000,"PART-1-1",           690,          -15.,          22.5,            0.,NA,NA,"",       3.19130,      -3.14720,  -528.668E-03,   11.0056E-03
C:/temp/dataset/0/2_6.odb,Step-1,Increment      1: Step Time =    1.000,"PART-1-1",           691,          -15.,          16.5,            0.,NA,NA,"",       2.89231,      -2.83015,  -596.425E-03,   13.5914E-03
C:/temp/dataset/0/2_6.odb,Step-1,Increment      1: Step Time =    1.000,"PART-1-1",           692,      -13.6840,       15.2806,            0.,NA,NA,"",       2.80589,      -2.75721,  -520.368E-03,   8.45853E-03
C:/temp/dataset/0/2_6.odb,Step-1,Increment      1: Step Time =    1.000,"PART-1-1",           693,          -15.,          13.5,            0.,NA,NA,"",       2.69259,      -2.61970,  -622.265E-03,   10.4213E-03
C:/temp/dataset/0/2_6.odb,Step-1,Increment      1: Step Time =    1.000,"PART-1-1",           694,      -6.20685,       4.43382,            0.,NA,NA,"",       1.88696,      -1.88427,   100.744E-03,   6.08668E-03
C:/temp/dataset/0/2_6.odb,Step-1,Increment      1: Step Time =    1.000,"PART-1-1",           695,           -5.,       6.15385,            0.,NA,NA,"",       2.04344,      -2.03483,   187.338E-03,   8.34521E-03
C:/temp/dataset/0/2_6.odb,Step-1,Increment      1: Step Time =    1.000,"PART-1-1",           696,      -6.20051,      -1.69203,            0.,NA,NA,"",       1.35112,      -1.34379,   140.513E-03,   2.17045E-03
C:/temp/dataset/0/2_6.odb,Step-1,Increment      1: Step Time =    1.000,"PART-1-1",           697,      -6.19850,      -4.75722,            0.,NA,NA,"",       1.09210,      -1.08208,   147.563E-03,   3.68062E-03
C:/temp/dataset/0/2_6.odb,Step-1,Increment      1: Step Time =    1.000,"PART-1-1",           698,           -5.,      -3.07692,            0.,NA,NA,"",       1.25368,      -1.22955,   244.789E-03,   3.08774E-03
C:/temp/dataset/0/2_6.odb,Step-1,Increment      1: Step Time =    1.000,"PART-1-1",           699,      -12.3926,       7.99194,            0.,NA,NA,"",       2.22743,      -2.18644,  -425.315E-03,   4.44165E-03
C:/temp/dataset/0/2_6.odb,Step-1,Increment      1: Step Time =    1.000,"PART-1-1",           700,          -15.,           7.5,            0.,NA,NA,"",       2.22737,      -2.13407,  -637.902E-03,   2.73913E-03
C:/temp/dataset/0/2_6.odb,Step-1,Increment      1: Step Time =    1.000,"PART-1-1",           701,      -12.4166,      -1.07984,            0.,NA,NA,"",       1.43325,      -1.38559,  -366.510E-03,   7.23506E-03
C:/temp/dataset/0/2_6.odb,Step-1,Increment      1: Step Time =    1.000,"PART-1-1",           702,          -15.,          -1.5,            0.,NA,NA,"",       1.46756,      -1.34826,  -579.591E-03,   8.50180E-03
C:/temp/dataset/0/2_6.odb,Step-1,Increment      1: Step Time =    1.000,"PART-1-1",           703,      -12.3992,      -10.1184,            0.,NA,NA,"",   706.011E-03,  -653.679E-03,  -266.749E-03,   11.7786E-03
C:/temp/dataset/0/2_6.odb,Step-1,Increment      1: Step Time =    1.000,"PART-1-1",           704,          -15.,         -10.5,            0.,NA,NA,"",   774.166E-03,  -638.931E-03,  -437.151E-03,   19.6037E-03
C:/temp/dataset/0/2_6.odb,Step-1,Increment      1: Step Time =    1.000,"PART-1-1",           705,      -6.19567,      -7.82333,            0.,NA,NA,"",   847.427E-03,  -834.836E-03,   145.540E-03,   6.21336E-03
C:/temp/dataset/0/2_6.odb,Step-1,Increment      1: Step Time =    1.000,"PART-1-1",           706,           -5.,      -6.15385,            0.,NA,NA,"",       1.00348,  -973.945E-03,   241.668E-03,   6.85190E-03
C:/temp/dataset/0/2_6.odb,Step-1,Increment      1: Step Time =    1.000,"PART-1-1",           707,          -15.,         -22.5,            0.,NA,NA,"",   178.044E-03,  -93.1502E-03,  -151.732E-03,   25.2941E-03
C:/temp/dataset/0/2_6.odb,Step-1,Increment      1: Step Time =    1.000,"PART-1-1",           708,      -13.7480,      -24.0946,            0.,NA,NA,"",   110.364E-03,  -54.3154E-03,  -96.0735E-03,   19.7107E-03
C:/temp/dataset/0/2_6.odb,Step-1,Increment      1: Step Time =    1.000,"PART-1-1",           709,      -13.4685,      -20.9699,            0.,NA,NA,"",   184.039E-03,  -111.929E-03,  -146.090E-03,   20.3855E-03
C:/temp/dataset/0/2_6.odb,Step-1,Increment      1: Step Time =    1.000,"PART-1-1",           710,          -15.,         -25.5,            0.,NA,NA,"",   100.176E-03,  -49.0323E-03,  -87.3564E-03,   22.7610E-03
C:/temp/dataset/0/2_6.odb,Step-1,Increment      1: Step Time =    1.000,"PART-1-1",           711,           7.5,          -30.,            0.,NA,NA,"",            0.,   1.29163E-39,   3.15725E-39,   1.65227E-03
C:/temp/dataset/0/2_6.odb,Step-1,Increment      1: Step Time =    1.000,"PART-1-1",           712,       9.21036,      -28.6615,            0.,NA,NA,"",   4.66028E-03,   1.00653E-03,   4.55028E-03,   4.32163E-03
C:/temp/dataset/0/2_6.odb,Step-1,Increment      1: Step Time =    1.000,"PART-1-1",           713,          10.5,          -30.,            0.,NA,NA,"",            0.,   2.90668E-39,   18.1888E-39,   7.78807E-03
C:/temp/dataset/0/2_6.odb,Step-1,Increment      1: Step Time =    1.000,"PART-1-1",           714,          -7.5,           30.,            0.,NA,NA,"",       3.40674,      -3.39952,  -221.617E-03,   9.65641E-03
C:/temp/dataset/0/2_6.odb,Step-1,Increment      1: Step Time =    1.000,"PART-1-1",           715,          -15.,         -19.5,            0.,NA,NA,"",   282.298E-03,  -170.433E-03,  -225.044E-03,   27.1629E-03
C:/temp/dataset/0/2_6.odb,Step-1,Increment      1: Step Time =    1.000,"PART-1-1",           716,      -6.18713,       13.6475,            0.,NA,NA,"",       2.64470,      -2.64468,  -11.1863E-03,   14.3098E-03
C:/temp/dataset/0/2_6.odb,Step-1,Increment      1: Step Time =    1.000,"PART-1-1",           717,           -5.,       15.3846,            0.,NA,NA,"",       2.76397,      -2.76361,   44.8301E-03,   19.2163E-03
C:/temp/dataset/0/2_6.odb,Step-1,Increment      1: Step Time =    1.000,"PART-1-1",           718,           -5.,       12.3077,            0.,NA,NA,"",       2.54099,      -2.53904,   99.4784E-03,   15.5396E-03
C:/temp/dataset/0/2_6.odb,Step-1,Increment      1: Step Time =    1.000,"PART-1-1",           719,           -5.,            0.,            0.,NA,NA,"",       1.51452,      -1.49595,   236.423E-03,   760.739E-06
C:/temp/dataset/0/2_6.odb,Step-1,Increment      1: Step Time =    1.000,"PART-1-1",           720,      -6.20706,       1.36812,            0.,NA,NA,"",       1.61781,      -1.61302,   124.415E-03,   3.54807E-03
C:/temp/dataset/0/2_6.odb,Step-1,Increment      1: Step Time =    1.000,"PART-1-1",           721,           -5.,       3.07692,            0.,NA,NA,"",       1.77985,      -1.76656,   217.085E-03,   4.55834E-03
C:/temp/dataset/0/2_6.odb,Step-1,Increment      1: Step Time =    1.000,"PART-1-1",           722,           -5.,      -9.23077,            0.,NA,NA,"",   769.955E-03,  -735.782E-03,   226.841E-03,   10.5617E-03
C:/temp/dataset/0/2_6.odb,Step-1,Increment      1: Step Time =    1.000,"PART-1-1",           723,      -8.78100,      -23.2553,            0.,NA,NA,"",   45.2892E-03,  -43.7055E-03,  -11.8716E-03,   2.77238E-03
C:/temp/dataset/0/2_6.odb,Step-1,Increment      1: Step Time =    1.000,"PART-1-1",           724,      -11.0900,      -14.4409,            0.,NA,NA,"",   396.841E-03,  -370.168E-03,  -143.034E-03,   9.38822E-03
C:/temp/dataset/0/2_6.odb,Step-1,Increment      1: Step Time =    1.000,"PART-1-1",           725,      -11.1215,      -11.4552,            0.,NA,NA,"",   583.684E-03,  -557.912E-03,  -171.526E-03,   8.83139E-03
C:/temp/dataset/0/2_6.odb,Step-1,Increment      1: Step Time =    1.000,"PART-1-1",           726,      -11.1359,      -8.44257,            0.,NA,NA,"",   800.517E-03,  -775.308E-03,  -199.309E-03,   8.30380E-03
C:/temp/dataset/0/2_6.odb,Step-1,Increment      1: Step Time =    1.000,"PART-1-1",           727,      -11.1177,       9.73479,            0.,NA,NA,"",       2.36113,      -2.33734,  -334.320E-03,   5.31378E-03
C:/temp/dataset/0/2_6.odb,Step-1,Increment      1: Step Time =    1.000,"PART-1-1",           728,      -11.1376,       6.69211,            0.,NA,NA,"",       2.10119,      -2.07687,  -318.794E-03,   5.62093E-03
C:/temp/dataset/0/2_6.odb,Step-1,Increment      1: Step Time =    1.000,"PART-1-1",           729,      -11.1470,       3.65829,            0.,NA,NA,"",       1.83310,      -1.80845,  -299.573E-03,   6.05003E-03
C:/temp/dataset/0/2_6.odb,Step-1,Increment      1: Step Time =    1.000,"PART-1-1",           730,           -5.,      -15.3846,            0.,NA,NA,"",   373.921E-03,  -336.612E-03,   162.817E-03,   17.9140E-03
C:/temp/dataset/0/2_6.odb,Step-1,Increment      1: Step Time =    1.000,"PART-1-1",           731,      -11.1521,   627.191E-03,            0.,NA,NA,"",       1.56269,      -1.53786,  -277.472E-03,   6.56920E-03
C:/temp/dataset/0/2_6.odb,Step-1,Increment      1: Step Time =    1.000,"PART-1-1",           732,      -11.1477,      -2.39557,            0.,NA,NA,"",       1.29665,      -1.27179,  -252.691E-03,   7.13572E-03
C:/temp/dataset/0/2_6.odb,Step-1,Increment      1: Step Time =    1.000,"PART-1-1",           733,      -11.1389,      -5.41444,            0.,NA,NA,"",       1.04081,      -1.01593,  -226.219E-03,   7.71460E-03
