ODB Name,Step,Frame,Part Instance Name,    êﬂì_ÉâÉxÉã,X,Y,Z,Section Name,Material Name,Section Point,   U-Magnitude,          U-U1,          U-U2,       S-Mises
C:/temp/dataset/0/3_6.odb,Step-1,Increment      1: Step Time =    1.000,"PART-1-1",             1,            5.,           20.,            0.,NA,NA,"",       2.64326,      -2.64324,  -11.3306E-03,   20.2378E-03
C:/temp/dataset/0/3_6.odb,Step-1,Increment      1: Step Time =    1.000,"PART-1-1",             2,            0.,           20.,            0.,NA,NA,"",       2.62603,      -2.62601,  -8.96045E-03,   7.07133E-03
C:/temp/dataset/0/3_6.odb,Step-1,Increment      1: Step Time =    1.000,"PART-1-1",             3,            5.,           10.,            0.,NA,NA,"",       2.28073,      -2.27109,  -209.495E-03,   22.6250E-03
C:/temp/dataset/0/3_6.odb,Step-1,Increment      1: Step Time =    1.000,"PART-1-1",             4,            5.,            0.,            0.,NA,NA,"",       1.57040,      -1.53727,  -320.897E-03,   7.03494E-03
C:/temp/dataset/0/3_6.odb,Step-1,Increment      1: Step Time =    1.000,"PART-1-1",             5,            5.,          -10.,            0.,NA,NA,"",   778.910E-03,  -728.193E-03,  -276.470E-03,   9.52591E-03
C:/temp/dataset/0/3_6.odb,Step-1,Increment      1: Step Time =    1.000,"PART-1-1",             6,            5.,          -20.,            0.,NA,NA,"",   129.314E-03,  -102.050E-03,  -79.4220E-03,   33.7019E-03
C:/temp/dataset/0/3_6.odb,Step-1,Increment      1: Step Time =    1.000,"PART-1-1",             7,            0.,          -20.,            0.,NA,NA,"",   58.7994E-03,  -58.7622E-03,  -2.09219E-03,   1.20494E-03
C:/temp/dataset/0/3_6.odb,Step-1,Increment      1: Step Time =    1.000,"PART-1-1",             8,           -5.,          -20.,            0.,NA,NA,"",   101.725E-03,  -85.3113E-03,   55.4073E-03,   28.5081E-03
C:/temp/dataset/0/3_6.odb,Step-1,Increment      1: Step Time =    1.000,"PART-1-1",             9,           -5.,           20.,            0.,NA,NA,"",       2.56277,      -2.56269,  -20.5406E-03,   32.1728E-03
C:/temp/dataset/0/3_6.odb,Step-1,Increment      1: Step Time =    1.000,"PART-1-1",            10,           15.,           30.,            0.,NA,NA,"",       2.78156,      -2.77691,   160.754E-03,   153.609E-06
C:/temp/dataset/0/3_6.odb,Step-1,Increment      1: Step Time =    1.000,"PART-1-1",            11,           7.5,           30.,            0.,NA,NA,"",       2.76658,      -2.76594,   59.5361E-03,   3.51661E-03
C:/temp/dataset/0/3_6.odb,Step-1,Increment      1: Step Time =    1.000,"PART-1-1",            12,            0.,           30.,            0.,NA,NA,"",       2.76105,      -2.76104,  -5.01135E-03,   4.98070E-03
C:/temp/dataset/0/3_6.odb,Step-1,Increment      1: Step Time =    1.000,"PART-1-1",            13,          -15.,           30.,            0.,NA,NA,"",       2.86523,      -2.83986,  -380.442E-03,   414.953E-06
C:/temp/dataset/0/3_6.odb,Step-1,Increment      1: Step Time =    1.000,"PART-1-1",            14,          -15.,          -30.,            0.,NA,NA,"",            0.,  -7.32095E-39,  -13.0767E-39,   20.6741E-03
C:/temp/dataset/0/3_6.odb,Step-1,Increment      1: Step Time =    1.000,"PART-1-1",            15,           15.,          -30.,            0.,NA,NA,"",            0.,  -8.47418E-39,   15.9534E-39,   25.8243E-03
C:/temp/dataset/0/3_6.odb,Step-1,Increment      1: Step Time =    1.000,"PART-1-1",            16,           15.,         -22.5,            0.,NA,NA,"",   189.141E-03,  -103.907E-03,   158.044E-03,   26.9772E-03
C:/temp/dataset/0/3_6.odb,Step-1,Increment      1: Step Time =    1.000,"PART-1-1",            17,           15.,          -15.,            0.,NA,NA,"",   536.533E-03,  -419.717E-03,   334.224E-03,   23.7631E-03
C:/temp/dataset/0/3_6.odb,Step-1,Increment      1: Step Time =    1.000,"PART-1-1",            18,           15.,          -7.5,            0.,NA,NA,"",       1.05198,  -959.282E-03,   431.778E-03,   10.9476E-03
C:/temp/dataset/0/3_6.odb,Step-1,Increment      1: Step Time =    1.000,"PART-1-1",            19,           15.,            0.,            0.,NA,NA,"",       1.63770,      -1.57789,   438.552E-03,   1.22542E-03
C:/temp/dataset/0/3_6.odb,Step-1,Increment      1: Step Time =    1.000,"PART-1-1",            20,           15.,           7.5,            0.,NA,NA,"",       2.19149,      -2.15998,   370.281E-03,   13.3254E-03
C:/temp/dataset/0/3_6.odb,Step-1,Increment      1: Step Time =    1.000,"PART-1-1",            21,           15.,           15.,            0.,NA,NA,"",       2.54722,      -2.53510,   248.172E-03,   15.7604E-03
C:/temp/dataset/0/3_6.odb,Step-1,Increment      1: Step Time =    1.000,"PART-1-1",            22,           15.,          22.5,            0.,NA,NA,"",       2.68939,      -2.68373,   174.267E-03,   5.99704E-03
C:/temp/dataset/0/3_6.odb,Step-1,Increment      1: Step Time =    1.000,"PART-1-1",            23,       3.33333,           20.,            0.,NA,NA,"",       2.64388,      -2.64388,   1.97345E-03,   4.93005E-03
C:/temp/dataset/0/3_6.odb,Step-1,Increment      1: Step Time =    1.000,"PART-1-1",            24,       1.66667,           20.,            0.,NA,NA,"",       2.63610,      -2.63610,  -1.25099E-03,   6.08342E-03
C:/temp/dataset/0/3_6.odb,Step-1,Increment      1: Step Time =    1.000,"PART-1-1",            25,            5.,       13.3333,            0.,NA,NA,"",       2.44264,      -2.43841,  -143.837E-03,   23.1748E-03
C:/temp/dataset/0/3_6.odb,Step-1,Increment      1: Step Time =    1.000,"PART-1-1",            26,            5.,       16.6667,            0.,NA,NA,"",       2.56005,      -2.55879,  -80.1302E-03,   21.2527E-03
C:/temp/dataset/0/3_6.odb,Step-1,Increment      1: Step Time =    1.000,"PART-1-1",            27,            5.,       3.33333,            0.,NA,NA,"",       1.83219,      -1.80707,  -302.342E-03,   12.7884E-03
C:/temp/dataset/0/3_6.odb,Step-1,Increment      1: Step Time =    1.000,"PART-1-1",            28,            5.,       6.66667,            0.,NA,NA,"",       2.07366,      -2.05668,  -264.764E-03,   18.4876E-03
C:/temp/dataset/0/3_6.odb,Step-1,Increment      1: Step Time =    1.000,"PART-1-1",            29,            5.,      -6.66667,            0.,NA,NA,"",       1.03340,  -986.885E-03,  -306.555E-03,   3.96064E-03
C:/temp/dataset/0/3_6.odb,Step-1,Increment      1: Step Time =    1.000,"PART-1-1",            30,            5.,      -3.33333,            0.,NA,NA,"",       1.30057,      -1.26009,  -321.944E-03,   1.55874E-03
C:/temp/dataset/0/3_6.odb,Step-1,Increment      1: Step Time =    1.000,"PART-1-1",            31,            5.,      -16.6667,            0.,NA,NA,"",   338.186E-03,  -288.907E-03,  -175.792E-03,   20.8696E-03
C:/temp/dataset/0/3_6.odb,Step-1,Increment      1: Step Time =    1.000,"PART-1-1",            32,            5.,      -13.3333,            0.,NA,NA,"",   545.442E-03,  -493.757E-03,  -231.756E-03,   14.2981E-03
C:/temp/dataset/0/3_6.odb,Step-1,Increment      1: Step Time =    1.000,"PART-1-1",            33,           2.5,          -20.,            0.,NA,NA,"",   67.4327E-03,  -63.2829E-03,  -23.2903E-03,   9.00646E-03
C:/temp/dataset/0/3_6.odb,Step-1,Increment      1: Step Time =    1.000,"PART-1-1",            34,          -2.5,          -20.,            0.,NA,NA,"",   61.7837E-03,  -59.3361E-03,   17.2175E-03,   7.69456E-03
C:/temp/dataset/0/3_6.odb,Step-1,Increment      1: Step Time =    1.000,"PART-1-1",            35,           -5.,       16.9231,            0.,NA,NA,"",       2.38007,      -2.37953,   50.9293E-03,   17.5651E-03
C:/temp/dataset/0/3_6.odb,Step-1,Increment      1: Step Time =    1.000,"PART-1-1",            36,           -5.,       13.8462,            0.,NA,NA,"",       2.19895,      -2.19688,   95.5574E-03,   13.1934E-03
C:/temp/dataset/0/3_6.odb,Step-1,Increment      1: Step Time =    1.000,"PART-1-1",            37,           -5.,       10.7692,            0.,NA,NA,"",       2.00510,      -2.00051,   135.503E-03,   10.7163E-03
C:/temp/dataset/0/3_6.odb,Step-1,Increment      1: Step Time =    1.000,"PART-1-1",            38,           -5.,       7.69231,            0.,NA,NA,"",       1.79858,      -1.79070,   168.161E-03,   7.68930E-03
C:/temp/dataset/0/3_6.odb,Step-1,Increment      1: Step Time =    1.000,"PART-1-1",            39,           -5.,       4.61538,            0.,NA,NA,"",       1.58339,      -1.57157,   193.157E-03,   4.64282E-03
C:/temp/dataset/0/3_6.odb,Step-1,Increment      1: Step Time =    1.000,"PART-1-1",            40,           -5.,       1.53846,            0.,NA,NA,"",       1.36452,      -1.34828,   209.897E-03,   1.54370E-03
C:/temp/dataset/0/3_6.odb,Step-1,Increment      1: Step Time =    1.000,"PART-1-1",            41,           -5.,      -1.53846,            0.,NA,NA,"",       1.14700,      -1.12611,   217.953E-03,   1.57401E-03
C:/temp/dataset/0/3_6.odb,Step-1,Increment      1: Step Time =    1.000,"PART-1-1",            42,           -5.,      -4.61538,            0.,NA,NA,"",   935.863E-03,  -910.367E-03,   216.961E-03,   4.66414E-03
C:/temp/dataset/0/3_6.odb,Step-1,Increment      1: Step Time =    1.000,"PART-1-1",            43,           -5.,      -7.69231,            0.,NA,NA,"",   736.011E-03,  -706.407E-03,   206.640E-03,   7.69695E-03
C:/temp/dataset/0/3_6.odb,Step-1,Increment      1: Step Time =    1.000,"PART-1-1",            44,           -5.,      -10.7692,            0.,NA,NA,"",   552.117E-03,  -519.499E-03,   186.960E-03,   10.7411E-03
C:/temp/dataset/0/3_6.odb,Step-1,Increment      1: Step Time =    1.000,"PART-1-1",            45,           -5.,      -13.8462,            0.,NA,NA,"",   387.829E-03,  -354.321E-03,   157.696E-03,   13.4004E-03
C:/temp/dataset/0/3_6.odb,Step-1,Increment      1: Step Time =    1.000,"PART-1-1",            46,           -5.,      -16.9231,            0.,NA,NA,"",   244.529E-03,  -212.491E-03,   121.004E-03,   17.6424E-03
C:/temp/dataset/0/3_6.odb,Step-1,Increment      1: Step Time =    1.000,"PART-1-1",            47,          -2.5,           20.,            0.,NA,NA,"",       2.60660,      -2.60650,  -23.8063E-03,   13.1057E-03
C:/temp/dataset/0/3_6.odb,Step-1,Increment      1: Step Time =    1.000,"PART-1-1",            48,        13.125,           30.,            0.,NA,NA,"",       2.78009,      -2.77678,   135.686E-03,   255.947E-06
C:/temp/dataset/0/3_6.odb,Step-1,Increment      1: Step Time =    1.000,"PART-1-1",            49,         11.25,           30.,            0.,NA,NA,"",       2.77762,      -2.77546,   109.359E-03,   1.37223E-03
C:/temp/dataset/0/3_6.odb,Step-1,Increment      1: Step Time =    1.000,"PART-1-1",            50,         9.375,           30.,            0.,NA,NA,"",       2.77298,      -2.77173,   83.2194E-03,   2.71845E-03
C:/temp/dataset/0/3_6.odb,Step-1,Increment      1: Step Time =    1.000,"PART-1-1",            51,            5.,           30.,            0.,NA,NA,"",       2.75836,      -2.75815,   34.1295E-03,   2.62279E-03
C:/temp/dataset/0/3_6.odb,Step-1,Increment      1: Step Time =    1.000,"PART-1-1",            52,           2.5,           30.,            0.,NA,NA,"",       2.75520,      -2.75516,   14.5364E-03,   586.460E-06
C:/temp/dataset/0/3_6.odb,Step-1,Increment      1: Step Time =    1.000,"PART-1-1",            53,           -3.,           30.,            0.,NA,NA,"",       2.78082,      -2.78053,  -40.1820E-03,   9.35262E-03
C:/temp/dataset/0/3_6.odb,Step-1,Increment      1: Step Time =    1.000,"PART-1-1",            54,           -6.,           30.,            0.,NA,NA,"",       2.80954,      -2.80778,  -99.3500E-03,   10.2891E-03
C:/temp/dataset/0/3_6.odb,Step-1,Increment      1: Step Time =    1.000,"PART-1-1",            55,           -9.,           30.,            0.,NA,NA,"",       2.83682,      -2.83082,  -184.486E-03,   6.80396E-03
C:/temp/dataset/0/3_6.odb,Step-1,Increment      1: Step Time =    1.000,"PART-1-1",            56,          -12.,           30.,            0.,NA,NA,"",       2.85471,      -2.84059,  -283.604E-03,   1.77116E-03
C:/temp/dataset/0/3_6.odb,Step-1,Increment      1: Step Time =    1.000,"PART-1-1",            57,          -15.,           27.,            0.,NA,NA,"",       2.77418,      -2.74805,  -379.873E-03,   1.78391E-03
C:/temp/dataset/0/3_6.odb,Step-1,Increment      1: Step Time =    1.000,"PART-1-1",            58,          -15.,           24.,            0.,NA,NA,"",       2.68659,      -2.65811,  -390.122E-03,   7.02983E-03
C:/temp/dataset/0/3_6.odb,Step-1,Increment      1: Step Time =    1.000,"PART-1-1",            59,          -15.,           21.,            0.,NA,NA,"",       2.58713,      -2.55374,  -414.328E-03,   11.5187E-03
C:/temp/dataset/0/3_6.odb,Step-1,Increment      1: Step Time =    1.000,"PART-1-1",            60,          -15.,           18.,            0.,NA,NA,"",       2.46200,      -2.42144,  -445.094E-03,   12.4764E-03
C:/temp/dataset/0/3_6.odb,Step-1,Increment      1: Step Time =    1.000,"PART-1-1",            61,          -15.,           15.,            0.,NA,NA,"",       2.30803,      -2.25921,  -472.221E-03,   10.4424E-03
C:/temp/dataset/0/3_6.odb,Step-1,Increment      1: Step Time =    1.000,"PART-1-1",            62,          -15.,           12.,            0.,NA,NA,"",       2.13065,      -2.07347,  -490.301E-03,   7.28898E-03
C:/temp/dataset/0/3_6.odb,Step-1,Increment      1: Step Time =    1.000,"PART-1-1",            63,          -15.,            9.,            0.,NA,NA,"",       1.93689,      -1.87159,  -498.692E-03,   4.11069E-03
C:/temp/dataset/0/3_6.odb,Step-1,Increment      1: Step Time =    1.000,"PART-1-1",            64,          -15.,            6.,            0.,NA,NA,"",       1.73256,      -1.65947,  -497.938E-03,   1.02834E-03
C:/temp/dataset/0/3_6.odb,Step-1,Increment      1: Step Time =    1.000,"PART-1-1",            65,          -15.,            3.,            0.,NA,NA,"",       1.52273,      -1.44222,  -488.573E-03,   2.04081E-03
C:/temp/dataset/0/3_6.odb,Step-1,Increment      1: Step Time =    1.000,"PART-1-1",            66,          -15.,            0.,            0.,NA,NA,"",       1.31220,      -1.22476,  -471.000E-03,   5.06313E-03
C:/temp/dataset/0/3_6.odb,Step-1,Increment      1: Step Time =    1.000,"PART-1-1",            67,          -15.,           -3.,            0.,NA,NA,"",       1.10570,      -1.01193,  -445.599E-03,   8.07890E-03
C:/temp/dataset/0/3_6.odb,Step-1,Increment      1: Step Time =    1.000,"PART-1-1",            68,          -15.,           -6.,            0.,NA,NA,"",   907.796E-03,  -808.555E-03,  -412.714E-03,   11.0889E-03
C:/temp/dataset/0/3_6.odb,Step-1,Increment      1: Step Time =    1.000,"PART-1-1",            69,          -15.,           -9.,            0.,NA,NA,"",   722.862E-03,  -619.413E-03,  -372.634E-03,   14.1096E-03
C:/temp/dataset/0/3_6.odb,Step-1,Increment      1: Step Time =    1.000,"PART-1-1",            70,          -15.,          -12.,            0.,NA,NA,"",   554.882E-03,  -449.366E-03,  -325.521E-03,   17.1794E-03
C:/temp/dataset/0/3_6.odb,Step-1,Increment      1: Step Time =    1.000,"PART-1-1",            71,          -15.,          -15.,            0.,NA,NA,"",   407.485E-03,  -303.821E-03,  -271.545E-03,   20.1076E-03
C:/temp/dataset/0/3_6.odb,Step-1,Increment      1: Step Time =    1.000,"PART-1-1",            72,          -15.,          -18.,            0.,NA,NA,"",   283.818E-03,  -188.636E-03,  -212.060E-03,   21.9891E-03
C:/temp/dataset/0/3_6.odb,Step-1,Increment      1: Step Time =    1.000,"PART-1-1",            73,          -15.,          -21.,            0.,NA,NA,"",   185.905E-03,  -107.935E-03,  -151.363E-03,   21.5162E-03
C:/temp/dataset/0/3_6.odb,Step-1,Increment      1: Step Time =    1.000,"PART-1-1",            74,          -15.,          -24.,            0.,NA,NA,"",   111.938E-03,  -58.0348E-03,  -95.7192E-03,   19.0532E-03
C:/temp/dataset/0/3_6.odb,Step-1,Increment      1: Step Time =    1.000,"PART-1-1",            75,          -15.,          -27.,            0.,NA,NA,"",   55.5321E-03,  -28.8450E-03,  -47.4530E-03,   18.0737E-03
C:/temp/dataset/0/3_6.odb,Step-1,Increment      1: Step Time =    1.000,"PART-1-1",            76,          -12.,          -30.,            0.,NA,NA,"",            0.,  -6.70242E-39,  -20.1288E-39,   7.78782E-03
C:/temp/dataset/0/3_6.odb,Step-1,Increment      1: Step Time =    1.000,"PART-1-1",            77,           -9.,          -30.,            0.,NA,NA,"",            0.,   3.97513E-39,  -6.82902E-39,   3.08942E-03
C:/temp/dataset/0/3_6.odb,Step-1,Increment      1: Step Time =    1.000,"PART-1-1",            78,           -6.,          -30.,            0.,NA,NA,"",            0.,  -2.38657E-39,  -142.477E-42,   2.11736E-03
C:/temp/dataset/0/3_6.odb,Step-1,Increment      1: Step Time =    1.000,"PART-1-1",            79,           -3.,          -30.,            0.,NA,NA,"",            0.,  -6.50838E-39,   4.77231E-39,   5.51763E-03
C:/temp/dataset/0/3_6.odb,Step-1,Increment      1: Step Time =    1.000,"PART-1-1",            80,            0.,          -30.,            0.,NA,NA,"",            0.,  -6.85803E-39,   1.39924E-39,   6.98999E-03
C:/temp/dataset/0/3_6.odb,Step-1,Increment      1: Step Time =    1.000,"PART-1-1",            81,            3.,          -30.,            0.,NA,NA,"",            0.,  -7.33587E-39,  -10.5576E-39,   5.77096E-03
C:/temp/dataset/0/3_6.odb,Step-1,Increment      1: Step Time =    1.000,"PART-1-1",            82,            6.,          -30.,            0.,NA,NA,"",            0.,  -1.42386E-39,  -4.53383E-39,   2.10692E-03
C:/temp/dataset/0/3_6.odb,Step-1,Increment      1: Step Time =    1.000,"PART-1-1",            83,            9.,          -30.,            0.,NA,NA,"",            0.,   4.59900E-39,   7.11798E-39,   3.66878E-03
C:/temp/dataset/0/3_6.odb,Step-1,Increment      1: Step Time =    1.000,"PART-1-1",            84,           12.,          -30.,            0.,NA,NA,"",            0.,  -5.08031E-39,   24.0736E-39,   9.90160E-03
C:/temp/dataset/0/3_6.odb,Step-1,Increment      1: Step Time =    1.000,"PART-1-1",            85,           15.,         -27.5,            0.,NA,NA,"",   58.7301E-03,  -30.4050E-03,   50.2470E-03,   23.2754E-03
C:/temp/dataset/0/3_6.odb,Step-1,Increment      1: Step Time =    1.000,"PART-1-1",            86,           15.,          -25.,            0.,NA,NA,"",   116.516E-03,  -57.9556E-03,   101.080E-03,   24.0005E-03
C:/temp/dataset/0/3_6.odb,Step-1,Increment      1: Step Time =    1.000,"PART-1-1",            87,           15.,          -20.,            0.,NA,NA,"",   282.139E-03,  -177.088E-03,   219.642E-03,   28.2802E-03
C:/temp/dataset/0/3_6.odb,Step-1,Increment      1: Step Time =    1.000,"PART-1-1",            88,           15.,         -17.5,            0.,NA,NA,"",   398.257E-03,  -282.804E-03,   280.411E-03,   27.0626E-03
C:/temp/dataset/0/3_6.odb,Step-1,Increment      1: Step Time =    1.000,"PART-1-1",            89,           15.,         -12.5,            0.,NA,NA,"",   693.994E-03,  -582.261E-03,   377.623E-03,   19.5174E-03
C:/temp/dataset/0/3_6.odb,Step-1,Increment      1: Step Time =    1.000,"PART-1-1",            90,           15.,          -10.,            0.,NA,NA,"",   867.048E-03,  -763.987E-03,   409.996E-03,   15.1826E-03
C:/temp/dataset/0/3_6.odb,Step-1,Increment      1: Step Time =    1.000,"PART-1-1",            91,           15.,           -5.,            0.,NA,NA,"",       1.24484,      -1.16316,   443.472E-03,   6.82892E-03
C:/temp/dataset/0/3_6.odb,Step-1,Increment      1: Step Time =    1.000,"PART-1-1",            92,           15.,          -2.5,            0.,NA,NA,"",       1.44150,      -1.37091,   445.570E-03,   2.80047E-03
C:/temp/dataset/0/3_6.odb,Step-1,Increment      1: Step Time =    1.000,"PART-1-1",            93,           15.,           2.5,            0.,NA,NA,"",       1.82947,      -1.77985,   423.171E-03,   5.04695E-03
C:/temp/dataset/0/3_6.odb,Step-1,Increment      1: Step Time =    1.000,"PART-1-1",            94,           15.,            5.,            0.,NA,NA,"",       2.01319,      -1.97309,   399.798E-03,   8.79430E-03
C:/temp/dataset/0/3_6.odb,Step-1,Increment      1: Step Time =    1.000,"PART-1-1",            95,           15.,           10.,            0.,NA,NA,"",       2.34686,      -2.32359,   329.664E-03,   16.9919E-03
C:/temp/dataset/0/3_6.odb,Step-1,Increment      1: Step Time =    1.000,"PART-1-1",            96,           15.,          12.5,            0.,NA,NA,"",       2.46594,      -2.44898,   288.729E-03,   17.8561E-03
C:/temp/dataset/0/3_6.odb,Step-1,Increment      1: Step Time =    1.000,"PART-1-1",            97,           15.,          17.5,            0.,NA,NA,"",       2.60476,      -2.59565,   217.686E-03,   12.5047E-03
C:/temp/dataset/0/3_6.odb,Step-1,Increment      1: Step Time =    1.000,"PART-1-1",            98,           15.,           20.,            0.,NA,NA,"",       2.65271,      -2.64575,   191.967E-03,   9.50882E-03
C:/temp/dataset/0/3_6.odb,Step-1,Increment      1: Step Time =    1.000,"PART-1-1",            99,           15.,           25.,            0.,NA,NA,"",       2.71993,      -2.71495,   164.458E-03,   2.70413E-03
C:/temp/dataset/0/3_6.odb,Step-1,Increment      1: Step Time =    1.000,"PART-1-1",           100,           15.,          27.5,            0.,NA,NA,"",       2.74955,      -2.74483,   161.053E-03,   453.396E-06
C:/temp/dataset/0/3_6.odb,Step-1,Increment      1: Step Time =    1.000,"PART-1-1",           101,       3.77421,       21.6807,            0.,NA,NA,"",       2.65342,      -2.65341,   6.56660E-03,   9.48804E-03
C:/temp/dataset/0/3_6.odb,Step-1,Increment      1: Step Time =    1.000,"PART-1-1",           102,   339.763E-03,       22.0764,            0.,NA,NA,"",       2.64599,      -2.64599,  -1.82580E-03,   7.14091E-03
C:/temp/dataset/0/3_6.odb,Step-1,Increment      1: Step Time =    1.000,"PART-1-1",           103,       2.04677,       21.7082,            0.,NA,NA,"",       2.64862,      -2.64861,   3.69380E-03,   5.46636E-03
C:/temp/dataset/0/3_6.odb,Step-1,Increment      1: Step Time =    1.000,"PART-1-1",           104,       11.0234,       27.4901,            0.,NA,NA,"",       2.74555,      -2.74355,   104.863E-03,   2.72941E-03
C:/temp/dataset/0/3_6.odb,Step-1,Increment      1: Step Time =    1.000,"PART-1-1",           105,       8.98111,       27.5559,            0.,NA,NA,"",       2.74206,      -2.74103,   75.1547E-03,   2.74104E-03
C:/temp/dataset/0/3_6.odb,Step-1,Increment      1: Step Time =    1.000,"PART-1-1",           106,      -4.39315,       22.5924,            0.,NA,NA,"",       2.63501,      -2.63476,  -36.5581E-03,   9.71475E-03
C:/temp/dataset/0/3_6.odb,Step-1,Increment      1: Step Time =    1.000,"PART-1-1",           107,       12.7609,      -22.7550,            0.,NA,NA,"",   125.702E-03,  -75.5745E-03,   100.447E-03,   17.3147E-03
C:/temp/dataset/0/3_6.odb,Step-1,Increment      1: Step Time =    1.000,"PART-1-1",           108,       12.5528,      -15.2766,            0.,NA,NA,"",   426.734E-03,  -378.940E-03,   196.230E-03,   14.5770E-03
C:/temp/dataset/0/3_6.odb,Step-1,Increment      1: Step Time =    1.000,"PART-1-1",           109,       12.2205,       7.28465,            0.,NA,NA,"",       2.15131,      -2.14309,   187.821E-03,   8.03751E-03
C:/temp/dataset/0/3_6.odb,Step-1,Increment      1: Step Time =    1.000,"PART-1-1",           110,       12.4622,       15.2934,            0.,NA,NA,"",       2.55426,      -2.54907,   162.750E-03,   7.48711E-03
C:/temp/dataset/0/3_6.odb,Step-1,Increment      1: Step Time =    1.000,"PART-1-1",           111,       12.8846,       22.6339,            0.,NA,NA,"",       2.69302,      -2.68941,   139.382E-03,   5.06595E-03
C:/temp/dataset/0/3_6.odb,Step-1,Increment      1: Step Time =    1.000,"PART-1-1",           112,  -340.860E-03,      -22.2697,            0.,NA,NA,"",   63.9262E-03,  -63.9244E-03,  -472.402E-06,   7.04031E-03
C:/temp/dataset/0/3_6.odb,Step-1,Increment      1: Step Time =    1.000,"PART-1-1",           113,       6.83628,       27.6500,            0.,NA,NA,"",       2.73771,      -2.73727,   48.7415E-03,   2.55843E-03
C:/temp/dataset/0/3_6.odb,Step-1,Increment      1: Step Time =    1.000,"PART-1-1",           114,       12.2535,       9.99399,            0.,NA,NA,"",       2.32699,      -2.32027,   176.727E-03,   5.92904E-03
C:/temp/dataset/0/3_6.odb,Step-1,Increment      1: Step Time =    1.000,"PART-1-1",           115,       12.4991,  -638.118E-03,            0.,NA,NA,"",       1.53665,      -1.51713,   244.114E-03,   5.66452E-03
C:/temp/dataset/0/3_6.odb,Step-1,Increment      1: Step Time =    1.000,"PART-1-1",           116,       12.8164,      -7.55827,            0.,NA,NA,"",   976.410E-03,  -939.348E-03,   266.460E-03,   8.99878E-03
C:/temp/dataset/0/3_6.odb,Step-1,Increment      1: Step Time =    1.000,"PART-1-1",           117,       12.7714,      -20.2702,            0.,NA,NA,"",   199.686E-03,  -143.373E-03,   138.992E-03,   17.6984E-03
C:/temp/dataset/0/3_6.odb,Step-1,Increment      1: Step Time =    1.000,"PART-1-1",           118,      -1.80101,       22.4804,            0.,NA,NA,"",       2.64272,      -2.64268,  -13.8999E-03,   10.7023E-03
C:/temp/dataset/0/3_6.odb,Step-1,Increment      1: Step Time =    1.000,"PART-1-1",           119,       4.41791,       27.8041,            0.,NA,NA,"",       2.73419,      -2.73405,   27.2426E-03,   3.58890E-03
C:/temp/dataset/0/3_6.odb,Step-1,Increment      1: Step Time =    1.000,"PART-1-1",           120,       2.00441,       27.9652,            0.,NA,NA,"",       2.73433,      -2.73431,   11.6783E-03,   4.68640E-03
C:/temp/dataset/0/3_6.odb,Step-1,Increment      1: Step Time =    1.000,"PART-1-1",           121,      -2.69107,      -22.1951,            0.,NA,NA,"",   64.4784E-03,  -62.2398E-03,   16.8423E-03,   11.0582E-03
C:/temp/dataset/0/3_6.odb,Step-1,Increment      1: Step Time =    1.000,"PART-1-1",           122,       1.88995,      -22.5465,            0.,NA,NA,"",   65.5459E-03,  -62.8143E-03,  -18.7253E-03,   12.5601E-03
C:/temp/dataset/0/3_6.odb,Step-1,Increment      1: Step Time =    1.000,"PART-1-1",           123,       3.76320,      -23.2871,            0.,NA,NA,"",   67.4203E-03,  -59.7059E-03,  -31.3162E-03,   13.8365E-03
C:/temp/dataset/0/3_6.odb,Step-1,Increment      1: Step Time =    1.000,"PART-1-1",           124,       12.5645,      -25.1614,            0.,NA,NA,"",   70.0992E-03,  -34.2168E-03,   61.1810E-03,   16.0238E-03
C:/temp/dataset/0/3_6.odb,Step-1,Increment      1: Step Time =    1.000,"PART-1-1",           125,       12.6631,      -17.7963,            0.,NA,NA,"",   297.402E-03,  -243.293E-03,   171.044E-03,   16.6480E-03
C:/temp/dataset/0/3_6.odb,Step-1,Increment      1: Step Time =    1.000,"PART-1-1",           126,       12.5016,      -12.6810,            0.,NA,NA,"",   588.980E-03,  -547.583E-03,   216.909E-03,   12.5657E-03
C:/temp/dataset/0/3_6.odb,Step-1,Increment      1: Step Time =    1.000,"PART-1-1",           127,       12.5761,      -10.0660,            0.,NA,NA,"",   777.303E-03,  -739.772E-03,   238.616E-03,   10.7456E-03
C:/temp/dataset/0/3_6.odb,Step-1,Increment      1: Step Time =    1.000,"PART-1-1",           128,       13.0467,      -5.23700,            0.,NA,NA,"",       1.16838,      -1.13202,   289.215E-03,   7.15054E-03
C:/temp/dataset/0/3_6.odb,Step-1,Increment      1: Step Time =    1.000,"PART-1-1",           129,       12.8236,      -2.99729,            0.,NA,NA,"",       1.34729,      -1.31938,   272.846E-03,   5.93409E-03
C:/temp/dataset/0/3_6.odb,Step-1,Increment      1: Step Time =    1.000,"PART-1-1",           130,       12.3116,       1.92449,            0.,NA,NA,"",       1.74334,      -1.72919,   221.696E-03,   5.77801E-03
C:/temp/dataset/0/3_6.odb,Step-1,Increment      1: Step Time =    1.000,"PART-1-1",           131,       12.2319,       4.58053,            0.,NA,NA,"",       1.95127,      -1.94064,   203.413E-03,   6.71841E-03
C:/temp/dataset/0/3_6.odb,Step-1,Increment      1: Step Time =    1.000,"PART-1-1",           132,       12.3276,       12.6723,            0.,NA,NA,"",       2.46186,      -2.45602,   169.467E-03,   5.40020E-03
C:/temp/dataset/0/3_6.odb,Step-1,Increment      1: Step Time =    1.000,"PART-1-1",           133,       12.6288,       17.8043,            0.,NA,NA,"",       2.61582,      -2.61128,   154.087E-03,   7.48071E-03
C:/temp/dataset/0/3_6.odb,Step-1,Increment      1: Step Time =    1.000,"PART-1-1",           134,       12.7774,       20.2190,            0.,NA,NA,"",       2.66000,      -2.65601,   145.678E-03,   6.31326E-03
C:/temp/dataset/0/3_6.odb,Step-1,Increment      1: Step Time =    1.000,"PART-1-1",           135,       2.42682,       23.0828,            0.,NA,NA,"",       2.66541,      -2.66540,   7.41542E-03,   7.23523E-03
C:/temp/dataset/0/3_6.odb,Step-1,Increment      1: Step Time =    1.000,"PART-1-1",           136,       13.0358,       27.4773,            0.,NA,NA,"",       2.74798,      -2.74468,   134.718E-03,   1.80571E-03
C:/temp/dataset/0/3_6.odb,Step-1,Increment      1: Step Time =    1.000,"PART-1-1",           137,       10.8553,       25.1313,            0.,NA,NA,"",       2.71930,      -2.71741,   101.187E-03,   4.16130E-03
C:/temp/dataset/0/3_6.odb,Step-1,Increment      1: Step Time =    1.000,"PART-1-1",           138,       5.66135,       21.5046,            0.,NA,NA,"",       2.65988,      -2.65987,   7.88958E-03,   12.0618E-03
C:/temp/dataset/0/3_6.odb,Step-1,Increment      1: Step Time =    1.000,"PART-1-1",           139,       1.38191,       23.9574,            0.,NA,NA,"",       2.67464,      -2.67464,   5.59995E-03,   7.53833E-03
C:/temp/dataset/0/3_6.odb,Step-1,Increment      1: Step Time =    1.000,"PART-1-1",           140,       8.68595,       25.2651,            0.,NA,NA,"",       2.71573,      -2.71491,   66.9008E-03,   4.11966E-03
C:/temp/dataset/0/3_6.odb,Step-1,Increment      1: Step Time =    1.000,"PART-1-1",           141,       12.9664,       25.0396,            0.,NA,NA,"",       2.72048,      -2.71708,   135.811E-03,   3.50499E-03
C:/temp/dataset/0/3_6.odb,Step-1,Increment      1: Step Time =    1.000,"PART-1-1",           142,       9.99676,      -12.8506,            0.,NA,NA,"",   527.624E-03,  -523.063E-03,   69.2247E-03,   7.81853E-03
C:/temp/dataset/0/3_6.odb,Step-1,Increment      1: Step Time =    1.000,"PART-1-1",           143,       11.3735,      -5.41139,            0.,NA,NA,"",       1.12139,      -1.10925,   164.518E-03,   7.79689E-03
C:/temp/dataset/0/3_6.odb,Step-1,Increment      1: Step Time =    1.000,"PART-1-1",           144,       9.95511,       15.6727,            0.,NA,NA,"",       2.55867,      -2.55765,   72.3330E-03,   4.92453E-03
C:/temp/dataset/0/3_6.odb,Step-1,Increment      1: Step Time =    1.000,"PART-1-1",           145,       9.67875,       10.0081,            0.,NA,NA,"",       2.30971,      -2.30935,   41.0938E-03,   7.09108E-03
C:/temp/dataset/0/3_6.odb,Step-1,Increment      1: Step Time =    1.000,"PART-1-1",           146,       9.74913,       1.24671,            0.,NA,NA,"",       1.66594,      -1.66550,   38.5439E-03,   7.97094E-03
C:/temp/dataset/0/3_6.odb,Step-1,Increment      1: Step Time =    1.000,"PART-1-1",           147,       10.3027,      -18.1986,            0.,NA,NA,"",   219.194E-03,  -206.926E-03,   72.3005E-03,   8.76706E-03
C:/temp/dataset/0/3_6.odb,Step-1,Increment      1: Step Time =    1.000,"PART-1-1",           148,       1.33525,      -24.5624,            0.,NA,NA,"",   52.0945E-03,  -50.5934E-03,  -12.4159E-03,   11.3655E-03
C:/temp/dataset/0/3_6.odb,Step-1,Increment      1: Step Time =    1.000,"PART-1-1",           149,       9.11730,      -22.7103,            0.,NA,NA,"",   58.1518E-03,  -56.2215E-03,   14.8589E-03,   4.38463E-03
C:/temp/dataset/0/3_6.odb,Step-1,Increment      1: Step Time =    1.000,"PART-1-1",           150,       12.2648,      -27.5617,            0.,NA,NA,"",   28.9130E-03,  -10.1545E-03,   27.0711E-03,   14.1423E-03
C:/temp/dataset/0/3_6.odb,Step-1,Increment      1: Step Time =    1.000,"PART-1-1",           151,       10.6108,      -20.5371,            0.,NA,NA,"",   134.767E-03,  -117.244E-03,   66.4530E-03,   10.0832E-03
C:/temp/dataset/0/3_6.odb,Step-1,Increment      1: Step Time =    1.000,"PART-1-1",           152,       10.0930,      -9.97392,            0.,NA,NA,"",   738.493E-03,  -734.731E-03,   74.4488E-03,   7.98234E-03
C:/temp/dataset/0/3_6.odb,Step-1,Increment      1: Step Time =    1.000,"PART-1-1",           153,       9.63546,       7.06865,            0.,NA,NA,"",       2.11931,      -2.11908,   31.2851E-03,   8.24116E-03
C:/temp/dataset/0/3_6.odb,Step-1,Increment      1: Step Time =    1.000,"PART-1-1",           154,       10.2222,       18.2240,            0.,NA,NA,"",       2.62369,      -2.62232,   84.5158E-03,   5.49845E-03
C:/temp/dataset/0/3_6.odb,Step-1,Increment      1: Step Time =    1.000,"PART-1-1",           155,       10.5456,      -3.97788,            0.,NA,NA,"",       1.23105,      -1.22673,   103.079E-03,   7.90308E-03
C:/temp/dataset/0/3_6.odb,Step-1,Increment      1: Step Time =    1.000,"PART-1-1",           156,       10.0733,      -15.6212,            0.,NA,NA,"",   350.688E-03,  -343.389E-03,   71.1783E-03,   9.02586E-03
C:/temp/dataset/0/3_6.odb,Step-1,Increment      1: Step Time =    1.000,"PART-1-1",           157,       10.5412,      -7.26051,            0.,NA,NA,"",   958.100E-03,  -952.369E-03,   104.642E-03,   8.08406E-03
C:/temp/dataset/0/3_6.odb,Step-1,Increment      1: Step Time =    1.000,"PART-1-1",           158,       9.98625,      -1.55753,            0.,NA,NA,"",       1.43151,      -1.43030,   58.8534E-03,   7.87942E-03
C:/temp/dataset/0/3_6.odb,Step-1,Increment      1: Step Time =    1.000,"PART-1-1",           159,       9.65058,       4.13273,            0.,NA,NA,"",       1.89925,      -1.89901,   30.2107E-03,   8.23087E-03
C:/temp/dataset/0/3_6.odb,Step-1,Increment      1: Step Time =    1.000,"PART-1-1",           160,       9.76871,       12.8936,            0.,NA,NA,"",       2.45641,      -2.45577,   56.1541E-03,   5.84127E-03
C:/temp/dataset/0/3_6.odb,Step-1,Increment      1: Step Time =    1.000,"PART-1-1",           161,       10.4870,       20.5197,            0.,NA,NA,"",       2.66412,      -2.66253,   91.9084E-03,   6.00342E-03
C:/temp/dataset/0/3_6.odb,Step-1,Increment      1: Step Time =    1.000,"PART-1-1",           162,       3.57821,       25.4429,            0.,NA,NA,"",       2.70135,      -2.70129,   17.8663E-03,   6.71297E-03
C:/temp/dataset/0/3_6.odb,Step-1,Increment      1: Step Time =    1.000,"PART-1-1",           163,       6.34843,       25.4199,            0.,NA,NA,"",       2.70971,      -2.70944,   38.0797E-03,   4.76600E-03
C:/temp/dataset/0/3_6.odb,Step-1,Increment      1: Step Time =    1.000,"PART-1-1",           164,       2.85591,      -26.4171,            0.,NA,NA,"",   32.9362E-03,  -30.3809E-03,  -12.7199E-03,   9.34167E-03
C:/temp/dataset/0/3_6.odb,Step-1,Increment      1: Step Time =    1.000,"PART-1-1",           165,  -631.401E-03,       25.1574,            0.,NA,NA,"",       2.69049,      -2.69049,  -3.89978E-03,   7.45742E-03
C:/temp/dataset/0/3_6.odb,Step-1,Increment      1: Step Time =    1.000,"PART-1-1",           166,  -516.865E-03,       27.6990,            0.,NA,NA,"",       2.73363,      -2.73362,  -5.48480E-03,   5.71643E-03
C:/temp/dataset/0/3_6.odb,Step-1,Increment      1: Step Time =    1.000,"PART-1-1",           167,      -6.99102,       22.3744,            0.,NA,NA,"",       2.62975,      -2.62799,  -96.3517E-03,   8.60595E-03
C:/temp/dataset/0/3_6.odb,Step-1,Increment      1: Step Time =    1.000,"PART-1-1",           168,      -5.11091,      -22.0245,            0.,NA,NA,"",   70.5045E-03,  -62.1426E-03,   33.3045E-03,   12.3929E-03
C:/temp/dataset/0/3_6.odb,Step-1,Increment      1: Step Time =    1.000,"PART-1-1",           169,       6.75166,      -22.2774,            0.,NA,NA,"",   70.0619E-03,  -62.4427E-03,  -31.7738E-03,   7.90747E-03
C:/temp/dataset/0/3_6.odb,Step-1,Increment      1: Step Time =    1.000,"PART-1-1",           170,       8.44380,       23.0750,            0.,NA,NA,"",       2.69096,      -2.69038,   55.9730E-03,   6.53666E-03
C:/temp/dataset/0/3_6.odb,Step-1,Increment      1: Step Time =    1.000,"PART-1-1",           171,       3.98751,       23.4543,            0.,NA,NA,"",       2.67519,      -2.67516,   13.0822E-03,   8.65044E-03
C:/temp/dataset/0/3_6.odb,Step-1,Increment      1: Step Time =    1.000,"PART-1-1",           172,       7.74283,       18.8612,            0.,NA,NA,"",       2.63044,      -2.63036,   20.2630E-03,   8.23864E-03
C:/temp/dataset/0/3_6.odb,Step-1,Increment      1: Step Time =    1.000,"PART-1-1",           173,  -206.614E-03,      -27.1815,            0.,NA,NA,"",   27.0924E-03,  -27.0486E-03,  -1.53893E-03,   7.74217E-03
C:/temp/dataset/0/3_6.odb,Step-1,Increment      1: Step Time =    1.000,"PART-1-1",           174,       10.6950,       22.8157,            0.,NA,NA,"",       2.69368,      -2.69192,   97.1830E-03,   5.50803E-03
C:/temp/dataset/0/3_6.odb,Step-1,Increment      1: Step Time =    1.000,"PART-1-1",           175,       1.78109,       26.2982,            0.,NA,NA,"",       2.71082,      -2.71080,   9.89355E-03,   6.56158E-03
C:/temp/dataset/0/3_6.odb,Step-1,Increment      1: Step Time =    1.000,"PART-1-1",           176,       7.62536,      -9.80486,            0.,NA,NA,"",   747.919E-03,  -742.418E-03,  -90.5486E-03,   6.46772E-03
C:/temp/dataset/0/3_6.odb,Step-1,Increment      1: Step Time =    1.000,"PART-1-1",           177,       7.50504,      -2.60802,            0.,NA,NA,"",       1.33706,      -1.33121,  -124.890E-03,   6.23564E-03
C:/temp/dataset/0/3_6.odb,Step-1,Increment      1: Step Time =    1.000,"PART-1-1",           178,       7.24337,       3.70501,            0.,NA,NA,"",       1.85802,      -1.85309,  -135.240E-03,   10.0199E-03
C:/temp/dataset/0/3_6.odb,Step-1,Increment      1: Step Time =    1.000,"PART-1-1",           179,       7.25379,       10.0129,            0.,NA,NA,"",       2.29507,      -2.29344,  -86.5933E-03,   13.6442E-03
C:/temp/dataset/0/3_6.odb,Step-1,Increment      1: Step Time =    1.000,"PART-1-1",           180,       7.22962,       6.85747,            0.,NA,NA,"",       2.09311,      -2.08984,  -116.954E-03,   12.3165E-03
C:/temp/dataset/0/3_6.odb,Step-1,Increment      1: Step Time =    1.000,"PART-1-1",           181,       7.49186,      -13.0485,            0.,NA,NA,"",   512.735E-03,  -506.898E-03,  -77.1490E-03,   8.52477E-03
C:/temp/dataset/0/3_6.odb,Step-1,Increment      1: Step Time =    1.000,"PART-1-1",           182,       8.10600,      -6.05436,            0.,NA,NA,"",       1.04610,      -1.04362,  -72.0424E-03,   6.48906E-03
C:/temp/dataset/0/3_6.odb,Step-1,Increment      1: Step Time =    1.000,"PART-1-1",           183,       7.31265,   557.236E-03,            0.,NA,NA,"",       1.60314,      -1.59708,  -139.286E-03,   7.70385E-03
C:/temp/dataset/0/3_6.odb,Step-1,Increment      1: Step Time =    1.000,"PART-1-1",           184,       7.30605,       13.1330,            0.,NA,NA,"",       2.45137,      -2.45087,  -49.3333E-03,   13.7970E-03
C:/temp/dataset/0/3_6.odb,Step-1,Increment      1: Step Time =    1.000,"PART-1-1",           185,       8.51669,      -21.0731,            0.,NA,NA,"",   90.9826E-03,  -90.9413E-03,   2.74126E-03,   5.88583E-03
C:/temp/dataset/0/3_6.odb,Step-1,Increment      1: Step Time =    1.000,"PART-1-1",           186,       7.54046,      -16.1016,            0.,NA,NA,"",   317.547E-03,  -313.402E-03,  -51.1444E-03,   12.6619E-03
C:/temp/dataset/0/3_6.odb,Step-1,Increment      1: Step Time =    1.000,"PART-1-1",           187,       7.81864,      -18.8426,            0.,NA,NA,"",   168.781E-03,  -167.660E-03,  -19.4235E-03,   9.39859E-03
C:/temp/dataset/0/3_6.odb,Step-1,Increment      1: Step Time =    1.000,"PART-1-1",           188,       7.43701,       16.1533,            0.,NA,NA,"",       2.56116,      -2.56113,  -12.1543E-03,   12.2637E-03
C:/temp/dataset/0/3_6.odb,Step-1,Increment      1: Step Time =    1.000,"PART-1-1",           189,       8.13437,       20.9213,            0.,NA,NA,"",       2.66476,      -2.66445,   40.3143E-03,   8.00490E-03
C:/temp/dataset/0/3_6.odb,Step-1,Increment      1: Step Time =    1.000,"PART-1-1",           190,       10.1795,      -24.9689,            0.,NA,NA,"",   36.2685E-03,  -25.3049E-03,   25.9820E-03,   6.67472E-03
C:/temp/dataset/0/3_6.odb,Step-1,Increment      1: Step Time =    1.000,"PART-1-1",           191,      -2.92607,      -24.6642,            0.,NA,NA,"",   46.5163E-03,  -44.6775E-03,   12.9494E-03,   10.1006E-03
C:/temp/dataset/0/3_6.odb,Step-1,Increment      1: Step Time =    1.000,"PART-1-1",           192,      -7.32959,       16.5303,            0.,NA,NA,"",       2.36373,      -2.36270,  -69.7086E-03,   12.5731E-03
C:/temp/dataset/0/3_6.odb,Step-1,Increment      1: Step Time =    1.000,"PART-1-1",           193,      -3.80789,       25.1547,            0.,NA,NA,"",       2.69179,      -2.69154,  -36.8750E-03,   5.39115E-03
C:/temp/dataset/0/3_6.odb,Step-1,Increment      1: Step Time =    1.000,"PART-1-1",           194,      -7.16094,      -19.5479,            0.,NA,NA,"",   108.876E-03,  -105.798E-03,   25.7019E-03,   6.84208E-03
C:/temp/dataset/0/3_6.odb,Step-1,Increment      1: Step Time =    1.000,"PART-1-1",           195,       6.10177,       23.3904,            0.,NA,NA,"",       2.68411,      -2.68398,   26.1817E-03,   7.45510E-03
C:/temp/dataset/0/3_6.odb,Step-1,Increment      1: Step Time =    1.000,"PART-1-1",           196,      -3.02004,      -27.2699,            0.,NA,NA,"",   22.7060E-03,  -22.2679E-03,   4.43906E-03,   7.28575E-03
C:/temp/dataset/0/3_6.odb,Step-1,Increment      1: Step Time =    1.000,"PART-1-1",           197,      -5.46178,      -24.4382,            0.,NA,NA,"",   41.2832E-03,  -37.4864E-03,   17.2938E-03,   7.92947E-03
C:/temp/dataset/0/3_6.odb,Step-1,Increment      1: Step Time =    1.000,"PART-1-1",           198,      -9.66724,       21.9754,            0.,NA,NA,"",       2.61781,      -2.61056,  -194.759E-03,   6.16842E-03
C:/temp/dataset/0/3_6.odb,Step-1,Increment      1: Step Time =    1.000,"PART-1-1",           199,      -7.19512,      -21.6661,            0.,NA,NA,"",   64.4293E-03,  -61.6908E-03,   18.5841E-03,   5.13691E-03
C:/temp/dataset/0/3_6.odb,Step-1,Increment      1: Step Time =    1.000,"PART-1-1",           200,      -3.42041,       27.6042,            0.,NA,NA,"",       2.74123,      -2.74096,  -38.4563E-03,   5.50957E-03
C:/temp/dataset/0/3_6.odb,Step-1,Increment      1: Step Time =    1.000,"PART-1-1",           201,       5.45774,      -23.9133,            0.,NA,NA,"",   54.6542E-03,  -45.7396E-03,  -29.9160E-03,   11.9768E-03
C:/temp/dataset/0/3_6.odb,Step-1,Increment      1: Step Time =    1.000,"PART-1-1",           202,      -6.69209,       24.9820,            0.,NA,NA,"",       2.69567,      -2.69388,  -98.2546E-03,   5.61611E-03
C:/temp/dataset/0/3_6.odb,Step-1,Increment      1: Step Time =    1.000,"PART-1-1",           203,      -12.3718,      -14.6182,            0.,NA,NA,"",   346.213E-03,  -305.380E-03,  -163.115E-03,   11.0275E-03
C:/temp/dataset/0/3_6.odb,Step-1,Increment      1: Step Time =    1.000,"PART-1-1",           204,      -5.91076,      -27.0963,            0.,NA,NA,"",   15.4441E-03,  -14.5368E-03,   5.21540E-03,   5.77295E-03
C:/temp/dataset/0/3_6.odb,Step-1,Increment      1: Step Time =    1.000,"PART-1-1",           205,      -9.09285,      -26.5479,            0.,NA,NA,"",   12.6682E-03,  -10.6195E-03,  -6.90731E-03,   2.75971E-03
C:/temp/dataset/0/3_6.odb,Step-1,Increment      1: Step Time =    1.000,"PART-1-1",           206,      -12.2958,       24.3839,            0.,NA,NA,"",       2.69339,      -2.67724,  -294.470E-03,   6.70523E-03
C:/temp/dataset/0/3_6.odb,Step-1,Increment      1: Step Time =    1.000,"PART-1-1",           207,      -12.3670,       18.5668,            0.,NA,NA,"",       2.48289,      -2.46256,  -317.088E-03,   5.23504E-03
C:/temp/dataset/0/3_6.odb,Step-1,Increment      1: Step Time =    1.000,"PART-1-1",           208,      -12.3673,       12.5421,            0.,NA,NA,"",       2.14426,      -2.11912,  -327.392E-03,   4.31268E-03
C:/temp/dataset/0/3_6.odb,Step-1,Increment      1: Step Time =    1.000,"PART-1-1",           209,      -12.4084,       3.45294,            0.,NA,NA,"",       1.51113,      -1.47941,  -308.008E-03,   4.11961E-03
C:/temp/dataset/0/3_6.odb,Step-1,Increment      1: Step Time =    1.000,"PART-1-1",           210,      -12.4043,      -5.59421,            0.,NA,NA,"",   867.379E-03,  -830.727E-03,  -249.478E-03,   7.34111E-03
C:/temp/dataset/0/3_6.odb,Step-1,Increment      1: Step Time =    1.000,"PART-1-1",           211,      -12.3838,       9.50768,            0.,NA,NA,"",       1.94288,      -1.91540,  -325.664E-03,   3.74659E-03
C:/temp/dataset/0/3_6.odb,Step-1,Increment      1: Step Time =    1.000,"PART-1-1",           212,      -12.4013,       6.47621,            0.,NA,NA,"",       1.72998,      -1.70025,  -319.359E-03,   3.62623E-03
C:/temp/dataset/0/3_6.odb,Step-1,Increment      1: Step Time =    1.000,"PART-1-1",           213,      -12.4173,   428.232E-03,            0.,NA,NA,"",       1.29081,      -1.25719,  -292.702E-03,   5.01494E-03
C:/temp/dataset/0/3_6.odb,Step-1,Increment      1: Step Time =    1.000,"PART-1-1",           214,      -12.4160,      -2.58791,            0.,NA,NA,"",       1.07458,      -1.03932,  -273.032E-03,   6.13254E-03
C:/temp/dataset/0/3_6.odb,Step-1,Increment      1: Step Time =    1.000,"PART-1-1",           215,      -12.4014,      -8.61211,            0.,NA,NA,"",   673.033E-03,  -634.841E-03,  -223.496E-03,   8.60209E-03
C:/temp/dataset/0/3_6.odb,Step-1,Increment      1: Step Time =    1.000,"PART-1-1",           216,      -12.3969,      -11.6247,            0.,NA,NA,"",   497.513E-03,  -457.768E-03,  -194.852E-03,   9.86410E-03
C:/temp/dataset/0/3_6.odb,Step-1,Increment      1: Step Time =    1.000,"PART-1-1",           217,      -12.3009,      -17.6498,            0.,NA,NA,"",   221.544E-03,  -181.309E-03,  -127.313E-03,   11.8578E-03
C:/temp/dataset/0/3_6.odb,Step-1,Increment      1: Step Time =    1.000,"PART-1-1",           218,      -11.9370,      -20.9397,            0.,NA,NA,"",   119.269E-03,  -87.0769E-03,  -81.5033E-03,   11.2536E-03
C:/temp/dataset/0/3_6.odb,Step-1,Increment      1: Step Time =    1.000,"PART-1-1",           219,       6.28266,      -26.4725,            0.,NA,NA,"",   19.9487E-03,  -16.6192E-03,  -11.0340E-03,   6.99667E-03
C:/temp/dataset/0/3_6.odb,Step-1,Increment      1: Step Time =    1.000,"PART-1-1",           220,      -12.3616,       21.4963,            0.,NA,NA,"",       2.60243,      -2.58442,  -305.718E-03,   5.93907E-03
C:/temp/dataset/0/3_6.odb,Step-1,Increment      1: Step Time =    1.000,"PART-1-1",           221,       9.42071,      -27.3229,            0.,NA,NA,"",   9.07941E-03,  -3.87877E-03,   8.20919E-03,   3.72222E-03
C:/temp/dataset/0/3_6.odb,Step-1,Increment      1: Step Time =    1.000,"PART-1-1",           222,      -12.3680,       15.5612,            0.,NA,NA,"",       2.32694,      -2.30412,  -325.098E-03,   4.90376E-03
C:/temp/dataset/0/3_6.odb,Step-1,Increment      1: Step Time =    1.000,"PART-1-1",           223,      -6.37126,       27.5191,            0.,NA,NA,"",       2.75358,      -2.75179,  -99.1888E-03,   5.27590E-03
C:/temp/dataset/0/3_6.odb,Step-1,Increment      1: Step Time =    1.000,"PART-1-1",           224,      -7.37426,       13.4489,            0.,NA,NA,"",       2.17934,      -2.17892,  -42.8105E-03,   9.22022E-03
C:/temp/dataset/0/3_6.odb,Step-1,Increment      1: Step Time =    1.000,"PART-1-1",           225,      -7.40401,       7.31385,            0.,NA,NA,"",       1.76520,      -1.76519,   6.41624E-03,   6.04612E-03
C:/temp/dataset/0/3_6.odb,Step-1,Increment      1: Step Time =    1.000,"PART-1-1",           226,      -7.40102,      -1.84560,            0.,NA,NA,"",       1.09893,      -1.09765,   53.0243E-03,   3.36377E-03
C:/temp/dataset/0/3_6.odb,Step-1,Increment      1: Step Time =    1.000,"PART-1-1",           227,      -7.36253,      -10.9851,            0.,NA,NA,"",   498.890E-03,  -495.560E-03,   57.5406E-03,   5.59854E-03
C:/temp/dataset/0/3_6.odb,Step-1,Increment      1: Step Time =    1.000,"PART-1-1",           228,      -7.39657,       10.3769,            0.,NA,NA,"",       1.97850,      -1.97843,  -16.6239E-03,   7.40042E-03
C:/temp/dataset/0/3_6.odb,Step-1,Increment      1: Step Time =    1.000,"PART-1-1",           229,      -7.41369,       4.25226,            0.,NA,NA,"",       1.54378,      -1.54357,   25.5668E-03,   4.81490E-03
C:/temp/dataset/0/3_6.odb,Step-1,Increment      1: Step Time =    1.000,"PART-1-1",           230,      -7.41413,       1.19777,            0.,NA,NA,"",       1.31986,      -1.31922,   41.1186E-03,   3.85215E-03
C:/temp/dataset/0/3_6.odb,Step-1,Increment      1: Step Time =    1.000,"PART-1-1",           231,      -7.39700,      -4.89906,            0.,NA,NA,"",   884.470E-03,  -882.472E-03,   59.4177E-03,   3.58574E-03
C:/temp/dataset/0/3_6.odb,Step-1,Increment      1: Step Time =    1.000,"PART-1-1",           232,      -7.39133,      -7.95434,            0.,NA,NA,"",   682.211E-03,  -679.516E-03,   60.5827E-03,   4.42182E-03
C:/temp/dataset/0/3_6.odb,Step-1,Increment      1: Step Time =    1.000,"PART-1-1",           233,      -7.32483,      -13.9963,            0.,NA,NA,"",   337.918E-03,  -334.410E-03,   48.5665E-03,   7.36715E-03
C:/temp/dataset/0/3_6.odb,Step-1,Increment      1: Step Time =    1.000,"PART-1-1",           234,      -9.29453,       27.3932,            0.,NA,NA,"",       2.76484,      -2.75849,  -187.198E-03,   6.27067E-03
C:/temp/dataset/0/3_6.odb,Step-1,Increment      1: Step Time =    1.000,"PART-1-1",           235,      -9.79647,       16.0793,            0.,NA,NA,"",       2.34786,      -2.33990,  -193.183E-03,   5.39243E-03
C:/temp/dataset/0/3_6.odb,Step-1,Increment      1: Step Time =    1.000,"PART-1-1",           236,      -10.5694,      -24.3397,            0.,NA,NA,"",   41.6990E-03,  -29.7469E-03,  -29.2220E-03,   6.43208E-03
C:/temp/dataset/0/3_6.odb,Step-1,Increment      1: Step Time =    1.000,"PART-1-1",           237,      -9.80814,      -14.2636,            0.,NA,NA,"",   321.865E-03,  -316.572E-03,  -58.1308E-03,   4.69327E-03
C:/temp/dataset/0/3_6.odb,Step-1,Increment      1: Step Time =    1.000,"PART-1-1",           238,      -9.84607,      -11.2856,            0.,NA,NA,"",   478.575E-03,  -473.557E-03,  -69.1179E-03,   4.83169E-03
C:/temp/dataset/0/3_6.odb,Step-1,Increment      1: Step Time =    1.000,"PART-1-1",           239,      -9.85160,       9.96190,            0.,NA,NA,"",       1.95784,      -1.95063,  -167.885E-03,   5.32911E-03
C:/temp/dataset/0/3_6.odb,Step-1,Increment      1: Step Time =    1.000,"PART-1-1",           240,      -9.42013,      -19.6871,            0.,NA,NA,"",   110.416E-03,  -106.626E-03,  -28.6808E-03,   4.30410E-03
C:/temp/dataset/0/3_6.odb,Step-1,Increment      1: Step Time =    1.000,"PART-1-1",           241,      -9.87385,       6.90801,            0.,NA,NA,"",       1.74188,      -1.73505,  -154.107E-03,   5.25842E-03
C:/temp/dataset/0/3_6.odb,Step-1,Increment      1: Step Time =    1.000,"PART-1-1",           242,      -9.72088,      -17.1529,            0.,NA,NA,"",   195.598E-03,  -190.111E-03,  -46.0062E-03,   5.46509E-03
C:/temp/dataset/0/3_6.odb,Step-1,Increment      1: Step Time =    1.000,"PART-1-1",           243,      -7.24385,      -16.9197,            0.,NA,NA,"",   205.596E-03,  -202.185E-03,   37.2942E-03,   10.6054E-03
C:/temp/dataset/0/3_6.odb,Step-1,Increment      1: Step Time =    1.000,"PART-1-1",           244,      -9.88569,       3.86363,            0.,NA,NA,"",       1.51916,      -1.51274,  -139.494E-03,   5.22970E-03
C:/temp/dataset/0/3_6.odb,Step-1,Increment      1: Step Time =    1.000,"PART-1-1",           245,      -9.88680,   826.149E-03,            0.,NA,NA,"",       1.29466,      -1.28868,  -124.295E-03,   5.19412E-03
C:/temp/dataset/0/3_6.odb,Step-1,Increment      1: Step Time =    1.000,"PART-1-1",           246,      -9.87953,      -2.20322,            0.,NA,NA,"",       1.07358,      -1.06803,  -108.999E-03,   5.14351E-03
C:/temp/dataset/0/3_6.odb,Step-1,Increment      1: Step Time =    1.000,"PART-1-1",           247,      -9.87339,      -5.23467,            0.,NA,NA,"",   860.310E-03,  -855.093E-03,  -94.6051E-03,   5.07037E-03
C:/temp/dataset/0/3_6.odb,Step-1,Increment      1: Step Time =    1.000,"PART-1-1",           248,      -9.87035,      -8.27303,            0.,NA,NA,"",   659.656E-03,  -654.588E-03,  -81.6203E-03,   4.97122E-03
C:/temp/dataset/0/3_6.odb,Step-1,Increment      1: Step Time =    1.000,"PART-1-1",           249,      -12.1942,       27.2250,            0.,NA,NA,"",       2.77205,      -2.75706,  -287.842E-03,   5.10750E-03
C:/temp/dataset/0/3_6.odb,Step-1,Increment      1: Step Time =    1.000,"PART-1-1",           250,      -12.1946,      -27.0241,            0.,NA,NA,"",   29.2081E-03,  -13.0401E-03,  -26.1356E-03,   11.1659E-03
C:/temp/dataset/0/3_6.odb,Step-1,Increment      1: Step Time =    1.000,"PART-1-1",           251,      -9.83578,       13.0151,            0.,NA,NA,"",       2.16139,      -2.15372,  -181.925E-03,   5.29831E-03
C:/temp/dataset/0/3_6.odb,Step-1,Increment      1: Step Time =    1.000,"PART-1-1",           252,      -12.4960,      -24.1891,            0.,NA,NA,"",   69.3118E-03,  -38.5650E-03,  -57.5923E-03,   12.4367E-03
C:/temp/dataset/0/3_6.odb,Step-1,Increment      1: Step Time =    1.000,"PART-1-1",           253,      -7.26398,       19.6069,            0.,NA,NA,"",       2.53053,      -2.52878,  -94.0055E-03,   8.68498E-03
C:/temp/dataset/0/3_6.odb,Step-1,Increment      1: Step Time =    1.000,"PART-1-1",           254,      -9.78845,      -22.6320,            0.,NA,NA,"",   55.0742E-03,  -49.0581E-03,  -25.0294E-03,   4.74581E-03
C:/temp/dataset/0/3_6.odb,Step-1,Increment      1: Step Time =    1.000,"PART-1-1",           255,       8.11622,      -24.1302,            0.,NA,NA,"",   34.2056E-03,  -34.0189E-03,  -3.56987E-03,   2.57690E-03
C:/temp/dataset/0/3_6.odb,Step-1,Increment      1: Step Time =    1.000,"PART-1-1",           256,       10.7040,      -22.7860,            0.,NA,NA,"",   79.4368E-03,  -61.0526E-03,   50.8211E-03,   9.60590E-03
C:/temp/dataset/0/3_6.odb,Step-1,Increment      1: Step Time =    1.000,"PART-1-1",           257,      -8.82647,      -21.3553,            0.,NA,NA,"",   68.4140E-03,  -67.6324E-03,  -10.3116E-03,   3.34816E-03
C:/temp/dataset/0/3_6.odb,Step-1,Increment      1: Step Time =    1.000,"PART-1-1",           258,      -9.77631,       19.1047,            0.,NA,NA,"",       2.50511,      -2.49717,  -199.301E-03,   3.40369E-03
C:/temp/dataset/0/3_6.odb,Step-1,Increment      1: Step Time =    1.000,"PART-1-1",           259,      -7.77355,      -23.8785,            0.,NA,NA,"",   34.7912E-03,  -34.4430E-03,   4.90988E-03,   3.26268E-03
C:/temp/dataset/0/3_6.odb,Step-1,Increment      1: Step Time =    1.000,"PART-1-1",           260,  -536.979E-03,      -24.7394,            0.,NA,NA,"",   48.6993E-03,  -48.6992E-03,  -125.967E-06,   8.91519E-03
C:/temp/dataset/0/3_6.odb,Step-1,Increment      1: Step Time =    1.000,"PART-1-1",           261,      -9.52558,       24.7102,            0.,NA,NA,"",       2.69635,      -2.68958,  -190.927E-03,   7.03952E-03
C:/temp/dataset/0/3_6.odb,Step-1,Increment      1: Step Time =    1.000,"PART-1-1",           262,      -2.15050,       21.2402,            0.,NA,NA,"",       2.62003,      -2.61998,  -16.5927E-03,   9.66675E-03
C:/temp/dataset/0/3_6.odb,Step-1,Increment      1: Step Time =    1.000,"PART-1-1",           263,      -3.09708,       22.5364,            0.,NA,NA,"",       2.63573,      -2.63565,  -20.4540E-03,   8.34871E-03
C:/temp/dataset/0/3_6.odb,Step-1,Increment      1: Step Time =    1.000,"PART-1-1",           264,      -4.69657,       21.2962,            0.,NA,NA,"",       2.60195,      -2.60179,  -28.7479E-03,   17.5408E-03
C:/temp/dataset/0/3_6.odb,Step-1,Increment      1: Step Time =    1.000,"PART-1-1",           265,         -3.75,           20.,            0.,NA,NA,"",       2.58813,      -2.58793,  -31.6304E-03,   20.1281E-03
C:/temp/dataset/0/3_6.odb,Step-1,Increment      1: Step Time =    1.000,"PART-1-1",           266,      -4.10052,       23.8735,            0.,NA,NA,"",       2.66436,      -2.66410,  -37.5384E-03,   7.27561E-03
C:/temp/dataset/0/3_6.odb,Step-1,Increment      1: Step Time =    1.000,"PART-1-1",           267,      -5.24999,       25.0683,            0.,NA,NA,"",       2.69314,      -2.69239,  -63.4634E-03,   4.34277E-03
C:/temp/dataset/0/3_6.odb,Step-1,Increment      1: Step Time =    1.000,"PART-1-1",           268,      -6.84155,       23.6782,            0.,NA,NA,"",       2.66431,      -2.66253,  -97.3817E-03,   6.46143E-03
C:/temp/dataset/0/3_6.odb,Step-1,Increment      1: Step Time =    1.000,"PART-1-1",           269,      -5.69208,       22.4834,            0.,NA,NA,"",       2.63247,      -2.63182,  -58.6122E-03,   7.34591E-03
C:/temp/dataset/0/3_6.odb,Step-1,Increment      1: Step Time =    1.000,"PART-1-1",           270,      -7.35192,       14.9896,            0.,NA,NA,"",       2.27462,      -2.27392,  -56.2912E-03,   9.88256E-03
C:/temp/dataset/0/3_6.odb,Step-1,Increment      1: Step Time =    1.000,"PART-1-1",           271,      -8.56303,       16.3048,            0.,NA,NA,"",       2.35628,      -2.35260,  -131.696E-03,   8.22696E-03
C:/temp/dataset/0/3_6.odb,Step-1,Increment      1: Step Time =    1.000,"PART-1-1",           272,      -9.81613,       14.5472,            0.,NA,NA,"",       2.25678,      -2.24896,  -187.726E-03,   5.37928E-03
C:/temp/dataset/0/3_6.odb,Step-1,Increment      1: Step Time =    1.000,"PART-1-1",           273,      -8.60502,       13.2320,            0.,NA,NA,"",       2.16992,      -2.16701,  -112.288E-03,   6.96616E-03
C:/temp/dataset/0/3_6.odb,Step-1,Increment      1: Step Time =    1.000,"PART-1-1",           274,          -15.,         -16.5,            0.,NA,NA,"",   342.478E-03,  -242.123E-03,  -242.214E-03,   21.0490E-03
C:/temp/dataset/0/3_6.odb,Step-1,Increment      1: Step Time =    1.000,"PART-1-1",           275,      -13.6504,      -17.8249,            0.,NA,NA,"",   249.949E-03,  -183.421E-03,  -169.797E-03,   16.8074E-03
C:/temp/dataset/0/3_6.odb,Step-1,Increment      1: Step Time =    1.000,"PART-1-1",           276,      -12.3363,      -16.1340,            0.,NA,NA,"",   279.666E-03,  -238.915E-03,  -145.371E-03,   11.4186E-03
C:/temp/dataset/0/3_6.odb,Step-1,Increment      1: Step Time =    1.000,"PART-1-1",           277,      -13.6859,      -14.8091,            0.,NA,NA,"",   372.637E-03,  -303.083E-03,  -216.792E-03,   15.3872E-03
C:/temp/dataset/0/3_6.odb,Step-1,Increment      1: Step Time =    1.000,"PART-1-1",           278,      -4.46540,      -27.1831,            0.,NA,NA,"",   19.7803E-03,  -18.8424E-03,   6.01875E-03,   6.42062E-03
C:/temp/dataset/0/3_6.odb,Step-1,Increment      1: Step Time =    1.000,"PART-1-1",           279,      -2.97305,      -25.9670,            0.,NA,NA,"",   34.5505E-03,  -33.5192E-03,   8.37873E-03,   8.47025E-03
C:/temp/dataset/0/3_6.odb,Step-1,Increment      1: Step Time =    1.000,"PART-1-1",           280,      -4.19392,      -24.5512,            0.,NA,NA,"",   44.5155E-03,  -41.1914E-03,   16.8789E-03,   8.83584E-03
C:/temp/dataset/0/3_6.odb,Step-1,Increment      1: Step Time =    1.000,"PART-1-1",           281,      -5.68627,      -25.7673,            0.,NA,NA,"",   27.2541E-03,  -25.1130E-03,   10.5889E-03,   6.77083E-03
C:/temp/dataset/0/3_6.odb,Step-1,Increment      1: Step Time =    1.000,"PART-1-1",           282,      -5.28634,      -23.2314,            0.,NA,NA,"",   54.8814E-03,  -49.1334E-03,   24.4515E-03,   9.71605E-03
C:/temp/dataset/0/3_6.odb,Step-1,Increment      1: Step Time =    1.000,"PART-1-1",           283,      -2.80857,      -23.4296,            0.,NA,NA,"",   57.6509E-03,  -55.3712E-03,   16.0518E-03,   9.75750E-03
C:/temp/dataset/0/3_6.odb,Step-1,Increment      1: Step Time =    1.000,"PART-1-1",           284,      -3.90099,      -22.1098,            0.,NA,NA,"",   70.8350E-03,  -64.3368E-03,   29.6375E-03,   10.6635E-03
C:/temp/dataset/0/3_6.odb,Step-1,Increment      1: Step Time =    1.000,"PART-1-1",           285,       1.61260,      -23.5545,            0.,NA,NA,"",   60.9550E-03,  -58.9537E-03,  -15.4910E-03,   10.3790E-03
C:/temp/dataset/0/3_6.odb,Step-1,Increment      1: Step Time =    1.000,"PART-1-1",           286,       2.09558,      -25.4897,            0.,NA,NA,"",   42.7146E-03,  -40.4712E-03,  -13.6609E-03,   10.1686E-03
C:/temp/dataset/0/3_6.odb,Step-1,Increment      1: Step Time =    1.000,"PART-1-1",           287,       3.30955,      -24.8521,            0.,NA,NA,"",   48.6708E-03,  -43.7556E-03,  -21.3143E-03,   11.4870E-03
C:/temp/dataset/0/3_6.odb,Step-1,Increment      1: Step Time =    1.000,"PART-1-1",           288,       2.82657,      -22.9168,            0.,NA,NA,"",   71.0028E-03,  -64.6944E-03,  -29.2579E-03,   11.5205E-03
C:/temp/dataset/0/3_6.odb,Step-1,Increment      1: Step Time =    1.000,"PART-1-1",           289,       13.8857,      -20.1351,            0.,NA,NA,"",   239.229E-03,  -159.070E-03,   178.682E-03,   22.9382E-03
C:/temp/dataset/0/3_6.odb,Step-1,Increment      1: Step Time =    1.000,"PART-1-1",           290,           15.,        -18.75,            0.,NA,NA,"",   337.286E-03,  -225.822E-03,   250.532E-03,   27.7281E-03
C:/temp/dataset/0/3_6.odb,Step-1,Increment      1: Step Time =    1.000,"PART-1-1",           291,       13.8316,      -17.6482,            0.,NA,NA,"",   344.478E-03,  -261.763E-03,   223.932E-03,   21.7281E-03
C:/temp/dataset/0/3_6.odb,Step-1,Increment      1: Step Time =    1.000,"PART-1-1",           292,       12.7173,      -19.0333,            0.,NA,NA,"",   244.878E-03,  -188.996E-03,   155.710E-03,   17.0108E-03
C:/temp/dataset/0/3_6.odb,Step-1,Increment      1: Step Time =    1.000,"PART-1-1",           293,       13.7508,      -12.5905,            0.,NA,NA,"",   636.133E-03,  -563.667E-03,   294.864E-03,   15.6417E-03
C:/temp/dataset/0/3_6.odb,Step-1,Increment      1: Step Time =    1.000,"PART-1-1",           294,           15.,        -11.25,            0.,NA,NA,"",   778.832E-03,  -671.148E-03,   395.145E-03,   17.3227E-03
C:/temp/dataset/0/3_6.odb,Step-1,Increment      1: Step Time =    1.000,"PART-1-1",           295,       13.7881,      -10.0330,            0.,NA,NA,"",   817.161E-03,  -750.943E-03,   322.237E-03,   12.5280E-03
C:/temp/dataset/0/3_6.odb,Step-1,Increment      1: Step Time =    1.000,"PART-1-1",           296,       12.5389,      -11.3735,            0.,NA,NA,"",   680.826E-03,  -641.336E-03,   228.500E-03,   11.6566E-03
C:/temp/dataset/0/3_6.odb,Step-1,Increment      1: Step Time =    1.000,"PART-1-1",           297,       11.3345,      -10.0200,            0.,NA,NA,"",   752.715E-03,  -736.348E-03,   156.113E-03,   8.85586E-03
C:/temp/dataset/0/3_6.odb,Step-1,Increment      1: Step Time =    1.000,"PART-1-1",           298,       10.0449,      -11.4123,            0.,NA,NA,"",   630.408E-03,  -626.293E-03,   71.9073E-03,   7.96486E-03
C:/temp/dataset/0/3_6.odb,Step-1,Increment      1: Step Time =    1.000,"PART-1-1",           299,       11.2492,      -12.7658,            0.,NA,NA,"",   552.674E-03,  -534.074E-03,   142.175E-03,   9.60859E-03
C:/temp/dataset/0/3_6.odb,Step-1,Increment      1: Step Time =    1.000,"PART-1-1",           300,       9.32361,      -6.65743,            0.,NA,NA,"",   997.683E-03,  -997.529E-03,   17.4983E-03,   7.14812E-03
C:/temp/dataset/0/3_6.odb,Step-1,Increment      1: Step Time =    1.000,"PART-1-1",           301,       10.9574,      -6.33595,            0.,NA,NA,"",       1.03903,      -1.03034,   134.114E-03,   7.97311E-03
C:/temp/dataset/0/3_6.odb,Step-1,Increment      1: Step Time =    1.000,"PART-1-1",           302,       10.9595,      -4.69463,            0.,NA,NA,"",       1.17543,      -1.16778,   133.910E-03,   7.83147E-03
C:/temp/dataset/0/3_6.odb,Step-1,Increment      1: Step Time =    1.000,"PART-1-1",           303,       9.32578,      -5.01612,            0.,NA,NA,"",       1.13446,      -1.13437,   14.8140E-03,   7.08409E-03
C:/temp/dataset/0/3_6.odb,Step-1,Increment      1: Step Time =    1.000,"PART-1-1",           304,       12.9351,      -4.11714,            0.,NA,NA,"",       1.25733,      -1.22538,   281.639E-03,   6.46479E-03
C:/temp/dataset/0/3_6.odb,Step-1,Increment      1: Step Time =    1.000,"PART-1-1",           305,       11.6846,      -3.48758,            0.,NA,NA,"",       1.28662,      -1.27296,   186.971E-03,   6.90986E-03
C:/temp/dataset/0/3_6.odb,Step-1,Increment      1: Step Time =    1.000,"PART-1-1",           306,       12.2101,      -5.32419,            0.,NA,NA,"",       1.14308,      -1.12047,   226.238E-03,   7.35768E-03
C:/temp/dataset/0/3_6.odb,Step-1,Increment      1: Step Time =    1.000,"PART-1-1",           307,       9.86769,  -155.410E-03,            0.,NA,NA,"",       1.54932,      -1.54856,   48.5413E-03,   7.92754E-03
C:/temp/dataset/0/3_6.odb,Step-1,Increment      1: Step Time =    1.000,"PART-1-1",           308,       8.53089,   901.975E-03,            0.,NA,NA,"",       1.63250,      -1.63176,  -49.1975E-03,   7.67943E-03
C:/temp/dataset/0/3_6.odb,Step-1,Increment      1: Step Time =    1.000,"PART-1-1",           309,       7.40884,      -1.02539,            0.,NA,NA,"",       1.47074,      -1.46470,  -133.137E-03,   6.86359E-03
C:/temp/dataset/0/3_6.odb,Step-1,Increment      1: Step Time =    1.000,"PART-1-1",           310,       8.74564,      -2.08278,            0.,NA,NA,"",       1.38119,      -1.38081,  -32.1572E-03,   7.08826E-03
C:/temp/dataset/0/3_6.odb,Step-1,Increment      1: Step Time =    1.000,"PART-1-1",           311,       9.64302,       5.60069,            0.,NA,NA,"",       2.01218,      -2.01196,   30.1505E-03,   8.17853E-03
C:/temp/dataset/0/3_6.odb,Step-1,Increment      1: Step Time =    1.000,"PART-1-1",           312,       10.9412,       4.35663,            0.,NA,NA,"",       1.92428,      -1.92075,   116.604E-03,   6.89385E-03
C:/temp/dataset/0/3_6.odb,Step-1,Increment      1: Step Time =    1.000,"PART-1-1",           313,       12.2262,       5.93259,            0.,NA,NA,"",       2.05352,      -2.04419,   195.534E-03,   7.46259E-03
C:/temp/dataset/0/3_6.odb,Step-1,Increment      1: Step Time =    1.000,"PART-1-1",           314,       10.9280,       7.17665,            0.,NA,NA,"",       2.13473,      -2.13194,   109.178E-03,   6.84832E-03
C:/temp/dataset/0/3_6.odb,Step-1,Increment      1: Step Time =    1.000,"PART-1-1",           315,       13.6103,       7.39232,            0.,NA,NA,"",       2.16990,      -2.15248,   274.363E-03,   9.61151E-03
C:/temp/dataset/0/3_6.odb,Step-1,Increment      1: Step Time =    1.000,"PART-1-1",           316,           15.,          8.75,            0.,NA,NA,"",       2.27536,      -2.24822,   350.406E-03,   15.2973E-03
C:/temp/dataset/0/3_6.odb,Step-1,Increment      1: Step Time =    1.000,"PART-1-1",           317,       13.6268,       9.99700,            0.,NA,NA,"",       2.33736,      -2.32373,   252.003E-03,   10.4306E-03
C:/temp/dataset/0/3_6.odb,Step-1,Increment      1: Step Time =    1.000,"PART-1-1",           318,       12.2370,       8.63932,            0.,NA,NA,"",       2.24328,      -2.23590,   181.862E-03,   6.75674E-03
C:/temp/dataset/0/3_6.odb,Step-1,Increment      1: Step Time =    1.000,"PART-1-1",           319,       13.8144,       17.6522,            0.,NA,NA,"",       2.61115,      -2.60446,   186.708E-03,   9.60614E-03
C:/temp/dataset/0/3_6.odb,Step-1,Increment      1: Step Time =    1.000,"PART-1-1",           320,           15.,         18.75,            0.,NA,NA,"",       2.63033,      -2.62242,   203.932E-03,   11.0803E-03
C:/temp/dataset/0/3_6.odb,Step-1,Increment      1: Step Time =    1.000,"PART-1-1",           321,       13.8887,       20.1095,            0.,NA,NA,"",       2.65698,      -2.65152,   170.102E-03,   7.41015E-03
C:/temp/dataset/0/3_6.odb,Step-1,Increment      1: Step Time =    1.000,"PART-1-1",           322,       12.7031,       19.0116,            0.,NA,NA,"",       2.63963,      -2.63538,   149.616E-03,   6.68113E-03
C:/temp/dataset/0/3_6.odb,Step-1,Increment      1: Step Time =    1.000,"PART-1-1",           323,       11.4255,       18.0142,            0.,NA,NA,"",       2.62046,      -2.61775,   119.146E-03,   5.47282E-03
C:/temp/dataset/0/3_6.odb,Step-1,Increment      1: Step Time =    1.000,"PART-1-1",           324,       11.6322,       20.3693,            0.,NA,NA,"",       2.66258,      -2.65992,   119.046E-03,   5.56871E-03
C:/temp/dataset/0/3_6.odb,Step-1,Increment      1: Step Time =    1.000,"PART-1-1",           325,       10.3546,       19.3719,            0.,NA,NA,"",       2.64553,      -2.64405,   88.4779E-03,   5.72929E-03
C:/temp/dataset/0/3_6.odb,Step-1,Increment      1: Step Time =    1.000,"PART-1-1",           326,       10.9394,       26.3107,            0.,NA,NA,"",       2.73219,      -2.73025,   103.078E-03,   3.37709E-03
C:/temp/dataset/0/3_6.odb,Step-1,Increment      1: Step Time =    1.000,"PART-1-1",           327,       11.9108,       25.0855,            0.,NA,NA,"",       2.72022,      -2.71762,   118.743E-03,   3.63813E-03
C:/temp/dataset/0/3_6.odb,Step-1,Increment      1: Step Time =    1.000,"PART-1-1",           328,       13.0011,       26.2585,            0.,NA,NA,"",       2.73399,      -2.73066,   134.975E-03,   2.63911E-03
C:/temp/dataset/0/3_6.odb,Step-1,Increment      1: Step Time =    1.000,"PART-1-1",           329,       12.0296,       27.4837,            0.,NA,NA,"",       2.74695,      -2.74433,   119.957E-03,   2.22304E-03
C:/temp/dataset/0/3_6.odb,Step-1,Increment      1: Step Time =    1.000,"PART-1-1",           330,       14.0179,       27.4887,            0.,NA,NA,"",       2.74884,      -2.74483,   148.370E-03,   993.578E-06
C:/temp/dataset/0/3_6.odb,Step-1,Increment      1: Step Time =    1.000,"PART-1-1",           331,       13.9832,       25.0198,            0.,NA,NA,"",       2.72040,      -2.71620,   151.107E-03,   2.71510E-03
C:/temp/dataset/0/3_6.odb,Step-1,Increment      1: Step Time =    1.000,"PART-1-1",           332,           15.,         26.25,            0.,NA,NA,"",       2.73457,      -2.72975,   162.137E-03,   1.57653E-03
C:/temp/dataset/0/3_6.odb,Step-1,Increment      1: Step Time =    1.000,"PART-1-1",           333,       3.55377,       20.8403,            0.,NA,NA,"",       2.64562,      -2.64562,   3.13746E-03,   4.45424E-03
C:/temp/dataset/0/3_6.odb,Step-1,Increment      1: Step Time =    1.000,"PART-1-1",           334,       4.16667,           20.,            0.,NA,NA,"",       2.64324,      -2.64324,   428.870E-06,   8.51092E-03
C:/temp/dataset/0/3_6.odb,Step-1,Increment      1: Step Time =    1.000,"PART-1-1",           335,       5.33068,       20.7523,            0.,NA,NA,"",       2.65020,      -2.65020,  -2.84388E-03,   14.0258E-03
C:/temp/dataset/0/3_6.odb,Step-1,Increment      1: Step Time =    1.000,"PART-1-1",           336,       4.71778,       21.5926,            0.,NA,NA,"",       2.65543,      -2.65543,   4.23313E-03,   9.96080E-03
C:/temp/dataset/0/3_6.odb,Step-1,Increment      1: Step Time =    1.000,"PART-1-1",           337,       1.85672,       20.8541,            0.,NA,NA,"",       2.64155,      -2.64155,   1.87743E-03,   4.72140E-03
C:/temp/dataset/0/3_6.odb,Step-1,Increment      1: Step Time =    1.000,"PART-1-1",           338,           2.5,           20.,            0.,NA,NA,"",       2.64065,      -2.64065,   2.14734E-03,   4.24061E-03
C:/temp/dataset/0/3_6.odb,Step-1,Increment      1: Step Time =    1.000,"PART-1-1",           339,       2.91049,       21.6945,            0.,NA,NA,"",       2.65105,      -2.65104,   5.20912E-03,   6.45222E-03
C:/temp/dataset/0/3_6.odb,Step-1,Increment      1: Step Time =    1.000,"PART-1-1",           340,       1.32465,      -26.7993,            0.,NA,NA,"",   30.9407E-03,  -30.1933E-03,  -6.75976E-03,   8.10961E-03
C:/temp/dataset/0/3_6.odb,Step-1,Increment      1: Step Time =    1.000,"PART-1-1",           341,   399.133E-03,      -24.6509,            0.,NA,NA,"",   50.0813E-03,  -49.7111E-03,  -6.07843E-03,   9.98139E-03
C:/temp/dataset/0/3_6.odb,Step-1,Increment      1: Step Time =    1.000,"PART-1-1",           342,  -371.796E-03,      -25.9605,            0.,NA,NA,"",   38.2403E-03,  -38.2212E-03,  -1.20769E-03,   8.56170E-03
C:/temp/dataset/0/3_6.odb,Step-1,Increment      1: Step Time =    1.000,"PART-1-1",           343,       7.16814,       28.8250,            0.,NA,NA,"",       2.75202,      -2.75149,   54.0888E-03,   2.94636E-03
C:/temp/dataset/0/3_6.odb,Step-1,Increment      1: Step Time =    1.000,"PART-1-1",           344,       7.90869,       27.6030,            0.,NA,NA,"",       2.73990,      -2.73921,   61.1691E-03,   2.42551E-03
C:/temp/dataset/0/3_6.odb,Step-1,Increment      1: Step Time =    1.000,"PART-1-1",           345,       9.17805,       28.7779,            0.,NA,NA,"",       2.75681,      -2.75568,   79.2455E-03,   2.58467E-03
C:/temp/dataset/0/3_6.odb,Step-1,Increment      1: Step Time =    1.000,"PART-1-1",           346,        8.4375,           30.,            0.,NA,NA,"",       2.76990,      -2.76899,   70.9514E-03,   3.11042E-03
C:/temp/dataset/0/3_6.odb,Step-1,Increment      1: Step Time =    1.000,"PART-1-1",           347,       1.19326,       21.8923,            0.,NA,NA,"",       2.64759,      -2.64759,   1.31878E-03,   5.86412E-03
C:/temp/dataset/0/3_6.odb,Step-1,Increment      1: Step Time =    1.000,"PART-1-1",           348,   169.882E-03,       21.0382,            0.,NA,NA,"",       2.63498,      -2.63497,  -5.54420E-03,   6.59986E-03
C:/temp/dataset/0/3_6.odb,Step-1,Increment      1: Step Time =    1.000,"PART-1-1",           349,   833.333E-03,           20.,            0.,NA,NA,"",       2.63126,      -2.63126,  -4.83762E-03,   6.64484E-03
C:/temp/dataset/0/3_6.odb,Step-1,Increment      1: Step Time =    1.000,"PART-1-1",           350,       11.0482,       12.7829,            0.,NA,NA,"",       2.45920,      -2.45663,   112.464E-03,   3.56949E-03
C:/temp/dataset/0/3_6.odb,Step-1,Increment      1: Step Time =    1.000,"PART-1-1",           351,       12.3949,       13.9828,            0.,NA,NA,"",       2.51256,      -2.50702,   166.717E-03,   5.94486E-03
C:/temp/dataset/0/3_6.odb,Step-1,Increment      1: Step Time =    1.000,"PART-1-1",           352,       11.2086,       15.4830,            0.,NA,NA,"",       2.55692,      -2.55423,   117.282E-03,   4.48157E-03
C:/temp/dataset/0/3_6.odb,Step-1,Increment      1: Step Time =    1.000,"PART-1-1",           353,       9.86191,       14.2831,            0.,NA,NA,"",       2.51193,      -2.51110,   64.8848E-03,   5.14750E-03
C:/temp/dataset/0/3_6.odb,Step-1,Increment      1: Step Time =    1.000,"PART-1-1",           354,       9.65710,       8.53837,            0.,NA,NA,"",       2.21915,      -2.21887,   35.5703E-03,   7.49274E-03
C:/temp/dataset/0/3_6.odb,Step-1,Increment      1: Step Time =    1.000,"PART-1-1",           355,       8.46627,       10.0105,            0.,NA,NA,"",       2.30223,      -2.30212,  -22.4042E-03,   10.1006E-03
C:/temp/dataset/0/3_6.odb,Step-1,Increment      1: Step Time =    1.000,"PART-1-1",           356,       7.24171,       8.43518,            0.,NA,NA,"",       2.19911,      -2.19671,  -102.761E-03,   12.9122E-03
C:/temp/dataset/0/3_6.odb,Step-1,Increment      1: Step Time =    1.000,"PART-1-1",           357,       8.43254,       6.96306,            0.,NA,NA,"",       2.10567,      -2.10526,  -41.9065E-03,   9.81886E-03
C:/temp/dataset/0/3_6.odb,Step-1,Increment      1: Step Time =    1.000,"PART-1-1",           358,       13.6558,       2.21224,            0.,NA,NA,"",       1.78416,      -1.75514,   320.487E-03,   4.14523E-03
C:/temp/dataset/0/3_6.odb,Step-1,Increment      1: Step Time =    1.000,"PART-1-1",           359,           15.,          3.75,            0.,NA,NA,"",       1.92246,      -1.87769,   412.473E-03,   6.96447E-03
C:/temp/dataset/0/3_6.odb,Step-1,Increment      1: Step Time =    1.000,"PART-1-1",           360,       13.6160,       4.79026,            0.,NA,NA,"",       1.98068,      -1.95788,   299.654E-03,   6.57693E-03
C:/temp/dataset/0/3_6.odb,Step-1,Increment      1: Step Time =    1.000,"PART-1-1",           361,       12.2717,       3.25251,            0.,NA,NA,"",       1.84860,      -1.83629,   212.972E-03,   6.03731E-03
C:/temp/dataset/0/3_6.odb,Step-1,Increment      1: Step Time =    1.000,"PART-1-1",           362,       9.69986,       2.68972,            0.,NA,NA,"",       1.78418,      -1.78385,   34.0485E-03,   8.07789E-03
C:/temp/dataset/0/3_6.odb,Step-1,Increment      1: Step Time =    1.000,"PART-1-1",           363,       11.0304,       1.58560,            0.,NA,NA,"",       1.70291,      -1.69794,   129.902E-03,   6.66791E-03
C:/temp/dataset/0/3_6.odb,Step-1,Increment      1: Step Time =    1.000,"PART-1-1",           364,       7.55861,      -11.4267,            0.,NA,NA,"",   626.860E-03,  -621.091E-03,  -84.8491E-03,   7.13580E-03
C:/temp/dataset/0/3_6.odb,Step-1,Increment      1: Step Time =    1.000,"PART-1-1",           365,       6.31268,      -9.90243,            0.,NA,NA,"",   756.358E-03,  -734.326E-03,  -181.222E-03,   6.85500E-03
C:/temp/dataset/0/3_6.odb,Step-1,Increment      1: Step Time =    1.000,"PART-1-1",           366,            5.,      -11.6667,            0.,NA,NA,"",   659.120E-03,  -607.504E-03,  -255.690E-03,   11.9697E-03
C:/temp/dataset/0/3_6.odb,Step-1,Increment      1: Step Time =    1.000,"PART-1-1",           367,       6.24593,      -13.1909,            0.,NA,NA,"",   522.462E-03,  -499.443E-03,  -153.373E-03,   10.7280E-03
C:/temp/dataset/0/3_6.odb,Step-1,Increment      1: Step Time =    1.000,"PART-1-1",           368,       14.0233,      -5.11850,            0.,NA,NA,"",       1.20397,      -1.14735,   364.854E-03,   6.60491E-03
C:/temp/dataset/0/3_6.odb,Step-1,Increment      1: Step Time =    1.000,"PART-1-1",           369,           15.,         -3.75,            0.,NA,NA,"",       1.34294,      -1.26684,   445.671E-03,   4.81707E-03
C:/temp/dataset/0/3_6.odb,Step-1,Increment      1: Step Time =    1.000,"PART-1-1",           370,       13.9118,      -2.74864,            0.,NA,NA,"",       1.39179,      -1.34510,   357.492E-03,   3.95991E-03
C:/temp/dataset/0/3_6.odb,Step-1,Increment      1: Step Time =    1.000,"PART-1-1",           371,       12.6080,      -16.5365,            0.,NA,NA,"",   358.436E-03,  -307.112E-03,   184.819E-03,   15.5356E-03
C:/temp/dataset/0/3_6.odb,Step-1,Increment      1: Step Time =    1.000,"PART-1-1",           372,       11.3130,      -15.4489,            0.,NA,NA,"",   383.501E-03,  -359.944E-03,   132.340E-03,   10.9808E-03
C:/temp/dataset/0/3_6.odb,Step-1,Increment      1: Step Time =    1.000,"PART-1-1",           373,       10.1880,      -16.9099,            0.,NA,NA,"",   280.715E-03,  -271.181E-03,   72.5404E-03,   8.74055E-03
C:/temp/dataset/0/3_6.odb,Step-1,Increment      1: Step Time =    1.000,"PART-1-1",           374,       11.4829,      -17.9975,            0.,NA,NA,"",   254.245E-03,  -224.130E-03,   120.025E-03,   12.3275E-03
C:/temp/dataset/0/3_6.odb,Step-1,Increment      1: Step Time =    1.000,"PART-1-1",           375,       7.63417,      -21.6752,            0.,NA,NA,"",   75.2964E-03,  -73.0952E-03,  -18.0734E-03,   4.73403E-03
C:/temp/dataset/0/3_6.odb,Step-1,Increment      1: Step Time =    1.000,"PART-1-1",           376,       7.43394,      -23.2038,            0.,NA,NA,"",   50.2599E-03,  -47.5889E-03,  -16.1667E-03,   4.91348E-03
C:/temp/dataset/0/3_6.odb,Step-1,Increment      1: Step Time =    1.000,"PART-1-1",           377,       8.61676,      -23.4202,            0.,NA,NA,"",   44.1888E-03,  -44.0066E-03,   4.00768E-03,   2.23893E-03
C:/temp/dataset/0/3_6.odb,Step-1,Increment      1: Step Time =    1.000,"PART-1-1",           378,       8.81699,      -21.8917,            0.,NA,NA,"",   72.3536E-03,  -71.7176E-03,   9.57211E-03,   4.04692E-03
C:/temp/dataset/0/3_6.odb,Step-1,Increment      1: Step Time =    1.000,"PART-1-1",           379,  -438.919E-03,      -23.5046,            0.,NA,NA,"",   57.1644E-03,  -57.1630E-03,  -393.402E-06,   8.64389E-03
C:/temp/dataset/0/3_6.odb,Step-1,Increment      1: Step Time =    1.000,"PART-1-1",           380,   774.543E-03,      -22.4081,            0.,NA,NA,"",   64.2982E-03,  -63.5639E-03,  -9.68936E-03,   8.77230E-03
C:/temp/dataset/0/3_6.odb,Step-1,Increment      1: Step Time =    1.000,"PART-1-1",           381,      -7.50181,      -26.8221,            0.,NA,NA,"",   11.6080E-03,  -11.5350E-03,   1.30022E-03,   3.25981E-03
C:/temp/dataset/0/3_6.odb,Step-1,Increment      1: Step Time =    1.000,"PART-1-1",           382,      -9.04643,      -28.2740,            0.,NA,NA,"",   4.27064E-03,  -1.90259E-03,  -3.82342E-03,   2.76605E-03
C:/temp/dataset/0/3_6.odb,Step-1,Increment      1: Step Time =    1.000,"PART-1-1",           383,          -7.5,          -30.,            0.,NA,NA,"",            0.,  -513.569E-42,  -3.14323E-39,   1.44361E-03
C:/temp/dataset/0/3_6.odb,Step-1,Increment      1: Step Time =    1.000,"PART-1-1",           384,      -5.95538,      -28.5482,            0.,NA,NA,"",   6.16038E-03,  -6.00351E-03,   1.38137E-03,   3.79469E-03
C:/temp/dataset/0/3_6.odb,Step-1,Increment      1: Step Time =    1.000,"PART-1-1",           385,      -10.9107,       24.5471,            0.,NA,NA,"",       2.69515,      -2.68423,  -242.286E-03,   6.56990E-03
C:/temp/dataset/0/3_6.odb,Step-1,Increment      1: Step Time =    1.000,"PART-1-1",           386,      -9.41006,       26.0517,            0.,NA,NA,"",       2.73071,      -2.72418,  -188.641E-03,   6.43825E-03
C:/temp/dataset/0/3_6.odb,Step-1,Increment      1: Step Time =    1.000,"PART-1-1",           387,      -10.7443,       27.3091,            0.,NA,NA,"",       2.76877,      -2.75861,  -237.052E-03,   5.51619E-03
C:/temp/dataset/0/3_6.odb,Step-1,Increment      1: Step Time =    1.000,"PART-1-1",           388,      -12.2450,       25.8045,            0.,NA,NA,"",       2.73294,      -2.71746,  -290.433E-03,   5.74740E-03
C:/temp/dataset/0/3_6.odb,Step-1,Increment      1: Step Time =    1.000,"PART-1-1",           389,      -1.21620,       23.8189,            0.,NA,NA,"",       2.66647,      -2.66645,  -8.26958E-03,   8.01694E-03
C:/temp/dataset/0/3_6.odb,Step-1,Increment      1: Step Time =    1.000,"PART-1-1",           390,      -2.21965,       25.1560,            0.,NA,NA,"",       2.69064,      -2.69058,  -17.2613E-03,   6.34698E-03
C:/temp/dataset/0/3_6.odb,Step-1,Increment      1: Step Time =    1.000,"PART-1-1",           391,      -12.3287,       22.9401,            0.,NA,NA,"",       2.65049,      -2.63351,  -299.545E-03,   6.15436E-03
C:/temp/dataset/0/3_6.odb,Step-1,Increment      1: Step Time =    1.000,"PART-1-1",           392,      -11.0144,       21.7359,            0.,NA,NA,"",       2.60975,      -2.59776,  -249.786E-03,   5.51584E-03
C:/temp/dataset/0/3_6.odb,Step-1,Increment      1: Step Time =    1.000,"PART-1-1",           393,      -9.59641,       23.3428,            0.,NA,NA,"",       2.65913,      -2.65217,  -192.287E-03,   6.54295E-03
C:/temp/dataset/0/3_6.odb,Step-1,Increment      1: Step Time =    1.000,"PART-1-1",           394,      -8.52014,       19.3558,            0.,NA,NA,"",       2.51673,      -2.51254,  -145.069E-03,   5.68419E-03
C:/temp/dataset/0/3_6.odb,Step-1,Increment      1: Step Time =    1.000,"PART-1-1",           395,      -7.12750,       20.9906,            0.,NA,NA,"",       2.58820,      -2.58647,  -94.4310E-03,   7.46108E-03
C:/temp/dataset/0/3_6.odb,Step-1,Increment      1: Step Time =    1.000,"PART-1-1",           396,      -8.32913,       22.1749,            0.,NA,NA,"",       2.62422,      -2.62034,  -142.623E-03,   6.48558E-03
C:/temp/dataset/0/3_6.odb,Step-1,Increment      1: Step Time =    1.000,"PART-1-1",           397,      -9.72177,       20.5400,            0.,NA,NA,"",       2.56582,      -2.55821,  -197.524E-03,   3.82792E-03
C:/temp/dataset/0/3_6.odb,Step-1,Increment      1: Step Time =    1.000,"PART-1-1",           398,      -6.16480,       16.7267,            0.,NA,NA,"",       2.37275,      -2.37272,  -13.0498E-03,   13.7098E-03
C:/temp/dataset/0/3_6.odb,Step-1,Increment      1: Step Time =    1.000,"PART-1-1",           399,           -5.,       18.4615,            0.,NA,NA,"",       2.46264,      -2.46256,   20.1910E-03,   23.8101E-03
C:/temp/dataset/0/3_6.odb,Step-1,Increment      1: Step Time =    1.000,"PART-1-1",           400,      -6.13199,       19.8034,            0.,NA,NA,"",       2.54773,      -2.54718,  -53.1995E-03,   18.3936E-03
C:/temp/dataset/0/3_6.odb,Step-1,Increment      1: Step Time =    1.000,"PART-1-1",           401,      -7.29678,       18.0686,            0.,NA,NA,"",       2.45346,      -2.45196,  -85.8210E-03,   9.43106E-03
C:/temp/dataset/0/3_6.odb,Step-1,Increment      1: Step Time =    1.000,"PART-1-1",           402,      -11.0823,       15.8203,            0.,NA,NA,"",       2.33705,      -2.32275,  -258.137E-03,   3.99441E-03
C:/temp/dataset/0/3_6.odb,Step-1,Increment      1: Step Time =    1.000,"PART-1-1",           403,      -12.3677,       14.0517,            0.,NA,NA,"",       2.23844,      -2.21443,  -326.978E-03,   4.51946E-03
C:/temp/dataset/0/3_6.odb,Step-1,Increment      1: Step Time =    1.000,"PART-1-1",           404,      -11.1015,       12.7786,            0.,NA,NA,"",       2.15228,      -2.13726,  -253.825E-03,   4.09243E-03
C:/temp/dataset/0/3_6.odb,Step-1,Increment      1: Step Time =    1.000,"PART-1-1",           405,          -15.,          10.5,            0.,NA,NA,"",       2.03538,      -1.97411,  -495.646E-03,   5.67509E-03
C:/temp/dataset/0/3_6.odb,Step-1,Increment      1: Step Time =    1.000,"PART-1-1",           406,      -13.6919,       9.25384,            0.,NA,NA,"",       1.93803,      -1.89408,  -410.372E-03,   3.13060E-03
C:/temp/dataset/0/3_6.odb,Step-1,Increment      1: Step Time =    1.000,"PART-1-1",           407,      -12.3755,       11.0249,            0.,NA,NA,"",       2.04546,      -2.01913,  -327.163E-03,   3.95606E-03
C:/temp/dataset/0/3_6.odb,Step-1,Increment      1: Step Time =    1.000,"PART-1-1",           408,      -13.6836,       12.2710,            0.,NA,NA,"",       2.13625,      -2.09716,  -406.809E-03,   5.15304E-03
C:/temp/dataset/0/3_6.odb,Step-1,Increment      1: Step Time =    1.000,"PART-1-1",           409,      -7.40029,       8.84536,            0.,NA,NA,"",       1.87322,      -1.87321,  -4.65790E-03,   6.69580E-03
C:/temp/dataset/0/3_6.odb,Step-1,Increment      1: Step Time =    1.000,"PART-1-1",           410,      -8.62408,       10.1694,            0.,NA,NA,"",       1.96729,      -1.96511,  -92.5164E-03,   6.11723E-03
C:/temp/dataset/0/3_6.odb,Step-1,Increment      1: Step Time =    1.000,"PART-1-1",           411,      -9.86273,       8.43495,            0.,NA,NA,"",       1.85109,      -1.84407,  -161.012E-03,   5.30658E-03
C:/temp/dataset/0/3_6.odb,Step-1,Increment      1: Step Time =    1.000,"PART-1-1",           412,      -8.63893,       7.11093,            0.,NA,NA,"",       1.75202,      -1.75045,  -74.1147E-03,   5.51211E-03
C:/temp/dataset/0/3_6.odb,Step-1,Increment      1: Step Time =    1.000,"PART-1-1",           413,          -15.,           1.5,            0.,NA,NA,"",       1.41726,      -1.33321,  -480.790E-03,   3.55101E-03
C:/temp/dataset/0/3_6.odb,Step-1,Increment      1: Step Time =    1.000,"PART-1-1",           414,      -13.7087,   214.116E-03,            0.,NA,NA,"",       1.29784,      -1.24079,  -380.557E-03,   4.68992E-03
C:/temp/dataset/0/3_6.odb,Step-1,Increment      1: Step Time =    1.000,"PART-1-1",           415,      -12.4129,       1.94059,            0.,NA,NA,"",       1.40083,      -1.36814,  -300.845E-03,   4.52946E-03
C:/temp/dataset/0/3_6.odb,Step-1,Increment      1: Step Time =    1.000,"PART-1-1",           416,      -13.7042,       3.22647,            0.,NA,NA,"",       1.51382,      -1.46088,  -396.857E-03,   2.78168E-03
C:/temp/dataset/0/3_6.odb,Step-1,Increment      1: Step Time =    1.000,"PART-1-1",           417,      -9.88317,  -688.536E-03,            0.,NA,NA,"",       1.18344,      -1.17769,  -116.567E-03,   5.16916E-03
C:/temp/dataset/0/3_6.odb,Step-1,Increment      1: Step Time =    1.000,"PART-1-1",           418,      -8.64028,      -2.02441,            0.,NA,NA,"",       1.08288,      -1.08250,  -28.6136E-03,   4.16729E-03
C:/temp/dataset/0/3_6.odb,Step-1,Increment      1: Step Time =    1.000,"PART-1-1",           419,      -7.40757,  -323.915E-03,            0.,NA,NA,"",       1.20881,      -1.20787,   47.6630E-03,   3.52478E-03
C:/temp/dataset/0/3_6.odb,Step-1,Increment      1: Step Time =    1.000,"PART-1-1",           420,      -8.65046,       1.01196,            0.,NA,NA,"",       1.30451,      -1.30383,  -42.1069E-03,   4.52242E-03
C:/temp/dataset/0/3_6.odb,Step-1,Increment      1: Step Time =    1.000,"PART-1-1",           421,          -15.,          -7.5,            0.,NA,NA,"",   813.453E-03,  -711.910E-03,  -393.561E-03,   12.5985E-03
C:/temp/dataset/0/3_6.odb,Step-1,Increment      1: Step Time =    1.000,"PART-1-1",           422,      -13.7007,      -8.80606,            0.,NA,NA,"",   693.074E-03,  -626.163E-03,  -297.104E-03,   11.1302E-03
C:/temp/dataset/0/3_6.odb,Step-1,Increment      1: Step Time =    1.000,"PART-1-1",           423,      -12.4029,      -7.10316,            0.,NA,NA,"",   768.199E-03,  -730.781E-03,  -236.831E-03,   7.96481E-03
C:/temp/dataset/0/3_6.odb,Step-1,Increment      1: Step Time =    1.000,"PART-1-1",           424,      -13.7022,      -5.79711,            0.,NA,NA,"",   882.943E-03,  -818.941E-03,  -330.036E-03,   8.95250E-03
C:/temp/dataset/0/3_6.odb,Step-1,Increment      1: Step Time =    1.000,"PART-1-1",           425,      -7.34368,      -12.4907,            0.,NA,NA,"",   415.475E-03,  -411.968E-03,   53.8705E-03,   6.30629E-03
C:/temp/dataset/0/3_6.odb,Step-1,Increment      1: Step Time =    1.000,"PART-1-1",           426,      -8.60430,      -11.1353,            0.,NA,NA,"",   483.593E-03,  -483.545E-03,  -6.76485E-03,   4.00650E-03
C:/temp/dataset/0/3_6.odb,Step-1,Increment      1: Step Time =    1.000,"PART-1-1",           427,      -9.82710,      -12.7746,            0.,NA,NA,"",   397.213E-03,  -392.117E-03,  -63.4245E-03,   4.81063E-03
C:/temp/dataset/0/3_6.odb,Step-1,Increment      1: Step Time =    1.000,"PART-1-1",           428,      -8.56648,      -14.1300,            0.,NA,NA,"",   324.406E-03,  -324.358E-03,  -5.56967E-03,   4.58277E-03
C:/temp/dataset/0/3_6.odb,Step-1,Increment      1: Step Time =    1.000,"PART-1-1",           429,  -730.622E-03,       22.2784,            0.,NA,NA,"",       2.64378,      -2.64378,  -6.74749E-03,   7.94607E-03
C:/temp/dataset/0/3_6.odb,Step-1,Increment      1: Step Time =    1.000,"PART-1-1",           430,         -1.25,           20.,            0.,NA,NA,"",       2.61791,      -2.61785,  -17.4591E-03,   9.56701E-03
C:/temp/dataset/0/3_6.odb,Step-1,Increment      1: Step Time =    1.000,"PART-1-1",           431,       11.1367,       28.7451,            0.,NA,NA,"",       2.76069,      -2.75861,   107.115E-03,   1.85459E-03
C:/temp/dataset/0/3_6.odb,Step-1,Increment      1: Step Time =    1.000,"PART-1-1",           432,       10.3125,           30.,            0.,NA,NA,"",       2.77553,      -2.77386,   96.1269E-03,   2.05059E-03
C:/temp/dataset/0/3_6.odb,Step-1,Increment      1: Step Time =    1.000,"PART-1-1",           433,       10.0023,       27.5230,            0.,NA,NA,"",       2.74396,      -2.74249,   89.6967E-03,   2.67061E-03
C:/temp/dataset/0/3_6.odb,Step-1,Increment      1: Step Time =    1.000,"PART-1-1",           434,       10.7751,       23.9735,            0.,NA,NA,"",       2.70671,      -2.70489,   99.2123E-03,   4.81626E-03
C:/temp/dataset/0/3_6.odb,Step-1,Increment      1: Step Time =    1.000,"PART-1-1",           435,       11.7898,       22.7248,            0.,NA,NA,"",       2.69383,      -2.69122,   118.536E-03,   4.92202E-03
C:/temp/dataset/0/3_6.odb,Step-1,Increment      1: Step Time =    1.000,"PART-1-1",           436,       12.9255,       23.8368,            0.,NA,NA,"",       2.70708,      -2.70360,   137.238E-03,   4.26092E-03
C:/temp/dataset/0/3_6.odb,Step-1,Increment      1: Step Time =    1.000,"PART-1-1",           437,       2.25220,       28.9826,            0.,NA,NA,"",       2.74623,      -2.74620,   13.0584E-03,   2.51583E-03
C:/temp/dataset/0/3_6.odb,Step-1,Increment      1: Step Time =    1.000,"PART-1-1",           438,       3.21116,       27.8846,            0.,NA,NA,"",       2.73370,      -2.73364,   19.1117E-03,   3.98385E-03
C:/temp/dataset/0/3_6.odb,Step-1,Increment      1: Step Time =    1.000,"PART-1-1",           439,       4.70896,       28.9020,            0.,NA,NA,"",       2.74713,      -2.74696,   30.5641E-03,   2.63392E-03
C:/temp/dataset/0/3_6.odb,Step-1,Increment      1: Step Time =    1.000,"PART-1-1",           440,          3.75,           30.,            0.,NA,NA,"",       2.75591,      -2.75581,   23.8467E-03,   1.07624E-03
C:/temp/dataset/0/3_6.odb,Step-1,Increment      1: Step Time =    1.000,"PART-1-1",           441,      -8.10884,       24.8461,            0.,NA,NA,"",       2.69630,      -2.69257,  -141.791E-03,   5.93785E-03
C:/temp/dataset/0/3_6.odb,Step-1,Increment      1: Step Time =    1.000,"PART-1-1",           442,      -13.5971,       27.1125,            0.,NA,NA,"",       2.77338,      -2.75298,  -335.758E-03,   2.98662E-03
C:/temp/dataset/0/3_6.odb,Step-1,Increment      1: Step Time =    1.000,"PART-1-1",           443,          -15.,          25.5,            0.,NA,NA,"",       2.73078,      -2.70374,  -383.392E-03,   4.42509E-03
C:/temp/dataset/0/3_6.odb,Step-1,Increment      1: Step Time =    1.000,"PART-1-1",           444,      -13.6479,       24.1920,            0.,NA,NA,"",       2.69046,      -2.66834,  -344.328E-03,   5.90469E-03
C:/temp/dataset/0/3_6.odb,Step-1,Increment      1: Step Time =    1.000,"PART-1-1",           445,      -6.53168,       26.2506,            0.,NA,NA,"",       2.72478,      -2.72299,  -98.9720E-03,   5.15780E-03
C:/temp/dataset/0/3_6.odb,Step-1,Increment      1: Step Time =    1.000,"PART-1-1",           446,      -7.83289,       27.4562,            0.,NA,NA,"",       2.75942,      -2.75585,  -140.281E-03,   5.46322E-03
C:/temp/dataset/0/3_6.odb,Step-1,Increment      1: Step Time =    1.000,"PART-1-1",           447,          -15.,          28.5,            0.,NA,NA,"",       2.81891,      -2.79324,  -379.577E-03,   678.066E-06
C:/temp/dataset/0/3_6.odb,Step-1,Increment      1: Step Time =    1.000,"PART-1-1",           448,      -12.0971,       28.6125,            0.,NA,NA,"",       2.81149,      -2.79698,  -285.219E-03,   2.99964E-03
C:/temp/dataset/0/3_6.odb,Step-1,Increment      1: Step Time =    1.000,"PART-1-1",           449,         -13.5,           30.,            0.,NA,NA,"",       2.86017,      -2.84074,  -332.759E-03,   670.797E-06
C:/temp/dataset/0/3_6.odb,Step-1,Increment      1: Step Time =    1.000,"PART-1-1",           450,      -6.19829,       10.5730,            0.,NA,NA,"",       1.99095,      -1.99009,   58.4328E-03,   8.82438E-03
C:/temp/dataset/0/3_6.odb,Step-1,Increment      1: Step Time =    1.000,"PART-1-1",           451,      -6.20201,       7.50308,            0.,NA,NA,"",       1.78036,      -1.77827,   86.2627E-03,   6.59559E-03
C:/temp/dataset/0/3_6.odb,Step-1,Increment      1: Step Time =    1.000,"PART-1-1",           452,           -5.,       9.23077,            0.,NA,NA,"",       1.90317,      -1.89703,   152.776E-03,   9.19806E-03
C:/temp/dataset/0/3_6.odb,Step-1,Increment      1: Step Time =    1.000,"PART-1-1",           453,      -12.4049,       4.96458,            0.,NA,NA,"",       1.62105,      -1.59030,  -314.217E-03,   3.80754E-03
C:/temp/dataset/0/3_6.odb,Step-1,Increment      1: Step Time =    1.000,"PART-1-1",           454,      -13.7007,       6.23810,            0.,NA,NA,"",       1.72878,      -1.68018,  -407.056E-03,   1.90155E-03
C:/temp/dataset/0/3_6.odb,Step-1,Increment      1: Step Time =    1.000,"PART-1-1",           455,          -15.,           4.5,            0.,NA,NA,"",       1.62803,      -1.55118,  -494.307E-03,   548.419E-06
C:/temp/dataset/0/3_6.odb,Step-1,Increment      1: Step Time =    1.000,"PART-1-1",           456,      -9.87977,       5.38582,            0.,NA,NA,"",       1.63112,      -1.62450,  -146.806E-03,   5.24865E-03
C:/temp/dataset/0/3_6.odb,Step-1,Increment      1: Step Time =    1.000,"PART-1-1",           457,      -8.64969,       4.05795,            0.,NA,NA,"",       1.52934,      -1.52827,  -57.3791E-03,   4.97215E-03
C:/temp/dataset/0/3_6.odb,Step-1,Increment      1: Step Time =    1.000,"PART-1-1",           458,      -7.40885,       5.78306,            0.,NA,NA,"",       1.65520,      -1.65512,   16.4924E-03,   5.40042E-03
C:/temp/dataset/0/3_6.odb,Step-1,Increment      1: Step Time =    1.000,"PART-1-1",           459,      -7.41391,       2.72502,            0.,NA,NA,"",       1.43188,      -1.43147,   33.8817E-03,   4.28654E-03
C:/temp/dataset/0/3_6.odb,Step-1,Increment      1: Step Time =    1.000,"PART-1-1",           460,      -9.88624,       2.34489,            0.,NA,NA,"",       1.40687,      -1.40067,  -131.866E-03,   5.21277E-03
C:/temp/dataset/0/3_6.odb,Step-1,Increment      1: Step Time =    1.000,"PART-1-1",           461,      -12.4101,      -4.09106,            0.,NA,NA,"",   969.614E-03,  -933.648E-03,  -261.634E-03,   6.72715E-03
C:/temp/dataset/0/3_6.odb,Step-1,Increment      1: Step Time =    1.000,"PART-1-1",           462,      -13.7080,      -2.79395,            0.,NA,NA,"",       1.08595,      -1.02519,  -358.140E-03,   6.80087E-03
C:/temp/dataset/0/3_6.odb,Step-1,Increment      1: Step Time =    1.000,"PART-1-1",           463,          -15.,          -4.5,            0.,NA,NA,"",       1.00539,  -908.765E-03,  -430.071E-03,   9.58382E-03
C:/temp/dataset/0/3_6.odb,Step-1,Increment      1: Step Time =    1.000,"PART-1-1",           464,      -9.87646,      -3.71895,            0.,NA,NA,"",   965.633E-03,  -960.266E-03,  -101.672E-03,   5.10777E-03
C:/temp/dataset/0/3_6.odb,Step-1,Increment      1: Step Time =    1.000,"PART-1-1",           465,      -8.63520,      -5.06687,            0.,NA,NA,"",   868.412E-03,  -868.219E-03,  -18.3156E-03,   3.94684E-03
C:/temp/dataset/0/3_6.odb,Step-1,Increment      1: Step Time =    1.000,"PART-1-1",           466,      -7.39901,      -3.37233,            0.,NA,NA,"",   990.474E-03,  -988.841E-03,   56.8600E-03,   3.38044E-03
C:/temp/dataset/0/3_6.odb,Step-1,Increment      1: Step Time =    1.000,"PART-1-1",           467,      -7.39417,      -6.42670,            0.,NA,NA,"",   781.482E-03,  -779.121E-03,   60.6883E-03,   3.93410E-03
C:/temp/dataset/0/3_6.odb,Step-1,Increment      1: Step Time =    1.000,"PART-1-1",           468,      -9.87187,      -6.75385,            0.,NA,NA,"",   758.030E-03,  -752.912E-03,  -87.9383E-03,   5.02407E-03
C:/temp/dataset/0/3_6.odb,Step-1,Increment      1: Step Time =    1.000,"PART-1-1",           469,      -8.63084,      -8.11369,            0.,NA,NA,"",   666.384E-03,  -666.289E-03,  -11.2990E-03,   3.89619E-03
C:/temp/dataset/0/3_6.odb,Step-1,Increment      1: Step Time =    1.000,"PART-1-1",           470,      -12.3844,      -13.1215,            0.,NA,NA,"",   418.505E-03,  -378.176E-03,  -179.246E-03,   10.4390E-03
C:/temp/dataset/0/3_6.odb,Step-1,Increment      1: Step Time =    1.000,"PART-1-1",           471,      -13.6984,      -11.8123,            0.,NA,NA,"",   521.401E-03,  -452.323E-03,  -259.350E-03,   13.3105E-03
C:/temp/dataset/0/3_6.odb,Step-1,Increment      1: Step Time =    1.000,"PART-1-1",           472,          -15.,         -13.5,            0.,NA,NA,"",   478.409E-03,  -373.213E-03,  -299.310E-03,   18.6167E-03
C:/temp/dataset/0/3_6.odb,Step-1,Increment      1: Step Time =    1.000,"PART-1-1",           473,      -7.37693,      -9.46970,            0.,NA,NA,"",   588.104E-03,  -585.057E-03,   59.7936E-03,   4.97831E-03
C:/temp/dataset/0/3_6.odb,Step-1,Increment      1: Step Time =    1.000,"PART-1-1",           474,      -9.85821,      -9.77933,            0.,NA,NA,"",   566.582E-03,  -561.579E-03,  -75.1333E-03,   4.91862E-03
C:/temp/dataset/0/3_6.odb,Step-1,Increment      1: Step Time =    1.000,"PART-1-1",           475,      -8.48236,      -17.0363,            0.,NA,NA,"",   194.279E-03,  -194.202E-03,  -5.44794E-03,   5.63503E-03
C:/temp/dataset/0/3_6.odb,Step-1,Increment      1: Step Time =    1.000,"PART-1-1",           476,      -7.28434,      -15.4580,            0.,NA,NA,"",   268.090E-03,  -264.538E-03,   43.4938E-03,   8.24794E-03
C:/temp/dataset/0/3_6.odb,Step-1,Increment      1: Step Time =    1.000,"PART-1-1",           477,      -9.76451,      -15.7083,            0.,NA,NA,"",   255.496E-03,  -250.120E-03,  -52.1351E-03,   4.92777E-03
C:/temp/dataset/0/3_6.odb,Step-1,Increment      1: Step Time =    1.000,"PART-1-1",           478,      -8.29054,      -19.6175,            0.,NA,NA,"",   105.978E-03,  -105.976E-03,  -563.378E-06,   4.28145E-03
C:/temp/dataset/0/3_6.odb,Step-1,Increment      1: Step Time =    1.000,"PART-1-1",           479,      -7.20240,      -18.2338,            0.,NA,NA,"",   150.961E-03,  -148.063E-03,   29.4367E-03,   7.84772E-03
C:/temp/dataset/0/3_6.odb,Step-1,Increment      1: Step Time =    1.000,"PART-1-1",           480,      -9.57051,      -18.4200,            0.,NA,NA,"",   149.418E-03,  -144.815E-03,  -36.8031E-03,   4.69396E-03
C:/temp/dataset/0/3_6.odb,Step-1,Increment      1: Step Time =    1.000,"PART-1-1",           481,      -11.5327,      -24.2644,            0.,NA,NA,"",   54.7231E-03,  -33.5873E-03,  -43.2031E-03,   9.32895E-03
C:/temp/dataset/0/3_6.odb,Step-1,Increment      1: Step Time =    1.000,"PART-1-1",           482,      -10.1789,      -23.4859,            0.,NA,NA,"",   47.6669E-03,  -38.6641E-03,  -27.8786E-03,   5.54669E-03
C:/temp/dataset/0/3_6.odb,Step-1,Increment      1: Step Time =    1.000,"PART-1-1",           483,      -10.8627,      -21.7859,            0.,NA,NA,"",   82.9955E-03,  -65.9421E-03,  -50.3973E-03,   7.94838E-03
C:/temp/dataset/0/3_6.odb,Step-1,Increment      1: Step Time =    1.000,"PART-1-1",           484,      -12.2165,      -22.5644,            0.,NA,NA,"",   91.9024E-03,  -58.8877E-03,  -70.5570E-03,   11.8127E-03
C:/temp/dataset/0/3_6.odb,Step-1,Increment      1: Step Time =    1.000,"PART-1-1",           485,      -6.15301,      -21.8453,            0.,NA,NA,"",   67.8688E-03,  -60.5948E-03,   30.5686E-03,   8.57863E-03
C:/temp/dataset/0/3_6.odb,Step-1,Increment      1: Step Time =    1.000,"PART-1-1",           486,      -7.48433,      -22.7723,            0.,NA,NA,"",   48.1176E-03,  -46.8539E-03,   10.9552E-03,   3.82447E-03
C:/temp/dataset/0/3_6.odb,Step-1,Increment      1: Step Time =    1.000,"PART-1-1",           487,      -6.61766,      -24.1583,            0.,NA,NA,"",   37.9799E-03,  -35.4088E-03,   13.7366E-03,   5.35289E-03
C:/temp/dataset/0/3_6.odb,Step-1,Increment      1: Step Time =    1.000,"PART-1-1",           488,      -9.30746,      -21.9937,            0.,NA,NA,"",   60.7053E-03,  -57.8655E-03,  -18.3498E-03,   3.80581E-03
C:/temp/dataset/0/3_6.odb,Step-1,Increment      1: Step Time =    1.000,"PART-1-1",           489,      -9.12330,      -20.5212,            0.,NA,NA,"",   87.4485E-03,  -85.4029E-03,  -18.8040E-03,   3.68371E-03
C:/temp/dataset/0/3_6.odb,Step-1,Increment      1: Step Time =    1.000,"PART-1-1",           490,      -10.6786,      -20.3134,            0.,NA,NA,"",   110.869E-03,  -95.3270E-03,  -56.6095E-03,   7.50359E-03
C:/temp/dataset/0/3_6.odb,Step-1,Increment      1: Step Time =    1.000,"PART-1-1",           491,         -13.5,          -30.,            0.,NA,NA,"",            0.,   1.25802E-39,  -25.5298E-39,   13.4618E-03
C:/temp/dataset/0/3_6.odb,Step-1,Increment      1: Step Time =    1.000,"PART-1-1",           492,      -12.0973,      -28.5120,            0.,NA,NA,"",   11.6549E-03,  -2.82242E-03,  -11.3080E-03,   9.55254E-03
C:/temp/dataset/0/3_6.odb,Step-1,Increment      1: Step Time =    1.000,"PART-1-1",           493,      -13.5973,      -27.0120,            0.,NA,NA,"",   40.6445E-03,  -18.9243E-03,  -35.9701E-03,   14.5297E-03
C:/temp/dataset/0/3_6.odb,Step-1,Increment      1: Step Time =    1.000,"PART-1-1",           494,          -15.,         -28.5,            0.,NA,NA,"",   29.8102E-03,  -18.5984E-03,  -23.2969E-03,   17.8129E-03
C:/temp/dataset/0/3_6.odb,Step-1,Increment      1: Step Time =    1.000,"PART-1-1",           495,      -2.59553,      -21.0976,            0.,NA,NA,"",   68.9609E-03,  -66.3697E-03,   18.7261E-03,   5.59583E-03
C:/temp/dataset/0/3_6.odb,Step-1,Increment      1: Step Time =    1.000,"PART-1-1",           496,      -1.51596,      -22.2324,            0.,NA,NA,"",   63.3068E-03,  -62.6749E-03,   8.92256E-03,   7.76458E-03
C:/temp/dataset/0/3_6.odb,Step-1,Increment      1: Step Time =    1.000,"PART-1-1",           497,  -170.430E-03,      -21.1349,            0.,NA,NA,"",   62.5113E-03,  -62.4992E-03,  -1.22851E-03,   2.96261E-03
C:/temp/dataset/0/3_6.odb,Step-1,Increment      1: Step Time =    1.000,"PART-1-1",           498,         -1.25,          -20.,            0.,NA,NA,"",   57.9811E-03,  -57.7130E-03,   5.56940E-03,   2.06828E-03
C:/temp/dataset/0/3_6.odb,Step-1,Increment      1: Step Time =    1.000,"PART-1-1",           499,       2.92795,      -28.2085,            0.,NA,NA,"",   15.4971E-03,  -14.6248E-03,  -5.12588E-03,   7.55382E-03
C:/temp/dataset/0/3_6.odb,Step-1,Increment      1: Step Time =    1.000,"PART-1-1",           500,  -103.307E-03,      -28.5907,            0.,NA,NA,"",   14.3858E-03,  -14.3423E-03,  -1.11698E-03,   7.19849E-03
C:/temp/dataset/0/3_6.odb,Step-1,Increment      1: Step Time =    1.000,"PART-1-1",           501,           1.5,          -30.,            0.,NA,NA,"",            0.,  -7.76960E-39,  -4.44180E-39,   6.17273E-03
C:/temp/dataset/0/3_6.odb,Step-1,Increment      1: Step Time =    1.000,"PART-1-1",           502,       2.19497,      -21.2732,            0.,NA,NA,"",   75.4231E-03,  -71.7515E-03,  -23.2458E-03,   7.14176E-03
C:/temp/dataset/0/3_6.odb,Step-1,Increment      1: Step Time =    1.000,"PART-1-1",           503,          1.25,          -20.,            0.,NA,NA,"",   59.8349E-03,  -58.9295E-03,  -10.3691E-03,   4.34581E-03
C:/temp/dataset/0/3_6.odb,Step-1,Increment      1: Step Time =    1.000,"PART-1-1",           504,       4.38160,      -21.6436,            0.,NA,NA,"",   94.2010E-03,  -78.0956E-03,  -52.6774E-03,   20.6826E-03
C:/temp/dataset/0/3_6.odb,Step-1,Increment      1: Step Time =    1.000,"PART-1-1",           505,          3.75,          -20.,            0.,NA,NA,"",   88.5152E-03,  -78.8183E-03,  -40.2818E-03,   19.0170E-03
C:/temp/dataset/0/3_6.odb,Step-1,Increment      1: Step Time =    1.000,"PART-1-1",           506,       12.4146,      -26.3616,            0.,NA,NA,"",   47.6306E-03,  -20.0672E-03,   43.1970E-03,   14.7889E-03
C:/temp/dataset/0/3_6.odb,Step-1,Increment      1: Step Time =    1.000,"PART-1-1",           507,       11.3720,      -25.0651,            0.,NA,NA,"",   52.2554E-03,  -28.4499E-03,   43.8318E-03,   11.2002E-03
C:/temp/dataset/0/3_6.odb,Step-1,Increment      1: Step Time =    1.000,"PART-1-1",           508,       9.80011,      -26.1459,            0.,NA,NA,"",   20.0378E-03,  -12.6652E-03,   15.5276E-03,   5.07524E-03
C:/temp/dataset/0/3_6.odb,Step-1,Increment      1: Step Time =    1.000,"PART-1-1",           509,       10.8427,      -27.4423,            0.,NA,NA,"",   17.8912E-03,  -5.04234E-03,   17.1660E-03,   8.68520E-03
C:/temp/dataset/0/3_6.odb,Step-1,Increment      1: Step Time =    1.000,"PART-1-1",           510,       10.6574,      -21.6616,            0.,NA,NA,"",   104.153E-03,  -86.0157E-03,   58.7293E-03,   9.68750E-03
C:/temp/dataset/0/3_6.odb,Step-1,Increment      1: Step Time =    1.000,"PART-1-1",           511,       9.56375,      -20.8051,            0.,NA,NA,"",   108.348E-03,  -103.184E-03,   33.0498E-03,   7.07760E-03
C:/temp/dataset/0/3_6.odb,Step-1,Increment      1: Step Time =    1.000,"PART-1-1",           512,       9.91066,      -22.7482,            0.,NA,NA,"",   66.6970E-03,  -58.1838E-03,   32.6058E-03,   6.71392E-03
C:/temp/dataset/0/3_6.odb,Step-1,Increment      1: Step Time =    1.000,"PART-1-1",           513,       13.7822,      -25.0807,            0.,NA,NA,"",   93.5352E-03,  -45.1611E-03,   81.9104E-03,   19.9880E-03
C:/temp/dataset/0/3_6.odb,Step-1,Increment      1: Step Time =    1.000,"PART-1-1",           514,       13.6324,      -27.5308,            0.,NA,NA,"",   41.5092E-03,  -17.7975E-03,   37.5002E-03,   18.6318E-03
C:/temp/dataset/0/3_6.odb,Step-1,Increment      1: Step Time =    1.000,"PART-1-1",           515,           15.,        -26.25,            0.,NA,NA,"",   86.8435E-03,  -43.1514E-03,   75.3642E-03,   23.3411E-03
C:/temp/dataset/0/3_6.odb,Step-1,Increment      1: Step Time =    1.000,"PART-1-1",           516,          13.5,          -30.,            0.,NA,NA,"",            0.,   1.14180E-39,   32.5670E-39,   16.6690E-03
C:/temp/dataset/0/3_6.odb,Step-1,Increment      1: Step Time =    1.000,"PART-1-1",           517,           15.,        -28.75,            0.,NA,NA,"",   31.2484E-03,  -19.5432E-03,   24.3828E-03,   22.7028E-03
C:/temp/dataset/0/3_6.odb,Step-1,Increment      1: Step Time =    1.000,"PART-1-1",           518,       12.1324,      -28.7808,            0.,NA,NA,"",   11.7505E-03,  -1.10461E-03,   11.6985E-03,   11.9360E-03
C:/temp/dataset/0/3_6.odb,Step-1,Increment      1: Step Time =    1.000,"PART-1-1",           519,       10.4418,      -23.8774,            0.,NA,NA,"",   55.2248E-03,  -40.8523E-03,   37.1600E-03,   8.09195E-03
C:/temp/dataset/0/3_6.odb,Step-1,Increment      1: Step Time =    1.000,"PART-1-1",           520,       12.6627,      -23.9582,            0.,NA,NA,"",   95.7857E-03,  -52.2402E-03,   80.2861E-03,   16.6347E-03
C:/temp/dataset/0/3_6.odb,Step-1,Increment      1: Step Time =    1.000,"PART-1-1",           521,       11.7324,      -22.7705,            0.,NA,NA,"",   101.193E-03,  -67.4647E-03,   75.4218E-03,   13.4396E-03
C:/temp/dataset/0/3_6.odb,Step-1,Increment      1: Step Time =    1.000,"PART-1-1",           522,       13.8804,      -22.6275,            0.,NA,NA,"",   156.796E-03,  -88.5206E-03,   129.418E-03,   22.0600E-03
C:/temp/dataset/0/3_6.odb,Step-1,Increment      1: Step Time =    1.000,"PART-1-1",           523,           15.,        -23.75,            0.,NA,NA,"",   150.619E-03,  -78.0572E-03,   128.815E-03,   25.4550E-03
C:/temp/dataset/0/3_6.odb,Step-1,Increment      1: Step Time =    1.000,"PART-1-1",           524,       10.4567,      -19.3679,            0.,NA,NA,"",   173.254E-03,  -158.283E-03,   70.4508E-03,   9.34433E-03
C:/temp/dataset/0/3_6.odb,Step-1,Increment      1: Step Time =    1.000,"PART-1-1",           525,       11.6911,      -20.4036,            0.,NA,NA,"",   165.009E-03,  -129.676E-03,   102.039E-03,   13.8301E-03
C:/temp/dataset/0/3_6.odb,Step-1,Increment      1: Step Time =    1.000,"PART-1-1",           526,       13.7764,      -15.1383,            0.,NA,NA,"",   476.874E-03,  -397.931E-03,   262.791E-03,   18.8743E-03
C:/temp/dataset/0/3_6.odb,Step-1,Increment      1: Step Time =    1.000,"PART-1-1",           527,           15.,        -16.25,            0.,NA,NA,"",   464.738E-03,  -347.683E-03,   308.379E-03,   25.4365E-03
C:/temp/dataset/0/3_6.odb,Step-1,Increment      1: Step Time =    1.000,"PART-1-1",           528,       13.9082,      -7.52913,            0.,NA,NA,"",       1.01037,  -948.776E-03,   347.387E-03,   9.58111E-03
C:/temp/dataset/0/3_6.odb,Step-1,Increment      1: Step Time =    1.000,"PART-1-1",           529,       12.6962,      -8.81215,            0.,NA,NA,"",   875.510E-03,  -838.163E-03,   252.981E-03,   9.85112E-03
C:/temp/dataset/0/3_6.odb,Step-1,Increment      1: Step Time =    1.000,"PART-1-1",           530,           15.,         -8.75,            0.,NA,NA,"",   958.286E-03,  -860.276E-03,   422.181E-03,   13.0470E-03
C:/temp/dataset/0/3_6.odb,Step-1,Increment      1: Step Time =    1.000,"PART-1-1",           531,       12.9315,      -6.39763,            0.,NA,NA,"",       1.07177,      -1.03501,   278.297E-03,   8.07073E-03
C:/temp/dataset/0/3_6.odb,Step-1,Increment      1: Step Time =    1.000,"PART-1-1",           532,           15.,         -6.25,            0.,NA,NA,"",       1.14767,      -1.06045,   438.847E-03,   8.88590E-03
C:/temp/dataset/0/3_6.odb,Step-1,Increment      1: Step Time =    1.000,"PART-1-1",           533,       13.7496,  -319.059E-03,            0.,NA,NA,"",       1.58461,      -1.54782,   339.488E-03,   2.88282E-03
C:/temp/dataset/0/3_6.odb,Step-1,Increment      1: Step Time =    1.000,"PART-1-1",           534,       12.6614,      -1.81770,            0.,NA,NA,"",       1.44179,      -1.41834,   258.945E-03,   5.71529E-03
C:/temp/dataset/0/3_6.odb,Step-1,Increment      1: Step Time =    1.000,"PART-1-1",           535,           15.,         -1.25,            0.,NA,NA,"",       1.53991,      -1.47477,   443.149E-03,   838.234E-06
C:/temp/dataset/0/3_6.odb,Step-1,Increment      1: Step Time =    1.000,"PART-1-1",           536,       12.4054,   643.186E-03,            0.,NA,NA,"",       1.64057,      -1.62389,   233.342E-03,   5.63957E-03
C:/temp/dataset/0/3_6.odb,Step-1,Increment      1: Step Time =    1.000,"PART-1-1",           537,           15.,          1.25,            0.,NA,NA,"",       1.73436,      -1.67973,   431.877E-03,   3.13146E-03
C:/temp/dataset/0/3_6.odb,Step-1,Increment      1: Step Time =    1.000,"PART-1-1",           538,           15.,          6.25,            0.,NA,NA,"",       2.10162,      -2.06582,   386.277E-03,   10.7397E-03
C:/temp/dataset/0/3_6.odb,Step-1,Increment      1: Step Time =    1.000,"PART-1-1",           539,       10.9661,       10.0010,            0.,NA,NA,"",       2.31805,      -2.31550,   108.548E-03,   5.06339E-03
C:/temp/dataset/0/3_6.odb,Step-1,Increment      1: Step Time =    1.000,"PART-1-1",           540,       13.7311,       15.1467,            0.,NA,NA,"",       2.55183,      -2.54329,   208.528E-03,   11.1805E-03
C:/temp/dataset/0/3_6.odb,Step-1,Increment      1: Step Time =    1.000,"PART-1-1",           541,       13.6638,       12.5861,            0.,NA,NA,"",       2.46500,      -2.45437,   228.625E-03,   11.0396E-03
C:/temp/dataset/0/3_6.odb,Step-1,Increment      1: Step Time =    1.000,"PART-1-1",           542,           15.,         13.75,            0.,NA,NA,"",       2.51300,      -2.49868,   267.866E-03,   16.9366E-03
C:/temp/dataset/0/3_6.odb,Step-1,Increment      1: Step Time =    1.000,"PART-1-1",           543,       10.0887,       16.9483,            0.,NA,NA,"",       2.59409,      -2.59289,   78.9804E-03,   4.95026E-03
C:/temp/dataset/0/3_6.odb,Step-1,Increment      1: Step Time =    1.000,"PART-1-1",           544,       12.5455,       16.5489,            0.,NA,NA,"",       2.58768,      -2.58281,   158.797E-03,   7.64110E-03
C:/temp/dataset/0/3_6.odb,Step-1,Increment      1: Step Time =    1.000,"PART-1-1",           545,       13.9423,       22.5670,            0.,NA,NA,"",       2.69163,      -2.68699,   158.035E-03,   4.98868E-03
C:/temp/dataset/0/3_6.odb,Step-1,Increment      1: Step Time =    1.000,"PART-1-1",           546,       12.8310,       21.4264,            0.,NA,NA,"",       2.67758,      -2.67381,   142.133E-03,   5.67149E-03
C:/temp/dataset/0/3_6.odb,Step-1,Increment      1: Step Time =    1.000,"PART-1-1",           547,           15.,         21.25,            0.,NA,NA,"",       2.67214,      -2.66593,   182.133E-03,   7.75960E-03
C:/temp/dataset/0/3_6.odb,Step-1,Increment      1: Step Time =    1.000,"PART-1-1",           548,       13.0804,       28.7387,            0.,NA,NA,"",       2.76343,      -2.76013,   135.069E-03,   907.412E-06
C:/temp/dataset/0/3_6.odb,Step-1,Increment      1: Step Time =    1.000,"PART-1-1",           549,       12.1875,           30.,            0.,NA,NA,"",       2.77905,      -2.77634,   122.646E-03,   798.566E-06
C:/temp/dataset/0/3_6.odb,Step-1,Increment      1: Step Time =    1.000,"PART-1-1",           550,           15.,         28.75,            0.,NA,NA,"",       2.76528,      -2.76060,   160.752E-03,   157.978E-06
C:/temp/dataset/0/3_6.odb,Step-1,Increment      1: Step Time =    1.000,"PART-1-1",           551,       14.0625,           30.,            0.,NA,NA,"",       2.78085,      -2.77689,   148.311E-03,   141.778E-06
C:/temp/dataset/0/3_6.odb,Step-1,Increment      1: Step Time =    1.000,"PART-1-1",           552,       8.83353,       26.4105,            0.,NA,NA,"",       2.72877,      -2.72784,   71.4194E-03,   3.37478E-03
C:/temp/dataset/0/3_6.odb,Step-1,Increment      1: Step Time =    1.000,"PART-1-1",           553,       9.77062,       25.1982,            0.,NA,NA,"",       2.71784,      -2.71655,   83.4802E-03,   3.91855E-03
C:/temp/dataset/0/3_6.odb,Step-1,Increment      1: Step Time =    1.000,"PART-1-1",           554,       5.62710,       27.7270,            0.,NA,NA,"",       2.73568,      -2.73543,   36.9778E-03,   2.79331E-03
C:/temp/dataset/0/3_6.odb,Step-1,Increment      1: Step Time =    1.000,"PART-1-1",           555,          6.25,           30.,            0.,NA,NA,"",       2.76217,      -2.76179,   45.8951E-03,   3.11097E-03
C:/temp/dataset/0/3_6.odb,Step-1,Increment      1: Step Time =    1.000,"PART-1-1",           556,   375.256E-03,       24.5574,            0.,NA,NA,"",       2.68194,      -2.68194,   1.64292E-03,   7.39673E-03
C:/temp/dataset/0/3_6.odb,Step-1,Increment      1: Step Time =    1.000,"PART-1-1",           557,   860.838E-03,       23.0169,            0.,NA,NA,"",       2.66003,      -2.66003,   2.10733E-03,   7.11708E-03
C:/temp/dataset/0/3_6.odb,Step-1,Increment      1: Step Time =    1.000,"PART-1-1",           558,       10.5910,       21.6677,            0.,NA,NA,"",       2.67979,      -2.67812,   94.5768E-03,   5.83238E-03
C:/temp/dataset/0/3_6.odb,Step-1,Increment      1: Step Time =    1.000,"PART-1-1",           559,       9.14786,      -24.5495,            0.,NA,NA,"",   30.9578E-03,  -28.6450E-03,   11.7411E-03,   2.77615E-03
C:/temp/dataset/0/3_6.odb,Step-1,Increment      1: Step Time =    1.000,"PART-1-1",           560,           15.,        -21.25,            0.,NA,NA,"",   232.916E-03,  -136.640E-03,   188.625E-03,   27.6637E-03
C:/temp/dataset/0/3_6.odb,Step-1,Increment      1: Step Time =    1.000,"PART-1-1",           561,       12.7662,      -21.5126,            0.,NA,NA,"",   159.511E-03,  -105.478E-03,   119.658E-03,   17.4827E-03
C:/temp/dataset/0/3_6.odb,Step-1,Increment      1: Step Time =    1.000,"PART-1-1",           562,           15.,        -13.75,            0.,NA,NA,"",   613.105E-03,  -498.280E-03,   357.231E-03,   21.6135E-03
C:/temp/dataset/0/3_6.odb,Step-1,Increment      1: Step Time =    1.000,"PART-1-1",           563,       12.5272,      -13.9788,            0.,NA,NA,"",   504.674E-03,  -459.984E-03,   207.631E-03,   13.5599E-03
C:/temp/dataset/0/3_6.odb,Step-1,Increment      1: Step Time =    1.000,"PART-1-1",           564,           15.,         11.25,            0.,NA,NA,"",       2.41065,      -2.39073,   309.233E-03,   17.2628E-03
C:/temp/dataset/0/3_6.odb,Step-1,Increment      1: Step Time =    1.000,"PART-1-1",           565,       12.2906,       11.3331,            0.,NA,NA,"",       2.39949,      -2.39324,   173.145E-03,   5.30128E-03
C:/temp/dataset/0/3_6.odb,Step-1,Increment      1: Step Time =    1.000,"PART-1-1",           566,       7.23650,       5.28124,            0.,NA,NA,"",       1.97890,      -1.97480,  -127.371E-03,   11.1044E-03
C:/temp/dataset/0/3_6.odb,Step-1,Increment      1: Step Time =    1.000,"PART-1-1",           567,       8.44697,       3.91887,            0.,NA,NA,"",       1.87751,      -1.87680,  -51.3004E-03,   8.74406E-03
C:/temp/dataset/0/3_6.odb,Step-1,Increment      1: Step Time =    1.000,"PART-1-1",           568,       9.72373,       11.4508,            0.,NA,NA,"",       2.38844,      -2.38795,   48.5721E-03,   6.09311E-03
C:/temp/dataset/0/3_6.odb,Step-1,Increment      1: Step Time =    1.000,"PART-1-1",           569,           15.,         16.25,            0.,NA,NA,"",       2.57554,      -2.56506,   232.068E-03,   13.8326E-03
C:/temp/dataset/0/3_6.odb,Step-1,Increment      1: Step Time =    1.000,"PART-1-1",           570,       6.21850,       16.4100,            0.,NA,NA,"",       2.56194,      -2.56152,  -46.6486E-03,   16.5582E-03
C:/temp/dataset/0/3_6.odb,Step-1,Increment      1: Step Time =    1.000,"PART-1-1",           571,       7.58992,       17.5073,            0.,NA,NA,"",       2.60024,      -2.60023,   6.33275E-03,   9.62016E-03
C:/temp/dataset/0/3_6.odb,Step-1,Increment      1: Step Time =    1.000,"PART-1-1",           572,       6.37141,       19.4306,            0.,NA,NA,"",       2.63844,      -2.63844,  -4.15163E-03,   12.2704E-03
C:/temp/dataset/0/3_6.odb,Step-1,Increment      1: Step Time =    1.000,"PART-1-1",           573,            5.,       18.3333,            0.,NA,NA,"",       2.60355,      -2.60313,  -46.5001E-03,   22.3981E-03
C:/temp/dataset/0/3_6.odb,Step-1,Increment      1: Step Time =    1.000,"PART-1-1",           574,           15.,         23.75,            0.,NA,NA,"",       2.70508,      -2.69983,   168.452E-03,   4.34478E-03
C:/temp/dataset/0/3_6.odb,Step-1,Increment      1: Step Time =    1.000,"PART-1-1",           575,         -3.75,          -20.,            0.,NA,NA,"",   74.9659E-03,  -69.8133E-03,   27.3127E-03,   14.5330E-03
C:/temp/dataset/0/3_6.odb,Step-1,Increment      1: Step Time =    1.000,"PART-1-1",           576,      -5.05545,      -21.0122,            0.,NA,NA,"",   86.4066E-03,  -73.5590E-03,   45.3340E-03,   16.7828E-03
C:/temp/dataset/0/3_6.odb,Step-1,Increment      1: Step Time =    1.000,"PART-1-1",           577,       7.51719,       25.3425,            0.,NA,NA,"",       2.71289,      -2.71241,   51.1713E-03,   3.99090E-03
C:/temp/dataset/0/3_6.odb,Step-1,Increment      1: Step Time =    1.000,"PART-1-1",           578,       6.22510,       24.4051,            0.,NA,NA,"",       2.69689,      -2.69670,   32.7663E-03,   6.10506E-03
C:/temp/dataset/0/3_6.odb,Step-1,Increment      1: Step Time =    1.000,"PART-1-1",           579,       7.27278,       23.2327,            0.,NA,NA,"",       2.68776,      -2.68748,   38.9548E-03,   6.43492E-03
C:/temp/dataset/0/3_6.odb,Step-1,Increment      1: Step Time =    1.000,"PART-1-1",           580,       8.56487,       24.1701,            0.,NA,NA,"",       2.70334,      -2.70263,   61.9827E-03,   5.29074E-03
C:/temp/dataset/0/3_6.odb,Step-1,Increment      1: Step Time =    1.000,"PART-1-1",           581,            5.,      -8.33333,            0.,NA,NA,"",   904.083E-03,  -855.134E-03,  -293.448E-03,   6.71541E-03
C:/temp/dataset/0/3_6.odb,Step-1,Increment      1: Step Time =    1.000,"PART-1-1",           582,       7.86568,      -7.92961,            0.,NA,NA,"",   893.829E-03,  -889.989E-03,  -82.7648E-03,   6.24278E-03
C:/temp/dataset/0/3_6.odb,Step-1,Increment      1: Step Time =    1.000,"PART-1-1",           583,       6.55300,      -6.36051,            0.,NA,NA,"",       1.03158,      -1.01452,  -186.872E-03,   3.86524E-03
C:/temp/dataset/0/3_6.odb,Step-1,Increment      1: Step Time =    1.000,"PART-1-1",           584,       2.48006,       24.7002,            0.,NA,NA,"",       2.68804,      -2.68801,   11.1642E-03,   7.15059E-03
C:/temp/dataset/0/3_6.odb,Step-1,Increment      1: Step Time =    1.000,"PART-1-1",           585,       1.90437,       23.5201,            0.,NA,NA,"",       2.66969,      -2.66968,   6.68701E-03,   7.35859E-03
C:/temp/dataset/0/3_6.odb,Step-1,Increment      1: Step Time =    1.000,"PART-1-1",           586,       3.20717,       23.2686,            0.,NA,NA,"",       2.67008,      -2.67006,   10.1642E-03,   7.87462E-03
C:/temp/dataset/0/3_6.odb,Step-1,Increment      1: Step Time =    1.000,"PART-1-1",           587,       3.78286,       24.4486,            0.,NA,NA,"",       2.68798,      -2.68793,   16.0151E-03,   7.53526E-03
C:/temp/dataset/0/3_6.odb,Step-1,Increment      1: Step Time =    1.000,"PART-1-1",           588,   574.843E-03,       25.7278,            0.,NA,NA,"",       2.70101,      -2.70101,   3.25391E-03,   6.94119E-03
C:/temp/dataset/0/3_6.odb,Step-1,Increment      1: Step Time =    1.000,"PART-1-1",           589,       1.89275,       27.1317,            0.,NA,NA,"",       2.72306,      -2.72304,   10.9214E-03,   5.55707E-03
C:/temp/dataset/0/3_6.odb,Step-1,Increment      1: Step Time =    1.000,"PART-1-1",           590,   743.770E-03,       27.8321,            0.,NA,NA,"",       2.73348,      -2.73348,   3.79990E-03,   5.10699E-03
C:/temp/dataset/0/3_6.odb,Step-1,Increment      1: Step Time =    1.000,"PART-1-1",           591,  -574.133E-03,       26.4282,            0.,NA,NA,"",       2.71275,      -2.71275,  -4.43437E-03,   6.36631E-03
C:/temp/dataset/0/3_6.odb,Step-1,Increment      1: Step Time =    1.000,"PART-1-1",           592,          1.25,           30.,            0.,NA,NA,"",       2.75694,      -2.75693,   5.20791E-03,   2.73416E-03
C:/temp/dataset/0/3_6.odb,Step-1,Increment      1: Step Time =    1.000,"PART-1-1",           593,  -258.432E-03,       28.8495,            0.,NA,NA,"",       2.74947,      -2.74946,  -5.02718E-03,   4.62973E-03
C:/temp/dataset/0/3_6.odb,Step-1,Increment      1: Step Time =    1.000,"PART-1-1",           594,       3.99806,       26.6235,            0.,NA,NA,"",       2.71847,      -2.71837,   22.6856E-03,   5.13699E-03
C:/temp/dataset/0/3_6.odb,Step-1,Increment      1: Step Time =    1.000,"PART-1-1",           595,       4.96332,       25.4314,            0.,NA,NA,"",       2.70514,      -2.70501,   26.3039E-03,   5.40123E-03
C:/temp/dataset/0/3_6.odb,Step-1,Increment      1: Step Time =    1.000,"PART-1-1",           596,       6.59236,       26.5350,            0.,NA,NA,"",       2.72392,      -2.72356,   43.9281E-03,   3.64133E-03
C:/temp/dataset/0/3_6.odb,Step-1,Increment      1: Step Time =    1.000,"PART-1-1",           597,          -1.5,           30.,            0.,NA,NA,"",       2.76952,      -2.76944,  -20.2496E-03,   7.18330E-03
C:/temp/dataset/0/3_6.odb,Step-1,Increment      1: Step Time =    1.000,"PART-1-1",           598,      -3.21021,       28.8021,            0.,NA,NA,"",       2.76269,      -2.76241,  -38.8935E-03,   7.14152E-03
C:/temp/dataset/0/3_6.odb,Step-1,Increment      1: Step Time =    1.000,"PART-1-1",           599,      -1.96864,       27.6516,            0.,NA,NA,"",       2.73668,      -2.73662,  -19.2969E-03,   5.38379E-03
C:/temp/dataset/0/3_6.odb,Step-1,Increment      1: Step Time =    1.000,"PART-1-1",           600,       2.23679,       22.3955,            0.,NA,NA,"",       2.65647,      -2.65647,   5.53782E-03,   6.55079E-03
C:/temp/dataset/0/3_6.odb,Step-1,Increment      1: Step Time =    1.000,"PART-1-1",           601,       6.10470,      -23.0953,            0.,NA,NA,"",   62.6663E-03,  -52.4827E-03,  -34.2437E-03,   9.29184E-03
C:/temp/dataset/0/3_6.odb,Step-1,Increment      1: Step Time =    1.000,"PART-1-1",           602,       5.87020,      -25.1929,            0.,NA,NA,"",   35.4178E-03,  -29.7520E-03,  -19.2157E-03,   9.20574E-03
C:/temp/dataset/0/3_6.odb,Step-1,Increment      1: Step Time =    1.000,"PART-1-1",           603,       7.19944,      -25.3013,            0.,NA,NA,"",   25.5993E-03,  -23.3899E-03,  -10.4037E-03,   4.44363E-03
C:/temp/dataset/0/3_6.odb,Step-1,Increment      1: Step Time =    1.000,"PART-1-1",           604,       10.0350,      -14.2359,            0.,NA,NA,"",   436.075E-03,  -430.305E-03,   70.7019E-03,   8.23029E-03
C:/temp/dataset/0/3_6.odb,Step-1,Increment      1: Step Time =    1.000,"PART-1-1",           605,       11.6788,      -7.40939,            0.,NA,NA,"",   963.244E-03,  -945.313E-03,   184.993E-03,   8.26169E-03
C:/temp/dataset/0/3_6.odb,Step-1,Increment      1: Step Time =    1.000,"PART-1-1",           606,       11.2427,      -1.09783,            0.,NA,NA,"",       1.48169,      -1.47397,   151.026E-03,   6.73051E-03
C:/temp/dataset/0/3_6.odb,Step-1,Increment      1: Step Time =    1.000,"PART-1-1",           607,       7.93860,       19.8912,            0.,NA,NA,"",       2.65009,      -2.64991,   31.2297E-03,   8.15416E-03
C:/temp/dataset/0/3_6.odb,Step-1,Increment      1: Step Time =    1.000,"PART-1-1",           608,       8.98253,       18.5426,            0.,NA,NA,"",       2.62758,      -2.62709,   50.3729E-03,   5.92200E-03
C:/temp/dataset/0/3_6.odb,Step-1,Increment      1: Step Time =    1.000,"PART-1-1",           609,       9.31070,       20.7205,            0.,NA,NA,"",       2.66505,      -2.66426,   64.9555E-03,   6.44636E-03
C:/temp/dataset/0/3_6.odb,Step-1,Increment      1: Step Time =    1.000,"PART-1-1",           610,       3.88086,       22.5675,            0.,NA,NA,"",       2.66336,      -2.66335,   9.37146E-03,   8.59100E-03
C:/temp/dataset/0/3_6.odb,Step-1,Increment      1: Step Time =    1.000,"PART-1-1",           611,       2.67965,       25.8706,            0.,NA,NA,"",       2.70562,      -2.70559,   14.0750E-03,   6.51538E-03
C:/temp/dataset/0/3_6.odb,Step-1,Increment      1: Step Time =    1.000,"PART-1-1",           612,            5.,          -15.,            0.,NA,NA,"",   440.621E-03,  -389.415E-03,  -206.163E-03,   17.5557E-03
C:/temp/dataset/0/3_6.odb,Step-1,Increment      1: Step Time =    1.000,"PART-1-1",           613,       6.27023,      -16.3841,            0.,NA,NA,"",   317.375E-03,  -298.279E-03,  -108.426E-03,   14.6208E-03
C:/temp/dataset/0/3_6.odb,Step-1,Increment      1: Step Time =    1.000,"PART-1-1",           614,       7.51616,      -14.5750,            0.,NA,NA,"",   410.644E-03,  -405.627E-03,  -63.9927E-03,   9.59939E-03
C:/temp/dataset/0/3_6.odb,Step-1,Increment      1: Step Time =    1.000,"PART-1-1",           615,       6.15302,       13.2331,            0.,NA,NA,"",       2.44753,      -2.44558,  -97.6449E-03,   18.4799E-03
C:/temp/dataset/0/3_6.odb,Step-1,Increment      1: Step Time =    1.000,"PART-1-1",           616,       7.37153,       14.6431,            0.,NA,NA,"",       2.51134,      -2.51116,  -30.0347E-03,   12.8362E-03
C:/temp/dataset/0/3_6.odb,Step-1,Increment      1: Step Time =    1.000,"PART-1-1",           617,            5.,           15.,            0.,NA,NA,"",       2.50568,      -2.50320,  -111.560E-03,   22.2761E-03
C:/temp/dataset/0/3_6.odb,Step-1,Increment      1: Step Time =    1.000,"PART-1-1",           618,            5.,       11.6667,            0.,NA,NA,"",       2.36761,      -2.36097,  -177.192E-03,   22.9771E-03
C:/temp/dataset/0/3_6.odb,Step-1,Increment      1: Step Time =    1.000,"PART-1-1",           619,       6.12690,       10.0064,            0.,NA,NA,"",       2.28807,      -2.28333,  -147.176E-03,   18.0296E-03
C:/temp/dataset/0/3_6.odb,Step-1,Increment      1: Step Time =    1.000,"PART-1-1",           620,       7.27992,       11.5729,            0.,NA,NA,"",       2.37895,      -2.37797,  -68.2680E-03,   13.5818E-03
C:/temp/dataset/0/3_6.odb,Step-1,Increment      1: Step Time =    1.000,"PART-1-1",           621,       6.15632,   278.618E-03,            0.,NA,NA,"",       1.58398,      -1.56750,  -227.946E-03,   6.86639E-03
C:/temp/dataset/0/3_6.odb,Step-1,Increment      1: Step Time =    1.000,"PART-1-1",           622,            5.,      -1.66667,            0.,NA,NA,"",       1.43581,      -1.39889,  -323.504E-03,   4.28417E-03
C:/temp/dataset/0/3_6.odb,Step-1,Increment      1: Step Time =    1.000,"PART-1-1",           623,       6.25252,      -2.97068,            0.,NA,NA,"",       1.31434,      -1.29558,  -221.292E-03,   3.61954E-03
C:/temp/dataset/0/3_6.odb,Step-1,Increment      1: Step Time =    1.000,"PART-1-1",           624,       7.67955,      -17.4721,            0.,NA,NA,"",   235.098E-03,  -233.091E-03,  -30.6546E-03,   9.46769E-03
C:/temp/dataset/0/3_6.odb,Step-1,Increment      1: Step Time =    1.000,"PART-1-1",           625,            5.,      -18.3333,            0.,NA,NA,"",   242.032E-03,  -201.396E-03,  -134.236E-03,   29.6704E-03
C:/temp/dataset/0/3_6.odb,Step-1,Increment      1: Step Time =    1.000,"PART-1-1",           626,       6.40932,      -19.4213,            0.,NA,NA,"",   144.467E-03,  -132.074E-03,  -58.5420E-03,   20.2271E-03
C:/temp/dataset/0/3_6.odb,Step-1,Increment      1: Step Time =    1.000,"PART-1-1",           627,      -1.73152,      -24.7018,            0.,NA,NA,"",   47.7529E-03,  -47.2951E-03,   6.59663E-03,   9.35437E-03
C:/temp/dataset/0/3_6.odb,Step-1,Increment      1: Step Time =    1.000,"PART-1-1",           628,       9.06065,      -18.5206,            0.,NA,NA,"",   188.020E-03,  -186.504E-03,   23.8327E-03,   7.89587E-03
C:/temp/dataset/0/3_6.odb,Step-1,Increment      1: Step Time =    1.000,"PART-1-1",           629,       8.80686,      -15.8614,            0.,NA,NA,"",   326.658E-03,  -326.496E-03,   10.3024E-03,   8.08765E-03
C:/temp/dataset/0/3_6.odb,Step-1,Increment      1: Step Time =    1.000,"PART-1-1",           630,       10.3171,      -8.61722,            0.,NA,NA,"",   846.600E-03,  -841.883E-03,   89.2471E-03,   8.02618E-03
C:/temp/dataset/0/3_6.odb,Step-1,Increment      1: Step Time =    1.000,"PART-1-1",           631,       8.85917,      -9.88939,            0.,NA,NA,"",   737.862E-03,  -737.830E-03,  -6.84517E-03,   6.59043E-03
C:/temp/dataset/0/3_6.odb,Step-1,Increment      1: Step Time =    1.000,"PART-1-1",           632,       8.74431,      -12.9496,            0.,NA,NA,"",   513.845E-03,  -513.831E-03,  -3.72386E-03,   6.95493E-03
C:/temp/dataset/0/3_6.odb,Step-1,Increment      1: Step Time =    1.000,"PART-1-1",           633,       6.89786,       21.2129,            0.,NA,NA,"",       2.66371,      -2.66363,   20.2621E-03,   9.58179E-03
C:/temp/dataset/0/3_6.odb,Step-1,Increment      1: Step Time =    1.000,"PART-1-1",           634,       10.2659,      -2.76771,            0.,NA,NA,"",       1.33095,      -1.32848,   81.0866E-03,   7.87037E-03
C:/temp/dataset/0/3_6.odb,Step-1,Increment      1: Step Time =    1.000,"PART-1-1",           635,       7.80552,      -4.33119,            0.,NA,NA,"",       1.19088,      -1.18676,  -98.9621E-03,   6.26786E-03
C:/temp/dataset/0/3_6.odb,Step-1,Increment      1: Step Time =    1.000,"PART-1-1",           636,            5.,           -5.,            0.,NA,NA,"",       1.16600,      -1.12229,  -316.231E-03,   1.26162E-03
C:/temp/dataset/0/3_6.odb,Step-1,Increment      1: Step Time =    1.000,"PART-1-1",           637,       7.27801,       2.13112,            0.,NA,NA,"",       1.73239,      -1.72684,  -138.481E-03,   8.79908E-03
C:/temp/dataset/0/3_6.odb,Step-1,Increment      1: Step Time =    1.000,"PART-1-1",           638,       6.12168,       3.51917,            0.,NA,NA,"",       1.84352,      -1.83076,  -216.582E-03,   10.9902E-03
C:/temp/dataset/0/3_6.odb,Step-1,Increment      1: Step Time =    1.000,"PART-1-1",           639,            5.,       1.66667,            0.,NA,NA,"",       1.70300,      -1.67382,  -313.896E-03,   9.89143E-03
C:/temp/dataset/0/3_6.odb,Step-1,Increment      1: Step Time =    1.000,"PART-1-1",           640,            5.,            5.,            0.,NA,NA,"",       1.95632,      -1.93531,  -285.897E-03,   15.6128E-03
C:/temp/dataset/0/3_6.odb,Step-1,Increment      1: Step Time =    1.000,"PART-1-1",           641,       6.11481,       6.76207,            0.,NA,NA,"",       2.08277,      -2.07417,  -189.003E-03,   15.1279E-03
C:/temp/dataset/0/3_6.odb,Step-1,Increment      1: Step Time =    1.000,"PART-1-1",           642,       8.53738,       13.0133,            0.,NA,NA,"",       2.45408,      -2.45408,   2.75438E-03,   9.60759E-03
C:/temp/dataset/0/3_6.odb,Step-1,Increment      1: Step Time =    1.000,"PART-1-1",           643,       8.69606,       15.9130,            0.,NA,NA,"",       2.56063,      -2.56046,   28.9225E-03,   8.23087E-03
C:/temp/dataset/0/3_6.odb,Step-1,Increment      1: Step Time =    1.000,"PART-1-1",           644,       9.56938,       22.9454,            0.,NA,NA,"",       2.69294,      -2.69187,   75.7326E-03,   5.56444E-03
C:/temp/dataset/0/3_6.odb,Step-1,Increment      1: Step Time =    1.000,"PART-1-1",           645,       8.28908,       21.9981,            0.,NA,NA,"",       2.67828,      -2.67784,   48.5559E-03,   7.23662E-03
C:/temp/dataset/0/3_6.odb,Step-1,Increment      1: Step Time =    1.000,"PART-1-1",           646,      -3.61415,       26.3795,            0.,NA,NA,"",       2.71735,      -2.71709,  -37.7764E-03,   5.07232E-03
C:/temp/dataset/0/3_6.odb,Step-1,Increment      1: Step Time =    1.000,"PART-1-1",           647,      -6.18563,       28.7596,            0.,NA,NA,"",       2.78149,      -2.77974,  -98.6822E-03,   7.56939E-03
C:/temp/dataset/0/3_6.odb,Step-1,Increment      1: Step Time =    1.000,"PART-1-1",           648,      -4.89584,       27.5617,            0.,NA,NA,"",       2.74719,      -2.74642,  -64.9769E-03,   4.84402E-03
C:/temp/dataset/0/3_6.odb,Step-1,Increment      1: Step Time =    1.000,"PART-1-1",           649,          -4.5,           30.,            0.,NA,NA,"",       2.79473,      -2.79394,  -66.2931E-03,   9.90734E-03
C:/temp/dataset/0/3_6.odb,Step-1,Increment      1: Step Time =    1.000,"PART-1-1",           650,          -15.,          19.5,            0.,NA,NA,"",       2.52826,      -2.49150,  -429.550E-03,   12.0648E-03
C:/temp/dataset/0/3_6.odb,Step-1,Increment      1: Step Time =    1.000,"PART-1-1",           651,      -13.6835,       18.2834,            0.,NA,NA,"",       2.47236,      -2.44301,  -379.796E-03,   8.75948E-03
C:/temp/dataset/0/3_6.odb,Step-1,Increment      1: Step Time =    1.000,"PART-1-1",           652,      -12.3643,       20.0316,            0.,NA,NA,"",       2.54667,      -2.52756,  -311.418E-03,   5.20417E-03
C:/temp/dataset/0/3_6.odb,Step-1,Increment      1: Step Time =    1.000,"PART-1-1",           653,      -13.6808,       21.2481,            0.,NA,NA,"",       2.59518,      -2.57001,  -360.559E-03,   8.24894E-03
C:/temp/dataset/0/3_6.odb,Step-1,Increment      1: Step Time =    1.000,"PART-1-1",           654,      -6.08047,      -19.7739,            0.,NA,NA,"",   104.720E-03,  -94.2649E-03,   45.6122E-03,   15.8744E-03
C:/temp/dataset/0/3_6.odb,Step-1,Increment      1: Step Time =    1.000,"PART-1-1",           655,      -7.17803,      -20.6070,            0.,NA,NA,"",   82.0541E-03,  -78.9570E-03,   22.3307E-03,   5.53858E-03
C:/temp/dataset/0/3_6.odb,Step-1,Increment      1: Step Time =    1.000,"PART-1-1",           656,       5.87583,      -21.1387,            0.,NA,NA,"",   99.0205E-03,  -81.8536E-03,  -55.7229E-03,   14.8404E-03
C:/temp/dataset/0/3_6.odb,Step-1,Increment      1: Step Time =    1.000,"PART-1-1",           657,       4.61047,      -23.6002,            0.,NA,NA,"",   63.7094E-03,  -53.4861E-03,  -34.6139E-03,   12.4449E-03
C:/temp/dataset/0/3_6.odb,Step-1,Increment      1: Step Time =    1.000,"PART-1-1",           658,       4.56928,      -26.4448,            0.,NA,NA,"",   27.8846E-03,  -23.9732E-03,  -14.2420E-03,   8.11538E-03
C:/temp/dataset/0/3_6.odb,Step-1,Increment      1: Step Time =    1.000,"PART-1-1",           659,       5.04464,       23.4223,            0.,NA,NA,"",       2.67943,      -2.67937,   18.1532E-03,   7.74140E-03
C:/temp/dataset/0/3_6.odb,Step-1,Increment      1: Step Time =    1.000,"PART-1-1",           660,       5.88156,       22.4475,            0.,NA,NA,"",       2.67191,      -2.67185,   17.9130E-03,   9.56479E-03
C:/temp/dataset/0/3_6.odb,Step-1,Increment      1: Step Time =    1.000,"PART-1-1",           661,      -1.61333,      -27.2257,            0.,NA,NA,"",   25.6533E-03,  -25.5733E-03,   2.02442E-03,   7.16912E-03
C:/temp/dataset/0/3_6.odb,Step-1,Increment      1: Step Time =    1.000,"PART-1-1",           662,      -3.01002,      -28.6350,            0.,NA,NA,"",   11.4125E-03,  -11.3122E-03,   1.51028E-03,   6.19153E-03
C:/temp/dataset/0/3_6.odb,Step-1,Increment      1: Step Time =    1.000,"PART-1-1",           663,          -1.5,          -30.,            0.,NA,NA,"",            0.,  -7.74791E-39,  -279.259E-42,   6.24663E-03
C:/temp/dataset/0/3_6.odb,Step-1,Increment      1: Step Time =    1.000,"PART-1-1",           664,            5.,       8.33333,            0.,NA,NA,"",       2.18230,      -2.16918,  -238.961E-03,   20.5706E-03
C:/temp/dataset/0/3_6.odb,Step-1,Increment      1: Step Time =    1.000,"PART-1-1",           665,       8.16766,      -19.9578,            0.,NA,NA,"",   121.840E-03,  -121.697E-03,  -5.90287E-03,   6.46088E-03
C:/temp/dataset/0/3_6.odb,Step-1,Increment      1: Step Time =    1.000,"PART-1-1",           666,       7.85169,      -26.8977,            0.,NA,NA,"",   8.44282E-03,  -8.28373E-03,  -1.63125E-03,   2.97115E-03
C:/temp/dataset/0/3_6.odb,Step-1,Increment      1: Step Time =    1.000,"PART-1-1",           667,          -4.5,          -30.,            0.,NA,NA,"",            0.,  -4.37606E-39,   1.39223E-39,   3.79188E-03
C:/temp/dataset/0/3_6.odb,Step-1,Increment      1: Step Time =    1.000,"PART-1-1",           668,      -7.38541,       11.9129,            0.,NA,NA,"",       2.08095,      -2.08075,  -29.2756E-03,   8.09490E-03
C:/temp/dataset/0/3_6.odb,Step-1,Increment      1: Step Time =    1.000,"PART-1-1",           669,      -9.84369,       11.4885,            0.,NA,NA,"",       2.06141,      -2.05398,  -174.935E-03,   5.37667E-03
C:/temp/dataset/0/3_6.odb,Step-1,Increment      1: Step Time =    1.000,"PART-1-1",           670,           -5.,      -18.4615,            0.,NA,NA,"",   178.349E-03,  -152.582E-03,   92.3420E-03,   24.3665E-03
C:/temp/dataset/0/3_6.odb,Step-1,Increment      1: Step Time =    1.000,"PART-1-1",           671,      -6.12192,      -16.9214,            0.,NA,NA,"",   218.635E-03,  -205.240E-03,   75.3500E-03,   12.7444E-03
C:/temp/dataset/0/3_6.odb,Step-1,Increment      1: Step Time =    1.000,"PART-1-1",           672,      -12.3453,      -25.6066,            0.,NA,NA,"",   47.3560E-03,  -23.7034E-03,  -40.9968E-03,   11.4478E-03
C:/temp/dataset/0/3_6.odb,Step-1,Increment      1: Step Time =    1.000,"PART-1-1",           673,      -10.6437,      -26.7860,            0.,NA,NA,"",   19.1065E-03,  -9.78705E-03,  -16.4095E-03,   6.45065E-03
C:/temp/dataset/0/3_6.odb,Step-1,Increment      1: Step Time =    1.000,"PART-1-1",           674,      -9.83114,      -25.4438,            0.,NA,NA,"",   24.3614E-03,  -18.6677E-03,  -15.6523E-03,   4.30641E-03
C:/temp/dataset/0/3_6.odb,Step-1,Increment      1: Step Time =    1.000,"PART-1-1",           675,      -8.43320,      -25.2132,            0.,NA,NA,"",   21.3823E-03,  -21.1699E-03,  -3.00576E-03,   1.92888E-03
C:/temp/dataset/0/3_6.odb,Step-1,Increment      1: Step Time =    1.000,"PART-1-1",           676,      -9.78639,       17.5920,            0.,NA,NA,"",       2.43056,      -2.42258,  -196.868E-03,   3.83981E-03
C:/temp/dataset/0/3_6.odb,Step-1,Increment      1: Step Time =    1.000,"PART-1-1",           677,      -11.0716,       18.8358,            0.,NA,NA,"",       2.49348,      -2.48019,  -257.099E-03,   3.37407E-03
C:/temp/dataset/0/3_6.odb,Step-1,Increment      1: Step Time =    1.000,"PART-1-1",           678,      -12.3675,       17.0640,            0.,NA,NA,"",       2.40881,      -2.38722,  -321.782E-03,   4.83890E-03
C:/temp/dataset/0/3_6.odb,Step-1,Increment      1: Step Time =    1.000,"PART-1-1",           679,      -12.1189,      -19.2948,            0.,NA,NA,"",   165.084E-03,  -128.490E-03,  -103.648E-03,   11.4981E-03
C:/temp/dataset/0/3_6.odb,Step-1,Increment      1: Step Time =    1.000,"PART-1-1",           680,      -11.0109,      -17.4013,            0.,NA,NA,"",   203.989E-03,  -184.403E-03,  -87.2189E-03,   8.05267E-03
C:/temp/dataset/0/3_6.odb,Step-1,Increment      1: Step Time =    1.000,"PART-1-1",           681,      -8.01079,      -21.5107,            0.,NA,NA,"",   64.2513E-03,  -64.0192E-03,   5.45621E-03,   2.81919E-03
C:/temp/dataset/0/3_6.odb,Step-1,Increment      1: Step Time =    1.000,"PART-1-1",           682,           4.5,          -30.,            0.,NA,NA,"",            0.,  -3.71629E-39,  -4.96992E-39,   3.93681E-03
C:/temp/dataset/0/3_6.odb,Step-1,Increment      1: Step Time =    1.000,"PART-1-1",           683,       6.14133,      -28.2363,            0.,NA,NA,"",   6.76861E-03,  -5.52797E-03,  -3.90586E-03,   4.60969E-03
C:/temp/dataset/0/3_6.odb,Step-1,Increment      1: Step Time =    1.000,"PART-1-1",           684,      -9.14726,       28.6966,            0.,NA,NA,"",       2.79904,      -2.79291,  -185.256E-03,   5.73901E-03
C:/temp/dataset/0/3_6.odb,Step-1,Increment      1: Step Time =    1.000,"PART-1-1",           685,         -10.5,           30.,            0.,NA,NA,"",       2.84685,      -2.83727,  -233.420E-03,   4.30566E-03
C:/temp/dataset/0/3_6.odb,Step-1,Increment      1: Step Time =    1.000,"PART-1-1",           686,      -6.18127,      -10.8771,            0.,NA,NA,"",   520.788E-03,  -506.598E-03,   120.741E-03,   7.84044E-03
C:/temp/dataset/0/3_6.odb,Step-1,Increment      1: Step Time =    1.000,"PART-1-1",           687,      -6.16241,      -13.9212,            0.,NA,NA,"",   358.522E-03,  -343.635E-03,   102.241E-03,   10.1681E-03
C:/temp/dataset/0/3_6.odb,Step-1,Increment      1: Step Time =    1.000,"PART-1-1",           688,           -5.,      -12.3077,            0.,NA,NA,"",   467.304E-03,  -433.953E-03,   173.373E-03,   12.0618E-03
C:/temp/dataset/0/3_6.odb,Step-1,Increment      1: Step Time =    1.000,"PART-1-1",           689,         -10.5,          -30.,            0.,NA,NA,"",            0.,   1.41853E-39,  -13.4782E-39,   5.78845E-03
C:/temp/dataset/0/3_6.odb,Step-1,Increment      1: Step Time =    1.000,"PART-1-1",           690,          -15.,          22.5,            0.,NA,NA,"",       2.63943,      -2.60881,  -400.891E-03,   9.33866E-03
C:/temp/dataset/0/3_6.odb,Step-1,Increment      1: Step Time =    1.000,"PART-1-1",           691,          -15.,          16.5,            0.,NA,NA,"",       2.38835,      -2.34374,  -459.458E-03,   11.4782E-03
C:/temp/dataset/0/3_6.odb,Step-1,Increment      1: Step Time =    1.000,"PART-1-1",           692,      -13.6840,       15.2806,            0.,NA,NA,"",       2.31692,      -2.28273,  -396.564E-03,   7.27569E-03
C:/temp/dataset/0/3_6.odb,Step-1,Increment      1: Step Time =    1.000,"PART-1-1",           693,          -15.,          13.5,            0.,NA,NA,"",       2.22173,      -2.16873,  -482.408E-03,   8.83995E-03
C:/temp/dataset/0/3_6.odb,Step-1,Increment      1: Step Time =    1.000,"PART-1-1",           694,      -6.20685,       4.43382,            0.,NA,NA,"",       1.56145,      -1.55769,   108.175E-03,   4.40625E-03
C:/temp/dataset/0/3_6.odb,Step-1,Increment      1: Step Time =    1.000,"PART-1-1",           695,           -5.,       6.15385,            0.,NA,NA,"",       1.69175,      -1.68197,   181.652E-03,   6.16511E-03
C:/temp/dataset/0/3_6.odb,Step-1,Increment      1: Step Time =    1.000,"PART-1-1",           696,      -6.20051,      -1.69203,            0.,NA,NA,"",       1.11962,      -1.11156,   134.137E-03,   1.87858E-03
C:/temp/dataset/0/3_6.odb,Step-1,Increment      1: Step Time =    1.000,"PART-1-1",           697,      -6.19850,      -4.75722,            0.,NA,NA,"",   906.275E-03,  -895.894E-03,   136.778E-03,   3.47711E-03
C:/temp/dataset/0/3_6.odb,Step-1,Increment      1: Step Time =    1.000,"PART-1-1",           698,           -5.,      -3.07692,            0.,NA,NA,"",       1.04033,      -1.01710,   218.608E-03,   3.11623E-03
C:/temp/dataset/0/3_6.odb,Step-1,Increment      1: Step Time =    1.000,"PART-1-1",           699,      -12.3926,       7.99194,            0.,NA,NA,"",       1.83757,      -1.80895,  -323.076E-03,   3.60192E-03
C:/temp/dataset/0/3_6.odb,Step-1,Increment      1: Step Time =    1.000,"PART-1-1",           700,          -15.,           7.5,            0.,NA,NA,"",       1.83571,      -1.76647,  -499.421E-03,   2.55463E-03
C:/temp/dataset/0/3_6.odb,Step-1,Increment      1: Step Time =    1.000,"PART-1-1",           701,      -12.4166,      -1.07984,            0.,NA,NA,"",       1.18194,      -1.14748,  -283.306E-03,   5.55470E-03
C:/temp/dataset/0/3_6.odb,Step-1,Increment      1: Step Time =    1.000,"PART-1-1",           702,          -15.,          -1.5,            0.,NA,NA,"",       1.20816,      -1.11747,  -459.256E-03,   6.57086E-03
C:/temp/dataset/0/3_6.odb,Step-1,Increment      1: Step Time =    1.000,"PART-1-1",           703,      -12.3992,      -10.1184,            0.,NA,NA,"",   582.621E-03,  -543.661E-03,  -209.474E-03,   9.22566E-03
C:/temp/dataset/0/3_6.odb,Step-1,Increment      1: Step Time =    1.000,"PART-1-1",           704,          -15.,         -10.5,            0.,NA,NA,"",   636.535E-03,  -531.709E-03,  -349.946E-03,   15.6269E-03
C:/temp/dataset/0/3_6.odb,Step-1,Increment      1: Step Time =    1.000,"PART-1-1",           705,      -6.19567,      -7.82333,            0.,NA,NA,"",   704.786E-03,  -692.277E-03,   132.198E-03,   5.60307E-03
C:/temp/dataset/0/3_6.odb,Step-1,Increment      1: Step Time =    1.000,"PART-1-1",           706,           -5.,      -6.15385,            0.,NA,NA,"",   834.221E-03,  -806.579E-03,   212.967E-03,   6.17868E-03
C:/temp/dataset/0/3_6.odb,Step-1,Increment      1: Step Time =    1.000,"PART-1-1",           707,          -15.,         -22.5,            0.,NA,NA,"",   146.250E-03,  -79.6098E-03,  -122.684E-03,   20.2810E-03
C:/temp/dataset/0/3_6.odb,Step-1,Increment      1: Step Time =    1.000,"PART-1-1",           708,      -13.7480,      -24.0946,            0.,NA,NA,"",   90.7405E-03,  -47.4062E-03,  -77.3725E-03,   15.7412E-03
C:/temp/dataset/0/3_6.odb,Step-1,Increment      1: Step Time =    1.000,"PART-1-1",           709,      -13.4685,      -20.9699,            0.,NA,NA,"",   151.272E-03,  -95.7993E-03,  -117.072E-03,   16.2820E-03
C:/temp/dataset/0/3_6.odb,Step-1,Increment      1: Step Time =    1.000,"PART-1-1",           710,          -15.,         -25.5,            0.,NA,NA,"",   82.7155E-03,  -42.2063E-03,  -71.1370E-03,   18.3125E-03
C:/temp/dataset/0/3_6.odb,Step-1,Increment      1: Step Time =    1.000,"PART-1-1",           711,           7.5,          -30.,            0.,NA,NA,"",            0.,   1.33093E-39,   1.32820E-39,   1.01189E-03
C:/temp/dataset/0/3_6.odb,Step-1,Increment      1: Step Time =    1.000,"PART-1-1",           712,       9.21036,      -28.6615,            0.,NA,NA,"",   3.78911E-03,   1.33203E-03,   3.54725E-03,   3.48338E-03
C:/temp/dataset/0/3_6.odb,Step-1,Increment      1: Step Time =    1.000,"PART-1-1",           713,          10.5,          -30.,            0.,NA,NA,"",            0.,   3.11751E-39,   15.8520E-39,   6.89103E-03
C:/temp/dataset/0/3_6.odb,Step-1,Increment      1: Step Time =    1.000,"PART-1-1",           714,          -7.5,           30.,            0.,NA,NA,"",       2.82391,      -2.82048,  -139.133E-03,   8.62396E-03
C:/temp/dataset/0/3_6.odb,Step-1,Increment      1: Step Time =    1.000,"PART-1-1",           715,          -15.,         -19.5,            0.,NA,NA,"",   231.606E-03,  -143.994E-03,  -181.403E-03,   21.8206E-03
C:/temp/dataset/0/3_6.odb,Step-1,Increment      1: Step Time =    1.000,"PART-1-1",           716,      -6.18713,       13.6475,            0.,NA,NA,"",       2.18854,      -2.18838,   26.0432E-03,   11.0592E-03
C:/temp/dataset/0/3_6.odb,Step-1,Increment      1: Step Time =    1.000,"PART-1-1",           717,           -5.,       15.3846,            0.,NA,NA,"",       2.28894,      -2.28772,   74.5974E-03,   14.9849E-03
C:/temp/dataset/0/3_6.odb,Step-1,Increment      1: Step Time =    1.000,"PART-1-1",           718,           -5.,       12.3077,            0.,NA,NA,"",       2.10363,      -2.10041,   116.303E-03,   12.0093E-03
C:/temp/dataset/0/3_6.odb,Step-1,Increment      1: Step Time =    1.000,"PART-1-1",           719,           -5.,            0.,            0.,NA,NA,"",       1.25528,      -1.23672,   215.032E-03,   168.714E-06
C:/temp/dataset/0/3_6.odb,Step-1,Increment      1: Step Time =    1.000,"PART-1-1",           720,      -6.20706,       1.36812,            0.,NA,NA,"",       1.33942,      -1.33364,   124.222E-03,   2.44974E-03
C:/temp/dataset/0/3_6.odb,Step-1,Increment      1: Step Time =    1.000,"PART-1-1",           721,           -5.,       3.07692,            0.,NA,NA,"",       1.47410,      -1.46012,   202.588E-03,   3.09081E-03
C:/temp/dataset/0/3_6.odb,Step-1,Increment      1: Step Time =    1.000,"PART-1-1",           722,           -5.,      -9.23077,            0.,NA,NA,"",   641.852E-03,  -610.554E-03,   197.986E-03,   9.20645E-03
C:/temp/dataset/0/3_6.odb,Step-1,Increment      1: Step Time =    1.000,"PART-1-1",           723,      -8.78100,      -23.2553,            0.,NA,NA,"",   40.7537E-03,  -40.0754E-03,  -7.40421E-03,   1.91068E-03
C:/temp/dataset/0/3_6.odb,Step-1,Increment      1: Step Time =    1.000,"PART-1-1",           724,      -11.0900,      -14.4409,            0.,NA,NA,"",   328.871E-03,  -309.625E-03,  -110.855E-03,   7.31625E-03
C:/temp/dataset/0/3_6.odb,Step-1,Increment      1: Step Time =    1.000,"PART-1-1",           725,      -11.1215,      -11.4552,            0.,NA,NA,"",   482.987E-03,  -464.557E-03,  -132.146E-03,   6.85017E-03
C:/temp/dataset/0/3_6.odb,Step-1,Increment      1: Step Time =    1.000,"PART-1-1",           726,      -11.1359,      -8.44257,            0.,NA,NA,"",   661.690E-03,  -643.870E-03,  -152.527E-03,   6.41619E-03
C:/temp/dataset/0/3_6.odb,Step-1,Increment      1: Step Time =    1.000,"PART-1-1",           727,      -11.1177,       9.73479,            0.,NA,NA,"",       1.94920,      -1.93360,  -246.097E-03,   4.19818E-03
C:/temp/dataset/0/3_6.odb,Step-1,Increment      1: Step Time =    1.000,"PART-1-1",           728,      -11.1376,       6.69211,            0.,NA,NA,"",       1.73414,      -1.71799,  -236.142E-03,   4.38032E-03
C:/temp/dataset/0/3_6.odb,Step-1,Increment      1: Step Time =    1.000,"PART-1-1",           729,      -11.1470,       3.65829,            0.,NA,NA,"",       1.51274,      -1.49617,  -223.298E-03,   4.67285E-03
C:/temp/dataset/0/3_6.odb,Step-1,Increment      1: Step Time =    1.000,"PART-1-1",           730,           -5.,      -15.3846,            0.,NA,NA,"",   315.202E-03,  -282.077E-03,   140.657E-03,   15.2715E-03
C:/temp/dataset/0/3_6.odb,Step-1,Increment      1: Step Time =    1.000,"PART-1-1",           731,      -11.1521,   627.191E-03,            0.,NA,NA,"",       1.28970,      -1.27279,  -208.157E-03,   5.05328E-03
C:/temp/dataset/0/3_6.odb,Step-1,Increment      1: Step Time =    1.000,"PART-1-1",           732,      -11.1477,      -2.39557,            0.,NA,NA,"",       1.07043,      -1.05329,  -190.789E-03,   5.48614E-03
C:/temp/dataset/0/3_6.odb,Step-1,Increment      1: Step Time =    1.000,"PART-1-1",           733,      -11.1389,      -5.41444,            0.,NA,NA,"",   859.659E-03,  -842.292E-03,  -171.925E-03,   5.94157E-03
