ODB Name,Step,Frame,Part Instance Name,    êﬂì_ÉâÉxÉã,X,Y,Z,Section Name,Material Name,Section Point,   U-Magnitude,          U-U1,          U-U2,       S-Mises
C:/temp/dataset/0/5_12.odb,Step-1,Increment      1: Step Time =    1.000,"PART-1-1",             1,            5.,           20.,            0.,NA,NA,"",       2.57475,      -2.57424,   51.6725E-03,   9.05152E-03
C:/temp/dataset/0/5_12.odb,Step-1,Increment      1: Step Time =    1.000,"PART-1-1",             2,            0.,           20.,            0.,NA,NA,"",       2.53559,      -2.53520,   44.4921E-03,   9.87663E-03
C:/temp/dataset/0/5_12.odb,Step-1,Increment      1: Step Time =    1.000,"PART-1-1",             3,            5.,           10.,            0.,NA,NA,"",       2.46028,      -2.45945,  -63.7207E-03,   16.6245E-03
C:/temp/dataset/0/5_12.odb,Step-1,Increment      1: Step Time =    1.000,"PART-1-1",             4,            5.,            0.,            0.,NA,NA,"",       2.07723,      -2.06211,  -250.202E-03,   26.6657E-03
C:/temp/dataset/0/5_12.odb,Step-1,Increment      1: Step Time =    1.000,"PART-1-1",             5,            5.,          -10.,            0.,NA,NA,"",       1.24440,      -1.18238,  -387.942E-03,   3.36449E-03
C:/temp/dataset/0/5_12.odb,Step-1,Increment      1: Step Time =    1.000,"PART-1-1",             6,            5.,          -20.,            0.,NA,NA,"",   229.124E-03,  -182.508E-03,  -138.523E-03,   58.3443E-03
C:/temp/dataset/0/5_12.odb,Step-1,Increment      1: Step Time =    1.000,"PART-1-1",             7,            0.,          -20.,            0.,NA,NA,"",   96.1019E-03,  -95.8287E-03,  -7.24185E-03,   4.05749E-03
C:/temp/dataset/0/5_12.odb,Step-1,Increment      1: Step Time =    1.000,"PART-1-1",             8,           -5.,          -20.,            0.,NA,NA,"",   123.858E-03,  -109.945E-03,   57.0325E-03,   27.0661E-03
C:/temp/dataset/0/5_12.odb,Step-1,Increment      1: Step Time =    1.000,"PART-1-1",             9,           -5.,           20.,            0.,NA,NA,"",       2.46491,      -2.46480,   22.4927E-03,   29.6576E-03
C:/temp/dataset/0/5_12.odb,Step-1,Increment      1: Step Time =    1.000,"PART-1-1",            10,           15.,           30.,            0.,NA,NA,"",       2.62921,      -2.62694,   109.283E-03,   22.6158E-06
C:/temp/dataset/0/5_12.odb,Step-1,Increment      1: Step Time =    1.000,"PART-1-1",            11,           7.5,           30.,            0.,NA,NA,"",       2.62769,      -2.62645,   80.9089E-03,   488.684E-06
C:/temp/dataset/0/5_12.odb,Step-1,Increment      1: Step Time =    1.000,"PART-1-1",            12,            0.,           30.,            0.,NA,NA,"",       2.65198,      -2.65156,   47.4167E-03,   8.21054E-03
C:/temp/dataset/0/5_12.odb,Step-1,Increment      1: Step Time =    1.000,"PART-1-1",            13,          -15.,           30.,            0.,NA,NA,"",       2.75960,      -2.73920,  -334.957E-03,   407.265E-06
C:/temp/dataset/0/5_12.odb,Step-1,Increment      1: Step Time =    1.000,"PART-1-1",            14,          -15.,          -30.,            0.,NA,NA,"",            0.,  -8.31135E-39,  -14.4708E-39,   22.9138E-03
C:/temp/dataset/0/5_12.odb,Step-1,Increment      1: Step Time =    1.000,"PART-1-1",            15,           15.,          -30.,            0.,NA,NA,"",            0.,  -13.5447E-39,   25.4784E-39,   41.1652E-03
C:/temp/dataset/0/5_12.odb,Step-1,Increment      1: Step Time =    1.000,"PART-1-1",            16,           15.,         -22.5,            0.,NA,NA,"",   307.380E-03,  -184.501E-03,   245.849E-03,   40.3862E-03
C:/temp/dataset/0/5_12.odb,Step-1,Increment      1: Step Time =    1.000,"PART-1-1",            17,           15.,          -15.,            0.,NA,NA,"",   856.544E-03,  -716.034E-03,   470.066E-03,   25.0352E-03
C:/temp/dataset/0/5_12.odb,Step-1,Increment      1: Step Time =    1.000,"PART-1-1",            18,           15.,          -7.5,            0.,NA,NA,"",       1.59205,      -1.51406,   492.165E-03,   9.68289E-03
C:/temp/dataset/0/5_12.odb,Step-1,Increment      1: Step Time =    1.000,"PART-1-1",            19,           15.,            0.,            0.,NA,NA,"",       2.14377,      -2.11620,   342.671E-03,   21.2311E-03
C:/temp/dataset/0/5_12.odb,Step-1,Increment      1: Step Time =    1.000,"PART-1-1",            20,           15.,           7.5,            0.,NA,NA,"",       2.41793,      -2.40756,   223.766E-03,   14.8001E-03
C:/temp/dataset/0/5_12.odb,Step-1,Increment      1: Step Time =    1.000,"PART-1-1",            21,           15.,           15.,            0.,NA,NA,"",       2.55585,      -2.55180,   143.866E-03,   8.24486E-03
C:/temp/dataset/0/5_12.odb,Step-1,Increment      1: Step Time =    1.000,"PART-1-1",            22,           15.,          22.5,            0.,NA,NA,"",       2.60133,      -2.59892,   111.978E-03,   1.56571E-03
C:/temp/dataset/0/5_12.odb,Step-1,Increment      1: Step Time =    1.000,"PART-1-1",            23,       3.33333,           20.,            0.,NA,NA,"",       2.56336,      -2.56272,   57.0992E-03,   7.57193E-03
C:/temp/dataset/0/5_12.odb,Step-1,Increment      1: Step Time =    1.000,"PART-1-1",            24,       1.66667,           20.,            0.,NA,NA,"",       2.55038,      -2.54983,   52.7544E-03,   9.19845E-03
C:/temp/dataset/0/5_12.odb,Step-1,Increment      1: Step Time =    1.000,"PART-1-1",            25,            5.,       13.3333,            0.,NA,NA,"",       2.52123,      -2.52116,  -18.7407E-03,   13.7487E-03
C:/temp/dataset/0/5_12.odb,Step-1,Increment      1: Step Time =    1.000,"PART-1-1",            26,            5.,       16.6667,            0.,NA,NA,"",       2.55930,      -2.55924,   17.8172E-03,   11.2852E-03
C:/temp/dataset/0/5_12.odb,Step-1,Increment      1: Step Time =    1.000,"PART-1-1",            27,            5.,       3.33333,            0.,NA,NA,"",       2.24628,      -2.23911,  -179.341E-03,   23.5231E-03
C:/temp/dataset/0/5_12.odb,Step-1,Increment      1: Step Time =    1.000,"PART-1-1",            28,            5.,       6.66667,            0.,NA,NA,"",       2.37077,      -2.36788,  -116.972E-03,   19.8307E-03
C:/temp/dataset/0/5_12.odb,Step-1,Increment      1: Step Time =    1.000,"PART-1-1",            29,            5.,      -6.66667,            0.,NA,NA,"",       1.56824,      -1.52317,  -373.267E-03,   16.9681E-03
C:/temp/dataset/0/5_12.odb,Step-1,Increment      1: Step Time =    1.000,"PART-1-1",            30,            5.,      -3.33333,            0.,NA,NA,"",       1.85196,      -1.82385,  -321.423E-03,   25.6106E-03
C:/temp/dataset/0/5_12.odb,Step-1,Increment      1: Step Time =    1.000,"PART-1-1",            31,            5.,      -16.6667,            0.,NA,NA,"",   583.790E-03,  -506.612E-03,  -290.095E-03,   27.6490E-03
C:/temp/dataset/0/5_12.odb,Step-1,Increment      1: Step Time =    1.000,"PART-1-1",            32,            5.,      -13.3333,            0.,NA,NA,"",   908.554E-03,  -835.282E-03,  -357.455E-03,   10.6393E-03
C:/temp/dataset/0/5_12.odb,Step-1,Increment      1: Step Time =    1.000,"PART-1-1",            33,           2.5,          -20.,            0.,NA,NA,"",   116.523E-03,  -109.001E-03,  -41.1856E-03,   17.5788E-03
C:/temp/dataset/0/5_12.odb,Step-1,Increment      1: Step Time =    1.000,"PART-1-1",            34,          -2.5,          -20.,            0.,NA,NA,"",   91.3877E-03,  -89.7359E-03,   17.2971E-03,   5.74304E-03
C:/temp/dataset/0/5_12.odb,Step-1,Increment      1: Step Time =    1.000,"PART-1-1",            35,           -5.,       16.9231,            0.,NA,NA,"",       2.28776,      -2.28619,   84.8258E-03,   15.2898E-03
C:/temp/dataset/0/5_12.odb,Step-1,Increment      1: Step Time =    1.000,"PART-1-1",            36,           -5.,       13.8462,            0.,NA,NA,"",       2.11379,      -2.11018,   123.359E-03,   11.2160E-03
C:/temp/dataset/0/5_12.odb,Step-1,Increment      1: Step Time =    1.000,"PART-1-1",            37,           -5.,       10.7692,            0.,NA,NA,"",       1.92854,      -1.92209,   157.542E-03,   8.96464E-03
C:/temp/dataset/0/5_12.odb,Step-1,Increment      1: Step Time =    1.000,"PART-1-1",            38,           -5.,       7.69231,            0.,NA,NA,"",       1.73205,      -1.72213,   185.046E-03,   6.19476E-03
C:/temp/dataset/0/5_12.odb,Step-1,Increment      1: Step Time =    1.000,"PART-1-1",            39,           -5.,       4.61538,            0.,NA,NA,"",       1.52794,      -1.51406,   205.476E-03,   3.40813E-03
C:/temp/dataset/0/5_12.odb,Step-1,Increment      1: Step Time =    1.000,"PART-1-1",            40,           -5.,       1.53846,            0.,NA,NA,"",       1.32078,      -1.30261,   218.316E-03,   586.502E-06
C:/temp/dataset/0/5_12.odb,Step-1,Increment      1: Step Time =    1.000,"PART-1-1",            41,           -5.,      -1.53846,            0.,NA,NA,"",       1.11517,      -1.09260,   223.194E-03,   2.27286E-03
C:/temp/dataset/0/5_12.odb,Step-1,Increment      1: Step Time =    1.000,"PART-1-1",            42,           -5.,      -4.61538,            0.,NA,NA,"",   915.679E-03,  -888.908E-03,   219.796E-03,   5.10251E-03
C:/temp/dataset/0/5_12.odb,Step-1,Increment      1: Step Time =    1.000,"PART-1-1",            43,           -5.,      -7.69231,            0.,NA,NA,"",   726.767E-03,  -696.404E-03,   207.874E-03,   7.88072E-03
C:/temp/dataset/0/5_12.odb,Step-1,Increment      1: Step Time =    1.000,"PART-1-1",            44,           -5.,      -10.7692,            0.,NA,NA,"",   552.640E-03,  -519.895E-03,   187.403E-03,   10.6844E-03
C:/temp/dataset/0/5_12.odb,Step-1,Increment      1: Step Time =    1.000,"PART-1-1",            45,           -5.,      -13.8462,            0.,NA,NA,"",   396.528E-03,  -363.658E-03,   158.074E-03,   13.1692E-03
C:/temp/dataset/0/5_12.odb,Step-1,Increment      1: Step Time =    1.000,"PART-1-1",            46,           -5.,      -16.9231,            0.,NA,NA,"",   259.531E-03,  -229.172E-03,   121.805E-03,   17.2113E-03
C:/temp/dataset/0/5_12.odb,Step-1,Increment      1: Step Time =    1.000,"PART-1-1",            47,          -2.5,           20.,            0.,NA,NA,"",       2.51076,      -2.51061,   27.0318E-03,   14.4310E-03
C:/temp/dataset/0/5_12.odb,Step-1,Increment      1: Step Time =    1.000,"PART-1-1",            48,        13.125,           30.,            0.,NA,NA,"",       2.62890,      -2.62693,   101.913E-03,   38.4143E-06
C:/temp/dataset/0/5_12.odb,Step-1,Increment      1: Step Time =    1.000,"PART-1-1",            49,         11.25,           30.,            0.,NA,NA,"",       2.62844,      -2.62674,   94.4598E-03,   135.526E-06
C:/temp/dataset/0/5_12.odb,Step-1,Increment      1: Step Time =    1.000,"PART-1-1",            50,         9.375,           30.,            0.,NA,NA,"",       2.62785,      -2.62640,   87.3205E-03,   81.0317E-06
C:/temp/dataset/0/5_12.odb,Step-1,Increment      1: Step Time =    1.000,"PART-1-1",            51,            5.,           30.,            0.,NA,NA,"",       2.63005,      -2.62903,   73.0894E-03,   2.24010E-03
C:/temp/dataset/0/5_12.odb,Step-1,Increment      1: Step Time =    1.000,"PART-1-1",            52,           2.5,           30.,            0.,NA,NA,"",       2.63763,      -2.63686,   63.5182E-03,   5.02090E-03
C:/temp/dataset/0/5_12.odb,Step-1,Increment      1: Step Time =    1.000,"PART-1-1",            53,           -3.,           30.,            0.,NA,NA,"",       2.67763,      -2.67761,   11.2099E-03,   10.9786E-03
C:/temp/dataset/0/5_12.odb,Step-1,Increment      1: Step Time =    1.000,"PART-1-1",            54,           -6.,           30.,            0.,NA,NA,"",       2.70788,      -2.70740,  -50.8262E-03,   10.7078E-03
C:/temp/dataset/0/5_12.odb,Step-1,Increment      1: Step Time =    1.000,"PART-1-1",            55,           -9.,           30.,            0.,NA,NA,"",       2.73411,      -2.73062,  -138.032E-03,   6.70795E-03
C:/temp/dataset/0/5_12.odb,Step-1,Increment      1: Step Time =    1.000,"PART-1-1",            56,          -12.,           30.,            0.,NA,NA,"",       2.75032,      -2.74001,  -237.879E-03,   1.68019E-03
C:/temp/dataset/0/5_12.odb,Step-1,Increment      1: Step Time =    1.000,"PART-1-1",            57,          -15.,           27.,            0.,NA,NA,"",       2.66809,      -2.64706,  -334.294E-03,   1.68937E-03
C:/temp/dataset/0/5_12.odb,Step-1,Increment      1: Step Time =    1.000,"PART-1-1",            58,          -15.,           24.,            0.,NA,NA,"",       2.58015,      -2.55711,  -344.058E-03,   6.76104E-03
C:/temp/dataset/0/5_12.odb,Step-1,Increment      1: Step Time =    1.000,"PART-1-1",            59,          -15.,           21.,            0.,NA,NA,"",       2.48113,      -2.45379,  -367.312E-03,   11.0570E-03
C:/temp/dataset/0/5_12.odb,Step-1,Increment      1: Step Time =    1.000,"PART-1-1",            60,          -15.,           18.,            0.,NA,NA,"",       2.35808,      -2.32445,  -396.781E-03,   11.9246E-03
C:/temp/dataset/0/5_12.odb,Step-1,Increment      1: Step Time =    1.000,"PART-1-1",            61,          -15.,           15.,            0.,NA,NA,"",       2.20844,      -2.16759,  -422.775E-03,   9.98439E-03
C:/temp/dataset/0/5_12.odb,Step-1,Increment      1: Step Time =    1.000,"PART-1-1",            62,          -15.,           12.,            0.,NA,NA,"",       2.03761,      -1.98945,  -440.366E-03,   7.04990E-03
C:/temp/dataset/0/5_12.odb,Step-1,Increment      1: Step Time =    1.000,"PART-1-1",            63,          -15.,            9.,            0.,NA,NA,"",       1.85220,      -1.79693,  -449.079E-03,   4.12535E-03
C:/temp/dataset/0/5_12.odb,Step-1,Increment      1: Step Time =    1.000,"PART-1-1",            64,          -15.,            6.,            0.,NA,NA,"",       1.65752,      -1.59541,  -449.462E-03,   1.29864E-03
C:/temp/dataset/0/5_12.odb,Step-1,Increment      1: Step Time =    1.000,"PART-1-1",            65,          -15.,            3.,            0.,NA,NA,"",       1.45820,      -1.38959,  -442.013E-03,   1.50410E-03
C:/temp/dataset/0/5_12.odb,Step-1,Increment      1: Step Time =    1.000,"PART-1-1",            66,          -15.,            0.,            0.,NA,NA,"",       1.25860,      -1.18392,  -427.091E-03,   4.26459E-03
C:/temp/dataset/0/5_12.odb,Step-1,Increment      1: Step Time =    1.000,"PART-1-1",            67,          -15.,           -3.,            0.,NA,NA,"",       1.06303,  -982.849E-03,  -405.020E-03,   7.02276E-03
C:/temp/dataset/0/5_12.odb,Step-1,Increment      1: Step Time =    1.000,"PART-1-1",            68,          -15.,           -6.,            0.,NA,NA,"",   875.652E-03,  -790.773E-03,  -376.090E-03,   9.78018E-03
C:/temp/dataset/0/5_12.odb,Step-1,Increment      1: Step Time =    1.000,"PART-1-1",            69,          -15.,           -9.,            0.,NA,NA,"",   700.438E-03,  -612.085E-03,  -340.537E-03,   12.5530E-03
C:/temp/dataset/0/5_12.odb,Step-1,Increment      1: Step Time =    1.000,"PART-1-1",            70,          -15.,          -12.,            0.,NA,NA,"",   541.051E-03,  -451.266E-03,  -298.490E-03,   15.3679E-03
C:/temp/dataset/0/5_12.odb,Step-1,Increment      1: Step Time =    1.000,"PART-1-1",            71,          -15.,          -15.,            0.,NA,NA,"",   400.912E-03,  -313.304E-03,  -250.142E-03,   18.0183E-03
C:/temp/dataset/0/5_12.odb,Step-1,Increment      1: Step Time =    1.000,"PART-1-1",            72,          -15.,          -18.,            0.,NA,NA,"",   283.127E-03,  -203.444E-03,  -196.904E-03,   19.6050E-03
C:/temp/dataset/0/5_12.odb,Step-1,Increment      1: Step Time =    1.000,"PART-1-1",            73,          -15.,          -21.,            0.,NA,NA,"",   189.781E-03,  -124.843E-03,  -142.937E-03,   19.0813E-03
C:/temp/dataset/0/5_12.odb,Step-1,Increment      1: Step Time =    1.000,"PART-1-1",            74,          -15.,          -24.,            0.,NA,NA,"",   118.617E-03,  -72.8562E-03,  -93.6057E-03,   16.9390E-03
C:/temp/dataset/0/5_12.odb,Step-1,Increment      1: Step Time =    1.000,"PART-1-1",            75,          -15.,          -27.,            0.,NA,NA,"",   61.9501E-03,  -37.2419E-03,  -49.5061E-03,   17.4598E-03
C:/temp/dataset/0/5_12.odb,Step-1,Increment      1: Step Time =    1.000,"PART-1-1",            76,          -12.,          -30.,            0.,NA,NA,"",            0.,  -12.4543E-39,  -26.1233E-39,   7.40176E-03
C:/temp/dataset/0/5_12.odb,Step-1,Increment      1: Step Time =    1.000,"PART-1-1",            77,           -9.,          -30.,            0.,NA,NA,"",            0.,   1.67866E-39,  -5.52632E-39,   3.85401E-03
C:/temp/dataset/0/5_12.odb,Step-1,Increment      1: Step Time =    1.000,"PART-1-1",            78,           -6.,          -30.,            0.,NA,NA,"",            0.,  -8.86460E-39,  -5.51094E-39,   5.78059E-03
C:/temp/dataset/0/5_12.odb,Step-1,Increment      1: Step Time =    1.000,"PART-1-1",            79,           -3.,          -30.,            0.,NA,NA,"",            0.,  -13.1823E-39,   5.59075E-39,   9.88487E-03
C:/temp/dataset/0/5_12.odb,Step-1,Increment      1: Step Time =    1.000,"PART-1-1",            80,            0.,          -30.,            0.,NA,NA,"",            0.,  -12.3942E-39,  -1.47041E-39,   12.2557E-03
C:/temp/dataset/0/5_12.odb,Step-1,Increment      1: Step Time =    1.000,"PART-1-1",            81,            3.,          -30.,            0.,NA,NA,"",            0.,  -18.2509E-39,  -29.6958E-39,   10.8622E-03
C:/temp/dataset/0/5_12.odb,Step-1,Increment      1: Step Time =    1.000,"PART-1-1",            82,            6.,          -30.,            0.,NA,NA,"",            0.,  -6.04854E-39,  -15.2633E-39,   5.39726E-03
C:/temp/dataset/0/5_12.odb,Step-1,Increment      1: Step Time =    1.000,"PART-1-1",            83,            9.,          -30.,            0.,NA,NA,"",            0.,   7.73903E-39,   9.11421E-39,   4.15261E-03
C:/temp/dataset/0/5_12.odb,Step-1,Increment      1: Step Time =    1.000,"PART-1-1",            84,           12.,          -30.,            0.,NA,NA,"",            0.,  -10.8857E-39,   44.6327E-39,   14.5804E-03
C:/temp/dataset/0/5_12.odb,Step-1,Increment      1: Step Time =    1.000,"PART-1-1",            85,           15.,         -27.5,            0.,NA,NA,"",   94.8058E-03,  -50.6628E-03,   80.1338E-03,   36.8599E-03
C:/temp/dataset/0/5_12.odb,Step-1,Increment      1: Step Time =    1.000,"PART-1-1",            86,           15.,          -25.,            0.,NA,NA,"",   188.993E-03,  -101.118E-03,   159.667E-03,   37.1839E-03
C:/temp/dataset/0/5_12.odb,Step-1,Increment      1: Step Time =    1.000,"PART-1-1",            87,           15.,          -20.,            0.,NA,NA,"",   458.038E-03,  -313.521E-03,   333.922E-03,   39.8764E-03
C:/temp/dataset/0/5_12.odb,Step-1,Increment      1: Step Time =    1.000,"PART-1-1",            88,           15.,         -17.5,            0.,NA,NA,"",   642.951E-03,  -493.230E-03,   412.445E-03,   34.3380E-03
C:/temp/dataset/0/5_12.odb,Step-1,Increment      1: Step Time =    1.000,"PART-1-1",            89,           15.,         -12.5,            0.,NA,NA,"",       1.08994,  -967.545E-03,   501.832E-03,   14.3356E-03
C:/temp/dataset/0/5_12.odb,Step-1,Increment      1: Step Time =    1.000,"PART-1-1",            90,           15.,          -10.,            0.,NA,NA,"",       1.33424,      -1.23375,   507.977E-03,   4.40659E-03
C:/temp/dataset/0/5_12.odb,Step-1,Increment      1: Step Time =    1.000,"PART-1-1",            91,           15.,           -5.,            0.,NA,NA,"",       1.82716,      -1.77140,   447.928E-03,   20.1564E-03
C:/temp/dataset/0/5_12.odb,Step-1,Increment      1: Step Time =    1.000,"PART-1-1",            92,           15.,          -2.5,            0.,NA,NA,"",       2.01359,      -1.97392,   397.736E-03,   23.6248E-03
C:/temp/dataset/0/5_12.odb,Step-1,Increment      1: Step Time =    1.000,"PART-1-1",            93,           15.,           2.5,            0.,NA,NA,"",       2.24571,      -2.22545,   300.970E-03,   18.2834E-03
C:/temp/dataset/0/5_12.odb,Step-1,Increment      1: Step Time =    1.000,"PART-1-1",            94,           15.,            5.,            0.,NA,NA,"",       2.34034,      -2.32582,   260.284E-03,   16.5943E-03
C:/temp/dataset/0/5_12.odb,Step-1,Increment      1: Step Time =    1.000,"PART-1-1",            95,           15.,           10.,            0.,NA,NA,"",       2.47851,      -2.47107,   191.956E-03,   12.7553E-03
C:/temp/dataset/0/5_12.odb,Step-1,Increment      1: Step Time =    1.000,"PART-1-1",            96,           15.,          12.5,            0.,NA,NA,"",       2.52376,      -2.51834,   165.292E-03,   10.5525E-03
C:/temp/dataset/0/5_12.odb,Step-1,Increment      1: Step Time =    1.000,"PART-1-1",            97,           15.,          17.5,            0.,NA,NA,"",       2.57730,      -2.57413,   127.879E-03,   5.81689E-03
C:/temp/dataset/0/5_12.odb,Step-1,Increment      1: Step Time =    1.000,"PART-1-1",            98,           15.,           20.,            0.,NA,NA,"",       2.59127,      -2.58861,   117.449E-03,   3.45240E-03
C:/temp/dataset/0/5_12.odb,Step-1,Increment      1: Step Time =    1.000,"PART-1-1",            99,           15.,           25.,            0.,NA,NA,"",       2.61034,      -2.60803,   109.863E-03,   487.207E-06
C:/temp/dataset/0/5_12.odb,Step-1,Increment      1: Step Time =    1.000,"PART-1-1",           100,           15.,          27.5,            0.,NA,NA,"",       2.61957,      -2.61729,   109.328E-03,   65.0818E-06
C:/temp/dataset/0/5_12.odb,Step-1,Increment      1: Step Time =    1.000,"PART-1-1",           101,       3.77421,       21.6807,            0.,NA,NA,"",       2.57057,      -2.56980,   62.7952E-03,   6.04492E-03
C:/temp/dataset/0/5_12.odb,Step-1,Increment      1: Step Time =    1.000,"PART-1-1",           102,   339.763E-03,       22.0764,            0.,NA,NA,"",       2.55531,      -2.55474,   53.9468E-03,   7.85769E-03
C:/temp/dataset/0/5_12.odb,Step-1,Increment      1: Step Time =    1.000,"PART-1-1",           103,       2.04677,       21.7082,            0.,NA,NA,"",       2.56242,      -2.56172,   59.9980E-03,   6.37061E-03
C:/temp/dataset/0/5_12.odb,Step-1,Increment      1: Step Time =    1.000,"PART-1-1",           104,       11.0234,       27.4901,            0.,NA,NA,"",       2.61862,      -2.61695,   93.2901E-03,   312.809E-06
C:/temp/dataset/0/5_12.odb,Step-1,Increment      1: Step Time =    1.000,"PART-1-1",           105,       8.98111,       27.5559,            0.,NA,NA,"",       2.61794,      -2.61654,   85.5693E-03,   761.735E-06
C:/temp/dataset/0/5_12.odb,Step-1,Increment      1: Step Time =    1.000,"PART-1-1",           106,      -4.39315,       22.5924,            0.,NA,NA,"",       2.53811,      -2.53808,   12.1256E-03,   7.80188E-03
C:/temp/dataset/0/5_12.odb,Step-1,Increment      1: Step Time =    1.000,"PART-1-1",           107,       12.7609,      -22.7550,            0.,NA,NA,"",   205.054E-03,  -139.829E-03,   149.984E-03,   25.0115E-03
C:/temp/dataset/0/5_12.odb,Step-1,Increment      1: Step Time =    1.000,"PART-1-1",           108,       12.5528,      -15.2766,            0.,NA,NA,"",   709.777E-03,  -659.536E-03,   262.291E-03,   19.4349E-03
C:/temp/dataset/0/5_12.odb,Step-1,Increment      1: Step Time =    1.000,"PART-1-1",           109,       12.2205,       7.28465,            0.,NA,NA,"",       2.41673,      -2.41283,   137.295E-03,   6.54253E-03
C:/temp/dataset/0/5_12.odb,Step-1,Increment      1: Step Time =    1.000,"PART-1-1",           110,       12.4622,       15.2934,            0.,NA,NA,"",       2.56341,      -2.56108,   109.275E-03,   4.47060E-03
C:/temp/dataset/0/5_12.odb,Step-1,Increment      1: Step Time =    1.000,"PART-1-1",           111,       12.8846,       22.6339,            0.,NA,NA,"",       2.60226,      -2.60028,   101.526E-03,   1.75730E-03
C:/temp/dataset/0/5_12.odb,Step-1,Increment      1: Step Time =    1.000,"PART-1-1",           112,  -340.860E-03,      -22.2697,            0.,NA,NA,"",   102.422E-03,  -102.112E-03,  -7.96889E-03,   11.2742E-03
C:/temp/dataset/0/5_12.odb,Step-1,Increment      1: Step Time =    1.000,"PART-1-1",           113,       6.83628,       27.6500,            0.,NA,NA,"",       2.61764,      -2.61644,   79.0767E-03,   1.85663E-03
C:/temp/dataset/0/5_12.odb,Step-1,Increment      1: Step Time =    1.000,"PART-1-1",           114,       12.2535,       9.99399,            0.,NA,NA,"",       2.48406,      -2.48093,   124.601E-03,   5.70874E-03
C:/temp/dataset/0/5_12.odb,Step-1,Increment      1: Step Time =    1.000,"PART-1-1",           115,       12.4991,  -638.118E-03,            0.,NA,NA,"",       2.09346,      -2.08296,   209.399E-03,   9.46422E-03
C:/temp/dataset/0/5_12.odb,Step-1,Increment      1: Step Time =    1.000,"PART-1-1",           116,       12.8164,      -7.55827,            0.,NA,NA,"",       1.51802,      -1.49239,   277.760E-03,   17.1862E-03
C:/temp/dataset/0/5_12.odb,Step-1,Increment      1: Step Time =    1.000,"PART-1-1",           117,       12.7714,      -20.2702,            0.,NA,NA,"",   331.083E-03,  -261.361E-03,   203.239E-03,   24.7089E-03
C:/temp/dataset/0/5_12.odb,Step-1,Increment      1: Step Time =    1.000,"PART-1-1",           118,      -1.80101,       22.4804,            0.,NA,NA,"",       2.54857,      -2.54826,   39.9177E-03,   9.99889E-03
C:/temp/dataset/0/5_12.odb,Step-1,Increment      1: Step Time =    1.000,"PART-1-1",           119,       4.41791,       27.8041,            0.,NA,NA,"",       2.61935,      -2.61834,   73.0209E-03,   3.25758E-03
C:/temp/dataset/0/5_12.odb,Step-1,Increment      1: Step Time =    1.000,"PART-1-1",           120,       2.00441,       27.9652,            0.,NA,NA,"",       2.62455,      -2.62375,   64.8687E-03,   4.49404E-03
C:/temp/dataset/0/5_12.odb,Step-1,Increment      1: Step Time =    1.000,"PART-1-1",           121,      -2.69107,      -22.1951,            0.,NA,NA,"",   94.3903E-03,  -93.2077E-03,   14.8947E-03,   12.0611E-03
C:/temp/dataset/0/5_12.odb,Step-1,Increment      1: Step Time =    1.000,"PART-1-1",           122,       1.88995,      -22.5465,            0.,NA,NA,"",   112.105E-03,  -106.104E-03,  -36.1852E-03,   22.2991E-03
C:/temp/dataset/0/5_12.odb,Step-1,Increment      1: Step Time =    1.000,"PART-1-1",           123,       3.76320,      -23.2871,            0.,NA,NA,"",   119.279E-03,  -104.387E-03,  -57.7138E-03,   23.8980E-03
C:/temp/dataset/0/5_12.odb,Step-1,Increment      1: Step Time =    1.000,"PART-1-1",           124,       12.5645,      -25.1614,            0.,NA,NA,"",   111.963E-03,  -63.8171E-03,   91.9956E-03,   23.7225E-03
C:/temp/dataset/0/5_12.odb,Step-1,Increment      1: Step Time =    1.000,"PART-1-1",           125,       12.6631,      -17.7963,            0.,NA,NA,"",   496.840E-03,  -434.351E-03,   241.224E-03,   22.5988E-03
C:/temp/dataset/0/5_12.odb,Step-1,Increment      1: Step Time =    1.000,"PART-1-1",           126,       12.5016,      -12.6810,            0.,NA,NA,"",   964.163E-03,  -925.630E-03,   269.849E-03,   16.5558E-03
C:/temp/dataset/0/5_12.odb,Step-1,Increment      1: Step Time =    1.000,"PART-1-1",           127,       12.5761,      -10.0660,            0.,NA,NA,"",       1.24153,      -1.21139,   271.888E-03,   14.9637E-03
C:/temp/dataset/0/5_12.odb,Step-1,Increment      1: Step Time =    1.000,"PART-1-1",           128,       13.0467,      -5.23700,            0.,NA,NA,"",       1.75873,      -1.73615,   280.924E-03,   12.9927E-03
C:/temp/dataset/0/5_12.odb,Step-1,Increment      1: Step Time =    1.000,"PART-1-1",           129,       12.8236,      -2.99729,            0.,NA,NA,"",       1.94309,      -1.92728,   247.342E-03,   10.9299E-03
C:/temp/dataset/0/5_12.odb,Step-1,Increment      1: Step Time =    1.000,"PART-1-1",           130,       12.3116,       1.92449,            0.,NA,NA,"",       2.21905,      -2.21178,   179.507E-03,   9.94771E-03
C:/temp/dataset/0/5_12.odb,Step-1,Increment      1: Step Time =    1.000,"PART-1-1",           131,       12.2319,       4.58053,            0.,NA,NA,"",       2.32802,      -2.32288,   154.681E-03,   7.66555E-03
C:/temp/dataset/0/5_12.odb,Step-1,Increment      1: Step Time =    1.000,"PART-1-1",           132,       12.3276,       12.6723,            0.,NA,NA,"",       2.53186,      -2.52923,   115.458E-03,   5.03614E-03
C:/temp/dataset/0/5_12.odb,Step-1,Increment      1: Step Time =    1.000,"PART-1-1",           133,       12.6288,       17.8043,            0.,NA,NA,"",       2.58245,      -2.58031,   105.167E-03,   3.85351E-03
C:/temp/dataset/0/5_12.odb,Step-1,Increment      1: Step Time =    1.000,"PART-1-1",           134,       12.7774,       20.2190,            0.,NA,NA,"",       2.59385,      -2.59182,   102.652E-03,   2.91543E-03
C:/temp/dataset/0/5_12.odb,Step-1,Increment      1: Step Time =    1.000,"PART-1-1",           135,       2.42682,       23.0828,            0.,NA,NA,"",       2.57504,      -2.57424,   64.1721E-03,   5.76504E-03
C:/temp/dataset/0/5_12.odb,Step-1,Increment      1: Step Time =    1.000,"PART-1-1",           136,       13.0358,       27.4773,            0.,NA,NA,"",       2.61919,      -2.61722,   101.561E-03,   242.866E-06
C:/temp/dataset/0/5_12.odb,Step-1,Increment      1: Step Time =    1.000,"PART-1-1",           137,       10.8553,       25.1313,            0.,NA,NA,"",       2.60943,      -2.60782,   91.4588E-03,   1.19551E-03
C:/temp/dataset/0/5_12.odb,Step-1,Increment      1: Step Time =    1.000,"PART-1-1",           138,       5.66135,       21.5046,            0.,NA,NA,"",       2.57934,      -2.57864,   60.3443E-03,   8.16486E-03
C:/temp/dataset/0/5_12.odb,Step-1,Increment      1: Step Time =    1.000,"PART-1-1",           139,       1.38191,       23.9574,            0.,NA,NA,"",       2.58028,      -2.57953,   62.4120E-03,   5.48912E-03
C:/temp/dataset/0/5_12.odb,Step-1,Increment      1: Step Time =    1.000,"PART-1-1",           140,       8.68595,       25.2651,            0.,NA,NA,"",       2.60713,      -2.60583,   82.3306E-03,   2.10249E-03
C:/temp/dataset/0/5_12.odb,Step-1,Increment      1: Step Time =    1.000,"PART-1-1",           141,       12.9664,       25.0396,            0.,NA,NA,"",       2.61036,      -2.60839,   101.375E-03,   762.831E-06
C:/temp/dataset/0/5_12.odb,Step-1,Increment      1: Step Time =    1.000,"PART-1-1",           142,       9.99676,      -12.8506,            0.,NA,NA,"",   896.817E-03,  -894.130E-03,   69.3654E-03,   19.4960E-03
C:/temp/dataset/0/5_12.odb,Step-1,Increment      1: Step Time =    1.000,"PART-1-1",           143,       11.3735,      -5.41139,            0.,NA,NA,"",       1.71034,      -1.70381,   149.291E-03,   14.3981E-03
C:/temp/dataset/0/5_12.odb,Step-1,Increment      1: Step Time =    1.000,"PART-1-1",           144,       9.95511,       15.6727,            0.,NA,NA,"",       2.56620,      -2.56519,   71.7797E-03,   4.30519E-03
C:/temp/dataset/0/5_12.odb,Step-1,Increment      1: Step Time =    1.000,"PART-1-1",           145,       9.67875,       10.0081,            0.,NA,NA,"",       2.48209,      -2.48148,   55.2937E-03,   4.82587E-03
C:/temp/dataset/0/5_12.odb,Step-1,Increment      1: Step Time =    1.000,"PART-1-1",           146,       9.74913,       1.24671,            0.,NA,NA,"",       2.17520,      -2.17481,   41.2921E-03,   5.65307E-03
C:/temp/dataset/0/5_12.odb,Step-1,Increment      1: Step Time =    1.000,"PART-1-1",           147,       10.3027,      -18.1986,            0.,NA,NA,"",   388.385E-03,  -376.539E-03,   95.1902E-03,   17.4927E-03
C:/temp/dataset/0/5_12.odb,Step-1,Increment      1: Step Time =    1.000,"PART-1-1",           148,       1.33525,      -24.5624,            0.,NA,NA,"",   88.7207E-03,  -84.6013E-03,  -26.7204E-03,   18.9504E-03
C:/temp/dataset/0/5_12.odb,Step-1,Increment      1: Step Time =    1.000,"PART-1-1",           149,       9.11730,      -22.7103,            0.,NA,NA,"",   108.955E-03,  -108.002E-03,   14.3788E-03,   5.75323E-03
C:/temp/dataset/0/5_12.odb,Step-1,Increment      1: Step Time =    1.000,"PART-1-1",           150,       12.2648,      -27.5617,            0.,NA,NA,"",   44.9040E-03,  -19.0381E-03,   40.6684E-03,   21.1977E-03
C:/temp/dataset/0/5_12.odb,Step-1,Increment      1: Step Time =    1.000,"PART-1-1",           151,       10.6108,      -20.5371,            0.,NA,NA,"",   236.998E-03,  -218.600E-03,   91.5517E-03,   15.8688E-03
C:/temp/dataset/0/5_12.odb,Step-1,Increment      1: Step Time =    1.000,"PART-1-1",           152,       10.0930,      -9.97392,            0.,NA,NA,"",       1.21237,      -1.21072,   63.1745E-03,   19.9676E-03
C:/temp/dataset/0/5_12.odb,Step-1,Increment      1: Step Time =    1.000,"PART-1-1",           153,       9.63546,       7.06865,            0.,NA,NA,"",       2.40710,      -2.40663,   47.2852E-03,   5.00031E-03
C:/temp/dataset/0/5_12.odb,Step-1,Increment      1: Step Time =    1.000,"PART-1-1",           154,       10.2222,       18.2240,            0.,NA,NA,"",       2.58398,      -2.58278,   78.5716E-03,   4.29487E-03
C:/temp/dataset/0/5_12.odb,Step-1,Increment      1: Step Time =    1.000,"PART-1-1",           155,       10.5456,      -3.97788,            0.,NA,NA,"",       1.82927,      -1.82727,   85.5806E-03,   11.4085E-03
C:/temp/dataset/0/5_12.odb,Step-1,Increment      1: Step Time =    1.000,"PART-1-1",           156,       10.0733,      -15.6212,            0.,NA,NA,"",   612.624E-03,  -606.779E-03,   84.4252E-03,   20.8431E-03
C:/temp/dataset/0/5_12.odb,Step-1,Increment      1: Step Time =    1.000,"PART-1-1",           157,       10.5412,      -7.26051,            0.,NA,NA,"",       1.51182,      -1.50919,   89.1172E-03,   18.1823E-03
C:/temp/dataset/0/5_12.odb,Step-1,Increment      1: Step Time =    1.000,"PART-1-1",           158,       9.98625,      -1.55753,            0.,NA,NA,"",       2.00975,      -2.00913,   49.5706E-03,   6.93198E-03
C:/temp/dataset/0/5_12.odb,Step-1,Increment      1: Step Time =    1.000,"PART-1-1",           159,       9.65058,       4.13273,            0.,NA,NA,"",       2.30564,      -2.30526,   41.7742E-03,   5.15761E-03
C:/temp/dataset/0/5_12.odb,Step-1,Increment      1: Step Time =    1.000,"PART-1-1",           160,       9.76871,       12.8936,            0.,NA,NA,"",       2.53366,      -2.53286,   63.6241E-03,   4.58751E-03
C:/temp/dataset/0/5_12.odb,Step-1,Increment      1: Step Time =    1.000,"PART-1-1",           161,       10.4870,       20.5197,            0.,NA,NA,"",       2.59351,      -2.59216,   83.8671E-03,   3.77256E-03
C:/temp/dataset/0/5_12.odb,Step-1,Increment      1: Step Time =    1.000,"PART-1-1",           162,       3.57821,       25.4429,            0.,NA,NA,"",       2.59967,      -2.59872,   70.2798E-03,   4.92464E-03
C:/temp/dataset/0/5_12.odb,Step-1,Increment      1: Step Time =    1.000,"PART-1-1",           163,       6.34843,       25.4199,            0.,NA,NA,"",       2.60379,      -2.60269,   75.6241E-03,   3.59412E-03
C:/temp/dataset/0/5_12.odb,Step-1,Increment      1: Step Time =    1.000,"PART-1-1",           164,       2.85591,      -26.4171,            0.,NA,NA,"",   58.0471E-03,  -52.1026E-03,  -25.5888E-03,   16.1178E-03
C:/temp/dataset/0/5_12.odb,Step-1,Increment      1: Step Time =    1.000,"PART-1-1",           165,  -631.401E-03,       25.1574,            0.,NA,NA,"",       2.59212,      -2.59160,   51.9591E-03,   5.17774E-03
C:/temp/dataset/0/5_12.odb,Step-1,Increment      1: Step Time =    1.000,"PART-1-1",           166,  -516.865E-03,       27.6990,            0.,NA,NA,"",       2.62887,      -2.62840,   49.4096E-03,   5.30027E-03
C:/temp/dataset/0/5_12.odb,Step-1,Increment      1: Step Time =    1.000,"PART-1-1",           167,      -6.99102,       22.3744,            0.,NA,NA,"",       2.52958,      -2.52905,  -51.8069E-03,   8.13520E-03
C:/temp/dataset/0/5_12.odb,Step-1,Increment      1: Step Time =    1.000,"PART-1-1",           168,      -5.11091,      -22.0245,            0.,NA,NA,"",   94.9533E-03,  -88.5687E-03,   34.2305E-03,   13.5199E-03
C:/temp/dataset/0/5_12.odb,Step-1,Increment      1: Step Time =    1.000,"PART-1-1",           169,       6.75166,      -22.2774,            0.,NA,NA,"",   130.141E-03,  -115.867E-03,  -59.2588E-03,   12.9498E-03
C:/temp/dataset/0/5_12.odb,Step-1,Increment      1: Step Time =    1.000,"PART-1-1",           170,       8.44380,       23.0750,            0.,NA,NA,"",       2.59714,      -2.59602,   76.2853E-03,   3.99557E-03
C:/temp/dataset/0/5_12.odb,Step-1,Increment      1: Step Time =    1.000,"PART-1-1",           171,       3.98751,       23.4543,            0.,NA,NA,"",       2.58339,      -2.58251,   67.4475E-03,   6.03420E-03
C:/temp/dataset/0/5_12.odb,Step-1,Increment      1: Step Time =    1.000,"PART-1-1",           172,       7.74283,       18.8612,            0.,NA,NA,"",       2.58215,      -2.58155,   55.5779E-03,   5.82799E-03
C:/temp/dataset/0/5_12.odb,Step-1,Increment      1: Step Time =    1.000,"PART-1-1",           173,  -206.614E-03,      -27.1815,            0.,NA,NA,"",   45.5863E-03,  -45.0168E-03,  -7.18338E-03,   12.6829E-03
C:/temp/dataset/0/5_12.odb,Step-1,Increment      1: Step Time =    1.000,"PART-1-1",           174,       10.6950,       22.8157,            0.,NA,NA,"",       2.60111,      -2.59961,   88.3060E-03,   2.53847E-03
C:/temp/dataset/0/5_12.odb,Step-1,Increment      1: Step Time =    1.000,"PART-1-1",           175,       1.78109,       26.2982,            0.,NA,NA,"",       2.60752,      -2.60671,   65.1554E-03,   4.69806E-03
C:/temp/dataset/0/5_12.odb,Step-1,Increment      1: Step Time =    1.000,"PART-1-1",           176,       7.62536,      -9.80486,            0.,NA,NA,"",       1.22650,      -1.21828,  -141.772E-03,   15.6916E-03
C:/temp/dataset/0/5_12.odb,Step-1,Increment      1: Step Time =    1.000,"PART-1-1",           177,       7.50504,      -2.60802,            0.,NA,NA,"",       1.91486,      -1.91074,  -125.517E-03,   14.2689E-03
C:/temp/dataset/0/5_12.odb,Step-1,Increment      1: Step Time =    1.000,"PART-1-1",           178,       7.24337,       3.70501,            0.,NA,NA,"",       2.27716,      -2.27602,  -72.0675E-03,   13.6159E-03
C:/temp/dataset/0/5_12.odb,Step-1,Increment      1: Step Time =    1.000,"PART-1-1",           179,       7.25379,       10.0129,            0.,NA,NA,"",       2.47381,      -2.47379,  -9.24526E-03,   10.3781E-03
C:/temp/dataset/0/5_12.odb,Step-1,Increment      1: Step Time =    1.000,"PART-1-1",           180,       7.22962,       6.85747,            0.,NA,NA,"",       2.39117,      -2.39084,  -39.5065E-03,   12.0115E-03
C:/temp/dataset/0/5_12.odb,Step-1,Increment      1: Step Time =    1.000,"PART-1-1",           181,       7.49186,      -13.0485,            0.,NA,NA,"",   877.282E-03,  -867.625E-03,  -129.806E-03,   16.2980E-03
C:/temp/dataset/0/5_12.odb,Step-1,Increment      1: Step Time =    1.000,"PART-1-1",           182,       8.10600,      -6.05436,            0.,NA,NA,"",       1.61692,      -1.61366,  -102.479E-03,   15.2898E-03
C:/temp/dataset/0/5_12.odb,Step-1,Increment      1: Step Time =    1.000,"PART-1-1",           183,       7.31265,   557.236E-03,            0.,NA,NA,"",       2.12327,      -2.12073,  -103.969E-03,   14.6620E-03
C:/temp/dataset/0/5_12.odb,Step-1,Increment      1: Step Time =    1.000,"PART-1-1",           184,       7.30605,       13.1330,            0.,NA,NA,"",       2.53003,      -2.52997,   17.0818E-03,   8.78194E-03
C:/temp/dataset/0/5_12.odb,Step-1,Increment      1: Step Time =    1.000,"PART-1-1",           185,       8.51669,      -21.0731,            0.,NA,NA,"",   171.300E-03,  -171.220E-03,  -5.23232E-03,   11.8354E-03
C:/temp/dataset/0/5_12.odb,Step-1,Increment      1: Step Time =    1.000,"PART-1-1",           186,       7.54046,      -16.1016,            0.,NA,NA,"",   564.322E-03,  -556.747E-03,  -92.1534E-03,   24.2534E-03
C:/temp/dataset/0/5_12.odb,Step-1,Increment      1: Step Time =    1.000,"PART-1-1",           187,       7.81864,      -18.8426,            0.,NA,NA,"",   310.265E-03,  -307.657E-03,  -40.1469E-03,   21.7291E-03
C:/temp/dataset/0/5_12.odb,Step-1,Increment      1: Step Time =    1.000,"PART-1-1",           188,       7.43701,       16.1533,            0.,NA,NA,"",       2.56487,      -2.56458,   38.8818E-03,   6.92185E-03
C:/temp/dataset/0/5_12.odb,Step-1,Increment      1: Step Time =    1.000,"PART-1-1",           189,       8.13437,       20.9213,            0.,NA,NA,"",       2.58911,      -2.58825,   66.8075E-03,   5.74966E-03
C:/temp/dataset/0/5_12.odb,Step-1,Increment      1: Step Time =    1.000,"PART-1-1",           190,       10.1795,      -24.9689,            0.,NA,NA,"",   61.2313E-03,  -50.4918E-03,   34.6389E-03,   8.60563E-03
C:/temp/dataset/0/5_12.odb,Step-1,Increment      1: Step Time =    1.000,"PART-1-1",           191,      -2.92607,      -24.6642,            0.,NA,NA,"",   71.5666E-03,  -70.8966E-03,   9.76955E-03,   13.1633E-03
C:/temp/dataset/0/5_12.odb,Step-1,Increment      1: Step Time =    1.000,"PART-1-1",           192,      -7.32959,       16.5303,            0.,NA,NA,"",       2.26885,      -2.26861,  -32.5788E-03,   10.9339E-03
C:/temp/dataset/0/5_12.odb,Step-1,Increment      1: Step Time =    1.000,"PART-1-1",           193,      -3.80789,       25.1547,            0.,NA,NA,"",       2.59261,      -2.59256,   14.5825E-03,   3.71806E-03
C:/temp/dataset/0/5_12.odb,Step-1,Increment      1: Step Time =    1.000,"PART-1-1",           194,      -7.16094,      -19.5479,            0.,NA,NA,"",   131.157E-03,  -127.611E-03,   30.2884E-03,   6.43894E-03
C:/temp/dataset/0/5_12.odb,Step-1,Increment      1: Step Time =    1.000,"PART-1-1",           195,       6.10177,       23.3904,            0.,NA,NA,"",       2.59052,      -2.58958,   69.7172E-03,   5.43728E-03
C:/temp/dataset/0/5_12.odb,Step-1,Increment      1: Step Time =    1.000,"PART-1-1",           196,      -3.02004,      -27.2699,            0.,NA,NA,"",   38.1990E-03,  -38.1513E-03,   1.90813E-03,   10.7891E-03
C:/temp/dataset/0/5_12.odb,Step-1,Increment      1: Step Time =    1.000,"PART-1-1",           197,      -5.46178,      -24.4382,            0.,NA,NA,"",   62.9033E-03,  -60.5068E-03,   17.1973E-03,   10.0048E-03
C:/temp/dataset/0/5_12.odb,Step-1,Increment      1: Step Time =    1.000,"PART-1-1",           198,      -9.66724,       21.9754,            0.,NA,NA,"",       2.51471,      -2.51019,  -150.741E-03,   6.21219E-03
C:/temp/dataset/0/5_12.odb,Step-1,Increment      1: Step Time =    1.000,"PART-1-1",           199,      -7.19512,      -21.6661,            0.,NA,NA,"",   88.1960E-03,  -85.4216E-03,   21.9474E-03,   5.38981E-03
C:/temp/dataset/0/5_12.odb,Step-1,Increment      1: Step Time =    1.000,"PART-1-1",           200,      -3.42041,       27.6042,            0.,NA,NA,"",       2.63896,      -2.63892,   13.7036E-03,   5.58973E-03
C:/temp/dataset/0/5_12.odb,Step-1,Increment      1: Step Time =    1.000,"PART-1-1",           201,       5.45774,      -23.9133,            0.,NA,NA,"",   99.7863E-03,  -82.7502E-03,  -55.7648E-03,   20.7370E-03
C:/temp/dataset/0/5_12.odb,Step-1,Increment      1: Step Time =    1.000,"PART-1-1",           202,      -6.69209,       24.9820,            0.,NA,NA,"",       2.59455,      -2.59405,  -51.0392E-03,   5.69918E-03
C:/temp/dataset/0/5_12.odb,Step-1,Increment      1: Step Time =    1.000,"PART-1-1",           203,      -12.3718,      -14.6182,            0.,NA,NA,"",   348.239E-03,  -315.769E-03,  -146.833E-03,   9.65630E-03
C:/temp/dataset/0/5_12.odb,Step-1,Increment      1: Step Time =    1.000,"PART-1-1",           204,      -5.91076,      -27.0963,            0.,NA,NA,"",   29.1110E-03,  -28.7349E-03,   4.66398E-03,   8.28075E-03
C:/temp/dataset/0/5_12.odb,Step-1,Increment      1: Step Time =    1.000,"PART-1-1",           205,      -9.09285,      -26.5479,            0.,NA,NA,"",   24.6173E-03,  -23.9559E-03,  -5.66772E-03,   4.00145E-03
C:/temp/dataset/0/5_12.odb,Step-1,Increment      1: Step Time =    1.000,"PART-1-1",           206,      -12.2958,       24.3839,            0.,NA,NA,"",       2.58810,      -2.57610,  -248.979E-03,   6.61862E-03
C:/temp/dataset/0/5_12.odb,Step-1,Increment      1: Step Time =    1.000,"PART-1-1",           207,      -12.3670,       18.5668,            0.,NA,NA,"",       2.38000,      -2.36438,  -272.145E-03,   5.30240E-03
C:/temp/dataset/0/5_12.odb,Step-1,Increment      1: Step Time =    1.000,"PART-1-1",           208,      -12.3673,       12.5421,            0.,NA,NA,"",       2.05297,      -2.03321,  -284.125E-03,   4.24345E-03
C:/temp/dataset/0/5_12.odb,Step-1,Increment      1: Step Time =    1.000,"PART-1-1",           209,      -12.4084,       3.45294,            0.,NA,NA,"",       1.45053,      -1.42504,  -270.752E-03,   3.54307E-03
C:/temp/dataset/0/5_12.odb,Step-1,Increment      1: Step Time =    1.000,"PART-1-1",           210,      -12.4043,      -5.59421,            0.,NA,NA,"",   841.944E-03,  -812.227E-03,  -221.714E-03,   6.29561E-03
C:/temp/dataset/0/5_12.odb,Step-1,Increment      1: Step Time =    1.000,"PART-1-1",           211,      -12.3838,       9.50768,            0.,NA,NA,"",       1.86057,      -1.83877,  -283.951E-03,   3.57256E-03
C:/temp/dataset/0/5_12.odb,Step-1,Increment      1: Step Time =    1.000,"PART-1-1",           212,      -12.4013,       6.47621,            0.,NA,NA,"",       1.65805,      -1.63430,  -279.651E-03,   3.26907E-03
C:/temp/dataset/0/5_12.odb,Step-1,Increment      1: Step Time =    1.000,"PART-1-1",           213,      -12.4173,   428.232E-03,            0.,NA,NA,"",       1.24205,      -1.21490,  -258.273E-03,   4.25225E-03
C:/temp/dataset/0/5_12.odb,Step-1,Increment      1: Step Time =    1.000,"PART-1-1",           214,      -12.4160,      -2.58791,            0.,NA,NA,"",       1.03768,      -1.00912,  -241.787E-03,   5.21749E-03
C:/temp/dataset/0/5_12.odb,Step-1,Increment      1: Step Time =    1.000,"PART-1-1",           215,      -12.4014,      -8.61211,            0.,NA,NA,"",   658.234E-03,  -627.302E-03,  -199.410E-03,   7.43739E-03
C:/temp/dataset/0/5_12.odb,Step-1,Increment      1: Step Time =    1.000,"PART-1-1",           216,      -12.3969,      -11.6247,            0.,NA,NA,"",   492.022E-03,  -460.000E-03,  -174.603E-03,   8.59073E-03
C:/temp/dataset/0/5_12.odb,Step-1,Increment      1: Step Time =    1.000,"PART-1-1",           217,      -12.3009,      -17.6498,            0.,NA,NA,"",   228.896E-03,  -197.819E-03,  -115.156E-03,   10.4328E-03
C:/temp/dataset/0/5_12.odb,Step-1,Increment      1: Step Time =    1.000,"PART-1-1",           218,      -11.9370,      -20.9397,            0.,NA,NA,"",   129.811E-03,  -106.704E-03,  -73.9268E-03,   9.88048E-03
C:/temp/dataset/0/5_12.odb,Step-1,Increment      1: Step Time =    1.000,"PART-1-1",           219,       6.28266,      -26.4725,            0.,NA,NA,"",   38.9037E-03,  -31.4862E-03,  -22.8498E-03,   12.5138E-03
C:/temp/dataset/0/5_12.odb,Step-1,Increment      1: Step Time =    1.000,"PART-1-1",           220,      -12.3616,       21.4963,            0.,NA,NA,"",       2.49754,      -2.48392,  -260.474E-03,   5.92278E-03
C:/temp/dataset/0/5_12.odb,Step-1,Increment      1: Step Time =    1.000,"PART-1-1",           221,       9.42071,      -27.3229,            0.,NA,NA,"",   13.7731E-03,  -10.0404E-03,   9.42812E-03,   4.23880E-03
C:/temp/dataset/0/5_12.odb,Step-1,Increment      1: Step Time =    1.000,"PART-1-1",           222,      -12.3680,       15.5612,            0.,NA,NA,"",       2.22861,      -2.21086,  -280.737E-03,   4.91540E-03
C:/temp/dataset/0/5_12.odb,Step-1,Increment      1: Step Time =    1.000,"PART-1-1",           223,      -6.37126,       27.5191,            0.,NA,NA,"",       2.65140,      -2.65091,  -50.7560E-03,   5.77925E-03
C:/temp/dataset/0/5_12.odb,Step-1,Increment      1: Step Time =    1.000,"PART-1-1",           224,      -7.37426,       13.4489,            0.,NA,NA,"",       2.09177,      -2.09175,  -9.95611E-03,   7.78151E-03
C:/temp/dataset/0/5_12.odb,Step-1,Increment      1: Step Time =    1.000,"PART-1-1",           225,      -7.40401,       7.31385,            0.,NA,NA,"",       1.69733,      -1.69705,   30.9559E-03,   4.94222E-03
C:/temp/dataset/0/5_12.odb,Step-1,Increment      1: Step Time =    1.000,"PART-1-1",           226,      -7.40102,      -1.84560,            0.,NA,NA,"",       1.06732,      -1.06520,   67.1476E-03,   3.10616E-03
C:/temp/dataset/0/5_12.odb,Step-1,Increment      1: Step Time =    1.000,"PART-1-1",           227,      -7.36253,      -10.9851,            0.,NA,NA,"",   501.069E-03,  -496.851E-03,   64.8773E-03,   5.75971E-03
C:/temp/dataset/0/5_12.odb,Step-1,Increment      1: Step Time =    1.000,"PART-1-1",           228,      -7.39657,       10.3769,            0.,NA,NA,"",       1.90005,      -1.90002,   11.9553E-03,   6.13132E-03
C:/temp/dataset/0/5_12.odb,Step-1,Increment      1: Step Time =    1.000,"PART-1-1",           229,      -7.41369,       4.25226,            0.,NA,NA,"",       1.48754,      -1.48682,   46.3299E-03,   3.91715E-03
C:/temp/dataset/0/5_12.odb,Step-1,Increment      1: Step Time =    1.000,"PART-1-1",           230,      -7.41413,       1.19777,            0.,NA,NA,"",       1.27586,      -1.27452,   58.3987E-03,   3.23450E-03
C:/temp/dataset/0/5_12.odb,Step-1,Increment      1: Step Time =    1.000,"PART-1-1",           231,      -7.39700,      -4.89906,            0.,NA,NA,"",   865.010E-03,  -862.105E-03,   70.8257E-03,   3.61960E-03
C:/temp/dataset/0/5_12.odb,Step-1,Increment      1: Step Time =    1.000,"PART-1-1",           232,      -7.39133,      -7.95434,            0.,NA,NA,"",   674.191E-03,  -670.575E-03,   69.7333E-03,   4.57745E-03
C:/temp/dataset/0/5_12.odb,Step-1,Increment      1: Step Time =    1.000,"PART-1-1",           233,      -7.32483,      -13.9963,            0.,NA,NA,"",   348.688E-03,  -344.383E-03,   54.6239E-03,   7.45324E-03
C:/temp/dataset/0/5_12.odb,Step-1,Increment      1: Step Time =    1.000,"PART-1-1",           234,      -9.29453,       27.3932,            0.,NA,NA,"",       2.66140,      -2.65766,  -140.978E-03,   6.44711E-03
C:/temp/dataset/0/5_12.odb,Step-1,Increment      1: Step Time =    1.000,"PART-1-1",           235,      -9.79647,       16.0793,            0.,NA,NA,"",       2.25093,      -2.24574,  -152.774E-03,   4.79534E-03
C:/temp/dataset/0/5_12.odb,Step-1,Increment      1: Step Time =    1.000,"PART-1-1",           236,      -10.5694,      -24.3397,            0.,NA,NA,"",   53.9282E-03,  -47.4079E-03,  -25.7049E-03,   5.16941E-03
C:/temp/dataset/0/5_12.odb,Step-1,Increment      1: Step Time =    1.000,"PART-1-1",           237,      -9.80814,      -14.2636,            0.,NA,NA,"",   330.354E-03,  -327.029E-03,  -46.7567E-03,   4.15176E-03
C:/temp/dataset/0/5_12.odb,Step-1,Increment      1: Step Time =    1.000,"PART-1-1",           238,      -9.84607,      -11.2856,            0.,NA,NA,"",   478.746E-03,  -475.547E-03,  -55.2522E-03,   4.24285E-03
C:/temp/dataset/0/5_12.odb,Step-1,Increment      1: Step Time =    1.000,"PART-1-1",           239,      -9.85160,       9.96190,            0.,NA,NA,"",       1.87750,      -1.87279,  -132.947E-03,   4.58768E-03
C:/temp/dataset/0/5_12.odb,Step-1,Increment      1: Step Time =    1.000,"PART-1-1",           240,      -9.42013,      -19.6871,            0.,NA,NA,"",   129.173E-03,  -127.330E-03,  -21.7375E-03,   3.46553E-03
C:/temp/dataset/0/5_12.odb,Step-1,Increment      1: Step Time =    1.000,"PART-1-1",           241,      -9.87385,       6.90801,            0.,NA,NA,"",       1.67224,      -1.66778,  -122.141E-03,   4.53109E-03
C:/temp/dataset/0/5_12.odb,Step-1,Increment      1: Step Time =    1.000,"PART-1-1",           242,      -9.72088,      -17.1529,            0.,NA,NA,"",   210.276E-03,  -207.014E-03,  -36.8898E-03,   4.80129E-03
C:/temp/dataset/0/5_12.odb,Step-1,Increment      1: Step Time =    1.000,"PART-1-1",           243,      -7.24385,      -16.9197,            0.,NA,NA,"",   222.986E-03,  -218.901E-03,   42.4910E-03,   10.4472E-03
C:/temp/dataset/0/5_12.odb,Step-1,Increment      1: Step Time =    1.000,"PART-1-1",           244,      -9.88569,       3.86363,            0.,NA,NA,"",       1.46123,      -1.45703,  -110.602E-03,   4.51118E-03
C:/temp/dataset/0/5_12.odb,Step-1,Increment      1: Step Time =    1.000,"PART-1-1",           245,      -9.88680,   826.149E-03,            0.,NA,NA,"",       1.24900,      -1.24511,  -98.5351E-03,   4.48528E-03
C:/temp/dataset/0/5_12.odb,Step-1,Increment      1: Step Time =    1.000,"PART-1-1",           246,      -9.87953,      -2.20322,            0.,NA,NA,"",       1.04031,      -1.03672,  -86.3739E-03,   4.44937E-03
C:/temp/dataset/0/5_12.odb,Step-1,Increment      1: Step Time =    1.000,"PART-1-1",           247,      -9.87339,      -5.23467,            0.,NA,NA,"",   839.112E-03,  -835.750E-03,  -75.0391E-03,   4.39816E-03
C:/temp/dataset/0/5_12.odb,Step-1,Increment      1: Step Time =    1.000,"PART-1-1",           248,      -9.87035,      -8.27303,            0.,NA,NA,"",   649.779E-03,  -646.522E-03,  -64.9797E-03,   4.32980E-03
C:/temp/dataset/0/5_12.odb,Step-1,Increment      1: Step Time =    1.000,"PART-1-1",           249,      -12.1942,       27.2250,            0.,NA,NA,"",       2.66709,      -2.65607,  -242.197E-03,   5.00456E-03
C:/temp/dataset/0/5_12.odb,Step-1,Increment      1: Step Time =    1.000,"PART-1-1",           250,      -12.1946,      -27.0241,            0.,NA,NA,"",   33.7076E-03,  -22.7245E-03,  -24.8958E-03,   10.6450E-03
C:/temp/dataset/0/5_12.odb,Step-1,Increment      1: Step Time =    1.000,"PART-1-1",           251,      -9.83578,       13.0151,            0.,NA,NA,"",       2.07180,      -2.06678,  -144.105E-03,   4.55729E-03
C:/temp/dataset/0/5_12.odb,Step-1,Increment      1: Step Time =    1.000,"PART-1-1",           252,      -12.4960,      -24.1891,            0.,NA,NA,"",   76.9343E-03,  -55.0574E-03,  -53.7360E-03,   11.1548E-03
C:/temp/dataset/0/5_12.odb,Step-1,Increment      1: Step Time =    1.000,"PART-1-1",           253,      -7.26398,       19.6069,            0.,NA,NA,"",       2.43077,      -2.43020,  -52.8139E-03,   8.09943E-03
C:/temp/dataset/0/5_12.odb,Step-1,Increment      1: Step Time =    1.000,"PART-1-1",           254,      -9.78845,      -22.6320,            0.,NA,NA,"",   72.6705E-03,  -69.7661E-03,  -20.3394E-03,   3.42910E-03
C:/temp/dataset/0/5_12.odb,Step-1,Increment      1: Step Time =    1.000,"PART-1-1",           255,       8.11622,      -24.1302,            0.,NA,NA,"",   67.3925E-03,  -66.0291E-03,  -13.4876E-03,   4.56353E-03
C:/temp/dataset/0/5_12.odb,Step-1,Increment      1: Step Time =    1.000,"PART-1-1",           256,       10.7040,      -22.7860,            0.,NA,NA,"",   136.489E-03,  -116.641E-03,   70.8818E-03,   13.4253E-03
C:/temp/dataset/0/5_12.odb,Step-1,Increment      1: Step Time =    1.000,"PART-1-1",           257,      -8.82647,      -21.3553,            0.,NA,NA,"",   89.8506E-03,  -89.6982E-03,  -5.23120E-03,   2.21743E-03
C:/temp/dataset/0/5_12.odb,Step-1,Increment      1: Step Time =    1.000,"PART-1-1",           258,      -9.77631,       19.1047,            0.,NA,NA,"",       2.40361,      -2.39849,  -156.860E-03,   3.29386E-03
C:/temp/dataset/0/5_12.odb,Step-1,Increment      1: Step Time =    1.000,"PART-1-1",           259,      -7.77355,      -23.8785,            0.,NA,NA,"",   56.1202E-03,  -55.6587E-03,   7.18299E-03,   4.41380E-03
C:/temp/dataset/0/5_12.odb,Step-1,Increment      1: Step Time =    1.000,"PART-1-1",           260,  -536.979E-03,      -24.7394,            0.,NA,NA,"",   79.3451E-03,  -78.9214E-03,  -8.18888E-03,   13.4972E-03
C:/temp/dataset/0/5_12.odb,Step-1,Increment      1: Step Time =    1.000,"PART-1-1",           261,      -9.52558,       24.7102,            0.,NA,NA,"",       2.59290,      -2.58882,  -145.511E-03,   7.17019E-03
C:/temp/dataset/0/5_12.odb,Step-1,Increment      1: Step Time =    1.000,"PART-1-1",           262,      -2.15050,       21.2402,            0.,NA,NA,"",       2.52603,      -2.52578,   35.7128E-03,   10.6982E-03
C:/temp/dataset/0/5_12.odb,Step-1,Increment      1: Step Time =    1.000,"PART-1-1",           263,      -3.09708,       22.5364,            0.,NA,NA,"",       2.54041,      -2.54022,   30.7583E-03,   7.14915E-03
C:/temp/dataset/0/5_12.odb,Step-1,Increment      1: Step Time =    1.000,"PART-1-1",           264,      -4.69657,       21.2962,            0.,NA,NA,"",       2.50544,      -2.50538,   17.3161E-03,   15.9680E-03
C:/temp/dataset/0/5_12.odb,Step-1,Increment      1: Step Time =    1.000,"PART-1-1",           265,         -3.75,           20.,            0.,NA,NA,"",       2.49060,      -2.49054,   16.8176E-03,   20.5011E-03
C:/temp/dataset/0/5_12.odb,Step-1,Increment      1: Step Time =    1.000,"PART-1-1",           266,      -4.10052,       23.8735,            0.,NA,NA,"",       2.56658,      -2.56654,   12.7787E-03,   5.45790E-03
C:/temp/dataset/0/5_12.odb,Step-1,Increment      1: Step Time =    1.000,"PART-1-1",           267,      -5.24999,       25.0683,            0.,NA,NA,"",       2.59313,      -2.59309,  -14.3079E-03,   3.80300E-03
C:/temp/dataset/0/5_12.odb,Step-1,Increment      1: Step Time =    1.000,"PART-1-1",           268,      -6.84155,       23.6782,            0.,NA,NA,"",       2.56375,      -2.56323,  -51.3132E-03,   6.23074E-03
C:/temp/dataset/0/5_12.odb,Step-1,Increment      1: Step Time =    1.000,"PART-1-1",           269,      -5.69208,       22.4834,            0.,NA,NA,"",       2.53402,      -2.53398,  -12.5926E-03,   6.32201E-03
C:/temp/dataset/0/5_12.odb,Step-1,Increment      1: Step Time =    1.000,"PART-1-1",           270,      -7.35192,       14.9896,            0.,NA,NA,"",       2.18309,      -2.18299,  -21.2863E-03,   8.38498E-03
C:/temp/dataset/0/5_12.odb,Step-1,Increment      1: Step Time =    1.000,"PART-1-1",           271,      -8.56303,       16.3048,            0.,NA,NA,"",       2.26027,      -2.25836,  -92.9550E-03,   7.07032E-03
C:/temp/dataset/0/5_12.odb,Step-1,Increment      1: Step Time =    1.000,"PART-1-1",           272,      -9.81613,       14.5472,            0.,NA,NA,"",       2.16328,      -2.15818,  -148.575E-03,   4.67422E-03
C:/temp/dataset/0/5_12.odb,Step-1,Increment      1: Step Time =    1.000,"PART-1-1",           273,      -8.60502,       13.2320,            0.,NA,NA,"",       2.08130,      -2.07988,  -76.9749E-03,   5.85946E-03
C:/temp/dataset/0/5_12.odb,Step-1,Increment      1: Step Time =    1.000,"PART-1-1",           274,          -15.,         -16.5,            0.,NA,NA,"",   339.021E-03,  -254.598E-03,  -223.864E-03,   18.8196E-03
C:/temp/dataset/0/5_12.odb,Step-1,Increment      1: Step Time =    1.000,"PART-1-1",           275,      -13.6504,      -17.8249,            0.,NA,NA,"",   253.161E-03,  -199.246E-03,  -156.178E-03,   14.9161E-03
C:/temp/dataset/0/5_12.odb,Step-1,Increment      1: Step Time =    1.000,"PART-1-1",           276,      -12.3363,      -16.1340,            0.,NA,NA,"",   284.714E-03,  -252.704E-03,  -131.158E-03,   10.0199E-03
C:/temp/dataset/0/5_12.odb,Step-1,Increment      1: Step Time =    1.000,"PART-1-1",           277,      -13.6859,      -14.8091,            0.,NA,NA,"",   370.502E-03,  -313.143E-03,  -198.023E-03,   13.6649E-03
C:/temp/dataset/0/5_12.odb,Step-1,Increment      1: Step Time =    1.000,"PART-1-1",           278,      -4.46540,      -27.1831,            0.,NA,NA,"",   34.2499E-03,  -33.9449E-03,   4.56068E-03,   9.42969E-03
C:/temp/dataset/0/5_12.odb,Step-1,Increment      1: Step Time =    1.000,"PART-1-1",           279,      -2.97305,      -25.9670,            0.,NA,NA,"",   55.4957E-03,  -55.2460E-03,   5.25883E-03,   11.7285E-03
C:/temp/dataset/0/5_12.odb,Step-1,Increment      1: Step Time =    1.000,"PART-1-1",           280,      -4.19392,      -24.5512,            0.,NA,NA,"",   67.5290E-03,  -65.7435E-03,   15.4258E-03,   11.4246E-03
C:/temp/dataset/0/5_12.odb,Step-1,Increment      1: Step Time =    1.000,"PART-1-1",           281,      -5.68627,      -25.7673,            0.,NA,NA,"",   45.4281E-03,  -44.2725E-03,   10.1811E-03,   9.06528E-03
C:/temp/dataset/0/5_12.odb,Step-1,Increment      1: Step Time =    1.000,"PART-1-1",           282,      -5.28634,      -23.2314,            0.,NA,NA,"",   78.4891E-03,  -74.4458E-03,   24.8669E-03,   11.2973E-03
C:/temp/dataset/0/5_12.odb,Step-1,Increment      1: Step Time =    1.000,"PART-1-1",           283,      -2.80857,      -23.4296,            0.,NA,NA,"",   85.8139E-03,  -84.7872E-03,   13.2341E-03,   12.0213E-03
C:/temp/dataset/0/5_12.odb,Step-1,Increment      1: Step Time =    1.000,"PART-1-1",           284,      -3.90099,      -22.1098,            0.,NA,NA,"",   97.1981E-03,  -92.7143E-03,   29.1810E-03,   11.9270E-03
C:/temp/dataset/0/5_12.odb,Step-1,Increment      1: Step Time =    1.000,"PART-1-1",           285,       1.61260,      -23.5545,            0.,NA,NA,"",   103.910E-03,  -98.9975E-03,  -31.5719E-03,   17.7013E-03
C:/temp/dataset/0/5_12.odb,Step-1,Increment      1: Step Time =    1.000,"PART-1-1",           286,       2.09558,      -25.4897,            0.,NA,NA,"",   74.0067E-03,  -68.4958E-03,  -28.0236E-03,   17.1290E-03
C:/temp/dataset/0/5_12.odb,Step-1,Increment      1: Step Time =    1.000,"PART-1-1",           287,       3.30955,      -24.8521,            0.,NA,NA,"",   85.9747E-03,  -75.6876E-03,  -40.7803E-03,   19.8438E-03
C:/temp/dataset/0/5_12.odb,Step-1,Increment      1: Step Time =    1.000,"PART-1-1",           288,       2.82657,      -22.9168,            0.,NA,NA,"",   123.916E-03,  -111.430E-03,  -54.2073E-03,   20.0705E-03
C:/temp/dataset/0/5_12.odb,Step-1,Increment      1: Step Time =    1.000,"PART-1-1",           289,       13.8857,      -20.1351,            0.,NA,NA,"",   390.719E-03,  -285.808E-03,   266.411E-03,   32.1110E-03
C:/temp/dataset/0/5_12.odb,Step-1,Increment      1: Step Time =    1.000,"PART-1-1",           290,           15.,        -18.75,            0.,NA,NA,"",   546.401E-03,  -397.262E-03,   375.149E-03,   37.2076E-03
C:/temp/dataset/0/5_12.odb,Step-1,Increment      1: Step Time =    1.000,"PART-1-1",           291,       13.8316,      -17.6482,            0.,NA,NA,"",   563.448E-03,  -462.044E-03,   322.473E-03,   27.7928E-03
C:/temp/dataset/0/5_12.odb,Step-1,Increment      1: Step Time =    1.000,"PART-1-1",           292,       12.7173,      -19.0333,            0.,NA,NA,"",   408.136E-03,  -341.178E-03,   223.994E-03,   23.2207E-03
C:/temp/dataset/0/5_12.odb,Step-1,Increment      1: Step Time =    1.000,"PART-1-1",           293,       13.7508,      -12.5905,            0.,NA,NA,"",       1.01869,  -945.131E-03,   380.076E-03,   13.4067E-03
C:/temp/dataset/0/5_12.odb,Step-1,Increment      1: Step Time =    1.000,"PART-1-1",           294,           15.,        -11.25,            0.,NA,NA,"",       1.21110,      -1.09944,   507.923E-03,   9.08822E-03
C:/temp/dataset/0/5_12.odb,Step-1,Increment      1: Step Time =    1.000,"PART-1-1",           295,       13.7881,      -10.0330,            0.,NA,NA,"",       1.28099,      -1.22185,   384.727E-03,   7.59081E-03
C:/temp/dataset/0/5_12.odb,Step-1,Increment      1: Step Time =    1.000,"PART-1-1",           296,       12.5389,      -11.3735,            0.,NA,NA,"",       1.10147,      -1.06715,   272.802E-03,   15.2404E-03
C:/temp/dataset/0/5_12.odb,Step-1,Increment      1: Step Time =    1.000,"PART-1-1",           297,       11.3345,      -10.0200,            0.,NA,NA,"",       1.22220,      -1.21097,   165.310E-03,   17.6275E-03
C:/temp/dataset/0/5_12.odb,Step-1,Increment      1: Step Time =    1.000,"PART-1-1",           298,       10.0449,      -11.4123,            0.,NA,NA,"",       1.05352,      -1.05143,   66.2585E-03,   19.8339E-03
C:/temp/dataset/0/5_12.odb,Step-1,Increment      1: Step Time =    1.000,"PART-1-1",           299,       11.2492,      -12.7658,            0.,NA,NA,"",   924.048E-03,  -908.735E-03,   167.526E-03,   17.7534E-03
C:/temp/dataset/0/5_12.odb,Step-1,Increment      1: Step Time =    1.000,"PART-1-1",           300,       9.32361,      -6.65743,            0.,NA,NA,"",       1.56294,      -1.56292,  -7.69357E-03,   16.2011E-03
C:/temp/dataset/0/5_12.odb,Step-1,Increment      1: Step Time =    1.000,"PART-1-1",           301,       10.9574,      -6.33595,            0.,NA,NA,"",       1.61275,      -1.60834,   119.160E-03,   16.1434E-03
C:/temp/dataset/0/5_12.odb,Step-1,Increment      1: Step Time =    1.000,"PART-1-1",           302,       10.9595,      -4.69463,            0.,NA,NA,"",       1.77123,      -1.76741,   116.228E-03,   12.7916E-03
C:/temp/dataset/0/5_12.odb,Step-1,Increment      1: Step Time =    1.000,"PART-1-1",           303,       9.32578,      -5.01612,            0.,NA,NA,"",       1.72328,      -1.72327,  -5.94921E-03,   13.0140E-03
C:/temp/dataset/0/5_12.odb,Step-1,Increment      1: Step Time =    1.000,"PART-1-1",           304,       12.9351,      -4.11714,            0.,NA,NA,"",       1.85525,      -1.83640,   263.809E-03,   11.5349E-03
C:/temp/dataset/0/5_12.odb,Step-1,Increment      1: Step Time =    1.000,"PART-1-1",           305,       11.6846,      -3.48758,            0.,NA,NA,"",       1.88621,      -1.87876,   167.385E-03,   9.56641E-03
C:/temp/dataset/0/5_12.odb,Step-1,Increment      1: Step Time =    1.000,"PART-1-1",           306,       12.2101,      -5.32419,            0.,NA,NA,"",       1.73308,      -1.71980,   214.101E-03,   13.3873E-03
C:/temp/dataset/0/5_12.odb,Step-1,Increment      1: Step Time =    1.000,"PART-1-1",           307,       9.86769,  -155.410E-03,            0.,NA,NA,"",       2.09829,      -2.09781,   45.2772E-03,   5.60900E-03
C:/temp/dataset/0/5_12.odb,Step-1,Increment      1: Step Time =    1.000,"PART-1-1",           308,       8.53089,   901.975E-03,            0.,NA,NA,"",       2.14979,      -2.14958,  -29.8771E-03,   9.67238E-03
C:/temp/dataset/0/5_12.odb,Step-1,Increment      1: Step Time =    1.000,"PART-1-1",           309,       7.40884,      -1.02539,            0.,NA,NA,"",       2.02680,      -2.02349,  -115.821E-03,   14.2298E-03
C:/temp/dataset/0/5_12.odb,Step-1,Increment      1: Step Time =    1.000,"PART-1-1",           310,       8.74564,      -2.08278,            0.,NA,NA,"",       1.96210,      -1.96178,  -35.3643E-03,   10.3559E-03
C:/temp/dataset/0/5_12.odb,Step-1,Increment      1: Step Time =    1.000,"PART-1-1",           311,       9.64302,       5.60069,            0.,NA,NA,"",       2.35995,      -2.35953,   44.3814E-03,   5.06630E-03
C:/temp/dataset/0/5_12.odb,Step-1,Increment      1: Step Time =    1.000,"PART-1-1",           312,       10.9412,       4.35663,            0.,NA,NA,"",       2.31781,      -2.31566,   99.8588E-03,   4.19812E-03
C:/temp/dataset/0/5_12.odb,Step-1,Increment      1: Step Time =    1.000,"PART-1-1",           313,       12.2262,       5.93259,            0.,NA,NA,"",       2.37516,      -2.37070,   145.494E-03,   7.08570E-03
C:/temp/dataset/0/5_12.odb,Step-1,Increment      1: Step Time =    1.000,"PART-1-1",           314,       10.9280,       7.17665,            0.,NA,NA,"",       2.41284,      -2.41104,   93.0621E-03,   3.83235E-03
C:/temp/dataset/0/5_12.odb,Step-1,Increment      1: Step Time =    1.000,"PART-1-1",           315,       13.6103,       7.39232,            0.,NA,NA,"",       2.41854,      -2.41167,   182.200E-03,   10.4019E-03
C:/temp/dataset/0/5_12.odb,Step-1,Increment      1: Step Time =    1.000,"PART-1-1",           316,           15.,          8.75,            0.,NA,NA,"",       2.45027,      -2.44149,   207.231E-03,   13.7780E-03
C:/temp/dataset/0/5_12.odb,Step-1,Increment      1: Step Time =    1.000,"PART-1-1",           317,       13.6268,       9.99700,            0.,NA,NA,"",       2.48242,      -2.47728,   159.595E-03,   8.90228E-03
C:/temp/dataset/0/5_12.odb,Step-1,Increment      1: Step Time =    1.000,"PART-1-1",           318,       12.2370,       8.63932,            0.,NA,NA,"",       2.45295,      -2.44947,   130.589E-03,   6.12078E-03
C:/temp/dataset/0/5_12.odb,Step-1,Increment      1: Step Time =    1.000,"PART-1-1",           319,       13.8144,       17.6522,            0.,NA,NA,"",       2.58042,      -2.57774,   117.415E-03,   4.36851E-03
C:/temp/dataset/0/5_12.odb,Step-1,Increment      1: Step Time =    1.000,"PART-1-1",           320,           15.,         18.75,            0.,NA,NA,"",       2.58500,      -2.58212,   122.003E-03,   4.63879E-03
C:/temp/dataset/0/5_12.odb,Step-1,Increment      1: Step Time =    1.000,"PART-1-1",           321,       13.8887,       20.1095,            0.,NA,NA,"",       2.59291,      -2.59054,   110.844E-03,   2.76450E-03
C:/temp/dataset/0/5_12.odb,Step-1,Increment      1: Step Time =    1.000,"PART-1-1",           322,       12.7031,       19.0116,            0.,NA,NA,"",       2.58875,      -2.58667,   103.714E-03,   3.37929E-03
C:/temp/dataset/0/5_12.odb,Step-1,Increment      1: Step Time =    1.000,"PART-1-1",           323,       11.4255,       18.0142,            0.,NA,NA,"",       2.58374,      -2.58211,   91.8401E-03,   3.61320E-03
C:/temp/dataset/0/5_12.odb,Step-1,Increment      1: Step Time =    1.000,"PART-1-1",           324,       11.6322,       20.3693,            0.,NA,NA,"",       2.59414,      -2.59245,   93.3723E-03,   3.03856E-03
C:/temp/dataset/0/5_12.odb,Step-1,Increment      1: Step Time =    1.000,"PART-1-1",           325,       10.3546,       19.3719,            0.,NA,NA,"",       2.58922,      -2.58794,   81.2844E-03,   4.02464E-03
C:/temp/dataset/0/5_12.odb,Step-1,Increment      1: Step Time =    1.000,"PART-1-1",           326,       10.9394,       26.3107,            0.,NA,NA,"",       2.61398,      -2.61234,   92.5404E-03,   732.929E-06
C:/temp/dataset/0/5_12.odb,Step-1,Increment      1: Step Time =    1.000,"PART-1-1",           327,       11.9108,       25.0855,            0.,NA,NA,"",       2.61007,      -2.60829,   96.4299E-03,   858.304E-06
C:/temp/dataset/0/5_12.odb,Step-1,Increment      1: Step Time =    1.000,"PART-1-1",           328,       13.0011,       26.2585,            0.,NA,NA,"",       2.61469,      -2.61272,   101.441E-03,   491.550E-06
C:/temp/dataset/0/5_12.odb,Step-1,Increment      1: Step Time =    1.000,"PART-1-1",           329,       12.0296,       27.4837,            0.,NA,NA,"",       2.61894,      -2.61713,   97.4088E-03,   239.515E-06
C:/temp/dataset/0/5_12.odb,Step-1,Increment      1: Step Time =    1.000,"PART-1-1",           330,       14.0179,       27.4887,            0.,NA,NA,"",       2.61940,      -2.61727,   105.509E-03,   127.159E-06
C:/temp/dataset/0/5_12.odb,Step-1,Increment      1: Step Time =    1.000,"PART-1-1",           331,       13.9832,       25.0198,            0.,NA,NA,"",       2.61043,      -2.60828,   105.848E-03,   500.100E-06
C:/temp/dataset/0/5_12.odb,Step-1,Increment      1: Step Time =    1.000,"PART-1-1",           332,           15.,         26.25,            0.,NA,NA,"",       2.61491,      -2.61261,   109.469E-03,   279.451E-06
C:/temp/dataset/0/5_12.odb,Step-1,Increment      1: Step Time =    1.000,"PART-1-1",           333,       3.55377,       20.8403,            0.,NA,NA,"",       2.56634,      -2.56563,   60.0857E-03,   6.10057E-03
C:/temp/dataset/0/5_12.odb,Step-1,Increment      1: Step Time =    1.000,"PART-1-1",           334,       4.16667,           20.,            0.,NA,NA,"",       2.56900,      -2.56836,   57.2454E-03,   7.21073E-03
C:/temp/dataset/0/5_12.odb,Step-1,Increment      1: Step Time =    1.000,"PART-1-1",           335,       5.33068,       20.7523,            0.,NA,NA,"",       2.57528,      -2.57468,   55.5607E-03,   8.37047E-03
C:/temp/dataset/0/5_12.odb,Step-1,Increment      1: Step Time =    1.000,"PART-1-1",           336,       4.71778,       21.5926,            0.,NA,NA,"",       2.57454,      -2.57382,   61.1260E-03,   6.88557E-03
C:/temp/dataset/0/5_12.odb,Step-1,Increment      1: Step Time =    1.000,"PART-1-1",           337,       1.85672,       20.8541,            0.,NA,NA,"",       2.55592,      -2.55528,   56.8663E-03,   7.61945E-03
C:/temp/dataset/0/5_12.odb,Step-1,Increment      1: Step Time =    1.000,"PART-1-1",           338,           2.5,           20.,            0.,NA,NA,"",       2.55714,      -2.55653,   55.7935E-03,   8.51658E-03
C:/temp/dataset/0/5_12.odb,Step-1,Increment      1: Step Time =    1.000,"PART-1-1",           339,       2.91049,       21.6945,            0.,NA,NA,"",       2.56672,      -2.56598,   61.9196E-03,   5.96543E-03
C:/temp/dataset/0/5_12.odb,Step-1,Increment      1: Step Time =    1.000,"PART-1-1",           340,       1.32465,      -26.7993,            0.,NA,NA,"",   53.0689E-03,  -50.6842E-03,  -15.7297E-03,   13.8974E-03
C:/temp/dataset/0/5_12.odb,Step-1,Increment      1: Step Time =    1.000,"PART-1-1",           341,   399.133E-03,      -24.6509,            0.,NA,NA,"",   83.4497E-03,  -81.7203E-03,  -16.9012E-03,   16.0025E-03
C:/temp/dataset/0/5_12.odb,Step-1,Increment      1: Step Time =    1.000,"PART-1-1",           342,  -371.796E-03,      -25.9605,            0.,NA,NA,"",   63.4390E-03,  -62.8632E-03,  -8.52845E-03,   13.3932E-03
C:/temp/dataset/0/5_12.odb,Step-1,Increment      1: Step Time =    1.000,"PART-1-1",           343,       7.16814,       28.8250,            0.,NA,NA,"",       2.62335,      -2.62213,   80.0900E-03,   963.213E-06
C:/temp/dataset/0/5_12.odb,Step-1,Increment      1: Step Time =    1.000,"PART-1-1",           344,       7.90869,       27.6030,            0.,NA,NA,"",       2.61768,      -2.61639,   82.1232E-03,   1.26757E-03
C:/temp/dataset/0/5_12.odb,Step-1,Increment      1: Step Time =    1.000,"PART-1-1",           345,       9.17805,       28.7779,            0.,NA,NA,"",       2.62312,      -2.62170,   86.5548E-03,   360.739E-06
C:/temp/dataset/0/5_12.odb,Step-1,Increment      1: Step Time =    1.000,"PART-1-1",           346,        8.4375,           30.,            0.,NA,NA,"",       2.62765,      -2.62631,   84.0126E-03,   226.432E-06
C:/temp/dataset/0/5_12.odb,Step-1,Increment      1: Step Time =    1.000,"PART-1-1",           347,       1.19326,       21.8923,            0.,NA,NA,"",       2.55891,      -2.55826,   57.4390E-03,   6.90651E-03
C:/temp/dataset/0/5_12.odb,Step-1,Increment      1: Step Time =    1.000,"PART-1-1",           348,   169.882E-03,       21.0382,            0.,NA,NA,"",       2.54503,      -2.54455,   49.2833E-03,   8.64911E-03
C:/temp/dataset/0/5_12.odb,Step-1,Increment      1: Step Time =    1.000,"PART-1-1",           349,   833.333E-03,           20.,            0.,NA,NA,"",       2.54313,      -2.54266,   49.0152E-03,   9.61840E-03
C:/temp/dataset/0/5_12.odb,Step-1,Increment      1: Step Time =    1.000,"PART-1-1",           350,       11.0482,       12.7829,            0.,NA,NA,"",       2.53354,      -2.53196,   89.5217E-03,   3.64967E-03
C:/temp/dataset/0/5_12.odb,Step-1,Increment      1: Step Time =    1.000,"PART-1-1",           351,       12.3949,       13.9828,            0.,NA,NA,"",       2.54934,      -2.54686,   112.201E-03,   4.74958E-03
C:/temp/dataset/0/5_12.odb,Step-1,Increment      1: Step Time =    1.000,"PART-1-1",           352,       11.2086,       15.4830,            0.,NA,NA,"",       2.56542,      -2.56383,   90.4102E-03,   3.67226E-03
C:/temp/dataset/0/5_12.odb,Step-1,Increment      1: Step Time =    1.000,"PART-1-1",           353,       9.86191,       14.2831,            0.,NA,NA,"",       2.55183,      -2.55092,   67.9971E-03,   4.43924E-03
C:/temp/dataset/0/5_12.odb,Step-1,Increment      1: Step Time =    1.000,"PART-1-1",           354,       9.65710,       8.53837,            0.,NA,NA,"",       2.44767,      -2.44714,   51.3126E-03,   4.91849E-03
C:/temp/dataset/0/5_12.odb,Step-1,Increment      1: Step Time =    1.000,"PART-1-1",           355,       8.46627,       10.0105,            0.,NA,NA,"",       2.47871,      -2.47860,   22.5580E-03,   7.22569E-03
C:/temp/dataset/0/5_12.odb,Step-1,Increment      1: Step Time =    1.000,"PART-1-1",           356,       7.24171,       8.43518,            0.,NA,NA,"",       2.43607,      -2.43595,  -23.8663E-03,   11.1927E-03
C:/temp/dataset/0/5_12.odb,Step-1,Increment      1: Step Time =    1.000,"PART-1-1",           357,       8.43254,       6.96306,            0.,NA,NA,"",       2.39992,      -2.39992,   3.85513E-03,   8.09822E-03
C:/temp/dataset/0/5_12.odb,Step-1,Increment      1: Step Time =    1.000,"PART-1-1",           358,       13.6558,       2.21224,            0.,NA,NA,"",       2.23363,      -2.22039,   242.762E-03,   13.8752E-03
C:/temp/dataset/0/5_12.odb,Step-1,Increment      1: Step Time =    1.000,"PART-1-1",           359,           15.,          3.75,            0.,NA,NA,"",       2.29494,      -2.27777,   280.183E-03,   17.2356E-03
C:/temp/dataset/0/5_12.odb,Step-1,Increment      1: Step Time =    1.000,"PART-1-1",           360,       13.6160,       4.79026,            0.,NA,NA,"",       2.33542,      -2.32598,   209.699E-03,   11.9141E-03
C:/temp/dataset/0/5_12.odb,Step-1,Increment      1: Step Time =    1.000,"PART-1-1",           361,       12.2717,       3.25251,            0.,NA,NA,"",       2.27613,      -2.27004,   166.434E-03,   8.50811E-03
C:/temp/dataset/0/5_12.odb,Step-1,Increment      1: Step Time =    1.000,"PART-1-1",           362,       9.69986,       2.68972,            0.,NA,NA,"",       2.24470,      -2.24432,   41.5366E-03,   5.27131E-03
C:/temp/dataset/0/5_12.odb,Step-1,Increment      1: Step Time =    1.000,"PART-1-1",           363,       11.0304,       1.58560,            0.,NA,NA,"",       2.19878,      -2.19589,   112.695E-03,   5.06080E-03
C:/temp/dataset/0/5_12.odb,Step-1,Increment      1: Step Time =    1.000,"PART-1-1",           364,       7.55861,      -11.4267,            0.,NA,NA,"",       1.05086,      -1.04171,  -138.326E-03,   15.0636E-03
C:/temp/dataset/0/5_12.odb,Step-1,Increment      1: Step Time =    1.000,"PART-1-1",           365,       6.31268,      -9.90243,            0.,NA,NA,"",       1.22826,      -1.20078,  -258.362E-03,   8.77244E-03
C:/temp/dataset/0/5_12.odb,Step-1,Increment      1: Step Time =    1.000,"PART-1-1",           366,            5.,      -11.6667,            0.,NA,NA,"",       1.07618,      -1.00771,  -377.739E-03,   4.04245E-03
C:/temp/dataset/0/5_12.odb,Step-1,Increment      1: Step Time =    1.000,"PART-1-1",           367,       6.24593,      -13.1909,            0.,NA,NA,"",   884.516E-03,  -851.548E-03,  -239.240E-03,   11.0859E-03
C:/temp/dataset/0/5_12.odb,Step-1,Increment      1: Step Time =    1.000,"PART-1-1",           368,       14.0233,      -5.11850,            0.,NA,NA,"",       1.79232,      -1.75516,   363.071E-03,   14.4948E-03
C:/temp/dataset/0/5_12.odb,Step-1,Increment      1: Step Time =    1.000,"PART-1-1",           369,           15.,         -3.75,            0.,NA,NA,"",       1.92600,      -1.87892,   423.263E-03,   21.1411E-03
C:/temp/dataset/0/5_12.odb,Step-1,Increment      1: Step Time =    1.000,"PART-1-1",           370,       13.9118,      -2.74864,            0.,NA,NA,"",       1.97896,      -1.95252,   322.457E-03,   16.1704E-03
C:/temp/dataset/0/5_12.odb,Step-1,Increment      1: Step Time =    1.000,"PART-1-1",           371,       12.6080,      -16.5365,            0.,NA,NA,"",   598.331E-03,  -541.574E-03,   254.357E-03,   20.7067E-03
C:/temp/dataset/0/5_12.odb,Step-1,Increment      1: Step Time =    1.000,"PART-1-1",           372,       11.3130,      -15.4489,            0.,NA,NA,"",   654.579E-03,  -631.895E-03,   170.827E-03,   18.9274E-03
C:/temp/dataset/0/5_12.odb,Step-1,Increment      1: Step Time =    1.000,"PART-1-1",           373,       10.1880,      -16.9099,            0.,NA,NA,"",   494.749E-03,  -486.277E-03,   91.1668E-03,   19.0144E-03
C:/temp/dataset/0/5_12.odb,Step-1,Increment      1: Step Time =    1.000,"PART-1-1",           374,       11.4829,      -17.9975,            0.,NA,NA,"",   436.810E-03,  -404.384E-03,   165.156E-03,   19.0976E-03
C:/temp/dataset/0/5_12.odb,Step-1,Increment      1: Step Time =    1.000,"PART-1-1",           375,       7.63417,      -21.6752,            0.,NA,NA,"",   142.286E-03,  -137.115E-03,  -38.0096E-03,   8.80730E-03
C:/temp/dataset/0/5_12.odb,Step-1,Increment      1: Step Time =    1.000,"PART-1-1",           376,       7.43394,      -23.2038,            0.,NA,NA,"",   96.3650E-03,  -90.0948E-03,  -34.1927E-03,   8.48203E-03
C:/temp/dataset/0/5_12.odb,Step-1,Increment      1: Step Time =    1.000,"PART-1-1",           377,       8.61676,      -23.4202,            0.,NA,NA,"",   85.0747E-03,  -85.0491E-03,  -2.08785E-03,   2.45012E-03
C:/temp/dataset/0/5_12.odb,Step-1,Increment      1: Step Time =    1.000,"PART-1-1",           378,       8.81699,      -21.8917,            0.,NA,NA,"",   136.393E-03,  -136.276E-03,   5.65084E-03,   7.71485E-03
C:/temp/dataset/0/5_12.odb,Step-1,Increment      1: Step Time =    1.000,"PART-1-1",           379,  -438.919E-03,      -23.5046,            0.,NA,NA,"",   92.2335E-03,  -91.8271E-03,  -8.64832E-03,   13.1501E-03
C:/temp/dataset/0/5_12.odb,Step-1,Increment      1: Step Time =    1.000,"PART-1-1",           380,   774.543E-03,      -22.4081,            0.,NA,NA,"",   106.914E-03,  -104.657E-03,  -21.8545E-03,   14.9414E-03
C:/temp/dataset/0/5_12.odb,Step-1,Increment      1: Step Time =    1.000,"PART-1-1",           381,      -7.50181,      -26.8221,            0.,NA,NA,"",   25.4219E-03,  -25.3668E-03,   1.67277E-03,   5.72230E-03
C:/temp/dataset/0/5_12.odb,Step-1,Increment      1: Step Time =    1.000,"PART-1-1",           382,      -9.04643,      -28.2740,            0.,NA,NA,"",   9.84963E-03,  -9.20211E-03,  -3.51232E-03,   3.83150E-03
C:/temp/dataset/0/5_12.odb,Step-1,Increment      1: Step Time =    1.000,"PART-1-1",           383,          -7.5,          -30.,            0.,NA,NA,"",            0.,  -4.39627E-39,  -3.97248E-39,   4.32192E-03
C:/temp/dataset/0/5_12.odb,Step-1,Increment      1: Step Time =    1.000,"PART-1-1",           384,      -5.95538,      -28.5482,            0.,NA,NA,"",   13.7725E-03,  -13.7453E-03,   863.940E-06,   6.67810E-03
C:/temp/dataset/0/5_12.odb,Step-1,Increment      1: Step Time =    1.000,"PART-1-1",           385,      -10.9107,       24.5471,            0.,NA,NA,"",       2.59070,      -2.58320,  -196.981E-03,   6.63435E-03
C:/temp/dataset/0/5_12.odb,Step-1,Increment      1: Step Time =    1.000,"PART-1-1",           386,      -9.41006,       26.0517,            0.,NA,NA,"",       2.62721,      -2.62333,  -142.731E-03,   6.57530E-03
C:/temp/dataset/0/5_12.odb,Step-1,Increment      1: Step Time =    1.000,"PART-1-1",           387,      -10.7443,       27.3091,            0.,NA,NA,"",       2.66456,      -2.65769,  -191.268E-03,   5.56564E-03
C:/temp/dataset/0/5_12.odb,Step-1,Increment      1: Step Time =    1.000,"PART-1-1",           388,      -12.2450,       25.8045,            0.,NA,NA,"",       2.62776,      -2.61633,  -244.850E-03,   5.65864E-03
C:/temp/dataset/0/5_12.odb,Step-1,Increment      1: Step Time =    1.000,"PART-1-1",           389,      -1.21620,       23.8189,            0.,NA,NA,"",       2.57091,      -2.57048,   46.8547E-03,   6.48420E-03
C:/temp/dataset/0/5_12.odb,Step-1,Increment      1: Step Time =    1.000,"PART-1-1",           390,      -2.21965,       25.1560,            0.,NA,NA,"",       2.59201,      -2.59174,   36.7251E-03,   4.23832E-03
C:/temp/dataset/0/5_12.odb,Step-1,Increment      1: Step Time =    1.000,"PART-1-1",           391,      -12.3287,       22.9401,            0.,NA,NA,"",       2.54526,      -2.53254,  -254.174E-03,   6.10048E-03
C:/temp/dataset/0/5_12.odb,Step-1,Increment      1: Step Time =    1.000,"PART-1-1",           392,      -11.0144,       21.7359,            0.,NA,NA,"",       2.50566,      -2.49723,  -205.287E-03,   5.62402E-03
C:/temp/dataset/0/5_12.odb,Step-1,Increment      1: Step Time =    1.000,"PART-1-1",           393,      -9.59641,       23.3428,            0.,NA,NA,"",       2.55582,      -2.55156,  -147.542E-03,   6.58761E-03
C:/temp/dataset/0/5_12.odb,Step-1,Increment      1: Step Time =    1.000,"PART-1-1",           394,      -8.52014,       19.3558,            0.,NA,NA,"",       2.41607,      -2.41386,  -103.460E-03,   5.29905E-03
C:/temp/dataset/0/5_12.odb,Step-1,Increment      1: Step Time =    1.000,"PART-1-1",           395,      -7.12750,       20.9906,            0.,NA,NA,"",       2.48790,      -2.48736,  -51.7089E-03,   6.83816E-03
C:/temp/dataset/0/5_12.odb,Step-1,Increment      1: Step Time =    1.000,"PART-1-1",           396,      -8.32913,       22.1749,            0.,NA,NA,"",       2.52239,      -2.52046,  -98.7216E-03,   6.43106E-03
C:/temp/dataset/0/5_12.odb,Step-1,Increment      1: Step Time =    1.000,"PART-1-1",           397,      -9.72177,       20.5400,            0.,NA,NA,"",       2.46327,      -2.45844,  -154.273E-03,   3.92976E-03
C:/temp/dataset/0/5_12.odb,Step-1,Increment      1: Step Time =    1.000,"PART-1-1",           398,      -6.16480,       16.7267,            0.,NA,NA,"",       2.27897,      -2.27886,   22.8511E-03,   11.8017E-03
C:/temp/dataset/0/5_12.odb,Step-1,Increment      1: Step Time =    1.000,"PART-1-1",           399,           -5.,       18.4615,            0.,NA,NA,"",       2.36754,      -2.36682,   58.2197E-03,   20.8281E-03
C:/temp/dataset/0/5_12.odb,Step-1,Increment      1: Step Time =    1.000,"PART-1-1",           400,      -6.13199,       19.8034,            0.,NA,NA,"",       2.44862,      -2.44859,  -11.8778E-03,   16.7053E-03
C:/temp/dataset/0/5_12.odb,Step-1,Increment      1: Step Time =    1.000,"PART-1-1",           401,      -7.29678,       18.0686,            0.,NA,NA,"",       2.35549,      -2.35503,  -46.3671E-03,   8.21631E-03
C:/temp/dataset/0/5_12.odb,Step-1,Increment      1: Step Time =    1.000,"PART-1-1",           402,      -11.0823,       15.8203,            0.,NA,NA,"",       2.23940,      -2.22897,  -215.861E-03,   3.84528E-03
C:/temp/dataset/0/5_12.odb,Step-1,Increment      1: Step Time =    1.000,"PART-1-1",           403,      -12.3677,       14.0517,            0.,NA,NA,"",       2.14334,      -2.12456,  -283.095E-03,   4.50648E-03
C:/temp/dataset/0/5_12.odb,Step-1,Increment      1: Step Time =    1.000,"PART-1-1",           404,      -11.1015,       12.7786,            0.,NA,NA,"",       2.06182,      -2.05075,  -213.363E-03,   3.75712E-03
C:/temp/dataset/0/5_12.odb,Step-1,Increment      1: Step Time =    1.000,"PART-1-1",           405,          -15.,          10.5,            0.,NA,NA,"",       1.94633,      -1.89459,  -445.772E-03,   5.56500E-03
C:/temp/dataset/0/5_12.odb,Step-1,Increment      1: Step Time =    1.000,"PART-1-1",           406,      -13.6919,       9.25384,            0.,NA,NA,"",       1.85461,      -1.81836,  -364.870E-03,   3.21302E-03
C:/temp/dataset/0/5_12.odb,Step-1,Increment      1: Step Time =    1.000,"PART-1-1",           407,      -12.3755,       11.0249,            0.,NA,NA,"",       1.95844,      -1.93765,  -284.612E-03,   3.85387E-03
C:/temp/dataset/0/5_12.odb,Step-1,Increment      1: Step Time =    1.000,"PART-1-1",           408,      -13.6836,       12.2710,            0.,NA,NA,"",       2.04412,      -2.01210,  -360.380E-03,   5.12586E-03
C:/temp/dataset/0/5_12.odb,Step-1,Increment      1: Step Time =    1.000,"PART-1-1",           409,      -7.40029,       8.84536,            0.,NA,NA,"",       1.79990,      -1.79977,   21.8726E-03,   5.50545E-03
C:/temp/dataset/0/5_12.odb,Step-1,Increment      1: Step Time =    1.000,"PART-1-1",           410,      -8.62408,       10.1694,            0.,NA,NA,"",       1.88790,      -1.88692,  -60.7437E-03,   5.10246E-03
C:/temp/dataset/0/5_12.odb,Step-1,Increment      1: Step Time =    1.000,"PART-1-1",           411,      -9.86273,       8.43495,            0.,NA,NA,"",       1.77594,      -1.77136,  -127.549E-03,   4.57212E-03
C:/temp/dataset/0/5_12.odb,Step-1,Increment      1: Step Time =    1.000,"PART-1-1",           412,      -8.63893,       7.11093,            0.,NA,NA,"",       1.68333,      -1.68270,  -45.8472E-03,   4.59975E-03
C:/temp/dataset/0/5_12.odb,Step-1,Increment      1: Step Time =    1.000,"PART-1-1",           413,          -15.,           1.5,            0.,NA,NA,"",       1.35816,      -1.28646,  -435.466E-03,   2.88290E-03
C:/temp/dataset/0/5_12.odb,Step-1,Increment      1: Step Time =    1.000,"PART-1-1",           414,      -13.7087,   214.116E-03,            0.,NA,NA,"",       1.24690,      -1.19922,  -341.511E-03,   3.90038E-03
C:/temp/dataset/0/5_12.odb,Step-1,Increment      1: Step Time =    1.000,"PART-1-1",           415,      -12.4129,       1.94059,            0.,NA,NA,"",       1.34611,      -1.31978,  -264.958E-03,   3.85524E-03
C:/temp/dataset/0/5_12.odb,Step-1,Increment      1: Step Time =    1.000,"PART-1-1",           416,      -13.7042,       3.22647,            0.,NA,NA,"",       1.45145,      -1.40735,  -355.084E-03,   2.24648E-03
C:/temp/dataset/0/5_12.odb,Step-1,Increment      1: Step Time =    1.000,"PART-1-1",           417,      -9.88317,  -688.536E-03,            0.,NA,NA,"",       1.14399,      -1.14026,  -92.3806E-03,   4.46759E-03
C:/temp/dataset/0/5_12.odb,Step-1,Increment      1: Step Time =    1.000,"PART-1-1",           418,      -8.64028,      -2.02441,            0.,NA,NA,"",       1.05068,      -1.05063,  -10.1950E-03,   3.65164E-03
C:/temp/dataset/0/5_12.odb,Step-1,Increment      1: Step Time =    1.000,"PART-1-1",           419,      -7.40757,  -323.915E-03,            0.,NA,NA,"",       1.17101,      -1.16930,   63.3161E-03,   3.08343E-03
C:/temp/dataset/0/5_12.odb,Step-1,Increment      1: Step Time =    1.000,"PART-1-1",           420,      -8.65046,       1.01196,            0.,NA,NA,"",       1.25986,      -1.25969,  -20.5508E-03,   3.85635E-03
C:/temp/dataset/0/5_12.odb,Step-1,Increment      1: Step Time =    1.000,"PART-1-1",           421,          -15.,          -7.5,            0.,NA,NA,"",   786.291E-03,  -699.484E-03,  -359.132E-03,   11.1656E-03
C:/temp/dataset/0/5_12.odb,Step-1,Increment      1: Step Time =    1.000,"PART-1-1",           422,      -13.7007,      -8.80606,            0.,NA,NA,"",   674.774E-03,  -618.791E-03,  -269.105E-03,   9.77103E-03
C:/temp/dataset/0/5_12.odb,Step-1,Increment      1: Step Time =    1.000,"PART-1-1",           423,      -12.4029,      -7.10316,            0.,NA,NA,"",   748.217E-03,  -717.883E-03,  -210.883E-03,   6.85908E-03
C:/temp/dataset/0/5_12.odb,Step-1,Increment      1: Step Time =    1.000,"PART-1-1",           424,      -13.7022,      -5.79711,            0.,NA,NA,"",   854.466E-03,  -800.838E-03,  -297.945E-03,   7.77480E-03
C:/temp/dataset/0/5_12.odb,Step-1,Increment      1: Step Time =    1.000,"PART-1-1",           425,      -7.34368,      -12.4907,            0.,NA,NA,"",   422.174E-03,  -417.817E-03,   60.4959E-03,   6.45053E-03
C:/temp/dataset/0/5_12.odb,Step-1,Increment      1: Step Time =    1.000,"PART-1-1",           426,      -8.60430,      -11.1353,            0.,NA,NA,"",   485.267E-03,  -485.251E-03,   3.90349E-03,   3.96288E-03
C:/temp/dataset/0/5_12.odb,Step-1,Increment      1: Step Time =    1.000,"PART-1-1",           427,      -9.82710,      -12.7746,            0.,NA,NA,"",   401.768E-03,  -398.538E-03,  -50.8451E-03,   4.24166E-03
C:/temp/dataset/0/5_12.odb,Step-1,Increment      1: Step Time =    1.000,"PART-1-1",           428,      -8.56648,      -14.1300,            0.,NA,NA,"",   334.653E-03,  -334.637E-03,   3.21541E-03,   4.60470E-03
C:/temp/dataset/0/5_12.odb,Step-1,Increment      1: Step Time =    1.000,"PART-1-1",           429,  -730.622E-03,       22.2784,            0.,NA,NA,"",       2.55123,      -2.55078,   48.2481E-03,   7.97873E-03
C:/temp/dataset/0/5_12.odb,Step-1,Increment      1: Step Time =    1.000,"PART-1-1",           430,         -1.25,           20.,            0.,NA,NA,"",       2.52440,      -2.52415,   35.1278E-03,   11.8000E-03
C:/temp/dataset/0/5_12.odb,Step-1,Increment      1: Step Time =    1.000,"PART-1-1",           431,       11.1367,       28.7451,            0.,NA,NA,"",       2.62350,      -2.62182,   93.9291E-03,   210.153E-06
C:/temp/dataset/0/5_12.odb,Step-1,Increment      1: Step Time =    1.000,"PART-1-1",           432,       10.3125,           30.,            0.,NA,NA,"",       2.62812,      -2.62655,   90.8196E-03,   103.807E-06
C:/temp/dataset/0/5_12.odb,Step-1,Increment      1: Step Time =    1.000,"PART-1-1",           433,       10.0023,       27.5230,            0.,NA,NA,"",       2.61828,      -2.61675,   89.2860E-03,   440.599E-06
C:/temp/dataset/0/5_12.odb,Step-1,Increment      1: Step Time =    1.000,"PART-1-1",           434,       10.7751,       23.9735,            0.,NA,NA,"",       2.60515,      -2.60360,   90.0378E-03,   1.83582E-03
C:/temp/dataset/0/5_12.odb,Step-1,Increment      1: Step Time =    1.000,"PART-1-1",           435,       11.7898,       22.7248,            0.,NA,NA,"",       2.60203,      -2.60030,   94.9819E-03,   1.93571E-03
C:/temp/dataset/0/5_12.odb,Step-1,Increment      1: Step Time =    1.000,"PART-1-1",           436,       12.9255,       23.8368,            0.,NA,NA,"",       2.60625,      -2.60428,   101.358E-03,   1.24722E-03
C:/temp/dataset/0/5_12.odb,Step-1,Increment      1: Step Time =    1.000,"PART-1-1",           437,       2.25220,       28.9826,            0.,NA,NA,"",       2.63244,      -2.63165,   64.4066E-03,   4.35375E-03
C:/temp/dataset/0/5_12.odb,Step-1,Increment      1: Step Time =    1.000,"PART-1-1",           438,       3.21116,       27.8846,            0.,NA,NA,"",       2.62146,      -2.62054,   69.5051E-03,   3.81486E-03
C:/temp/dataset/0/5_12.odb,Step-1,Increment      1: Step Time =    1.000,"PART-1-1",           439,       4.70896,       28.9020,            0.,NA,NA,"",       2.62586,      -2.62484,   73.1904E-03,   2.33061E-03
C:/temp/dataset/0/5_12.odb,Step-1,Increment      1: Step Time =    1.000,"PART-1-1",           440,          3.75,           30.,            0.,NA,NA,"",       2.63310,      -2.63220,   68.7747E-03,   3.61540E-03
C:/temp/dataset/0/5_12.odb,Step-1,Increment      1: Step Time =    1.000,"PART-1-1",           441,      -8.10884,       24.8461,            0.,NA,NA,"",       2.59401,      -2.59224,  -95.7714E-03,   6.24108E-03
C:/temp/dataset/0/5_12.odb,Step-1,Increment      1: Step Time =    1.000,"PART-1-1",           442,      -13.5971,       27.1125,            0.,NA,NA,"",       2.66780,      -2.65198,  -290.121E-03,   2.91104E-03
C:/temp/dataset/0/5_12.odb,Step-1,Increment      1: Step Time =    1.000,"PART-1-1",           443,          -15.,          25.5,            0.,NA,NA,"",       2.62446,      -2.60266,  -337.623E-03,   4.24226E-03
C:/temp/dataset/0/5_12.odb,Step-1,Increment      1: Step Time =    1.000,"PART-1-1",           444,      -13.6479,       24.1920,            0.,NA,NA,"",       2.58450,      -2.56720,  -298.533E-03,   5.78607E-03
C:/temp/dataset/0/5_12.odb,Step-1,Increment      1: Step Time =    1.000,"PART-1-1",           445,      -6.53168,       26.2506,            0.,NA,NA,"",       2.62306,      -2.62257,  -50.9553E-03,   5.42239E-03
C:/temp/dataset/0/5_12.odb,Step-1,Increment      1: Step Time =    1.000,"PART-1-1",           446,      -7.83289,       27.4562,            0.,NA,NA,"",       2.65670,      -2.65506,  -93.1972E-03,   5.88642E-03
C:/temp/dataset/0/5_12.odb,Step-1,Increment      1: Step Time =    1.000,"PART-1-1",           447,          -15.,          28.5,            0.,NA,NA,"",       2.71307,      -2.69242,  -334.075E-03,   639.764E-06
C:/temp/dataset/0/5_12.odb,Step-1,Increment      1: Step Time =    1.000,"PART-1-1",           448,      -12.0971,       28.6125,            0.,NA,NA,"",       2.70684,      -2.69622,  -239.540E-03,   2.91637E-03
C:/temp/dataset/0/5_12.odb,Step-1,Increment      1: Step Time =    1.000,"PART-1-1",           449,         -13.5,           30.,            0.,NA,NA,"",       2.75511,      -2.74010,  -287.148E-03,   636.741E-06
C:/temp/dataset/0/5_12.odb,Step-1,Increment      1: Step Time =    1.000,"PART-1-1",           450,      -6.19829,       10.5730,            0.,NA,NA,"",       1.91344,      -1.91161,   83.8288E-03,   7.30907E-03
C:/temp/dataset/0/5_12.odb,Step-1,Increment      1: Step Time =    1.000,"PART-1-1",           451,      -6.20201,       7.50308,            0.,NA,NA,"",       1.71322,      -1.70987,   107.055E-03,   5.28293E-03
C:/temp/dataset/0/5_12.odb,Step-1,Increment      1: Step Time =    1.000,"PART-1-1",           452,           -5.,       9.23077,            0.,NA,NA,"",       1.83147,      -1.82336,   172.165E-03,   7.57518E-03
C:/temp/dataset/0/5_12.odb,Step-1,Increment      1: Step Time =    1.000,"PART-1-1",           453,      -12.4049,       4.96458,            0.,NA,NA,"",       1.55469,      -1.53005,  -275.684E-03,   3.33935E-03
C:/temp/dataset/0/5_12.odb,Step-1,Increment      1: Step Time =    1.000,"PART-1-1",           454,      -13.7007,       6.23810,            0.,NA,NA,"",       1.65544,      -1.61512,  -363.111E-03,   1.83373E-03
C:/temp/dataset/0/5_12.odb,Step-1,Increment      1: Step Time =    1.000,"PART-1-1",           455,          -15.,           4.5,            0.,NA,NA,"",       1.55816,      -1.49276,  -446.694E-03,   208.930E-06
C:/temp/dataset/0/5_12.odb,Step-1,Increment      1: Step Time =    1.000,"PART-1-1",           456,      -9.87977,       5.38582,            0.,NA,NA,"",       1.56723,      -1.56290,  -116.371E-03,   4.52546E-03
C:/temp/dataset/0/5_12.odb,Step-1,Increment      1: Step Time =    1.000,"PART-1-1",           457,      -8.64969,       4.05795,            0.,NA,NA,"",       1.47237,      -1.47201,  -32.5236E-03,   4.17572E-03
C:/temp/dataset/0/5_12.odb,Step-1,Increment      1: Step Time =    1.000,"PART-1-1",           458,      -7.40885,       5.78306,            0.,NA,NA,"",       1.59304,      -1.59256,   39.1074E-03,   4.39268E-03
C:/temp/dataset/0/5_12.odb,Step-1,Increment      1: Step Time =    1.000,"PART-1-1",           459,      -7.41391,       2.72502,            0.,NA,NA,"",       1.38171,      -1.38070,   52.8613E-03,   3.51698E-03
C:/temp/dataset/0/5_12.odb,Step-1,Increment      1: Step Time =    1.000,"PART-1-1",           460,      -9.88624,       2.34489,            0.,NA,NA,"",       1.35503,      -1.35099,  -104.539E-03,   4.49903E-03
C:/temp/dataset/0/5_12.odb,Step-1,Increment      1: Step Time =    1.000,"PART-1-1",           461,      -12.4101,      -4.09106,            0.,NA,NA,"",   938.525E-03,  -909.373E-03,  -232.099E-03,   5.74556E-03
C:/temp/dataset/0/5_12.odb,Step-1,Increment      1: Step Time =    1.000,"PART-1-1",           462,      -13.7080,      -2.79395,            0.,NA,NA,"",       1.04645,  -995.565E-03,  -322.341E-03,   5.81065E-03
C:/temp/dataset/0/5_12.odb,Step-1,Increment      1: Step Time =    1.000,"PART-1-1",           463,          -15.,          -4.5,            0.,NA,NA,"",   968.065E-03,  -885.414E-03,  -391.396E-03,   8.40131E-03
C:/temp/dataset/0/5_12.odb,Step-1,Increment      1: Step Time =    1.000,"PART-1-1",           464,      -9.87646,      -3.71895,            0.,NA,NA,"",   938.467E-03,  -935.000E-03,  -80.5890E-03,   4.42450E-03
C:/temp/dataset/0/5_12.odb,Step-1,Increment      1: Step Time =    1.000,"PART-1-1",           465,      -8.63520,      -5.06687,            0.,NA,NA,"",   848.402E-03,  -848.397E-03,  -2.77792E-03,   3.59460E-03
C:/temp/dataset/0/5_12.odb,Step-1,Increment      1: Step Time =    1.000,"PART-1-1",           466,      -7.39901,      -3.37233,            0.,NA,NA,"",   965.001E-03,  -962.489E-03,   69.5704E-03,   3.29022E-03
C:/temp/dataset/0/5_12.odb,Step-1,Increment      1: Step Time =    1.000,"PART-1-1",           467,      -7.39417,      -6.42670,            0.,NA,NA,"",   767.860E-03,  -764.579E-03,   70.9070E-03,   4.05144E-03
C:/temp/dataset/0/5_12.odb,Step-1,Increment      1: Step Time =    1.000,"PART-1-1",           468,      -9.87187,      -6.75385,            0.,NA,NA,"",   742.618E-03,  -739.325E-03,  -69.8548E-03,   4.36710E-03
C:/temp/dataset/0/5_12.odb,Step-1,Increment      1: Step Time =    1.000,"PART-1-1",           469,      -8.63084,      -8.11369,            0.,NA,NA,"",   657.836E-03,  -657.834E-03,   1.65181E-03,   3.70676E-03
C:/temp/dataset/0/5_12.odb,Step-1,Increment      1: Step Time =    1.000,"PART-1-1",           470,      -12.3844,      -13.1215,            0.,NA,NA,"",   417.036E-03,  -384.717E-03,  -160.973E-03,   9.11527E-03
C:/temp/dataset/0/5_12.odb,Step-1,Increment      1: Step Time =    1.000,"PART-1-1",           471,      -13.6984,      -11.8123,            0.,NA,NA,"",   512.006E-03,  -454.478E-03,  -235.796E-03,   11.7720E-03
C:/temp/dataset/0/5_12.odb,Step-1,Increment      1: Step Time =    1.000,"PART-1-1",           472,          -15.,         -13.5,            0.,NA,NA,"",   468.381E-03,  -379.136E-03,  -275.022E-03,   16.6691E-03
C:/temp/dataset/0/5_12.odb,Step-1,Increment      1: Step Time =    1.000,"PART-1-1",           473,      -7.37693,      -9.46970,            0.,NA,NA,"",   585.358E-03,  -581.398E-03,   67.9718E-03,   5.15042E-03
C:/temp/dataset/0/5_12.odb,Step-1,Increment      1: Step Time =    1.000,"PART-1-1",           474,      -9.85821,      -9.77933,            0.,NA,NA,"",   561.907E-03,  -558.704E-03,  -59.9103E-03,   4.30093E-03
C:/temp/dataset/0/5_12.odb,Step-1,Increment      1: Step Time =    1.000,"PART-1-1",           475,      -8.48236,      -17.0363,            0.,NA,NA,"",   211.151E-03,  -211.143E-03,   1.85316E-03,   5.56417E-03
C:/temp/dataset/0/5_12.odb,Step-1,Increment      1: Step Time =    1.000,"PART-1-1",           476,      -7.28434,      -15.4580,            0.,NA,NA,"",   282.427E-03,  -278.133E-03,   49.0581E-03,   8.28212E-03
C:/temp/dataset/0/5_12.odb,Step-1,Increment      1: Step Time =    1.000,"PART-1-1",           477,      -9.76451,      -15.7083,            0.,NA,NA,"",   267.322E-03,  -264.015E-03,  -41.9178E-03,   4.34812E-03
C:/temp/dataset/0/5_12.odb,Step-1,Increment      1: Step Time =    1.000,"PART-1-1",           478,      -8.29054,      -19.6175,            0.,NA,NA,"",   127.362E-03,  -127.254E-03,   5.24914E-03,   3.83061E-03
C:/temp/dataset/0/5_12.odb,Step-1,Increment      1: Step Time =    1.000,"PART-1-1",           479,      -7.20240,      -18.2338,            0.,NA,NA,"",   171.148E-03,  -167.646E-03,   34.4473E-03,   7.69779E-03
C:/temp/dataset/0/5_12.odb,Step-1,Increment      1: Step Time =    1.000,"PART-1-1",           480,      -9.57051,      -18.4200,            0.,NA,NA,"",   166.392E-03,  -163.885E-03,  -28.7758E-03,   3.96772E-03
C:/temp/dataset/0/5_12.odb,Step-1,Increment      1: Step Time =    1.000,"PART-1-1",           481,      -11.5327,      -24.2644,            0.,NA,NA,"",   64.1637E-03,  -50.6290E-03,  -39.4167E-03,   8.04845E-03
C:/temp/dataset/0/5_12.odb,Step-1,Increment      1: Step Time =    1.000,"PART-1-1",           482,      -10.1789,      -23.4859,            0.,NA,NA,"",   62.7253E-03,  -58.0564E-03,  -23.7471E-03,   4.25755E-03
C:/temp/dataset/0/5_12.odb,Step-1,Increment      1: Step Time =    1.000,"PART-1-1",           483,      -10.8627,      -21.7859,            0.,NA,NA,"",   96.9575E-03,  -86.2438E-03,  -44.3031E-03,   6.65863E-03
C:/temp/dataset/0/5_12.odb,Step-1,Increment      1: Step Time =    1.000,"PART-1-1",           484,      -12.2165,      -22.5644,            0.,NA,NA,"",   101.197E-03,  -77.6801E-03,  -64.8579E-03,   10.4518E-03
C:/temp/dataset/0/5_12.odb,Step-1,Increment      1: Step Time =    1.000,"PART-1-1",           485,      -6.15301,      -21.8453,            0.,NA,NA,"",   91.6177E-03,  -85.5807E-03,   32.7071E-03,   9.43102E-03
C:/temp/dataset/0/5_12.odb,Step-1,Increment      1: Step Time =    1.000,"PART-1-1",           486,      -7.48433,      -22.7723,            0.,NA,NA,"",   71.1227E-03,  -69.7728E-03,   13.7912E-03,   4.55963E-03
C:/temp/dataset/0/5_12.odb,Step-1,Increment      1: Step Time =    1.000,"PART-1-1",           487,      -6.61766,      -24.1583,            0.,NA,NA,"",   59.3777E-03,  -57.4824E-03,   14.8828E-03,   7.13448E-03
C:/temp/dataset/0/5_12.odb,Step-1,Increment      1: Step Time =    1.000,"PART-1-1",           488,      -9.30746,      -21.9937,            0.,NA,NA,"",   80.5172E-03,  -79.3905E-03,  -13.4229E-03,   2.51878E-03
C:/temp/dataset/0/5_12.odb,Step-1,Increment      1: Step Time =    1.000,"PART-1-1",           489,      -9.12330,      -20.5212,            0.,NA,NA,"",   107.693E-03,  -106.930E-03,  -12.7979E-03,   2.67856E-03
C:/temp/dataset/0/5_12.odb,Step-1,Increment      1: Step Time =    1.000,"PART-1-1",           490,      -10.6786,      -20.3134,            0.,NA,NA,"",   125.664E-03,  -115.661E-03,  -49.1301E-03,   6.39329E-03
C:/temp/dataset/0/5_12.odb,Step-1,Increment      1: Step Time =    1.000,"PART-1-1",           491,         -13.5,          -30.,            0.,NA,NA,"",            0.,   263.233E-42,  -26.0401E-39,   14.5548E-03
C:/temp/dataset/0/5_12.odb,Step-1,Increment      1: Step Time =    1.000,"PART-1-1",           492,      -12.0973,      -28.5120,            0.,NA,NA,"",   13.1879E-03,  -7.57869E-03,  -10.7928E-03,   9.23223E-03
C:/temp/dataset/0/5_12.odb,Step-1,Increment      1: Step Time =    1.000,"PART-1-1",           493,      -13.5973,      -27.0120,            0.,NA,NA,"",   44.8350E-03,  -27.7622E-03,  -35.2056E-03,   13.7969E-03
C:/temp/dataset/0/5_12.odb,Step-1,Increment      1: Step Time =    1.000,"PART-1-1",           494,          -15.,         -28.5,            0.,NA,NA,"",   33.7330E-03,  -22.6531E-03,  -24.9951E-03,   18.4393E-03
C:/temp/dataset/0/5_12.odb,Step-1,Increment      1: Step Time =    1.000,"PART-1-1",           495,      -2.59553,      -21.0976,            0.,NA,NA,"",   99.0936E-03,  -97.5135E-03,   17.6255E-03,   5.03384E-03
C:/temp/dataset/0/5_12.odb,Step-1,Increment      1: Step Time =    1.000,"PART-1-1",           496,      -1.51596,      -22.2324,            0.,NA,NA,"",   96.9860E-03,  -96.8740E-03,   4.66076E-03,   10.1698E-03
C:/temp/dataset/0/5_12.odb,Step-1,Increment      1: Step Time =    1.000,"PART-1-1",           497,  -170.430E-03,      -21.1349,            0.,NA,NA,"",   100.840E-03,  -100.580E-03,  -7.23760E-03,   6.17777E-03
C:/temp/dataset/0/5_12.odb,Step-1,Increment      1: Step Time =    1.000,"PART-1-1",           498,         -1.25,          -20.,            0.,NA,NA,"",   91.2905E-03,  -91.2167E-03,   3.67134E-03,   1.94532E-03
C:/temp/dataset/0/5_12.odb,Step-1,Increment      1: Step Time =    1.000,"PART-1-1",           499,       2.92795,      -28.2085,            0.,NA,NA,"",   27.3918E-03,  -25.0695E-03,  -11.0376E-03,   13.5551E-03
C:/temp/dataset/0/5_12.odb,Step-1,Increment      1: Step Time =    1.000,"PART-1-1",           500,  -103.307E-03,      -28.5907,            0.,NA,NA,"",   24.3880E-03,  -24.0238E-03,  -4.19893E-03,   12.1921E-03
C:/temp/dataset/0/5_12.odb,Step-1,Increment      1: Step Time =    1.000,"PART-1-1",           501,           1.5,          -30.,            0.,NA,NA,"",            0.,  -13.1002E-39,  -12.0191E-39,   11.1814E-03
C:/temp/dataset/0/5_12.odb,Step-1,Increment      1: Step Time =    1.000,"PART-1-1",           502,       2.19497,      -21.2732,            0.,NA,NA,"",   129.957E-03,  -122.788E-03,  -42.5678E-03,   14.2154E-03
C:/temp/dataset/0/5_12.odb,Step-1,Increment      1: Step Time =    1.000,"PART-1-1",           503,          1.25,          -20.,            0.,NA,NA,"",   100.742E-03,  -98.8189E-03,  -19.5924E-03,   9.84364E-03
C:/temp/dataset/0/5_12.odb,Step-1,Increment      1: Step Time =    1.000,"PART-1-1",           504,       4.38160,      -21.6436,            0.,NA,NA,"",   167.252E-03,  -138.380E-03,  -93.9374E-03,   36.5649E-03
C:/temp/dataset/0/5_12.odb,Step-1,Increment      1: Step Time =    1.000,"PART-1-1",           505,          3.75,          -20.,            0.,NA,NA,"",   155.774E-03,  -139.005E-03,  -70.3071E-03,   35.1096E-03
C:/temp/dataset/0/5_12.odb,Step-1,Increment      1: Step Time =    1.000,"PART-1-1",           506,       12.4146,      -26.3616,            0.,NA,NA,"",   75.0523E-03,  -37.5971E-03,   64.9562E-03,   21.9708E-03
C:/temp/dataset/0/5_12.odb,Step-1,Increment      1: Step Time =    1.000,"PART-1-1",           507,       11.3720,      -25.0651,            0.,NA,NA,"",   84.1368E-03,  -55.2466E-03,   63.4572E-03,   16.0453E-03
C:/temp/dataset/0/5_12.odb,Step-1,Increment      1: Step Time =    1.000,"PART-1-1",           508,       9.80011,      -26.1459,            0.,NA,NA,"",   33.1384E-03,  -26.7755E-03,   19.5251E-03,   6.14119E-03
C:/temp/dataset/0/5_12.odb,Step-1,Increment      1: Step Time =    1.000,"PART-1-1",           509,       10.8427,      -27.4423,            0.,NA,NA,"",   26.7750E-03,  -11.4941E-03,   24.1823E-03,   12.3392E-03
C:/temp/dataset/0/5_12.odb,Step-1,Increment      1: Step Time =    1.000,"PART-1-1",           510,       10.6574,      -21.6616,            0.,NA,NA,"",   181.650E-03,  -162.340E-03,   81.5010E-03,   14.0365E-03
C:/temp/dataset/0/5_12.odb,Step-1,Increment      1: Step Time =    1.000,"PART-1-1",           511,       9.56375,      -20.8051,            0.,NA,NA,"",   198.071E-03,  -193.802E-03,   40.9047E-03,   12.3897E-03
C:/temp/dataset/0/5_12.odb,Step-1,Increment      1: Step Time =    1.000,"PART-1-1",           512,       9.91066,      -22.7482,            0.,NA,NA,"",   119.492E-03,  -111.781E-03,   42.2284E-03,   9.22878E-03
C:/temp/dataset/0/5_12.odb,Step-1,Increment      1: Step Time =    1.000,"PART-1-1",           513,       13.7822,      -25.0807,            0.,NA,NA,"",   150.185E-03,  -81.0273E-03,   126.452E-03,   30.4386E-03
C:/temp/dataset/0/5_12.odb,Step-1,Increment      1: Step Time =    1.000,"PART-1-1",           514,       13.6324,      -27.5308,            0.,NA,NA,"",   65.8652E-03,  -30.8218E-03,   58.2086E-03,   28.8839E-03
C:/temp/dataset/0/5_12.odb,Step-1,Increment      1: Step Time =    1.000,"PART-1-1",           515,           15.,        -26.25,            0.,NA,NA,"",   140.582E-03,  -73.7461E-03,   119.686E-03,   36.5514E-03
C:/temp/dataset/0/5_12.odb,Step-1,Increment      1: Step Time =    1.000,"PART-1-1",           516,          13.5,          -30.,            0.,NA,NA,"",            0.,   1.95192E-39,   50.5437E-39,   26.0362E-03
C:/temp/dataset/0/5_12.odb,Step-1,Increment      1: Step Time =    1.000,"PART-1-1",           517,           15.,        -28.75,            0.,NA,NA,"",   50.1480E-03,  -31.5519E-03,   38.9781E-03,   36.1621E-03
C:/temp/dataset/0/5_12.odb,Step-1,Increment      1: Step Time =    1.000,"PART-1-1",           518,       12.1324,      -28.7808,            0.,NA,NA,"",   17.7157E-03,  -2.75153E-03,   17.5007E-03,   17.7335E-03
C:/temp/dataset/0/5_12.odb,Step-1,Increment      1: Step Time =    1.000,"PART-1-1",           519,       10.4418,      -23.8774,            0.,NA,NA,"",   94.3411E-03,  -79.4418E-03,   50.8846E-03,   10.9029E-03
C:/temp/dataset/0/5_12.odb,Step-1,Increment      1: Step Time =    1.000,"PART-1-1",           520,       12.6627,      -23.9582,            0.,NA,NA,"",   154.727E-03,  -97.1584E-03,   120.418E-03,   24.2940E-03
C:/temp/dataset/0/5_12.odb,Step-1,Increment      1: Step Time =    1.000,"PART-1-1",           521,       11.7324,      -22.7705,            0.,NA,NA,"",   167.935E-03,  -127.096E-03,   109.768E-03,   19.2075E-03
C:/temp/dataset/0/5_12.odb,Step-1,Increment      1: Step Time =    1.000,"PART-1-1",           522,       13.8804,      -22.6275,            0.,NA,NA,"",   254.288E-03,  -160.356E-03,   197.353E-03,   32.6063E-03
C:/temp/dataset/0/5_12.odb,Step-1,Increment      1: Step Time =    1.000,"PART-1-1",           523,           15.,        -23.75,            0.,NA,NA,"",   244.621E-03,  -137.848E-03,   202.082E-03,   38.7297E-03
C:/temp/dataset/0/5_12.odb,Step-1,Increment      1: Step Time =    1.000,"PART-1-1",           524,       10.4567,      -19.3679,            0.,NA,NA,"",   306.828E-03,  -291.637E-03,   95.3473E-03,   16.3192E-03
C:/temp/dataset/0/5_12.odb,Step-1,Increment      1: Step Time =    1.000,"PART-1-1",           525,       11.6911,      -20.4036,            0.,NA,NA,"",   280.336E-03,  -239.378E-03,   145.900E-03,   20.0223E-03
C:/temp/dataset/0/5_12.odb,Step-1,Increment      1: Step Time =    1.000,"PART-1-1",           526,       13.7764,      -15.1383,            0.,NA,NA,"",   775.007E-03,  -685.985E-03,   360.639E-03,   20.7151E-03
C:/temp/dataset/0/5_12.odb,Step-1,Increment      1: Step Time =    1.000,"PART-1-1",           527,           15.,        -16.25,            0.,NA,NA,"",   746.616E-03,  -600.130E-03,   444.161E-03,   29.7256E-03
C:/temp/dataset/0/5_12.odb,Step-1,Increment      1: Step Time =    1.000,"PART-1-1",           528,       13.9082,      -7.52913,            0.,NA,NA,"",       1.54937,      -1.50293,   376.489E-03,   12.3529E-03
C:/temp/dataset/0/5_12.odb,Step-1,Increment      1: Step Time =    1.000,"PART-1-1",           529,       12.6962,      -8.81215,            0.,NA,NA,"",       1.38014,      -1.35235,   275.587E-03,   15.9331E-03
C:/temp/dataset/0/5_12.odb,Step-1,Increment      1: Step Time =    1.000,"PART-1-1",           530,           15.,         -8.75,            0.,NA,NA,"",       1.45903,      -1.36935,   503.627E-03,   1.86804E-03
C:/temp/dataset/0/5_12.odb,Step-1,Increment      1: Step Time =    1.000,"PART-1-1",           531,       12.9315,      -6.39763,            0.,NA,NA,"",       1.64212,      -1.61815,   279.574E-03,   14.8411E-03
C:/temp/dataset/0/5_12.odb,Step-1,Increment      1: Step Time =    1.000,"PART-1-1",           532,           15.,         -6.25,            0.,NA,NA,"",       1.71881,      -1.65284,   471.617E-03,   15.6048E-03
C:/temp/dataset/0/5_12.odb,Step-1,Increment      1: Step Time =    1.000,"PART-1-1",           533,       13.7496,  -319.059E-03,            0.,NA,NA,"",       2.12271,      -2.10371,   283.401E-03,   14.7966E-03
C:/temp/dataset/0/5_12.odb,Step-1,Increment      1: Step Time =    1.000,"PART-1-1",           534,       12.6614,      -1.81770,            0.,NA,NA,"",       2.02322,      -2.01034,   227.921E-03,   9.20063E-03
C:/temp/dataset/0/5_12.odb,Step-1,Increment      1: Step Time =    1.000,"PART-1-1",           535,           15.,         -1.25,            0.,NA,NA,"",       2.08894,      -2.05607,   369.126E-03,   23.0376E-03
C:/temp/dataset/0/5_12.odb,Step-1,Increment      1: Step Time =    1.000,"PART-1-1",           536,       12.4054,   643.186E-03,            0.,NA,NA,"",       2.16025,      -2.15144,   194.934E-03,   9.64317E-03
C:/temp/dataset/0/5_12.odb,Step-1,Increment      1: Step Time =    1.000,"PART-1-1",           537,           15.,          1.25,            0.,NA,NA,"",       2.19220,      -2.16848,   321.608E-03,   19.1518E-03
C:/temp/dataset/0/5_12.odb,Step-1,Increment      1: Step Time =    1.000,"PART-1-1",           538,           15.,          6.25,            0.,NA,NA,"",       2.38133,      -2.36906,   241.444E-03,   15.6990E-03
C:/temp/dataset/0/5_12.odb,Step-1,Increment      1: Step Time =    1.000,"PART-1-1",           539,       10.9661,       10.0010,            0.,NA,NA,"",       2.48394,      -2.48230,   90.2245E-03,   3.69665E-03
C:/temp/dataset/0/5_12.odb,Step-1,Increment      1: Step Time =    1.000,"PART-1-1",           540,       13.7311,       15.1467,            0.,NA,NA,"",       2.56040,      -2.55723,   127.475E-03,   5.91778E-03
C:/temp/dataset/0/5_12.odb,Step-1,Increment      1: Step Time =    1.000,"PART-1-1",           541,       13.6638,       12.5861,            0.,NA,NA,"",       2.52879,      -2.52484,   141.408E-03,   7.41066E-03
C:/temp/dataset/0/5_12.odb,Step-1,Increment      1: Step Time =    1.000,"PART-1-1",           542,           15.,         13.75,            0.,NA,NA,"",       2.54130,      -2.53664,   153.906E-03,   9.39770E-03
C:/temp/dataset/0/5_12.odb,Step-1,Increment      1: Step Time =    1.000,"PART-1-1",           543,       10.0887,       16.9483,            0.,NA,NA,"",       2.57631,      -2.57520,   75.3463E-03,   4.29056E-03
C:/temp/dataset/0/5_12.odb,Step-1,Increment      1: Step Time =    1.000,"PART-1-1",           544,       12.5455,       16.5489,            0.,NA,NA,"",       2.57408,      -2.57185,   107.072E-03,   4.15509E-03
C:/temp/dataset/0/5_12.odb,Step-1,Increment      1: Step Time =    1.000,"PART-1-1",           545,       13.9423,       22.5670,            0.,NA,NA,"",       2.60199,      -2.59977,   107.264E-03,   1.37548E-03
C:/temp/dataset/0/5_12.odb,Step-1,Increment      1: Step Time =    1.000,"PART-1-1",           546,       12.8310,       21.4264,            0.,NA,NA,"",       2.59823,      -2.59623,   101.907E-03,   2.33063E-03
C:/temp/dataset/0/5_12.odb,Step-1,Increment      1: Step Time =    1.000,"PART-1-1",           547,           15.,         21.25,            0.,NA,NA,"",       2.59658,      -2.59407,   114.187E-03,   2.50271E-03
C:/temp/dataset/0/5_12.odb,Step-1,Increment      1: Step Time =    1.000,"PART-1-1",           548,       13.0804,       28.7387,            0.,NA,NA,"",       2.62397,      -2.62199,   101.726E-03,   131.018E-06
C:/temp/dataset/0/5_12.odb,Step-1,Increment      1: Step Time =    1.000,"PART-1-1",           549,       12.1875,           30.,            0.,NA,NA,"",       2.62868,      -2.62685,   98.1799E-03,   81.3552E-06
C:/temp/dataset/0/5_12.odb,Step-1,Increment      1: Step Time =    1.000,"PART-1-1",           550,           15.,         28.75,            0.,NA,NA,"",       2.62436,      -2.62208,   109.280E-03,   26.5783E-06
C:/temp/dataset/0/5_12.odb,Step-1,Increment      1: Step Time =    1.000,"PART-1-1",           551,       14.0625,           30.,            0.,NA,NA,"",       2.62906,      -2.62694,   105.611E-03,   20.6925E-06
C:/temp/dataset/0/5_12.odb,Step-1,Increment      1: Step Time =    1.000,"PART-1-1",           552,       8.83353,       26.4105,            0.,NA,NA,"",       2.61262,      -2.61126,   84.3070E-03,   1.37569E-03
C:/temp/dataset/0/5_12.odb,Step-1,Increment      1: Step Time =    1.000,"PART-1-1",           553,       9.77062,       25.1982,            0.,NA,NA,"",       2.60844,      -2.60700,   86.6286E-03,   1.51338E-03
C:/temp/dataset/0/5_12.odb,Step-1,Increment      1: Step Time =    1.000,"PART-1-1",           554,       5.62710,       27.7270,            0.,NA,NA,"",       2.61816,      -2.61705,   76.0417E-03,   2.51985E-03
C:/temp/dataset/0/5_12.odb,Step-1,Increment      1: Step Time =    1.000,"PART-1-1",           555,          6.25,           30.,            0.,NA,NA,"",       2.62839,      -2.62726,   76.9822E-03,   1.33842E-03
C:/temp/dataset/0/5_12.odb,Step-1,Increment      1: Step Time =    1.000,"PART-1-1",           556,   375.256E-03,       24.5574,            0.,NA,NA,"",       2.58532,      -2.58466,   58.1904E-03,   5.22209E-03
C:/temp/dataset/0/5_12.odb,Step-1,Increment      1: Step Time =    1.000,"PART-1-1",           557,   860.838E-03,       23.0169,            0.,NA,NA,"",       2.56820,      -2.56753,   58.7352E-03,   6.38338E-03
C:/temp/dataset/0/5_12.odb,Step-1,Increment      1: Step Time =    1.000,"PART-1-1",           558,       10.5910,       21.6677,            0.,NA,NA,"",       2.59733,      -2.59590,   86.1523E-03,   3.16484E-03
C:/temp/dataset/0/5_12.odb,Step-1,Increment      1: Step Time =    1.000,"PART-1-1",           559,       9.14786,      -24.5495,            0.,NA,NA,"",   57.9635E-03,  -56.8417E-03,   11.3483E-03,   2.17853E-03
C:/temp/dataset/0/5_12.odb,Step-1,Increment      1: Step Time =    1.000,"PART-1-1",           560,           15.,        -21.25,            0.,NA,NA,"",   378.510E-03,  -242.765E-03,   290.405E-03,   40.1933E-03
C:/temp/dataset/0/5_12.odb,Step-1,Increment      1: Step Time =    1.000,"PART-1-1",           561,       12.7662,      -21.5126,            0.,NA,NA,"",   262.602E-03,  -193.941E-03,   177.050E-03,   24.7501E-03
C:/temp/dataset/0/5_12.odb,Step-1,Increment      1: Step Time =    1.000,"PART-1-1",           562,           15.,        -13.75,            0.,NA,NA,"",   971.390E-03,  -839.270E-03,   489.106E-03,   19.6428E-03
C:/temp/dataset/0/5_12.odb,Step-1,Increment      1: Step Time =    1.000,"PART-1-1",           563,       12.5272,      -13.9788,            0.,NA,NA,"",   833.595E-03,  -789.192E-03,   268.432E-03,   17.7579E-03
C:/temp/dataset/0/5_12.odb,Step-1,Increment      1: Step Time =    1.000,"PART-1-1",           564,           15.,         11.25,            0.,NA,NA,"",       2.50292,      -2.49658,   177.967E-03,   11.6499E-03
C:/temp/dataset/0/5_12.odb,Step-1,Increment      1: Step Time =    1.000,"PART-1-1",           565,       12.2906,       11.3331,            0.,NA,NA,"",       2.51011,      -2.50725,   119.783E-03,   5.36852E-03
C:/temp/dataset/0/5_12.odb,Step-1,Increment      1: Step Time =    1.000,"PART-1-1",           566,       7.23650,       5.28124,            0.,NA,NA,"",       2.33858,      -2.33793,  -55.4119E-03,   12.7871E-03
C:/temp/dataset/0/5_12.odb,Step-1,Increment      1: Step Time =    1.000,"PART-1-1",           567,       8.44697,       3.91887,            0.,NA,NA,"",       2.29221,      -2.29217,  -14.5187E-03,   8.87859E-03
C:/temp/dataset/0/5_12.odb,Step-1,Increment      1: Step Time =    1.000,"PART-1-1",           568,       9.72373,       11.4508,            0.,NA,NA,"",       2.51039,      -2.50968,   59.6168E-03,   4.70221E-03
C:/temp/dataset/0/5_12.odb,Step-1,Increment      1: Step Time =    1.000,"PART-1-1",           569,           15.,         16.25,            0.,NA,NA,"",       2.56772,      -2.56416,   135.181E-03,   7.03475E-03
C:/temp/dataset/0/5_12.odb,Step-1,Increment      1: Step Time =    1.000,"PART-1-1",           570,       6.21850,       16.4100,            0.,NA,NA,"",       2.56265,      -2.56250,   27.3077E-03,   8.89680E-03
C:/temp/dataset/0/5_12.odb,Step-1,Increment      1: Step Time =    1.000,"PART-1-1",           571,       7.58992,       17.5073,            0.,NA,NA,"",       2.57508,      -2.57463,   48.0555E-03,   6.01875E-03
C:/temp/dataset/0/5_12.odb,Step-1,Increment      1: Step Time =    1.000,"PART-1-1",           572,       6.37141,       19.4306,            0.,NA,NA,"",       2.57993,      -2.57947,   48.8569E-03,   6.90336E-03
C:/temp/dataset/0/5_12.odb,Step-1,Increment      1: Step Time =    1.000,"PART-1-1",           573,            5.,       18.3333,            0.,NA,NA,"",       2.57074,      -2.57050,   35.2531E-03,   10.8112E-03
C:/temp/dataset/0/5_12.odb,Step-1,Increment      1: Step Time =    1.000,"PART-1-1",           574,           15.,         23.75,            0.,NA,NA,"",       2.60585,      -2.60350,   110.614E-03,   1.01710E-03
C:/temp/dataset/0/5_12.odb,Step-1,Increment      1: Step Time =    1.000,"PART-1-1",           575,         -3.75,          -20.,            0.,NA,NA,"",   101.366E-03,  -97.2396E-03,   28.6268E-03,   12.4199E-03
C:/temp/dataset/0/5_12.odb,Step-1,Increment      1: Step Time =    1.000,"PART-1-1",           576,      -5.05545,      -21.0122,            0.,NA,NA,"",   110.062E-03,  -99.6927E-03,   46.6377E-03,   16.4599E-03
C:/temp/dataset/0/5_12.odb,Step-1,Increment      1: Step Time =    1.000,"PART-1-1",           577,       7.51719,       25.3425,            0.,NA,NA,"",       2.60548,      -2.60429,   78.5661E-03,   2.72776E-03
C:/temp/dataset/0/5_12.odb,Step-1,Increment      1: Step Time =    1.000,"PART-1-1",           578,       6.22510,       24.4051,            0.,NA,NA,"",       2.59706,      -2.59603,   73.1297E-03,   4.44559E-03
C:/temp/dataset/0/5_12.odb,Step-1,Increment      1: Step Time =    1.000,"PART-1-1",           579,       7.27278,       23.2327,            0.,NA,NA,"",       2.59391,      -2.59291,   72.1839E-03,   4.53454E-03
C:/temp/dataset/0/5_12.odb,Step-1,Increment      1: Step Time =    1.000,"PART-1-1",           580,       8.56487,       24.1701,            0.,NA,NA,"",       2.60194,      -2.60072,   79.7560E-03,   2.97578E-03
C:/temp/dataset/0/5_12.odb,Step-1,Increment      1: Step Time =    1.000,"PART-1-1",           581,            5.,      -8.33333,            0.,NA,NA,"",       1.40980,      -1.35594,  -385.965E-03,   10.2181E-03
C:/temp/dataset/0/5_12.odb,Step-1,Increment      1: Step Time =    1.000,"PART-1-1",           582,       7.86568,      -7.92961,            0.,NA,NA,"",       1.42618,      -1.42072,  -124.750E-03,   15.2536E-03
C:/temp/dataset/0/5_12.odb,Step-1,Increment      1: Step Time =    1.000,"PART-1-1",           583,       6.55300,      -6.36051,            0.,NA,NA,"",       1.58679,      -1.56987,  -231.104E-03,   14.5371E-03
C:/temp/dataset/0/5_12.odb,Step-1,Increment      1: Step Time =    1.000,"PART-1-1",           584,       2.48006,       24.7002,            0.,NA,NA,"",       2.59076,      -2.58989,   66.8677E-03,   5.19146E-03
C:/temp/dataset/0/5_12.odb,Step-1,Increment      1: Step Time =    1.000,"PART-1-1",           585,       1.90437,       23.5201,            0.,NA,NA,"",       2.57723,      -2.57645,   63.5268E-03,   5.58547E-03
C:/temp/dataset/0/5_12.odb,Step-1,Increment      1: Step Time =    1.000,"PART-1-1",           586,       3.20717,       23.2686,            0.,NA,NA,"",       2.57928,      -2.57844,   66.0790E-03,   5.84056E-03
C:/temp/dataset/0/5_12.odb,Step-1,Increment      1: Step Time =    1.000,"PART-1-1",           587,       3.78286,       24.4486,            0.,NA,NA,"",       2.59108,      -2.59015,   69.2725E-03,   5.33987E-03
C:/temp/dataset/0/5_12.odb,Step-1,Increment      1: Step Time =    1.000,"PART-1-1",           588,   574.843E-03,       25.7278,            0.,NA,NA,"",       2.60069,      -2.60001,   59.4947E-03,   4.83679E-03
C:/temp/dataset/0/5_12.odb,Step-1,Increment      1: Step Time =    1.000,"PART-1-1",           589,       1.89275,       27.1317,            0.,NA,NA,"",       2.61646,      -2.61565,   65.2327E-03,   4.37472E-03
C:/temp/dataset/0/5_12.odb,Step-1,Increment      1: Step Time =    1.000,"PART-1-1",           590,   743.770E-03,       27.8321,            0.,NA,NA,"",       2.62653,      -2.62588,   58.5071E-03,   4.88565E-03
C:/temp/dataset/0/5_12.odb,Step-1,Increment      1: Step Time =    1.000,"PART-1-1",           591,  -574.133E-03,       26.4282,            0.,NA,NA,"",       2.61106,      -2.61056,   51.1537E-03,   4.67442E-03
C:/temp/dataset/0/5_12.odb,Step-1,Increment      1: Step Time =    1.000,"PART-1-1",           592,          1.25,           30.,            0.,NA,NA,"",       2.64398,      -2.64338,   56.6006E-03,   6.57996E-03
C:/temp/dataset/0/5_12.odb,Step-1,Increment      1: Step Time =    1.000,"PART-1-1",           593,  -258.432E-03,       28.8495,            0.,NA,NA,"",       2.64218,      -2.64172,   48.8940E-03,   6.37323E-03
C:/temp/dataset/0/5_12.odb,Step-1,Increment      1: Step Time =    1.000,"PART-1-1",           594,       3.99806,       26.6235,            0.,NA,NA,"",       2.61037,      -2.60938,   71.9815E-03,   3.91229E-03
C:/temp/dataset/0/5_12.odb,Step-1,Increment      1: Step Time =    1.000,"PART-1-1",           595,       4.96332,       25.4314,            0.,NA,NA,"",       2.60151,      -2.60049,   72.9177E-03,   4.23030E-03
C:/temp/dataset/0/5_12.odb,Step-1,Increment      1: Step Time =    1.000,"PART-1-1",           596,       6.59236,       26.5350,            0.,NA,NA,"",       2.61109,      -2.60993,   77.7518E-03,   2.61674E-03
C:/temp/dataset/0/5_12.odb,Step-1,Increment      1: Step Time =    1.000,"PART-1-1",           597,          -1.5,           30.,            0.,NA,NA,"",       2.66396,      -2.66377,   32.1255E-03,   9.60998E-03
C:/temp/dataset/0/5_12.odb,Step-1,Increment      1: Step Time =    1.000,"PART-1-1",           598,      -3.21021,       28.8021,            0.,NA,NA,"",       2.65947,      -2.65944,   13.0506E-03,   8.18018E-03
C:/temp/dataset/0/5_12.odb,Step-1,Increment      1: Step Time =    1.000,"PART-1-1",           599,      -1.96864,       27.6516,            0.,NA,NA,"",       2.63351,      -2.63328,   34.5769E-03,   5.27490E-03
C:/temp/dataset/0/5_12.odb,Step-1,Increment      1: Step Time =    1.000,"PART-1-1",           600,       2.23679,       22.3955,            0.,NA,NA,"",       2.56840,      -2.56764,   62.2742E-03,   5.90521E-03
C:/temp/dataset/0/5_12.odb,Step-1,Increment      1: Step Time =    1.000,"PART-1-1",           601,       6.10470,      -23.0953,            0.,NA,NA,"",   115.211E-03,  -96.1625E-03,  -63.4534E-03,   15.8872E-03
C:/temp/dataset/0/5_12.odb,Step-1,Increment      1: Step Time =    1.000,"PART-1-1",           602,       5.87020,      -25.1929,            0.,NA,NA,"",   66.2887E-03,  -54.7564E-03,  -37.3622E-03,   16.2207E-03
C:/temp/dataset/0/5_12.odb,Step-1,Increment      1: Step Time =    1.000,"PART-1-1",           603,       7.19944,      -25.3013,            0.,NA,NA,"",   50.7384E-03,  -45.1559E-03,  -23.1372E-03,   8.21574E-03
C:/temp/dataset/0/5_12.odb,Step-1,Increment      1: Step Time =    1.000,"PART-1-1",           604,       10.0350,      -14.2359,            0.,NA,NA,"",   752.006E-03,  -747.985E-03,   77.6617E-03,   20.0180E-03
C:/temp/dataset/0/5_12.odb,Step-1,Increment      1: Step Time =    1.000,"PART-1-1",           605,       11.6788,      -7.40939,            0.,NA,NA,"",       1.51193,      -1.50108,   180.826E-03,   17.0431E-03
C:/temp/dataset/0/5_12.odb,Step-1,Increment      1: Step Time =    1.000,"PART-1-1",           606,       11.2427,      -1.09783,            0.,NA,NA,"",       2.05270,      -2.04845,   131.942E-03,   5.43444E-03
C:/temp/dataset/0/5_12.odb,Step-1,Increment      1: Step Time =    1.000,"PART-1-1",           607,       7.93860,       19.8912,            0.,NA,NA,"",       2.58614,      -2.58541,   61.4663E-03,   5.97594E-03
C:/temp/dataset/0/5_12.odb,Step-1,Increment      1: Step Time =    1.000,"PART-1-1",           608,       8.98253,       18.5426,            0.,NA,NA,"",       2.58358,      -2.58273,   66.0074E-03,   4.69433E-03
C:/temp/dataset/0/5_12.odb,Step-1,Increment      1: Step Time =    1.000,"PART-1-1",           609,       9.31070,       20.7205,            0.,NA,NA,"",       2.59194,      -2.59086,   74.6905E-03,   4.46568E-03
C:/temp/dataset/0/5_12.odb,Step-1,Increment      1: Step Time =    1.000,"PART-1-1",           610,       3.88086,       22.5675,            0.,NA,NA,"",       2.57642,      -2.57559,   65.0779E-03,   6.11833E-03
C:/temp/dataset/0/5_12.odb,Step-1,Increment      1: Step Time =    1.000,"PART-1-1",           611,       2.67965,       25.8706,            0.,NA,NA,"",       2.60305,      -2.60215,   68.3041E-03,   4.71453E-03
C:/temp/dataset/0/5_12.odb,Step-1,Increment      1: Step Time =    1.000,"PART-1-1",           612,            5.,          -15.,            0.,NA,NA,"",   747.880E-03,  -671.135E-03,  -330.003E-03,   18.7452E-03
C:/temp/dataset/0/5_12.odb,Step-1,Increment      1: Step Time =    1.000,"PART-1-1",           613,       6.27023,      -16.3841,            0.,NA,NA,"",   557.723E-03,  -528.120E-03,  -179.289E-03,   20.2866E-03
C:/temp/dataset/0/5_12.odb,Step-1,Increment      1: Step Time =    1.000,"PART-1-1",           614,       7.51616,      -14.5750,            0.,NA,NA,"",   716.129E-03,  -707.387E-03,  -111.556E-03,   18.4703E-03
C:/temp/dataset/0/5_12.odb,Step-1,Increment      1: Step Time =    1.000,"PART-1-1",           615,       6.15302,       13.2331,            0.,NA,NA,"",       2.52623,      -2.52623,  -2.16618E-03,   11.1566E-03
C:/temp/dataset/0/5_12.odb,Step-1,Increment      1: Step Time =    1.000,"PART-1-1",           616,       7.37153,       14.6431,            0.,NA,NA,"",       2.54969,      -2.54953,   28.6587E-03,   7.90270E-03
C:/temp/dataset/0/5_12.odb,Step-1,Increment      1: Step Time =    1.000,"PART-1-1",           617,            5.,           15.,            0.,NA,NA,"",       2.54267,      -2.54267,   466.790E-06,   12.4466E-03
C:/temp/dataset/0/5_12.odb,Step-1,Increment      1: Step Time =    1.000,"PART-1-1",           618,            5.,       11.6667,            0.,NA,NA,"",       2.49400,      -2.49368,  -40.2219E-03,   15.1974E-03
C:/temp/dataset/0/5_12.odb,Step-1,Increment      1: Step Time =    1.000,"PART-1-1",           619,       6.12690,       10.0064,            0.,NA,NA,"",       2.46770,      -2.46742,  -37.4358E-03,   13.3906E-03
C:/temp/dataset/0/5_12.odb,Step-1,Increment      1: Step Time =    1.000,"PART-1-1",           620,       7.27992,       11.5729,            0.,NA,NA,"",       2.50480,      -2.50480,   4.49491E-03,   9.56884E-03
C:/temp/dataset/0/5_12.odb,Step-1,Increment      1: Step Time =    1.000,"PART-1-1",           621,       6.15632,   278.618E-03,            0.,NA,NA,"",       2.10051,      -2.09310,  -176.242E-03,   20.5502E-03
C:/temp/dataset/0/5_12.odb,Step-1,Increment      1: Step Time =    1.000,"PART-1-1",           622,            5.,      -1.66667,            0.,NA,NA,"",       1.97217,      -1.95118,  -286.935E-03,   26.1591E-03
C:/temp/dataset/0/5_12.odb,Step-1,Increment      1: Step Time =    1.000,"PART-1-1",           623,       6.25252,      -2.97068,            0.,NA,NA,"",       1.88211,      -1.86919,  -220.107E-03,   19.6476E-03
C:/temp/dataset/0/5_12.odb,Step-1,Increment      1: Step Time =    1.000,"PART-1-1",           624,       7.67955,      -17.4721,            0.,NA,NA,"",   425.071E-03,  -421.044E-03,  -58.3753E-03,   20.5856E-03
C:/temp/dataset/0/5_12.odb,Step-1,Increment      1: Step Time =    1.000,"PART-1-1",           625,            5.,      -18.3333,            0.,NA,NA,"",   425.627E-03,  -359.313E-03,  -228.150E-03,   44.8749E-03
C:/temp/dataset/0/5_12.odb,Step-1,Increment      1: Step Time =    1.000,"PART-1-1",           626,       6.40932,      -19.4213,            0.,NA,NA,"",   261.453E-03,  -241.473E-03,  -100.241E-03,   36.4972E-03
C:/temp/dataset/0/5_12.odb,Step-1,Increment      1: Step Time =    1.000,"PART-1-1",           627,      -1.73152,      -24.7018,            0.,NA,NA,"",   75.5669E-03,  -75.5546E-03,   1.36409E-03,   13.1586E-03
C:/temp/dataset/0/5_12.odb,Step-1,Increment      1: Step Time =    1.000,"PART-1-1",           628,       9.06065,      -18.5206,            0.,NA,NA,"",   342.438E-03,  -341.588E-03,   24.1051E-03,   18.8854E-03
C:/temp/dataset/0/5_12.odb,Step-1,Increment      1: Step Time =    1.000,"PART-1-1",           629,       8.80686,      -15.8614,            0.,NA,NA,"",   579.561E-03,  -579.558E-03,  -1.84832E-03,   19.8446E-03
C:/temp/dataset/0/5_12.odb,Step-1,Increment      1: Step Time =    1.000,"PART-1-1",           630,       10.3171,      -8.61722,            0.,NA,NA,"",       1.36346,      -1.36137,   75.6081E-03,   19.0304E-03
C:/temp/dataset/0/5_12.odb,Step-1,Increment      1: Step Time =    1.000,"PART-1-1",           631,       8.85917,      -9.88939,            0.,NA,NA,"",       1.21525,      -1.21467,  -37.4243E-03,   17.6894E-03
C:/temp/dataset/0/5_12.odb,Step-1,Increment      1: Step Time =    1.000,"PART-1-1",           632,       8.74431,      -12.9496,            0.,NA,NA,"",   880.767E-03,  -880.293E-03,  -28.9128E-03,   17.9113E-03
C:/temp/dataset/0/5_12.odb,Step-1,Increment      1: Step Time =    1.000,"PART-1-1",           633,       6.89786,       21.2129,            0.,NA,NA,"",       2.58493,      -2.58419,   61.8215E-03,   6.76915E-03
C:/temp/dataset/0/5_12.odb,Step-1,Increment      1: Step Time =    1.000,"PART-1-1",           634,       10.2659,      -2.76771,            0.,NA,NA,"",       1.92472,      -1.92357,   66.6273E-03,   8.59522E-03
C:/temp/dataset/0/5_12.odb,Step-1,Increment      1: Step Time =    1.000,"PART-1-1",           635,       7.80552,      -4.33119,            0.,NA,NA,"",       1.77527,      -1.77139,  -117.295E-03,   13.7929E-03
C:/temp/dataset/0/5_12.odb,Step-1,Increment      1: Step Time =    1.000,"PART-1-1",           636,            5.,           -5.,            0.,NA,NA,"",       1.71675,      -1.68041,  -351.350E-03,   21.3844E-03
C:/temp/dataset/0/5_12.odb,Step-1,Increment      1: Step Time =    1.000,"PART-1-1",           637,       7.27801,       2.13112,            0.,NA,NA,"",       2.20608,      -2.20432,  -88.0031E-03,   14.0694E-03
C:/temp/dataset/0/5_12.odb,Step-1,Increment      1: Step Time =    1.000,"PART-1-1",           638,       6.12168,       3.51917,            0.,NA,NA,"",       2.26241,      -2.25889,  -126.013E-03,   18.4377E-03
C:/temp/dataset/0/5_12.odb,Step-1,Increment      1: Step Time =    1.000,"PART-1-1",           639,            5.,       1.66667,            0.,NA,NA,"",       2.16808,      -2.15748,  -214.073E-03,   25.0459E-03
C:/temp/dataset/0/5_12.odb,Step-1,Increment      1: Step Time =    1.000,"PART-1-1",           640,            5.,            5.,            0.,NA,NA,"",       2.31338,      -2.30870,  -147.020E-03,   21.6264E-03
C:/temp/dataset/0/5_12.odb,Step-1,Increment      1: Step Time =    1.000,"PART-1-1",           641,       6.11481,       6.76207,            0.,NA,NA,"",       2.38167,      -2.38036,  -78.9844E-03,   15.8125E-03
C:/temp/dataset/0/5_12.odb,Step-1,Increment      1: Step Time =    1.000,"PART-1-1",           642,       8.53738,       13.0133,            0.,NA,NA,"",       2.53254,      -2.53223,   39.5347E-03,   6.27632E-03
C:/temp/dataset/0/5_12.odb,Step-1,Increment      1: Step Time =    1.000,"PART-1-1",           643,       8.69606,       15.9130,            0.,NA,NA,"",       2.56615,      -2.56557,   54.2800E-03,   5.32037E-03
C:/temp/dataset/0/5_12.odb,Step-1,Increment      1: Step Time =    1.000,"PART-1-1",           644,       9.56938,       22.9454,            0.,NA,NA,"",       2.59953,      -2.59824,   81.8495E-03,   3.02947E-03
C:/temp/dataset/0/5_12.odb,Step-1,Increment      1: Step Time =    1.000,"PART-1-1",           645,       8.28908,       21.9981,            0.,NA,NA,"",       2.59279,      -2.59179,   71.9172E-03,   4.77199E-03
C:/temp/dataset/0/5_12.odb,Step-1,Increment      1: Step Time =    1.000,"PART-1-1",           646,      -3.61415,       26.3795,            0.,NA,NA,"",       2.61653,      -2.61649,   14.2398E-03,   4.17937E-03
C:/temp/dataset/0/5_12.odb,Step-1,Increment      1: Step Time =    1.000,"PART-1-1",           647,      -6.18563,       28.7596,            0.,NA,NA,"",       2.67923,      -2.67876,  -50.1168E-03,   7.94983E-03
C:/temp/dataset/0/5_12.odb,Step-1,Increment      1: Step Time =    1.000,"PART-1-1",           648,      -4.89584,       27.5617,            0.,NA,NA,"",       2.64520,      -2.64516,  -14.7559E-03,   5.29136E-03
C:/temp/dataset/0/5_12.odb,Step-1,Increment      1: Step Time =    1.000,"PART-1-1",           649,          -4.5,           30.,            0.,NA,NA,"",       2.69274,      -2.69269,  -16.3236E-03,   10.9181E-03
C:/temp/dataset/0/5_12.odb,Step-1,Increment      1: Step Time =    1.000,"PART-1-1",           650,          -15.,          19.5,            0.,NA,NA,"",       2.42303,      -2.39275,  -381.898E-03,   11.5542E-03
C:/temp/dataset/0/5_12.odb,Step-1,Increment      1: Step Time =    1.000,"PART-1-1",           651,      -13.6835,       18.2834,            0.,NA,NA,"",       2.36890,      -2.34534,  -333.259E-03,   8.52714E-03
C:/temp/dataset/0/5_12.odb,Step-1,Increment      1: Step Time =    1.000,"PART-1-1",           652,      -12.3643,       20.0316,            0.,NA,NA,"",       2.44251,      -2.42795,  -266.313E-03,   5.25720E-03
C:/temp/dataset/0/5_12.odb,Step-1,Increment      1: Step Time =    1.000,"PART-1-1",           653,      -13.6808,       21.2481,            0.,NA,NA,"",       2.48964,      -2.46970,  -314.438E-03,   8.05387E-03
C:/temp/dataset/0/5_12.odb,Step-1,Increment      1: Step Time =    1.000,"PART-1-1",           654,      -6.08047,      -19.7739,            0.,NA,NA,"",   127.142E-03,  -117.384E-03,   48.8488E-03,   15.2324E-03
C:/temp/dataset/0/5_12.odb,Step-1,Increment      1: Step Time =    1.000,"PART-1-1",           655,      -7.17803,      -20.6070,            0.,NA,NA,"",   105.517E-03,  -102.164E-03,   26.3857E-03,   5.43751E-03
C:/temp/dataset/0/5_12.odb,Step-1,Increment      1: Step Time =    1.000,"PART-1-1",           656,       5.87583,      -21.1387,            0.,NA,NA,"",   178.279E-03,  -148.424E-03,  -98.7614E-03,   25.7436E-03
C:/temp/dataset/0/5_12.odb,Step-1,Increment      1: Step Time =    1.000,"PART-1-1",           657,       4.61047,      -23.6002,            0.,NA,NA,"",   114.302E-03,  -94.9531E-03,  -63.6298E-03,   21.6618E-03
C:/temp/dataset/0/5_12.odb,Step-1,Increment      1: Step Time =    1.000,"PART-1-1",           658,       4.56928,      -26.4448,            0.,NA,NA,"",   51.0012E-03,  -42.6534E-03,  -27.9609E-03,   14.3555E-03
C:/temp/dataset/0/5_12.odb,Step-1,Increment      1: Step Time =    1.000,"PART-1-1",           659,       5.04464,       23.4223,            0.,NA,NA,"",       2.58684,      -2.58594,   68.3523E-03,   5.66098E-03
C:/temp/dataset/0/5_12.odb,Step-1,Increment      1: Step Time =    1.000,"PART-1-1",           660,       5.88156,       22.4475,            0.,NA,NA,"",       2.58446,      -2.58363,   65.5321E-03,   6.59379E-03
C:/temp/dataset/0/5_12.odb,Step-1,Increment      1: Step Time =    1.000,"PART-1-1",           661,      -1.61333,      -27.2257,            0.,NA,NA,"",   42.7502E-03,  -42.7076E-03,  -1.90874E-03,   11.3235E-03
C:/temp/dataset/0/5_12.odb,Step-1,Increment      1: Step Time =    1.000,"PART-1-1",           662,      -3.01002,      -28.6350,            0.,NA,NA,"",   19.9668E-03,  -19.9667E-03,   27.5183E-06,   10.0509E-03
C:/temp/dataset/0/5_12.odb,Step-1,Increment      1: Step Time =    1.000,"PART-1-1",           663,          -1.5,          -30.,            0.,NA,NA,"",            0.,  -13.2245E-39,  -5.30498E-39,   11.1043E-03
C:/temp/dataset/0/5_12.odb,Step-1,Increment      1: Step Time =    1.000,"PART-1-1",           664,            5.,       8.33333,            0.,NA,NA,"",       2.41943,      -2.41778,  -89.2617E-03,   18.2189E-03
C:/temp/dataset/0/5_12.odb,Step-1,Increment      1: Step Time =    1.000,"PART-1-1",           665,       8.16766,      -19.9578,            0.,NA,NA,"",   227.059E-03,  -226.266E-03,  -18.9534E-03,   15.6307E-03
C:/temp/dataset/0/5_12.odb,Step-1,Increment      1: Step Time =    1.000,"PART-1-1",           666,       7.85169,      -26.8977,            0.,NA,NA,"",   19.1240E-03,  -17.7747E-03,  -7.05604E-03,   5.53668E-03
C:/temp/dataset/0/5_12.odb,Step-1,Increment      1: Step Time =    1.000,"PART-1-1",           667,          -4.5,          -30.,            0.,NA,NA,"",            0.,  -9.08252E-39,  -1.20635E-39,   7.80773E-03
C:/temp/dataset/0/5_12.odb,Step-1,Increment      1: Step Time =    1.000,"PART-1-1",           668,      -7.38541,       11.9129,            0.,NA,NA,"",       1.99774,      -1.99774,   1.41543E-03,   6.75014E-03
C:/temp/dataset/0/5_12.odb,Step-1,Increment      1: Step Time =    1.000,"PART-1-1",           669,      -9.84369,       11.4885,            0.,NA,NA,"",       1.97624,      -1.97138,  -138.536E-03,   4.63256E-03
C:/temp/dataset/0/5_12.odb,Step-1,Increment      1: Step Time =    1.000,"PART-1-1",           670,           -5.,      -18.4615,            0.,NA,NA,"",   196.064E-03,  -172.334E-03,   93.4981E-03,   23.8325E-03
C:/temp/dataset/0/5_12.odb,Step-1,Increment      1: Step Time =    1.000,"PART-1-1",           671,      -6.12192,      -16.9214,            0.,NA,NA,"",   235.501E-03,  -222.050E-03,   78.4515E-03,   12.5574E-03
C:/temp/dataset/0/5_12.odb,Step-1,Increment      1: Step Time =    1.000,"PART-1-1",           672,      -12.3453,      -25.6066,            0.,NA,NA,"",   53.5664E-03,  -37.2069E-03,  -38.5357E-03,   10.4181E-03
C:/temp/dataset/0/5_12.odb,Step-1,Increment      1: Step Time =    1.000,"PART-1-1",           673,      -10.6437,      -26.7860,            0.,NA,NA,"",   25.8974E-03,  -21.2076E-03,  -14.8632E-03,   6.20762E-03
C:/temp/dataset/0/5_12.odb,Step-1,Increment      1: Step Time =    1.000,"PART-1-1",           674,      -9.83114,      -25.4438,            0.,NA,NA,"",   37.0342E-03,  -34.5449E-03,  -13.3486E-03,   3.76554E-03
C:/temp/dataset/0/5_12.odb,Step-1,Increment      1: Step Time =    1.000,"PART-1-1",           675,      -8.43320,      -25.2132,            0.,NA,NA,"",   38.9380E-03,  -38.9192E-03,  -1.20955E-03,   3.35022E-03
C:/temp/dataset/0/5_12.odb,Step-1,Increment      1: Step Time =    1.000,"PART-1-1",           676,      -9.78639,       17.5920,            0.,NA,NA,"",       2.33099,      -2.32580,  -155.408E-03,   3.48107E-03
C:/temp/dataset/0/5_12.odb,Step-1,Increment      1: Step Time =    1.000,"PART-1-1",           677,      -11.0716,       18.8358,            0.,NA,NA,"",       2.39124,      -2.38169,  -213.528E-03,   3.57845E-03
C:/temp/dataset/0/5_12.odb,Step-1,Increment      1: Step Time =    1.000,"PART-1-1",           678,      -12.3675,       17.0640,            0.,NA,NA,"",       2.30788,      -2.29118,  -277.071E-03,   4.91033E-03
C:/temp/dataset/0/5_12.odb,Step-1,Increment      1: Step Time =    1.000,"PART-1-1",           679,      -12.1189,      -19.2948,            0.,NA,NA,"",   174.537E-03,  -147.155E-03,  -93.8550E-03,   10.1118E-03
C:/temp/dataset/0/5_12.odb,Step-1,Increment      1: Step Time =    1.000,"PART-1-1",           680,      -11.0109,      -17.4013,            0.,NA,NA,"",   215.272E-03,  -201.227E-03,  -76.4818E-03,   6.97210E-03
C:/temp/dataset/0/5_12.odb,Step-1,Increment      1: Step Time =    1.000,"PART-1-1",           681,      -8.01079,      -21.5107,            0.,NA,NA,"",   87.3810E-03,  -86.8389E-03,   9.71795E-03,   2.53221E-03
C:/temp/dataset/0/5_12.odb,Step-1,Increment      1: Step Time =    1.000,"PART-1-1",           682,           4.5,          -30.,            0.,NA,NA,"",            0.,  -6.65041E-39,  -12.6868E-39,   8.13919E-03
C:/temp/dataset/0/5_12.odb,Step-1,Increment      1: Step Time =    1.000,"PART-1-1",           683,       6.14133,      -28.2363,            0.,NA,NA,"",   14.1355E-03,  -10.9533E-03,  -8.93517E-03,   9.00990E-03
C:/temp/dataset/0/5_12.odb,Step-1,Increment      1: Step Time =    1.000,"PART-1-1",           684,      -9.14726,       28.6966,            0.,NA,NA,"",       2.69585,      -2.69227,  -138.895E-03,   5.75575E-03
C:/temp/dataset/0/5_12.odb,Step-1,Increment      1: Step Time =    1.000,"PART-1-1",           685,         -10.5,           30.,            0.,NA,NA,"",       2.74330,      -2.73689,  -187.462E-03,   4.21023E-03
C:/temp/dataset/0/5_12.odb,Step-1,Increment      1: Step Time =    1.000,"PART-1-1",           686,      -6.18127,      -10.8771,            0.,NA,NA,"",   522.608E-03,  -507.505E-03,   124.731E-03,   7.95717E-03
C:/temp/dataset/0/5_12.odb,Step-1,Increment      1: Step Time =    1.000,"PART-1-1",           687,      -6.16241,      -13.9212,            0.,NA,NA,"",   368.756E-03,  -353.333E-03,   105.531E-03,   10.1397E-03
C:/temp/dataset/0/5_12.odb,Step-1,Increment      1: Step Time =    1.000,"PART-1-1",           688,           -5.,      -12.3077,            0.,NA,NA,"",   472.132E-03,  -439.013E-03,   173.713E-03,   11.9224E-03
C:/temp/dataset/0/5_12.odb,Step-1,Increment      1: Step Time =    1.000,"PART-1-1",           689,         -10.5,          -30.,            0.,NA,NA,"",            0.,  -1.47575E-39,  -13.3414E-39,   6.00243E-03
C:/temp/dataset/0/5_12.odb,Step-1,Increment      1: Step Time =    1.000,"PART-1-1",           690,          -15.,          22.5,            0.,NA,NA,"",       2.53306,      -2.50815,  -354.405E-03,   8.97471E-03
C:/temp/dataset/0/5_12.odb,Step-1,Increment      1: Step Time =    1.000,"PART-1-1",           691,          -15.,          16.5,            0.,NA,NA,"",       2.28630,      -2.24914,  -410.529E-03,   10.9706E-03
C:/temp/dataset/0/5_12.odb,Step-1,Increment      1: Step Time =    1.000,"PART-1-1",           692,      -13.6840,       15.2806,            0.,NA,NA,"",       2.21795,      -2.19019,  -349.821E-03,   7.11620E-03
C:/temp/dataset/0/5_12.odb,Step-1,Increment      1: Step Time =    1.000,"PART-1-1",           693,          -15.,          13.5,            0.,NA,NA,"",       2.12517,      -2.08066,  -432.628E-03,   8.49219E-03
C:/temp/dataset/0/5_12.odb,Step-1,Increment      1: Step Time =    1.000,"PART-1-1",           694,      -6.20685,       4.43382,            0.,NA,NA,"",       1.50572,      -1.50054,   124.813E-03,   3.32817E-03
C:/temp/dataset/0/5_12.odb,Step-1,Increment      1: Step Time =    1.000,"PART-1-1",           695,           -5.,       6.15385,            0.,NA,NA,"",       1.63065,      -1.61881,   196.175E-03,   4.80026E-03
C:/temp/dataset/0/5_12.odb,Step-1,Increment      1: Step Time =    1.000,"PART-1-1",           696,      -6.20051,      -1.69203,            0.,NA,NA,"",       1.08816,      -1.07860,   143.928E-03,   2.12107E-03
C:/temp/dataset/0/5_12.odb,Step-1,Increment      1: Step Time =    1.000,"PART-1-1",           697,      -6.19850,      -4.75722,            0.,NA,NA,"",   886.788E-03,  -875.016E-03,   144.011E-03,   3.87720E-03
C:/temp/dataset/0/5_12.odb,Step-1,Increment      1: Step Time =    1.000,"PART-1-1",           698,           -5.,      -3.07692,            0.,NA,NA,"",       1.01438,  -989.662E-03,   222.547E-03,   3.68600E-03
C:/temp/dataset/0/5_12.odb,Step-1,Increment      1: Step Time =    1.000,"PART-1-1",           699,      -12.3926,       7.99194,            0.,NA,NA,"",       1.76030,      -1.73751,  -282.310E-03,   3.34859E-03
C:/temp/dataset/0/5_12.odb,Step-1,Increment      1: Step Time =    1.000,"PART-1-1",           700,          -15.,           7.5,            0.,NA,NA,"",       1.75570,      -1.69698,  -450.276E-03,   2.70013E-03
C:/temp/dataset/0/5_12.odb,Step-1,Increment      1: Step Time =    1.000,"PART-1-1",           701,      -12.4166,      -1.07984,            0.,NA,NA,"",       1.13913,      -1.11126,  -250.431E-03,   4.71305E-03
C:/temp/dataset/0/5_12.odb,Step-1,Increment      1: Step Time =    1.000,"PART-1-1",           702,          -15.,          -1.5,            0.,NA,NA,"",       1.16005,      -1.08254,  -416.930E-03,   5.64350E-03
C:/temp/dataset/0/5_12.odb,Step-1,Increment      1: Step Time =    1.000,"PART-1-1",           703,      -12.3992,      -10.1184,            0.,NA,NA,"",   572.671E-03,  -541.179E-03,  -187.291E-03,   8.00605E-03
C:/temp/dataset/0/5_12.odb,Step-1,Increment      1: Step Time =    1.000,"PART-1-1",           704,          -15.,         -10.5,            0.,NA,NA,"",   618.563E-03,  -529.169E-03,  -320.314E-03,   13.9437E-03
C:/temp/dataset/0/5_12.odb,Step-1,Increment      1: Step Time =    1.000,"PART-1-1",           705,      -6.19567,      -7.82333,            0.,NA,NA,"",   696.559E-03,  -682.853E-03,   137.502E-03,   5.88079E-03
C:/temp/dataset/0/5_12.odb,Step-1,Increment      1: Step Time =    1.000,"PART-1-1",           706,           -5.,      -6.15385,            0.,NA,NA,"",   819.624E-03,  -790.950E-03,   214.901E-03,   6.49038E-03
C:/temp/dataset/0/5_12.odb,Step-1,Increment      1: Step Time =    1.000,"PART-1-1",           707,          -15.,         -22.5,            0.,NA,NA,"",   151.778E-03,  -96.0377E-03,  -117.530E-03,   18.0014E-03
C:/temp/dataset/0/5_12.odb,Step-1,Increment      1: Step Time =    1.000,"PART-1-1",           708,      -13.7480,      -24.0946,            0.,NA,NA,"",   97.3818E-03,  -63.2120E-03,  -74.0774E-03,   14.1021E-03
C:/temp/dataset/0/5_12.odb,Step-1,Increment      1: Step Time =    1.000,"PART-1-1",           709,      -13.4685,      -20.9699,            0.,NA,NA,"",   157.811E-03,  -114.206E-03,  -108.909E-03,   14.3938E-03
C:/temp/dataset/0/5_12.odb,Step-1,Increment      1: Step Time =    1.000,"PART-1-1",           710,          -15.,         -25.5,            0.,NA,NA,"",   89.9301E-03,  -54.4089E-03,  -71.6037E-03,   16.9107E-03
C:/temp/dataset/0/5_12.odb,Step-1,Increment      1: Step Time =    1.000,"PART-1-1",           711,           7.5,          -30.,            0.,NA,NA,"",            0.,   1.38307E-39,  -2.28648E-39,   1.21016E-03
C:/temp/dataset/0/5_12.odb,Step-1,Increment      1: Step Time =    1.000,"PART-1-1",           712,       9.21036,      -28.6615,            0.,NA,NA,"",   3.87216E-03,   555.648E-06,   3.83208E-03,   3.65844E-03
C:/temp/dataset/0/5_12.odb,Step-1,Increment      1: Step Time =    1.000,"PART-1-1",           713,          10.5,          -30.,            0.,NA,NA,"",            0.,   4.45077E-39,   21.7997E-39,   9.44734E-03
C:/temp/dataset/0/5_12.odb,Step-1,Increment      1: Step Time =    1.000,"PART-1-1",           714,          -7.5,           30.,            0.,NA,NA,"",       2.72191,      -2.72036,  -91.8249E-03,   8.77659E-03
C:/temp/dataset/0/5_12.odb,Step-1,Increment      1: Step Time =    1.000,"PART-1-1",           715,          -15.,         -19.5,            0.,NA,NA,"",   233.412E-03,  -160.336E-03,  -169.628E-03,   19.4087E-03
C:/temp/dataset/0/5_12.odb,Step-1,Increment      1: Step Time =    1.000,"PART-1-1",           716,      -6.18713,       13.6475,            0.,NA,NA,"",       2.10214,      -2.10138,   56.3747E-03,   9.33905E-03
C:/temp/dataset/0/5_12.odb,Step-1,Increment      1: Step Time =    1.000,"PART-1-1",           717,           -5.,       15.3846,            0.,NA,NA,"",       2.20018,      -2.19765,   105.318E-03,   12.8303E-03
C:/temp/dataset/0/5_12.odb,Step-1,Increment      1: Step Time =    1.000,"PART-1-1",           718,           -5.,       12.3077,            0.,NA,NA,"",       2.02258,      -2.01764,   141.158E-03,   10.1368E-03
C:/temp/dataset/0/5_12.odb,Step-1,Increment      1: Step Time =    1.000,"PART-1-1",           719,           -5.,            0.,            0.,NA,NA,"",       1.21749,      -1.19712,   221.769E-03,   864.746E-06
C:/temp/dataset/0/5_12.odb,Step-1,Increment      1: Step Time =    1.000,"PART-1-1",           720,      -6.20706,       1.36812,            0.,NA,NA,"",       1.29574,      -1.28846,   137.175E-03,   1.79103E-03
C:/temp/dataset/0/5_12.odb,Step-1,Increment      1: Step Time =    1.000,"PART-1-1",           721,           -5.,       3.07692,            0.,NA,NA,"",       1.42445,      -1.40845,   212.870E-03,   1.99030E-03
C:/temp/dataset/0/5_12.odb,Step-1,Increment      1: Step Time =    1.000,"PART-1-1",           722,           -5.,      -9.23077,            0.,NA,NA,"",   637.664E-03,  -605.908E-03,   198.726E-03,   9.27195E-03
C:/temp/dataset/0/5_12.odb,Step-1,Increment      1: Step Time =    1.000,"PART-1-1",           723,      -8.78100,      -23.2553,            0.,NA,NA,"",   61.2185E-03,  -61.0937E-03,  -3.90803E-03,   1.34837E-03
C:/temp/dataset/0/5_12.odb,Step-1,Increment      1: Step Time =    1.000,"PART-1-1",           724,      -11.0900,      -14.4409,            0.,NA,NA,"",   334.520E-03,  -320.150E-03,  -96.9954E-03,   6.28396E-03
C:/temp/dataset/0/5_12.odb,Step-1,Increment      1: Step Time =    1.000,"PART-1-1",           725,      -11.1215,      -11.4552,            0.,NA,NA,"",   480.723E-03,  -466.745E-03,  -115.083E-03,   5.85328E-03
C:/temp/dataset/0/5_12.odb,Step-1,Increment      1: Step Time =    1.000,"PART-1-1",           726,      -11.1359,      -8.44257,            0.,NA,NA,"",   649.708E-03,  -636.121E-03,  -132.176E-03,   5.46385E-03
C:/temp/dataset/0/5_12.odb,Step-1,Increment      1: Step Time =    1.000,"PART-1-1",           727,      -11.1177,       9.73479,            0.,NA,NA,"",       1.86789,      -1.85629,  -207.839E-03,   3.75210E-03
C:/temp/dataset/0/5_12.odb,Step-1,Increment      1: Step Time =    1.000,"PART-1-1",           728,      -11.1376,       6.69211,            0.,NA,NA,"",       1.66344,      -1.65133,  -200.365E-03,   3.83415E-03
C:/temp/dataset/0/5_12.odb,Step-1,Increment      1: Step Time =    1.000,"PART-1-1",           729,      -11.1470,       3.65829,            0.,NA,NA,"",       1.45361,      -1.44110,  -190.272E-03,   4.02543E-03
C:/temp/dataset/0/5_12.odb,Step-1,Increment      1: Step Time =    1.000,"PART-1-1",           730,           -5.,      -15.3846,            0.,NA,NA,"",   327.213E-03,  -295.174E-03,   141.212E-03,   14.9867E-03
C:/temp/dataset/0/5_12.odb,Step-1,Increment      1: Step Time =    1.000,"PART-1-1",           731,      -11.1521,   627.191E-03,            0.,NA,NA,"",       1.24268,      -1.22985,  -178.102E-03,   4.31246E-03
C:/temp/dataset/0/5_12.odb,Step-1,Increment      1: Step Time =    1.000,"PART-1-1",           732,      -11.1477,      -2.39557,            0.,NA,NA,"",       1.03560,      -1.02255,  -163.884E-03,   4.66324E-03
C:/temp/dataset/0/5_12.odb,Step-1,Increment      1: Step Time =    1.000,"PART-1-1",           733,      -11.1389,      -5.41444,            0.,NA,NA,"",   836.649E-03,  -823.405E-03,  -148.281E-03,   5.04885E-03
