ODB Name,Step,Frame,Part Instance Name,    êﬂì_ÉâÉxÉã,X,Y,Z,Section Name,Material Name,Section Point,   U-Magnitude,          U-U1,          U-U2,       S-Mises
C:/temp/dataset/0/7_12.odb,Step-1,Increment      1: Step Time =    1.000,"PART-1-1",             1,            5.,           20.,            0.,NA,NA,"",   478.368E-03,  -475.219E-03,   54.7989E-03,   1.48269E-03
C:/temp/dataset/0/7_12.odb,Step-1,Increment      1: Step Time =    1.000,"PART-1-1",             2,            0.,           20.,            0.,NA,NA,"",   468.628E-03,  -466.836E-03,   40.9470E-03,   1.78063E-03
C:/temp/dataset/0/7_12.odb,Step-1,Increment      1: Step Time =    1.000,"PART-1-1",             3,            5.,           10.,            0.,NA,NA,"",   467.084E-03,  -464.506E-03,   49.0064E-03,   1.22667E-03
C:/temp/dataset/0/7_12.odb,Step-1,Increment      1: Step Time =    1.000,"PART-1-1",             4,            5.,            0.,            0.,NA,NA,"",   433.302E-03,  -432.079E-03,   32.5402E-03,   2.44478E-03
C:/temp/dataset/0/7_12.odb,Step-1,Increment      1: Step Time =    1.000,"PART-1-1",             5,            5.,          -10.,            0.,NA,NA,"",   358.470E-03,  -358.449E-03,   3.90872E-03,   4.34629E-03
C:/temp/dataset/0/7_12.odb,Step-1,Increment      1: Step Time =    1.000,"PART-1-1",             6,            5.,          -20.,            0.,NA,NA,"",   139.289E-03,  -137.483E-03,  -22.3575E-03,   21.4852E-03
C:/temp/dataset/0/7_12.odb,Step-1,Increment      1: Step Time =    1.000,"PART-1-1",             7,            0.,          -20.,            0.,NA,NA,"",   73.4636E-03,  -73.4335E-03,   2.10448E-03,   6.20428E-03
C:/temp/dataset/0/7_12.odb,Step-1,Increment      1: Step Time =    1.000,"PART-1-1",             8,           -5.,          -20.,            0.,NA,NA,"",   58.6826E-03,  -57.3554E-03,   12.4102E-03,   3.97019E-03
C:/temp/dataset/0/7_12.odb,Step-1,Increment      1: Step Time =    1.000,"PART-1-1",             9,           -5.,           20.,            0.,NA,NA,"",   456.413E-03,  -455.745E-03,   24.6870E-03,   3.92426E-03
C:/temp/dataset/0/7_12.odb,Step-1,Increment      1: Step Time =    1.000,"PART-1-1",            10,           15.,           30.,            0.,NA,NA,"",   501.093E-03,  -495.910E-03,   71.8865E-03,   13.2313E-06
C:/temp/dataset/0/7_12.odb,Step-1,Increment      1: Step Time =    1.000,"PART-1-1",            11,           7.5,           30.,            0.,NA,NA,"",   500.625E-03,  -497.066E-03,   59.5845E-03,   563.843E-06
C:/temp/dataset/0/7_12.odb,Step-1,Increment      1: Step Time =    1.000,"PART-1-1",            12,            0.,           30.,            0.,NA,NA,"",   505.959E-03,  -504.269E-03,   41.3263E-03,   1.55466E-03
C:/temp/dataset/0/7_12.odb,Step-1,Increment      1: Step Time =    1.000,"PART-1-1",            13,          -15.,           30.,            0.,NA,NA,"",   520.392E-03,  -518.148E-03,  -48.2713E-03,   56.2508E-06
C:/temp/dataset/0/7_12.odb,Step-1,Increment      1: Step Time =    1.000,"PART-1-1",            14,          -15.,          -30.,            0.,NA,NA,"",            0.,  -3.52241E-39,  -5.76828E-39,   9.17364E-03
C:/temp/dataset/0/7_12.odb,Step-1,Increment      1: Step Time =    1.000,"PART-1-1",            15,           15.,          -30.,            0.,NA,NA,"",            0.,  -8.64853E-39,   15.7649E-39,   25.6108E-03
C:/temp/dataset/0/7_12.odb,Step-1,Increment      1: Step Time =    1.000,"PART-1-1",            16,           15.,         -22.5,            0.,NA,NA,"",   197.106E-03,  -164.356E-03,   108.802E-03,   11.3909E-03
C:/temp/dataset/0/7_12.odb,Step-1,Increment      1: Step Time =    1.000,"PART-1-1",            17,           15.,          -15.,            0.,NA,NA,"",   341.228E-03,  -321.050E-03,   115.603E-03,   6.61324E-03
C:/temp/dataset/0/7_12.odb,Step-1,Increment      1: Step Time =    1.000,"PART-1-1",            18,           15.,          -7.5,            0.,NA,NA,"",   396.339E-03,  -382.484E-03,   103.879E-03,   2.81714E-03
C:/temp/dataset/0/7_12.odb,Step-1,Increment      1: Step Time =    1.000,"PART-1-1",            19,           15.,            0.,            0.,NA,NA,"",   441.458E-03,  -432.907E-03,   86.4675E-03,   2.15544E-03
C:/temp/dataset/0/7_12.odb,Step-1,Increment      1: Step Time =    1.000,"PART-1-1",            20,           15.,           7.5,            0.,NA,NA,"",   465.890E-03,  -459.802E-03,   75.0746E-03,   1.22279E-03
C:/temp/dataset/0/7_12.odb,Step-1,Increment      1: Step Time =    1.000,"PART-1-1",            21,           15.,           15.,            0.,NA,NA,"",   477.997E-03,  -472.839E-03,   70.0341E-03,   256.795E-06
C:/temp/dataset/0/7_12.odb,Step-1,Increment      1: Step Time =    1.000,"PART-1-1",            22,           15.,          22.5,            0.,NA,NA,"",   487.952E-03,  -482.762E-03,   70.9798E-03,   333.544E-06
C:/temp/dataset/0/7_12.odb,Step-1,Increment      1: Step Time =    1.000,"PART-1-1",            23,       3.33333,           20.,            0.,NA,NA,"",   474.749E-03,  -472.032E-03,   50.7247E-03,   1.87639E-03
C:/temp/dataset/0/7_12.odb,Step-1,Increment      1: Step Time =    1.000,"PART-1-1",            24,       1.66667,           20.,            0.,NA,NA,"",   471.780E-03,  -469.524E-03,   46.0834E-03,   1.72587E-03
C:/temp/dataset/0/7_12.odb,Step-1,Increment      1: Step Time =    1.000,"PART-1-1",            25,            5.,       13.3333,            0.,NA,NA,"",   472.800E-03,  -469.919E-03,   52.1131E-03,   861.672E-06
C:/temp/dataset/0/7_12.odb,Step-1,Increment      1: Step Time =    1.000,"PART-1-1",            26,            5.,       16.6667,            0.,NA,NA,"",   476.889E-03,  -473.809E-03,   54.1135E-03,   578.496E-06
C:/temp/dataset/0/7_12.odb,Step-1,Increment      1: Step Time =    1.000,"PART-1-1",            27,            5.,       3.33333,            0.,NA,NA,"",   448.106E-03,  -446.385E-03,   39.2374E-03,   2.03746E-03
C:/temp/dataset/0/7_12.odb,Step-1,Increment      1: Step Time =    1.000,"PART-1-1",            28,            5.,       6.66667,            0.,NA,NA,"",   459.106E-03,  -456.922E-03,   44.7265E-03,   1.63424E-03
C:/temp/dataset/0/7_12.odb,Step-1,Increment      1: Step Time =    1.000,"PART-1-1",            29,            5.,      -6.66667,            0.,NA,NA,"",   389.402E-03,  -389.100E-03,   15.3303E-03,   3.41543E-03
C:/temp/dataset/0/7_12.odb,Step-1,Increment      1: Step Time =    1.000,"PART-1-1",            30,            5.,      -3.33333,            0.,NA,NA,"",   413.982E-03,  -413.248E-03,   24.6431E-03,   2.84854E-03
C:/temp/dataset/0/7_12.odb,Step-1,Increment      1: Step Time =    1.000,"PART-1-1",            31,            5.,      -16.6667,            0.,NA,NA,"",   255.171E-03,  -253.491E-03,  -29.2283E-03,   7.17631E-03
C:/temp/dataset/0/7_12.odb,Step-1,Increment      1: Step Time =    1.000,"PART-1-1",            32,            5.,      -13.3333,            0.,NA,NA,"",   317.338E-03,  -317.150E-03,  -10.9185E-03,   6.08153E-03
C:/temp/dataset/0/7_12.odb,Step-1,Increment      1: Step Time =    1.000,"PART-1-1",            33,           2.5,          -20.,            0.,NA,NA,"",   90.6816E-03,  -90.5323E-03,  -5.20298E-03,   12.0774E-03
C:/temp/dataset/0/7_12.odb,Step-1,Increment      1: Step Time =    1.000,"PART-1-1",            34,          -2.5,          -20.,            0.,NA,NA,"",   62.1595E-03,  -61.8268E-03,   6.42243E-03,   3.62991E-03
C:/temp/dataset/0/7_12.odb,Step-1,Increment      1: Step Time =    1.000,"PART-1-1",            35,           -5.,       16.9231,            0.,NA,NA,"",   424.908E-03,  -423.709E-03,   31.9059E-03,   1.87322E-03
C:/temp/dataset/0/7_12.odb,Step-1,Increment      1: Step Time =    1.000,"PART-1-1",            36,           -5.,       13.8462,            0.,NA,NA,"",   394.064E-03,  -392.411E-03,   36.0499E-03,   1.31796E-03
C:/temp/dataset/0/7_12.odb,Step-1,Increment      1: Step Time =    1.000,"PART-1-1",            37,           -5.,       10.7692,            0.,NA,NA,"",   361.837E-03,  -359.674E-03,   39.5072E-03,   1.01325E-03
C:/temp/dataset/0/7_12.odb,Step-1,Increment      1: Step Time =    1.000,"PART-1-1",            38,           -5.,       7.69231,            0.,NA,NA,"",   328.263E-03,  -325.567E-03,   41.9835E-03,   640.753E-06
C:/temp/dataset/0/7_12.odb,Step-1,Increment      1: Step Time =    1.000,"PART-1-1",            39,           -5.,       4.61538,            0.,NA,NA,"",   293.838E-03,  -290.608E-03,   43.4473E-03,   266.839E-06
C:/temp/dataset/0/7_12.odb,Step-1,Increment      1: Step Time =    1.000,"PART-1-1",            40,           -5.,       1.53846,            0.,NA,NA,"",   259.178E-03,  -255.439E-03,   43.8673E-03,   116.156E-06
C:/temp/dataset/0/7_12.odb,Step-1,Increment      1: Step Time =    1.000,"PART-1-1",            41,           -5.,      -1.53846,            0.,NA,NA,"",   224.901E-03,  -220.707E-03,   43.2318E-03,   493.942E-06
C:/temp/dataset/0/7_12.odb,Step-1,Increment      1: Step Time =    1.000,"PART-1-1",            42,           -5.,      -4.61538,            0.,NA,NA,"",   191.616E-03,  -187.060E-03,   41.5356E-03,   873.040E-06
C:/temp/dataset/0/7_12.odb,Step-1,Increment      1: Step Time =    1.000,"PART-1-1",            43,           -5.,      -7.69231,            0.,NA,NA,"",   159.913E-03,  -155.142E-03,   38.7738E-03,   1.24633E-03
C:/temp/dataset/0/7_12.odb,Step-1,Increment      1: Step Time =    1.000,"PART-1-1",            44,           -5.,      -10.7692,            0.,NA,NA,"",   130.344E-03,  -125.568E-03,   34.9628E-03,   1.63359E-03
C:/temp/dataset/0/7_12.odb,Step-1,Increment      1: Step Time =    1.000,"PART-1-1",            45,           -5.,      -13.8462,            0.,NA,NA,"",   103.359E-03,  -98.9234E-03,   29.9549E-03,   2.03035E-03
C:/temp/dataset/0/7_12.odb,Step-1,Increment      1: Step Time =    1.000,"PART-1-1",            46,           -5.,      -16.9231,            0.,NA,NA,"",   79.2265E-03,  -75.5427E-03,   23.8776E-03,   2.74039E-03
C:/temp/dataset/0/7_12.odb,Step-1,Increment      1: Step Time =    1.000,"PART-1-1",            47,          -2.5,           20.,            0.,NA,NA,"",   463.772E-03,  -462.648E-03,   32.2747E-03,   2.24647E-03
C:/temp/dataset/0/7_12.odb,Step-1,Increment      1: Step Time =    1.000,"PART-1-1",            48,        13.125,           30.,            0.,NA,NA,"",   500.643E-03,  -495.905E-03,   68.7115E-03,   22.5061E-06
C:/temp/dataset/0/7_12.odb,Step-1,Increment      1: Step Time =    1.000,"PART-1-1",            49,         11.25,           30.,            0.,NA,NA,"",   500.328E-03,  -496.000E-03,   65.6697E-03,   136.670E-06
C:/temp/dataset/0/7_12.odb,Step-1,Increment      1: Step Time =    1.000,"PART-1-1",            50,         9.375,           30.,            0.,NA,NA,"",   500.297E-03,  -496.354E-03,   62.6849E-03,   324.445E-06
C:/temp/dataset/0/7_12.odb,Step-1,Increment      1: Step Time =    1.000,"PART-1-1",            51,            5.,           30.,            0.,NA,NA,"",   501.705E-03,  -498.696E-03,   54.8726E-03,   915.349E-06
C:/temp/dataset/0/7_12.odb,Step-1,Increment      1: Step Time =    1.000,"PART-1-1",            52,           2.5,           30.,            0.,NA,NA,"",   503.508E-03,  -501.121E-03,   48.9694E-03,   1.25837E-03
C:/temp/dataset/0/7_12.odb,Step-1,Increment      1: Step Time =    1.000,"PART-1-1",            53,           -3.,           30.,            0.,NA,NA,"",   509.584E-03,  -508.751E-03,   29.1359E-03,   1.74324E-03
C:/temp/dataset/0/7_12.odb,Step-1,Increment      1: Step Time =    1.000,"PART-1-1",            54,           -6.,           30.,            0.,NA,NA,"",   513.470E-03,  -513.303E-03,   13.0887E-03,   1.55323E-03
C:/temp/dataset/0/7_12.odb,Step-1,Increment      1: Step Time =    1.000,"PART-1-1",            55,           -9.,           30.,            0.,NA,NA,"",   516.740E-03,  -516.701E-03,  -6.40803E-03,   926.972E-06
C:/temp/dataset/0/7_12.odb,Step-1,Increment      1: Step Time =    1.000,"PART-1-1",            56,          -12.,           30.,            0.,NA,NA,"",   518.857E-03,  -518.125E-03,  -27.5488E-03,   223.295E-06
C:/temp/dataset/0/7_12.odb,Step-1,Increment      1: Step Time =    1.000,"PART-1-1",            57,          -15.,           27.,            0.,NA,NA,"",   500.443E-03,  -498.107E-03,  -48.2982E-03,   224.136E-06
C:/temp/dataset/0/7_12.odb,Step-1,Increment      1: Step Time =    1.000,"PART-1-1",            58,          -15.,           24.,            0.,NA,NA,"",   481.025E-03,  -478.448E-03,  -49.7244E-03,   911.615E-06
C:/temp/dataset/0/7_12.odb,Step-1,Increment      1: Step Time =    1.000,"PART-1-1",            59,          -15.,           21.,            0.,NA,NA,"",   460.167E-03,  -457.102E-03,  -53.0219E-03,   1.48557E-03
C:/temp/dataset/0/7_12.odb,Step-1,Increment      1: Step Time =    1.000,"PART-1-1",            60,          -15.,           18.,            0.,NA,NA,"",   436.151E-03,  -432.380E-03,  -57.2351E-03,   1.58713E-03
C:/temp/dataset/0/7_12.odb,Step-1,Increment      1: Step Time =    1.000,"PART-1-1",            61,          -15.,           15.,            0.,NA,NA,"",   408.693E-03,  -404.103E-03,  -61.0808E-03,   1.31360E-03
C:/temp/dataset/0/7_12.odb,Step-1,Increment      1: Step Time =    1.000,"PART-1-1",            62,          -15.,           12.,            0.,NA,NA,"",   378.553E-03,  -373.120E-03,  -63.9062E-03,   914.322E-06
C:/temp/dataset/0/7_12.odb,Step-1,Increment      1: Step Time =    1.000,"PART-1-1",            63,          -15.,            9.,            0.,NA,NA,"",   346.620E-03,  -340.349E-03,  -65.6336E-03,   520.576E-06
C:/temp/dataset/0/7_12.odb,Step-1,Increment      1: Step Time =    1.000,"PART-1-1",            64,          -15.,            6.,            0.,NA,NA,"",   313.599E-03,  -306.508E-03,  -66.3120E-03,   141.985E-06
C:/temp/dataset/0/7_12.odb,Step-1,Increment      1: Step Time =    1.000,"PART-1-1",            65,          -15.,            3.,            0.,NA,NA,"",   280.101E-03,  -272.220E-03,  -65.9773E-03,   233.609E-06
C:/temp/dataset/0/7_12.odb,Step-1,Increment      1: Step Time =    1.000,"PART-1-1",            66,          -15.,            0.,            0.,NA,NA,"",   246.700E-03,  -238.080E-03,  -64.6440E-03,   603.888E-06
C:/temp/dataset/0/7_12.odb,Step-1,Increment      1: Step Time =    1.000,"PART-1-1",            67,          -15.,           -3.,            0.,NA,NA,"",   213.962E-03,  -204.686E-03,  -62.3197E-03,   974.837E-06
C:/temp/dataset/0/7_12.odb,Step-1,Increment      1: Step Time =    1.000,"PART-1-1",            68,          -15.,           -6.,            0.,NA,NA,"",   182.443E-03,  -172.637E-03,  -59.0080E-03,   1.34729E-03
C:/temp/dataset/0/7_12.odb,Step-1,Increment      1: Step Time =    1.000,"PART-1-1",            69,          -15.,           -9.,            0.,NA,NA,"",   152.681E-03,  -142.542E-03,  -54.7107E-03,   1.72153E-03
C:/temp/dataset/0/7_12.odb,Step-1,Increment      1: Step Time =    1.000,"PART-1-1",            70,          -15.,          -12.,            0.,NA,NA,"",   125.208E-03,  -115.033E-03,  -49.4422E-03,   2.08534E-03
C:/temp/dataset/0/7_12.odb,Step-1,Increment      1: Step Time =    1.000,"PART-1-1",            71,          -15.,          -15.,            0.,NA,NA,"",   100.579E-03,  -90.7792E-03,  -43.3036E-03,   2.37418E-03
C:/temp/dataset/0/7_12.odb,Step-1,Increment      1: Step Time =    1.000,"PART-1-1",            72,          -15.,          -18.,            0.,NA,NA,"",   79.2352E-03,  -70.2297E-03,  -36.6878E-03,   2.41574E-03
C:/temp/dataset/0/7_12.odb,Step-1,Increment      1: Step Time =    1.000,"PART-1-1",            73,          -15.,          -21.,            0.,NA,NA,"",   61.0193E-03,  -52.9664E-03,  -30.2972E-03,   2.33311E-03
C:/temp/dataset/0/7_12.odb,Step-1,Increment      1: Step Time =    1.000,"PART-1-1",            74,          -15.,          -24.,            0.,NA,NA,"",   44.1848E-03,  -37.0013E-03,  -24.1495E-03,   2.32577E-03
C:/temp/dataset/0/7_12.odb,Step-1,Increment      1: Step Time =    1.000,"PART-1-1",            75,          -15.,          -27.,            0.,NA,NA,"",   25.9530E-03,  -20.0767E-03,  -16.4464E-03,   4.29821E-03
C:/temp/dataset/0/7_12.odb,Step-1,Increment      1: Step Time =    1.000,"PART-1-1",            76,          -12.,          -30.,            0.,NA,NA,"",            0.,  -5.79001E-39,  -6.66304E-39,   3.13568E-03
C:/temp/dataset/0/7_12.odb,Step-1,Increment      1: Step Time =    1.000,"PART-1-1",            77,           -9.,          -30.,            0.,NA,NA,"",            0.,  -2.76153E-39,   107.030E-42,   3.86007E-03
C:/temp/dataset/0/7_12.odb,Step-1,Increment      1: Step Time =    1.000,"PART-1-1",            78,           -6.,          -30.,            0.,NA,NA,"",            0.,  -6.07706E-39,  -4.81480E-39,   5.01587E-03
C:/temp/dataset/0/7_12.odb,Step-1,Increment      1: Step Time =    1.000,"PART-1-1",            79,           -3.,          -30.,            0.,NA,NA,"",            0.,  -6.38865E-39,  -45.5170E-42,   6.46876E-03
C:/temp/dataset/0/7_12.odb,Step-1,Increment      1: Step Time =    1.000,"PART-1-1",            80,            0.,          -30.,            0.,NA,NA,"",            0.,  -6.38009E-39,  -1.72241E-39,   7.55478E-03
C:/temp/dataset/0/7_12.odb,Step-1,Increment      1: Step Time =    1.000,"PART-1-1",            81,            3.,          -30.,            0.,NA,NA,"",            0.,  -9.18871E-39,  -12.2115E-39,   7.40861E-03
C:/temp/dataset/0/7_12.odb,Step-1,Increment      1: Step Time =    1.000,"PART-1-1",            82,            6.,          -30.,            0.,NA,NA,"",            0.,  -7.12093E-39,  -8.73099E-39,   5.86480E-03
C:/temp/dataset/0/7_12.odb,Step-1,Increment      1: Step Time =    1.000,"PART-1-1",            83,            9.,          -30.,            0.,NA,NA,"",            0.,  -3.35252E-39,  -1.30497E-39,   4.06275E-03
C:/temp/dataset/0/7_12.odb,Step-1,Increment      1: Step Time =    1.000,"PART-1-1",            84,           12.,          -30.,            0.,NA,NA,"",            0.,  -9.15380E-39,   15.7791E-39,   5.84520E-03
C:/temp/dataset/0/7_12.odb,Step-1,Increment      1: Step Time =    1.000,"PART-1-1",            85,           15.,         -27.5,            0.,NA,NA,"",   62.5892E-03,  -42.5256E-03,   45.9237E-03,   18.1797E-03
C:/temp/dataset/0/7_12.odb,Step-1,Increment      1: Step Time =    1.000,"PART-1-1",            86,           15.,          -25.,            0.,NA,NA,"",   119.319E-03,  -89.0849E-03,   79.3779E-03,   14.0613E-03
C:/temp/dataset/0/7_12.odb,Step-1,Increment      1: Step Time =    1.000,"PART-1-1",            87,           15.,          -20.,            0.,NA,NA,"",   270.885E-03,  -243.354E-03,   118.986E-03,   12.0288E-03
C:/temp/dataset/0/7_12.odb,Step-1,Increment      1: Step Time =    1.000,"PART-1-1",            88,           15.,         -17.5,            0.,NA,NA,"",   322.057E-03,  -297.836E-03,   122.534E-03,   11.4330E-03
C:/temp/dataset/0/7_12.odb,Step-1,Increment      1: Step Time =    1.000,"PART-1-1",            89,           15.,         -12.5,            0.,NA,NA,"",   353.593E-03,  -334.325E-03,   115.130E-03,   2.68438E-03
C:/temp/dataset/0/7_12.odb,Step-1,Increment      1: Step Time =    1.000,"PART-1-1",            90,           15.,          -10.,            0.,NA,NA,"",   375.636E-03,  -359.166E-03,   110.011E-03,   2.57476E-03
C:/temp/dataset/0/7_12.odb,Step-1,Increment      1: Step Time =    1.000,"PART-1-1",            91,           15.,           -5.,            0.,NA,NA,"",   414.175E-03,  -402.529E-03,   97.5258E-03,   2.71188E-03
C:/temp/dataset/0/7_12.odb,Step-1,Increment      1: Step Time =    1.000,"PART-1-1",            92,           15.,          -2.5,            0.,NA,NA,"",   429.119E-03,  -419.213E-03,   91.6729E-03,   2.45591E-03
C:/temp/dataset/0/7_12.odb,Step-1,Increment      1: Step Time =    1.000,"PART-1-1",            93,           15.,           2.5,            0.,NA,NA,"",   451.498E-03,  -443.996E-03,   81.9677E-03,   1.84606E-03
C:/temp/dataset/0/7_12.odb,Step-1,Increment      1: Step Time =    1.000,"PART-1-1",            94,           15.,            5.,            0.,NA,NA,"",   459.541E-03,  -452.844E-03,   78.1715E-03,   1.53450E-03
C:/temp/dataset/0/7_12.odb,Step-1,Increment      1: Step Time =    1.000,"PART-1-1",            95,           15.,           10.,            0.,NA,NA,"",   470.857E-03,  -465.214E-03,   72.6772E-03,   907.942E-06
C:/temp/dataset/0/7_12.odb,Step-1,Increment      1: Step Time =    1.000,"PART-1-1",            96,           15.,          12.5,            0.,NA,NA,"",   474.770E-03,  -469.433E-03,   70.9898E-03,   585.758E-06
C:/temp/dataset/0/7_12.odb,Step-1,Increment      1: Step Time =    1.000,"PART-1-1",            97,           15.,          17.5,            0.,NA,NA,"",   480.973E-03,  -475.878E-03,   69.8174E-03,   62.2454E-06
C:/temp/dataset/0/7_12.odb,Step-1,Increment      1: Step Time =    1.000,"PART-1-1",            98,           15.,           20.,            0.,NA,NA,"",   484.175E-03,  -479.054E-03,   70.2364E-03,   283.316E-06
C:/temp/dataset/0/7_12.odb,Step-1,Increment      1: Step Time =    1.000,"PART-1-1",            99,           15.,           25.,            0.,NA,NA,"",   492.282E-03,  -487.044E-03,   71.6195E-03,   209.435E-06
C:/temp/dataset/0/7_12.odb,Step-1,Increment      1: Step Time =    1.000,"PART-1-1",           100,           15.,          27.5,            0.,NA,NA,"",   496.785E-03,  -491.556E-03,   71.8847E-03,   40.5571E-06
C:/temp/dataset/0/7_12.odb,Step-1,Increment      1: Step Time =    1.000,"PART-1-1",           101,       3.77421,       21.6807,            0.,NA,NA,"",   479.555E-03,  -476.650E-03,   52.7080E-03,   968.519E-06
C:/temp/dataset/0/7_12.odb,Step-1,Increment      1: Step Time =    1.000,"PART-1-1",           102,   339.763E-03,       22.0764,            0.,NA,NA,"",   476.383E-03,  -474.403E-03,   43.3869E-03,   1.28753E-03
C:/temp/dataset/0/7_12.odb,Step-1,Increment      1: Step Time =    1.000,"PART-1-1",           103,       2.04677,       21.7082,            0.,NA,NA,"",   477.568E-03,  -475.120E-03,   48.2943E-03,   1.22821E-03
C:/temp/dataset/0/7_12.odb,Step-1,Increment      1: Step Time =    1.000,"PART-1-1",           104,       11.0234,       27.4901,            0.,NA,NA,"",   495.892E-03,  -491.558E-03,   65.4182E-03,   287.190E-06
C:/temp/dataset/0/7_12.odb,Step-1,Increment      1: Step Time =    1.000,"PART-1-1",           105,       8.98111,       27.5559,            0.,NA,NA,"",   495.818E-03,  -491.884E-03,   62.3300E-03,   408.266E-06
C:/temp/dataset/0/7_12.odb,Step-1,Increment      1: Step Time =    1.000,"PART-1-1",           106,      -4.39315,       22.5924,            0.,NA,NA,"",   473.153E-03,  -472.465E-03,   25.5090E-03,   900.643E-06
C:/temp/dataset/0/7_12.odb,Step-1,Increment      1: Step Time =    1.000,"PART-1-1",           107,       12.7609,      -22.7550,            0.,NA,NA,"",   147.849E-03,  -137.872E-03,   53.3914E-03,   13.7804E-03
C:/temp/dataset/0/7_12.odb,Step-1,Increment      1: Step Time =    1.000,"PART-1-1",           108,       12.5528,      -15.2766,            0.,NA,NA,"",   322.426E-03,  -308.888E-03,   92.4471E-03,   6.58041E-03
C:/temp/dataset/0/7_12.odb,Step-1,Increment      1: Step Time =    1.000,"PART-1-1",           109,       12.2205,       7.28465,            0.,NA,NA,"",   465.245E-03,  -460.328E-03,   67.4642E-03,   654.297E-06
C:/temp/dataset/0/7_12.odb,Step-1,Increment      1: Step Time =    1.000,"PART-1-1",           110,       12.4622,       15.2934,            0.,NA,NA,"",   477.949E-03,  -473.361E-03,   66.0691E-03,   442.034E-06
C:/temp/dataset/0/7_12.odb,Step-1,Increment      1: Step Time =    1.000,"PART-1-1",           111,       12.8846,       22.6339,            0.,NA,NA,"",   487.417E-03,  -482.696E-03,   67.6689E-03,   240.818E-06
C:/temp/dataset/0/7_12.odb,Step-1,Increment      1: Step Time =    1.000,"PART-1-1",           112,  -340.860E-03,      -22.2697,            0.,NA,NA,"",   68.3811E-03,  -68.3227E-03,  -2.82554E-03,   7.39339E-03
C:/temp/dataset/0/7_12.odb,Step-1,Increment      1: Step Time =    1.000,"PART-1-1",           113,       6.83628,       27.6500,            0.,NA,NA,"",   496.025E-03,  -492.514E-03,   58.9147E-03,   523.864E-06
C:/temp/dataset/0/7_12.odb,Step-1,Increment      1: Step Time =    1.000,"PART-1-1",           114,       12.2535,       9.99399,            0.,NA,NA,"",   470.695E-03,  -465.962E-03,   66.5797E-03,   564.262E-06
C:/temp/dataset/0/7_12.odb,Step-1,Increment      1: Step Time =    1.000,"PART-1-1",           115,       12.4991,  -638.118E-03,            0.,NA,NA,"",   437.763E-03,  -431.468E-03,   73.9742E-03,   1.11762E-03
C:/temp/dataset/0/7_12.odb,Step-1,Increment      1: Step Time =    1.000,"PART-1-1",           116,       12.8164,      -7.55827,            0.,NA,NA,"",   393.393E-03,  -384.133E-03,   84.8505E-03,   1.69626E-03
C:/temp/dataset/0/7_12.odb,Step-1,Increment      1: Step Time =    1.000,"PART-1-1",           117,       12.7714,      -20.2702,            0.,NA,NA,"",   224.302E-03,  -212.652E-03,   71.3464E-03,   15.4233E-03
C:/temp/dataset/0/7_12.odb,Step-1,Increment      1: Step Time =    1.000,"PART-1-1",           118,      -1.80101,       22.4804,            0.,NA,NA,"",   475.360E-03,  -473.984E-03,   36.1523E-03,   1.39201E-03
C:/temp/dataset/0/7_12.odb,Step-1,Increment      1: Step Time =    1.000,"PART-1-1",           119,       4.41791,       27.8041,            0.,NA,NA,"",   496.728E-03,  -493.744E-03,   54.3669E-03,   647.231E-06
C:/temp/dataset/0/7_12.odb,Step-1,Increment      1: Step Time =    1.000,"PART-1-1",           120,       2.00441,       27.9652,            0.,NA,NA,"",   497.864E-03,  -495.492E-03,   48.5344E-03,   776.645E-06
C:/temp/dataset/0/7_12.odb,Step-1,Increment      1: Step Time =    1.000,"PART-1-1",           121,      -2.69107,      -22.1951,            0.,NA,NA,"",   58.8258E-03,  -58.7620E-03,   2.73914E-03,   5.25119E-03
C:/temp/dataset/0/7_12.odb,Step-1,Increment      1: Step Time =    1.000,"PART-1-1",           122,       1.88995,      -22.5465,            0.,NA,NA,"",   76.5919E-03,  -75.8791E-03,  -10.4250E-03,   11.4238E-03
C:/temp/dataset/0/7_12.odb,Step-1,Increment      1: Step Time =    1.000,"PART-1-1",           123,       3.76320,      -23.2871,            0.,NA,NA,"",   79.8908E-03,  -78.4294E-03,  -15.2110E-03,   9.80210E-03
C:/temp/dataset/0/7_12.odb,Step-1,Increment      1: Step Time =    1.000,"PART-1-1",           124,       12.5645,      -25.1614,            0.,NA,NA,"",   80.8703E-03,  -72.9515E-03,   34.9011E-03,   9.21410E-03
C:/temp/dataset/0/7_12.odb,Step-1,Increment      1: Step Time =    1.000,"PART-1-1",           125,       12.6631,      -17.7963,            0.,NA,NA,"",   284.115E-03,  -271.030E-03,   85.2310E-03,   12.5482E-03
C:/temp/dataset/0/7_12.odb,Step-1,Increment      1: Step Time =    1.000,"PART-1-1",           126,       12.5016,      -12.6810,            0.,NA,NA,"",   345.999E-03,  -333.860E-03,   90.8419E-03,   2.90611E-03
C:/temp/dataset/0/7_12.odb,Step-1,Increment      1: Step Time =    1.000,"PART-1-1",           127,       12.5761,      -10.0660,            0.,NA,NA,"",   371.082E-03,  -360.837E-03,   86.5956E-03,   1.88999E-03
C:/temp/dataset/0/7_12.odb,Step-1,Increment      1: Step Time =    1.000,"PART-1-1",           128,       13.0467,      -5.23700,            0.,NA,NA,"",   411.150E-03,  -402.641E-03,   83.2130E-03,   1.64156E-03
C:/temp/dataset/0/7_12.odb,Step-1,Increment      1: Step Time =    1.000,"PART-1-1",           129,       12.8236,      -2.99729,            0.,NA,NA,"",   425.298E-03,  -417.982E-03,   78.5505E-03,   1.39388E-03
C:/temp/dataset/0/7_12.odb,Step-1,Increment      1: Step Time =    1.000,"PART-1-1",           130,       12.3116,       1.92449,            0.,NA,NA,"",   448.892E-03,  -443.262E-03,   70.8712E-03,   916.118E-06
C:/temp/dataset/0/7_12.odb,Step-1,Increment      1: Step Time =    1.000,"PART-1-1",           131,       12.2319,       4.58053,            0.,NA,NA,"",   458.051E-03,  -452.850E-03,   68.8314E-03,   769.560E-06
C:/temp/dataset/0/7_12.odb,Step-1,Increment      1: Step Time =    1.000,"PART-1-1",           132,       12.3276,       12.6723,            0.,NA,NA,"",   474.773E-03,  -470.147E-03,   66.1117E-03,   497.309E-06
C:/temp/dataset/0/7_12.odb,Step-1,Increment      1: Step Time =    1.000,"PART-1-1",           133,       12.6288,       17.8043,            0.,NA,NA,"",   480.743E-03,  -476.136E-03,   66.3996E-03,   362.243E-06
C:/temp/dataset/0/7_12.odb,Step-1,Increment      1: Step Time =    1.000,"PART-1-1",           134,       12.7774,       20.2190,            0.,NA,NA,"",   483.743E-03,  -479.082E-03,   66.9918E-03,   268.731E-06
C:/temp/dataset/0/7_12.odb,Step-1,Increment      1: Step Time =    1.000,"PART-1-1",           135,       2.42682,       23.0828,            0.,NA,NA,"",   482.147E-03,  -479.564E-03,   49.8387E-03,   754.913E-06
C:/temp/dataset/0/7_12.odb,Step-1,Increment      1: Step Time =    1.000,"PART-1-1",           136,       13.0358,       27.4773,            0.,NA,NA,"",   496.243E-03,  -491.484E-03,   68.5570E-03,   161.431E-06
C:/temp/dataset/0/7_12.odb,Step-1,Increment      1: Step Time =    1.000,"PART-1-1",           137,       10.8553,       25.1313,            0.,NA,NA,"",   491.256E-03,  -486.934E-03,   65.0187E-03,   351.731E-06
C:/temp/dataset/0/7_12.odb,Step-1,Increment      1: Step Time =    1.000,"PART-1-1",           138,       5.66135,       21.5046,            0.,NA,NA,"",   481.138E-03,  -477.837E-03,   56.2655E-03,   905.486E-06
C:/temp/dataset/0/7_12.odb,Step-1,Increment      1: Step Time =    1.000,"PART-1-1",           139,       1.38191,       23.9574,            0.,NA,NA,"",   484.134E-03,  -481.831E-03,   47.1658E-03,   594.385E-06
C:/temp/dataset/0/7_12.odb,Step-1,Increment      1: Step Time =    1.000,"PART-1-1",           140,       8.68595,       25.2651,            0.,NA,NA,"",   490.897E-03,  -486.988E-03,   61.8234E-03,   478.625E-06
C:/temp/dataset/0/7_12.odb,Step-1,Increment      1: Step Time =    1.000,"PART-1-1",           141,       12.9664,       25.0396,            0.,NA,NA,"",   491.701E-03,  -486.943E-03,   68.2324E-03,   248.096E-06
C:/temp/dataset/0/7_12.odb,Step-1,Increment      1: Step Time =    1.000,"PART-1-1",           142,       9.99676,      -12.8506,            0.,NA,NA,"",   336.913E-03,  -331.403E-03,   60.6816E-03,   1.18526E-03
C:/temp/dataset/0/7_12.odb,Step-1,Increment      1: Step Time =    1.000,"PART-1-1",           143,       11.3735,      -5.41139,            0.,NA,NA,"",   408.337E-03,  -402.266E-03,   70.1560E-03,   852.416E-06
C:/temp/dataset/0/7_12.odb,Step-1,Increment      1: Step Time =    1.000,"PART-1-1",           144,       9.95511,       15.6727,            0.,NA,NA,"",   477.629E-03,  -473.660E-03,   61.4518E-03,   595.259E-06
C:/temp/dataset/0/7_12.odb,Step-1,Increment      1: Step Time =    1.000,"PART-1-1",           145,       9.67875,       10.0081,            0.,NA,NA,"",   469.895E-03,  -466.050E-03,   59.9910E-03,   590.581E-06
C:/temp/dataset/0/7_12.odb,Step-1,Increment      1: Step Time =    1.000,"PART-1-1",           146,       9.74913,       1.24671,            0.,NA,NA,"",   444.558E-03,  -440.712E-03,   58.3504E-03,   613.521E-06
C:/temp/dataset/0/7_12.odb,Step-1,Increment      1: Step Time =    1.000,"PART-1-1",           147,       10.3027,      -18.1986,            0.,NA,NA,"",   244.875E-03,  -239.286E-03,   52.0192E-03,   12.5594E-03
C:/temp/dataset/0/7_12.odb,Step-1,Increment      1: Step Time =    1.000,"PART-1-1",           148,       1.33525,      -24.5624,            0.,NA,NA,"",   58.0821E-03,  -57.2402E-03,  -9.85311E-03,   9.55165E-03
C:/temp/dataset/0/7_12.odb,Step-1,Increment      1: Step Time =    1.000,"PART-1-1",           149,       9.11730,      -22.7103,            0.,NA,NA,"",   113.517E-03,  -112.887E-03,   11.9491E-03,   11.9067E-03
C:/temp/dataset/0/7_12.odb,Step-1,Increment      1: Step Time =    1.000,"PART-1-1",           150,       12.2648,      -27.5617,            0.,NA,NA,"",   32.8006E-03,  -28.2875E-03,   16.6041E-03,   10.2757E-03
C:/temp/dataset/0/7_12.odb,Step-1,Increment      1: Step Time =    1.000,"PART-1-1",           151,       10.6108,      -20.5371,            0.,NA,NA,"",   185.890E-03,  -181.452E-03,   40.3788E-03,   15.9081E-03
C:/temp/dataset/0/7_12.odb,Step-1,Increment      1: Step Time =    1.000,"PART-1-1",           152,       10.0930,      -9.97392,            0.,NA,NA,"",   368.199E-03,  -363.154E-03,   60.7414E-03,   897.900E-06
C:/temp/dataset/0/7_12.odb,Step-1,Increment      1: Step Time =    1.000,"PART-1-1",           153,       9.63546,       7.06865,            0.,NA,NA,"",   463.718E-03,  -459.919E-03,   59.2400E-03,   607.273E-06
C:/temp/dataset/0/7_12.odb,Step-1,Increment      1: Step Time =    1.000,"PART-1-1",           154,       10.2222,       18.2240,            0.,NA,NA,"",   480.335E-03,  -476.272E-03,   62.3443E-03,   536.742E-06
C:/temp/dataset/0/7_12.odb,Step-1,Increment      1: Step Time =    1.000,"PART-1-1",           155,       10.5456,      -3.97788,            0.,NA,NA,"",   417.292E-03,  -412.494E-03,   63.0944E-03,   564.875E-06
C:/temp/dataset/0/7_12.odb,Step-1,Increment      1: Step Time =    1.000,"PART-1-1",           156,       10.0733,      -15.6212,            0.,NA,NA,"",   297.217E-03,  -291.301E-03,   59.0034E-03,   5.70647E-03
C:/temp/dataset/0/7_12.odb,Step-1,Increment      1: Step Time =    1.000,"PART-1-1",           157,       10.5412,      -7.26051,            0.,NA,NA,"",   393.156E-03,  -387.902E-03,   64.0629E-03,   673.917E-06
C:/temp/dataset/0/7_12.odb,Step-1,Increment      1: Step Time =    1.000,"PART-1-1",           158,       9.98625,      -1.55753,            0.,NA,NA,"",   431.175E-03,  -427.092E-03,   59.1959E-03,   576.424E-06
C:/temp/dataset/0/7_12.odb,Step-1,Increment      1: Step Time =    1.000,"PART-1-1",           159,       9.65058,       4.13273,            0.,NA,NA,"",   455.374E-03,  -451.589E-03,   58.5913E-03,   618.062E-06
C:/temp/dataset/0/7_12.odb,Step-1,Increment      1: Step Time =    1.000,"PART-1-1",           160,       9.76871,       12.8936,            0.,NA,NA,"",   474.342E-03,  -470.443E-03,   60.6941E-03,   573.204E-06
C:/temp/dataset/0/7_12.odb,Step-1,Increment      1: Step Time =    1.000,"PART-1-1",           161,       10.4870,       20.5197,            0.,NA,NA,"",   483.182E-03,  -479.008E-03,   63.3743E-03,   422.093E-06
C:/temp/dataset/0/7_12.odb,Step-1,Increment      1: Step Time =    1.000,"PART-1-1",           162,       3.57821,       25.4429,            0.,NA,NA,"",   489.969E-03,  -487.110E-03,   52.8537E-03,   517.386E-06
C:/temp/dataset/0/7_12.odb,Step-1,Increment      1: Step Time =    1.000,"PART-1-1",           163,       6.34843,       25.4199,            0.,NA,NA,"",   490.611E-03,  -487.147E-03,   58.1964E-03,   562.126E-06
C:/temp/dataset/0/7_12.odb,Step-1,Increment      1: Step Time =    1.000,"PART-1-1",           164,       2.85591,      -26.4171,            0.,NA,NA,"",   40.0677E-03,  -38.9630E-03,  -9.34363E-03,   8.40516E-03
C:/temp/dataset/0/7_12.odb,Step-1,Increment      1: Step Time =    1.000,"PART-1-1",           165,  -631.401E-03,       25.1574,            0.,NA,NA,"",   487.538E-03,  -485.820E-03,   40.8855E-03,   452.679E-06
C:/temp/dataset/0/7_12.odb,Step-1,Increment      1: Step Time =    1.000,"PART-1-1",           166,  -516.865E-03,       27.6990,            0.,NA,NA,"",   497.827E-03,  -496.160E-03,   40.7048E-03,   797.360E-06
C:/temp/dataset/0/7_12.odb,Step-1,Increment      1: Step Time =    1.000,"PART-1-1",           167,      -6.99102,       22.3744,            0.,NA,NA,"",   470.536E-03,  -470.431E-03,   9.92235E-03,   1.09618E-03
C:/temp/dataset/0/7_12.odb,Step-1,Increment      1: Step Time =    1.000,"PART-1-1",           168,      -5.11091,      -22.0245,            0.,NA,NA,"",   52.8874E-03,  -52.4294E-03,   6.94509E-03,   4.65133E-03
C:/temp/dataset/0/7_12.odb,Step-1,Increment      1: Step Time =    1.000,"PART-1-1",           169,       6.75166,      -22.2774,            0.,NA,NA,"",   105.940E-03,  -105.774E-03,  -5.94002E-03,   9.77140E-03
C:/temp/dataset/0/7_12.odb,Step-1,Increment      1: Step Time =    1.000,"PART-1-1",           170,       8.44380,       23.0750,            0.,NA,NA,"",   486.223E-03,  -482.378E-03,   61.0194E-03,   548.480E-06
C:/temp/dataset/0/7_12.odb,Step-1,Increment      1: Step Time =    1.000,"PART-1-1",           171,       3.98751,       23.4543,            0.,NA,NA,"",   484.422E-03,  -481.443E-03,   53.6422E-03,   609.313E-06
C:/temp/dataset/0/7_12.odb,Step-1,Increment      1: Step Time =    1.000,"PART-1-1",           172,       7.74283,       18.8612,            0.,NA,NA,"",   479.839E-03,  -476.283E-03,   58.3032E-03,   703.802E-06
C:/temp/dataset/0/7_12.odb,Step-1,Increment      1: Step Time =    1.000,"PART-1-1",           173,  -206.614E-03,      -27.1815,            0.,NA,NA,"",   29.2811E-03,  -28.9547E-03,  -4.35940E-03,   7.43037E-03
C:/temp/dataset/0/7_12.odb,Step-1,Increment      1: Step Time =    1.000,"PART-1-1",           174,       10.6950,       22.8157,            0.,NA,NA,"",   486.862E-03,  -482.593E-03,   64.3336E-03,   353.844E-06
C:/temp/dataset/0/7_12.odb,Step-1,Increment      1: Step Time =    1.000,"PART-1-1",           175,       1.78109,       26.2982,            0.,NA,NA,"",   492.382E-03,  -490.007E-03,   48.3073E-03,   483.621E-06
C:/temp/dataset/0/7_12.odb,Step-1,Increment      1: Step Time =    1.000,"PART-1-1",           176,       7.62536,      -9.80486,            0.,NA,NA,"",   365.688E-03,  -364.174E-03,   33.2423E-03,   1.95745E-03
C:/temp/dataset/0/7_12.odb,Step-1,Increment      1: Step Time =    1.000,"PART-1-1",           177,       7.50504,      -2.60802,            0.,NA,NA,"",   422.329E-03,  -420.196E-03,   42.3886E-03,   1.53730E-03
C:/temp/dataset/0/7_12.odb,Step-1,Increment      1: Step Time =    1.000,"PART-1-1",           178,       7.24337,       3.70501,            0.,NA,NA,"",   451.951E-03,  -449.345E-03,   48.4650E-03,   1.23301E-03
C:/temp/dataset/0/7_12.odb,Step-1,Increment      1: Step Time =    1.000,"PART-1-1",           179,       7.25379,       10.0129,            0.,NA,NA,"",   468.648E-03,  -465.537E-03,   53.9052E-03,   836.527E-06
C:/temp/dataset/0/7_12.odb,Step-1,Increment      1: Step Time =    1.000,"PART-1-1",           180,       7.22962,       6.85747,            0.,NA,NA,"",   461.601E-03,  -458.728E-03,   51.4271E-03,   1.03494E-03
C:/temp/dataset/0/7_12.odb,Step-1,Increment      1: Step Time =    1.000,"PART-1-1",           181,       7.49186,      -13.0485,            0.,NA,NA,"",   327.400E-03,  -326.322E-03,   26.5441E-03,   2.04196E-03
C:/temp/dataset/0/7_12.odb,Step-1,Increment      1: Step Time =    1.000,"PART-1-1",           182,       8.10600,      -6.05436,            0.,NA,NA,"",   399.510E-03,  -397.212E-03,   42.7881E-03,   1.37179E-03
C:/temp/dataset/0/7_12.odb,Step-1,Increment      1: Step Time =    1.000,"PART-1-1",           183,       7.31265,   557.236E-03,            0.,NA,NA,"",   439.073E-03,  -436.737E-03,   45.2323E-03,   1.40859E-03
C:/temp/dataset/0/7_12.odb,Step-1,Increment      1: Step Time =    1.000,"PART-1-1",           184,       7.30605,       13.1330,            0.,NA,NA,"",   473.682E-03,  -470.388E-03,   55.7687E-03,   638.629E-06
C:/temp/dataset/0/7_12.odb,Step-1,Increment      1: Step Time =    1.000,"PART-1-1",           185,       8.51669,      -21.0731,            0.,NA,NA,"",   148.863E-03,  -148.083E-03,   15.2187E-03,   15.0331E-03
C:/temp/dataset/0/7_12.odb,Step-1,Increment      1: Step Time =    1.000,"PART-1-1",           186,       7.54046,      -16.1016,            0.,NA,NA,"",   275.118E-03,  -274.344E-03,   20.6250E-03,   5.34523E-03
C:/temp/dataset/0/7_12.odb,Step-1,Increment      1: Step Time =    1.000,"PART-1-1",           187,       7.81864,      -18.8426,            0.,NA,NA,"",   204.632E-03,  -203.735E-03,   19.1379E-03,   14.7702E-03
C:/temp/dataset/0/7_12.odb,Step-1,Increment      1: Step Time =    1.000,"PART-1-1",           188,       7.43701,       16.1533,            0.,NA,NA,"",   477.329E-03,  -473.893E-03,   57.1696E-03,   531.053E-06
C:/temp/dataset/0/7_12.odb,Step-1,Increment      1: Step Time =    1.000,"PART-1-1",           189,       8.13437,       20.9213,            0.,NA,NA,"",   482.293E-03,  -478.582E-03,   59.7185E-03,   732.517E-06
C:/temp/dataset/0/7_12.odb,Step-1,Increment      1: Step Time =    1.000,"PART-1-1",           190,       10.1795,      -24.9689,            0.,NA,NA,"",   69.8142E-03,  -68.7361E-03,   12.2221E-03,   9.25565E-03
C:/temp/dataset/0/7_12.odb,Step-1,Increment      1: Step Time =    1.000,"PART-1-1",           191,      -2.92607,      -24.6642,            0.,NA,NA,"",   44.9046E-03,  -44.9042E-03,  -176.567E-06,   6.35375E-03
C:/temp/dataset/0/7_12.odb,Step-1,Increment      1: Step Time =    1.000,"PART-1-1",           192,      -7.32959,       16.5303,            0.,NA,NA,"",   420.654E-03,  -420.527E-03,   10.3474E-03,   1.34697E-03
C:/temp/dataset/0/7_12.odb,Step-1,Increment      1: Step Time =    1.000,"PART-1-1",           193,      -3.80789,       25.1547,            0.,NA,NA,"",   486.681E-03,  -485.895E-03,   27.6498E-03,   366.853E-06
C:/temp/dataset/0/7_12.odb,Step-1,Increment      1: Step Time =    1.000,"PART-1-1",           194,      -7.16094,      -19.5479,            0.,NA,NA,"",   58.4904E-03,  -57.9734E-03,   7.75984E-03,   799.972E-06
C:/temp/dataset/0/7_12.odb,Step-1,Increment      1: Step Time =    1.000,"PART-1-1",           195,       6.10177,       23.3904,            0.,NA,NA,"",   485.546E-03,  -482.126E-03,   57.5279E-03,   673.432E-06
C:/temp/dataset/0/7_12.odb,Step-1,Increment      1: Step Time =    1.000,"PART-1-1",           196,      -3.02004,      -27.2699,            0.,NA,NA,"",   24.7599E-03,  -24.7103E-03,  -1.56587E-03,   6.24773E-03
C:/temp/dataset/0/7_12.odb,Step-1,Increment      1: Step Time =    1.000,"PART-1-1",           197,      -5.46178,      -24.4382,            0.,NA,NA,"",   39.8170E-03,  -39.7417E-03,   2.44802E-03,   4.83779E-03
C:/temp/dataset/0/7_12.odb,Step-1,Increment      1: Step Time =    1.000,"PART-1-1",           198,      -9.66724,       21.9754,            0.,NA,NA,"",   466.935E-03,  -466.820E-03,  -10.3353E-03,   867.855E-06
C:/temp/dataset/0/7_12.odb,Step-1,Increment      1: Step Time =    1.000,"PART-1-1",           199,      -7.19512,      -21.6661,            0.,NA,NA,"",   49.4437E-03,  -49.1633E-03,   5.25808E-03,   2.14095E-03
C:/temp/dataset/0/7_12.odb,Step-1,Increment      1: Step Time =    1.000,"PART-1-1",           200,      -3.42041,       27.6042,            0.,NA,NA,"",   498.613E-03,  -497.794E-03,   28.5733E-03,   840.048E-06
C:/temp/dataset/0/7_12.odb,Step-1,Increment      1: Step Time =    1.000,"PART-1-1",           201,       5.45774,      -23.9133,            0.,NA,NA,"",   74.7985E-03,  -73.5733E-03,  -13.4828E-03,   8.34890E-03
C:/temp/dataset/0/7_12.odb,Step-1,Increment      1: Step Time =    1.000,"PART-1-1",           202,      -6.69209,       24.9820,            0.,NA,NA,"",   485.746E-03,  -485.618E-03,   11.1436E-03,   829.653E-06
C:/temp/dataset/0/7_12.odb,Step-1,Increment      1: Step Time =    1.000,"PART-1-1",           203,      -12.3718,      -14.6182,            0.,NA,NA,"",   94.8257E-03,  -91.6044E-03,  -24.5059E-03,   1.28594E-03
C:/temp/dataset/0/7_12.odb,Step-1,Increment      1: Step Time =    1.000,"PART-1-1",           204,      -5.91076,      -27.0963,            0.,NA,NA,"",   21.4433E-03,  -21.4425E-03,  -186.795E-06,   4.95570E-03
C:/temp/dataset/0/7_12.odb,Step-1,Increment      1: Step Time =    1.000,"PART-1-1",           205,      -9.09285,      -26.5479,            0.,NA,NA,"",   20.6658E-03,  -20.6076E-03,  -1.54920E-03,   3.62512E-03
C:/temp/dataset/0/7_12.odb,Step-1,Increment      1: Step Time =    1.000,"PART-1-1",           206,      -12.2958,       24.3839,            0.,NA,NA,"",   482.774E-03,  -481.838E-03,  -30.0459E-03,   914.784E-06
C:/temp/dataset/0/7_12.odb,Step-1,Increment      1: Step Time =    1.000,"PART-1-1",           207,      -12.3670,       18.5668,            0.,NA,NA,"",   440.167E-03,  -438.863E-03,  -33.8582E-03,   736.863E-06
C:/temp/dataset/0/7_12.odb,Step-1,Increment      1: Step Time =    1.000,"PART-1-1",           208,      -12.3673,       12.5421,            0.,NA,NA,"",   381.543E-03,  -379.790E-03,  -36.5336E-03,   588.697E-06
C:/temp/dataset/0/7_12.odb,Step-1,Increment      1: Step Time =    1.000,"PART-1-1",           209,      -12.4084,       3.45294,            0.,NA,NA,"",   279.843E-03,  -277.360E-03,  -37.2015E-03,   464.260E-06
C:/temp/dataset/0/7_12.odb,Step-1,Increment      1: Step Time =    1.000,"PART-1-1",           210,      -12.4043,      -5.59421,            0.,NA,NA,"",   178.917E-03,  -175.838E-03,  -33.0497E-03,   824.381E-06
C:/temp/dataset/0/7_12.odb,Step-1,Increment      1: Step Time =    1.000,"PART-1-1",           211,      -12.3838,       9.50768,            0.,NA,NA,"",   348.580E-03,  -346.582E-03,  -37.2714E-03,   490.364E-06
C:/temp/dataset/0/7_12.odb,Step-1,Increment      1: Step Time =    1.000,"PART-1-1",           212,      -12.4013,       6.47621,            0.,NA,NA,"",   314.451E-03,  -312.203E-03,  -37.5359E-03,   438.562E-06
C:/temp/dataset/0/7_12.odb,Step-1,Increment      1: Step Time =    1.000,"PART-1-1",           213,      -12.4173,   428.232E-03,            0.,NA,NA,"",   245.271E-03,  -242.555E-03,  -36.3998E-03,   552.765E-06
C:/temp/dataset/0/7_12.odb,Step-1,Increment      1: Step Time =    1.000,"PART-1-1",           214,      -12.4160,      -2.58791,            0.,NA,NA,"",   211.429E-03,  -208.510E-03,  -35.0083E-03,   679.734E-06
C:/temp/dataset/0/7_12.odb,Step-1,Increment      1: Step Time =    1.000,"PART-1-1",           215,      -12.4014,      -8.61211,            0.,NA,NA,"",   148.144E-03,  -144.924E-03,  -30.7163E-03,   978.690E-06
C:/temp/dataset/0/7_12.odb,Step-1,Increment      1: Step Time =    1.000,"PART-1-1",           216,      -12.3969,      -11.6247,            0.,NA,NA,"",   119.883E-03,  -116.588E-03,  -27.9122E-03,   1.13567E-03
C:/temp/dataset/0/7_12.odb,Step-1,Increment      1: Step Time =    1.000,"PART-1-1",           217,      -12.3009,      -17.6498,            0.,NA,NA,"",   73.0156E-03,  -70.1372E-03,  -20.2988E-03,   1.42225E-03
C:/temp/dataset/0/7_12.odb,Step-1,Increment      1: Step Time =    1.000,"PART-1-1",           218,      -11.9370,      -20.9397,            0.,NA,NA,"",   52.8031E-03,  -50.8800E-03,  -14.1205E-03,   1.37177E-03
C:/temp/dataset/0/7_12.odb,Step-1,Increment      1: Step Time =    1.000,"PART-1-1",           219,       6.28266,      -26.4725,            0.,NA,NA,"",   38.7577E-03,  -38.1205E-03,  -6.99904E-03,   7.64796E-03
C:/temp/dataset/0/7_12.odb,Step-1,Increment      1: Step Time =    1.000,"PART-1-1",           220,      -12.3616,       21.4963,            0.,NA,NA,"",   463.317E-03,  -462.213E-03,  -31.9652E-03,   817.704E-06
C:/temp/dataset/0/7_12.odb,Step-1,Increment      1: Step Time =    1.000,"PART-1-1",           221,       9.42071,      -27.3229,            0.,NA,NA,"",   27.1470E-03,  -27.0145E-03,   2.67850E-03,   7.10331E-03
C:/temp/dataset/0/7_12.odb,Step-1,Increment      1: Step Time =    1.000,"PART-1-1",           222,      -12.3680,       15.5612,            0.,NA,NA,"",   412.410E-03,  -410.882E-03,  -35.4748E-03,   685.616E-06
C:/temp/dataset/0/7_12.odb,Step-1,Increment      1: Step Time =    1.000,"PART-1-1",           223,      -6.37126,       27.5191,            0.,NA,NA,"",   499.607E-03,  -499.459E-03,   12.1563E-03,   878.597E-06
C:/temp/dataset/0/7_12.odb,Step-1,Increment      1: Step Time =    1.000,"PART-1-1",           224,      -7.37426,       13.4489,            0.,NA,NA,"",   389.395E-03,  -389.198E-03,   12.3911E-03,   921.667E-06
C:/temp/dataset/0/7_12.odb,Step-1,Increment      1: Step Time =    1.000,"PART-1-1",           225,      -7.40401,       7.31385,            0.,NA,NA,"",   322.069E-03,  -321.685E-03,   15.7209E-03,   560.747E-06
C:/temp/dataset/0/7_12.odb,Step-1,Increment      1: Step Time =    1.000,"PART-1-1",           226,      -7.40102,      -1.84560,            0.,NA,NA,"",   217.429E-03,  -216.754E-03,   17.1211E-03,   459.177E-06
C:/temp/dataset/0/7_12.odb,Step-1,Increment      1: Step Time =    1.000,"PART-1-1",           227,      -7.36253,      -10.9851,            0.,NA,NA,"",   122.998E-03,  -122.211E-03,   13.8882E-03,   904.123E-06
C:/temp/dataset/0/7_12.odb,Step-1,Increment      1: Step Time =    1.000,"PART-1-1",           228,      -7.39657,       10.3769,            0.,NA,NA,"",   356.367E-03,  -356.081E-03,   14.2769E-03,   706.926E-06
C:/temp/dataset/0/7_12.odb,Step-1,Increment      1: Step Time =    1.000,"PART-1-1",           229,      -7.41369,       4.25226,            0.,NA,NA,"",   287.011E-03,  -286.530E-03,   16.6142E-03,   452.532E-06
C:/temp/dataset/0/7_12.odb,Step-1,Increment      1: Step Time =    1.000,"PART-1-1",           230,      -7.41413,       1.19777,            0.,NA,NA,"",   251.904E-03,  -251.325E-03,   17.0659E-03,   413.228E-06
C:/temp/dataset/0/7_12.odb,Step-1,Increment      1: Step Time =    1.000,"PART-1-1",           231,      -7.39700,      -4.89906,            0.,NA,NA,"",   183.949E-03,  -183.205E-03,   16.5252E-03,   572.918E-06
C:/temp/dataset/0/7_12.odb,Step-1,Increment      1: Step Time =    1.000,"PART-1-1",           232,      -7.39133,      -7.95434,            0.,NA,NA,"",   152.183E-03,  -151.404E-03,   15.3754E-03,   727.039E-06
C:/temp/dataset/0/7_12.odb,Step-1,Increment      1: Step Time =    1.000,"PART-1-1",           233,      -7.32483,      -13.9963,            0.,NA,NA,"",   96.7897E-03,  -96.0651E-03,   11.8217E-03,   1.14649E-03
C:/temp/dataset/0/7_12.odb,Step-1,Increment      1: Step Time =    1.000,"PART-1-1",           234,      -9.29453,       27.3932,            0.,NA,NA,"",   500.291E-03,  -500.233E-03,  -7.64009E-03,   926.054E-06
C:/temp/dataset/0/7_12.odb,Step-1,Increment      1: Step Time =    1.000,"PART-1-1",           235,      -9.79647,       16.0793,            0.,NA,NA,"",   416.716E-03,  -416.545E-03,  -11.9133E-03,   629.923E-06
C:/temp/dataset/0/7_12.odb,Step-1,Increment      1: Step Time =    1.000,"PART-1-1",           236,      -10.5694,      -24.3397,            0.,NA,NA,"",   32.9191E-03,  -32.4994E-03,  -5.24011E-03,   1.97473E-03
C:/temp/dataset/0/7_12.odb,Step-1,Increment      1: Step Time =    1.000,"PART-1-1",           237,      -9.80814,      -14.2636,            0.,NA,NA,"",   93.6973E-03,  -93.4884E-03,  -6.25395E-03,   581.225E-06
C:/temp/dataset/0/7_12.odb,Step-1,Increment      1: Step Time =    1.000,"PART-1-1",           238,      -9.84607,      -11.2856,            0.,NA,NA,"",   119.225E-03,  -119.019E-03,  -7.01006E-03,   569.209E-06
C:/temp/dataset/0/7_12.odb,Step-1,Increment      1: Step Time =    1.000,"PART-1-1",           239,      -9.85160,       9.96190,            0.,NA,NA,"",   351.961E-03,  -351.789E-03,  -10.9981E-03,   585.625E-06
C:/temp/dataset/0/7_12.odb,Step-1,Increment      1: Step Time =    1.000,"PART-1-1",           240,      -9.42013,      -19.6871,            0.,NA,NA,"",   56.9715E-03,  -56.9158E-03,  -2.51851E-03,   388.783E-06
C:/temp/dataset/0/7_12.odb,Step-1,Increment      1: Step Time =    1.000,"PART-1-1",           241,      -9.87385,       6.90801,            0.,NA,NA,"",   317.390E-03,  -317.215E-03,  -10.5532E-03,   578.832E-06
C:/temp/dataset/0/7_12.odb,Step-1,Increment      1: Step Time =    1.000,"PART-1-1",           242,      -9.72088,      -17.1529,            0.,NA,NA,"",   72.3094E-03,  -72.1402E-03,  -4.94441E-03,   680.006E-06
C:/temp/dataset/0/7_12.odb,Step-1,Increment      1: Step Time =    1.000,"PART-1-1",           243,      -7.24385,      -16.9197,            0.,NA,NA,"",   74.5482E-03,  -73.9047E-03,   9.77384E-03,   1.53976E-03
C:/temp/dataset/0/7_12.odb,Step-1,Increment      1: Step Time =    1.000,"PART-1-1",           244,      -9.88569,       3.86363,            0.,NA,NA,"",   282.258E-03,  -282.080E-03,  -10.0353E-03,   576.851E-06
C:/temp/dataset/0/7_12.odb,Step-1,Increment      1: Step Time =    1.000,"PART-1-1",           245,      -9.88680,   826.149E-03,            0.,NA,NA,"",   247.167E-03,  -246.987E-03,  -9.43586E-03,   574.627E-06
C:/temp/dataset/0/7_12.odb,Step-1,Increment      1: Step Time =    1.000,"PART-1-1",           246,      -9.87953,      -2.20322,            0.,NA,NA,"",   212.750E-03,  -212.569E-03,  -8.78190E-03,   572.142E-06
C:/temp/dataset/0/7_12.odb,Step-1,Increment      1: Step Time =    1.000,"PART-1-1",           247,      -9.87339,      -5.23467,            0.,NA,NA,"",   179.513E-03,  -179.326E-03,  -8.18426E-03,   569.170E-06
C:/temp/dataset/0/7_12.odb,Step-1,Increment      1: Step Time =    1.000,"PART-1-1",           248,      -9.87035,      -8.27303,            0.,NA,NA,"",   148.029E-03,  -147.831E-03,  -7.67072E-03,   566.455E-06
C:/temp/dataset/0/7_12.odb,Step-1,Increment      1: Step Time =    1.000,"PART-1-1",           249,      -12.1942,       27.2250,            0.,NA,NA,"",   500.583E-03,  -499.757E-03,  -28.7409E-03,   687.687E-06
C:/temp/dataset/0/7_12.odb,Step-1,Increment      1: Step Time =    1.000,"PART-1-1",           250,      -12.1946,      -27.0241,            0.,NA,NA,"",   18.2532E-03,  -17.1523E-03,  -6.24319E-03,   3.89917E-03
C:/temp/dataset/0/7_12.odb,Step-1,Increment      1: Step Time =    1.000,"PART-1-1",           251,      -9.83578,       13.0151,            0.,NA,NA,"",   385.249E-03,  -385.074E-03,  -11.5918E-03,   581.654E-06
C:/temp/dataset/0/7_12.odb,Step-1,Increment      1: Step Time =    1.000,"PART-1-1",           252,      -12.4960,      -24.1891,            0.,NA,NA,"",   35.7719E-03,  -33.7292E-03,  -11.9151E-03,   2.30482E-03
C:/temp/dataset/0/7_12.odb,Step-1,Increment      1: Step Time =    1.000,"PART-1-1",           253,      -7.26398,       19.6069,            0.,NA,NA,"",   450.091E-03,  -450.009E-03,   8.55289E-03,   1.08491E-03
C:/temp/dataset/0/7_12.odb,Step-1,Increment      1: Step Time =    1.000,"PART-1-1",           254,      -9.78845,      -22.6320,            0.,NA,NA,"",   42.0609E-03,  -41.9192E-03,  -3.44936E-03,   1.21288E-03
C:/temp/dataset/0/7_12.odb,Step-1,Increment      1: Step Time =    1.000,"PART-1-1",           255,       8.11622,      -24.1302,            0.,NA,NA,"",   77.8757E-03,  -77.8757E-03,  -72.3475E-06,   8.96543E-03
C:/temp/dataset/0/7_12.odb,Step-1,Increment      1: Step Time =    1.000,"PART-1-1",           256,       10.7040,      -22.7860,            0.,NA,NA,"",   125.134E-03,  -122.240E-03,   26.7566E-03,   13.2896E-03
C:/temp/dataset/0/7_12.odb,Step-1,Increment      1: Step Time =    1.000,"PART-1-1",           257,      -8.82647,      -21.3553,            0.,NA,NA,"",   48.7054E-03,  -48.7052E-03,   147.716E-06,   710.706E-06
C:/temp/dataset/0/7_12.odb,Step-1,Increment      1: Step Time =    1.000,"PART-1-1",           258,      -9.77631,       19.1047,            0.,NA,NA,"",   444.743E-03,  -444.585E-03,  -11.8390E-03,   464.147E-06
C:/temp/dataset/0/7_12.odb,Step-1,Increment      1: Step Time =    1.000,"PART-1-1",           259,      -7.77355,      -23.8785,            0.,NA,NA,"",   37.7994E-03,  -37.7730E-03,   1.41426E-03,   2.95994E-03
C:/temp/dataset/0/7_12.odb,Step-1,Increment      1: Step Time =    1.000,"PART-1-1",           260,  -536.979E-03,      -24.7394,            0.,NA,NA,"",   51.1123E-03,  -50.8594E-03,  -5.07892E-03,   7.40368E-03
C:/temp/dataset/0/7_12.odb,Step-1,Increment      1: Step Time =    1.000,"PART-1-1",           261,      -9.52558,       24.7102,            0.,NA,NA,"",   484.340E-03,  -484.256E-03,  -8.99837E-03,   1.02056E-03
C:/temp/dataset/0/7_12.odb,Step-1,Increment      1: Step Time =    1.000,"PART-1-1",           262,      -2.15050,       21.2402,            0.,NA,NA,"",   469.190E-03,  -467.919E-03,   34.5233E-03,   1.68073E-03
C:/temp/dataset/0/7_12.odb,Step-1,Increment      1: Step Time =    1.000,"PART-1-1",           263,      -3.09708,       22.5364,            0.,NA,NA,"",   473.864E-03,  -472.817E-03,   31.4857E-03,   932.062E-06
C:/temp/dataset/0/7_12.odb,Step-1,Increment      1: Step Time =    1.000,"PART-1-1",           264,      -4.69657,       21.2962,            0.,NA,NA,"",   465.482E-03,  -464.804E-03,   25.1290E-03,   2.10159E-03
C:/temp/dataset/0/7_12.odb,Step-1,Increment      1: Step Time =    1.000,"PART-1-1",           265,         -3.75,           20.,            0.,NA,NA,"",   460.387E-03,  -459.561E-03,   27.5735E-03,   3.01060E-03
C:/temp/dataset/0/7_12.odb,Step-1,Increment      1: Step Time =    1.000,"PART-1-1",           266,      -4.10052,       23.8735,            0.,NA,NA,"",   480.128E-03,  -479.394E-03,   26.5345E-03,   573.822E-06
C:/temp/dataset/0/7_12.odb,Step-1,Increment      1: Step Time =    1.000,"PART-1-1",           267,      -5.24999,       25.0683,            0.,NA,NA,"",   486.140E-03,  -485.731E-03,   19.9247E-03,   533.480E-06
C:/temp/dataset/0/7_12.odb,Step-1,Increment      1: Step Time =    1.000,"PART-1-1",           268,      -6.84155,       23.6782,            0.,NA,NA,"",   478.391E-03,  -478.274E-03,   10.5750E-03,   866.521E-06
C:/temp/dataset/0/7_12.odb,Step-1,Increment      1: Step Time =    1.000,"PART-1-1",           269,      -5.69208,       22.4834,            0.,NA,NA,"",   471.845E-03,  -471.476E-03,   18.6503E-03,   821.768E-06
C:/temp/dataset/0/7_12.odb,Step-1,Increment      1: Step Time =    1.000,"PART-1-1",           270,      -7.35192,       14.9896,            0.,NA,NA,"",   405.374E-03,  -405.214E-03,   11.3869E-03,   1.00361E-03
C:/temp/dataset/0/7_12.odb,Step-1,Increment      1: Step Time =    1.000,"PART-1-1",           271,      -8.56303,       16.3048,            0.,NA,NA,"",   418.688E-03,  -418.687E-03,  -821.805E-06,   872.716E-06
C:/temp/dataset/0/7_12.odb,Step-1,Increment      1: Step Time =    1.000,"PART-1-1",           272,      -9.81613,       14.5472,            0.,NA,NA,"",   401.218E-03,  -401.046E-03,  -11.7558E-03,   601.893E-06
C:/temp/dataset/0/7_12.odb,Step-1,Increment      1: Step Time =    1.000,"PART-1-1",           273,      -8.60502,       13.2320,            0.,NA,NA,"",   387.210E-03,  -387.209E-03,   405.129E-06,   706.662E-06
C:/temp/dataset/0/7_12.odb,Step-1,Increment      1: Step Time =    1.000,"PART-1-1",           274,          -15.,         -16.5,            0.,NA,NA,"",   89.4782E-03,  -80.0361E-03,  -40.0071E-03,   2.40547E-03
C:/temp/dataset/0/7_12.odb,Step-1,Increment      1: Step Time =    1.000,"PART-1-1",           275,      -13.6504,      -17.8249,            0.,NA,NA,"",   75.6467E-03,  -70.0524E-03,  -28.5496E-03,   1.91310E-03
C:/temp/dataset/0/7_12.odb,Step-1,Increment      1: Step Time =    1.000,"PART-1-1",           276,      -12.3363,      -16.1340,            0.,NA,NA,"",   83.4308E-03,  -80.3536E-03,  -22.4498E-03,   1.35130E-03
C:/temp/dataset/0/7_12.odb,Step-1,Increment      1: Step Time =    1.000,"PART-1-1",           277,      -13.6859,      -14.8091,            0.,NA,NA,"",   97.1183E-03,  -91.0182E-03,  -33.8772E-03,   1.81042E-03
C:/temp/dataset/0/7_12.odb,Step-1,Increment      1: Step Time =    1.000,"PART-1-1",           278,      -4.46540,      -27.1831,            0.,NA,NA,"",   23.1927E-03,  -23.1844E-03,  -621.736E-06,   5.58802E-03
C:/temp/dataset/0/7_12.odb,Step-1,Increment      1: Step Time =    1.000,"PART-1-1",           279,      -2.97305,      -25.9670,            0.,NA,NA,"",   35.3920E-03,  -35.3706E-03,  -1.23188E-03,   6.21102E-03
C:/temp/dataset/0/7_12.odb,Step-1,Increment      1: Step Time =    1.000,"PART-1-1",           280,      -4.19392,      -24.5512,            0.,NA,NA,"",   42.2783E-03,  -42.2490E-03,   1.57422E-03,   5.58457E-03
C:/temp/dataset/0/7_12.odb,Step-1,Increment      1: Step Time =    1.000,"PART-1-1",           281,      -5.68627,      -25.7673,            0.,NA,NA,"",   30.9152E-03,  -30.9035E-03,   849.026E-06,   4.85642E-03
C:/temp/dataset/0/7_12.odb,Step-1,Increment      1: Step Time =    1.000,"PART-1-1",           282,      -5.28634,      -23.2314,            0.,NA,NA,"",   46.8702E-03,  -46.6571E-03,   4.46478E-03,   4.59983E-03
C:/temp/dataset/0/7_12.odb,Step-1,Increment      1: Step Time =    1.000,"PART-1-1",           283,      -2.80857,      -23.4296,            0.,NA,NA,"",   52.9870E-03,  -52.9743E-03,   1.16300E-03,   5.74404E-03
C:/temp/dataset/0/7_12.odb,Step-1,Increment      1: Step Time =    1.000,"PART-1-1",           284,      -3.90099,      -22.1098,            0.,NA,NA,"",   55.8707E-03,  -55.5876E-03,   5.61735E-03,   4.87115E-03
C:/temp/dataset/0/7_12.odb,Step-1,Increment      1: Step Time =    1.000,"PART-1-1",           285,       1.61260,      -23.5545,            0.,NA,NA,"",   68.6590E-03,  -67.8673E-03,  -10.3965E-03,   9.28378E-03
C:/temp/dataset/0/7_12.odb,Step-1,Increment      1: Step Time =    1.000,"PART-1-1",           286,       2.09558,      -25.4897,            0.,NA,NA,"",   49.5746E-03,  -48.5034E-03,  -10.2498E-03,   8.85280E-03
C:/temp/dataset/0/7_12.odb,Step-1,Increment      1: Step Time =    1.000,"PART-1-1",           287,       3.30955,      -24.8521,            0.,NA,NA,"",   58.8436E-03,  -57.4211E-03,  -12.8606E-03,   9.41314E-03
C:/temp/dataset/0/7_12.odb,Step-1,Increment      1: Step Time =    1.000,"PART-1-1",           288,       2.82657,      -22.9168,            0.,NA,NA,"",   80.6815E-03,  -79.2906E-03,  -14.9166E-03,   9.92147E-03
C:/temp/dataset/0/7_12.odb,Step-1,Increment      1: Step Time =    1.000,"PART-1-1",           289,       13.8857,      -20.1351,            0.,NA,NA,"",   247.020E-03,  -228.605E-03,   93.5879E-03,   13.0465E-03
C:/temp/dataset/0/7_12.odb,Step-1,Increment      1: Step Time =    1.000,"PART-1-1",           290,           15.,        -18.75,            0.,NA,NA,"",   299.051E-03,  -273.167E-03,   121.703E-03,   10.4429E-03
C:/temp/dataset/0/7_12.odb,Step-1,Increment      1: Step Time =    1.000,"PART-1-1",           291,       13.8316,      -17.6482,            0.,NA,NA,"",   302.848E-03,  -285.034E-03,   102.334E-03,   11.3945E-03
C:/temp/dataset/0/7_12.odb,Step-1,Increment      1: Step Time =    1.000,"PART-1-1",           292,       12.7173,      -19.0333,            0.,NA,NA,"",   256.196E-03,  -243.729E-03,   78.9465E-03,   13.4246E-03
C:/temp/dataset/0/7_12.odb,Step-1,Increment      1: Step Time =    1.000,"PART-1-1",           293,       13.7508,      -12.5905,            0.,NA,NA,"",   349.564E-03,  -334.100E-03,   102.824E-03,   2.61009E-03
C:/temp/dataset/0/7_12.odb,Step-1,Increment      1: Step Time =    1.000,"PART-1-1",           294,           15.,        -11.25,            0.,NA,NA,"",   364.494E-03,  -346.600E-03,   112.804E-03,   2.15586E-03
C:/temp/dataset/0/7_12.odb,Step-1,Increment      1: Step Time =    1.000,"PART-1-1",           295,       13.7881,      -10.0330,            0.,NA,NA,"",   373.271E-03,  -360.076E-03,   98.3714E-03,   2.20978E-03
C:/temp/dataset/0/7_12.odb,Step-1,Increment      1: Step Time =    1.000,"PART-1-1",           296,       12.5389,      -11.3735,            0.,NA,NA,"",   358.560E-03,  -347.432E-03,   88.6348E-03,   2.07767E-03
C:/temp/dataset/0/7_12.odb,Step-1,Increment      1: Step Time =    1.000,"PART-1-1",           297,       11.3345,      -10.0200,            0.,NA,NA,"",   369.627E-03,  -362.141E-03,   74.0150E-03,   1.29868E-03
C:/temp/dataset/0/7_12.odb,Step-1,Increment      1: Step Time =    1.000,"PART-1-1",           298,       10.0449,      -11.4123,            0.,NA,NA,"",   353.411E-03,  -348.124E-03,   60.9061E-03,   806.145E-06
C:/temp/dataset/0/7_12.odb,Step-1,Increment      1: Step Time =    1.000,"PART-1-1",           299,       11.2492,      -12.7658,            0.,NA,NA,"",   341.796E-03,  -333.156E-03,   76.3668E-03,   1.64453E-03
C:/temp/dataset/0/7_12.odb,Step-1,Increment      1: Step Time =    1.000,"PART-1-1",           300,       9.32361,      -6.65743,            0.,NA,NA,"",   396.459E-03,  -392.902E-03,   52.9868E-03,   694.884E-06
C:/temp/dataset/0/7_12.odb,Step-1,Increment      1: Step Time =    1.000,"PART-1-1",           301,       10.9574,      -6.33595,            0.,NA,NA,"",   400.988E-03,  -395.303E-03,   67.2871E-03,   752.700E-06
C:/temp/dataset/0/7_12.odb,Step-1,Increment      1: Step Time =    1.000,"PART-1-1",           302,       10.9595,      -4.69463,            0.,NA,NA,"",   412.914E-03,  -407.528E-03,   66.4705E-03,   677.080E-06
C:/temp/dataset/0/7_12.odb,Step-1,Increment      1: Step Time =    1.000,"PART-1-1",           303,       9.32578,      -5.01612,            0.,NA,NA,"",   408.823E-03,  -405.292E-03,   53.6176E-03,   748.910E-06
C:/temp/dataset/0/7_12.odb,Step-1,Increment      1: Step Time =    1.000,"PART-1-1",           304,       12.9351,      -4.11714,            0.,NA,NA,"",   418.514E-03,  -410.645E-03,   80.7747E-03,   1.51866E-03
C:/temp/dataset/0/7_12.odb,Step-1,Increment      1: Step Time =    1.000,"PART-1-1",           305,       11.6846,      -3.48758,            0.,NA,NA,"",   421.478E-03,  -415.430E-03,   71.1461E-03,   897.205E-06
C:/temp/dataset/0/7_12.odb,Step-1,Increment      1: Step Time =    1.000,"PART-1-1",           306,       12.2101,      -5.32419,            0.,NA,NA,"",   409.775E-03,  -402.521E-03,   76.7625E-03,   1.22752E-03
C:/temp/dataset/0/7_12.odb,Step-1,Increment      1: Step Time =    1.000,"PART-1-1",           307,       9.86769,  -155.410E-03,            0.,NA,NA,"",   438.262E-03,  -434.313E-03,   58.6974E-03,   591.752E-06
C:/temp/dataset/0/7_12.odb,Step-1,Increment      1: Step Time =    1.000,"PART-1-1",           308,       8.53089,   901.975E-03,            0.,NA,NA,"",   441.956E-03,  -438.899E-03,   51.8912E-03,   935.837E-06
C:/temp/dataset/0/7_12.odb,Step-1,Increment      1: Step Time =    1.000,"PART-1-1",           309,       7.40884,      -1.02539,            0.,NA,NA,"",   431.228E-03,  -428.996E-03,   43.8101E-03,   1.46823E-03
C:/temp/dataset/0/7_12.odb,Step-1,Increment      1: Step Time =    1.000,"PART-1-1",           310,       8.74564,      -2.08278,            0.,NA,NA,"",   426.951E-03,  -423.890E-03,   51.0377E-03,   948.280E-06
C:/temp/dataset/0/7_12.odb,Step-1,Increment      1: Step Time =    1.000,"PART-1-1",           311,       9.64302,       5.60069,            0.,NA,NA,"",   459.855E-03,  -456.065E-03,   58.9196E-03,   612.553E-06
C:/temp/dataset/0/7_12.odb,Step-1,Increment      1: Step Time =    1.000,"PART-1-1",           312,       10.9412,       4.35663,            0.,NA,NA,"",   456.839E-03,  -452.356E-03,   63.8424E-03,   530.665E-06
C:/temp/dataset/0/7_12.odb,Step-1,Increment      1: Step Time =    1.000,"PART-1-1",           313,       12.2262,       5.93259,            0.,NA,NA,"",   461.894E-03,  -456.846E-03,   68.0992E-03,   710.144E-06
C:/temp/dataset/0/7_12.odb,Step-1,Increment      1: Step Time =    1.000,"PART-1-1",           314,       10.9280,       7.17665,            0.,NA,NA,"",   464.580E-03,  -460.230E-03,   63.4276E-03,   513.853E-06
C:/temp/dataset/0/7_12.odb,Step-1,Increment      1: Step Time =    1.000,"PART-1-1",           315,       13.6103,       7.39232,            0.,NA,NA,"",   465.702E-03,  -460.181E-03,   71.4975E-03,   880.121E-06
C:/temp/dataset/0/7_12.odb,Step-1,Increment      1: Step Time =    1.000,"PART-1-1",           316,           15.,          8.75,            0.,NA,NA,"",   468.526E-03,  -462.680E-03,   73.7867E-03,   1.06572E-03
C:/temp/dataset/0/7_12.odb,Step-1,Increment      1: Step Time =    1.000,"PART-1-1",           317,       13.6268,       9.99700,            0.,NA,NA,"",   470.882E-03,  -465.677E-03,   69.8186E-03,   664.777E-06
C:/temp/dataset/0/7_12.odb,Step-1,Increment      1: Step Time =    1.000,"PART-1-1",           318,       12.2370,       8.63932,            0.,NA,NA,"",   468.164E-03,  -463.348E-03,   66.9806E-03,   606.271E-06
C:/temp/dataset/0/7_12.odb,Step-1,Increment      1: Step Time =    1.000,"PART-1-1",           319,       13.8144,       17.6522,            0.,NA,NA,"",   480.888E-03,  -476.022E-03,   68.2349E-03,   203.621E-06
C:/temp/dataset/0/7_12.odb,Step-1,Increment      1: Step Time =    1.000,"PART-1-1",           320,           15.,         18.75,            0.,NA,NA,"",   482.518E-03,  -477.418E-03,   69.9647E-03,   172.822E-06
C:/temp/dataset/0/7_12.odb,Step-1,Increment      1: Step Time =    1.000,"PART-1-1",           321,       13.8887,       20.1095,            0.,NA,NA,"",   483.967E-03,  -479.070E-03,   68.6753E-03,   258.906E-06
C:/temp/dataset/0/7_12.odb,Step-1,Increment      1: Step Time =    1.000,"PART-1-1",           322,       12.7031,       19.0116,            0.,NA,NA,"",   482.174E-03,  -477.543E-03,   66.6681E-03,   301.291E-06
C:/temp/dataset/0/7_12.odb,Step-1,Increment      1: Step Time =    1.000,"PART-1-1",           323,       11.4255,       18.0142,            0.,NA,NA,"",   480.579E-03,  -476.244E-03,   64.4068E-03,   447.559E-06
C:/temp/dataset/0/7_12.odb,Step-1,Increment      1: Step Time =    1.000,"PART-1-1",           324,       11.6322,       20.3693,            0.,NA,NA,"",   483.506E-03,  -479.090E-03,   65.1956E-03,   343.021E-06
C:/temp/dataset/0/7_12.odb,Step-1,Increment      1: Step Time =    1.000,"PART-1-1",           325,       10.3546,       19.3719,            0.,NA,NA,"",   481.683E-03,  -477.566E-03,   62.8421E-03,   465.595E-06
C:/temp/dataset/0/7_12.odb,Step-1,Increment      1: Step Time =    1.000,"PART-1-1",           326,       10.9394,       26.3107,            0.,NA,NA,"",   493.592E-03,  -489.260E-03,   65.2557E-03,   305.927E-06
C:/temp/dataset/0/7_12.odb,Step-1,Increment      1: Step Time =    1.000,"PART-1-1",           327,       11.9108,       25.0855,            0.,NA,NA,"",   491.474E-03,  -486.941E-03,   66.6005E-03,   294.317E-06
C:/temp/dataset/0/7_12.odb,Step-1,Increment      1: Step Time =    1.000,"PART-1-1",           328,       13.0011,       26.2585,            0.,NA,NA,"",   493.979E-03,  -489.217E-03,   68.4232E-03,   202.545E-06
C:/temp/dataset/0/7_12.odb,Step-1,Increment      1: Step Time =    1.000,"PART-1-1",           329,       12.0296,       27.4837,            0.,NA,NA,"",   496.046E-03,  -491.506E-03,   66.9632E-03,   221.402E-06
C:/temp/dataset/0/7_12.odb,Step-1,Increment      1: Step Time =    1.000,"PART-1-1",           330,       14.0179,       27.4887,            0.,NA,NA,"",   496.500E-03,  -491.515E-03,   70.1773E-03,   90.6656E-06
C:/temp/dataset/0/7_12.odb,Step-1,Increment      1: Step Time =    1.000,"PART-1-1",           331,       13.9832,       25.0198,            0.,NA,NA,"",   491.976E-03,  -486.990E-03,   69.8671E-03,   210.419E-06
C:/temp/dataset/0/7_12.odb,Step-1,Increment      1: Step Time =    1.000,"PART-1-1",           332,           15.,         26.25,            0.,NA,NA,"",   494.541E-03,  -489.302E-03,   71.7960E-03,   123.897E-06
C:/temp/dataset/0/7_12.odb,Step-1,Increment      1: Step Time =    1.000,"PART-1-1",           333,       3.55377,       20.8403,            0.,NA,NA,"",   477.384E-03,  -474.555E-03,   51.8937E-03,   1.38535E-03
C:/temp/dataset/0/7_12.odb,Step-1,Increment      1: Step Time =    1.000,"PART-1-1",           334,       4.16667,           20.,            0.,NA,NA,"",   476.583E-03,  -473.639E-03,   52.8924E-03,   1.96009E-03
C:/temp/dataset/0/7_12.odb,Step-1,Increment      1: Step Time =    1.000,"PART-1-1",           335,       5.33068,       20.7523,            0.,NA,NA,"",   479.459E-03,  -476.229E-03,   55.5564E-03,   1.14607E-03
C:/temp/dataset/0/7_12.odb,Step-1,Increment      1: Step Time =    1.000,"PART-1-1",           336,       4.71778,       21.5926,            0.,NA,NA,"",   480.415E-03,  -477.285E-03,   54.7468E-03,   816.266E-06
C:/temp/dataset/0/7_12.odb,Step-1,Increment      1: Step Time =    1.000,"PART-1-1",           337,       1.85672,       20.8541,            0.,NA,NA,"",   474.648E-03,  -472.291E-03,   47.2367E-03,   1.49506E-03
C:/temp/dataset/0/7_12.odb,Step-1,Increment      1: Step Time =    1.000,"PART-1-1",           338,           2.5,           20.,            0.,NA,NA,"",   473.245E-03,  -470.762E-03,   48.4128E-03,   1.77852E-03
C:/temp/dataset/0/7_12.odb,Step-1,Increment      1: Step Time =    1.000,"PART-1-1",           339,       2.91049,       21.6945,            0.,NA,NA,"",   478.625E-03,  -475.939E-03,   50.6322E-03,   1.09495E-03
C:/temp/dataset/0/7_12.odb,Step-1,Increment      1: Step Time =    1.000,"PART-1-1",           340,       1.32465,      -26.7993,            0.,NA,NA,"",   34.9094E-03,  -34.2310E-03,  -6.84891E-03,   7.91529E-03
C:/temp/dataset/0/7_12.odb,Step-1,Increment      1: Step Time =    1.000,"PART-1-1",           341,   399.133E-03,      -24.6509,            0.,NA,NA,"",   54.4040E-03,  -53.9043E-03,  -7.35715E-03,   8.43986E-03
C:/temp/dataset/0/7_12.odb,Step-1,Increment      1: Step Time =    1.000,"PART-1-1",           342,  -371.796E-03,      -25.9605,            0.,NA,NA,"",   40.7937E-03,  -40.4617E-03,  -5.19361E-03,   7.45568E-03
C:/temp/dataset/0/7_12.odb,Step-1,Increment      1: Step Time =    1.000,"PART-1-1",           343,       7.16814,       28.8250,            0.,NA,NA,"",   498.522E-03,  -494.984E-03,   59.2826E-03,   489.285E-06
C:/temp/dataset/0/7_12.odb,Step-1,Increment      1: Step Time =    1.000,"PART-1-1",           344,       7.90869,       27.6030,            0.,NA,NA,"",   495.889E-03,  -492.164E-03,   60.6667E-03,   464.055E-06
C:/temp/dataset/0/7_12.odb,Step-1,Increment      1: Step Time =    1.000,"PART-1-1",           345,       9.17805,       28.7779,            0.,NA,NA,"",   498.205E-03,  -494.265E-03,   62.5309E-03,   317.054E-06
C:/temp/dataset/0/7_12.odb,Step-1,Increment      1: Step Time =    1.000,"PART-1-1",           346,        8.4375,           30.,            0.,NA,NA,"",   500.412E-03,  -496.660E-03,   61.1610E-03,   444.036E-06
C:/temp/dataset/0/7_12.odb,Step-1,Increment      1: Step Time =    1.000,"PART-1-1",           347,       1.19326,       21.8923,            0.,NA,NA,"",   476.949E-03,  -474.734E-03,   45.9176E-03,   1.22962E-03
C:/temp/dataset/0/7_12.odb,Step-1,Increment      1: Step Time =    1.000,"PART-1-1",           348,   169.882E-03,       21.0382,            0.,NA,NA,"",   472.528E-03,  -470.640E-03,   42.2029E-03,   1.52229E-03
C:/temp/dataset/0/7_12.odb,Step-1,Increment      1: Step Time =    1.000,"PART-1-1",           349,   833.333E-03,           20.,            0.,NA,NA,"",   470.219E-03,  -468.195E-03,   43.5880E-03,   1.76190E-03
C:/temp/dataset/0/7_12.odb,Step-1,Increment      1: Step Time =    1.000,"PART-1-1",           350,       11.0482,       12.7829,            0.,NA,NA,"",   474.605E-03,  -470.348E-03,   63.4248E-03,   504.575E-06
C:/temp/dataset/0/7_12.odb,Step-1,Increment      1: Step Time =    1.000,"PART-1-1",           351,       12.3949,       13.9828,            0.,NA,NA,"",   476.426E-03,  -471.825E-03,   66.0503E-03,   464.338E-06
C:/temp/dataset/0/7_12.odb,Step-1,Increment      1: Step Time =    1.000,"PART-1-1",           352,       11.2086,       15.4830,            0.,NA,NA,"",   477.822E-03,  -473.546E-03,   63.7830E-03,   502.831E-06
C:/temp/dataset/0/7_12.odb,Step-1,Increment      1: Step Time =    1.000,"PART-1-1",           353,       9.86191,       14.2831,            0.,NA,NA,"",   476.096E-03,  -472.160E-03,   61.0927E-03,   580.447E-06
C:/temp/dataset/0/7_12.odb,Step-1,Increment      1: Step Time =    1.000,"PART-1-1",           354,       9.65710,       8.53837,            0.,NA,NA,"",   467.050E-03,  -463.228E-03,   59.6317E-03,   599.187E-06
C:/temp/dataset/0/7_12.odb,Step-1,Increment      1: Step Time =    1.000,"PART-1-1",           355,       8.46627,       10.0105,            0.,NA,NA,"",   469.324E-03,  -465.865E-03,   56.8790E-03,   668.865E-06
C:/temp/dataset/0/7_12.odb,Step-1,Increment      1: Step Time =    1.000,"PART-1-1",           356,       7.24171,       8.43518,            0.,NA,NA,"",   465.411E-03,  -462.413E-03,   52.7441E-03,   934.336E-06
C:/temp/dataset/0/7_12.odb,Step-1,Increment      1: Step Time =    1.000,"PART-1-1",           357,       8.43254,       6.96306,            0.,NA,NA,"",   462.737E-03,  -459.421E-03,   55.3026E-03,   767.787E-06
C:/temp/dataset/0/7_12.odb,Step-1,Increment      1: Step Time =    1.000,"PART-1-1",           358,       13.6558,       2.21224,            0.,NA,NA,"",   450.382E-03,  -443.796E-03,   76.7395E-03,   1.34352E-03
C:/temp/dataset/0/7_12.odb,Step-1,Increment      1: Step Time =    1.000,"PART-1-1",           359,           15.,          3.75,            0.,NA,NA,"",   455.750E-03,  -448.677E-03,   79.9811E-03,   1.69016E-03
C:/temp/dataset/0/7_12.odb,Step-1,Increment      1: Step Time =    1.000,"PART-1-1",           360,       13.6160,       4.79026,            0.,NA,NA,"",   458.960E-03,  -452.991E-03,   73.7787E-03,   1.10448E-03
C:/temp/dataset/0/7_12.odb,Step-1,Increment      1: Step Time =    1.000,"PART-1-1",           361,       12.2717,       3.25251,            0.,NA,NA,"",   453.757E-03,  -448.358E-03,   69.7876E-03,   841.067E-06
C:/temp/dataset/0/7_12.odb,Step-1,Increment      1: Step Time =    1.000,"PART-1-1",           362,       9.69986,       2.68972,            0.,NA,NA,"",   450.327E-03,  -446.518E-03,   58.4497E-03,   615.066E-06
C:/temp/dataset/0/7_12.odb,Step-1,Increment      1: Step Time =    1.000,"PART-1-1",           363,       11.0304,       1.58560,            0.,NA,NA,"",   446.885E-03,  -442.159E-03,   64.8166E-03,   566.904E-06
C:/temp/dataset/0/7_12.odb,Step-1,Increment      1: Step Time =    1.000,"PART-1-1",           364,       7.55861,      -11.4267,            0.,NA,NA,"",   348.030E-03,  -346.733E-03,   30.0169E-03,   2.02346E-03
C:/temp/dataset/0/7_12.odb,Step-1,Increment      1: Step Time =    1.000,"PART-1-1",           365,       6.31268,      -9.90243,            0.,NA,NA,"",   362.146E-03,  -361.678E-03,   18.4124E-03,   3.08115E-03
C:/temp/dataset/0/7_12.odb,Step-1,Increment      1: Step Time =    1.000,"PART-1-1",           366,            5.,      -11.6667,            0.,NA,NA,"",   339.699E-03,  -339.686E-03,  -2.98917E-03,   5.08875E-03
C:/temp/dataset/0/7_12.odb,Step-1,Increment      1: Step Time =    1.000,"PART-1-1",           367,       6.24593,      -13.1909,            0.,NA,NA,"",   322.549E-03,  -322.461E-03,   7.52256E-03,   3.89605E-03
C:/temp/dataset/0/7_12.odb,Step-1,Increment      1: Step Time =    1.000,"PART-1-1",           368,       14.0233,      -5.11850,            0.,NA,NA,"",   412.748E-03,  -402.701E-03,   90.5132E-03,   2.16830E-03
C:/temp/dataset/0/7_12.odb,Step-1,Increment      1: Step Time =    1.000,"PART-1-1",           369,           15.,         -3.75,            0.,NA,NA,"",   421.988E-03,  -411.264E-03,   94.5283E-03,   2.58031E-03
C:/temp/dataset/0/7_12.odb,Step-1,Increment      1: Step Time =    1.000,"PART-1-1",           370,       13.9118,      -2.74864,            0.,NA,NA,"",   427.353E-03,  -418.742E-03,   85.3535E-03,   1.90695E-03
C:/temp/dataset/0/7_12.odb,Step-1,Increment      1: Step Time =    1.000,"PART-1-1",           371,       12.6080,      -16.5365,            0.,NA,NA,"",   305.944E-03,  -292.395E-03,   90.0395E-03,   9.52775E-03
C:/temp/dataset/0/7_12.odb,Step-1,Increment      1: Step Time =    1.000,"PART-1-1",           372,       11.3130,      -15.4489,            0.,NA,NA,"",   309.668E-03,  -300.175E-03,   76.0886E-03,   5.42406E-03
C:/temp/dataset/0/7_12.odb,Step-1,Increment      1: Step Time =    1.000,"PART-1-1",           373,       10.1880,      -16.9099,            0.,NA,NA,"",   273.401E-03,  -267.548E-03,   56.2689E-03,   9.18717E-03
C:/temp/dataset/0/7_12.odb,Step-1,Increment      1: Step Time =    1.000,"PART-1-1",           374,       11.4829,      -17.9975,            0.,NA,NA,"",   263.792E-03,  -254.897E-03,   67.9281E-03,   12.1850E-03
C:/temp/dataset/0/7_12.odb,Step-1,Increment      1: Step Time =    1.000,"PART-1-1",           375,       7.63417,      -21.6752,            0.,NA,NA,"",   124.672E-03,  -124.637E-03,   2.96115E-03,   12.5032E-03
C:/temp/dataset/0/7_12.odb,Step-1,Increment      1: Step Time =    1.000,"PART-1-1",           376,       7.43394,      -23.2038,            0.,NA,NA,"",   92.5518E-03,  -92.5045E-03,  -2.96020E-03,   9.09946E-03
C:/temp/dataset/0/7_12.odb,Step-1,Increment      1: Step Time =    1.000,"PART-1-1",           377,       8.61676,      -23.4202,            0.,NA,NA,"",   94.5208E-03,  -94.3804E-03,   5.15004E-03,   10.2700E-03
C:/temp/dataset/0/7_12.odb,Step-1,Increment      1: Step Time =    1.000,"PART-1-1",           378,       8.81699,      -21.8917,            0.,NA,NA,"",   130.456E-03,  -129.755E-03,   13.5076E-03,   13.4513E-03
C:/temp/dataset/0/7_12.odb,Step-1,Increment      1: Step Time =    1.000,"PART-1-1",           379,  -438.919E-03,      -23.5046,            0.,NA,NA,"",   60.4389E-03,  -60.2740E-03,  -4.46198E-03,   7.42121E-03
C:/temp/dataset/0/7_12.odb,Step-1,Increment      1: Step Time =    1.000,"PART-1-1",           380,   774.543E-03,      -22.4081,            0.,NA,NA,"",   72.6167E-03,  -72.3099E-03,  -6.66702E-03,   8.87183E-03
C:/temp/dataset/0/7_12.odb,Step-1,Increment      1: Step Time =    1.000,"PART-1-1",           381,      -7.50181,      -26.8221,            0.,NA,NA,"",   20.8567E-03,  -20.8531E-03,  -385.234E-06,   4.26099E-03
C:/temp/dataset/0/7_12.odb,Step-1,Increment      1: Step Time =    1.000,"PART-1-1",           382,      -9.04643,      -28.2740,            0.,NA,NA,"",   10.1565E-03,  -10.0886E-03,  -1.17246E-03,   3.71036E-03
C:/temp/dataset/0/7_12.odb,Step-1,Increment      1: Step Time =    1.000,"PART-1-1",           383,          -7.5,          -30.,            0.,NA,NA,"",            0.,  -4.93049E-39,  -2.42527E-39,   4.40358E-03
C:/temp/dataset/0/7_12.odb,Step-1,Increment      1: Step Time =    1.000,"PART-1-1",           384,      -5.95538,      -28.5482,            0.,NA,NA,"",   10.9654E-03,  -10.9492E-03,  -595.907E-06,   4.88884E-03
C:/temp/dataset/0/7_12.odb,Step-1,Increment      1: Step Time =    1.000,"PART-1-1",           385,      -10.9107,       24.5471,            0.,NA,NA,"",   483.531E-03,  -483.138E-03,  -19.4998E-03,   935.645E-06
C:/temp/dataset/0/7_12.odb,Step-1,Increment      1: Step Time =    1.000,"PART-1-1",           386,      -9.41006,       26.0517,            0.,NA,NA,"",   492.320E-03,  -492.251E-03,  -8.23595E-03,   937.783E-06
C:/temp/dataset/0/7_12.odb,Step-1,Increment      1: Step Time =    1.000,"PART-1-1",           387,      -10.7443,       27.3091,            0.,NA,NA,"",   500.438E-03,  -500.108E-03,  -18.1621E-03,   786.425E-06
C:/temp/dataset/0/7_12.odb,Step-1,Increment      1: Step Time =    1.000,"PART-1-1",           388,      -12.2450,       25.8045,            0.,NA,NA,"",   491.694E-03,  -490.821E-03,  -29.2886E-03,   781.123E-06
C:/temp/dataset/0/7_12.odb,Step-1,Increment      1: Step Time =    1.000,"PART-1-1",           389,      -1.21620,       23.8189,            0.,NA,NA,"",   481.624E-03,  -480.068E-03,   38.6866E-03,   787.345E-06
C:/temp/dataset/0/7_12.odb,Step-1,Increment      1: Step Time =    1.000,"PART-1-1",           390,      -2.21965,       25.1560,            0.,NA,NA,"",   487.061E-03,  -485.816E-03,   34.7958E-03,   347.552E-06
C:/temp/dataset/0/7_12.odb,Step-1,Increment      1: Step Time =    1.000,"PART-1-1",           391,      -12.3287,       22.9401,            0.,NA,NA,"",   473.369E-03,  -472.358E-03,  -30.9211E-03,   842.967E-06
C:/temp/dataset/0/7_12.odb,Step-1,Increment      1: Step Time =    1.000,"PART-1-1",           392,      -11.0144,       21.7359,            0.,NA,NA,"",   465.006E-03,  -464.526E-03,  -21.1184E-03,   792.252E-06
C:/temp/dataset/0/7_12.odb,Step-1,Increment      1: Step Time =    1.000,"PART-1-1",           393,      -9.59641,       23.3428,            0.,NA,NA,"",   475.920E-03,  -475.824E-03,  -9.57613E-03,   924.901E-06
C:/temp/dataset/0/7_12.odb,Step-1,Increment      1: Step Time =    1.000,"PART-1-1",           394,      -8.52014,       19.3558,            0.,NA,NA,"",   447.219E-03,  -447.216E-03,  -1.47317E-03,   718.410E-06
C:/temp/dataset/0/7_12.odb,Step-1,Increment      1: Step Time =    1.000,"PART-1-1",           395,      -7.12750,       20.9906,            0.,NA,NA,"",   461.347E-03,  -461.253E-03,   9.32331E-03,   911.625E-06
C:/temp/dataset/0/7_12.odb,Step-1,Increment      1: Step Time =    1.000,"PART-1-1",           396,      -8.32913,       22.1749,            0.,NA,NA,"",   468.700E-03,  -468.700E-03,   106.008E-06,   901.157E-06
C:/temp/dataset/0/7_12.odb,Step-1,Increment      1: Step Time =    1.000,"PART-1-1",           397,      -9.72177,       20.5400,            0.,NA,NA,"",   456.384E-03,  -456.248E-03,  -11.1347E-03,   562.375E-06
C:/temp/dataset/0/7_12.odb,Step-1,Increment      1: Step Time =    1.000,"PART-1-1",           398,      -6.16480,       16.7267,            0.,NA,NA,"",   422.829E-03,  -422.322E-03,   20.7150E-03,   1.42798E-03
C:/temp/dataset/0/7_12.odb,Step-1,Increment      1: Step Time =    1.000,"PART-1-1",           399,           -5.,       18.4615,            0.,NA,NA,"",   439.433E-03,  -438.484E-03,   28.8596E-03,   2.59876E-03
C:/temp/dataset/0/7_12.odb,Step-1,Increment      1: Step Time =    1.000,"PART-1-1",           400,      -6.13199,       19.8034,            0.,NA,NA,"",   453.287E-03,  -452.968E-03,   17.0056E-03,   2.17814E-03
C:/temp/dataset/0/7_12.odb,Step-1,Increment      1: Step Time =    1.000,"PART-1-1",           401,      -7.29678,       18.0686,            0.,NA,NA,"",   436.092E-03,  -435.999E-03,   9.00169E-03,   1.02514E-03
C:/temp/dataset/0/7_12.odb,Step-1,Increment      1: Step Time =    1.000,"PART-1-1",           402,      -11.0823,       15.8203,            0.,NA,NA,"",   414.464E-03,  -413.793E-03,  -23.5773E-03,   538.975E-06
C:/temp/dataset/0/7_12.odb,Step-1,Increment      1: Step Time =    1.000,"PART-1-1",           403,      -12.3677,       14.0517,            0.,NA,NA,"",   397.295E-03,  -395.654E-03,  -36.0760E-03,   628.605E-06
C:/temp/dataset/0/7_12.odb,Step-1,Increment      1: Step Time =    1.000,"PART-1-1",           404,      -11.1015,       12.7786,            0.,NA,NA,"",   383.271E-03,  -382.521E-03,  -23.9622E-03,   513.177E-06
C:/temp/dataset/0/7_12.odb,Step-1,Increment      1: Step Time =    1.000,"PART-1-1",           405,          -15.,          10.5,            0.,NA,NA,"",   362.757E-03,  -356.905E-03,  -64.9009E-03,   714.518E-06
C:/temp/dataset/0/7_12.odb,Step-1,Increment      1: Step Time =    1.000,"PART-1-1",           406,      -13.6919,       9.25384,            0.,NA,NA,"",   347.313E-03,  -343.513E-03,  -51.2341E-03,   428.498E-06
C:/temp/dataset/0/7_12.odb,Step-1,Increment      1: Step Time =    1.000,"PART-1-1",           407,      -12.3755,       11.0249,            0.,NA,NA,"",   365.263E-03,  -363.387E-03,  -36.9670E-03,   533.399E-06
C:/temp/dataset/0/7_12.odb,Step-1,Increment      1: Step Time =    1.000,"PART-1-1",           408,      -13.6836,       12.2710,            0.,NA,NA,"",   379.839E-03,  -376.538E-03,  -49.9686E-03,   685.553E-06
C:/temp/dataset/0/7_12.odb,Step-1,Increment      1: Step Time =    1.000,"PART-1-1",           409,      -7.40029,       8.84536,            0.,NA,NA,"",   339.357E-03,  -339.023E-03,   15.0647E-03,   627.983E-06
C:/temp/dataset/0/7_12.odb,Step-1,Increment      1: Step Time =    1.000,"PART-1-1",           410,      -8.62408,       10.1694,            0.,NA,NA,"",   354.001E-03,  -353.998E-03,   1.60542E-03,   611.243E-06
C:/temp/dataset/0/7_12.odb,Step-1,Increment      1: Step Time =    1.000,"PART-1-1",           411,      -9.86273,       8.43495,            0.,NA,NA,"",   334.795E-03,  -334.622E-03,  -10.7677E-03,   583.926E-06
C:/temp/dataset/0/7_12.odb,Step-1,Increment      1: Step Time =    1.000,"PART-1-1",           412,      -8.63893,       7.11093,            0.,NA,NA,"",   319.493E-03,  -319.482E-03,   2.54726E-03,   554.680E-06
C:/temp/dataset/0/7_12.odb,Step-1,Increment      1: Step Time =    1.000,"PART-1-1",           413,          -15.,           1.5,            0.,NA,NA,"",   263.353E-03,  -255.094E-03,  -65.4352E-03,   418.606E-06
C:/temp/dataset/0/7_12.odb,Step-1,Increment      1: Step Time =    1.000,"PART-1-1",           414,      -13.7087,   214.116E-03,            0.,NA,NA,"",   245.497E-03,  -240.274E-03,  -50.3730E-03,   525.546E-06
C:/temp/dataset/0/7_12.odb,Step-1,Increment      1: Step Time =    1.000,"PART-1-1",           415,      -12.4129,       1.94059,            0.,NA,NA,"",   262.513E-03,  -259.912E-03,  -36.8617E-03,   502.310E-06
C:/temp/dataset/0/7_12.odb,Step-1,Increment      1: Step Time =    1.000,"PART-1-1",           416,      -13.7042,       3.22647,            0.,NA,NA,"",   279.545E-03,  -274.775E-03,  -51.4217E-03,   302.706E-06
C:/temp/dataset/0/7_12.odb,Step-1,Increment      1: Step Time =    1.000,"PART-1-1",           417,      -9.88317,  -688.536E-03,            0.,NA,NA,"",   229.847E-03,  -229.667E-03,  -9.10389E-03,   573.420E-06
C:/temp/dataset/0/7_12.odb,Step-1,Increment      1: Step Time =    1.000,"PART-1-1",           418,      -8.64028,      -2.02441,            0.,NA,NA,"",   214.652E-03,  -214.613E-03,   4.08464E-03,   485.446E-06
C:/temp/dataset/0/7_12.odb,Step-1,Increment      1: Step Time =    1.000,"PART-1-1",           419,      -7.40757,  -323.915E-03,            0.,NA,NA,"",   234.566E-03,  -233.937E-03,   17.1621E-03,   425.504E-06
C:/temp/dataset/0/7_12.odb,Step-1,Increment      1: Step Time =    1.000,"PART-1-1",           420,      -8.65046,       1.01196,            0.,NA,NA,"",   249.163E-03,  -249.135E-03,   3.74498E-03,   489.527E-06
C:/temp/dataset/0/7_12.odb,Step-1,Increment      1: Step Time =    1.000,"PART-1-1",           421,          -15.,          -7.5,            0.,NA,NA,"",   167.309E-03,  -157.306E-03,  -56.9820E-03,   1.53384E-03
C:/temp/dataset/0/7_12.odb,Step-1,Increment      1: Step Time =    1.000,"PART-1-1",           422,      -13.7007,      -8.80606,            0.,NA,NA,"",   149.789E-03,  -143.600E-03,  -42.6112E-03,   1.31883E-03
C:/temp/dataset/0/7_12.odb,Step-1,Increment      1: Step Time =    1.000,"PART-1-1",           423,      -12.4029,      -7.10316,            0.,NA,NA,"",   163.260E-03,  -160.105E-03,  -31.9403E-03,   900.334E-06
C:/temp/dataset/0/7_12.odb,Step-1,Increment      1: Step Time =    1.000,"PART-1-1",           424,      -13.7022,      -5.79711,            0.,NA,NA,"",   180.085E-03,  -174.134E-03,  -45.9115E-03,   1.04866E-03
C:/temp/dataset/0/7_12.odb,Step-1,Increment      1: Step Time =    1.000,"PART-1-1",           425,      -7.34368,      -12.4907,            0.,NA,NA,"",   109.518E-03,  -108.752E-03,   12.9359E-03,   1.00600E-03
C:/temp/dataset/0/7_12.odb,Step-1,Increment      1: Step Time =    1.000,"PART-1-1",           426,      -8.60430,      -11.1353,            0.,NA,NA,"",   120.525E-03,  -120.479E-03,   3.30772E-03,   597.911E-06
C:/temp/dataset/0/7_12.odb,Step-1,Increment      1: Step Time =    1.000,"PART-1-1",           427,      -9.82710,      -12.7746,            0.,NA,NA,"",   106.060E-03,  -105.852E-03,  -6.64832E-03,   575.964E-06
C:/temp/dataset/0/7_12.odb,Step-1,Increment      1: Step Time =    1.000,"PART-1-1",           428,      -8.56648,      -14.1300,            0.,NA,NA,"",   94.6443E-03,  -94.6060E-03,   2.69287E-03,   692.631E-06
C:/temp/dataset/0/7_12.odb,Step-1,Increment      1: Step Time =    1.000,"PART-1-1",           429,  -730.622E-03,       22.2784,            0.,NA,NA,"",   475.752E-03,  -474.069E-03,   39.9801E-03,   1.22105E-03
C:/temp/dataset/0/7_12.odb,Step-1,Increment      1: Step Time =    1.000,"PART-1-1",           430,         -1.25,           20.,            0.,NA,NA,"",   466.314E-03,  -464.877E-03,   36.5839E-03,   1.98065E-03
C:/temp/dataset/0/7_12.odb,Step-1,Increment      1: Step Time =    1.000,"PART-1-1",           431,       11.1367,       28.7451,            0.,NA,NA,"",   498.214E-03,  -493.882E-03,   65.5593E-03,   182.310E-06
C:/temp/dataset/0/7_12.odb,Step-1,Increment      1: Step Time =    1.000,"PART-1-1",           432,       10.3125,           30.,            0.,NA,NA,"",   500.272E-03,  -496.138E-03,   64.1793E-03,   230.492E-06
C:/temp/dataset/0/7_12.odb,Step-1,Increment      1: Step Time =    1.000,"PART-1-1",           433,       10.0023,       27.5230,            0.,NA,NA,"",   495.830E-03,  -491.698E-03,   63.8756E-03,   345.917E-06
C:/temp/dataset/0/7_12.odb,Step-1,Increment      1: Step Time =    1.000,"PART-1-1",           434,       10.7751,       23.9735,            0.,NA,NA,"",   489.001E-03,  -484.700E-03,   64.7122E-03,   329.288E-06
C:/temp/dataset/0/7_12.odb,Step-1,Increment      1: Step Time =    1.000,"PART-1-1",           435,       11.7898,       22.7248,            0.,NA,NA,"",   487.161E-03,  -482.671E-03,   65.9911E-03,   292.954E-06
C:/temp/dataset/0/7_12.odb,Step-1,Increment      1: Step Time =    1.000,"PART-1-1",           436,       12.9255,       23.8368,            0.,NA,NA,"",   489.500E-03,  -484.758E-03,   67.9688E-03,   234.094E-06
C:/temp/dataset/0/7_12.odb,Step-1,Increment      1: Step Time =    1.000,"PART-1-1",           437,       2.25220,       28.9826,            0.,NA,NA,"",   500.868E-03,  -498.484E-03,   48.8157E-03,   993.267E-06
C:/temp/dataset/0/7_12.odb,Step-1,Increment      1: Step Time =    1.000,"PART-1-1",           438,       3.21116,       27.8846,            0.,NA,NA,"",   497.242E-03,  -494.553E-03,   51.6430E-03,   705.142E-06
C:/temp/dataset/0/7_12.odb,Step-1,Increment      1: Step Time =    1.000,"PART-1-1",           439,       4.70896,       28.9020,            0.,NA,NA,"",   499.420E-03,  -496.419E-03,   54.6712E-03,   738.706E-06
C:/temp/dataset/0/7_12.odb,Step-1,Increment      1: Step Time =    1.000,"PART-1-1",           440,          3.75,           30.,            0.,NA,NA,"",   502.524E-03,  -499.815E-03,   52.1066E-03,   1.08644E-03
C:/temp/dataset/0/7_12.odb,Step-1,Increment      1: Step Time =    1.000,"PART-1-1",           441,      -8.10884,       24.8461,            0.,NA,NA,"",   485.039E-03,  -485.037E-03,   1.39134E-03,   916.763E-06
C:/temp/dataset/0/7_12.odb,Step-1,Increment      1: Step Time =    1.000,"PART-1-1",           442,      -13.5971,       27.1125,            0.,NA,NA,"",   500.498E-03,  -498.993E-03,  -38.7777E-03,   397.727E-06
C:/temp/dataset/0/7_12.odb,Step-1,Increment      1: Step Time =    1.000,"PART-1-1",           443,          -15.,          25.5,            0.,NA,NA,"",   490.774E-03,  -488.342E-03,  -48.7991E-03,   570.086E-06
C:/temp/dataset/0/7_12.odb,Step-1,Increment      1: Step Time =    1.000,"PART-1-1",           444,      -13.6479,       24.1920,            0.,NA,NA,"",   481.903E-03,  -480.226E-03,  -40.1640E-03,   793.439E-06
C:/temp/dataset/0/7_12.odb,Step-1,Increment      1: Step Time =    1.000,"PART-1-1",           445,      -6.53168,       26.2506,            0.,NA,NA,"",   492.683E-03,  -492.545E-03,   11.6666E-03,   805.346E-06
C:/temp/dataset/0/7_12.odb,Step-1,Increment      1: Step Time =    1.000,"PART-1-1",           446,      -7.83289,       27.4562,            0.,NA,NA,"",   499.960E-03,  -499.953E-03,   2.60399E-03,   879.082E-06
C:/temp/dataset/0/7_12.odb,Step-1,Increment      1: Step Time =    1.000,"PART-1-1",           447,          -15.,          28.5,            0.,NA,NA,"",   510.311E-03,  -508.029E-03,  -48.2139E-03,   84.5791E-06
C:/temp/dataset/0/7_12.odb,Step-1,Increment      1: Step Time =    1.000,"PART-1-1",           448,      -12.0971,       28.6125,            0.,NA,NA,"",   509.461E-03,  -508.687E-03,  -28.0825E-03,   397.470E-06
C:/temp/dataset/0/7_12.odb,Step-1,Increment      1: Step Time =    1.000,"PART-1-1",           449,         -13.5,           30.,            0.,NA,NA,"",   519.598E-03,  -518.206E-03,  -38.0098E-03,   84.6813E-06
C:/temp/dataset/0/7_12.odb,Step-1,Increment      1: Step Time =    1.000,"PART-1-1",           450,      -6.19829,       10.5730,            0.,NA,NA,"",   358.948E-03,  -357.949E-03,   26.7699E-03,   822.493E-06
C:/temp/dataset/0/7_12.odb,Step-1,Increment      1: Step Time =    1.000,"PART-1-1",           451,      -6.20201,       7.50308,            0.,NA,NA,"",   324.935E-03,  -323.663E-03,   28.7240E-03,   554.604E-06
C:/temp/dataset/0/7_12.odb,Step-1,Increment      1: Step Time =    1.000,"PART-1-1",           452,           -5.,       9.23077,            0.,NA,NA,"",   345.188E-03,  -342.760E-03,   40.8717E-03,   826.407E-06
C:/temp/dataset/0/7_12.odb,Step-1,Increment      1: Step Time =    1.000,"PART-1-1",           453,      -12.4049,       4.96458,            0.,NA,NA,"",   297.179E-03,  -294.813E-03,  -37.4301E-03,   442.275E-06
C:/temp/dataset/0/7_12.odb,Step-1,Increment      1: Step Time =    1.000,"PART-1-1",           454,      -13.7007,       6.23810,            0.,NA,NA,"",   313.667E-03,  -309.371E-03,  -51.7344E-03,   244.711E-06
C:/temp/dataset/0/7_12.odb,Step-1,Increment      1: Step Time =    1.000,"PART-1-1",           455,          -15.,           4.5,            0.,NA,NA,"",   296.874E-03,  -289.382E-03,  -66.2704E-03,   52.2659E-06
C:/temp/dataset/0/7_12.odb,Step-1,Increment      1: Step Time =    1.000,"PART-1-1",           456,      -9.87977,       5.38582,            0.,NA,NA,"",   299.867E-03,  -299.691E-03,  -10.2899E-03,   578.378E-06
C:/temp/dataset/0/7_12.odb,Step-1,Increment      1: Step Time =    1.000,"PART-1-1",           457,      -8.64969,       4.05795,            0.,NA,NA,"",   284.330E-03,  -284.312E-03,   3.23378E-03,   513.003E-06
C:/temp/dataset/0/7_12.odb,Step-1,Increment      1: Step Time =    1.000,"PART-1-1",           458,      -7.40885,       5.78306,            0.,NA,NA,"",   304.598E-03,  -304.165E-03,   16.2350E-03,   498.958E-06
C:/temp/dataset/0/7_12.odb,Step-1,Increment      1: Step Time =    1.000,"PART-1-1",           459,      -7.41391,       2.72502,            0.,NA,NA,"",   269.435E-03,  -268.904E-03,   16.9070E-03,   422.106E-06
C:/temp/dataset/0/7_12.odb,Step-1,Increment      1: Step Time =    1.000,"PART-1-1",           460,      -9.88624,       2.34489,            0.,NA,NA,"",   264.678E-03,  -264.499E-03,  -9.73195E-03,   575.838E-06
C:/temp/dataset/0/7_12.odb,Step-1,Increment      1: Step Time =    1.000,"PART-1-1",           461,      -12.4101,      -4.09106,            0.,NA,NA,"",   194.981E-03,  -191.978E-03,  -34.0857E-03,   750.304E-06
C:/temp/dataset/0/7_12.odb,Step-1,Increment      1: Step Time =    1.000,"PART-1-1",           462,      -13.7080,      -2.79395,            0.,NA,NA,"",   212.151E-03,  -206.525E-03,  -48.5311E-03,   783.005E-06
C:/temp/dataset/0/7_12.odb,Step-1,Increment      1: Step Time =    1.000,"PART-1-1",           463,          -15.,          -4.5,            0.,NA,NA,"",   198.017E-03,  -188.456E-03,  -60.7870E-03,   1.16089E-03
C:/temp/dataset/0/7_12.odb,Step-1,Increment      1: Step Time =    1.000,"PART-1-1",           464,      -9.87646,      -3.71895,            0.,NA,NA,"",   195.942E-03,  -195.759E-03,  -8.47681E-03,   570.748E-06
C:/temp/dataset/0/7_12.odb,Step-1,Increment      1: Step Time =    1.000,"PART-1-1",           465,      -8.63520,      -5.06687,            0.,NA,NA,"",   181.237E-03,  -181.191E-03,   4.07171E-03,   502.775E-06
C:/temp/dataset/0/7_12.odb,Step-1,Increment      1: Step Time =    1.000,"PART-1-1",           466,      -7.39901,      -3.37233,            0.,NA,NA,"",   200.511E-03,  -199.798E-03,   16.8927E-03,   510.012E-06
C:/temp/dataset/0/7_12.odb,Step-1,Increment      1: Step Time =    1.000,"PART-1-1",           467,      -7.39417,      -6.42670,            0.,NA,NA,"",   167.812E-03,  -167.046E-03,   16.0222E-03,   646.310E-06
C:/temp/dataset/0/7_12.odb,Step-1,Increment      1: Step Time =    1.000,"PART-1-1",           468,      -9.87187,      -6.75385,            0.,NA,NA,"",   163.504E-03,  -163.312E-03,  -7.92168E-03,   568.056E-06
C:/temp/dataset/0/7_12.odb,Step-1,Increment      1: Step Time =    1.000,"PART-1-1",           469,      -8.63084,      -8.11369,            0.,NA,NA,"",   149.563E-03,  -149.516E-03,   3.74542E-03,   542.661E-06
C:/temp/dataset/0/7_12.odb,Step-1,Increment      1: Step Time =    1.000,"PART-1-1",           470,      -12.3844,      -13.1215,            0.,NA,NA,"",   106.926E-03,  -103.650E-03,  -26.2659E-03,   1.20801E-03
C:/temp/dataset/0/7_12.odb,Step-1,Increment      1: Step Time =    1.000,"PART-1-1",           471,      -13.6984,      -11.8123,            0.,NA,NA,"",   121.924E-03,  -115.652E-03,  -38.5993E-03,   1.58346E-03
C:/temp/dataset/0/7_12.odb,Step-1,Increment      1: Step Time =    1.000,"PART-1-1",           472,          -15.,         -13.5,            0.,NA,NA,"",   112.503E-03,  -102.461E-03,  -46.4615E-03,   2.22849E-03
C:/temp/dataset/0/7_12.odb,Step-1,Increment      1: Step Time =    1.000,"PART-1-1",           473,      -7.37693,      -9.46970,            0.,NA,NA,"",   137.270E-03,  -136.480E-03,   14.7056E-03,   816.020E-06
C:/temp/dataset/0/7_12.odb,Step-1,Increment      1: Step Time =    1.000,"PART-1-1",           474,      -9.85821,      -9.77933,            0.,NA,NA,"",   133.289E-03,  -133.087E-03,  -7.33563E-03,   568.315E-06
C:/temp/dataset/0/7_12.odb,Step-1,Increment      1: Step Time =    1.000,"PART-1-1",           475,      -8.48236,      -17.0363,            0.,NA,NA,"",   72.8228E-03,  -72.7840E-03,   2.37776E-03,   778.923E-06
C:/temp/dataset/0/7_12.odb,Step-1,Increment      1: Step Time =    1.000,"PART-1-1",           476,      -7.28434,      -15.4580,            0.,NA,NA,"",   85.1794E-03,  -84.4870E-03,   10.8391E-03,   1.29305E-03
C:/temp/dataset/0/7_12.odb,Step-1,Increment      1: Step Time =    1.000,"PART-1-1",           477,      -9.76451,      -15.7083,            0.,NA,NA,"",   82.5590E-03,  -82.3657E-03,  -5.64624E-03,   608.546E-06
C:/temp/dataset/0/7_12.odb,Step-1,Increment      1: Step Time =    1.000,"PART-1-1",           478,      -8.29054,      -19.6175,            0.,NA,NA,"",   57.4451E-03,  -57.3744E-03,   2.84815E-03,   441.701E-06
C:/temp/dataset/0/7_12.odb,Step-1,Increment      1: Step Time =    1.000,"PART-1-1",           479,      -7.20240,      -18.2338,            0.,NA,NA,"",   65.6882E-03,  -65.1285E-03,   8.55650E-03,   1.07319E-03
C:/temp/dataset/0/7_12.odb,Step-1,Increment      1: Step Time =    1.000,"PART-1-1",           480,      -9.57051,      -18.4200,            0.,NA,NA,"",   64.2110E-03,  -64.1098E-03,  -3.60328E-03,   526.411E-06
C:/temp/dataset/0/7_12.odb,Step-1,Increment      1: Step Time =    1.000,"PART-1-1",           481,      -11.5327,      -24.2644,            0.,NA,NA,"",   33.9810E-03,  -32.9311E-03,  -8.38155E-03,   2.02308E-03
C:/temp/dataset/0/7_12.odb,Step-1,Increment      1: Step Time =    1.000,"PART-1-1",           482,      -10.1789,      -23.4859,            0.,NA,NA,"",   37.5732E-03,  -37.3025E-03,  -4.50217E-03,   1.59288E-03
C:/temp/dataset/0/7_12.odb,Step-1,Increment      1: Step Time =    1.000,"PART-1-1",           483,      -10.8627,      -21.7859,            0.,NA,NA,"",   46.8173E-03,  -46.1016E-03,  -8.15485E-03,   1.02536E-03
C:/temp/dataset/0/7_12.odb,Step-1,Increment      1: Step Time =    1.000,"PART-1-1",           484,      -12.2165,      -22.5644,            0.,NA,NA,"",   44.4206E-03,  -42.3755E-03,  -13.3233E-03,   1.72806E-03
C:/temp/dataset/0/7_12.odb,Step-1,Increment      1: Step Time =    1.000,"PART-1-1",           485,      -6.15301,      -21.8453,            0.,NA,NA,"",   50.8627E-03,  -50.3775E-03,   7.00884E-03,   3.45713E-03
C:/temp/dataset/0/7_12.odb,Step-1,Increment      1: Step Time =    1.000,"PART-1-1",           486,      -7.48433,      -22.7723,            0.,NA,NA,"",   43.8653E-03,  -43.7527E-03,   3.14064E-03,   2.50919E-03
C:/temp/dataset/0/7_12.odb,Step-1,Increment      1: Step Time =    1.000,"PART-1-1",           487,      -6.61766,      -24.1583,            0.,NA,NA,"",   38.6576E-03,  -38.5750E-03,   2.52523E-03,   3.91091E-03
C:/temp/dataset/0/7_12.odb,Step-1,Increment      1: Step Time =    1.000,"PART-1-1",           488,      -9.30746,      -21.9937,            0.,NA,NA,"",   45.4124E-03,  -45.3778E-03,  -1.77131E-03,   937.829E-06
C:/temp/dataset/0/7_12.odb,Step-1,Increment      1: Step Time =    1.000,"PART-1-1",           489,      -9.12330,      -20.5212,            0.,NA,NA,"",   52.6425E-03,  -52.6325E-03,  -1.02771E-03,   475.620E-06
C:/temp/dataset/0/7_12.odb,Step-1,Increment      1: Step Time =    1.000,"PART-1-1",           490,      -10.6786,      -20.3134,            0.,NA,NA,"",   54.4068E-03,  -53.7546E-03,  -8.39908E-03,   851.913E-06
C:/temp/dataset/0/7_12.odb,Step-1,Increment      1: Step Time =    1.000,"PART-1-1",           491,         -13.5,          -30.,            0.,NA,NA,"",            0.,  -1.12428E-39,  -8.16518E-39,   5.80349E-03
C:/temp/dataset/0/7_12.odb,Step-1,Increment      1: Step Time =    1.000,"PART-1-1",           492,      -12.0973,      -28.5120,            0.,NA,NA,"",   7.94646E-03,  -7.45480E-03,  -2.75175E-03,   3.68469E-03
C:/temp/dataset/0/7_12.odb,Step-1,Increment      1: Step Time =    1.000,"PART-1-1",           493,      -13.5973,      -27.0120,            0.,NA,NA,"",   20.1700E-03,  -17.8132E-03,  -9.46150E-03,   3.57349E-03
C:/temp/dataset/0/7_12.odb,Step-1,Increment      1: Step Time =    1.000,"PART-1-1",           494,          -15.,         -28.5,            0.,NA,NA,"",   14.3608E-03,  -11.1307E-03,  -9.07406E-03,   6.07953E-03
C:/temp/dataset/0/7_12.odb,Step-1,Increment      1: Step Time =    1.000,"PART-1-1",           495,      -2.59553,      -21.0976,            0.,NA,NA,"",   62.1177E-03,  -61.9445E-03,   4.63453E-03,   3.92311E-03
C:/temp/dataset/0/7_12.odb,Step-1,Increment      1: Step Time =    1.000,"PART-1-1",           496,      -1.51596,      -22.2324,            0.,NA,NA,"",   63.0928E-03,  -63.0922E-03,   265.534E-06,   6.08756E-03
C:/temp/dataset/0/7_12.odb,Step-1,Increment      1: Step Time =    1.000,"PART-1-1",           497,  -170.430E-03,      -21.1349,            0.,NA,NA,"",   71.9095E-03,  -71.9082E-03,  -438.600E-06,   6.36908E-03
C:/temp/dataset/0/7_12.odb,Step-1,Increment      1: Step Time =    1.000,"PART-1-1",           498,         -1.25,          -20.,            0.,NA,NA,"",   66.9915E-03,  -66.8616E-03,   4.17082E-03,   4.98075E-03
C:/temp/dataset/0/7_12.odb,Step-1,Increment      1: Step Time =    1.000,"PART-1-1",           499,       2.92795,      -28.2085,            0.,NA,NA,"",   19.6391E-03,  -19.0953E-03,  -4.58924E-03,   7.96136E-03
C:/temp/dataset/0/7_12.odb,Step-1,Increment      1: Step Time =    1.000,"PART-1-1",           500,  -103.307E-03,      -28.5907,            0.,NA,NA,"",   15.2871E-03,  -15.0739E-03,  -2.54412E-03,   7.38613E-03
C:/temp/dataset/0/7_12.odb,Step-1,Increment      1: Step Time =    1.000,"PART-1-1",           501,           1.5,          -30.,            0.,NA,NA,"",            0.,  -8.40301E-39,  -6.56632E-39,   7.41477E-03
C:/temp/dataset/0/7_12.odb,Step-1,Increment      1: Step Time =    1.000,"PART-1-1",           502,       2.19497,      -21.2732,            0.,NA,NA,"",   89.9915E-03,  -89.4841E-03,  -9.54269E-03,   10.2746E-03
C:/temp/dataset/0/7_12.odb,Step-1,Increment      1: Step Time =    1.000,"PART-1-1",           503,          1.25,          -20.,            0.,NA,NA,"",   80.2485E-03,  -80.2485E-03,  -101.571E-06,   9.01442E-03
C:/temp/dataset/0/7_12.odb,Step-1,Increment      1: Step Time =    1.000,"PART-1-1",           504,       4.38160,      -21.6436,            0.,NA,NA,"",   104.581E-03,  -102.510E-03,  -20.7079E-03,   14.9124E-03
C:/temp/dataset/0/7_12.odb,Step-1,Increment      1: Step Time =    1.000,"PART-1-1",           505,          3.75,          -20.,            0.,NA,NA,"",   111.679E-03,  -111.189E-03,  -10.4511E-03,   19.5435E-03
C:/temp/dataset/0/7_12.odb,Step-1,Increment      1: Step Time =    1.000,"PART-1-1",           506,       12.4146,      -26.3616,            0.,NA,NA,"",   54.5234E-03,  -48.2305E-03,   25.4289E-03,   9.38434E-03
C:/temp/dataset/0/7_12.odb,Step-1,Increment      1: Step Time =    1.000,"PART-1-1",           507,       11.3720,      -25.0651,            0.,NA,NA,"",   74.2342E-03,  -70.8460E-03,   22.1710E-03,   9.32619E-03
C:/temp/dataset/0/7_12.odb,Step-1,Increment      1: Step Time =    1.000,"PART-1-1",           508,       9.80011,      -26.1459,            0.,NA,NA,"",   46.3196E-03,  -45.8634E-03,   6.48441E-03,   8.07059E-03
C:/temp/dataset/0/7_12.odb,Step-1,Increment      1: Step Time =    1.000,"PART-1-1",           509,       10.8427,      -27.4423,            0.,NA,NA,"",   28.0146E-03,  -26.7739E-03,   8.24464E-03,   7.79970E-03
C:/temp/dataset/0/7_12.odb,Step-1,Increment      1: Step Time =    1.000,"PART-1-1",           510,       10.6574,      -21.6616,            0.,NA,NA,"",   155.272E-03,  -151.685E-03,   33.1824E-03,   14.4696E-03
C:/temp/dataset/0/7_12.odb,Step-1,Increment      1: Step Time =    1.000,"PART-1-1",           511,       9.56375,      -20.8051,            0.,NA,NA,"",   166.584E-03,  -164.356E-03,   27.1520E-03,   15.2086E-03
C:/temp/dataset/0/7_12.odb,Step-1,Increment      1: Step Time =    1.000,"PART-1-1",           512,       9.91066,      -22.7482,            0.,NA,NA,"",   119.126E-03,  -117.590E-03,   19.0657E-03,   12.6039E-03
C:/temp/dataset/0/7_12.odb,Step-1,Increment      1: Step Time =    1.000,"PART-1-1",           513,       13.7822,      -25.0807,            0.,NA,NA,"",   97.7217E-03,  -80.6645E-03,   55.1614E-03,   10.6086E-03
C:/temp/dataset/0/7_12.odb,Step-1,Increment      1: Step Time =    1.000,"PART-1-1",           514,       13.6324,      -27.5308,            0.,NA,NA,"",   42.3781E-03,  -32.6644E-03,   26.9989E-03,   13.2543E-03
C:/temp/dataset/0/7_12.odb,Step-1,Increment      1: Step Time =    1.000,"PART-1-1",           515,           15.,        -26.25,            0.,NA,NA,"",   90.7076E-03,  -64.4377E-03,   63.8408E-03,   15.6273E-03
C:/temp/dataset/0/7_12.odb,Step-1,Increment      1: Step Time =    1.000,"PART-1-1",           516,          13.5,          -30.,            0.,NA,NA,"",            0.,  -1.21494E-39,   25.4475E-39,   15.1387E-03
C:/temp/dataset/0/7_12.odb,Step-1,Increment      1: Step Time =    1.000,"PART-1-1",           517,           15.,        -28.75,            0.,NA,NA,"",   33.0244E-03,  -23.3060E-03,   23.3974E-03,   20.1692E-03
C:/temp/dataset/0/7_12.odb,Step-1,Increment      1: Step Time =    1.000,"PART-1-1",           518,       12.1324,      -28.7808,            0.,NA,NA,"",   12.2378E-03,  -9.93409E-03,   7.14683E-03,   8.32785E-03
C:/temp/dataset/0/7_12.odb,Step-1,Increment      1: Step Time =    1.000,"PART-1-1",           519,       10.4418,      -23.8774,            0.,NA,NA,"",   95.6435E-03,  -93.8132E-03,   18.6218E-03,   11.1099E-03
C:/temp/dataset/0/7_12.odb,Step-1,Increment      1: Step Time =    1.000,"PART-1-1",           520,       12.6627,      -23.9582,            0.,NA,NA,"",   112.276E-03,  -103.264E-03,   44.0710E-03,   10.6208E-03
C:/temp/dataset/0/7_12.odb,Step-1,Increment      1: Step Time =    1.000,"PART-1-1",           521,       11.7324,      -22.7705,            0.,NA,NA,"",   135.580E-03,  -129.995E-03,   38.5114E-03,   13.0736E-03
C:/temp/dataset/0/7_12.odb,Step-1,Increment      1: Step Time =    1.000,"PART-1-1",           522,       13.8804,      -22.6275,            0.,NA,NA,"",   167.547E-03,  -150.216E-03,   74.2102E-03,   12.4218E-03
C:/temp/dataset/0/7_12.odb,Step-1,Increment      1: Step Time =    1.000,"PART-1-1",           523,           15.,        -23.75,            0.,NA,NA,"",   152.949E-03,  -119.501E-03,   95.4620E-03,   11.9651E-03
C:/temp/dataset/0/7_12.odb,Step-1,Increment      1: Step Time =    1.000,"PART-1-1",           524,       10.4567,      -19.3679,            0.,NA,NA,"",   216.759E-03,  -211.658E-03,   46.7467E-03,   14.4254E-03
C:/temp/dataset/0/7_12.odb,Step-1,Increment      1: Step Time =    1.000,"PART-1-1",           525,       11.6911,      -20.4036,            0.,NA,NA,"",   204.081E-03,  -196.663E-03,   54.5222E-03,   15.6223E-03
C:/temp/dataset/0/7_12.odb,Step-1,Increment      1: Step Time =    1.000,"PART-1-1",           526,       13.7764,      -15.1383,            0.,NA,NA,"",   334.194E-03,  -316.028E-03,   108.683E-03,   6.62209E-03
C:/temp/dataset/0/7_12.odb,Step-1,Increment      1: Step Time =    1.000,"PART-1-1",           527,           15.,        -16.25,            0.,NA,NA,"",   338.950E-03,  -317.289E-03,   119.228E-03,   9.91122E-03
C:/temp/dataset/0/7_12.odb,Step-1,Increment      1: Step Time =    1.000,"PART-1-1",           528,       13.9082,      -7.52913,            0.,NA,NA,"",   394.884E-03,  -383.439E-03,   94.3832E-03,   2.23889E-03
C:/temp/dataset/0/7_12.odb,Step-1,Increment      1: Step Time =    1.000,"PART-1-1",           529,       12.6962,      -8.81215,            0.,NA,NA,"",   382.604E-03,  -372.882E-03,   85.7023E-03,   1.76664E-03
C:/temp/dataset/0/7_12.odb,Step-1,Increment      1: Step Time =    1.000,"PART-1-1",           530,           15.,         -8.75,            0.,NA,NA,"",   386.305E-03,  -371.185E-03,   107.017E-03,   2.69524E-03
C:/temp/dataset/0/7_12.odb,Step-1,Increment      1: Step Time =    1.000,"PART-1-1",           531,       12.9315,      -6.39763,            0.,NA,NA,"",   402.636E-03,  -393.768E-03,   84.0416E-03,   1.66459E-03
C:/temp/dataset/0/7_12.odb,Step-1,Increment      1: Step Time =    1.000,"PART-1-1",           532,           15.,         -6.25,            0.,NA,NA,"",   405.641E-03,  -392.948E-03,   100.678E-03,   2.76480E-03
C:/temp/dataset/0/7_12.odb,Step-1,Increment      1: Step Time =    1.000,"PART-1-1",           533,       13.7496,  -319.059E-03,            0.,NA,NA,"",   439.799E-03,  -432.360E-03,   80.5460E-03,   1.60936E-03
C:/temp/dataset/0/7_12.odb,Step-1,Increment      1: Step Time =    1.000,"PART-1-1",           534,       12.6614,      -1.81770,            0.,NA,NA,"",   431.824E-03,  -425.059E-03,   76.1363E-03,   1.25395E-03
C:/temp/dataset/0/7_12.odb,Step-1,Increment      1: Step Time =    1.000,"PART-1-1",           535,           15.,         -1.25,            0.,NA,NA,"",   435.595E-03,  -426.409E-03,   88.9847E-03,   2.30414E-03
C:/temp/dataset/0/7_12.odb,Step-1,Increment      1: Step Time =    1.000,"PART-1-1",           536,       12.4054,   643.186E-03,            0.,NA,NA,"",   443.635E-03,  -437.699E-03,   72.3302E-03,   1.01469E-03
C:/temp/dataset/0/7_12.odb,Step-1,Increment      1: Step Time =    1.000,"PART-1-1",           537,           15.,          1.25,            0.,NA,NA,"",   446.747E-03,  -438.754E-03,   84.1299E-03,   2.00025E-03
C:/temp/dataset/0/7_12.odb,Step-1,Increment      1: Step Time =    1.000,"PART-1-1",           538,           15.,          6.25,            0.,NA,NA,"",   462.908E-03,  -456.537E-03,   76.5344E-03,   1.37860E-03
C:/temp/dataset/0/7_12.odb,Step-1,Increment      1: Step Time =    1.000,"PART-1-1",           539,       10.9661,       10.0010,            0.,NA,NA,"",   470.366E-03,  -466.084E-03,   63.3216E-03,   506.130E-06
C:/temp/dataset/0/7_12.odb,Step-1,Increment      1: Step Time =    1.000,"PART-1-1",           540,       13.7311,       15.1467,            0.,NA,NA,"",   478.025E-03,  -473.134E-03,   68.2067E-03,   281.271E-06
C:/temp/dataset/0/7_12.odb,Step-1,Increment      1: Step Time =    1.000,"PART-1-1",           541,       13.6638,       12.5861,            0.,NA,NA,"",   474.850E-03,  -469.851E-03,   68.7199E-03,   460.194E-06
C:/temp/dataset/0/7_12.odb,Step-1,Increment      1: Step Time =    1.000,"PART-1-1",           542,           15.,         13.75,            0.,NA,NA,"",   476.447E-03,  -471.214E-03,   70.4208E-03,   422.029E-06
C:/temp/dataset/0/7_12.odb,Step-1,Increment      1: Step Time =    1.000,"PART-1-1",           543,       10.0887,       16.9483,            0.,NA,NA,"",   478.990E-03,  -474.974E-03,   61.8934E-03,   566.246E-06
C:/temp/dataset/0/7_12.odb,Step-1,Increment      1: Step Time =    1.000,"PART-1-1",           544,       12.5455,       16.5489,            0.,NA,NA,"",   479.336E-03,  -474.744E-03,   66.1939E-03,   396.090E-06
C:/temp/dataset/0/7_12.odb,Step-1,Increment      1: Step Time =    1.000,"PART-1-1",           545,       13.9423,       22.5670,            0.,NA,NA,"",   487.675E-03,  -482.725E-03,   69.3093E-03,   280.809E-06
C:/temp/dataset/0/7_12.odb,Step-1,Increment      1: Step Time =    1.000,"PART-1-1",           546,       12.8310,       21.4264,            0.,NA,NA,"",   485.486E-03,  -480.796E-03,   67.3257E-03,   231.189E-06
C:/temp/dataset/0/7_12.odb,Step-1,Increment      1: Step Time =    1.000,"PART-1-1",           547,           15.,         21.25,            0.,NA,NA,"",   485.983E-03,  -480.828E-03,   70.5926E-03,   310.854E-06
C:/temp/dataset/0/7_12.odb,Step-1,Increment      1: Step Time =    1.000,"PART-1-1",           548,       13.0804,       28.7387,            0.,NA,NA,"",   498.496E-03,  -493.747E-03,   68.6484E-03,   78.8850E-06
C:/temp/dataset/0/7_12.odb,Step-1,Increment      1: Step Time =    1.000,"PART-1-1",           549,       12.1875,           30.,            0.,NA,NA,"",   500.457E-03,  -495.929E-03,   67.1738E-03,   79.1308E-06
C:/temp/dataset/0/7_12.odb,Step-1,Increment      1: Step Time =    1.000,"PART-1-1",           550,           15.,         28.75,            0.,NA,NA,"",   498.965E-03,  -493.757E-03,   71.8983E-03,   13.2434E-06
C:/temp/dataset/0/7_12.odb,Step-1,Increment      1: Step Time =    1.000,"PART-1-1",           551,       14.0625,           30.,            0.,NA,NA,"",   500.860E-03,  -495.903E-03,   70.2910E-03,   12.2911E-06
C:/temp/dataset/0/7_12.odb,Step-1,Increment      1: Step Time =    1.000,"PART-1-1",           552,       8.83353,       26.4105,            0.,NA,NA,"",   493.398E-03,  -489.472E-03,   62.1237E-03,   417.767E-06
C:/temp/dataset/0/7_12.odb,Step-1,Increment      1: Step Time =    1.000,"PART-1-1",           553,       9.77062,       25.1982,            0.,NA,NA,"",   491.072E-03,  -486.959E-03,   63.4219E-03,   412.273E-06
C:/temp/dataset/0/7_12.odb,Step-1,Increment      1: Step Time =    1.000,"PART-1-1",           554,       5.62710,       27.7270,            0.,NA,NA,"",   496.325E-03,  -493.069E-03,   56.7652E-03,   582.186E-06
C:/temp/dataset/0/7_12.odb,Step-1,Increment      1: Step Time =    1.000,"PART-1-1",           555,          6.25,           30.,            0.,NA,NA,"",   501.076E-03,  -497.785E-03,   57.3409E-03,   738.043E-06
C:/temp/dataset/0/7_12.odb,Step-1,Increment      1: Step Time =    1.000,"PART-1-1",           556,   375.256E-03,       24.5574,            0.,NA,NA,"",   485.677E-03,  -483.662E-03,   44.1935E-03,   503.275E-06
C:/temp/dataset/0/7_12.odb,Step-1,Increment      1: Step Time =    1.000,"PART-1-1",           557,   860.838E-03,       23.0169,            0.,NA,NA,"",   480.409E-03,  -478.259E-03,   45.3978E-03,   917.357E-06
C:/temp/dataset/0/7_12.odb,Step-1,Increment      1: Step Time =    1.000,"PART-1-1",           558,       10.5910,       21.6677,            0.,NA,NA,"",   484.915E-03,  -480.691E-03,   63.8630E-03,   350.770E-06
C:/temp/dataset/0/7_12.odb,Step-1,Increment      1: Step Time =    1.000,"PART-1-1",           559,       9.14786,      -24.5495,            0.,NA,NA,"",   73.8954E-03,  -73.6612E-03,   5.87973E-03,   9.07271E-03
C:/temp/dataset/0/7_12.odb,Step-1,Increment      1: Step Time =    1.000,"PART-1-1",           560,           15.,        -21.25,            0.,NA,NA,"",   239.786E-03,  -210.301E-03,   115.199E-03,   11.8569E-03
C:/temp/dataset/0/7_12.odb,Step-1,Increment      1: Step Time =    1.000,"PART-1-1",           561,       12.7662,      -21.5126,            0.,NA,NA,"",   186.362E-03,  -175.732E-03,   62.0409E-03,   15.1375E-03
C:/temp/dataset/0/7_12.odb,Step-1,Increment      1: Step Time =    1.000,"PART-1-1",           562,           15.,        -13.75,            0.,NA,NA,"",   342.549E-03,  -322.496E-03,   115.482E-03,   1.82616E-03
C:/temp/dataset/0/7_12.odb,Step-1,Increment      1: Step Time =    1.000,"PART-1-1",           563,       12.5272,      -13.9788,            0.,NA,NA,"",   335.029E-03,  -321.881E-03,   92.9339E-03,   3.42100E-03
C:/temp/dataset/0/7_12.odb,Step-1,Increment      1: Step Time =    1.000,"PART-1-1",           564,           15.,         11.25,            0.,NA,NA,"",   472.925E-03,  -467.452E-03,   71.7431E-03,   747.752E-06
C:/temp/dataset/0/7_12.odb,Step-1,Increment      1: Step Time =    1.000,"PART-1-1",           565,       12.2906,       11.3331,            0.,NA,NA,"",   472.867E-03,  -468.195E-03,   66.3070E-03,   525.488E-06
C:/temp/dataset/0/7_12.odb,Step-1,Increment      1: Step Time =    1.000,"PART-1-1",           566,       7.23650,       5.28124,            0.,NA,NA,"",   457.147E-03,  -454.403E-03,   50.0172E-03,   1.13327E-03
C:/temp/dataset/0/7_12.odb,Step-1,Increment      1: Step Time =    1.000,"PART-1-1",           567,       8.44697,       3.91887,            0.,NA,NA,"",   453.767E-03,  -450.596E-03,   53.5478E-03,   863.687E-06
C:/temp/dataset/0/7_12.odb,Step-1,Increment      1: Step Time =    1.000,"PART-1-1",           568,       9.72373,       11.4508,            0.,NA,NA,"",   472.291E-03,  -468.418E-03,   60.3619E-03,   583.545E-06
C:/temp/dataset/0/7_12.odb,Step-1,Increment      1: Step Time =    1.000,"PART-1-1",           569,           15.,         16.25,            0.,NA,NA,"",   479.488E-03,  -474.374E-03,   69.8399E-03,   101.598E-06
C:/temp/dataset/0/7_12.odb,Step-1,Increment      1: Step Time =    1.000,"PART-1-1",           570,       6.21850,       16.4100,            0.,NA,NA,"",   477.049E-03,  -473.820E-03,   55.4077E-03,   430.345E-06
C:/temp/dataset/0/7_12.odb,Step-1,Increment      1: Step Time =    1.000,"PART-1-1",           571,       7.58992,       17.5073,            0.,NA,NA,"",   478.490E-03,  -475.003E-03,   57.6666E-03,   561.556E-06
C:/temp/dataset/0/7_12.odb,Step-1,Increment      1: Step Time =    1.000,"PART-1-1",           572,       6.37141,       19.4306,            0.,NA,NA,"",   479.280E-03,  -475.962E-03,   56.2953E-03,   859.999E-06
C:/temp/dataset/0/7_12.odb,Step-1,Increment      1: Step Time =    1.000,"PART-1-1",           573,            5.,       18.3333,            0.,NA,NA,"",   478.469E-03,  -475.332E-03,   54.7035E-03,   387.095E-06
C:/temp/dataset/0/7_12.odb,Step-1,Increment      1: Step Time =    1.000,"PART-1-1",           574,           15.,         23.75,            0.,NA,NA,"",   490.065E-03,  -484.846E-03,   71.3311E-03,   273.216E-06
C:/temp/dataset/0/7_12.odb,Step-1,Increment      1: Step Time =    1.000,"PART-1-1",           575,         -3.75,          -20.,            0.,NA,NA,"",   59.4152E-03,  -58.8556E-03,   8.13525E-03,   2.43279E-03
C:/temp/dataset/0/7_12.odb,Step-1,Increment      1: Step Time =    1.000,"PART-1-1",           576,      -5.05545,      -21.0122,            0.,NA,NA,"",   56.7050E-03,  -55.8434E-03,   9.84726E-03,   3.76510E-03
C:/temp/dataset/0/7_12.odb,Step-1,Increment      1: Step Time =    1.000,"PART-1-1",           577,       7.51719,       25.3425,            0.,NA,NA,"",   490.737E-03,  -487.048E-03,   60.0650E-03,   518.258E-06
C:/temp/dataset/0/7_12.odb,Step-1,Increment      1: Step Time =    1.000,"PART-1-1",           578,       6.22510,       24.4051,            0.,NA,NA,"",   488.058E-03,  -484.611E-03,   57.9071E-03,   582.473E-06
C:/temp/dataset/0/7_12.odb,Step-1,Increment      1: Step Time =    1.000,"PART-1-1",           579,       7.27278,       23.2327,            0.,NA,NA,"",   485.879E-03,  -482.244E-03,   59.3186E-03,   613.864E-06
C:/temp/dataset/0/7_12.odb,Step-1,Increment      1: Step Time =    1.000,"PART-1-1",           580,       8.56487,       24.1701,            0.,NA,NA,"",   488.511E-03,  -484.628E-03,   61.4739E-03,   482.598E-06
C:/temp/dataset/0/7_12.odb,Step-1,Increment      1: Step Time =    1.000,"PART-1-1",           581,            5.,      -8.33333,            0.,NA,NA,"",   374.879E-03,  -374.747E-03,   9.95264E-03,   3.85860E-03
C:/temp/dataset/0/7_12.odb,Step-1,Increment      1: Step Time =    1.000,"PART-1-1",           582,       7.86568,      -7.92961,            0.,NA,NA,"",   383.702E-03,  -381.778E-03,   38.3731E-03,   1.64973E-03
C:/temp/dataset/0/7_12.odb,Step-1,Increment      1: Step Time =    1.000,"PART-1-1",           583,       6.55300,      -6.36051,            0.,NA,NA,"",   394.673E-03,  -393.604E-03,   29.0320E-03,   2.35074E-03
C:/temp/dataset/0/7_12.odb,Step-1,Increment      1: Step Time =    1.000,"PART-1-1",           584,       2.48006,       24.7002,            0.,NA,NA,"",   487.265E-03,  -484.670E-03,   50.2226E-03,   507.284E-06
C:/temp/dataset/0/7_12.odb,Step-1,Increment      1: Step Time =    1.000,"PART-1-1",           585,       1.90437,       23.5201,            0.,NA,NA,"",   483.068E-03,  -480.623E-03,   48.5422E-03,   672.910E-06
C:/temp/dataset/0/7_12.odb,Step-1,Increment      1: Step Time =    1.000,"PART-1-1",           586,       3.20717,       23.2686,            0.,NA,NA,"",   483.334E-03,  -480.548E-03,   51.8232E-03,   675.688E-06
C:/temp/dataset/0/7_12.odb,Step-1,Increment      1: Step Time =    1.000,"PART-1-1",           587,       3.78286,       24.4486,            0.,NA,NA,"",   487.114E-03,  -484.190E-03,   53.2896E-03,   520.890E-06
C:/temp/dataset/0/7_12.odb,Step-1,Increment      1: Step Time =    1.000,"PART-1-1",           588,   574.843E-03,       25.7278,            0.,NA,NA,"",   490.151E-03,  -488.098E-03,   44.8171E-03,   432.167E-06
C:/temp/dataset/0/7_12.odb,Step-1,Increment      1: Step Time =    1.000,"PART-1-1",           589,       1.89275,       27.1317,            0.,NA,NA,"",   495.179E-03,  -492.802E-03,   48.4633E-03,   598.120E-06
C:/temp/dataset/0/7_12.odb,Step-1,Increment      1: Step Time =    1.000,"PART-1-1",           590,   743.770E-03,       27.8321,            0.,NA,NA,"",   497.864E-03,  -495.836E-03,   44.8962E-03,   788.268E-06
C:/temp/dataset/0/7_12.odb,Step-1,Increment      1: Step Time =    1.000,"PART-1-1",           591,  -574.133E-03,       26.4282,            0.,NA,NA,"",   492.751E-03,  -491.051E-03,   40.8896E-03,   501.311E-06
C:/temp/dataset/0/7_12.odb,Step-1,Increment      1: Step Time =    1.000,"PART-1-1",           592,          1.25,           30.,            0.,NA,NA,"",   504.664E-03,  -502.618E-03,   45.3930E-03,   1.40173E-03
C:/temp/dataset/0/7_12.odb,Step-1,Increment      1: Step Time =    1.000,"PART-1-1",           593,  -258.432E-03,       28.8495,            0.,NA,NA,"",   502.101E-03,  -500.414E-03,   41.1194E-03,   1.15720E-03
C:/temp/dataset/0/7_12.odb,Step-1,Increment      1: Step Time =    1.000,"PART-1-1",           594,       3.99806,       26.6235,            0.,NA,NA,"",   493.496E-03,  -490.567E-03,   53.6837E-03,   528.480E-06
C:/temp/dataset/0/7_12.odb,Step-1,Increment      1: Step Time =    1.000,"PART-1-1",           595,       4.96332,       25.4314,            0.,NA,NA,"",   490.292E-03,  -487.115E-03,   55.7244E-03,   543.156E-06
C:/temp/dataset/0/7_12.odb,Step-1,Increment      1: Step Time =    1.000,"PART-1-1",           596,       6.59236,       26.5350,            0.,NA,NA,"",   493.394E-03,  -489.901E-03,   58.5992E-03,   508.470E-06
C:/temp/dataset/0/7_12.odb,Step-1,Increment      1: Step Time =    1.000,"PART-1-1",           597,          -1.5,           30.,            0.,NA,NA,"",   507.713E-03,  -506.457E-03,   35.6845E-03,   1.65099E-03
C:/temp/dataset/0/7_12.odb,Step-1,Increment      1: Step Time =    1.000,"PART-1-1",           598,      -3.21021,       28.8021,            0.,NA,NA,"",   504.209E-03,  -503.376E-03,   28.9645E-03,   1.28420E-03
C:/temp/dataset/0/7_12.odb,Step-1,Increment      1: Step Time =    1.000,"PART-1-1",           599,      -1.96864,       27.6516,            0.,NA,NA,"",   498.195E-03,  -496.956E-03,   35.1087E-03,   801.399E-06
C:/temp/dataset/0/7_12.odb,Step-1,Increment      1: Step Time =    1.000,"PART-1-1",           600,       2.23679,       22.3955,            0.,NA,NA,"",   479.840E-03,  -477.319E-03,   49.1193E-03,   949.861E-06
C:/temp/dataset/0/7_12.odb,Step-1,Increment      1: Step Time =    1.000,"PART-1-1",           601,       6.10470,      -23.0953,            0.,NA,NA,"",   88.9957E-03,  -88.2021E-03,  -11.8588E-03,   8.41198E-03
C:/temp/dataset/0/7_12.odb,Step-1,Increment      1: Step Time =    1.000,"PART-1-1",           602,       5.87020,      -25.1929,            0.,NA,NA,"",   56.3502E-03,  -55.4499E-03,  -10.0325E-03,   8.06841E-03
C:/temp/dataset/0/7_12.odb,Step-1,Increment      1: Step Time =    1.000,"PART-1-1",           603,       7.19944,      -25.3013,            0.,NA,NA,"",   55.7541E-03,  -55.4837E-03,  -5.48464E-03,   7.86478E-03
C:/temp/dataset/0/7_12.odb,Step-1,Increment      1: Step Time =    1.000,"PART-1-1",           604,       10.0350,      -14.2359,            0.,NA,NA,"",   319.261E-03,  -313.463E-03,   60.5707E-03,   2.80239E-03
C:/temp/dataset/0/7_12.odb,Step-1,Increment      1: Step Time =    1.000,"PART-1-1",           605,       11.6788,      -7.40939,            0.,NA,NA,"",   393.300E-03,  -386.187E-03,   74.4623E-03,   1.12318E-03
C:/temp/dataset/0/7_12.odb,Step-1,Increment      1: Step Time =    1.000,"PART-1-1",           606,       11.2427,      -1.09783,            0.,NA,NA,"",   434.665E-03,  -429.489E-03,   66.8841E-03,   656.784E-06
C:/temp/dataset/0/7_12.odb,Step-1,Increment      1: Step Time =    1.000,"PART-1-1",           607,       7.93860,       19.8912,            0.,NA,NA,"",   480.891E-03,  -477.262E-03,   58.9680E-03,   712.155E-06
C:/temp/dataset/0/7_12.odb,Step-1,Increment      1: Step Time =    1.000,"PART-1-1",           608,       8.98253,       18.5426,            0.,NA,NA,"",   480.133E-03,  -476.332E-03,   60.2930E-03,   599.664E-06
C:/temp/dataset/0/7_12.odb,Step-1,Increment      1: Step Time =    1.000,"PART-1-1",           609,       9.31070,       20.7205,            0.,NA,NA,"",   482.816E-03,  -478.880E-03,   61.5224E-03,   554.873E-06
C:/temp/dataset/0/7_12.odb,Step-1,Increment      1: Step Time =    1.000,"PART-1-1",           610,       3.88086,       22.5675,            0.,NA,NA,"",   481.962E-03,  -479.015E-03,   53.2202E-03,   754.531E-06
C:/temp/dataset/0/7_12.odb,Step-1,Increment      1: Step Time =    1.000,"PART-1-1",           611,       2.67965,       25.8706,            0.,NA,NA,"",   491.092E-03,  -488.466E-03,   50.7120E-03,   484.152E-06
C:/temp/dataset/0/7_12.odb,Step-1,Increment      1: Step Time =    1.000,"PART-1-1",           612,            5.,          -15.,            0.,NA,NA,"",   291.179E-03,  -290.434E-03,  -20.8207E-03,   5.45770E-03
C:/temp/dataset/0/7_12.odb,Step-1,Increment      1: Step Time =    1.000,"PART-1-1",           613,       6.27023,      -16.3841,            0.,NA,NA,"",   263.537E-03,  -263.537E-03,  -154.906E-06,   3.86555E-03
C:/temp/dataset/0/7_12.odb,Step-1,Increment      1: Step Time =    1.000,"PART-1-1",           614,       7.51616,      -14.5750,            0.,NA,NA,"",   303.598E-03,  -302.668E-03,   23.7424E-03,   2.82215E-03
C:/temp/dataset/0/7_12.odb,Step-1,Increment      1: Step Time =    1.000,"PART-1-1",           615,       6.15302,       13.2331,            0.,NA,NA,"",   473.277E-03,  -470.209E-03,   53.7970E-03,   710.113E-06
C:/temp/dataset/0/7_12.odb,Step-1,Increment      1: Step Time =    1.000,"PART-1-1",           616,       7.37153,       14.6431,            0.,NA,NA,"",   475.604E-03,  -472.233E-03,   56.5264E-03,   578.239E-06
C:/temp/dataset/0/7_12.odb,Step-1,Increment      1: Step Time =    1.000,"PART-1-1",           617,            5.,           15.,            0.,NA,NA,"",   475.077E-03,  -472.082E-03,   53.2657E-03,   657.599E-06
C:/temp/dataset/0/7_12.odb,Step-1,Increment      1: Step Time =    1.000,"PART-1-1",           618,            5.,       11.6667,            0.,NA,NA,"",   470.188E-03,  -467.447E-03,   50.6952E-03,   1.04275E-03
C:/temp/dataset/0/7_12.odb,Step-1,Increment      1: Step Time =    1.000,"PART-1-1",           619,       6.12690,       10.0064,            0.,NA,NA,"",   467.903E-03,  -465.080E-03,   51.3212E-03,   1.00514E-03
C:/temp/dataset/0/7_12.odb,Step-1,Increment      1: Step Time =    1.000,"PART-1-1",           620,       7.27992,       11.5729,            0.,NA,NA,"",   471.362E-03,  -468.152E-03,   54.9188E-03,   734.978E-06
C:/temp/dataset/0/7_12.odb,Step-1,Increment      1: Step Time =    1.000,"PART-1-1",           621,       6.15632,   278.618E-03,            0.,NA,NA,"",   436.309E-03,  -434.574E-03,   38.8755E-03,   1.91031E-03
C:/temp/dataset/0/7_12.odb,Step-1,Increment      1: Step Time =    1.000,"PART-1-1",           622,            5.,      -1.66667,            0.,NA,NA,"",   424.245E-03,  -423.270E-03,   28.7431E-03,   2.65030E-03
C:/temp/dataset/0/7_12.odb,Step-1,Increment      1: Step Time =    1.000,"PART-1-1",           623,       6.25252,      -2.97068,            0.,NA,NA,"",   418.295E-03,  -416.947E-03,   33.5599E-03,   2.17619E-03
C:/temp/dataset/0/7_12.odb,Step-1,Increment      1: Step Time =    1.000,"PART-1-1",           624,       7.67955,      -17.4721,            0.,NA,NA,"",   240.514E-03,  -239.479E-03,   22.2831E-03,   9.12618E-03
C:/temp/dataset/0/7_12.odb,Step-1,Increment      1: Step Time =    1.000,"PART-1-1",           625,            5.,      -18.3333,            0.,NA,NA,"",   212.499E-03,  -210.079E-03,  -31.9777E-03,   6.88596E-03
C:/temp/dataset/0/7_12.odb,Step-1,Increment      1: Step Time =    1.000,"PART-1-1",           626,       6.40932,      -19.4213,            0.,NA,NA,"",   171.922E-03,  -171.920E-03,   625.013E-06,   16.0066E-03
C:/temp/dataset/0/7_12.odb,Step-1,Increment      1: Step Time =    1.000,"PART-1-1",           627,      -1.73152,      -24.7018,            0.,NA,NA,"",   48.0085E-03,  -47.9468E-03,  -2.43318E-03,   6.87143E-03
C:/temp/dataset/0/7_12.odb,Step-1,Increment      1: Step Time =    1.000,"PART-1-1",           628,       9.06065,      -18.5206,            0.,NA,NA,"",   224.273E-03,  -221.492E-03,   35.2120E-03,   13.2931E-03
C:/temp/dataset/0/7_12.odb,Step-1,Increment      1: Step Time =    1.000,"PART-1-1",           629,       8.80686,      -15.8614,            0.,NA,NA,"",   285.242E-03,  -282.283E-03,   40.9793E-03,   4.88611E-03
C:/temp/dataset/0/7_12.odb,Step-1,Increment      1: Step Time =    1.000,"PART-1-1",           630,       10.3171,      -8.61722,            0.,NA,NA,"",   381.205E-03,  -376.053E-03,   62.4651E-03,   740.601E-06
C:/temp/dataset/0/7_12.odb,Step-1,Increment      1: Step Time =    1.000,"PART-1-1",           631,       8.85917,      -9.88939,            0.,NA,NA,"",   366.987E-03,  -363.952E-03,   47.0985E-03,   1.01441E-03
C:/temp/dataset/0/7_12.odb,Step-1,Increment      1: Step Time =    1.000,"PART-1-1",           632,       8.74431,      -12.9496,            0.,NA,NA,"",   332.084E-03,  -329.175E-03,   43.8556E-03,   1.23514E-03
C:/temp/dataset/0/7_12.odb,Step-1,Increment      1: Step Time =    1.000,"PART-1-1",           633,       6.89786,       21.2129,            0.,NA,NA,"",   481.725E-03,  -478.221E-03,   57.9949E-03,   816.264E-06
C:/temp/dataset/0/7_12.odb,Step-1,Increment      1: Step Time =    1.000,"PART-1-1",           634,       10.2659,      -2.76771,            0.,NA,NA,"",   424.552E-03,  -420.151E-03,   60.9689E-03,   541.427E-06
C:/temp/dataset/0/7_12.odb,Step-1,Increment      1: Step Time =    1.000,"PART-1-1",           635,       7.80552,      -4.33119,            0.,NA,NA,"",   411.613E-03,  -409.430E-03,   42.3367E-03,   1.45817E-03
C:/temp/dataset/0/7_12.odb,Step-1,Increment      1: Step Time =    1.000,"PART-1-1",           636,            5.,           -5.,            0.,NA,NA,"",   402.394E-03,  -401.886E-03,   20.2071E-03,   3.13332E-03
C:/temp/dataset/0/7_12.odb,Step-1,Increment      1: Step Time =    1.000,"PART-1-1",           637,       7.27801,       2.13112,            0.,NA,NA,"",   445.962E-03,  -443.489E-03,   46.8993E-03,   1.31992E-03
C:/temp/dataset/0/7_12.odb,Step-1,Increment      1: Step Time =    1.000,"PART-1-1",           638,       6.12168,       3.51917,            0.,NA,NA,"",   450.117E-03,  -447.982E-03,   43.7860E-03,   1.61676E-03
C:/temp/dataset/0/7_12.odb,Step-1,Increment      1: Step Time =    1.000,"PART-1-1",           639,            5.,       1.66667,            0.,NA,NA,"",   441.228E-03,  -439.754E-03,   36.0394E-03,   2.24230E-03
C:/temp/dataset/0/7_12.odb,Step-1,Increment      1: Step Time =    1.000,"PART-1-1",           640,            5.,            5.,            0.,NA,NA,"",   454.033E-03,  -452.074E-03,   42.1311E-03,   1.83621E-03
C:/temp/dataset/0/7_12.odb,Step-1,Increment      1: Step Time =    1.000,"PART-1-1",           641,       6.11481,       6.76207,            0.,NA,NA,"",   460.419E-03,  -457.913E-03,   47.9715E-03,   1.31285E-03
C:/temp/dataset/0/7_12.odb,Step-1,Increment      1: Step Time =    1.000,"PART-1-1",           642,       8.53738,       13.0133,            0.,NA,NA,"",   474.047E-03,  -470.466E-03,   58.1527E-03,   580.154E-06
C:/temp/dataset/0/7_12.odb,Step-1,Increment      1: Step Time =    1.000,"PART-1-1",           643,       8.69606,       15.9130,            0.,NA,NA,"",   477.478E-03,  -473.795E-03,   59.1897E-03,   551.219E-06
C:/temp/dataset/0/7_12.odb,Step-1,Increment      1: Step Time =    1.000,"PART-1-1",           644,       9.56938,       22.9454,            0.,NA,NA,"",   486.563E-03,  -482.511E-03,   62.6641E-03,   445.635E-06
C:/temp/dataset/0/7_12.odb,Step-1,Increment      1: Step Time =    1.000,"PART-1-1",           645,       8.28908,       21.9981,            0.,NA,NA,"",   484.117E-03,  -480.332E-03,   60.4192E-03,   590.420E-06
C:/temp/dataset/0/7_12.odb,Step-1,Increment      1: Step Time =    1.000,"PART-1-1",           646,      -3.61415,       26.3795,            0.,NA,NA,"",   492.745E-03,  -491.940E-03,   28.1537E-03,   538.088E-06
C:/temp/dataset/0/7_12.odb,Step-1,Increment      1: Step Time =    1.000,"PART-1-1",           647,      -6.18563,       28.7596,            0.,NA,NA,"",   506.440E-03,  -506.280E-03,   12.7292E-03,   1.16054E-03
C:/temp/dataset/0/7_12.odb,Step-1,Increment      1: Step Time =    1.000,"PART-1-1",           648,      -4.89584,       27.5617,            0.,NA,NA,"",   499.112E-03,  -498.675E-03,   20.8867E-03,   819.949E-06
C:/temp/dataset/0/7_12.odb,Step-1,Increment      1: Step Time =    1.000,"PART-1-1",           649,          -4.5,           30.,            0.,NA,NA,"",   511.552E-03,  -511.096E-03,   21.6048E-03,   1.65739E-03
C:/temp/dataset/0/7_12.odb,Step-1,Increment      1: Step Time =    1.000,"PART-1-1",           650,          -15.,          19.5,            0.,NA,NA,"",   448.608E-03,  -445.212E-03,  -55.0965E-03,   1.54494E-03
C:/temp/dataset/0/7_12.odb,Step-1,Increment      1: Step Time =    1.000,"PART-1-1",           651,      -13.6835,       18.2834,            0.,NA,NA,"",   438.092E-03,  -435.735E-03,  -45.3786E-03,   1.15045E-03
C:/temp/dataset/0/7_12.odb,Step-1,Increment      1: Step Time =    1.000,"PART-1-1",           652,      -12.3643,       20.0316,            0.,NA,NA,"",   452.235E-03,  -451.037E-03,  -32.8971E-03,   729.863E-06
C:/temp/dataset/0/7_12.odb,Step-1,Increment      1: Step Time =    1.000,"PART-1-1",           653,      -13.6808,       21.2481,            0.,NA,NA,"",   461.735E-03,  -459.769E-03,  -42.5660E-03,   1.09602E-03
C:/temp/dataset/0/7_12.odb,Step-1,Increment      1: Step Time =    1.000,"PART-1-1",           654,      -6.08047,      -19.7739,            0.,NA,NA,"",   58.2667E-03,  -57.1571E-03,   11.3171E-03,   2.35779E-03
C:/temp/dataset/0/7_12.odb,Step-1,Increment      1: Step Time =    1.000,"PART-1-1",           655,      -7.17803,      -20.6070,            0.,NA,NA,"",   53.6171E-03,  -53.1997E-03,   6.67735E-03,   1.40591E-03
C:/temp/dataset/0/7_12.odb,Step-1,Increment      1: Step Time =    1.000,"PART-1-1",           656,       5.87583,      -21.1387,            0.,NA,NA,"",   121.574E-03,  -120.894E-03,  -12.8450E-03,   12.6497E-03
C:/temp/dataset/0/7_12.odb,Step-1,Increment      1: Step Time =    1.000,"PART-1-1",           657,       4.61047,      -23.6002,            0.,NA,NA,"",   78.3259E-03,  -76.6327E-03,  -16.1977E-03,   9.40105E-03
C:/temp/dataset/0/7_12.odb,Step-1,Increment      1: Step Time =    1.000,"PART-1-1",           658,       4.56928,      -26.4448,            0.,NA,NA,"",   39.7173E-03,  -38.6266E-03,  -9.24391E-03,   8.03530E-03
C:/temp/dataset/0/7_12.odb,Step-1,Increment      1: Step Time =    1.000,"PART-1-1",           659,       5.04464,       23.4223,            0.,NA,NA,"",   484.989E-03,  -481.779E-03,   55.7075E-03,   631.038E-06
C:/temp/dataset/0/7_12.odb,Step-1,Increment      1: Step Time =    1.000,"PART-1-1",           660,       5.88156,       22.4475,            0.,NA,NA,"",   483.230E-03,  -479.866E-03,   56.9235E-03,   735.185E-06
C:/temp/dataset/0/7_12.odb,Step-1,Increment      1: Step Time =    1.000,"PART-1-1",           661,      -1.61333,      -27.2257,            0.,NA,NA,"",   27.2038E-03,  -27.0559E-03,  -2.83292E-03,   6.76844E-03
C:/temp/dataset/0/7_12.odb,Step-1,Increment      1: Step Time =    1.000,"PART-1-1",           662,      -3.01002,      -28.6350,            0.,NA,NA,"",   12.9256E-03,  -12.8717E-03,  -1.17955E-03,   6.26458E-03
C:/temp/dataset/0/7_12.odb,Step-1,Increment      1: Step Time =    1.000,"PART-1-1",           663,          -1.5,          -30.,            0.,NA,NA,"",            0.,  -7.96180E-39,  -4.57237E-39,   7.03872E-03
C:/temp/dataset/0/7_12.odb,Step-1,Increment      1: Step Time =    1.000,"PART-1-1",           664,            5.,       8.33333,            0.,NA,NA,"",   463.425E-03,  -461.034E-03,   47.0170E-03,   1.43128E-03
C:/temp/dataset/0/7_12.odb,Step-1,Increment      1: Step Time =    1.000,"PART-1-1",           665,       8.16766,      -19.9578,            0.,NA,NA,"",   174.101E-03,  -173.188E-03,   17.8089E-03,   15.2917E-03
C:/temp/dataset/0/7_12.odb,Step-1,Increment      1: Step Time =    1.000,"PART-1-1",           666,       7.85169,      -26.8977,            0.,NA,NA,"",   32.4517E-03,  -32.3657E-03,  -2.36121E-03,   6.99188E-03
C:/temp/dataset/0/7_12.odb,Step-1,Increment      1: Step Time =    1.000,"PART-1-1",           667,          -4.5,          -30.,            0.,NA,NA,"",            0.,  -6.51330E-39,  -2.74824E-39,   5.73775E-03
C:/temp/dataset/0/7_12.odb,Step-1,Increment      1: Step Time =    1.000,"PART-1-1",           668,      -7.38541,       11.9129,            0.,NA,NA,"",   373.104E-03,  -372.863E-03,   13.4036E-03,   785.609E-06
C:/temp/dataset/0/7_12.odb,Step-1,Increment      1: Step Time =    1.000,"PART-1-1",           669,      -9.84369,       11.4885,            0.,NA,NA,"",   368.795E-03,  -368.622E-03,  -11.2837E-03,   591.496E-06
C:/temp/dataset/0/7_12.odb,Step-1,Increment      1: Step Time =    1.000,"PART-1-1",           670,           -5.,      -18.4615,            0.,NA,NA,"",   68.2568E-03,  -65.5937E-03,   18.8802E-03,   3.92591E-03
C:/temp/dataset/0/7_12.odb,Step-1,Increment      1: Step Time =    1.000,"PART-1-1",           671,      -6.12192,      -16.9214,            0.,NA,NA,"",   76.1786E-03,  -74.4418E-03,   16.1738E-03,   1.95078E-03
C:/temp/dataset/0/7_12.odb,Step-1,Increment      1: Step Time =    1.000,"PART-1-1",           672,      -12.3453,      -25.6066,            0.,NA,NA,"",   26.9897E-03,  -25.4447E-03,  -9.00042E-03,   2.89028E-03
C:/temp/dataset/0/7_12.odb,Step-1,Increment      1: Step Time =    1.000,"PART-1-1",           673,      -10.6437,      -26.7860,            0.,NA,NA,"",   18.6133E-03,  -18.2924E-03,  -3.44129E-03,   3.37804E-03
C:/temp/dataset/0/7_12.odb,Step-1,Increment      1: Step Time =    1.000,"PART-1-1",           674,      -9.83114,      -25.4438,            0.,NA,NA,"",   26.8169E-03,  -26.6571E-03,  -2.92396E-03,   2.76308E-03
C:/temp/dataset/0/7_12.odb,Step-1,Increment      1: Step Time =    1.000,"PART-1-1",           675,      -8.43320,      -25.2132,            0.,NA,NA,"",   29.3868E-03,  -29.3821E-03,  -521.166E-06,   3.17026E-03
C:/temp/dataset/0/7_12.odb,Step-1,Increment      1: Step Time =    1.000,"PART-1-1",           676,      -9.78639,       17.5920,            0.,NA,NA,"",   431.204E-03,  -431.039E-03,  -11.9378E-03,   473.507E-06
C:/temp/dataset/0/7_12.odb,Step-1,Increment      1: Step Time =    1.000,"PART-1-1",           677,      -11.0716,       18.8358,            0.,NA,NA,"",   442.328E-03,  -441.744E-03,  -22.7233E-03,   521.904E-06
C:/temp/dataset/0/7_12.odb,Step-1,Increment      1: Step Time =    1.000,"PART-1-1",           678,      -12.3675,       17.0640,            0.,NA,NA,"",   426.748E-03,  -425.333E-03,  -34.7313E-03,   687.099E-06
C:/temp/dataset/0/7_12.odb,Step-1,Increment      1: Step Time =    1.000,"PART-1-1",           679,      -12.1189,      -19.2948,            0.,NA,NA,"",   62.4610E-03,  -60.0632E-03,  -17.1403E-03,   1.39528E-03
C:/temp/dataset/0/7_12.odb,Step-1,Increment      1: Step Time =    1.000,"PART-1-1",           680,      -11.0109,      -17.4013,            0.,NA,NA,"",   72.1097E-03,  -70.9982E-03,  -12.6116E-03,   969.771E-06
C:/temp/dataset/0/7_12.odb,Step-1,Increment      1: Step Time =    1.000,"PART-1-1",           681,      -8.01079,      -21.5107,            0.,NA,NA,"",   48.7560E-03,  -48.6610E-03,   3.04186E-03,   1.36421E-03
C:/temp/dataset/0/7_12.odb,Step-1,Increment      1: Step Time =    1.000,"PART-1-1",           682,           4.5,          -30.,            0.,NA,NA,"",            0.,  -7.23905E-39,  -6.17874E-39,   6.64935E-03
C:/temp/dataset/0/7_12.odb,Step-1,Increment      1: Step Time =    1.000,"PART-1-1",           683,       6.14133,      -28.2363,            0.,NA,NA,"",   17.1429E-03,  -16.7986E-03,  -3.41845E-03,   6.82747E-03
C:/temp/dataset/0/7_12.odb,Step-1,Increment      1: Step Time =    1.000,"PART-1-1",           684,      -9.14726,       28.6966,            0.,NA,NA,"",   508.233E-03,  -508.186E-03,  -6.94165E-03,   807.446E-06
C:/temp/dataset/0/7_12.odb,Step-1,Increment      1: Step Time =    1.000,"PART-1-1",           685,         -10.5,           30.,            0.,NA,NA,"",   517.909E-03,  -517.632E-03,  -16.9215E-03,   577.141E-06
C:/temp/dataset/0/7_12.odb,Step-1,Increment      1: Step Time =    1.000,"PART-1-1",           686,      -6.18127,      -10.8771,            0.,NA,NA,"",   126.115E-03,  -123.769E-03,   24.2112E-03,   1.23539E-03
C:/temp/dataset/0/7_12.odb,Step-1,Increment      1: Step Time =    1.000,"PART-1-1",           687,      -6.16241,      -13.9212,            0.,NA,NA,"",   99.5665E-03,  -97.3773E-03,   20.7643E-03,   1.56868E-03
C:/temp/dataset/0/7_12.odb,Step-1,Increment      1: Step Time =    1.000,"PART-1-1",           688,           -5.,      -12.3077,            0.,NA,NA,"",   116.488E-03,  -111.832E-03,   32.6037E-03,   1.83704E-03
C:/temp/dataset/0/7_12.odb,Step-1,Increment      1: Step Time =    1.000,"PART-1-1",           689,         -10.5,          -30.,            0.,NA,NA,"",            0.,  -3.56790E-39,  -4.08950E-39,   3.65567E-03
C:/temp/dataset/0/7_12.odb,Step-1,Increment      1: Step Time =    1.000,"PART-1-1",           690,          -15.,          22.5,            0.,NA,NA,"",   470.916E-03,  -468.125E-03,  -51.1924E-03,   1.20801E-03
C:/temp/dataset/0/7_12.odb,Step-1,Increment      1: Step Time =    1.000,"PART-1-1",           691,          -15.,          16.5,            0.,NA,NA,"",   422.812E-03,  -418.641E-03,  -59.2451E-03,   1.45241E-03
C:/temp/dataset/0/7_12.odb,Step-1,Increment      1: Step Time =    1.000,"PART-1-1",           692,      -13.6840,       15.2806,            0.,NA,NA,"",   410.423E-03,  -407.604E-03,  -48.0137E-03,   955.011E-06
C:/temp/dataset/0/7_12.odb,Step-1,Increment      1: Step Time =    1.000,"PART-1-1",           693,          -15.,          13.5,            0.,NA,NA,"",   393.890E-03,  -388.880E-03,  -62.6229E-03,   1.11053E-03
C:/temp/dataset/0/7_12.odb,Step-1,Increment      1: Step Time =    1.000,"PART-1-1",           694,      -6.20685,       4.43382,            0.,NA,NA,"",   290.126E-03,  -288.583E-03,   29.8820E-03,   312.942E-06
C:/temp/dataset/0/7_12.odb,Step-1,Increment      1: Step Time =    1.000,"PART-1-1",           695,           -5.,       6.15385,            0.,NA,NA,"",   311.117E-03,  -308.153E-03,   42.8436E-03,   453.569E-06
C:/temp/dataset/0/7_12.odb,Step-1,Increment      1: Step Time =    1.000,"PART-1-1",           696,      -6.20051,      -1.69203,            0.,NA,NA,"",   220.741E-03,  -218.692E-03,   30.0042E-03,   410.069E-06
C:/temp/dataset/0/7_12.odb,Step-1,Increment      1: Step Time =    1.000,"PART-1-1",           697,      -6.19850,      -4.75722,            0.,NA,NA,"",   187.303E-03,  -185.069E-03,   28.8480E-03,   671.929E-06
C:/temp/dataset/0/7_12.odb,Step-1,Increment      1: Step Time =    1.000,"PART-1-1",           698,           -5.,      -3.07692,            0.,NA,NA,"",   208.097E-03,  -203.707E-03,   42.5166E-03,   683.472E-06
C:/temp/dataset/0/7_12.odb,Step-1,Increment      1: Step Time =    1.000,"PART-1-1",           699,      -12.3926,       7.99194,            0.,NA,NA,"",   331.626E-03,  -329.503E-03,  -37.4643E-03,   455.451E-06
C:/temp/dataset/0/7_12.odb,Step-1,Increment      1: Step Time =    1.000,"PART-1-1",           700,          -15.,           7.5,            0.,NA,NA,"",   330.205E-03,  -323.521E-03,  -66.1011E-03,   329.642E-06
C:/temp/dataset/0/7_12.odb,Step-1,Increment      1: Step Time =    1.000,"PART-1-1",           701,      -12.4166,      -1.07984,            0.,NA,NA,"",   228.231E-03,  -225.412E-03,  -35.7636E-03,   612.940E-06
C:/temp/dataset/0/7_12.odb,Step-1,Increment      1: Step Time =    1.000,"PART-1-1",           702,          -15.,          -1.5,            0.,NA,NA,"",   230.213E-03,  -221.252E-03,  -63.6055E-03,   789.313E-06
C:/temp/dataset/0/7_12.odb,Step-1,Increment      1: Step Time =    1.000,"PART-1-1",           703,      -12.3992,      -10.1184,            0.,NA,NA,"",   133.664E-03,  -130.397E-03,  -29.3715E-03,   1.05567E-03
C:/temp/dataset/0/7_12.odb,Step-1,Increment      1: Step Time =    1.000,"PART-1-1",           704,          -15.,         -10.5,            0.,NA,NA,"",   138.625E-03,  -128.424E-03,  -52.1931E-03,   1.90106E-03
C:/temp/dataset/0/7_12.odb,Step-1,Increment      1: Step Time =    1.000,"PART-1-1",           705,      -6.19567,      -7.82333,            0.,NA,NA,"",   155.530E-03,  -153.188E-03,   26.8913E-03,   948.297E-06
C:/temp/dataset/0/7_12.odb,Step-1,Increment      1: Step Time =    1.000,"PART-1-1",           706,           -5.,      -6.15385,            0.,NA,NA,"",   175.530E-03,  -170.844E-03,   40.2867E-03,   1.06022E-03
C:/temp/dataset/0/7_12.odb,Step-1,Increment      1: Step Time =    1.000,"PART-1-1",           707,          -15.,         -22.5,            0.,NA,NA,"",   52.5651E-03,  -44.9661E-03,  -27.2240E-03,   2.31946E-03
C:/temp/dataset/0/7_12.odb,Step-1,Increment      1: Step Time =    1.000,"PART-1-1",           708,      -13.7480,      -24.0946,            0.,NA,NA,"",   39.5622E-03,  -35.3659E-03,  -17.7319E-03,   2.26113E-03
C:/temp/dataset/0/7_12.odb,Step-1,Increment      1: Step Time =    1.000,"PART-1-1",           709,      -13.4685,      -20.9699,            0.,NA,NA,"",   56.2095E-03,  -51.6949E-03,  -22.0713E-03,   1.84245E-03
C:/temp/dataset/0/7_12.odb,Step-1,Increment      1: Step Time =    1.000,"PART-1-1",           710,          -15.,         -25.5,            0.,NA,NA,"",   35.8120E-03,  -29.0699E-03,  -20.9150E-03,   3.19708E-03
C:/temp/dataset/0/7_12.odb,Step-1,Increment      1: Step Time =    1.000,"PART-1-1",           711,           7.5,          -30.,            0.,NA,NA,"",            0.,  -5.02102E-39,  -1.97082E-39,   4.78520E-03
C:/temp/dataset/0/7_12.odb,Step-1,Increment      1: Step Time =    1.000,"PART-1-1",           712,       9.21036,      -28.6615,            0.,NA,NA,"",   10.8435E-03,  -10.7949E-03,   1.02518E-03,   5.53440E-03
C:/temp/dataset/0/7_12.odb,Step-1,Increment      1: Step Time =    1.000,"PART-1-1",           713,          10.5,          -30.,            0.,NA,NA,"",            0.,  -3.91191E-39,   8.19432E-39,   4.84899E-03
C:/temp/dataset/0/7_12.odb,Step-1,Increment      1: Step Time =    1.000,"PART-1-1",           714,          -7.5,           30.,            0.,NA,NA,"",   515.219E-03,  -515.205E-03,   3.68682E-03,   1.24862E-03
C:/temp/dataset/0/7_12.odb,Step-1,Increment      1: Step Time =    1.000,"PART-1-1",           715,          -15.,         -19.5,            0.,NA,NA,"",   69.8449E-03,  -61.2982E-03,  -33.4791E-03,   2.38171E-03
C:/temp/dataset/0/7_12.odb,Step-1,Increment      1: Step Time =    1.000,"PART-1-1",           716,      -6.18713,       13.6475,            0.,NA,NA,"",   391.600E-03,  -390.853E-03,   24.1722E-03,   1.09344E-03
C:/temp/dataset/0/7_12.odb,Step-1,Increment      1: Step Time =    1.000,"PART-1-1",           717,           -5.,       15.3846,            0.,NA,NA,"",   409.398E-03,  -407.972E-03,   34.1383E-03,   1.53322E-03
C:/temp/dataset/0/7_12.odb,Step-1,Increment      1: Step Time =    1.000,"PART-1-1",           718,           -5.,       12.3077,            0.,NA,NA,"",   378.120E-03,  -376.218E-03,   37.8845E-03,   1.17156E-03
C:/temp/dataset/0/7_12.odb,Step-1,Increment      1: Step Time =    1.000,"PART-1-1",           719,           -5.,            0.,            0.,NA,NA,"",   241.953E-03,  -237.977E-03,   43.6815E-03,   304.627E-06
C:/temp/dataset/0/7_12.odb,Step-1,Increment      1: Step Time =    1.000,"PART-1-1",           720,      -6.20706,       1.36812,            0.,NA,NA,"",   255.175E-03,  -253.369E-03,   30.3039E-03,   225.188E-06
C:/temp/dataset/0/7_12.odb,Step-1,Increment      1: Step Time =    1.000,"PART-1-1",           721,           -5.,       3.07692,            0.,NA,NA,"",   276.498E-03,  -273.009E-03,   43.7887E-03,   78.5106E-06
C:/temp/dataset/0/7_12.odb,Step-1,Increment      1: Step Time =    1.000,"PART-1-1",           722,           -5.,      -9.23077,            0.,NA,NA,"",   144.838E-03,  -140.030E-03,   37.0061E-03,   1.44041E-03
C:/temp/dataset/0/7_12.odb,Step-1,Increment      1: Step Time =    1.000,"PART-1-1",           723,      -8.78100,      -23.2553,            0.,NA,NA,"",   39.5687E-03,  -39.5667E-03,  -396.694E-06,   2.02106E-03
C:/temp/dataset/0/7_12.odb,Step-1,Increment      1: Step Time =    1.000,"PART-1-1",           724,      -11.0900,      -14.4409,            0.,NA,NA,"",   93.6545E-03,  -92.3817E-03,  -15.3881E-03,   839.052E-06
C:/temp/dataset/0/7_12.odb,Step-1,Increment      1: Step Time =    1.000,"PART-1-1",           725,      -11.1215,      -11.4552,            0.,NA,NA,"",   118.953E-03,  -117.661E-03,  -17.4851E-03,   758.863E-06
C:/temp/dataset/0/7_12.odb,Step-1,Increment      1: Step Time =    1.000,"PART-1-1",           726,      -11.1359,      -8.44257,            0.,NA,NA,"",   147.518E-03,  -146.263E-03,  -19.2005E-03,   699.724E-06
C:/temp/dataset/0/7_12.odb,Step-1,Increment      1: Step Time =    1.000,"PART-1-1",           727,      -11.1177,       9.73479,            0.,NA,NA,"",   350.069E-03,  -349.242E-03,  -24.0545E-03,   501.861E-06
C:/temp/dataset/0/7_12.odb,Step-1,Increment      1: Step Time =    1.000,"PART-1-1",           728,      -11.1376,       6.69211,            0.,NA,NA,"",   315.647E-03,  -314.735E-03,  -23.9765E-03,   503.124E-06
C:/temp/dataset/0/7_12.odb,Step-1,Increment      1: Step Time =    1.000,"PART-1-1",           729,      -11.1470,       3.65829,            0.,NA,NA,"",   280.708E-03,  -279.717E-03,  -23.5689E-03,   519.809E-06
C:/temp/dataset/0/7_12.odb,Step-1,Increment      1: Step Time =    1.000,"PART-1-1",           730,           -5.,      -15.3846,            0.,NA,NA,"",   91.1037E-03,  -86.9605E-03,   27.1615E-03,   2.37676E-03
C:/temp/dataset/0/7_12.odb,Step-1,Increment      1: Step Time =    1.000,"PART-1-1",           731,      -11.1521,   627.191E-03,            0.,NA,NA,"",   245.807E-03,  -244.740E-03,  -22.8838E-03,   551.344E-06
C:/temp/dataset/0/7_12.odb,Step-1,Increment      1: Step Time =    1.000,"PART-1-1",           732,      -11.1477,      -2.39557,            0.,NA,NA,"",   211.614E-03,  -210.480E-03,  -21.8768E-03,   593.835E-06
C:/temp/dataset/0/7_12.odb,Step-1,Increment      1: Step Time =    1.000,"PART-1-1",           733,      -11.1389,      -5.41444,            0.,NA,NA,"",   178.688E-03,  -177.495E-03,  -20.6135E-03,   643.364E-06
