ODB Name,Step,Frame,Part Instance Name,    êﬂì_ÉâÉxÉã,X,Y,Z,Section Name,Material Name,Section Point,   U-Magnitude,          U-U1,          U-U2,       S-Mises
C:/temp/dataset/0/7_18.odb,Step-1,Increment      1: Step Time =    1.000,"PART-1-1",             1,            5.,           20.,            0.,NA,NA,"",   715.610E-03,  -711.151E-03,   79.7567E-03,   2.20497E-03
C:/temp/dataset/0/7_18.odb,Step-1,Increment      1: Step Time =    1.000,"PART-1-1",             2,            0.,           20.,            0.,NA,NA,"",   701.132E-03,  -698.620E-03,   59.2911E-03,   2.66193E-03
C:/temp/dataset/0/7_18.odb,Step-1,Increment      1: Step Time =    1.000,"PART-1-1",             3,            5.,           10.,            0.,NA,NA,"",   698.905E-03,  -695.290E-03,   70.9942E-03,   1.84372E-03
C:/temp/dataset/0/7_18.odb,Step-1,Increment      1: Step Time =    1.000,"PART-1-1",             4,            5.,            0.,            0.,NA,NA,"",   648.468E-03,  -646.811E-03,   46.3343E-03,   3.66427E-03
C:/temp/dataset/0/7_18.odb,Step-1,Increment      1: Step Time =    1.000,"PART-1-1",             5,            5.,          -10.,            0.,NA,NA,"",   536.511E-03,  -536.499E-03,   3.64634E-03,   6.51144E-03
C:/temp/dataset/0/7_18.odb,Step-1,Increment      1: Step Time =    1.000,"PART-1-1",             6,            5.,          -20.,            0.,NA,NA,"",   208.095E-03,  -205.234E-03,  -34.3872E-03,   32.0898E-03
C:/temp/dataset/0/7_18.odb,Step-1,Increment      1: Step Time =    1.000,"PART-1-1",             7,            0.,          -20.,            0.,NA,NA,"",   109.928E-03,  -109.886E-03,   3.02092E-03,   9.23470E-03
C:/temp/dataset/0/7_18.odb,Step-1,Increment      1: Step Time =    1.000,"PART-1-1",             8,           -5.,          -20.,            0.,NA,NA,"",   87.9584E-03,  -85.9804E-03,   18.5487E-03,   5.93949E-03
C:/temp/dataset/0/7_18.odb,Step-1,Increment      1: Step Time =    1.000,"PART-1-1",             9,           -5.,           20.,            0.,NA,NA,"",   682.921E-03,  -682.011E-03,   35.2447E-03,   5.88295E-03
C:/temp/dataset/0/7_18.odb,Step-1,Increment      1: Step Time =    1.000,"PART-1-1",            10,           15.,           30.,            0.,NA,NA,"",   749.166E-03,  -741.772E-03,   104.992E-03,   19.6573E-06
C:/temp/dataset/0/7_18.odb,Step-1,Increment      1: Step Time =    1.000,"PART-1-1",            11,           7.5,           30.,            0.,NA,NA,"",   748.540E-03,  -743.486E-03,   86.8357E-03,   839.924E-06
C:/temp/dataset/0/7_18.odb,Step-1,Increment      1: Step Time =    1.000,"PART-1-1",            12,            0.,           30.,            0.,NA,NA,"",   756.596E-03,  -754.229E-03,   59.8011E-03,   2.32707E-03
C:/temp/dataset/0/7_18.odb,Step-1,Increment      1: Step Time =    1.000,"PART-1-1",            13,          -15.,           30.,            0.,NA,NA,"",   778.341E-03,  -774.837E-03,  -73.7706E-03,   84.3837E-06
C:/temp/dataset/0/7_18.odb,Step-1,Increment      1: Step Time =    1.000,"PART-1-1",            14,          -15.,          -30.,            0.,NA,NA,"",            0.,  -5.27861E-39,  -8.63444E-39,   13.7418E-03
C:/temp/dataset/0/7_18.odb,Step-1,Increment      1: Step Time =    1.000,"PART-1-1",            15,           15.,          -30.,            0.,NA,NA,"",            0.,  -12.9597E-39,   23.6328E-39,   38.3130E-03
C:/temp/dataset/0/7_18.odb,Step-1,Increment      1: Step Time =    1.000,"PART-1-1",            16,           15.,         -22.5,            0.,NA,NA,"",   294.597E-03,  -246.490E-03,   161.339E-03,   17.0927E-03
C:/temp/dataset/0/7_18.odb,Step-1,Increment      1: Step Time =    1.000,"PART-1-1",            17,           15.,          -15.,            0.,NA,NA,"",   510.437E-03,  -480.979E-03,   170.895E-03,   9.89016E-03
C:/temp/dataset/0/7_18.odb,Step-1,Increment      1: Step Time =    1.000,"PART-1-1",            18,           15.,          -7.5,            0.,NA,NA,"",   592.972E-03,  -572.856E-03,   153.141E-03,   4.21623E-03
C:/temp/dataset/0/7_18.odb,Step-1,Increment      1: Step Time =    1.000,"PART-1-1",            19,           15.,            0.,            0.,NA,NA,"",   660.492E-03,  -648.176E-03,   126.957E-03,   3.22575E-03
C:/temp/dataset/0/7_18.odb,Step-1,Increment      1: Step Time =    1.000,"PART-1-1",            20,           15.,           7.5,            0.,NA,NA,"",   697.030E-03,  -688.318E-03,   109.863E-03,   1.83231E-03
C:/temp/dataset/0/7_18.odb,Step-1,Increment      1: Step Time =    1.000,"PART-1-1",            21,           15.,           15.,            0.,NA,NA,"",   715.056E-03,  -707.703E-03,   102.285E-03,   389.908E-06
C:/temp/dataset/0/7_18.odb,Step-1,Increment      1: Step Time =    1.000,"PART-1-1",            22,           15.,          22.5,            0.,NA,NA,"",   729.754E-03,  -722.355E-03,   103.655E-03,   494.456E-06
C:/temp/dataset/0/7_18.odb,Step-1,Increment      1: Step Time =    1.000,"PART-1-1",            23,       3.33333,           20.,            0.,NA,NA,"",   710.235E-03,  -706.395E-03,   73.7552E-03,   2.79944E-03
C:/temp/dataset/0/7_18.odb,Step-1,Increment      1: Step Time =    1.000,"PART-1-1",            24,       1.66667,           20.,            0.,NA,NA,"",   705.821E-03,  -702.644E-03,   66.8937E-03,   2.57949E-03
C:/temp/dataset/0/7_18.odb,Step-1,Increment      1: Step Time =    1.000,"PART-1-1",            25,            5.,       13.3333,            0.,NA,NA,"",   707.403E-03,  -703.345E-03,   75.6658E-03,   1.29837E-03
C:/temp/dataset/0/7_18.odb,Step-1,Increment      1: Step Time =    1.000,"PART-1-1",            26,            5.,       16.6667,            0.,NA,NA,"",   713.459E-03,  -709.106E-03,   78.6861E-03,   874.124E-06
C:/temp/dataset/0/7_18.odb,Step-1,Increment      1: Step Time =    1.000,"PART-1-1",            27,            5.,       3.33333,            0.,NA,NA,"",   670.591E-03,  -668.219E-03,   56.3515E-03,   3.05526E-03
C:/temp/dataset/0/7_18.odb,Step-1,Increment      1: Step Time =    1.000,"PART-1-1",            28,            5.,       6.66667,            0.,NA,NA,"",   687.013E-03,  -683.972E-03,   64.5733E-03,   2.45259E-03
C:/temp/dataset/0/7_18.odb,Step-1,Increment      1: Step Time =    1.000,"PART-1-1",            29,            5.,      -6.66667,            0.,NA,NA,"",   582.803E-03,  -582.437E-03,   20.6525E-03,   5.11606E-03
C:/temp/dataset/0/7_18.odb,Step-1,Increment      1: Step Time =    1.000,"PART-1-1",            30,            5.,      -3.33333,            0.,NA,NA,"",   619.577E-03,  -618.613E-03,   34.5390E-03,   4.26834E-03
C:/temp/dataset/0/7_18.odb,Step-1,Increment      1: Step Time =    1.000,"PART-1-1",            31,            5.,      -16.6667,            0.,NA,NA,"",   381.867E-03,  -379.155E-03,  -45.4288E-03,   10.8616E-03
C:/temp/dataset/0/7_18.odb,Step-1,Increment      1: Step Time =    1.000,"PART-1-1",            32,            5.,      -13.3333,            0.,NA,NA,"",   474.947E-03,  -474.591E-03,  -18.3736E-03,   9.11396E-03
C:/temp/dataset/0/7_18.odb,Step-1,Increment      1: Step Time =    1.000,"PART-1-1",            33,           2.5,          -20.,            0.,NA,NA,"",   135.559E-03,  -135.313E-03,  -8.15350E-03,   18.0558E-03
C:/temp/dataset/0/7_18.odb,Step-1,Increment      1: Step Time =    1.000,"PART-1-1",            34,          -2.5,          -20.,            0.,NA,NA,"",   93.0929E-03,  -92.5994E-03,   9.57259E-03,   5.40468E-03
C:/temp/dataset/0/7_18.odb,Step-1,Increment      1: Step Time =    1.000,"PART-1-1",            35,           -5.,       16.9231,            0.,NA,NA,"",   635.853E-03,  -634.173E-03,   46.1894E-03,   2.81158E-03
C:/temp/dataset/0/7_18.odb,Step-1,Increment      1: Step Time =    1.000,"PART-1-1",            36,           -5.,       13.8462,            0.,NA,NA,"",   589.767E-03,  -587.423E-03,   52.5271E-03,   1.97947E-03
C:/temp/dataset/0/7_18.odb,Step-1,Increment      1: Step Time =    1.000,"PART-1-1",            37,           -5.,       10.7692,            0.,NA,NA,"",   541.604E-03,  -538.506E-03,   57.8491E-03,   1.52337E-03
C:/temp/dataset/0/7_18.odb,Step-1,Increment      1: Step Time =    1.000,"PART-1-1",            38,           -5.,       7.69231,            0.,NA,NA,"",   491.413E-03,  -487.522E-03,   61.7135E-03,   965.369E-06
C:/temp/dataset/0/7_18.odb,Step-1,Increment      1: Step Time =    1.000,"PART-1-1",            39,           -5.,       4.61538,            0.,NA,NA,"",   439.934E-03,  -435.244E-03,   64.0681E-03,   405.169E-06
C:/temp/dataset/0/7_18.odb,Step-1,Increment      1: Step Time =    1.000,"PART-1-1",            40,           -5.,       1.53846,            0.,NA,NA,"",   388.093E-03,  -382.634E-03,   64.8610E-03,   168.758E-06
C:/temp/dataset/0/7_18.odb,Step-1,Increment      1: Step Time =    1.000,"PART-1-1",            41,           -5.,      -1.53846,            0.,NA,NA,"",   336.812E-03,  -330.662E-03,   64.0686E-03,   734.723E-06
C:/temp/dataset/0/7_18.odb,Step-1,Increment      1: Step Time =    1.000,"PART-1-1",            42,           -5.,      -4.61538,            0.,NA,NA,"",   287.006E-03,  -280.300E-03,   61.6784E-03,   1.30268E-03
C:/temp/dataset/0/7_18.odb,Step-1,Increment      1: Step Time =    1.000,"PART-1-1",            43,           -5.,      -7.69231,            0.,NA,NA,"",   239.559E-03,  -232.512E-03,   57.6780E-03,   1.86190E-03
C:/temp/dataset/0/7_18.odb,Step-1,Increment      1: Step Time =    1.000,"PART-1-1",            44,           -5.,      -10.7692,            0.,NA,NA,"",   195.296E-03,  -188.222E-03,   52.0891E-03,   2.44175E-03
C:/temp/dataset/0/7_18.odb,Step-1,Increment      1: Step Time =    1.000,"PART-1-1",            45,           -5.,      -13.8462,            0.,NA,NA,"",   154.894E-03,  -148.307E-03,   44.6879E-03,   3.03610E-03
C:/temp/dataset/0/7_18.odb,Step-1,Increment      1: Step Time =    1.000,"PART-1-1",            46,           -5.,      -16.9231,            0.,NA,NA,"",   118.755E-03,  -113.273E-03,   35.6660E-03,   4.09632E-03
C:/temp/dataset/0/7_18.odb,Step-1,Increment      1: Step Time =    1.000,"PART-1-1",            47,          -2.5,           20.,            0.,NA,NA,"",   693.902E-03,  -692.346E-03,   46.4426E-03,   3.36280E-03
C:/temp/dataset/0/7_18.odb,Step-1,Increment      1: Step Time =    1.000,"PART-1-1",            48,        13.125,           30.,            0.,NA,NA,"",   748.514E-03,  -741.763E-03,   100.305E-03,   33.4093E-06
C:/temp/dataset/0/7_18.odb,Step-1,Increment      1: Step Time =    1.000,"PART-1-1",            49,         11.25,           30.,            0.,NA,NA,"",   748.064E-03,  -741.902E-03,   95.8153E-03,   203.143E-06
C:/temp/dataset/0/7_18.odb,Step-1,Increment      1: Step Time =    1.000,"PART-1-1",            50,         9.375,           30.,            0.,NA,NA,"",   748.033E-03,  -742.427E-03,   91.4110E-03,   482.763E-06
C:/temp/dataset/0/7_18.odb,Step-1,Increment      1: Step Time =    1.000,"PART-1-1",            51,            5.,           30.,            0.,NA,NA,"",   750.176E-03,  -745.912E-03,   79.8756E-03,   1.36586E-03
C:/temp/dataset/0/7_18.odb,Step-1,Increment      1: Step Time =    1.000,"PART-1-1",            52,           2.5,           30.,            0.,NA,NA,"",   752.897E-03,  -749.529E-03,   71.1389E-03,   1.88086E-03
C:/temp/dataset/0/7_18.odb,Step-1,Increment      1: Step Time =    1.000,"PART-1-1",            53,           -3.,           30.,            0.,NA,NA,"",   762.065E-03,  -760.924E-03,   41.6740E-03,   2.61248E-03
C:/temp/dataset/0/7_18.odb,Step-1,Increment      1: Step Time =    1.000,"PART-1-1",            54,           -6.,           30.,            0.,NA,NA,"",   767.924E-03,  -767.718E-03,   17.7638E-03,   2.32954E-03
C:/temp/dataset/0/7_18.odb,Step-1,Increment      1: Step Time =    1.000,"PART-1-1",            55,           -9.,           30.,            0.,NA,NA,"",   772.852E-03,  -772.770E-03,  -11.3186E-03,   1.39100E-03
C:/temp/dataset/0/7_18.odb,Step-1,Increment      1: Step Time =    1.000,"PART-1-1",            56,          -12.,           30.,            0.,NA,NA,"",   776.039E-03,  -774.854E-03,  -42.8611E-03,   335.265E-06
C:/temp/dataset/0/7_18.odb,Step-1,Increment      1: Step Time =    1.000,"PART-1-1",            57,          -15.,           27.,            0.,NA,NA,"",   748.593E-03,  -744.950E-03,  -73.7628E-03,   336.531E-06
C:/temp/dataset/0/7_18.odb,Step-1,Increment      1: Step Time =    1.000,"PART-1-1",            58,          -15.,           24.,            0.,NA,NA,"",   719.638E-03,  -715.628E-03,  -75.8574E-03,   1.36830E-03
C:/temp/dataset/0/7_18.odb,Step-1,Increment      1: Step Time =    1.000,"PART-1-1",            59,          -15.,           21.,            0.,NA,NA,"",   688.515E-03,  -683.763E-03,  -80.7514E-03,   2.22988E-03
C:/temp/dataset/0/7_18.odb,Step-1,Increment      1: Step Time =    1.000,"PART-1-1",            60,          -15.,           18.,            0.,NA,NA,"",   652.649E-03,  -646.824E-03,  -87.0016E-03,   2.38293E-03
C:/temp/dataset/0/7_18.odb,Step-1,Increment      1: Step Time =    1.000,"PART-1-1",            61,          -15.,           15.,            0.,NA,NA,"",   611.613E-03,  -604.550E-03,  -92.6794E-03,   1.97336E-03
C:/temp/dataset/0/7_18.odb,Step-1,Increment      1: Step Time =    1.000,"PART-1-1",            62,          -15.,           12.,            0.,NA,NA,"",   566.548E-03,  -558.216E-03,  -96.8090E-03,   1.37514E-03
C:/temp/dataset/0/7_18.odb,Step-1,Increment      1: Step Time =    1.000,"PART-1-1",            63,          -15.,            9.,            0.,NA,NA,"",   518.791E-03,  -509.203E-03,  -99.2793E-03,   785.184E-06
C:/temp/dataset/0/7_18.odb,Step-1,Increment      1: Step Time =    1.000,"PART-1-1",            64,          -15.,            6.,            0.,NA,NA,"",   469.397E-03,  -458.585E-03,  -100.169E-03,   217.849E-06
C:/temp/dataset/0/7_18.odb,Step-1,Increment      1: Step Time =    1.000,"PART-1-1",            65,          -15.,            3.,            0.,NA,NA,"",   419.282E-03,  -407.295E-03,  -99.5366E-03,   344.868E-06
C:/temp/dataset/0/7_18.odb,Step-1,Increment      1: Step Time =    1.000,"PART-1-1",            66,          -15.,            0.,            0.,NA,NA,"",   369.306E-03,  -356.228E-03,  -97.4092E-03,   899.603E-06
C:/temp/dataset/0/7_18.odb,Step-1,Increment      1: Step Time =    1.000,"PART-1-1",            67,          -15.,           -3.,            0.,NA,NA,"",   320.320E-03,  -306.277E-03,  -93.8032E-03,   1.45528E-03
C:/temp/dataset/0/7_18.odb,Step-1,Increment      1: Step Time =    1.000,"PART-1-1",            68,          -15.,           -6.,            0.,NA,NA,"",   273.152E-03,  -258.340E-03,  -88.7290E-03,   2.01309E-03
C:/temp/dataset/0/7_18.odb,Step-1,Increment      1: Step Time =    1.000,"PART-1-1",            69,          -15.,           -9.,            0.,NA,NA,"",   228.613E-03,  -213.327E-03,  -82.1939E-03,   2.57342E-03
C:/temp/dataset/0/7_18.odb,Step-1,Increment      1: Step Time =    1.000,"PART-1-1",            70,          -15.,          -12.,            0.,NA,NA,"",   187.500E-03,  -172.184E-03,  -74.2234E-03,   3.11795E-03
C:/temp/dataset/0/7_18.odb,Step-1,Increment      1: Step Time =    1.000,"PART-1-1",            71,          -15.,          -15.,            0.,NA,NA,"",   150.640E-03,  -135.908E-03,  -64.9712E-03,   3.55015E-03
C:/temp/dataset/0/7_18.odb,Step-1,Increment      1: Step Time =    1.000,"PART-1-1",            72,          -15.,          -18.,            0.,NA,NA,"",   118.696E-03,  -105.170E-03,  -55.0262E-03,   3.61190E-03
C:/temp/dataset/0/7_18.odb,Step-1,Increment      1: Step Time =    1.000,"PART-1-1",            73,          -15.,          -21.,            0.,NA,NA,"",   91.4276E-03,  -79.3389E-03,  -45.4350E-03,   3.48782E-03
C:/temp/dataset/0/7_18.odb,Step-1,Increment      1: Step Time =    1.000,"PART-1-1",            74,          -15.,          -24.,            0.,NA,NA,"",   66.2164E-03,  -55.4344E-03,  -36.2166E-03,   3.47476E-03
C:/temp/dataset/0/7_18.odb,Step-1,Increment      1: Step Time =    1.000,"PART-1-1",            75,          -15.,          -27.,            0.,NA,NA,"",   38.8950E-03,  -30.0737E-03,  -24.6657E-03,   6.43925E-03
C:/temp/dataset/0/7_18.odb,Step-1,Increment      1: Step Time =    1.000,"PART-1-1",            76,          -12.,          -30.,            0.,NA,NA,"",            0.,  -11.0542E-39,  -13.1465E-39,   4.69520E-03
C:/temp/dataset/0/7_18.odb,Step-1,Increment      1: Step Time =    1.000,"PART-1-1",            77,           -9.,          -30.,            0.,NA,NA,"",            0.,  -4.79693E-39,   1.16981E-39,   5.79141E-03
C:/temp/dataset/0/7_18.odb,Step-1,Increment      1: Step Time =    1.000,"PART-1-1",            78,           -6.,          -30.,            0.,NA,NA,"",            0.,  -11.6361E-39,  -10.0889E-39,   7.53130E-03
C:/temp/dataset/0/7_18.odb,Step-1,Increment      1: Step Time =    1.000,"PART-1-1",            79,           -3.,          -30.,            0.,NA,NA,"",            0.,  -11.6608E-39,   1.14434E-39,   9.71306E-03
C:/temp/dataset/0/7_18.odb,Step-1,Increment      1: Step Time =    1.000,"PART-1-1",            80,            0.,          -30.,            0.,NA,NA,"",            0.,  -11.4205E-39,  -1.82751E-39,   11.3381E-03
C:/temp/dataset/0/7_18.odb,Step-1,Increment      1: Step Time =    1.000,"PART-1-1",            81,            3.,          -30.,            0.,NA,NA,"",            0.,  -17.9786E-39,  -24.8937E-39,   11.1078E-03
C:/temp/dataset/0/7_18.odb,Step-1,Increment      1: Step Time =    1.000,"PART-1-1",            82,            6.,          -30.,            0.,NA,NA,"",            0.,  -13.6951E-39,  -17.6844E-39,   8.78210E-03
C:/temp/dataset/0/7_18.odb,Step-1,Increment      1: Step Time =    1.000,"PART-1-1",            83,            9.,          -30.,            0.,NA,NA,"",            0.,  -5.79409E-39,  -3.48623E-39,   6.07405E-03
C:/temp/dataset/0/7_18.odb,Step-1,Increment      1: Step Time =    1.000,"PART-1-1",            84,           12.,          -30.,            0.,NA,NA,"",            0.,  -17.5062E-39,   30.2957E-39,   8.78206E-03
C:/temp/dataset/0/7_18.odb,Step-1,Increment      1: Step Time =    1.000,"PART-1-1",            85,           15.,         -27.5,            0.,NA,NA,"",   93.5815E-03,  -63.8025E-03,   68.4597E-03,   27.1257E-03
C:/temp/dataset/0/7_18.odb,Step-1,Increment      1: Step Time =    1.000,"PART-1-1",            86,           15.,          -25.,            0.,NA,NA,"",   178.353E-03,  -133.619E-03,   118.134E-03,   21.0451E-03
C:/temp/dataset/0/7_18.odb,Step-1,Increment      1: Step Time =    1.000,"PART-1-1",            87,           15.,          -20.,            0.,NA,NA,"",   404.927E-03,  -364.679E-03,   175.999E-03,   18.0342E-03
C:/temp/dataset/0/7_18.odb,Step-1,Increment      1: Step Time =    1.000,"PART-1-1",            88,           15.,         -17.5,            0.,NA,NA,"",   481.605E-03,  -446.228E-03,   181.175E-03,   17.0769E-03
C:/temp/dataset/0/7_18.odb,Step-1,Increment      1: Step Time =    1.000,"PART-1-1",            89,           15.,         -12.5,            0.,NA,NA,"",   528.984E-03,  -500.872E-03,   170.150E-03,   4.01257E-03
C:/temp/dataset/0/7_18.odb,Step-1,Increment      1: Step Time =    1.000,"PART-1-1",            90,           15.,          -10.,            0.,NA,NA,"",   561.987E-03,  -538.011E-03,   162.402E-03,   3.85453E-03
C:/temp/dataset/0/7_18.odb,Step-1,Increment      1: Step Time =    1.000,"PART-1-1",            91,           15.,           -5.,            0.,NA,NA,"",   619.664E-03,  -602.802E-03,   143.574E-03,   4.05810E-03
C:/temp/dataset/0/7_18.odb,Step-1,Increment      1: Step Time =    1.000,"PART-1-1",            92,           15.,          -2.5,            0.,NA,NA,"",   642.028E-03,  -627.723E-03,   134.774E-03,   3.67507E-03
C:/temp/dataset/0/7_18.odb,Step-1,Increment      1: Step Time =    1.000,"PART-1-1",            93,           15.,           2.5,            0.,NA,NA,"",   675.514E-03,  -664.733E-03,   120.204E-03,   2.76337E-03
C:/temp/dataset/0/7_18.odb,Step-1,Increment      1: Step Time =    1.000,"PART-1-1",            94,           15.,            5.,            0.,NA,NA,"",   687.543E-03,  -677.940E-03,   114.509E-03,   2.29789E-03
C:/temp/dataset/0/7_18.odb,Step-1,Increment      1: Step Time =    1.000,"PART-1-1",            95,           15.,           10.,            0.,NA,NA,"",   704.442E-03,  -696.381E-03,   106.265E-03,   1.36217E-03
C:/temp/dataset/0/7_18.odb,Step-1,Increment      1: Step Time =    1.000,"PART-1-1",            96,           15.,          12.5,            0.,NA,NA,"",   710.268E-03,  -702.653E-03,   103.728E-03,   881.130E-06
C:/temp/dataset/0/7_18.odb,Step-1,Increment      1: Step Time =    1.000,"PART-1-1",            97,           15.,          17.5,            0.,NA,NA,"",   719.455E-03,  -712.196E-03,   101.945E-03,   87.2469E-06
C:/temp/dataset/0/7_18.odb,Step-1,Increment      1: Step Time =    1.000,"PART-1-1",            98,           15.,           20.,            0.,NA,NA,"",   724.180E-03,  -716.882E-03,   102.557E-03,   417.832E-06
C:/temp/dataset/0/7_18.odb,Step-1,Increment      1: Step Time =    1.000,"PART-1-1",            99,           15.,           25.,            0.,NA,NA,"",   736.148E-03,  -728.678E-03,   104.601E-03,   310.957E-06
C:/temp/dataset/0/7_18.odb,Step-1,Increment      1: Step Time =    1.000,"PART-1-1",           100,           15.,          27.5,            0.,NA,NA,"",   742.801E-03,  -735.344E-03,   104.992E-03,   60.2084E-06
C:/temp/dataset/0/7_18.odb,Step-1,Increment      1: Step Time =    1.000,"PART-1-1",           101,       3.77421,       21.6807,            0.,NA,NA,"",   717.346E-03,  -713.234E-03,   76.6968E-03,   1.44477E-03
C:/temp/dataset/0/7_18.odb,Step-1,Increment      1: Step Time =    1.000,"PART-1-1",           102,   339.763E-03,       22.0764,            0.,NA,NA,"",   712.638E-03,  -709.855E-03,   62.9151E-03,   1.92568E-03
C:/temp/dataset/0/7_18.odb,Step-1,Increment      1: Step Time =    1.000,"PART-1-1",           103,       2.04677,       21.7082,            0.,NA,NA,"",   714.399E-03,  -710.943E-03,   70.1763E-03,   1.83427E-03
C:/temp/dataset/0/7_18.odb,Step-1,Increment      1: Step Time =    1.000,"PART-1-1",           104,       11.0234,       27.4901,            0.,NA,NA,"",   741.510E-03,  -735.342E-03,   95.4478E-03,   427.316E-06
C:/temp/dataset/0/7_18.odb,Step-1,Increment      1: Step Time =    1.000,"PART-1-1",           105,       8.98111,       27.5559,            0.,NA,NA,"",   741.417E-03,  -735.824E-03,   90.8935E-03,   608.507E-06
C:/temp/dataset/0/7_18.odb,Step-1,Increment      1: Step Time =    1.000,"PART-1-1",           106,      -4.39315,       22.5924,            0.,NA,NA,"",   707.854E-03,  -706.918E-03,   36.3892E-03,   1.35320E-03
C:/temp/dataset/0/7_18.odb,Step-1,Increment      1: Step Time =    1.000,"PART-1-1",           107,       12.7609,      -22.7550,            0.,NA,NA,"",   220.964E-03,  -206.351E-03,   79.0214E-03,   20.5726E-03
C:/temp/dataset/0/7_18.odb,Step-1,Increment      1: Step Time =    1.000,"PART-1-1",           108,       12.5528,      -15.2766,            0.,NA,NA,"",   482.378E-03,  -462.719E-03,   136.306E-03,   9.82721E-03
C:/temp/dataset/0/7_18.odb,Step-1,Increment      1: Step Time =    1.000,"PART-1-1",           109,       12.2205,       7.28465,            0.,NA,NA,"",   696.106E-03,  -689.101E-03,   98.5080E-03,   978.093E-06
C:/temp/dataset/0/7_18.odb,Step-1,Increment      1: Step Time =    1.000,"PART-1-1",           110,       12.4622,       15.2934,            0.,NA,NA,"",   715.009E-03,  -708.480E-03,   96.4036E-03,   660.466E-06
C:/temp/dataset/0/7_18.odb,Step-1,Increment      1: Step Time =    1.000,"PART-1-1",           111,       12.8846,       22.6339,            0.,NA,NA,"",   728.975E-03,  -722.253E-03,   98.7661E-03,   357.673E-06
C:/temp/dataset/0/7_18.odb,Step-1,Increment      1: Step Time =    1.000,"PART-1-1",           112,  -340.860E-03,      -22.2697,            0.,NA,NA,"",   102.460E-03,  -102.368E-03,  -4.33491E-03,   11.0749E-03
C:/temp/dataset/0/7_18.odb,Step-1,Increment      1: Step Time =    1.000,"PART-1-1",           113,       6.83628,       27.6500,            0.,NA,NA,"",   741.744E-03,  -736.758E-03,   85.8571E-03,   782.278E-06
C:/temp/dataset/0/7_18.odb,Step-1,Increment      1: Step Time =    1.000,"PART-1-1",           114,       12.2535,       9.99399,            0.,NA,NA,"",   704.235E-03,  -697.498E-03,   97.1799E-03,   843.466E-06
C:/temp/dataset/0/7_18.odb,Step-1,Increment      1: Step Time =    1.000,"PART-1-1",           115,       12.4991,  -638.118E-03,            0.,NA,NA,"",   655.015E-03,  -646.003E-03,   108.279E-03,   1.67065E-03
C:/temp/dataset/0/7_18.odb,Step-1,Increment      1: Step Time =    1.000,"PART-1-1",           116,       12.8164,      -7.55827,            0.,NA,NA,"",   588.616E-03,  -575.264E-03,   124.661E-03,   2.53575E-03
C:/temp/dataset/0/7_18.odb,Step-1,Increment      1: Step Time =    1.000,"PART-1-1",           117,       12.7714,      -20.2702,            0.,NA,NA,"",   335.313E-03,  -318.363E-03,   105.264E-03,   23.0653E-03
C:/temp/dataset/0/7_18.odb,Step-1,Increment      1: Step Time =    1.000,"PART-1-1",           118,      -1.80101,       22.4804,            0.,NA,NA,"",   711.124E-03,  -709.206E-03,   52.1914E-03,   2.08531E-03
C:/temp/dataset/0/7_18.odb,Step-1,Increment      1: Step Time =    1.000,"PART-1-1",           119,       4.41791,       27.8041,            0.,NA,NA,"",   742.813E-03,  -738.585E-03,   79.1429E-03,   968.153E-06
C:/temp/dataset/0/7_18.odb,Step-1,Increment      1: Step Time =    1.000,"PART-1-1",           120,       2.00441,       27.9652,            0.,NA,NA,"",   744.535E-03,  -741.189E-03,   70.5131E-03,   1.16310E-03
C:/temp/dataset/0/7_18.odb,Step-1,Increment      1: Step Time =    1.000,"PART-1-1",           121,      -2.69107,      -22.1951,            0.,NA,NA,"",   88.1549E-03,  -88.0609E-03,   4.07018E-03,   7.85789E-03
C:/temp/dataset/0/7_18.odb,Step-1,Increment      1: Step Time =    1.000,"PART-1-1",           122,       1.88995,      -22.5465,            0.,NA,NA,"",   114.729E-03,  -113.625E-03,  -15.8738E-03,   17.1429E-03
C:/temp/dataset/0/7_18.odb,Step-1,Increment      1: Step Time =    1.000,"PART-1-1",           123,       3.76320,      -23.2871,            0.,NA,NA,"",   119.640E-03,  -117.379E-03,  -23.1538E-03,   14.7113E-03
C:/temp/dataset/0/7_18.odb,Step-1,Increment      1: Step Time =    1.000,"PART-1-1",           124,       12.5645,      -25.1614,            0.,NA,NA,"",   120.931E-03,  -109.209E-03,   51.9379E-03,   13.7346E-03
C:/temp/dataset/0/7_18.odb,Step-1,Increment      1: Step Time =    1.000,"PART-1-1",           125,       12.6631,      -17.7963,            0.,NA,NA,"",   424.928E-03,  -405.919E-03,   125.675E-03,   18.7723E-03
C:/temp/dataset/0/7_18.odb,Step-1,Increment      1: Step Time =    1.000,"PART-1-1",           126,       12.5016,      -12.6810,            0.,NA,NA,"",   517.690E-03,  -500.098E-03,   133.808E-03,   4.35379E-03
C:/temp/dataset/0/7_18.odb,Step-1,Increment      1: Step Time =    1.000,"PART-1-1",           127,       12.5761,      -10.0660,            0.,NA,NA,"",   555.233E-03,  -540.431E-03,   127.349E-03,   2.82702E-03
C:/temp/dataset/0/7_18.odb,Step-1,Increment      1: Step Time =    1.000,"PART-1-1",           128,       13.0467,      -5.23700,            0.,NA,NA,"",   615.183E-03,  -602.932E-03,   122.160E-03,   2.45444E-03
C:/temp/dataset/0/7_18.odb,Step-1,Increment      1: Step Time =    1.000,"PART-1-1",           129,       12.8236,      -2.99729,            0.,NA,NA,"",   636.359E-03,  -625.854E-03,   115.149E-03,   2.08387E-03
C:/temp/dataset/0/7_18.odb,Step-1,Increment      1: Step Time =    1.000,"PART-1-1",           130,       12.3116,       1.92449,            0.,NA,NA,"",   671.664E-03,  -663.623E-03,   103.621E-03,   1.36937E-03
C:/temp/dataset/0/7_18.odb,Step-1,Increment      1: Step Time =    1.000,"PART-1-1",           131,       12.2319,       4.58053,            0.,NA,NA,"",   685.360E-03,  -677.942E-03,   100.560E-03,   1.15034E-03
C:/temp/dataset/0/7_18.odb,Step-1,Increment      1: Step Time =    1.000,"PART-1-1",           132,       12.3276,       12.6723,            0.,NA,NA,"",   710.302E-03,  -703.719E-03,   96.4746E-03,   743.247E-06
C:/temp/dataset/0/7_18.odb,Step-1,Increment      1: Step Time =    1.000,"PART-1-1",           133,       12.6288,       17.8043,            0.,NA,NA,"",   719.133E-03,  -712.577E-03,   96.8884E-03,   541.042E-06
C:/temp/dataset/0/7_18.odb,Step-1,Increment      1: Step Time =    1.000,"PART-1-1",           134,       12.7774,       20.2190,            0.,NA,NA,"",   723.556E-03,  -716.921E-03,   97.7634E-03,   400.612E-06
C:/temp/dataset/0/7_18.odb,Step-1,Increment      1: Step Time =    1.000,"PART-1-1",           135,       2.42682,       23.0828,            0.,NA,NA,"",   721.191E-03,  -717.541E-03,   72.4637E-03,   1.13006E-03
C:/temp/dataset/0/7_18.odb,Step-1,Increment      1: Step Time =    1.000,"PART-1-1",           136,       13.0358,       27.4773,            0.,NA,NA,"",   742.015E-03,  -735.235E-03,   100.079E-03,   239.913E-06
C:/temp/dataset/0/7_18.odb,Step-1,Increment      1: Step Time =    1.000,"PART-1-1",           137,       10.8553,       25.1313,            0.,NA,NA,"",   734.657E-03,  -728.507E-03,   94.8581E-03,   523.580E-06
C:/temp/dataset/0/7_18.odb,Step-1,Increment      1: Step Time =    1.000,"PART-1-1",           138,       5.66135,       21.5046,            0.,NA,NA,"",   719.696E-03,  -715.017E-03,   81.9325E-03,   1.35697E-03
C:/temp/dataset/0/7_18.odb,Step-1,Increment      1: Step Time =    1.000,"PART-1-1",           139,       1.38191,       23.9574,            0.,NA,NA,"",   724.146E-03,  -720.898E-03,   68.5100E-03,   891.389E-06
C:/temp/dataset/0/7_18.odb,Step-1,Increment      1: Step Time =    1.000,"PART-1-1",           140,       8.68595,       25.2651,            0.,NA,NA,"",   734.137E-03,  -728.581E-03,   90.1465E-03,   714.371E-06
C:/temp/dataset/0/7_18.odb,Step-1,Increment      1: Step Time =    1.000,"PART-1-1",           141,       12.9664,       25.0396,            0.,NA,NA,"",   735.303E-03,  -728.526E-03,   99.6004E-03,   368.559E-06
C:/temp/dataset/0/7_18.odb,Step-1,Increment      1: Step Time =    1.000,"PART-1-1",           142,       9.99676,      -12.8506,            0.,NA,NA,"",   504.164E-03,  -496.302E-03,   88.6881E-03,   1.78038E-03
C:/temp/dataset/0/7_18.odb,Step-1,Increment      1: Step Time =    1.000,"PART-1-1",           143,       11.3735,      -5.41139,            0.,NA,NA,"",   611.010E-03,  -602.329E-03,   102.626E-03,   1.27236E-03
C:/temp/dataset/0/7_18.odb,Step-1,Increment      1: Step Time =    1.000,"PART-1-1",           144,       9.95511,       15.6727,            0.,NA,NA,"",   714.551E-03,  -708.918E-03,   89.5505E-03,   889.162E-06
C:/temp/dataset/0/7_18.odb,Step-1,Increment      1: Step Time =    1.000,"PART-1-1",           145,       9.67875,       10.0081,            0.,NA,NA,"",   703.069E-03,  -697.620E-03,   87.3606E-03,   883.208E-06
C:/temp/dataset/0/7_18.odb,Step-1,Increment      1: Step Time =    1.000,"PART-1-1",           146,       9.74913,       1.24671,            0.,NA,NA,"",   665.226E-03,  -659.785E-03,   84.9084E-03,   918.831E-06
C:/temp/dataset/0/7_18.odb,Step-1,Increment      1: Step Time =    1.000,"PART-1-1",           147,       10.3027,      -18.1986,            0.,NA,NA,"",   366.345E-03,  -358.299E-03,   76.3566E-03,   18.7817E-03
C:/temp/dataset/0/7_18.odb,Step-1,Increment      1: Step Time =    1.000,"PART-1-1",           148,       1.33525,      -24.5624,            0.,NA,NA,"",   87.0652E-03,  -85.7742E-03,  -14.9375E-03,   14.3299E-03
C:/temp/dataset/0/7_18.odb,Step-1,Increment      1: Step Time =    1.000,"PART-1-1",           149,       9.11730,      -22.7103,            0.,NA,NA,"",   169.705E-03,  -168.822E-03,   17.2887E-03,   17.7756E-03
C:/temp/dataset/0/7_18.odb,Step-1,Increment      1: Step Time =    1.000,"PART-1-1",           150,       12.2648,      -27.5617,            0.,NA,NA,"",   49.1271E-03,  -42.4192E-03,   24.7806E-03,   15.3542E-03
C:/temp/dataset/0/7_18.odb,Step-1,Increment      1: Step Time =    1.000,"PART-1-1",           151,       10.6108,      -20.5371,            0.,NA,NA,"",   277.956E-03,  -271.550E-03,   59.3333E-03,   23.8004E-03
C:/temp/dataset/0/7_18.odb,Step-1,Increment      1: Step Time =    1.000,"PART-1-1",           152,       10.0930,      -9.97392,            0.,NA,NA,"",   550.973E-03,  -543.795E-03,   88.6484E-03,   1.34319E-03
C:/temp/dataset/0/7_18.odb,Step-1,Increment      1: Step Time =    1.000,"PART-1-1",           153,       9.63546,       7.06865,            0.,NA,NA,"",   693.859E-03,  -688.480E-03,   86.2343E-03,   908.680E-06
C:/temp/dataset/0/7_18.odb,Step-1,Increment      1: Step Time =    1.000,"PART-1-1",           154,       10.2222,       18.2240,            0.,NA,NA,"",   718.541E-03,  -712.770E-03,   90.8814E-03,   802.539E-06
C:/temp/dataset/0/7_18.odb,Step-1,Increment      1: Step Time =    1.000,"PART-1-1",           155,       10.5456,      -3.97788,            0.,NA,NA,"",   624.425E-03,  -617.604E-03,   92.0412E-03,   843.796E-06
C:/temp/dataset/0/7_18.odb,Step-1,Increment      1: Step Time =    1.000,"PART-1-1",           156,       10.0733,      -15.6212,            0.,NA,NA,"",   444.757E-03,  -436.279E-03,   86.4236E-03,   8.51322E-03
C:/temp/dataset/0/7_18.odb,Step-1,Increment      1: Step Time =    1.000,"PART-1-1",           157,       10.5412,      -7.26051,            0.,NA,NA,"",   588.309E-03,  -580.824E-03,   93.5455E-03,   1.00541E-03
C:/temp/dataset/0/7_18.odb,Step-1,Increment      1: Step Time =    1.000,"PART-1-1",           158,       9.98625,      -1.55753,            0.,NA,NA,"",   645.206E-03,  -639.423E-03,   86.1869E-03,   863.060E-06
C:/temp/dataset/0/7_18.odb,Step-1,Increment      1: Step Time =    1.000,"PART-1-1",           159,       9.65058,       4.13273,            0.,NA,NA,"",   681.396E-03,  -676.040E-03,   85.2636E-03,   925.288E-06
C:/temp/dataset/0/7_18.odb,Step-1,Increment      1: Step Time =    1.000,"PART-1-1",           160,       9.76871,       12.8936,            0.,NA,NA,"",   709.683E-03,  -704.154E-03,   88.4162E-03,   856.818E-06
C:/temp/dataset/0/7_18.odb,Step-1,Increment      1: Step Time =    1.000,"PART-1-1",           161,       10.4870,       20.5197,            0.,NA,NA,"",   722.735E-03,  -716.802E-03,   92.4141E-03,   631.407E-06
C:/temp/dataset/0/7_18.odb,Step-1,Increment      1: Step Time =    1.000,"PART-1-1",           162,       3.57821,       25.4429,            0.,NA,NA,"",   732.794E-03,  -728.746E-03,   76.9174E-03,   777.702E-06
C:/temp/dataset/0/7_18.odb,Step-1,Increment      1: Step Time =    1.000,"PART-1-1",           163,       6.34843,       25.4199,            0.,NA,NA,"",   733.726E-03,  -728.809E-03,   84.8010E-03,   841.427E-06
C:/temp/dataset/0/7_18.odb,Step-1,Increment      1: Step Time =    1.000,"PART-1-1",           164,       2.85591,      -26.4171,            0.,NA,NA,"",   60.0487E-03,  -58.3589E-03,  -14.1453E-03,   12.6033E-03
C:/temp/dataset/0/7_18.odb,Step-1,Increment      1: Step Time =    1.000,"PART-1-1",           165,  -631.401E-03,       25.1574,            0.,NA,NA,"",   729.225E-03,  -726.818E-03,   59.1986E-03,   682.049E-06
C:/temp/dataset/0/7_18.odb,Step-1,Increment      1: Step Time =    1.000,"PART-1-1",           166,  -516.865E-03,       27.6990,            0.,NA,NA,"",   744.525E-03,  -742.191E-03,   58.9047E-03,   1.19580E-03
C:/temp/dataset/0/7_18.odb,Step-1,Increment      1: Step Time =    1.000,"PART-1-1",           167,      -6.99102,       22.3744,            0.,NA,NA,"",   703.978E-03,  -703.855E-03,   13.1678E-03,   1.64717E-03
C:/temp/dataset/0/7_18.odb,Step-1,Increment      1: Step Time =    1.000,"PART-1-1",           168,      -5.11091,      -22.0245,            0.,NA,NA,"",   79.2789E-03,  -78.5962E-03,   10.3815E-03,   6.95420E-03
C:/temp/dataset/0/7_18.odb,Step-1,Increment      1: Step Time =    1.000,"PART-1-1",           169,       6.75166,      -22.2774,            0.,NA,NA,"",   158.420E-03,  -158.138E-03,  -9.44266E-03,   14.5673E-03
C:/temp/dataset/0/7_18.odb,Step-1,Increment      1: Step Time =    1.000,"PART-1-1",           170,       8.44380,       23.0750,            0.,NA,NA,"",   727.222E-03,  -721.761E-03,   88.9513E-03,   820.219E-06
C:/temp/dataset/0/7_18.odb,Step-1,Increment      1: Step Time =    1.000,"PART-1-1",           171,       3.98751,       23.4543,            0.,NA,NA,"",   724.560E-03,  -720.341E-03,   78.0821E-03,   914.782E-06
C:/temp/dataset/0/7_18.odb,Step-1,Increment      1: Step Time =    1.000,"PART-1-1",           172,       7.74283,       18.8612,            0.,NA,NA,"",   717.809E-03,  -712.770E-03,   84.9029E-03,   1.05225E-03
C:/temp/dataset/0/7_18.odb,Step-1,Increment      1: Step Time =    1.000,"PART-1-1",           173,  -206.614E-03,      -27.1815,            0.,NA,NA,"",   43.9268E-03,  -43.4287E-03,  -6.59615E-03,   11.1453E-03
C:/temp/dataset/0/7_18.odb,Step-1,Increment      1: Step Time =    1.000,"PART-1-1",           174,       10.6950,       22.8157,            0.,NA,NA,"",   728.165E-03,  -722.093E-03,   93.8408E-03,   527.875E-06
C:/temp/dataset/0/7_18.odb,Step-1,Increment      1: Step Time =    1.000,"PART-1-1",           175,       1.78109,       26.2982,            0.,NA,NA,"",   736.397E-03,  -733.044E-03,   70.1894E-03,   727.523E-06
C:/temp/dataset/0/7_18.odb,Step-1,Increment      1: Step Time =    1.000,"PART-1-1",           176,       7.62536,      -9.80486,            0.,NA,NA,"",   547.261E-03,  -545.196E-03,   47.5001E-03,   2.93646E-03
C:/temp/dataset/0/7_18.odb,Step-1,Increment      1: Step Time =    1.000,"PART-1-1",           177,       7.50504,      -2.60802,            0.,NA,NA,"",   632.016E-03,  -629.060E-03,   61.0636E-03,   2.30517E-03
C:/temp/dataset/0/7_18.odb,Step-1,Increment      1: Step Time =    1.000,"PART-1-1",           178,       7.24337,       3.70501,            0.,NA,NA,"",   676.311E-03,  -672.665E-03,   70.1367E-03,   1.84962E-03
C:/temp/dataset/0/7_18.odb,Step-1,Increment      1: Step Time =    1.000,"PART-1-1",           179,       7.25379,       10.0129,            0.,NA,NA,"",   701.228E-03,  -696.844E-03,   78.2917E-03,   1.25617E-03
C:/temp/dataset/0/7_18.odb,Step-1,Increment      1: Step Time =    1.000,"PART-1-1",           180,       7.22962,       6.85747,            0.,NA,NA,"",   690.722E-03,  -686.685E-03,   74.5737E-03,   1.55319E-03
C:/temp/dataset/0/7_18.odb,Step-1,Increment      1: Step Time =    1.000,"PART-1-1",           181,       7.49186,      -13.0485,            0.,NA,NA,"",   489.981E-03,  -488.535E-03,   37.6086E-03,   3.07654E-03
C:/temp/dataset/0/7_18.odb,Step-1,Increment      1: Step Time =    1.000,"PART-1-1",           182,       8.10600,      -6.05436,            0.,NA,NA,"",   597.864E-03,  -594.672E-03,   61.6978E-03,   2.05792E-03
C:/temp/dataset/0/7_18.odb,Step-1,Increment      1: Step Time =    1.000,"PART-1-1",           183,       7.31265,   557.236E-03,            0.,NA,NA,"",   657.062E-03,  -653.809E-03,   65.3029E-03,   2.11250E-03
C:/temp/dataset/0/7_18.odb,Step-1,Increment      1: Step Time =    1.000,"PART-1-1",           184,       7.30605,       13.1330,            0.,NA,NA,"",   708.714E-03,  -704.059E-03,   81.0935E-03,   959.749E-06
C:/temp/dataset/0/7_18.odb,Step-1,Increment      1: Step Time =    1.000,"PART-1-1",           185,       8.51669,      -21.0731,            0.,NA,NA,"",   222.639E-03,  -221.551E-03,   21.9813E-03,   22.5087E-03
C:/temp/dataset/0/7_18.odb,Step-1,Increment      1: Step Time =    1.000,"PART-1-1",           186,       7.54046,      -16.1016,            0.,NA,NA,"",   411.793E-03,  -410.765E-03,   29.0668E-03,   7.92912E-03
C:/temp/dataset/0/7_18.odb,Step-1,Increment      1: Step Time =    1.000,"PART-1-1",           187,       7.81864,      -18.8426,            0.,NA,NA,"",   306.208E-03,  -304.975E-03,   27.4533E-03,   22.1479E-03
C:/temp/dataset/0/7_18.odb,Step-1,Increment      1: Step Time =    1.000,"PART-1-1",           188,       7.43701,       16.1533,            0.,NA,NA,"",   714.114E-03,  -709.251E-03,   83.2016E-03,   795.278E-06
C:/temp/dataset/0/7_18.odb,Step-1,Increment      1: Step Time =    1.000,"PART-1-1",           189,       8.13437,       20.9213,            0.,NA,NA,"",   721.418E-03,  -716.152E-03,   87.0129E-03,   1.09595E-03
C:/temp/dataset/0/7_18.odb,Step-1,Increment      1: Step Time =    1.000,"PART-1-1",           190,       10.1795,      -24.9689,            0.,NA,NA,"",   104.375E-03,  -102.809E-03,   18.0088E-03,   13.8040E-03
C:/temp/dataset/0/7_18.odb,Step-1,Increment      1: Step Time =    1.000,"PART-1-1",           191,      -2.92607,      -24.6642,            0.,NA,NA,"",   67.3387E-03,  -67.3380E-03,  -302.814E-06,   9.52064E-03
C:/temp/dataset/0/7_18.odb,Step-1,Increment      1: Step Time =    1.000,"PART-1-1",           192,      -7.32959,       16.5303,            0.,NA,NA,"",   629.504E-03,  -629.349E-03,   13.9863E-03,   2.02108E-03
C:/temp/dataset/0/7_18.odb,Step-1,Increment      1: Step Time =    1.000,"PART-1-1",           193,      -3.80789,       25.1547,            0.,NA,NA,"",   727.991E-03,  -726.916E-03,   39.5332E-03,   552.907E-06
C:/temp/dataset/0/7_18.odb,Step-1,Increment      1: Step Time =    1.000,"PART-1-1",           194,      -7.16094,      -19.5479,            0.,NA,NA,"",   87.6863E-03,  -86.9185E-03,   11.5784E-03,   1.19712E-03
C:/temp/dataset/0/7_18.odb,Step-1,Increment      1: Step Time =    1.000,"PART-1-1",           195,       6.10177,       23.3904,            0.,NA,NA,"",   726.221E-03,  -721.368E-03,   83.8090E-03,   1.00916E-03
C:/temp/dataset/0/7_18.odb,Step-1,Increment      1: Step Time =    1.000,"PART-1-1",           196,      -3.02004,      -27.2699,            0.,NA,NA,"",   37.1552E-03,  -37.0792E-03,  -2.37613E-03,   9.37053E-03
C:/temp/dataset/0/7_18.odb,Step-1,Increment      1: Step Time =    1.000,"PART-1-1",           197,      -5.46178,      -24.4382,            0.,NA,NA,"",   59.7152E-03,  -59.6035E-03,   3.65041E-03,   7.24681E-03
C:/temp/dataset/0/7_18.odb,Step-1,Increment      1: Step Time =    1.000,"PART-1-1",           198,      -9.66724,       21.9754,            0.,NA,NA,"",   698.619E-03,  -698.410E-03,  -17.0558E-03,   1.30339E-03
C:/temp/dataset/0/7_18.odb,Step-1,Increment      1: Step Time =    1.000,"PART-1-1",           199,      -7.19512,      -21.6661,            0.,NA,NA,"",   74.1291E-03,  -73.7122E-03,   7.85116E-03,   3.20110E-03
C:/temp/dataset/0/7_18.odb,Step-1,Increment      1: Step Time =    1.000,"PART-1-1",           200,      -3.42041,       27.6042,            0.,NA,NA,"",   745.748E-03,  -744.627E-03,   40.8716E-03,   1.26044E-03
C:/temp/dataset/0/7_18.odb,Step-1,Increment      1: Step Time =    1.000,"PART-1-1",           201,       5.45774,      -23.9133,            0.,NA,NA,"",   111.929E-03,  -110.023E-03,  -20.5631E-03,   12.4749E-03
C:/temp/dataset/0/7_18.odb,Step-1,Increment      1: Step Time =    1.000,"PART-1-1",           202,      -6.69209,       24.9820,            0.,NA,NA,"",   726.636E-03,  -726.483E-03,   14.9456E-03,   1.24535E-03
C:/temp/dataset/0/7_18.odb,Step-1,Increment      1: Step Time =    1.000,"PART-1-1",           203,      -12.3718,      -14.6182,            0.,NA,NA,"",   142.053E-03,  -137.198E-03,  -36.8214E-03,   1.92228E-03
C:/temp/dataset/0/7_18.odb,Step-1,Increment      1: Step Time =    1.000,"PART-1-1",           204,      -5.91076,      -27.0963,            0.,NA,NA,"",   32.1789E-03,  -32.1776E-03,  -291.361E-06,   7.43272E-03
C:/temp/dataset/0/7_18.odb,Step-1,Increment      1: Step Time =    1.000,"PART-1-1",           205,      -9.09285,      -26.5479,            0.,NA,NA,"",   31.0009E-03,  -30.9139E-03,  -2.32132E-03,   5.43716E-03
C:/temp/dataset/0/7_18.odb,Step-1,Increment      1: Step Time =    1.000,"PART-1-1",           206,      -12.2958,       24.3839,            0.,NA,NA,"",   722.241E-03,  -720.742E-03,  -46.5052E-03,   1.37263E-03
C:/temp/dataset/0/7_18.odb,Step-1,Increment      1: Step Time =    1.000,"PART-1-1",           207,      -12.3670,       18.5668,            0.,NA,NA,"",   658.659E-03,  -656.595E-03,  -52.1078E-03,   1.10684E-03
C:/temp/dataset/0/7_18.odb,Step-1,Increment      1: Step Time =    1.000,"PART-1-1",           208,      -12.3673,       12.5421,            0.,NA,NA,"",   571.044E-03,  -568.300E-03,  -55.9172E-03,   883.396E-06
C:/temp/dataset/0/7_18.odb,Step-1,Increment      1: Step Time =    1.000,"PART-1-1",           209,      -12.4084,       3.45294,            0.,NA,NA,"",   418.936E-03,  -415.107E-03,  -56.5100E-03,   694.845E-06
C:/temp/dataset/0/7_18.odb,Step-1,Increment      1: Step Time =    1.000,"PART-1-1",           210,      -12.4043,      -5.59421,            0.,NA,NA,"",   267.915E-03,  -263.230E-03,  -49.8879E-03,   1.23279E-03
C:/temp/dataset/0/7_18.odb,Step-1,Increment      1: Step Time =    1.000,"PART-1-1",           211,      -12.3838,       9.50768,            0.,NA,NA,"",   521.754E-03,  -518.643E-03,  -56.8949E-03,   735.532E-06
C:/temp/dataset/0/7_18.odb,Step-1,Increment      1: Step Time =    1.000,"PART-1-1",           212,      -12.4013,       6.47621,            0.,NA,NA,"",   470.708E-03,  -467.225E-03,  -57.1532E-03,   657.179E-06
C:/temp/dataset/0/7_18.odb,Step-1,Increment      1: Step Time =    1.000,"PART-1-1",           213,      -12.4173,   428.232E-03,            0.,NA,NA,"",   367.209E-03,  -363.042E-03,  -55.1669E-03,   826.786E-06
C:/temp/dataset/0/7_18.odb,Step-1,Increment      1: Step Time =    1.000,"PART-1-1",           214,      -12.4160,      -2.58791,            0.,NA,NA,"",   316.570E-03,  -312.111E-03,  -52.9466E-03,   1.01652E-03
C:/temp/dataset/0/7_18.odb,Step-1,Increment      1: Step Time =    1.000,"PART-1-1",           215,      -12.4014,      -8.61211,            0.,NA,NA,"",   221.859E-03,  -216.978E-03,  -46.2824E-03,   1.46345E-03
C:/temp/dataset/0/7_18.odb,Step-1,Increment      1: Step Time =    1.000,"PART-1-1",           216,      -12.3969,      -11.6247,            0.,NA,NA,"",   179.560E-03,  -174.581E-03,  -41.9916E-03,   1.69794E-03
C:/temp/dataset/0/7_18.odb,Step-1,Increment      1: Step Time =    1.000,"PART-1-1",           217,      -12.3009,      -17.6498,            0.,NA,NA,"",   109.403E-03,  -105.073E-03,  -30.4738E-03,   2.12642E-03
C:/temp/dataset/0/7_18.odb,Step-1,Increment      1: Step Time =    1.000,"PART-1-1",           218,      -11.9370,      -20.9397,            0.,NA,NA,"",   79.1407E-03,  -76.2517E-03,  -21.1880E-03,   2.05174E-03
C:/temp/dataset/0/7_18.odb,Step-1,Increment      1: Step Time =    1.000,"PART-1-1",           219,       6.28266,      -26.4725,            0.,NA,NA,"",   57.9936E-03,  -57.0075E-03,  -10.6487E-03,   11.4414E-03
C:/temp/dataset/0/7_18.odb,Step-1,Increment      1: Step Time =    1.000,"PART-1-1",           220,      -12.3616,       21.4963,            0.,NA,NA,"",   693.220E-03,  -691.463E-03,  -49.3335E-03,   1.22773E-03
C:/temp/dataset/0/7_18.odb,Step-1,Increment      1: Step Time =    1.000,"PART-1-1",           221,       9.42071,      -27.3229,            0.,NA,NA,"",   40.6098E-03,  -40.4196E-03,   3.92580E-03,   10.5975E-03
C:/temp/dataset/0/7_18.odb,Step-1,Increment      1: Step Time =    1.000,"PART-1-1",           222,      -12.3680,       15.5612,            0.,NA,NA,"",   617.187E-03,  -614.781E-03,  -54.4416E-03,   1.02918E-03
C:/temp/dataset/0/7_18.odb,Step-1,Increment      1: Step Time =    1.000,"PART-1-1",           223,      -6.37126,       27.5191,            0.,NA,NA,"",   747.278E-03,  -747.098E-03,   16.4150E-03,   1.31769E-03
C:/temp/dataset/0/7_18.odb,Step-1,Increment      1: Step Time =    1.000,"PART-1-1",           224,      -7.37426,       13.4489,            0.,NA,NA,"",   582.793E-03,  -582.540E-03,   17.1738E-03,   1.38332E-03
C:/temp/dataset/0/7_18.odb,Step-1,Increment      1: Step Time =    1.000,"PART-1-1",           225,      -7.40401,       7.31385,            0.,NA,NA,"",   482.139E-03,  -481.616E-03,   22.4527E-03,   842.196E-06
C:/temp/dataset/0/7_18.odb,Step-1,Increment      1: Step Time =    1.000,"PART-1-1",           226,      -7.40102,      -1.84560,            0.,NA,NA,"",   325.609E-03,  -324.646E-03,   25.0189E-03,   686.595E-06
C:/temp/dataset/0/7_18.odb,Step-1,Increment      1: Step Time =    1.000,"PART-1-1",           227,      -7.36253,      -10.9851,            0.,NA,NA,"",   184.281E-03,  -183.131E-03,   20.5609E-03,   1.35191E-03
C:/temp/dataset/0/7_18.odb,Step-1,Increment      1: Step Time =    1.000,"PART-1-1",           228,      -7.39657,       10.3769,            0.,NA,NA,"",   533.422E-03,  -533.042E-03,   20.1387E-03,   1.06144E-03
C:/temp/dataset/0/7_18.odb,Step-1,Increment      1: Step Time =    1.000,"PART-1-1",           229,      -7.41369,       4.25226,            0.,NA,NA,"",   429.706E-03,  -429.038E-03,   23.9484E-03,   679.298E-06
C:/temp/dataset/0/7_18.odb,Step-1,Increment      1: Step Time =    1.000,"PART-1-1",           230,      -7.41413,       1.19777,            0.,NA,NA,"",   377.189E-03,  -376.374E-03,   24.7832E-03,   619.087E-06
C:/temp/dataset/0/7_18.odb,Step-1,Increment      1: Step Time =    1.000,"PART-1-1",           231,      -7.39700,      -4.89906,            0.,NA,NA,"",   275.509E-03,  -274.438E-03,   24.2703E-03,   856.235E-06
C:/temp/dataset/0/7_18.odb,Step-1,Increment      1: Step Time =    1.000,"PART-1-1",           232,      -7.39133,      -7.95434,            0.,NA,NA,"",   227.967E-03,  -226.836E-03,   22.6778E-03,   1.08675E-03
C:/temp/dataset/0/7_18.odb,Step-1,Increment      1: Step Time =    1.000,"PART-1-1",           233,      -7.32483,      -13.9963,            0.,NA,NA,"",   145.045E-03,  -143.979E-03,   17.5561E-03,   1.71446E-03
C:/temp/dataset/0/7_18.odb,Step-1,Increment      1: Step Time =    1.000,"PART-1-1",           234,      -9.29453,       27.3932,            0.,NA,NA,"",   748.335E-03,  -748.220E-03,  -13.1113E-03,   1.38896E-03
C:/temp/dataset/0/7_18.odb,Step-1,Increment      1: Step Time =    1.000,"PART-1-1",           235,      -9.79647,       16.0793,            0.,NA,NA,"",   623.626E-03,  -623.328E-03,  -19.2594E-03,   943.896E-06
C:/temp/dataset/0/7_18.odb,Step-1,Increment      1: Step Time =    1.000,"PART-1-1",           236,      -10.5694,      -24.3397,            0.,NA,NA,"",   49.3599E-03,  -48.7306E-03,  -7.85658E-03,   2.95843E-03
C:/temp/dataset/0/7_18.odb,Step-1,Increment      1: Step Time =    1.000,"PART-1-1",           237,      -9.80814,      -14.2636,            0.,NA,NA,"",   140.392E-03,  -140.071E-03,  -9.49707E-03,   869.316E-06
C:/temp/dataset/0/7_18.odb,Step-1,Increment      1: Step Time =    1.000,"PART-1-1",           238,      -9.84607,      -11.2856,            0.,NA,NA,"",   178.607E-03,  -178.286E-03,  -10.7086E-03,   851.900E-06
C:/temp/dataset/0/7_18.odb,Step-1,Increment      1: Step Time =    1.000,"PART-1-1",           239,      -9.85160,       9.96190,            0.,NA,NA,"",   526.826E-03,  -526.531E-03,  -17.6335E-03,   877.442E-06
C:/temp/dataset/0/7_18.odb,Step-1,Increment      1: Step Time =    1.000,"PART-1-1",           240,      -9.42013,      -19.6871,            0.,NA,NA,"",   85.4021E-03,  -85.3168E-03,  -3.81503E-03,   582.840E-06
C:/temp/dataset/0/7_18.odb,Step-1,Increment      1: Step Time =    1.000,"PART-1-1",           241,      -9.87385,       6.90801,            0.,NA,NA,"",   475.127E-03,  -474.829E-03,  -16.8209E-03,   867.375E-06
C:/temp/dataset/0/7_18.odb,Step-1,Increment      1: Step Time =    1.000,"PART-1-1",           242,      -9.72088,      -17.1529,            0.,NA,NA,"",   108.370E-03,  -108.112E-03,  -7.48046E-03,   1.01683E-03
C:/temp/dataset/0/7_18.odb,Step-1,Increment      1: Step Time =    1.000,"PART-1-1",           243,      -7.24385,      -16.9197,            0.,NA,NA,"",   111.743E-03,  -110.791E-03,   14.5552E-03,   2.30401E-03
C:/temp/dataset/0/7_18.odb,Step-1,Increment      1: Step Time =    1.000,"PART-1-1",           244,      -9.88569,       3.86363,            0.,NA,NA,"",   422.576E-03,  -422.277E-03,  -15.8940E-03,   864.447E-06
C:/temp/dataset/0/7_18.odb,Step-1,Increment      1: Step Time =    1.000,"PART-1-1",           245,      -9.88680,   826.149E-03,            0.,NA,NA,"",   370.078E-03,  -369.780E-03,  -14.8451E-03,   861.073E-06
C:/temp/dataset/0/7_18.odb,Step-1,Increment      1: Step Time =    1.000,"PART-1-1",           246,      -9.87953,      -2.20322,            0.,NA,NA,"",   318.580E-03,  -318.284E-03,  -13.7200E-03,   857.227E-06
C:/temp/dataset/0/7_18.odb,Step-1,Increment      1: Step Time =    1.000,"PART-1-1",           247,      -9.87339,      -5.23467,            0.,NA,NA,"",   268.842E-03,  -268.542E-03,  -12.6894E-03,   852.572E-06
C:/temp/dataset/0/7_18.odb,Step-1,Increment      1: Step Time =    1.000,"PART-1-1",           248,      -9.87035,      -8.27303,            0.,NA,NA,"",   221.722E-03,  -221.408E-03,  -11.7993E-03,   848.214E-06
C:/temp/dataset/0/7_18.odb,Step-1,Increment      1: Step Time =    1.000,"PART-1-1",           249,      -12.1942,       27.2250,            0.,NA,NA,"",   748.790E-03,  -747.461E-03,  -44.5938E-03,   1.03194E-03
C:/temp/dataset/0/7_18.odb,Step-1,Increment      1: Step Time =    1.000,"PART-1-1",           250,      -12.1946,      -27.0241,            0.,NA,NA,"",   27.3623E-03,  -25.7140E-03,  -9.35339E-03,   5.84531E-03
C:/temp/dataset/0/7_18.odb,Step-1,Increment      1: Step Time =    1.000,"PART-1-1",           251,      -9.83578,       13.0151,            0.,NA,NA,"",   576.595E-03,  -576.293E-03,  -18.6576E-03,   871.346E-06
C:/temp/dataset/0/7_18.odb,Step-1,Increment      1: Step Time =    1.000,"PART-1-1",           252,      -12.4960,      -24.1891,            0.,NA,NA,"",   53.6223E-03,  -50.5595E-03,  -17.8631E-03,   3.45101E-03
C:/temp/dataset/0/7_18.odb,Step-1,Increment      1: Step Time =    1.000,"PART-1-1",           253,      -7.26398,       19.6069,            0.,NA,NA,"",   673.480E-03,  -673.387E-03,   11.1878E-03,   1.62778E-03
C:/temp/dataset/0/7_18.odb,Step-1,Increment      1: Step Time =    1.000,"PART-1-1",           254,      -9.78845,      -22.6320,            0.,NA,NA,"",   63.0639E-03,  -62.8504E-03,  -5.18412E-03,   1.81724E-03
C:/temp/dataset/0/7_18.odb,Step-1,Increment      1: Step Time =    1.000,"PART-1-1",           255,       8.11622,      -24.1302,            0.,NA,NA,"",   116.437E-03,  -116.436E-03,  -485.234E-06,   13.3801E-03
C:/temp/dataset/0/7_18.odb,Step-1,Increment      1: Step Time =    1.000,"PART-1-1",           256,       10.7040,      -22.7860,            0.,NA,NA,"",   187.045E-03,  -182.855E-03,   39.3710E-03,   19.8465E-03
C:/temp/dataset/0/7_18.odb,Step-1,Increment      1: Step Time =    1.000,"PART-1-1",           257,      -8.82647,      -21.3553,            0.,NA,NA,"",   73.0228E-03,  -73.0225E-03,   194.620E-06,   1.06479E-03
C:/temp/dataset/0/7_18.odb,Step-1,Increment      1: Step Time =    1.000,"PART-1-1",           258,      -9.77631,       19.1047,            0.,NA,NA,"",   665.496E-03,  -665.218E-03,  -19.2425E-03,   696.465E-06
C:/temp/dataset/0/7_18.odb,Step-1,Increment      1: Step Time =    1.000,"PART-1-1",           259,      -7.77355,      -23.8785,            0.,NA,NA,"",   56.6879E-03,  -56.6487E-03,   2.10771E-03,   4.43499E-03
C:/temp/dataset/0/7_18.odb,Step-1,Increment      1: Step Time =    1.000,"PART-1-1",           260,  -536.979E-03,      -24.7394,            0.,NA,NA,"",   76.6404E-03,  -76.2522E-03,  -7.70437E-03,   11.1000E-03
C:/temp/dataset/0/7_18.odb,Step-1,Increment      1: Step Time =    1.000,"PART-1-1",           261,      -9.52558,       24.7102,            0.,NA,NA,"",   724.565E-03,  -724.408E-03,  -15.0998E-03,   1.53120E-03
C:/temp/dataset/0/7_18.odb,Step-1,Increment      1: Step Time =    1.000,"PART-1-1",           262,      -2.15050,       21.2402,            0.,NA,NA,"",   701.947E-03,  -700.180E-03,   49.7828E-03,   2.51523E-03
C:/temp/dataset/0/7_18.odb,Step-1,Increment      1: Step Time =    1.000,"PART-1-1",           263,      -3.09708,       22.5364,            0.,NA,NA,"",   708.900E-03,  -707.453E-03,   45.2745E-03,   1.39657E-03
C:/temp/dataset/0/7_18.odb,Step-1,Increment      1: Step Time =    1.000,"PART-1-1",           264,      -4.69657,       21.2962,            0.,NA,NA,"",   696.431E-03,  -695.507E-03,   35.8612E-03,   3.15091E-03
C:/temp/dataset/0/7_18.odb,Step-1,Increment      1: Step Time =    1.000,"PART-1-1",           265,         -3.75,           20.,            0.,NA,NA,"",   688.853E-03,  -687.721E-03,   39.4771E-03,   4.50654E-03
C:/temp/dataset/0/7_18.odb,Step-1,Increment      1: Step Time =    1.000,"PART-1-1",           266,      -4.10052,       23.8735,            0.,NA,NA,"",   718.238E-03,  -717.237E-03,   37.8925E-03,   863.053E-06
C:/temp/dataset/0/7_18.odb,Step-1,Increment      1: Step Time =    1.000,"PART-1-1",           267,      -5.24999,       25.0683,            0.,NA,NA,"",   727.204E-03,  -726.664E-03,   28.0318E-03,   801.118E-06
C:/temp/dataset/0/7_18.odb,Step-1,Increment      1: Step Time =    1.000,"PART-1-1",           268,      -6.84155,       23.6782,            0.,NA,NA,"",   715.682E-03,  -715.543E-03,   14.1186E-03,   1.30125E-03
C:/temp/dataset/0/7_18.odb,Step-1,Increment      1: Step Time =    1.000,"PART-1-1",           269,      -5.69208,       22.4834,            0.,NA,NA,"",   705.919E-03,  -705.433E-03,   26.1825E-03,   1.23319E-03
C:/temp/dataset/0/7_18.odb,Step-1,Increment      1: Step Time =    1.000,"PART-1-1",           270,      -7.35192,       14.9896,            0.,NA,NA,"",   606.674E-03,  -606.473E-03,   15.6036E-03,   1.50593E-03
C:/temp/dataset/0/7_18.odb,Step-1,Increment      1: Step Time =    1.000,"PART-1-1",           271,      -8.56303,       16.3048,            0.,NA,NA,"",   626.571E-03,  -626.565E-03,  -2.69576E-03,   1.30866E-03
C:/temp/dataset/0/7_18.odb,Step-1,Increment      1: Step Time =    1.000,"PART-1-1",           272,      -9.81613,       14.5472,            0.,NA,NA,"",   600.464E-03,  -600.165E-03,  -18.9653E-03,   901.706E-06
C:/temp/dataset/0/7_18.odb,Step-1,Increment      1: Step Time =    1.000,"PART-1-1",           273,      -8.60502,       13.2320,            0.,NA,NA,"",   579.527E-03,  -579.527E-03,  -734.109E-06,   1.05972E-03
C:/temp/dataset/0/7_18.odb,Step-1,Increment      1: Step Time =    1.000,"PART-1-1",           274,          -15.,         -16.5,            0.,NA,NA,"",   134.026E-03,  -119.839E-03,  -60.0132E-03,   3.59675E-03
C:/temp/dataset/0/7_18.odb,Step-1,Increment      1: Step Time =    1.000,"PART-1-1",           275,      -13.6504,      -17.8249,            0.,NA,NA,"",   113.331E-03,  -104.925E-03,  -42.8336E-03,   2.86032E-03
C:/temp/dataset/0/7_18.odb,Step-1,Increment      1: Step Time =    1.000,"PART-1-1",           276,      -12.3363,      -16.1340,            0.,NA,NA,"",   124.995E-03,  -120.362E-03,  -33.7160E-03,   2.02017E-03
C:/temp/dataset/0/7_18.odb,Step-1,Increment      1: Step Time =    1.000,"PART-1-1",           277,      -13.6859,      -14.8091,            0.,NA,NA,"",   145.471E-03,  -136.293E-03,  -50.8539E-03,   2.70679E-03
C:/temp/dataset/0/7_18.odb,Step-1,Increment      1: Step Time =    1.000,"PART-1-1",           278,      -4.46540,      -27.1831,            0.,NA,NA,"",   34.8048E-03,  -34.7918E-03,  -951.098E-06,   8.38069E-03
C:/temp/dataset/0/7_18.odb,Step-1,Increment      1: Step Time =    1.000,"PART-1-1",           279,      -2.97305,      -25.9670,            0.,NA,NA,"",   53.0927E-03,  -53.0594E-03,  -1.88275E-03,   9.31034E-03
C:/temp/dataset/0/7_18.odb,Step-1,Increment      1: Step Time =    1.000,"PART-1-1",           280,      -4.19392,      -24.5512,            0.,NA,NA,"",   63.4032E-03,  -63.3603E-03,   2.33402E-03,   8.36670E-03
C:/temp/dataset/0/7_18.odb,Step-1,Increment      1: Step Time =    1.000,"PART-1-1",           281,      -5.68627,      -25.7673,            0.,NA,NA,"",   46.3783E-03,  -46.3613E-03,   1.25769E-03,   7.27950E-03
C:/temp/dataset/0/7_18.odb,Step-1,Increment      1: Step Time =    1.000,"PART-1-1",           282,      -5.28634,      -23.2314,            0.,NA,NA,"",   70.2740E-03,  -69.9568E-03,   6.66952E-03,   6.88456E-03
C:/temp/dataset/0/7_18.odb,Step-1,Increment      1: Step Time =    1.000,"PART-1-1",           283,      -2.80857,      -23.4296,            0.,NA,NA,"",   79.4340E-03,  -79.4156E-03,   1.70612E-03,   8.60019E-03
C:/temp/dataset/0/7_18.odb,Step-1,Increment      1: Step Time =    1.000,"PART-1-1",           284,      -3.90099,      -22.1098,            0.,NA,NA,"",   83.7375E-03,  -83.3160E-03,   8.39213E-03,   7.28677E-03
C:/temp/dataset/0/7_18.odb,Step-1,Increment      1: Step Time =    1.000,"PART-1-1",           285,       1.61260,      -23.5545,            0.,NA,NA,"",   102.895E-03,  -101.677E-03,  -15.7877E-03,   13.9159E-03
C:/temp/dataset/0/7_18.odb,Step-1,Increment      1: Step Time =    1.000,"PART-1-1",           286,       2.09558,      -25.4897,            0.,NA,NA,"",   74.3073E-03,  -72.6669E-03,  -15.5275E-03,   13.2766E-03
C:/temp/dataset/0/7_18.odb,Step-1,Increment      1: Step Time =    1.000,"PART-1-1",           287,       3.30955,      -24.8521,            0.,NA,NA,"",   88.1540E-03,  -85.9682E-03,  -19.5089E-03,   14.1072E-03
C:/temp/dataset/0/7_18.odb,Step-1,Increment      1: Step Time =    1.000,"PART-1-1",           288,       2.82657,      -22.9168,            0.,NA,NA,"",   120.855E-03,  -118.706E-03,  -22.6921E-03,   14.8837E-03
C:/temp/dataset/0/7_18.odb,Step-1,Increment      1: Step Time =    1.000,"PART-1-1",           289,       13.8857,      -20.1351,            0.,NA,NA,"",   369.246E-03,  -342.378E-03,   138.274E-03,   19.5476E-03
C:/temp/dataset/0/7_18.odb,Step-1,Increment      1: Step Time =    1.000,"PART-1-1",           290,           15.,        -18.75,            0.,NA,NA,"",   447.130E-03,  -409.314E-03,   179.965E-03,   15.6190E-03
C:/temp/dataset/0/7_18.odb,Step-1,Increment      1: Step Time =    1.000,"PART-1-1",           291,       13.8316,      -17.6482,            0.,NA,NA,"",   452.892E-03,  -426.950E-03,   151.080E-03,   17.0449E-03
C:/temp/dataset/0/7_18.odb,Step-1,Increment      1: Step Time =    1.000,"PART-1-1",           292,       12.7173,      -19.0333,            0.,NA,NA,"",   383.078E-03,  -364.957E-03,   116.428E-03,   20.0810E-03
C:/temp/dataset/0/7_18.odb,Step-1,Increment      1: Step Time =    1.000,"PART-1-1",           293,       13.7508,      -12.5905,            0.,NA,NA,"",   522.988E-03,  -500.491E-03,   151.740E-03,   3.90534E-03
C:/temp/dataset/0/7_18.odb,Step-1,Increment      1: Step Time =    1.000,"PART-1-1",           294,           15.,        -11.25,            0.,NA,NA,"",   545.308E-03,  -519.227E-03,   166.627E-03,   3.22633E-03
C:/temp/dataset/0/7_18.odb,Step-1,Increment      1: Step Time =    1.000,"PART-1-1",           295,       13.7881,      -10.0330,            0.,NA,NA,"",   558.478E-03,  -539.333E-03,   144.976E-03,   3.30701E-03
C:/temp/dataset/0/7_18.odb,Step-1,Increment      1: Step Time =    1.000,"PART-1-1",           296,       12.5389,      -11.3735,            0.,NA,NA,"",   536.491E-03,  -520.390E-03,   130.451E-03,   3.11031E-03
C:/temp/dataset/0/7_18.odb,Step-1,Increment      1: Step Time =    1.000,"PART-1-1",           297,       11.3345,      -10.0200,            0.,NA,NA,"",   553.084E-03,  -542.333E-03,   108.517E-03,   1.94056E-03
C:/temp/dataset/0/7_18.odb,Step-1,Increment      1: Step Time =    1.000,"PART-1-1",           298,       10.0449,      -11.4123,            0.,NA,NA,"",   528.849E-03,  -521.315E-03,   88.9485E-03,   1.21128E-03
C:/temp/dataset/0/7_18.odb,Step-1,Increment      1: Step Time =    1.000,"PART-1-1",           299,       11.2492,      -12.7658,            0.,NA,NA,"",   511.438E-03,  -498.990E-03,   112.152E-03,   2.46546E-03
C:/temp/dataset/0/7_18.odb,Step-1,Increment      1: Step Time =    1.000,"PART-1-1",           300,       9.32361,      -6.65743,            0.,NA,NA,"",   593.275E-03,  -588.262E-03,   76.9627E-03,   1.04299E-03
C:/temp/dataset/0/7_18.odb,Step-1,Increment      1: Step Time =    1.000,"PART-1-1",           301,       10.9574,      -6.33595,            0.,NA,NA,"",   600.021E-03,  -591.906E-03,   98.3508E-03,   1.12303E-03
C:/temp/dataset/0/7_18.odb,Step-1,Increment      1: Step Time =    1.000,"PART-1-1",           302,       10.9595,      -4.69463,            0.,NA,NA,"",   617.866E-03,  -610.188E-03,   97.1014E-03,   1.01056E-03
C:/temp/dataset/0/7_18.odb,Step-1,Increment      1: Step Time =    1.000,"PART-1-1",           303,       9.32578,      -5.01612,            0.,NA,NA,"",   611.777E-03,  -606.799E-03,   77.8799E-03,   1.12368E-03
C:/temp/dataset/0/7_18.odb,Step-1,Increment      1: Step Time =    1.000,"PART-1-1",           304,       12.9351,      -4.11714,            0.,NA,NA,"",   626.205E-03,  -614.892E-03,   118.493E-03,   2.27063E-03
C:/temp/dataset/0/7_18.odb,Step-1,Increment      1: Step Time =    1.000,"PART-1-1",           305,       11.6846,      -3.48758,            0.,NA,NA,"",   630.666E-03,  -622.019E-03,   104.079E-03,   1.33985E-03
C:/temp/dataset/0/7_18.odb,Step-1,Increment      1: Step Time =    1.000,"PART-1-1",           306,       12.2101,      -5.32419,            0.,NA,NA,"",   613.144E-03,  -602.733E-03,   112.509E-03,   1.83407E-03
C:/temp/dataset/0/7_18.odb,Step-1,Increment      1: Step Time =    1.000,"PART-1-1",           307,       9.86769,  -155.410E-03,            0.,NA,NA,"",   655.808E-03,  -650.220E-03,   85.4329E-03,   886.211E-06
C:/temp/dataset/0/7_18.odb,Step-1,Increment      1: Step Time =    1.000,"PART-1-1",           308,       8.53089,   901.975E-03,            0.,NA,NA,"",   661.354E-03,  -657.059E-03,   75.2549E-03,   1.40368E-03
C:/temp/dataset/0/7_18.odb,Step-1,Increment      1: Step Time =    1.000,"PART-1-1",           309,       7.40884,      -1.02539,            0.,NA,NA,"",   645.328E-03,  -642.228E-03,   63.1808E-03,   2.20181E-03
C:/temp/dataset/0/7_18.odb,Step-1,Increment      1: Step Time =    1.000,"PART-1-1",           310,       8.74564,      -2.08278,            0.,NA,NA,"",   638.909E-03,  -634.610E-03,   73.9919E-03,   1.42248E-03
C:/temp/dataset/0/7_18.odb,Step-1,Increment      1: Step Time =    1.000,"PART-1-1",           311,       9.64302,       5.60069,            0.,NA,NA,"",   688.091E-03,  -682.727E-03,   85.7544E-03,   916.803E-06
C:/temp/dataset/0/7_18.odb,Step-1,Increment      1: Step Time =    1.000,"PART-1-1",           312,       10.9412,       4.35663,            0.,NA,NA,"",   683.568E-03,  -677.197E-03,   93.1075E-03,   792.404E-06
C:/temp/dataset/0/7_18.odb,Step-1,Increment      1: Step Time =    1.000,"PART-1-1",           313,       12.2262,       5.93259,            0.,NA,NA,"",   691.102E-03,  -683.908E-03,   99.4608E-03,   1.06159E-03
C:/temp/dataset/0/7_18.odb,Step-1,Increment      1: Step Time =    1.000,"PART-1-1",           314,       10.9280,       7.17665,            0.,NA,NA,"",   695.130E-03,  -688.950E-03,   92.4839E-03,   767.308E-06
C:/temp/dataset/0/7_18.odb,Step-1,Increment      1: Step Time =    1.000,"PART-1-1",           315,       13.6103,       7.39232,            0.,NA,NA,"",   696.769E-03,  -688.885E-03,   104.526E-03,   1.31787E-03
C:/temp/dataset/0/7_18.odb,Step-1,Increment      1: Step Time =    1.000,"PART-1-1",           316,           15.,          8.75,            0.,NA,NA,"",   700.966E-03,  -692.607E-03,   107.930E-03,   1.59777E-03
C:/temp/dataset/0/7_18.odb,Step-1,Increment      1: Step Time =    1.000,"PART-1-1",           317,       13.6268,       9.99700,            0.,NA,NA,"",   704.497E-03,  -697.073E-03,   102.006E-03,   996.265E-06
C:/temp/dataset/0/7_18.odb,Step-1,Increment      1: Step Time =    1.000,"PART-1-1",           318,       12.2370,       8.63932,            0.,NA,NA,"",   700.462E-03,  -693.604E-03,   97.7819E-03,   906.333E-06
C:/temp/dataset/0/7_18.odb,Step-1,Increment      1: Step Time =    1.000,"PART-1-1",           319,       13.8144,       17.6522,            0.,NA,NA,"",   719.339E-03,  -712.409E-03,   99.6056E-03,   302.876E-06
C:/temp/dataset/0/7_18.odb,Step-1,Increment      1: Step Time =    1.000,"PART-1-1",           320,           15.,         18.75,            0.,NA,NA,"",   721.735E-03,  -714.469E-03,   102.158E-03,   252.375E-06
C:/temp/dataset/0/7_18.odb,Step-1,Increment      1: Step Time =    1.000,"PART-1-1",           321,       13.8887,       20.1095,            0.,NA,NA,"",   723.880E-03,  -716.905E-03,   100.252E-03,   383.492E-06
C:/temp/dataset/0/7_18.odb,Step-1,Increment      1: Step Time =    1.000,"PART-1-1",           322,       12.7031,       19.0116,            0.,NA,NA,"",   721.242E-03,  -714.651E-03,   97.2847E-03,   449.802E-06
C:/temp/dataset/0/7_18.odb,Step-1,Increment      1: Step Time =    1.000,"PART-1-1",           323,       11.4255,       18.0142,            0.,NA,NA,"",   718.897E-03,  -712.733E-03,   93.9365E-03,   668.763E-06
C:/temp/dataset/0/7_18.odb,Step-1,Increment      1: Step Time =    1.000,"PART-1-1",           324,       11.6322,       20.3693,            0.,NA,NA,"",   723.210E-03,  -716.929E-03,   95.1074E-03,   512.438E-06
C:/temp/dataset/0/7_18.odb,Step-1,Increment      1: Step Time =    1.000,"PART-1-1",           325,       10.3546,       19.3719,            0.,NA,NA,"",   720.525E-03,  -714.676E-03,   91.6224E-03,   696.516E-06
C:/temp/dataset/0/7_18.odb,Step-1,Increment      1: Step Time =    1.000,"PART-1-1",           326,       10.9394,       26.3107,            0.,NA,NA,"",   738.112E-03,  -731.946E-03,   95.2086E-03,   455.219E-06
C:/temp/dataset/0/7_18.odb,Step-1,Increment      1: Step Time =    1.000,"PART-1-1",           327,       11.9108,       25.0855,            0.,NA,NA,"",   734.974E-03,  -728.520E-03,   97.1918E-03,   437.771E-06
C:/temp/dataset/0/7_18.odb,Step-1,Increment      1: Step Time =    1.000,"PART-1-1",           328,       13.0011,       26.2585,            0.,NA,NA,"",   738.669E-03,  -731.885E-03,   99.8822E-03,   300.922E-06
C:/temp/dataset/0/7_18.odb,Step-1,Increment      1: Step Time =    1.000,"PART-1-1",           329,       12.0296,       27.4837,            0.,NA,NA,"",   741.732E-03,  -735.265E-03,   97.7271E-03,   329.291E-06
C:/temp/dataset/0/7_18.odb,Step-1,Increment      1: Step Time =    1.000,"PART-1-1",           330,       14.0179,       27.4887,            0.,NA,NA,"",   742.388E-03,  -735.282E-03,   102.471E-03,   134.732E-06
C:/temp/dataset/0/7_18.odb,Step-1,Increment      1: Step Time =    1.000,"PART-1-1",           331,       13.9832,       25.0198,            0.,NA,NA,"",   735.703E-03,  -728.596E-03,   102.014E-03,   312.591E-06
C:/temp/dataset/0/7_18.odb,Step-1,Increment      1: Step Time =    1.000,"PART-1-1",           332,           15.,         26.25,            0.,NA,NA,"",   739.487E-03,  -732.014E-03,   104.862E-03,   183.939E-06
C:/temp/dataset/0/7_18.odb,Step-1,Increment      1: Step Time =    1.000,"PART-1-1",           333,       3.55377,       20.8403,            0.,NA,NA,"",   714.134E-03,  -710.132E-03,   75.4897E-03,   2.06717E-03
C:/temp/dataset/0/7_18.odb,Step-1,Increment      1: Step Time =    1.000,"PART-1-1",           334,       4.16667,           20.,            0.,NA,NA,"",   712.958E-03,  -708.793E-03,   76.9548E-03,   2.92099E-03
C:/temp/dataset/0/7_18.odb,Step-1,Increment      1: Step Time =    1.000,"PART-1-1",           335,       5.33068,       20.7523,            0.,NA,NA,"",   717.212E-03,  -712.637E-03,   80.8802E-03,   1.71091E-03
C:/temp/dataset/0/7_18.odb,Step-1,Increment      1: Step Time =    1.000,"PART-1-1",           336,       4.71778,       21.5926,            0.,NA,NA,"",   718.620E-03,  -714.187E-03,   79.7004E-03,   1.22210E-03
C:/temp/dataset/0/7_18.odb,Step-1,Increment      1: Step Time =    1.000,"PART-1-1",           337,       1.85672,       20.8541,            0.,NA,NA,"",   710.070E-03,  -706.747E-03,   68.6072E-03,   2.23361E-03
C:/temp/dataset/0/7_18.odb,Step-1,Increment      1: Step Time =    1.000,"PART-1-1",           338,           2.5,           20.,            0.,NA,NA,"",   707.999E-03,  -704.496E-03,   70.3389E-03,   2.65639E-03
C:/temp/dataset/0/7_18.odb,Step-1,Increment      1: Step Time =    1.000,"PART-1-1",           339,       2.91049,       21.6945,            0.,NA,NA,"",   715.967E-03,  -712.170E-03,   73.6321E-03,   1.63494E-03
C:/temp/dataset/0/7_18.odb,Step-1,Increment      1: Step Time =    1.000,"PART-1-1",           340,       1.32465,      -26.7993,            0.,NA,NA,"",   52.3487E-03,  -51.3124E-03,  -10.3648E-03,   11.8701E-03
C:/temp/dataset/0/7_18.odb,Step-1,Increment      1: Step Time =    1.000,"PART-1-1",           341,   399.133E-03,      -24.6509,            0.,NA,NA,"",   81.5646E-03,  -80.7984E-03,  -11.1533E-03,   12.6567E-03
C:/temp/dataset/0/7_18.odb,Step-1,Increment      1: Step Time =    1.000,"PART-1-1",           342,  -371.796E-03,      -25.9605,            0.,NA,NA,"",   61.1833E-03,  -60.6755E-03,  -7.86582E-03,   11.1810E-03
C:/temp/dataset/0/7_18.odb,Step-1,Increment      1: Step Time =    1.000,"PART-1-1",           343,       7.16814,       28.8250,            0.,NA,NA,"",   745.435E-03,  -740.412E-03,   86.3953E-03,   729.469E-06
C:/temp/dataset/0/7_18.odb,Step-1,Increment      1: Step Time =    1.000,"PART-1-1",           344,       7.90869,       27.6030,            0.,NA,NA,"",   741.531E-03,  -736.238E-03,   88.4410E-03,   692.398E-06
C:/temp/dataset/0/7_18.odb,Step-1,Increment      1: Step Time =    1.000,"PART-1-1",           345,       9.17805,       28.7779,            0.,NA,NA,"",   744.946E-03,  -739.343E-03,   91.1871E-03,   472.084E-06
C:/temp/dataset/0/7_18.odb,Step-1,Increment      1: Step Time =    1.000,"PART-1-1",           346,        8.4375,           30.,            0.,NA,NA,"",   748.213E-03,  -742.882E-03,   89.1624E-03,   661.189E-06
C:/temp/dataset/0/7_18.odb,Step-1,Increment      1: Step Time =    1.000,"PART-1-1",           347,       1.19326,       21.8923,            0.,NA,NA,"",   713.479E-03,  -710.358E-03,   66.6610E-03,   1.83765E-03
C:/temp/dataset/0/7_18.odb,Step-1,Increment      1: Step Time =    1.000,"PART-1-1",           348,   169.882E-03,       21.0382,            0.,NA,NA,"",   706.917E-03,  -704.267E-03,   61.1566E-03,   2.27596E-03
C:/temp/dataset/0/7_18.odb,Step-1,Increment      1: Step Time =    1.000,"PART-1-1",           349,   833.333E-03,           20.,            0.,NA,NA,"",   703.499E-03,  -700.654E-03,   63.2012E-03,   2.63366E-03
C:/temp/dataset/0/7_18.odb,Step-1,Increment      1: Step Time =    1.000,"PART-1-1",           350,       11.0482,       12.7829,            0.,NA,NA,"",   710.065E-03,  -704.017E-03,   92.4778E-03,   753.397E-06
C:/temp/dataset/0/7_18.odb,Step-1,Increment      1: Step Time =    1.000,"PART-1-1",           351,       12.3949,       13.9828,            0.,NA,NA,"",   712.754E-03,  -706.207E-03,   96.3794E-03,   693.951E-06
C:/temp/dataset/0/7_18.odb,Step-1,Increment      1: Step Time =    1.000,"PART-1-1",           352,       11.2086,       15.4830,            0.,NA,NA,"",   714.830E-03,  -708.753E-03,   93.0103E-03,   750.881E-06
C:/temp/dataset/0/7_18.odb,Step-1,Increment      1: Step Time =    1.000,"PART-1-1",           353,       9.86191,       14.2831,            0.,NA,NA,"",   712.284E-03,  -706.700E-03,   89.0131E-03,   867.313E-06
C:/temp/dataset/0/7_18.odb,Step-1,Increment      1: Step Time =    1.000,"PART-1-1",           354,       9.65710,       8.53837,            0.,NA,NA,"",   698.829E-03,  -693.415E-03,   86.8214E-03,   896.317E-06
C:/temp/dataset/0/7_18.odb,Step-1,Increment      1: Step Time =    1.000,"PART-1-1",           355,       8.46627,       10.0105,            0.,NA,NA,"",   702.228E-03,  -697.338E-03,   82.7230E-03,   1.00291E-03
C:/temp/dataset/0/7_18.odb,Step-1,Increment      1: Step Time =    1.000,"PART-1-1",           356,       7.24171,       8.43518,            0.,NA,NA,"",   696.405E-03,  -692.185E-03,   76.5488E-03,   1.40260E-03
C:/temp/dataset/0/7_18.odb,Step-1,Increment      1: Step Time =    1.000,"PART-1-1",           357,       8.43254,       6.96306,            0.,NA,NA,"",   692.407E-03,  -687.728E-03,   80.3579E-03,   1.15143E-03
C:/temp/dataset/0/7_18.odb,Step-1,Increment      1: Step Time =    1.000,"PART-1-1",           358,       13.6558,       2.21224,            0.,NA,NA,"",   673.869E-03,  -664.430E-03,   112.391E-03,   2.01008E-03
C:/temp/dataset/0/7_18.odb,Step-1,Increment      1: Step Time =    1.000,"PART-1-1",           359,           15.,          3.75,            0.,NA,NA,"",   681.874E-03,  -671.722E-03,   117.224E-03,   2.53045E-03
C:/temp/dataset/0/7_18.odb,Step-1,Increment      1: Step Time =    1.000,"PART-1-1",           360,       13.6160,       4.79026,            0.,NA,NA,"",   686.696E-03,  -678.158E-03,   107.949E-03,   1.65295E-03
C:/temp/dataset/0/7_18.odb,Step-1,Increment      1: Step Time =    1.000,"PART-1-1",           361,       12.2717,       3.25251,            0.,NA,NA,"",   678.940E-03,  -671.235E-03,   101.994E-03,   1.25725E-03
C:/temp/dataset/0/7_18.odb,Step-1,Increment      1: Step Time =    1.000,"PART-1-1",           362,       9.69986,       2.68972,            0.,NA,NA,"",   673.853E-03,  -668.463E-03,   85.0534E-03,   920.978E-06
C:/temp/dataset/0/7_18.odb,Step-1,Increment      1: Step Time =    1.000,"PART-1-1",           363,       11.0304,       1.58560,            0.,NA,NA,"",   668.685E-03,  -661.963E-03,   94.5724E-03,   846.433E-06
C:/temp/dataset/0/7_18.odb,Step-1,Increment      1: Step Time =    1.000,"PART-1-1",           364,       7.55861,      -11.4267,            0.,NA,NA,"",   520.839E-03,  -519.083E-03,   42.7295E-03,   3.04255E-03
C:/temp/dataset/0/7_18.odb,Step-1,Increment      1: Step Time =    1.000,"PART-1-1",           365,       6.31268,      -9.90243,            0.,NA,NA,"",   541.985E-03,  -541.393E-03,   25.3271E-03,   4.61871E-03
C:/temp/dataset/0/7_18.odb,Step-1,Increment      1: Step Time =    1.000,"PART-1-1",           366,            5.,      -11.6667,            0.,NA,NA,"",   508.416E-03,  -508.373E-03,  -6.60634E-03,   7.62449E-03
C:/temp/dataset/0/7_18.odb,Step-1,Increment      1: Step Time =    1.000,"PART-1-1",           367,       6.24593,      -13.1909,            0.,NA,NA,"",   482.725E-03,  -482.638E-03,   9.16882E-03,   5.84899E-03
C:/temp/dataset/0/7_18.odb,Step-1,Increment      1: Step Time =    1.000,"PART-1-1",           368,       14.0233,      -5.11850,            0.,NA,NA,"",   617.553E-03,  -603.043E-03,   133.082E-03,   3.24362E-03
C:/temp/dataset/0/7_18.odb,Step-1,Increment      1: Step Time =    1.000,"PART-1-1",           369,           15.,         -3.75,            0.,NA,NA,"",   631.356E-03,  -615.850E-03,   139.066E-03,   3.86123E-03
C:/temp/dataset/0/7_18.odb,Step-1,Increment      1: Step Time =    1.000,"PART-1-1",           370,       13.9118,      -2.74864,            0.,NA,NA,"",   639.410E-03,  -627.008E-03,   125.323E-03,   2.85251E-03
C:/temp/dataset/0/7_18.odb,Step-1,Increment      1: Step Time =    1.000,"PART-1-1",           371,       12.6080,      -16.5365,            0.,NA,NA,"",   457.665E-03,  -437.984E-03,   132.768E-03,   14.2356E-03
C:/temp/dataset/0/7_18.odb,Step-1,Increment      1: Step Time =    1.000,"PART-1-1",           372,       11.3130,      -15.4489,            0.,NA,NA,"",   463.337E-03,  -449.618E-03,   111.911E-03,   8.09579E-03
C:/temp/dataset/0/7_18.odb,Step-1,Increment      1: Step Time =    1.000,"PART-1-1",           373,       10.1880,      -16.9099,            0.,NA,NA,"",   409.084E-03,  -400.679E-03,   82.5017E-03,   13.7248E-03
C:/temp/dataset/0/7_18.odb,Step-1,Increment      1: Step Time =    1.000,"PART-1-1",           374,       11.4829,      -17.9975,            0.,NA,NA,"",   394.584E-03,  -381.707E-03,   99.9805E-03,   18.2232E-03
C:/temp/dataset/0/7_18.odb,Step-1,Increment      1: Step Time =    1.000,"PART-1-1",           375,       7.63417,      -21.6752,            0.,NA,NA,"",   186.394E-03,  -186.357E-03,   3.75266E-03,   18.6860E-03
C:/temp/dataset/0/7_18.odb,Step-1,Increment      1: Step Time =    1.000,"PART-1-1",           376,       7.43394,      -23.2038,            0.,NA,NA,"",   138.398E-03,  -138.311E-03,  -4.90309E-03,   13.5722E-03
C:/temp/dataset/0/7_18.odb,Step-1,Increment      1: Step Time =    1.000,"PART-1-1",           377,       8.61676,      -23.4202,            0.,NA,NA,"",   141.321E-03,  -141.136E-03,   7.23344E-03,   15.3288E-03
C:/temp/dataset/0/7_18.odb,Step-1,Increment      1: Step Time =    1.000,"PART-1-1",           378,       8.81699,      -21.8917,            0.,NA,NA,"",   195.054E-03,  -194.074E-03,   19.5269E-03,   20.1154E-03
C:/temp/dataset/0/7_18.odb,Step-1,Increment      1: Step Time =    1.000,"PART-1-1",           379,  -438.919E-03,      -23.5046,            0.,NA,NA,"",   90.5913E-03,  -90.3367E-03,  -6.78671E-03,   11.1225E-03
C:/temp/dataset/0/7_18.odb,Step-1,Increment      1: Step Time =    1.000,"PART-1-1",           380,   774.543E-03,      -22.4081,            0.,NA,NA,"",   108.795E-03,  -108.319E-03,  -10.1613E-03,   13.2954E-03
C:/temp/dataset/0/7_18.odb,Step-1,Increment      1: Step Time =    1.000,"PART-1-1",           381,      -7.50181,      -26.8221,            0.,NA,NA,"",   31.2947E-03,  -31.2893E-03,  -582.349E-06,   6.39082E-03
C:/temp/dataset/0/7_18.odb,Step-1,Increment      1: Step Time =    1.000,"PART-1-1",           382,      -9.04643,      -28.2740,            0.,NA,NA,"",   15.2401E-03,  -15.1384E-03,  -1.75709E-03,   5.56607E-03
C:/temp/dataset/0/7_18.odb,Step-1,Increment      1: Step Time =    1.000,"PART-1-1",           383,          -7.5,          -30.,            0.,NA,NA,"",            0.,  -7.40251E-39,  -3.64786E-39,   6.60989E-03
C:/temp/dataset/0/7_18.odb,Step-1,Increment      1: Step Time =    1.000,"PART-1-1",           384,      -5.95538,      -28.5482,            0.,NA,NA,"",   16.4614E-03,  -16.4367E-03,  -900.588E-06,   7.33618E-03
C:/temp/dataset/0/7_18.odb,Step-1,Increment      1: Step Time =    1.000,"PART-1-1",           385,      -10.9107,       24.5471,            0.,NA,NA,"",   723.367E-03,  -722.712E-03,  -30.7694E-03,   1.40382E-03
C:/temp/dataset/0/7_18.odb,Step-1,Increment      1: Step Time =    1.000,"PART-1-1",           386,      -9.41006,       26.0517,            0.,NA,NA,"",   736.457E-03,  -736.324E-03,  -13.9807E-03,   1.40686E-03
C:/temp/dataset/0/7_18.odb,Step-1,Increment      1: Step Time =    1.000,"PART-1-1",           387,      -10.7443,       27.3091,            0.,NA,NA,"",   748.565E-03,  -748.011E-03,  -28.8102E-03,   1.17968E-03
C:/temp/dataset/0/7_18.odb,Step-1,Increment      1: Step Time =    1.000,"PART-1-1",           388,      -12.2450,       25.8045,            0.,NA,NA,"",   735.540E-03,  -734.138E-03,  -45.3924E-03,   1.17203E-03
C:/temp/dataset/0/7_18.odb,Step-1,Increment      1: Step Time =    1.000,"PART-1-1",           389,      -1.21620,       23.8189,            0.,NA,NA,"",   720.435E-03,  -718.259E-03,   55.9454E-03,   1.18015E-03
C:/temp/dataset/0/7_18.odb,Step-1,Increment      1: Step Time =    1.000,"PART-1-1",           390,      -2.21965,       25.1560,            0.,NA,NA,"",   728.535E-03,  -726.807E-03,   50.1574E-03,   524.678E-06
C:/temp/dataset/0/7_18.odb,Step-1,Increment      1: Step Time =    1.000,"PART-1-1",           391,      -12.3287,       22.9401,            0.,NA,NA,"",   708.218E-03,  -706.603E-03,  -47.7942E-03,   1.26514E-03
C:/temp/dataset/0/7_18.odb,Step-1,Increment      1: Step Time =    1.000,"PART-1-1",           392,      -11.0144,       21.7359,            0.,NA,NA,"",   695.742E-03,  -694.952E-03,  -33.1471E-03,   1.18950E-03
C:/temp/dataset/0/7_18.odb,Step-1,Increment      1: Step Time =    1.000,"PART-1-1",           393,      -9.59641,       23.3428,            0.,NA,NA,"",   712.016E-03,  -711.838E-03,  -15.9429E-03,   1.38832E-03
C:/temp/dataset/0/7_18.odb,Step-1,Increment      1: Step Time =    1.000,"PART-1-1",           394,      -8.52014,       19.3558,            0.,NA,NA,"",   669.192E-03,  -669.181E-03,  -3.77247E-03,   1.07753E-03
C:/temp/dataset/0/7_18.odb,Step-1,Increment      1: Step Time =    1.000,"PART-1-1",           395,      -7.12750,       20.9906,            0.,NA,NA,"",   690.281E-03,  -690.171E-03,   12.3022E-03,   1.36788E-03
C:/temp/dataset/0/7_18.odb,Step-1,Increment      1: Step Time =    1.000,"PART-1-1",           396,      -8.32913,       22.1749,            0.,NA,NA,"",   701.248E-03,  -701.246E-03,  -1.47502E-03,   1.35317E-03
C:/temp/dataset/0/7_18.odb,Step-1,Increment      1: Step Time =    1.000,"PART-1-1",           397,      -9.72177,       20.5400,            0.,NA,NA,"",   682.876E-03,  -682.633E-03,  -18.2236E-03,   844.593E-06
C:/temp/dataset/0/7_18.odb,Step-1,Increment      1: Step Time =    1.000,"PART-1-1",           398,      -6.16480,       16.7267,            0.,NA,NA,"",   632.751E-03,  -632.064E-03,   29.4690E-03,   2.14321E-03
C:/temp/dataset/0/7_18.odb,Step-1,Increment      1: Step Time =    1.000,"PART-1-1",           399,           -5.,       18.4615,            0.,NA,NA,"",   657.545E-03,  -656.229E-03,   41.5679E-03,   3.89668E-03
C:/temp/dataset/0/7_18.odb,Step-1,Increment      1: Step Time =    1.000,"PART-1-1",           400,      -6.13199,       19.8034,            0.,NA,NA,"",   678.256E-03,  -677.839E-03,   23.7926E-03,   3.26621E-03
C:/temp/dataset/0/7_18.odb,Step-1,Increment      1: Step Time =    1.000,"PART-1-1",           401,      -7.29678,       18.0686,            0.,NA,NA,"",   652.571E-03,  -652.462E-03,   11.9088E-03,   1.53746E-03
C:/temp/dataset/0/7_18.odb,Step-1,Increment      1: Step Time =    1.000,"PART-1-1",           402,      -11.0823,       15.8203,            0.,NA,NA,"",   620.260E-03,  -619.174E-03,  -36.6759E-03,   808.064E-06
C:/temp/dataset/0/7_18.odb,Step-1,Increment      1: Step Time =    1.000,"PART-1-1",           403,      -12.3677,       14.0517,            0.,NA,NA,"",   594.593E-03,  -592.017E-03,  -55.2895E-03,   943.420E-06
C:/temp/dataset/0/7_18.odb,Step-1,Increment      1: Step Time =    1.000,"PART-1-1",           404,      -11.1015,       12.7786,            0.,NA,NA,"",   573.634E-03,  -572.430E-03,  -37.1373E-03,   768.901E-06
C:/temp/dataset/0/7_18.odb,Step-1,Increment      1: Step Time =    1.000,"PART-1-1",           405,          -15.,          10.5,            0.,NA,NA,"",   542.927E-03,  -533.964E-03,  -98.2418E-03,   1.07577E-03
C:/temp/dataset/0/7_18.odb,Step-1,Increment      1: Step Time =    1.000,"PART-1-1",           406,      -13.6919,       9.25384,            0.,NA,NA,"",   519.845E-03,  -513.997E-03,  -77.7599E-03,   645.163E-06
C:/temp/dataset/0/7_18.odb,Step-1,Increment      1: Step Time =    1.000,"PART-1-1",           407,      -12.3755,       11.0249,            0.,NA,NA,"",   546.702E-03,  -543.774E-03,  -56.5044E-03,   800.290E-06
C:/temp/dataset/0/7_18.odb,Step-1,Increment      1: Step Time =    1.000,"PART-1-1",           408,      -13.6836,       12.2710,            0.,NA,NA,"",   568.486E-03,  -563.384E-03,  -75.9871E-03,   1.03075E-03
C:/temp/dataset/0/7_18.odb,Step-1,Increment      1: Step Time =    1.000,"PART-1-1",           409,      -7.40029,       8.84536,            0.,NA,NA,"",   507.991E-03,  -507.540E-03,   21.3932E-03,   943.095E-06
C:/temp/dataset/0/7_18.odb,Step-1,Increment      1: Step Time =    1.000,"PART-1-1",           410,      -8.62408,       10.1694,            0.,NA,NA,"",   529.882E-03,  -529.881E-03,   1.20144E-03,   916.731E-06
C:/temp/dataset/0/7_18.odb,Step-1,Increment      1: Step Time =    1.000,"PART-1-1",           411,      -9.86273,       8.43495,            0.,NA,NA,"",   501.157E-03,  -500.861E-03,  -17.2163E-03,   874.963E-06
C:/temp/dataset/0/7_18.odb,Step-1,Increment      1: Step Time =    1.000,"PART-1-1",           412,      -8.63893,       7.11093,            0.,NA,NA,"",   478.279E-03,  -478.271E-03,   2.76097E-03,   831.904E-06
C:/temp/dataset/0/7_18.odb,Step-1,Increment      1: Step Time =    1.000,"PART-1-1",           413,          -15.,           1.5,            0.,NA,NA,"",   394.223E-03,  -381.678E-03,  -98.6589E-03,   622.015E-06
C:/temp/dataset/0/7_18.odb,Step-1,Increment      1: Step Time =    1.000,"PART-1-1",           414,      -13.7087,   214.116E-03,            0.,NA,NA,"",   367.528E-03,  -359.571E-03,  -76.0642E-03,   784.010E-06
C:/temp/dataset/0/7_18.odb,Step-1,Increment      1: Step Time =    1.000,"PART-1-1",           415,      -12.4129,       1.94059,            0.,NA,NA,"",   393.007E-03,  -389.007E-03,  -55.9295E-03,   751.491E-06
C:/temp/dataset/0/7_18.odb,Step-1,Increment      1: Step Time =    1.000,"PART-1-1",           416,      -13.7042,       3.22647,            0.,NA,NA,"",   418.472E-03,  -411.181E-03,  -77.7716E-03,   451.123E-06
C:/temp/dataset/0/7_18.odb,Step-1,Increment      1: Step Time =    1.000,"PART-1-1",           417,      -9.88317,  -688.536E-03,            0.,NA,NA,"",   344.163E-03,  -343.867E-03,  -14.2741E-03,   859.202E-06
C:/temp/dataset/0/7_18.odb,Step-1,Increment      1: Step Time =    1.000,"PART-1-1",           418,      -8.64028,      -2.02441,            0.,NA,NA,"",   321.441E-03,  -321.393E-03,   5.52281E-03,   727.146E-06
C:/temp/dataset/0/7_18.odb,Step-1,Increment      1: Step Time =    1.000,"PART-1-1",           419,      -7.40757,  -323.915E-03,            0.,NA,NA,"",   351.250E-03,  -350.358E-03,   25.0048E-03,   636.736E-06
C:/temp/dataset/0/7_18.odb,Step-1,Increment      1: Step Time =    1.000,"PART-1-1",           420,      -8.65046,       1.01196,            0.,NA,NA,"",   373.077E-03,  -373.046E-03,   4.86456E-03,   733.695E-06
C:/temp/dataset/0/7_18.odb,Step-1,Increment      1: Step Time =    1.000,"PART-1-1",           421,          -15.,          -7.5,            0.,NA,NA,"",   250.505E-03,  -235.410E-03,  -85.6431E-03,   2.29240E-03
C:/temp/dataset/0/7_18.odb,Step-1,Increment      1: Step Time =    1.000,"PART-1-1",           422,      -13.7007,      -8.80606,            0.,NA,NA,"",   224.303E-03,  -214.954E-03,  -64.0836E-03,   1.97149E-03
C:/temp/dataset/0/7_18.odb,Step-1,Increment      1: Step Time =    1.000,"PART-1-1",           423,      -12.4029,      -7.10316,            0.,NA,NA,"",   244.484E-03,  -239.691E-03,  -48.1688E-03,   1.34633E-03
C:/temp/dataset/0/7_18.odb,Step-1,Increment      1: Step Time =    1.000,"PART-1-1",           424,      -13.7022,      -5.79711,            0.,NA,NA,"",   269.644E-03,  -260.631E-03,  -69.1316E-03,   1.56712E-03
C:/temp/dataset/0/7_18.odb,Step-1,Increment      1: Step Time =    1.000,"PART-1-1",           425,      -7.34368,      -12.4907,            0.,NA,NA,"",   164.102E-03,  -162.977E-03,   19.1821E-03,   1.50433E-03
C:/temp/dataset/0/7_18.odb,Step-1,Increment      1: Step Time =    1.000,"PART-1-1",           426,      -8.60430,      -11.1353,            0.,NA,NA,"",   180.567E-03,  -180.505E-03,   4.73061E-03,   894.629E-06
C:/temp/dataset/0/7_18.odb,Step-1,Increment      1: Step Time =    1.000,"PART-1-1",           427,      -9.82710,      -12.7746,            0.,NA,NA,"",   158.900E-03,  -158.577E-03,  -10.1246E-03,   861.804E-06
C:/temp/dataset/0/7_18.odb,Step-1,Increment      1: Step Time =    1.000,"PART-1-1",           428,      -8.56648,      -14.1300,            0.,NA,NA,"",   141.823E-03,  -141.769E-03,   3.89440E-03,   1.03617E-03
C:/temp/dataset/0/7_18.odb,Step-1,Increment      1: Step Time =    1.000,"PART-1-1",           429,  -730.622E-03,       22.2784,            0.,NA,NA,"",   711.702E-03,  -709.346E-03,   57.8689E-03,   1.82699E-03
C:/temp/dataset/0/7_18.odb,Step-1,Increment      1: Step Time =    1.000,"PART-1-1",           430,         -1.25,           20.,            0.,NA,NA,"",   697.689E-03,  -695.686E-03,   52.8246E-03,   2.96257E-03
C:/temp/dataset/0/7_18.odb,Step-1,Increment      1: Step Time =    1.000,"PART-1-1",           431,       11.1367,       28.7451,            0.,NA,NA,"",   744.942E-03,  -738.776E-03,   95.6542E-03,   271.131E-06
C:/temp/dataset/0/7_18.odb,Step-1,Increment      1: Step Time =    1.000,"PART-1-1",           432,       10.3125,           30.,            0.,NA,NA,"",   747.988E-03,  -742.106E-03,   93.6161E-03,   342.850E-06
C:/temp/dataset/0/7_18.odb,Step-1,Increment      1: Step Time =    1.000,"PART-1-1",           433,       10.0023,       27.5230,            0.,NA,NA,"",   741.427E-03,  -735.549E-03,   93.1727E-03,   515.215E-06
C:/temp/dataset/0/7_18.odb,Step-1,Increment      1: Step Time =    1.000,"PART-1-1",           434,       10.7751,       23.9735,            0.,NA,NA,"",   731.325E-03,  -725.206E-03,   94.4034E-03,   490.513E-06
C:/temp/dataset/0/7_18.odb,Step-1,Increment      1: Step Time =    1.000,"PART-1-1",           435,       11.7898,       22.7248,            0.,NA,NA,"",   728.603E-03,  -722.212E-03,   96.2882E-03,   436.296E-06
C:/temp/dataset/0/7_18.odb,Step-1,Increment      1: Step Time =    1.000,"PART-1-1",           436,       12.9255,       23.8368,            0.,NA,NA,"",   732.052E-03,  -725.298E-03,   99.2103E-03,   347.562E-06
C:/temp/dataset/0/7_18.odb,Step-1,Increment      1: Step Time =    1.000,"PART-1-1",           437,       2.25220,       28.9826,            0.,NA,NA,"",   748.990E-03,  -745.624E-03,   70.9208E-03,   1.48543E-03
C:/temp/dataset/0/7_18.odb,Step-1,Increment      1: Step Time =    1.000,"PART-1-1",           438,       3.21116,       27.8846,            0.,NA,NA,"",   743.593E-03,  -739.789E-03,   75.1151E-03,   1.05543E-03
C:/temp/dataset/0/7_18.odb,Step-1,Increment      1: Step Time =    1.000,"PART-1-1",           439,       4.70896,       28.9020,            0.,NA,NA,"",   746.799E-03,  -742.547E-03,   79.5855E-03,   1.10306E-03
C:/temp/dataset/0/7_18.odb,Step-1,Increment      1: Step Time =    1.000,"PART-1-1",           440,          3.75,           30.,            0.,NA,NA,"",   751.412E-03,  -747.581E-03,   75.7843E-03,   1.62271E-03
C:/temp/dataset/0/7_18.odb,Step-1,Increment      1: Step Time =    1.000,"PART-1-1",           441,      -8.10884,       24.8461,            0.,NA,NA,"",   725.597E-03,  -725.597E-03,   400.788E-06,   1.37541E-03
C:/temp/dataset/0/7_18.odb,Step-1,Increment      1: Step Time =    1.000,"PART-1-1",           442,      -13.5971,       27.1125,            0.,NA,NA,"",   748.669E-03,  -746.296E-03,  -59.5660E-03,   596.901E-06
C:/temp/dataset/0/7_18.odb,Step-1,Increment      1: Step Time =    1.000,"PART-1-1",           443,          -15.,          25.5,            0.,NA,NA,"",   734.175E-03,  -730.386E-03,  -74.4919E-03,   855.741E-06
C:/temp/dataset/0/7_18.odb,Step-1,Increment      1: Step Time =    1.000,"PART-1-1",           444,      -13.6479,       24.1920,            0.,NA,NA,"",   720.946E-03,  -718.309E-03,  -61.5999E-03,   1.19076E-03
C:/temp/dataset/0/7_18.odb,Step-1,Increment      1: Step Time =    1.000,"PART-1-1",           445,      -6.53168,       26.2506,            0.,NA,NA,"",   736.968E-03,  -736.800E-03,   15.7050E-03,   1.20837E-03
C:/temp/dataset/0/7_18.odb,Step-1,Increment      1: Step Time =    1.000,"PART-1-1",           446,      -7.83289,       27.4562,            0.,NA,NA,"",   747.825E-03,  -747.822E-03,   2.17079E-03,   1.31821E-03
C:/temp/dataset/0/7_18.odb,Step-1,Increment      1: Step Time =    1.000,"PART-1-1",           447,          -15.,          28.5,            0.,NA,NA,"",   763.308E-03,  -759.745E-03,  -73.6598E-03,   126.999E-06
C:/temp/dataset/0/7_18.odb,Step-1,Increment      1: Step Time =    1.000,"PART-1-1",           448,      -12.0971,       28.6125,            0.,NA,NA,"",   762.026E-03,  -760.776E-03,  -43.6326E-03,   596.534E-06
C:/temp/dataset/0/7_18.odb,Step-1,Increment      1: Step Time =    1.000,"PART-1-1",           449,         -13.5,           30.,            0.,NA,NA,"",   777.151E-03,  -774.949E-03,  -58.4659E-03,   127.145E-06
C:/temp/dataset/0/7_18.odb,Step-1,Increment      1: Step Time =    1.000,"PART-1-1",           450,      -6.19829,       10.5730,            0.,NA,NA,"",   537.284E-03,  -535.881E-03,   38.8106E-03,   1.23617E-03
C:/temp/dataset/0/7_18.odb,Step-1,Increment      1: Step Time =    1.000,"PART-1-1",           451,      -6.20201,       7.50308,            0.,NA,NA,"",   486.431E-03,  -484.624E-03,   41.8908E-03,   834.755E-06
C:/temp/dataset/0/7_18.odb,Step-1,Increment      1: Step Time =    1.000,"PART-1-1",           452,           -5.,       9.23077,            0.,NA,NA,"",   516.716E-03,  -513.224E-03,   59.9694E-03,   1.24347E-03
C:/temp/dataset/0/7_18.odb,Step-1,Increment      1: Step Time =    1.000,"PART-1-1",           453,      -12.4049,       4.96458,            0.,NA,NA,"",   444.871E-03,  -441.214E-03,  -56.9238E-03,   662.299E-06
C:/temp/dataset/0/7_18.odb,Step-1,Increment      1: Step Time =    1.000,"PART-1-1",           454,      -13.7007,       6.23810,            0.,NA,NA,"",   469.518E-03,  -462.930E-03,  -78.3769E-03,   367.889E-06
C:/temp/dataset/0/7_18.odb,Step-1,Increment      1: Step Time =    1.000,"PART-1-1",           455,          -15.,           4.5,            0.,NA,NA,"",   444.375E-03,  -432.968E-03,  -100.041E-03,   73.7639E-06
C:/temp/dataset/0/7_18.odb,Step-1,Increment      1: Step Time =    1.000,"PART-1-1",           456,      -9.87977,       5.38582,            0.,NA,NA,"",   448.917E-03,  -448.619E-03,  -16.3514E-03,   866.718E-06
C:/temp/dataset/0/7_18.odb,Step-1,Increment      1: Step Time =    1.000,"PART-1-1",           457,      -8.64969,       4.05795,            0.,NA,NA,"",   425.686E-03,  -425.668E-03,   3.94396E-03,   769.227E-06
C:/temp/dataset/0/7_18.odb,Step-1,Increment      1: Step Time =    1.000,"PART-1-1",           458,      -7.40885,       5.78306,            0.,NA,NA,"",   456.010E-03,  -455.415E-03,   23.3011E-03,   749.315E-06
C:/temp/dataset/0/7_18.odb,Step-1,Increment      1: Step Time =    1.000,"PART-1-1",           459,      -7.41391,       2.72502,            0.,NA,NA,"",   403.415E-03,  -402.673E-03,   24.4664E-03,   633.091E-06
C:/temp/dataset/0/7_18.odb,Step-1,Increment      1: Step Time =    1.000,"PART-1-1",           460,      -9.88624,       2.34489,            0.,NA,NA,"",   396.277E-03,  -395.979E-03,  -15.3638E-03,   862.909E-06
C:/temp/dataset/0/7_18.odb,Step-1,Increment      1: Step Time =    1.000,"PART-1-1",           461,      -12.4101,      -4.09106,            0.,NA,NA,"",   291.956E-03,  -287.378E-03,  -51.5004E-03,   1.12203E-03
C:/temp/dataset/0/7_18.odb,Step-1,Increment      1: Step Time =    1.000,"PART-1-1",           462,      -13.7080,      -2.79395,            0.,NA,NA,"",   317.630E-03,  -309.086E-03,  -73.1748E-03,   1.16941E-03
C:/temp/dataset/0/7_18.odb,Step-1,Increment      1: Step Time =    1.000,"PART-1-1",           463,          -15.,          -4.5,            0.,NA,NA,"",   296.458E-03,  -282.001E-03,  -91.4490E-03,   1.73393E-03
C:/temp/dataset/0/7_18.odb,Step-1,Increment      1: Step Time =    1.000,"PART-1-1",           464,      -9.87646,      -3.71895,            0.,NA,NA,"",   293.429E-03,  -293.132E-03,  -13.1937E-03,   855.035E-06
C:/temp/dataset/0/7_18.odb,Step-1,Increment      1: Step Time =    1.000,"PART-1-1",           465,      -8.63520,      -5.06687,            0.,NA,NA,"",   271.436E-03,  -271.378E-03,   5.64337E-03,   752.685E-06
C:/temp/dataset/0/7_18.odb,Step-1,Increment      1: Step Time =    1.000,"PART-1-1",           466,      -7.39901,      -3.37233,            0.,NA,NA,"",   300.293E-03,  -299.271E-03,   24.7504E-03,   762.274E-06
C:/temp/dataset/0/7_18.odb,Step-1,Increment      1: Step Time =    1.000,"PART-1-1",           467,      -7.39417,      -6.42670,            0.,NA,NA,"",   251.359E-03,  -250.250E-03,   23.5838E-03,   965.929E-06
C:/temp/dataset/0/7_18.odb,Step-1,Increment      1: Step Time =    1.000,"PART-1-1",           468,      -9.87187,      -6.75385,            0.,NA,NA,"",   244.883E-03,  -244.577E-03,  -12.2335E-03,   850.757E-06
C:/temp/dataset/0/7_18.odb,Step-1,Increment      1: Step Time =    1.000,"PART-1-1",           469,      -8.63084,      -8.11369,            0.,NA,NA,"",   224.032E-03,  -223.970E-03,   5.28013E-03,   812.085E-06
C:/temp/dataset/0/7_18.odb,Step-1,Increment      1: Step Time =    1.000,"PART-1-1",           470,      -12.3844,      -13.1215,            0.,NA,NA,"",   160.166E-03,  -155.222E-03,  -39.4888E-03,   1.80598E-03
C:/temp/dataset/0/7_18.odb,Step-1,Increment      1: Step Time =    1.000,"PART-1-1",           471,      -13.6984,      -11.8123,            0.,NA,NA,"",   182.598E-03,  -173.146E-03,  -57.9894E-03,   2.36738E-03
C:/temp/dataset/0/7_18.odb,Step-1,Increment      1: Step Time =    1.000,"PART-1-1",           472,          -15.,         -13.5,            0.,NA,NA,"",   168.486E-03,  -153.381E-03,  -69.7272E-03,   3.33215E-03
C:/temp/dataset/0/7_18.odb,Step-1,Increment      1: Step Time =    1.000,"PART-1-1",           473,      -7.37693,      -9.46970,            0.,NA,NA,"",   205.645E-03,  -204.493E-03,   21.7323E-03,   1.21994E-03
C:/temp/dataset/0/7_18.odb,Step-1,Increment      1: Step Time =    1.000,"PART-1-1",           474,      -9.85821,      -9.77933,            0.,NA,NA,"",   199.659E-03,  -199.342E-03,  -11.2443E-03,   850.804E-06
C:/temp/dataset/0/7_18.odb,Step-1,Increment      1: Step Time =    1.000,"PART-1-1",           475,      -8.48236,      -17.0363,            0.,NA,NA,"",   109.150E-03,  -109.094E-03,   3.48336E-03,   1.16593E-03
C:/temp/dataset/0/7_18.odb,Step-1,Increment      1: Step Time =    1.000,"PART-1-1",           476,      -7.28434,      -15.4580,            0.,NA,NA,"",   127.662E-03,  -126.640E-03,   16.1208E-03,   1.93421E-03
C:/temp/dataset/0/7_18.odb,Step-1,Increment      1: Step Time =    1.000,"PART-1-1",           477,      -9.76451,      -15.7083,            0.,NA,NA,"",   123.717E-03,  -123.421E-03,  -8.55672E-03,   910.107E-06
C:/temp/dataset/0/7_18.odb,Step-1,Increment      1: Step Time =    1.000,"PART-1-1",           478,      -8.29054,      -19.6175,            0.,NA,NA,"",   86.1174E-03,  -86.0138E-03,   4.22258E-03,   661.984E-06
C:/temp/dataset/0/7_18.odb,Step-1,Increment      1: Step Time =    1.000,"PART-1-1",           479,      -7.20240,      -18.2338,            0.,NA,NA,"",   98.4709E-03,  -97.6413E-03,   12.7548E-03,   1.60691E-03
C:/temp/dataset/0/7_18.odb,Step-1,Increment      1: Step Time =    1.000,"PART-1-1",           480,      -9.57051,      -18.4200,            0.,NA,NA,"",   96.2442E-03,  -96.0895E-03,  -5.45443E-03,   787.639E-06
C:/temp/dataset/0/7_18.odb,Step-1,Increment      1: Step Time =    1.000,"PART-1-1",           481,      -11.5327,      -24.2644,            0.,NA,NA,"",   50.9445E-03,  -49.3705E-03,  -12.5657E-03,   3.02967E-03
C:/temp/dataset/0/7_18.odb,Step-1,Increment      1: Step Time =    1.000,"PART-1-1",           482,      -10.1789,      -23.4859,            0.,NA,NA,"",   56.3369E-03,  -55.9304E-03,  -6.75567E-03,   2.38660E-03
C:/temp/dataset/0/7_18.odb,Step-1,Increment      1: Step Time =    1.000,"PART-1-1",           483,      -10.8627,      -21.7859,            0.,NA,NA,"",   70.1825E-03,  -69.1067E-03,  -12.2413E-03,   1.53394E-03
C:/temp/dataset/0/7_18.odb,Step-1,Increment      1: Step Time =    1.000,"PART-1-1",           484,      -12.2165,      -22.5644,            0.,NA,NA,"",   66.5827E-03,  -63.5133E-03,  -19.9829E-03,   2.58541E-03
C:/temp/dataset/0/7_18.odb,Step-1,Increment      1: Step Time =    1.000,"PART-1-1",           485,      -6.15301,      -21.8453,            0.,NA,NA,"",   76.2516E-03,  -75.5287E-03,   10.4746E-03,   5.16953E-03
C:/temp/dataset/0/7_18.odb,Step-1,Increment      1: Step Time =    1.000,"PART-1-1",           486,      -7.48433,      -22.7723,            0.,NA,NA,"",   65.7747E-03,  -65.6075E-03,   4.68781E-03,   3.75684E-03
C:/temp/dataset/0/7_18.odb,Step-1,Increment      1: Step Time =    1.000,"PART-1-1",           487,      -6.61766,      -24.1583,            0.,NA,NA,"",   57.9761E-03,  -57.8534E-03,   3.77029E-03,   5.85904E-03
C:/temp/dataset/0/7_18.odb,Step-1,Increment      1: Step Time =    1.000,"PART-1-1",           488,      -9.30746,      -21.9937,            0.,NA,NA,"",   68.0873E-03,  -68.0348E-03,  -2.67517E-03,   1.40526E-03
C:/temp/dataset/0/7_18.odb,Step-1,Increment      1: Step Time =    1.000,"PART-1-1",           489,      -9.12330,      -20.5212,            0.,NA,NA,"",   78.9191E-03,  -78.9034E-03,  -1.57344E-03,   712.817E-06
C:/temp/dataset/0/7_18.odb,Step-1,Increment      1: Step Time =    1.000,"PART-1-1",           490,      -10.6786,      -20.3134,            0.,NA,NA,"",   81.5519E-03,  -80.5696E-03,  -12.6190E-03,   1.27472E-03
C:/temp/dataset/0/7_18.odb,Step-1,Increment      1: Step Time =    1.000,"PART-1-1",           491,         -13.5,          -30.,            0.,NA,NA,"",            0.,  -1.67431E-39,  -12.2494E-39,   8.68818E-03
C:/temp/dataset/0/7_18.odb,Step-1,Increment      1: Step Time =    1.000,"PART-1-1",           492,      -12.0973,      -28.5120,            0.,NA,NA,"",   11.9094E-03,  -11.1744E-03,  -4.11908E-03,   5.52087E-03
C:/temp/dataset/0/7_18.odb,Step-1,Increment      1: Step Time =    1.000,"PART-1-1",           493,      -13.5973,      -27.0120,            0.,NA,NA,"",   30.2251E-03,  -26.6952E-03,  -14.1748E-03,   5.35003E-03
C:/temp/dataset/0/7_18.odb,Step-1,Increment      1: Step Time =    1.000,"PART-1-1",           494,          -15.,         -28.5,            0.,NA,NA,"",   21.5157E-03,  -16.6692E-03,  -13.6037E-03,   9.10319E-03
C:/temp/dataset/0/7_18.odb,Step-1,Increment      1: Step Time =    1.000,"PART-1-1",           495,      -2.59553,      -21.0976,            0.,NA,NA,"",   93.0632E-03,  -92.8065E-03,   6.90688E-03,   5.85599E-03
C:/temp/dataset/0/7_18.odb,Step-1,Increment      1: Step Time =    1.000,"PART-1-1",           496,      -1.51596,      -22.2324,            0.,NA,NA,"",   94.5412E-03,  -94.5405E-03,   339.060E-06,   9.11156E-03
C:/temp/dataset/0/7_18.odb,Step-1,Increment      1: Step Time =    1.000,"PART-1-1",           497,  -170.430E-03,      -21.1349,            0.,NA,NA,"",   107.673E-03,  -107.671E-03,  -764.177E-06,   9.50857E-03
C:/temp/dataset/0/7_18.odb,Step-1,Increment      1: Step Time =    1.000,"PART-1-1",           498,         -1.25,          -20.,            0.,NA,NA,"",   100.288E-03,  -100.098E-03,   6.16698E-03,   7.41522E-03
C:/temp/dataset/0/7_18.odb,Step-1,Increment      1: Step Time =    1.000,"PART-1-1",           499,       2.92795,      -28.2085,            0.,NA,NA,"",   29.4358E-03,  -28.6059E-03,  -6.94053E-03,   11.9381E-03
C:/temp/dataset/0/7_18.odb,Step-1,Increment      1: Step Time =    1.000,"PART-1-1",           500,  -103.307E-03,      -28.5907,            0.,NA,NA,"",   22.9404E-03,  -22.6156E-03,  -3.84686E-03,   11.0818E-03
C:/temp/dataset/0/7_18.odb,Step-1,Increment      1: Step Time =    1.000,"PART-1-1",           501,           1.5,          -30.,            0.,NA,NA,"",            0.,  -12.6001E-39,  -9.91161E-39,   11.1219E-03
C:/temp/dataset/0/7_18.odb,Step-1,Increment      1: Step Time =    1.000,"PART-1-1",           502,       2.19497,      -21.2732,            0.,NA,NA,"",   134.742E-03,  -133.948E-03,  -14.6009E-03,   15.3583E-03
C:/temp/dataset/0/7_18.odb,Step-1,Increment      1: Step Time =    1.000,"PART-1-1",           503,          1.25,          -20.,            0.,NA,NA,"",   120.002E-03,  -120.002E-03,  -356.870E-06,   13.4444E-03
C:/temp/dataset/0/7_18.odb,Step-1,Increment      1: Step Time =    1.000,"PART-1-1",           504,       4.38160,      -21.6436,            0.,NA,NA,"",   156.496E-03,  -153.267E-03,  -31.6269E-03,   22.2650E-03
C:/temp/dataset/0/7_18.odb,Step-1,Increment      1: Step Time =    1.000,"PART-1-1",           505,          3.75,          -20.,            0.,NA,NA,"",   166.922E-03,  -166.131E-03,  -16.2282E-03,   29.1205E-03
C:/temp/dataset/0/7_18.odb,Step-1,Increment      1: Step Time =    1.000,"PART-1-1",           506,       12.4146,      -26.3616,            0.,NA,NA,"",   81.5966E-03,  -72.2518E-03,   37.9169E-03,   14.0131E-03
C:/temp/dataset/0/7_18.odb,Step-1,Increment      1: Step Time =    1.000,"PART-1-1",           507,       11.3720,      -25.0651,            0.,NA,NA,"",   110.989E-03,  -106.003E-03,   32.8925E-03,   13.9032E-03
C:/temp/dataset/0/7_18.odb,Step-1,Increment      1: Step Time =    1.000,"PART-1-1",           508,       9.80011,      -26.1459,            0.,NA,NA,"",   69.2632E-03,  -68.6027E-03,   9.54225E-03,   12.0410E-03
C:/temp/dataset/0/7_18.odb,Step-1,Increment      1: Step Time =    1.000,"PART-1-1",           509,       10.8427,      -27.4423,            0.,NA,NA,"",   41.9301E-03,  -40.0912E-03,   12.2811E-03,   11.6534E-03
C:/temp/dataset/0/7_18.odb,Step-1,Increment      1: Step Time =    1.000,"PART-1-1",           510,       10.6574,      -21.6616,            0.,NA,NA,"",   232.134E-03,  -226.953E-03,   48.7716E-03,   21.6290E-03
C:/temp/dataset/0/7_18.odb,Step-1,Increment      1: Step Time =    1.000,"PART-1-1",           511,       9.56375,      -20.8051,            0.,NA,NA,"",   249.113E-03,  -245.929E-03,   39.6980E-03,   22.7506E-03
C:/temp/dataset/0/7_18.odb,Step-1,Increment      1: Step Time =    1.000,"PART-1-1",           512,       9.91066,      -22.7482,            0.,NA,NA,"",   178.083E-03,  -175.883E-03,   27.9069E-03,   18.8237E-03
C:/temp/dataset/0/7_18.odb,Step-1,Increment      1: Step Time =    1.000,"PART-1-1",           513,       13.7822,      -25.0807,            0.,NA,NA,"",   146.133E-03,  -120.876E-03,   82.1218E-03,   15.8775E-03
C:/temp/dataset/0/7_18.odb,Step-1,Increment      1: Step Time =    1.000,"PART-1-1",           514,       13.6324,      -27.5308,            0.,NA,NA,"",   63.4856E-03,  -49.0302E-03,   40.3294E-03,   19.8170E-03
C:/temp/dataset/0/7_18.odb,Step-1,Increment      1: Step Time =    1.000,"PART-1-1",           515,           15.,        -26.25,            0.,NA,NA,"",   135.584E-03,  -96.6525E-03,   95.0854E-03,   23.3472E-03
C:/temp/dataset/0/7_18.odb,Step-1,Increment      1: Step Time =    1.000,"PART-1-1",           516,          13.5,          -30.,            0.,NA,NA,"",            0.,  -1.89629E-39,   37.9140E-39,   22.6803E-03
C:/temp/dataset/0/7_18.odb,Step-1,Increment      1: Step Time =    1.000,"PART-1-1",           517,           15.,        -28.75,            0.,NA,NA,"",   49.4174E-03,  -34.9660E-03,   34.9207E-03,   30.1720E-03
C:/temp/dataset/0/7_18.odb,Step-1,Increment      1: Step Time =    1.000,"PART-1-1",           518,       12.1324,      -28.7808,            0.,NA,NA,"",   18.3705E-03,  -14.9471E-03,   10.6798E-03,   12.4698E-03
C:/temp/dataset/0/7_18.odb,Step-1,Increment      1: Step Time =    1.000,"PART-1-1",           519,       10.4418,      -23.8774,            0.,NA,NA,"",   142.969E-03,  -140.316E-03,   27.4136E-03,   16.5816E-03
C:/temp/dataset/0/7_18.odb,Step-1,Increment      1: Step Time =    1.000,"PART-1-1",           520,       12.6627,      -23.9582,            0.,NA,NA,"",   167.817E-03,  -154.551E-03,   65.3958E-03,   15.8344E-03
C:/temp/dataset/0/7_18.odb,Step-1,Increment      1: Step Time =    1.000,"PART-1-1",           521,       11.7324,      -22.7705,            0.,NA,NA,"",   202.640E-03,  -194.494E-03,   56.8808E-03,   19.5356E-03
C:/temp/dataset/0/7_18.odb,Step-1,Increment      1: Step Time =    1.000,"PART-1-1",           522,       13.8804,      -22.6275,            0.,NA,NA,"",   250.379E-03,  -224.935E-03,   109.973E-03,   18.6158E-03
C:/temp/dataset/0/7_18.odb,Step-1,Increment      1: Step Time =    1.000,"PART-1-1",           523,           15.,        -23.75,            0.,NA,NA,"",   228.642E-03,  -179.256E-03,   141.930E-03,   17.9116E-03
C:/temp/dataset/0/7_18.odb,Step-1,Increment      1: Step Time =    1.000,"PART-1-1",           524,       10.4567,      -19.3679,            0.,NA,NA,"",   324.208E-03,  -316.854E-03,   68.6613E-03,   21.5848E-03
C:/temp/dataset/0/7_18.odb,Step-1,Increment      1: Step Time =    1.000,"PART-1-1",           525,       11.6911,      -20.4036,            0.,NA,NA,"",   305.123E-03,  -294.363E-03,   80.3151E-03,   23.3716E-03
C:/temp/dataset/0/7_18.odb,Step-1,Increment      1: Step Time =    1.000,"PART-1-1",           526,       13.7764,      -15.1383,            0.,NA,NA,"",   499.941E-03,  -473.462E-03,   160.547E-03,   9.89275E-03
C:/temp/dataset/0/7_18.odb,Step-1,Increment      1: Step Time =    1.000,"PART-1-1",           527,           15.,        -16.25,            0.,NA,NA,"",   506.974E-03,  -475.354E-03,   176.240E-03,   14.7975E-03
C:/temp/dataset/0/7_18.odb,Step-1,Increment      1: Step Time =    1.000,"PART-1-1",           528,       13.9082,      -7.52913,            0.,NA,NA,"",   590.823E-03,  -574.256E-03,   138.928E-03,   3.34929E-03
C:/temp/dataset/0/7_18.odb,Step-1,Increment      1: Step Time =    1.000,"PART-1-1",           529,       12.6962,      -8.81215,            0.,NA,NA,"",   572.472E-03,  -558.440E-03,   125.971E-03,   2.64158E-03
C:/temp/dataset/0/7_18.odb,Step-1,Increment      1: Step Time =    1.000,"PART-1-1",           530,           15.,         -8.75,            0.,NA,NA,"",   577.955E-03,  -555.975E-03,   157.876E-03,   4.03447E-03
C:/temp/dataset/0/7_18.odb,Step-1,Increment      1: Step Time =    1.000,"PART-1-1",           531,       12.9315,      -6.39763,            0.,NA,NA,"",   602.446E-03,  -589.668E-03,   123.423E-03,   2.48880E-03
C:/temp/dataset/0/7_18.odb,Step-1,Increment      1: Step Time =    1.000,"PART-1-1",           532,           15.,         -6.25,            0.,NA,NA,"",   606.893E-03,  -588.490E-03,   148.318E-03,   4.13760E-03
C:/temp/dataset/0/7_18.odb,Step-1,Increment      1: Step Time =    1.000,"PART-1-1",           533,       13.7496,  -319.059E-03,            0.,NA,NA,"",   658.035E-03,  -647.350E-03,   118.104E-03,   2.40744E-03
C:/temp/dataset/0/7_18.odb,Step-1,Increment      1: Step Time =    1.000,"PART-1-1",           534,       12.6614,      -1.81770,            0.,NA,NA,"",   646.126E-03,  -636.429E-03,   111.524E-03,   1.87463E-03
C:/temp/dataset/0/7_18.odb,Step-1,Increment      1: Step Time =    1.000,"PART-1-1",           535,           15.,         -1.25,            0.,NA,NA,"",   651.719E-03,  -638.471E-03,   130.736E-03,   3.44811E-03
C:/temp/dataset/0/7_18.odb,Step-1,Increment      1: Step Time =    1.000,"PART-1-1",           536,       12.4054,   643.186E-03,            0.,NA,NA,"",   663.800E-03,  -655.313E-03,   105.811E-03,   1.51680E-03
C:/temp/dataset/0/7_18.odb,Step-1,Increment      1: Step Time =    1.000,"PART-1-1",           537,           15.,          1.25,            0.,NA,NA,"",   668.406E-03,  -656.907E-03,   123.448E-03,   2.99382E-03
C:/temp/dataset/0/7_18.odb,Step-1,Increment      1: Step Time =    1.000,"PART-1-1",           538,           15.,          6.25,            0.,NA,NA,"",   692.575E-03,  -683.450E-03,   112.053E-03,   2.06503E-03
C:/temp/dataset/0/7_18.odb,Step-1,Increment      1: Step Time =    1.000,"PART-1-1",           539,       10.9661,       10.0010,            0.,NA,NA,"",   703.759E-03,  -697.677E-03,   92.3244E-03,   755.741E-06
C:/temp/dataset/0/7_18.odb,Step-1,Increment      1: Step Time =    1.000,"PART-1-1",           540,       13.7311,       15.1467,            0.,NA,NA,"",   715.111E-03,  -708.144E-03,   99.5755E-03,   422.386E-06
C:/temp/dataset/0/7_18.odb,Step-1,Increment      1: Step Time =    1.000,"PART-1-1",           541,       13.6638,       12.5861,            0.,NA,NA,"",   710.402E-03,  -703.278E-03,   100.354E-03,   690.575E-06
C:/temp/dataset/0/7_18.odb,Step-1,Increment      1: Step Time =    1.000,"PART-1-1",           542,           15.,         13.75,            0.,NA,NA,"",   712.758E-03,  -705.296E-03,   102.870E-03,   636.646E-06
C:/temp/dataset/0/7_18.odb,Step-1,Increment      1: Step Time =    1.000,"PART-1-1",           543,       10.0887,       16.9483,            0.,NA,NA,"",   716.559E-03,  -710.858E-03,   90.2093E-03,   846.267E-06
C:/temp/dataset/0/7_18.odb,Step-1,Increment      1: Step Time =    1.000,"PART-1-1",           544,       12.5455,       16.5489,            0.,NA,NA,"",   717.058E-03,  -710.523E-03,   96.5857E-03,   591.802E-06
C:/temp/dataset/0/7_18.odb,Step-1,Increment      1: Step Time =    1.000,"PART-1-1",           545,       13.9423,       22.5670,            0.,NA,NA,"",   729.351E-03,  -722.298E-03,   101.189E-03,   416.673E-06
C:/temp/dataset/0/7_18.odb,Step-1,Increment      1: Step Time =    1.000,"PART-1-1",           546,       12.8310,       21.4264,            0.,NA,NA,"",   726.127E-03,  -719.448E-03,   98.2579E-03,   343.900E-06
C:/temp/dataset/0/7_18.odb,Step-1,Increment      1: Step Time =    1.000,"PART-1-1",           547,           15.,         21.25,            0.,NA,NA,"",   726.847E-03,  -719.500E-03,   103.082E-03,   459.752E-06
C:/temp/dataset/0/7_18.odb,Step-1,Increment      1: Step Time =    1.000,"PART-1-1",           548,       13.0804,       28.7387,            0.,NA,NA,"",   745.345E-03,  -738.577E-03,   100.213E-03,   117.201E-06
C:/temp/dataset/0/7_18.odb,Step-1,Increment      1: Step Time =    1.000,"PART-1-1",           549,       12.1875,           30.,            0.,NA,NA,"",   748.248E-03,  -741.797E-03,   98.0350E-03,   117.598E-06
C:/temp/dataset/0/7_18.odb,Step-1,Increment      1: Step Time =    1.000,"PART-1-1",           550,           15.,         28.75,            0.,NA,NA,"",   746.022E-03,  -738.594E-03,   105.011E-03,   19.6541E-06
C:/temp/dataset/0/7_18.odb,Step-1,Increment      1: Step Time =    1.000,"PART-1-1",           551,       14.0625,           30.,            0.,NA,NA,"",   748.828E-03,  -741.761E-03,   102.637E-03,   18.2570E-06
C:/temp/dataset/0/7_18.odb,Step-1,Increment      1: Step Time =    1.000,"PART-1-1",           552,       8.83353,       26.4105,            0.,NA,NA,"",   737.838E-03,  -732.256E-03,   90.5904E-03,   623.037E-06
C:/temp/dataset/0/7_18.odb,Step-1,Increment      1: Step Time =    1.000,"PART-1-1",           553,       9.77062,       25.1982,            0.,NA,NA,"",   734.390E-03,  -728.541E-03,   92.5030E-03,   614.639E-06
C:/temp/dataset/0/7_18.odb,Step-1,Increment      1: Step Time =    1.000,"PART-1-1",           554,       5.62710,       27.7270,            0.,NA,NA,"",   742.202E-03,  -737.581E-03,   82.6851E-03,   870.178E-06
C:/temp/dataset/0/7_18.odb,Step-1,Increment      1: Step Time =    1.000,"PART-1-1",           555,          6.25,           30.,            0.,NA,NA,"",   749.225E-03,  -744.555E-03,   83.5230E-03,   1.10055E-03
C:/temp/dataset/0/7_18.odb,Step-1,Increment      1: Step Time =    1.000,"PART-1-1",           556,   375.256E-03,       24.5574,            0.,NA,NA,"",   726.447E-03,  -723.613E-03,   64.1060E-03,   756.110E-06
C:/temp/dataset/0/7_18.odb,Step-1,Increment      1: Step Time =    1.000,"PART-1-1",           557,   860.838E-03,       23.0169,            0.,NA,NA,"",   718.617E-03,  -715.589E-03,   65.8938E-03,   1.37275E-03
C:/temp/dataset/0/7_18.odb,Step-1,Increment      1: Step Time =    1.000,"PART-1-1",           558,       10.5910,       21.6677,            0.,NA,NA,"",   725.290E-03,  -719.284E-03,   93.1411E-03,   524.335E-06
C:/temp/dataset/0/7_18.odb,Step-1,Increment      1: Step Time =    1.000,"PART-1-1",           559,       9.14786,      -24.5495,            0.,NA,NA,"",   110.475E-03,  -110.150E-03,   8.46528E-03,   13.5351E-03
C:/temp/dataset/0/7_18.odb,Step-1,Increment      1: Step Time =    1.000,"PART-1-1",           560,           15.,        -21.25,            0.,NA,NA,"",   358.376E-03,  -315.246E-03,   170.449E-03,   17.7743E-03
C:/temp/dataset/0/7_18.odb,Step-1,Increment      1: Step Time =    1.000,"PART-1-1",           561,       12.7662,      -21.5126,            0.,NA,NA,"",   278.546E-03,  -263.040E-03,   91.6422E-03,   22.6293E-03
C:/temp/dataset/0/7_18.odb,Step-1,Increment      1: Step Time =    1.000,"PART-1-1",           562,           15.,        -13.75,            0.,NA,NA,"",   512.442E-03,  -483.167E-03,   170.722E-03,   2.73265E-03
C:/temp/dataset/0/7_18.odb,Step-1,Increment      1: Step Time =    1.000,"PART-1-1",           563,       12.5272,      -13.9788,            0.,NA,NA,"",   501.261E-03,  -482.179E-03,   136.989E-03,   5.10572E-03
C:/temp/dataset/0/7_18.odb,Step-1,Increment      1: Step Time =    1.000,"PART-1-1",           564,           15.,         11.25,            0.,NA,NA,"",   707.523E-03,  -699.709E-03,   104.861E-03,   1.12299E-03
C:/temp/dataset/0/7_18.odb,Step-1,Increment      1: Step Time =    1.000,"PART-1-1",           565,       12.2906,       11.3331,            0.,NA,NA,"",   707.469E-03,  -700.820E-03,   96.7694E-03,   785.507E-06
C:/temp/dataset/0/7_18.odb,Step-1,Increment      1: Step Time =    1.000,"PART-1-1",           566,       7.23650,       5.28124,            0.,NA,NA,"",   684.073E-03,  -680.225E-03,   72.4607E-03,   1.70034E-03
C:/temp/dataset/0/7_18.odb,Step-1,Increment      1: Step Time =    1.000,"PART-1-1",           567,       8.44697,       3.91887,            0.,NA,NA,"",   679.010E-03,  -674.546E-03,   77.7297E-03,   1.29534E-03
C:/temp/dataset/0/7_18.odb,Step-1,Increment      1: Step Time =    1.000,"PART-1-1",           568,       9.72373,       11.4508,            0.,NA,NA,"",   706.636E-03,  -701.146E-03,   87.9172E-03,   872.440E-06
C:/temp/dataset/0/7_18.odb,Step-1,Increment      1: Step Time =    1.000,"PART-1-1",           569,           15.,         16.25,            0.,NA,NA,"",   717.262E-03,  -709.974E-03,   101.987E-03,   157.866E-06
C:/temp/dataset/0/7_18.odb,Step-1,Increment      1: Step Time =    1.000,"PART-1-1",           570,       6.21850,       16.4100,            0.,NA,NA,"",   713.698E-03,  -709.133E-03,   80.5959E-03,   651.121E-06
C:/temp/dataset/0/7_18.odb,Step-1,Increment      1: Step Time =    1.000,"PART-1-1",           571,       7.58992,       17.5073,            0.,NA,NA,"",   715.825E-03,  -710.885E-03,   83.9498E-03,   840.521E-06
C:/temp/dataset/0/7_18.odb,Step-1,Increment      1: Step Time =    1.000,"PART-1-1",           572,       6.37141,       19.4306,            0.,NA,NA,"",   716.974E-03,  -712.276E-03,   81.9423E-03,   1.28271E-03
C:/temp/dataset/0/7_18.odb,Step-1,Increment      1: Step Time =    1.000,"PART-1-1",           573,            5.,       18.3333,            0.,NA,NA,"",   715.788E-03,  -711.349E-03,   79.5883E-03,   584.091E-06
C:/temp/dataset/0/7_18.odb,Step-1,Increment      1: Step Time =    1.000,"PART-1-1",           574,           15.,         23.75,            0.,NA,NA,"",   732.873E-03,  -725.432E-03,   104.175E-03,   405.288E-06
C:/temp/dataset/0/7_18.odb,Step-1,Increment      1: Step Time =    1.000,"PART-1-1",           575,         -3.75,          -20.,            0.,NA,NA,"",   89.0234E-03,  -88.1896E-03,   12.1561E-03,   3.61838E-03
C:/temp/dataset/0/7_18.odb,Step-1,Increment      1: Step Time =    1.000,"PART-1-1",           576,      -5.05545,      -21.0122,            0.,NA,NA,"",   84.9875E-03,  -83.7028E-03,   14.7215E-03,   5.62648E-03
C:/temp/dataset/0/7_18.odb,Step-1,Increment      1: Step Time =    1.000,"PART-1-1",           577,       7.51719,       25.3425,            0.,NA,NA,"",   733.906E-03,  -728.665E-03,   87.5550E-03,   774.687E-06
C:/temp/dataset/0/7_18.odb,Step-1,Increment      1: Step Time =    1.000,"PART-1-1",           578,       6.22510,       24.4051,            0.,NA,NA,"",   729.943E-03,  -725.050E-03,   84.3726E-03,   872.688E-06
C:/temp/dataset/0/7_18.odb,Step-1,Increment      1: Step Time =    1.000,"PART-1-1",           579,       7.27278,       23.2327,            0.,NA,NA,"",   726.714E-03,  -721.554E-03,   86.4458E-03,   918.945E-06
C:/temp/dataset/0/7_18.odb,Step-1,Increment      1: Step Time =    1.000,"PART-1-1",           580,       8.56487,       24.1701,            0.,NA,NA,"",   730.607E-03,  -725.089E-03,   89.6277E-03,   721.010E-06
C:/temp/dataset/0/7_18.odb,Step-1,Increment      1: Step Time =    1.000,"PART-1-1",           581,            5.,      -8.33333,            0.,NA,NA,"",   561.071E-03,  -560.929E-03,   12.6425E-03,   5.78067E-03
C:/temp/dataset/0/7_18.odb,Step-1,Increment      1: Step Time =    1.000,"PART-1-1",           582,       7.86568,      -7.92961,            0.,NA,NA,"",   574.213E-03,  -571.560E-03,   55.1282E-03,   2.47505E-03
C:/temp/dataset/0/7_18.odb,Step-1,Increment      1: Step Time =    1.000,"PART-1-1",           583,       6.55300,      -6.36051,            0.,NA,NA,"",   590.656E-03,  -589.222E-03,   41.1320E-03,   3.52323E-03
C:/temp/dataset/0/7_18.odb,Step-1,Increment      1: Step Time =    1.000,"PART-1-1",           584,       2.48006,       24.7002,            0.,NA,NA,"",   728.789E-03,  -725.121E-03,   73.0305E-03,   762.700E-06
C:/temp/dataset/0/7_18.odb,Step-1,Increment      1: Step Time =    1.000,"PART-1-1",           585,       1.90437,       23.5201,            0.,NA,NA,"",   722.561E-03,  -719.108E-03,   70.5468E-03,   1.00796E-03
C:/temp/dataset/0/7_18.odb,Step-1,Increment      1: Step Time =    1.000,"PART-1-1",           586,       3.20717,       23.2686,            0.,NA,NA,"",   722.949E-03,  -719.006E-03,   75.3962E-03,   1.01265E-03
C:/temp/dataset/0/7_18.odb,Step-1,Increment      1: Step Time =    1.000,"PART-1-1",           587,       3.78286,       24.4486,            0.,NA,NA,"",   728.555E-03,  -724.415E-03,   77.5626E-03,   783.085E-06
C:/temp/dataset/0/7_18.odb,Step-1,Increment      1: Step Time =    1.000,"PART-1-1",           588,   574.843E-03,       25.7278,            0.,NA,NA,"",   733.096E-03,  -730.207E-03,   65.0231E-03,   651.343E-06
C:/temp/dataset/0/7_18.odb,Step-1,Increment      1: Step Time =    1.000,"PART-1-1",           589,       1.89275,       27.1317,            0.,NA,NA,"",   740.550E-03,  -737.195E-03,   70.4146E-03,   897.242E-06
C:/temp/dataset/0/7_18.odb,Step-1,Increment      1: Step Time =    1.000,"PART-1-1",           590,   743.770E-03,       27.8321,            0.,NA,NA,"",   744.557E-03,  -741.704E-03,   65.1226E-03,   1.18131E-03
C:/temp/dataset/0/7_18.odb,Step-1,Increment      1: Step Time =    1.000,"PART-1-1",           591,  -574.133E-03,       26.4282,            0.,NA,NA,"",   736.977E-03,  -734.596E-03,   59.1927E-03,   754.432E-06
C:/temp/dataset/0/7_18.odb,Step-1,Increment      1: Step Time =    1.000,"PART-1-1",           592,          1.25,           30.,            0.,NA,NA,"",   754.642E-03,  -751.764E-03,   65.8368E-03,   2.09678E-03
C:/temp/dataset/0/7_18.odb,Step-1,Increment      1: Step Time =    1.000,"PART-1-1",           593,  -258.432E-03,       28.8495,            0.,NA,NA,"",   750.872E-03,  -748.510E-03,   59.5075E-03,   1.73301E-03
C:/temp/dataset/0/7_18.odb,Step-1,Increment      1: Step Time =    1.000,"PART-1-1",           594,       3.99806,       26.6235,            0.,NA,NA,"",   738.024E-03,  -733.876E-03,   78.1395E-03,   792.485E-06
C:/temp/dataset/0/7_18.odb,Step-1,Increment      1: Step Time =    1.000,"PART-1-1",           595,       4.96332,       25.4314,            0.,NA,NA,"",   733.263E-03,  -728.758E-03,   81.1556E-03,   814.655E-06
C:/temp/dataset/0/7_18.odb,Step-1,Increment      1: Step Time =    1.000,"PART-1-1",           596,       6.59236,       26.5350,            0.,NA,NA,"",   737.848E-03,  -732.889E-03,   85.3944E-03,   760.217E-06
C:/temp/dataset/0/7_18.odb,Step-1,Increment      1: Step Time =    1.000,"PART-1-1",           597,          -1.5,           30.,            0.,NA,NA,"",   759.242E-03,  -757.499E-03,   51.4171E-03,   2.47282E-03
C:/temp/dataset/0/7_18.odb,Step-1,Increment      1: Step Time =    1.000,"PART-1-1",           598,      -3.21021,       28.8021,            0.,NA,NA,"",   754.072E-03,  -752.933E-03,   41.4365E-03,   1.92530E-03
C:/temp/dataset/0/7_18.odb,Step-1,Increment      1: Step Time =    1.000,"PART-1-1",           599,      -1.96864,       27.6516,            0.,NA,NA,"",   745.098E-03,  -743.379E-03,   50.5919E-03,   1.20203E-03
C:/temp/dataset/0/7_18.odb,Step-1,Increment      1: Step Time =    1.000,"PART-1-1",           600,       2.23679,       22.3955,            0.,NA,NA,"",   717.768E-03,  -714.208E-03,   71.3989E-03,   1.41964E-03
C:/temp/dataset/0/7_18.odb,Step-1,Increment      1: Step Time =    1.000,"PART-1-1",           601,       6.10470,      -23.0953,            0.,NA,NA,"",   133.102E-03,  -131.848E-03,  -18.2246E-03,   12.5504E-03
C:/temp/dataset/0/7_18.odb,Step-1,Increment      1: Step Time =    1.000,"PART-1-1",           602,       5.87020,      -25.1929,            0.,NA,NA,"",   84.3258E-03,  -82.9294E-03,  -15.2828E-03,   12.0631E-03
C:/temp/dataset/0/7_18.odb,Step-1,Increment      1: Step Time =    1.000,"PART-1-1",           603,       7.19944,      -25.3013,            0.,NA,NA,"",   83.3912E-03,  -82.9607E-03,  -8.46223E-03,   11.7503E-03
C:/temp/dataset/0/7_18.odb,Step-1,Increment      1: Step Time =    1.000,"PART-1-1",           604,       10.0350,      -14.2359,            0.,NA,NA,"",   477.755E-03,  -469.464E-03,   88.6171E-03,   4.17406E-03
C:/temp/dataset/0/7_18.odb,Step-1,Increment      1: Step Time =    1.000,"PART-1-1",           605,       11.6788,      -7.40939,            0.,NA,NA,"",   588.501E-03,  -578.298E-03,   109.111E-03,   1.67739E-03
C:/temp/dataset/0/7_18.odb,Step-1,Increment      1: Step Time =    1.000,"PART-1-1",           606,       11.2427,      -1.09783,            0.,NA,NA,"",   650.404E-03,  -643.027E-03,   97.6800E-03,   980.461E-06
C:/temp/dataset/0/7_18.odb,Step-1,Increment      1: Step Time =    1.000,"PART-1-1",           607,       7.93860,       19.8912,            0.,NA,NA,"",   719.355E-03,  -714.208E-03,   85.8947E-03,   1.06555E-03
C:/temp/dataset/0/7_18.odb,Step-1,Increment      1: Step Time =    1.000,"PART-1-1",           608,       8.98253,       18.5426,            0.,NA,NA,"",   718.244E-03,  -712.852E-03,   87.8449E-03,   896.498E-06
C:/temp/dataset/0/7_18.odb,Step-1,Increment      1: Step Time =    1.000,"PART-1-1",           609,       9.31070,       20.7205,            0.,NA,NA,"",   722.193E-03,  -716.604E-03,   89.6769E-03,   830.040E-06
C:/temp/dataset/0/7_18.odb,Step-1,Increment      1: Step Time =    1.000,"PART-1-1",           610,       3.88086,       22.5675,            0.,NA,NA,"",   720.912E-03,  -716.739E-03,   77.4565E-03,   1.12923E-03
C:/temp/dataset/0/7_18.odb,Step-1,Increment      1: Step Time =    1.000,"PART-1-1",           611,       2.67965,       25.8706,            0.,NA,NA,"",   734.470E-03,  -730.758E-03,   73.7501E-03,   728.146E-06
C:/temp/dataset/0/7_18.odb,Step-1,Increment      1: Step Time =    1.000,"PART-1-1",           612,            5.,          -15.,            0.,NA,NA,"",   435.777E-03,  -434.521E-03,  -33.0643E-03,   8.21121E-03
C:/temp/dataset/0/7_18.odb,Step-1,Increment      1: Step Time =    1.000,"PART-1-1",           613,       6.27023,      -16.3841,            0.,NA,NA,"",   394.476E-03,  -394.471E-03,  -2.01067E-03,   5.82681E-03
C:/temp/dataset/0/7_18.odb,Step-1,Increment      1: Step Time =    1.000,"PART-1-1",           614,       7.51616,      -14.5750,            0.,NA,NA,"",   454.377E-03,  -453.138E-03,   33.5395E-03,   4.19615E-03
C:/temp/dataset/0/7_18.odb,Step-1,Increment      1: Step Time =    1.000,"PART-1-1",           615,       6.15302,       13.2331,            0.,NA,NA,"",   708.112E-03,  -703.785E-03,   78.1644E-03,   1.06985E-03
C:/temp/dataset/0/7_18.odb,Step-1,Increment      1: Step Time =    1.000,"PART-1-1",           616,       7.37153,       14.6431,            0.,NA,NA,"",   711.563E-03,  -706.796E-03,   82.2333E-03,   868.454E-06
C:/temp/dataset/0/7_18.odb,Step-1,Increment      1: Step Time =    1.000,"PART-1-1",           617,            5.,           15.,            0.,NA,NA,"",   710.779E-03,  -706.552E-03,   77.4031E-03,   993.922E-06
C:/temp/dataset/0/7_18.odb,Step-1,Increment      1: Step Time =    1.000,"PART-1-1",           618,            5.,       11.6667,            0.,NA,NA,"",   703.522E-03,  -699.669E-03,   73.5322E-03,   1.56895E-03
C:/temp/dataset/0/7_18.odb,Step-1,Increment      1: Step Time =    1.000,"PART-1-1",           619,       6.12690,       10.0064,            0.,NA,NA,"",   700.123E-03,  -696.154E-03,   74.4421E-03,   1.51071E-03
C:/temp/dataset/0/7_18.odb,Step-1,Increment      1: Step Time =    1.000,"PART-1-1",           620,       7.27992,       11.5729,            0.,NA,NA,"",   705.266E-03,  -700.736E-03,   79.8148E-03,   1.10417E-03
C:/temp/dataset/0/7_18.odb,Step-1,Increment      1: Step Time =    1.000,"PART-1-1",           621,       6.15632,   278.618E-03,            0.,NA,NA,"",   652.946E-03,  -650.557E-03,   55.8024E-03,   2.86401E-03
C:/temp/dataset/0/7_18.odb,Step-1,Increment      1: Step Time =    1.000,"PART-1-1",           622,            5.,      -1.66667,            0.,NA,NA,"",   634.926E-03,  -633.623E-03,   40.6607E-03,   3.97181E-03
C:/temp/dataset/0/7_18.odb,Step-1,Increment      1: Step Time =    1.000,"PART-1-1",           623,       6.25252,      -2.97068,            0.,NA,NA,"",   626.005E-03,  -624.172E-03,   47.8671E-03,   3.26186E-03
C:/temp/dataset/0/7_18.odb,Step-1,Increment      1: Step Time =    1.000,"PART-1-1",           624,       7.67955,      -17.4721,            0.,NA,NA,"",   359.995E-03,  -358.581E-03,   31.8743E-03,   13.6229E-03
C:/temp/dataset/0/7_18.odb,Step-1,Increment      1: Step Time =    1.000,"PART-1-1",           625,            5.,      -18.3333,            0.,NA,NA,"",   318.009E-03,  -314.146E-03,  -49.4204E-03,   10.1877E-03
C:/temp/dataset/0/7_18.odb,Step-1,Increment      1: Step Time =    1.000,"PART-1-1",           626,       6.40932,      -19.4213,            0.,NA,NA,"",   257.192E-03,  -257.192E-03,   46.3986E-06,   23.9504E-03
C:/temp/dataset/0/7_18.odb,Step-1,Increment      1: Step Time =    1.000,"PART-1-1",           627,      -1.73152,      -24.7018,            0.,NA,NA,"",   71.9910E-03,  -71.8956E-03,  -3.70545E-03,   10.2992E-03
C:/temp/dataset/0/7_18.odb,Step-1,Increment      1: Step Time =    1.000,"PART-1-1",           628,       9.06065,      -18.5206,            0.,NA,NA,"",   335.572E-03,  -331.615E-03,   51.3771E-03,   19.8956E-03
C:/temp/dataset/0/7_18.odb,Step-1,Increment      1: Step Time =    1.000,"PART-1-1",           629,       8.80686,      -15.8614,            0.,NA,NA,"",   426.894E-03,  -422.726E-03,   59.5067E-03,   7.26826E-03
C:/temp/dataset/0/7_18.odb,Step-1,Increment      1: Step Time =    1.000,"PART-1-1",           630,       10.3171,      -8.61722,            0.,NA,NA,"",   570.431E-03,  -563.095E-03,   91.1876E-03,   1.10636E-03
C:/temp/dataset/0/7_18.odb,Step-1,Increment      1: Step Time =    1.000,"PART-1-1",           631,       8.85917,      -9.88939,            0.,NA,NA,"",   549.183E-03,  -544.928E-03,   68.2302E-03,   1.52354E-03
C:/temp/dataset/0/7_18.odb,Step-1,Increment      1: Step Time =    1.000,"PART-1-1",           632,       8.74431,      -12.9496,            0.,NA,NA,"",   496.969E-03,  -492.894E-03,   63.5091E-03,   1.85805E-03
C:/temp/dataset/0/7_18.odb,Step-1,Increment      1: Step Time =    1.000,"PART-1-1",           633,       6.89786,       21.2129,            0.,NA,NA,"",   720.571E-03,  -715.603E-03,   84.4744E-03,   1.22210E-03
C:/temp/dataset/0/7_18.odb,Step-1,Increment      1: Step Time =    1.000,"PART-1-1",           634,       10.2659,      -2.76771,            0.,NA,NA,"",   635.292E-03,  -629.048E-03,   88.8485E-03,   809.861E-06
C:/temp/dataset/0/7_18.odb,Step-1,Increment      1: Step Time =    1.000,"PART-1-1",           635,       7.80552,      -4.33119,            0.,NA,NA,"",   615.980E-03,  -612.952E-03,   61.0010E-03,   2.18720E-03
C:/temp/dataset/0/7_18.odb,Step-1,Increment      1: Step Time =    1.000,"PART-1-1",           636,            5.,           -5.,            0.,NA,NA,"",   602.242E-03,  -601.594E-03,   27.9216E-03,   4.69428E-03
C:/temp/dataset/0/7_18.odb,Step-1,Increment      1: Step Time =    1.000,"PART-1-1",           637,       7.27801,       2.13112,            0.,NA,NA,"",   667.361E-03,  -663.909E-03,   67.7942E-03,   1.97974E-03
C:/temp/dataset/0/7_18.odb,Step-1,Increment      1: Step Time =    1.000,"PART-1-1",           638,       6.12168,       3.51917,            0.,NA,NA,"",   673.584E-03,  -670.617E-03,   63.1468E-03,   2.42499E-03
C:/temp/dataset/0/7_18.odb,Step-1,Increment      1: Step Time =    1.000,"PART-1-1",           639,            5.,       1.66667,            0.,NA,NA,"",   660.315E-03,  -658.298E-03,   51.5664E-03,   3.36153E-03
C:/temp/dataset/0/7_18.odb,Step-1,Increment      1: Step Time =    1.000,"PART-1-1",           640,            5.,            5.,            0.,NA,NA,"",   679.442E-03,  -676.727E-03,   60.6842E-03,   2.75446E-03
C:/temp/dataset/0/7_18.odb,Step-1,Increment      1: Step Time =    1.000,"PART-1-1",           641,       6.11481,       6.76207,            0.,NA,NA,"",   688.966E-03,  -685.460E-03,   69.4164E-03,   1.97063E-03
C:/temp/dataset/0/7_18.odb,Step-1,Increment      1: Step Time =    1.000,"PART-1-1",           642,       8.53738,       13.0133,            0.,NA,NA,"",   709.251E-03,  -704.183E-03,   84.6369E-03,   869.343E-06
C:/temp/dataset/0/7_18.odb,Step-1,Increment      1: Step Time =    1.000,"PART-1-1",           643,       8.69606,       15.9130,            0.,NA,NA,"",   714.332E-03,  -709.112E-03,   86.1950E-03,   824.469E-06
C:/temp/dataset/0/7_18.odb,Step-1,Increment      1: Step Time =    1.000,"PART-1-1",           644,       9.56938,       22.9454,            0.,NA,NA,"",   727.724E-03,  -721.965E-03,   91.3769E-03,   665.712E-06
C:/temp/dataset/0/7_18.odb,Step-1,Increment      1: Step Time =    1.000,"PART-1-1",           645,       8.28908,       21.9981,            0.,NA,NA,"",   724.110E-03,  -718.736E-03,   88.0576E-03,   883.497E-06
C:/temp/dataset/0/7_18.odb,Step-1,Increment      1: Step Time =    1.000,"PART-1-1",           646,      -3.61415,       26.3795,            0.,NA,NA,"",   737.016E-03,  -735.915E-03,   40.2647E-03,   808.842E-06
C:/temp/dataset/0/7_18.odb,Step-1,Increment      1: Step Time =    1.000,"PART-1-1",           647,      -6.18563,       28.7596,            0.,NA,NA,"",   757.454E-03,  -757.257E-03,   17.2495E-03,   1.74086E-03
C:/temp/dataset/0/7_18.odb,Step-1,Increment      1: Step Time =    1.000,"PART-1-1",           648,      -4.89584,       27.5617,            0.,NA,NA,"",   746.517E-03,  -745.937E-03,   29.4261E-03,   1.22977E-03
C:/temp/dataset/0/7_18.odb,Step-1,Increment      1: Step Time =    1.000,"PART-1-1",           649,          -4.5,           30.,            0.,NA,NA,"",   765.033E-03,  -764.426E-03,   30.4573E-03,   2.48475E-03
C:/temp/dataset/0/7_18.odb,Step-1,Increment      1: Step Time =    1.000,"PART-1-1",           650,          -15.,          19.5,            0.,NA,NA,"",   671.256E-03,  -666.001E-03,  -83.8312E-03,   2.31927E-03
C:/temp/dataset/0/7_18.odb,Step-1,Increment      1: Step Time =    1.000,"PART-1-1",           651,      -13.6835,       18.2834,            0.,NA,NA,"",   655.554E-03,  -651.881E-03,  -69.3037E-03,   1.72760E-03
C:/temp/dataset/0/7_18.odb,Step-1,Increment      1: Step Time =    1.000,"PART-1-1",           652,      -12.3643,       20.0316,            0.,NA,NA,"",   676.680E-03,  -674.778E-03,  -50.7016E-03,   1.09616E-03
C:/temp/dataset/0/7_18.odb,Step-1,Increment      1: Step Time =    1.000,"PART-1-1",           653,      -13.6808,       21.2481,            0.,NA,NA,"",   690.858E-03,  -687.779E-03,  -65.1518E-03,   1.64532E-03
C:/temp/dataset/0/7_18.odb,Step-1,Increment      1: Step Time =    1.000,"PART-1-1",           654,      -6.08047,      -19.7739,            0.,NA,NA,"",   87.3486E-03,  -85.6968E-03,   16.9066E-03,   3.52699E-03
C:/temp/dataset/0/7_18.odb,Step-1,Increment      1: Step Time =    1.000,"PART-1-1",           655,      -7.17803,      -20.6070,            0.,NA,NA,"",   80.3834E-03,  -79.7630E-03,   9.96722E-03,   2.10208E-03
C:/temp/dataset/0/7_18.odb,Step-1,Increment      1: Step Time =    1.000,"PART-1-1",           656,       5.87583,      -21.1387,            0.,NA,NA,"",   181.720E-03,  -180.621E-03,  -19.9539E-03,   18.8963E-03
C:/temp/dataset/0/7_18.odb,Step-1,Increment      1: Step Time =    1.000,"PART-1-1",           657,       4.61047,      -23.6002,            0.,NA,NA,"",   117.244E-03,  -114.622E-03,  -24.6538E-03,   14.0775E-03
C:/temp/dataset/0/7_18.odb,Step-1,Increment      1: Step Time =    1.000,"PART-1-1",           658,       4.56928,      -26.4448,            0.,NA,NA,"",   59.4793E-03,  -57.8055E-03,  -14.0112E-03,   12.0372E-03
C:/temp/dataset/0/7_18.odb,Step-1,Increment      1: Step Time =    1.000,"PART-1-1",           659,       5.04464,       23.4223,            0.,NA,NA,"",   725.398E-03,  -720.847E-03,   81.1273E-03,   946.780E-06
C:/temp/dataset/0/7_18.odb,Step-1,Increment      1: Step Time =    1.000,"PART-1-1",           660,       5.88156,       22.4475,            0.,NA,NA,"",   722.791E-03,  -718.020E-03,   82.9117E-03,   1.10200E-03
C:/temp/dataset/0/7_18.odb,Step-1,Increment      1: Step Time =    1.000,"PART-1-1",           661,      -1.61333,      -27.2257,            0.,NA,NA,"",   40.8188E-03,  -40.5927E-03,  -4.29001E-03,   10.1509E-03
C:/temp/dataset/0/7_18.odb,Step-1,Increment      1: Step Time =    1.000,"PART-1-1",           662,      -3.01002,      -28.6350,            0.,NA,NA,"",   19.4045E-03,  -19.3222E-03,  -1.78525E-03,   9.40033E-03
C:/temp/dataset/0/7_18.odb,Step-1,Increment      1: Step Time =    1.000,"PART-1-1",           663,          -1.5,          -30.,            0.,NA,NA,"",            0.,  -11.9514E-39,  -6.89895E-39,   10.5658E-03
C:/temp/dataset/0/7_18.odb,Step-1,Increment      1: Step Time =    1.000,"PART-1-1",           664,            5.,       8.33333,            0.,NA,NA,"",   693.454E-03,  -690.111E-03,   68.0080E-03,   2.14938E-03
C:/temp/dataset/0/7_18.odb,Step-1,Increment      1: Step Time =    1.000,"PART-1-1",           665,       8.16766,      -19.9578,            0.,NA,NA,"",   260.404E-03,  -259.133E-03,   25.7004E-03,   22.8969E-03
C:/temp/dataset/0/7_18.odb,Step-1,Increment      1: Step Time =    1.000,"PART-1-1",           666,       7.85169,      -26.8977,            0.,NA,NA,"",   48.5353E-03,  -48.3971E-03,  -3.65973E-03,   10.4453E-03
C:/temp/dataset/0/7_18.odb,Step-1,Increment      1: Step Time =    1.000,"PART-1-1",           667,          -4.5,          -30.,            0.,NA,NA,"",            0.,  -9.77929E-39,  -4.14425E-39,   8.61525E-03
C:/temp/dataset/0/7_18.odb,Step-1,Increment      1: Step Time =    1.000,"PART-1-1",           668,      -7.38541,       11.9129,            0.,NA,NA,"",   558.443E-03,  -558.127E-03,   18.7586E-03,   1.17937E-03
C:/temp/dataset/0/7_18.odb,Step-1,Increment      1: Step Time =    1.000,"PART-1-1",           669,      -9.84369,       11.4885,            0.,NA,NA,"",   551.996E-03,  -551.698E-03,  -18.1302E-03,   886.198E-06
C:/temp/dataset/0/7_18.odb,Step-1,Increment      1: Step Time =    1.000,"PART-1-1",           670,           -5.,      -18.4615,            0.,NA,NA,"",   102.322E-03,  -98.3546E-03,   28.2160E-03,   5.87603E-03
C:/temp/dataset/0/7_18.odb,Step-1,Increment      1: Step Time =    1.000,"PART-1-1",           671,      -6.12192,      -16.9214,            0.,NA,NA,"",   114.188E-03,  -111.608E-03,   24.1377E-03,   2.91758E-03
C:/temp/dataset/0/7_18.odb,Step-1,Increment      1: Step Time =    1.000,"PART-1-1",           672,      -12.3453,      -25.6066,            0.,NA,NA,"",   40.4586E-03,  -38.1443E-03,  -13.4874E-03,   4.32978E-03
C:/temp/dataset/0/7_18.odb,Step-1,Increment      1: Step Time =    1.000,"PART-1-1",           673,      -10.6437,      -26.7860,            0.,NA,NA,"",   27.9142E-03,  -27.4344E-03,  -5.15318E-03,   5.06360E-03
C:/temp/dataset/0/7_18.odb,Step-1,Increment      1: Step Time =    1.000,"PART-1-1",           674,      -9.83114,      -25.4438,            0.,NA,NA,"",   40.2187E-03,  -39.9792E-03,  -4.38249E-03,   4.14247E-03
C:/temp/dataset/0/7_18.odb,Step-1,Increment      1: Step Time =    1.000,"PART-1-1",           675,      -8.43320,      -25.2132,            0.,NA,NA,"",   44.0786E-03,  -44.0716E-03,  -785.441E-06,   4.75306E-03
C:/temp/dataset/0/7_18.odb,Step-1,Increment      1: Step Time =    1.000,"PART-1-1",           676,      -9.78639,       17.5920,            0.,NA,NA,"",   645.274E-03,  -644.984E-03,  -19.3466E-03,   709.462E-06
C:/temp/dataset/0/7_18.odb,Step-1,Increment      1: Step Time =    1.000,"PART-1-1",           677,      -11.0716,       18.8358,            0.,NA,NA,"",   661.889E-03,  -660.937E-03,  -35.4876E-03,   783.666E-06
C:/temp/dataset/0/7_18.odb,Step-1,Increment      1: Step Time =    1.000,"PART-1-1",           678,      -12.3675,       17.0640,            0.,NA,NA,"",   638.612E-03,  -636.378E-03,  -53.3751E-03,   1.03171E-03
C:/temp/dataset/0/7_18.odb,Step-1,Increment      1: Step Time =    1.000,"PART-1-1",           679,      -12.1189,      -19.2948,            0.,NA,NA,"",   93.6020E-03,  -89.9974E-03,  -25.7254E-03,   2.08636E-03
C:/temp/dataset/0/7_18.odb,Step-1,Increment      1: Step Time =    1.000,"PART-1-1",           680,      -11.0109,      -17.4013,            0.,NA,NA,"",   108.059E-03,  -106.382E-03,  -18.9612E-03,   1.44980E-03
C:/temp/dataset/0/7_18.odb,Step-1,Increment      1: Step Time =    1.000,"PART-1-1",           681,      -8.01079,      -21.5107,            0.,NA,NA,"",   73.1002E-03,  -72.9597E-03,   4.53073E-03,   2.04074E-03
C:/temp/dataset/0/7_18.odb,Step-1,Increment      1: Step Time =    1.000,"PART-1-1",           682,           4.5,          -30.,            0.,NA,NA,"",            0.,  -10.8411E-39,  -9.36035E-39,   9.96437E-03
C:/temp/dataset/0/7_18.odb,Step-1,Increment      1: Step Time =    1.000,"PART-1-1",           683,       6.14133,      -28.2363,            0.,NA,NA,"",   25.6521E-03,  -25.1225E-03,  -5.18594E-03,   10.2201E-03
C:/temp/dataset/0/7_18.odb,Step-1,Increment      1: Step Time =    1.000,"PART-1-1",           684,      -9.14726,       28.6966,            0.,NA,NA,"",   760.170E-03,  -760.074E-03,  -12.0900E-03,   1.21150E-03
C:/temp/dataset/0/7_18.odb,Step-1,Increment      1: Step Time =    1.000,"PART-1-1",           685,         -10.5,           30.,            0.,NA,NA,"",   774.612E-03,  -774.141E-03,  -27.0051E-03,   866.147E-06
C:/temp/dataset/0/7_18.odb,Step-1,Increment      1: Step Time =    1.000,"PART-1-1",           686,      -6.18127,      -10.8771,            0.,NA,NA,"",   188.958E-03,  -185.496E-03,   36.0052E-03,   1.84674E-03
C:/temp/dataset/0/7_18.odb,Step-1,Increment      1: Step Time =    1.000,"PART-1-1",           687,      -6.16241,      -13.9212,            0.,NA,NA,"",   149.210E-03,  -145.968E-03,   30.9374E-03,   2.34577E-03
C:/temp/dataset/0/7_18.odb,Step-1,Increment      1: Step Time =    1.000,"PART-1-1",           688,           -5.,      -12.3077,            0.,NA,NA,"",   174.551E-03,  -167.646E-03,   48.6080E-03,   2.74652E-03
C:/temp/dataset/0/7_18.odb,Step-1,Increment      1: Step Time =    1.000,"PART-1-1",           689,         -10.5,          -30.,            0.,NA,NA,"",            0.,  -5.35260E-39,  -6.13665E-39,   5.48013E-03
C:/temp/dataset/0/7_18.odb,Step-1,Increment      1: Step Time =    1.000,"PART-1-1",           690,          -15.,          22.5,            0.,NA,NA,"",   704.557E-03,  -700.222E-03,  -78.0349E-03,   1.81321E-03
C:/temp/dataset/0/7_18.odb,Step-1,Increment      1: Step Time =    1.000,"PART-1-1",           691,          -15.,          16.5,            0.,NA,NA,"",   632.716E-03,  -626.286E-03,  -89.9738E-03,   2.18120E-03
C:/temp/dataset/0/7_18.odb,Step-1,Increment      1: Step Time =    1.000,"PART-1-1",           692,      -13.6840,       15.2806,            0.,NA,NA,"",   614.208E-03,  -609.835E-03,  -73.1656E-03,   1.43472E-03
C:/temp/dataset/0/7_18.odb,Step-1,Increment      1: Step Time =    1.000,"PART-1-1",           693,          -15.,          13.5,            0.,NA,NA,"",   589.481E-03,  -581.785E-03,  -94.9402E-03,   1.66911E-03
C:/temp/dataset/0/7_18.odb,Step-1,Increment      1: Step Time =    1.000,"PART-1-1",           694,      -6.20685,       4.43382,            0.,NA,NA,"",   434.374E-03,  -432.162E-03,   43.7855E-03,   471.906E-06
C:/temp/dataset/0/7_18.odb,Step-1,Increment      1: Step Time =    1.000,"PART-1-1",           695,           -5.,       6.15385,            0.,NA,NA,"",   465.775E-03,  -461.484E-03,   63.0823E-03,   684.931E-06
C:/temp/dataset/0/7_18.odb,Step-1,Increment      1: Step Time =    1.000,"PART-1-1",           696,      -6.20051,      -1.69203,            0.,NA,NA,"",   330.576E-03,  -327.596E-03,   44.2863E-03,   610.892E-06
C:/temp/dataset/0/7_18.odb,Step-1,Increment      1: Step Time =    1.000,"PART-1-1",           697,      -6.19850,      -4.75722,            0.,NA,NA,"",   280.541E-03,  -277.272E-03,   42.7019E-03,   1.00284E-03
C:/temp/dataset/0/7_18.odb,Step-1,Increment      1: Step Time =    1.000,"PART-1-1",           698,           -5.,      -3.07692,            0.,NA,NA,"",   311.669E-03,  -305.220E-03,   63.0740E-03,   1.01867E-03
C:/temp/dataset/0/7_18.odb,Step-1,Increment      1: Step Time =    1.000,"PART-1-1",           699,      -12.3926,       7.99194,            0.,NA,NA,"",   496.397E-03,  -493.100E-03,  -57.1158E-03,   682.865E-06
C:/temp/dataset/0/7_18.odb,Step-1,Increment      1: Step Time =    1.000,"PART-1-1",           700,          -15.,           7.5,            0.,NA,NA,"",   494.237E-03,  -484.032E-03,  -99.9171E-03,   499.080E-06
C:/temp/dataset/0/7_18.odb,Step-1,Increment      1: Step Time =    1.000,"PART-1-1",           701,      -12.4166,      -1.07984,            0.,NA,NA,"",   341.713E-03,  -337.396E-03,  -54.1449E-03,   916.685E-06
C:/temp/dataset/0/7_18.odb,Step-1,Increment      1: Step Time =    1.000,"PART-1-1",           702,          -15.,          -1.5,            0.,NA,NA,"",   344.637E-03,  -331.057E-03,  -95.7903E-03,   1.17737E-03
C:/temp/dataset/0/7_18.odb,Step-1,Increment      1: Step Time =    1.000,"PART-1-1",           703,      -12.3992,      -10.1184,            0.,NA,NA,"",   200.188E-03,  -195.243E-03,  -44.2201E-03,   1.57847E-03
C:/temp/dataset/0/7_18.odb,Step-1,Increment      1: Step Time =    1.000,"PART-1-1",           704,          -15.,         -10.5,            0.,NA,NA,"",   207.578E-03,  -192.211E-03,  -78.3808E-03,   2.84213E-03
C:/temp/dataset/0/7_18.odb,Step-1,Increment      1: Step Time =    1.000,"PART-1-1",           705,      -6.19567,      -7.82333,            0.,NA,NA,"",   232.988E-03,  -229.545E-03,   39.9043E-03,   1.41679E-03
C:/temp/dataset/0/7_18.odb,Step-1,Increment      1: Step Time =    1.000,"PART-1-1",           706,           -5.,      -6.15385,            0.,NA,NA,"",   262.932E-03,  -256.023E-03,   59.8778E-03,   1.58309E-03
C:/temp/dataset/0/7_18.odb,Step-1,Increment      1: Step Time =    1.000,"PART-1-1",           707,          -15.,         -22.5,            0.,NA,NA,"",   78.7685E-03,  -67.3626E-03,  -40.8260E-03,   3.46631E-03
C:/temp/dataset/0/7_18.odb,Step-1,Increment      1: Step Time =    1.000,"PART-1-1",           708,      -13.7480,      -24.0946,            0.,NA,NA,"",   59.2964E-03,  -53.0004E-03,  -26.5899E-03,   3.38115E-03
C:/temp/dataset/0/7_18.odb,Step-1,Increment      1: Step Time =    1.000,"PART-1-1",           709,      -13.4685,      -20.9699,            0.,NA,NA,"",   84.2318E-03,  -77.4537E-03,  -33.1045E-03,   2.75468E-03
C:/temp/dataset/0/7_18.odb,Step-1,Increment      1: Step Time =    1.000,"PART-1-1",           710,          -15.,         -25.5,            0.,NA,NA,"",   53.6744E-03,  -43.5532E-03,  -31.3698E-03,   4.78341E-03
C:/temp/dataset/0/7_18.odb,Step-1,Increment      1: Step Time =    1.000,"PART-1-1",           711,           7.5,          -30.,            0.,NA,NA,"",            0.,  -7.51100E-39,  -3.07990E-39,   7.16123E-03
C:/temp/dataset/0/7_18.odb,Step-1,Increment      1: Step Time =    1.000,"PART-1-1",           712,       9.21036,      -28.6615,            0.,NA,NA,"",   16.2234E-03,  -16.1539E-03,   1.50007E-03,   8.26674E-03
C:/temp/dataset/0/7_18.odb,Step-1,Increment      1: Step Time =    1.000,"PART-1-1",           713,          10.5,          -30.,            0.,NA,NA,"",            0.,  -5.87064E-39,   12.1302E-39,   7.26105E-03
C:/temp/dataset/0/7_18.odb,Step-1,Increment      1: Step Time =    1.000,"PART-1-1",           714,          -7.5,           30.,            0.,NA,NA,"",   770.560E-03,  -770.551E-03,   3.74184E-03,   1.87306E-03
C:/temp/dataset/0/7_18.odb,Step-1,Increment      1: Step Time =    1.000,"PART-1-1",           715,          -15.,         -19.5,            0.,NA,NA,"",   104.640E-03,  -91.8072E-03,  -50.2091E-03,   3.56080E-03
C:/temp/dataset/0/7_18.odb,Step-1,Increment      1: Step Time =    1.000,"PART-1-1",           716,      -6.18713,       13.6475,            0.,NA,NA,"",   586.088E-03,  -585.055E-03,   34.7779E-03,   1.64196E-03
C:/temp/dataset/0/7_18.odb,Step-1,Increment      1: Step Time =    1.000,"PART-1-1",           717,           -5.,       15.3846,            0.,NA,NA,"",   612.678E-03,  -610.668E-03,   49.5990E-03,   2.30168E-03
C:/temp/dataset/0/7_18.odb,Step-1,Increment      1: Step Time =    1.000,"PART-1-1",           718,           -5.,       12.3077,            0.,NA,NA,"",   565.941E-03,  -563.229E-03,   55.3453E-03,   1.76031E-03
C:/temp/dataset/0/7_18.odb,Step-1,Increment      1: Step Time =    1.000,"PART-1-1",           719,           -5.,            0.,            0.,NA,NA,"",   362.324E-03,  -356.508E-03,   64.6633E-03,   451.071E-06
C:/temp/dataset/0/7_18.odb,Step-1,Increment      1: Step Time =    1.000,"PART-1-1",           720,      -6.20706,       1.36812,            0.,NA,NA,"",   382.093E-03,  -379.484E-03,   44.5786E-03,   336.305E-06
C:/temp/dataset/0/7_18.odb,Step-1,Increment      1: Step Time =    1.000,"PART-1-1",           721,           -5.,       3.07692,            0.,NA,NA,"",   414.001E-03,  -408.920E-03,   64.6615E-03,   122.828E-06
C:/temp/dataset/0/7_18.odb,Step-1,Increment      1: Step Time =    1.000,"PART-1-1",           722,           -5.,      -9.23077,            0.,NA,NA,"",   216.993E-03,  -209.883E-03,   55.0922E-03,   2.15250E-03
C:/temp/dataset/0/7_18.odb,Step-1,Increment      1: Step Time =    1.000,"PART-1-1",           723,      -8.78100,      -23.2553,            0.,NA,NA,"",   59.3345E-03,  -59.3314E-03,  -607.052E-06,   3.02815E-03
C:/temp/dataset/0/7_18.odb,Step-1,Increment      1: Step Time =    1.000,"PART-1-1",           724,      -11.0900,      -14.4409,            0.,NA,NA,"",   140.314E-03,  -138.388E-03,  -23.1704E-03,   1.25430E-03
C:/temp/dataset/0/7_18.odb,Step-1,Increment      1: Step Time =    1.000,"PART-1-1",           725,      -11.1215,      -11.4552,            0.,NA,NA,"",   178.185E-03,  -176.221E-03,  -26.3848E-03,   1.13498E-03
C:/temp/dataset/0/7_18.odb,Step-1,Increment      1: Step Time =    1.000,"PART-1-1",           726,      -11.1359,      -8.44257,            0.,NA,NA,"",   220.940E-03,  -219.022E-03,  -29.0502E-03,   1.04697E-03
C:/temp/dataset/0/7_18.odb,Step-1,Increment      1: Step Time =    1.000,"PART-1-1",           727,      -11.1177,       9.73479,            0.,NA,NA,"",   523.991E-03,  -522.673E-03,  -37.1441E-03,   751.857E-06
C:/temp/dataset/0/7_18.odb,Step-1,Increment      1: Step Time =    1.000,"PART-1-1",           728,      -11.1376,       6.69211,            0.,NA,NA,"",   472.509E-03,  -471.067E-03,  -36.8850E-03,   753.693E-06
C:/temp/dataset/0/7_18.odb,Step-1,Increment      1: Step Time =    1.000,"PART-1-1",           729,      -11.1470,       3.65829,            0.,NA,NA,"",   420.245E-03,  -418.689E-03,  -36.1276E-03,   778.586E-06
C:/temp/dataset/0/7_18.odb,Step-1,Increment      1: Step Time =    1.000,"PART-1-1",           730,           -5.,      -15.3846,            0.,NA,NA,"",   136.542E-03,  -130.383E-03,   40.5454E-03,   3.55403E-03
C:/temp/dataset/0/7_18.odb,Step-1,Increment      1: Step Time =    1.000,"PART-1-1",           731,      -11.1521,   627.191E-03,            0.,NA,NA,"",   368.029E-03,  -366.365E-03,  -34.9545E-03,   825.668E-06
C:/temp/dataset/0/7_18.odb,Step-1,Increment      1: Step Time =    1.000,"PART-1-1",           732,      -11.1477,      -2.39557,            0.,NA,NA,"",   316.864E-03,  -315.109E-03,  -33.3052E-03,   889.094E-06
C:/temp/dataset/0/7_18.odb,Step-1,Increment      1: Step Time =    1.000,"PART-1-1",           733,      -11.1389,      -5.41444,            0.,NA,NA,"",   267.590E-03,  -265.755E-03,  -31.2824E-03,   962.978E-06
