ODB Name,Step,Frame,Part Instance Name,    êﬂì_ÉâÉxÉã,X,Y,Z,Section Name,Material Name,Section Point,   U-Magnitude,          U-U1,          U-U2,       S-Mises
C:/temp/dataset/0/7_3.odb,Step-1,Increment      1: Step Time =    1.000,"PART-1-1",             1,            5.,           20.,            0.,NA,NA,"",   120.107E-03,  -119.250E-03,   14.3184E-03,   375.512E-06
C:/temp/dataset/0/7_3.odb,Step-1,Increment      1: Step Time =    1.000,"PART-1-1",             2,            0.,           20.,            0.,NA,NA,"",   117.638E-03,  -117.143E-03,   10.7766E-03,   447.523E-06
C:/temp/dataset/0/7_3.odb,Step-1,Increment      1: Step Time =    1.000,"PART-1-1",             3,            5.,           10.,            0.,NA,NA,"",   117.229E-03,  -116.518E-03,   12.8877E-03,   305.881E-06
C:/temp/dataset/0/7_3.odb,Step-1,Increment      1: Step Time =    1.000,"PART-1-1",             4,            5.,            0.,            0.,NA,NA,"",   108.721E-03,  -108.367E-03,   8.75944E-03,   612.158E-06
C:/temp/dataset/0/7_3.odb,Step-1,Increment      1: Step Time =    1.000,"PART-1-1",             5,            5.,          -10.,            0.,NA,NA,"",   89.9326E-03,  -89.9195E-03,   1.53370E-03,   1.08891E-03
C:/temp/dataset/0/7_3.odb,Step-1,Increment      1: Step Time =    1.000,"PART-1-1",             6,            5.,          -20.,            0.,NA,NA,"",   35.0340E-03,  -34.6189E-03,  -5.37680E-03,   5.40770E-03
C:/temp/dataset/0/7_3.odb,Step-1,Increment      1: Step Time =    1.000,"PART-1-1",             7,            0.,          -20.,            0.,NA,NA,"",   18.4330E-03,  -18.4245E-03,   560.796E-06,   1.56883E-03
C:/temp/dataset/0/7_3.odb,Step-1,Increment      1: Step Time =    1.000,"PART-1-1",             8,           -5.,          -20.,            0.,NA,NA,"",   14.6878E-03,  -14.3526E-03,   3.12009E-03,   996.766E-06
C:/temp/dataset/0/7_3.odb,Step-1,Increment      1: Step Time =    1.000,"PART-1-1",             9,           -5.,           20.,            0.,NA,NA,"",   114.555E-03,  -114.364E-03,   6.62480E-03,   982.239E-06
C:/temp/dataset/0/7_3.odb,Step-1,Increment      1: Step Time =    1.000,"PART-1-1",            10,           15.,           30.,            0.,NA,NA,"",   125.923E-03,  -124.528E-03,   18.6908E-03,   3.35524E-06
C:/temp/dataset/0/7_3.odb,Step-1,Increment      1: Step Time =    1.000,"PART-1-1",            11,           7.5,           30.,            0.,NA,NA,"",   125.786E-03,  -124.822E-03,   15.5404E-03,   142.433E-06
C:/temp/dataset/0/7_3.odb,Step-1,Increment      1: Step Time =    1.000,"PART-1-1",            12,            0.,           30.,            0.,NA,NA,"",   127.106E-03,  -126.639E-03,   10.8868E-03,   389.984E-06
C:/temp/dataset/0/7_3.odb,Step-1,Increment      1: Step Time =    1.000,"PART-1-1",            13,          -15.,           30.,            0.,NA,NA,"",   130.691E-03,  -130.164E-03,  -11.7236E-03,   14.0651E-06
C:/temp/dataset/0/7_3.odb,Step-1,Increment      1: Step Time =    1.000,"PART-1-1",            14,          -15.,          -30.,            0.,NA,NA,"",            0.,  -881.921E-42,  -1.44672E-39,   2.29828E-03
C:/temp/dataset/0/7_3.odb,Step-1,Increment      1: Step Time =    1.000,"PART-1-1",            15,           15.,          -30.,            0.,NA,NA,"",            0.,  -2.16470E-39,   3.94306E-39,   6.42930E-03
C:/temp/dataset/0/7_3.odb,Step-1,Increment      1: Step Time =    1.000,"PART-1-1",            16,           15.,         -22.5,            0.,NA,NA,"",   49.5467E-03,  -41.0978E-03,   27.6739E-03,   2.84710E-03
C:/temp/dataset/0/7_3.odb,Step-1,Increment      1: Step Time =    1.000,"PART-1-1",            17,           15.,          -15.,            0.,NA,NA,"",   85.6725E-03,  -80.4175E-03,   29.5433E-03,   1.66132E-03
C:/temp/dataset/0/7_3.odb,Step-1,Increment      1: Step Time =    1.000,"PART-1-1",            18,           15.,          -7.5,            0.,NA,NA,"",   99.4893E-03,  -95.8531E-03,   26.6517E-03,   706.948E-06
C:/temp/dataset/0/7_3.odb,Step-1,Increment      1: Step Time =    1.000,"PART-1-1",            19,           15.,            0.,            0.,NA,NA,"",   110.813E-03,  -108.543E-03,   22.3143E-03,   540.924E-06
C:/temp/dataset/0/7_3.odb,Step-1,Increment      1: Step Time =    1.000,"PART-1-1",            20,           15.,           7.5,            0.,NA,NA,"",   116.952E-03,  -115.320E-03,   19.4662E-03,   306.302E-06
C:/temp/dataset/0/7_3.odb,Step-1,Increment      1: Step Time =    1.000,"PART-1-1",            21,           15.,           15.,            0.,NA,NA,"",   120.014E-03,  -118.624E-03,   18.2099E-03,   63.0869E-06
C:/temp/dataset/0/7_3.odb,Step-1,Increment      1: Step Time =    1.000,"PART-1-1",            22,           15.,          22.5,            0.,NA,NA,"",   122.562E-03,  -121.164E-03,   18.4583E-03,   84.8447E-06
C:/temp/dataset/0/7_3.odb,Step-1,Increment      1: Step Time =    1.000,"PART-1-1",            23,       3.33333,           20.,            0.,NA,NA,"",   119.188E-03,  -118.447E-03,   13.2722E-03,   472.973E-06
C:/temp/dataset/0/7_3.odb,Step-1,Increment      1: Step Time =    1.000,"PART-1-1",            24,       1.66667,           20.,            0.,NA,NA,"",   118.436E-03,  -117.818E-03,   12.0865E-03,   433.903E-06
C:/temp/dataset/0/7_3.odb,Step-1,Increment      1: Step Time =    1.000,"PART-1-1",            25,            5.,       13.3333,            0.,NA,NA,"",   118.678E-03,  -117.889E-03,   13.6619E-03,   214.065E-06
C:/temp/dataset/0/7_3.odb,Step-1,Increment      1: Step Time =    1.000,"PART-1-1",            26,            5.,       16.6667,            0.,NA,NA,"",   119.720E-03,  -118.880E-03,   14.1574E-03,   143.122E-06
C:/temp/dataset/0/7_3.odb,Step-1,Increment      1: Step Time =    1.000,"PART-1-1",            27,            5.,       3.33333,            0.,NA,NA,"",   112.444E-03,  -111.958E-03,   10.4417E-03,   509.801E-06
C:/temp/dataset/0/7_3.odb,Step-1,Increment      1: Step Time =    1.000,"PART-1-1",            28,            5.,       6.66667,            0.,NA,NA,"",   115.215E-03,  -114.607E-03,   11.8175E-03,   408.423E-06
C:/temp/dataset/0/7_3.odb,Step-1,Increment      1: Step Time =    1.000,"PART-1-1",            29,            5.,      -6.66667,            0.,NA,NA,"",   97.6948E-03,  -97.5946E-03,   4.42180E-03,   855.939E-06
C:/temp/dataset/0/7_3.odb,Step-1,Increment      1: Step Time =    1.000,"PART-1-1",            30,            5.,      -3.33333,            0.,NA,NA,"",   103.867E-03,  -103.646E-03,   6.77173E-03,   713.527E-06
C:/temp/dataset/0/7_3.odb,Step-1,Increment      1: Step Time =    1.000,"PART-1-1",            31,            5.,      -16.6667,            0.,NA,NA,"",   64.0238E-03,  -63.6496E-03,  -6.91124E-03,   1.77048E-03
C:/temp/dataset/0/7_3.odb,Step-1,Increment      1: Step Time =    1.000,"PART-1-1",            32,            5.,      -13.3333,            0.,NA,NA,"",   79.6123E-03,  -79.5811E-03,  -2.22974E-03,   1.52273E-03
C:/temp/dataset/0/7_3.odb,Step-1,Increment      1: Step Time =    1.000,"PART-1-1",            33,           2.5,          -20.,            0.,NA,NA,"",   22.7861E-03,  -22.7538E-03,  -1.21306E-03,   3.03432E-03
C:/temp/dataset/0/7_3.odb,Step-1,Increment      1: Step Time =    1.000,"PART-1-1",            34,          -2.5,          -20.,            0.,NA,NA,"",   15.5768E-03,  -15.4922E-03,   1.62151E-03,   917.443E-06
C:/temp/dataset/0/7_3.odb,Step-1,Increment      1: Step Time =    1.000,"PART-1-1",            35,           -5.,       16.9231,            0.,NA,NA,"",   106.630E-03,  -106.298E-03,   8.40036E-03,   468.021E-06
C:/temp/dataset/0/7_3.odb,Step-1,Increment      1: Step Time =    1.000,"PART-1-1",            36,           -5.,       13.8462,            0.,NA,NA,"",   98.8710E-03,  -98.4226E-03,   9.40571E-03,   328.969E-06
C:/temp/dataset/0/7_3.odb,Step-1,Increment      1: Step Time =    1.000,"PART-1-1",            37,           -5.,       10.7692,            0.,NA,NA,"",   90.7679E-03,  -90.1889E-03,   10.2357E-03,   252.528E-06
C:/temp/dataset/0/7_3.odb,Step-1,Increment      1: Step Time =    1.000,"PART-1-1",            38,           -5.,       7.69231,            0.,NA,NA,"",   82.3299E-03,  -81.6162E-03,   10.8170E-03,   159.188E-06
C:/temp/dataset/0/7_3.odb,Step-1,Increment      1: Step Time =    1.000,"PART-1-1",            39,           -5.,       4.61538,            0.,NA,NA,"",   73.6813E-03,  -72.8338E-03,   11.1428E-03,   65.5121E-06
C:/temp/dataset/0/7_3.odb,Step-1,Increment      1: Step Time =    1.000,"PART-1-1",            40,           -5.,       1.53846,            0.,NA,NA,"",   64.9771E-03,  -64.0034E-03,   11.2066E-03,   30.4101E-06
C:/temp/dataset/0/7_3.odb,Step-1,Increment      1: Step Time =    1.000,"PART-1-1",            41,           -5.,      -1.53846,            0.,NA,NA,"",   56.3717E-03,  -55.2866E-03,   11.0070E-03,   125.063E-06
C:/temp/dataset/0/7_3.odb,Step-1,Increment      1: Step Time =    1.000,"PART-1-1",            42,           -5.,      -4.61538,            0.,NA,NA,"",   48.0179E-03,  -46.8460E-03,   10.5440E-03,   220.039E-06
C:/temp/dataset/0/7_3.odb,Step-1,Increment      1: Step Time =    1.000,"PART-1-1",            43,           -5.,      -7.69231,            0.,NA,NA,"",   40.0636E-03,  -38.8422E-03,   9.81736E-03,   313.571E-06
C:/temp/dataset/0/7_3.odb,Step-1,Increment      1: Step Time =    1.000,"PART-1-1",            44,           -5.,      -10.7692,            0.,NA,NA,"",   32.6466E-03,  -31.4292E-03,   8.83220E-03,   410.682E-06
C:/temp/dataset/0/7_3.odb,Step-1,Increment      1: Step Time =    1.000,"PART-1-1",            45,           -5.,      -13.8462,            0.,NA,NA,"",   25.8799E-03,  -24.7535E-03,   7.55201E-03,   510.088E-06
C:/temp/dataset/0/7_3.odb,Step-1,Increment      1: Step Time =    1.000,"PART-1-1",            46,           -5.,      -16.9231,            0.,NA,NA,"",   19.8300E-03,  -18.8978E-03,   6.00857E-03,   688.861E-06
C:/temp/dataset/0/7_3.odb,Step-1,Increment      1: Step Time =    1.000,"PART-1-1",            47,          -2.5,           20.,            0.,NA,NA,"",   116.410E-03,  -116.094E-03,   8.56801E-03,   563.496E-06
C:/temp/dataset/0/7_3.odb,Step-1,Increment      1: Step Time =    1.000,"PART-1-1",            48,        13.125,           30.,            0.,NA,NA,"",   125.804E-03,  -124.527E-03,   17.8781E-03,   5.71399E-06
C:/temp/dataset/0/7_3.odb,Step-1,Increment      1: Step Time =    1.000,"PART-1-1",            49,         11.25,           30.,            0.,NA,NA,"",   125.720E-03,  -124.552E-03,   17.0991E-03,   34.6337E-06
C:/temp/dataset/0/7_3.odb,Step-1,Increment      1: Step Time =    1.000,"PART-1-1",            50,         9.375,           30.,            0.,NA,NA,"",   125.708E-03,  -124.642E-03,   16.3345E-03,   82.0916E-06
C:/temp/dataset/0/7_3.odb,Step-1,Increment      1: Step Time =    1.000,"PART-1-1",            51,            5.,           30.,            0.,NA,NA,"",   126.052E-03,  -125.234E-03,   14.3352E-03,   230.658E-06
C:/temp/dataset/0/7_3.odb,Step-1,Increment      1: Step Time =    1.000,"PART-1-1",            52,           2.5,           30.,            0.,NA,NA,"",   126.498E-03,  -125.846E-03,   12.8296E-03,   316.328E-06
C:/temp/dataset/0/7_3.odb,Step-1,Increment      1: Step Time =    1.000,"PART-1-1",            53,           -3.,           30.,            0.,NA,NA,"",   128.004E-03,  -127.767E-03,   7.79910E-03,   436.520E-06
C:/temp/dataset/0/7_3.odb,Step-1,Increment      1: Step Time =    1.000,"PART-1-1",            54,           -6.,           30.,            0.,NA,NA,"",   128.968E-03,  -128.914E-03,   3.74637E-03,   388.496E-06
C:/temp/dataset/0/7_3.odb,Step-1,Increment      1: Step Time =    1.000,"PART-1-1",            55,           -9.,           30.,            0.,NA,NA,"",   129.780E-03,  -129.775E-03,  -1.16960E-03,   231.677E-06
C:/temp/dataset/0/7_3.odb,Step-1,Increment      1: Step Time =    1.000,"PART-1-1",            56,          -12.,           30.,            0.,NA,NA,"",   130.307E-03,  -130.145E-03,  -6.49816E-03,   55.7603E-06
C:/temp/dataset/0/7_3.odb,Step-1,Increment      1: Step Time =    1.000,"PART-1-1",            57,          -15.,           27.,            0.,NA,NA,"",   125.659E-03,  -125.109E-03,  -11.7427E-03,   55.9695E-06
C:/temp/dataset/0/7_3.odb,Step-1,Increment      1: Step Time =    1.000,"PART-1-1",            58,          -15.,           24.,            0.,NA,NA,"",   120.760E-03,  -120.151E-03,  -12.1109E-03,   227.752E-06
C:/temp/dataset/0/7_3.odb,Step-1,Increment      1: Step Time =    1.000,"PART-1-1",            59,          -15.,           21.,            0.,NA,NA,"",   115.503E-03,  -114.775E-03,  -12.9489E-03,   371.124E-06
C:/temp/dataset/0/7_3.odb,Step-1,Increment      1: Step Time =    1.000,"PART-1-1",            60,          -15.,           18.,            0.,NA,NA,"",   109.459E-03,  -108.557E-03,  -14.0204E-03,   396.345E-06
C:/temp/dataset/0/7_3.odb,Step-1,Increment      1: Step Time =    1.000,"PART-1-1",            61,          -15.,           15.,            0.,NA,NA,"",   102.555E-03,  -101.451E-03,  -15.0052E-03,   327.758E-06
C:/temp/dataset/0/7_3.odb,Step-1,Increment      1: Step Time =    1.000,"PART-1-1",            62,          -15.,           12.,            0.,NA,NA,"",   94.9809E-03,  -93.6677E-03,  -15.7394E-03,   227.734E-06
C:/temp/dataset/0/7_3.odb,Step-1,Increment      1: Step Time =    1.000,"PART-1-1",            63,          -15.,            9.,            0.,NA,NA,"",   86.9601E-03,  -85.4374E-03,  -16.2021E-03,   129.102E-06
C:/temp/dataset/0/7_3.odb,Step-1,Increment      1: Step Time =    1.000,"PART-1-1",            64,          -15.,            6.,            0.,NA,NA,"",   78.6685E-03,  -76.9391E-03,  -16.4043E-03,   34.2875E-06
C:/temp/dataset/0/7_3.odb,Step-1,Increment      1: Step Time =    1.000,"PART-1-1",            65,          -15.,            3.,            0.,NA,NA,"",   70.2586E-03,  -68.3288E-03,  -16.3537E-03,   59.8105E-06
C:/temp/dataset/0/7_3.odb,Step-1,Increment      1: Step Time =    1.000,"PART-1-1",            66,          -15.,            0.,            0.,NA,NA,"",   61.8746E-03,  -59.7560E-03,  -16.0526E-03,   152.581E-06
C:/temp/dataset/0/7_3.odb,Step-1,Increment      1: Step Time =    1.000,"PART-1-1",            67,          -15.,           -3.,            0.,NA,NA,"",   53.6581E-03,  -51.3702E-03,  -15.5017E-03,   245.534E-06
C:/temp/dataset/0/7_3.odb,Step-1,Increment      1: Step Time =    1.000,"PART-1-1",            68,          -15.,           -6.,            0.,NA,NA,"",   45.7479E-03,  -43.3217E-03,  -14.7005E-03,   338.894E-06
C:/temp/dataset/0/7_3.odb,Step-1,Increment      1: Step Time =    1.000,"PART-1-1",            69,          -15.,           -9.,            0.,NA,NA,"",   38.2794E-03,  -35.7635E-03,  -13.6485E-03,   432.744E-06
C:/temp/dataset/0/7_3.odb,Step-1,Increment      1: Step Time =    1.000,"PART-1-1",            70,          -15.,          -12.,            0.,NA,NA,"",   31.3858E-03,  -28.8546E-03,  -12.3482E-03,   524.026E-06
C:/temp/dataset/0/7_3.odb,Step-1,Increment      1: Step Time =    1.000,"PART-1-1",            71,          -15.,          -15.,            0.,NA,NA,"",   25.2057E-03,  -22.7632E-03,  -10.8243E-03,   596.535E-06
C:/temp/dataset/0/7_3.odb,Step-1,Increment      1: Step Time =    1.000,"PART-1-1",            72,          -15.,          -18.,            0.,NA,NA,"",   19.8507E-03,  -17.6030E-03,  -9.17523E-03,   607.095E-06
C:/temp/dataset/0/7_3.odb,Step-1,Increment      1: Step Time =    1.000,"PART-1-1",            73,          -15.,          -21.,            0.,NA,NA,"",   15.2817E-03,  -13.2703E-03,  -7.57832E-03,   586.466E-06
C:/temp/dataset/0/7_3.odb,Step-1,Increment      1: Step Time =    1.000,"PART-1-1",            74,          -15.,          -24.,            0.,NA,NA,"",   11.0622E-03,  -9.26770E-03,  -6.04008E-03,   585.106E-06
C:/temp/dataset/0/7_3.odb,Step-1,Increment      1: Step Time =    1.000,"PART-1-1",            75,          -15.,          -27.,            0.,NA,NA,"",   6.49727E-03,  -5.02975E-03,  -4.11292E-03,   1.07674E-03
C:/temp/dataset/0/7_3.odb,Step-1,Increment      1: Step Time =    1.000,"PART-1-1",            76,          -12.,          -30.,            0.,NA,NA,"",            0.,  -1.05305E-39,  -1.14283E-39,   786.040E-06
C:/temp/dataset/0/7_3.odb,Step-1,Increment      1: Step Time =    1.000,"PART-1-1",            77,           -9.,          -30.,            0.,NA,NA,"",            0.,  -581.460E-42,  -140.028E-42,   964.687E-06
C:/temp/dataset/0/7_3.odb,Step-1,Increment      1: Step Time =    1.000,"PART-1-1",            78,           -6.,          -30.,            0.,NA,NA,"",            0.,  -1.10132E-39,  -729.240E-42,   1.25212E-03
C:/temp/dataset/0/7_3.odb,Step-1,Increment      1: Step Time =    1.000,"PART-1-1",            79,           -3.,          -30.,            0.,NA,NA,"",            0.,  -1.25026E-39,  -212.881E-42,   1.61480E-03
C:/temp/dataset/0/7_3.odb,Step-1,Increment      1: Step Time =    1.000,"PART-1-1",            80,            0.,          -30.,            0.,NA,NA,"",            0.,  -1.28423E-39,  -557.477E-42,   1.88735E-03
C:/temp/dataset/0/7_3.odb,Step-1,Increment      1: Step Time =    1.000,"PART-1-1",            81,            3.,          -30.,            0.,NA,NA,"",            0.,  -1.60333E-39,  -1.96561E-39,   1.85354E-03
C:/temp/dataset/0/7_3.odb,Step-1,Increment      1: Step Time =    1.000,"PART-1-1",            82,            6.,          -30.,            0.,NA,NA,"",            0.,  -1.28076E-39,  -1.41957E-39,   1.46998E-03
C:/temp/dataset/0/7_3.odb,Step-1,Increment      1: Step Time =    1.000,"PART-1-1",            83,            9.,          -30.,            0.,NA,NA,"",            0.,  -711.058E-42,  -68.6062E-42,   1.02048E-03
C:/temp/dataset/0/7_3.odb,Step-1,Increment      1: Step Time =    1.000,"PART-1-1",            84,           12.,          -30.,            0.,NA,NA,"",            0.,  -1.65856E-39,   2.83317E-39,   1.45741E-03
C:/temp/dataset/0/7_3.odb,Step-1,Increment      1: Step Time =    1.000,"PART-1-1",            85,           15.,         -27.5,            0.,NA,NA,"",   15.7230E-03,  -10.6261E-03,   11.5887E-03,   4.58190E-03
C:/temp/dataset/0/7_3.odb,Step-1,Increment      1: Step Time =    1.000,"PART-1-1",            86,           15.,          -25.,            0.,NA,NA,"",   29.9882E-03,  -22.2714E-03,   20.0817E-03,   3.52768E-03
C:/temp/dataset/0/7_3.odb,Step-1,Increment      1: Step Time =    1.000,"PART-1-1",            87,           15.,          -20.,            0.,NA,NA,"",   68.0797E-03,  -60.9260E-03,   30.3787E-03,   3.01009E-03
C:/temp/dataset/0/7_3.odb,Step-1,Increment      1: Step Time =    1.000,"PART-1-1",            88,           15.,         -17.5,            0.,NA,NA,"",   80.8958E-03,  -74.5936E-03,   31.3035E-03,   2.87717E-03
C:/temp/dataset/0/7_3.odb,Step-1,Increment      1: Step Time =    1.000,"PART-1-1",            89,           15.,         -12.5,            0.,NA,NA,"",   88.7662E-03,  -83.7449E-03,   29.4316E-03,   674.959E-06
C:/temp/dataset/0/7_3.odb,Step-1,Increment      1: Step Time =    1.000,"PART-1-1",            90,           15.,          -10.,            0.,NA,NA,"",   94.2944E-03,  -89.9885E-03,   28.1694E-03,   645.886E-06
C:/temp/dataset/0/7_3.odb,Step-1,Increment      1: Step Time =    1.000,"PART-1-1",            91,           15.,           -5.,            0.,NA,NA,"",   103.966E-03,  -100.897E-03,   25.0723E-03,   680.659E-06
C:/temp/dataset/0/7_3.odb,Step-1,Increment      1: Step Time =    1.000,"PART-1-1",            92,           15.,          -2.5,            0.,NA,NA,"",   107.716E-03,  -105.096E-03,   23.6137E-03,   616.417E-06
C:/temp/dataset/0/7_3.odb,Step-1,Increment      1: Step Time =    1.000,"PART-1-1",            93,           15.,           2.5,            0.,NA,NA,"",   113.334E-03,  -111.336E-03,   21.1898E-03,   463.131E-06
C:/temp/dataset/0/7_3.odb,Step-1,Increment      1: Step Time =    1.000,"PART-1-1",            94,           15.,            5.,            0.,NA,NA,"",   115.355E-03,  -113.565E-03,   20.2406E-03,   384.754E-06
C:/temp/dataset/0/7_3.odb,Step-1,Increment      1: Step Time =    1.000,"PART-1-1",            95,           15.,           10.,            0.,NA,NA,"",   118.204E-03,  -116.688E-03,   18.8672E-03,   227.036E-06
C:/temp/dataset/0/7_3.odb,Step-1,Increment      1: Step Time =    1.000,"PART-1-1",            96,           15.,          12.5,            0.,NA,NA,"",   119.193E-03,  -117.757E-03,   18.4465E-03,   145.907E-06
C:/temp/dataset/0/7_3.odb,Step-1,Increment      1: Step Time =    1.000,"PART-1-1",            97,           15.,          17.5,            0.,NA,NA,"",   120.774E-03,  -119.401E-03,   18.1592E-03,   17.0700E-06
C:/temp/dataset/0/7_3.odb,Step-1,Increment      1: Step Time =    1.000,"PART-1-1",            98,           15.,           20.,            0.,NA,NA,"",   121.595E-03,  -120.214E-03,   18.2682E-03,   72.5936E-06
C:/temp/dataset/0/7_3.odb,Step-1,Increment      1: Step Time =    1.000,"PART-1-1",            99,           15.,           25.,            0.,NA,NA,"",   123.670E-03,  -122.260E-03,   18.6215E-03,   53.1570E-06
C:/temp/dataset/0/7_3.odb,Step-1,Increment      1: Step Time =    1.000,"PART-1-1",           100,           15.,          27.5,            0.,NA,NA,"",   124.821E-03,  -123.414E-03,   18.6896E-03,   10.2961E-06
C:/temp/dataset/0/7_3.odb,Step-1,Increment      1: Step Time =    1.000,"PART-1-1",           101,       3.77421,       21.6807,            0.,NA,NA,"",   120.415E-03,  -119.624E-03,   13.7765E-03,   244.197E-06
C:/temp/dataset/0/7_3.odb,Step-1,Increment      1: Step Time =    1.000,"PART-1-1",           102,   339.763E-03,       22.0764,            0.,NA,NA,"",   119.608E-03,  -119.064E-03,   11.3958E-03,   323.372E-06
C:/temp/dataset/0/7_3.odb,Step-1,Increment      1: Step Time =    1.000,"PART-1-1",           103,       2.04677,       21.7082,            0.,NA,NA,"",   119.909E-03,  -119.240E-03,   12.6479E-03,   309.138E-06
C:/temp/dataset/0/7_3.odb,Step-1,Increment      1: Step Time =    1.000,"PART-1-1",           104,       11.0234,       27.4901,            0.,NA,NA,"",   124.585E-03,  -123.415E-03,   17.0337E-03,   72.6681E-06
C:/temp/dataset/0/7_3.odb,Step-1,Increment      1: Step Time =    1.000,"PART-1-1",           105,       8.98111,       27.5559,            0.,NA,NA,"",   124.562E-03,  -123.499E-03,   16.2420E-03,   103.050E-06
C:/temp/dataset/0/7_3.odb,Step-1,Increment      1: Step Time =    1.000,"PART-1-1",           106,      -4.39315,       22.5924,            0.,NA,NA,"",   118.785E-03,  -118.588E-03,   6.85267E-03,   224.687E-06
C:/temp/dataset/0/7_3.odb,Step-1,Increment      1: Step Time =    1.000,"PART-1-1",           107,       12.7609,      -22.7550,            0.,NA,NA,"",   37.1681E-03,  -34.5831E-03,   13.6189E-03,   3.47064E-03
C:/temp/dataset/0/7_3.odb,Step-1,Increment      1: Step Time =    1.000,"PART-1-1",           108,       12.5528,      -15.2766,            0.,NA,NA,"",   80.9335E-03,  -77.3817E-03,   23.7129E-03,   1.65584E-03
C:/temp/dataset/0/7_3.odb,Step-1,Increment      1: Step Time =    1.000,"PART-1-1",           109,       12.2205,       7.28465,            0.,NA,NA,"",   116.779E-03,  -115.453E-03,   17.5476E-03,   164.476E-06
C:/temp/dataset/0/7_3.odb,Step-1,Increment      1: Step Time =    1.000,"PART-1-1",           110,       12.4622,       15.2934,            0.,NA,NA,"",   119.995E-03,  -118.756E-03,   17.2016E-03,   111.192E-06
C:/temp/dataset/0/7_3.odb,Step-1,Increment      1: Step Time =    1.000,"PART-1-1",           111,       12.8846,       22.6339,            0.,NA,NA,"",   122.422E-03,  -121.148E-03,   17.6109E-03,   61.0920E-06
C:/temp/dataset/0/7_3.odb,Step-1,Increment      1: Step Time =    1.000,"PART-1-1",           112,  -340.860E-03,      -22.2697,            0.,NA,NA,"",   17.1237E-03,  -17.1101E-03,  -681.516E-06,   1.85217E-03
C:/temp/dataset/0/7_3.odb,Step-1,Increment      1: Step Time =    1.000,"PART-1-1",           113,       6.83628,       27.6500,            0.,NA,NA,"",   124.610E-03,  -123.659E-03,   15.3663E-03,   131.866E-06
C:/temp/dataset/0/7_3.odb,Step-1,Increment      1: Step Time =    1.000,"PART-1-1",           114,       12.2535,       9.99399,            0.,NA,NA,"",   118.154E-03,  -116.877E-03,   17.3267E-03,   141.851E-06
C:/temp/dataset/0/7_3.odb,Step-1,Increment      1: Step Time =    1.000,"PART-1-1",           115,       12.4991,  -638.118E-03,            0.,NA,NA,"",   109.873E-03,  -108.187E-03,   19.1740E-03,   280.956E-06
C:/temp/dataset/0/7_3.odb,Step-1,Increment      1: Step Time =    1.000,"PART-1-1",           116,       12.8164,      -7.55827,            0.,NA,NA,"",   98.7367E-03,  -96.2826E-03,   21.8768E-03,   426.379E-06
C:/temp/dataset/0/7_3.odb,Step-1,Increment      1: Step Time =    1.000,"PART-1-1",           117,       12.7714,      -20.2702,            0.,NA,NA,"",   56.3664E-03,  -53.3186E-03,   18.2840E-03,   3.87395E-03
C:/temp/dataset/0/7_3.odb,Step-1,Increment      1: Step Time =    1.000,"PART-1-1",           118,      -1.80101,       22.4804,            0.,NA,NA,"",   119.348E-03,  -118.965E-03,   9.55475E-03,   348.789E-06
C:/temp/dataset/0/7_3.odb,Step-1,Increment      1: Step Time =    1.000,"PART-1-1",           119,       4.41791,       27.8041,            0.,NA,NA,"",   124.782E-03,  -123.971E-03,   14.2023E-03,   162.513E-06
C:/temp/dataset/0/7_3.odb,Step-1,Increment      1: Step Time =    1.000,"PART-1-1",           120,       2.00441,       27.9652,            0.,NA,NA,"",   125.061E-03,  -124.413E-03,   12.7141E-03,   194.672E-06
C:/temp/dataset/0/7_3.odb,Step-1,Increment      1: Step Time =    1.000,"PART-1-1",           121,      -2.69107,      -22.1951,            0.,NA,NA,"",   14.7278E-03,  -14.7114E-03,   695.078E-06,   1.31750E-03
C:/temp/dataset/0/7_3.odb,Step-1,Increment      1: Step Time =    1.000,"PART-1-1",           122,       1.88995,      -22.5465,            0.,NA,NA,"",   19.1886E-03,  -19.0189E-03,  -2.54675E-03,   2.85463E-03
C:/temp/dataset/0/7_3.odb,Step-1,Increment      1: Step Time =    1.000,"PART-1-1",           123,       3.76320,      -23.2871,            0.,NA,NA,"",   20.0229E-03,  -19.6746E-03,  -3.71864E-03,   2.44919E-03
C:/temp/dataset/0/7_3.odb,Step-1,Increment      1: Step Time =    1.000,"PART-1-1",           124,       12.5645,      -25.1614,            0.,NA,NA,"",   20.3119E-03,  -18.2923E-03,   8.82997E-03,   2.32597E-03
C:/temp/dataset/0/7_3.odb,Step-1,Increment      1: Step Time =    1.000,"PART-1-1",           125,       12.6631,      -17.7963,            0.,NA,NA,"",   71.3489E-03,  -67.9175E-03,   21.8604E-03,   3.14972E-03
C:/temp/dataset/0/7_3.odb,Step-1,Increment      1: Step Time =    1.000,"PART-1-1",           126,       12.5016,      -12.6810,            0.,NA,NA,"",   86.8418E-03,  -83.6482E-03,   23.3342E-03,   727.853E-06
C:/temp/dataset/0/7_3.odb,Step-1,Increment      1: Step Time =    1.000,"PART-1-1",           127,       12.5761,      -10.0660,            0.,NA,NA,"",   93.1361E-03,  -90.4282E-03,   22.2952E-03,   474.651E-06
C:/temp/dataset/0/7_3.odb,Step-1,Increment      1: Step Time =    1.000,"PART-1-1",           128,       13.0467,      -5.23700,            0.,NA,NA,"",   103.195E-03,  -100.935E-03,   21.4787E-03,   412.528E-06
C:/temp/dataset/0/7_3.odb,Step-1,Increment      1: Step Time =    1.000,"PART-1-1",           129,       12.8236,      -2.99729,            0.,NA,NA,"",   106.745E-03,  -104.794E-03,   20.3170E-03,   350.346E-06
C:/temp/dataset/0/7_3.odb,Step-1,Increment      1: Step Time =    1.000,"PART-1-1",           130,       12.3116,       1.92449,            0.,NA,NA,"",   112.667E-03,  -111.155E-03,   18.3989E-03,   230.321E-06
C:/temp/dataset/0/7_3.odb,Step-1,Increment      1: Step Time =    1.000,"PART-1-1",           131,       12.2319,       4.58053,            0.,NA,NA,"",   114.969E-03,  -113.569E-03,   17.8893E-03,   193.465E-06
C:/temp/dataset/0/7_3.odb,Step-1,Increment      1: Step Time =    1.000,"PART-1-1",           132,       12.3276,       12.6723,            0.,NA,NA,"",   119.187E-03,  -117.937E-03,   17.2105E-03,   125.051E-06
C:/temp/dataset/0/7_3.odb,Step-1,Increment      1: Step Time =    1.000,"PART-1-1",           133,       12.6288,       17.8043,            0.,NA,NA,"",   120.711E-03,  -119.467E-03,   17.2870E-03,   91.1691E-06
C:/temp/dataset/0/7_3.odb,Step-1,Increment      1: Step Time =    1.000,"PART-1-1",           134,       12.7774,       20.2190,            0.,NA,NA,"",   121.481E-03,  -120.222E-03,   17.4383E-03,   67.8166E-06
C:/temp/dataset/0/7_3.odb,Step-1,Increment      1: Step Time =    1.000,"PART-1-1",           135,       2.42682,       23.0828,            0.,NA,NA,"",   121.073E-03,  -120.369E-03,   13.0414E-03,   189.369E-06
C:/temp/dataset/0/7_3.odb,Step-1,Increment      1: Step Time =    1.000,"PART-1-1",           136,       13.0358,       27.4773,            0.,NA,NA,"",   124.679E-03,  -123.396E-03,   17.8378E-03,   40.9170E-06
C:/temp/dataset/0/7_3.odb,Step-1,Increment      1: Step Time =    1.000,"PART-1-1",           137,       10.8553,       25.1313,            0.,NA,NA,"",   123.401E-03,  -122.234E-03,   16.9314E-03,   88.9425E-06
C:/temp/dataset/0/7_3.odb,Step-1,Increment      1: Step Time =    1.000,"PART-1-1",           138,       5.66135,       21.5046,            0.,NA,NA,"",   120.817E-03,  -119.920E-03,   14.6912E-03,   226.762E-06
C:/temp/dataset/0/7_3.odb,Step-1,Increment      1: Step Time =    1.000,"PART-1-1",           139,       1.38191,       23.9574,            0.,NA,NA,"",   121.576E-03,  -120.946E-03,   12.3592E-03,   148.704E-06
C:/temp/dataset/0/7_3.odb,Step-1,Increment      1: Step Time =    1.000,"PART-1-1",           140,       8.68595,       25.2651,            0.,NA,NA,"",   123.306E-03,  -122.249E-03,   16.1120E-03,   120.566E-06
C:/temp/dataset/0/7_3.odb,Step-1,Increment      1: Step Time =    1.000,"PART-1-1",           141,       12.9664,       25.0396,            0.,NA,NA,"",   123.518E-03,  -122.235E-03,   17.7546E-03,   62.9198E-06
C:/temp/dataset/0/7_3.odb,Step-1,Increment      1: Step Time =    1.000,"PART-1-1",           142,       9.99676,      -12.8506,            0.,NA,NA,"",   84.5434E-03,  -83.0613E-03,   15.7609E-03,   295.725E-06
C:/temp/dataset/0/7_3.odb,Step-1,Increment      1: Step Time =    1.000,"PART-1-1",           143,       11.3735,      -5.41139,            0.,NA,NA,"",   102.480E-03,  -100.851E-03,   18.2001E-03,   214.753E-06
C:/temp/dataset/0/7_3.odb,Step-1,Increment      1: Step Time =    1.000,"PART-1-1",           144,       9.95511,       15.6727,            0.,NA,NA,"",   119.910E-03,  -118.834E-03,   16.0285E-03,   149.791E-06
C:/temp/dataset/0/7_3.odb,Step-1,Increment      1: Step Time =    1.000,"PART-1-1",           145,       9.67875,       10.0081,            0.,NA,NA,"",   117.945E-03,  -116.901E-03,   15.6628E-03,   148.362E-06
C:/temp/dataset/0/7_3.odb,Step-1,Increment      1: Step Time =    1.000,"PART-1-1",           146,       9.74913,       1.24671,            0.,NA,NA,"",   111.568E-03,  -110.520E-03,   15.2502E-03,   153.798E-06
C:/temp/dataset/0/7_3.odb,Step-1,Increment      1: Step Time =    1.000,"PART-1-1",           147,       10.3027,      -18.1986,            0.,NA,NA,"",   61.4676E-03,  -59.9829E-03,   13.4286E-03,   3.15460E-03
C:/temp/dataset/0/7_3.odb,Step-1,Increment      1: Step Time =    1.000,"PART-1-1",           148,       1.33525,      -24.5624,            0.,NA,NA,"",   14.5358E-03,  -14.3323E-03,  -2.42371E-03,   2.38761E-03
C:/temp/dataset/0/7_3.odb,Step-1,Increment      1: Step Time =    1.000,"PART-1-1",           149,       9.11730,      -22.7103,            0.,NA,NA,"",   28.5235E-03,  -28.3494E-03,   3.14730E-03,   2.99807E-03
C:/temp/dataset/0/7_3.odb,Step-1,Increment      1: Step Time =    1.000,"PART-1-1",           150,       12.2648,      -27.5617,            0.,NA,NA,"",   8.21765E-03,  -7.07372E-03,   4.18239E-03,   2.58406E-03
C:/temp/dataset/0/7_3.odb,Step-1,Increment      1: Step Time =    1.000,"PART-1-1",           151,       10.6108,      -20.5371,            0.,NA,NA,"",   46.6967E-03,  -45.5220E-03,   10.4081E-03,   3.99320E-03
C:/temp/dataset/0/7_3.odb,Step-1,Increment      1: Step Time =    1.000,"PART-1-1",           152,       10.0930,      -9.97392,            0.,NA,NA,"",   92.3984E-03,  -91.0360E-03,   15.8089E-03,   225.390E-06
C:/temp/dataset/0/7_3.odb,Step-1,Increment      1: Step Time =    1.000,"PART-1-1",           153,       9.63546,       7.06865,            0.,NA,NA,"",   116.387E-03,  -115.353E-03,   15.4749E-03,   152.429E-06
C:/temp/dataset/0/7_3.odb,Step-1,Increment      1: Step Time =    1.000,"PART-1-1",           154,       10.2222,       18.2240,            0.,NA,NA,"",   120.604E-03,  -119.503E-03,   16.2537E-03,   134.870E-06
C:/temp/dataset/0/7_3.odb,Step-1,Increment      1: Step Time =    1.000,"PART-1-1",           155,       10.5456,      -3.97788,            0.,NA,NA,"",   104.724E-03,  -103.426E-03,   16.4323E-03,   142.154E-06
C:/temp/dataset/0/7_3.odb,Step-1,Increment      1: Step Time =    1.000,"PART-1-1",           156,       10.0733,      -15.6212,            0.,NA,NA,"",   74.5816E-03,  -73.0001E-03,   15.2774E-03,   1.43838E-03
C:/temp/dataset/0/7_3.odb,Step-1,Increment      1: Step Time =    1.000,"PART-1-1",           157,       10.5412,      -7.26051,            0.,NA,NA,"",   98.6651E-03,  -97.2481E-03,   16.6613E-03,   169.900E-06
C:/temp/dataset/0/7_3.odb,Step-1,Increment      1: Step Time =    1.000,"PART-1-1",           158,       9.98625,      -1.55753,            0.,NA,NA,"",   108.207E-03,  -107.097E-03,   15.4590E-03,   144.554E-06
C:/temp/dataset/0/7_3.odb,Step-1,Increment      1: Step Time =    1.000,"PART-1-1",           159,       9.65058,       4.13273,            0.,NA,NA,"",   114.286E-03,  -113.256E-03,   15.3120E-03,   155.022E-06
C:/temp/dataset/0/7_3.odb,Step-1,Increment      1: Step Time =    1.000,"PART-1-1",           160,       9.76871,       12.8936,            0.,NA,NA,"",   119.072E-03,  -118.014E-03,   15.8385E-03,   144.096E-06
C:/temp/dataset/0/7_3.odb,Step-1,Increment      1: Step Time =    1.000,"PART-1-1",           161,       10.4870,       20.5197,            0.,NA,NA,"",   121.335E-03,  -120.206E-03,   16.5144E-03,   105.987E-06
C:/temp/dataset/0/7_3.odb,Step-1,Increment      1: Step Time =    1.000,"PART-1-1",           162,       3.57821,       25.4429,            0.,NA,NA,"",   123.062E-03,  -122.284E-03,   13.8127E-03,   128.985E-06
C:/temp/dataset/0/7_3.odb,Step-1,Increment      1: Step Time =    1.000,"PART-1-1",           163,       6.34843,       25.4199,            0.,NA,NA,"",   123.230E-03,  -122.292E-03,   15.1812E-03,   141.005E-06
C:/temp/dataset/0/7_3.odb,Step-1,Increment      1: Step Time =    1.000,"PART-1-1",           164,       2.85591,      -26.4171,            0.,NA,NA,"",   10.0307E-03,  -9.76257E-03,  -2.30357E-03,   2.10265E-03
C:/temp/dataset/0/7_3.odb,Step-1,Increment      1: Step Time =    1.000,"PART-1-1",           165,  -631.401E-03,       25.1574,            0.,NA,NA,"",   122.434E-03,  -121.960E-03,   10.7616E-03,   112.464E-06
C:/temp/dataset/0/7_3.odb,Step-1,Increment      1: Step Time =    1.000,"PART-1-1",           166,  -516.865E-03,       27.6990,            0.,NA,NA,"",   125.041E-03,  -124.580E-03,   10.7223E-03,   199.451E-06
C:/temp/dataset/0/7_3.odb,Step-1,Increment      1: Step Time =    1.000,"PART-1-1",           167,      -6.99102,       22.3744,            0.,NA,NA,"",   118.119E-03,  -118.083E-03,   2.91547E-03,   273.402E-06
C:/temp/dataset/0/7_3.odb,Step-1,Increment      1: Step Time =    1.000,"PART-1-1",           168,      -5.11091,      -22.0245,            0.,NA,NA,"",   13.2354E-03,  -13.1197E-03,   1.74597E-03,   1.16860E-03
C:/temp/dataset/0/7_3.odb,Step-1,Increment      1: Step Time =    1.000,"PART-1-1",           169,       6.75166,      -22.2774,            0.,NA,NA,"",   26.6094E-03,  -26.5750E-03,  -1.35183E-03,   2.46529E-03
C:/temp/dataset/0/7_3.odb,Step-1,Increment      1: Step Time =    1.000,"PART-1-1",           170,       8.44380,       23.0750,            0.,NA,NA,"",   122.113E-03,  -121.073E-03,   15.9081E-03,   137.778E-06
C:/temp/dataset/0/7_3.odb,Step-1,Increment      1: Step Time =    1.000,"PART-1-1",           171,       3.98751,       23.4543,            0.,NA,NA,"",   121.653E-03,  -120.843E-03,   14.0142E-03,   152.186E-06
C:/temp/dataset/0/7_3.odb,Step-1,Increment      1: Step Time =    1.000,"PART-1-1",           172,       7.74283,       18.8612,            0.,NA,NA,"",   120.476E-03,  -119.511E-03,   15.2223E-03,   176.868E-06
C:/temp/dataset/0/7_3.odb,Step-1,Increment      1: Step Time =    1.000,"PART-1-1",           173,  -206.614E-03,      -27.1815,            0.,NA,NA,"",   7.31940E-03,  -7.23995E-03,  -1.07552E-03,   1.85779E-03
C:/temp/dataset/0/7_3.odb,Step-1,Increment      1: Step Time =    1.000,"PART-1-1",           174,       10.6950,       22.8157,            0.,NA,NA,"",   122.278E-03,  -121.124E-03,   16.7574E-03,   89.1979E-06
C:/temp/dataset/0/7_3.odb,Step-1,Increment      1: Step Time =    1.000,"PART-1-1",           175,       1.78109,       26.2982,            0.,NA,NA,"",   123.669E-03,  -123.020E-03,   12.6530E-03,   120.423E-06
C:/temp/dataset/0/7_3.odb,Step-1,Increment      1: Step Time =    1.000,"PART-1-1",           176,       7.62536,      -9.80486,            0.,NA,NA,"",   91.7565E-03,  -91.3232E-03,   8.90658E-03,   489.428E-06
C:/temp/dataset/0/7_3.odb,Step-1,Increment      1: Step Time =    1.000,"PART-1-1",           177,       7.50504,      -2.60802,            0.,NA,NA,"",   105.974E-03,  -105.377E-03,   11.2334E-03,   384.664E-06
C:/temp/dataset/0/7_3.odb,Step-1,Increment      1: Step Time =    1.000,"PART-1-1",           178,       7.24337,       3.70501,            0.,NA,NA,"",   113.418E-03,  -112.697E-03,   12.7637E-03,   308.349E-06
C:/temp/dataset/0/7_3.odb,Step-1,Increment      1: Step Time =    1.000,"PART-1-1",           179,       7.25379,       10.0129,            0.,NA,NA,"",   117.626E-03,  -116.775E-03,   14.1257E-03,   208.879E-06
C:/temp/dataset/0/7_3.odb,Step-1,Increment      1: Step Time =    1.000,"PART-1-1",           180,       7.22962,       6.85747,            0.,NA,NA,"",   115.847E-03,  -115.057E-03,   13.5061E-03,   258.650E-06
C:/temp/dataset/0/7_3.odb,Step-1,Increment      1: Step Time =    1.000,"PART-1-1",           181,       7.49186,      -13.0485,            0.,NA,NA,"",   82.1427E-03,  -81.8273E-03,   7.19189E-03,   507.232E-06
C:/temp/dataset/0/7_3.odb,Step-1,Increment      1: Step Time =    1.000,"PART-1-1",           182,       8.10600,      -6.05436,            0.,NA,NA,"",   100.248E-03,  -99.6065E-03,   11.3245E-03,   343.012E-06
C:/temp/dataset/0/7_3.odb,Step-1,Increment      1: Step Time =    1.000,"PART-1-1",           183,       7.31265,   557.236E-03,            0.,NA,NA,"",   110.180E-03,  -109.530E-03,   11.9513E-03,   352.379E-06
C:/temp/dataset/0/7_3.odb,Step-1,Increment      1: Step Time =    1.000,"PART-1-1",           184,       7.30605,       13.1330,            0.,NA,NA,"",   118.902E-03,  -118.003E-03,   14.5902E-03,   159.285E-06
C:/temp/dataset/0/7_3.odb,Step-1,Increment      1: Step Time =    1.000,"PART-1-1",           185,       8.51669,      -21.0731,            0.,NA,NA,"",   37.3826E-03,  -37.1661E-03,   4.01810E-03,   3.76927E-03
C:/temp/dataset/0/7_3.odb,Step-1,Increment      1: Step Time =    1.000,"PART-1-1",           186,       7.54046,      -16.1016,            0.,NA,NA,"",   69.0099E-03,  -68.7801E-03,   5.62638E-03,   1.35862E-03
C:/temp/dataset/0/7_3.odb,Step-1,Increment      1: Step Time =    1.000,"PART-1-1",           187,       7.81864,      -18.8426,            0.,NA,NA,"",   51.3482E-03,  -51.0944E-03,   5.09967E-03,   3.69504E-03
C:/temp/dataset/0/7_3.odb,Step-1,Increment      1: Step Time =    1.000,"PART-1-1",           188,       7.43701,       16.1533,            0.,NA,NA,"",   119.831E-03,  -118.896E-03,   14.9390E-03,   133.156E-06
C:/temp/dataset/0/7_3.odb,Step-1,Increment      1: Step Time =    1.000,"PART-1-1",           189,       8.13437,       20.9213,            0.,NA,NA,"",   121.108E-03,  -120.102E-03,   15.5795E-03,   183.887E-06
C:/temp/dataset/0/7_3.odb,Step-1,Increment      1: Step Time =    1.000,"PART-1-1",           190,       10.1795,      -24.9689,            0.,NA,NA,"",   17.5404E-03,  -17.2576E-03,   3.13716E-03,   2.33408E-03
C:/temp/dataset/0/7_3.odb,Step-1,Increment      1: Step Time =    1.000,"PART-1-1",           191,      -2.92607,      -24.6642,            0.,NA,NA,"",   11.2311E-03,  -11.2311E-03,  -34.1970E-06,   1.59101E-03
C:/temp/dataset/0/7_3.odb,Step-1,Increment      1: Step Time =    1.000,"PART-1-1",           192,      -7.32959,       16.5303,            0.,NA,NA,"",   105.557E-03,  -105.516E-03,   2.97569E-03,   336.698E-06
C:/temp/dataset/0/7_3.odb,Step-1,Increment      1: Step Time =    1.000,"PART-1-1",           193,      -3.80789,       25.1547,            0.,NA,NA,"",   122.207E-03,  -121.982E-03,   7.40505E-03,   91.0912E-06
C:/temp/dataset/0/7_3.odb,Step-1,Increment      1: Step Time =    1.000,"PART-1-1",           194,      -7.16094,      -19.5479,            0.,NA,NA,"",   14.6358E-03,  -14.5046E-03,   1.95578E-03,   200.761E-06
C:/temp/dataset/0/7_3.odb,Step-1,Increment      1: Step Time =    1.000,"PART-1-1",           195,       6.10177,       23.3904,            0.,NA,NA,"",   121.941E-03,  -121.013E-03,   15.0113E-03,   168.654E-06
C:/temp/dataset/0/7_3.odb,Step-1,Increment      1: Step Time =    1.000,"PART-1-1",           196,      -3.02004,      -27.2699,            0.,NA,NA,"",   6.18640E-03,  -6.17445E-03,  -384.478E-06,   1.56228E-03
C:/temp/dataset/0/7_3.odb,Step-1,Increment      1: Step Time =    1.000,"PART-1-1",           197,      -5.46178,      -24.4382,            0.,NA,NA,"",   9.95714E-03,  -9.93796E-03,   617.825E-06,   1.21195E-03
C:/temp/dataset/0/7_3.odb,Step-1,Increment      1: Step Time =    1.000,"PART-1-1",           198,      -9.66724,       21.9754,            0.,NA,NA,"",   117.207E-03,  -117.187E-03,  -2.19097E-03,   216.626E-06
C:/temp/dataset/0/7_3.odb,Step-1,Increment      1: Step Time =    1.000,"PART-1-1",           199,      -7.19512,      -21.6661,            0.,NA,NA,"",   12.3705E-03,  -12.2994E-03,   1.32392E-03,   537.816E-06
C:/temp/dataset/0/7_3.odb,Step-1,Increment      1: Step Time =    1.000,"PART-1-1",           200,      -3.42041,       27.6042,            0.,NA,NA,"",   125.226E-03,  -124.992E-03,   7.64789E-03,   209.976E-06
C:/temp/dataset/0/7_3.odb,Step-1,Increment      1: Step Time =    1.000,"PART-1-1",           201,       5.45774,      -23.9133,            0.,NA,NA,"",   18.7680E-03,  -18.4781E-03,  -3.28633E-03,   2.09997E-03
C:/temp/dataset/0/7_3.odb,Step-1,Increment      1: Step Time =    1.000,"PART-1-1",           202,      -6.69209,       24.9820,            0.,NA,NA,"",   121.961E-03,  -121.918E-03,   3.23461E-03,   207.253E-06
C:/temp/dataset/0/7_3.odb,Step-1,Increment      1: Step Time =    1.000,"PART-1-1",           203,      -12.3718,      -14.6182,            0.,NA,NA,"",   23.7562E-03,  -22.9565E-03,  -6.11207E-03,   323.259E-06
C:/temp/dataset/0/7_3.odb,Step-1,Increment      1: Step Time =    1.000,"PART-1-1",           204,      -5.91076,      -27.0963,            0.,NA,NA,"",   5.35749E-03,  -5.35731E-03,  -43.7579E-06,   1.23917E-03
C:/temp/dataset/0/7_3.odb,Step-1,Increment      1: Step Time =    1.000,"PART-1-1",           205,      -9.09285,      -26.5479,            0.,NA,NA,"",   5.16593E-03,  -5.15134E-03,  -387.919E-06,   906.396E-06
C:/temp/dataset/0/7_3.odb,Step-1,Increment      1: Step Time =    1.000,"PART-1-1",           206,      -12.2958,       24.3839,            0.,NA,NA,"",   121.202E-03,  -120.991E-03,  -7.14862E-03,   228.650E-06
C:/temp/dataset/0/7_3.odb,Step-1,Increment      1: Step Time =    1.000,"PART-1-1",           207,      -12.3670,       18.5668,            0.,NA,NA,"",   110.466E-03,  -110.166E-03,  -8.13170E-03,   183.883E-06
C:/temp/dataset/0/7_3.odb,Step-1,Increment      1: Step Time =    1.000,"PART-1-1",           208,      -12.3673,       12.5421,            0.,NA,NA,"",   95.7258E-03,  -95.3156E-03,  -8.85268E-03,   147.132E-06
C:/temp/dataset/0/7_3.odb,Step-1,Increment      1: Step Time =    1.000,"PART-1-1",           209,      -12.4084,       3.45294,            0.,NA,NA,"",   70.1838E-03,  -69.5883E-03,  -9.12356E-03,   116.491E-06
C:/temp/dataset/0/7_3.odb,Step-1,Increment      1: Step Time =    1.000,"PART-1-1",           210,      -12.4043,      -5.59421,            0.,NA,NA,"",   44.8530E-03,  -44.0998E-03,  -8.18522E-03,   207.113E-06
C:/temp/dataset/0/7_3.odb,Step-1,Increment      1: Step Time =    1.000,"PART-1-1",           211,      -12.3838,       9.50768,            0.,NA,NA,"",   87.4444E-03,  -86.9728E-03,  -9.06998E-03,   122.633E-06
C:/temp/dataset/0/7_3.odb,Step-1,Increment      1: Step Time =    1.000,"PART-1-1",           212,      -12.4013,       6.47621,            0.,NA,NA,"",   78.8731E-03,  -78.3381E-03,  -9.17126E-03,   109.843E-06
C:/temp/dataset/0/7_3.odb,Step-1,Increment      1: Step Time =    1.000,"PART-1-1",           213,      -12.4173,   428.232E-03,            0.,NA,NA,"",   61.5054E-03,  -60.8494E-03,  -8.95868E-03,   138.830E-06
C:/temp/dataset/0/7_3.odb,Step-1,Increment      1: Step Time =    1.000,"PART-1-1",           214,      -12.4160,      -2.58791,            0.,NA,NA,"",   53.0117E-03,  -52.3021E-03,  -8.64444E-03,   170.762E-06
C:/temp/dataset/0/7_3.odb,Step-1,Increment      1: Step Time =    1.000,"PART-1-1",           215,      -12.4014,      -8.61211,            0.,NA,NA,"",   37.1318E-03,  -36.3398E-03,  -7.62834E-03,   245.905E-06
C:/temp/dataset/0/7_3.odb,Step-1,Increment      1: Step Time =    1.000,"PART-1-1",           216,      -12.3969,      -11.6247,            0.,NA,NA,"",   30.0417E-03,  -29.2271E-03,  -6.94856E-03,   285.408E-06
C:/temp/dataset/0/7_3.odb,Step-1,Increment      1: Step Time =    1.000,"PART-1-1",           217,      -12.3009,      -17.6498,            0.,NA,NA,"",   18.2859E-03,  -17.5692E-03,  -5.06936E-03,   357.425E-06
C:/temp/dataset/0/7_3.odb,Step-1,Increment      1: Step Time =    1.000,"PART-1-1",           218,      -11.9370,      -20.9397,            0.,NA,NA,"",   13.2177E-03,  -12.7379E-03,  -3.52901E-03,   344.532E-06
C:/temp/dataset/0/7_3.odb,Step-1,Increment      1: Step Time =    1.000,"PART-1-1",           219,       6.28266,      -26.4725,            0.,NA,NA,"",   9.72529E-03,  -9.57334E-03,  -1.71246E-03,   1.91987E-03
C:/temp/dataset/0/7_3.odb,Step-1,Increment      1: Step Time =    1.000,"PART-1-1",           220,      -12.3616,       21.4963,            0.,NA,NA,"",   116.295E-03,  -116.044E-03,  -7.64158E-03,   204.193E-06
C:/temp/dataset/0/7_3.odb,Step-1,Increment      1: Step Time =    1.000,"PART-1-1",           221,       9.42071,      -27.3229,            0.,NA,NA,"",   6.81388E-03,  -6.77860E-03,   692.545E-06,   1.79023E-03
C:/temp/dataset/0/7_3.odb,Step-1,Increment      1: Step Time =    1.000,"PART-1-1",           222,      -12.3680,       15.5612,            0.,NA,NA,"",   103.484E-03,  -103.130E-03,  -8.55923E-03,   171.268E-06
C:/temp/dataset/0/7_3.odb,Step-1,Increment      1: Step Time =    1.000,"PART-1-1",           223,      -6.37126,       27.5191,            0.,NA,NA,"",   125.464E-03,  -125.416E-03,   3.50046E-03,   219.761E-06
C:/temp/dataset/0/7_3.odb,Step-1,Increment      1: Step Time =    1.000,"PART-1-1",           224,      -7.37426,       13.4489,            0.,NA,NA,"",   97.6963E-03,  -97.6352E-03,   3.45577E-03,   230.290E-06
C:/temp/dataset/0/7_3.odb,Step-1,Increment      1: Step Time =    1.000,"PART-1-1",           225,      -7.40401,       7.31385,            0.,NA,NA,"",   80.7767E-03,  -80.6666E-03,   4.21630E-03,   139.968E-06
C:/temp/dataset/0/7_3.odb,Step-1,Increment      1: Step Time =    1.000,"PART-1-1",           226,      -7.40102,      -1.84560,            0.,NA,NA,"",   54.5022E-03,  -54.3204E-03,   4.44849E-03,   115.374E-06
C:/temp/dataset/0/7_3.odb,Step-1,Increment      1: Step Time =    1.000,"PART-1-1",           227,      -7.36253,      -10.9851,            0.,NA,NA,"",   30.8083E-03,  -30.6041E-03,   3.54127E-03,   227.164E-06
C:/temp/dataset/0/7_3.odb,Step-1,Increment      1: Step Time =    1.000,"PART-1-1",           228,      -7.39657,       10.3769,            0.,NA,NA,"",   89.3943E-03,  -89.3095E-03,   3.89271E-03,   176.531E-06
C:/temp/dataset/0/7_3.odb,Step-1,Increment      1: Step Time =    1.000,"PART-1-1",           229,      -7.41369,       4.25226,            0.,NA,NA,"",   71.9714E-03,  -71.8367E-03,   4.40020E-03,   113.050E-06
C:/temp/dataset/0/7_3.odb,Step-1,Increment      1: Step Time =    1.000,"PART-1-1",           230,      -7.41413,       1.19777,            0.,NA,NA,"",   63.1563E-03,  -62.9977E-03,   4.47335E-03,   103.533E-06
C:/temp/dataset/0/7_3.odb,Step-1,Increment      1: Step Time =    1.000,"PART-1-1",           231,      -7.39700,      -4.89906,            0.,NA,NA,"",   46.0999E-03,  -45.9024E-03,   4.26278E-03,   144.057E-06
C:/temp/dataset/0/7_3.odb,Step-1,Increment      1: Step Time =    1.000,"PART-1-1",           232,      -7.39133,      -7.95434,            0.,NA,NA,"",   38.1296E-03,  -37.9253E-03,   3.94187E-03,   182.765E-06
C:/temp/dataset/0/7_3.odb,Step-1,Increment      1: Step Time =    1.000,"PART-1-1",           233,      -7.32483,      -13.9963,            0.,NA,NA,"",   24.2356E-03,  -24.0491E-03,   3.00052E-03,   288.027E-06
C:/temp/dataset/0/7_3.odb,Step-1,Increment      1: Step Time =    1.000,"PART-1-1",           234,      -9.29453,       27.3932,            0.,NA,NA,"",   125.628E-03,  -125.619E-03,  -1.49180E-03,   231.611E-06
C:/temp/dataset/0/7_3.odb,Step-1,Increment      1: Step Time =    1.000,"PART-1-1",           235,      -9.79647,       16.0793,            0.,NA,NA,"",   104.565E-03,  -104.532E-03,  -2.62726E-03,   157.778E-06
C:/temp/dataset/0/7_3.odb,Step-1,Increment      1: Step Time =    1.000,"PART-1-1",           236,      -10.5694,      -24.3397,            0.,NA,NA,"",   8.23471E-03,  -8.12966E-03,  -1.31112E-03,   494.582E-06
C:/temp/dataset/0/7_3.odb,Step-1,Increment      1: Step Time =    1.000,"PART-1-1",           237,      -9.80814,      -14.2636,            0.,NA,NA,"",   23.4659E-03,  -23.4156E-03,  -1.53460E-03,   145.987E-06
C:/temp/dataset/0/7_3.odb,Step-1,Increment      1: Step Time =    1.000,"PART-1-1",           238,      -9.84607,      -11.2856,            0.,NA,NA,"",   29.8687E-03,  -29.8200E-03,  -1.70413E-03,   142.830E-06
C:/temp/dataset/0/7_3.odb,Step-1,Increment      1: Step Time =    1.000,"PART-1-1",           239,      -9.85160,       9.96190,            0.,NA,NA,"",   88.2893E-03,  -88.2549E-03,  -2.46279E-03,   146.702E-06
C:/temp/dataset/0/7_3.odb,Step-1,Increment      1: Step Time =    1.000,"PART-1-1",           240,      -9.42013,      -19.6871,            0.,NA,NA,"",   14.2576E-03,  -14.2441E-03,  -620.412E-06,   97.3010E-06
C:/temp/dataset/0/7_3.odb,Step-1,Increment      1: Step Time =    1.000,"PART-1-1",           241,      -9.87385,       6.90801,            0.,NA,NA,"",   79.6053E-03,  -79.5695E-03,  -2.38832E-03,   144.973E-06
C:/temp/dataset/0/7_3.odb,Step-1,Increment      1: Step Time =    1.000,"PART-1-1",           242,      -9.72088,      -17.1529,            0.,NA,NA,"",   18.1026E-03,  -18.0614E-03,  -1.22034E-03,   170.857E-06
C:/temp/dataset/0/7_3.odb,Step-1,Increment      1: Step Time =    1.000,"PART-1-1",           243,      -7.24385,      -16.9197,            0.,NA,NA,"",   18.6589E-03,  -18.4946E-03,   2.47054E-03,   386.462E-06
C:/temp/dataset/0/7_3.odb,Step-1,Increment      1: Step Time =    1.000,"PART-1-1",           244,      -9.88569,       3.86363,            0.,NA,NA,"",   70.7831E-03,  -70.7458E-03,  -2.29687E-03,   144.468E-06
C:/temp/dataset/0/7_3.odb,Step-1,Increment      1: Step Time =    1.000,"PART-1-1",           245,      -9.88680,   826.149E-03,            0.,NA,NA,"",   61.9734E-03,  -61.9349E-03,  -2.18490E-03,   143.921E-06
C:/temp/dataset/0/7_3.odb,Step-1,Increment      1: Step Time =    1.000,"PART-1-1",           246,      -9.87953,      -2.20322,            0.,NA,NA,"",   53.3347E-03,  -53.2950E-03,  -2.05784E-03,   143.329E-06
C:/temp/dataset/0/7_3.odb,Step-1,Increment      1: Step Time =    1.000,"PART-1-1",           247,      -9.87339,      -5.23467,            0.,NA,NA,"",   44.9939E-03,  -44.9519E-03,  -1.94232E-03,   142.636E-06
C:/temp/dataset/0/7_3.odb,Step-1,Increment      1: Step Time =    1.000,"PART-1-1",           248,      -9.87035,      -8.27303,            0.,NA,NA,"",   37.0946E-03,  -37.0487E-03,  -1.84418E-03,   142.029E-06
C:/temp/dataset/0/7_3.odb,Step-1,Increment      1: Step Time =    1.000,"PART-1-1",           249,      -12.1942,       27.2250,            0.,NA,NA,"",   125.697E-03,  -125.512E-03,  -6.81044E-03,   171.871E-06
C:/temp/dataset/0/7_3.odb,Step-1,Increment      1: Step Time =    1.000,"PART-1-1",           250,      -12.1946,      -27.0241,            0.,NA,NA,"",   4.56779E-03,  -4.29174E-03,  -1.56386E-03,   975.712E-06
C:/temp/dataset/0/7_3.odb,Step-1,Increment      1: Step Time =    1.000,"PART-1-1",           251,      -9.83578,       13.0151,            0.,NA,NA,"",   96.6544E-03,  -96.6200E-03,  -2.57729E-03,   145.745E-06
C:/temp/dataset/0/7_3.odb,Step-1,Increment      1: Step Time =    1.000,"PART-1-1",           252,      -12.4960,      -24.1891,            0.,NA,NA,"",   8.95229E-03,  -8.44116E-03,  -2.98167E-03,   577.845E-06
C:/temp/dataset/0/7_3.odb,Step-1,Increment      1: Step Time =    1.000,"PART-1-1",           253,      -7.26398,       19.6069,            0.,NA,NA,"",   112.964E-03,  -112.935E-03,   2.55411E-03,   271.208E-06
C:/temp/dataset/0/7_3.odb,Step-1,Increment      1: Step Time =    1.000,"PART-1-1",           254,      -9.78845,      -22.6320,            0.,NA,NA,"",   10.5224E-03,  -10.4872E-03,  -859.937E-06,   303.700E-06
C:/temp/dataset/0/7_3.odb,Step-1,Increment      1: Step Time =    1.000,"PART-1-1",           255,       8.11622,      -24.1302,            0.,NA,NA,"",   19.5637E-03,  -19.5635E-03,   76.2734E-06,   2.25859E-03
C:/temp/dataset/0/7_3.odb,Step-1,Increment      1: Step Time =    1.000,"PART-1-1",           256,       10.7040,      -22.7860,            0.,NA,NA,"",   31.4493E-03,  -30.6870E-03,   6.88267E-03,   3.34493E-03
C:/temp/dataset/0/7_3.odb,Step-1,Increment      1: Step Time =    1.000,"PART-1-1",           257,      -8.82647,      -21.3553,            0.,NA,NA,"",   12.1857E-03,  -12.1856E-03,   43.7373E-06,   177.939E-06
C:/temp/dataset/0/7_3.odb,Step-1,Increment      1: Step Time =    1.000,"PART-1-1",           258,      -9.77631,       19.1047,            0.,NA,NA,"",   111.617E-03,  -111.587E-03,  -2.58455E-03,   116.011E-06
C:/temp/dataset/0/7_3.odb,Step-1,Increment      1: Step Time =    1.000,"PART-1-1",           259,      -7.77355,      -23.8785,            0.,NA,NA,"",   9.45288E-03,  -9.44613E-03,   357.201E-06,   741.193E-06
C:/temp/dataset/0/7_3.odb,Step-1,Increment      1: Step Time =    1.000,"PART-1-1",           260,  -536.979E-03,      -24.7394,            0.,NA,NA,"",   12.7857E-03,  -12.7247E-03,  -1.24791E-03,   1.85243E-03
C:/temp/dataset/0/7_3.odb,Step-1,Increment      1: Step Time =    1.000,"PART-1-1",           261,      -9.52558,       24.7102,            0.,NA,NA,"",   121.600E-03,  -121.586E-03,  -1.84398E-03,   255.120E-06
C:/temp/dataset/0/7_3.odb,Step-1,Increment      1: Step Time =    1.000,"PART-1-1",           262,      -2.15050,       21.2402,            0.,NA,NA,"",   117.785E-03,  -117.430E-03,   9.13857E-03,   421.765E-06
C:/temp/dataset/0/7_3.odb,Step-1,Increment      1: Step Time =    1.000,"PART-1-1",           263,      -3.09708,       22.5364,            0.,NA,NA,"",   118.968E-03,  -118.674E-03,   8.36710E-03,   233.475E-06
C:/temp/dataset/0/7_3.odb,Step-1,Increment      1: Step Time =    1.000,"PART-1-1",           264,      -4.69657,       21.2962,            0.,NA,NA,"",   116.847E-03,  -116.652E-03,   6.74705E-03,   525.938E-06
C:/temp/dataset/0/7_3.odb,Step-1,Increment      1: Step Time =    1.000,"PART-1-1",           265,         -3.75,           20.,            0.,NA,NA,"",   115.556E-03,  -115.321E-03,   7.37085E-03,   755.206E-06
C:/temp/dataset/0/7_3.odb,Step-1,Increment      1: Step Time =    1.000,"PART-1-1",           266,      -4.10052,       23.8735,            0.,NA,NA,"",   120.549E-03,  -120.339E-03,   7.11800E-03,   142.933E-06
C:/temp/dataset/0/7_3.odb,Step-1,Increment      1: Step Time =    1.000,"PART-1-1",           267,      -5.24999,       25.0683,            0.,NA,NA,"",   122.065E-03,  -121.943E-03,   5.45178E-03,   133.183E-06
C:/temp/dataset/0/7_3.odb,Step-1,Increment      1: Step Time =    1.000,"PART-1-1",           268,      -6.84155,       23.6782,            0.,NA,NA,"",   120.102E-03,  -120.063E-03,   3.08583E-03,   216.325E-06
C:/temp/dataset/0/7_3.odb,Step-1,Increment      1: Step Time =    1.000,"PART-1-1",           269,      -5.69208,       22.4834,            0.,NA,NA,"",   118.451E-03,  -118.341E-03,   5.11727E-03,   205.374E-06
C:/temp/dataset/0/7_3.odb,Step-1,Increment      1: Step Time =    1.000,"PART-1-1",           270,      -7.35192,       14.9896,            0.,NA,NA,"",   101.714E-03,  -101.663E-03,   3.22085E-03,   250.859E-06
C:/temp/dataset/0/7_3.odb,Step-1,Increment      1: Step Time =    1.000,"PART-1-1",           271,      -8.56303,       16.3048,            0.,NA,NA,"",   105.062E-03,  -105.062E-03,   164.725E-06,   218.355E-06
C:/temp/dataset/0/7_3.odb,Step-1,Increment      1: Step Time =    1.000,"PART-1-1",           272,      -9.81613,       14.5472,            0.,NA,NA,"",   100.669E-03,  -100.635E-03,  -2.60262E-03,   150.805E-06
C:/temp/dataset/0/7_3.odb,Step-1,Increment      1: Step Time =    1.000,"PART-1-1",           273,      -8.60502,       13.2320,            0.,NA,NA,"",   97.1469E-03,  -97.1459E-03,   440.705E-06,   176.794E-06
C:/temp/dataset/0/7_3.odb,Step-1,Increment      1: Step Time =    1.000,"PART-1-1",           274,          -15.,         -16.5,            0.,NA,NA,"",   22.4205E-03,  -20.0653E-03,  -10.0033E-03,   604.454E-06
C:/temp/dataset/0/7_3.odb,Step-1,Increment      1: Step Time =    1.000,"PART-1-1",           275,      -13.6504,      -17.8249,            0.,NA,NA,"",   18.9486E-03,  -17.5533E-03,  -7.13655E-03,   480.781E-06
C:/temp/dataset/0/7_3.odb,Step-1,Increment      1: Step Time =    1.000,"PART-1-1",           276,      -12.3363,      -16.1340,            0.,NA,NA,"",   20.8980E-03,  -20.1328E-03,  -5.60328E-03,   339.636E-06
C:/temp/dataset/0/7_3.odb,Step-1,Increment      1: Step Time =    1.000,"PART-1-1",           277,      -13.6859,      -14.8091,            0.,NA,NA,"",   24.3348E-03,  -22.8163E-03,  -8.46157E-03,   454.976E-06
C:/temp/dataset/0/7_3.odb,Step-1,Increment      1: Step Time =    1.000,"PART-1-1",           278,      -4.46540,      -27.1831,            0.,NA,NA,"",   5.79447E-03,  -5.79251E-03,  -150.640E-06,   1.39740E-03
C:/temp/dataset/0/7_3.odb,Step-1,Increment      1: Step Time =    1.000,"PART-1-1",           279,      -2.97305,      -25.9670,            0.,NA,NA,"",   8.84722E-03,  -8.84216E-03,  -298.942E-06,   1.55438E-03
C:/temp/dataset/0/7_3.odb,Step-1,Increment      1: Step Time =    1.000,"PART-1-1",           280,      -4.19392,      -24.5512,            0.,NA,NA,"",   10.5735E-03,  -10.5659E-03,   400.840E-06,   1.39874E-03
C:/temp/dataset/0/7_3.odb,Step-1,Increment      1: Step Time =    1.000,"PART-1-1",           281,      -5.68627,      -25.7673,            0.,NA,NA,"",   7.72759E-03,  -7.72456E-03,   216.492E-06,   1.21542E-03
C:/temp/dataset/0/7_3.odb,Step-1,Increment      1: Step Time =    1.000,"PART-1-1",           282,      -5.28634,      -23.2314,            0.,NA,NA,"",   11.7257E-03,  -11.6718E-03,   1.12365E-03,   1.15381E-03
C:/temp/dataset/0/7_3.odb,Step-1,Increment      1: Step Time =    1.000,"PART-1-1",           283,      -2.80857,      -23.4296,            0.,NA,NA,"",   13.2589E-03,  -13.2554E-03,   300.933E-06,   1.44001E-03
C:/temp/dataset/0/7_3.odb,Step-1,Increment      1: Step Time =    1.000,"PART-1-1",           284,      -3.90099,      -22.1098,            0.,NA,NA,"",   13.9853E-03,  -13.9136E-03,   1.41351E-03,   1.22280E-03
C:/temp/dataset/0/7_3.odb,Step-1,Increment      1: Step Time =    1.000,"PART-1-1",           285,       1.61260,      -23.5545,            0.,NA,NA,"",   17.1891E-03,  -16.9988E-03,  -2.55066E-03,   2.32367E-03
C:/temp/dataset/0/7_3.odb,Step-1,Increment      1: Step Time =    1.000,"PART-1-1",           286,       2.09558,      -25.4897,            0.,NA,NA,"",   12.4080E-03,  -12.1485E-03,  -2.52436E-03,   2.21409E-03
C:/temp/dataset/0/7_3.odb,Step-1,Increment      1: Step Time =    1.000,"PART-1-1",           287,       3.30955,      -24.8521,            0.,NA,NA,"",   14.7396E-03,  -14.3967E-03,  -3.16086E-03,   2.35682E-03
C:/temp/dataset/0/7_3.odb,Step-1,Increment      1: Step Time =    1.000,"PART-1-1",           288,       2.82657,      -22.9168,            0.,NA,NA,"",   20.2135E-03,  -19.8812E-03,  -3.64981E-03,   2.48046E-03
C:/temp/dataset/0/7_3.odb,Step-1,Increment      1: Step Time =    1.000,"PART-1-1",           289,       13.8857,      -20.1351,            0.,NA,NA,"",   62.0834E-03,  -57.2843E-03,   23.9344E-03,   3.26773E-03
C:/temp/dataset/0/7_3.odb,Step-1,Increment      1: Step Time =    1.000,"PART-1-1",           290,           15.,        -18.75,            0.,NA,NA,"",   75.1344E-03,  -68.4020E-03,   31.0862E-03,   2.62274E-03
C:/temp/dataset/0/7_3.odb,Step-1,Increment      1: Step Time =    1.000,"PART-1-1",           291,       13.8316,      -17.6482,            0.,NA,NA,"",   76.0670E-03,  -71.4121E-03,   26.2011E-03,   2.86076E-03
C:/temp/dataset/0/7_3.odb,Step-1,Increment      1: Step Time =    1.000,"PART-1-1",           292,       12.7173,      -19.0333,            0.,NA,NA,"",   64.3604E-03,  -61.0937E-03,   20.2440E-03,   3.37059E-03
C:/temp/dataset/0/7_3.odb,Step-1,Increment      1: Step Time =    1.000,"PART-1-1",           293,       13.7508,      -12.5905,            0.,NA,NA,"",   87.7466E-03,  -83.6993E-03,   26.3418E-03,   655.154E-06
C:/temp/dataset/0/7_3.odb,Step-1,Increment      1: Step Time =    1.000,"PART-1-1",           294,           15.,        -11.25,            0.,NA,NA,"",   91.4993E-03,  -86.8292E-03,   28.8585E-03,   541.227E-06
C:/temp/dataset/0/7_3.odb,Step-1,Increment      1: Step Time =    1.000,"PART-1-1",           295,       13.7881,      -10.0330,            0.,NA,NA,"",   93.6930E-03,  -90.2266E-03,   25.2498E-03,   554.600E-06
C:/temp/dataset/0/7_3.odb,Step-1,Increment      1: Step Time =    1.000,"PART-1-1",           296,       12.5389,      -11.3735,            0.,NA,NA,"",   89.9938E-03,  -87.0592E-03,   22.7942E-03,   521.048E-06
C:/temp/dataset/0/7_3.odb,Step-1,Increment      1: Step Time =    1.000,"PART-1-1",           297,       11.3345,      -10.0200,            0.,NA,NA,"",   92.7636E-03,  -90.7677E-03,   19.1392E-03,   326.598E-06
C:/temp/dataset/0/7_3.odb,Step-1,Increment      1: Step Time =    1.000,"PART-1-1",           298,       10.0449,      -11.4123,            0.,NA,NA,"",   88.6855E-03,  -87.2601E-03,   15.8365E-03,   201.013E-06
C:/temp/dataset/0/7_3.odb,Step-1,Increment      1: Step Time =    1.000,"PART-1-1",           299,       11.2492,      -12.7658,            0.,NA,NA,"",   85.7774E-03,  -83.4846E-03,   19.6998E-03,   411.464E-06
C:/temp/dataset/0/7_3.odb,Step-1,Increment      1: Step Time =    1.000,"PART-1-1",           300,       9.32361,      -6.65743,            0.,NA,NA,"",   99.4882E-03,  -98.5148E-03,   13.8834E-03,   173.623E-06
C:/temp/dataset/0/7_3.odb,Step-1,Increment      1: Step Time =    1.000,"PART-1-1",           301,       10.9574,      -6.33595,            0.,NA,NA,"",   100.633E-03,  -99.1041E-03,   17.4755E-03,   189.744E-06
C:/temp/dataset/0/7_3.odb,Step-1,Increment      1: Step Time =    1.000,"PART-1-1",           302,       10.9595,      -4.69463,            0.,NA,NA,"",   103.627E-03,  -102.176E-03,   17.2776E-03,   170.600E-06
C:/temp/dataset/0/7_3.odb,Step-1,Increment      1: Step Time =    1.000,"PART-1-1",           303,       9.32578,      -5.01612,            0.,NA,NA,"",   102.592E-03,  -101.625E-03,   14.0486E-03,   187.218E-06
C:/temp/dataset/0/7_3.odb,Step-1,Increment      1: Step Time =    1.000,"PART-1-1",           304,       12.9351,      -4.11714,            0.,NA,NA,"",   105.043E-03,  -102.948E-03,   20.8714E-03,   381.657E-06
C:/temp/dataset/0/7_3.odb,Step-1,Increment      1: Step Time =    1.000,"PART-1-1",           305,       11.6846,      -3.48758,            0.,NA,NA,"",   105.780E-03,  -104.158E-03,   18.4560E-03,   225.877E-06
C:/temp/dataset/0/7_3.odb,Step-1,Increment      1: Step Time =    1.000,"PART-1-1",           306,       12.2101,      -5.32419,            0.,NA,NA,"",   102.845E-03,  -100.910E-03,   19.8591E-03,   308.801E-06
C:/temp/dataset/0/7_3.odb,Step-1,Increment      1: Step Time =    1.000,"PART-1-1",           307,       9.86769,  -155.410E-03,            0.,NA,NA,"",   109.986E-03,  -108.912E-03,   15.3359E-03,   148.346E-06
C:/temp/dataset/0/7_3.odb,Step-1,Increment      1: Step Time =    1.000,"PART-1-1",           308,       8.53089,   901.975E-03,            0.,NA,NA,"",   110.909E-03,  -110.069E-03,   13.6258E-03,   234.066E-06
C:/temp/dataset/0/7_3.odb,Step-1,Increment      1: Step Time =    1.000,"PART-1-1",           309,       7.40884,      -1.02539,            0.,NA,NA,"",   108.209E-03,  -107.586E-03,   11.5928E-03,   367.330E-06
C:/temp/dataset/0/7_3.odb,Step-1,Increment      1: Step Time =    1.000,"PART-1-1",           310,       8.74564,      -2.08278,            0.,NA,NA,"",   107.141E-03,  -106.298E-03,   13.4080E-03,   237.141E-06
C:/temp/dataset/0/7_3.odb,Step-1,Increment      1: Step Time =    1.000,"PART-1-1",           311,       9.64302,       5.60069,            0.,NA,NA,"",   115.414E-03,  -114.383E-03,   15.3946E-03,   153.699E-06
C:/temp/dataset/0/7_3.odb,Step-1,Increment      1: Step Time =    1.000,"PART-1-1",           312,       10.9412,       4.35663,            0.,NA,NA,"",   114.659E-03,  -113.446E-03,   16.6336E-03,   133.610E-06
C:/temp/dataset/0/7_3.odb,Step-1,Increment      1: Step Time =    1.000,"PART-1-1",           313,       12.2262,       5.93259,            0.,NA,NA,"",   115.936E-03,  -114.576E-03,   17.7063E-03,   178.511E-06
C:/temp/dataset/0/7_3.odb,Step-1,Increment      1: Step Time =    1.000,"PART-1-1",           314,       10.9280,       7.17665,            0.,NA,NA,"",   116.608E-03,  -115.430E-03,   16.5302E-03,   129.373E-06
C:/temp/dataset/0/7_3.odb,Step-1,Increment      1: Step Time =    1.000,"PART-1-1",           315,       13.6103,       7.39232,            0.,NA,NA,"",   116.899E-03,  -115.416E-03,   18.5643E-03,   220.706E-06
C:/temp/dataset/0/7_3.odb,Step-1,Increment      1: Step Time =    1.000,"PART-1-1",           316,           15.,          8.75,            0.,NA,NA,"",   117.616E-03,  -116.047E-03,   19.1443E-03,   266.761E-06
C:/temp/dataset/0/7_3.odb,Step-1,Increment      1: Step Time =    1.000,"PART-1-1",           317,       13.6268,       9.99700,            0.,NA,NA,"",   118.205E-03,  -116.805E-03,   18.1448E-03,   166.500E-06
C:/temp/dataset/0/7_3.odb,Step-1,Increment      1: Step Time =    1.000,"PART-1-1",           318,       12.2370,       8.63932,            0.,NA,NA,"",   117.515E-03,  -116.216E-03,   17.4268E-03,   152.394E-06
C:/temp/dataset/0/7_3.odb,Step-1,Increment      1: Step Time =    1.000,"PART-1-1",           319,       13.8144,       17.6522,            0.,NA,NA,"",   120.750E-03,  -119.437E-03,   17.7549E-03,   51.5642E-06
C:/temp/dataset/0/7_3.odb,Step-1,Increment      1: Step Time =    1.000,"PART-1-1",           320,           15.,         18.75,            0.,NA,NA,"",   121.170E-03,  -119.795E-03,   18.1981E-03,   44.8887E-06
C:/temp/dataset/0/7_3.odb,Step-1,Increment      1: Step Time =    1.000,"PART-1-1",           321,       13.8887,       20.1095,            0.,NA,NA,"",   121.540E-03,  -120.219E-03,   17.8686E-03,   65.9371E-06
C:/temp/dataset/0/7_3.odb,Step-1,Increment      1: Step Time =    1.000,"PART-1-1",           322,       12.7031,       19.0116,            0.,NA,NA,"",   121.078E-03,  -119.828E-03,   17.3557E-03,   75.8772E-06
C:/temp/dataset/0/7_3.odb,Step-1,Increment      1: Step Time =    1.000,"PART-1-1",           323,       11.4255,       18.0142,            0.,NA,NA,"",   120.667E-03,  -119.495E-03,   16.7792E-03,   112.565E-06
C:/temp/dataset/0/7_3.odb,Step-1,Increment      1: Step Time =    1.000,"PART-1-1",           324,       11.6322,       20.3693,            0.,NA,NA,"",   121.419E-03,  -120.225E-03,   16.9796E-03,   86.2989E-06
C:/temp/dataset/0/7_3.odb,Step-1,Increment      1: Step Time =    1.000,"PART-1-1",           325,       10.3546,       19.3719,            0.,NA,NA,"",   120.950E-03,  -119.836E-03,   16.3797E-03,   116.904E-06
C:/temp/dataset/0/7_3.odb,Step-1,Increment      1: Step Time =    1.000,"PART-1-1",           326,       10.9394,       26.3107,            0.,NA,NA,"",   123.998E-03,  -122.828E-03,   16.9919E-03,   77.4031E-06
C:/temp/dataset/0/7_3.odb,Step-1,Increment      1: Step Time =    1.000,"PART-1-1",           327,       11.9108,       25.0855,            0.,NA,NA,"",   123.458E-03,  -122.235E-03,   17.3367E-03,   74.5080E-06
C:/temp/dataset/0/7_3.odb,Step-1,Increment      1: Step Time =    1.000,"PART-1-1",           328,       13.0011,       26.2585,            0.,NA,NA,"",   124.100E-03,  -122.816E-03,   17.8034E-03,   51.3604E-06
C:/temp/dataset/0/7_3.odb,Step-1,Increment      1: Step Time =    1.000,"PART-1-1",           329,       12.0296,       27.4837,            0.,NA,NA,"",   124.626E-03,  -123.402E-03,   17.4296E-03,   56.0556E-06
C:/temp/dataset/0/7_3.odb,Step-1,Increment      1: Step Time =    1.000,"PART-1-1",           330,       14.0179,       27.4887,            0.,NA,NA,"",   124.746E-03,  -123.404E-03,   18.2527E-03,   22.9835E-06
C:/temp/dataset/0/7_3.odb,Step-1,Increment      1: Step Time =    1.000,"PART-1-1",           331,       13.9832,       25.0198,            0.,NA,NA,"",   123.590E-03,  -122.246E-03,   18.1731E-03,   53.3642E-06
C:/temp/dataset/0/7_3.odb,Step-1,Increment      1: Step Time =    1.000,"PART-1-1",           332,           15.,         26.25,            0.,NA,NA,"",   124.247E-03,  -122.837E-03,   18.6667E-03,   31.4501E-06
C:/temp/dataset/0/7_3.odb,Step-1,Increment      1: Step Time =    1.000,"PART-1-1",           333,       3.55377,       20.8403,            0.,NA,NA,"",   119.861E-03,  -119.090E-03,   13.5693E-03,   349.126E-06
C:/temp/dataset/0/7_3.odb,Step-1,Increment      1: Step Time =    1.000,"PART-1-1",           334,       4.16667,           20.,            0.,NA,NA,"",   119.654E-03,  -118.852E-03,   13.8272E-03,   494.902E-06
C:/temp/dataset/0/7_3.odb,Step-1,Increment      1: Step Time =    1.000,"PART-1-1",           335,       5.33068,       20.7523,            0.,NA,NA,"",   120.388E-03,  -119.510E-03,   14.5110E-03,   288.647E-06
C:/temp/dataset/0/7_3.odb,Step-1,Increment      1: Step Time =    1.000,"PART-1-1",           336,       4.71778,       21.5926,            0.,NA,NA,"",   120.633E-03,  -119.783E-03,   14.3000E-03,   204.713E-06
C:/temp/dataset/0/7_3.odb,Step-1,Increment      1: Step Time =    1.000,"PART-1-1",           337,       1.85672,       20.8541,            0.,NA,NA,"",   119.166E-03,  -118.521E-03,   12.3791E-03,   376.099E-06
C:/temp/dataset/0/7_3.odb,Step-1,Increment      1: Step Time =    1.000,"PART-1-1",           338,           2.5,           20.,            0.,NA,NA,"",   118.807E-03,  -118.128E-03,   12.6812E-03,   447.576E-06
C:/temp/dataset/0/7_3.odb,Step-1,Increment      1: Step Time =    1.000,"PART-1-1",           339,       2.91049,       21.6945,            0.,NA,NA,"",   120.178E-03,  -119.446E-03,   13.2452E-03,   275.678E-06
C:/temp/dataset/0/7_3.odb,Step-1,Increment      1: Step Time =    1.000,"PART-1-1",           340,       1.32465,      -26.7993,            0.,NA,NA,"",   8.73171E-03,  -8.56672E-03,  -1.68939E-03,   1.97969E-03
C:/temp/dataset/0/7_3.odb,Step-1,Increment      1: Step Time =    1.000,"PART-1-1",           341,   399.133E-03,      -24.6509,            0.,NA,NA,"",   13.6121E-03,  -13.4912E-03,  -1.80965E-03,   2.11094E-03
C:/temp/dataset/0/7_3.odb,Step-1,Increment      1: Step Time =    1.000,"PART-1-1",           342,  -371.796E-03,      -25.9605,            0.,NA,NA,"",   10.2008E-03,  -10.1202E-03,  -1.27938E-03,   1.86468E-03
C:/temp/dataset/0/7_3.odb,Step-1,Increment      1: Step Time =    1.000,"PART-1-1",           343,       7.16814,       28.8250,            0.,NA,NA,"",   125.248E-03,  -124.290E-03,   15.4617E-03,   123.449E-06
C:/temp/dataset/0/7_3.odb,Step-1,Increment      1: Step Time =    1.000,"PART-1-1",           344,       7.90869,       27.6030,            0.,NA,NA,"",   124.578E-03,  -123.570E-03,   15.8154E-03,   116.950E-06
C:/temp/dataset/0/7_3.odb,Step-1,Increment      1: Step Time =    1.000,"PART-1-1",           345,       9.17805,       28.7779,            0.,NA,NA,"",   125.172E-03,  -124.107E-03,   16.2942E-03,   80.1434E-06
C:/temp/dataset/0/7_3.odb,Step-1,Increment      1: Step Time =    1.000,"PART-1-1",           346,        8.4375,           30.,            0.,NA,NA,"",   125.735E-03,  -124.720E-03,   15.9441E-03,   112.234E-06
C:/temp/dataset/0/7_3.odb,Step-1,Increment      1: Step Time =    1.000,"PART-1-1",           347,       1.19326,       21.8923,            0.,NA,NA,"",   119.752E-03,  -119.145E-03,   12.0412E-03,   309.177E-06
C:/temp/dataset/0/7_3.odb,Step-1,Increment      1: Step Time =    1.000,"PART-1-1",           348,   169.882E-03,       21.0382,            0.,NA,NA,"",   118.629E-03,  -118.109E-03,   11.0953E-03,   382.538E-06
C:/temp/dataset/0/7_3.odb,Step-1,Increment      1: Step Time =    1.000,"PART-1-1",           349,   833.333E-03,           20.,            0.,NA,NA,"",   118.041E-03,  -117.484E-03,   11.4499E-03,   442.879E-06
C:/temp/dataset/0/7_3.odb,Step-1,Increment      1: Step Time =    1.000,"PART-1-1",           350,       11.0482,       12.7829,            0.,NA,NA,"",   119.141E-03,  -117.989E-03,   16.5301E-03,   127.048E-06
C:/temp/dataset/0/7_3.odb,Step-1,Increment      1: Step Time =    1.000,"PART-1-1",           351,       12.3949,       13.9828,            0.,NA,NA,"",   119.607E-03,  -118.364E-03,   17.1959E-03,   116.764E-06
C:/temp/dataset/0/7_3.odb,Step-1,Increment      1: Step Time =    1.000,"PART-1-1",           352,       11.2086,       15.4830,            0.,NA,NA,"",   119.961E-03,  -118.804E-03,   16.6208E-03,   126.585E-06
C:/temp/dataset/0/7_3.odb,Step-1,Increment      1: Step Time =    1.000,"PART-1-1",           353,       9.86191,       14.2831,            0.,NA,NA,"",   119.518E-03,  -118.451E-03,   15.9385E-03,   145.997E-06
C:/temp/dataset/0/7_3.odb,Step-1,Increment      1: Step Time =    1.000,"PART-1-1",           354,       9.65710,       8.53837,            0.,NA,NA,"",   117.227E-03,  -116.188E-03,   15.5730E-03,   150.465E-06
C:/temp/dataset/0/7_3.odb,Step-1,Increment      1: Step Time =    1.000,"PART-1-1",           355,       8.46627,       10.0105,            0.,NA,NA,"",   117.799E-03,  -116.855E-03,   14.8769E-03,   167.381E-06
C:/temp/dataset/0/7_3.odb,Step-1,Increment      1: Step Time =    1.000,"PART-1-1",           356,       7.24171,       8.43518,            0.,NA,NA,"",   116.808E-03,  -115.986E-03,   13.8356E-03,   233.410E-06
C:/temp/dataset/0/7_3.odb,Step-1,Increment      1: Step Time =    1.000,"PART-1-1",           357,       8.43254,       6.96306,            0.,NA,NA,"",   116.136E-03,  -115.230E-03,   14.4827E-03,   192.085E-06
C:/temp/dataset/0/7_3.odb,Step-1,Increment      1: Step Time =    1.000,"PART-1-1",           358,       13.6558,       2.21224,            0.,NA,NA,"",   113.048E-03,  -111.287E-03,   19.8748E-03,   337.316E-06
C:/temp/dataset/0/7_3.odb,Step-1,Increment      1: Step Time =    1.000,"PART-1-1",           359,           15.,          3.75,            0.,NA,NA,"",   114.402E-03,  -112.515E-03,   20.6931E-03,   423.911E-06
C:/temp/dataset/0/7_3.odb,Step-1,Increment      1: Step Time =    1.000,"PART-1-1",           360,       13.6160,       4.79026,            0.,NA,NA,"",   115.203E-03,  -113.603E-03,   19.1346E-03,   277.175E-06
C:/temp/dataset/0/7_3.odb,Step-1,Increment      1: Step Time =    1.000,"PART-1-1",           361,       12.2717,       3.25251,            0.,NA,NA,"",   113.890E-03,  -112.438E-03,   18.1283E-03,   211.437E-06
C:/temp/dataset/0/7_3.odb,Step-1,Increment      1: Step Time =    1.000,"PART-1-1",           362,       9.69986,       2.68972,            0.,NA,NA,"",   113.017E-03,  -111.980E-03,   15.2760E-03,   154.227E-06
C:/temp/dataset/0/7_3.odb,Step-1,Increment      1: Step Time =    1.000,"PART-1-1",           363,       11.0304,       1.58560,            0.,NA,NA,"",   112.157E-03,  -110.880E-03,   16.8763E-03,   142.758E-06
C:/temp/dataset/0/7_3.odb,Step-1,Increment      1: Step Time =    1.000,"PART-1-1",           364,       7.55861,      -11.4267,            0.,NA,NA,"",   87.3237E-03,  -86.9489E-03,   8.08279E-03,   504.157E-06
C:/temp/dataset/0/7_3.odb,Step-1,Increment      1: Step Time =    1.000,"PART-1-1",           365,       6.31268,      -9.90243,            0.,NA,NA,"",   90.8616E-03,  -90.7138E-03,   5.17973E-03,   771.280E-06
C:/temp/dataset/0/7_3.odb,Step-1,Increment      1: Step Time =    1.000,"PART-1-1",           366,            5.,      -11.6667,            0.,NA,NA,"",   85.2225E-03,  -85.2222E-03,  -215.005E-06,   1.27466E-03
C:/temp/dataset/0/7_3.odb,Step-1,Increment      1: Step Time =    1.000,"PART-1-1",           367,       6.24593,      -13.1909,            0.,NA,NA,"",   80.9246E-03,  -80.8887E-03,   2.41200E-03,   972.990E-06
C:/temp/dataset/0/7_3.odb,Step-1,Increment      1: Step Time =    1.000,"PART-1-1",           368,       14.0233,      -5.11850,            0.,NA,NA,"",   103.601E-03,  -100.945E-03,   23.3117E-03,   544.491E-06
C:/temp/dataset/0/7_3.odb,Step-1,Increment      1: Step Time =    1.000,"PART-1-1",           369,           15.,         -3.75,            0.,NA,NA,"",   105.926E-03,  -103.095E-03,   24.3256E-03,   647.635E-06
C:/temp/dataset/0/7_3.odb,Step-1,Increment      1: Step Time =    1.000,"PART-1-1",           370,       13.9118,      -2.74864,            0.,NA,NA,"",   107.267E-03,  -104.981E-03,   22.0261E-03,   478.902E-06
C:/temp/dataset/0/7_3.odb,Step-1,Increment      1: Step Time =    1.000,"PART-1-1",           371,       12.6080,      -16.5365,            0.,NA,NA,"",   76.8092E-03,  -73.2556E-03,   23.0927E-03,   2.39611E-03
C:/temp/dataset/0/7_3.odb,Step-1,Increment      1: Step Time =    1.000,"PART-1-1",           372,       11.3130,      -15.4489,            0.,NA,NA,"",   77.7194E-03,  -75.2111E-03,   19.5857E-03,   1.36615E-03
C:/temp/dataset/0/7_3.odb,Step-1,Increment      1: Step Time =    1.000,"PART-1-1",           373,       10.1880,      -16.9099,            0.,NA,NA,"",   68.6130E-03,  -67.0529E-03,   14.5487E-03,   2.31101E-03
C:/temp/dataset/0/7_3.odb,Step-1,Increment      1: Step Time =    1.000,"PART-1-1",           374,       11.4829,      -17.9975,            0.,NA,NA,"",   66.2323E-03,  -63.8873E-03,   17.4677E-03,   3.06017E-03
C:/temp/dataset/0/7_3.odb,Step-1,Increment      1: Step Time =    1.000,"PART-1-1",           375,       7.63417,      -21.6752,            0.,NA,NA,"",   31.3233E-03,  -31.3099E-03,   913.254E-06,   3.14331E-03
C:/temp/dataset/0/7_3.odb,Step-1,Increment      1: Step Time =    1.000,"PART-1-1",           376,       7.43394,      -23.2038,            0.,NA,NA,"",   23.2466E-03,  -23.2382E-03,  -624.219E-06,   2.29425E-03
C:/temp/dataset/0/7_3.odb,Step-1,Increment      1: Step Time =    1.000,"PART-1-1",           377,       8.61676,      -23.4202,            0.,NA,NA,"",   23.7463E-03,  -23.7044E-03,   1.41102E-03,   2.58677E-03
C:/temp/dataset/0/7_3.odb,Step-1,Increment      1: Step Time =    1.000,"PART-1-1",           378,       8.81699,      -21.8917,            0.,NA,NA,"",   32.7739E-03,  -32.5797E-03,   3.56213E-03,   3.37873E-03
C:/temp/dataset/0/7_3.odb,Step-1,Increment      1: Step Time =    1.000,"PART-1-1",           379,  -438.919E-03,      -23.5046,            0.,NA,NA,"",   15.1271E-03,  -15.0876E-03,  -1.09154E-03,   1.85773E-03
C:/temp/dataset/0/7_3.odb,Step-1,Increment      1: Step Time =    1.000,"PART-1-1",           380,   774.543E-03,      -22.4081,            0.,NA,NA,"",   18.1873E-03,  -18.1145E-03,  -1.62596E-03,   2.22120E-03
C:/temp/dataset/0/7_3.odb,Step-1,Increment      1: Step Time =    1.000,"PART-1-1",           381,      -7.50181,      -26.8221,            0.,NA,NA,"",   5.21181E-03,  -5.21095E-03,  -95.0886E-06,   1.06543E-03
C:/temp/dataset/0/7_3.odb,Step-1,Increment      1: Step Time =    1.000,"PART-1-1",           382,      -9.04643,      -28.2740,            0.,NA,NA,"",   2.53780E-03,  -2.52077E-03,  -293.527E-06,   927.446E-06
C:/temp/dataset/0/7_3.odb,Step-1,Increment      1: Step Time =    1.000,"PART-1-1",           383,          -7.5,          -30.,            0.,NA,NA,"",            0.,  -1.23094E-39,  -603.841E-42,   1.09977E-03
C:/temp/dataset/0/7_3.odb,Step-1,Increment      1: Step Time =    1.000,"PART-1-1",           384,      -5.95538,      -28.5482,            0.,NA,NA,"",   2.73807E-03,  -2.73411E-03,  -147.245E-06,   1.22151E-03
C:/temp/dataset/0/7_3.odb,Step-1,Increment      1: Step Time =    1.000,"PART-1-1",           385,      -10.9107,       24.5471,            0.,NA,NA,"",   121.394E-03,  -121.311E-03,  -4.49062E-03,   233.891E-06
C:/temp/dataset/0/7_3.odb,Step-1,Increment      1: Step Time =    1.000,"PART-1-1",           386,      -9.41006,       26.0517,            0.,NA,NA,"",   123.615E-03,  -123.604E-03,  -1.64705E-03,   234.467E-06
C:/temp/dataset/0/7_3.odb,Step-1,Increment      1: Step Time =    1.000,"PART-1-1",           387,      -10.7443,       27.3091,            0.,NA,NA,"",   125.662E-03,  -125.594E-03,  -4.14397E-03,   196.653E-06
C:/temp/dataset/0/7_3.odb,Step-1,Increment      1: Step Time =    1.000,"PART-1-1",           388,      -12.2450,       25.8045,            0.,NA,NA,"",   123.453E-03,  -123.257E-03,  -6.95333E-03,   195.253E-06
C:/temp/dataset/0/7_3.odb,Step-1,Increment      1: Step Time =    1.000,"PART-1-1",           389,      -1.21620,       23.8189,            0.,NA,NA,"",   120.935E-03,  -120.504E-03,   10.2004E-03,   197.124E-06
C:/temp/dataset/0/7_3.odb,Step-1,Increment      1: Step Time =    1.000,"PART-1-1",           390,      -2.21965,       25.1560,            0.,NA,NA,"",   122.308E-03,  -121.961E-03,   9.21556E-03,   86.0903E-06
C:/temp/dataset/0/7_3.odb,Step-1,Increment      1: Step Time =    1.000,"PART-1-1",           391,      -12.3287,       22.9401,            0.,NA,NA,"",   118.830E-03,  -118.601E-03,  -7.37361E-03,   210.632E-06
C:/temp/dataset/0/7_3.odb,Step-1,Increment      1: Step Time =    1.000,"PART-1-1",           392,      -11.0144,       21.7359,            0.,NA,NA,"",   116.721E-03,  -116.618E-03,  -4.90828E-03,   197.839E-06
C:/temp/dataset/0/7_3.odb,Step-1,Increment      1: Step Time =    1.000,"PART-1-1",           393,      -9.59641,       23.3428,            0.,NA,NA,"",   119.474E-03,  -119.458E-03,  -1.99448E-03,   231.049E-06
C:/temp/dataset/0/7_3.odb,Step-1,Increment      1: Step Time =    1.000,"PART-1-1",           394,      -8.52014,       19.3558,            0.,NA,NA,"",   112.240E-03,  -112.240E-03,   27.2409E-06,   179.681E-06
C:/temp/dataset/0/7_3.odb,Step-1,Increment      1: Step Time =    1.000,"PART-1-1",           395,      -7.12750,       20.9906,            0.,NA,NA,"",   115.799E-03,  -115.766E-03,   2.75727E-03,   227.868E-06
C:/temp/dataset/0/7_3.odb,Step-1,Increment      1: Step Time =    1.000,"PART-1-1",           396,      -8.32913,       22.1749,            0.,NA,NA,"",   117.653E-03,  -117.653E-03,   440.340E-06,   224.997E-06
C:/temp/dataset/0/7_3.odb,Step-1,Increment      1: Step Time =    1.000,"PART-1-1",           397,      -9.72177,       20.5400,            0.,NA,NA,"",   114.548E-03,  -114.523E-03,  -2.39887E-03,   140.376E-06
C:/temp/dataset/0/7_3.odb,Step-1,Increment      1: Step Time =    1.000,"PART-1-1",           398,      -6.16480,       16.7267,            0.,NA,NA,"",   106.106E-03,  -105.959E-03,   5.58543E-03,   356.803E-06
C:/temp/dataset/0/7_3.odb,Step-1,Increment      1: Step Time =    1.000,"PART-1-1",           399,           -5.,       18.4615,            0.,NA,NA,"",   110.285E-03,  -110.020E-03,   7.65185E-03,   650.269E-06
C:/temp/dataset/0/7_3.odb,Step-1,Increment      1: Step Time =    1.000,"PART-1-1",           400,      -6.13199,       19.8034,            0.,NA,NA,"",   113.768E-03,  -113.671E-03,   4.68640E-03,   544.961E-06
C:/temp/dataset/0/7_3.odb,Step-1,Increment      1: Step Time =    1.000,"PART-1-1",           401,      -7.29678,       18.0686,            0.,NA,NA,"",   109.441E-03,  -109.408E-03,   2.65417E-03,   256.430E-06
C:/temp/dataset/0/7_3.odb,Step-1,Increment      1: Step Time =    1.000,"PART-1-1",           402,      -11.0823,       15.8203,            0.,NA,NA,"",   104.000E-03,  -103.851E-03,  -5.56390E-03,   134.884E-06
C:/temp/dataset/0/7_3.odb,Step-1,Increment      1: Step Time =    1.000,"PART-1-1",           403,      -12.3677,       14.0517,            0.,NA,NA,"",   99.6845E-03,  -99.3021E-03,  -8.72330E-03,   157.071E-06
C:/temp/dataset/0/7_3.odb,Step-1,Increment      1: Step Time =    1.000,"PART-1-1",           404,      -11.1015,       12.7786,            0.,NA,NA,"",   96.1582E-03,  -95.9897E-03,  -5.68968E-03,   128.551E-06
C:/temp/dataset/0/7_3.odb,Step-1,Increment      1: Step Time =    1.000,"PART-1-1",           405,          -15.,          10.5,            0.,NA,NA,"",   91.0131E-03,  -89.5951E-03,  -16.0032E-03,   177.685E-06
C:/temp/dataset/0/7_3.odb,Step-1,Increment      1: Step Time =    1.000,"PART-1-1",           406,      -13.6919,       9.25384,            0.,NA,NA,"",   87.1297E-03,  -86.2165E-03,  -12.5813E-03,   106.553E-06
C:/temp/dataset/0/7_3.odb,Step-1,Increment      1: Step Time =    1.000,"PART-1-1",           407,      -12.3755,       11.0249,            0.,NA,NA,"",   91.6352E-03,  -91.1945E-03,  -8.97706E-03,   133.343E-06
C:/temp/dataset/0/7_3.odb,Step-1,Increment      1: Step Time =    1.000,"PART-1-1",           408,      -13.6836,       12.2710,            0.,NA,NA,"",   95.3002E-03,  -94.5118E-03,  -12.2330E-03,   170.835E-06
C:/temp/dataset/0/7_3.odb,Step-1,Increment      1: Step Time =    1.000,"PART-1-1",           409,      -7.40029,       8.84536,            0.,NA,NA,"",   85.1201E-03,  -85.0227E-03,   4.07131E-03,   156.771E-06
C:/temp/dataset/0/7_3.odb,Step-1,Increment      1: Step Time =    1.000,"PART-1-1",           410,      -8.62408,       10.1694,            0.,NA,NA,"",   88.8008E-03,  -88.7980E-03,   706.540E-06,   152.896E-06
C:/temp/dataset/0/7_3.odb,Step-1,Increment      1: Step Time =    1.000,"PART-1-1",           411,      -9.86273,       8.43495,            0.,NA,NA,"",   83.9770E-03,  -83.9420E-03,  -2.42329E-03,   146.260E-06
C:/temp/dataset/0/7_3.odb,Step-1,Increment      1: Step Time =    1.000,"PART-1-1",           412,      -8.63893,       7.11093,            0.,NA,NA,"",   80.1313E-03,  -80.1262E-03,   904.835E-06,   138.746E-06
C:/temp/dataset/0/7_3.odb,Step-1,Increment      1: Step Time =    1.000,"PART-1-1",           413,          -15.,           1.5,            0.,NA,NA,"",   66.0544E-03,  -64.0284E-03,  -16.2344E-03,   106.161E-06
C:/temp/dataset/0/7_3.odb,Step-1,Increment      1: Step Time =    1.000,"PART-1-1",           414,      -13.7087,   214.116E-03,            0.,NA,NA,"",   61.5671E-03,  -60.2913E-03,  -12.4685E-03,   132.511E-06
C:/temp/dataset/0/7_3.odb,Step-1,Increment      1: Step Time =    1.000,"PART-1-1",           415,      -12.4129,       1.94059,            0.,NA,NA,"",   65.8333E-03,  -65.2074E-03,  -9.05651E-03,   126.115E-06
C:/temp/dataset/0/7_3.odb,Step-1,Increment      1: Step Time =    1.000,"PART-1-1",           416,      -13.7042,       3.22647,            0.,NA,NA,"",   70.1136E-03,  -68.9544E-03,  -12.6967E-03,   76.4426E-06
C:/temp/dataset/0/7_3.odb,Step-1,Increment      1: Step Time =    1.000,"PART-1-1",           417,      -9.88317,  -688.536E-03,            0.,NA,NA,"",   57.6258E-03,  -57.5868E-03,  -2.12036E-03,   143.634E-06
C:/temp/dataset/0/7_3.odb,Step-1,Increment      1: Step Time =    1.000,"PART-1-1",           418,      -8.64028,      -2.02441,            0.,NA,NA,"",   53.8085E-03,  -53.7957E-03,   1.17389E-03,   121.657E-06
C:/temp/dataset/0/7_3.odb,Step-1,Increment      1: Step Time =    1.000,"PART-1-1",           419,      -7.40757,  -323.915E-03,            0.,NA,NA,"",   58.8037E-03,  -58.6330E-03,   4.47790E-03,   106.792E-06
C:/temp/dataset/0/7_3.odb,Step-1,Increment      1: Step Time =    1.000,"PART-1-1",           420,      -8.65046,       1.01196,            0.,NA,NA,"",   62.4712E-03,  -62.4611E-03,   1.12659E-03,   122.572E-06
C:/temp/dataset/0/7_3.odb,Step-1,Increment      1: Step Time =    1.000,"PART-1-1",           421,          -15.,          -7.5,            0.,NA,NA,"",   41.9502E-03,  -39.4717E-03,  -14.2058E-03,   385.675E-06
C:/temp/dataset/0/7_3.odb,Step-1,Increment      1: Step Time =    1.000,"PART-1-1",           422,      -13.7007,      -8.80606,            0.,NA,NA,"",   37.5492E-03,  -36.0181E-03,  -10.6131E-03,   331.512E-06
C:/temp/dataset/0/7_3.odb,Step-1,Increment      1: Step Time =    1.000,"PART-1-1",           423,      -12.4029,      -7.10316,            0.,NA,NA,"",   40.9245E-03,  -40.1505E-03,  -7.92169E-03,   226.205E-06
C:/temp/dataset/0/7_3.odb,Step-1,Increment      1: Step Time =    1.000,"PART-1-1",           424,      -13.7022,      -5.79711,            0.,NA,NA,"",   45.1511E-03,  -43.6846E-03,  -11.4138E-03,   263.720E-06
C:/temp/dataset/0/7_3.odb,Step-1,Increment      1: Step Time =    1.000,"PART-1-1",           425,      -7.34368,      -12.4907,            0.,NA,NA,"",   27.4276E-03,  -27.2295E-03,   3.29055E-03,   252.742E-06
C:/temp/dataset/0/7_3.odb,Step-1,Increment      1: Step Time =    1.000,"PART-1-1",           426,      -8.60430,      -11.1353,            0.,NA,NA,"",   30.1911E-03,  -30.1781E-03,   885.323E-06,   150.081E-06
C:/temp/dataset/0/7_3.odb,Step-1,Increment      1: Step Time =    1.000,"PART-1-1",           427,      -9.82710,      -12.7746,            0.,NA,NA,"",   26.5666E-03,  -26.5169E-03,  -1.62415E-03,   144.577E-06
C:/temp/dataset/0/7_3.odb,Step-1,Increment      1: Step Time =    1.000,"PART-1-1",           428,      -8.56648,      -14.1300,            0.,NA,NA,"",   23.7002E-03,  -23.6895E-03,   709.847E-06,   173.906E-06
C:/temp/dataset/0/7_3.odb,Step-1,Increment      1: Step Time =    1.000,"PART-1-1",           429,  -730.622E-03,       22.2784,            0.,NA,NA,"",   119.448E-03,  -118.983E-03,   10.5279E-03,   306.499E-06
C:/temp/dataset/0/7_3.odb,Step-1,Increment      1: Step Time =    1.000,"PART-1-1",           430,         -1.25,           20.,            0.,NA,NA,"",   117.052E-03,  -116.653E-03,   9.66605E-03,   497.391E-06
C:/temp/dataset/0/7_3.odb,Step-1,Increment      1: Step Time =    1.000,"PART-1-1",           431,       11.1367,       28.7451,            0.,NA,NA,"",   125.179E-03,  -124.010E-03,   17.0703E-03,   46.1623E-06
C:/temp/dataset/0/7_3.odb,Step-1,Increment      1: Step Time =    1.000,"PART-1-1",           432,       10.3125,           30.,            0.,NA,NA,"",   125.703E-03,  -124.587E-03,   16.7173E-03,   58.3474E-06
C:/temp/dataset/0/7_3.odb,Step-1,Increment      1: Step Time =    1.000,"PART-1-1",           433,       10.0023,       27.5230,            0.,NA,NA,"",   124.567E-03,  -123.451E-03,   16.6383E-03,   87.4016E-06
C:/temp/dataset/0/7_3.odb,Step-1,Increment      1: Step Time =    1.000,"PART-1-1",           434,       10.7751,       23.9735,            0.,NA,NA,"",   122.825E-03,  -121.663E-03,   16.8534E-03,   83.1847E-06
C:/temp/dataset/0/7_3.odb,Step-1,Increment      1: Step Time =    1.000,"PART-1-1",           435,       11.7898,       22.7248,            0.,NA,NA,"",   122.355E-03,  -121.143E-03,   17.1816E-03,   74.0287E-06
C:/temp/dataset/0/7_3.odb,Step-1,Increment      1: Step Time =    1.000,"PART-1-1",           436,       12.9255,       23.8368,            0.,NA,NA,"",   122.955E-03,  -121.676E-03,   17.6873E-03,   59.4164E-06
C:/temp/dataset/0/7_3.odb,Step-1,Increment      1: Step Time =    1.000,"PART-1-1",           437,       2.25220,       28.9826,            0.,NA,NA,"",   125.825E-03,  -125.174E-03,   12.7881E-03,   249.482E-06
C:/temp/dataset/0/7_3.odb,Step-1,Increment      1: Step Time =    1.000,"PART-1-1",           438,       3.21116,       27.8846,            0.,NA,NA,"",   124.908E-03,  -124.176E-03,   13.5066E-03,   176.894E-06
C:/temp/dataset/0/7_3.odb,Step-1,Increment      1: Step Time =    1.000,"PART-1-1",           439,       4.70896,       28.9020,            0.,NA,NA,"",   125.468E-03,  -124.653E-03,   14.2818E-03,   185.954E-06
C:/temp/dataset/0/7_3.odb,Step-1,Increment      1: Step Time =    1.000,"PART-1-1",           440,          3.75,           30.,            0.,NA,NA,"",   126.255E-03,  -125.517E-03,   13.6292E-03,   273.395E-06
C:/temp/dataset/0/7_3.odb,Step-1,Increment      1: Step Time =    1.000,"PART-1-1",           441,      -8.10884,       24.8461,            0.,NA,NA,"",   121.779E-03,  -121.776E-03,   775.081E-06,   229.189E-06
C:/temp/dataset/0/7_3.odb,Step-1,Increment      1: Step Time =    1.000,"PART-1-1",           442,      -13.5971,       27.1125,            0.,NA,NA,"",   125.674E-03,  -125.326E-03,  -9.34105E-03,   99.3837E-06
C:/temp/dataset/0/7_3.odb,Step-1,Increment      1: Step Time =    1.000,"PART-1-1",           443,          -15.,          25.5,            0.,NA,NA,"",   123.219E-03,  -122.646E-03,  -11.8737E-03,   142.412E-06
C:/temp/dataset/0/7_3.odb,Step-1,Increment      1: Step Time =    1.000,"PART-1-1",           444,      -13.6479,       24.1920,            0.,NA,NA,"",   120.982E-03,  -120.592E-03,  -9.69943E-03,   198.268E-06
C:/temp/dataset/0/7_3.odb,Step-1,Increment      1: Step Time =    1.000,"PART-1-1",           445,      -6.53168,       26.2506,            0.,NA,NA,"",   123.715E-03,  -123.669E-03,   3.37182E-03,   201.303E-06
C:/temp/dataset/0/7_3.odb,Step-1,Increment      1: Step Time =    1.000,"PART-1-1",           446,      -7.83289,       27.4562,            0.,NA,NA,"",   125.549E-03,  -125.544E-03,   1.09081E-03,   219.935E-06
C:/temp/dataset/0/7_3.odb,Step-1,Increment      1: Step Time =    1.000,"PART-1-1",           447,          -15.,          28.5,            0.,NA,NA,"",   128.148E-03,  -127.612E-03,  -11.7156E-03,   21.1186E-06
C:/temp/dataset/0/7_3.odb,Step-1,Increment      1: Step Time =    1.000,"PART-1-1",           448,      -12.0971,       28.6125,            0.,NA,NA,"",   127.937E-03,  -127.765E-03,  -6.63905E-03,   99.3151E-06
C:/temp/dataset/0/7_3.odb,Step-1,Increment      1: Step Time =    1.000,"PART-1-1",           449,         -13.5,           30.,            0.,NA,NA,"",   130.492E-03,  -130.172E-03,  -9.13573E-03,   21.1460E-06
C:/temp/dataset/0/7_3.odb,Step-1,Increment      1: Step Time =    1.000,"PART-1-1",           450,      -6.19829,       10.5730,            0.,NA,NA,"",   90.0424E-03,  -89.7673E-03,   7.03373E-03,   205.089E-06
C:/temp/dataset/0/7_3.odb,Step-1,Increment      1: Step Time =    1.000,"PART-1-1",           451,      -6.20201,       7.50308,            0.,NA,NA,"",   81.4953E-03,  -81.1509E-03,   7.48456E-03,   137.991E-06
C:/temp/dataset/0/7_3.odb,Step-1,Increment      1: Step Time =    1.000,"PART-1-1",           452,           -5.,       9.23077,            0.,NA,NA,"",   86.5831E-03,  -85.9369E-03,   10.5583E-03,   205.710E-06
C:/temp/dataset/0/7_3.odb,Step-1,Increment      1: Step Time =    1.000,"PART-1-1",           453,      -12.4049,       4.96458,            0.,NA,NA,"",   74.5363E-03,  -73.9709E-03,  -9.16271E-03,   110.885E-06
C:/temp/dataset/0/7_3.odb,Step-1,Increment      1: Step Time =    1.000,"PART-1-1",           454,      -13.7007,       6.23810,            0.,NA,NA,"",   78.6803E-03,  -77.6419E-03,  -12.7403E-03,   61.0010E-06
C:/temp/dataset/0/7_3.odb,Step-1,Increment      1: Step Time =    1.000,"PART-1-1",           455,          -15.,           4.5,            0.,NA,NA,"",   74.4692E-03,  -72.6386E-03,  -16.4104E-03,   14.2548E-06
C:/temp/dataset/0/7_3.odb,Step-1,Increment      1: Step Time =    1.000,"PART-1-1",           456,      -9.87977,       5.38582,            0.,NA,NA,"",   75.2047E-03,  -75.1682E-03,  -2.34141E-03,   144.854E-06
C:/temp/dataset/0/7_3.odb,Step-1,Increment      1: Step Time =    1.000,"PART-1-1",           457,      -8.64969,       4.05795,            0.,NA,NA,"",   71.3005E-03,  -71.2929E-03,   1.03769E-03,   128.364E-06
C:/temp/dataset/0/7_3.odb,Step-1,Increment      1: Step Time =    1.000,"PART-1-1",           458,      -7.40885,       5.78306,            0.,NA,NA,"",   76.3882E-03,  -76.2657E-03,   4.32527E-03,   124.566E-06
C:/temp/dataset/0/7_3.odb,Step-1,Increment      1: Step Time =    1.000,"PART-1-1",           459,      -7.41391,       2.72502,            0.,NA,NA,"",   67.5579E-03,  -67.4109E-03,   4.45351E-03,   105.583E-06
C:/temp/dataset/0/7_3.odb,Step-1,Increment      1: Step Time =    1.000,"PART-1-1",           460,      -9.88624,       2.34489,            0.,NA,NA,"",   66.3693E-03,  -66.3315E-03,  -2.24005E-03,   144.219E-06
C:/temp/dataset/0/7_3.odb,Step-1,Increment      1: Step Time =    1.000,"PART-1-1",           461,      -12.4101,      -4.09106,            0.,NA,NA,"",   48.8841E-03,  -48.1518E-03,  -8.42943E-03,   188.497E-06
C:/temp/dataset/0/7_3.odb,Step-1,Increment      1: Step Time =    1.000,"PART-1-1",           462,      -13.7080,      -2.79395,            0.,NA,NA,"",   53.1979E-03,  -51.8176E-03,  -12.0400E-03,   197.092E-06
C:/temp/dataset/0/7_3.odb,Step-1,Increment      1: Step Time =    1.000,"PART-1-1",           463,          -15.,          -4.5,            0.,NA,NA,"",   49.6563E-03,  -47.2944E-03,  -15.1324E-03,   292.171E-06
C:/temp/dataset/0/7_3.odb,Step-1,Increment      1: Step Time =    1.000,"PART-1-1",           464,      -9.87646,      -3.71895,            0.,NA,NA,"",   49.1166E-03,  -49.0759E-03,  -1.99891E-03,   143.007E-06
C:/temp/dataset/0/7_3.odb,Step-1,Increment      1: Step Time =    1.000,"PART-1-1",           465,      -8.63520,      -5.06687,            0.,NA,NA,"",   45.4227E-03,  -45.4085E-03,   1.13527E-03,   126.103E-06
C:/temp/dataset/0/7_3.odb,Step-1,Increment      1: Step Time =    1.000,"PART-1-1",           466,      -7.39901,      -3.37233,            0.,NA,NA,"",   50.2561E-03,  -50.0655E-03,   4.37269E-03,   128.228E-06
C:/temp/dataset/0/7_3.odb,Step-1,Increment      1: Step Time =    1.000,"PART-1-1",           467,      -7.39417,      -6.42670,            0.,NA,NA,"",   42.0508E-03,  -41.8485E-03,   4.11982E-03,   162.508E-06
C:/temp/dataset/0/7_3.odb,Step-1,Increment      1: Step Time =    1.000,"PART-1-1",           468,      -9.87187,      -6.75385,            0.,NA,NA,"",   40.9770E-03,  -40.9333E-03,  -1.89233E-03,   142.394E-06
C:/temp/dataset/0/7_3.odb,Step-1,Increment      1: Step Time =    1.000,"PART-1-1",           469,      -8.63084,      -8.11369,            0.,NA,NA,"",   37.4756E-03,  -37.4616E-03,   1.02180E-03,   136.183E-06
C:/temp/dataset/0/7_3.odb,Step-1,Increment      1: Step Time =    1.000,"PART-1-1",           470,      -12.3844,      -13.1215,            0.,NA,NA,"",   26.7915E-03,  -25.9797E-03,  -6.54530E-03,   303.615E-06
C:/temp/dataset/0/7_3.odb,Step-1,Increment      1: Step Time =    1.000,"PART-1-1",           471,      -13.6984,      -11.8123,            0.,NA,NA,"",   30.5579E-03,  -29.0011E-03,  -9.62919E-03,   397.954E-06
C:/temp/dataset/0/7_3.odb,Step-1,Increment      1: Step Time =    1.000,"PART-1-1",           472,          -15.,         -13.5,            0.,NA,NA,"",   28.1978E-03,  -25.6971E-03,  -11.6092E-03,   559.961E-06
C:/temp/dataset/0/7_3.odb,Step-1,Increment      1: Step Time =    1.000,"PART-1-1",           473,      -7.37693,      -9.46970,            0.,NA,NA,"",   34.3882E-03,  -34.1821E-03,   3.75945E-03,   205.085E-06
C:/temp/dataset/0/7_3.odb,Step-1,Increment      1: Step Time =    1.000,"PART-1-1",           474,      -9.85821,      -9.77933,            0.,NA,NA,"",   33.3966E-03,  -33.3495E-03,  -1.77359E-03,   142.545E-06
C:/temp/dataset/0/7_3.odb,Step-1,Increment      1: Step Time =    1.000,"PART-1-1",           475,      -8.48236,      -17.0363,            0.,NA,NA,"",   18.2286E-03,  -18.2182E-03,   615.489E-06,   195.408E-06
C:/temp/dataset/0/7_3.odb,Step-1,Increment      1: Step Time =    1.000,"PART-1-1",           476,      -7.28434,      -15.4580,            0.,NA,NA,"",   21.3242E-03,  -21.1468E-03,   2.74507E-03,   324.696E-06
C:/temp/dataset/0/7_3.odb,Step-1,Increment      1: Step Time =    1.000,"PART-1-1",           477,      -9.76451,      -15.7083,            0.,NA,NA,"",   20.6726E-03,  -20.6258E-03,  -1.38991E-03,   152.868E-06
C:/temp/dataset/0/7_3.odb,Step-1,Increment      1: Step Time =    1.000,"PART-1-1",           478,      -8.29054,      -19.6175,            0.,NA,NA,"",   14.3747E-03,  -14.3564E-03,   724.653E-06,   110.587E-06
C:/temp/dataset/0/7_3.odb,Step-1,Increment      1: Step Time =    1.000,"PART-1-1",           479,      -7.20240,      -18.2338,            0.,NA,NA,"",   16.4387E-03,  -16.2962E-03,   2.15967E-03,   269.097E-06
C:/temp/dataset/0/7_3.odb,Step-1,Increment      1: Step Time =    1.000,"PART-1-1",           480,      -9.57051,      -18.4200,            0.,NA,NA,"",   16.0721E-03,  -16.0476E-03,  -888.595E-06,   132.145E-06
C:/temp/dataset/0/7_3.odb,Step-1,Increment      1: Step Time =    1.000,"PART-1-1",           481,      -11.5327,      -24.2644,            0.,NA,NA,"",   8.50230E-03,  -8.23954E-03,  -2.09739E-03,   507.035E-06
C:/temp/dataset/0/7_3.odb,Step-1,Increment      1: Step Time =    1.000,"PART-1-1",           482,      -10.1789,      -23.4859,            0.,NA,NA,"",   9.39929E-03,  -9.33171E-03,  -1.12510E-03,   398.869E-06
C:/temp/dataset/0/7_3.odb,Step-1,Increment      1: Step Time =    1.000,"PART-1-1",           483,      -10.8627,      -21.7859,            0.,NA,NA,"",   11.7158E-03,  -11.5373E-03,  -2.03683E-03,   257.401E-06
C:/temp/dataset/0/7_3.odb,Step-1,Increment      1: Step Time =    1.000,"PART-1-1",           484,      -12.2165,      -22.5644,            0.,NA,NA,"",   11.1178E-03,  -10.6068E-03,  -3.33192E-03,   433.783E-06
C:/temp/dataset/0/7_3.odb,Step-1,Increment      1: Step Time =    1.000,"PART-1-1",           485,      -6.15301,      -21.8453,            0.,NA,NA,"",   12.7268E-03,  -12.6041E-03,   1.76245E-03,   868.355E-06
C:/temp/dataset/0/7_3.odb,Step-1,Increment      1: Step Time =    1.000,"PART-1-1",           486,      -7.48433,      -22.7723,            0.,NA,NA,"",   10.9724E-03,  -10.9439E-03,   791.252E-06,   629.019E-06
C:/temp/dataset/0/7_3.odb,Step-1,Increment      1: Step Time =    1.000,"PART-1-1",           487,      -6.61766,      -24.1583,            0.,NA,NA,"",   9.66719E-03,  -9.64625E-03,   636.038E-06,   979.565E-06
C:/temp/dataset/0/7_3.odb,Step-1,Increment      1: Step Time =    1.000,"PART-1-1",           488,      -9.30746,      -21.9937,            0.,NA,NA,"",   11.3613E-03,  -11.3529E-03,  -438.304E-06,   234.779E-06
C:/temp/dataset/0/7_3.odb,Step-1,Increment      1: Step Time =    1.000,"PART-1-1",           489,      -9.12330,      -20.5212,            0.,NA,NA,"",   13.1725E-03,  -13.1701E-03,  -248.971E-06,   119.025E-06
C:/temp/dataset/0/7_3.odb,Step-1,Increment      1: Step Time =    1.000,"PART-1-1",           490,      -10.6786,      -20.3134,            0.,NA,NA,"",   13.6171E-03,  -13.4550E-03,  -2.09508E-03,   213.833E-06
C:/temp/dataset/0/7_3.odb,Step-1,Increment      1: Step Time =    1.000,"PART-1-1",           491,         -13.5,          -30.,            0.,NA,NA,"",            0.,  -284.043E-42,  -2.04107E-39,   1.45525E-03
C:/temp/dataset/0/7_3.odb,Step-1,Increment      1: Step Time =    1.000,"PART-1-1",           492,      -12.0973,      -28.5120,            0.,NA,NA,"",   1.98923E-03,  -1.86566E-03,  -690.165E-06,   922.761E-06
C:/temp/dataset/0/7_3.odb,Step-1,Increment      1: Step Time =    1.000,"PART-1-1",           493,      -13.5973,      -27.0120,            0.,NA,NA,"",   5.05025E-03,  -4.45959E-03,  -2.37003E-03,   896.038E-06
C:/temp/dataset/0/7_3.odb,Step-1,Increment      1: Step Time =    1.000,"PART-1-1",           494,          -15.,         -28.5,            0.,NA,NA,"",   3.59678E-03,  -2.78954E-03,  -2.27053E-03,   1.52407E-03
C:/temp/dataset/0/7_3.odb,Step-1,Increment      1: Step Time =    1.000,"PART-1-1",           495,      -2.59553,      -21.0976,            0.,NA,NA,"",   15.5581E-03,  -15.5140E-03,   1.17056E-03,   987.872E-06
C:/temp/dataset/0/7_3.odb,Step-1,Increment      1: Step Time =    1.000,"PART-1-1",           496,      -1.51596,      -22.2324,            0.,NA,NA,"",   15.7981E-03,  -15.7979E-03,   81.8995E-06,   1.52681E-03
C:/temp/dataset/0/7_3.odb,Step-1,Increment      1: Step Time =    1.000,"PART-1-1",           497,  -170.430E-03,      -21.1349,            0.,NA,NA,"",   18.0254E-03,  -18.0252E-03,  -82.2946E-06,   1.60347E-03
C:/temp/dataset/0/7_3.odb,Step-1,Increment      1: Step Time =    1.000,"PART-1-1",           498,         -1.25,          -20.,            0.,NA,NA,"",   16.7980E-03,  -16.7642E-03,   1.06564E-03,   1.25904E-03
C:/temp/dataset/0/7_3.odb,Step-1,Increment      1: Step Time =    1.000,"PART-1-1",           499,       2.92795,      -28.2085,            0.,NA,NA,"",   4.91569E-03,  -4.78328E-03,  -1.13320E-03,   1.99151E-03
C:/temp/dataset/0/7_3.odb,Step-1,Increment      1: Step Time =    1.000,"PART-1-1",           500,  -103.307E-03,      -28.5907,            0.,NA,NA,"",   3.81957E-03,  -3.76753E-03,  -628.353E-06,   1.84602E-03
C:/temp/dataset/0/7_3.odb,Step-1,Increment      1: Step Time =    1.000,"PART-1-1",           501,           1.5,          -30.,            0.,NA,NA,"",            0.,  -2.10201E-39,  -1.62636E-39,   1.85389E-03
C:/temp/dataset/0/7_3.odb,Step-1,Increment      1: Step Time =    1.000,"PART-1-1",           502,       2.19497,      -21.2732,            0.,NA,NA,"",   22.5599E-03,  -22.4410E-03,  -2.31315E-03,   2.58200E-03
C:/temp/dataset/0/7_3.odb,Step-1,Increment      1: Step Time =    1.000,"PART-1-1",           503,          1.25,          -20.,            0.,NA,NA,"",   20.1546E-03,  -20.1546E-03,   26.4522E-06,   2.27279E-03
C:/temp/dataset/0/7_3.odb,Step-1,Increment      1: Step Time =    1.000,"PART-1-1",           504,       4.38160,      -21.6436,            0.,NA,NA,"",   26.2413E-03,  -25.7535E-03,  -5.03596E-03,   3.75511E-03
C:/temp/dataset/0/7_3.odb,Step-1,Increment      1: Step Time =    1.000,"PART-1-1",           505,          3.75,          -20.,            0.,NA,NA,"",   28.0695E-03,  -27.9602E-03,  -2.47454E-03,   4.93541E-03
C:/temp/dataset/0/7_3.odb,Step-1,Increment      1: Step Time =    1.000,"PART-1-1",           506,       12.4146,      -26.3616,            0.,NA,NA,"",   13.6775E-03,  -12.0803E-03,   6.41407E-03,   2.36241E-03
C:/temp/dataset/0/7_3.odb,Step-1,Increment      1: Step Time =    1.000,"PART-1-1",           507,       11.3720,      -25.0651,            0.,NA,NA,"",   18.6495E-03,  -17.7779E-03,   5.63463E-03,   2.35352E-03
C:/temp/dataset/0/7_3.odb,Step-1,Increment      1: Step Time =    1.000,"PART-1-1",           508,       9.80011,      -26.1459,            0.,NA,NA,"",   11.6336E-03,  -11.5135E-03,   1.66734E-03,   2.03398E-03
C:/temp/dataset/0/7_3.odb,Step-1,Increment      1: Step Time =    1.000,"PART-1-1",           509,       10.8427,      -27.4423,            0.,NA,NA,"",   7.02594E-03,  -6.71019E-03,   2.08257E-03,   1.96150E-03
C:/temp/dataset/0/7_3.odb,Step-1,Increment      1: Step Time =    1.000,"PART-1-1",           510,       10.6574,      -21.6616,            0.,NA,NA,"",   39.0149E-03,  -38.0666E-03,   8.54973E-03,   3.63689E-03
C:/temp/dataset/0/7_3.odb,Step-1,Increment      1: Step Time =    1.000,"PART-1-1",           511,       9.56375,      -20.8051,            0.,NA,NA,"",   41.8403E-03,  -41.2423E-03,   7.04850E-03,   3.81834E-03
C:/temp/dataset/0/7_3.odb,Step-1,Increment      1: Step Time =    1.000,"PART-1-1",           512,       9.91066,      -22.7482,            0.,NA,NA,"",   29.9347E-03,  -29.5241E-03,   4.94121E-03,   3.17191E-03
C:/temp/dataset/0/7_3.odb,Step-1,Increment      1: Step Time =    1.000,"PART-1-1",           513,       13.7822,      -25.0807,            0.,NA,NA,"",   24.5438E-03,  -20.1957E-03,   13.9474E-03,   2.66141E-03
C:/temp/dataset/0/7_3.odb,Step-1,Increment      1: Step Time =    1.000,"PART-1-1",           514,       13.6324,      -27.5308,            0.,NA,NA,"",   10.6137E-03,  -8.15617E-03,   6.79176E-03,   3.32996E-03
C:/temp/dataset/0/7_3.odb,Step-1,Increment      1: Step Time =    1.000,"PART-1-1",           515,           15.,        -26.25,            0.,NA,NA,"",   22.7974E-03,  -16.1085E-03,   16.1319E-03,   3.93107E-03
C:/temp/dataset/0/7_3.odb,Step-1,Increment      1: Step Time =    1.000,"PART-1-1",           516,          13.5,          -30.,            0.,NA,NA,"",            0.,  -284.932E-42,   6.42527E-39,   3.79163E-03
C:/temp/dataset/0/7_3.odb,Step-1,Increment      1: Step Time =    1.000,"PART-1-1",           517,           15.,        -28.75,            0.,NA,NA,"",   8.28525E-03,  -5.82345E-03,   5.89345E-03,   5.06338E-03
C:/temp/dataset/0/7_3.odb,Step-1,Increment      1: Step Time =    1.000,"PART-1-1",           518,       12.1324,      -28.7808,            0.,NA,NA,"",   3.05528E-03,  -2.47111E-03,   1.79675E-03,   2.08737E-03
C:/temp/dataset/0/7_3.odb,Step-1,Increment      1: Step Time =    1.000,"PART-1-1",           519,       10.4418,      -23.8774,            0.,NA,NA,"",   24.0359E-03,  -23.5545E-03,   4.78664E-03,   2.79870E-03
C:/temp/dataset/0/7_3.odb,Step-1,Increment      1: Step Time =    1.000,"PART-1-1",           520,       12.6627,      -23.9582,            0.,NA,NA,"",   28.2199E-03,  -25.9029E-03,   11.1982E-03,   2.68027E-03
C:/temp/dataset/0/7_3.odb,Step-1,Increment      1: Step Time =    1.000,"PART-1-1",           521,       11.7324,      -22.7705,            0.,NA,NA,"",   34.0801E-03,  -32.6247E-03,   9.85302E-03,   3.28776E-03
C:/temp/dataset/0/7_3.odb,Step-1,Increment      1: Step Time =    1.000,"PART-1-1",           522,       13.8804,      -22.6275,            0.,NA,NA,"",   42.1268E-03,  -37.6519E-03,   18.8945E-03,   3.11028E-03
C:/temp/dataset/0/7_3.odb,Step-1,Increment      1: Step Time =    1.000,"PART-1-1",           523,           15.,        -23.75,            0.,NA,NA,"",   38.4359E-03,  -29.8721E-03,   24.1864E-03,   3.00056E-03
C:/temp/dataset/0/7_3.odb,Step-1,Increment      1: Step Time =    1.000,"PART-1-1",           524,       10.4567,      -19.3679,            0.,NA,NA,"",   54.4279E-03,  -53.0757E-03,   12.0567E-03,   3.62032E-03
C:/temp/dataset/0/7_3.odb,Step-1,Increment      1: Step Time =    1.000,"PART-1-1",           525,       11.6911,      -20.4036,            0.,NA,NA,"",   51.2750E-03,  -49.3255E-03,   14.0040E-03,   3.92167E-03
C:/temp/dataset/0/7_3.odb,Step-1,Increment      1: Step Time =    1.000,"PART-1-1",           526,       13.7764,      -15.1383,            0.,NA,NA,"",   83.8990E-03,  -79.1585E-03,   27.8023E-03,   1.66583E-03
C:/temp/dataset/0/7_3.odb,Step-1,Increment      1: Step Time =    1.000,"PART-1-1",           527,           15.,        -16.25,            0.,NA,NA,"",   85.1133E-03,  -79.4717E-03,   30.4717E-03,   2.49516E-03
C:/temp/dataset/0/7_3.odb,Step-1,Increment      1: Step Time =    1.000,"PART-1-1",           528,       13.9082,      -7.52913,            0.,NA,NA,"",   99.1174E-03,  -96.1003E-03,   24.2689E-03,   562.208E-06
C:/temp/dataset/0/7_3.odb,Step-1,Increment      1: Step Time =    1.000,"PART-1-1",           529,       12.6962,      -8.81215,            0.,NA,NA,"",   96.0282E-03,  -93.4550E-03,   22.0816E-03,   443.910E-06
C:/temp/dataset/0/7_3.odb,Step-1,Increment      1: Step Time =    1.000,"PART-1-1",           530,           15.,         -8.75,            0.,NA,NA,"",   96.9710E-03,  -93.0109E-03,   27.4292E-03,   676.203E-06
C:/temp/dataset/0/7_3.odb,Step-1,Increment      1: Step Time =    1.000,"PART-1-1",           531,       12.9315,      -6.39763,            0.,NA,NA,"",   101.057E-03,  -98.7042E-03,   21.6808E-03,   418.329E-06
C:/temp/dataset/0/7_3.odb,Step-1,Increment      1: Step Time =    1.000,"PART-1-1",           532,           15.,         -6.25,            0.,NA,NA,"",   101.824E-03,  -98.4862E-03,   25.8565E-03,   693.877E-06
C:/temp/dataset/0/7_3.odb,Step-1,Increment      1: Step Time =    1.000,"PART-1-1",           533,       13.7496,  -319.059E-03,            0.,NA,NA,"",   110.390E-03,  -108.408E-03,   20.8258E-03,   404.149E-06
C:/temp/dataset/0/7_3.odb,Step-1,Increment      1: Step Time =    1.000,"PART-1-1",           534,       12.6614,      -1.81770,            0.,NA,NA,"",   108.383E-03,  -106.574E-03,   19.7142E-03,   315.185E-06
C:/temp/dataset/0/7_3.odb,Step-1,Increment      1: Step Time =    1.000,"PART-1-1",           535,           15.,         -1.25,            0.,NA,NA,"",   109.342E-03,  -106.907E-03,   22.9429E-03,   578.284E-06
C:/temp/dataset/0/7_3.odb,Step-1,Increment      1: Step Time =    1.000,"PART-1-1",           536,       12.4054,   643.186E-03,            0.,NA,NA,"",   111.347E-03,  -109.755E-03,   18.7635E-03,   255.078E-06
C:/temp/dataset/0/7_3.odb,Step-1,Increment      1: Step Time =    1.000,"PART-1-1",           537,           15.,          1.25,            0.,NA,NA,"",   112.141E-03,  -110.016E-03,   21.7303E-03,   501.901E-06
C:/temp/dataset/0/7_3.odb,Step-1,Increment      1: Step Time =    1.000,"PART-1-1",           538,           15.,          6.25,            0.,NA,NA,"",   116.201E-03,  -114.497E-03,   19.8312E-03,   345.516E-06
C:/temp/dataset/0/7_3.odb,Step-1,Increment      1: Step Time =    1.000,"PART-1-1",           539,       10.9661,       10.0010,            0.,NA,NA,"",   118.067E-03,  -116.908E-03,   16.5039E-03,   127.436E-06
C:/temp/dataset/0/7_3.odb,Step-1,Increment      1: Step Time =    1.000,"PART-1-1",           540,       13.7311,       15.1467,            0.,NA,NA,"",   120.018E-03,  -118.699E-03,   17.7448E-03,   70.2465E-06
C:/temp/dataset/0/7_3.odb,Step-1,Increment      1: Step Time =    1.000,"PART-1-1",           541,       13.6638,       12.5861,            0.,NA,NA,"",   119.210E-03,  -117.863E-03,   17.8711E-03,   115.042E-06
C:/temp/dataset/0/7_3.odb,Step-1,Increment      1: Step Time =    1.000,"PART-1-1",           542,           15.,         13.75,            0.,NA,NA,"",   119.619E-03,  -118.210E-03,   18.3053E-03,   104.685E-06
C:/temp/dataset/0/7_3.odb,Step-1,Increment      1: Step Time =    1.000,"PART-1-1",           543,       10.0887,       16.9483,            0.,NA,NA,"",   120.258E-03,  -119.170E-03,   16.1399E-03,   142.380E-06
C:/temp/dataset/0/7_3.odb,Step-1,Increment      1: Step Time =    1.000,"PART-1-1",           544,       12.5455,       16.5489,            0.,NA,NA,"",   120.350E-03,  -119.110E-03,   17.2340E-03,   99.6383E-06
C:/temp/dataset/0/7_3.odb,Step-1,Increment      1: Step Time =    1.000,"PART-1-1",           545,       13.9423,       22.5670,            0.,NA,NA,"",   122.489E-03,  -121.155E-03,   18.0307E-03,   71.3334E-06
C:/temp/dataset/0/7_3.odb,Step-1,Increment      1: Step Time =    1.000,"PART-1-1",           546,       12.8310,       21.4264,            0.,NA,NA,"",   121.927E-03,  -120.662E-03,   17.5235E-03,   58.5227E-06
C:/temp/dataset/0/7_3.odb,Step-1,Increment      1: Step Time =    1.000,"PART-1-1",           547,           15.,         21.25,            0.,NA,NA,"",   122.058E-03,  -120.669E-03,   18.3594E-03,   79.3319E-06
C:/temp/dataset/0/7_3.odb,Step-1,Increment      1: Step Time =    1.000,"PART-1-1",           548,       13.0804,       28.7387,            0.,NA,NA,"",   125.255E-03,  -123.975E-03,   17.8616E-03,   20.0031E-06
C:/temp/dataset/0/7_3.odb,Step-1,Increment      1: Step Time =    1.000,"PART-1-1",           549,       12.1875,           30.,            0.,NA,NA,"",   125.755E-03,  -124.533E-03,   17.4844E-03,   20.0577E-06
C:/temp/dataset/0/7_3.odb,Step-1,Increment      1: Step Time =    1.000,"PART-1-1",           550,           15.,         28.75,            0.,NA,NA,"",   125.378E-03,  -123.977E-03,   18.6934E-03,   3.36361E-06
C:/temp/dataset/0/7_3.odb,Step-1,Increment      1: Step Time =    1.000,"PART-1-1",           551,       14.0625,           30.,            0.,NA,NA,"",   125.861E-03,  -124.526E-03,   18.2824E-03,   3.11769E-06
C:/temp/dataset/0/7_3.odb,Step-1,Increment      1: Step Time =    1.000,"PART-1-1",           552,       8.83353,       26.4105,            0.,NA,NA,"",   123.945E-03,  -122.883E-03,   16.1888E-03,   105.358E-06
C:/temp/dataset/0/7_3.odb,Step-1,Increment      1: Step Time =    1.000,"PART-1-1",           553,       9.77062,       25.1982,            0.,NA,NA,"",   123.352E-03,  -122.241E-03,   16.5220E-03,   104.023E-06
C:/temp/dataset/0/7_3.odb,Step-1,Increment      1: Step Time =    1.000,"PART-1-1",           554,       5.62710,       27.7270,            0.,NA,NA,"",   124.683E-03,  -123.800E-03,   14.8157E-03,   146.348E-06
C:/temp/dataset/0/7_3.odb,Step-1,Increment      1: Step Time =    1.000,"PART-1-1",           555,          6.25,           30.,            0.,NA,NA,"",   125.897E-03,  -125.004E-03,   14.9662E-03,   186.162E-06
C:/temp/dataset/0/7_3.odb,Step-1,Increment      1: Step Time =    1.000,"PART-1-1",           556,   375.256E-03,       24.5574,            0.,NA,NA,"",   121.965E-03,  -121.412E-03,   11.6024E-03,   125.576E-06
C:/temp/dataset/0/7_3.odb,Step-1,Increment      1: Step Time =    1.000,"PART-1-1",           557,   860.838E-03,       23.0169,            0.,NA,NA,"",   120.630E-03,  -120.041E-03,   11.9081E-03,   230.230E-06
C:/temp/dataset/0/7_3.odb,Step-1,Increment      1: Step Time =    1.000,"PART-1-1",           558,       10.5910,       21.6677,            0.,NA,NA,"",   121.779E-03,  -120.637E-03,   16.6381E-03,   88.1692E-06
C:/temp/dataset/0/7_3.odb,Step-1,Increment      1: Step Time =    1.000,"PART-1-1",           559,       9.14786,      -24.5495,            0.,NA,NA,"",   18.5664E-03,  -18.5008E-03,   1.55896E-03,   2.28691E-03
C:/temp/dataset/0/7_3.odb,Step-1,Increment      1: Step Time =    1.000,"PART-1-1",           560,           15.,        -21.25,            0.,NA,NA,"",   60.2785E-03,  -52.6240E-03,   29.3974E-03,   2.96772E-03
C:/temp/dataset/0/7_3.odb,Step-1,Increment      1: Step Time =    1.000,"PART-1-1",           561,       12.7662,      -21.5126,            0.,NA,NA,"",   46.8449E-03,  -44.0742E-03,   15.8717E-03,   3.80446E-03
C:/temp/dataset/0/7_3.odb,Step-1,Increment      1: Step Time =    1.000,"PART-1-1",           562,           15.,        -13.75,            0.,NA,NA,"",   85.9980E-03,  -80.7764E-03,   29.5099E-03,   458.983E-06
C:/temp/dataset/0/7_3.odb,Step-1,Increment      1: Step Time =    1.000,"PART-1-1",           563,       12.5272,      -13.9788,            0.,NA,NA,"",   84.0915E-03,  -80.6395E-03,   23.8465E-03,   861.699E-06
C:/temp/dataset/0/7_3.odb,Step-1,Increment      1: Step Time =    1.000,"PART-1-1",           564,           15.,         11.25,            0.,NA,NA,"",   118.726E-03,  -117.255E-03,   18.6342E-03,   186.700E-06
C:/temp/dataset/0/7_3.odb,Step-1,Increment      1: Step Time =    1.000,"PART-1-1",           565,       12.2906,       11.3331,            0.,NA,NA,"",   118.703E-03,  -117.442E-03,   17.2588E-03,   132.102E-06
C:/temp/dataset/0/7_3.odb,Step-1,Increment      1: Step Time =    1.000,"PART-1-1",           566,       7.23650,       5.28124,            0.,NA,NA,"",   114.725E-03,  -113.969E-03,   13.1529E-03,   283.323E-06
C:/temp/dataset/0/7_3.odb,Step-1,Increment      1: Step Time =    1.000,"PART-1-1",           567,       8.44697,       3.91887,            0.,NA,NA,"",   113.878E-03,  -113.009E-03,   14.0428E-03,   216.051E-06
C:/temp/dataset/0/7_3.odb,Step-1,Increment      1: Step Time =    1.000,"PART-1-1",           568,       9.72373,       11.4508,            0.,NA,NA,"",   118.552E-03,  -117.500E-03,   15.7555E-03,   146.655E-06
C:/temp/dataset/0/7_3.odb,Step-1,Increment      1: Step Time =    1.000,"PART-1-1",           569,           15.,         16.25,            0.,NA,NA,"",   120.394E-03,  -119.016E-03,   18.1629E-03,   24.0906E-06
C:/temp/dataset/0/7_3.odb,Step-1,Increment      1: Step Time =    1.000,"PART-1-1",           570,       6.21850,       16.4100,            0.,NA,NA,"",   119.760E-03,  -118.880E-03,   14.4890E-03,   106.262E-06
C:/temp/dataset/0/7_3.odb,Step-1,Increment      1: Step Time =    1.000,"PART-1-1",           571,       7.58992,       17.5073,            0.,NA,NA,"",   120.129E-03,  -119.181E-03,   15.0626E-03,   140.900E-06
C:/temp/dataset/0/7_3.odb,Step-1,Increment      1: Step Time =    1.000,"PART-1-1",           572,       6.37141,       19.4306,            0.,NA,NA,"",   120.336E-03,  -119.433E-03,   14.7073E-03,   216.885E-06
C:/temp/dataset/0/7_3.odb,Step-1,Increment      1: Step Time =    1.000,"PART-1-1",           573,            5.,       18.3333,            0.,NA,NA,"",   120.125E-03,  -119.271E-03,   14.3007E-03,   96.0607E-06
C:/temp/dataset/0/7_3.odb,Step-1,Increment      1: Step Time =    1.000,"PART-1-1",           574,           15.,         23.75,            0.,NA,NA,"",   123.103E-03,  -121.697E-03,   18.5479E-03,   69.4347E-06
C:/temp/dataset/0/7_3.odb,Step-1,Increment      1: Step Time =    1.000,"PART-1-1",           575,         -3.75,          -20.,            0.,NA,NA,"",   14.8792E-03,  -14.7378E-03,   2.04615E-03,   615.827E-06
C:/temp/dataset/0/7_3.odb,Step-1,Increment      1: Step Time =    1.000,"PART-1-1",           576,      -5.05545,      -21.0122,            0.,NA,NA,"",   14.1944E-03,  -13.9769E-03,   2.47495E-03,   946.680E-06
C:/temp/dataset/0/7_3.odb,Step-1,Increment      1: Step Time =    1.000,"PART-1-1",           577,       7.51719,       25.3425,            0.,NA,NA,"",   123.264E-03,  -122.265E-03,   15.6607E-03,   130.265E-06
C:/temp/dataset/0/7_3.odb,Step-1,Increment      1: Step Time =    1.000,"PART-1-1",           578,       6.22510,       24.4051,            0.,NA,NA,"",   122.580E-03,  -121.646E-03,   15.1074E-03,   145.913E-06
C:/temp/dataset/0/7_3.odb,Step-1,Increment      1: Step Time =    1.000,"PART-1-1",           579,       7.27278,       23.2327,            0.,NA,NA,"",   122.026E-03,  -121.041E-03,   15.4714E-03,   153.969E-06
C:/temp/dataset/0/7_3.odb,Step-1,Increment      1: Step Time =    1.000,"PART-1-1",           580,       8.56487,       24.1701,            0.,NA,NA,"",   122.698E-03,  -121.647E-03,   16.0231E-03,   121.395E-06
C:/temp/dataset/0/7_3.odb,Step-1,Increment      1: Step Time =    1.000,"PART-1-1",           581,            5.,      -8.33333,            0.,NA,NA,"",   94.0494E-03,  -93.9996E-03,   3.06269E-03,   966.778E-06
C:/temp/dataset/0/7_3.odb,Step-1,Increment      1: Step Time =    1.000,"PART-1-1",           582,       7.86568,      -7.92961,            0.,NA,NA,"",   96.2792E-03,  -95.7367E-03,   10.2070E-03,   412.449E-06
C:/temp/dataset/0/7_3.odb,Step-1,Increment      1: Step Time =    1.000,"PART-1-1",           583,       6.55300,      -6.36051,            0.,NA,NA,"",   99.0264E-03,  -98.7134E-03,   7.86691E-03,   588.619E-06
C:/temp/dataset/0/7_3.odb,Step-1,Increment      1: Step Time =    1.000,"PART-1-1",           584,       2.48006,       24.7002,            0.,NA,NA,"",   122.373E-03,  -121.665E-03,   13.1398E-03,   126.429E-06
C:/temp/dataset/0/7_3.odb,Step-1,Increment      1: Step Time =    1.000,"PART-1-1",           585,       1.90437,       23.5201,            0.,NA,NA,"",   121.307E-03,  -120.639E-03,   12.7103E-03,   168.642E-06
C:/temp/dataset/0/7_3.odb,Step-1,Increment      1: Step Time =    1.000,"PART-1-1",           586,       3.20717,       23.2686,            0.,NA,NA,"",   121.376E-03,  -120.617E-03,   13.5487E-03,   169.205E-06
C:/temp/dataset/0/7_3.odb,Step-1,Increment      1: Step Time =    1.000,"PART-1-1",           587,       3.78286,       24.4486,            0.,NA,NA,"",   122.337E-03,  -121.542E-03,   13.9238E-03,   129.835E-06
C:/temp/dataset/0/7_3.odb,Step-1,Increment      1: Step Time =    1.000,"PART-1-1",           588,   574.843E-03,       25.7278,            0.,NA,NA,"",   123.100E-03,  -122.536E-03,   11.7630E-03,   107.312E-06
C:/temp/dataset/0/7_3.odb,Step-1,Increment      1: Step Time =    1.000,"PART-1-1",           589,       1.89275,       27.1317,            0.,NA,NA,"",   124.379E-03,  -123.730E-03,   12.6943E-03,   149.554E-06
C:/temp/dataset/0/7_3.odb,Step-1,Increment      1: Step Time =    1.000,"PART-1-1",           590,   743.770E-03,       27.8321,            0.,NA,NA,"",   125.056E-03,  -124.499E-03,   11.7877E-03,   197.388E-06
C:/temp/dataset/0/7_3.odb,Step-1,Increment      1: Step Time =    1.000,"PART-1-1",           591,  -574.133E-03,       26.4282,            0.,NA,NA,"",   123.754E-03,  -123.285E-03,   10.7658E-03,   124.753E-06
C:/temp/dataset/0/7_3.odb,Step-1,Increment      1: Step Time =    1.000,"PART-1-1",           592,          1.25,           30.,            0.,NA,NA,"",   126.785E-03,  -126.223E-03,   11.9198E-03,   351.962E-06
C:/temp/dataset/0/7_3.odb,Step-1,Increment      1: Step Time =    1.000,"PART-1-1",           593,  -258.432E-03,       28.8495,            0.,NA,NA,"",   126.125E-03,  -125.659E-03,   10.8309E-03,   290.066E-06
C:/temp/dataset/0/7_3.odb,Step-1,Increment      1: Step Time =    1.000,"PART-1-1",           594,       3.99806,       26.6235,            0.,NA,NA,"",   123.959E-03,  -123.163E-03,   14.0260E-03,   132.214E-06
C:/temp/dataset/0/7_3.odb,Step-1,Increment      1: Step Time =    1.000,"PART-1-1",           595,       4.96332,       25.4314,            0.,NA,NA,"",   123.147E-03,  -122.285E-03,   14.5474E-03,   135.848E-06
C:/temp/dataset/0/7_3.odb,Step-1,Increment      1: Step Time =    1.000,"PART-1-1",           596,       6.59236,       26.5350,            0.,NA,NA,"",   123.939E-03,  -122.993E-03,   15.2847E-03,   127.764E-06
C:/temp/dataset/0/7_3.odb,Step-1,Increment      1: Step Time =    1.000,"PART-1-1",           597,          -1.5,           30.,            0.,NA,NA,"",   127.540E-03,  -127.189E-03,   9.45648E-03,   413.764E-06
C:/temp/dataset/0/7_3.odb,Step-1,Increment      1: Step Time =    1.000,"PART-1-1",           598,      -3.21021,       28.8021,            0.,NA,NA,"",   126.643E-03,  -126.405E-03,   7.75126E-03,   321.385E-06
C:/temp/dataset/0/7_3.odb,Step-1,Increment      1: Step Time =    1.000,"PART-1-1",           599,      -1.96864,       27.6516,            0.,NA,NA,"",   125.127E-03,  -124.781E-03,   9.30273E-03,   200.420E-06
C:/temp/dataset/0/7_3.odb,Step-1,Increment      1: Step Time =    1.000,"PART-1-1",           600,       2.23679,       22.3955,            0.,NA,NA,"",   120.487E-03,  -119.799E-03,   12.8579E-03,   238.820E-06
C:/temp/dataset/0/7_3.odb,Step-1,Increment      1: Step Time =    1.000,"PART-1-1",           601,       6.10470,      -23.0953,            0.,NA,NA,"",   22.3482E-03,  -22.1650E-03,  -2.85593E-03,   2.12024E-03
C:/temp/dataset/0/7_3.odb,Step-1,Increment      1: Step Time =    1.000,"PART-1-1",           602,       5.87020,      -25.1929,            0.,NA,NA,"",   14.1380E-03,  -13.9241E-03,  -2.44996E-03,   2.02736E-03
C:/temp/dataset/0/7_3.odb,Step-1,Increment      1: Step Time =    1.000,"PART-1-1",           603,       7.19944,      -25.3013,            0.,NA,NA,"",   13.9988E-03,  -13.9371E-03,  -1.31254E-03,   1.97807E-03
C:/temp/dataset/0/7_3.odb,Step-1,Increment      1: Step Time =    1.000,"PART-1-1",           604,       10.0350,      -14.2359,            0.,NA,NA,"",   80.1119E-03,  -78.5566E-03,   15.7090E-03,   708.105E-06
C:/temp/dataset/0/7_3.odb,Step-1,Increment      1: Step Time =    1.000,"PART-1-1",           605,       11.6788,      -7.40939,            0.,NA,NA,"",   98.7070E-03,  -96.8076E-03,   19.2707E-03,   282.737E-06
C:/temp/dataset/0/7_3.odb,Step-1,Increment      1: Step Time =    1.000,"PART-1-1",           606,       11.2427,      -1.09783,            0.,NA,NA,"",   109.089E-03,  -107.694E-03,   17.3917E-03,   165.437E-06
C:/temp/dataset/0/7_3.odb,Step-1,Increment      1: Step Time =    1.000,"PART-1-1",           607,       7.93860,       19.8912,            0.,NA,NA,"",   120.748E-03,  -119.763E-03,   15.3899E-03,   178.767E-06
C:/temp/dataset/0/7_3.odb,Step-1,Increment      1: Step Time =    1.000,"PART-1-1",           608,       8.98253,       18.5426,            0.,NA,NA,"",   120.552E-03,  -119.521E-03,   15.7306E-03,   150.711E-06
C:/temp/dataset/0/7_3.odb,Step-1,Increment      1: Step Time =    1.000,"PART-1-1",           609,       9.31070,       20.7205,            0.,NA,NA,"",   121.241E-03,  -120.175E-03,   16.0411E-03,   139.324E-06
C:/temp/dataset/0/7_3.odb,Step-1,Increment      1: Step Time =    1.000,"PART-1-1",           610,       3.88086,       22.5675,            0.,NA,NA,"",   121.027E-03,  -120.226E-03,   13.9068E-03,   189.340E-06
C:/temp/dataset/0/7_3.odb,Step-1,Increment      1: Step Time =    1.000,"PART-1-1",           611,       2.67965,       25.8706,            0.,NA,NA,"",   123.344E-03,  -122.629E-03,   13.2658E-03,   120.600E-06
C:/temp/dataset/0/7_3.odb,Step-1,Increment      1: Step Time =    1.000,"PART-1-1",           612,            5.,          -15.,            0.,NA,NA,"",   73.0533E-03,  -72.8989E-03,  -4.74653E-03,   1.35849E-03
C:/temp/dataset/0/7_3.odb,Step-1,Increment      1: Step Time =    1.000,"PART-1-1",           613,       6.27023,      -16.3841,            0.,NA,NA,"",   66.1003E-03,  -66.0990E-03,   406.409E-06,   959.853E-06
C:/temp/dataset/0/7_3.odb,Step-1,Increment      1: Step Time =    1.000,"PART-1-1",           614,       7.51616,      -14.5750,            0.,NA,NA,"",   76.1653E-03,  -75.8911E-03,   6.45740E-03,   715.118E-06
C:/temp/dataset/0/7_3.odb,Step-1,Increment      1: Step Time =    1.000,"PART-1-1",           615,       6.15302,       13.2331,            0.,NA,NA,"",   118.798E-03,  -117.960E-03,   14.0899E-03,   176.452E-06
C:/temp/dataset/0/7_3.odb,Step-1,Increment      1: Step Time =    1.000,"PART-1-1",           616,       7.37153,       14.6431,            0.,NA,NA,"",   119.391E-03,  -118.473E-03,   14.7789E-03,   144.360E-06
C:/temp/dataset/0/7_3.odb,Step-1,Increment      1: Step Time =    1.000,"PART-1-1",           617,            5.,           15.,            0.,NA,NA,"",   119.257E-03,  -118.439E-03,   13.9481E-03,   162.618E-06
C:/temp/dataset/0/7_3.odb,Step-1,Increment      1: Step Time =    1.000,"PART-1-1",           618,            5.,       11.6667,            0.,NA,NA,"",   118.015E-03,  -117.262E-03,   13.3090E-03,   259.608E-06
C:/temp/dataset/0/7_3.odb,Step-1,Increment      1: Step Time =    1.000,"PART-1-1",           619,       6.12690,       10.0064,            0.,NA,NA,"",   117.437E-03,  -116.661E-03,   13.4728E-03,   250.650E-06
C:/temp/dataset/0/7_3.odb,Step-1,Increment      1: Step Time =    1.000,"PART-1-1",           620,       7.27992,       11.5729,            0.,NA,NA,"",   118.313E-03,  -117.436E-03,   14.3786E-03,   183.404E-06
C:/temp/dataset/0/7_3.odb,Step-1,Increment      1: Step Time =    1.000,"PART-1-1",           621,       6.15632,   278.618E-03,            0.,NA,NA,"",   109.481E-03,  -108.990E-03,   10.3527E-03,   478.126E-06
C:/temp/dataset/0/7_3.odb,Step-1,Increment      1: Step Time =    1.000,"PART-1-1",           622,            5.,      -1.66667,            0.,NA,NA,"",   106.445E-03,  -106.158E-03,   7.80423E-03,   663.744E-06
C:/temp/dataset/0/7_3.odb,Step-1,Increment      1: Step Time =    1.000,"PART-1-1",           623,       6.25252,      -2.97068,            0.,NA,NA,"",   104.956E-03,  -104.568E-03,   9.01367E-03,   544.859E-06
C:/temp/dataset/0/7_3.odb,Step-1,Increment      1: Step Time =    1.000,"PART-1-1",           624,       7.67955,      -17.4721,            0.,NA,NA,"",   60.3296E-03,  -60.0345E-03,   5.96037E-03,   2.29830E-03
C:/temp/dataset/0/7_3.odb,Step-1,Increment      1: Step Time =    1.000,"PART-1-1",           625,            5.,      -18.3333,            0.,NA,NA,"",   53.3152E-03,  -52.7659E-03,  -7.63330E-03,   1.75701E-03
C:/temp/dataset/0/7_3.odb,Step-1,Increment      1: Step Time =    1.000,"PART-1-1",           626,       6.40932,      -19.4213,            0.,NA,NA,"",   43.1575E-03,  -43.1558E-03,   379.478E-06,   4.01722E-03
C:/temp/dataset/0/7_3.odb,Step-1,Increment      1: Step Time =    1.000,"PART-1-1",           627,      -1.73152,      -24.7018,            0.,NA,NA,"",   12.0081E-03,  -11.9934E-03,  -593.963E-06,   1.71993E-03
C:/temp/dataset/0/7_3.odb,Step-1,Increment      1: Step Time =    1.000,"PART-1-1",           628,       9.06065,      -18.5206,            0.,NA,NA,"",   56.2838E-03,  -55.5323E-03,   9.16702E-03,   3.33478E-03
C:/temp/dataset/0/7_3.odb,Step-1,Increment      1: Step Time =    1.000,"PART-1-1",           629,       8.80686,      -15.8614,            0.,NA,NA,"",   71.5623E-03,  -70.7519E-03,   10.7397E-03,   1.23688E-03
C:/temp/dataset/0/7_3.odb,Step-1,Increment      1: Step Time =    1.000,"PART-1-1",           630,       10.3171,      -8.61722,            0.,NA,NA,"",   95.6643E-03,  -94.2737E-03,   16.2519E-03,   186.315E-06
C:/temp/dataset/0/7_3.odb,Step-1,Increment      1: Step Time =    1.000,"PART-1-1",           631,       8.85917,      -9.88939,            0.,NA,NA,"",   92.0884E-03,  -91.2517E-03,   12.3854E-03,   253.192E-06
C:/temp/dataset/0/7_3.odb,Step-1,Increment      1: Step Time =    1.000,"PART-1-1",           632,       8.74431,      -12.9496,            0.,NA,NA,"",   83.3235E-03,  -82.5208E-03,   11.5379E-03,   307.578E-06
C:/temp/dataset/0/7_3.odb,Step-1,Increment      1: Step Time =    1.000,"PART-1-1",           633,       6.89786,       21.2129,            0.,NA,NA,"",   120.965E-03,  -120.014E-03,   15.1367E-03,   204.703E-06
C:/temp/dataset/0/7_3.odb,Step-1,Increment      1: Step Time =    1.000,"PART-1-1",           634,       10.2659,      -2.76771,            0.,NA,NA,"",   106.545E-03,  -105.352E-03,   15.9018E-03,   135.980E-06
C:/temp/dataset/0/7_3.odb,Step-1,Increment      1: Step Time =    1.000,"PART-1-1",           635,       7.80552,      -4.33119,            0.,NA,NA,"",   103.285E-03,  -102.674E-03,   11.2166E-03,   364.685E-06
C:/temp/dataset/0/7_3.odb,Step-1,Increment      1: Step Time =    1.000,"PART-1-1",           636,            5.,           -5.,            0.,NA,NA,"",   100.956E-03,  -100.798E-03,   5.65304E-03,   785.046E-06
C:/temp/dataset/0/7_3.odb,Step-1,Increment      1: Step Time =    1.000,"PART-1-1",           637,       7.27801,       2.13112,            0.,NA,NA,"",   111.912E-03,  -111.226E-03,   12.3705E-03,   330.140E-06
C:/temp/dataset/0/7_3.odb,Step-1,Increment      1: Step Time =    1.000,"PART-1-1",           638,       6.12168,       3.51917,            0.,NA,NA,"",   112.953E-03,  -112.357E-03,   11.5862E-03,   404.392E-06
C:/temp/dataset/0/7_3.odb,Step-1,Increment      1: Step Time =    1.000,"PART-1-1",           639,            5.,       1.66667,            0.,NA,NA,"",   110.714E-03,  -110.293E-03,   9.63881E-03,   561.279E-06
C:/temp/dataset/0/7_3.odb,Step-1,Increment      1: Step Time =    1.000,"PART-1-1",           640,            5.,            5.,            0.,NA,NA,"",   113.936E-03,  -113.388E-03,   11.1673E-03,   459.204E-06
C:/temp/dataset/0/7_3.odb,Step-1,Increment      1: Step Time =    1.000,"PART-1-1",           641,       6.11481,       6.76207,            0.,NA,NA,"",   115.547E-03,  -114.854E-03,   12.6353E-03,   328.016E-06
C:/temp/dataset/0/7_3.odb,Step-1,Increment      1: Step Time =    1.000,"PART-1-1",           642,       8.53738,       13.0133,            0.,NA,NA,"",   118.995E-03,  -118.021E-03,   15.1946E-03,   145.322E-06
C:/temp/dataset/0/7_3.odb,Step-1,Increment      1: Step Time =    1.000,"PART-1-1",           643,       8.69606,       15.9130,            0.,NA,NA,"",   119.870E-03,  -118.869E-03,   15.4534E-03,   138.448E-06
C:/temp/dataset/0/7_3.odb,Step-1,Increment      1: Step Time =    1.000,"PART-1-1",           644,       9.56938,       22.9454,            0.,NA,NA,"",   122.201E-03,  -121.105E-03,   16.3298E-03,   112.116E-06
C:/temp/dataset/0/7_3.odb,Step-1,Increment      1: Step Time =    1.000,"PART-1-1",           645,       8.28908,       21.9981,            0.,NA,NA,"",   121.575E-03,  -120.550E-03,   15.7564E-03,   148.178E-06
C:/temp/dataset/0/7_3.odb,Step-1,Increment      1: Step Time =    1.000,"PART-1-1",           646,      -3.61415,       26.3795,            0.,NA,NA,"",   123.741E-03,  -123.511E-03,   7.53722E-03,   134.133E-06
C:/temp/dataset/0/7_3.odb,Step-1,Increment      1: Step Time =    1.000,"PART-1-1",           647,      -6.18563,       28.7596,            0.,NA,NA,"",   127.192E-03,  -127.139E-03,   3.65011E-03,   290.207E-06
C:/temp/dataset/0/7_3.odb,Step-1,Increment      1: Step Time =    1.000,"PART-1-1",           648,      -4.89584,       27.5617,            0.,NA,NA,"",   125.345E-03,  -125.216E-03,   5.70473E-03,   205.079E-06
C:/temp/dataset/0/7_3.odb,Step-1,Increment      1: Step Time =    1.000,"PART-1-1",           649,          -4.5,           30.,            0.,NA,NA,"",   128.492E-03,  -128.357E-03,   5.89594E-03,   414.794E-06
C:/temp/dataset/0/7_3.odb,Step-1,Increment      1: Step Time =    1.000,"PART-1-1",           650,          -15.,          19.5,            0.,NA,NA,"",   112.593E-03,  -111.784E-03,  -13.4760E-03,   385.884E-06
C:/temp/dataset/0/7_3.odb,Step-1,Increment      1: Step Time =    1.000,"PART-1-1",           651,      -13.6835,       18.2834,            0.,NA,NA,"",   109.945E-03,  -109.390E-03,  -11.0337E-03,   287.216E-06
C:/temp/dataset/0/7_3.odb,Step-1,Increment      1: Step Time =    1.000,"PART-1-1",           652,      -12.3643,       20.0316,            0.,NA,NA,"",   113.504E-03,  -113.230E-03,  -7.88231E-03,   182.177E-06
C:/temp/dataset/0/7_3.odb,Step-1,Increment      1: Step Time =    1.000,"PART-1-1",           653,      -13.6808,       21.2481,            0.,NA,NA,"",   115.897E-03,  -115.438E-03,  -10.3132E-03,   273.763E-06
C:/temp/dataset/0/7_3.odb,Step-1,Increment      1: Step Time =    1.000,"PART-1-1",           654,      -6.08047,      -19.7739,            0.,NA,NA,"",   14.5804E-03,  -14.2997E-03,   2.84727E-03,   592.016E-06
C:/temp/dataset/0/7_3.odb,Step-1,Increment      1: Step Time =    1.000,"PART-1-1",           655,      -7.17803,      -20.6070,            0.,NA,NA,"",   13.4154E-03,  -13.3096E-03,   1.68199E-03,   353.181E-06
C:/temp/dataset/0/7_3.odb,Step-1,Increment      1: Step Time =    1.000,"PART-1-1",           656,       5.87583,      -21.1387,            0.,NA,NA,"",   30.5561E-03,  -30.4045E-03,  -3.04004E-03,   3.18310E-03
C:/temp/dataset/0/7_3.odb,Step-1,Increment      1: Step Time =    1.000,"PART-1-1",           657,       4.61047,      -23.6002,            0.,NA,NA,"",   19.6440E-03,  -19.2406E-03,  -3.96046E-03,   2.35691E-03
C:/temp/dataset/0/7_3.odb,Step-1,Increment      1: Step Time =    1.000,"PART-1-1",           658,       4.56928,      -26.4448,            0.,NA,NA,"",   9.95392E-03,  -9.69048E-03,  -2.27488E-03,   2.01301E-03
C:/temp/dataset/0/7_3.odb,Step-1,Increment      1: Step Time =    1.000,"PART-1-1",           659,       5.04464,       23.4223,            0.,NA,NA,"",   121.798E-03,  -120.927E-03,   14.5439E-03,   157.757E-06
C:/temp/dataset/0/7_3.odb,Step-1,Increment      1: Step Time =    1.000,"PART-1-1",           660,       5.88156,       22.4475,            0.,NA,NA,"",   121.351E-03,  -120.438E-03,   14.8578E-03,   184.052E-06
C:/temp/dataset/0/7_3.odb,Step-1,Increment      1: Step Time =    1.000,"PART-1-1",           661,      -1.61333,      -27.2257,            0.,NA,NA,"",   6.79805E-03,  -6.76213E-03,  -697.947E-06,   1.69265E-03
C:/temp/dataset/0/7_3.odb,Step-1,Increment      1: Step Time =    1.000,"PART-1-1",           662,      -3.01002,      -28.6350,            0.,NA,NA,"",   3.22756E-03,  -3.21443E-03,  -290.851E-06,   1.56536E-03
C:/temp/dataset/0/7_3.odb,Step-1,Increment      1: Step Time =    1.000,"PART-1-1",           663,          -1.5,          -30.,            0.,NA,NA,"",            0.,  -1.98844E-39,  -1.13315E-39,   1.75785E-03
C:/temp/dataset/0/7_3.odb,Step-1,Increment      1: Step Time =    1.000,"PART-1-1",           664,            5.,       8.33333,            0.,NA,NA,"",   116.305E-03,  -115.643E-03,   12.3906E-03,   357.360E-06
C:/temp/dataset/0/7_3.odb,Step-1,Increment      1: Step Time =    1.000,"PART-1-1",           665,       8.16766,      -19.9578,            0.,NA,NA,"",   43.7155E-03,  -43.4613E-03,   4.70758E-03,   3.83356E-03
C:/temp/dataset/0/7_3.odb,Step-1,Increment      1: Step Time =    1.000,"PART-1-1",           666,       7.85169,      -26.8977,            0.,NA,NA,"",   8.14827E-03,  -8.12894E-03,  -560.962E-06,   1.75870E-03
C:/temp/dataset/0/7_3.odb,Step-1,Increment      1: Step Time =    1.000,"PART-1-1",           667,          -4.5,          -30.,            0.,NA,NA,"",            0.,  -1.62607E-39,  -681.603E-42,   1.43234E-03
C:/temp/dataset/0/7_3.odb,Step-1,Increment      1: Step Time =    1.000,"PART-1-1",           668,      -7.38541,       11.9129,            0.,NA,NA,"",   93.6008E-03,  -93.5280E-03,   3.69213E-03,   196.231E-06
C:/temp/dataset/0/7_3.odb,Step-1,Increment      1: Step Time =    1.000,"PART-1-1",           669,      -9.84369,       11.4885,            0.,NA,NA,"",   92.5191E-03,  -92.4849E-03,  -2.51682E-03,   148.183E-06
C:/temp/dataset/0/7_3.odb,Step-1,Increment      1: Step Time =    1.000,"PART-1-1",           670,           -5.,      -18.4615,            0.,NA,NA,"",   17.0816E-03,  -16.4087E-03,   4.74736E-03,   984.933E-06
C:/temp/dataset/0/7_3.odb,Step-1,Increment      1: Step Time =    1.000,"PART-1-1",           671,      -6.12192,      -16.9214,            0.,NA,NA,"",   19.0666E-03,  -18.6259E-03,   4.07529E-03,   489.977E-06
C:/temp/dataset/0/7_3.odb,Step-1,Increment      1: Step Time =    1.000,"PART-1-1",           672,      -12.3453,      -25.6066,            0.,NA,NA,"",   6.75416E-03,  -6.36705E-03,  -2.25374E-03,   724.043E-06
C:/temp/dataset/0/7_3.odb,Step-1,Increment      1: Step Time =    1.000,"PART-1-1",           673,      -10.6437,      -26.7860,            0.,NA,NA,"",   4.65485E-03,  -4.57422E-03,  -862.626E-06,   845.377E-06
C:/temp/dataset/0/7_3.odb,Step-1,Increment      1: Step Time =    1.000,"PART-1-1",           674,      -9.83114,      -25.4438,            0.,NA,NA,"",   6.70601E-03,  -6.66594E-03,  -731.925E-06,   691.287E-06
C:/temp/dataset/0/7_3.odb,Step-1,Increment      1: Step Time =    1.000,"PART-1-1",           675,      -8.43320,      -25.2132,            0.,NA,NA,"",   7.34719E-03,  -7.34605E-03,  -129.285E-06,   793.120E-06
C:/temp/dataset/0/7_3.odb,Step-1,Increment      1: Step Time =    1.000,"PART-1-1",           676,      -9.78639,       17.5920,            0.,NA,NA,"",   108.210E-03,  -108.178E-03,  -2.62056E-03,   118.614E-06
C:/temp/dataset/0/7_3.odb,Step-1,Increment      1: Step Time =    1.000,"PART-1-1",           677,      -11.0716,       18.8358,            0.,NA,NA,"",   111.009E-03,  -110.881E-03,  -5.32674E-03,   130.311E-06
C:/temp/dataset/0/7_3.odb,Step-1,Increment      1: Step Time =    1.000,"PART-1-1",           678,      -12.3675,       17.0640,            0.,NA,NA,"",   107.090E-03,  -106.763E-03,  -8.36090E-03,   171.560E-06
C:/temp/dataset/0/7_3.odb,Step-1,Increment      1: Step Time =    1.000,"PART-1-1",           679,      -12.1189,      -19.2948,            0.,NA,NA,"",   15.6390E-03,  -15.0413E-03,  -4.28221E-03,   350.575E-06
C:/temp/dataset/0/7_3.odb,Step-1,Increment      1: Step Time =    1.000,"PART-1-1",           680,      -11.0109,      -17.4013,            0.,NA,NA,"",   18.0557E-03,  -17.7801E-03,  -3.14259E-03,   243.740E-06
C:/temp/dataset/0/7_3.odb,Step-1,Increment      1: Step Time =    1.000,"PART-1-1",           681,      -8.01079,      -21.5107,            0.,NA,NA,"",   12.1979E-03,  -12.1736E-03,   768.725E-06,   342.411E-06
C:/temp/dataset/0/7_3.odb,Step-1,Increment      1: Step Time =    1.000,"PART-1-1",           682,           4.5,          -30.,            0.,NA,NA,"",            0.,  -1.81403E-39,  -1.52180E-39,   1.66482E-03
C:/temp/dataset/0/7_3.odb,Step-1,Increment      1: Step Time =    1.000,"PART-1-1",           683,       6.14133,      -28.2363,            0.,NA,NA,"",   4.30120E-03,  -4.21835E-03,  -840.135E-06,   1.71225E-03
C:/temp/dataset/0/7_3.odb,Step-1,Increment      1: Step Time =    1.000,"PART-1-1",           684,      -9.14726,       28.6966,            0.,NA,NA,"",   127.634E-03,  -127.627E-03,  -1.31043E-03,   201.839E-06
C:/temp/dataset/0/7_3.odb,Step-1,Increment      1: Step Time =    1.000,"PART-1-1",           685,         -10.5,           30.,            0.,NA,NA,"",   130.071E-03,  -130.015E-03,  -3.81946E-03,   144.219E-06
C:/temp/dataset/0/7_3.odb,Step-1,Increment      1: Step Time =    1.000,"PART-1-1",           686,      -6.18127,      -10.8771,            0.,NA,NA,"",   31.5878E-03,  -30.9867E-03,   6.13269E-03,   310.524E-06
C:/temp/dataset/0/7_3.odb,Step-1,Increment      1: Step Time =    1.000,"PART-1-1",           687,      -6.16241,      -13.9212,            0.,NA,NA,"",   24.9300E-03,  -24.3720E-03,   5.24491E-03,   394.097E-06
C:/temp/dataset/0/7_3.odb,Step-1,Increment      1: Step Time =    1.000,"PART-1-1",           688,           -5.,      -12.3077,            0.,NA,NA,"",   29.1716E-03,  -27.9873E-03,   8.22772E-03,   461.652E-06
C:/temp/dataset/0/7_3.odb,Step-1,Increment      1: Step Time =    1.000,"PART-1-1",           689,         -10.5,          -30.,            0.,NA,NA,"",            0.,  -891.760E-42,  -1.02187E-39,   914.775E-06
C:/temp/dataset/0/7_3.odb,Step-1,Increment      1: Step Time =    1.000,"PART-1-1",           690,          -15.,          22.5,            0.,NA,NA,"",   118.211E-03,  -117.550E-03,  -12.4843E-03,   301.793E-06
C:/temp/dataset/0/7_3.odb,Step-1,Increment      1: Step Time =    1.000,"PART-1-1",           691,          -15.,          16.5,            0.,NA,NA,"",   106.104E-03,  -105.104E-03,  -14.5340E-03,   362.566E-06
C:/temp/dataset/0/7_3.odb,Step-1,Increment      1: Step Time =    1.000,"PART-1-1",           692,      -13.6840,       15.2806,            0.,NA,NA,"",   102.986E-03,  -102.318E-03,  -11.7159E-03,   238.274E-06
C:/temp/dataset/0/7_3.odb,Step-1,Increment      1: Step Time =    1.000,"PART-1-1",           693,          -15.,          13.5,            0.,NA,NA,"",   98.8343E-03,  -97.6264E-03,  -15.4042E-03,   276.888E-06
C:/temp/dataset/0/7_3.odb,Step-1,Increment      1: Step Time =    1.000,"PART-1-1",           694,      -6.20685,       4.43382,            0.,NA,NA,"",   72.7514E-03,  -72.3391E-03,   7.73423E-03,   77.6485E-06
C:/temp/dataset/0/7_3.odb,Step-1,Increment      1: Step Time =    1.000,"PART-1-1",           695,           -5.,       6.15385,            0.,NA,NA,"",   78.0220E-03,  -77.2409E-03,   11.0121E-03,   112.293E-06
C:/temp/dataset/0/7_3.odb,Step-1,Increment      1: Step Time =    1.000,"PART-1-1",           696,      -6.20051,      -1.69203,            0.,NA,NA,"",   55.3304E-03,  -54.7942E-03,   7.68447E-03,   103.598E-06
C:/temp/dataset/0/7_3.odb,Step-1,Increment      1: Step Time =    1.000,"PART-1-1",           697,      -6.19850,      -4.75722,            0.,NA,NA,"",   46.9386E-03,  -46.3584E-03,   7.35747E-03,   169.291E-06
C:/temp/dataset/0/7_3.odb,Step-1,Increment      1: Step Time =    1.000,"PART-1-1",           698,           -5.,      -3.07692,            0.,NA,NA,"",   52.1540E-03,  -51.0217E-03,   10.8084E-03,   172.547E-06
C:/temp/dataset/0/7_3.odb,Step-1,Increment      1: Step Time =    1.000,"PART-1-1",           699,      -12.3926,       7.99194,            0.,NA,NA,"",   83.1860E-03,  -82.6829E-03,  -9.13557E-03,   113.977E-06
C:/temp/dataset/0/7_3.odb,Step-1,Increment      1: Step Time =    1.000,"PART-1-1",           700,          -15.,           7.5,            0.,NA,NA,"",   82.8379E-03,  -81.2113E-03,  -16.3352E-03,   81.2790E-06
C:/temp/dataset/0/7_3.odb,Step-1,Increment      1: Step Time =    1.000,"PART-1-1",           701,      -12.4166,      -1.07984,            0.,NA,NA,"",   57.2286E-03,  -56.5454E-03,  -8.81674E-03,   153.970E-06
C:/temp/dataset/0/7_3.odb,Step-1,Increment      1: Step Time =    1.000,"PART-1-1",           702,          -15.,          -1.5,            0.,NA,NA,"",   57.7367E-03,  -55.5304E-03,  -15.8084E-03,   199.045E-06
C:/temp/dataset/0/7_3.odb,Step-1,Increment      1: Step Time =    1.000,"PART-1-1",           703,      -12.3992,      -10.1184,            0.,NA,NA,"",   33.4992E-03,  -32.6933E-03,  -7.30346E-03,   265.269E-06
C:/temp/dataset/0/7_3.odb,Step-1,Increment      1: Step Time =    1.000,"PART-1-1",           704,          -15.,         -10.5,            0.,NA,NA,"",   34.7523E-03,  -32.2178E-03,  -13.0282E-03,   477.789E-06
C:/temp/dataset/0/7_3.odb,Step-1,Increment      1: Step Time =    1.000,"PART-1-1",           705,      -6.19567,      -7.82333,            0.,NA,NA,"",   38.9664E-03,  -38.3626E-03,   6.83343E-03,   238.556E-06
C:/temp/dataset/0/7_3.odb,Step-1,Increment      1: Step Time =    1.000,"PART-1-1",           706,           -5.,      -6.15385,            0.,NA,NA,"",   43.9815E-03,  -42.7792E-03,   10.2132E-03,   266.940E-06
C:/temp/dataset/0/7_3.odb,Step-1,Increment      1: Step Time =    1.000,"PART-1-1",           707,          -15.,         -22.5,            0.,NA,NA,"",   13.1622E-03,  -11.2639E-03,  -6.80955E-03,   583.295E-06
C:/temp/dataset/0/7_3.odb,Step-1,Increment      1: Step Time =    1.000,"PART-1-1",           708,      -13.7480,      -24.0946,            0.,NA,NA,"",   9.90290E-03,  -8.85396E-03,  -4.43563E-03,   568.069E-06
C:/temp/dataset/0/7_3.odb,Step-1,Increment      1: Step Time =    1.000,"PART-1-1",           709,      -13.4685,      -20.9699,            0.,NA,NA,"",   14.0742E-03,  -12.9468E-03,  -5.51944E-03,   463.030E-06
C:/temp/dataset/0/7_3.odb,Step-1,Increment      1: Step Time =    1.000,"PART-1-1",           710,          -15.,         -25.5,            0.,NA,NA,"",   8.96450E-03,  -7.28073E-03,  -5.23003E-03,   802.505E-06
C:/temp/dataset/0/7_3.odb,Step-1,Increment      1: Step Time =    1.000,"PART-1-1",           711,           7.5,          -30.,            0.,NA,NA,"",            0.,  -1.26017E-39,  -461.609E-42,   1.20033E-03
C:/temp/dataset/0/7_3.odb,Step-1,Increment      1: Step Time =    1.000,"PART-1-1",           712,       9.21036,      -28.6615,            0.,NA,NA,"",   2.72093E-03,  -2.70793E-03,   265.668E-06,   1.39221E-03
C:/temp/dataset/0/7_3.odb,Step-1,Increment      1: Step Time =    1.000,"PART-1-1",           713,          10.5,          -30.,            0.,NA,NA,"",            0.,  -977.121E-42,   2.08908E-39,   1.21517E-03
C:/temp/dataset/0/7_3.odb,Step-1,Increment      1: Step Time =    1.000,"PART-1-1",           714,          -7.5,           30.,            0.,NA,NA,"",   129.402E-03,  -129.395E-03,   1.37515E-03,   312.211E-06
C:/temp/dataset/0/7_3.odb,Step-1,Increment      1: Step Time =    1.000,"PART-1-1",           715,          -15.,         -19.5,            0.,NA,NA,"",   17.4951E-03,  -15.3610E-03,  -8.37377E-03,   598.597E-06
C:/temp/dataset/0/7_3.odb,Step-1,Increment      1: Step Time =    1.000,"PART-1-1",           716,      -6.18713,       13.6475,            0.,NA,NA,"",   98.2511E-03,  -98.0412E-03,   6.41870E-03,   273.005E-06
C:/temp/dataset/0/7_3.odb,Step-1,Increment      1: Step Time =    1.000,"PART-1-1",           717,           -5.,       15.3846,            0.,NA,NA,"",   102.728E-03,  -102.338E-03,   8.94312E-03,   382.969E-06
C:/temp/dataset/0/7_3.odb,Step-1,Increment      1: Step Time =    1.000,"PART-1-1",           718,           -5.,       12.3077,            0.,NA,NA,"",   94.8618E-03,  -94.3493E-03,   9.84764E-03,   292.249E-06
C:/temp/dataset/0/7_3.odb,Step-1,Increment      1: Step Time =    1.000,"PART-1-1",           719,           -5.,            0.,            0.,NA,NA,"",   60.6523E-03,  -59.6206E-03,   11.1397E-03,   77.6390E-06
C:/temp/dataset/0/7_3.odb,Step-1,Increment      1: Step Time =    1.000,"PART-1-1",           720,      -6.20706,       1.36812,            0.,NA,NA,"",   63.9748E-03,  -63.4976E-03,   7.79915E-03,   56.6966E-06
C:/temp/dataset/0/7_3.odb,Step-1,Increment      1: Step Time =    1.000,"PART-1-1",           721,           -5.,       3.07692,            0.,NA,NA,"",   69.3264E-03,  -68.4145E-03,   11.2076E-03,   18.3823E-06
C:/temp/dataset/0/7_3.odb,Step-1,Increment      1: Step Time =    1.000,"PART-1-1",           722,           -5.,      -9.23077,            0.,NA,NA,"",   36.2818E-03,  -35.0540E-03,   9.35876E-03,   362.237E-06
C:/temp/dataset/0/7_3.odb,Step-1,Increment      1: Step Time =    1.000,"PART-1-1",           723,      -8.78100,      -23.2553,            0.,NA,NA,"",   9.89706E-03,  -9.89659E-03,  -96.0979E-06,   506.082E-06
C:/temp/dataset/0/7_3.odb,Step-1,Increment      1: Step Time =    1.000,"PART-1-1",           724,      -11.0900,      -14.4409,            0.,NA,NA,"",   23.4588E-03,  -23.1447E-03,  -3.82568E-03,   210.908E-06
C:/temp/dataset/0/7_3.odb,Step-1,Increment      1: Step Time =    1.000,"PART-1-1",           725,      -11.1215,      -11.4552,            0.,NA,NA,"",   29.8045E-03,  -29.4879E-03,  -4.33264E-03,   190.613E-06
C:/temp/dataset/0/7_3.odb,Step-1,Increment      1: Step Time =    1.000,"PART-1-1",           726,      -11.1359,      -8.44257,            0.,NA,NA,"",   36.9704E-03,  -36.6655E-03,  -4.73827E-03,   175.648E-06
C:/temp/dataset/0/7_3.odb,Step-1,Increment      1: Step Time =    1.000,"PART-1-1",           727,      -11.1177,       9.73479,            0.,NA,NA,"",   87.8160E-03,  -87.6278E-03,  -5.74621E-03,   125.739E-06
C:/temp/dataset/0/7_3.odb,Step-1,Increment      1: Step Time =    1.000,"PART-1-1",           728,      -11.1376,       6.69211,            0.,NA,NA,"",   79.1701E-03,  -78.9601E-03,  -5.76274E-03,   126.070E-06
C:/temp/dataset/0/7_3.odb,Step-1,Increment      1: Step Time =    1.000,"PART-1-1",           729,      -11.1470,       3.65829,            0.,NA,NA,"",   70.3972E-03,  -70.1662E-03,  -5.69788E-03,   130.277E-06
C:/temp/dataset/0/7_3.odb,Step-1,Increment      1: Step Time =    1.000,"PART-1-1",           730,           -5.,      -15.3846,            0.,NA,NA,"",   22.8074E-03,  -21.7571E-03,   6.84150E-03,   597.134E-06
C:/temp/dataset/0/7_3.odb,Step-1,Increment      1: Step Time =    1.000,"PART-1-1",           731,      -11.1521,   627.191E-03,            0.,NA,NA,"",   61.6357E-03,  -61.3841E-03,  -5.56341E-03,   138.220E-06
C:/temp/dataset/0/7_3.odb,Step-1,Increment      1: Step Time =    1.000,"PART-1-1",           732,      -11.1477,      -2.39557,            0.,NA,NA,"",   53.0536E-03,  -52.7835E-03,  -5.34674E-03,   148.925E-06
C:/temp/dataset/0/7_3.odb,Step-1,Increment      1: Step Time =    1.000,"PART-1-1",           733,      -11.1389,      -5.41444,            0.,NA,NA,"",   44.7910E-03,  -44.5039E-03,  -5.06312E-03,   161.415E-06
