ODB Name,Step,Frame,Part Instance Name,    êﬂì_ÉâÉxÉã,X,Y,Z,Section Name,Material Name,Section Point,   U-Magnitude,          U-U1,          U-U2,       S-Mises
C:/temp/dataset/0/9_24.odb,Step-1,Increment      1: Step Time =    1.000,"PART-1-1",             1,            5.,           20.,            0.,NA,NA,"",       14.5783,       14.3393,      -2.62912,   115.245E-03
C:/temp/dataset/0/9_24.odb,Step-1,Increment      1: Step Time =    1.000,"PART-1-1",             2,            0.,           20.,            0.,NA,NA,"",       14.4251,       14.1964,      -2.55846,   44.1344E-03
C:/temp/dataset/0/9_24.odb,Step-1,Increment      1: Step Time =    1.000,"PART-1-1",             3,            5.,           10.,            0.,NA,NA,"",       12.1329,       12.0710,      -1.22421,   98.7212E-03
C:/temp/dataset/0/9_24.odb,Step-1,Increment      1: Step Time =    1.000,"PART-1-1",             4,            5.,            0.,            0.,NA,NA,"",       8.08548,       8.08375,   166.946E-03,   17.9969E-03
C:/temp/dataset/0/9_24.odb,Step-1,Increment      1: Step Time =    1.000,"PART-1-1",             5,            5.,          -10.,            0.,NA,NA,"",       3.89816,       3.79527,   889.712E-03,   66.4679E-03
C:/temp/dataset/0/9_24.odb,Step-1,Increment      1: Step Time =    1.000,"PART-1-1",             6,            5.,          -20.,            0.,NA,NA,"",   627.228E-03,   528.192E-03,   338.272E-03,   169.692E-03
C:/temp/dataset/0/9_24.odb,Step-1,Increment      1: Step Time =    1.000,"PART-1-1",             7,            0.,          -20.,            0.,NA,NA,"",   299.172E-03,   298.991E-03,   10.4120E-03,   6.40577E-03
C:/temp/dataset/0/9_24.odb,Step-1,Increment      1: Step Time =    1.000,"PART-1-1",             8,           -5.,          -20.,            0.,NA,NA,"",   551.861E-03,   434.589E-03,  -340.122E-03,   162.080E-03
C:/temp/dataset/0/9_24.odb,Step-1,Increment      1: Step Time =    1.000,"PART-1-1",             9,           -5.,           20.,            0.,NA,NA,"",       13.9973,       13.8004,      -2.33945,   184.671E-03
C:/temp/dataset/0/9_24.odb,Step-1,Increment      1: Step Time =    1.000,"PART-1-1",            10,           15.,           30.,            0.,NA,NA,"",       15.7144,       15.2105,      -3.94760,   1.18913E-03
C:/temp/dataset/0/9_24.odb,Step-1,Increment      1: Step Time =    1.000,"PART-1-1",            11,           7.5,           30.,            0.,NA,NA,"",       15.4975,       15.1718,      -3.16055,   27.8537E-03
C:/temp/dataset/0/9_24.odb,Step-1,Increment      1: Step Time =    1.000,"PART-1-1",            12,            0.,           30.,            0.,NA,NA,"",       15.3292,       15.0995,      -2.64354,   18.0903E-03
C:/temp/dataset/0/9_24.odb,Step-1,Increment      1: Step Time =    1.000,"PART-1-1",            13,          -15.,           30.,            0.,NA,NA,"",       15.6644,       15.6553,  -534.160E-03,   2.05663E-03
C:/temp/dataset/0/9_24.odb,Step-1,Increment      1: Step Time =    1.000,"PART-1-1",            14,          -15.,          -30.,            0.,NA,NA,"",            0.,   46.1826E-39,   79.9658E-39,   125.858E-03
C:/temp/dataset/0/9_24.odb,Step-1,Increment      1: Step Time =    1.000,"PART-1-1",            15,           15.,          -30.,            0.,NA,NA,"",            0.,   35.2011E-39,  -65.1740E-39,   119.199E-03
C:/temp/dataset/0/9_24.odb,Step-1,Increment      1: Step Time =    1.000,"PART-1-1",            16,           15.,         -22.5,            0.,NA,NA,"",   863.721E-03,   390.639E-03,  -770.335E-03,   134.318E-03
C:/temp/dataset/0/9_24.odb,Step-1,Increment      1: Step Time =    1.000,"PART-1-1",            17,           15.,          -15.,            0.,NA,NA,"",       2.49913,       1.67451,      -1.85517,   130.348E-03
C:/temp/dataset/0/9_24.odb,Step-1,Increment      1: Step Time =    1.000,"PART-1-1",            18,           15.,          -7.5,            0.,NA,NA,"",       5.10390,       4.12897,      -3.00023,   71.7533E-03
C:/temp/dataset/0/9_24.odb,Step-1,Increment      1: Step Time =    1.000,"PART-1-1",            19,           15.,            0.,            0.,NA,NA,"",       8.27678,       7.25576,      -3.98234,   9.15320E-03
C:/temp/dataset/0/9_24.odb,Step-1,Increment      1: Step Time =    1.000,"PART-1-1",            20,           15.,           7.5,            0.,NA,NA,"",       11.4373,       10.4982,      -4.53850,   57.0022E-03
C:/temp/dataset/0/9_24.odb,Step-1,Increment      1: Step Time =    1.000,"PART-1-1",            21,           15.,           15.,            0.,NA,NA,"",       13.8478,       13.1215,      -4.42602,   97.5057E-03
C:/temp/dataset/0/9_24.odb,Step-1,Increment      1: Step Time =    1.000,"PART-1-1",            22,           15.,          22.5,            0.,NA,NA,"",       15.0241,       14.4780,      -4.01372,   46.2954E-03
C:/temp/dataset/0/9_24.odb,Step-1,Increment      1: Step Time =    1.000,"PART-1-1",            23,       3.33333,           20.,            0.,NA,NA,"",       14.5601,       14.3100,      -2.68693,   35.5922E-03
C:/temp/dataset/0/9_24.odb,Step-1,Increment      1: Step Time =    1.000,"PART-1-1",            24,       1.66667,           20.,            0.,NA,NA,"",       14.5000,       14.2583,      -2.63635,   38.5390E-03
C:/temp/dataset/0/9_24.odb,Step-1,Increment      1: Step Time =    1.000,"PART-1-1",            25,            5.,       13.3333,            0.,NA,NA,"",       13.2114,       13.0966,      -1.73731,   117.878E-03
C:/temp/dataset/0/9_24.odb,Step-1,Increment      1: Step Time =    1.000,"PART-1-1",            26,            5.,       16.6667,            0.,NA,NA,"",       14.0256,       13.8545,      -2.18403,   123.182E-03
C:/temp/dataset/0/9_24.odb,Step-1,Increment      1: Step Time =    1.000,"PART-1-1",            27,            5.,       3.33333,            0.,NA,NA,"",       9.50725,       9.50384,  -254.515E-03,   45.8084E-03
C:/temp/dataset/0/9_24.odb,Step-1,Increment      1: Step Time =    1.000,"PART-1-1",            28,            5.,       6.66667,            0.,NA,NA,"",       10.8618,       10.8376,  -724.452E-03,   70.5965E-03
C:/temp/dataset/0/9_24.odb,Step-1,Increment      1: Step Time =    1.000,"PART-1-1",            29,            5.,      -6.66667,            0.,NA,NA,"",       5.22976,       5.17389,   762.451E-03,   38.5388E-03
C:/temp/dataset/0/9_24.odb,Step-1,Increment      1: Step Time =    1.000,"PART-1-1",            30,            5.,      -3.33333,            0.,NA,NA,"",       6.64303,       6.62302,   515.214E-03,   10.1870E-03
C:/temp/dataset/0/9_24.odb,Step-1,Increment      1: Step Time =    1.000,"PART-1-1",            31,            5.,      -16.6667,            0.,NA,NA,"",       1.64784,       1.47287,   738.931E-03,   114.678E-03
C:/temp/dataset/0/9_24.odb,Step-1,Increment      1: Step Time =    1.000,"PART-1-1",            32,            5.,      -13.3333,            0.,NA,NA,"",       2.69175,       2.54509,   876.349E-03,   90.8353E-03
C:/temp/dataset/0/9_24.odb,Step-1,Increment      1: Step Time =    1.000,"PART-1-1",            33,           2.5,          -20.,            0.,NA,NA,"",   339.645E-03,   321.773E-03,   108.724E-03,   41.6721E-03
C:/temp/dataset/0/9_24.odb,Step-1,Increment      1: Step Time =    1.000,"PART-1-1",            34,          -2.5,          -20.,            0.,NA,NA,"",   318.756E-03,   303.634E-03,  -97.0119E-03,   46.7419E-03
C:/temp/dataset/0/9_24.odb,Step-1,Increment      1: Step Time =    1.000,"PART-1-1",            35,           -5.,       16.9231,            0.,NA,NA,"",       12.9770,       12.7224,      -2.55821,   94.0728E-03
C:/temp/dataset/0/9_24.odb,Step-1,Increment      1: Step Time =    1.000,"PART-1-1",            36,           -5.,       13.8462,            0.,NA,NA,"",       11.9751,       11.6874,      -2.60907,   72.9357E-03
C:/temp/dataset/0/9_24.odb,Step-1,Increment      1: Step Time =    1.000,"PART-1-1",            37,           -5.,       10.7692,            0.,NA,NA,"",       10.9083,       10.5925,      -2.60575,   59.2853E-03
C:/temp/dataset/0/9_24.odb,Step-1,Increment      1: Step Time =    1.000,"PART-1-1",            38,           -5.,       7.69231,            0.,NA,NA,"",       9.78325,       9.44818,      -2.53845,   44.3120E-03
C:/temp/dataset/0/9_24.odb,Step-1,Increment      1: Step Time =    1.000,"PART-1-1",            39,           -5.,       4.61538,            0.,NA,NA,"",       8.62120,       8.27541,      -2.41715,   29.7601E-03
C:/temp/dataset/0/9_24.odb,Step-1,Increment      1: Step Time =    1.000,"PART-1-1",            40,           -5.,       1.53846,            0.,NA,NA,"",       7.44640,       7.09811,      -2.25071,   15.2880E-03
C:/temp/dataset/0/9_24.odb,Step-1,Increment      1: Step Time =    1.000,"PART-1-1",            41,           -5.,      -1.53846,            0.,NA,NA,"",       6.28230,       5.93891,      -2.04857,   1.12343E-03
C:/temp/dataset/0/9_24.odb,Step-1,Increment      1: Step Time =    1.000,"PART-1-1",            42,           -5.,      -4.61538,            0.,NA,NA,"",       5.15190,       4.82002,      -1.81918,   13.8881E-03
C:/temp/dataset/0/9_24.odb,Step-1,Increment      1: Step Time =    1.000,"PART-1-1",            43,           -5.,      -7.69231,            0.,NA,NA,"",       4.07767,       3.76340,      -1.56978,   28.8038E-03
C:/temp/dataset/0/9_24.odb,Step-1,Increment      1: Step Time =    1.000,"PART-1-1",            44,           -5.,      -10.7692,            0.,NA,NA,"",       3.08170,       2.79123,      -1.30611,   44.7805E-03
C:/temp/dataset/0/9_24.odb,Step-1,Increment      1: Step Time =    1.000,"PART-1-1",            45,           -5.,      -13.8462,            0.,NA,NA,"",       2.18131,       1.92238,      -1.03080,   59.1177E-03
C:/temp/dataset/0/9_24.odb,Step-1,Increment      1: Step Time =    1.000,"PART-1-1",            46,           -5.,      -16.9231,            0.,NA,NA,"",       1.37636,       1.15481,  -748.862E-03,   88.1334E-03
C:/temp/dataset/0/9_24.odb,Step-1,Increment      1: Step Time =    1.000,"PART-1-1",            47,          -2.5,           20.,            0.,NA,NA,"",       14.2864,       14.0802,      -2.41805,   75.0906E-03
C:/temp/dataset/0/9_24.odb,Step-1,Increment      1: Step Time =    1.000,"PART-1-1",            48,        13.125,           30.,            0.,NA,NA,"",       15.6770,       15.2206,      -3.75514,   2.01302E-03
C:/temp/dataset/0/9_24.odb,Step-1,Increment      1: Step Time =    1.000,"PART-1-1",            49,         11.25,           30.,            0.,NA,NA,"",       15.6316,       15.2227,      -3.55216,   10.6405E-03
C:/temp/dataset/0/9_24.odb,Step-1,Increment      1: Step Time =    1.000,"PART-1-1",            50,         9.375,           30.,            0.,NA,NA,"",       15.5705,       15.2062,      -3.34846,   21.0862E-03
C:/temp/dataset/0/9_24.odb,Step-1,Increment      1: Step Time =    1.000,"PART-1-1",            51,            5.,           30.,            0.,NA,NA,"",       15.4030,       15.1172,      -2.95329,   24.2585E-03
C:/temp/dataset/0/9_24.odb,Step-1,Increment      1: Step Time =    1.000,"PART-1-1",            52,           2.5,           30.,            0.,NA,NA,"",       15.3402,       15.0841,      -2.79148,   6.79862E-03
C:/temp/dataset/0/9_24.odb,Step-1,Increment      1: Step Time =    1.000,"PART-1-1",            53,           -3.,           30.,            0.,NA,NA,"",       15.3829,       15.1913,      -2.42023,   42.5077E-03
C:/temp/dataset/0/9_24.odb,Step-1,Increment      1: Step Time =    1.000,"PART-1-1",            54,           -6.,           30.,            0.,NA,NA,"",       15.4830,       15.3418,      -2.08614,   49.0153E-03
C:/temp/dataset/0/9_24.odb,Step-1,Increment      1: Step Time =    1.000,"PART-1-1",            55,           -9.,           30.,            0.,NA,NA,"",       15.5808,       15.4961,      -1.62241,   32.8144E-03
C:/temp/dataset/0/9_24.odb,Step-1,Increment      1: Step Time =    1.000,"PART-1-1",            56,          -12.,           30.,            0.,NA,NA,"",       15.6388,       15.6016,      -1.07829,   8.53689E-03
C:/temp/dataset/0/9_24.odb,Step-1,Increment      1: Step Time =    1.000,"PART-1-1",            57,          -15.,           27.,            0.,NA,NA,"",       15.1429,       15.1351,  -484.727E-03,   8.57145E-03
C:/temp/dataset/0/9_24.odb,Step-1,Increment      1: Step Time =    1.000,"PART-1-1",            58,          -15.,           24.,            0.,NA,NA,"",       14.6397,       14.6346,  -386.424E-03,   33.8277E-03
C:/temp/dataset/0/9_24.odb,Step-1,Increment      1: Step Time =    1.000,"PART-1-1",            59,          -15.,           21.,            0.,NA,NA,"",       14.0820,       14.0804,  -207.507E-03,   54.9447E-03
C:/temp/dataset/0/9_24.odb,Step-1,Increment      1: Step Time =    1.000,"PART-1-1",            60,          -15.,           18.,            0.,NA,NA,"",       13.4030,       13.4029,   34.6207E-03,   58.3505E-03
C:/temp/dataset/0/9_24.odb,Step-1,Increment      1: Step Time =    1.000,"PART-1-1",            61,          -15.,           15.,            0.,NA,NA,"",       12.5860,       12.5824,   300.011E-03,   46.9933E-03
C:/temp/dataset/0/9_24.odb,Step-1,Increment      1: Step Time =    1.000,"PART-1-1",            62,          -15.,           12.,            0.,NA,NA,"",       11.6558,       11.6424,   560.493E-03,   30.6990E-03
C:/temp/dataset/0/9_24.odb,Step-1,Increment      1: Step Time =    1.000,"PART-1-1",            63,          -15.,            9.,            0.,NA,NA,"",       10.6456,       10.6151,   805.920E-03,   15.0051E-03
C:/temp/dataset/0/9_24.odb,Step-1,Increment      1: Step Time =    1.000,"PART-1-1",            64,          -15.,            6.,            0.,NA,NA,"",       9.58211,       9.52646,       1.03128,   931.722E-06
C:/temp/dataset/0/9_24.odb,Step-1,Increment      1: Step Time =    1.000,"PART-1-1",            65,          -15.,            3.,            0.,NA,NA,"",       8.48798,       8.39827,       1.23081,   13.9614E-03
C:/temp/dataset/0/9_24.odb,Step-1,Increment      1: Step Time =    1.000,"PART-1-1",            66,          -15.,            0.,            0.,NA,NA,"",       7.38437,       7.25101,       1.39707,   28.0705E-03
C:/temp/dataset/0/9_24.odb,Step-1,Increment      1: Step Time =    1.000,"PART-1-1",            67,          -15.,           -3.,            0.,NA,NA,"",       6.29219,       6.10549,       1.52140,   42.4321E-03
C:/temp/dataset/0/9_24.odb,Step-1,Increment      1: Step Time =    1.000,"PART-1-1",            68,          -15.,           -6.,            0.,NA,NA,"",       5.23234,       4.98355,       1.59427,   57.3675E-03
C:/temp/dataset/0/9_24.odb,Step-1,Increment      1: Step Time =    1.000,"PART-1-1",            69,          -15.,           -9.,            0.,NA,NA,"",       4.22564,       3.90875,       1.60551,   73.3119E-03
C:/temp/dataset/0/9_24.odb,Step-1,Increment      1: Step Time =    1.000,"PART-1-1",            70,          -15.,          -12.,            0.,NA,NA,"",       3.29234,       2.90778,       1.54412,   90.9875E-03
C:/temp/dataset/0/9_24.odb,Step-1,Increment      1: Step Time =    1.000,"PART-1-1",            71,          -15.,          -15.,            0.,NA,NA,"",       2.45259,       2.01474,       1.39857,   109.854E-03
C:/temp/dataset/0/9_24.odb,Step-1,Increment      1: Step Time =    1.000,"PART-1-1",            72,          -15.,          -18.,            0.,NA,NA,"",       1.72735,       1.27481,       1.16559,   124.642E-03
C:/temp/dataset/0/9_24.odb,Step-1,Increment      1: Step Time =    1.000,"PART-1-1",            73,          -15.,          -21.,            0.,NA,NA,"",       1.13740,   733.749E-03,   869.075E-03,   125.521E-03
C:/temp/dataset/0/9_24.odb,Step-1,Increment      1: Step Time =    1.000,"PART-1-1",            74,          -15.,          -24.,            0.,NA,NA,"",   684.647E-03,   389.847E-03,   562.815E-03,   113.312E-03
C:/temp/dataset/0/9_24.odb,Step-1,Increment      1: Step Time =    1.000,"PART-1-1",            75,          -15.,          -27.,            0.,NA,NA,"",   339.545E-03,   187.881E-03,   282.828E-03,   106.965E-03
C:/temp/dataset/0/9_24.odb,Step-1,Increment      1: Step Time =    1.000,"PART-1-1",            76,          -12.,          -30.,            0.,NA,NA,"",            0.,   96.6527E-39,   236.010E-39,   46.3065E-03
C:/temp/dataset/0/9_24.odb,Step-1,Increment      1: Step Time =    1.000,"PART-1-1",            77,           -9.,          -30.,            0.,NA,NA,"",            0.,  -55.6236E-39,   77.6487E-39,   17.2177E-03
C:/temp/dataset/0/9_24.odb,Step-1,Increment      1: Step Time =    1.000,"PART-1-1",            78,           -6.,          -30.,            0.,NA,NA,"",            0.,   20.5021E-39,  -2.02594E-39,   10.2116E-03
C:/temp/dataset/0/9_24.odb,Step-1,Increment      1: Step Time =    1.000,"PART-1-1",            79,           -3.,          -30.,            0.,NA,NA,"",            0.,   70.2398E-39,  -80.5591E-39,   27.8720E-03
C:/temp/dataset/0/9_24.odb,Step-1,Increment      1: Step Time =    1.000,"PART-1-1",            80,            0.,          -30.,            0.,NA,NA,"",            0.,   71.6917E-39,  -49.8544E-39,   33.9377E-03
C:/temp/dataset/0/9_24.odb,Step-1,Increment      1: Step Time =    1.000,"PART-1-1",            81,            3.,          -30.,            0.,NA,NA,"",            0.,   67.8810E-39,   98.9396E-39,   25.9098E-03
C:/temp/dataset/0/9_24.odb,Step-1,Increment      1: Step Time =    1.000,"PART-1-1",            82,            6.,          -30.,            0.,NA,NA,"",            0.,   6.07282E-39,   26.2152E-39,   6.15122E-03
C:/temp/dataset/0/9_24.odb,Step-1,Increment      1: Step Time =    1.000,"PART-1-1",            83,            9.,          -30.,            0.,NA,NA,"",            0.,  -66.9390E-39,  -88.4208E-39,   22.7236E-03
C:/temp/dataset/0/9_24.odb,Step-1,Increment      1: Step Time =    1.000,"PART-1-1",            84,           12.,          -30.,            0.,NA,NA,"",            0.,   55.9895E-39,  -245.564E-39,   50.5816E-03
C:/temp/dataset/0/9_24.odb,Step-1,Increment      1: Step Time =    1.000,"PART-1-1",            85,           15.,         -27.5,            0.,NA,NA,"",   265.715E-03,   124.126E-03,  -234.941E-03,   111.941E-03
C:/temp/dataset/0/9_24.odb,Step-1,Increment      1: Step Time =    1.000,"PART-1-1",            86,           15.,          -25.,            0.,NA,NA,"",   530.750E-03,   221.129E-03,  -482.491E-03,   117.387E-03
C:/temp/dataset/0/9_24.odb,Step-1,Increment      1: Step Time =    1.000,"PART-1-1",            87,           15.,          -20.,            0.,NA,NA,"",       1.29236,   673.098E-03,      -1.10324,   144.280E-03
C:/temp/dataset/0/9_24.odb,Step-1,Increment      1: Step Time =    1.000,"PART-1-1",            88,           15.,         -17.5,            0.,NA,NA,"",       1.83605,       1.09927,      -1.47060,   142.645E-03
C:/temp/dataset/0/9_24.odb,Step-1,Increment      1: Step Time =    1.000,"PART-1-1",            89,           15.,         -12.5,            0.,NA,NA,"",       3.27427,       2.38527,      -2.24306,   112.146E-03
C:/temp/dataset/0/9_24.odb,Step-1,Increment      1: Step Time =    1.000,"PART-1-1",            90,           15.,          -10.,            0.,NA,NA,"",       4.14784,       3.21022,      -2.62662,   92.2098E-03
C:/temp/dataset/0/9_24.odb,Step-1,Increment      1: Step Time =    1.000,"PART-1-1",            91,           15.,           -5.,            0.,NA,NA,"",       6.12439,       5.12249,      -3.35682,   51.0725E-03
C:/temp/dataset/0/9_24.odb,Step-1,Increment      1: Step Time =    1.000,"PART-1-1",            92,           15.,          -2.5,            0.,NA,NA,"",       7.18922,       6.17145,      -3.68756,   30.2804E-03
C:/temp/dataset/0/9_24.odb,Step-1,Increment      1: Step Time =    1.000,"PART-1-1",            93,           15.,           2.5,            0.,NA,NA,"",       9.36416,       8.35419,      -4.23024,   12.8219E-03
C:/temp/dataset/0/9_24.odb,Step-1,Increment      1: Step Time =    1.000,"PART-1-1",            94,           15.,            5.,            0.,NA,NA,"",       10.4268,       9.44377,      -4.41955,   34.9198E-03
C:/temp/dataset/0/9_24.odb,Step-1,Increment      1: Step Time =    1.000,"PART-1-1",            95,           15.,           10.,            0.,NA,NA,"",       12.3649,       11.4863,      -4.57764,   77.1893E-03
C:/temp/dataset/0/9_24.odb,Step-1,Increment      1: Step Time =    1.000,"PART-1-1",            96,           15.,          12.5,            0.,NA,NA,"",       13.1771,       12.3719,      -4.53570,   91.9484E-03
C:/temp/dataset/0/9_24.odb,Step-1,Increment      1: Step Time =    1.000,"PART-1-1",            97,           15.,          17.5,            0.,NA,NA,"",       14.3664,       13.7149,      -4.27717,   90.7845E-03
C:/temp/dataset/0/9_24.odb,Step-1,Increment      1: Step Time =    1.000,"PART-1-1",            98,           15.,           20.,            0.,NA,NA,"",       14.7458,       14.1563,      -4.12796,   72.1465E-03
C:/temp/dataset/0/9_24.odb,Step-1,Increment      1: Step Time =    1.000,"PART-1-1",            99,           15.,           25.,            0.,NA,NA,"",       15.2516,       14.7309,      -3.95116,   21.1919E-03
C:/temp/dataset/0/9_24.odb,Step-1,Increment      1: Step Time =    1.000,"PART-1-1",           100,           15.,          27.5,            0.,NA,NA,"",       15.4732,       14.9641,      -3.93626,   3.63476E-03
C:/temp/dataset/0/9_24.odb,Step-1,Increment      1: Step Time =    1.000,"PART-1-1",           101,       3.77421,       21.6807,            0.,NA,NA,"",       14.6404,       14.3845,      -2.72537,   50.2492E-03
C:/temp/dataset/0/9_24.odb,Step-1,Increment      1: Step Time =    1.000,"PART-1-1",           102,   339.763E-03,       22.0764,            0.,NA,NA,"",       14.5791,       14.3430,      -2.61302,   40.7531E-03
C:/temp/dataset/0/9_24.odb,Step-1,Increment      1: Step Time =    1.000,"PART-1-1",           103,       2.04677,       21.7082,            0.,NA,NA,"",       14.6037,       14.3563,      -2.67681,   30.2804E-03
C:/temp/dataset/0/9_24.odb,Step-1,Increment      1: Step Time =    1.000,"PART-1-1",           104,       11.0234,       27.4901,            0.,NA,NA,"",       15.3850,       14.9806,      -3.50433,   20.9084E-03
C:/temp/dataset/0/9_24.odb,Step-1,Increment      1: Step Time =    1.000,"PART-1-1",           105,       8.98111,       27.5559,            0.,NA,NA,"",       15.3293,       14.9756,      -3.27398,   21.5050E-03
C:/temp/dataset/0/9_24.odb,Step-1,Increment      1: Step Time =    1.000,"PART-1-1",           106,      -4.39315,       22.5924,            0.,NA,NA,"",       14.4648,       14.2757,      -2.33136,   47.9982E-03
C:/temp/dataset/0/9_24.odb,Step-1,Increment      1: Step Time =    1.000,"PART-1-1",           107,       12.7609,      -22.7550,            0.,NA,NA,"",   558.714E-03,   270.517E-03,  -488.858E-03,   82.7997E-03
C:/temp/dataset/0/9_24.odb,Step-1,Increment      1: Step Time =    1.000,"PART-1-1",           108,       12.5528,      -15.2766,            0.,NA,NA,"",       1.94167,       1.58717,      -1.11847,   72.3604E-03
C:/temp/dataset/0/9_24.odb,Step-1,Increment      1: Step Time =    1.000,"PART-1-1",           109,       12.2205,       7.28465,            0.,NA,NA,"",       11.2159,       10.6537,      -3.50613,   34.3367E-03
C:/temp/dataset/0/9_24.odb,Step-1,Increment      1: Step Time =    1.000,"PART-1-1",           110,       12.4622,       15.2934,            0.,NA,NA,"",       13.8876,       13.3534,      -3.81504,   43.4678E-03
C:/temp/dataset/0/9_24.odb,Step-1,Increment      1: Step Time =    1.000,"PART-1-1",           111,       12.8846,       22.6339,            0.,NA,NA,"",       15.0162,       14.5406,      -3.74935,   37.1855E-03
C:/temp/dataset/0/9_24.odb,Step-1,Increment      1: Step Time =    1.000,"PART-1-1",           112,  -340.860E-03,      -22.2697,            0.,NA,NA,"",   324.631E-03,   324.630E-03,  -673.579E-06,   36.5693E-03
C:/temp/dataset/0/9_24.odb,Step-1,Increment      1: Step Time =    1.000,"PART-1-1",           113,       6.83628,       27.6500,            0.,NA,NA,"",       15.2683,       14.9576,      -3.06461,   20.0280E-03
C:/temp/dataset/0/9_24.odb,Step-1,Increment      1: Step Time =    1.000,"PART-1-1",           114,       12.2535,       9.99399,            0.,NA,NA,"",       12.2694,       11.7069,      -3.67253,   37.3169E-03
C:/temp/dataset/0/9_24.odb,Step-1,Increment      1: Step Time =    1.000,"PART-1-1",           115,       12.4991,  -638.118E-03,            0.,NA,NA,"",       7.73909,       7.19708,      -2.84528,   33.3189E-03
C:/temp/dataset/0/9_24.odb,Step-1,Increment      1: Step Time =    1.000,"PART-1-1",           116,       12.8164,      -7.55827,            0.,NA,NA,"",       4.72530,       4.22722,      -2.11165,   53.2182E-03
C:/temp/dataset/0/9_24.odb,Step-1,Increment      1: Step Time =    1.000,"PART-1-1",           117,       12.7714,      -20.2702,            0.,NA,NA,"",   882.789E-03,   547.264E-03,  -692.689E-03,   83.7699E-03
C:/temp/dataset/0/9_24.odb,Step-1,Increment      1: Step Time =    1.000,"PART-1-1",           118,      -1.80101,       22.4804,            0.,NA,NA,"",       14.5443,       14.3269,      -2.50544,   58.7673E-03
C:/temp/dataset/0/9_24.odb,Step-1,Increment      1: Step Time =    1.000,"PART-1-1",           119,       4.41791,       27.8041,            0.,NA,NA,"",       15.2125,       14.9362,      -2.88632,   23.1785E-03
C:/temp/dataset/0/9_24.odb,Step-1,Increment      1: Step Time =    1.000,"PART-1-1",           120,       2.00441,       27.9652,            0.,NA,NA,"",       15.1816,       14.9299,      -2.75312,   26.3150E-03
C:/temp/dataset/0/9_24.odb,Step-1,Increment      1: Step Time =    1.000,"PART-1-1",           121,      -2.69107,      -22.1951,            0.,NA,NA,"",   342.768E-03,   329.364E-03,  -94.9176E-03,   65.8066E-03
C:/temp/dataset/0/9_24.odb,Step-1,Increment      1: Step Time =    1.000,"PART-1-1",           122,       1.88995,      -22.5465,            0.,NA,NA,"",   319.190E-03,   307.283E-03,   86.3694E-03,   58.1632E-03
C:/temp/dataset/0/9_24.odb,Step-1,Increment      1: Step Time =    1.000,"PART-1-1",           123,       3.76320,      -23.2871,            0.,NA,NA,"",   317.670E-03,   285.944E-03,   138.385E-03,   62.6063E-03
C:/temp/dataset/0/9_24.odb,Step-1,Increment      1: Step Time =    1.000,"PART-1-1",           124,       12.5645,      -25.1614,            0.,NA,NA,"",   315.647E-03,   111.407E-03,  -295.333E-03,   77.4447E-03
C:/temp/dataset/0/9_24.odb,Step-1,Increment      1: Step Time =    1.000,"PART-1-1",           125,       12.6631,      -17.7963,            0.,NA,NA,"",       1.32665,   977.893E-03,  -896.511E-03,   79.3705E-03
C:/temp/dataset/0/9_24.odb,Step-1,Increment      1: Step Time =    1.000,"PART-1-1",           126,       12.5016,      -12.6810,            0.,NA,NA,"",       2.74198,       2.36848,      -1.38157,   65.9272E-03
C:/temp/dataset/0/9_24.odb,Step-1,Increment      1: Step Time =    1.000,"PART-1-1",           127,       12.5761,      -10.0660,            0.,NA,NA,"",       3.69603,       3.27638,      -1.71054,   59.6839E-03
C:/temp/dataset/0/9_24.odb,Step-1,Increment      1: Step Time =    1.000,"PART-1-1",           128,       13.0467,      -5.23700,            0.,NA,NA,"",       5.73671,       5.16265,      -2.50137,   44.9699E-03
C:/temp/dataset/0/9_24.odb,Step-1,Increment      1: Step Time =    1.000,"PART-1-1",           129,       12.8236,      -2.99729,            0.,NA,NA,"",       6.70092,       6.13557,      -2.69390,   37.1690E-03
C:/temp/dataset/0/9_24.odb,Step-1,Increment      1: Step Time =    1.000,"PART-1-1",           130,       12.3116,       1.92449,            0.,NA,NA,"",       8.89023,       8.34814,      -3.05692,   31.4602E-03
C:/temp/dataset/0/9_24.odb,Step-1,Increment      1: Step Time =    1.000,"PART-1-1",           131,       12.2319,       4.58053,            0.,NA,NA,"",       10.0691,       9.51637,      -3.29016,   31.8487E-03
C:/temp/dataset/0/9_24.odb,Step-1,Increment      1: Step Time =    1.000,"PART-1-1",           132,       12.3276,       12.6723,            0.,NA,NA,"",       13.1723,       12.6204,      -3.77287,   40.1454E-03
C:/temp/dataset/0/9_24.odb,Step-1,Increment      1: Step Time =    1.000,"PART-1-1",           133,       12.6288,       17.8043,            0.,NA,NA,"",       14.4044,       13.8911,      -3.81109,   46.4018E-03
C:/temp/dataset/0/9_24.odb,Step-1,Increment      1: Step Time =    1.000,"PART-1-1",           134,       12.7774,       20.2190,            0.,NA,NA,"",       14.7594,       14.2667,      -3.78140,   44.1801E-03
C:/temp/dataset/0/9_24.odb,Step-1,Increment      1: Step Time =    1.000,"PART-1-1",           135,       2.42682,       23.0828,            0.,NA,NA,"",       14.7209,       14.4695,      -2.70897,   39.5504E-03
C:/temp/dataset/0/9_24.odb,Step-1,Increment      1: Step Time =    1.000,"PART-1-1",           136,       13.0358,       27.4773,            0.,NA,NA,"",       15.4333,       14.9748,      -3.73404,   13.9533E-03
C:/temp/dataset/0/9_24.odb,Step-1,Increment      1: Step Time =    1.000,"PART-1-1",           137,       10.8553,       25.1313,            0.,NA,NA,"",       15.1838,       14.7823,      -3.46837,   31.1318E-03
C:/temp/dataset/0/9_24.odb,Step-1,Increment      1: Step Time =    1.000,"PART-1-1",           138,       5.66135,       21.5046,            0.,NA,NA,"",       14.6891,       14.4275,      -2.75993,   76.3447E-03
C:/temp/dataset/0/9_24.odb,Step-1,Increment      1: Step Time =    1.000,"PART-1-1",           139,       1.38191,       23.9574,            0.,NA,NA,"",       14.7777,       14.5322,      -2.68291,   41.6451E-03
C:/temp/dataset/0/9_24.odb,Step-1,Increment      1: Step Time =    1.000,"PART-1-1",           140,       8.68595,       25.2651,            0.,NA,NA,"",       15.1269,       14.7836,      -3.20461,   30.1633E-03
C:/temp/dataset/0/9_24.odb,Step-1,Increment      1: Step Time =    1.000,"PART-1-1",           141,       12.9664,       25.0396,            0.,NA,NA,"",       15.2253,       14.7607,      -3.73223,   26.4431E-03
C:/temp/dataset/0/9_24.odb,Step-1,Increment      1: Step Time =    1.000,"PART-1-1",           142,       9.99676,      -12.8506,            0.,NA,NA,"",       2.46757,       2.39085,  -610.545E-03,   35.0347E-03
C:/temp/dataset/0/9_24.odb,Step-1,Increment      1: Step Time =    1.000,"PART-1-1",           143,       11.3735,      -5.41139,            0.,NA,NA,"",       5.50817,       5.20030,      -1.81572,   42.9209E-03
C:/temp/dataset/0/9_24.odb,Step-1,Increment      1: Step Time =    1.000,"PART-1-1",           144,       9.95511,       15.6727,            0.,NA,NA,"",       13.9420,       13.5628,      -3.22935,   17.4816E-03
C:/temp/dataset/0/9_24.odb,Step-1,Increment      1: Step Time =    1.000,"PART-1-1",           145,       9.67875,       10.0081,            0.,NA,NA,"",       12.2054,       11.8681,      -2.84962,   36.8166E-03
C:/temp/dataset/0/9_24.odb,Step-1,Increment      1: Step Time =    1.000,"PART-1-1",           146,       9.74913,       1.24671,            0.,NA,NA,"",       8.47510,       8.24603,      -1.95715,   41.6618E-03
C:/temp/dataset/0/9_24.odb,Step-1,Increment      1: Step Time =    1.000,"PART-1-1",           147,       10.3027,      -18.1986,            0.,NA,NA,"",   963.010E-03,   882.473E-03,  -385.525E-03,   31.8787E-03
C:/temp/dataset/0/9_24.odb,Step-1,Increment      1: Step Time =    1.000,"PART-1-1",           148,       1.33525,      -24.5624,            0.,NA,NA,"",   252.683E-03,   247.419E-03,   51.3077E-03,   54.9382E-03
C:/temp/dataset/0/9_24.odb,Step-1,Increment      1: Step Time =    1.000,"PART-1-1",           149,       9.11730,      -22.7103,            0.,NA,NA,"",   241.562E-03,   230.484E-03,  -72.3114E-03,   17.7711E-03
C:/temp/dataset/0/9_24.odb,Step-1,Increment      1: Step Time =    1.000,"PART-1-1",           150,       12.2648,      -27.5617,            0.,NA,NA,"",   133.253E-03,   25.1636E-03,  -130.855E-03,   68.4337E-03
C:/temp/dataset/0/9_24.odb,Step-1,Increment      1: Step Time =    1.000,"PART-1-1",           151,       10.6108,      -20.5371,            0.,NA,NA,"",   575.940E-03,   474.078E-03,  -327.043E-03,   39.9466E-03
C:/temp/dataset/0/9_24.odb,Step-1,Increment      1: Step Time =    1.000,"PART-1-1",           152,       10.0930,      -9.97392,            0.,NA,NA,"",       3.53422,       3.42669,  -865.155E-03,   38.6106E-03
C:/temp/dataset/0/9_24.odb,Step-1,Increment      1: Step Time =    1.000,"PART-1-1",           153,       9.63546,       7.06865,            0.,NA,NA,"",       11.0402,       10.7384,      -2.56390,   42.2922E-03
C:/temp/dataset/0/9_24.odb,Step-1,Increment      1: Step Time =    1.000,"PART-1-1",           154,       10.2222,       18.2240,            0.,NA,NA,"",       14.4452,       14.0557,      -3.33175,   30.1406E-03
C:/temp/dataset/0/9_24.odb,Step-1,Increment      1: Step Time =    1.000,"PART-1-1",           155,       10.5456,      -3.97788,            0.,NA,NA,"",       6.10443,       5.87434,      -1.66018,   42.1233E-03
C:/temp/dataset/0/9_24.odb,Step-1,Increment      1: Step Time =    1.000,"PART-1-1",           156,       10.0733,      -15.6212,            0.,NA,NA,"",       1.59325,       1.52420,  -463.950E-03,   35.8105E-03
C:/temp/dataset/0/9_24.odb,Step-1,Increment      1: Step Time =    1.000,"PART-1-1",           157,       10.5412,      -7.26051,            0.,NA,NA,"",       4.66204,       4.47986,      -1.29055,   41.7171E-03
C:/temp/dataset/0/9_24.odb,Step-1,Increment      1: Step Time =    1.000,"PART-1-1",           158,       9.98625,      -1.55753,            0.,NA,NA,"",       7.19153,       6.98261,      -1.72086,   41.6055E-03
C:/temp/dataset/0/9_24.odb,Step-1,Increment      1: Step Time =    1.000,"PART-1-1",           159,       9.65058,       4.13273,            0.,NA,NA,"",       9.77596,       9.51289,      -2.25260,   42.0651E-03
C:/temp/dataset/0/9_24.odb,Step-1,Increment      1: Step Time =    1.000,"PART-1-1",           160,       9.76871,       12.8936,            0.,NA,NA,"",       13.1906,       12.8283,      -3.06994,   23.1175E-03
C:/temp/dataset/0/9_24.odb,Step-1,Increment      1: Step Time =    1.000,"PART-1-1",           161,       10.4870,       20.5197,            0.,NA,NA,"",       14.7592,       14.3643,      -3.39121,   39.9882E-03
C:/temp/dataset/0/9_24.odb,Step-1,Increment      1: Step Time =    1.000,"PART-1-1",           162,       3.57821,       25.4429,            0.,NA,NA,"",       14.9731,       14.7089,      -2.80044,   39.0423E-03
C:/temp/dataset/0/9_24.odb,Step-1,Increment      1: Step Time =    1.000,"PART-1-1",           163,       6.34843,       25.4199,            0.,NA,NA,"",       15.0563,       14.7593,      -2.97582,   30.9742E-03
C:/temp/dataset/0/9_24.odb,Step-1,Increment      1: Step Time =    1.000,"PART-1-1",           164,       2.85591,      -26.4171,            0.,NA,NA,"",   154.525E-03,   145.516E-03,   51.9927E-03,   44.7055E-03
C:/temp/dataset/0/9_24.odb,Step-1,Increment      1: Step Time =    1.000,"PART-1-1",           165,  -631.401E-03,       25.1574,            0.,NA,NA,"",       14.8628,       14.6333,      -2.60185,   41.0435E-03
C:/temp/dataset/0/9_24.odb,Step-1,Increment      1: Step Time =    1.000,"PART-1-1",           166,  -516.865E-03,       27.6990,            0.,NA,NA,"",       15.1381,       14.9102,      -2.61673,   30.0340E-03
C:/temp/dataset/0/9_24.odb,Step-1,Increment      1: Step Time =    1.000,"PART-1-1",           167,      -6.99102,       22.3744,            0.,NA,NA,"",       14.3900,       14.2523,      -1.98634,   36.6129E-03
C:/temp/dataset/0/9_24.odb,Step-1,Increment      1: Step Time =    1.000,"PART-1-1",           168,      -5.11091,      -22.0245,            0.,NA,NA,"",   385.031E-03,   332.166E-03,  -194.716E-03,   75.0285E-03
C:/temp/dataset/0/9_24.odb,Step-1,Increment      1: Step Time =    1.000,"PART-1-1",           169,       6.75166,      -22.2774,            0.,NA,NA,"",   325.815E-03,   292.174E-03,   144.187E-03,   40.4925E-03
C:/temp/dataset/0/9_24.odb,Step-1,Increment      1: Step Time =    1.000,"PART-1-1",           170,       8.44380,       23.0750,            0.,NA,NA,"",       14.9384,       14.6084,      -3.12255,   44.9139E-03
C:/temp/dataset/0/9_24.odb,Step-1,Increment      1: Step Time =    1.000,"PART-1-1",           171,       3.98751,       23.4543,            0.,NA,NA,"",       14.7936,       14.5319,      -2.77034,   50.1895E-03
C:/temp/dataset/0/9_24.odb,Step-1,Increment      1: Step Time =    1.000,"PART-1-1",           172,       7.74283,       18.8612,            0.,NA,NA,"",       14.4988,       14.2093,      -2.88309,   48.1688E-03
C:/temp/dataset/0/9_24.odb,Step-1,Increment      1: Step Time =    1.000,"PART-1-1",           173,  -206.614E-03,      -27.1815,            0.,NA,NA,"",   134.289E-03,   134.286E-03,  -830.091E-06,   38.8868E-03
C:/temp/dataset/0/9_24.odb,Step-1,Increment      1: Step Time =    1.000,"PART-1-1",           174,       10.6950,       22.8157,            0.,NA,NA,"",       14.9872,       14.5886,      -3.43354,   39.3953E-03
C:/temp/dataset/0/9_24.odb,Step-1,Increment      1: Step Time =    1.000,"PART-1-1",           175,       1.78109,       26.2982,            0.,NA,NA,"",       15.0205,       14.7707,      -2.72774,   37.1318E-03
C:/temp/dataset/0/9_24.odb,Step-1,Increment      1: Step Time =    1.000,"PART-1-1",           176,       7.62536,      -9.80486,            0.,NA,NA,"",       3.64813,       3.64790,  -41.8152E-03,   36.7673E-03
C:/temp/dataset/0/9_24.odb,Step-1,Increment      1: Step Time =    1.000,"PART-1-1",           177,       7.50504,      -2.60802,            0.,NA,NA,"",       6.73787,       6.71070,  -604.564E-03,   29.7761E-03
C:/temp/dataset/0/9_24.odb,Step-1,Increment      1: Step Time =    1.000,"PART-1-1",           178,       7.24337,       3.70501,            0.,NA,NA,"",       9.57618,       9.49413,      -1.25090,   42.8422E-03
C:/temp/dataset/0/9_24.odb,Step-1,Increment      1: Step Time =    1.000,"PART-1-1",           179,       7.25379,       10.0129,            0.,NA,NA,"",       12.1589,       11.9847,      -2.05093,   63.1896E-03
C:/temp/dataset/0/9_24.odb,Step-1,Increment      1: Step Time =    1.000,"PART-1-1",           180,       7.22962,       6.85747,            0.,NA,NA,"",       10.9126,       10.7875,      -1.64820,   55.6534E-03
C:/temp/dataset/0/9_24.odb,Step-1,Increment      1: Step Time =    1.000,"PART-1-1",           181,       7.49186,      -13.0485,            0.,NA,NA,"",       2.45800,       2.45464,   128.500E-03,   48.3479E-03
C:/temp/dataset/0/9_24.odb,Step-1,Increment      1: Step Time =    1.000,"PART-1-1",           182,       8.10600,      -6.05436,            0.,NA,NA,"",       5.18037,       5.15637,  -498.021E-03,   33.0221E-03
C:/temp/dataset/0/9_24.odb,Step-1,Increment      1: Step Time =    1.000,"PART-1-1",           183,       7.31265,   557.236E-03,            0.,NA,NA,"",       8.17525,       8.12678,  -888.882E-03,   33.8274E-03
C:/temp/dataset/0/9_24.odb,Step-1,Increment      1: Step Time =    1.000,"PART-1-1",           184,       7.30605,       13.1330,            0.,NA,NA,"",       13.2164,       12.9973,      -2.39687,   58.6478E-03
C:/temp/dataset/0/9_24.odb,Step-1,Increment      1: Step Time =    1.000,"PART-1-1",           185,       8.51669,      -21.0731,            0.,NA,NA,"",   400.417E-03,   400.164E-03,  -14.2410E-03,   15.1763E-03
C:/temp/dataset/0/9_24.odb,Step-1,Increment      1: Step Time =    1.000,"PART-1-1",           186,       7.54046,      -16.1016,            0.,NA,NA,"",       1.49344,       1.48583,   150.572E-03,   65.0192E-03
C:/temp/dataset/0/9_24.odb,Step-1,Increment      1: Step Time =    1.000,"PART-1-1",           187,       7.81864,      -18.8426,            0.,NA,NA,"",   777.950E-03,   774.132E-03,   76.9753E-03,   36.0436E-03
C:/temp/dataset/0/9_24.odb,Step-1,Increment      1: Step Time =    1.000,"PART-1-1",           188,       7.43701,       16.1533,            0.,NA,NA,"",       14.0021,       13.7451,      -2.67071,   56.9026E-03
C:/temp/dataset/0/9_24.odb,Step-1,Increment      1: Step Time =    1.000,"PART-1-1",           189,       8.13437,       20.9213,            0.,NA,NA,"",       14.7418,       14.4305,      -3.01360,   55.3616E-03
C:/temp/dataset/0/9_24.odb,Step-1,Increment      1: Step Time =    1.000,"PART-1-1",           190,       10.1795,      -24.9689,            0.,NA,NA,"",   151.279E-03,   83.2344E-03,  -126.322E-03,   32.5663E-03
C:/temp/dataset/0/9_24.odb,Step-1,Increment      1: Step Time =    1.000,"PART-1-1",           191,      -2.92607,      -24.6642,            0.,NA,NA,"",   246.548E-03,   232.938E-03,  -80.7832E-03,   56.0035E-03
C:/temp/dataset/0/9_24.odb,Step-1,Increment      1: Step Time =    1.000,"PART-1-1",           192,      -7.32959,       16.5303,            0.,NA,NA,"",       12.8852,       12.7414,      -1.91988,   70.3039E-03
C:/temp/dataset/0/9_24.odb,Step-1,Increment      1: Step Time =    1.000,"PART-1-1",           193,      -3.80789,       25.1547,            0.,NA,NA,"",       14.8236,       14.6320,      -2.37524,   28.5023E-03
C:/temp/dataset/0/9_24.odb,Step-1,Increment      1: Step Time =    1.000,"PART-1-1",           194,      -7.16094,      -19.5479,            0.,NA,NA,"",   623.650E-03,   609.031E-03,  -134.242E-03,   49.3888E-03
C:/temp/dataset/0/9_24.odb,Step-1,Increment      1: Step Time =    1.000,"PART-1-1",           195,       6.10177,       23.3904,            0.,NA,NA,"",       14.8672,       14.5841,      -2.88783,   46.6429E-03
C:/temp/dataset/0/9_24.odb,Step-1,Increment      1: Step Time =    1.000,"PART-1-1",           196,      -3.02004,      -27.2699,            0.,NA,NA,"",   116.758E-03,   112.529E-03,  -31.1372E-03,   38.6757E-03
C:/temp/dataset/0/9_24.odb,Step-1,Increment      1: Step Time =    1.000,"PART-1-1",           197,      -5.46178,      -24.4382,            0.,NA,NA,"",   223.620E-03,   199.260E-03,  -101.494E-03,   42.2556E-03
C:/temp/dataset/0/9_24.odb,Step-1,Increment      1: Step Time =    1.000,"PART-1-1",           198,      -9.66724,       21.9754,            0.,NA,NA,"",       14.2894,       14.2164,      -1.44312,   24.9194E-03
C:/temp/dataset/0/9_24.odb,Step-1,Increment      1: Step Time =    1.000,"PART-1-1",           199,      -7.19512,      -21.6661,            0.,NA,NA,"",   360.882E-03,   348.679E-03,  -93.0529E-03,   34.4640E-03
C:/temp/dataset/0/9_24.odb,Step-1,Increment      1: Step Time =    1.000,"PART-1-1",           200,      -3.42041,       27.6042,            0.,NA,NA,"",       15.1322,       14.9404,      -2.40168,   25.5368E-03
C:/temp/dataset/0/9_24.odb,Step-1,Increment      1: Step Time =    1.000,"PART-1-1",           201,       5.45774,      -23.9133,            0.,NA,NA,"",   251.656E-03,   214.086E-03,   132.280E-03,   55.8737E-03
C:/temp/dataset/0/9_24.odb,Step-1,Increment      1: Step Time =    1.000,"PART-1-1",           202,      -6.69209,       24.9820,            0.,NA,NA,"",       14.7930,       14.6548,      -2.01739,   23.3103E-03
C:/temp/dataset/0/9_24.odb,Step-1,Increment      1: Step Time =    1.000,"PART-1-1",           203,      -12.3718,      -14.6182,            0.,NA,NA,"",       2.10676,       1.94740,   803.799E-03,   65.3719E-03
C:/temp/dataset/0/9_24.odb,Step-1,Increment      1: Step Time =    1.000,"PART-1-1",           204,      -5.91076,      -27.0963,            0.,NA,NA,"",   80.9231E-03,   74.3099E-03,  -32.0403E-03,   30.0309E-03
C:/temp/dataset/0/9_24.odb,Step-1,Increment      1: Step Time =    1.000,"PART-1-1",           205,      -9.09285,      -26.5479,            0.,NA,NA,"",   79.6371E-03,   65.9494E-03,   44.6401E-03,   15.2892E-03
C:/temp/dataset/0/9_24.odb,Step-1,Increment      1: Step Time =    1.000,"PART-1-1",           206,      -12.2958,       24.3839,            0.,NA,NA,"",       14.7048,       14.6753,  -930.833E-03,   31.8004E-03
C:/temp/dataset/0/9_24.odb,Step-1,Increment      1: Step Time =    1.000,"PART-1-1",           207,      -12.3670,       18.5668,            0.,NA,NA,"",       13.5218,       13.5042,  -690.372E-03,   20.8898E-03
C:/temp/dataset/0/9_24.odb,Step-1,Increment      1: Step Time =    1.000,"PART-1-1",           208,      -12.3673,       12.5421,            0.,NA,NA,"",       11.7055,       11.7006,  -339.425E-03,   19.9725E-03
C:/temp/dataset/0/9_24.odb,Step-1,Increment      1: Step Time =    1.000,"PART-1-1",           209,      -12.4084,       3.45294,            0.,NA,NA,"",       8.38139,       8.37727,   262.605E-03,   22.0032E-03
C:/temp/dataset/0/9_24.odb,Step-1,Increment      1: Step Time =    1.000,"PART-1-1",           210,      -12.4043,      -5.59421,            0.,NA,NA,"",       4.98038,       4.92805,   720.075E-03,   40.1177E-03
C:/temp/dataset/0/9_24.odb,Step-1,Increment      1: Step Time =    1.000,"PART-1-1",           211,      -12.3838,       9.50768,            0.,NA,NA,"",       10.6434,       10.6425,  -137.877E-03,   18.0206E-03
C:/temp/dataset/0/9_24.odb,Step-1,Increment      1: Step Time =    1.000,"PART-1-1",           212,      -12.4013,       6.47621,            0.,NA,NA,"",       9.52695,       9.52672,   67.0414E-03,   18.5724E-03
C:/temp/dataset/0/9_24.odb,Step-1,Increment      1: Step Time =    1.000,"PART-1-1",           213,      -12.4173,   428.232E-03,            0.,NA,NA,"",       7.22591,       7.21219,   444.984E-03,   27.1105E-03
C:/temp/dataset/0/9_24.odb,Step-1,Increment      1: Step Time =    1.000,"PART-1-1",           214,      -12.4160,      -2.58791,            0.,NA,NA,"",       6.08489,       6.05520,   600.359E-03,   33.2663E-03
C:/temp/dataset/0/9_24.odb,Step-1,Increment      1: Step Time =    1.000,"PART-1-1",           215,      -12.4014,      -8.61211,            0.,NA,NA,"",       3.92967,       3.84685,   802.520E-03,   47.7301E-03
C:/temp/dataset/0/9_24.odb,Step-1,Increment      1: Step Time =    1.000,"PART-1-1",           216,      -12.3969,      -11.6247,            0.,NA,NA,"",       2.96231,       2.84228,   834.690E-03,   56.1610E-03
C:/temp/dataset/0/9_24.odb,Step-1,Increment      1: Step Time =    1.000,"PART-1-1",           217,      -12.3009,      -17.6498,            0.,NA,NA,"",       1.37706,       1.18745,   697.305E-03,   73.4503E-03
C:/temp/dataset/0/9_24.odb,Step-1,Increment      1: Step Time =    1.000,"PART-1-1",           218,      -11.9370,      -20.9397,            0.,NA,NA,"",   753.608E-03,   581.333E-03,   479.559E-03,   71.5555E-03
C:/temp/dataset/0/9_24.odb,Step-1,Increment      1: Step Time =    1.000,"PART-1-1",           219,       6.28266,      -26.4725,            0.,NA,NA,"",   84.8866E-03,   71.9574E-03,   45.0317E-03,   34.3406E-03
C:/temp/dataset/0/9_24.odb,Step-1,Increment      1: Step Time =    1.000,"PART-1-1",           220,      -12.3616,       21.4963,            0.,NA,NA,"",       14.1844,       14.1604,  -825.070E-03,   25.6994E-03
C:/temp/dataset/0/9_24.odb,Step-1,Increment      1: Step Time =    1.000,"PART-1-1",           221,       9.42071,      -27.3229,            0.,NA,NA,"",   42.3491E-03,   1.36684E-03,  -42.3270E-03,   21.4744E-03
C:/temp/dataset/0/9_24.odb,Step-1,Increment      1: Step Time =    1.000,"PART-1-1",           222,      -12.3680,       15.5612,            0.,NA,NA,"",       12.6786,       12.6678,  -523.731E-03,   21.8216E-03
C:/temp/dataset/0/9_24.odb,Step-1,Increment      1: Step Time =    1.000,"PART-1-1",           223,      -6.37126,       27.5191,            0.,NA,NA,"",       15.1466,       15.0071,      -2.05108,   22.3668E-03
C:/temp/dataset/0/9_24.odb,Step-1,Increment      1: Step Time =    1.000,"PART-1-1",           224,      -7.37426,       13.4489,            0.,NA,NA,"",       11.8778,       11.7278,      -1.88171,   52.3839E-03
C:/temp/dataset/0/9_24.odb,Step-1,Increment      1: Step Time =    1.000,"PART-1-1",           225,      -7.40401,       7.31385,            0.,NA,NA,"",       9.64674,       9.49823,      -1.68618,   34.6589E-03
C:/temp/dataset/0/9_24.odb,Step-1,Increment      1: Step Time =    1.000,"PART-1-1",           226,      -7.40102,      -1.84560,            0.,NA,NA,"",       6.10194,       5.99001,      -1.16339,   17.6655E-03
C:/temp/dataset/0/9_24.odb,Step-1,Increment      1: Step Time =    1.000,"PART-1-1",           227,      -7.36253,      -10.9851,            0.,NA,NA,"",       2.86190,       2.80399,  -572.843E-03,   23.6407E-03
C:/temp/dataset/0/9_24.odb,Step-1,Increment      1: Step Time =    1.000,"PART-1-1",           228,      -7.39657,       10.3769,            0.,NA,NA,"",       10.7904,       10.6384,      -1.80512,   42.3881E-03
C:/temp/dataset/0/9_24.odb,Step-1,Increment      1: Step Time =    1.000,"PART-1-1",           229,      -7.41369,       4.25226,            0.,NA,NA,"",       8.46697,       8.32744,      -1.53081,   27.7597E-03
C:/temp/dataset/0/9_24.odb,Step-1,Increment      1: Step Time =    1.000,"PART-1-1",           230,      -7.41413,       1.19777,            0.,NA,NA,"",       7.27720,       7.15037,      -1.35271,   21.9307E-03
C:/temp/dataset/0/9_24.odb,Step-1,Increment      1: Step Time =    1.000,"PART-1-1",           231,      -7.39700,      -4.89906,            0.,NA,NA,"",       4.95577,       4.86150,  -962.030E-03,   16.2550E-03
C:/temp/dataset/0/9_24.odb,Step-1,Increment      1: Step Time =    1.000,"PART-1-1",           232,      -7.39133,      -7.95434,            0.,NA,NA,"",       3.86491,       3.78939,  -760.291E-03,   18.5592E-03
C:/temp/dataset/0/9_24.odb,Step-1,Increment      1: Step Time =    1.000,"PART-1-1",           233,      -7.32483,      -13.9963,            0.,NA,NA,"",       1.96478,       1.92497,  -393.491E-03,   33.7981E-03
C:/temp/dataset/0/9_24.odb,Step-1,Increment      1: Step Time =    1.000,"PART-1-1",           234,      -9.29453,       27.3932,            0.,NA,NA,"",       15.1608,       15.0800,      -1.56327,   29.6149E-03
C:/temp/dataset/0/9_24.odb,Step-1,Increment      1: Step Time =    1.000,"PART-1-1",           235,      -9.79647,       16.0793,            0.,NA,NA,"",       12.7923,       12.7307,      -1.25404,   31.5842E-03
C:/temp/dataset/0/9_24.odb,Step-1,Increment      1: Step Time =    1.000,"PART-1-1",           236,      -10.5694,      -24.3397,            0.,NA,NA,"",   267.246E-03,   196.427E-03,   181.210E-03,   41.9084E-03
C:/temp/dataset/0/9_24.odb,Step-1,Increment      1: Step Time =    1.000,"PART-1-1",           237,      -9.80814,      -14.2636,            0.,NA,NA,"",       1.93551,       1.92324,   217.615E-03,   31.7730E-03
C:/temp/dataset/0/9_24.odb,Step-1,Increment      1: Step Time =    1.000,"PART-1-1",           238,      -9.84607,      -11.2856,            0.,NA,NA,"",       2.81512,       2.81168,   139.135E-03,   29.7262E-03
C:/temp/dataset/0/9_24.odb,Step-1,Increment      1: Step Time =    1.000,"PART-1-1",           239,      -9.85160,       9.96190,            0.,NA,NA,"",       10.7003,       10.6539,  -994.619E-03,   29.6854E-03
C:/temp/dataset/0/9_24.odb,Step-1,Increment      1: Step Time =    1.000,"PART-1-1",           240,      -9.42013,      -19.6871,            0.,NA,NA,"",   687.138E-03,   663.147E-03,   179.985E-03,   37.4460E-03
C:/temp/dataset/0/9_24.odb,Step-1,Increment      1: Step Time =    1.000,"PART-1-1",           241,      -9.87385,       6.90801,            0.,NA,NA,"",       9.55640,       9.52064,  -825.947E-03,   28.2925E-03
C:/temp/dataset/0/9_24.odb,Step-1,Increment      1: Step Time =    1.000,"PART-1-1",           242,      -9.72088,      -17.1529,            0.,NA,NA,"",       1.20341,       1.17906,   240.852E-03,   42.0054E-03
C:/temp/dataset/0/9_24.odb,Step-1,Increment      1: Step Time =    1.000,"PART-1-1",           243,      -7.24385,      -16.9197,            0.,NA,NA,"",       1.20465,       1.17989,  -242.974E-03,   57.2566E-03
C:/temp/dataset/0/9_24.odb,Step-1,Increment      1: Step Time =    1.000,"PART-1-1",           244,      -9.88569,       3.86363,            0.,NA,NA,"",       8.38168,       8.35680,  -645.368E-03,   27.5918E-03
C:/temp/dataset/0/9_24.odb,Step-1,Increment      1: Step Time =    1.000,"PART-1-1",           245,      -9.88680,   826.149E-03,            0.,NA,NA,"",       7.19811,       7.18323,  -462.495E-03,   27.3439E-03
C:/temp/dataset/0/9_24.odb,Step-1,Increment      1: Step Time =    1.000,"PART-1-1",           246,      -9.87953,      -2.20322,            0.,NA,NA,"",       6.02835,       6.02156,  -285.982E-03,   27.4744E-03
C:/temp/dataset/0/9_24.odb,Step-1,Increment      1: Step Time =    1.000,"PART-1-1",           247,      -9.87339,      -5.23467,            0.,NA,NA,"",       4.89137,       4.88988,  -120.638E-03,   27.9357E-03
C:/temp/dataset/0/9_24.odb,Step-1,Increment      1: Step Time =    1.000,"PART-1-1",           248,      -9.87035,      -8.27303,            0.,NA,NA,"",       3.80892,       3.80883,   26.3915E-03,   28.7264E-03
C:/temp/dataset/0/9_24.odb,Step-1,Increment      1: Step Time =    1.000,"PART-1-1",           249,      -12.1942,       27.2250,            0.,NA,NA,"",       15.1627,       15.1293,      -1.00597,   24.6102E-03
C:/temp/dataset/0/9_24.odb,Step-1,Increment      1: Step Time =    1.000,"PART-1-1",           250,      -12.1946,      -27.0241,            0.,NA,NA,"",   182.496E-03,   92.7384E-03,   157.176E-03,   68.1934E-03
C:/temp/dataset/0/9_24.odb,Step-1,Increment      1: Step Time =    1.000,"PART-1-1",           251,      -9.83578,       13.0151,            0.,NA,NA,"",       11.7870,       11.7322,      -1.13506,   30.9219E-03
C:/temp/dataset/0/9_24.odb,Step-1,Increment      1: Step Time =    1.000,"PART-1-1",           252,      -12.4960,      -24.1891,            0.,NA,NA,"",   434.279E-03,   264.851E-03,   344.169E-03,   75.8609E-03
C:/temp/dataset/0/9_24.odb,Step-1,Increment      1: Step Time =    1.000,"PART-1-1",           253,      -7.26398,       19.6069,            0.,NA,NA,"",       13.8055,       13.6695,      -1.93274,   47.2338E-03
C:/temp/dataset/0/9_24.odb,Step-1,Increment      1: Step Time =    1.000,"PART-1-1",           254,      -9.78845,      -22.6320,            0.,NA,NA,"",   348.848E-03,   309.519E-03,   160.913E-03,   34.8007E-03
C:/temp/dataset/0/9_24.odb,Step-1,Increment      1: Step Time =    1.000,"PART-1-1",           255,       8.11622,      -24.1302,            0.,NA,NA,"",   141.850E-03,   141.319E-03,   12.2709E-03,   17.9930E-03
C:/temp/dataset/0/9_24.odb,Step-1,Increment      1: Step Time =    1.000,"PART-1-1",           256,       10.7040,      -22.7860,            0.,NA,NA,"",   335.205E-03,   228.487E-03,  -245.268E-03,   43.2156E-03
C:/temp/dataset/0/9_24.odb,Step-1,Increment      1: Step Time =    1.000,"PART-1-1",           257,      -8.82647,      -21.3553,            0.,NA,NA,"",   416.217E-03,   408.926E-03,   77.5614E-03,   32.7809E-03
C:/temp/dataset/0/9_24.odb,Step-1,Increment      1: Step Time =    1.000,"PART-1-1",           258,      -9.77631,       19.1047,            0.,NA,NA,"",       13.6533,       13.5865,      -1.34827,   17.9201E-03
C:/temp/dataset/0/9_24.odb,Step-1,Increment      1: Step Time =    1.000,"PART-1-1",           259,      -7.77355,      -23.8785,            0.,NA,NA,"",   196.997E-03,   195.889E-03,  -20.8725E-03,   13.8532E-03
C:/temp/dataset/0/9_24.odb,Step-1,Increment      1: Step Time =    1.000,"PART-1-1",           260,  -536.979E-03,      -24.7394,            0.,NA,NA,"",   246.153E-03,   245.958E-03,  -9.78936E-03,   46.1672E-03
C:/temp/dataset/0/9_24.odb,Step-1,Increment      1: Step Time =    1.000,"PART-1-1",           261,      -9.52558,       24.7102,            0.,NA,NA,"",       14.7529,       14.6760,      -1.50502,   31.9436E-03
C:/temp/dataset/0/9_24.odb,Step-1,Increment      1: Step Time =    1.000,"PART-1-1",           262,      -2.15050,       21.2402,            0.,NA,NA,"",       14.3929,       14.1790,      -2.47203,   56.7797E-03
C:/temp/dataset/0/9_24.odb,Step-1,Increment      1: Step Time =    1.000,"PART-1-1",           263,      -3.09708,       22.5364,            0.,NA,NA,"",       14.4912,       14.2844,      -2.43936,   46.1087E-03
C:/temp/dataset/0/9_24.odb,Step-1,Increment      1: Step Time =    1.000,"PART-1-1",           264,      -4.69657,       21.2962,            0.,NA,NA,"",       14.2578,       14.0651,      -2.33639,   99.1007E-03
C:/temp/dataset/0/9_24.odb,Step-1,Increment      1: Step Time =    1.000,"PART-1-1",           265,         -3.75,           20.,            0.,NA,NA,"",       14.1622,       13.9676,      -2.33949,   122.830E-03
C:/temp/dataset/0/9_24.odb,Step-1,Increment      1: Step Time =    1.000,"PART-1-1",           266,      -4.10052,       23.8735,            0.,NA,NA,"",       14.6511,       14.4613,      -2.35084,   38.7439E-03
C:/temp/dataset/0/9_24.odb,Step-1,Increment      1: Step Time =    1.000,"PART-1-1",           267,      -5.24999,       25.0683,            0.,NA,NA,"",       14.8055,       14.6387,      -2.21609,   20.4001E-03
C:/temp/dataset/0/9_24.odb,Step-1,Increment      1: Step Time =    1.000,"PART-1-1",           268,      -6.84155,       23.6782,            0.,NA,NA,"",       14.6001,       14.4622,      -2.00216,   28.2114E-03
C:/temp/dataset/0/9_24.odb,Step-1,Increment      1: Step Time =    1.000,"PART-1-1",           269,      -5.69208,       22.4834,            0.,NA,NA,"",       14.4255,       14.2577,      -2.19351,   38.8920E-03
C:/temp/dataset/0/9_24.odb,Step-1,Increment      1: Step Time =    1.000,"PART-1-1",           270,      -7.35192,       14.9896,            0.,NA,NA,"",       12.3965,       12.2490,      -1.90694,   56.5906E-03
C:/temp/dataset/0/9_24.odb,Step-1,Increment      1: Step Time =    1.000,"PART-1-1",           271,      -8.56303,       16.3048,            0.,NA,NA,"",       12.8409,       12.7423,      -1.58819,   48.1455E-03
C:/temp/dataset/0/9_24.odb,Step-1,Increment      1: Step Time =    1.000,"PART-1-1",           272,      -9.81613,       14.5472,            0.,NA,NA,"",       12.3002,       12.2417,      -1.19801,   31.7205E-03
C:/temp/dataset/0/9_24.odb,Step-1,Increment      1: Step Time =    1.000,"PART-1-1",           273,      -8.60502,       13.2320,            0.,NA,NA,"",       11.8297,       11.7329,      -1.51023,   40.5009E-03
C:/temp/dataset/0/9_24.odb,Step-1,Increment      1: Step Time =    1.000,"PART-1-1",           274,          -15.,         -16.5,            0.,NA,NA,"",       2.07406,       1.62269,       1.29174,   117.054E-03
C:/temp/dataset/0/9_24.odb,Step-1,Increment      1: Step Time =    1.000,"PART-1-1",           275,      -13.6504,      -17.8249,            0.,NA,NA,"",       1.53962,       1.22542,   932.070E-03,   98.1288E-03
C:/temp/dataset/0/9_24.odb,Step-1,Increment      1: Step Time =    1.000,"PART-1-1",           276,      -12.3363,      -16.1340,            0.,NA,NA,"",       1.72082,       1.54433,   759.115E-03,   68.8715E-03
C:/temp/dataset/0/9_24.odb,Step-1,Increment      1: Step Time =    1.000,"PART-1-1",           277,      -13.6859,      -14.8091,            0.,NA,NA,"",       2.25980,       1.97425,       1.09957,   86.5105E-03
C:/temp/dataset/0/9_24.odb,Step-1,Increment      1: Step Time =    1.000,"PART-1-1",           278,      -4.46540,      -27.1831,            0.,NA,NA,"",   103.107E-03,   95.5564E-03,  -38.7310E-03,   33.9366E-03
C:/temp/dataset/0/9_24.odb,Step-1,Increment      1: Step Time =    1.000,"PART-1-1",           279,      -2.97305,      -25.9670,            0.,NA,NA,"",   180.633E-03,   172.128E-03,  -54.7747E-03,   45.8709E-03
C:/temp/dataset/0/9_24.odb,Step-1,Increment      1: Step Time =    1.000,"PART-1-1",           280,      -4.19392,      -24.5512,            0.,NA,NA,"",   238.716E-03,   216.088E-03,  -101.446E-03,   47.8982E-03
C:/temp/dataset/0/9_24.odb,Step-1,Increment      1: Step Time =    1.000,"PART-1-1",           281,      -5.68627,      -25.7673,            0.,NA,NA,"",   145.863E-03,   131.567E-03,  -62.9767E-03,   35.4837E-03
C:/temp/dataset/0/9_24.odb,Step-1,Increment      1: Step Time =    1.000,"PART-1-1",           282,      -5.28634,      -23.2314,            0.,NA,NA,"",   299.332E-03,   263.325E-03,  -142.336E-03,   54.5839E-03
C:/temp/dataset/0/9_24.odb,Step-1,Increment      1: Step Time =    1.000,"PART-1-1",           283,      -2.80857,      -23.4296,            0.,NA,NA,"",   307.188E-03,   291.893E-03,  -95.7251E-03,   55.7058E-03
C:/temp/dataset/0/9_24.odb,Step-1,Increment      1: Step Time =    1.000,"PART-1-1",           284,      -3.90099,      -22.1098,            0.,NA,NA,"",   387.023E-03,   345.567E-03,  -174.270E-03,   61.7660E-03
C:/temp/dataset/0/9_24.odb,Step-1,Increment      1: Step Time =    1.000,"PART-1-1",           285,       1.61260,      -23.5545,            0.,NA,NA,"",   296.094E-03,   288.120E-03,   68.2517E-03,   49.0934E-03
C:/temp/dataset/0/9_24.odb,Step-1,Increment      1: Step Time =    1.000,"PART-1-1",           286,       2.09558,      -25.4897,            0.,NA,NA,"",   203.989E-03,   196.037E-03,   56.4018E-03,   49.1357E-03
C:/temp/dataset/0/9_24.odb,Step-1,Increment      1: Step Time =    1.000,"PART-1-1",           287,       3.30955,      -24.8521,            0.,NA,NA,"",   228.332E-03,   208.893E-03,   92.1909E-03,   53.8775E-03
C:/temp/dataset/0/9_24.odb,Step-1,Increment      1: Step Time =    1.000,"PART-1-1",           288,       2.82657,      -22.9168,            0.,NA,NA,"",   337.804E-03,   311.663E-03,   130.300E-03,   53.9229E-03
C:/temp/dataset/0/9_24.odb,Step-1,Increment      1: Step Time =    1.000,"PART-1-1",           289,       13.8857,      -20.1351,            0.,NA,NA,"",       1.07778,   600.979E-03,  -894.667E-03,   113.655E-03
C:/temp/dataset/0/9_24.odb,Step-1,Increment      1: Step Time =    1.000,"PART-1-1",           290,           15.,        -18.75,            0.,NA,NA,"",       1.54890,   866.941E-03,      -1.28355,   143.511E-03
C:/temp/dataset/0/9_24.odb,Step-1,Increment      1: Step Time =    1.000,"PART-1-1",           291,       13.8316,      -17.6482,            0.,NA,NA,"",       1.56087,       1.03027,      -1.17255,   110.358E-03
C:/temp/dataset/0/9_24.odb,Step-1,Increment      1: Step Time =    1.000,"PART-1-1",           292,       12.7173,      -19.0333,            0.,NA,NA,"",       1.08554,   741.476E-03,  -792.851E-03,   81.1204E-03
C:/temp/dataset/0/9_24.odb,Step-1,Increment      1: Step Time =    1.000,"PART-1-1",           293,       13.7508,      -12.5905,            0.,NA,NA,"",       2.97640,       2.37311,      -1.79647,   86.9114E-03
C:/temp/dataset/0/9_24.odb,Step-1,Increment      1: Step Time =    1.000,"PART-1-1",           294,           15.,        -11.25,            0.,NA,NA,"",       3.69995,       2.78513,      -2.43571,   101.995E-03
C:/temp/dataset/0/9_24.odb,Step-1,Increment      1: Step Time =    1.000,"PART-1-1",           295,       13.7881,      -10.0330,            0.,NA,NA,"",       3.89293,       3.24193,      -2.15518,   73.6633E-03
C:/temp/dataset/0/9_24.odb,Step-1,Increment      1: Step Time =    1.000,"PART-1-1",           296,       12.5389,      -11.3735,            0.,NA,NA,"",       3.20445,       2.80868,      -1.54267,   62.8883E-03
C:/temp/dataset/0/9_24.odb,Step-1,Increment      1: Step Time =    1.000,"PART-1-1",           297,       11.3345,      -10.0200,            0.,NA,NA,"",       3.58470,       3.34711,      -1.28332,   45.8205E-03
C:/temp/dataset/0/9_24.odb,Step-1,Increment      1: Step Time =    1.000,"PART-1-1",           298,       10.0449,      -11.4123,            0.,NA,NA,"",       2.98417,       2.89342,  -730.333E-03,   37.0047E-03
C:/temp/dataset/0/9_24.odb,Step-1,Increment      1: Step Time =    1.000,"PART-1-1",           299,       11.2492,      -12.7658,            0.,NA,NA,"",       2.57174,       2.37414,  -988.578E-03,   46.4647E-03
C:/temp/dataset/0/9_24.odb,Step-1,Increment      1: Step Time =    1.000,"PART-1-1",           300,       9.32361,      -6.65743,            0.,NA,NA,"",       4.89477,       4.81134,  -899.930E-03,   35.8400E-03
C:/temp/dataset/0/9_24.odb,Step-1,Increment      1: Step Time =    1.000,"PART-1-1",           301,       10.9574,      -6.33595,            0.,NA,NA,"",       5.07959,       4.83801,      -1.54787,   42.3294E-03
C:/temp/dataset/0/9_24.odb,Step-1,Increment      1: Step Time =    1.000,"PART-1-1",           302,       10.9595,      -4.69463,            0.,NA,NA,"",       5.80167,       5.53511,      -1.73836,   42.3317E-03
C:/temp/dataset/0/9_24.odb,Step-1,Increment      1: Step Time =    1.000,"PART-1-1",           303,       9.32578,      -5.01612,            0.,NA,NA,"",       5.61455,       5.51189,      -1.06875,   35.9092E-03
C:/temp/dataset/0/9_24.odb,Step-1,Increment      1: Step Time =    1.000,"PART-1-1",           304,       12.9351,      -4.11714,            0.,NA,NA,"",       6.21412,       5.64451,      -2.59900,   40.8166E-03
C:/temp/dataset/0/9_24.odb,Step-1,Increment      1: Step Time =    1.000,"PART-1-1",           305,       11.6846,      -3.48758,            0.,NA,NA,"",       6.38651,       6.00651,      -2.17010,   39.1416E-03
C:/temp/dataset/0/9_24.odb,Step-1,Increment      1: Step Time =    1.000,"PART-1-1",           306,       12.2101,      -5.32419,            0.,NA,NA,"",       5.61203,       5.18192,      -2.15468,   42.9613E-03
C:/temp/dataset/0/9_24.odb,Step-1,Increment      1: Step Time =    1.000,"PART-1-1",           307,       9.86769,  -155.410E-03,            0.,NA,NA,"",       7.83382,       7.61489,      -1.83907,   41.6534E-03
C:/temp/dataset/0/9_24.odb,Step-1,Increment      1: Step Time =    1.000,"PART-1-1",           308,       8.53089,   901.975E-03,            0.,NA,NA,"",       8.30821,       8.18458,      -1.42791,   37.5486E-03
C:/temp/dataset/0/9_24.odb,Step-1,Increment      1: Step Time =    1.000,"PART-1-1",           309,       7.40884,      -1.02539,            0.,NA,NA,"",       7.45701,       7.41999,  -742.125E-03,   31.0625E-03
C:/temp/dataset/0/9_24.odb,Step-1,Increment      1: Step Time =    1.000,"PART-1-1",           310,       8.74564,      -2.08278,            0.,NA,NA,"",       6.94217,       6.84388,      -1.16410,   35.6988E-03
C:/temp/dataset/0/9_24.odb,Step-1,Increment      1: Step Time =    1.000,"PART-1-1",           311,       9.64302,       5.60069,            0.,NA,NA,"",       10.4179,       10.1348,      -2.41239,   41.9368E-03
C:/temp/dataset/0/9_24.odb,Step-1,Increment      1: Step Time =    1.000,"PART-1-1",           312,       10.9412,       4.35663,            0.,NA,NA,"",       9.91381,       9.51815,      -2.77280,   35.3646E-03
C:/temp/dataset/0/9_24.odb,Step-1,Increment      1: Step Time =    1.000,"PART-1-1",           313,       12.2262,       5.93259,            0.,NA,NA,"",       10.6520,       10.0930,      -3.40540,   32.4493E-03
C:/temp/dataset/0/9_24.odb,Step-1,Increment      1: Step Time =    1.000,"PART-1-1",           314,       10.9280,       7.17665,            0.,NA,NA,"",       11.1236,       10.7010,      -3.03679,   34.1703E-03
C:/temp/dataset/0/9_24.odb,Step-1,Increment      1: Step Time =    1.000,"PART-1-1",           315,       13.6103,       7.39232,            0.,NA,NA,"",       11.3214,       10.5854,      -4.01551,   40.0380E-03
C:/temp/dataset/0/9_24.odb,Step-1,Increment      1: Step Time =    1.000,"PART-1-1",           316,           15.,          8.75,            0.,NA,NA,"",       11.9135,       11.0028,      -4.56832,   67.0131E-03
C:/temp/dataset/0/9_24.odb,Step-1,Increment      1: Step Time =    1.000,"PART-1-1",           317,       13.6268,       9.99700,            0.,NA,NA,"",       12.3146,       11.6056,      -4.11840,   54.0222E-03
C:/temp/dataset/0/9_24.odb,Step-1,Increment      1: Step Time =    1.000,"PART-1-1",           318,       12.2370,       8.63932,            0.,NA,NA,"",       11.7577,       11.1935,      -3.59858,   35.0124E-03
C:/temp/dataset/0/9_24.odb,Step-1,Increment      1: Step Time =    1.000,"PART-1-1",           319,       13.8144,       17.6522,            0.,NA,NA,"",       14.3884,       13.8075,      -4.04713,   67.1694E-03
C:/temp/dataset/0/9_24.odb,Step-1,Increment      1: Step Time =    1.000,"PART-1-1",           320,           15.,         18.75,            0.,NA,NA,"",       14.5717,       13.9531,      -4.20038,   81.5257E-03
C:/temp/dataset/0/9_24.odb,Step-1,Increment      1: Step Time =    1.000,"PART-1-1",           321,       13.8887,       20.1095,            0.,NA,NA,"",       14.7564,       14.2145,      -3.96199,   55.3930E-03
C:/temp/dataset/0/9_24.odb,Step-1,Increment      1: Step Time =    1.000,"PART-1-1",           322,       12.7031,       19.0116,            0.,NA,NA,"",       14.5972,       14.0946,      -3.79739,   44.4776E-03
C:/temp/dataset/0/9_24.odb,Step-1,Increment      1: Step Time =    1.000,"PART-1-1",           323,       11.4255,       18.0142,            0.,NA,NA,"",       14.4265,       13.9780,      -3.56929,   33.0318E-03
C:/temp/dataset/0/9_24.odb,Step-1,Increment      1: Step Time =    1.000,"PART-1-1",           324,       11.6322,       20.3693,            0.,NA,NA,"",       14.7618,       14.3192,      -3.58747,   38.4300E-03
C:/temp/dataset/0/9_24.odb,Step-1,Increment      1: Step Time =    1.000,"PART-1-1",           325,       10.3546,       19.3719,            0.,NA,NA,"",       14.6151,       14.2228,      -3.36385,   34.5647E-03
C:/temp/dataset/0/9_24.odb,Step-1,Increment      1: Step Time =    1.000,"PART-1-1",           326,       10.9394,       26.3107,            0.,NA,NA,"",       15.2826,       14.8796,      -3.48624,   25.4872E-03
C:/temp/dataset/0/9_24.odb,Step-1,Increment      1: Step Time =    1.000,"PART-1-1",           327,       11.9108,       25.0855,            0.,NA,NA,"",       15.2068,       14.7740,      -3.60225,   27.4202E-03
C:/temp/dataset/0/9_24.odb,Step-1,Increment      1: Step Time =    1.000,"PART-1-1",           328,       13.0011,       26.2585,            0.,NA,NA,"",       15.3275,       14.8665,      -3.73073,   20.0312E-03
C:/temp/dataset/0/9_24.odb,Step-1,Increment      1: Step Time =    1.000,"PART-1-1",           329,       12.0296,       27.4837,            0.,NA,NA,"",       15.4105,       14.9792,      -3.62060,   17.0919E-03
C:/temp/dataset/0/9_24.odb,Step-1,Increment      1: Step Time =    1.000,"PART-1-1",           330,       14.0179,       27.4887,            0.,NA,NA,"",       15.4541,       14.9696,      -3.83895,   7.76111E-03
C:/temp/dataset/0/9_24.odb,Step-1,Increment      1: Step Time =    1.000,"PART-1-1",           331,       13.9832,       25.0198,            0.,NA,NA,"",       15.2405,       14.7464,      -3.84896,   20.9570E-03
C:/temp/dataset/0/9_24.odb,Step-1,Increment      1: Step Time =    1.000,"PART-1-1",           332,           15.,         26.25,            0.,NA,NA,"",       15.3609,       14.8473,      -3.93884,   12.3898E-03
C:/temp/dataset/0/9_24.odb,Step-1,Increment      1: Step Time =    1.000,"PART-1-1",           333,       3.55377,       20.8403,            0.,NA,NA,"",       14.5866,       14.3343,      -2.70143,   25.1169E-03
C:/temp/dataset/0/9_24.odb,Step-1,Increment      1: Step Time =    1.000,"PART-1-1",           334,       4.16667,           20.,            0.,NA,NA,"",       14.5701,       14.3187,      -2.69526,   42.4057E-03
C:/temp/dataset/0/9_24.odb,Step-1,Increment      1: Step Time =    1.000,"PART-1-1",           335,       5.33068,       20.7523,            0.,NA,NA,"",       14.6163,       14.3674,      -2.68606,   84.8606E-03
C:/temp/dataset/0/9_24.odb,Step-1,Increment      1: Step Time =    1.000,"PART-1-1",           336,       4.71778,       21.5926,            0.,NA,NA,"",       14.6542,       14.3988,      -2.72424,   57.3390E-03
C:/temp/dataset/0/9_24.odb,Step-1,Increment      1: Step Time =    1.000,"PART-1-1",           337,       1.85672,       20.8541,            0.,NA,NA,"",       14.5483,       14.3031,      -2.65979,   30.0774E-03
C:/temp/dataset/0/9_24.odb,Step-1,Increment      1: Step Time =    1.000,"PART-1-1",           338,           2.5,           20.,            0.,NA,NA,"",       14.5340,       14.2864,      -2.67147,   30.8943E-03
C:/temp/dataset/0/9_24.odb,Step-1,Increment      1: Step Time =    1.000,"PART-1-1",           339,       2.91049,       21.6945,            0.,NA,NA,"",       14.6230,       14.3712,      -2.70224,   33.1163E-03
C:/temp/dataset/0/9_24.odb,Step-1,Increment      1: Step Time =    1.000,"PART-1-1",           340,       1.32465,      -26.7993,            0.,NA,NA,"",   149.419E-03,   147.459E-03,   24.1237E-03,   39.2849E-03
C:/temp/dataset/0/9_24.odb,Step-1,Increment      1: Step Time =    1.000,"PART-1-1",           341,   399.133E-03,      -24.6509,            0.,NA,NA,"",   247.947E-03,   247.074E-03,   20.7906E-03,   49.8566E-03
C:/temp/dataset/0/9_24.odb,Step-1,Increment      1: Step Time =    1.000,"PART-1-1",           342,  -371.796E-03,      -25.9605,            0.,NA,NA,"",   191.289E-03,   191.237E-03,  -4.47542E-03,   43.7509E-03
C:/temp/dataset/0/9_24.odb,Step-1,Increment      1: Step Time =    1.000,"PART-1-1",           343,       7.16814,       28.8250,            0.,NA,NA,"",       15.3809,       15.0628,      -3.11199,   23.5116E-03
C:/temp/dataset/0/9_24.odb,Step-1,Increment      1: Step Time =    1.000,"PART-1-1",           344,       7.90869,       27.6030,            0.,NA,NA,"",       15.2986,       14.9679,      -3.16394,   19.5168E-03
C:/temp/dataset/0/9_24.odb,Step-1,Increment      1: Step Time =    1.000,"PART-1-1",           345,       9.17805,       28.7779,            0.,NA,NA,"",       15.4444,       15.0853,      -3.31094,   20.1337E-03
C:/temp/dataset/0/9_24.odb,Step-1,Increment      1: Step Time =    1.000,"PART-1-1",           346,        8.4375,           30.,            0.,NA,NA,"",       15.5348,       15.1907,      -3.25164,   24.4199E-03
C:/temp/dataset/0/9_24.odb,Step-1,Increment      1: Step Time =    1.000,"PART-1-1",           347,       1.19326,       21.8923,            0.,NA,NA,"",       14.5930,       14.3509,      -2.64703,   33.6396E-03
C:/temp/dataset/0/9_24.odb,Step-1,Increment      1: Step Time =    1.000,"PART-1-1",           348,   169.882E-03,       21.0382,            0.,NA,NA,"",       14.4973,       14.2650,      -2.58507,   40.2639E-03
C:/temp/dataset/0/9_24.odb,Step-1,Increment      1: Step Time =    1.000,"PART-1-1",           349,   833.333E-03,           20.,            0.,NA,NA,"",       14.4639,       14.2284,      -2.59933,   41.9215E-03
C:/temp/dataset/0/9_24.odb,Step-1,Increment      1: Step Time =    1.000,"PART-1-1",           350,       11.0482,       12.7829,            0.,NA,NA,"",       13.1807,       12.7294,      -3.41957,   24.2453E-03
C:/temp/dataset/0/9_24.odb,Step-1,Increment      1: Step Time =    1.000,"PART-1-1",           351,       12.3949,       13.9828,            0.,NA,NA,"",       13.5525,       13.0082,      -3.80253,   40.7433E-03
C:/temp/dataset/0/9_24.odb,Step-1,Increment      1: Step Time =    1.000,"PART-1-1",           352,       11.2086,       15.4830,            0.,NA,NA,"",       13.9154,       13.4630,      -3.51920,   25.0545E-03
C:/temp/dataset/0/9_24.odb,Step-1,Increment      1: Step Time =    1.000,"PART-1-1",           353,       9.86191,       14.2831,            0.,NA,NA,"",       13.5915,       13.2193,      -3.15887,   17.5892E-03
C:/temp/dataset/0/9_24.odb,Step-1,Increment      1: Step Time =    1.000,"PART-1-1",           354,       9.65710,       8.53837,            0.,NA,NA,"",       11.6393,       11.3182,      -2.71503,   39.4865E-03
C:/temp/dataset/0/9_24.odb,Step-1,Increment      1: Step Time =    1.000,"PART-1-1",           355,       8.46627,       10.0105,            0.,NA,NA,"",       12.1799,       11.9295,      -2.45701,   46.5049E-03
C:/temp/dataset/0/9_24.odb,Step-1,Increment      1: Step Time =    1.000,"PART-1-1",           356,       7.24171,       8.43518,            0.,NA,NA,"",       11.5505,       11.4007,      -1.85426,   60.6706E-03
C:/temp/dataset/0/9_24.odb,Step-1,Increment      1: Step Time =    1.000,"PART-1-1",           357,       8.43254,       6.96306,            0.,NA,NA,"",       10.9705,       10.7648,      -2.11433,   46.6856E-03
C:/temp/dataset/0/9_24.odb,Step-1,Increment      1: Step Time =    1.000,"PART-1-1",           358,       13.6558,       2.21224,            0.,NA,NA,"",       9.11520,       8.35882,      -3.63551,   17.0686E-03
C:/temp/dataset/0/9_24.odb,Step-1,Increment      1: Step Time =    1.000,"PART-1-1",           359,           15.,          3.75,            0.,NA,NA,"",       9.90021,       8.90163,      -4.33303,   23.8100E-03
C:/temp/dataset/0/9_24.odb,Step-1,Increment      1: Step Time =    1.000,"PART-1-1",           360,       13.6160,       4.79026,            0.,NA,NA,"",       10.2394,       9.48888,      -3.84782,   26.2654E-03
C:/temp/dataset/0/9_24.odb,Step-1,Increment      1: Step Time =    1.000,"PART-1-1",           361,       12.2717,       3.25251,            0.,NA,NA,"",       9.48450,       8.93602,      -3.17855,   31.1443E-03
C:/temp/dataset/0/9_24.odb,Step-1,Increment      1: Step Time =    1.000,"PART-1-1",           362,       9.69986,       2.68972,            0.,NA,NA,"",       9.13063,       8.88432,      -2.10647,   41.8407E-03
C:/temp/dataset/0/9_24.odb,Step-1,Increment      1: Step Time =    1.000,"PART-1-1",           363,       11.0304,       1.58560,            0.,NA,NA,"",       8.66984,       8.29957,      -2.50662,   36.3464E-03
C:/temp/dataset/0/9_24.odb,Step-1,Increment      1: Step Time =    1.000,"PART-1-1",           364,       7.55861,      -11.4267,            0.,NA,NA,"",       3.03237,       3.03181,   57.8293E-03,   40.8177E-03
C:/temp/dataset/0/9_24.odb,Step-1,Increment      1: Step Time =    1.000,"PART-1-1",           365,       6.31268,      -9.90243,            0.,NA,NA,"",       3.73580,       3.71241,   417.385E-03,   47.4516E-03
C:/temp/dataset/0/9_24.odb,Step-1,Increment      1: Step Time =    1.000,"PART-1-1",           366,            5.,      -11.6667,            0.,NA,NA,"",       3.27646,       3.15032,   900.410E-03,   78.9706E-03
C:/temp/dataset/0/9_24.odb,Step-1,Increment      1: Step Time =    1.000,"PART-1-1",           367,       6.24593,      -13.1909,            0.,NA,NA,"",       2.54394,       2.49393,   501.957E-03,   67.5741E-03
C:/temp/dataset/0/9_24.odb,Step-1,Increment      1: Step Time =    1.000,"PART-1-1",           368,       14.0233,      -5.11850,            0.,NA,NA,"",       5.91608,       5.14491,      -2.92061,   46.0741E-03
C:/temp/dataset/0/9_24.odb,Step-1,Increment      1: Step Time =    1.000,"PART-1-1",           369,           15.,         -3.75,            0.,NA,NA,"",       6.65257,       5.64133,      -3.52591,   40.6782E-03
C:/temp/dataset/0/9_24.odb,Step-1,Increment      1: Step Time =    1.000,"PART-1-1",           370,       13.9118,      -2.74864,            0.,NA,NA,"",       6.93087,       6.15755,      -3.18142,   31.0549E-03
C:/temp/dataset/0/9_24.odb,Step-1,Increment      1: Step Time =    1.000,"PART-1-1",           371,       12.6080,      -16.5365,            0.,NA,NA,"",       1.61352,       1.26154,      -1.00597,   75.8638E-03
C:/temp/dataset/0/9_24.odb,Step-1,Increment      1: Step Time =    1.000,"PART-1-1",           372,       11.3130,      -15.4489,            0.,NA,NA,"",       1.73625,       1.55027,  -781.800E-03,   49.6812E-03
C:/temp/dataset/0/9_24.odb,Step-1,Increment      1: Step Time =    1.000,"PART-1-1",           373,       10.1880,      -16.9099,            0.,NA,NA,"",       1.25519,       1.18206,  -422.177E-03,   32.9657E-03
C:/temp/dataset/0/9_24.odb,Step-1,Increment      1: Step Time =    1.000,"PART-1-1",           374,       11.4829,      -17.9975,            0.,NA,NA,"",       1.12023,   925.480E-03,  -631.189E-03,   54.1631E-03
C:/temp/dataset/0/9_24.odb,Step-1,Increment      1: Step Time =    1.000,"PART-1-1",           375,       7.63417,      -21.6752,            0.,NA,NA,"",   343.535E-03,   333.946E-03,   80.6015E-03,   24.0714E-03
C:/temp/dataset/0/9_24.odb,Step-1,Increment      1: Step Time =    1.000,"PART-1-1",           376,       7.43394,      -23.2038,            0.,NA,NA,"",   223.737E-03,   211.970E-03,   71.6022E-03,   26.6691E-03
C:/temp/dataset/0/9_24.odb,Step-1,Increment      1: Step Time =    1.000,"PART-1-1",           377,       8.61676,      -23.4202,            0.,NA,NA,"",   182.603E-03,   181.286E-03,  -21.8912E-03,   13.4559E-03
C:/temp/dataset/0/9_24.odb,Step-1,Increment      1: Step Time =    1.000,"PART-1-1",           378,       8.81699,      -21.8917,            0.,NA,NA,"",   309.461E-03,   305.967E-03,  -46.3718E-03,   9.62462E-03
C:/temp/dataset/0/9_24.odb,Step-1,Increment      1: Step Time =    1.000,"PART-1-1",           379,  -438.919E-03,      -23.5046,            0.,NA,NA,"",   289.738E-03,   289.692E-03,  -5.15622E-03,   44.6975E-03
C:/temp/dataset/0/9_24.odb,Step-1,Increment      1: Step Time =    1.000,"PART-1-1",           380,   774.543E-03,      -22.4081,            0.,NA,NA,"",   319.691E-03,   316.619E-03,   44.2112E-03,   43.1484E-03
C:/temp/dataset/0/9_24.odb,Step-1,Increment      1: Step Time =    1.000,"PART-1-1",           381,      -7.50181,      -26.8221,            0.,NA,NA,"",   62.9549E-03,   62.6496E-03,  -6.19177E-03,   14.2099E-03
C:/temp/dataset/0/9_24.odb,Step-1,Increment      1: Step Time =    1.000,"PART-1-1",           382,      -9.04643,      -28.2740,            0.,NA,NA,"",   26.4365E-03,   12.6799E-03,   23.1972E-03,   15.5363E-03
C:/temp/dataset/0/9_24.odb,Step-1,Increment      1: Step Time =    1.000,"PART-1-1",           383,          -7.5,          -30.,            0.,NA,NA,"",            0.,   1.13874E-39,   14.1143E-39,   6.58262E-03
C:/temp/dataset/0/9_24.odb,Step-1,Increment      1: Step Time =    1.000,"PART-1-1",           384,      -5.95538,      -28.5482,            0.,NA,NA,"",   30.6525E-03,   29.1041E-03,  -9.61907E-03,   19.7023E-03
C:/temp/dataset/0/9_24.odb,Step-1,Increment      1: Step Time =    1.000,"PART-1-1",           385,      -10.9107,       24.5471,            0.,NA,NA,"",       14.7292,       14.6785,      -1.22135,   30.3620E-03
C:/temp/dataset/0/9_24.odb,Step-1,Increment      1: Step Time =    1.000,"PART-1-1",           386,      -9.41006,       26.0517,            0.,NA,NA,"",       14.9582,       14.8791,      -1.53603,   29.6507E-03
C:/temp/dataset/0/9_24.odb,Step-1,Increment      1: Step Time =    1.000,"PART-1-1",           387,      -10.7443,       27.3091,            0.,NA,NA,"",       15.1625,       15.1077,      -1.28776,   26.4499E-03
C:/temp/dataset/0/9_24.odb,Step-1,Increment      1: Step Time =    1.000,"PART-1-1",           388,      -12.2450,       25.8045,            0.,NA,NA,"",       14.9349,       14.9032,  -971.796E-03,   27.6032E-03
C:/temp/dataset/0/9_24.odb,Step-1,Increment      1: Step Time =    1.000,"PART-1-1",           389,      -1.21620,       23.8189,            0.,NA,NA,"",       14.7033,       14.4792,      -2.55728,   44.6497E-03
C:/temp/dataset/0/9_24.odb,Step-1,Increment      1: Step Time =    1.000,"PART-1-1",           390,      -2.21965,       25.1560,            0.,NA,NA,"",       14.8417,       14.6290,      -2.50373,   34.9293E-03
C:/temp/dataset/0/9_24.odb,Step-1,Increment      1: Step Time =    1.000,"PART-1-1",           391,      -12.3287,       22.9401,            0.,NA,NA,"",       14.4573,       14.4303,  -882.868E-03,   28.2463E-03
C:/temp/dataset/0/9_24.odb,Step-1,Increment      1: Step Time =    1.000,"PART-1-1",           392,      -11.0144,       21.7359,            0.,NA,NA,"",       14.2342,       14.1887,      -1.13766,   22.6802E-03
C:/temp/dataset/0/9_24.odb,Step-1,Increment      1: Step Time =    1.000,"PART-1-1",           393,      -9.59641,       23.3428,            0.,NA,NA,"",       14.5324,       14.4570,      -1.47837,   28.3058E-03
C:/temp/dataset/0/9_24.odb,Step-1,Increment      1: Step Time =    1.000,"PART-1-1",           394,      -8.52014,       19.3558,            0.,NA,NA,"",       13.7231,       13.6236,      -1.64947,   32.3148E-03
C:/temp/dataset/0/9_24.odb,Step-1,Increment      1: Step Time =    1.000,"PART-1-1",           395,      -7.12750,       20.9906,            0.,NA,NA,"",       14.1350,       13.9973,      -1.96814,   39.8437E-03
C:/temp/dataset/0/9_24.odb,Step-1,Increment      1: Step Time =    1.000,"PART-1-1",           396,      -8.32913,       22.1749,            0.,NA,NA,"",       14.3392,       14.2345,      -1.73004,   27.5786E-03
C:/temp/dataset/0/9_24.odb,Step-1,Increment      1: Step Time =    1.000,"PART-1-1",           397,      -9.72177,       20.5400,            0.,NA,NA,"",       13.9930,       13.9229,      -1.39864,   15.3774E-03
C:/temp/dataset/0/9_24.odb,Step-1,Increment      1: Step Time =    1.000,"PART-1-1",           398,      -6.16480,       16.7267,            0.,NA,NA,"",       12.9379,       12.7453,      -2.22386,   75.9088E-03
C:/temp/dataset/0/9_24.odb,Step-1,Increment      1: Step Time =    1.000,"PART-1-1",           399,           -5.,       18.4615,            0.,NA,NA,"",       13.4445,       13.2157,      -2.46997,   139.370E-03
C:/temp/dataset/0/9_24.odb,Step-1,Increment      1: Step Time =    1.000,"PART-1-1",           400,      -6.13199,       19.8034,            0.,NA,NA,"",       13.9014,       13.7321,      -2.16348,   105.087E-03
C:/temp/dataset/0/9_24.odb,Step-1,Increment      1: Step Time =    1.000,"PART-1-1",           401,      -7.29678,       18.0686,            0.,NA,NA,"",       13.3776,       13.2395,      -1.91744,   54.9733E-03
C:/temp/dataset/0/9_24.odb,Step-1,Increment      1: Step Time =    1.000,"PART-1-1",           402,      -11.0823,       15.8203,            0.,NA,NA,"",       12.7328,       12.7013,  -895.377E-03,   21.2173E-03
C:/temp/dataset/0/9_24.odb,Step-1,Increment      1: Step Time =    1.000,"PART-1-1",           403,      -12.3677,       14.0517,            0.,NA,NA,"",       12.2056,       12.1980,  -433.364E-03,   20.6088E-03
C:/temp/dataset/0/9_24.odb,Step-1,Increment      1: Step Time =    1.000,"PART-1-1",           404,      -11.1015,       12.7786,            0.,NA,NA,"",       11.7423,       11.7188,  -742.965E-03,   22.3970E-03
C:/temp/dataset/0/9_24.odb,Step-1,Increment      1: Step Time =    1.000,"PART-1-1",           405,          -15.,          10.5,            0.,NA,NA,"",       11.1587,       11.1376,   685.374E-03,   22.7224E-03
C:/temp/dataset/0/9_24.odb,Step-1,Increment      1: Step Time =    1.000,"PART-1-1",           406,      -13.6919,       9.25384,            0.,NA,NA,"",       10.6327,       10.6277,   324.628E-03,   11.6304E-03
C:/temp/dataset/0/9_24.odb,Step-1,Increment      1: Step Time =    1.000,"PART-1-1",           407,      -12.3755,       11.0249,            0.,NA,NA,"",       11.1833,       11.1807,  -239.537E-03,   18.6455E-03
C:/temp/dataset/0/9_24.odb,Step-1,Increment      1: Step Time =    1.000,"PART-1-1",           408,      -13.6836,       12.2710,            0.,NA,NA,"",       11.6720,       11.6715,   98.9138E-03,   20.6674E-03
C:/temp/dataset/0/9_24.odb,Step-1,Increment      1: Step Time =    1.000,"PART-1-1",           409,      -7.40029,       8.84536,            0.,NA,NA,"",       10.2248,       10.0738,      -1.75080,   38.3944E-03
C:/temp/dataset/0/9_24.odb,Step-1,Increment      1: Step Time =    1.000,"PART-1-1",           410,      -8.62408,       10.1694,            0.,NA,NA,"",       10.7409,       10.6493,      -1.40006,   35.0828E-03
C:/temp/dataset/0/9_24.odb,Step-1,Increment      1: Step Time =    1.000,"PART-1-1",           411,      -9.86273,       8.43495,            0.,NA,NA,"",       10.1339,       10.0927,  -912.941E-03,   29.0351E-03
C:/temp/dataset/0/9_24.odb,Step-1,Increment      1: Step Time =    1.000,"PART-1-1",           412,      -8.63893,       7.11093,            0.,NA,NA,"",       9.59401,       9.51146,      -1.25581,   30.9298E-03
C:/temp/dataset/0/9_24.odb,Step-1,Increment      1: Step Time =    1.000,"PART-1-1",           413,          -15.,           1.5,            0.,NA,NA,"",       7.93605,       7.82573,       1.31864,   21.0146E-03
C:/temp/dataset/0/9_24.odb,Step-1,Increment      1: Step Time =    1.000,"PART-1-1",           414,      -13.7087,   214.116E-03,            0.,NA,NA,"",       7.28620,       7.22838,   916.099E-03,   26.3537E-03
C:/temp/dataset/0/9_24.odb,Step-1,Increment      1: Step Time =    1.000,"PART-1-1",           415,      -12.4129,       1.94059,            0.,NA,NA,"",       7.80347,       7.79534,   356.113E-03,   24.4376E-03
C:/temp/dataset/0/9_24.odb,Step-1,Increment      1: Step Time =    1.000,"PART-1-1",           416,      -13.7042,       3.22647,            0.,NA,NA,"",       8.41786,       8.38522,   740.633E-03,   16.7514E-03
C:/temp/dataset/0/9_24.odb,Step-1,Increment      1: Step Time =    1.000,"PART-1-1",           417,      -9.88317,  -688.536E-03,            0.,NA,NA,"",       6.61046,       6.59991,  -373.316E-03,   27.4118E-03
C:/temp/dataset/0/9_24.odb,Step-1,Increment      1: Step Time =    1.000,"PART-1-1",           418,      -8.64028,      -2.02441,            0.,NA,NA,"",       6.04885,       6.00567,  -721.412E-03,   22.4487E-03
C:/temp/dataset/0/9_24.odb,Step-1,Increment      1: Step Time =    1.000,"PART-1-1",           419,      -7.40757,  -323.915E-03,            0.,NA,NA,"",       6.68688,       6.56718,      -1.25960,   19.5696E-03
C:/temp/dataset/0/9_24.odb,Step-1,Increment      1: Step Time =    1.000,"PART-1-1",           420,      -8.65046,       1.01196,            0.,NA,NA,"",       7.22440,       7.16745,  -905.344E-03,   24.6245E-03
C:/temp/dataset/0/9_24.odb,Step-1,Increment      1: Step Time =    1.000,"PART-1-1",           421,          -15.,          -7.5,            0.,NA,NA,"",       4.72108,       4.43870,       1.60828,   65.3217E-03
C:/temp/dataset/0/9_24.odb,Step-1,Increment      1: Step Time =    1.000,"PART-1-1",           422,      -13.7007,      -8.80606,            0.,NA,NA,"",       4.05443,       3.87242,       1.20115,   59.5554E-03
C:/temp/dataset/0/9_24.odb,Step-1,Increment      1: Step Time =    1.000,"PART-1-1",           423,      -12.4029,      -7.10316,            0.,NA,NA,"",       4.44635,       4.37970,   766.993E-03,   43.8637E-03
C:/temp/dataset/0/9_24.odb,Step-1,Increment      1: Step Time =    1.000,"PART-1-1",           424,      -13.7022,      -5.79711,            0.,NA,NA,"",       5.08386,       4.95119,       1.15386,   47.7210E-03
C:/temp/dataset/0/9_24.odb,Step-1,Increment      1: Step Time =    1.000,"PART-1-1",           425,      -7.34368,      -12.4907,            0.,NA,NA,"",       2.39924,       2.35021,  -482.559E-03,   27.4319E-03
C:/temp/dataset/0/9_24.odb,Step-1,Increment      1: Step Time =    1.000,"PART-1-1",           426,      -8.60430,      -11.1353,            0.,NA,NA,"",       2.81264,       2.80480,  -209.941E-03,   21.0393E-03
C:/temp/dataset/0/9_24.odb,Step-1,Increment      1: Step Time =    1.000,"PART-1-1",           427,      -9.82710,      -12.7746,            0.,NA,NA,"",       2.36144,       2.35438,   182.469E-03,   30.9954E-03
C:/temp/dataset/0/9_24.odb,Step-1,Increment      1: Step Time =    1.000,"PART-1-1",           428,      -8.56648,      -14.1300,            0.,NA,NA,"",       1.92155,       1.91982,  -81.3888E-03,   24.9620E-03
C:/temp/dataset/0/9_24.odb,Step-1,Increment      1: Step Time =    1.000,"PART-1-1",           429,  -730.622E-03,       22.2784,            0.,NA,NA,"",       14.5596,       14.3320,      -2.56450,   45.4623E-03
C:/temp/dataset/0/9_24.odb,Step-1,Increment      1: Step Time =    1.000,"PART-1-1",           430,         -1.25,           20.,            0.,NA,NA,"",       14.3641,       14.1475,      -2.48485,   58.0459E-03
C:/temp/dataset/0/9_24.odb,Step-1,Increment      1: Step Time =    1.000,"PART-1-1",           431,       11.1367,       28.7451,            0.,NA,NA,"",       15.5015,       15.0949,      -3.52743,   14.2591E-03
C:/temp/dataset/0/9_24.odb,Step-1,Increment      1: Step Time =    1.000,"PART-1-1",           432,       10.3125,           30.,            0.,NA,NA,"",       15.6027,       15.2167,      -3.44935,   15.9115E-03
C:/temp/dataset/0/9_24.odb,Step-1,Increment      1: Step Time =    1.000,"PART-1-1",           433,       10.0023,       27.5230,            0.,NA,NA,"",       15.3581,       14.9799,      -3.38711,   20.7450E-03
C:/temp/dataset/0/9_24.odb,Step-1,Increment      1: Step Time =    1.000,"PART-1-1",           434,       10.7751,       23.9735,            0.,NA,NA,"",       15.0873,       14.6874,      -3.45082,   35.0290E-03
C:/temp/dataset/0/9_24.odb,Step-1,Increment      1: Step Time =    1.000,"PART-1-1",           435,       11.7898,       22.7248,            0.,NA,NA,"",       15.0048,       14.5682,      -3.59331,   35.7404E-03
C:/temp/dataset/0/9_24.odb,Step-1,Increment      1: Step Time =    1.000,"PART-1-1",           436,       12.9255,       23.8368,            0.,NA,NA,"",       15.1237,       14.6544,      -3.73835,   31.4898E-03
C:/temp/dataset/0/9_24.odb,Step-1,Increment      1: Step Time =    1.000,"PART-1-1",           437,       2.25220,       28.9826,            0.,NA,NA,"",       15.2685,       15.0148,      -2.77211,   14.7242E-03
C:/temp/dataset/0/9_24.odb,Step-1,Increment      1: Step Time =    1.000,"PART-1-1",           438,       3.21116,       27.8846,            0.,NA,NA,"",       15.1936,       14.9303,      -2.81639,   23.7383E-03
C:/temp/dataset/0/9_24.odb,Step-1,Increment      1: Step Time =    1.000,"PART-1-1",           439,       4.70896,       28.9020,            0.,NA,NA,"",       15.3115,       15.0307,      -2.91906,   21.4843E-03
C:/temp/dataset/0/9_24.odb,Step-1,Increment      1: Step Time =    1.000,"PART-1-1",           440,          3.75,           30.,            0.,NA,NA,"",       15.3663,       15.0963,      -2.86801,   15.6426E-03
C:/temp/dataset/0/9_24.odb,Step-1,Increment      1: Step Time =    1.000,"PART-1-1",           441,      -8.10884,       24.8461,            0.,NA,NA,"",       14.7731,       14.6659,      -1.77630,   25.6193E-03
C:/temp/dataset/0/9_24.odb,Step-1,Increment      1: Step Time =    1.000,"PART-1-1",           442,      -13.5971,       27.1125,            0.,NA,NA,"",       15.1540,       15.1360,  -736.750E-03,   14.3531E-03
C:/temp/dataset/0/9_24.odb,Step-1,Increment      1: Step Time =    1.000,"PART-1-1",           443,          -15.,          25.5,            0.,NA,NA,"",       14.8929,       14.8863,  -443.744E-03,   21.2957E-03
C:/temp/dataset/0/9_24.odb,Step-1,Increment      1: Step Time =    1.000,"PART-1-1",           444,      -13.6479,       24.1920,            0.,NA,NA,"",       14.6747,       14.6604,  -649.515E-03,   27.9678E-03
C:/temp/dataset/0/9_24.odb,Step-1,Increment      1: Step Time =    1.000,"PART-1-1",           445,      -6.53168,       26.2506,            0.,NA,NA,"",       14.9716,       14.8329,      -2.03320,   21.4819E-03
C:/temp/dataset/0/9_24.odb,Step-1,Increment      1: Step Time =    1.000,"PART-1-1",           446,      -7.83289,       27.4562,            0.,NA,NA,"",       15.1535,       15.0436,      -1.82197,   24.6527E-03
C:/temp/dataset/0/9_24.odb,Step-1,Increment      1: Step Time =    1.000,"PART-1-1",           447,          -15.,          28.5,            0.,NA,NA,"",       15.3998,       15.3913,  -511.477E-03,   3.25514E-03
C:/temp/dataset/0/9_24.odb,Step-1,Increment      1: Step Time =    1.000,"PART-1-1",           448,      -12.0971,       28.6125,            0.,NA,NA,"",       15.3915,       15.3562,      -1.04255,   14.4265E-03
C:/temp/dataset/0/9_24.odb,Step-1,Increment      1: Step Time =    1.000,"PART-1-1",           449,         -13.5,           30.,            0.,NA,NA,"",       15.6523,       15.6316,  -803.282E-03,   3.22463E-03
C:/temp/dataset/0/9_24.odb,Step-1,Increment      1: Step Time =    1.000,"PART-1-1",           450,      -6.19829,       10.5730,            0.,NA,NA,"",       10.8458,       10.6198,      -2.20221,   49.9291E-03
C:/temp/dataset/0/9_24.odb,Step-1,Increment      1: Step Time =    1.000,"PART-1-1",           451,      -6.20201,       7.50308,            0.,NA,NA,"",       9.70834,       9.47651,      -2.10894,   38.5384E-03
C:/temp/dataset/0/9_24.odb,Step-1,Increment      1: Step Time =    1.000,"PART-1-1",           452,           -5.,       9.23077,            0.,NA,NA,"",       10.3516,       10.0251,      -2.57944,   51.7799E-03
C:/temp/dataset/0/9_24.odb,Step-1,Increment      1: Step Time =    1.000,"PART-1-1",           453,      -12.4049,       4.96458,            0.,NA,NA,"",       8.95673,       8.95520,   166.032E-03,   20.0728E-03
C:/temp/dataset/0/9_24.odb,Step-1,Increment      1: Step Time =    1.000,"PART-1-1",           454,      -13.7007,       6.23810,            0.,NA,NA,"",       9.54013,       9.52474,   541.665E-03,   9.64039E-03
C:/temp/dataset/0/9_24.odb,Step-1,Increment      1: Step Time =    1.000,"PART-1-1",           455,          -15.,           4.5,            0.,NA,NA,"",       9.03753,       8.96601,       1.13473,   6.91061E-03
C:/temp/dataset/0/9_24.odb,Step-1,Increment      1: Step Time =    1.000,"PART-1-1",           456,      -9.87977,       5.38582,            0.,NA,NA,"",       8.97181,       8.94148,  -737.061E-03,   27.9579E-03
C:/temp/dataset/0/9_24.odb,Step-1,Increment      1: Step Time =    1.000,"PART-1-1",           457,      -8.64969,       4.05795,            0.,NA,NA,"",       8.41401,       8.34353,      -1.08678,   27.4310E-03
C:/temp/dataset/0/9_24.odb,Step-1,Increment      1: Step Time =    1.000,"PART-1-1",           458,      -7.40885,       5.78306,            0.,NA,NA,"",       9.05995,       8.91531,      -1.61242,   31.1011E-03
C:/temp/dataset/0/9_24.odb,Step-1,Increment      1: Step Time =    1.000,"PART-1-1",           459,      -7.41391,       2.72502,            0.,NA,NA,"",       7.87224,       7.73859,      -1.44443,   24.7225E-03
C:/temp/dataset/0/9_24.odb,Step-1,Increment      1: Step Time =    1.000,"PART-1-1",           460,      -9.88624,       2.34489,            0.,NA,NA,"",       7.78989,       7.77016,  -554.127E-03,   27.4718E-03
C:/temp/dataset/0/9_24.odb,Step-1,Increment      1: Step Time =    1.000,"PART-1-1",           461,      -12.4101,      -4.09106,            0.,NA,NA,"",       5.52701,       5.48689,   664.720E-03,   36.6388E-03
C:/temp/dataset/0/9_24.odb,Step-1,Increment      1: Step Time =    1.000,"PART-1-1",           462,      -13.7080,      -2.79395,            0.,NA,NA,"",       6.16768,       6.07646,       1.05684,   36.7427E-03
C:/temp/dataset/0/9_24.odb,Step-1,Increment      1: Step Time =    1.000,"PART-1-1",           463,          -15.,          -4.5,            0.,NA,NA,"",       5.75692,       5.54015,       1.56491,   49.8929E-03
C:/temp/dataset/0/9_24.odb,Step-1,Increment      1: Step Time =    1.000,"PART-1-1",           464,      -9.87646,      -3.71895,            0.,NA,NA,"",       5.45425,       5.45053,  -201.326E-03,   27.7119E-03
C:/temp/dataset/0/9_24.odb,Step-1,Increment      1: Step Time =    1.000,"PART-1-1",           465,      -8.63520,      -5.06687,            0.,NA,NA,"",       4.90422,       4.87473,  -537.039E-03,   21.0550E-03
C:/temp/dataset/0/9_24.odb,Step-1,Increment      1: Step Time =    1.000,"PART-1-1",           466,      -7.39901,      -3.37233,            0.,NA,NA,"",       5.52331,       5.42001,      -1.06323,   16.5849E-03
C:/temp/dataset/0/9_24.odb,Step-1,Increment      1: Step Time =    1.000,"PART-1-1",           467,      -7.39417,      -6.42670,            0.,NA,NA,"",       4.40186,       4.31686,  -860.841E-03,   17.0196E-03
C:/temp/dataset/0/9_24.odb,Step-1,Increment      1: Step Time =    1.000,"PART-1-1",           468,      -9.87187,      -6.75385,            0.,NA,NA,"",       4.34155,       4.34133,  -44.1645E-03,   28.3536E-03
C:/temp/dataset/0/9_24.odb,Step-1,Increment      1: Step Time =    1.000,"PART-1-1",           469,      -8.63084,      -8.11369,            0.,NA,NA,"",       3.81441,       3.79721,  -361.811E-03,   20.5979E-03
C:/temp/dataset/0/9_24.odb,Step-1,Increment      1: Step Time =    1.000,"PART-1-1",           470,      -12.3844,      -13.1215,            0.,NA,NA,"",       2.51869,       2.37898,   827.192E-03,   60.5400E-03
C:/temp/dataset/0/9_24.odb,Step-1,Increment      1: Step Time =    1.000,"PART-1-1",           471,      -13.6984,      -11.8123,            0.,NA,NA,"",       3.10464,       2.86880,       1.18693,   72.5162E-03
C:/temp/dataset/0/9_24.odb,Step-1,Increment      1: Step Time =    1.000,"PART-1-1",           472,          -15.,         -13.5,            0.,NA,NA,"",       2.85952,       2.44545,       1.48212,   100.146E-03
C:/temp/dataset/0/9_24.odb,Step-1,Increment      1: Step Time =    1.000,"PART-1-1",           473,      -7.37693,      -9.46970,            0.,NA,NA,"",       3.35202,       3.28525,  -665.681E-03,   20.9077E-03
C:/temp/dataset/0/9_24.odb,Step-1,Increment      1: Step Time =    1.000,"PART-1-1",           474,      -9.85821,      -9.77933,            0.,NA,NA,"",       3.30056,       3.29943,   86.2776E-03,   29.3496E-03
C:/temp/dataset/0/9_24.odb,Step-1,Increment      1: Step Time =    1.000,"PART-1-1",           475,      -8.48236,      -17.0363,            0.,NA,NA,"",       1.16994,       1.16990,   9.43112E-03,   34.9140E-03
C:/temp/dataset/0/9_24.odb,Step-1,Increment      1: Step Time =    1.000,"PART-1-1",           476,      -7.28434,      -15.4580,            0.,NA,NA,"",       1.56609,       1.53398,  -315.494E-03,   39.7425E-03
C:/temp/dataset/0/9_24.odb,Step-1,Increment      1: Step Time =    1.000,"PART-1-1",           477,      -9.76451,      -15.7083,            0.,NA,NA,"",       1.55433,       1.53647,   234.937E-03,   35.5810E-03
C:/temp/dataset/0/9_24.odb,Step-1,Increment      1: Step Time =    1.000,"PART-1-1",           478,      -8.29054,      -19.6175,            0.,NA,NA,"",   635.447E-03,   635.141E-03,   19.7268E-03,   37.0904E-03
C:/temp/dataset/0/9_24.odb,Step-1,Increment      1: Step Time =    1.000,"PART-1-1",           479,      -7.20240,      -18.2338,            0.,NA,NA,"",   879.344E-03,   863.329E-03,  -167.063E-03,   44.6375E-03
C:/temp/dataset/0/9_24.odb,Step-1,Increment      1: Step Time =    1.000,"PART-1-1",           480,      -9.57051,      -18.4200,            0.,NA,NA,"",   925.541E-03,   900.905E-03,   212.124E-03,   38.5154E-03
C:/temp/dataset/0/9_24.odb,Step-1,Increment      1: Step Time =    1.000,"PART-1-1",           481,      -11.5327,      -24.2644,            0.,NA,NA,"",   347.130E-03,   228.142E-03,   261.631E-03,   58.5102E-03
C:/temp/dataset/0/9_24.odb,Step-1,Increment      1: Step Time =    1.000,"PART-1-1",           482,      -10.1789,      -23.4859,            0.,NA,NA,"",   304.642E-03,   249.265E-03,   175.138E-03,   38.0597E-03
C:/temp/dataset/0/9_24.odb,Step-1,Increment      1: Step Time =    1.000,"PART-1-1",           483,      -10.8627,      -21.7859,            0.,NA,NA,"",   528.917E-03,   431.208E-03,   306.289E-03,   52.8089E-03
C:/temp/dataset/0/9_24.odb,Step-1,Increment      1: Step Time =    1.000,"PART-1-1",           484,      -12.2165,      -22.5644,            0.,NA,NA,"",   579.025E-03,   399.103E-03,   419.507E-03,   73.1024E-03
C:/temp/dataset/0/9_24.odb,Step-1,Increment      1: Step Time =    1.000,"PART-1-1",           485,      -6.15301,      -21.8453,            0.,NA,NA,"",   370.331E-03,   326.291E-03,  -175.155E-03,   45.0360E-03
C:/temp/dataset/0/9_24.odb,Step-1,Increment      1: Step Time =    1.000,"PART-1-1",           486,      -7.48433,      -22.7723,            0.,NA,NA,"",   269.825E-03,   264.679E-03,  -52.4489E-03,   19.4007E-03
C:/temp/dataset/0/9_24.odb,Step-1,Increment      1: Step Time =    1.000,"PART-1-1",           487,      -6.61766,      -24.1583,            0.,NA,NA,"",   207.699E-03,   193.092E-03,  -76.5149E-03,   25.7133E-03
C:/temp/dataset/0/9_24.odb,Step-1,Increment      1: Step Time =    1.000,"PART-1-1",           488,      -9.30746,      -21.9937,            0.,NA,NA,"",   378.082E-03,   357.381E-03,   123.389E-03,   32.0541E-03
C:/temp/dataset/0/9_24.odb,Step-1,Increment      1: Step Time =    1.000,"PART-1-1",           489,      -9.12330,      -20.5212,            0.,NA,NA,"",   540.675E-03,   525.372E-03,   127.725E-03,   34.4247E-03
C:/temp/dataset/0/9_24.odb,Step-1,Increment      1: Step Time =    1.000,"PART-1-1",           490,      -10.6786,      -20.3134,            0.,NA,NA,"",   702.802E-03,   615.728E-03,   338.837E-03,   52.3199E-03
C:/temp/dataset/0/9_24.odb,Step-1,Increment      1: Step Time =    1.000,"PART-1-1",           491,         -13.5,          -30.,            0.,NA,NA,"",            0.,  -5.77860E-39,   153.979E-39,   81.9593E-03
C:/temp/dataset/0/9_24.odb,Step-1,Increment      1: Step Time =    1.000,"PART-1-1",           492,      -12.0973,      -28.5120,            0.,NA,NA,"",   72.6799E-03,   25.0446E-03,   68.2286E-03,   57.7244E-03
C:/temp/dataset/0/9_24.odb,Step-1,Increment      1: Step Time =    1.000,"PART-1-1",           493,      -13.5973,      -27.0120,            0.,NA,NA,"",   251.734E-03,   130.302E-03,   215.386E-03,   87.1855E-03
C:/temp/dataset/0/9_24.odb,Step-1,Increment      1: Step Time =    1.000,"PART-1-1",           494,          -15.,         -28.5,            0.,NA,NA,"",   182.506E-03,   117.007E-03,   140.063E-03,   107.892E-03
C:/temp/dataset/0/9_24.odb,Step-1,Increment      1: Step Time =    1.000,"PART-1-1",           495,      -2.59553,      -21.0976,            0.,NA,NA,"",   363.229E-03,   348.215E-03,  -103.350E-03,   33.8782E-03
C:/temp/dataset/0/9_24.odb,Step-1,Increment      1: Step Time =    1.000,"PART-1-1",           496,      -1.51596,      -22.2324,            0.,NA,NA,"",   328.946E-03,   324.940E-03,  -51.1793E-03,   42.6526E-03
C:/temp/dataset/0/9_24.odb,Step-1,Increment      1: Step Time =    1.000,"PART-1-1",           497,  -170.430E-03,      -21.1349,            0.,NA,NA,"",   317.850E-03,   317.793E-03,   6.00750E-03,   15.1019E-03
C:/temp/dataset/0/9_24.odb,Step-1,Increment      1: Step Time =    1.000,"PART-1-1",           498,         -1.25,          -20.,            0.,NA,NA,"",   295.561E-03,   294.142E-03,  -28.9206E-03,   11.1244E-03
C:/temp/dataset/0/9_24.odb,Step-1,Increment      1: Step Time =    1.000,"PART-1-1",           499,       2.92795,      -28.2085,            0.,NA,NA,"",   72.5030E-03,   69.9492E-03,   19.0737E-03,   34.9819E-03
C:/temp/dataset/0/9_24.odb,Step-1,Increment      1: Step Time =    1.000,"PART-1-1",           500,  -103.307E-03,      -28.5907,            0.,NA,NA,"",   70.7832E-03,   70.7811E-03,   544.035E-06,   35.6522E-03
C:/temp/dataset/0/9_24.odb,Step-1,Increment      1: Step Time =    1.000,"PART-1-1",           501,           1.5,          -30.,            0.,NA,NA,"",            0.,   37.8307E-39,   11.6657E-39,   29.0879E-03
C:/temp/dataset/0/9_24.odb,Step-1,Increment      1: Step Time =    1.000,"PART-1-1",           502,       2.19497,      -21.2732,            0.,NA,NA,"",   370.933E-03,   354.186E-03,   110.201E-03,   33.7039E-03
C:/temp/dataset/0/9_24.odb,Step-1,Increment      1: Step Time =    1.000,"PART-1-1",           503,          1.25,          -20.,            0.,NA,NA,"",   304.639E-03,   300.368E-03,   50.8372E-03,   21.0855E-03
C:/temp/dataset/0/9_24.odb,Step-1,Increment      1: Step Time =    1.000,"PART-1-1",           504,       4.38160,      -21.6436,            0.,NA,NA,"",   442.088E-03,   376.987E-03,   230.917E-03,   97.4339E-03
C:/temp/dataset/0/9_24.odb,Step-1,Increment      1: Step Time =    1.000,"PART-1-1",           505,          3.75,          -20.,            0.,NA,NA,"",   442.981E-03,   404.225E-03,   181.204E-03,   97.9863E-03
C:/temp/dataset/0/9_24.odb,Step-1,Increment      1: Step Time =    1.000,"PART-1-1",           506,       12.4146,      -26.3616,            0.,NA,NA,"",   216.489E-03,   59.0903E-03,  -208.269E-03,   71.6344E-03
C:/temp/dataset/0/9_24.odb,Step-1,Increment      1: Step Time =    1.000,"PART-1-1",           507,       11.3720,      -25.0651,            0.,NA,NA,"",   230.014E-03,   89.4564E-03,  -211.906E-03,   53.7576E-03
C:/temp/dataset/0/9_24.odb,Step-1,Increment      1: Step Time =    1.000,"PART-1-1",           508,       9.80011,      -26.1459,            0.,NA,NA,"",   84.3676E-03,   34.1229E-03,  -77.1590E-03,   26.5915E-03
C:/temp/dataset/0/9_24.odb,Step-1,Increment      1: Step Time =    1.000,"PART-1-1",           509,       10.8427,      -27.4423,            0.,NA,NA,"",   84.2767E-03,   2.76178E-03,  -84.2314E-03,   42.7269E-03
C:/temp/dataset/0/9_24.odb,Step-1,Increment      1: Step Time =    1.000,"PART-1-1",           510,       10.6574,      -21.6616,            0.,NA,NA,"",   440.736E-03,   336.180E-03,  -285.011E-03,   41.5489E-03
C:/temp/dataset/0/9_24.odb,Step-1,Increment      1: Step Time =    1.000,"PART-1-1",           511,       9.56375,      -20.8051,            0.,NA,NA,"",   462.703E-03,   433.651E-03,  -161.372E-03,   22.7811E-03
C:/temp/dataset/0/9_24.odb,Step-1,Increment      1: Step Time =    1.000,"PART-1-1",           512,       9.91066,      -22.7482,            0.,NA,NA,"",   275.974E-03,   226.927E-03,  -157.053E-03,   28.5715E-03
C:/temp/dataset/0/9_24.odb,Step-1,Increment      1: Step Time =    1.000,"PART-1-1",           513,       13.7822,      -25.0807,            0.,NA,NA,"",   425.429E-03,   159.361E-03,  -394.454E-03,   97.0812E-03
C:/temp/dataset/0/9_24.odb,Step-1,Increment      1: Step Time =    1.000,"PART-1-1",           514,       13.6324,      -27.5308,            0.,NA,NA,"",   188.795E-03,   61.0102E-03,  -178.665E-03,   89.7095E-03
C:/temp/dataset/0/9_24.odb,Step-1,Increment      1: Step Time =    1.000,"PART-1-1",           515,           15.,        -26.25,            0.,NA,NA,"",   394.814E-03,   169.615E-03,  -356.523E-03,   113.125E-03
C:/temp/dataset/0/9_24.odb,Step-1,Increment      1: Step Time =    1.000,"PART-1-1",           516,          13.5,          -30.,            0.,NA,NA,"",            0.,  -4.44816E-39,  -147.718E-39,   78.4001E-03
C:/temp/dataset/0/9_24.odb,Step-1,Increment      1: Step Time =    1.000,"PART-1-1",           517,           15.,        -28.75,            0.,NA,NA,"",   141.306E-03,   85.2010E-03,  -112.731E-03,   106.068E-03
C:/temp/dataset/0/9_24.odb,Step-1,Increment      1: Step Time =    1.000,"PART-1-1",           518,       12.1324,      -28.7808,            0.,NA,NA,"",   57.0936E-03,  -6.44277E-03,  -56.7289E-03,   59.0500E-03
C:/temp/dataset/0/9_24.odb,Step-1,Increment      1: Step Time =    1.000,"PART-1-1",           519,       10.4418,      -23.8774,            0.,NA,NA,"",   231.275E-03,   145.992E-03,  -179.373E-03,   37.7510E-03
C:/temp/dataset/0/9_24.odb,Step-1,Increment      1: Step Time =    1.000,"PART-1-1",           520,       12.6627,      -23.9582,            0.,NA,NA,"",   428.201E-03,   179.600E-03,  -388.716E-03,   80.0302E-03
C:/temp/dataset/0/9_24.odb,Step-1,Increment      1: Step Time =    1.000,"PART-1-1",           521,       11.7324,      -22.7705,            0.,NA,NA,"",   439.701E-03,   244.177E-03,  -365.670E-03,   62.7849E-03
C:/temp/dataset/0/9_24.odb,Step-1,Increment      1: Step Time =    1.000,"PART-1-1",           522,       13.8804,      -22.6275,            0.,NA,NA,"",   708.723E-03,   321.300E-03,  -631.707E-03,   107.849E-03
C:/temp/dataset/0/9_24.odb,Step-1,Increment      1: Step Time =    1.000,"PART-1-1",           523,           15.,        -23.75,            0.,NA,NA,"",   687.166E-03,   294.207E-03,  -620.998E-03,   125.556E-03
C:/temp/dataset/0/9_24.odb,Step-1,Increment      1: Step Time =    1.000,"PART-1-1",           524,       10.4567,      -19.3679,            0.,NA,NA,"",   749.086E-03,   658.562E-03,  -356.968E-03,   35.6022E-03
C:/temp/dataset/0/9_24.odb,Step-1,Increment      1: Step Time =    1.000,"PART-1-1",           525,       11.6911,      -20.4036,            0.,NA,NA,"",   715.611E-03,   506.372E-03,  -505.655E-03,   61.9165E-03
C:/temp/dataset/0/9_24.odb,Step-1,Increment      1: Step Time =    1.000,"PART-1-1",           526,       13.7764,      -15.1383,            0.,NA,NA,"",       2.19160,       1.62452,      -1.47107,   99.8090E-03
C:/temp/dataset/0/9_24.odb,Step-1,Increment      1: Step Time =    1.000,"PART-1-1",           527,           15.,        -16.25,            0.,NA,NA,"",       2.15258,       1.36887,      -1.66127,   136.432E-03
C:/temp/dataset/0/9_24.odb,Step-1,Increment      1: Step Time =    1.000,"PART-1-1",           528,       13.9082,      -7.52913,            0.,NA,NA,"",       4.89315,       4.17896,      -2.54543,   60.4370E-03
C:/temp/dataset/0/9_24.odb,Step-1,Increment      1: Step Time =    1.000,"PART-1-1",           529,       12.6962,      -8.81215,            0.,NA,NA,"",       4.20113,       3.74289,      -1.90796,   56.3779E-03
C:/temp/dataset/0/9_24.odb,Step-1,Increment      1: Step Time =    1.000,"PART-1-1",           530,           15.,         -8.75,            0.,NA,NA,"",       4.61680,       3.65924,      -2.81511,   81.8668E-03
C:/temp/dataset/0/9_24.odb,Step-1,Increment      1: Step Time =    1.000,"PART-1-1",           531,       12.9315,      -6.39763,            0.,NA,NA,"",       5.22546,       4.68940,      -2.30541,   49.1284E-03
C:/temp/dataset/0/9_24.odb,Step-1,Increment      1: Step Time =    1.000,"PART-1-1",           532,           15.,         -6.25,            0.,NA,NA,"",       5.60737,       4.61768,      -3.18113,   61.3873E-03
C:/temp/dataset/0/9_24.odb,Step-1,Increment      1: Step Time =    1.000,"PART-1-1",           533,       13.7496,  -319.059E-03,            0.,NA,NA,"",       7.99376,       7.23252,      -3.40454,   19.5696E-03
C:/temp/dataset/0/9_24.odb,Step-1,Increment      1: Step Time =    1.000,"PART-1-1",           534,       12.6614,      -1.81770,            0.,NA,NA,"",       7.21697,       6.66361,      -2.77144,   34.8628E-03
C:/temp/dataset/0/9_24.odb,Step-1,Increment      1: Step Time =    1.000,"PART-1-1",           535,           15.,         -1.25,            0.,NA,NA,"",       7.73154,       6.71050,      -3.84003,   19.7064E-03
C:/temp/dataset/0/9_24.odb,Step-1,Increment      1: Step Time =    1.000,"PART-1-1",           536,       12.4054,   643.186E-03,            0.,NA,NA,"",       8.31531,       7.77281,      -2.95428,   31.9358E-03
C:/temp/dataset/0/9_24.odb,Step-1,Increment      1: Step Time =    1.000,"PART-1-1",           537,           15.,          1.25,            0.,NA,NA,"",       8.82198,       7.80459,      -4.11287,   2.45100E-03
C:/temp/dataset/0/9_24.odb,Step-1,Increment      1: Step Time =    1.000,"PART-1-1",           538,           15.,          6.25,            0.,NA,NA,"",       10.9404,       9.97726,      -4.48855,   45.8835E-03
C:/temp/dataset/0/9_24.odb,Step-1,Increment      1: Step Time =    1.000,"PART-1-1",           539,       10.9661,       10.0010,            0.,NA,NA,"",       12.2353,       11.7927,      -3.26101,   30.3427E-03
C:/temp/dataset/0/9_24.odb,Step-1,Increment      1: Step Time =    1.000,"PART-1-1",           540,       13.7311,       15.1467,            0.,NA,NA,"",       13.8694,       13.2437,      -4.11877,   69.9401E-03
C:/temp/dataset/0/9_24.odb,Step-1,Increment      1: Step Time =    1.000,"PART-1-1",           541,       13.6638,       12.5861,            0.,NA,NA,"",       13.1743,       12.5039,      -4.14923,   64.8911E-03
C:/temp/dataset/0/9_24.odb,Step-1,Increment      1: Step Time =    1.000,"PART-1-1",           542,           15.,         13.75,            0.,NA,NA,"",       13.5310,       12.7652,      -4.48768,   94.6307E-03
C:/temp/dataset/0/9_24.odb,Step-1,Increment      1: Step Time =    1.000,"PART-1-1",           543,       10.0887,       16.9483,            0.,NA,NA,"",       14.2152,       13.8301,      -3.28615,   21.1760E-03
C:/temp/dataset/0/9_24.odb,Step-1,Increment      1: Step Time =    1.000,"PART-1-1",           544,       12.5455,       16.5489,            0.,NA,NA,"",       14.1665,       13.6422,      -3.81846,   43.9432E-03
C:/temp/dataset/0/9_24.odb,Step-1,Increment      1: Step Time =    1.000,"PART-1-1",           545,       13.9423,       22.5670,            0.,NA,NA,"",       15.0236,       14.5112,      -3.89012,   38.0782E-03
C:/temp/dataset/0/9_24.odb,Step-1,Increment      1: Step Time =    1.000,"PART-1-1",           546,       12.8310,       21.4264,            0.,NA,NA,"",       14.8971,       14.4138,      -3.76378,   40.2630E-03
C:/temp/dataset/0/9_24.odb,Step-1,Increment      1: Step Time =    1.000,"PART-1-1",           547,           15.,         21.25,            0.,NA,NA,"",       14.8946,       14.3291,      -4.06524,   59.1969E-03
C:/temp/dataset/0/9_24.odb,Step-1,Increment      1: Step Time =    1.000,"PART-1-1",           548,       13.0804,       28.7387,            0.,NA,NA,"",       15.5505,       15.0933,      -3.74305,   7.04259E-03
C:/temp/dataset/0/9_24.odb,Step-1,Increment      1: Step Time =    1.000,"PART-1-1",           549,       12.1875,           30.,            0.,NA,NA,"",       15.6558,       15.2233,      -3.65475,   6.23696E-03
C:/temp/dataset/0/9_24.odb,Step-1,Increment      1: Step Time =    1.000,"PART-1-1",           550,           15.,         28.75,            0.,NA,NA,"",       15.5916,       15.0854,      -3.94050,   1.26329E-03
C:/temp/dataset/0/9_24.odb,Step-1,Increment      1: Step Time =    1.000,"PART-1-1",           551,       14.0625,           30.,            0.,NA,NA,"",       15.6959,       15.2159,      -3.85211,   1.10032E-03
C:/temp/dataset/0/9_24.odb,Step-1,Increment      1: Step Time =    1.000,"PART-1-1",           552,       8.83353,       26.4105,            0.,NA,NA,"",       15.2269,       14.8779,      -3.24147,   25.4637E-03
C:/temp/dataset/0/9_24.odb,Step-1,Increment      1: Step Time =    1.000,"PART-1-1",           553,       9.77062,       25.1982,            0.,NA,NA,"",       15.1571,       14.7862,      -3.33271,   29.2362E-03
C:/temp/dataset/0/9_24.odb,Step-1,Increment      1: Step Time =    1.000,"PART-1-1",           554,       5.62710,       27.7270,            0.,NA,NA,"",       15.2383,       14.9464,      -2.96825,   19.9169E-03
C:/temp/dataset/0/9_24.odb,Step-1,Increment      1: Step Time =    1.000,"PART-1-1",           555,          6.25,           30.,            0.,NA,NA,"",       15.4482,       15.1441,      -3.05022,   26.3154E-03
C:/temp/dataset/0/9_24.odb,Step-1,Increment      1: Step Time =    1.000,"PART-1-1",           556,   375.256E-03,       24.5574,            0.,NA,NA,"",       14.8176,       14.5794,      -2.64609,   41.1107E-03
C:/temp/dataset/0/9_24.odb,Step-1,Increment      1: Step Time =    1.000,"PART-1-1",           557,   860.838E-03,       23.0169,            0.,NA,NA,"",       14.6772,       14.4361,      -2.64933,   39.8522E-03
C:/temp/dataset/0/9_24.odb,Step-1,Increment      1: Step Time =    1.000,"PART-1-1",           558,       10.5910,       21.6677,            0.,NA,NA,"",       14.8800,       14.4834,      -3.41242,   39.9313E-03
C:/temp/dataset/0/9_24.odb,Step-1,Increment      1: Step Time =    1.000,"PART-1-1",           559,       9.14786,      -24.5495,            0.,NA,NA,"",   121.783E-03,   106.581E-03,  -58.9190E-03,   16.2364E-03
C:/temp/dataset/0/9_24.odb,Step-1,Increment      1: Step Time =    1.000,"PART-1-1",           560,           15.,        -21.25,            0.,NA,NA,"",       1.06482,   514.984E-03,  -932.009E-03,   139.312E-03
C:/temp/dataset/0/9_24.odb,Step-1,Increment      1: Step Time =    1.000,"PART-1-1",           561,       12.7662,      -21.5126,            0.,NA,NA,"",   705.845E-03,   390.831E-03,  -587.766E-03,   83.3124E-03
C:/temp/dataset/0/9_24.odb,Step-1,Increment      1: Step Time =    1.000,"PART-1-1",           562,           15.,        -13.75,            0.,NA,NA,"",       2.87362,       2.01473,      -2.04904,   121.018E-03
C:/temp/dataset/0/9_24.odb,Step-1,Increment      1: Step Time =    1.000,"PART-1-1",           563,       12.5272,      -13.9788,            0.,NA,NA,"",       2.32294,       1.95964,      -1.24734,   69.3013E-03
C:/temp/dataset/0/9_24.odb,Step-1,Increment      1: Step Time =    1.000,"PART-1-1",           564,           15.,         11.25,            0.,NA,NA,"",       12.7871,       11.9441,      -4.56615,   84.4510E-03
C:/temp/dataset/0/9_24.odb,Step-1,Increment      1: Step Time =    1.000,"PART-1-1",           565,       12.2906,       11.3331,            0.,NA,NA,"",       12.7409,       12.1819,      -3.73253,   37.7323E-03
C:/temp/dataset/0/9_24.odb,Step-1,Increment      1: Step Time =    1.000,"PART-1-1",           566,       7.23650,       5.28124,            0.,NA,NA,"",       10.2551,       10.1522,      -1.44921,   48.3199E-03
C:/temp/dataset/0/9_24.odb,Step-1,Increment      1: Step Time =    1.000,"PART-1-1",           567,       8.44697,       3.91887,            0.,NA,NA,"",       9.66413,       9.50277,      -1.75866,   41.1569E-03
C:/temp/dataset/0/9_24.odb,Step-1,Increment      1: Step Time =    1.000,"PART-1-1",           568,       9.72373,       11.4508,            0.,NA,NA,"",       12.7215,       12.3699,      -2.97020,   29.3890E-03
C:/temp/dataset/0/9_24.odb,Step-1,Increment      1: Step Time =    1.000,"PART-1-1",           569,           15.,         16.25,            0.,NA,NA,"",       14.1258,       13.4380,      -4.35411,   94.1434E-03
C:/temp/dataset/0/9_24.odb,Step-1,Increment      1: Step Time =    1.000,"PART-1-1",           570,       6.21850,       16.4100,            0.,NA,NA,"",       14.0258,       13.8135,      -2.43130,   87.7234E-03
C:/temp/dataset/0/9_24.odb,Step-1,Increment      1: Step Time =    1.000,"PART-1-1",           571,       7.58992,       17.5073,            0.,NA,NA,"",       14.2820,       14.0061,      -2.79350,   46.9325E-03
C:/temp/dataset/0/9_24.odb,Step-1,Increment      1: Step Time =    1.000,"PART-1-1",           572,       6.37141,       19.4306,            0.,NA,NA,"",       14.5542,       14.3021,      -2.69727,   70.8618E-03
C:/temp/dataset/0/9_24.odb,Step-1,Increment      1: Step Time =    1.000,"PART-1-1",           573,            5.,       18.3333,            0.,NA,NA,"",       14.3339,       14.1298,      -2.41029,   128.913E-03
C:/temp/dataset/0/9_24.odb,Step-1,Increment      1: Step Time =    1.000,"PART-1-1",           574,           15.,         23.75,            0.,NA,NA,"",       15.1411,       14.6097,      -3.97607,   33.6596E-03
C:/temp/dataset/0/9_24.odb,Step-1,Increment      1: Step Time =    1.000,"PART-1-1",           575,         -3.75,          -20.,            0.,NA,NA,"",   390.196E-03,   358.859E-03,  -153.208E-03,   76.0570E-03
C:/temp/dataset/0/9_24.odb,Step-1,Increment      1: Step Time =    1.000,"PART-1-1",           576,      -5.05545,      -21.0122,            0.,NA,NA,"",   478.657E-03,   391.965E-03,  -274.729E-03,   96.4253E-03
C:/temp/dataset/0/9_24.odb,Step-1,Increment      1: Step Time =    1.000,"PART-1-1",           577,       7.51719,       25.3425,            0.,NA,NA,"",       15.0919,       14.7740,      -3.08119,   27.6626E-03
C:/temp/dataset/0/9_24.odb,Step-1,Increment      1: Step Time =    1.000,"PART-1-1",           578,       6.22510,       24.4051,            0.,NA,NA,"",       14.9616,       14.6708,      -2.93548,   38.6495E-03
C:/temp/dataset/0/9_24.odb,Step-1,Increment      1: Step Time =    1.000,"PART-1-1",           579,       7.27278,       23.2327,            0.,NA,NA,"",       14.9031,       14.5999,      -2.99045,   41.8492E-03
C:/temp/dataset/0/9_24.odb,Step-1,Increment      1: Step Time =    1.000,"PART-1-1",           580,       8.56487,       24.1701,            0.,NA,NA,"",       15.0324,       14.6951,      -3.16661,   37.1589E-03
C:/temp/dataset/0/9_24.odb,Step-1,Increment      1: Step Time =    1.000,"PART-1-1",           581,            5.,      -8.33333,            0.,NA,NA,"",       4.55130,       4.47259,   842.756E-03,   52.3736E-03
C:/temp/dataset/0/9_24.odb,Step-1,Increment      1: Step Time =    1.000,"PART-1-1",           582,       7.86568,      -7.92961,            0.,NA,NA,"",       4.39336,       4.38616,  -251.369E-03,   32.9661E-03
C:/temp/dataset/0/9_24.odb,Step-1,Increment      1: Step Time =    1.000,"PART-1-1",           583,       6.55300,      -6.36051,            0.,NA,NA,"",       5.15644,       5.15489,   126.135E-03,   27.6569E-03
C:/temp/dataset/0/9_24.odb,Step-1,Increment      1: Step Time =    1.000,"PART-1-1",           584,       2.48006,       24.7002,            0.,NA,NA,"",       14.8743,       14.6202,      -2.73787,   40.4236E-03
C:/temp/dataset/0/9_24.odb,Step-1,Increment      1: Step Time =    1.000,"PART-1-1",           585,       1.90437,       23.5201,            0.,NA,NA,"",       14.7477,       14.4990,      -2.69672,   40.5016E-03
C:/temp/dataset/0/9_24.odb,Step-1,Increment      1: Step Time =    1.000,"PART-1-1",           586,       3.20717,       23.2686,            0.,NA,NA,"",       14.7556,       14.4991,      -2.73921,   44.1942E-03
C:/temp/dataset/0/9_24.odb,Step-1,Increment      1: Step Time =    1.000,"PART-1-1",           587,       3.78286,       24.4486,            0.,NA,NA,"",       14.8820,       14.6185,      -2.78818,   43.9355E-03
C:/temp/dataset/0/9_24.odb,Step-1,Increment      1: Step Time =    1.000,"PART-1-1",           588,   574.843E-03,       25.7278,            0.,NA,NA,"",       14.9433,       14.7036,      -2.66620,   38.8750E-03
C:/temp/dataset/0/9_24.odb,Step-1,Increment      1: Step Time =    1.000,"PART-1-1",           589,       1.89275,       27.1317,            0.,NA,NA,"",       15.1036,       14.8528,      -2.74110,   31.5656E-03
C:/temp/dataset/0/9_24.odb,Step-1,Increment      1: Step Time =    1.000,"PART-1-1",           590,   743.770E-03,       27.8321,            0.,NA,NA,"",       15.1572,       14.9171,      -2.68746,   27.5334E-03
C:/temp/dataset/0/9_24.odb,Step-1,Increment      1: Step Time =    1.000,"PART-1-1",           591,  -574.133E-03,       26.4282,            0.,NA,NA,"",       15.0042,       14.7753,      -2.61075,   34.6501E-03
C:/temp/dataset/0/9_24.odb,Step-1,Increment      1: Step Time =    1.000,"PART-1-1",           592,          1.25,           30.,            0.,NA,NA,"",       15.3281,       15.0852,      -2.71822,   5.67784E-03
C:/temp/dataset/0/9_24.odb,Step-1,Increment      1: Step Time =    1.000,"PART-1-1",           593,  -258.432E-03,       28.8495,            0.,NA,NA,"",       15.2454,       15.0165,      -2.63189,   19.9149E-03
C:/temp/dataset/0/9_24.odb,Step-1,Increment      1: Step Time =    1.000,"PART-1-1",           594,       3.99806,       26.6235,            0.,NA,NA,"",       15.0960,       14.8257,      -2.84366,   30.9216E-03
C:/temp/dataset/0/9_24.odb,Step-1,Increment      1: Step Time =    1.000,"PART-1-1",           595,       4.96332,       25.4314,            0.,NA,NA,"",       15.0110,       14.7327,      -2.87661,   32.4200E-03
C:/temp/dataset/0/9_24.odb,Step-1,Increment      1: Step Time =    1.000,"PART-1-1",           596,       6.59236,       26.5350,            0.,NA,NA,"",       15.1631,       14.8587,      -3.02317,   25.2485E-03
C:/temp/dataset/0/9_24.odb,Step-1,Increment      1: Step Time =    1.000,"PART-1-1",           597,          -1.5,           30.,            0.,NA,NA,"",       15.3489,       15.1369,      -2.54216,   30.4103E-03
C:/temp/dataset/0/9_24.odb,Step-1,Increment      1: Step Time =    1.000,"PART-1-1",           598,      -3.21021,       28.8021,            0.,NA,NA,"",       15.2675,       15.0754,      -2.41459,   31.6258E-03
C:/temp/dataset/0/9_24.odb,Step-1,Increment      1: Step Time =    1.000,"PART-1-1",           599,      -1.96864,       27.6516,            0.,NA,NA,"",       15.1321,       14.9205,      -2.52195,   26.9637E-03
C:/temp/dataset/0/9_24.odb,Step-1,Increment      1: Step Time =    1.000,"PART-1-1",           600,       2.23679,       22.3955,            0.,NA,NA,"",       14.6591,       14.4096,      -2.69293,   35.5246E-03
C:/temp/dataset/0/9_24.odb,Step-1,Increment      1: Step Time =    1.000,"PART-1-1",           601,       6.10470,      -23.0953,            0.,NA,NA,"",   290.311E-03,   247.989E-03,   150.937E-03,   46.6417E-03
C:/temp/dataset/0/9_24.odb,Step-1,Increment      1: Step Time =    1.000,"PART-1-1",           602,       5.87020,      -25.1929,            0.,NA,NA,"",   158.315E-03,   134.896E-03,   82.8662E-03,   44.1761E-03
C:/temp/dataset/0/9_24.odb,Step-1,Increment      1: Step Time =    1.000,"PART-1-1",           603,       7.19944,      -25.3013,            0.,NA,NA,"",   107.620E-03,   98.6034E-03,   43.1222E-03,   24.9737E-03
C:/temp/dataset/0/9_24.odb,Step-1,Increment      1: Step Time =    1.000,"PART-1-1",           604,       10.0350,      -14.2359,            0.,NA,NA,"",       2.01167,       1.93987,  -532.644E-03,   34.7996E-03
C:/temp/dataset/0/9_24.odb,Step-1,Increment      1: Step Time =    1.000,"PART-1-1",           605,       11.6788,      -7.40939,            0.,NA,NA,"",       4.67058,       4.35135,      -1.69706,   45.4672E-03
C:/temp/dataset/0/9_24.odb,Step-1,Increment      1: Step Time =    1.000,"PART-1-1",           606,       11.2427,      -1.09783,            0.,NA,NA,"",       7.44898,       7.09161,      -2.27954,   37.2581E-03
C:/temp/dataset/0/9_24.odb,Step-1,Increment      1: Step Time =    1.000,"PART-1-1",           607,       7.93860,       19.8912,            0.,NA,NA,"",       14.6373,       14.3362,      -2.95348,   51.4681E-03
C:/temp/dataset/0/9_24.odb,Step-1,Increment      1: Step Time =    1.000,"PART-1-1",           608,       8.98253,       18.5426,            0.,NA,NA,"",       14.4746,       14.1397,      -3.09560,   32.0461E-03
C:/temp/dataset/0/9_24.odb,Step-1,Increment      1: Step Time =    1.000,"PART-1-1",           609,       9.31070,       20.7205,            0.,NA,NA,"",       14.7545,       14.4043,      -3.19533,   43.3528E-03
C:/temp/dataset/0/9_24.odb,Step-1,Increment      1: Step Time =    1.000,"PART-1-1",           610,       3.88086,       22.5675,            0.,NA,NA,"",       14.7108,       14.4526,      -2.74416,   48.7096E-03
C:/temp/dataset/0/9_24.odb,Step-1,Increment      1: Step Time =    1.000,"PART-1-1",           611,       2.67965,       25.8706,            0.,NA,NA,"",       14.9946,       14.7375,      -2.76469,   37.3745E-03
C:/temp/dataset/0/9_24.odb,Step-1,Increment      1: Step Time =    1.000,"PART-1-1",           612,            5.,          -15.,            0.,NA,NA,"",       2.15690,       1.99337,   823.823E-03,   104.470E-03
C:/temp/dataset/0/9_24.odb,Step-1,Increment      1: Step Time =    1.000,"PART-1-1",           613,       6.27023,      -16.3841,            0.,NA,NA,"",       1.52457,       1.46260,   430.244E-03,   83.1277E-03
C:/temp/dataset/0/9_24.odb,Step-1,Increment      1: Step Time =    1.000,"PART-1-1",           614,       7.51616,      -14.5750,            0.,NA,NA,"",       1.95039,       1.94468,   149.042E-03,   53.0061E-03
C:/temp/dataset/0/9_24.odb,Step-1,Increment      1: Step Time =    1.000,"PART-1-1",           615,       6.15302,       13.2331,            0.,NA,NA,"",       13.2189,       13.0560,      -2.06884,   87.0394E-03
C:/temp/dataset/0/9_24.odb,Step-1,Increment      1: Step Time =    1.000,"PART-1-1",           616,       7.37153,       14.6431,            0.,NA,NA,"",       13.6401,       13.4006,      -2.54483,   57.6675E-03
C:/temp/dataset/0/9_24.odb,Step-1,Increment      1: Step Time =    1.000,"PART-1-1",           617,            5.,           15.,            0.,NA,NA,"",       13.6459,       13.5036,      -1.96613,   119.381E-03
C:/temp/dataset/0/9_24.odb,Step-1,Increment      1: Step Time =    1.000,"PART-1-1",           618,            5.,       11.6667,            0.,NA,NA,"",       12.7144,       12.6268,      -1.48992,   109.227E-03
C:/temp/dataset/0/9_24.odb,Step-1,Increment      1: Step Time =    1.000,"PART-1-1",           619,       6.12690,       10.0064,            0.,NA,NA,"",       12.1410,       12.0274,      -1.65708,   78.4030E-03
C:/temp/dataset/0/9_24.odb,Step-1,Increment      1: Step Time =    1.000,"PART-1-1",           620,       7.27992,       11.5729,            0.,NA,NA,"",       12.7170,       12.5192,      -2.23416,   58.6685E-03
C:/temp/dataset/0/9_24.odb,Step-1,Increment      1: Step Time =    1.000,"PART-1-1",           621,       6.15632,   278.618E-03,            0.,NA,NA,"",       8.10866,       8.10022,  -369.776E-03,   23.4669E-03
C:/temp/dataset/0/9_24.odb,Step-1,Increment      1: Step Time =    1.000,"PART-1-1",           622,            5.,      -1.66667,            0.,NA,NA,"",       7.36357,       7.35516,   351.838E-03,   4.07735E-03
C:/temp/dataset/0/9_24.odb,Step-1,Increment      1: Step Time =    1.000,"PART-1-1",           623,       6.25252,      -2.97068,            0.,NA,NA,"",       6.66032,       6.66012,  -51.8026E-03,   15.7036E-03
C:/temp/dataset/0/9_24.odb,Step-1,Increment      1: Step Time =    1.000,"PART-1-1",           624,       7.67955,      -17.4721,            0.,NA,NA,"",       1.09550,       1.09064,   103.045E-03,   46.3624E-03
C:/temp/dataset/0/9_24.odb,Step-1,Increment      1: Step Time =    1.000,"PART-1-1",           625,            5.,      -18.3333,            0.,NA,NA,"",       1.16451,       1.01353,   573.454E-03,   167.491E-03
C:/temp/dataset/0/9_24.odb,Step-1,Increment      1: Step Time =    1.000,"PART-1-1",           626,       6.40932,      -19.4213,            0.,NA,NA,"",   701.778E-03,   648.449E-03,   268.340E-03,   102.926E-03
C:/temp/dataset/0/9_24.odb,Step-1,Increment      1: Step Time =    1.000,"PART-1-1",           627,      -1.73152,      -24.7018,            0.,NA,NA,"",   247.406E-03,   243.288E-03,  -44.9505E-03,   50.1427E-03
C:/temp/dataset/0/9_24.odb,Step-1,Increment      1: Step Time =    1.000,"PART-1-1",           628,       9.06065,      -18.5206,            0.,NA,NA,"",   837.942E-03,   826.262E-03,  -139.417E-03,   25.3198E-03
C:/temp/dataset/0/9_24.odb,Step-1,Increment      1: Step Time =    1.000,"PART-1-1",           629,       8.80686,      -15.8614,            0.,NA,NA,"",       1.50370,       1.49599,  -152.067E-03,   36.8398E-03
C:/temp/dataset/0/9_24.odb,Step-1,Increment      1: Step Time =    1.000,"PART-1-1",           630,       10.3171,      -8.61722,            0.,NA,NA,"",       4.08637,       3.94381,      -1.06992,   39.9500E-03
C:/temp/dataset/0/9_24.odb,Step-1,Increment      1: Step Time =    1.000,"PART-1-1",           631,       8.85917,      -9.88939,            0.,NA,NA,"",       3.56014,       3.53071,  -456.819E-03,   32.5917E-03
C:/temp/dataset/0/9_24.odb,Step-1,Increment      1: Step Time =    1.000,"PART-1-1",           632,       8.74431,      -12.9496,            0.,NA,NA,"",       2.42848,       2.41670,  -238.964E-03,   33.9040E-03
C:/temp/dataset/0/9_24.odb,Step-1,Increment      1: Step Time =    1.000,"PART-1-1",           633,       6.89786,       21.2129,            0.,NA,NA,"",       14.7241,       14.4436,      -2.86007,   59.9592E-03
C:/temp/dataset/0/9_24.odb,Step-1,Increment      1: Step Time =    1.000,"PART-1-1",           634,       10.2659,      -2.76771,            0.,NA,NA,"",       6.64452,       6.42581,      -1.69076,   41.7866E-03
C:/temp/dataset/0/9_24.odb,Step-1,Increment      1: Step Time =    1.000,"PART-1-1",           635,       7.80552,      -4.33119,            0.,NA,NA,"",       5.95197,       5.92683,  -546.428E-03,   30.9796E-03
C:/temp/dataset/0/9_24.odb,Step-1,Increment      1: Step Time =    1.000,"PART-1-1",           636,            5.,           -5.,            0.,NA,NA,"",       5.92926,       5.89318,   653.113E-03,   24.3513E-03
C:/temp/dataset/0/9_24.odb,Step-1,Increment      1: Step Time =    1.000,"PART-1-1",           637,       7.27801,       2.13112,            0.,NA,NA,"",       8.88143,       8.81704,      -1.06752,   38.0028E-03
C:/temp/dataset/0/9_24.odb,Step-1,Increment      1: Step Time =    1.000,"PART-1-1",           638,       6.12168,       3.51917,            0.,NA,NA,"",       9.52630,       9.49565,  -763.514E-03,   41.7164E-03
C:/temp/dataset/0/9_24.odb,Step-1,Increment      1: Step Time =    1.000,"PART-1-1",           639,            5.,       1.66667,            0.,NA,NA,"",       8.80169,       8.80161,  -36.1935E-03,   31.8048E-03
C:/temp/dataset/0/9_24.odb,Step-1,Increment      1: Step Time =    1.000,"PART-1-1",           640,            5.,            5.,            0.,NA,NA,"",       10.1947,       10.1832,  -485.264E-03,   58.2174E-03
C:/temp/dataset/0/9_24.odb,Step-1,Increment      1: Step Time =    1.000,"PART-1-1",           641,       6.11481,       6.76207,            0.,NA,NA,"",       10.8774,       10.8114,      -1.19614,   61.1466E-03
C:/temp/dataset/0/9_24.odb,Step-1,Increment      1: Step Time =    1.000,"PART-1-1",           642,       8.53738,       13.0133,            0.,NA,NA,"",       13.2041,       12.9179,      -2.73418,   38.2572E-03
C:/temp/dataset/0/9_24.odb,Step-1,Increment      1: Step Time =    1.000,"PART-1-1",           643,       8.69606,       15.9130,            0.,NA,NA,"",       13.9759,       13.6618,      -2.94623,   33.1452E-03
C:/temp/dataset/0/9_24.odb,Step-1,Increment      1: Step Time =    1.000,"PART-1-1",           644,       9.56938,       22.9454,            0.,NA,NA,"",       14.9664,       14.6043,      -3.27251,   39.0223E-03
C:/temp/dataset/0/9_24.odb,Step-1,Increment      1: Step Time =    1.000,"PART-1-1",           645,       8.28908,       21.9981,            0.,NA,NA,"",       14.8424,       14.5215,      -3.06997,   48.6758E-03
C:/temp/dataset/0/9_24.odb,Step-1,Increment      1: Step Time =    1.000,"PART-1-1",           646,      -3.61415,       26.3795,            0.,NA,NA,"",       14.9828,       14.7912,      -2.38865,   25.2458E-03
C:/temp/dataset/0/9_24.odb,Step-1,Increment      1: Step Time =    1.000,"PART-1-1",           647,      -6.18563,       28.7596,            0.,NA,NA,"",       15.3152,       15.1744,      -2.07215,   34.7239E-03
C:/temp/dataset/0/9_24.odb,Step-1,Increment      1: Step Time =    1.000,"PART-1-1",           648,      -4.89584,       27.5617,            0.,NA,NA,"",       15.1382,       14.9707,      -2.24548,   20.9431E-03
C:/temp/dataset/0/9_24.odb,Step-1,Increment      1: Step Time =    1.000,"PART-1-1",           649,          -4.5,           30.,            0.,NA,NA,"",       15.4304,       15.2625,      -2.27018,   46.2027E-03
C:/temp/dataset/0/9_24.odb,Step-1,Increment      1: Step Time =    1.000,"PART-1-1",           650,          -15.,          19.5,            0.,NA,NA,"",       13.7603,       13.7600,  -92.1464E-03,   56.9745E-03
C:/temp/dataset/0/9_24.odb,Step-1,Increment      1: Step Time =    1.000,"PART-1-1",           651,      -13.6835,       18.2834,            0.,NA,NA,"",       13.4613,       13.4571,  -337.079E-03,   38.9662E-03
C:/temp/dataset/0/9_24.odb,Step-1,Increment      1: Step Time =    1.000,"PART-1-1",           652,      -12.3643,       20.0316,            0.,NA,NA,"",       13.8729,       13.8519,  -762.478E-03,   21.2201E-03
C:/temp/dataset/0/9_24.odb,Step-1,Increment      1: Step Time =    1.000,"PART-1-1",           653,      -13.6808,       21.2481,            0.,NA,NA,"",       14.1355,       14.1261,  -515.466E-03,   37.9439E-03
C:/temp/dataset/0/9_24.odb,Step-1,Increment      1: Step Time =    1.000,"PART-1-1",           654,      -6.08047,      -19.7739,            0.,NA,NA,"",   568.202E-03,   509.897E-03,  -250.715E-03,   90.3528E-03
C:/temp/dataset/0/9_24.odb,Step-1,Increment      1: Step Time =    1.000,"PART-1-1",           655,      -7.17803,      -20.6070,            0.,NA,NA,"",   459.118E-03,   444.797E-03,  -113.775E-03,   34.2645E-03
C:/temp/dataset/0/9_24.odb,Step-1,Increment      1: Step Time =    1.000,"PART-1-1",           656,       5.87583,      -21.1387,            0.,NA,NA,"",   474.396E-03,   406.813E-03,   244.040E-03,   73.4225E-03
C:/temp/dataset/0/9_24.odb,Step-1,Increment      1: Step Time =    1.000,"PART-1-1",           657,       4.61047,      -23.6002,            0.,NA,NA,"",   296.390E-03,   254.922E-03,   151.200E-03,   57.9049E-03
C:/temp/dataset/0/9_24.odb,Step-1,Increment      1: Step Time =    1.000,"PART-1-1",           658,       4.56928,      -26.4448,            0.,NA,NA,"",   126.204E-03,   111.247E-03,   59.5953E-03,   38.8285E-03
C:/temp/dataset/0/9_24.odb,Step-1,Increment      1: Step Time =    1.000,"PART-1-1",           659,       5.04464,       23.4223,            0.,NA,NA,"",       14.8277,       14.5572,      -2.81910,   45.8856E-03
C:/temp/dataset/0/9_24.odb,Step-1,Increment      1: Step Time =    1.000,"PART-1-1",           660,       5.88156,       22.4475,            0.,NA,NA,"",       14.7764,       14.5031,      -2.82884,   59.9532E-03
C:/temp/dataset/0/9_24.odb,Step-1,Increment      1: Step Time =    1.000,"PART-1-1",           661,      -1.61333,      -27.2257,            0.,NA,NA,"",   129.910E-03,   128.482E-03,  -19.2152E-03,   36.9074E-03
C:/temp/dataset/0/9_24.odb,Step-1,Increment      1: Step Time =    1.000,"PART-1-1",           662,      -3.01002,      -28.6350,            0.,NA,NA,"",   57.4879E-03,   56.1897E-03,  -12.1477E-03,   32.3935E-03
C:/temp/dataset/0/9_24.odb,Step-1,Increment      1: Step Time =    1.000,"PART-1-1",           663,          -1.5,          -30.,            0.,NA,NA,"",            0.,   38.2182E-39,  -8.70553E-39,   30.7661E-03
C:/temp/dataset/0/9_24.odb,Step-1,Increment      1: Step Time =    1.000,"PART-1-1",           664,            5.,       8.33333,            0.,NA,NA,"",       11.5015,       11.4608,  -966.629E-03,   83.6471E-03
C:/temp/dataset/0/9_24.odb,Step-1,Increment      1: Step Time =    1.000,"PART-1-1",           665,       8.16766,      -19.9578,            0.,NA,NA,"",   552.800E-03,   552.283E-03,   23.9112E-03,   22.3697E-03
C:/temp/dataset/0/9_24.odb,Step-1,Increment      1: Step Time =    1.000,"PART-1-1",           666,       7.85169,      -26.8977,            0.,NA,NA,"",   27.3268E-03,   27.1752E-03,   2.87526E-03,   17.7283E-03
C:/temp/dataset/0/9_24.odb,Step-1,Increment      1: Step Time =    1.000,"PART-1-1",           667,          -4.5,          -30.,            0.,NA,NA,"",            0.,   20.7424E-39,  -15.0022E-39,   18.8985E-03
C:/temp/dataset/0/9_24.odb,Step-1,Increment      1: Step Time =    1.000,"PART-1-1",           668,      -7.38541,       11.9129,            0.,NA,NA,"",       11.3436,       11.1918,      -1.84983,   46.3711E-03
C:/temp/dataset/0/9_24.odb,Step-1,Increment      1: Step Time =    1.000,"PART-1-1",           669,      -9.84369,       11.4885,            0.,NA,NA,"",       11.2520,       11.2012,      -1.06853,   30.5667E-03
C:/temp/dataset/0/9_24.odb,Step-1,Increment      1: Step Time =    1.000,"PART-1-1",           670,           -5.,      -18.4615,            0.,NA,NA,"",       1.00933,   832.405E-03,  -570.832E-03,   117.431E-03
C:/temp/dataset/0/9_24.odb,Step-1,Increment      1: Step Time =    1.000,"PART-1-1",           671,      -6.12192,      -16.9214,            0.,NA,NA,"",       1.25286,       1.16137,  -469.983E-03,   61.0625E-03
C:/temp/dataset/0/9_24.odb,Step-1,Increment      1: Step Time =    1.000,"PART-1-1",           672,      -12.3453,      -25.6066,            0.,NA,NA,"",   296.691E-03,   165.176E-03,   246.460E-03,   69.8735E-03
C:/temp/dataset/0/9_24.odb,Step-1,Increment      1: Step Time =    1.000,"PART-1-1",           673,      -10.6437,      -26.7860,            0.,NA,NA,"",   122.003E-03,   68.7602E-03,   100.781E-03,   40.4565E-03
C:/temp/dataset/0/9_24.odb,Step-1,Increment      1: Step Time =    1.000,"PART-1-1",           674,      -9.83114,      -25.4438,            0.,NA,NA,"",   155.818E-03,   120.327E-03,   98.9995E-03,   27.9964E-03
C:/temp/dataset/0/9_24.odb,Step-1,Increment      1: Step Time =    1.000,"PART-1-1",           675,      -8.43320,      -25.2132,            0.,NA,NA,"",   126.544E-03,   124.271E-03,   23.8789E-03,   6.43474E-03
C:/temp/dataset/0/9_24.odb,Step-1,Increment      1: Step Time =    1.000,"PART-1-1",           676,      -9.78639,       17.5920,            0.,NA,NA,"",       13.2426,       13.1782,      -1.30414,   23.3505E-03
C:/temp/dataset/0/9_24.odb,Step-1,Increment      1: Step Time =    1.000,"PART-1-1",           677,      -11.0716,       18.8358,            0.,NA,NA,"",       13.5840,       13.5452,      -1.02603,   13.2871E-03
C:/temp/dataset/0/9_24.odb,Step-1,Increment      1: Step Time =    1.000,"PART-1-1",           678,      -12.3675,       17.0640,            0.,NA,NA,"",       13.1194,       13.1052,  -609.937E-03,   20.4473E-03
C:/temp/dataset/0/9_24.odb,Step-1,Increment      1: Step Time =    1.000,"PART-1-1",           679,      -12.1189,      -19.2948,            0.,NA,NA,"",       1.03618,   850.499E-03,   591.885E-03,   71.7124E-03
C:/temp/dataset/0/9_24.odb,Step-1,Increment      1: Step Time =    1.000,"PART-1-1",           680,      -11.0109,      -17.4013,            0.,NA,NA,"",       1.26938,       1.17775,   473.546E-03,   54.2856E-03
C:/temp/dataset/0/9_24.odb,Step-1,Increment      1: Step Time =    1.000,"PART-1-1",           681,      -8.01079,      -21.5107,            0.,NA,NA,"",   373.720E-03,   373.406E-03,  -15.3041E-03,   23.4937E-03
C:/temp/dataset/0/9_24.odb,Step-1,Increment      1: Step Time =    1.000,"PART-1-1",           682,           4.5,          -30.,            0.,NA,NA,"",            0.,   16.9785E-39,   13.9906E-39,   15.8640E-03
C:/temp/dataset/0/9_24.odb,Step-1,Increment      1: Step Time =    1.000,"PART-1-1",           683,       6.14133,      -28.2363,            0.,NA,NA,"",   26.3872E-03,   22.3707E-03,   13.9941E-03,   20.8007E-03
C:/temp/dataset/0/9_24.odb,Step-1,Increment      1: Step Time =    1.000,"PART-1-1",           684,      -9.14726,       28.6966,            0.,NA,NA,"",       15.3619,       15.2790,      -1.59404,   27.1857E-03
C:/temp/dataset/0/9_24.odb,Step-1,Increment      1: Step Time =    1.000,"PART-1-1",           685,         -10.5,           30.,            0.,NA,NA,"",       15.6145,       15.5556,      -1.35487,   20.7677E-03
C:/temp/dataset/0/9_24.odb,Step-1,Increment      1: Step Time =    1.000,"PART-1-1",           686,      -6.18127,      -10.8771,            0.,NA,NA,"",       2.94648,       2.79590,  -929.905E-03,   31.3821E-03
C:/temp/dataset/0/9_24.odb,Step-1,Increment      1: Step Time =    1.000,"PART-1-1",           687,      -6.16241,      -13.9212,            0.,NA,NA,"",       2.04734,       1.92206,  -705.195E-03,   44.1011E-03
C:/temp/dataset/0/9_24.odb,Step-1,Increment      1: Step Time =    1.000,"PART-1-1",           688,           -5.,      -12.3077,            0.,NA,NA,"",       2.61897,       2.34354,      -1.16912,   51.6168E-03
C:/temp/dataset/0/9_24.odb,Step-1,Increment      1: Step Time =    1.000,"PART-1-1",           689,         -10.5,          -30.,            0.,NA,NA,"",            0.,  -7.97110E-39,   77.7049E-39,   33.4849E-03
C:/temp/dataset/0/9_24.odb,Step-1,Increment      1: Step Time =    1.000,"PART-1-1",           690,          -15.,          22.5,            0.,NA,NA,"",       14.3731,       14.3698,  -306.243E-03,   44.6958E-03
C:/temp/dataset/0/9_24.odb,Step-1,Increment      1: Step Time =    1.000,"PART-1-1",           691,          -15.,          16.5,            0.,NA,NA,"",       13.0105,       13.0094,   165.927E-03,   52.7572E-03
C:/temp/dataset/0/9_24.odb,Step-1,Increment      1: Step Time =    1.000,"PART-1-1",           692,      -13.6840,       15.2806,            0.,NA,NA,"",       12.6273,       12.6267,  -124.819E-03,   31.1326E-03
C:/temp/dataset/0/9_24.odb,Step-1,Increment      1: Step Time =    1.000,"PART-1-1",           693,          -15.,          13.5,            0.,NA,NA,"",       12.1324,       12.1247,   431.459E-03,   38.6904E-03
C:/temp/dataset/0/9_24.odb,Step-1,Increment      1: Step Time =    1.000,"PART-1-1",           694,      -6.20685,       4.43382,            0.,NA,NA,"",       8.53474,       8.30437,      -1.96959,   27.6552E-03
C:/temp/dataset/0/9_24.odb,Step-1,Increment      1: Step Time =    1.000,"PART-1-1",           695,           -5.,       6.15385,            0.,NA,NA,"",       9.20532,       8.86383,      -2.48402,   37.0327E-03
C:/temp/dataset/0/9_24.odb,Step-1,Increment      1: Step Time =    1.000,"PART-1-1",           696,      -6.20051,      -1.69203,            0.,NA,NA,"",       6.17678,       5.96601,      -1.59976,   9.34557E-03
C:/temp/dataset/0/9_24.odb,Step-1,Increment      1: Step Time =    1.000,"PART-1-1",           697,      -6.19850,      -4.75722,            0.,NA,NA,"",       5.03522,       4.84146,      -1.38336,   10.7538E-03
C:/temp/dataset/0/9_24.odb,Step-1,Increment      1: Step Time =    1.000,"PART-1-1",           698,           -5.,      -3.07692,            0.,NA,NA,"",       5.71150,       5.37308,      -1.93682,   6.55810E-03
C:/temp/dataset/0/9_24.odb,Step-1,Increment      1: Step Time =    1.000,"PART-1-1",           699,      -12.3926,       7.99194,            0.,NA,NA,"",       10.0905,       10.0905,  -35.3156E-03,   17.9502E-03
C:/temp/dataset/0/9_24.odb,Step-1,Increment      1: Step Time =    1.000,"PART-1-1",           700,          -15.,           7.5,            0.,NA,NA,"",       10.1190,       10.0769,   921.473E-03,   7.62574E-03
C:/temp/dataset/0/9_24.odb,Step-1,Increment      1: Step Time =    1.000,"PART-1-1",           701,      -12.4166,      -1.07984,            0.,NA,NA,"",       6.65252,       6.63169,   526.108E-03,   30.1180E-03
C:/temp/dataset/0/9_24.odb,Step-1,Increment      1: Step Time =    1.000,"PART-1-1",           702,          -15.,          -1.5,            0.,NA,NA,"",       6.83554,       6.67669,       1.46507,   35.2485E-03
C:/temp/dataset/0/9_24.odb,Step-1,Increment      1: Step Time =    1.000,"PART-1-1",           703,      -12.3992,      -10.1184,            0.,NA,NA,"",       3.43403,       3.33337,   825.364E-03,   51.8405E-03
C:/temp/dataset/0/9_24.odb,Step-1,Increment      1: Step Time =    1.000,"PART-1-1",           704,          -15.,         -10.5,            0.,NA,NA,"",       3.74864,       3.39727,       1.58459,   81.9956E-03
C:/temp/dataset/0/9_24.odb,Step-1,Increment      1: Step Time =    1.000,"PART-1-1",           705,      -6.19567,      -7.82333,            0.,NA,NA,"",       3.94949,       3.77625,      -1.15691,   20.0306E-03
C:/temp/dataset/0/9_24.odb,Step-1,Increment      1: Step Time =    1.000,"PART-1-1",           706,           -5.,      -6.15385,            0.,NA,NA,"",       4.60641,       4.28261,      -1.69655,   21.3245E-03
C:/temp/dataset/0/9_24.odb,Step-1,Increment      1: Step Time =    1.000,"PART-1-1",           707,          -15.,         -22.5,            0.,NA,NA,"",   895.162E-03,   539.369E-03,   714.421E-03,   119.388E-03
C:/temp/dataset/0/9_24.odb,Step-1,Increment      1: Step Time =    1.000,"PART-1-1",           708,      -13.7480,      -24.0946,            0.,NA,NA,"",   560.197E-03,   324.032E-03,   456.972E-03,   94.5732E-03
C:/temp/dataset/0/9_24.odb,Step-1,Increment      1: Step Time =    1.000,"PART-1-1",           709,      -13.4685,      -20.9699,            0.,NA,NA,"",   939.838E-03,   651.938E-03,   676.958E-03,   97.9239E-03
C:/temp/dataset/0/9_24.odb,Step-1,Increment      1: Step Time =    1.000,"PART-1-1",           710,          -15.,         -25.5,            0.,NA,NA,"",   505.091E-03,   279.223E-03,   420.893E-03,   108.851E-03
C:/temp/dataset/0/9_24.odb,Step-1,Increment      1: Step Time =    1.000,"PART-1-1",           711,           7.5,          -30.,            0.,NA,NA,"",            0.,  -8.81091E-39,  -16.3189E-39,   9.14547E-03
C:/temp/dataset/0/9_24.odb,Step-1,Increment      1: Step Time =    1.000,"PART-1-1",           712,       9.21036,      -28.6615,            0.,NA,NA,"",   24.4675E-03,  -14.7628E-03,  -19.5121E-03,   21.0503E-03
C:/temp/dataset/0/9_24.odb,Step-1,Increment      1: Step Time =    1.000,"PART-1-1",           713,          10.5,          -30.,            0.,NA,NA,"",            0.,  -17.9406E-39,  -81.4009E-39,   37.4333E-03
C:/temp/dataset/0/9_24.odb,Step-1,Increment      1: Step Time =    1.000,"PART-1-1",           714,          -7.5,           30.,            0.,NA,NA,"",       15.5346,       15.4217,      -1.86904,   41.2902E-03
C:/temp/dataset/0/9_24.odb,Step-1,Increment      1: Step Time =    1.000,"PART-1-1",           715,          -15.,         -19.5,            0.,NA,NA,"",       1.41447,   978.225E-03,       1.02167,   125.374E-03
C:/temp/dataset/0/9_24.odb,Step-1,Increment      1: Step Time =    1.000,"PART-1-1",           716,      -6.18713,       13.6475,            0.,NA,NA,"",       11.9234,       11.7101,      -2.24518,   62.0989E-03
C:/temp/dataset/0/9_24.odb,Step-1,Increment      1: Step Time =    1.000,"PART-1-1",           717,           -5.,       15.3846,            0.,NA,NA,"",       12.4739,       12.2019,      -2.59072,   83.1307E-03
C:/temp/dataset/0/9_24.odb,Step-1,Increment      1: Step Time =    1.000,"PART-1-1",           718,           -5.,       12.3077,            0.,NA,NA,"",       11.4495,       11.1469,      -2.61512,   66.5182E-03
C:/temp/dataset/0/9_24.odb,Step-1,Increment      1: Step Time =    1.000,"PART-1-1",           719,           -5.,            0.,            0.,NA,NA,"",       6.86159,       6.51487,      -2.15355,   8.09477E-03
C:/temp/dataset/0/9_24.odb,Step-1,Increment      1: Step Time =    1.000,"PART-1-1",           720,      -6.20706,       1.36812,            0.,NA,NA,"",       7.34944,       7.12651,      -1.79641,   17.4360E-03
C:/temp/dataset/0/9_24.odb,Step-1,Increment      1: Step Time =    1.000,"PART-1-1",           721,           -5.,       3.07692,            0.,NA,NA,"",       8.03392,       7.68590,      -2.33898,   22.5178E-03
C:/temp/dataset/0/9_24.odb,Step-1,Increment      1: Step Time =    1.000,"PART-1-1",           722,           -5.,      -9.23077,            0.,NA,NA,"",       3.56892,       3.26568,      -1.43962,   36.6784E-03
C:/temp/dataset/0/9_24.odb,Step-1,Increment      1: Step Time =    1.000,"PART-1-1",           723,      -8.78100,      -23.2553,            0.,NA,NA,"",   247.681E-03,   241.238E-03,   56.1244E-03,   15.6738E-03
C:/temp/dataset/0/9_24.odb,Step-1,Increment      1: Step Time =    1.000,"PART-1-1",           724,      -11.0900,      -14.4409,            0.,NA,NA,"",       1.99643,       1.92917,   513.852E-03,   46.3015E-03
C:/temp/dataset/0/9_24.odb,Step-1,Increment      1: Step Time =    1.000,"PART-1-1",           725,      -11.1215,      -11.4552,            0.,NA,NA,"",       2.86447,       2.82232,   489.593E-03,   41.0310E-03
C:/temp/dataset/0/9_24.odb,Step-1,Increment      1: Step Time =    1.000,"PART-1-1",           726,      -11.1359,      -8.44257,            0.,NA,NA,"",       3.84671,       3.82417,   415.815E-03,   36.9192E-03
C:/temp/dataset/0/9_24.odb,Step-1,Increment      1: Step Time =    1.000,"PART-1-1",           727,      -11.1177,       9.73479,            0.,NA,NA,"",       10.6648,       10.6496,  -570.654E-03,   22.5672E-03
C:/temp/dataset/0/9_24.odb,Step-1,Increment      1: Step Time =    1.000,"PART-1-1",           728,      -11.1376,       6.69211,            0.,NA,NA,"",       9.53173,       9.52404,  -382.837E-03,   23.2515E-03
C:/temp/dataset/0/9_24.odb,Step-1,Increment      1: Step Time =    1.000,"PART-1-1",           729,      -11.1470,       3.65829,            0.,NA,NA,"",       8.36885,       8.36661,  -193.580E-03,   24.8027E-03
C:/temp/dataset/0/9_24.odb,Step-1,Increment      1: Step Time =    1.000,"PART-1-1",           730,           -5.,      -15.3846,            0.,NA,NA,"",       1.77883,       1.53659,  -896.174E-03,   69.7017E-03
C:/temp/dataset/0/9_24.odb,Step-1,Increment      1: Step Time =    1.000,"PART-1-1",           731,      -11.1521,   627.191E-03,            0.,NA,NA,"",       7.19651,       7.19651,  -9.94078E-03,   27.0642E-03
C:/temp/dataset/0/9_24.odb,Step-1,Increment      1: Step Time =    1.000,"PART-1-1",           732,      -11.1477,      -2.39557,            0.,NA,NA,"",       6.03845,       6.03641,   156.968E-03,   29.8740E-03
C:/temp/dataset/0/9_24.odb,Step-1,Increment      1: Step Time =    1.000,"PART-1-1",           733,      -11.1389,      -5.41444,            0.,NA,NA,"",       4.91537,       4.90618,   300.394E-03,   33.1350E-03
