ODB Name,Step,Frame,Part Instance Name,    êﬂì_ÉâÉxÉã,X,Y,Z,Section Name,Material Name,Section Point,   U-Magnitude,          U-U1,          U-U2,       S-Mises
C:/temp/dataset/8/13_20.odb,Step-1,Increment      1: Step Time =    1.000,"PART-1-1",             1,            5.,           -5.,            0.,NA,NA,"",   197.395E-03,  -6.14597E-03,   197.299E-03,   20.7632E-03
C:/temp/dataset/8/13_20.odb,Step-1,Increment      1: Step Time =    1.000,"PART-1-1",             2,            0.,           -5.,            0.,NA,NA,"",   239.648E-03,   37.7340E-03,   236.659E-03,   12.8167E-03
C:/temp/dataset/8/13_20.odb,Step-1,Increment      1: Step Time =    1.000,"PART-1-1",             3,            5.,         -12.5,            0.,NA,NA,"",   102.227E-03,  -28.3543E-03,   98.2156E-03,   10.4026E-03
C:/temp/dataset/8/13_20.odb,Step-1,Increment      1: Step Time =    1.000,"PART-1-1",             4,            5.,          -20.,            0.,NA,NA,"",   35.3319E-03,  -16.0990E-03,   31.4510E-03,   8.05520E-03
C:/temp/dataset/8/13_20.odb,Step-1,Increment      1: Step Time =    1.000,"PART-1-1",             5,            0.,          -20.,            0.,NA,NA,"",   4.72129E-03,  -1.44073E-03,   4.49609E-03,   3.15651E-03
C:/temp/dataset/8/13_20.odb,Step-1,Increment      1: Step Time =    1.000,"PART-1-1",             6,           -5.,          -20.,            0.,NA,NA,"",   20.2139E-03,   12.9347E-03,   15.5338E-03,   4.10463E-03
C:/temp/dataset/8/13_20.odb,Step-1,Increment      1: Step Time =    1.000,"PART-1-1",             7,           -5.,           -5.,            0.,NA,NA,"",   120.859E-03,   38.4631E-03,   114.576E-03,   12.3319E-03
C:/temp/dataset/8/13_20.odb,Step-1,Increment      1: Step Time =    1.000,"PART-1-1",             8,            5.,           20.,            0.,NA,NA,"",   130.367E-03,  -10.9477E-03,   129.906E-03,   1.89102E-03
C:/temp/dataset/8/13_20.odb,Step-1,Increment      1: Step Time =    1.000,"PART-1-1",             9,            0.,           20.,            0.,NA,NA,"",   113.219E-03,  -20.4722E-03,   111.353E-03,   1.90960E-03
C:/temp/dataset/8/13_20.odb,Step-1,Increment      1: Step Time =    1.000,"PART-1-1",            10,            5.,          12.5,            0.,NA,NA,"",   145.528E-03,   24.4602E-03,   143.457E-03,   3.11479E-03
C:/temp/dataset/8/13_20.odb,Step-1,Increment      1: Step Time =    1.000,"PART-1-1",            11,            5.,            5.,            0.,NA,NA,"",   180.557E-03,   24.8616E-03,   178.837E-03,   7.89313E-03
C:/temp/dataset/8/13_20.odb,Step-1,Increment      1: Step Time =    1.000,"PART-1-1",            12,            0.,            5.,            0.,NA,NA,"",   192.787E-03,  -16.1154E-03,   192.112E-03,   8.97393E-03
C:/temp/dataset/8/13_20.odb,Step-1,Increment      1: Step Time =    1.000,"PART-1-1",            13,           -5.,            5.,            0.,NA,NA,"",   130.325E-03,  -32.6635E-03,   126.166E-03,   7.14430E-03
C:/temp/dataset/8/13_20.odb,Step-1,Increment      1: Step Time =    1.000,"PART-1-1",            14,           -5.,           20.,            0.,NA,NA,"",   102.251E-03,  -31.6327E-03,   97.2345E-03,   2.89098E-03
C:/temp/dataset/8/13_20.odb,Step-1,Increment      1: Step Time =    1.000,"PART-1-1",            15,           15.,           30.,            0.,NA,NA,"",   179.977E-03,  -53.5046E-03,   171.840E-03,   5.42478E-06
C:/temp/dataset/8/13_20.odb,Step-1,Increment      1: Step Time =    1.000,"PART-1-1",            16,           7.5,           30.,            0.,NA,NA,"",   147.937E-03,  -52.9152E-03,   138.150E-03,   248.543E-06
C:/temp/dataset/8/13_20.odb,Step-1,Increment      1: Step Time =    1.000,"PART-1-1",            17,            0.,           30.,            0.,NA,NA,"",   119.881E-03,  -48.9260E-03,   109.442E-03,   902.655E-06
C:/temp/dataset/8/13_20.odb,Step-1,Increment      1: Step Time =    1.000,"PART-1-1",            18,          -15.,           30.,            0.,NA,NA,"",   99.9179E-03,  -41.1136E-03,   91.0674E-03,   18.6102E-06
C:/temp/dataset/8/13_20.odb,Step-1,Increment      1: Step Time =    1.000,"PART-1-1",            19,          -15.,          -30.,            0.,NA,NA,"",            0.,   2.26476E-39,   3.96347E-39,   7.53273E-03
C:/temp/dataset/8/13_20.odb,Step-1,Increment      1: Step Time =    1.000,"PART-1-1",            20,           15.,          -30.,            0.,NA,NA,"",            0.,  -3.65033E-39,   6.11282E-39,   11.6204E-03
C:/temp/dataset/8/13_20.odb,Step-1,Increment      1: Step Time =    1.000,"PART-1-1",            21,           15.,      -20.1000,            0.,NA,NA,"",   72.6431E-03,  -42.1395E-03,   59.1716E-03,   4.95051E-03
C:/temp/dataset/8/13_20.odb,Step-1,Increment      1: Step Time =    1.000,"PART-1-1",            22,           15.,      -10.0500,            0.,NA,NA,"",   101.679E-03,  -51.6186E-03,   87.6027E-03,   1.79119E-03
C:/temp/dataset/8/13_20.odb,Step-1,Increment      1: Step Time =    1.000,"PART-1-1",            23,           15.,            0.,            0.,NA,NA,"",   114.700E-03,   6.49016E-03,   114.516E-03,   4.59661E-03
C:/temp/dataset/8/13_20.odb,Step-1,Increment      1: Step Time =    1.000,"PART-1-1",            24,           15.,       9.90000,            0.,NA,NA,"",   155.494E-03,   29.6859E-03,   152.634E-03,   3.56968E-03
C:/temp/dataset/8/13_20.odb,Step-1,Increment      1: Step Time =    1.000,"PART-1-1",            25,           15.,       19.9500,            0.,NA,NA,"",   171.447E-03,  -6.55472E-03,   171.322E-03,   585.316E-06
C:/temp/dataset/8/13_20.odb,Step-1,Increment      1: Step Time =    1.000,"PART-1-1",            26,           2.5,           -5.,            0.,NA,NA,"",   271.062E-03,   10.2154E-03,   270.869E-03,   25.5118E-03
C:/temp/dataset/8/13_20.odb,Step-1,Increment      1: Step Time =    1.000,"PART-1-1",            27,            5.,          -10.,            0.,NA,NA,"",   125.537E-03,  -25.6669E-03,   122.885E-03,   10.9725E-03
C:/temp/dataset/8/13_20.odb,Step-1,Increment      1: Step Time =    1.000,"PART-1-1",            28,            5.,          -7.5,            0.,NA,NA,"",   149.738E-03,  -20.2938E-03,   148.356E-03,   14.9648E-03
C:/temp/dataset/8/13_20.odb,Step-1,Increment      1: Step Time =    1.000,"PART-1-1",            29,            5.,         -17.5,            0.,NA,NA,"",   59.9990E-03,  -23.0966E-03,   55.3753E-03,   9.34897E-03
C:/temp/dataset/8/13_20.odb,Step-1,Increment      1: Step Time =    1.000,"PART-1-1",            30,            5.,          -15.,            0.,NA,NA,"",   80.6840E-03,  -27.1748E-03,   75.9700E-03,   9.53200E-03
C:/temp/dataset/8/13_20.odb,Step-1,Increment      1: Step Time =    1.000,"PART-1-1",            31,           2.5,          -20.,            0.,NA,NA,"",   13.4394E-03,  -8.87261E-03,   10.0943E-03,   3.44549E-03
C:/temp/dataset/8/13_20.odb,Step-1,Increment      1: Step Time =    1.000,"PART-1-1",            32,          -2.5,          -20.,            0.,NA,NA,"",   7.52805E-03,   5.36096E-03,   5.28504E-03,   3.00121E-03
C:/temp/dataset/8/13_20.odb,Step-1,Increment      1: Step Time =    1.000,"PART-1-1",            33,           -5.,          -7.5,            0.,NA,NA,"",   93.6302E-03,   37.8121E-03,   85.6555E-03,   9.09377E-03
C:/temp/dataset/8/13_20.odb,Step-1,Increment      1: Step Time =    1.000,"PART-1-1",            34,           -5.,          -10.,            0.,NA,NA,"",   78.6177E-03,   37.7872E-03,   68.9411E-03,   7.18866E-03
C:/temp/dataset/8/13_20.odb,Step-1,Increment      1: Step Time =    1.000,"PART-1-1",            35,           -5.,         -12.5,            0.,NA,NA,"",   64.1149E-03,   35.5440E-03,   53.3605E-03,   6.50952E-03
C:/temp/dataset/8/13_20.odb,Step-1,Increment      1: Step Time =    1.000,"PART-1-1",            36,           -5.,          -15.,            0.,NA,NA,"",   50.0446E-03,   30.5501E-03,   39.6379E-03,   5.72223E-03
C:/temp/dataset/8/13_20.odb,Step-1,Increment      1: Step Time =    1.000,"PART-1-1",            37,           -5.,         -17.5,            0.,NA,NA,"",   36.1202E-03,   23.2850E-03,   27.6130E-03,   5.16389E-03
C:/temp/dataset/8/13_20.odb,Step-1,Increment      1: Step Time =    1.000,"PART-1-1",            38,          -2.5,           -5.,            0.,NA,NA,"",   176.271E-03,   42.9341E-03,   170.963E-03,   3.49600E-03
C:/temp/dataset/8/13_20.odb,Step-1,Increment      1: Step Time =    1.000,"PART-1-1",            39,           2.5,           20.,            0.,NA,NA,"",   120.848E-03,  -16.2663E-03,   119.748E-03,   1.99988E-03
C:/temp/dataset/8/13_20.odb,Step-1,Increment      1: Step Time =    1.000,"PART-1-1",            40,            5.,           15.,            0.,NA,NA,"",   138.215E-03,   15.6949E-03,   137.321E-03,   2.35245E-03
C:/temp/dataset/8/13_20.odb,Step-1,Increment      1: Step Time =    1.000,"PART-1-1",            41,            5.,          17.5,            0.,NA,NA,"",   132.819E-03,   4.20002E-03,   132.753E-03,   1.58710E-03
C:/temp/dataset/8/13_20.odb,Step-1,Increment      1: Step Time =    1.000,"PART-1-1",            42,            5.,           7.5,            0.,NA,NA,"",   164.281E-03,   31.5600E-03,   161.220E-03,   5.37847E-03
C:/temp/dataset/8/13_20.odb,Step-1,Increment      1: Step Time =    1.000,"PART-1-1",            43,            5.,           10.,            0.,NA,NA,"",   154.402E-03,   29.8855E-03,   151.482E-03,   3.99157E-03
C:/temp/dataset/8/13_20.odb,Step-1,Increment      1: Step Time =    1.000,"PART-1-1",            44,           2.5,            5.,            0.,NA,NA,"",   198.606E-03,   6.45962E-03,   198.501E-03,   9.37715E-03
C:/temp/dataset/8/13_20.odb,Step-1,Increment      1: Step Time =    1.000,"PART-1-1",            45,          -2.5,            5.,            0.,NA,NA,"",   169.155E-03,  -32.1074E-03,   166.080E-03,   4.30992E-03
C:/temp/dataset/8/13_20.odb,Step-1,Increment      1: Step Time =    1.000,"PART-1-1",            46,           -5.,          17.5,            0.,NA,NA,"",   103.287E-03,  -37.4964E-03,   96.2406E-03,   570.611E-06
C:/temp/dataset/8/13_20.odb,Step-1,Increment      1: Step Time =    1.000,"PART-1-1",            47,           -5.,           15.,            0.,NA,NA,"",   105.831E-03,  -39.9059E-03,   98.0193E-03,   1.11369E-03
C:/temp/dataset/8/13_20.odb,Step-1,Increment      1: Step Time =    1.000,"PART-1-1",            48,           -5.,          12.5,            0.,NA,NA,"",   109.057E-03,  -40.5747E-03,   101.228E-03,   1.79270E-03
C:/temp/dataset/8/13_20.odb,Step-1,Increment      1: Step Time =    1.000,"PART-1-1",            49,           -5.,           10.,            0.,NA,NA,"",   113.113E-03,  -39.3748E-03,   106.039E-03,   2.41857E-03
C:/temp/dataset/8/13_20.odb,Step-1,Increment      1: Step Time =    1.000,"PART-1-1",            50,           -5.,           7.5,            0.,NA,NA,"",   118.139E-03,  -36.2893E-03,   112.427E-03,   4.10364E-03
C:/temp/dataset/8/13_20.odb,Step-1,Increment      1: Step Time =    1.000,"PART-1-1",            51,          -2.5,           20.,            0.,NA,NA,"",   107.037E-03,  -24.9277E-03,   104.094E-03,   2.34476E-03
C:/temp/dataset/8/13_20.odb,Step-1,Increment      1: Step Time =    1.000,"PART-1-1",            52,          12.5,           30.,            0.,NA,NA,"",   169.188E-03,  -53.4567E-03,   160.520E-03,   28.4057E-06
C:/temp/dataset/8/13_20.odb,Step-1,Increment      1: Step Time =    1.000,"PART-1-1",            53,           10.,           30.,            0.,NA,NA,"",   158.468E-03,  -53.2887E-03,   149.239E-03,   113.634E-06
C:/temp/dataset/8/13_20.odb,Step-1,Increment      1: Step Time =    1.000,"PART-1-1",            54,            5.,           30.,            0.,NA,NA,"",   137.744E-03,  -52.1123E-03,   127.505E-03,   466.138E-06
C:/temp/dataset/8/13_20.odb,Step-1,Increment      1: Step Time =    1.000,"PART-1-1",            55,           2.5,           30.,            0.,NA,NA,"",   128.251E-03,  -50.7682E-03,   117.774E-03,   710.234E-06
C:/temp/dataset/8/13_20.odb,Step-1,Increment      1: Step Time =    1.000,"PART-1-1",            56,          -2.5,           30.,            0.,NA,NA,"",   113.000E-03,  -46.7590E-03,   102.872E-03,   974.222E-06
C:/temp/dataset/8/13_20.odb,Step-1,Increment      1: Step Time =    1.000,"PART-1-1",            57,           -5.,           30.,            0.,NA,NA,"",   107.859E-03,  -44.5648E-03,   98.2216E-03,   905.782E-06
C:/temp/dataset/8/13_20.odb,Step-1,Increment      1: Step Time =    1.000,"PART-1-1",            58,          -7.5,           30.,            0.,NA,NA,"",   104.475E-03,  -42.7607E-03,   95.3237E-03,   669.121E-06
C:/temp/dataset/8/13_20.odb,Step-1,Increment      1: Step Time =    1.000,"PART-1-1",            59,          -10.,           30.,            0.,NA,NA,"",   102.453E-03,  -41.6059E-03,   93.6243E-03,   351.468E-06
C:/temp/dataset/8/13_20.odb,Step-1,Increment      1: Step Time =    1.000,"PART-1-1",            60,         -12.5,           30.,            0.,NA,NA,"",   101.156E-03,  -41.1460E-03,   92.4097E-03,   81.2877E-06
C:/temp/dataset/8/13_20.odb,Step-1,Increment      1: Step Time =    1.000,"PART-1-1",            61,          -15.,          27.5,            0.,NA,NA,"",   99.3202E-03,  -39.5739E-03,   91.0956E-03,   86.2575E-06
C:/temp/dataset/8/13_20.odb,Step-1,Increment      1: Step Time =    1.000,"PART-1-1",            62,          -15.,           25.,            0.,NA,NA,"",   99.1120E-03,  -37.9782E-03,   91.5470E-03,   298.370E-06
C:/temp/dataset/8/13_20.odb,Step-1,Increment      1: Step Time =    1.000,"PART-1-1",            63,          -15.,          22.5,            0.,NA,NA,"",   99.5709E-03,  -37.0192E-03,   92.4334E-03,   396.802E-06
C:/temp/dataset/8/13_20.odb,Step-1,Increment      1: Step Time =    1.000,"PART-1-1",            64,          -15.,           20.,            0.,NA,NA,"",   100.365E-03,  -37.2164E-03,   93.2095E-03,   175.088E-06
C:/temp/dataset/8/13_20.odb,Step-1,Increment      1: Step Time =    1.000,"PART-1-1",            65,          -15.,          17.5,            0.,NA,NA,"",   100.672E-03,  -38.3982E-03,   93.0619E-03,   394.867E-06
C:/temp/dataset/8/13_20.odb,Step-1,Increment      1: Step Time =    1.000,"PART-1-1",            66,          -15.,           15.,            0.,NA,NA,"",   99.6055E-03,  -39.7119E-03,   91.3467E-03,   1.16839E-03
C:/temp/dataset/8/13_20.odb,Step-1,Increment      1: Step Time =    1.000,"PART-1-1",            67,          -15.,          12.5,            0.,NA,NA,"",   96.4660E-03,  -39.9763E-03,   87.7928E-03,   1.99363E-03
C:/temp/dataset/8/13_20.odb,Step-1,Increment      1: Step Time =    1.000,"PART-1-1",            68,          -15.,           10.,            0.,NA,NA,"",   90.7416E-03,  -37.9733E-03,   82.4140E-03,   2.77479E-03
C:/temp/dataset/8/13_20.odb,Step-1,Increment      1: Step Time =    1.000,"PART-1-1",            69,          -15.,           7.5,            0.,NA,NA,"",   82.1615E-03,  -32.4957E-03,   75.4622E-03,   3.28931E-03
C:/temp/dataset/8/13_20.odb,Step-1,Increment      1: Step Time =    1.000,"PART-1-1",            70,          -15.,            5.,            0.,NA,NA,"",   71.4486E-03,  -22.6764E-03,   67.7546E-03,   3.38784E-03
C:/temp/dataset/8/13_20.odb,Step-1,Increment      1: Step Time =    1.000,"PART-1-1",            71,          -15.,           2.5,            0.,NA,NA,"",   61.2794E-03,  -8.55446E-03,   60.6793E-03,   2.83246E-03
C:/temp/dataset/8/13_20.odb,Step-1,Increment      1: Step Time =    1.000,"PART-1-1",            72,          -15.,            0.,            0.,NA,NA,"",   56.1375E-03,   8.39349E-03,   55.5065E-03,   1.76139E-03
C:/temp/dataset/8/13_20.odb,Step-1,Increment      1: Step Time =    1.000,"PART-1-1",            73,          -15.,          -2.5,            0.,NA,NA,"",   58.9190E-03,   25.5389E-03,   53.0962E-03,   544.204E-06
C:/temp/dataset/8/13_20.odb,Step-1,Increment      1: Step Time =    1.000,"PART-1-1",            74,          -15.,           -5.,            0.,NA,NA,"",   66.4493E-03,   39.9834E-03,   53.0738E-03,   468.218E-06
C:/temp/dataset/8/13_20.odb,Step-1,Increment      1: Step Time =    1.000,"PART-1-1",            75,          -15.,          -7.5,            0.,NA,NA,"",   73.4187E-03,   49.2597E-03,   54.4407E-03,   535.145E-06
C:/temp/dataset/8/13_20.odb,Step-1,Increment      1: Step Time =    1.000,"PART-1-1",            76,          -15.,          -10.,            0.,NA,NA,"",   76.5730E-03,   52.8823E-03,   55.3795E-03,   109.946E-06
C:/temp/dataset/8/13_20.odb,Step-1,Increment      1: Step Time =    1.000,"PART-1-1",            77,          -15.,         -12.5,            0.,NA,NA,"",   75.2111E-03,   51.6257E-03,   54.6946E-03,   724.206E-06
C:/temp/dataset/8/13_20.odb,Step-1,Increment      1: Step Time =    1.000,"PART-1-1",            78,          -15.,          -15.,            0.,NA,NA,"",   70.0292E-03,   46.8244E-03,   52.0727E-03,   1.63014E-03
C:/temp/dataset/8/13_20.odb,Step-1,Increment      1: Step Time =    1.000,"PART-1-1",            79,          -15.,         -17.5,            0.,NA,NA,"",   61.8429E-03,   39.7300E-03,   47.3927E-03,   2.55558E-03
C:/temp/dataset/8/13_20.odb,Step-1,Increment      1: Step Time =    1.000,"PART-1-1",            80,          -15.,          -20.,            0.,NA,NA,"",   51.5269E-03,   31.6170E-03,   40.6864E-03,   3.40304E-03
C:/temp/dataset/8/13_20.odb,Step-1,Increment      1: Step Time =    1.000,"PART-1-1",            81,          -15.,         -22.5,            0.,NA,NA,"",   40.0331E-03,   23.7303E-03,   32.2416E-03,   4.08286E-03
C:/temp/dataset/8/13_20.odb,Step-1,Increment      1: Step Time =    1.000,"PART-1-1",            82,          -15.,          -25.,            0.,NA,NA,"",   28.2091E-03,   16.7202E-03,   22.7198E-03,   4.30104E-03
C:/temp/dataset/8/13_20.odb,Step-1,Increment      1: Step Time =    1.000,"PART-1-1",            83,          -15.,         -27.5,            0.,NA,NA,"",   16.2767E-03,   10.2300E-03,   12.6600E-03,   5.00372E-03
C:/temp/dataset/8/13_20.odb,Step-1,Increment      1: Step Time =    1.000,"PART-1-1",            84,         -12.5,          -30.,            0.,NA,NA,"",            0.,   1.25134E-39,   6.12467E-39,   3.18042E-03
C:/temp/dataset/8/13_20.odb,Step-1,Increment      1: Step Time =    1.000,"PART-1-1",            85,          -10.,          -30.,            0.,NA,NA,"",            0.,   1.40441E-39,   4.67069E-39,   2.61755E-03
C:/temp/dataset/8/13_20.odb,Step-1,Increment      1: Step Time =    1.000,"PART-1-1",            86,          -7.5,          -30.,            0.,NA,NA,"",            0.,  -978.150E-42,   3.89068E-39,   1.87130E-03
C:/temp/dataset/8/13_20.odb,Step-1,Increment      1: Step Time =    1.000,"PART-1-1",            87,           -5.,          -30.,            0.,NA,NA,"",            0.,   305.157E-42,   2.19973E-39,   1.26272E-03
C:/temp/dataset/8/13_20.odb,Step-1,Increment      1: Step Time =    1.000,"PART-1-1",            88,          -2.5,          -30.,            0.,NA,NA,"",            0.,   431.741E-42,   1.56361E-39,   796.323E-06
C:/temp/dataset/8/13_20.odb,Step-1,Increment      1: Step Time =    1.000,"PART-1-1",            89,            0.,          -30.,            0.,NA,NA,"",            0.,   59.7990E-42,   1.34728E-39,   998.527E-06
C:/temp/dataset/8/13_20.odb,Step-1,Increment      1: Step Time =    1.000,"PART-1-1",            90,           2.5,          -30.,            0.,NA,NA,"",            0.,   1.92531E-39,   3.07376E-39,   1.69520E-03
C:/temp/dataset/8/13_20.odb,Step-1,Increment      1: Step Time =    1.000,"PART-1-1",            91,            5.,          -30.,            0.,NA,NA,"",            0.,  -77.0364E-42,   4.59004E-39,   2.51312E-03
C:/temp/dataset/8/13_20.odb,Step-1,Increment      1: Step Time =    1.000,"PART-1-1",            92,           7.5,          -30.,            0.,NA,NA,"",            0.,   1.71158E-39,   6.14104E-39,   3.38036E-03
C:/temp/dataset/8/13_20.odb,Step-1,Increment      1: Step Time =    1.000,"PART-1-1",            93,           10.,          -30.,            0.,NA,NA,"",            0.,  -2.14959E-39,   8.89870E-39,   4.35873E-03
C:/temp/dataset/8/13_20.odb,Step-1,Increment      1: Step Time =    1.000,"PART-1-1",            94,          12.5,          -30.,            0.,NA,NA,"",            0.,  -2.25296E-39,   8.98383E-39,   4.92581E-03
C:/temp/dataset/8/13_20.odb,Step-1,Increment      1: Step Time =    1.000,"PART-1-1",            95,           15.,      -27.5250,            0.,NA,NA,"",   24.7111E-03,  -15.6847E-03,   19.0953E-03,   7.60695E-03
C:/temp/dataset/8/13_20.odb,Step-1,Increment      1: Step Time =    1.000,"PART-1-1",            96,           15.,      -25.0500,            0.,NA,NA,"",   41.6668E-03,  -24.8375E-03,   33.4549E-03,   6.35135E-03
C:/temp/dataset/8/13_20.odb,Step-1,Increment      1: Step Time =    1.000,"PART-1-1",            97,           15.,      -22.5750,            0.,NA,NA,"",   57.8278E-03,  -33.5083E-03,   47.1301E-03,   5.84429E-03
C:/temp/dataset/8/13_20.odb,Step-1,Increment      1: Step Time =    1.000,"PART-1-1",            98,           15.,      -17.5875,            0.,NA,NA,"",   85.1933E-03,  -49.7504E-03,   69.1577E-03,   3.97944E-03
C:/temp/dataset/8/13_20.odb,Step-1,Increment      1: Step Time =    1.000,"PART-1-1",            99,           15.,      -15.0750,            0.,NA,NA,"",   94.4733E-03,  -54.6771E-03,   77.0429E-03,   3.05612E-03
C:/temp/dataset/8/13_20.odb,Step-1,Increment      1: Step Time =    1.000,"PART-1-1",           100,           15.,      -12.5625,            0.,NA,NA,"",   99.9835E-03,  -55.6646E-03,   83.0552E-03,   2.30283E-03
C:/temp/dataset/8/13_20.odb,Step-1,Increment      1: Step Time =    1.000,"PART-1-1",           101,           15.,      -7.53750,            0.,NA,NA,"",   100.677E-03,  -41.7579E-03,   91.6082E-03,   1.93194E-03
C:/temp/dataset/8/13_20.odb,Step-1,Increment      1: Step Time =    1.000,"PART-1-1",           102,           15.,      -5.02500,            0.,NA,NA,"",   100.446E-03,  -26.6872E-03,   96.8354E-03,   2.88109E-03
C:/temp/dataset/8/13_20.odb,Step-1,Increment      1: Step Time =    1.000,"PART-1-1",           103,           15.,      -2.51250,            0.,NA,NA,"",   105.001E-03,  -9.33409E-03,   104.586E-03,   4.03866E-03
C:/temp/dataset/8/13_20.odb,Step-1,Increment      1: Step Time =    1.000,"PART-1-1",           104,           15.,       2.47500,            0.,NA,NA,"",   126.181E-03,   18.5455E-03,   124.811E-03,   4.61417E-03
C:/temp/dataset/8/13_20.odb,Step-1,Increment      1: Step Time =    1.000,"PART-1-1",           105,           15.,       4.95000,            0.,NA,NA,"",   137.306E-03,   26.5731E-03,   134.710E-03,   4.36379E-03
C:/temp/dataset/8/13_20.odb,Step-1,Increment      1: Step Time =    1.000,"PART-1-1",           106,           15.,       7.42500,            0.,NA,NA,"",   147.281E-03,   30.3777E-03,   144.115E-03,   4.06075E-03
C:/temp/dataset/8/13_20.odb,Step-1,Increment      1: Step Time =    1.000,"PART-1-1",           107,           15.,       12.4125,            0.,NA,NA,"",   161.815E-03,   24.7343E-03,   159.913E-03,   2.87399E-03
C:/temp/dataset/8/13_20.odb,Step-1,Increment      1: Step Time =    1.000,"PART-1-1",           108,           15.,       14.9250,            0.,NA,NA,"",   166.330E-03,   16.3283E-03,   165.526E-03,   2.07904E-03
C:/temp/dataset/8/13_20.odb,Step-1,Increment      1: Step Time =    1.000,"PART-1-1",           109,           15.,       17.4375,            0.,NA,NA,"",   169.383E-03,   5.50646E-03,   169.293E-03,   1.27988E-03
C:/temp/dataset/8/13_20.odb,Step-1,Increment      1: Step Time =    1.000,"PART-1-1",           110,           15.,       22.4625,            0.,NA,NA,"",   173.048E-03,  -18.8265E-03,   172.021E-03,   120.495E-06
C:/temp/dataset/8/13_20.odb,Step-1,Increment      1: Step Time =    1.000,"PART-1-1",           111,           15.,       24.9750,            0.,NA,NA,"",   174.739E-03,  -30.7006E-03,   172.021E-03,   44.8162E-06
C:/temp/dataset/8/13_20.odb,Step-1,Increment      1: Step Time =    1.000,"PART-1-1",           112,           15.,       27.4875,            0.,NA,NA,"",   176.981E-03,  -42.1619E-03,   171.885E-03,   29.9231E-06
C:/temp/dataset/8/13_20.odb,Step-1,Increment      1: Step Time =    1.000,"PART-1-1",           113,       13.1072,       7.69700,            0.,NA,NA,"",   150.286E-03,   33.3376E-03,   146.542E-03,   2.62353E-03
C:/temp/dataset/8/13_20.odb,Step-1,Increment      1: Step Time =    1.000,"PART-1-1",           114,       12.9209,      -22.7091,            0.,NA,NA,"",   48.9079E-03,  -27.4893E-03,   40.4515E-03,   6.02458E-03
C:/temp/dataset/8/13_20.odb,Step-1,Increment      1: Step Time =    1.000,"PART-1-1",           115,       12.1836,      -25.1316,            0.,NA,NA,"",   30.1980E-03,  -16.5405E-03,   25.2652E-03,   6.44749E-03
C:/temp/dataset/8/13_20.odb,Step-1,Increment      1: Step Time =    1.000,"PART-1-1",           116,       12.5983,   113.555E-03,            0.,NA,NA,"",   128.816E-03,   11.6329E-03,   128.290E-03,   3.53537E-03
C:/temp/dataset/8/13_20.odb,Step-1,Increment      1: Step Time =    1.000,"PART-1-1",           117,       12.7905,       5.42944,            0.,NA,NA,"",   145.186E-03,   31.1474E-03,   141.805E-03,   2.66818E-03
C:/temp/dataset/8/13_20.odb,Step-1,Increment      1: Step Time =    1.000,"PART-1-1",           118,       12.0087,       2.86964,            0.,NA,NA,"",   141.093E-03,   24.8765E-03,   138.883E-03,   2.55686E-03
C:/temp/dataset/8/13_20.odb,Step-1,Increment      1: Step Time =    1.000,"PART-1-1",           119,       6.98133,      -9.77136,            0.,NA,NA,"",   123.765E-03,  -34.3563E-03,   118.901E-03,   9.73125E-03
C:/temp/dataset/8/13_20.odb,Step-1,Increment      1: Step Time =    1.000,"PART-1-1",           120,       7.90844,      -27.9171,            0.,NA,NA,"",   6.59913E-03,  -676.250E-06,   6.56439E-03,   4.08789E-03
C:/temp/dataset/8/13_20.odb,Step-1,Increment      1: Step Time =    1.000,"PART-1-1",           121,      -2.46872,      -27.6632,            0.,NA,NA,"",   1.18613E-03,   392.382E-06,   1.11935E-03,   768.003E-06
C:/temp/dataset/8/13_20.odb,Step-1,Increment      1: Step Time =    1.000,"PART-1-1",           122,      -12.5126,      -12.5666,            0.,NA,NA,"",   73.0062E-03,   49.8844E-03,   53.3053E-03,   2.51364E-03
C:/temp/dataset/8/13_20.odb,Step-1,Increment      1: Step Time =    1.000,"PART-1-1",           123,      -12.5815,       17.4815,            0.,NA,NA,"",   100.897E-03,  -38.7583E-03,   93.1554E-03,   963.916E-06
C:/temp/dataset/8/13_20.odb,Step-1,Increment      1: Step Time =    1.000,"PART-1-1",           124,      -2.62887,      -2.48638,            0.,NA,NA,"",   171.080E-03,   8.64099E-03,   170.862E-03,   9.66170E-03
C:/temp/dataset/8/13_20.odb,Step-1,Increment      1: Step Time =    1.000,"PART-1-1",           125,      -2.40475,       2.52951,            0.,NA,NA,"",   172.492E-03,  -12.2549E-03,   172.056E-03,   7.71263E-03
C:/temp/dataset/8/13_20.odb,Step-1,Increment      1: Step Time =    1.000,"PART-1-1",           126,       2.45017,      -2.57003,            0.,NA,NA,"",   246.949E-03,   13.6998E-03,   246.569E-03,   16.6917E-03
C:/temp/dataset/8/13_20.odb,Step-1,Increment      1: Step Time =    1.000,"PART-1-1",           127,       2.64402,       2.44720,            0.,NA,NA,"",   208.312E-03,   6.54022E-03,   208.209E-03,   5.95026E-03
C:/temp/dataset/8/13_20.odb,Step-1,Increment      1: Step Time =    1.000,"PART-1-1",           128,       7.27469,       27.6230,            0.,NA,NA,"",   143.613E-03,  -42.8654E-03,   137.067E-03,   220.964E-06
C:/temp/dataset/8/13_20.odb,Step-1,Increment      1: Step Time =    1.000,"PART-1-1",           129,       2.48679,       22.6352,            0.,NA,NA,"",   120.867E-03,  -25.9102E-03,   118.057E-03,   1.01744E-03
C:/temp/dataset/8/13_20.odb,Step-1,Increment      1: Step Time =    1.000,"PART-1-1",           130,   4.73057E-03,       27.5452,            0.,NA,NA,"",   116.616E-03,  -41.8605E-03,   108.844E-03,   286.359E-06
C:/temp/dataset/8/13_20.odb,Step-1,Increment      1: Step Time =    1.000,"PART-1-1",           131,      -2.67861,       22.9024,            0.,NA,NA,"",   106.680E-03,  -31.4866E-03,   101.927E-03,   1.14636E-03
C:/temp/dataset/8/13_20.odb,Step-1,Increment      1: Step Time =    1.000,"PART-1-1",           132,      -12.4942,       19.9650,            0.,NA,NA,"",   100.467E-03,  -37.0467E-03,   93.3872E-03,   588.675E-06
C:/temp/dataset/8/13_20.odb,Step-1,Increment      1: Step Time =    1.000,"PART-1-1",           133,      -7.56680,       17.4386,            0.,NA,NA,"",   104.233E-03,  -38.2414E-03,   96.9644E-03,   1.43235E-03
C:/temp/dataset/8/13_20.odb,Step-1,Increment      1: Step Time =    1.000,"PART-1-1",           134,       7.64811,       17.7092,            0.,NA,NA,"",   143.914E-03,   4.72680E-03,   143.837E-03,   1.45758E-03
C:/temp/dataset/8/13_20.odb,Step-1,Increment      1: Step Time =    1.000,"PART-1-1",           135,      -9.58788,      -27.7112,            0.,NA,NA,"",   5.45508E-03,   2.04995E-03,   5.05526E-03,   2.86855E-03
C:/temp/dataset/8/13_20.odb,Step-1,Increment      1: Step Time =    1.000,"PART-1-1",           136,       4.77230,      -2.62442,            0.,NA,NA,"",   212.568E-03,   19.9904E-03,   211.626E-03,   15.9776E-03
C:/temp/dataset/8/13_20.odb,Step-1,Increment      1: Step Time =    1.000,"PART-1-1",           137,       7.77605,      -12.2161,            0.,NA,NA,"",   104.959E-03,  -39.5800E-03,   97.2100E-03,   8.14860E-03
C:/temp/dataset/8/13_20.odb,Step-1,Increment      1: Step Time =    1.000,"PART-1-1",           138,       7.25866,      -19.5166,            0.,NA,NA,"",   52.9700E-03,  -24.3273E-03,   47.0532E-03,   6.58520E-03
C:/temp/dataset/8/13_20.odb,Step-1,Increment      1: Step Time =    1.000,"PART-1-1",           139,      -4.84221,      -22.7118,            0.,NA,NA,"",   9.50309E-03,   4.35156E-03,   8.44823E-03,   2.32057E-03
C:/temp/dataset/8/13_20.odb,Step-1,Increment      1: Step Time =    1.000,"PART-1-1",           140,      -12.1835,      -27.1471,            0.,NA,NA,"",   11.0437E-03,   6.29404E-03,   9.07463E-03,   4.17018E-03
C:/temp/dataset/8/13_20.odb,Step-1,Increment      1: Step Time =    1.000,"PART-1-1",           141,      -12.5060,       10.0400,            0.,NA,NA,"",   96.4197E-03,  -40.3967E-03,   87.5492E-03,   1.71587E-03
C:/temp/dataset/8/13_20.odb,Step-1,Increment      1: Step Time =    1.000,"PART-1-1",           142,      -12.8419,       4.62256,            0.,NA,NA,"",   80.6195E-03,  -23.5370E-03,   77.1072E-03,   2.19820E-03
C:/temp/dataset/8/13_20.odb,Step-1,Increment      1: Step Time =    1.000,"PART-1-1",           143,      -12.8499,  -39.9835E-03,            0.,NA,NA,"",   69.0108E-03,   6.91146E-03,   68.6638E-03,   2.15098E-03
C:/temp/dataset/8/13_20.odb,Step-1,Increment      1: Step Time =    1.000,"PART-1-1",           144,      -13.3239,      -5.02776,            0.,NA,NA,"",   72.6230E-03,   39.9312E-03,   60.6597E-03,   984.561E-06
C:/temp/dataset/8/13_20.odb,Step-1,Increment      1: Step Time =    1.000,"PART-1-1",           145,      -7.45277,      -10.1617,            0.,NA,NA,"",   80.0569E-03,   44.6443E-03,   66.4529E-03,   5.79966E-03
C:/temp/dataset/8/13_20.odb,Step-1,Increment      1: Step Time =    1.000,"PART-1-1",           146,  -27.8758E-03,      -2.52525,            0.,NA,NA,"",   223.461E-03,   5.95853E-03,   223.381E-03,   14.0069E-03
C:/temp/dataset/8/13_20.odb,Step-1,Increment      1: Step Time =    1.000,"PART-1-1",           147,       4.82974,       22.7243,            0.,NA,NA,"",   129.854E-03,  -24.1731E-03,   127.584E-03,   926.813E-06
C:/temp/dataset/8/13_20.odb,Step-1,Increment      1: Step Time =    1.000,"PART-1-1",           148,       7.38047,       9.75754,            0.,NA,NA,"",   156.793E-03,   33.4751E-03,   153.177E-03,   2.38275E-03
C:/temp/dataset/8/13_20.odb,Step-1,Increment      1: Step Time =    1.000,"PART-1-1",           149,       7.06669,       7.50812,            0.,NA,NA,"",   161.713E-03,   34.8702E-03,   157.909E-03,   3.08791E-03
C:/temp/dataset/8/13_20.odb,Step-1,Increment      1: Step Time =    1.000,"PART-1-1",           150,   54.6531E-03,       2.48775,            0.,NA,NA,"",   200.808E-03,  -4.82084E-03,   200.750E-03,   5.64009E-03
C:/temp/dataset/8/13_20.odb,Step-1,Increment      1: Step Time =    1.000,"PART-1-1",           151,      -4.69755,       2.58666,            0.,NA,NA,"",   138.335E-03,  -15.1720E-03,   137.501E-03,   6.26154E-03
C:/temp/dataset/8/13_20.odb,Step-1,Increment      1: Step Time =    1.000,"PART-1-1",           152,      -12.4531,       27.7137,            0.,NA,NA,"",   100.544E-03,  -39.6862E-03,   92.3804E-03,   257.172E-06
C:/temp/dataset/8/13_20.odb,Step-1,Increment      1: Step Time =    1.000,"PART-1-1",           153,      -11.8780,       25.1349,            0.,NA,NA,"",   100.156E-03,  -37.7175E-03,   92.7822E-03,   297.939E-06
C:/temp/dataset/8/13_20.odb,Step-1,Increment      1: Step Time =    1.000,"PART-1-1",           154,      -12.3074,       22.4604,            0.,NA,NA,"",   100.028E-03,  -36.5930E-03,   93.0947E-03,   252.292E-06
C:/temp/dataset/8/13_20.odb,Step-1,Increment      1: Step Time =    1.000,"PART-1-1",           155,      -7.54353,       19.8014,            0.,NA,NA,"",   102.628E-03,  -35.0343E-03,   96.4631E-03,   1.49430E-03
C:/temp/dataset/8/13_20.odb,Step-1,Increment      1: Step Time =    1.000,"PART-1-1",           156,   45.4396E-03,       22.6227,            0.,NA,NA,"",   113.271E-03,  -28.2555E-03,   109.690E-03,   1.26361E-03
C:/temp/dataset/8/13_20.odb,Step-1,Increment      1: Step Time =    1.000,"PART-1-1",           157,       9.91939,       27.0382,            0.,NA,NA,"",   154.253E-03,  -40.2493E-03,   148.909E-03,   130.305E-06
C:/temp/dataset/8/13_20.odb,Step-1,Increment      1: Step Time =    1.000,"PART-1-1",           158,       4.86771,       27.6907,            0.,NA,NA,"",   133.812E-03,  -43.0599E-03,   126.694E-03,   300.636E-06
C:/temp/dataset/8/13_20.odb,Step-1,Increment      1: Step Time =    1.000,"PART-1-1",           159,       2.46310,       27.6480,            0.,NA,NA,"",   124.700E-03,  -42.6240E-03,   117.189E-03,   318.429E-06
C:/temp/dataset/8/13_20.odb,Step-1,Increment      1: Step Time =    1.000,"PART-1-1",           160,      -2.80472,       27.0882,            0.,NA,NA,"",   109.087E-03,  -40.2152E-03,   101.404E-03,   192.075E-06
C:/temp/dataset/8/13_20.odb,Step-1,Increment      1: Step Time =    1.000,"PART-1-1",           161,      -5.48605,       27.7688,            0.,NA,NA,"",   105.179E-03,  -40.8379E-03,   96.9276E-03,   388.956E-06
C:/temp/dataset/8/13_20.odb,Step-1,Increment      1: Step Time =    1.000,"PART-1-1",           162,      -7.83752,       28.0673,            0.,NA,NA,"",   102.985E-03,  -40.5976E-03,   94.6458E-03,   410.540E-06
C:/temp/dataset/8/13_20.odb,Step-1,Increment      1: Step Time =    1.000,"PART-1-1",           163,      -7.55682,       15.0000,            0.,NA,NA,"",   105.938E-03,  -40.8138E-03,   97.7604E-03,   1.14927E-03
C:/temp/dataset/8/13_20.odb,Step-1,Increment      1: Step Time =    1.000,"PART-1-1",           164,      -12.5962,       15.0033,            0.,NA,NA,"",   100.711E-03,  -40.7049E-03,   92.1183E-03,   1.25413E-03
C:/temp/dataset/8/13_20.odb,Step-1,Increment      1: Step Time =    1.000,"PART-1-1",           165,      -7.55941,       12.5503,            0.,NA,NA,"",   107.623E-03,  -42.0593E-03,   99.0643E-03,   1.31985E-03
C:/temp/dataset/8/13_20.odb,Step-1,Increment      1: Step Time =    1.000,"PART-1-1",           166,      -12.5765,       12.5372,            0.,NA,NA,"",   99.3708E-03,  -41.6518E-03,   90.2202E-03,   1.51664E-03
C:/temp/dataset/8/13_20.odb,Step-1,Increment      1: Step Time =    1.000,"PART-1-1",           167,      -7.59139,       10.0650,            0.,NA,NA,"",   109.527E-03,  -41.4444E-03,   101.383E-03,   1.82612E-03
C:/temp/dataset/8/13_20.odb,Step-1,Increment      1: Step Time =    1.000,"PART-1-1",           168,      -7.88191,       7.28317,            0.,NA,NA,"",   109.319E-03,  -37.7658E-03,   102.589E-03,   2.39034E-03
C:/temp/dataset/8/13_20.odb,Step-1,Increment      1: Step Time =    1.000,"PART-1-1",           169,      -12.0831,       7.21074,            0.,NA,NA,"",   91.8793E-03,  -35.0367E-03,   84.9367E-03,   1.77513E-03
C:/temp/dataset/8/13_20.odb,Step-1,Increment      1: Step Time =    1.000,"PART-1-1",           170,      -13.1416,       2.31003,            0.,NA,NA,"",   71.6961E-03,  -9.42637E-03,   71.0738E-03,   2.26311E-03
C:/temp/dataset/8/13_20.odb,Step-1,Increment      1: Step Time =    1.000,"PART-1-1",           171,      -12.2759,      -2.89935,            0.,NA,NA,"",   72.8829E-03,   26.9971E-03,   67.6984E-03,   1.98852E-03
C:/temp/dataset/8/13_20.odb,Step-1,Increment      1: Step Time =    1.000,"PART-1-1",           172,      -7.56671,      -5.67297,            0.,NA,NA,"",   95.4252E-03,   40.2278E-03,   86.5315E-03,   3.80370E-03
C:/temp/dataset/8/13_20.odb,Step-1,Increment      1: Step Time =    1.000,"PART-1-1",           173,      -7.39223,      -7.81567,            0.,NA,NA,"",   89.3156E-03,   44.2193E-03,   77.6011E-03,   6.51151E-03
C:/temp/dataset/8/13_20.odb,Step-1,Increment      1: Step Time =    1.000,"PART-1-1",           174,      -12.2966,      -7.15451,            0.,NA,NA,"",   78.6722E-03,   47.8782E-03,   62.4259E-03,   1.52026E-03
C:/temp/dataset/8/13_20.odb,Step-1,Increment      1: Step Time =    1.000,"PART-1-1",           175,      -12.4694,      -9.99482,            0.,NA,NA,"",   77.8173E-03,   51.9059E-03,   57.9767E-03,   2.06960E-03
C:/temp/dataset/8/13_20.odb,Step-1,Increment      1: Step Time =    1.000,"PART-1-1",           176,      -7.49855,      -12.5983,            0.,NA,NA,"",   68.8225E-03,   41.8401E-03,   54.6437E-03,   5.19981E-03
C:/temp/dataset/8/13_20.odb,Step-1,Increment      1: Step Time =    1.000,"PART-1-1",           177,      -7.51831,      -15.1107,            0.,NA,NA,"",   56.6832E-03,   36.1160E-03,   43.6878E-03,   4.77803E-03
C:/temp/dataset/8/13_20.odb,Step-1,Increment      1: Step Time =    1.000,"PART-1-1",           178,      -12.5129,      -15.0992,            0.,NA,NA,"",   65.0830E-03,   44.1766E-03,   47.7935E-03,   2.90760E-03
C:/temp/dataset/8/13_20.odb,Step-1,Increment      1: Step Time =    1.000,"PART-1-1",           179,      -7.51265,      -17.6713,            0.,NA,NA,"",   43.7275E-03,   27.8586E-03,   33.7045E-03,   4.15506E-03
C:/temp/dataset/8/13_20.odb,Step-1,Increment      1: Step Time =    1.000,"PART-1-1",           180,      -12.5452,      -17.6264,            0.,NA,NA,"",   54.9794E-03,   36.2019E-03,   41.3783E-03,   3.28734E-03
C:/temp/dataset/8/13_20.odb,Step-1,Increment      1: Step Time =    1.000,"PART-1-1",           181,      -12.7276,      -20.0809,            0.,NA,NA,"",   44.3112E-03,   27.8003E-03,   34.5055E-03,   3.61753E-03
C:/temp/dataset/8/13_20.odb,Step-1,Increment      1: Step Time =    1.000,"PART-1-1",           182,      -13.0628,      -22.3163,            0.,NA,NA,"",   34.8420E-03,   20.8565E-03,   27.9100E-03,   3.86934E-03
C:/temp/dataset/8/13_20.odb,Step-1,Increment      1: Step Time =    1.000,"PART-1-1",           183,      -7.23303,      -27.7750,            0.,NA,NA,"",   3.53317E-03,   573.968E-06,   3.48624E-03,   2.00965E-03
C:/temp/dataset/8/13_20.odb,Step-1,Increment      1: Step Time =    1.000,"PART-1-1",           184,      -4.86055,      -27.7327,            0.,NA,NA,"",   2.12006E-03,   6.99568E-06,   2.12005E-03,   1.19459E-03
C:/temp/dataset/8/13_20.odb,Step-1,Increment      1: Step Time =    1.000,"PART-1-1",           185,      -2.50927,      -22.6041,            0.,NA,NA,"",   3.66616E-03,   2.22358E-03,   2.91486E-03,   810.403E-06
C:/temp/dataset/8/13_20.odb,Step-1,Increment      1: Step Time =    1.000,"PART-1-1",           186,  -77.0891E-03,      -22.5757,            0.,NA,NA,"",   2.28362E-03,   677.851E-06,   2.18070E-03,   591.559E-06
C:/temp/dataset/8/13_20.odb,Step-1,Increment      1: Step Time =    1.000,"PART-1-1",           187,  -14.9764E-03,      -27.4978,            0.,NA,NA,"",   1.80363E-03,   1.43125E-03,   1.09754E-03,   897.148E-06
C:/temp/dataset/8/13_20.odb,Step-1,Increment      1: Step Time =    1.000,"PART-1-1",           188,       2.64148,      -22.7823,            0.,NA,NA,"",   7.31009E-03,  -819.806E-06,   7.26397E-03,   1.70297E-03
C:/temp/dataset/8/13_20.odb,Step-1,Increment      1: Step Time =    1.000,"PART-1-1",           189,       2.81336,      -26.9767,            0.,NA,NA,"",   4.11557E-03,   2.26572E-03,   3.43575E-03,   1.55955E-03
C:/temp/dataset/8/13_20.odb,Step-1,Increment      1: Step Time =    1.000,"PART-1-1",           190,       5.52532,      -27.5935,            0.,NA,NA,"",   5.57977E-03,   1.29855E-03,   5.42657E-03,   2.94832E-03
C:/temp/dataset/8/13_20.odb,Step-1,Increment      1: Step Time =    1.000,"PART-1-1",           191,       10.2466,      -28.0300,            0.,NA,NA,"",   8.33323E-03,  -3.23189E-03,   7.68099E-03,   5.12941E-03
C:/temp/dataset/8/13_20.odb,Step-1,Increment      1: Step Time =    1.000,"PART-1-1",           192,       7.32380,      -17.2830,            0.,NA,NA,"",   69.3969E-03,  -31.8101E-03,   61.6770E-03,   7.55316E-03
C:/temp/dataset/8/13_20.odb,Step-1,Increment      1: Step Time =    1.000,"PART-1-1",           193,       7.51109,      -14.8717,            0.,NA,NA,"",   86.7399E-03,  -37.1442E-03,   78.3844E-03,   8.06131E-03
C:/temp/dataset/8/13_20.odb,Step-1,Increment      1: Step Time =    1.000,"PART-1-1",           194,       6.94800,      -7.47664,            0.,NA,NA,"",   139.091E-03,  -28.5286E-03,   136.134E-03,   10.1092E-03
C:/temp/dataset/8/13_20.odb,Step-1,Increment      1: Step Time =    1.000,"PART-1-1",           195,       7.18328,       5.40883,            0.,NA,NA,"",   165.197E-03,   31.5942E-03,   162.148E-03,   2.36131E-03
C:/temp/dataset/8/13_20.odb,Step-1,Increment      1: Step Time =    1.000,"PART-1-1",           196,       8.12432,       12.3313,            0.,NA,NA,"",   152.426E-03,   27.9267E-03,   149.846E-03,   1.72212E-03
C:/temp/dataset/8/13_20.odb,Step-1,Increment      1: Step Time =    1.000,"PART-1-1",           197,       7.72271,       15.1164,            0.,NA,NA,"",   147.262E-03,   17.2778E-03,   146.245E-03,   1.53149E-03
C:/temp/dataset/8/13_20.odb,Step-1,Increment      1: Step Time =    1.000,"PART-1-1",           198,       12.5747,       27.4046,            0.,NA,NA,"",   166.215E-03,  -41.7892E-03,   160.876E-03,   42.4144E-06
C:/temp/dataset/8/13_20.odb,Step-1,Increment      1: Step Time =    1.000,"PART-1-1",           199,       12.7332,       20.1953,            0.,NA,NA,"",   161.574E-03,  -7.34839E-03,   161.406E-03,   773.166E-06
C:/temp/dataset/8/13_20.odb,Step-1,Increment      1: Step Time =    1.000,"PART-1-1",           200,       12.7232,      -12.7379,            0.,NA,NA,"",   99.7708E-03,  -52.4393E-03,   84.8783E-03,   4.24846E-03
C:/temp/dataset/8/13_20.odb,Step-1,Increment      1: Step Time =    1.000,"PART-1-1",           201,       12.5978,      -7.87838,            0.,NA,NA,"",   109.667E-03,  -40.5827E-03,   101.882E-03,   3.55842E-03
C:/temp/dataset/8/13_20.odb,Step-1,Increment      1: Step Time =    1.000,"PART-1-1",           202,       12.5520,      -15.1937,            0.,NA,NA,"",   90.5376E-03,  -50.2823E-03,   75.2911E-03,   4.78005E-03
C:/temp/dataset/8/13_20.odb,Step-1,Increment      1: Step Time =    1.000,"PART-1-1",           203,       12.2949,      -17.8873,            0.,NA,NA,"",   76.6958E-03,  -43.3758E-03,   63.2518E-03,   5.33879E-03
C:/temp/dataset/8/13_20.odb,Step-1,Increment      1: Step Time =    1.000,"PART-1-1",           204,       11.9648,      -5.07588,            0.,NA,NA,"",   116.431E-03,  -22.4835E-03,   114.239E-03,   4.07754E-03
C:/temp/dataset/8/13_20.odb,Step-1,Increment      1: Step Time =    1.000,"PART-1-1",           205,       12.2814,       12.3946,            0.,NA,NA,"",   156.943E-03,   27.3676E-03,   154.538E-03,   1.68779E-03
C:/temp/dataset/8/13_20.odb,Step-1,Increment      1: Step Time =    1.000,"PART-1-1",           206,       12.5647,       15.1089,            0.,NA,NA,"",   158.901E-03,   17.2905E-03,   157.957E-03,   1.47494E-03
C:/temp/dataset/8/13_20.odb,Step-1,Increment      1: Step Time =    1.000,"PART-1-1",           207,       13.0607,       22.5349,            0.,NA,NA,"",   164.243E-03,  -19.0763E-03,   163.131E-03,   353.344E-06
C:/temp/dataset/8/13_20.odb,Step-1,Increment      1: Step Time =    1.000,"PART-1-1",           208,       12.7200,      -2.36234,            0.,NA,NA,"",   119.323E-03,  -4.14437E-03,   119.251E-03,   3.92645E-03
C:/temp/dataset/8/13_20.odb,Step-1,Increment      1: Step Time =    1.000,"PART-1-1",           209,       12.7952,      -10.3683,            0.,NA,NA,"",   105.544E-03,  -49.7296E-03,   93.0938E-03,   3.76917E-03
C:/temp/dataset/8/13_20.odb,Step-1,Increment      1: Step Time =    1.000,"PART-1-1",           210,       12.9896,      -20.3905,            0.,NA,NA,"",   63.8729E-03,  -36.4012E-03,   52.4852E-03,   5.56889E-03
C:/temp/dataset/8/13_20.odb,Step-1,Increment      1: Step Time =    1.000,"PART-1-1",           211,       13.0547,       9.94817,            0.,NA,NA,"",   154.768E-03,   32.1589E-03,   151.390E-03,   2.28686E-03
C:/temp/dataset/8/13_20.odb,Step-1,Increment      1: Step Time =    1.000,"PART-1-1",           212,       12.5883,       17.6584,            0.,NA,NA,"",   159.985E-03,   5.48413E-03,   159.891E-03,   1.16905E-03
C:/temp/dataset/8/13_20.odb,Step-1,Increment      1: Step Time =    1.000,"PART-1-1",           213,       12.5551,      -27.7203,            0.,NA,NA,"",   14.5016E-03,  -8.58375E-03,   11.6883E-03,   6.78050E-03
C:/temp/dataset/8/13_20.odb,Step-1,Increment      1: Step Time =    1.000,"PART-1-1",           214,       9.89421,       4.65062,            0.,NA,NA,"",   154.015E-03,   31.4528E-03,   150.769E-03,   1.23850E-03
C:/temp/dataset/8/13_20.odb,Step-1,Increment      1: Step Time =    1.000,"PART-1-1",           215,       10.7595,       6.33224,            0.,NA,NA,"",   152.686E-03,   34.3234E-03,   148.778E-03,   1.35654E-03
C:/temp/dataset/8/13_20.odb,Step-1,Increment      1: Step Time =    1.000,"PART-1-1",           216,       9.75763,      -23.6493,            0.,NA,NA,"",   32.6568E-03,  -14.9753E-03,   29.0208E-03,   6.26660E-03
C:/temp/dataset/8/13_20.odb,Step-1,Increment      1: Step Time =    1.000,"PART-1-1",           217,       9.53699,       1.63659,            0.,NA,NA,"",   153.069E-03,   22.5628E-03,   151.397E-03,   2.75423E-03
C:/temp/dataset/8/13_20.odb,Step-1,Increment      1: Step Time =    1.000,"PART-1-1",           218,       11.2350,       8.14750,            0.,NA,NA,"",   153.666E-03,   35.0588E-03,   149.614E-03,   1.56448E-03
C:/temp/dataset/8/13_20.odb,Step-1,Increment      1: Step Time =    1.000,"PART-1-1",           219,       11.2098,      -20.8622,            0.,NA,NA,"",   55.6226E-03,  -29.9780E-03,   46.8529E-03,   6.12113E-03
C:/temp/dataset/8/13_20.odb,Step-1,Increment      1: Step Time =    1.000,"PART-1-1",           220,       11.0603,      -2.05600,            0.,NA,NA,"",   130.774E-03,   1.39920E-03,   130.767E-03,   4.14626E-03
C:/temp/dataset/8/13_20.odb,Step-1,Increment      1: Step Time =    1.000,"PART-1-1",           221,       5.60149,       2.31416,            0.,NA,NA,"",   186.619E-03,   18.7380E-03,   185.676E-03,   8.58434E-03
C:/temp/dataset/8/13_20.odb,Step-1,Increment      1: Step Time =    1.000,"PART-1-1",           222,      -6.74223,       2.51529,            0.,NA,NA,"",   114.134E-03,  -16.0204E-03,   113.004E-03,   1.98123E-03
C:/temp/dataset/8/13_20.odb,Step-1,Increment      1: Step Time =    1.000,"PART-1-1",           223,       7.48229,       20.3552,            0.,NA,NA,"",   141.602E-03,  -10.1070E-03,   141.241E-03,   1.58171E-03
C:/temp/dataset/8/13_20.odb,Step-1,Increment      1: Step Time =    1.000,"PART-1-1",           224,      -7.41549,      -20.2834,            0.,NA,NA,"",   29.4671E-03,   17.1127E-03,   23.9888E-03,   4.30577E-03
C:/temp/dataset/8/13_20.odb,Step-1,Increment      1: Step Time =    1.000,"PART-1-1",           225,       7.68091,      -4.90617,            0.,NA,NA,"",   146.755E-03,  -11.9760E-03,   146.266E-03,   6.09562E-03
C:/temp/dataset/8/13_20.odb,Step-1,Increment      1: Step Time =    1.000,"PART-1-1",           226,       7.32158,      -21.5125,            0.,NA,NA,"",   38.7416E-03,  -15.4689E-03,   35.5194E-03,   6.95426E-03
C:/temp/dataset/8/13_20.odb,Step-1,Increment      1: Step Time =    1.000,"PART-1-1",           227,      -5.66463,      -2.34251,            0.,NA,NA,"",   119.004E-03,   14.4214E-03,   118.127E-03,   6.37038E-03
C:/temp/dataset/8/13_20.odb,Step-1,Increment      1: Step Time =    1.000,"PART-1-1",           228,      -7.47529,       21.9155,            0.,NA,NA,"",   101.400E-03,  -34.1682E-03,   95.4702E-03,   992.662E-06
C:/temp/dataset/8/13_20.odb,Step-1,Increment      1: Step Time =    1.000,"PART-1-1",           229,      -10.1614,       28.1082,            0.,NA,NA,"",   101.611E-03,  -40.1775E-03,   93.3308E-03,   339.761E-06
C:/temp/dataset/8/13_20.odb,Step-1,Increment      1: Step Time =    1.000,"PART-1-1",           230,      -12.9405,      -24.6359,            0.,NA,NA,"",   23.7331E-03,   13.8458E-03,   19.2758E-03,   4.23332E-03
C:/temp/dataset/8/13_20.odb,Step-1,Increment      1: Step Time =    1.000,"PART-1-1",           231,       8.38159,      -7.75756,            0.,NA,NA,"",   129.516E-03,  -33.3417E-03,   125.151E-03,   6.79869E-03
C:/temp/dataset/8/13_20.odb,Step-1,Increment      1: Step Time =    1.000,"PART-1-1",           232,       2.49333,  -53.6144E-03,            0.,NA,NA,"",   220.868E-03,   10.1744E-03,   220.634E-03,   8.69807E-03
C:/temp/dataset/8/13_20.odb,Step-1,Increment      1: Step Time =    1.000,"PART-1-1",           233,       10.3438,       10.8317,            0.,NA,NA,"",   155.289E-03,   32.2376E-03,   151.906E-03,   1.37343E-03
C:/temp/dataset/8/13_20.odb,Step-1,Increment      1: Step Time =    1.000,"PART-1-1",           234,       2.48676,       25.2065,            0.,NA,NA,"",   122.326E-03,  -34.5931E-03,   117.332E-03,   478.545E-06
C:/temp/dataset/8/13_20.odb,Step-1,Increment      1: Step Time =    1.000,"PART-1-1",           235,      -1.68066,       25.0633,            0.,NA,NA,"",   109.958E-03,  -35.6270E-03,   104.026E-03,   427.706E-06
C:/temp/dataset/8/13_20.odb,Step-1,Increment      1: Step Time =    1.000,"PART-1-1",           236,       8.59823,       25.2987,            0.,NA,NA,"",   147.002E-03,  -32.9030E-03,   143.272E-03,   368.914E-06
C:/temp/dataset/8/13_20.odb,Step-1,Increment      1: Step Time =    1.000,"PART-1-1",           237,      -9.10993,      -25.5879,            0.,NA,NA,"",   11.4741E-03,   5.18643E-03,   10.2351E-03,   3.21077E-03
C:/temp/dataset/8/13_20.odb,Step-1,Increment      1: Step Time =    1.000,"PART-1-1",           238,   13.3068E-03,  -28.0450E-03,            0.,NA,NA,"",   209.550E-03,   39.7884E-06,   209.550E-03,   8.64024E-03
C:/temp/dataset/8/13_20.odb,Step-1,Increment      1: Step Time =    1.000,"PART-1-1",           239,      -6.37923,       25.7100,            0.,NA,NA,"",   102.821E-03,  -37.6035E-03,   95.6987E-03,   336.659E-06
C:/temp/dataset/8/13_20.odb,Step-1,Increment      1: Step Time =    1.000,"PART-1-1",           240,      -10.0909,       17.4402,            0.,NA,NA,"",   102.635E-03,  -38.6420E-03,   95.0825E-03,   1.36989E-03
C:/temp/dataset/8/13_20.odb,Step-1,Increment      1: Step Time =    1.000,"PART-1-1",           241,      -10.1005,       12.5885,            0.,NA,NA,"",   103.725E-03,  -42.3743E-03,   94.6743E-03,   1.42419E-03
C:/temp/dataset/8/13_20.odb,Step-1,Increment      1: Step Time =    1.000,"PART-1-1",           242,      -9.86842,       5.52051,            0.,NA,NA,"",   97.7469E-03,  -30.9830E-03,   92.7066E-03,   1.45091E-03
C:/temp/dataset/8/13_20.odb,Step-1,Increment      1: Step Time =    1.000,"PART-1-1",           243,      -11.6255,       2.21973,            0.,NA,NA,"",   79.7792E-03,  -10.3741E-03,   79.1018E-03,   2.03696E-03
C:/temp/dataset/8/13_20.odb,Step-1,Increment      1: Step Time =    1.000,"PART-1-1",           244,      -10.6231,      -5.01162,            0.,NA,NA,"",   82.1219E-03,   38.9050E-03,   72.3215E-03,   2.05473E-03
C:/temp/dataset/8/13_20.odb,Step-1,Increment      1: Step Time =    1.000,"PART-1-1",           245,      -9.74824,      -1.61604,            0.,NA,NA,"",   84.9676E-03,   16.0155E-03,   83.4446E-03,   2.57624E-03
C:/temp/dataset/8/13_20.odb,Step-1,Increment      1: Step Time =    1.000,"PART-1-1",           246,      -9.39443,      -6.20426,            0.,NA,NA,"",   87.0806E-03,   43.4695E-03,   75.4548E-03,   3.12441E-03
C:/temp/dataset/8/13_20.odb,Step-1,Increment      1: Step Time =    1.000,"PART-1-1",           247,      -9.97662,      -10.1599,            0.,NA,NA,"",   79.2274E-03,   49.3389E-03,   61.9891E-03,   3.78651E-03
C:/temp/dataset/8/13_20.odb,Step-1,Increment      1: Step Time =    1.000,"PART-1-1",           248,      -10.0249,      -15.1454,            0.,NA,NA,"",   61.1883E-03,   40.5968E-03,   45.7811E-03,   3.90182E-03
C:/temp/dataset/8/13_20.odb,Step-1,Increment      1: Step Time =    1.000,"PART-1-1",           249,      -10.1027,      -20.6945,            0.,NA,NA,"",   34.8042E-03,   21.0084E-03,   27.7485E-03,   4.02863E-03
C:/temp/dataset/8/13_20.odb,Step-1,Increment      1: Step Time =    1.000,"PART-1-1",           250,      -4.80323,      -25.3191,            0.,NA,NA,"",   4.84394E-03,   1.39441E-03,   4.63889E-03,   1.39586E-03
C:/temp/dataset/8/13_20.odb,Step-1,Increment      1: Step Time =    1.000,"PART-1-1",           251,      -2.51311,      -25.1881,            0.,NA,NA,"",   2.28308E-03,   1.07250E-03,   2.01549E-03,   624.028E-06
C:/temp/dataset/8/13_20.odb,Step-1,Increment      1: Step Time =    1.000,"PART-1-1",           252,       4.39742,      -24.6165,            0.,NA,NA,"",   10.6693E-03,   205.702E-06,   10.6674E-03,   3.07229E-03
C:/temp/dataset/8/13_20.odb,Step-1,Increment      1: Step Time =    1.000,"PART-1-1",           253,       1.66428,      -24.9869,            0.,NA,NA,"",   3.92323E-03,   1.84171E-03,   3.46408E-03,   1.06489E-03
C:/temp/dataset/8/13_20.odb,Step-1,Increment      1: Step Time =    1.000,"PART-1-1",           254,      -10.0923,       15.0064,            0.,NA,NA,"",   103.493E-03,  -41.0626E-03,   94.9983E-03,   1.39254E-03
C:/temp/dataset/8/13_20.odb,Step-1,Increment      1: Step Time =    1.000,"PART-1-1",           255,       10.3928,      -12.7475,            0.,NA,NA,"",   100.653E-03,  -47.4402E-03,   88.7720E-03,   6.00834E-03
C:/temp/dataset/8/13_20.odb,Step-1,Increment      1: Step Time =    1.000,"PART-1-1",           256,      -10.0380,       8.31527,            0.,NA,NA,"",   101.704E-03,  -39.2295E-03,   93.8334E-03,   1.31618E-03
C:/temp/dataset/8/13_20.odb,Step-1,Increment      1: Step Time =    1.000,"PART-1-1",           257,      -2.46664,   5.11286E-03,            0.,NA,NA,"",   173.602E-03,  -3.82855E-03,   173.560E-03,   9.61947E-03
C:/temp/dataset/8/13_20.odb,Step-1,Increment      1: Step Time =    1.000,"PART-1-1",           258,       4.76759,       25.2938,            0.,NA,NA,"",   130.997E-03,  -34.1519E-03,   126.467E-03,   520.280E-06
C:/temp/dataset/8/13_20.odb,Step-1,Increment      1: Step Time =    1.000,"PART-1-1",           259,      -9.80145,       22.1184,            0.,NA,NA,"",   100.746E-03,  -35.7284E-03,   94.1978E-03,   609.444E-06
C:/temp/dataset/8/13_20.odb,Step-1,Increment      1: Step Time =    1.000,"PART-1-1",           260,      -10.0026,       19.8332,            0.,NA,NA,"",   101.574E-03,  -36.4534E-03,   94.8074E-03,   1.00952E-03
C:/temp/dataset/8/13_20.odb,Step-1,Increment      1: Step Time =    1.000,"PART-1-1",           261,      -4.38985,       24.8503,            0.,NA,NA,"",   104.575E-03,  -35.9550E-03,   98.1996E-03,   326.332E-06
C:/temp/dataset/8/13_20.odb,Step-1,Increment      1: Step Time =    1.000,"PART-1-1",           262,      -8.41468,       26.1052,            0.,NA,NA,"",   101.625E-03,  -38.2451E-03,   94.1544E-03,   389.181E-06
C:/temp/dataset/8/13_20.odb,Step-1,Increment      1: Step Time =    1.000,"PART-1-1",           263,      -10.8408,       3.63703,            0.,NA,NA,"",   87.8053E-03,  -20.2099E-03,   85.4479E-03,   1.66640E-03
C:/temp/dataset/8/13_20.odb,Step-1,Increment      1: Step Time =    1.000,"PART-1-1",           264,      -10.0123,      -12.6074,            0.,NA,NA,"",   71.3539E-03,   46.6294E-03,   54.0100E-03,   3.94333E-03
C:/temp/dataset/8/13_20.odb,Step-1,Increment      1: Step Time =    1.000,"PART-1-1",           265,      -10.0363,      -17.7670,            0.,NA,NA,"",   49.0951E-03,   31.8978E-03,   37.3210E-03,   3.91662E-03
C:/temp/dataset/8/13_20.odb,Step-1,Increment      1: Step Time =    1.000,"PART-1-1",           266,      -11.0603,      -23.9480,            0.,NA,NA,"",   22.0792E-03,   12.3045E-03,   18.3327E-03,   3.84935E-03
C:/temp/dataset/8/13_20.odb,Step-1,Increment      1: Step Time =    1.000,"PART-1-1",           267,       6.47854,      -25.3722,            0.,NA,NA,"",   14.0525E-03,  -2.03518E-03,   13.9043E-03,   4.25920E-03
C:/temp/dataset/8/13_20.odb,Step-1,Increment      1: Step Time =    1.000,"PART-1-1",           268,       8.63537,      -25.7845,            0.,NA,NA,"",   17.0827E-03,  -5.58157E-03,   16.1451E-03,   5.29157E-03
C:/temp/dataset/8/13_20.odb,Step-1,Increment      1: Step Time =    1.000,"PART-1-1",           269,       9.70324,      -17.2922,            0.,NA,NA,"",   74.9355E-03,  -38.8059E-03,   64.1049E-03,   6.25965E-03
C:/temp/dataset/8/13_20.odb,Step-1,Increment      1: Step Time =    1.000,"PART-1-1",           270,       9.32190,      -19.2968,            0.,NA,NA,"",   60.9526E-03,  -31.0430E-03,   52.4553E-03,   6.46384E-03
C:/temp/dataset/8/13_20.odb,Step-1,Increment      1: Step Time =    1.000,"PART-1-1",           271,       10.1737,       15.3696,            0.,NA,NA,"",   153.105E-03,   16.7061E-03,   152.190E-03,   1.39660E-03
C:/temp/dataset/8/13_20.odb,Step-1,Increment      1: Step Time =    1.000,"PART-1-1",           272,       11.4582,       22.6444,            0.,NA,NA,"",   157.504E-03,  -19.7574E-03,   156.260E-03,   494.725E-06
C:/temp/dataset/8/13_20.odb,Step-1,Increment      1: Step Time =    1.000,"PART-1-1",           273,       10.7208,      -10.6686,            0.,NA,NA,"",   108.846E-03,  -46.5263E-03,   98.4011E-03,   5.41217E-03
C:/temp/dataset/8/13_20.odb,Step-1,Increment      1: Step Time =    1.000,"PART-1-1",           274,       12.8969,       24.9220,            0.,NA,NA,"",   165.250E-03,  -30.4745E-03,   162.416E-03,   97.5126E-06
C:/temp/dataset/8/13_20.odb,Step-1,Increment      1: Step Time =    1.000,"PART-1-1",           275,       10.1448,       20.8629,            0.,NA,NA,"",   151.740E-03,  -11.1448E-03,   151.330E-03,   1.00727E-03
C:/temp/dataset/8/13_20.odb,Step-1,Increment      1: Step Time =    1.000,"PART-1-1",           276,       9.65714,      -6.54367,            0.,NA,NA,"",   125.797E-03,  -29.0651E-03,   122.394E-03,   4.61485E-03
C:/temp/dataset/8/13_20.odb,Step-1,Increment      1: Step Time =    1.000,"PART-1-1",           277,       9.83992,      -3.38396,            0.,NA,NA,"",   134.350E-03,  -5.37170E-03,   134.243E-03,   4.89326E-03
C:/temp/dataset/8/13_20.odb,Step-1,Increment      1: Step Time =    1.000,"PART-1-1",           278,       8.07567,       3.47086,            0.,NA,NA,"",   163.318E-03,   27.0248E-03,   161.067E-03,   3.10528E-03
C:/temp/dataset/8/13_20.odb,Step-1,Increment      1: Step Time =    1.000,"PART-1-1",           279,       7.59381,   482.257E-03,            0.,NA,NA,"",   169.244E-03,   20.2811E-03,   168.024E-03,   5.86152E-03
C:/temp/dataset/8/13_20.odb,Step-1,Increment      1: Step Time =    1.000,"PART-1-1",           280,       4.76722,  -235.440E-03,            0.,NA,NA,"",   204.141E-03,   18.7337E-03,   203.280E-03,   10.3420E-03
C:/temp/dataset/8/13_20.odb,Step-1,Increment      1: Step Time =    1.000,"PART-1-1",           281,      -4.77136,   213.016E-03,            0.,NA,NA,"",   136.989E-03,  -3.40610E-03,   136.946E-03,   6.62316E-03
C:/temp/dataset/8/13_20.odb,Step-1,Increment      1: Step Time =    1.000,"PART-1-1",           282,      -7.11180,      -22.9221,            0.,NA,NA,"",   16.3442E-03,   7.70436E-03,   14.4144E-03,   3.51910E-03
C:/temp/dataset/8/13_20.odb,Step-1,Increment      1: Step Time =    1.000,"PART-1-1",           283,      -7.18782,       23.8644,            0.,NA,NA,"",   101.501E-03,  -35.4698E-03,   95.1018E-03,   525.576E-06
C:/temp/dataset/8/13_20.odb,Step-1,Increment      1: Step Time =    1.000,"PART-1-1",           284,      -8.39641,      -3.64363,            0.,NA,NA,"",   91.9028E-03,   29.2989E-03,   87.1074E-03,   3.25616E-03
C:/temp/dataset/8/13_20.odb,Step-1,Increment      1: Step Time =    1.000,"PART-1-1",           285,      -5.55453,       23.5444,            0.,NA,NA,"",   102.558E-03,  -34.4247E-03,   96.6076E-03,   595.669E-06
C:/temp/dataset/8/13_20.odb,Step-1,Increment      1: Step Time =    1.000,"PART-1-1",           286,      -8.96964,       2.09003,            0.,NA,NA,"",   95.5179E-03,  -12.1267E-03,   94.7450E-03,   1.32397E-03
C:/temp/dataset/8/13_20.odb,Step-1,Increment      1: Step Time =    1.000,"PART-1-1",           287,      -8.56063,       4.18956,            0.,NA,NA,"",   102.394E-03,  -25.5826E-03,   99.1465E-03,   1.07473E-03
C:/temp/dataset/8/13_20.odb,Step-1,Increment      1: Step Time =    1.000,"PART-1-1",           288,      -7.73446,  -335.973E-03,            0.,NA,NA,"",   101.198E-03,   3.78592E-03,   101.127E-03,   2.53997E-03
C:/temp/dataset/8/13_20.odb,Step-1,Increment      1: Step Time =    1.000,"PART-1-1",           289,      -9.21295,      -23.2880,            0.,NA,NA,"",   20.4783E-03,   10.7631E-03,   17.4218E-03,   3.75988E-03
C:/temp/dataset/8/13_20.odb,Step-1,Increment      1: Step Time =    1.000,"PART-1-1",           290,       7.07458,       22.9394,            0.,NA,NA,"",   139.489E-03,  -23.3472E-03,   137.521E-03,   952.867E-06
C:/temp/dataset/8/13_20.odb,Step-1,Increment      1: Step Time =    1.000,"PART-1-1",           291,       5.55979,      -23.2424,            0.,NA,NA,"",   19.7748E-03,  -4.09205E-03,   19.3468E-03,   4.70271E-03
C:/temp/dataset/8/13_20.odb,Step-1,Increment      1: Step Time =    1.000,"PART-1-1",           292,       8.69880,      -1.44983,            0.,NA,NA,"",   152.519E-03,   11.3141E-03,   152.099E-03,   5.24120E-03
C:/temp/dataset/8/13_20.odb,Step-1,Increment      1: Step Time =    1.000,"PART-1-1",           293,       10.8983,      -19.3920,            0.,NA,NA,"",   64.3738E-03,  -34.8490E-03,   54.1252E-03,   6.03580E-03
C:/temp/dataset/8/13_20.odb,Step-1,Increment      1: Step Time =    1.000,"PART-1-1",           294,       11.5936,       9.64460,            0.,NA,NA,"",   154.688E-03,   33.7515E-03,   150.961E-03,   1.64495E-03
C:/temp/dataset/8/13_20.odb,Step-1,Increment      1: Step Time =    1.000,"PART-1-1",           295,       7.27669,      -23.4490,            0.,NA,NA,"",   25.9644E-03,  -8.36556E-03,   24.5798E-03,   5.80718E-03
C:/temp/dataset/8/13_20.odb,Step-1,Increment      1: Step Time =    1.000,"PART-1-1",           296,       9.33849,      -21.3324,            0.,NA,NA,"",   47.0287E-03,  -22.7451E-03,   41.1626E-03,   6.46058E-03
C:/temp/dataset/8/13_20.odb,Step-1,Increment      1: Step Time =    1.000,"PART-1-1",           297,       6.40414,  -671.178E-03,            0.,NA,NA,"",   182.848E-03,   19.3329E-03,   181.823E-03,   9.06480E-03
C:/temp/dataset/8/13_20.odb,Step-1,Increment      1: Step Time =    1.000,"PART-1-1",           298,       9.14051,       23.4286,            0.,NA,NA,"",   148.243E-03,  -24.3135E-03,   146.235E-03,   637.775E-06
C:/temp/dataset/8/13_20.odb,Step-1,Increment      1: Step Time =    1.000,"PART-1-1",           299,       8.65907,       5.77812,            0.,NA,NA,"",   159.105E-03,   33.6826E-03,   155.499E-03,   1.53395E-03
C:/temp/dataset/8/13_20.odb,Step-1,Increment      1: Step Time =    1.000,"PART-1-1",           300,       8.97612,       7.18244,            0.,NA,NA,"",   157.745E-03,   35.5975E-03,   153.676E-03,   1.31916E-03
C:/temp/dataset/8/13_20.odb,Step-1,Increment      1: Step Time =    1.000,"PART-1-1",           301,       6.88173,      -2.42849,            0.,NA,NA,"",   170.918E-03,   13.4687E-03,   170.386E-03,   9.86556E-03
C:/temp/dataset/8/13_20.odb,Step-1,Increment      1: Step Time =    1.000,"PART-1-1",           302,      -6.42964,   749.171E-03,            0.,NA,NA,"",   116.225E-03,  -5.11433E-03,   116.112E-03,   3.41805E-03
C:/temp/dataset/8/13_20.odb,Step-1,Increment      1: Step Time =    1.000,"PART-1-1",           303,       5.11581,      -21.8357,            0.,NA,NA,"",   23.7034E-03,  -6.78919E-03,   22.7103E-03,   5.72605E-03
C:/temp/dataset/8/13_20.odb,Step-1,Increment      1: Step Time =    1.000,"PART-1-1",           304,      -5.14463,       22.0341,            0.,NA,NA,"",   102.421E-03,  -32.3587E-03,   97.1749E-03,   887.321E-06
C:/temp/dataset/8/13_20.odb,Step-1,Increment      1: Step Time =    1.000,"PART-1-1",           305,      -6.99627,       4.73063,            0.,NA,NA,"",   113.425E-03,  -29.7987E-03,   109.440E-03,   1.60515E-03
C:/temp/dataset/8/13_20.odb,Step-1,Increment      1: Step Time =    1.000,"PART-1-1",           306,      -9.29341,       24.2181,            0.,NA,NA,"",   100.757E-03,  -36.5524E-03,   93.8925E-03,   424.139E-06
C:/temp/dataset/8/13_20.odb,Step-1,Increment      1: Step Time =    1.000,"PART-1-1",           307,       6.91219,       25.3650,            0.,NA,NA,"",   139.899E-03,  -33.7247E-03,   135.773E-03,   457.031E-06
C:/temp/dataset/8/13_20.odb,Step-1,Increment      1: Step Time =    1.000,"PART-1-1",           308,      -7.05007,      -25.4591,            0.,NA,NA,"",   8.33096E-03,   2.95699E-03,   7.78853E-03,   2.40327E-03
C:/temp/dataset/8/13_20.odb,Step-1,Increment      1: Step Time =    1.000,"PART-1-1",           309,   220.127E-03,       25.1193,            0.,NA,NA,"",   114.987E-03,  -35.1116E-03,   109.495E-03,   461.046E-06
C:/temp/dataset/8/13_20.odb,Step-1,Increment      1: Step Time =    1.000,"PART-1-1",           310,      -10.0664,       10.2548,            0.,NA,NA,"",   103.208E-03,  -41.7930E-03,   94.3670E-03,   1.40862E-03
C:/temp/dataset/8/13_20.odb,Step-1,Increment      1: Step Time =    1.000,"PART-1-1",           311,  -242.668E-03,      -25.0731,            0.,NA,NA,"",   2.14726E-03,   1.50342E-03,   1.53312E-03,   512.558E-06
C:/temp/dataset/8/13_20.odb,Step-1,Increment      1: Step Time =    1.000,"PART-1-1",           312,       10.1301,       17.8656,            0.,NA,NA,"",   152.001E-03,   4.55842E-03,   151.933E-03,   1.39416E-03
C:/temp/dataset/8/13_20.odb,Step-1,Increment      1: Step Time =    1.000,"PART-1-1",           313,       10.5061,      -8.54167,            0.,NA,NA,"",   116.182E-03,  -40.2229E-03,   108.997E-03,   4.95667E-03
C:/temp/dataset/8/13_20.odb,Step-1,Increment      1: Step Time =    1.000,"PART-1-1",           314,       10.4872,  -400.528E-03,            0.,NA,NA,"",   140.826E-03,   12.6580E-03,   140.256E-03,   3.52513E-03
C:/temp/dataset/8/13_20.odb,Step-1,Increment      1: Step Time =    1.000,"PART-1-1",           315,       10.8929,       24.4859,            0.,NA,NA,"",   156.213E-03,  -28.6555E-03,   153.562E-03,   289.662E-06
C:/temp/dataset/8/13_20.odb,Step-1,Increment      1: Step Time =    1.000,"PART-1-1",           316,      -9.77896,      -7.87942,            0.,NA,NA,"",   84.2855E-03,   47.9431E-03,   69.3217E-03,   3.29368E-03
C:/temp/dataset/8/13_20.odb,Step-1,Increment      1: Step Time =    1.000,"PART-1-1",           317,      -10.1061,       26.5279,            0.,NA,NA,"",   101.039E-03,  -38.7288E-03,   93.3219E-03,   357.711E-06
C:/temp/dataset/8/13_20.odb,Step-1,Increment      1: Step Time =    1.000,"PART-1-1",           318,       10.2904,      -26.3642,            0.,NA,NA,"",   17.3631E-03,  -7.67746E-03,   15.5735E-03,   5.81886E-03
C:/temp/dataset/8/13_20.odb,Step-1,Increment      1: Step Time =    1.000,"PART-1-1",           319,       8.71706,      -9.20658,            0.,NA,NA,"",   120.809E-03,  -38.7776E-03,   114.416E-03,   6.85470E-03
C:/temp/dataset/8/13_20.odb,Step-1,Increment      1: Step Time =    1.000,"PART-1-1",           320,      -10.7949,   625.452E-03,            0.,NA,NA,"",   81.2066E-03,   138.389E-06,   81.2065E-03,   2.14870E-03
C:/temp/dataset/8/13_20.odb,Step-1,Increment      1: Step Time =    1.000,"PART-1-1",           321,       9.11771,      -10.6516,            0.,NA,NA,"",   112.406E-03,  -42.6554E-03,   103.998E-03,   6.89586E-03
C:/temp/dataset/8/13_20.odb,Step-1,Increment      1: Step Time =    1.000,"PART-1-1",           322,       10.0459,      -15.0301,            0.,NA,NA,"",   88.8188E-03,  -44.6837E-03,   76.7604E-03,   6.31204E-03
C:/temp/dataset/8/13_20.odb,Step-1,Increment      1: Step Time =    1.000,"PART-1-1",           323,       10.1838,       13.4361,            0.,NA,NA,"",   154.132E-03,   24.5964E-03,   152.157E-03,   1.39837E-03
C:/temp/dataset/8/13_20.odb,Step-1,Increment      1: Step Time =    1.000,"PART-1-1",           324,       9.44411,       8.99394,            0.,NA,NA,"",   156.272E-03,   35.2212E-03,   152.251E-03,   1.38280E-03
C:/temp/dataset/8/13_20.odb,Step-1,Increment      1: Step Time =    1.000,"PART-1-1",           325,      -11.4742,      -22.3598,            0.,NA,NA,"",   30.3268E-03,   17.8379E-03,   24.5261E-03,   3.92214E-03
C:/temp/dataset/8/13_20.odb,Step-1,Increment      1: Step Time =    1.000,"PART-1-1",           326,      -10.7157,      -25.5035,            0.,NA,NA,"",   14.8000E-03,   7.74972E-03,   12.6088E-03,   3.67219E-03
C:/temp/dataset/8/13_20.odb,Step-1,Increment      1: Step Time =    1.000,"PART-1-1",           327,       11.3755,      -22.3888,            0.,NA,NA,"",   45.9819E-03,  -24.4210E-03,   38.9609E-03,   6.26537E-03
C:/temp/dataset/8/13_20.odb,Step-1,Increment      1: Step Time =    1.000,"PART-1-1",           328,       12.6965,      -9.12334,            0.,NA,NA,"",   107.794E-03,  -45.9459E-03,   97.5118E-03,   3.64415E-03
C:/temp/dataset/8/13_20.odb,Step-1,Increment      1: Step Time =    1.000,"PART-1-1",           329,       11.5519,      -8.21002,            0.,NA,NA,"",   113.042E-03,  -40.6168E-03,   105.493E-03,   4.20870E-03
C:/temp/dataset/8/13_20.odb,Step-1,Increment      1: Step Time =    1.000,"PART-1-1",           330,       10.6134,      -9.60511,            0.,NA,NA,"",   112.682E-03,  -43.9524E-03,   103.757E-03,   5.17042E-03
C:/temp/dataset/8/13_20.odb,Step-1,Increment      1: Step Time =    1.000,"PART-1-1",           331,       11.7580,      -10.5184,            0.,NA,NA,"",   107.210E-03,  -48.2863E-03,   95.7201E-03,   4.57578E-03
C:/temp/dataset/8/13_20.odb,Step-1,Increment      1: Step Time =    1.000,"PART-1-1",           332,       12.2813,      -6.47713,            0.,NA,NA,"",   112.666E-03,  -32.3975E-03,   107.908E-03,   3.74973E-03
C:/temp/dataset/8/13_20.odb,Step-1,Increment      1: Step Time =    1.000,"PART-1-1",           333,       10.8110,      -5.80977,            0.,NA,NA,"",   121.042E-03,  -25.8545E-03,   118.248E-03,   4.22907E-03
C:/temp/dataset/8/13_20.odb,Step-1,Increment      1: Step Time =    1.000,"PART-1-1",           334,       10.0816,      -7.54267,            0.,NA,NA,"",   120.863E-03,  -35.2408E-03,   115.611E-03,   4.81572E-03
C:/temp/dataset/8/13_20.odb,Step-1,Increment      1: Step Time =    1.000,"PART-1-1",           335,       11.2990,      -15.1119,            0.,NA,NA,"",   89.6023E-03,  -47.6885E-03,   75.8576E-03,   5.53215E-03
C:/temp/dataset/8/13_20.odb,Step-1,Increment      1: Step Time =    1.000,"PART-1-1",           336,       9.87457,      -16.1611,            0.,NA,NA,"",   82.0930E-03,  -42.0730E-03,   70.4920E-03,   6.33154E-03
C:/temp/dataset/8/13_20.odb,Step-1,Increment      1: Step Time =    1.000,"PART-1-1",           337,       10.9991,      -17.5898,            0.,NA,NA,"",   75.6852E-03,  -41.2101E-03,   63.4821E-03,   5.82420E-03
C:/temp/dataset/8/13_20.odb,Step-1,Increment      1: Step Time =    1.000,"PART-1-1",           338,       12.4235,      -16.5405,            0.,NA,NA,"",   84.0543E-03,  -47.3380E-03,   69.4568E-03,   5.05816E-03
C:/temp/dataset/8/13_20.odb,Step-1,Increment      1: Step Time =    1.000,"PART-1-1",           339,       13.8616,      -12.6502,            0.,NA,NA,"",   99.8054E-03,  -54.2846E-03,   83.7514E-03,   3.27427E-03
C:/temp/dataset/8/13_20.odb,Step-1,Increment      1: Step Time =    1.000,"PART-1-1",           340,       12.6376,      -13.9658,            0.,NA,NA,"",   95.5815E-03,  -51.9214E-03,   80.2495E-03,   4.50982E-03
C:/temp/dataset/8/13_20.odb,Step-1,Increment      1: Step Time =    1.000,"PART-1-1",           341,       13.7760,      -15.1344,            0.,NA,NA,"",   92.3280E-03,  -52.6981E-03,   75.8114E-03,   3.90935E-03
C:/temp/dataset/8/13_20.odb,Step-1,Increment      1: Step Time =    1.000,"PART-1-1",           342,           15.,      -13.8188,            0.,NA,NA,"",   97.7109E-03,  -55.7281E-03,   80.2608E-03,   2.68546E-03
C:/temp/dataset/8/13_20.odb,Step-1,Increment      1: Step Time =    1.000,"PART-1-1",           343,       10.1233,      -29.0150,            0.,NA,NA,"",   3.80925E-03,  -1.23526E-03,   3.60341E-03,   4.62052E-03
C:/temp/dataset/8/13_20.odb,Step-1,Increment      1: Step Time =    1.000,"PART-1-1",           344,         11.25,          -30.,            0.,NA,NA,"",            0.,  -1.05790E-39,   9.27642E-39,   4.79023E-03
C:/temp/dataset/8/13_20.odb,Step-1,Increment      1: Step Time =    1.000,"PART-1-1",           345,       12.5276,      -28.8602,            0.,NA,NA,"",   6.33968E-03,  -3.59851E-03,   5.21942E-03,   5.93249E-03
C:/temp/dataset/8/13_20.odb,Step-1,Increment      1: Step Time =    1.000,"PART-1-1",           346,       11.4009,      -27.8752,            0.,NA,NA,"",   10.7386E-03,  -5.50518E-03,   9.22011E-03,   5.92347E-03
C:/temp/dataset/8/13_20.odb,Step-1,Increment      1: Step Time =    1.000,"PART-1-1",           347,  -7.48819E-03,      -28.7489,            0.,NA,NA,"",   1.12024E-03,   877.273E-06,   696.656E-06,   893.181E-06
C:/temp/dataset/8/13_20.odb,Step-1,Increment      1: Step Time =    1.000,"PART-1-1",           348,          1.25,          -30.,            0.,NA,NA,"",            0.,   748.810E-42,   2.17476E-39,   1.32136E-03
C:/temp/dataset/8/13_20.odb,Step-1,Increment      1: Step Time =    1.000,"PART-1-1",           349,       2.65668,      -28.4883,            0.,NA,NA,"",   2.39560E-03,   1.71679E-03,   1.67079E-03,   1.63255E-03
C:/temp/dataset/8/13_20.odb,Step-1,Increment      1: Step Time =    1.000,"PART-1-1",           350,       1.39919,      -27.2372,            0.,NA,NA,"",   2.75242E-03,   2.01245E-03,   1.87772E-03,   1.16460E-03
C:/temp/dataset/8/13_20.odb,Step-1,Increment      1: Step Time =    1.000,"PART-1-1",           351,      -13.5917,      -27.3235,            0.,NA,NA,"",   12.8540E-03,   7.84609E-03,   10.1815E-03,   4.50745E-03
C:/temp/dataset/8/13_20.odb,Step-1,Increment      1: Step Time =    1.000,"PART-1-1",           352,      -12.5620,      -25.8915,            0.,NA,NA,"",   17.0809E-03,   9.83796E-03,   13.9632E-03,   4.11809E-03
C:/temp/dataset/8/13_20.odb,Step-1,Increment      1: Step Time =    1.000,"PART-1-1",           353,      -13.9703,      -24.8180,            0.,NA,NA,"",   25.9548E-03,   15.3325E-03,   20.9420E-03,   4.25804E-03
C:/temp/dataset/8/13_20.odb,Step-1,Increment      1: Step Time =    1.000,"PART-1-1",           354,          -15.,        -26.25,            0.,NA,NA,"",   22.5395E-03,   13.6871E-03,   17.9079E-03,   4.60346E-03
C:/temp/dataset/8/13_20.odb,Step-1,Increment      1: Step Time =    1.000,"PART-1-1",           355,      -13.7565,      -15.0496,            0.,NA,NA,"",   67.3287E-03,   45.6430E-03,   49.4962E-03,   2.23206E-03
C:/temp/dataset/8/13_20.odb,Step-1,Increment      1: Step Time =    1.000,"PART-1-1",           356,          -15.,        -16.25,            0.,NA,NA,"",   66.2559E-03,   43.4832E-03,   49.9905E-03,   2.09163E-03
C:/temp/dataset/8/13_20.odb,Step-1,Increment      1: Step Time =    1.000,"PART-1-1",           357,      -13.7726,      -17.5632,            0.,NA,NA,"",   58.1322E-03,   38.0417E-03,   43.9566E-03,   2.87679E-03
C:/temp/dataset/8/13_20.odb,Step-1,Increment      1: Step Time =    1.000,"PART-1-1",           358,      -12.5291,      -16.3628,            0.,NA,NA,"",   60.2503E-03,   40.3978E-03,   44.7003E-03,   3.09267E-03
C:/temp/dataset/8/13_20.odb,Step-1,Increment      1: Step Time =    1.000,"PART-1-1",           359,      -13.7981,       15.0016,            0.,NA,NA,"",   99.8308E-03,  -40.2792E-03,   91.3443E-03,   1.07914E-03
C:/temp/dataset/8/13_20.odb,Step-1,Increment      1: Step Time =    1.000,"PART-1-1",           360,          -15.,         13.75,            0.,NA,NA,"",   98.3248E-03,  -40.0550E-03,   89.7962E-03,   1.58161E-03
C:/temp/dataset/8/13_20.odb,Step-1,Increment      1: Step Time =    1.000,"PART-1-1",           361,      -13.7882,       12.5186,            0.,NA,NA,"",   97.6211E-03,  -40.9365E-03,   88.6233E-03,   1.63097E-03
C:/temp/dataset/8/13_20.odb,Step-1,Increment      1: Step Time =    1.000,"PART-1-1",           362,      -12.5863,       13.7702,            0.,NA,NA,"",   100.217E-03,  -41.3722E-03,   91.2783E-03,   1.36888E-03
C:/temp/dataset/8/13_20.odb,Step-1,Increment      1: Step Time =    1.000,"PART-1-1",           363,         -1.25,           -5.,            0.,NA,NA,"",   201.393E-03,   42.3457E-03,   196.890E-03,   4.09406E-03
C:/temp/dataset/8/13_20.odb,Step-1,Increment      1: Step Time =    1.000,"PART-1-1",           364,  -13.9379E-03,      -3.76263,            0.,NA,NA,"",   231.514E-03,   11.9379E-03,   231.206E-03,   13.2899E-03
C:/temp/dataset/8/13_20.odb,Step-1,Increment      1: Step Time =    1.000,"PART-1-1",           365,      -1.32837,      -2.50582,            0.,NA,NA,"",   197.910E-03,   5.94376E-03,   197.821E-03,   10.7622E-03
C:/temp/dataset/8/13_20.odb,Step-1,Increment      1: Step Time =    1.000,"PART-1-1",           366,      -2.56444,      -3.74319,            0.,NA,NA,"",   171.531E-03,   21.8663E-03,   170.131E-03,   4.33666E-03
C:/temp/dataset/8/13_20.odb,Step-1,Increment      1: Step Time =    1.000,"PART-1-1",           367,       1.21115,      -2.54764,            0.,NA,NA,"",   240.565E-03,   8.64388E-03,   240.410E-03,   13.1358E-03
C:/temp/dataset/8/13_20.odb,Step-1,Increment      1: Step Time =    1.000,"PART-1-1",           368,          1.25,           -5.,            0.,NA,NA,"",   271.531E-03,   24.0885E-03,   270.460E-03,   18.8811E-03
C:/temp/dataset/8/13_20.odb,Step-1,Increment      1: Step Time =    1.000,"PART-1-1",           369,       2.47509,      -3.78501,            0.,NA,NA,"",   259.335E-03,   15.2545E-03,   258.886E-03,   18.1890E-03
C:/temp/dataset/8/13_20.odb,Step-1,Increment      1: Step Time =    1.000,"PART-1-1",           370,      -2.43569,       1.26731,            0.,NA,NA,"",   173.178E-03,  -7.43246E-03,   173.018E-03,   8.29583E-03
C:/temp/dataset/8/13_20.odb,Step-1,Increment      1: Step Time =    1.000,"PART-1-1",           371,      -1.22667,  -11.4661E-03,            0.,NA,NA,"",   193.721E-03,  -2.76015E-03,   193.702E-03,   8.70546E-03
C:/temp/dataset/8/13_20.odb,Step-1,Increment      1: Step Time =    1.000,"PART-1-1",           372,   33.9799E-03,       1.22985,            0.,NA,NA,"",   204.602E-03,  -2.11935E-03,   204.591E-03,   6.89793E-03
C:/temp/dataset/8/13_20.odb,Step-1,Increment      1: Step Time =    1.000,"PART-1-1",           373,      -1.17505,       2.50863,            0.,NA,NA,"",   188.326E-03,  -9.01690E-03,   188.110E-03,   6.39553E-03
C:/temp/dataset/8/13_20.odb,Step-1,Increment      1: Step Time =    1.000,"PART-1-1",           374,       4.76976,      -1.42993,            0.,NA,NA,"",   209.035E-03,   20.0848E-03,   208.068E-03,   11.8247E-03
C:/temp/dataset/8/13_20.odb,Step-1,Increment      1: Step Time =    1.000,"PART-1-1",           375,       3.63028,  -144.527E-03,            0.,NA,NA,"",   215.724E-03,   15.0880E-03,   215.195E-03,   8.95867E-03
C:/temp/dataset/8/13_20.odb,Step-1,Increment      1: Step Time =    1.000,"PART-1-1",           376,       2.47175,      -1.31182,            0.,NA,NA,"",   231.849E-03,   12.6857E-03,   231.501E-03,   12.1360E-03
C:/temp/dataset/8/13_20.odb,Step-1,Increment      1: Step Time =    1.000,"PART-1-1",           377,       3.61124,      -2.59722,            0.,NA,NA,"",   232.455E-03,   19.5204E-03,   231.634E-03,   14.7925E-03
C:/temp/dataset/8/13_20.odb,Step-1,Increment      1: Step Time =    1.000,"PART-1-1",           378,       11.8901,      -2.20917,            0.,NA,NA,"",   124.883E-03,  -1.43332E-03,   124.875E-03,   4.03075E-03
C:/temp/dataset/8/13_20.odb,Step-1,Increment      1: Step Time =    1.000,"PART-1-1",           379,       10.4501,      -2.71998,            0.,NA,NA,"",   132.516E-03,  -1.79837E-03,   132.504E-03,   4.49972E-03
C:/temp/dataset/8/13_20.odb,Step-1,Increment      1: Step Time =    1.000,"PART-1-1",           380,       10.9024,      -4.22992,            0.,NA,NA,"",   124.474E-03,  -14.1964E-03,   123.662E-03,   4.34079E-03
C:/temp/dataset/8/13_20.odb,Step-1,Increment      1: Step Time =    1.000,"PART-1-1",           381,       12.3424,      -3.71911,            0.,NA,NA,"",   117.567E-03,  -13.2127E-03,   116.822E-03,   3.99624E-03
C:/temp/dataset/8/13_20.odb,Step-1,Increment      1: Step Time =    1.000,"PART-1-1",           382,       13.7991,   56.7775E-03,            0.,NA,NA,"",   121.706E-03,   9.15223E-03,   121.361E-03,   4.06278E-03
C:/temp/dataset/8/13_20.odb,Step-1,Increment      1: Step Time =    1.000,"PART-1-1",           383,           15.,       1.23750,            0.,NA,NA,"",   120.348E-03,   13.0013E-03,   119.643E-03,   4.59761E-03
C:/temp/dataset/8/13_20.odb,Step-1,Increment      1: Step Time =    1.000,"PART-1-1",           384,       13.5044,       2.67232,            0.,NA,NA,"",   133.526E-03,   22.0794E-03,   131.687E-03,   3.54573E-03
C:/temp/dataset/8/13_20.odb,Step-1,Increment      1: Step Time =    1.000,"PART-1-1",           385,       12.3035,       1.49160,            0.,NA,NA,"",   135.329E-03,   18.9297E-03,   133.998E-03,   3.02748E-03
C:/temp/dataset/8/13_20.odb,Step-1,Increment      1: Step Time =    1.000,"PART-1-1",           386,       9.21011,       8.08819,            0.,NA,NA,"",   156.968E-03,   35.7470E-03,   152.843E-03,   1.37674E-03
C:/temp/dataset/8/13_20.odb,Step-1,Increment      1: Step Time =    1.000,"PART-1-1",           387,       8.41229,       9.37574,            0.,NA,NA,"",   156.927E-03,   34.6205E-03,   153.061E-03,   1.72816E-03
C:/temp/dataset/8/13_20.odb,Step-1,Increment      1: Step Time =    1.000,"PART-1-1",           388,       7.22358,       8.63283,            0.,NA,NA,"",   159.175E-03,   34.7057E-03,   155.345E-03,   2.73334E-03
C:/temp/dataset/8/13_20.odb,Step-1,Increment      1: Step Time =    1.000,"PART-1-1",           389,       8.02141,       7.34528,            0.,NA,NA,"",   159.914E-03,   35.4537E-03,   155.935E-03,   2.03683E-03
C:/temp/dataset/8/13_20.odb,Step-1,Increment      1: Step Time =    1.000,"PART-1-1",           390,       12.4231,       13.7517,            0.,NA,NA,"",   157.934E-03,   22.7412E-03,   156.288E-03,   1.57776E-03
C:/temp/dataset/8/13_20.odb,Step-1,Increment      1: Step Time =    1.000,"PART-1-1",           391,       13.6407,       12.4035,            0.,NA,NA,"",   158.970E-03,   26.2827E-03,   156.782E-03,   2.16044E-03
C:/temp/dataset/8/13_20.odb,Step-1,Increment      1: Step Time =    1.000,"PART-1-1",           392,           15.,       13.6688,            0.,NA,NA,"",   164.282E-03,   20.9096E-03,   162.946E-03,   2.47804E-03
C:/temp/dataset/8/13_20.odb,Step-1,Increment      1: Step Time =    1.000,"PART-1-1",           393,       13.7824,       15.0169,            0.,NA,NA,"",   162.284E-03,   16.9599E-03,   161.395E-03,   1.65073E-03
C:/temp/dataset/8/13_20.odb,Step-1,Increment      1: Step Time =    1.000,"PART-1-1",           394,       7.56520,       19.0322,            0.,NA,NA,"",   142.668E-03,  -2.76396E-03,   142.641E-03,   1.48346E-03
C:/temp/dataset/8/13_20.odb,Step-1,Increment      1: Step Time =    1.000,"PART-1-1",           395,       8.88910,       17.7874,            0.,NA,NA,"",   148.099E-03,   4.70684E-03,   148.024E-03,   1.39096E-03
C:/temp/dataset/8/13_20.odb,Step-1,Increment      1: Step Time =    1.000,"PART-1-1",           396,       10.1374,       19.3643,            0.,NA,NA,"",   151.719E-03,  -3.28117E-03,   151.684E-03,   1.19806E-03
C:/temp/dataset/8/13_20.odb,Step-1,Increment      1: Step Time =    1.000,"PART-1-1",           397,       8.81352,       20.6091,            0.,NA,NA,"",   146.688E-03,  -10.4614E-03,   146.315E-03,   1.22248E-03
C:/temp/dataset/8/13_20.odb,Step-1,Increment      1: Step Time =    1.000,"PART-1-1",           398,       4.93385,       28.8453,            0.,NA,NA,"",   135.631E-03,  -47.4755E-03,   127.050E-03,   315.268E-06
C:/temp/dataset/8/13_20.odb,Step-1,Increment      1: Step Time =    1.000,"PART-1-1",           399,          3.75,           30.,            0.,NA,NA,"",   132.883E-03,  -51.5069E-03,   122.495E-03,   588.920E-06
C:/temp/dataset/8/13_20.odb,Step-1,Increment      1: Step Time =    1.000,"PART-1-1",           400,       2.48155,       28.8240,            0.,NA,NA,"",   126.322E-03,  -46.5965E-03,   117.414E-03,   460.058E-06
C:/temp/dataset/8/13_20.odb,Step-1,Increment      1: Step Time =    1.000,"PART-1-1",           401,       3.66541,       27.6693,            0.,NA,NA,"",   129.120E-03,  -42.8582E-03,   121.800E-03,   305.342E-06
C:/temp/dataset/8/13_20.odb,Step-1,Increment      1: Step Time =    1.000,"PART-1-1",           402,   132.783E-03,       23.8710,            0.,NA,NA,"",   113.968E-03,  -31.6805E-03,   109.476E-03,   829.422E-06
C:/temp/dataset/8/13_20.odb,Step-1,Increment      1: Step Time =    1.000,"PART-1-1",           403,       1.26611,       22.6290,            0.,NA,NA,"",   116.844E-03,  -27.0220E-03,   113.677E-03,   1.12907E-03
C:/temp/dataset/8/13_20.odb,Step-1,Increment      1: Step Time =    1.000,"PART-1-1",           404,       2.48677,       23.9209,            0.,NA,NA,"",   121.448E-03,  -30.3116E-03,   117.605E-03,   739.208E-06
C:/temp/dataset/8/13_20.odb,Step-1,Increment      1: Step Time =    1.000,"PART-1-1",           405,       1.35344,       25.1629,            0.,NA,NA,"",   118.500E-03,  -34.8502E-03,   113.260E-03,   478.430E-06
C:/temp/dataset/8/13_20.odb,Step-1,Increment      1: Step Time =    1.000,"PART-1-1",           406,      -5.93264,       26.7394,            0.,NA,NA,"",   103.893E-03,  -39.1392E-03,   96.2392E-03,   295.210E-06
C:/temp/dataset/8/13_20.odb,Step-1,Increment      1: Step Time =    1.000,"PART-1-1",           407,      -5.38454,       25.2802,            0.,NA,NA,"",   103.570E-03,  -36.8497E-03,   96.7928E-03,   309.444E-06
C:/temp/dataset/8/13_20.odb,Step-1,Increment      1: Step Time =    1.000,"PART-1-1",           408,      -3.59728,       25.9693,            0.,NA,NA,"",   106.637E-03,  -37.8902E-03,   99.6782E-03,   165.319E-06
C:/temp/dataset/8/13_20.odb,Step-1,Increment      1: Step Time =    1.000,"PART-1-1",           409,      -4.14538,       27.4285,            0.,NA,NA,"",   106.886E-03,  -40.6162E-03,   98.8688E-03,   276.381E-06
C:/temp/dataset/8/13_20.odb,Step-1,Increment      1: Step Time =    1.000,"PART-1-1",           410,      -13.7907,       17.4908,            0.,NA,NA,"",   100.483E-03,  -38.6067E-03,   92.7704E-03,   596.285E-06
C:/temp/dataset/8/13_20.odb,Step-1,Increment      1: Step Time =    1.000,"PART-1-1",           411,      -12.5378,       18.7233,            0.,NA,NA,"",   100.725E-03,  -37.7899E-03,   93.3671E-03,   768.625E-06
C:/temp/dataset/8/13_20.odb,Step-1,Increment      1: Step Time =    1.000,"PART-1-1",           412,      -13.7471,       19.9825,            0.,NA,NA,"",   100.212E-03,  -37.1433E-03,   93.0740E-03,   327.573E-06
C:/temp/dataset/8/13_20.odb,Step-1,Increment      1: Step Time =    1.000,"PART-1-1",           413,          -15.,         18.75,            0.,NA,NA,"",   100.627E-03,  -37.7251E-03,   93.2883E-03,   113.310E-06
C:/temp/dataset/8/13_20.odb,Step-1,Increment      1: Step Time =    1.000,"PART-1-1",           414,      -7.55517,       18.6200,            0.,NA,NA,"",   103.483E-03,  -36.3176E-03,   96.9008E-03,   1.37512E-03
C:/temp/dataset/8/13_20.odb,Step-1,Increment      1: Step Time =    1.000,"PART-1-1",           415,      -6.28340,       17.4693,            0.,NA,NA,"",   104.411E-03,  -37.7285E-03,   97.3560E-03,   650.045E-06
C:/temp/dataset/8/13_20.odb,Step-1,Increment      1: Step Time =    1.000,"PART-1-1",           416,           -5.,         18.75,            0.,NA,NA,"",   102.839E-03,  -35.6486E-03,   96.4627E-03,   1.07022E-03
C:/temp/dataset/8/13_20.odb,Step-1,Increment      1: Step Time =    1.000,"PART-1-1",           417,      -6.27177,       19.9007,            0.,NA,NA,"",   102.688E-03,  -33.4088E-03,   97.1010E-03,   1.83917E-03
C:/temp/dataset/8/13_20.odb,Step-1,Increment      1: Step Time =    1.000,"PART-1-1",           418,            5.,         18.75,            0.,NA,NA,"",   131.194E-03,  -2.45789E-03,   131.171E-03,   1.30351E-03
C:/temp/dataset/8/13_20.odb,Step-1,Increment      1: Step Time =    1.000,"PART-1-1",           419,       6.32405,       17.6046,            0.,NA,NA,"",   138.892E-03,   4.51826E-03,   138.819E-03,   1.26090E-03
C:/temp/dataset/8/13_20.odb,Step-1,Increment      1: Step Time =    1.000,"PART-1-1",           420,       6.24114,       20.1776,            0.,NA,NA,"",   136.569E-03,  -10.5091E-03,   136.164E-03,   1.62202E-03
C:/temp/dataset/8/13_20.odb,Step-1,Increment      1: Step Time =    1.000,"PART-1-1",           421,       5.95216,       22.8319,            0.,NA,NA,"",   134.579E-03,  -23.7284E-03,   132.471E-03,   977.821E-06
C:/temp/dataset/8/13_20.odb,Step-1,Increment      1: Step Time =    1.000,"PART-1-1",           422,       6.99338,       24.1522,            0.,NA,NA,"",   139.518E-03,  -28.6661E-03,   136.541E-03,   658.572E-06
C:/temp/dataset/8/13_20.odb,Step-1,Increment      1: Step Time =    1.000,"PART-1-1",           423,       5.83989,       25.3294,            0.,NA,NA,"",   135.398E-03,  -33.9354E-03,   131.076E-03,   483.728E-06
C:/temp/dataset/8/13_20.odb,Step-1,Increment      1: Step Time =    1.000,"PART-1-1",           424,       4.79866,       24.0091,            0.,NA,NA,"",   130.282E-03,  -29.3016E-03,   126.945E-03,   685.566E-06
C:/temp/dataset/8/13_20.odb,Step-1,Increment      1: Step Time =    1.000,"PART-1-1",           425,         -6.25,          -30.,            0.,NA,NA,"",            0.,  -280.319E-42,   3.00272E-39,   1.56941E-03
C:/temp/dataset/8/13_20.odb,Step-1,Increment      1: Step Time =    1.000,"PART-1-1",           426,      -4.93028,      -28.8663,            0.,NA,NA,"",   1.09907E-03,  -230.445E-06,   1.07464E-03,   1.22315E-03
C:/temp/dataset/8/13_20.odb,Step-1,Increment      1: Step Time =    1.000,"PART-1-1",           427,      -6.04679,      -27.7538,            0.,NA,NA,"",   2.79676E-03,   167.640E-06,   2.79173E-03,   1.59338E-03
C:/temp/dataset/8/13_20.odb,Step-1,Increment      1: Step Time =    1.000,"PART-1-1",           428,      -7.36652,      -28.8875,            0.,NA,NA,"",   1.68057E-03,   1.61506E-06,   1.68057E-03,   1.92810E-03
C:/temp/dataset/8/13_20.odb,Step-1,Increment      1: Step Time =    1.000,"PART-1-1",           429,       8.56540,       1.05942,            0.,NA,NA,"",   160.134E-03,   21.1704E-03,   158.729E-03,   4.22237E-03
C:/temp/dataset/8/13_20.odb,Step-1,Increment      1: Step Time =    1.000,"PART-1-1",           430,       8.80633,       2.55373,            0.,NA,NA,"",   158.987E-03,   25.3136E-03,   156.959E-03,   2.63476E-03
C:/temp/dataset/8/13_20.odb,Step-1,Increment      1: Step Time =    1.000,"PART-1-1",           431,       6.83858,       2.89251,            0.,NA,NA,"",   173.563E-03,   23.2500E-03,   171.999E-03,   6.06516E-03
C:/temp/dataset/8/13_20.odb,Step-1,Increment      1: Step Time =    1.000,"PART-1-1",           432,       6.59765,       1.39821,            0.,NA,NA,"",   179.113E-03,   20.8517E-03,   177.895E-03,   6.55333E-03
C:/temp/dataset/8/13_20.odb,Step-1,Increment      1: Step Time =    1.000,"PART-1-1",           433,       5.99067,      -9.88568,            0.,NA,NA,"",   124.366E-03,  -29.9883E-03,   120.696E-03,   10.5012E-03
C:/temp/dataset/8/13_20.odb,Step-1,Increment      1: Step Time =    1.000,"PART-1-1",           434,            5.,        -11.25,            0.,NA,NA,"",   113.741E-03,  -27.6683E-03,   110.325E-03,   10.7409E-03
C:/temp/dataset/8/13_20.odb,Step-1,Increment      1: Step Time =    1.000,"PART-1-1",           435,       6.38802,      -12.3580,            0.,NA,NA,"",   104.383E-03,  -34.4265E-03,   98.5424E-03,   9.21356E-03
C:/temp/dataset/8/13_20.odb,Step-1,Increment      1: Step Time =    1.000,"PART-1-1",           436,       7.37869,      -10.9937,            0.,NA,NA,"",   113.847E-03,  -37.4631E-03,   107.506E-03,   8.78610E-03
C:/temp/dataset/8/13_20.odb,Step-1,Increment      1: Step Time =    1.000,"PART-1-1",           437,       13.7989,      -7.70794,            0.,NA,NA,"",   105.430E-03,  -41.3405E-03,   96.9868E-03,   2.77375E-03
C:/temp/dataset/8/13_20.odb,Step-1,Increment      1: Step Time =    1.000,"PART-1-1",           438,       13.8976,      -10.2092,            0.,NA,NA,"",   103.689E-03,  -50.9085E-03,   90.3309E-03,   2.79165E-03
C:/temp/dataset/8/13_20.odb,Step-1,Increment      1: Step Time =    1.000,"PART-1-1",           439,           15.,      -8.79375,            0.,NA,NA,"",   101.339E-03,  -47.4270E-03,   89.5564E-03,   1.85593E-03
C:/temp/dataset/8/13_20.odb,Step-1,Increment      1: Step Time =    1.000,"PART-1-1",           440,       13.6474,      -17.7374,            0.,NA,NA,"",   80.6853E-03,  -46.7447E-03,   65.7651E-03,   4.62912E-03
C:/temp/dataset/8/13_20.odb,Step-1,Increment      1: Step Time =    1.000,"PART-1-1",           441,           15.,      -16.3312,            0.,NA,NA,"",   90.2879E-03,  -52.6309E-03,   73.3614E-03,   3.51269E-03
C:/temp/dataset/8/13_20.odb,Step-1,Increment      1: Step Time =    1.000,"PART-1-1",           442,       12.6422,      -19.1389,            0.,NA,NA,"",   70.3875E-03,  -40.0743E-03,   57.8659E-03,   5.43702E-03
C:/temp/dataset/8/13_20.odb,Step-1,Increment      1: Step Time =    1.000,"PART-1-1",           443,       13.9948,      -20.2453,            0.,NA,NA,"",   68.0421E-03,  -39.3423E-03,   55.5150E-03,   5.23465E-03
C:/temp/dataset/8/13_20.odb,Step-1,Increment      1: Step Time =    1.000,"PART-1-1",           444,           15.,      -18.8438,            0.,NA,NA,"",   79.2809E-03,  -46.1921E-03,   64.4340E-03,   4.46173E-03
C:/temp/dataset/8/13_20.odb,Step-1,Increment      1: Step Time =    1.000,"PART-1-1",           445,      -5.97701,      -22.8169,            0.,NA,NA,"",   12.9613E-03,   5.88452E-03,   11.5485E-03,   2.98870E-03
C:/temp/dataset/8/13_20.odb,Step-1,Increment      1: Step Time =    1.000,"PART-1-1",           446,      -7.08093,      -24.1906,            0.,NA,NA,"",   11.9105E-03,   4.99416E-03,   10.8129E-03,   2.89047E-03
C:/temp/dataset/8/13_20.odb,Step-1,Increment      1: Step Time =    1.000,"PART-1-1",           447,      -5.92665,      -25.3891,            0.,NA,NA,"",   6.54449E-03,   2.01442E-03,   6.22675E-03,   1.87916E-03
C:/temp/dataset/8/13_20.odb,Step-1,Increment      1: Step Time =    1.000,"PART-1-1",           448,      -4.82272,      -24.0154,            0.,NA,NA,"",   6.87151E-03,   2.60908E-03,   6.35691E-03,   1.75458E-03
C:/temp/dataset/8/13_20.odb,Step-1,Increment      1: Step Time =    1.000,"PART-1-1",           449,      -9.79394,      -28.8556,            0.,NA,NA,"",   2.56987E-03,   774.842E-06,   2.45027E-03,   2.68293E-03
C:/temp/dataset/8/13_20.odb,Step-1,Increment      1: Step Time =    1.000,"PART-1-1",           450,      -10.8857,      -27.4291,            0.,NA,NA,"",   7.72004E-03,   3.78719E-03,   6.72728E-03,   3.54470E-03
C:/temp/dataset/8/13_20.odb,Step-1,Increment      1: Step Time =    1.000,"PART-1-1",           451,      -12.3417,      -28.5735,            0.,NA,NA,"",   4.94804E-03,   2.72595E-03,   4.12944E-03,   3.73983E-03
C:/temp/dataset/8/13_20.odb,Step-1,Increment      1: Step Time =    1.000,"PART-1-1",           452,        -11.25,          -30.,            0.,NA,NA,"",            0.,   555.340E-42,   5.75915E-39,   2.97870E-03
C:/temp/dataset/8/13_20.odb,Step-1,Increment      1: Step Time =    1.000,"PART-1-1",           453,      -13.5416,       7.35537,            0.,NA,NA,"",   86.7675E-03,  -33.9657E-03,   79.8432E-03,   2.48252E-03
C:/temp/dataset/8/13_20.odb,Step-1,Increment      1: Step Time =    1.000,"PART-1-1",           454,          -15.,          6.25,            0.,NA,NA,"",   76.9859E-03,  -28.1652E-03,   71.6488E-03,   3.34926E-03
C:/temp/dataset/8/13_20.odb,Step-1,Increment      1: Step Time =    1.000,"PART-1-1",           455,      -13.9209,       4.81128,            0.,NA,NA,"",   76.0596E-03,  -23.2354E-03,   72.4236E-03,   2.77127E-03
C:/temp/dataset/8/13_20.odb,Step-1,Increment      1: Step Time =    1.000,"PART-1-1",           456,      -12.4625,       5.91665,            0.,NA,NA,"",   86.6125E-03,  -29.9951E-03,   81.2529E-03,   1.92980E-03
C:/temp/dataset/8/13_20.odb,Step-1,Increment      1: Step Time =    1.000,"PART-1-1",           457,      -14.0708,       2.40501,            0.,NA,NA,"",   66.6903E-03,  -9.05815E-03,   66.0723E-03,   2.49736E-03
C:/temp/dataset/8/13_20.odb,Step-1,Increment      1: Step Time =    1.000,"PART-1-1",           458,          -15.,          1.25,            0.,NA,NA,"",   57.7972E-03,  -299.353E-06,   57.7965E-03,   2.30245E-03
C:/temp/dataset/8/13_20.odb,Step-1,Increment      1: Step Time =    1.000,"PART-1-1",           459,      -13.9250,  -19.9917E-03,            0.,NA,NA,"",   62.9401E-03,   7.64375E-03,   62.4742E-03,   1.86706E-03
C:/temp/dataset/8/13_20.odb,Step-1,Increment      1: Step Time =    1.000,"PART-1-1",           460,      -12.9958,       1.13502,            0.,NA,NA,"",   69.7927E-03,  -1.46430E-03,   69.7773E-03,   2.17350E-03
C:/temp/dataset/8/13_20.odb,Step-1,Increment      1: Step Time =    1.000,"PART-1-1",           461,      -13.6379,      -2.69968,            0.,NA,NA,"",   66.3939E-03,   26.3709E-03,   60.9321E-03,   1.24911E-03
C:/temp/dataset/8/13_20.odb,Step-1,Increment      1: Step Time =    1.000,"PART-1-1",           462,          -15.,         -3.75,            0.,NA,NA,"",   62.4040E-03,   33.2456E-03,   52.8109E-03,   107.657E-06
C:/temp/dataset/8/13_20.odb,Step-1,Increment      1: Step Time =    1.000,"PART-1-1",           463,      -14.1619,      -5.01388,            0.,NA,NA,"",   69.6929E-03,   40.0642E-03,   57.0259E-03,   345.677E-06
C:/temp/dataset/8/13_20.odb,Step-1,Increment      1: Step Time =    1.000,"PART-1-1",           464,      -12.7999,      -3.96356,            0.,NA,NA,"",   72.4115E-03,   33.9868E-03,   63.9400E-03,   1.46941E-03
C:/temp/dataset/8/13_20.odb,Step-1,Increment      1: Step Time =    1.000,"PART-1-1",           465,          -15.,         -8.75,            0.,NA,NA,"",   75.5265E-03,   51.7453E-03,   55.0153E-03,   327.174E-06
C:/temp/dataset/8/13_20.odb,Step-1,Increment      1: Step Time =    1.000,"PART-1-1",           466,      -13.7347,      -9.99741,            0.,NA,NA,"",   77.0674E-03,   52.6420E-03,   56.2868E-03,   1.02045E-03
C:/temp/dataset/8/13_20.odb,Step-1,Increment      1: Step Time =    1.000,"PART-1-1",           467,      -12.3830,      -8.57467,            0.,NA,NA,"",   78.8884E-03,   50.8712E-03,   60.2951E-03,   1.76136E-03
C:/temp/dataset/8/13_20.odb,Step-1,Increment      1: Step Time =    1.000,"PART-1-1",           468,      -13.6483,      -7.32726,            0.,NA,NA,"",   75.9324E-03,   48.8073E-03,   58.1685E-03,   509.792E-06
C:/temp/dataset/8/13_20.odb,Step-1,Increment      1: Step Time =    1.000,"PART-1-1",           469,      -11.2230,      -10.0773,            0.,NA,NA,"",   78.5640E-03,   50.8464E-03,   59.8912E-03,   2.91263E-03
C:/temp/dataset/8/13_20.odb,Step-1,Increment      1: Step Time =    1.000,"PART-1-1",           470,      -9.87779,      -9.01965,            0.,NA,NA,"",   81.9982E-03,   49.0613E-03,   65.7015E-03,   3.66977E-03
C:/temp/dataset/8/13_20.odb,Step-1,Increment      1: Step Time =    1.000,"PART-1-1",           471,      -11.0378,      -7.51697,            0.,NA,NA,"",   81.7097E-03,   48.1712E-03,   66.0001E-03,   2.36822E-03
C:/temp/dataset/8/13_20.odb,Step-1,Increment      1: Step Time =    1.000,"PART-1-1",           472,       1.25332,  -40.8297E-03,            0.,NA,NA,"",   219.733E-03,   4.58420E-03,   219.686E-03,   7.20797E-03
C:/temp/dataset/8/13_20.odb,Step-1,Increment      1: Step Time =    1.000,"PART-1-1",           473,  -7.28452E-03,      -1.27665,            0.,NA,NA,"",   216.273E-03,   1.97513E-03,   216.264E-03,   10.1406E-03
C:/temp/dataset/8/13_20.odb,Step-1,Increment      1: Step Time =    1.000,"PART-1-1",           474,       3.65826,       22.6797,            0.,NA,NA,"",   125.104E-03,  -24.9589E-03,   122.589E-03,   872.787E-06
C:/temp/dataset/8/13_20.odb,Step-1,Increment      1: Step Time =    1.000,"PART-1-1",           475,       2.49339,       21.3176,            0.,NA,NA,"",   120.541E-03,  -20.9474E-03,   118.707E-03,   1.48019E-03
C:/temp/dataset/8/13_20.odb,Step-1,Increment      1: Step Time =    1.000,"PART-1-1",           476,          3.75,           20.,            0.,NA,NA,"",   125.218E-03,  -13.6527E-03,   124.471E-03,   2.15818E-03
C:/temp/dataset/8/13_20.odb,Step-1,Increment      1: Step Time =    1.000,"PART-1-1",           477,       4.91487,       21.3621,            0.,NA,NA,"",   129.845E-03,  -18.3540E-03,   128.541E-03,   1.33981E-03
C:/temp/dataset/8/13_20.odb,Step-1,Increment      1: Step Time =    1.000,"PART-1-1",           478,       12.6680,       11.1714,            0.,NA,NA,"",   156.273E-03,   30.2806E-03,   153.312E-03,   1.95116E-03
C:/temp/dataset/8/13_20.odb,Step-1,Increment      1: Step Time =    1.000,"PART-1-1",           479,       14.0273,       9.92409,            0.,NA,NA,"",   154.962E-03,   31.0685E-03,   151.815E-03,   2.89220E-03
C:/temp/dataset/8/13_20.odb,Step-1,Increment      1: Step Time =    1.000,"PART-1-1",           480,           15.,       11.1563,            0.,NA,NA,"",   158.912E-03,   27.7045E-03,   156.478E-03,   3.22340E-03
C:/temp/dataset/8/13_20.odb,Step-1,Increment      1: Step Time =    1.000,"PART-1-1",           481,       14.0536,       7.56100,            0.,NA,NA,"",   148.748E-03,   32.0180E-03,   145.261E-03,   3.32138E-03
C:/temp/dataset/8/13_20.odb,Step-1,Increment      1: Step Time =    1.000,"PART-1-1",           482,       12.9489,       6.56322,            0.,NA,NA,"",   147.790E-03,   32.7019E-03,   144.126E-03,   2.65131E-03
C:/temp/dataset/8/13_20.odb,Step-1,Increment      1: Step Time =    1.000,"PART-1-1",           483,       13.8953,       5.18972,            0.,NA,NA,"",   141.315E-03,   29.0956E-03,   138.287E-03,   3.50513E-03
C:/temp/dataset/8/13_20.odb,Step-1,Increment      1: Step Time =    1.000,"PART-1-1",           484,           15.,        6.1875,            0.,NA,NA,"",   142.490E-03,   29.0456E-03,   139.498E-03,   4.21579E-03
C:/temp/dataset/8/13_20.odb,Step-1,Increment      1: Step Time =    1.000,"PART-1-1",           485,       6.19023,       9.87877,            0.,NA,NA,"",   156.064E-03,   31.9532E-03,   152.758E-03,   3.12584E-03
C:/temp/dataset/8/13_20.odb,Step-1,Increment      1: Step Time =    1.000,"PART-1-1",           486,            5.,          8.75,            0.,NA,NA,"",   159.061E-03,   31.0872E-03,   155.993E-03,   4.64419E-03
C:/temp/dataset/8/13_20.odb,Step-1,Increment      1: Step Time =    1.000,"PART-1-1",           487,       6.03335,       7.50406,            0.,NA,NA,"",   164.159E-03,   33.5936E-03,   160.685E-03,   3.94053E-03
C:/temp/dataset/8/13_20.odb,Step-1,Increment      1: Step Time =    1.000,"PART-1-1",           488,   27.3265E-03,       3.74387,            0.,NA,NA,"",   197.133E-03,  -9.06776E-03,   196.924E-03,   6.69905E-03
C:/temp/dataset/8/13_20.odb,Step-1,Increment      1: Step Time =    1.000,"PART-1-1",           489,         -1.25,            5.,            0.,NA,NA,"",   183.210E-03,  -25.4234E-03,   181.438E-03,   6.60793E-03
C:/temp/dataset/8/13_20.odb,Step-1,Increment      1: Step Time =    1.000,"PART-1-1",           490,      -2.45237,       3.76475,            0.,NA,NA,"",   170.023E-03,  -18.8553E-03,   168.974E-03,   4.83077E-03
C:/temp/dataset/8/13_20.odb,Step-1,Increment      1: Step Time =    1.000,"PART-1-1",           491,      -3.55115,       2.55808,            0.,NA,NA,"",   154.791E-03,  -13.6158E-03,   154.191E-03,   6.99354E-03
C:/temp/dataset/8/13_20.odb,Step-1,Increment      1: Step Time =    1.000,"PART-1-1",           492,         -3.75,            5.,            0.,NA,NA,"",   152.539E-03,  -34.0689E-03,   148.686E-03,   3.02650E-03
C:/temp/dataset/8/13_20.odb,Step-1,Increment      1: Step Time =    1.000,"PART-1-1",           493,      -4.84878,       3.79333,            0.,NA,NA,"",   134.014E-03,  -22.7091E-03,   132.076E-03,   5.70698E-03
C:/temp/dataset/8/13_20.odb,Step-1,Increment      1: Step Time =    1.000,"PART-1-1",           494,      -13.7266,       27.6069,            0.,NA,NA,"",   100.003E-03,  -39.6061E-03,   91.8253E-03,   150.320E-06
C:/temp/dataset/8/13_20.odb,Step-1,Increment      1: Step Time =    1.000,"PART-1-1",           495,          -15.,         26.25,            0.,NA,NA,"",   99.1512E-03,  -38.7384E-03,   91.2704E-03,   191.883E-06
C:/temp/dataset/8/13_20.odb,Step-1,Increment      1: Step Time =    1.000,"PART-1-1",           496,      -13.4390,       25.0675,            0.,NA,NA,"",   99.7093E-03,  -37.8358E-03,   92.2518E-03,   262.231E-06
C:/temp/dataset/8/13_20.odb,Step-1,Increment      1: Step Time =    1.000,"PART-1-1",           497,      -12.1656,       26.4243,            0.,NA,NA,"",   100.318E-03,  -38.6924E-03,   92.5558E-03,   272.860E-06
C:/temp/dataset/8/13_20.odb,Step-1,Increment      1: Step Time =    1.000,"PART-1-1",           498,      -3.53423,       23.8764,            0.,NA,NA,"",   105.366E-03,  -33.9347E-03,   99.7521E-03,   697.203E-06
C:/temp/dataset/8/13_20.odb,Step-1,Increment      1: Step Time =    1.000,"PART-1-1",           499,      -4.97219,       24.1974,            0.,NA,NA,"",   103.451E-03,  -35.0333E-03,   97.3387E-03,   444.181E-06
C:/temp/dataset/8/13_20.odb,Step-1,Increment      1: Step Time =    1.000,"PART-1-1",           500,      -5.34958,       22.7893,            0.,NA,NA,"",   102.489E-03,  -33.3346E-03,   96.9164E-03,   699.098E-06
C:/temp/dataset/8/13_20.odb,Step-1,Increment      1: Step Time =    1.000,"PART-1-1",           501,      -3.91162,       22.4683,            0.,NA,NA,"",   104.140E-03,  -31.9635E-03,   99.1137E-03,   906.629E-06
C:/temp/dataset/8/13_20.odb,Step-1,Increment      1: Step Time =    1.000,"PART-1-1",           502,      -12.4008,       21.2127,            0.,NA,NA,"",   100.211E-03,  -36.6298E-03,   93.2770E-03,   388.296E-06
C:/temp/dataset/8/13_20.odb,Step-1,Increment      1: Step Time =    1.000,"PART-1-1",           503,      -13.6537,       22.4802,            0.,NA,NA,"",   99.7492E-03,  -36.8084E-03,   92.7094E-03,   291.870E-06
C:/temp/dataset/8/13_20.odb,Step-1,Increment      1: Step Time =    1.000,"PART-1-1",           504,          -15.,         21.25,            0.,NA,NA,"",   99.9673E-03,  -36.9638E-03,   92.8823E-03,   290.093E-06
C:/temp/dataset/8/13_20.odb,Step-1,Increment      1: Step Time =    1.000,"PART-1-1",           505,      -8.82885,       17.4394,            0.,NA,NA,"",   103.610E-03,  -38.4370E-03,   96.2168E-03,   1.35125E-03
C:/temp/dataset/8/13_20.odb,Step-1,Increment      1: Step Time =    1.000,"PART-1-1",           506,      -8.77308,       19.8173,            0.,NA,NA,"",   102.131E-03,  -35.8718E-03,   95.6238E-03,   1.20732E-03
C:/temp/dataset/8/13_20.odb,Step-1,Increment      1: Step Time =    1.000,"PART-1-1",           507,      -10.0468,       18.6367,            0.,NA,NA,"",   102.105E-03,  -37.4602E-03,   94.9846E-03,   1.17408E-03
C:/temp/dataset/8/13_20.odb,Step-1,Increment      1: Step Time =    1.000,"PART-1-1",           508,   22.7198E-03,       21.3114,            0.,NA,NA,"",   113.124E-03,  -24.4202E-03,   110.457E-03,   1.59916E-03
C:/temp/dataset/8/13_20.odb,Step-1,Increment      1: Step Time =    1.000,"PART-1-1",           509,          1.25,           20.,            0.,NA,NA,"",   116.908E-03,  -18.3872E-03,   115.453E-03,   1.94066E-03
C:/temp/dataset/8/13_20.odb,Step-1,Increment      1: Step Time =    1.000,"PART-1-1",           510,       14.0304,       22.4987,            0.,NA,NA,"",   168.539E-03,  -18.9378E-03,   167.471E-03,   207.442E-06
C:/temp/dataset/8/13_20.odb,Step-1,Increment      1: Step Time =    1.000,"PART-1-1",           511,       12.8970,       21.3651,            0.,NA,NA,"",   162.845E-03,  -13.2763E-03,   162.302E-03,   561.314E-06
C:/temp/dataset/8/13_20.odb,Step-1,Increment      1: Step Time =    1.000,"PART-1-1",           512,       13.8666,       20.0727,            0.,NA,NA,"",   166.276E-03,  -6.89284E-03,   166.133E-03,   580.828E-06
C:/temp/dataset/8/13_20.odb,Step-1,Increment      1: Step Time =    1.000,"PART-1-1",           513,           15.,       21.2062,            0.,NA,NA,"",   172.274E-03,  -12.7181E-03,   171.804E-03,   347.649E-06
C:/temp/dataset/8/13_20.odb,Step-1,Increment      1: Step Time =    1.000,"PART-1-1",           514,       8.59704,       27.3306,            0.,NA,NA,"",   148.887E-03,  -41.5944E-03,   142.959E-03,   166.061E-06
C:/temp/dataset/8/13_20.odb,Step-1,Increment      1: Step Time =    1.000,"PART-1-1",           515,       9.95970,       28.5191,            0.,NA,NA,"",   156.187E-03,  -46.7296E-03,   149.032E-03,   61.4483E-06
C:/temp/dataset/8/13_20.odb,Step-1,Increment      1: Step Time =    1.000,"PART-1-1",           516,          8.75,           30.,            0.,NA,NA,"",   153.173E-03,  -53.1385E-03,   143.661E-03,   177.961E-06
C:/temp/dataset/8/13_20.odb,Step-1,Increment      1: Step Time =    1.000,"PART-1-1",           517,       7.38734,       28.8115,            0.,NA,NA,"",   145.633E-03,  -47.7986E-03,   137.566E-03,   166.696E-06
C:/temp/dataset/8/13_20.odb,Step-1,Increment      1: Step Time =    1.000,"PART-1-1",           518,       7.27843,       21.6473,            0.,NA,NA,"",   140.330E-03,  -17.0350E-03,   139.292E-03,   1.26926E-03
C:/temp/dataset/8/13_20.odb,Step-1,Increment      1: Step Time =    1.000,"PART-1-1",           519,   2.36529E-03,       28.7726,            0.,NA,NA,"",   118.097E-03,  -45.3222E-03,   109.055E-03,   564.035E-06
C:/temp/dataset/8/13_20.odb,Step-1,Increment      1: Step Time =    1.000,"PART-1-1",           520,       1.23392,       27.5966,            0.,NA,NA,"",   120.461E-03,  -42.2466E-03,   112.810E-03,   300.446E-06
C:/temp/dataset/8/13_20.odb,Step-1,Increment      1: Step Time =    1.000,"PART-1-1",           521,          1.25,           30.,            0.,NA,NA,"",   123.903E-03,  -49.8989E-03,   113.411E-03,   805.177E-06
C:/temp/dataset/8/13_20.odb,Step-1,Increment      1: Step Time =    1.000,"PART-1-1",           522,      -5.24302,       28.8844,            0.,NA,NA,"",   106.442E-03,  -42.7075E-03,   97.4987E-03,   620.894E-06
C:/temp/dataset/8/13_20.odb,Step-1,Increment      1: Step Time =    1.000,"PART-1-1",           523,      -2.65236,       28.5441,            0.,NA,NA,"",   110.881E-03,  -43.4189E-03,   102.026E-03,   571.977E-06
C:/temp/dataset/8/13_20.odb,Step-1,Increment      1: Step Time =    1.000,"PART-1-1",           524,         -3.75,           30.,            0.,NA,NA,"",   110.202E-03,  -45.6458E-03,   100.304E-03,   944.173E-06
C:/temp/dataset/8/13_20.odb,Step-1,Increment      1: Step Time =    1.000,"PART-1-1",           525,      -7.66876,       29.0336,            0.,NA,NA,"",   103.708E-03,  -41.7379E-03,   94.9382E-03,   497.319E-06
C:/temp/dataset/8/13_20.odb,Step-1,Increment      1: Step Time =    1.000,"PART-1-1",           526,      -6.66179,       27.9180,            0.,NA,NA,"",   103.933E-03,  -40.7237E-03,   95.6222E-03,   396.932E-06
C:/temp/dataset/8/13_20.odb,Step-1,Increment      1: Step Time =    1.000,"PART-1-1",           527,         -6.25,           30.,            0.,NA,NA,"",   105.970E-03,  -43.6005E-03,   96.5843E-03,   787.102E-06
C:/temp/dataset/8/13_20.odb,Step-1,Increment      1: Step Time =    1.000,"PART-1-1",           528,      -8.85404,       25.1616,            0.,NA,NA,"",   101.097E-03,  -37.2851E-03,   93.9702E-03,   374.905E-06
C:/temp/dataset/8/13_20.odb,Step-1,Increment      1: Step Time =    1.000,"PART-1-1",           529,      -8.24061,       24.0412,            0.,NA,NA,"",   101.082E-03,  -36.0438E-03,   94.4378E-03,   483.892E-06
C:/temp/dataset/8/13_20.odb,Step-1,Increment      1: Step Time =    1.000,"PART-1-1",           530,      -6.78352,       24.7872,            0.,NA,NA,"",   102.051E-03,  -36.4249E-03,   95.3288E-03,   403.351E-06
C:/temp/dataset/8/13_20.odb,Step-1,Increment      1: Step Time =    1.000,"PART-1-1",           531,      -7.39696,       25.9076,            0.,NA,NA,"",   102.135E-03,  -37.9473E-03,   94.8242E-03,   360.900E-06
C:/temp/dataset/8/13_20.odb,Step-1,Increment      1: Step Time =    1.000,"PART-1-1",           532,      -12.4766,       28.8569,            0.,NA,NA,"",   100.864E-03,  -40.4917E-03,   92.3797E-03,   146.207E-06
C:/temp/dataset/8/13_20.odb,Step-1,Increment      1: Step Time =    1.000,"PART-1-1",           533,        -13.75,           30.,            0.,NA,NA,"",   100.552E-03,  -41.1090E-03,   91.7652E-03,   31.9377E-06
C:/temp/dataset/8/13_20.odb,Step-1,Increment      1: Step Time =    1.000,"PART-1-1",           534,          -15.,         28.75,            0.,NA,NA,"",   99.6077E-03,  -40.3729E-03,   91.0589E-03,   31.8550E-06
C:/temp/dataset/8/13_20.odb,Step-1,Increment      1: Step Time =    1.000,"PART-1-1",           535,      -7.56181,       16.2193,            0.,NA,NA,"",   105.065E-03,  -39.6164E-03,   97.3097E-03,   1.20158E-03
C:/temp/dataset/8/13_20.odb,Step-1,Increment      1: Step Time =    1.000,"PART-1-1",           536,      -6.27841,       15.0000,            0.,NA,NA,"",   106.282E-03,  -40.4848E-03,   98.2696E-03,   909.951E-06
C:/temp/dataset/8/13_20.odb,Step-1,Increment      1: Step Time =    1.000,"PART-1-1",           537,           -5.,         16.25,            0.,NA,NA,"",   104.458E-03,  -39.0421E-03,   96.8875E-03,   690.676E-06
C:/temp/dataset/8/13_20.odb,Step-1,Increment      1: Step Time =    1.000,"PART-1-1",           538,      -8.82455,       15.0032,            0.,NA,NA,"",   104.859E-03,  -41.0197E-03,   96.5032E-03,   1.26078E-03
C:/temp/dataset/8/13_20.odb,Step-1,Increment      1: Step Time =    1.000,"PART-1-1",           539,      -10.0916,       16.2233,            0.,NA,NA,"",   103.127E-03,  -39.9523E-03,   95.0736E-03,   1.38764E-03
C:/temp/dataset/8/13_20.odb,Step-1,Increment      1: Step Time =    1.000,"PART-1-1",           540,      -13.7530,       10.0200,            0.,NA,NA,"",   93.3341E-03,  -39.3619E-03,   84.6280E-03,   2.15186E-03
C:/temp/dataset/8/13_20.odb,Step-1,Increment      1: Step Time =    1.000,"PART-1-1",           541,      -12.5412,       11.2886,            0.,NA,NA,"",   98.1314E-03,  -41.3911E-03,   88.9750E-03,   1.60792E-03
C:/temp/dataset/8/13_20.odb,Step-1,Increment      1: Step Time =    1.000,"PART-1-1",           542,          -15.,         11.25,            0.,NA,NA,"",   93.9451E-03,  -39.3310E-03,   85.3156E-03,   2.38060E-03
C:/temp/dataset/8/13_20.odb,Step-1,Increment      1: Step Time =    1.000,"PART-1-1",           543,      -7.55812,       13.7752,            0.,NA,NA,"",   106.763E-03,  -41.6408E-03,   98.3073E-03,   1.21250E-03
C:/temp/dataset/8/13_20.odb,Step-1,Increment      1: Step Time =    1.000,"PART-1-1",           544,      -6.27971,       12.5252,            0.,NA,NA,"",   108.806E-03,  -41.4785E-03,   100.589E-03,   1.41128E-03
C:/temp/dataset/8/13_20.odb,Step-1,Increment      1: Step Time =    1.000,"PART-1-1",           545,           -5.,         13.75,            0.,NA,NA,"",   107.348E-03,  -40.4627E-03,   99.4306E-03,   1.45143E-03
C:/temp/dataset/8/13_20.odb,Step-1,Increment      1: Step Time =    1.000,"PART-1-1",           546,      -7.73665,       8.67409,            0.,NA,NA,"",   109.912E-03,  -40.2468E-03,   102.278E-03,   1.96015E-03
C:/temp/dataset/8/13_20.odb,Step-1,Increment      1: Step Time =    1.000,"PART-1-1",           547,      -6.44095,       7.39158,            0.,NA,NA,"",   115.598E-03,  -37.9613E-03,   109.187E-03,   2.59892E-03
C:/temp/dataset/8/13_20.odb,Step-1,Increment      1: Step Time =    1.000,"PART-1-1",           548,           -5.,          8.75,            0.,NA,NA,"",   115.125E-03,  -37.7009E-03,   108.777E-03,   3.15453E-03
C:/temp/dataset/8/13_20.odb,Step-1,Increment      1: Step Time =    1.000,"PART-1-1",           549,      -6.29569,       10.0325,            0.,NA,NA,"",   111.653E-03,  -40.5032E-03,   104.047E-03,   1.98258E-03
C:/temp/dataset/8/13_20.odb,Step-1,Increment      1: Step Time =    1.000,"PART-1-1",           550,      -10.9758,       6.36562,            0.,NA,NA,"",   94.4076E-03,  -33.2361E-03,   88.3638E-03,   1.56781E-03
C:/temp/dataset/8/13_20.odb,Step-1,Increment      1: Step Time =    1.000,"PART-1-1",           551,      -11.8413,       4.12979,            0.,NA,NA,"",   84.0117E-03,  -21.9839E-03,   81.0844E-03,   1.93604E-03
C:/temp/dataset/8/13_20.odb,Step-1,Increment      1: Step Time =    1.000,"PART-1-1",           552,      -10.3546,       4.57877,            0.,NA,NA,"",   92.9249E-03,  -25.9793E-03,   89.2195E-03,   1.42004E-03
C:/temp/dataset/8/13_20.odb,Step-1,Increment      1: Step Time =    1.000,"PART-1-1",           553,      -7.08205,   206.599E-03,            0.,NA,NA,"",   108.334E-03,  -840.042E-06,   108.331E-03,   2.83084E-03
C:/temp/dataset/8/13_20.odb,Step-1,Increment      1: Step Time =    1.000,"PART-1-1",           554,      -6.69954,      -1.33924,            0.,NA,NA,"",   109.431E-03,   9.27231E-03,   109.038E-03,   4.18503E-03
C:/temp/dataset/8/13_20.odb,Step-1,Increment      1: Step Time =    1.000,"PART-1-1",           555,      -5.21800,      -1.06475,            0.,NA,NA,"",   128.426E-03,   4.54966E-03,   128.346E-03,   5.98745E-03
C:/temp/dataset/8/13_20.odb,Step-1,Increment      1: Step Time =    1.000,"PART-1-1",           556,      -5.60050,   481.094E-03,            0.,NA,NA,"",   125.890E-03,  -4.01767E-03,   125.826E-03,   4.82204E-03
C:/temp/dataset/8/13_20.odb,Step-1,Increment      1: Step Time =    1.000,"PART-1-1",           557,      -4.73446,       1.39984,            0.,NA,NA,"",   138.338E-03,  -9.24834E-03,   138.028E-03,   6.18050E-03
C:/temp/dataset/8/13_20.odb,Step-1,Increment      1: Step Time =    1.000,"PART-1-1",           558,      -3.61900,   109.065E-03,            0.,NA,NA,"",   154.989E-03,  -3.85894E-03,   154.941E-03,   7.96974E-03
C:/temp/dataset/8/13_20.odb,Step-1,Increment      1: Step Time =    1.000,"PART-1-1",           559,      -7.98156,      -4.65830,            0.,NA,NA,"",   94.4570E-03,   36.1636E-03,   87.2600E-03,   3.64117E-03
C:/temp/dataset/8/13_20.odb,Step-1,Increment      1: Step Time =    1.000,"PART-1-1",           560,      -6.28336,      -5.33649,            0.,NA,NA,"",   104.798E-03,   40.1138E-03,   96.8168E-03,   7.47896E-03
C:/temp/dataset/8/13_20.odb,Step-1,Increment      1: Step Time =    1.000,"PART-1-1",           561,      -5.33231,      -3.67126,            0.,NA,NA,"",   118.134E-03,   24.7072E-03,   115.522E-03,   7.62204E-03
C:/temp/dataset/8/13_20.odb,Step-1,Increment      1: Step Time =    1.000,"PART-1-1",           562,      -7.03052,      -2.99307,            0.,NA,NA,"",   102.610E-03,   22.9574E-03,   100.009E-03,   4.51496E-03
C:/temp/dataset/8/13_20.odb,Step-1,Increment      1: Step Time =    1.000,"PART-1-1",           563,      -9.50974,      -4.32763,            0.,NA,NA,"",   86.2694E-03,   34.6023E-03,   79.0259E-03,   2.59104E-03
C:/temp/dataset/8/13_20.odb,Step-1,Increment      1: Step Time =    1.000,"PART-1-1",           564,      -9.07232,      -2.62983,            0.,NA,NA,"",   88.4703E-03,   22.7373E-03,   85.4986E-03,   2.90782E-03
C:/temp/dataset/8/13_20.odb,Step-1,Increment      1: Step Time =    1.000,"PART-1-1",           565,      -11.0121,      -2.25769,            0.,NA,NA,"",   78.1791E-03,   21.7277E-03,   75.0991E-03,   2.19440E-03
C:/temp/dataset/8/13_20.odb,Step-1,Increment      1: Step Time =    1.000,"PART-1-1",           566,      -11.4495,      -3.95549,            0.,NA,NA,"",   77.6922E-03,   33.3452E-03,   70.1725E-03,   1.95587E-03
C:/temp/dataset/8/13_20.odb,Step-1,Increment      1: Step Time =    1.000,"PART-1-1",           567,      -12.8102,      -6.09114,            0.,NA,NA,"",   76.2376E-03,   44.5512E-03,   61.8656E-03,   1.15593E-03
C:/temp/dataset/8/13_20.odb,Step-1,Increment      1: Step Time =    1.000,"PART-1-1",           568,          -15.,         -6.25,            0.,NA,NA,"",   70.3236E-03,   45.3195E-03,   53.7732E-03,   519.565E-06
C:/temp/dataset/8/13_20.odb,Step-1,Increment      1: Step Time =    1.000,"PART-1-1",           569,      -12.4910,      -11.2807,            0.,NA,NA,"",   75.8857E-03,   51.4789E-03,   55.7545E-03,   2.27758E-03
C:/temp/dataset/8/13_20.odb,Step-1,Increment      1: Step Time =    1.000,"PART-1-1",           570,      -11.2625,      -12.5870,            0.,NA,NA,"",   72.2314E-03,   48.4565E-03,   53.5662E-03,   3.22227E-03
C:/temp/dataset/8/13_20.odb,Step-1,Increment      1: Step Time =    1.000,"PART-1-1",           571,      -9.99448,      -11.3836,            0.,NA,NA,"",   75.5839E-03,   48.4181E-03,   58.0398E-03,   3.86882E-03
C:/temp/dataset/8/13_20.odb,Step-1,Increment      1: Step Time =    1.000,"PART-1-1",           572,      -13.7563,      -12.5333,            0.,NA,NA,"",   73.9509E-03,   50.9604E-03,   53.5890E-03,   1.60045E-03
C:/temp/dataset/8/13_20.odb,Step-1,Increment      1: Step Time =    1.000,"PART-1-1",           573,          -15.,        -11.25,            0.,NA,NA,"",   76.3991E-03,   52.7626E-03,   55.2534E-03,   328.452E-06
C:/temp/dataset/8/13_20.odb,Step-1,Increment      1: Step Time =    1.000,"PART-1-1",           574,      -8.71470,      -10.1608,            0.,NA,NA,"",   79.7410E-03,   47.2515E-03,   64.2333E-03,   4.74107E-03
C:/temp/dataset/8/13_20.odb,Step-1,Increment      1: Step Time =    1.000,"PART-1-1",           575,      -7.42250,      -8.98868,            0.,NA,NA,"",   84.9770E-03,   44.9912E-03,   72.0894E-03,   5.88282E-03
C:/temp/dataset/8/13_20.odb,Step-1,Increment      1: Step Time =    1.000,"PART-1-1",           576,      -8.58559,      -7.84754,            0.,NA,NA,"",   87.0843E-03,   46.4574E-03,   73.6573E-03,   4.84212E-03
C:/temp/dataset/8/13_20.odb,Step-1,Increment      1: Step Time =    1.000,"PART-1-1",           577,      -7.50843,      -13.8545,            0.,NA,NA,"",   62.8460E-03,   39.2990E-03,   49.0429E-03,   4.98764E-03
C:/temp/dataset/8/13_20.odb,Step-1,Increment      1: Step Time =    1.000,"PART-1-1",           578,      -6.25915,      -15.0553,            0.,NA,NA,"",   53.7663E-03,   33.4719E-03,   42.0767E-03,   5.23156E-03
C:/temp/dataset/8/13_20.odb,Step-1,Increment      1: Step Time =    1.000,"PART-1-1",           579,           -5.,        -13.75,            0.,NA,NA,"",   57.0549E-03,   33.3703E-03,   46.2784E-03,   6.12070E-03
C:/temp/dataset/8/13_20.odb,Step-1,Increment      1: Step Time =    1.000,"PART-1-1",           580,      -6.24927,      -12.5492,            0.,NA,NA,"",   66.9313E-03,   38.9311E-03,   54.4442E-03,   5.82375E-03
C:/temp/dataset/8/13_20.odb,Step-1,Increment      1: Step Time =    1.000,"PART-1-1",           581,      -11.2908,      -17.6967,            0.,NA,NA,"",   52.0173E-03,   34.1350E-03,   39.2506E-03,   3.60756E-03
C:/temp/dataset/8/13_20.odb,Step-1,Increment      1: Step Time =    1.000,"PART-1-1",           582,      -12.6364,      -18.8537,            0.,NA,NA,"",   49.7280E-03,   32.0216E-03,   38.0460E-03,   3.44997E-03
C:/temp/dataset/8/13_20.odb,Step-1,Increment      1: Step Time =    1.000,"PART-1-1",           583,      -11.4151,      -20.3877,            0.,NA,NA,"",   39.5332E-03,   24.5033E-03,   31.0235E-03,   3.81776E-03
C:/temp/dataset/8/13_20.odb,Step-1,Increment      1: Step Time =    1.000,"PART-1-1",           584,      -10.0695,      -19.2307,            0.,NA,NA,"",   41.9701E-03,   26.4300E-03,   32.6029E-03,   3.96567E-03
C:/temp/dataset/8/13_20.odb,Step-1,Increment      1: Step Time =    1.000,"PART-1-1",           585,      -7.51548,      -16.3910,            0.,NA,NA,"",   50.2560E-03,   32.2700E-03,   38.5268E-03,   4.48771E-03
C:/temp/dataset/8/13_20.odb,Step-1,Increment      1: Step Time =    1.000,"PART-1-1",           586,      -6.25633,      -17.5856,            0.,NA,NA,"",   40.1547E-03,   25.7760E-03,   30.7895E-03,   4.57593E-03
C:/temp/dataset/8/13_20.odb,Step-1,Increment      1: Step Time =    1.000,"PART-1-1",           587,           -5.,        -16.25,            0.,NA,NA,"",   43.0786E-03,   27.1223E-03,   33.4686E-03,   5.43843E-03
C:/temp/dataset/8/13_20.odb,Step-1,Increment      1: Step Time =    1.000,"PART-1-1",           588,      -10.0186,      -13.8764,            0.,NA,NA,"",   66.4948E-03,   43.9664E-03,   49.8851E-03,   3.91905E-03
C:/temp/dataset/8/13_20.odb,Step-1,Increment      1: Step Time =    1.000,"PART-1-1",           589,      -8.77159,      -15.1281,            0.,NA,NA,"",   59.1598E-03,   38.5006E-03,   44.9175E-03,   4.30832E-03
C:/temp/dataset/8/13_20.odb,Step-1,Increment      1: Step Time =    1.000,"PART-1-1",           590,      -8.75544,      -12.6029,            0.,NA,NA,"",   70.3649E-03,   44.4618E-03,   54.5378E-03,   4.54582E-03
C:/temp/dataset/8/13_20.odb,Step-1,Increment      1: Step Time =    1.000,"PART-1-1",           591,      -7.46407,      -18.9773,            0.,NA,NA,"",   36.6038E-03,   22.6217E-03,   28.7767E-03,   4.06254E-03
C:/temp/dataset/8/13_20.odb,Step-1,Increment      1: Step Time =    1.000,"PART-1-1",           592,      -8.77449,      -17.7191,            0.,NA,NA,"",   46.5788E-03,   29.9223E-03,   35.6965E-03,   4.08033E-03
C:/temp/dataset/8/13_20.odb,Step-1,Increment      1: Step Time =    1.000,"PART-1-1",           593,      -8.75908,      -20.4889,            0.,NA,NA,"",   32.3824E-03,   19.1338E-03,   26.1250E-03,   4.12148E-03
C:/temp/dataset/8/13_20.odb,Step-1,Increment      1: Step Time =    1.000,"PART-1-1",           594,      -14.0314,      -22.4081,            0.,NA,NA,"",   37.2650E-03,   22.2525E-03,   29.8915E-03,   3.95439E-03
C:/temp/dataset/8/13_20.odb,Step-1,Increment      1: Step Time =    1.000,"PART-1-1",           595,      -12.8952,      -21.1986,            0.,NA,NA,"",   39.5566E-03,   24.2142E-03,   31.2794E-03,   3.73512E-03
C:/temp/dataset/8/13_20.odb,Step-1,Increment      1: Step Time =    1.000,"PART-1-1",           596,      -13.8638,      -20.0405,            0.,NA,NA,"",   47.6743E-03,   29.7341E-03,   37.2655E-03,   3.47470E-03
C:/temp/dataset/8/13_20.odb,Step-1,Increment      1: Step Time =    1.000,"PART-1-1",           597,          -15.,        -21.25,            0.,NA,NA,"",   45.8721E-03,   27.5775E-03,   36.6569E-03,   3.74831E-03
C:/temp/dataset/8/13_20.odb,Step-1,Increment      1: Step Time =    1.000,"PART-1-1",           598,      -11.2673,      -23.1539,            0.,NA,NA,"",   26.1363E-03,   14.9957E-03,   21.4064E-03,   3.88861E-03
C:/temp/dataset/8/13_20.odb,Step-1,Increment      1: Step Time =    1.000,"PART-1-1",           599,      -10.1366,      -23.6180,            0.,NA,NA,"",   21.3219E-03,   11.5626E-03,   17.9145E-03,   3.79992E-03
C:/temp/dataset/8/13_20.odb,Step-1,Increment      1: Step Time =    1.000,"PART-1-1",           600,      -9.65781,      -21.9912,            0.,NA,NA,"",   27.4475E-03,   15.6156E-03,   22.5725E-03,   3.92059E-03
C:/temp/dataset/8/13_20.odb,Step-1,Increment      1: Step Time =    1.000,"PART-1-1",           601,      -10.7884,      -21.5271,            0.,NA,NA,"",   32.4913E-03,   19.3386E-03,   26.1095E-03,   3.95266E-03
C:/temp/dataset/8/13_20.odb,Step-1,Increment      1: Step Time =    1.000,"PART-1-1",           602,          -15.,        -28.75,            0.,NA,NA,"",   9.40974E-03,   6.66302E-03,   6.64435E-03,   5.68214E-03
C:/temp/dataset/8/13_20.odb,Step-1,Increment      1: Step Time =    1.000,"PART-1-1",           603,        -13.75,          -30.,            0.,NA,NA,"",            0.,   529.531E-42,   7.56602E-39,   5.20031E-03
C:/temp/dataset/8/13_20.odb,Step-1,Increment      1: Step Time =    1.000,"PART-1-1",           604,      -2.48436,      -28.8316,            0.,NA,NA,"",   654.923E-06,   112.330E-06,   645.218E-06,   757.366E-06
C:/temp/dataset/8/13_20.odb,Step-1,Increment      1: Step Time =    1.000,"PART-1-1",           605,      -3.66464,      -27.6979,            0.,NA,NA,"",   1.54378E-03,   83.9099E-06,   1.54150E-03,   937.554E-06
C:/temp/dataset/8/13_20.odb,Step-1,Increment      1: Step Time =    1.000,"PART-1-1",           606,         -3.75,          -30.,            0.,NA,NA,"",            0.,  -195.609E-42,   1.96741E-39,   1.02270E-03
C:/temp/dataset/8/13_20.odb,Step-1,Increment      1: Step Time =    1.000,"PART-1-1",           607,      -3.65817,      -25.2536,            0.,NA,NA,"",   3.30692E-03,   1.08294E-03,   3.12457E-03,   957.179E-06
C:/temp/dataset/8/13_20.odb,Step-1,Increment      1: Step Time =    1.000,"PART-1-1",           608,      -2.51119,      -23.8961,            0.,NA,NA,"",   2.87091E-03,   1.51207E-03,   2.44044E-03,   624.290E-06
C:/temp/dataset/8/13_20.odb,Step-1,Increment      1: Step Time =    1.000,"PART-1-1",           609,      -3.67574,      -22.6579,            0.,NA,NA,"",   6.26675E-03,   3.08016E-03,   5.45754E-03,   1.38693E-03
C:/temp/dataset/8/13_20.odb,Step-1,Increment      1: Step Time =    1.000,"PART-1-1",           610,      -1.29318,      -22.5899,            0.,NA,NA,"",   2.41982E-03,   1.42981E-03,   1.95222E-03,   678.101E-06
C:/temp/dataset/8/13_20.odb,Step-1,Increment      1: Step Time =    1.000,"PART-1-1",           611,  -38.5445E-03,      -21.2879,            0.,NA,NA,"",   2.92060E-03,  -393.036E-06,   2.89404E-03,   1.84530E-03
C:/temp/dataset/8/13_20.odb,Step-1,Increment      1: Step Time =    1.000,"PART-1-1",           612,         -1.25,          -20.,            0.,NA,NA,"",   4.59630E-03,   2.02749E-03,   4.12496E-03,   3.00511E-03
C:/temp/dataset/8/13_20.odb,Step-1,Increment      1: Step Time =    1.000,"PART-1-1",           613,      -2.50464,      -21.3020,            0.,NA,NA,"",   5.35854E-03,   3.66643E-03,   3.90784E-03,   1.71252E-03
C:/temp/dataset/8/13_20.odb,Step-1,Increment      1: Step Time =    1.000,"PART-1-1",           614,       6.00193,      -26.4828,            0.,NA,NA,"",   9.18639E-03,   182.050E-06,   9.18458E-03,   3.56908E-03
C:/temp/dataset/8/13_20.odb,Step-1,Increment      1: Step Time =    1.000,"PART-1-1",           615,       6.71688,      -27.7553,            0.,NA,NA,"",   6.13514E-03,   400.563E-06,   6.12205E-03,   3.50805E-03
C:/temp/dataset/8/13_20.odb,Step-1,Increment      1: Step Time =    1.000,"PART-1-1",           616,       8.27191,      -26.8508,            0.,NA,NA,"",   11.3061E-03,  -2.64613E-03,   10.9921E-03,   4.64520E-03
C:/temp/dataset/8/13_20.odb,Step-1,Increment      1: Step Time =    1.000,"PART-1-1",           617,       7.55696,      -25.5783,            0.,NA,NA,"",   15.7183E-03,  -3.73684E-03,   15.2676E-03,   4.75247E-03
C:/temp/dataset/8/13_20.odb,Step-1,Increment      1: Step Time =    1.000,"PART-1-1",           618,       1.28220,      -22.6790,            0.,NA,NA,"",   3.94545E-03,  -70.6245E-06,   3.94482E-03,   837.513E-06
C:/temp/dataset/8/13_20.odb,Step-1,Increment      1: Step Time =    1.000,"PART-1-1",           619,       2.57074,      -21.3912,            0.,NA,NA,"",   9.55889E-03,  -4.06817E-03,   8.65000E-03,   1.65350E-03
C:/temp/dataset/8/13_20.odb,Step-1,Increment      1: Step Time =    1.000,"PART-1-1",           620,          1.25,          -20.,            0.,NA,NA,"",   8.00464E-03,  -5.23363E-03,   6.05668E-03,   3.05604E-03
C:/temp/dataset/8/13_20.odb,Step-1,Increment      1: Step Time =    1.000,"PART-1-1",           621,       2.23882,      -25.9818,            0.,NA,NA,"",   4.21156E-03,   2.18414E-03,   3.60095E-03,   1.34042E-03
C:/temp/dataset/8/13_20.odb,Step-1,Increment      1: Step Time =    1.000,"PART-1-1",           622,       3.60539,      -25.7966,            0.,NA,NA,"",   6.49248E-03,   1.80075E-03,   6.23776E-03,   2.26894E-03
C:/temp/dataset/8/13_20.odb,Step-1,Increment      1: Step Time =    1.000,"PART-1-1",           623,       3.51945,      -23.6994,            0.,NA,NA,"",   9.67544E-03,  -6.23070E-06,   9.67544E-03,   2.36386E-03
C:/temp/dataset/8/13_20.odb,Step-1,Increment      1: Step Time =    1.000,"PART-1-1",           624,       2.15288,      -23.8846,            0.,NA,NA,"",   5.17224E-03,   905.232E-06,   5.09241E-03,   1.20065E-03
C:/temp/dataset/8/13_20.odb,Step-1,Increment      1: Step Time =    1.000,"PART-1-1",           625,       7.70422,      -28.9586,            0.,NA,NA,"",   2.99673E-03,   185.988E-06,   2.99095E-03,   3.67738E-03
C:/temp/dataset/8/13_20.odb,Step-1,Increment      1: Step Time =    1.000,"PART-1-1",           626,       5.26266,      -28.7967,            0.,NA,NA,"",   2.72125E-03,   1.26008E-03,   2.41193E-03,   2.68084E-03
C:/temp/dataset/8/13_20.odb,Step-1,Increment      1: Step Time =    1.000,"PART-1-1",           627,          6.25,          -30.,            0.,NA,NA,"",            0.,   800.008E-42,   5.49495E-39,   2.92679E-03
C:/temp/dataset/8/13_20.odb,Step-1,Increment      1: Step Time =    1.000,"PART-1-1",           628,       12.0997,      -20.6264,            0.,NA,NA,"",   59.7117E-03,  -33.2539E-03,   49.5950E-03,   5.83705E-03
C:/temp/dataset/8/13_20.odb,Step-1,Increment      1: Step Time =    1.000,"PART-1-1",           629,       11.2927,      -21.6255,            0.,NA,NA,"",   50.8231E-03,  -27.2031E-03,   42.9299E-03,   6.18329E-03
C:/temp/dataset/8/13_20.odb,Step-1,Increment      1: Step Time =    1.000,"PART-1-1",           630,       12.1482,      -22.5490,            0.,NA,NA,"",   47.3178E-03,  -25.9670E-03,   39.5561E-03,   6.13271E-03
C:/temp/dataset/8/13_20.odb,Step-1,Increment      1: Step Time =    1.000,"PART-1-1",           631,       12.9553,      -21.5498,            0.,NA,NA,"",   56.5017E-03,  -31.9623E-03,   46.5924E-03,   5.80060E-03
C:/temp/dataset/8/13_20.odb,Step-1,Increment      1: Step Time =    1.000,"PART-1-1",           632,         13.75,          -30.,            0.,NA,NA,"",            0.,  -867.688E-42,   11.5616E-39,   8.01336E-03
C:/temp/dataset/8/13_20.odb,Step-1,Increment      1: Step Time =    1.000,"PART-1-1",           633,           15.,      -28.7625,            0.,NA,NA,"",   14.1060E-03,  -10.0496E-03,   9.89873E-03,   8.65670E-03
C:/temp/dataset/8/13_20.odb,Step-1,Increment      1: Step Time =    1.000,"PART-1-1",           634,       13.7776,      -27.6227,            0.,NA,NA,"",   18.1312E-03,  -11.4904E-03,   14.0254E-03,   6.96644E-03
C:/temp/dataset/8/13_20.odb,Step-1,Increment      1: Step Time =    1.000,"PART-1-1",           635,           15.,      -26.2875,            0.,NA,NA,"",   33.7120E-03,  -20.7795E-03,   26.5464E-03,   6.84364E-03
C:/temp/dataset/8/13_20.odb,Step-1,Increment      1: Step Time =    1.000,"PART-1-1",           636,       13.5918,      -25.0908,            0.,NA,NA,"",   35.6811E-03,  -20.7881E-03,   28.9999E-03,   6.41525E-03
C:/temp/dataset/8/13_20.odb,Step-1,Increment      1: Step Time =    1.000,"PART-1-1",           637,       12.3694,      -26.4260,            0.,NA,NA,"",   22.2951E-03,  -12.5144E-03,   18.4516E-03,   6.46507E-03
C:/temp/dataset/8/13_20.odb,Step-1,Increment      1: Step Time =    1.000,"PART-1-1",           638,       13.9605,      -22.6420,            0.,NA,NA,"",   53.1219E-03,  -30.5113E-03,   43.4856E-03,   5.92751E-03
C:/temp/dataset/8/13_20.odb,Step-1,Increment      1: Step Time =    1.000,"PART-1-1",           639,       12.5523,      -23.9204,            0.,NA,NA,"",   39.6017E-03,  -21.9854E-03,   32.9385E-03,   6.24197E-03
C:/temp/dataset/8/13_20.odb,Step-1,Increment      1: Step Time =    1.000,"PART-1-1",           640,           15.,      -23.8125,            0.,NA,NA,"",   49.8493E-03,  -29.1396E-03,   40.4454E-03,   6.11281E-03
C:/temp/dataset/8/13_20.odb,Step-1,Increment      1: Step Time =    1.000,"PART-1-1",           641,           15.,      -21.3375,            0.,NA,NA,"",   65.4581E-03,  -37.8612E-03,   53.3975E-03,   5.40979E-03
C:/temp/dataset/8/13_20.odb,Step-1,Increment      1: Step Time =    1.000,"PART-1-1",           642,       7.29123,      -18.3998,            0.,NA,NA,"",   61.1121E-03,  -28.7054E-03,   53.9508E-03,   6.79493E-03
C:/temp/dataset/8/13_20.odb,Step-1,Increment      1: Step Time =    1.000,"PART-1-1",           643,       6.16190,      -17.3915,            0.,NA,NA,"",   64.5016E-03,  -27.8298E-03,   58.1890E-03,   8.34855E-03
C:/temp/dataset/8/13_20.odb,Step-1,Increment      1: Step Time =    1.000,"PART-1-1",           644,            5.,        -18.75,            0.,NA,NA,"",   48.0251E-03,  -19.9324E-03,   43.6934E-03,   10.0003E-03
C:/temp/dataset/8/13_20.odb,Step-1,Increment      1: Step Time =    1.000,"PART-1-1",           645,       6.12933,      -19.7583,            0.,NA,NA,"",   46.5234E-03,  -20.6007E-03,   41.7138E-03,   7.44664E-03
C:/temp/dataset/8/13_20.odb,Step-1,Increment      1: Step Time =    1.000,"PART-1-1",           646,       9.51257,      -18.2945,            0.,NA,NA,"",   68.1627E-03,  -35.1450E-03,   58.4037E-03,   6.34006E-03
C:/temp/dataset/8/13_20.odb,Step-1,Increment      1: Step Time =    1.000,"PART-1-1",           647,       10.1101,      -19.3444,            0.,NA,NA,"",   62.7227E-03,  -32.9635E-03,   53.3624E-03,   6.23548E-03
C:/temp/dataset/8/13_20.odb,Step-1,Increment      1: Step Time =    1.000,"PART-1-1",           648,       11.5966,      -18.6396,            0.,NA,NA,"",   70.7382E-03,  -39.2830E-03,   58.8281E-03,   5.68945E-03
C:/temp/dataset/8/13_20.odb,Step-1,Increment      1: Step Time =    1.000,"PART-1-1",           649,       10.5568,      -11.7080,            0.,NA,NA,"",   105.087E-03,  -47.4427E-03,   93.7686E-03,   5.69998E-03
C:/temp/dataset/8/13_20.odb,Step-1,Increment      1: Step Time =    1.000,"PART-1-1",           650,       11.5580,      -12.7427,            0.,NA,NA,"",   100.156E-03,  -50.1498E-03,   86.6965E-03,   5.12233E-03
C:/temp/dataset/8/13_20.odb,Step-1,Increment      1: Step Time =    1.000,"PART-1-1",           651,       12.7592,      -11.5531,            0.,NA,NA,"",   103.036E-03,  -51.7181E-03,   89.1158E-03,   4.00599E-03
C:/temp/dataset/8/13_20.odb,Step-1,Increment      1: Step Time =    1.000,"PART-1-1",           652,       5.97400,      -7.48832,            0.,NA,NA,"",   148.676E-03,  -25.7346E-03,   146.432E-03,   11.8460E-03
C:/temp/dataset/8/13_20.odb,Step-1,Increment      1: Step Time =    1.000,"PART-1-1",           653,            5.,         -8.75,            0.,NA,NA,"",   136.462E-03,  -22.3768E-03,   134.615E-03,   12.7543E-03
C:/temp/dataset/8/13_20.odb,Step-1,Increment      1: Step Time =    1.000,"PART-1-1",           654,       6.96466,      -8.62400,            0.,NA,NA,"",   131.887E-03,  -32.2402E-03,   127.886E-03,   9.57411E-03
C:/temp/dataset/8/13_20.odb,Step-1,Increment      1: Step Time =    1.000,"PART-1-1",           655,       13.4824,      -5.05044,            0.,NA,NA,"",   108.799E-03,  -24.7098E-03,   105.956E-03,   3.45995E-03
C:/temp/dataset/8/13_20.odb,Step-1,Increment      1: Step Time =    1.000,"PART-1-1",           656,           15.,      -6.28125,            0.,NA,NA,"",   100.163E-03,  -34.7113E-03,   93.9562E-03,   2.38115E-03
C:/temp/dataset/8/13_20.odb,Step-1,Increment      1: Step Time =    1.000,"PART-1-1",           657,       12.6591,      -1.12439,            0.,NA,NA,"",   123.946E-03,   4.20496E-03,   123.874E-03,   3.72006E-03
C:/temp/dataset/8/13_20.odb,Step-1,Increment      1: Step Time =    1.000,"PART-1-1",           658,       13.8600,      -2.43742,            0.,NA,NA,"",   112.366E-03,  -6.75965E-03,   112.163E-03,   3.95438E-03
C:/temp/dataset/8/13_20.odb,Step-1,Increment      1: Step Time =    1.000,"PART-1-1",           659,           15.,      -1.25625,            0.,NA,NA,"",   109.393E-03,  -1.04326E-03,   109.388E-03,   4.33697E-03
C:/temp/dataset/8/13_20.odb,Step-1,Increment      1: Step Time =    1.000,"PART-1-1",           660,       5.30074,       3.65708,            0.,NA,NA,"",   183.349E-03,   18.5925E-03,   182.404E-03,   7.93959E-03
C:/temp/dataset/8/13_20.odb,Step-1,Increment      1: Step Time =    1.000,"PART-1-1",           661,       7.62947,       4.43985,            0.,NA,NA,"",   164.783E-03,   29.6164E-03,   162.100E-03,   2.79066E-03
C:/temp/dataset/8/13_20.odb,Step-1,Increment      1: Step Time =    1.000,"PART-1-1",           662,       6.09164,       5.20441,            0.,NA,NA,"",   170.893E-03,   29.4511E-03,   168.337E-03,   4.87174E-03
C:/temp/dataset/8/13_20.odb,Step-1,Increment      1: Step Time =    1.000,"PART-1-1",           663,       10.7729,       2.25312,            0.,NA,NA,"",   146.103E-03,   23.8302E-03,   144.146E-03,   2.40133E-03
C:/temp/dataset/8/13_20.odb,Step-1,Increment      1: Step Time =    1.000,"PART-1-1",           664,       10.9515,       3.76013,            0.,NA,NA,"",   148.129E-03,   28.6642E-03,   145.330E-03,   1.72288E-03
C:/temp/dataset/8/13_20.odb,Step-1,Increment      1: Step Time =    1.000,"PART-1-1",           665,       8.98494,       4.06074,            0.,NA,NA,"",   157.924E-03,   29.7202E-03,   155.102E-03,   1.81694E-03
C:/temp/dataset/8/13_20.odb,Step-1,Increment      1: Step Time =    1.000,"PART-1-1",           666,           15.,       8.66250,            0.,NA,NA,"",   151.630E-03,   30.5891E-03,   148.512E-03,   3.81669E-03
C:/temp/dataset/8/13_20.odb,Step-1,Increment      1: Step Time =    1.000,"PART-1-1",           667,       13.0810,       8.82259,            0.,NA,NA,"",   152.724E-03,   33.2073E-03,   149.070E-03,   2.45614E-03
C:/temp/dataset/8/13_20.odb,Step-1,Increment      1: Step Time =    1.000,"PART-1-1",           668,       7.75239,       11.0444,            0.,NA,NA,"",   154.326E-03,   31.2181E-03,   151.136E-03,   2.01812E-03
C:/temp/dataset/8/13_20.odb,Step-1,Increment      1: Step Time =    1.000,"PART-1-1",           669,       6.56216,       12.4157,            0.,NA,NA,"",   149.729E-03,   26.5423E-03,   147.357E-03,   2.25103E-03
C:/temp/dataset/8/13_20.odb,Step-1,Increment      1: Step Time =    1.000,"PART-1-1",           670,            5.,         11.25,            0.,NA,NA,"",   149.785E-03,   27.6602E-03,   147.209E-03,   3.56380E-03
C:/temp/dataset/8/13_20.odb,Step-1,Increment      1: Step Time =    1.000,"PART-1-1",           671,       10.9687,       10.2381,            0.,NA,NA,"",   155.237E-03,   33.1847E-03,   151.649E-03,   1.42169E-03
C:/temp/dataset/8/13_20.odb,Step-1,Increment      1: Step Time =    1.000,"PART-1-1",           672,       9.89393,       9.91282,            0.,NA,NA,"",   155.603E-03,   34.0282E-03,   151.836E-03,   1.34484E-03
C:/temp/dataset/8/13_20.odb,Step-1,Increment      1: Step Time =    1.000,"PART-1-1",           673,       10.3396,       8.57072,            0.,NA,NA,"",   155.212E-03,   35.3628E-03,   151.129E-03,   1.27692E-03
C:/temp/dataset/8/13_20.odb,Step-1,Increment      1: Step Time =    1.000,"PART-1-1",           674,       11.4143,       8.89605,            0.,NA,NA,"",   154.164E-03,   34.6194E-03,   150.227E-03,   1.59843E-03
C:/temp/dataset/8/13_20.odb,Step-1,Increment      1: Step Time =    1.000,"PART-1-1",           675,       12.6608,       18.9269,            0.,NA,NA,"",   160.738E-03,  -884.270E-06,   160.736E-03,   968.762E-06
C:/temp/dataset/8/13_20.odb,Step-1,Increment      1: Step Time =    1.000,"PART-1-1",           676,       13.7941,       17.5480,            0.,NA,NA,"",   164.355E-03,   5.60221E-03,   164.259E-03,   1.08915E-03
C:/temp/dataset/8/13_20.odb,Step-1,Increment      1: Step Time =    1.000,"PART-1-1",           677,           15.,       18.6938,            0.,NA,NA,"",   170.503E-03,  -440.112E-06,   170.502E-03,   931.523E-06
C:/temp/dataset/8/13_20.odb,Step-1,Increment      1: Step Time =    1.000,"PART-1-1",           678,       11.2471,       27.2214,            0.,NA,NA,"",   160.210E-03,  -40.9911E-03,   154.877E-03,   80.5216E-06
C:/temp/dataset/8/13_20.odb,Step-1,Increment      1: Step Time =    1.000,"PART-1-1",           679,       12.5374,       28.7023,            0.,NA,NA,"",   167.600E-03,  -47.6136E-03,   160.694E-03,   27.9801E-06
C:/temp/dataset/8/13_20.odb,Step-1,Increment      1: Step Time =    1.000,"PART-1-1",           680,         11.25,           30.,            0.,NA,NA,"",   163.815E-03,  -53.3988E-03,   154.867E-03,   71.6158E-06
C:/temp/dataset/8/13_20.odb,Step-1,Increment      1: Step Time =    1.000,"PART-1-1",           681,       8.10754,       23.1840,            0.,NA,NA,"",   143.874E-03,  -23.7414E-03,   141.902E-03,   778.748E-06
C:/temp/dataset/8/13_20.odb,Step-1,Increment      1: Step Time =    1.000,"PART-1-1",           682,       9.64263,       22.1457,            0.,NA,NA,"",   149.952E-03,  -17.8689E-03,   148.884E-03,   783.900E-06
C:/temp/dataset/8/13_20.odb,Step-1,Increment      1: Step Time =    1.000,"PART-1-1",           683,           15.,       28.7437,            0.,NA,NA,"",   178.387E-03,  -47.8304E-03,   171.855E-03,   11.3267E-06
C:/temp/dataset/8/13_20.odb,Step-1,Increment      1: Step Time =    1.000,"PART-1-1",           684,         13.75,           30.,            0.,NA,NA,"",   174.580E-03,  -53.4887E-03,   166.184E-03,   13.5019E-06
C:/temp/dataset/8/13_20.odb,Step-1,Increment      1: Step Time =    1.000,"PART-1-1",           685,       13.7874,       27.4460,            0.,NA,NA,"",   171.604E-03,  -41.9754E-03,   166.391E-03,   33.1347E-06
C:/temp/dataset/8/13_20.odb,Step-1,Increment      1: Step Time =    1.000,"PART-1-1",           686,       7.12499,       6.45847,            0.,NA,NA,"",   163.819E-03,   33.9310E-03,   160.267E-03,   2.35036E-03
C:/temp/dataset/8/13_20.odb,Step-1,Increment      1: Step Time =    1.000,"PART-1-1",           687,            5.,          6.25,            0.,NA,NA,"",   171.845E-03,   30.2054E-03,   169.170E-03,   7.15040E-03
C:/temp/dataset/8/13_20.odb,Step-1,Increment      1: Step Time =    1.000,"PART-1-1",           688,       9.07752,      -27.9736,            0.,NA,NA,"",   7.41048E-03,  -1.90322E-03,   7.16191E-03,   4.56531E-03
C:/temp/dataset/8/13_20.odb,Step-1,Increment      1: Step Time =    1.000,"PART-1-1",           689,          8.75,          -30.,            0.,NA,NA,"",            0.,   49.0525E-42,   7.36078E-39,   3.85442E-03
C:/temp/dataset/8/13_20.odb,Step-1,Increment      1: Step Time =    1.000,"PART-1-1",           690,           15.,       3.71250,            0.,NA,NA,"",   131.871E-03,   23.0801E-03,   129.835E-03,   4.47511E-03
C:/temp/dataset/8/13_20.odb,Step-1,Increment      1: Step Time =    1.000,"PART-1-1",           691,       12.3996,       4.14954,            0.,NA,NA,"",   142.970E-03,   28.5009E-03,   140.100E-03,   2.59918E-03
C:/temp/dataset/8/13_20.odb,Step-1,Increment      1: Step Time =    1.000,"PART-1-1",           692,       9.86779,       6.75734,            0.,NA,NA,"",   155.435E-03,   35.1468E-03,   151.409E-03,   1.10623E-03
C:/temp/dataset/8/13_20.odb,Step-1,Increment      1: Step Time =    1.000,"PART-1-1",           693,       8.81759,       6.48028,            0.,NA,NA,"",   158.306E-03,   34.8746E-03,   154.417E-03,   1.37676E-03
C:/temp/dataset/8/13_20.odb,Step-1,Increment      1: Step Time =    1.000,"PART-1-1",           694,       9.27664,       5.21437,            0.,NA,NA,"",   156.809E-03,   32.7138E-03,   153.359E-03,   1.23879E-03
C:/temp/dataset/8/13_20.odb,Step-1,Increment      1: Step Time =    1.000,"PART-1-1",           695,       10.3268,       5.49143,            0.,NA,NA,"",   153.115E-03,   33.1872E-03,   149.476E-03,   1.23994E-03
C:/temp/dataset/8/13_20.odb,Step-1,Increment      1: Step Time =    1.000,"PART-1-1",           696,   710.804E-03,      -25.0300,            0.,NA,NA,"",   2.81149E-03,   1.73327E-03,   2.21365E-03,   721.955E-06
C:/temp/dataset/8/13_20.odb,Step-1,Increment      1: Step Time =    1.000,"PART-1-1",           697,  -159.879E-03,      -23.8244,            0.,NA,NA,"",   2.20020E-03,   1.26641E-03,   1.79919E-03,   244.164E-06
C:/temp/dataset/8/13_20.odb,Step-1,Increment      1: Step Time =    1.000,"PART-1-1",           698,         -3.75,          -20.,            0.,NA,NA,"",   12.1982E-03,   9.14429E-03,   8.07327E-03,   2.97609E-03
C:/temp/dataset/8/13_20.odb,Step-1,Increment      1: Step Time =    1.000,"PART-1-1",           699,      -4.92110,      -21.3559,            0.,NA,NA,"",   13.4274E-03,   6.91590E-03,   11.5093E-03,   3.02438E-03
C:/temp/dataset/8/13_20.odb,Step-1,Increment      1: Step Time =    1.000,"PART-1-1",           700,         -1.25,          -30.,            0.,NA,NA,"",            0.,   259.131E-42,   1.57124E-39,   870.613E-06
C:/temp/dataset/8/13_20.odb,Step-1,Increment      1: Step Time =    1.000,"PART-1-1",           701,      -1.24185,      -27.5805,            0.,NA,NA,"",   1.28827E-03,   867.519E-06,   952.388E-06,   810.324E-06
C:/temp/dataset/8/13_20.odb,Step-1,Increment      1: Step Time =    1.000,"PART-1-1",           702,      -7.47566,      -11.3800,            0.,NA,NA,"",   74.5040E-03,   43.6067E-03,   60.4095E-03,   5.44796E-03
C:/temp/dataset/8/13_20.odb,Step-1,Increment      1: Step Time =    1.000,"PART-1-1",           703,           -5.,        -11.25,            0.,NA,NA,"",   71.3225E-03,   37.0531E-03,   60.9423E-03,   6.87849E-03
C:/temp/dataset/8/13_20.odb,Step-1,Increment      1: Step Time =    1.000,"PART-1-1",           704,      -6.22639,      -10.0808,            0.,NA,NA,"",   79.5052E-03,   41.3600E-03,   67.9002E-03,   6.50736E-03
C:/temp/dataset/8/13_20.odb,Step-1,Increment      1: Step Time =    1.000,"PART-1-1",           705,          -15.,        -13.75,            0.,NA,NA,"",   73.0440E-03,   49.5865E-03,   53.6340E-03,   1.18212E-03
C:/temp/dataset/8/13_20.odb,Step-1,Increment      1: Step Time =    1.000,"PART-1-1",           706,      -12.5127,      -13.8329,            0.,NA,NA,"",   69.3865E-03,   47.4042E-03,   50.6688E-03,   2.70739E-03
C:/temp/dataset/8/13_20.odb,Step-1,Increment      1: Step Time =    1.000,"PART-1-1",           707,      -10.0964,       13.7974,            0.,NA,NA,"",   103.700E-03,  -41.9159E-03,   94.8507E-03,   1.41259E-03
C:/temp/dataset/8/13_20.odb,Step-1,Increment      1: Step Time =    1.000,"PART-1-1",           708,      -8.82993,       12.5694,            0.,NA,NA,"",   105.906E-03,  -42.3574E-03,   97.0665E-03,   1.26739E-03
C:/temp/dataset/8/13_20.odb,Step-1,Increment      1: Step Time =    1.000,"PART-1-1",           709,          -15.,         16.25,            0.,NA,NA,"",   100.353E-03,  -39.1149E-03,   92.4157E-03,   782.292E-06
C:/temp/dataset/8/13_20.odb,Step-1,Increment      1: Step Time =    1.000,"PART-1-1",           710,      -12.5888,       16.2424,            0.,NA,NA,"",   100.915E-03,  -39.7668E-03,   92.7497E-03,   1.09845E-03
C:/temp/dataset/8/13_20.odb,Step-1,Increment      1: Step Time =    1.000,"PART-1-1",           711,      -12.3835,       2.26488,            0.,NA,NA,"",   75.7524E-03,  -9.89908E-03,   75.1028E-03,   2.15470E-03
C:/temp/dataset/8/13_20.odb,Step-1,Increment      1: Step Time =    1.000,"PART-1-1",           712,      -11.8224,   292.734E-03,            0.,NA,NA,"",   74.9937E-03,   3.55687E-03,   74.9093E-03,   2.15557E-03
C:/temp/dataset/8/13_20.odb,Step-1,Increment      1: Step Time =    1.000,"PART-1-1",           713,      -11.2102,       1.42259,            0.,NA,NA,"",   80.3117E-03,  -5.23589E-03,   80.1408E-03,   2.08196E-03
C:/temp/dataset/8/13_20.odb,Step-1,Increment      1: Step Time =    1.000,"PART-1-1",           714,         -3.75,           -5.,            0.,NA,NA,"",   151.582E-03,   41.2860E-03,   145.851E-03,   5.12444E-03
C:/temp/dataset/8/13_20.odb,Step-1,Increment      1: Step Time =    1.000,"PART-1-1",           715,      -4.14675,      -2.41445,            0.,NA,NA,"",   141.468E-03,   10.8347E-03,   141.053E-03,   7.29632E-03
C:/temp/dataset/8/13_20.odb,Step-1,Increment      1: Step Time =    1.000,"PART-1-1",           716,          3.75,           -5.,            0.,NA,NA,"",   256.445E-03,   515.033E-06,   256.444E-03,   15.2228E-03
C:/temp/dataset/8/13_20.odb,Step-1,Increment      1: Step Time =    1.000,"PART-1-1",           717,       4.88615,      -3.81221,            0.,NA,NA,"",   207.377E-03,   16.6811E-03,   206.705E-03,   16.8575E-03
C:/temp/dataset/8/13_20.odb,Step-1,Increment      1: Step Time =    1.000,"PART-1-1",           718,          3.75,            5.,            0.,NA,NA,"",   194.103E-03,   16.4982E-03,   193.401E-03,   7.71320E-03
C:/temp/dataset/8/13_20.odb,Step-1,Increment      1: Step Time =    1.000,"PART-1-1",           719,       2.57201,       3.72360,            0.,NA,NA,"",   203.490E-03,   5.46663E-03,   203.417E-03,   6.94676E-03
C:/temp/dataset/8/13_20.odb,Step-1,Increment      1: Step Time =    1.000,"PART-1-1",           720,       4.12275,       2.38068,            0.,NA,NA,"",   199.335E-03,   12.7996E-03,   198.923E-03,   7.38300E-03
C:/temp/dataset/8/13_20.odb,Step-1,Increment      1: Step Time =    1.000,"PART-1-1",           721,       1.34934,       2.46747,            0.,NA,NA,"",   207.632E-03,   691.438E-06,   207.631E-03,   4.74019E-03
C:/temp/dataset/8/13_20.odb,Step-1,Increment      1: Step Time =    1.000,"PART-1-1",           722,          1.25,            5.,            0.,NA,NA,"",   198.592E-03,  -4.99047E-03,   198.529E-03,   9.30585E-03
C:/temp/dataset/8/13_20.odb,Step-1,Increment      1: Step Time =    1.000,"PART-1-1",           723,          6.25,           30.,            0.,NA,NA,"",   142.776E-03,  -52.5729E-03,   132.744E-03,   357.145E-06
C:/temp/dataset/8/13_20.odb,Step-1,Increment      1: Step Time =    1.000,"PART-1-1",           724,       6.07120,       27.6569,            0.,NA,NA,"",   138.639E-03,  -42.9895E-03,   131.806E-03,   256.327E-06
C:/temp/dataset/8/13_20.odb,Step-1,Increment      1: Step Time =    1.000,"PART-1-1",           725,         -1.25,           30.,            0.,NA,NA,"",   116.230E-03,  -47.8597E-03,   105.919E-03,   938.813E-06
C:/temp/dataset/8/13_20.odb,Step-1,Increment      1: Step Time =    1.000,"PART-1-1",           726,      -1.39999,       27.3167,            0.,NA,NA,"",   112.547E-03,  -40.9896E-03,   104.817E-03,   229.719E-06
C:/temp/dataset/8/13_20.odb,Step-1,Increment      1: Step Time =    1.000,"PART-1-1",           727,         -3.75,           20.,            0.,NA,NA,"",   104.681E-03,  -28.0521E-03,   100.852E-03,   2.86013E-03
C:/temp/dataset/8/13_20.odb,Step-1,Increment      1: Step Time =    1.000,"PART-1-1",           728,      -2.58930,       21.4512,            0.,NA,NA,"",   106.574E-03,  -28.7026E-03,   102.636E-03,   1.64904E-03
C:/temp/dataset/8/13_20.odb,Step-1,Increment      1: Step Time =    1.000,"PART-1-1",           729,      -5.07231,       21.0171,            0.,NA,NA,"",   102.041E-03,  -31.4110E-03,   97.0856E-03,   1.77859E-03
C:/temp/dataset/8/13_20.odb,Step-1,Increment      1: Step Time =    1.000,"PART-1-1",           730,      -1.31658,       22.7626,            0.,NA,NA,"",   109.697E-03,  -30.0000E-03,   105.515E-03,   1.15946E-03
C:/temp/dataset/8/13_20.odb,Step-1,Increment      1: Step Time =    1.000,"PART-1-1",           731,         -1.25,           20.,            0.,NA,NA,"",   110.053E-03,  -22.5888E-03,   107.710E-03,   2.09081E-03
C:/temp/dataset/8/13_20.odb,Step-1,Increment      1: Step Time =    1.000,"PART-1-1",           732,  -730.264E-03,       25.0913,            0.,NA,NA,"",   112.345E-03,  -35.3607E-03,   106.635E-03,   444.736E-06
C:/temp/dataset/8/13_20.odb,Step-1,Increment      1: Step Time =    1.000,"PART-1-1",           733,      -2.17963,       23.9829,            0.,NA,NA,"",   108.198E-03,  -33.3967E-03,   102.915E-03,   686.723E-06
C:/temp/dataset/8/13_20.odb,Step-1,Increment      1: Step Time =    1.000,"PART-1-1",           734,       6.36136,       15.0582,            0.,NA,NA,"",   143.178E-03,   16.7013E-03,   142.200E-03,   1.78873E-03
C:/temp/dataset/8/13_20.odb,Step-1,Increment      1: Step Time =    1.000,"PART-1-1",           735,       7.68541,       16.4128,            0.,NA,NA,"",   145.406E-03,   11.2662E-03,   144.969E-03,   1.43915E-03
C:/temp/dataset/8/13_20.odb,Step-1,Increment      1: Step Time =    1.000,"PART-1-1",           736,            5.,         16.25,            0.,NA,NA,"",   135.222E-03,   10.3393E-03,   134.826E-03,   1.97658E-03
C:/temp/dataset/8/13_20.odb,Step-1,Increment      1: Step Time =    1.000,"PART-1-1",           737,      -10.0306,      -16.4562,            0.,NA,NA,"",   55.2972E-03,   36.4807E-03,   41.5564E-03,   3.91003E-03
C:/temp/dataset/8/13_20.odb,Step-1,Increment      1: Step Time =    1.000,"PART-1-1",           738,         -8.75,          -30.,            0.,NA,NA,"",            0.,  -26.6793E-42,   4.30257E-39,   2.25413E-03
C:/temp/dataset/8/13_20.odb,Step-1,Increment      1: Step Time =    1.000,"PART-1-1",           739,      -8.41046,      -27.7431,            0.,NA,NA,"",   4.41483E-03,   1.20055E-03,   4.24846E-03,   2.44071E-03
C:/temp/dataset/8/13_20.odb,Step-1,Increment      1: Step Time =    1.000,"PART-1-1",           740,       8.76042,      -4.14506,            0.,NA,NA,"",   139.925E-03,  -8.28723E-03,   139.679E-03,   5.47908E-03
C:/temp/dataset/8/13_20.odb,Step-1,Increment      1: Step Time =    1.000,"PART-1-1",           741,       8.66903,      -5.72492,            0.,NA,NA,"",   134.554E-03,  -21.6487E-03,   132.801E-03,   5.00636E-03
C:/temp/dataset/8/13_20.odb,Step-1,Increment      1: Step Time =    1.000,"PART-1-1",           742,            5.,        -13.75,            0.,NA,NA,"",   91.2982E-03,  -28.1527E-03,   86.8492E-03,   9.96331E-03
C:/temp/dataset/8/13_20.odb,Step-1,Increment      1: Step Time =    1.000,"PART-1-1",           743,       6.25554,      -14.9359,            0.,NA,NA,"",   84.0819E-03,  -32.3238E-03,   77.6205E-03,   8.83056E-03
C:/temp/dataset/8/13_20.odb,Step-1,Increment      1: Step Time =    1.000,"PART-1-1",           744,       7.64357,      -13.5439,            0.,NA,NA,"",   96.0786E-03,  -38.8956E-03,   87.8535E-03,   8.09250E-03
C:/temp/dataset/8/13_20.odb,Step-1,Increment      1: Step Time =    1.000,"PART-1-1",           745,       7.29012,      -20.5145,            0.,NA,NA,"",   45.9251E-03,  -20.2041E-03,   41.2421E-03,   6.95919E-03
C:/temp/dataset/8/13_20.odb,Step-1,Increment      1: Step Time =    1.000,"PART-1-1",           746,       5.05790,      -20.9179,            0.,NA,NA,"",   28.8514E-03,  -9.78099E-03,   27.1428E-03,   6.25265E-03
C:/temp/dataset/8/13_20.odb,Step-1,Increment      1: Step Time =    1.000,"PART-1-1",           747,       6.21870,      -21.6741,            0.,NA,NA,"",   31.9528E-03,  -11.0148E-03,   29.9943E-03,   6.53157E-03
C:/temp/dataset/8/13_20.odb,Step-1,Increment      1: Step Time =    1.000,"PART-1-1",           748,      -6.20775,      -20.1417,            0.,NA,NA,"",   26.0286E-03,   15.0697E-03,   21.2224E-03,   4.22431E-03
C:/temp/dataset/8/13_20.odb,Step-1,Increment      1: Step Time =    1.000,"PART-1-1",           749,      -7.26365,      -21.6027,            0.,NA,NA,"",   22.4121E-03,   11.9138E-03,   18.9832E-03,   4.03200E-03
C:/temp/dataset/8/13_20.odb,Step-1,Increment      1: Step Time =    1.000,"PART-1-1",           750,      -7.57540,       11.3077,            0.,NA,NA,"",   108.569E-03,  -42.0172E-03,   100.108E-03,   1.50602E-03
C:/temp/dataset/8/13_20.odb,Step-1,Increment      1: Step Time =    1.000,"PART-1-1",           751,           -5.,         11.25,            0.,NA,NA,"",   110.999E-03,  -40.2239E-03,   103.455E-03,   2.11234E-03
C:/temp/dataset/8/13_20.odb,Step-1,Increment      1: Step Time =    1.000,"PART-1-1",           752,          -15.,          8.75,            0.,NA,NA,"",   86.7791E-03,  -35.7506E-03,   79.0728E-03,   3.03445E-03
C:/temp/dataset/8/13_20.odb,Step-1,Increment      1: Step Time =    1.000,"PART-1-1",           753,      -12.2946,       8.62536,            0.,NA,NA,"",   94.3955E-03,  -38.3648E-03,   86.2476E-03,   1.72849E-03
C:/temp/dataset/8/13_20.odb,Step-1,Increment      1: Step Time =    1.000,"PART-1-1",           754,      -10.0522,       9.28504,            0.,NA,NA,"",   102.576E-03,  -40.7745E-03,   94.1239E-03,   1.34733E-03
C:/temp/dataset/8/13_20.odb,Step-1,Increment      1: Step Time =    1.000,"PART-1-1",           755,      -8.95993,       7.79922,            0.,NA,NA,"",   105.209E-03,  -38.5736E-03,   97.8829E-03,   1.42046E-03
C:/temp/dataset/8/13_20.odb,Step-1,Increment      1: Step Time =    1.000,"PART-1-1",           756,      -8.82890,       10.1599,            0.,NA,NA,"",   106.450E-03,  -41.8454E-03,   97.8801E-03,   1.46086E-03
C:/temp/dataset/8/13_20.odb,Step-1,Increment      1: Step Time =    1.000,"PART-1-1",           757,          -15.,          3.75,            0.,NA,NA,"",   66.0571E-03,  -16.0806E-03,   64.0699E-03,   3.10855E-03
C:/temp/dataset/8/13_20.odb,Step-1,Increment      1: Step Time =    1.000,"PART-1-1",           758,      -12.9917,       3.46630,            0.,NA,NA,"",   76.0125E-03,  -16.9028E-03,   74.1093E-03,   2.22400E-03
C:/temp/dataset/8/13_20.odb,Step-1,Increment      1: Step Time =    1.000,"PART-1-1",           759,          -15.,         -1.25,            0.,NA,NA,"",   56.6087E-03,   17.1306E-03,   53.9545E-03,   1.14059E-03
C:/temp/dataset/8/13_20.odb,Step-1,Increment      1: Step Time =    1.000,"PART-1-1",           760,      -12.5629,      -1.46967,            0.,NA,NA,"",   70.2943E-03,   17.1957E-03,   68.1586E-03,   2.06666E-03
C:/temp/dataset/8/13_20.odb,Step-1,Increment      1: Step Time =    1.000,"PART-1-1",           761,      -9.58670,      -7.04184,            0.,NA,NA,"",   85.6629E-03,   46.0633E-03,   72.2240E-03,   3.12590E-03
C:/temp/dataset/8/13_20.odb,Step-1,Increment      1: Step Time =    1.000,"PART-1-1",           762,      -10.0087,      -5.60794,            0.,NA,NA,"",   84.7675E-03,   41.3586E-03,   73.9932E-03,   2.55005E-03
C:/temp/dataset/8/13_20.odb,Step-1,Increment      1: Step Time =    1.000,"PART-1-1",           763,      -11.4598,      -6.08307,            0.,NA,NA,"",   80.1683E-03,   44.0181E-03,   67.0028E-03,   1.75753E-03
C:/temp/dataset/8/13_20.odb,Step-1,Increment      1: Step Time =    1.000,"PART-1-1",           764,           -5.,         -8.75,            0.,NA,NA,"",   85.4609E-03,   37.4855E-03,   76.8010E-03,   8.03983E-03
C:/temp/dataset/8/13_20.odb,Step-1,Increment      1: Step Time =    1.000,"PART-1-1",           765,      -6.19611,      -7.65783,            0.,NA,NA,"",   93.5887E-03,   41.9094E-03,   83.6807E-03,   7.29214E-03
C:/temp/dataset/8/13_20.odb,Step-1,Increment      1: Step Time =    1.000,"PART-1-1",           766,      -2.54776,      -1.24063,            0.,NA,NA,"",   173.050E-03,   647.814E-06,   173.049E-03,   9.43880E-03
C:/temp/dataset/8/13_20.odb,Step-1,Increment      1: Step Time =    1.000,"PART-1-1",           767,       3.62717,       25.2502,            0.,NA,NA,"",   126.537E-03,  -34.3812E-03,   121.777E-03,   491.001E-06
C:/temp/dataset/8/13_20.odb,Step-1,Increment      1: Step Time =    1.000,"PART-1-1",           768,       4.81765,       26.4923,            0.,NA,NA,"",   132.271E-03,  -38.5902E-03,   126.517E-03,   350.229E-06
C:/temp/dataset/8/13_20.odb,Step-1,Increment      1: Step Time =    1.000,"PART-1-1",           769,       2.47493,       26.4272,            0.,NA,NA,"",   123.387E-03,  -38.6019E-03,   117.194E-03,   310.375E-06
C:/temp/dataset/8/13_20.odb,Step-1,Increment      1: Step Time =    1.000,"PART-1-1",           770,       12.1711,       7.92225,            0.,NA,NA,"",   152.009E-03,   34.3481E-03,   148.078E-03,   2.03780E-03
C:/temp/dataset/8/13_20.odb,Step-1,Increment      1: Step Time =    1.000,"PART-1-1",           771,       10.9972,       7.23987,            0.,NA,NA,"",   153.131E-03,   35.0340E-03,   149.070E-03,   1.46828E-03
C:/temp/dataset/8/13_20.odb,Step-1,Increment      1: Step Time =    1.000,"PART-1-1",           772,       11.7750,       5.88084,            0.,NA,NA,"",   149.142E-03,   32.9818E-03,   145.450E-03,   1.93797E-03
C:/temp/dataset/8/13_20.odb,Step-1,Increment      1: Step Time =    1.000,"PART-1-1",           773,       2.56868,       1.19679,            0.,NA,NA,"",   213.541E-03,   8.09787E-03,   213.387E-03,   7.16182E-03
C:/temp/dataset/8/13_20.odb,Step-1,Increment      1: Step Time =    1.000,"PART-1-1",           774,      -8.87516,       6.40184,            0.,NA,NA,"",   104.297E-03,  -35.2223E-03,   98.1694E-03,   1.46206E-03
C:/temp/dataset/8/13_20.odb,Step-1,Increment      1: Step Time =    1.000,"PART-1-1",           775,      -9.21453,       4.85504,            0.,NA,NA,"",   99.6632E-03,  -28.4771E-03,   95.5082E-03,   1.21566E-03
C:/temp/dataset/8/13_20.odb,Step-1,Increment      1: Step Time =    1.000,"PART-1-1",           776,      -7.77845,       4.46010,            0.,NA,NA,"",   107.810E-03,  -27.6773E-03,   104.197E-03,   1.17992E-03
C:/temp/dataset/8/13_20.odb,Step-1,Increment      1: Step Time =    1.000,"PART-1-1",           777,      -7.43909,       6.00690,            0.,NA,NA,"",   111.716E-03,  -34.9399E-03,   106.111E-03,   1.87613E-03
C:/temp/dataset/8/13_20.odb,Step-1,Increment      1: Step Time =    1.000,"PART-1-1",           778,      -11.3073,       27.9110,            0.,NA,NA,"",   101.053E-03,  -39.8972E-03,   92.8435E-03,   290.077E-06
C:/temp/dataset/8/13_20.odb,Step-1,Increment      1: Step Time =    1.000,"PART-1-1",           779,      -10.0807,       29.0541,            0.,NA,NA,"",   102.042E-03,  -40.9760E-03,   93.4533E-03,   302.214E-06
C:/temp/dataset/8/13_20.odb,Step-1,Increment      1: Step Time =    1.000,"PART-1-1",           780,        -11.25,           30.,            0.,NA,NA,"",   101.758E-03,  -41.3042E-03,   92.9985E-03,   219.388E-06
C:/temp/dataset/8/13_20.odb,Step-1,Increment      1: Step Time =    1.000,"PART-1-1",           781,          -15.,         23.75,            0.,NA,NA,"",   99.2691E-03,  -37.3752E-03,   91.9644E-03,   352.237E-06
C:/temp/dataset/8/13_20.odb,Step-1,Increment      1: Step Time =    1.000,"PART-1-1",           782,      -12.0927,       23.7977,            0.,NA,NA,"",   100.006E-03,  -36.9730E-03,   92.9209E-03,   203.506E-06
C:/temp/dataset/8/13_20.odb,Step-1,Increment      1: Step Time =    1.000,"PART-1-1",           783,      -8.63837,       22.0170,            0.,NA,NA,"",   101.089E-03,  -35.0603E-03,   94.8145E-03,   786.052E-06
C:/temp/dataset/8/13_20.odb,Step-1,Increment      1: Step Time =    1.000,"PART-1-1",           784,      -9.90203,       20.9758,            0.,NA,NA,"",   101.115E-03,  -35.8797E-03,   94.5349E-03,   763.593E-06
C:/temp/dataset/8/13_20.odb,Step-1,Increment      1: Step Time =    1.000,"PART-1-1",           785,      -7.50941,       20.8584,            0.,NA,NA,"",   101.854E-03,  -34.2064E-03,   95.9384E-03,   1.24876E-03
C:/temp/dataset/8/13_20.odb,Step-1,Increment      1: Step Time =    1.000,"PART-1-1",           786,      -11.2484,       19.8991,            0.,NA,NA,"",   100.953E-03,  -36.8387E-03,   93.9915E-03,   797.714E-06
C:/temp/dataset/8/13_20.odb,Step-1,Increment      1: Step Time =    1.000,"PART-1-1",           787,      -11.3362,       17.4609,            0.,NA,NA,"",   101.683E-03,  -38.7719E-03,   94.0005E-03,   1.12895E-03
C:/temp/dataset/8/13_20.odb,Step-1,Increment      1: Step Time =    1.000,"PART-1-1",           788,      -6.30996,       21.9748,            0.,NA,NA,"",   101.645E-03,  -33.2267E-03,   96.0613E-03,   984.246E-06
C:/temp/dataset/8/13_20.odb,Step-1,Increment      1: Step Time =    1.000,"PART-1-1",           789,      -2.24269,       26.0758,            0.,NA,NA,"",   109.440E-03,  -38.0430E-03,   102.615E-03,   174.388E-06
C:/temp/dataset/8/13_20.odb,Step-1,Increment      1: Step Time =    1.000,"PART-1-1",           790,       12.7358,       26.1633,            0.,NA,NA,"",   165.648E-03,  -36.1774E-03,   161.649E-03,   37.8495E-06
C:/temp/dataset/8/13_20.odb,Step-1,Increment      1: Step Time =    1.000,"PART-1-1",           791,       13.9485,       24.9485,            0.,NA,NA,"",   169.960E-03,  -30.5808E-03,   167.186E-03,   50.9473E-06
C:/temp/dataset/8/13_20.odb,Step-1,Increment      1: Step Time =    1.000,"PART-1-1",           792,           15.,       26.2313,            0.,NA,NA,"",   175.775E-03,  -36.4659E-03,   171.951E-03,   35.7496E-06
C:/temp/dataset/8/13_20.odb,Step-1,Increment      1: Step Time =    1.000,"PART-1-1",           793,         -8.75,           30.,            0.,NA,NA,"",   103.332E-03,  -42.0969E-03,   94.3684E-03,   509.064E-06
C:/temp/dataset/8/13_20.odb,Step-1,Increment      1: Step Time =    1.000,"PART-1-1",           794,      -8.99948,       28.0877,            0.,NA,NA,"",   102.213E-03,  -40.3625E-03,   93.9064E-03,   370.571E-06
C:/temp/dataset/8/13_20.odb,Step-1,Increment      1: Step Time =    1.000,"PART-1-1",           795,      -11.0605,       7.76300,            0.,NA,NA,"",   97.0422E-03,  -37.3586E-03,   89.5629E-03,   1.43250E-03
C:/temp/dataset/8/13_20.odb,Step-1,Increment      1: Step Time =    1.000,"PART-1-1",           796,      -9.90520,       2.86353,            0.,NA,NA,"",   91.2056E-03,  -16.3829E-03,   89.7221E-03,   1.50125E-03
C:/temp/dataset/8/13_20.odb,Step-1,Increment      1: Step Time =    1.000,"PART-1-1",           797,      -11.2331,       2.92838,            0.,NA,NA,"",   83.7809E-03,  -15.4322E-03,   82.3473E-03,   1.84317E-03
C:/temp/dataset/8/13_20.odb,Step-1,Increment      1: Step Time =    1.000,"PART-1-1",           798,      -9.88229,       1.35774,            0.,NA,NA,"",   88.1075E-03,  -6.10226E-03,   87.8959E-03,   1.66637E-03
C:/temp/dataset/8/13_20.odb,Step-1,Increment      1: Step Time =    1.000,"PART-1-1",           799,           -5.,          6.25,            0.,NA,NA,"",   123.267E-03,  -34.0645E-03,   118.467E-03,   6.00344E-03
C:/temp/dataset/8/13_20.odb,Step-1,Increment      1: Step Time =    1.000,"PART-1-1",           800,      -5.99813,       4.86531,            0.,NA,NA,"",   120.892E-03,  -31.7365E-03,   116.652E-03,   3.84442E-03
C:/temp/dataset/8/13_20.odb,Step-1,Increment      1: Step Time =    1.000,"PART-1-1",           801,           -5.,         -6.25,            0.,NA,NA,"",   105.476E-03,   36.7757E-03,   98.8576E-03,   12.1240E-03
C:/temp/dataset/8/13_20.odb,Step-1,Increment      1: Step Time =    1.000,"PART-1-1",           802,      -7.47947,      -6.74432,            0.,NA,NA,"",   93.8871E-03,   43.7333E-03,   83.0794E-03,   4.64340E-03
C:/temp/dataset/8/13_20.odb,Step-1,Increment      1: Step Time =    1.000,"PART-1-1",           803,      -11.2689,      -15.1223,            0.,NA,NA,"",   63.1338E-03,   42.5136E-03,   46.6740E-03,   3.40422E-03
C:/temp/dataset/8/13_20.odb,Step-1,Increment      1: Step Time =    1.000,"PART-1-1",           804,          -15.,        -18.75,            0.,NA,NA,"",   56.8858E-03,   35.7162E-03,   44.2757E-03,   2.97952E-03
C:/temp/dataset/8/13_20.odb,Step-1,Increment      1: Step Time =    1.000,"PART-1-1",           805,           -5.,        -18.75,            0.,NA,NA,"",   28.6674E-03,   18.9969E-03,   21.4694E-03,   4.97506E-03
C:/temp/dataset/8/13_20.odb,Step-1,Increment      1: Step Time =    1.000,"PART-1-1",           806,          -15.,        -23.75,            0.,NA,NA,"",   34.1295E-03,   20.1428E-03,   27.5515E-03,   4.20401E-03
C:/temp/dataset/8/13_20.odb,Step-1,Increment      1: Step Time =    1.000,"PART-1-1",           807,      -13.0017,      -23.4761,            0.,NA,NA,"",   29.2620E-03,   17.2038E-03,   23.6706E-03,   4.01918E-03
C:/temp/dataset/8/13_20.odb,Step-1,Increment      1: Step Time =    1.000,"PART-1-1",           808,      -10.8880,      -24.7257,            0.,NA,NA,"",   18.3580E-03,   9.92591E-03,   15.4432E-03,   3.76015E-03
C:/temp/dataset/8/13_20.odb,Step-1,Increment      1: Step Time =    1.000,"PART-1-1",           809,      -12.0004,      -24.2920,            0.,NA,NA,"",   22.8578E-03,   13.0373E-03,   18.7752E-03,   4.03764E-03
C:/temp/dataset/8/13_20.odb,Step-1,Increment      1: Step Time =    1.000,"PART-1-1",           810,      -11.4496,      -26.3253,            0.,NA,NA,"",   13.0130E-03,   7.03091E-03,   10.9500E-03,   3.79565E-03
C:/temp/dataset/8/13_20.odb,Step-1,Increment      1: Step Time =    1.000,"PART-1-1",           811,      -4.83189,      -26.5259,            0.,NA,NA,"",   3.36397E-03,   564.057E-06,   3.31635E-03,   1.26756E-03
C:/temp/dataset/8/13_20.odb,Step-1,Increment      1: Step Time =    1.000,"PART-1-1",           812,      -2.49092,      -26.4256,            0.,NA,NA,"",   1.71712E-03,   707.716E-06,   1.56449E-03,   655.378E-06
C:/temp/dataset/8/13_20.odb,Step-1,Increment      1: Step Time =    1.000,"PART-1-1",           813,      -1.37789,      -25.1306,            0.,NA,NA,"",   1.89386E-03,   1.25894E-03,   1.41483E-03,   487.297E-06
C:/temp/dataset/8/13_20.odb,Step-1,Increment      1: Step Time =    1.000,"PART-1-1",           814,          3.75,          -30.,            0.,NA,NA,"",            0.,   1.04650E-39,   3.59486E-39,   2.11495E-03
C:/temp/dataset/8/13_20.odb,Step-1,Increment      1: Step Time =    1.000,"PART-1-1",           815,       4.16934,      -27.2851,            0.,NA,NA,"",   4.95947E-03,   2.00967E-03,   4.53405E-03,   2.19168E-03
C:/temp/dataset/8/13_20.odb,Step-1,Increment      1: Step Time =    1.000,"PART-1-1",           816,       5.43798,      -24.9943,            0.,NA,NA,"",   12.6827E-03,  -778.378E-06,   12.6588E-03,   3.59997E-03
C:/temp/dataset/8/13_20.odb,Step-1,Increment      1: Step Time =    1.000,"PART-1-1",           817,          3.75,          -20.,            0.,NA,NA,"",   20.2472E-03,  -12.5077E-03,   15.9219E-03,   3.11463E-03
C:/temp/dataset/8/13_20.odb,Step-1,Increment      1: Step Time =    1.000,"PART-1-1",           818,       3.87865,      -22.3090,            0.,NA,NA,"",   14.4068E-03,  -2.84574E-03,   14.1230E-03,   3.21785E-03
C:/temp/dataset/8/13_20.odb,Step-1,Increment      1: Step Time =    1.000,"PART-1-1",           819,       4.97861,      -23.9295,            0.,NA,NA,"",   14.6789E-03,  -1.66194E-03,   14.5845E-03,   3.84210E-03
C:/temp/dataset/8/13_20.odb,Step-1,Increment      1: Step Time =    1.000,"PART-1-1",           820,       6.87761,      -24.4106,            0.,NA,NA,"",   19.4251E-03,  -4.72345E-03,   18.8420E-03,   5.02874E-03
C:/temp/dataset/8/13_20.odb,Step-1,Increment      1: Step Time =    1.000,"PART-1-1",           821,       6.41824,      -23.3457,            0.,NA,NA,"",   23.0689E-03,  -6.10905E-03,   22.2453E-03,   5.26273E-03
C:/temp/dataset/8/13_20.odb,Step-1,Increment      1: Step Time =    1.000,"PART-1-1",           822,       11.2370,      -25.7479,            0.,NA,NA,"",   23.4809E-03,  -11.9469E-03,   20.2145E-03,   6.09409E-03
C:/temp/dataset/8/13_20.odb,Step-1,Increment      1: Step Time =    1.000,"PART-1-1",           823,       10.9706,      -24.3905,            0.,NA,NA,"",   31.3952E-03,  -15.7791E-03,   27.1419E-03,   6.30628E-03
C:/temp/dataset/8/13_20.odb,Step-1,Increment      1: Step Time =    1.000,"PART-1-1",           824,       9.19650,      -24.7169,            0.,NA,NA,"",   24.4374E-03,  -9.87987E-03,   22.3511E-03,   5.79118E-03
C:/temp/dataset/8/13_20.odb,Step-1,Increment      1: Step Time =    1.000,"PART-1-1",           825,       9.46288,      -26.0743,            0.,NA,NA,"",   17.3029E-03,  -6.66591E-03,   15.9673E-03,   5.53119E-03
C:/temp/dataset/8/13_20.odb,Step-1,Increment      1: Step Time =    1.000,"PART-1-1",           826,       7.41744,      -16.0774,            0.,NA,NA,"",   78.1467E-03,  -34.8926E-03,   69.9244E-03,   7.77959E-03
C:/temp/dataset/8/13_20.odb,Step-1,Increment      1: Step Time =    1.000,"PART-1-1",           827,            5.,        -16.25,            0.,NA,NA,"",   70.2879E-03,  -25.2416E-03,   65.5992E-03,   9.41154E-03
C:/temp/dataset/8/13_20.odb,Step-1,Increment      1: Step Time =    1.000,"PART-1-1",           828,       10.2193,      -13.8888,            0.,NA,NA,"",   95.0462E-03,  -46.4897E-03,   82.9004E-03,   6.17163E-03
C:/temp/dataset/8/13_20.odb,Step-1,Increment      1: Step Time =    1.000,"PART-1-1",           829,            5.,         -6.25,            0.,NA,NA,"",   172.484E-03,  -15.6143E-03,   171.775E-03,   19.7330E-03
C:/temp/dataset/8/13_20.odb,Step-1,Increment      1: Step Time =    1.000,"PART-1-1",           830,       7.31446,      -6.19141,            0.,NA,NA,"",   145.120E-03,  -23.2780E-03,   143.241E-03,   5.79642E-03
C:/temp/dataset/8/13_20.odb,Step-1,Increment      1: Step Time =    1.000,"PART-1-1",           831,       6.34046,      -4.95308,            0.,NA,NA,"",   163.009E-03,  -10.8044E-03,   162.651E-03,   10.5978E-03
C:/temp/dataset/8/13_20.odb,Step-1,Increment      1: Step Time =    1.000,"PART-1-1",           832,            5.,         13.75,            0.,NA,NA,"",   141.649E-03,   20.4346E-03,   140.168E-03,   2.73606E-03
C:/temp/dataset/8/13_20.odb,Step-1,Increment      1: Step Time =    1.000,"PART-1-1",           833,       7.92352,       13.7239,            0.,NA,NA,"",   149.865E-03,   23.0424E-03,   148.083E-03,   1.62388E-03
C:/temp/dataset/8/13_20.odb,Step-1,Increment      1: Step Time =    1.000,"PART-1-1",           834,       10.1519,       16.6176,            0.,NA,NA,"",   152.493E-03,   10.8661E-03,   152.106E-03,   1.39149E-03
C:/temp/dataset/8/13_20.odb,Step-1,Increment      1: Step Time =    1.000,"PART-1-1",           835,       11.3692,       15.2392,            0.,NA,NA,"",   155.952E-03,   17.1383E-03,   155.008E-03,   1.33303E-03
C:/temp/dataset/8/13_20.odb,Step-1,Increment      1: Step Time =    1.000,"PART-1-1",           836,       12.5765,       16.3836,            0.,NA,NA,"",   159.460E-03,   11.6017E-03,   159.037E-03,   1.31477E-03
C:/temp/dataset/8/13_20.odb,Step-1,Increment      1: Step Time =    1.000,"PART-1-1",           837,       11.3592,       17.7620,            0.,NA,NA,"",   155.915E-03,   5.15692E-03,   155.829E-03,   1.20094E-03
C:/temp/dataset/8/13_20.odb,Step-1,Increment      1: Step Time =    1.000,"PART-1-1",           838,           15.,       23.7188,            0.,NA,NA,"",   173.851E-03,  -24.8236E-03,   172.069E-03,   38.2174E-06
C:/temp/dataset/8/13_20.odb,Step-1,Increment      1: Step Time =    1.000,"PART-1-1",           839,       12.9788,       23.7285,            0.,NA,NA,"",   164.687E-03,  -24.8509E-03,   162.801E-03,   221.457E-06
C:/temp/dataset/8/13_20.odb,Step-1,Increment      1: Step Time =    1.000,"PART-1-1",           840,           15.,      -11.3062,            0.,NA,NA,"",   101.276E-03,  -54.3350E-03,   85.4665E-03,   2.05323E-03
C:/temp/dataset/8/13_20.odb,Step-1,Increment      1: Step Time =    1.000,"PART-1-1",           841,           15.,      -3.76875,            0.,NA,NA,"",   102.000E-03,  -18.0692E-03,   100.387E-03,   3.47439E-03
C:/temp/dataset/8/13_20.odb,Step-1,Increment      1: Step Time =    1.000,"PART-1-1",           842,       8.77849,      -14.9509,            0.,NA,NA,"",   87.9377E-03,  -41.1566E-03,   77.7120E-03,   7.13108E-03
C:/temp/dataset/8/13_20.odb,Step-1,Increment      1: Step Time =    1.000,"PART-1-1",           843,       8.51352,      -17.2876,            0.,NA,NA,"",   72.3758E-03,  -35.5015E-03,   63.0706E-03,   6.95969E-03
C:/temp/dataset/8/13_20.odb,Step-1,Increment      1: Step Time =    1.000,"PART-1-1",           844,       8.29028,      -19.4067,            0.,NA,NA,"",   57.3066E-03,  -27.6683E-03,   50.1847E-03,   6.48297E-03
C:/temp/dataset/8/13_20.odb,Step-1,Increment      1: Step Time =    1.000,"PART-1-1",           845,       8.54933,      -8.48207,            0.,NA,NA,"",   125.052E-03,  -36.2608E-03,   119.680E-03,   6.91092E-03
C:/temp/dataset/8/13_20.odb,Step-1,Increment      1: Step Time =    1.000,"PART-1-1",           846,       9.61157,      -8.87413,            0.,NA,NA,"",   118.706E-03,  -39.7831E-03,   111.841E-03,   5.83673E-03
C:/temp/dataset/8/13_20.odb,Step-1,Increment      1: Step Time =    1.000,"PART-1-1",           847,       9.01937,      -7.15061,            0.,NA,NA,"",   127.677E-03,  -31.5065E-03,   123.728E-03,   5.56988E-03
C:/temp/dataset/8/13_20.odb,Step-1,Increment      1: Step Time =    1.000,"PART-1-1",           848,           15.,       16.1812,            0.,NA,NA,"",   168.004E-03,   11.1477E-03,   167.633E-03,   1.68002E-03
C:/temp/dataset/8/13_20.odb,Step-1,Increment      1: Step Time =    1.000,"PART-1-1",           849,       8.94821,       15.2430,            0.,NA,NA,"",   150.263E-03,   17.1452E-03,   149.281E-03,   1.36371E-03
C:/temp/dataset/8/13_20.odb,Step-1,Increment      1: Step Time =    1.000,"PART-1-1",           850,       10.4061,       25.7620,            0.,NA,NA,"",   155.119E-03,  -34.5542E-03,   151.221E-03,   169.894E-06
C:/temp/dataset/8/13_20.odb,Step-1,Increment      1: Step Time =    1.000,"PART-1-1",           851,       11.8949,       24.7039,            0.,NA,NA,"",   160.687E-03,  -29.5208E-03,   157.952E-03,   188.408E-06
C:/temp/dataset/8/13_20.odb,Step-1,Increment      1: Step Time =    1.000,"PART-1-1",           852,       10.0121,   618.030E-03,            0.,NA,NA,"",   147.447E-03,   18.2081E-03,   146.318E-03,   2.92811E-03
C:/temp/dataset/8/13_20.odb,Step-1,Increment      1: Step Time =    1.000,"PART-1-1",           853,       8.14630,  -483.786E-03,            0.,NA,NA,"",   161.601E-03,   16.9576E-03,   160.709E-03,   5.16006E-03
C:/temp/dataset/8/13_20.odb,Step-1,Increment      1: Step Time =    1.000,"PART-1-1",           854,       9.59300,  -925.178E-03,            0.,NA,NA,"",   146.201E-03,   11.7376E-03,   145.729E-03,   4.35848E-03
C:/temp/dataset/8/13_20.odb,Step-1,Increment      1: Step Time =    1.000,"PART-1-1",           855,       8.91739,      -9.92907,            0.,NA,NA,"",   116.575E-03,  -40.8693E-03,   109.176E-03,   6.89526E-03
C:/temp/dataset/8/13_20.odb,Step-1,Increment      1: Step Time =    1.000,"PART-1-1",           856,       9.91925,      -10.6601,            0.,NA,NA,"",   110.561E-03,  -44.6945E-03,   101.124E-03,   6.14938E-03
C:/temp/dataset/8/13_20.odb,Step-1,Increment      1: Step Time =    1.000,"PART-1-1",           857,       10.2742,      -21.0973,            0.,NA,NA,"",   51.3932E-03,  -26.4433E-03,   44.0683E-03,   6.29876E-03
C:/temp/dataset/8/13_20.odb,Step-1,Increment      1: Step Time =    1.000,"PART-1-1",           858,       9.54806,      -22.4908,            0.,NA,NA,"",   39.7358E-03,  -18.6827E-03,   35.0698E-03,   6.38836E-03
C:/temp/dataset/8/13_20.odb,Step-1,Increment      1: Step Time =    1.000,"PART-1-1",           859,       10.5666,      -23.0191,            0.,NA,NA,"",   39.2463E-03,  -19.6669E-03,   33.9630E-03,   6.25433E-03
C:/temp/dataset/8/13_20.odb,Step-1,Increment      1: Step Time =    1.000,"PART-1-1",           860,       12.3242,       9.79639,            0.,NA,NA,"",   154.588E-03,   33.0130E-03,   151.021E-03,   1.92613E-03
C:/temp/dataset/8/13_20.odb,Step-1,Increment      1: Step Time =    1.000,"PART-1-1",           861,       7.92117,       5.59347,            0.,NA,NA,"",   161.986E-03,   32.8188E-03,   158.626E-03,   2.01234E-03
C:/temp/dataset/8/13_20.odb,Step-1,Increment      1: Step Time =    1.000,"PART-1-1",           862,       8.33004,      -21.4224,            0.,NA,NA,"",   43.1805E-03,  -19.2451E-03,   38.6547E-03,   6.61346E-03
C:/temp/dataset/8/13_20.odb,Step-1,Increment      1: Step Time =    1.000,"PART-1-1",           863,       7.29914,      -22.4807,            0.,NA,NA,"",   31.9621E-03,  -11.5735E-03,   29.7931E-03,   6.37064E-03
C:/temp/dataset/8/13_20.odb,Step-1,Increment      1: Step Time =    1.000,"PART-1-1",           864,       8.51716,      -23.5491,            0.,NA,NA,"",   29.5501E-03,  -11.6882E-03,   27.1402E-03,   6.01795E-03
C:/temp/dataset/8/13_20.odb,Step-1,Increment      1: Step Time =    1.000,"PART-1-1",           865,       6.99898,  -94.4608E-03,            0.,NA,NA,"",   175.504E-03,   19.6137E-03,   174.405E-03,   7.36140E-03
C:/temp/dataset/8/13_20.odb,Step-1,Increment      1: Step Time =    1.000,"PART-1-1",           866,       6.64294,      -1.54983,            0.,NA,NA,"",   178.228E-03,   17.5967E-03,   177.357E-03,   8.82618E-03
C:/temp/dataset/8/13_20.odb,Step-1,Increment      1: Step Time =    1.000,"PART-1-1",           867,       7.79026,      -1.93916,            0.,NA,NA,"",   160.693E-03,   11.9573E-03,   160.248E-03,   7.15537E-03
C:/temp/dataset/8/13_20.odb,Step-1,Increment      1: Step Time =    1.000,"PART-1-1",           868,       11.5427,  -143.487E-03,            0.,NA,NA,"",   134.423E-03,   12.0641E-03,   133.880E-03,   3.47925E-03
C:/temp/dataset/8/13_20.odb,Step-1,Increment      1: Step Time =    1.000,"PART-1-1",           869,       11.3126,       11.6131,            0.,NA,NA,"",   155.663E-03,   30.0523E-03,   152.735E-03,   1.45956E-03
C:/temp/dataset/8/13_20.odb,Step-1,Increment      1: Step Time =    1.000,"PART-1-1",           870,       9.33019,      -20.3146,            0.,NA,NA,"",   54.0177E-03,  -26.9368E-03,   46.8222E-03,   6.43048E-03
C:/temp/dataset/8/13_20.odb,Step-1,Increment      1: Step Time =    1.000,"PART-1-1",           871,       7.28132,      -3.66733,            0.,NA,NA,"",   157.604E-03,   922.049E-06,   157.602E-03,   7.72571E-03
C:/temp/dataset/8/13_20.odb,Step-1,Increment      1: Step Time =    1.000,"PART-1-1",           872,       5.82701,      -2.52645,            0.,NA,NA,"",   190.084E-03,   17.4483E-03,   189.281E-03,   12.8346E-03
C:/temp/dataset/8/13_20.odb,Step-1,Increment      1: Step Time =    1.000,"PART-1-1",           873,       10.7738,      -1.22826,            0.,NA,NA,"",   135.853E-03,   7.34055E-03,   135.654E-03,   3.75993E-03
C:/temp/dataset/8/13_20.odb,Step-1,Increment      1: Step Time =    1.000,"PART-1-1",           874,       5.18435,       1.03936,            0.,NA,NA,"",   195.142E-03,   17.9998E-03,   194.310E-03,   9.15788E-03
C:/temp/dataset/8/13_20.odb,Step-1,Increment      1: Step Time =    1.000,"PART-1-1",           875,      -5.71989,       2.55098,            0.,NA,NA,"",   125.022E-03,  -15.9531E-03,   124.000E-03,   4.28270E-03
C:/temp/dataset/8/13_20.odb,Step-1,Increment      1: Step Time =    1.000,"PART-1-1",           876,      -6.86925,       3.62296,            0.,NA,NA,"",   113.525E-03,  -23.4032E-03,   111.087E-03,   1.59390E-03
C:/temp/dataset/8/13_20.odb,Step-1,Increment      1: Step Time =    1.000,"PART-1-1",           877,       11.1755,       23.5651,            0.,NA,NA,"",   156.816E-03,  -24.2617E-03,   154.928E-03,   380.454E-06
C:/temp/dataset/8/13_20.odb,Step-1,Increment      1: Step Time =    1.000,"PART-1-1",           878,       10.0167,       23.9572,            0.,NA,NA,"",   152.164E-03,  -26.4258E-03,   149.851E-03,   455.238E-06
C:/temp/dataset/8/13_20.odb,Step-1,Increment      1: Step Time =    1.000,"PART-1-1",           879,       10.8015,       21.7536,            0.,NA,NA,"",   154.457E-03,  -15.4801E-03,   153.679E-03,   742.216E-06
C:/temp/dataset/8/13_20.odb,Step-1,Increment      1: Step Time =    1.000,"PART-1-1",           880,      -8.16238,      -23.1050,            0.,NA,NA,"",   18.5663E-03,   9.27497E-03,   16.0836E-03,   3.59017E-03
C:/temp/dataset/8/13_20.odb,Step-1,Increment      1: Step Time =    1.000,"PART-1-1",           881,       7.66479,      -7.61710,            0.,NA,NA,"",   134.282E-03,  -30.9051E-03,   130.677E-03,   7.89485E-03
C:/temp/dataset/8/13_20.odb,Step-1,Increment      1: Step Time =    1.000,"PART-1-1",           882,       5.33780,      -22.5391,            0.,NA,NA,"",   21.7549E-03,  -5.33804E-03,   21.0898E-03,   4.97918E-03
C:/temp/dataset/8/13_20.odb,Step-1,Increment      1: Step Time =    1.000,"PART-1-1",           883,      -9.54743,       23.1682,            0.,NA,NA,"",   100.658E-03,  -35.9584E-03,   94.0163E-03,   451.566E-06
C:/temp/dataset/8/13_20.odb,Step-1,Increment      1: Step Time =    1.000,"PART-1-1",           884,      -7.33156,       22.8900,            0.,NA,NA,"",   101.302E-03,  -34.6327E-03,   95.1979E-03,   710.662E-06
C:/temp/dataset/8/13_20.odb,Step-1,Increment      1: Step Time =    1.000,"PART-1-1",           885,      -10.1338,       27.3181,            0.,NA,NA,"",   101.314E-03,  -39.4739E-03,   93.3080E-03,   334.121E-06
C:/temp/dataset/8/13_20.odb,Step-1,Increment      1: Step Time =    1.000,"PART-1-1",           886,      -10.9921,       25.8314,            0.,NA,NA,"",   100.544E-03,  -38.1625E-03,   93.0198E-03,   314.479E-06
C:/temp/dataset/8/13_20.odb,Step-1,Increment      1: Step Time =    1.000,"PART-1-1",           887,      -9.34891,      -26.6495,            0.,NA,NA,"",   8.39582E-03,   3.55629E-03,   7.60543E-03,   3.04110E-03
C:/temp/dataset/8/13_20.odb,Step-1,Increment      1: Step Time =    1.000,"PART-1-1",           888,      -9.91282,      -25.5457,            0.,NA,NA,"",   13.1109E-03,   6.45111E-03,   11.4140E-03,   3.45494E-03
C:/temp/dataset/8/13_20.odb,Step-1,Increment      1: Step Time =    1.000,"PART-1-1",           889,       7.84920,      -9.48897,            0.,NA,NA,"",   122.533E-03,  -36.9105E-03,   116.842E-03,   8.19123E-03
C:/temp/dataset/8/13_20.odb,Step-1,Increment      1: Step Time =    1.000,"PART-1-1",           890,       10.1788,       14.4028,            0.,NA,NA,"",   153.606E-03,   20.8446E-03,   152.186E-03,   1.39237E-03
C:/temp/dataset/8/13_20.odb,Step-1,Increment      1: Step Time =    1.000,"PART-1-1",           891,       11.2326,       12.9154,            0.,NA,NA,"",   155.739E-03,   26.2053E-03,   153.519E-03,   1.41472E-03
C:/temp/dataset/8/13_20.odb,Step-1,Increment      1: Step Time =    1.000,"PART-1-1",           892,       9.23404,       11.5815,            0.,NA,NA,"",   154.463E-03,   30.4499E-03,   151.432E-03,   1.38105E-03
C:/temp/dataset/8/13_20.odb,Step-1,Increment      1: Step Time =    1.000,"PART-1-1",           893,   112.429E-03,       26.3323,            0.,NA,NA,"",   115.690E-03,  -38.5023E-03,   109.095E-03,   236.314E-06
C:/temp/dataset/8/13_20.odb,Step-1,Increment      1: Step Time =    1.000,"PART-1-1",           894,       9.25881,       26.1684,            0.,NA,NA,"",   150.545E-03,  -36.5342E-03,   146.045E-03,   238.077E-06
C:/temp/dataset/8/13_20.odb,Step-1,Increment      1: Step Time =    1.000,"PART-1-1",           895,       7.09344,       26.4940,            0.,NA,NA,"",   141.633E-03,  -38.2698E-03,   136.364E-03,   304.213E-06
C:/temp/dataset/8/13_20.odb,Step-1,Increment      1: Step Time =    1.000,"PART-1-1",           896,       7.75521,       25.3319,            0.,NA,NA,"",   143.445E-03,  -33.3108E-03,   139.524E-03,   409.811E-06
C:/temp/dataset/8/13_20.odb,Step-1,Increment      1: Step Time =    1.000,"PART-1-1",           897,      -7.14155,      -26.6171,            0.,NA,NA,"",   5.74583E-03,   1.57016E-03,   5.52713E-03,   2.18981E-03
C:/temp/dataset/8/13_20.odb,Step-1,Increment      1: Step Time =    1.000,"PART-1-1",           898,      -8.08000,      -25.5235,            0.,NA,NA,"",   9.91325E-03,   3.98850E-03,   9.07549E-03,   2.79439E-03
C:/temp/dataset/8/13_20.odb,Step-1,Increment      1: Step Time =    1.000,"PART-1-1",           899,      -8.48057,      -5.93862,            0.,NA,NA,"",   90.6192E-03,   41.8006E-03,   80.4023E-03,   3.52297E-03
C:/temp/dataset/8/13_20.odb,Step-1,Increment      1: Step Time =    1.000,"PART-1-1",           900,      -8.12610,       27.0862,            0.,NA,NA,"",   102.249E-03,  -39.3940E-03,   94.3554E-03,   358.720E-06
C:/temp/dataset/8/13_20.odb,Step-1,Increment      1: Step Time =    1.000,"PART-1-1",           901,      -9.26041,       26.3166,            0.,NA,NA,"",   101.307E-03,  -38.5062E-03,   93.7034E-03,   367.758E-06
C:/temp/dataset/8/13_20.odb,Step-1,Increment      1: Step Time =    1.000,"PART-1-1",           902,      -11.3442,       15.0048,            0.,NA,NA,"",   102.013E-03,  -40.9632E-03,   93.4278E-03,   1.29049E-03
C:/temp/dataset/8/13_20.odb,Step-1,Increment      1: Step Time =    1.000,"PART-1-1",           903,      -11.3385,       12.5628,            0.,NA,NA,"",   101.509E-03,  -42.1424E-03,   92.3474E-03,   1.37449E-03
C:/temp/dataset/8/13_20.odb,Step-1,Increment      1: Step Time =    1.000,"PART-1-1",           904,      -8.76514,       3.13980,            0.,NA,NA,"",   99.0510E-03,  -19.2261E-03,   97.1671E-03,   1.14088E-03
C:/temp/dataset/8/13_20.odb,Step-1,Increment      1: Step Time =    1.000,"PART-1-1",           905,      -10.2716,  -495.292E-03,            0.,NA,NA,"",   82.7968E-03,   7.94598E-03,   82.4147E-03,   2.37483E-03
C:/temp/dataset/8/13_20.odb,Step-1,Increment      1: Step Time =    1.000,"PART-1-1",           906,      -8.74135,  -976.005E-03,            0.,NA,NA,"",   92.1889E-03,   9.77630E-03,   91.6690E-03,   2.38204E-03
C:/temp/dataset/8/13_20.odb,Step-1,Increment      1: Step Time =    1.000,"PART-1-1",           907,      -12.2685,      -22.3380,            0.,NA,NA,"",   32.5108E-03,   19.3578E-03,   26.1194E-03,   3.90086E-03
C:/temp/dataset/8/13_20.odb,Step-1,Increment      1: Step Time =    1.000,"PART-1-1",           908,  -128.822E-03,      -26.2855,            0.,NA,NA,"",   2.10345E-03,   1.60189E-03,   1.36324E-03,   701.109E-06
C:/temp/dataset/8/13_20.odb,Step-1,Increment      1: Step Time =    1.000,"PART-1-1",           909,       9.08441,      -12.4818,            0.,NA,NA,"",   102.689E-03,  -43.8574E-03,   92.8524E-03,   7.07896E-03
C:/temp/dataset/8/13_20.odb,Step-1,Increment      1: Step Time =    1.000,"PART-1-1",           910,      -10.0834,       11.4216,            0.,NA,NA,"",   103.616E-03,  -42.3603E-03,   94.5619E-03,   1.41428E-03
C:/temp/dataset/8/13_20.odb,Step-1,Increment      1: Step Time =    1.000,"PART-1-1",           911,      -11.2862,       10.1474,            0.,NA,NA,"",   99.8081E-03,  -41.2430E-03,   90.8882E-03,   1.44763E-03
C:/temp/dataset/8/13_20.odb,Step-1,Increment      1: Step Time =    1.000,"PART-1-1",           912,      -6.58594,       1.63223,            0.,NA,NA,"",   115.268E-03,  -10.5057E-03,   114.788E-03,   2.66672E-03
C:/temp/dataset/8/13_20.odb,Step-1,Increment      1: Step Time =    1.000,"PART-1-1",           913,      -11.0544,       22.2894,            0.,NA,NA,"",   100.378E-03,  -36.2547E-03,   93.6016E-03,   431.960E-06
C:/temp/dataset/8/13_20.odb,Step-1,Increment      1: Step Time =    1.000,"PART-1-1",           914,      -10.5857,       24.6765,            0.,NA,NA,"",   100.443E-03,  -37.2026E-03,   93.2994E-03,   339.603E-06
C:/temp/dataset/8/13_20.odb,Step-1,Increment      1: Step Time =    1.000,"PART-1-1",           915,      -9.16144,      -24.4379,            0.,NA,NA,"",   15.7525E-03,   7.75688E-03,   13.7103E-03,   3.45908E-03
C:/temp/dataset/8/13_20.odb,Step-1,Increment      1: Step Time =    1.000,"PART-1-1",           916,       10.2685,      -27.1971,            0.,NA,NA,"",   12.6868E-03,  -5.37859E-03,   11.4903E-03,   5.49918E-03
C:/temp/dataset/8/13_20.odb,Step-1,Increment      1: Step Time =    1.000,"PART-1-1",           917,       11.0541,      -20.1271,            0.,NA,NA,"",   60.0189E-03,  -32.4442E-03,   50.4941E-03,   6.08753E-03
C:/temp/dataset/8/13_20.odb,Step-1,Increment      1: Step Time =    1.000,"PART-1-1",           918,       9.15406,       12.8837,            0.,NA,NA,"",   153.076E-03,   26.4699E-03,   150.770E-03,   1.42107E-03
C:/temp/dataset/8/13_20.odb,Step-1,Increment      1: Step Time =    1.000,"PART-1-1",           919,       12.2594,       22.5896,            0.,NA,NA,"",   160.831E-03,  -19.3870E-03,   159.659E-03,   414.215E-06
C:/temp/dataset/8/13_20.odb,Step-1,Increment      1: Step Time =    1.000,"PART-1-1",           920,       11.4390,       20.5291,            0.,NA,NA,"",   156.611E-03,  -9.09724E-03,   156.346E-03,   834.665E-06
C:/temp/dataset/8/13_20.odb,Step-1,Increment      1: Step Time =    1.000,"PART-1-1",           921,       9.26936,      -2.41689,            0.,NA,NA,"",   143.162E-03,   3.68018E-03,   143.114E-03,   4.82266E-03
C:/temp/dataset/8/13_20.odb,Step-1,Increment      1: Step Time =    1.000,"PART-1-1",           922,       5.58568,  -453.309E-03,            0.,NA,NA,"",   194.503E-03,   20.0018E-03,   193.472E-03,   9.19301E-03
C:/temp/dataset/8/13_20.odb,Step-1,Increment      1: Step Time =    1.000,"PART-1-1",           923,      -8.35205,   877.030E-03,            0.,NA,NA,"",   98.0215E-03,  -4.17548E-03,   97.9325E-03,   1.77527E-03
C:/temp/dataset/8/13_20.odb,Step-1,Increment      1: Step Time =    1.000,"PART-1-1",           924,      -7.85594,       2.30266,            0.,NA,NA,"",   104.241E-03,  -14.3949E-03,   103.242E-03,   955.903E-06
C:/temp/dataset/8/13_20.odb,Step-1,Increment      1: Step Time =    1.000,"PART-1-1",           925,      -6.37117,       23.7044,            0.,NA,NA,"",   101.947E-03,  -34.9753E-03,   95.7601E-03,   532.959E-06
C:/temp/dataset/8/13_20.odb,Step-1,Increment      1: Step Time =    1.000,"PART-1-1",           926,       8.86937,       24.3636,            0.,NA,NA,"",   147.552E-03,  -28.6941E-03,   144.735E-03,   468.535E-06
C:/temp/dataset/8/13_20.odb,Step-1,Increment      1: Step Time =    1.000,"PART-1-1",           927,       8.44688,      -11.4338,            0.,NA,NA,"",   109.334E-03,  -41.4874E-03,   101.157E-03,   7.54967E-03
