ODB Name,Step,Frame,Part Instance Name,    êﬂì_ÉâÉxÉã,X,Y,Z,Section Name,Material Name,Section Point,   U-Magnitude,          U-U1,          U-U2,       S-Mises
C:/temp/dataset/8/16_32.odb,Step-1,Increment      1: Step Time =    1.000,"PART-1-1",             1,            5.,           -5.,            0.,NA,NA,"",   43.7585E-03,  -36.1282E-03,  -24.6892E-03,   1.74375E-03
C:/temp/dataset/8/16_32.odb,Step-1,Increment      1: Step Time =    1.000,"PART-1-1",             2,            0.,           -5.,            0.,NA,NA,"",   38.0581E-03,  -35.1056E-03,  -14.6976E-03,   469.756E-06
C:/temp/dataset/8/16_32.odb,Step-1,Increment      1: Step Time =    1.000,"PART-1-1",             3,            5.,         -12.5,            0.,NA,NA,"",   49.4257E-03,  -28.6429E-03,  -40.2800E-03,   2.71827E-03
C:/temp/dataset/8/16_32.odb,Step-1,Increment      1: Step Time =    1.000,"PART-1-1",             4,            5.,          -20.,            0.,NA,NA,"",   87.2220E-03,  -1.58910E-03,  -87.2076E-03,   18.4510E-03
C:/temp/dataset/8/16_32.odb,Step-1,Increment      1: Step Time =    1.000,"PART-1-1",             5,            0.,          -20.,            0.,NA,NA,"",   106.814E-03,   22.7245E-03,  -104.369E-03,   16.6213E-03
C:/temp/dataset/8/16_32.odb,Step-1,Increment      1: Step Time =    1.000,"PART-1-1",             6,           -5.,          -20.,            0.,NA,NA,"",   6.92871E-03,  -4.54138E-03,  -5.23287E-03,   4.62375E-03
C:/temp/dataset/8/16_32.odb,Step-1,Increment      1: Step Time =    1.000,"PART-1-1",             7,           -5.,           -5.,            0.,NA,NA,"",   31.6577E-03,  -31.0675E-03,  -6.08449E-03,   1.98438E-03
C:/temp/dataset/8/16_32.odb,Step-1,Increment      1: Step Time =    1.000,"PART-1-1",             8,            5.,           20.,            0.,NA,NA,"",   26.7581E-03,  -18.1796E-03,  -19.6341E-03,   119.332E-06
C:/temp/dataset/8/16_32.odb,Step-1,Increment      1: Step Time =    1.000,"PART-1-1",             9,            0.,           20.,            0.,NA,NA,"",   23.9047E-03,  -18.4025E-03,  -15.2572E-03,   21.9387E-06
C:/temp/dataset/8/16_32.odb,Step-1,Increment      1: Step Time =    1.000,"PART-1-1",            10,            5.,          12.5,            0.,NA,NA,"",   30.6349E-03,  -23.1578E-03,  -20.0553E-03,   40.5925E-06
C:/temp/dataset/8/16_32.odb,Step-1,Increment      1: Step Time =    1.000,"PART-1-1",            11,            5.,            5.,            0.,NA,NA,"",   33.7760E-03,  -27.0579E-03,  -20.2161E-03,   536.174E-06
C:/temp/dataset/8/16_32.odb,Step-1,Increment      1: Step Time =    1.000,"PART-1-1",            12,            0.,            5.,            0.,NA,NA,"",   28.9136E-03,  -25.3991E-03,  -13.8161E-03,   36.2012E-06
C:/temp/dataset/8/16_32.odb,Step-1,Increment      1: Step Time =    1.000,"PART-1-1",            13,           -5.,            5.,            0.,NA,NA,"",   28.1275E-03,  -26.7479E-03,  -8.70099E-03,   365.952E-06
C:/temp/dataset/8/16_32.odb,Step-1,Increment      1: Step Time =    1.000,"PART-1-1",            14,           -5.,           20.,            0.,NA,NA,"",   21.3432E-03,  -18.4030E-03,  -10.8102E-03,   116.987E-06
C:/temp/dataset/8/16_32.odb,Step-1,Increment      1: Step Time =    1.000,"PART-1-1",            15,           15.,           30.,            0.,NA,NA,"",   29.1189E-03,  -10.4129E-03,  -27.1934E-03,   1.12680E-06
C:/temp/dataset/8/16_32.odb,Step-1,Increment      1: Step Time =    1.000,"PART-1-1",            16,           7.5,           30.,            0.,NA,NA,"",   23.7985E-03,  -10.3328E-03,  -21.4384E-03,   29.1245E-06
C:/temp/dataset/8/16_32.odb,Step-1,Increment      1: Step Time =    1.000,"PART-1-1",            17,            0.,           30.,            0.,NA,NA,"",   18.3708E-03,  -10.1726E-03,  -15.2972E-03,   2.38705E-06
C:/temp/dataset/8/16_32.odb,Step-1,Increment      1: Step Time =    1.000,"PART-1-1",            18,          -15.,           30.,            0.,NA,NA,"",   10.8686E-03,  -10.4053E-03,  -3.13951E-03,   1.35393E-06
C:/temp/dataset/8/16_32.odb,Step-1,Increment      1: Step Time =    1.000,"PART-1-1",            19,          -15.,          -30.,            0.,NA,NA,"",            0.,  -1.12656E-39,  -1.73369E-39,   3.32596E-03
C:/temp/dataset/8/16_32.odb,Step-1,Increment      1: Step Time =    1.000,"PART-1-1",            20,           15.,          -30.,            0.,NA,NA,"",            0.,   2.65180E-39,  -3.95333E-39,   7.78863E-03
C:/temp/dataset/8/16_32.odb,Step-1,Increment      1: Step Time =    1.000,"PART-1-1",            21,           15.,      -20.1000,            0.,NA,NA,"",   6.14337E-03,   6.01788E-03,   1.23533E-03,   198.179E-06
C:/temp/dataset/8/16_32.odb,Step-1,Increment      1: Step Time =    1.000,"PART-1-1",            22,           15.,      -10.0500,            0.,NA,NA,"",   37.1999E-03,  -33.5809E-03,  -16.0049E-03,   2.01381E-03
C:/temp/dataset/8/16_32.odb,Step-1,Increment      1: Step Time =    1.000,"PART-1-1",            23,           15.,            0.,            0.,NA,NA,"",   42.1675E-03,  -32.7595E-03,  -26.5502E-03,   346.671E-06
C:/temp/dataset/8/16_32.odb,Step-1,Increment      1: Step Time =    1.000,"PART-1-1",            24,           15.,       9.90000,            0.,NA,NA,"",   36.6655E-03,  -24.9318E-03,  -26.8843E-03,   26.0573E-06
C:/temp/dataset/8/16_32.odb,Step-1,Increment      1: Step Time =    1.000,"PART-1-1",            25,           15.,       19.9500,            0.,NA,NA,"",   32.5159E-03,  -18.0775E-03,  -27.0275E-03,   37.9254E-06
C:/temp/dataset/8/16_32.odb,Step-1,Increment      1: Step Time =    1.000,"PART-1-1",            26,           2.5,           -5.,            0.,NA,NA,"",   40.5920E-03,  -36.0157E-03,  -18.7238E-03,   425.022E-06
C:/temp/dataset/8/16_32.odb,Step-1,Increment      1: Step Time =    1.000,"PART-1-1",            27,            5.,          -10.,            0.,NA,NA,"",   47.9327E-03,  -33.0510E-03,  -34.7157E-03,   2.27956E-03
C:/temp/dataset/8/16_32.odb,Step-1,Increment      1: Step Time =    1.000,"PART-1-1",            28,            5.,          -7.5,            0.,NA,NA,"",   46.3599E-03,  -35.4560E-03,  -29.8682E-03,   2.19820E-03
C:/temp/dataset/8/16_32.odb,Step-1,Increment      1: Step Time =    1.000,"PART-1-1",            29,            5.,         -17.5,            0.,NA,NA,"",   56.3890E-03,  -14.9119E-03,  -54.3815E-03,   6.18560E-03
C:/temp/dataset/8/16_32.odb,Step-1,Increment      1: Step Time =    1.000,"PART-1-1",            30,            5.,          -15.,            0.,NA,NA,"",   52.2321E-03,  -22.0752E-03,  -47.3379E-03,   3.22604E-03
C:/temp/dataset/8/16_32.odb,Step-1,Increment      1: Step Time =    1.000,"PART-1-1",            31,           2.5,          -20.,            0.,NA,NA,"",   157.532E-03,   4.57138E-03,  -157.465E-03,   35.3192E-03
C:/temp/dataset/8/16_32.odb,Step-1,Increment      1: Step Time =    1.000,"PART-1-1",            32,          -2.5,          -20.,            0.,NA,NA,"",   31.9044E-03,   8.51818E-03,  -30.7462E-03,   6.97206E-03
C:/temp/dataset/8/16_32.odb,Step-1,Increment      1: Step Time =    1.000,"PART-1-1",            33,           -5.,          -7.5,            0.,NA,NA,"",   26.5671E-03,  -26.4130E-03,  -2.85698E-03,   904.973E-06
C:/temp/dataset/8/16_32.odb,Step-1,Increment      1: Step Time =    1.000,"PART-1-1",            34,           -5.,          -10.,            0.,NA,NA,"",   22.8342E-03,  -22.7736E-03,  -1.66324E-03,   412.493E-06
C:/temp/dataset/8/16_32.odb,Step-1,Increment      1: Step Time =    1.000,"PART-1-1",            35,           -5.,         -12.5,            0.,NA,NA,"",   19.2104E-03,  -19.1839E-03,  -1.00861E-03,   134.373E-06
C:/temp/dataset/8/16_32.odb,Step-1,Increment      1: Step Time =    1.000,"PART-1-1",            36,           -5.,          -15.,            0.,NA,NA,"",   15.5379E-03,  -15.5063E-03,  -990.488E-06,   191.351E-06
C:/temp/dataset/8/16_32.odb,Step-1,Increment      1: Step Time =    1.000,"PART-1-1",            37,           -5.,         -17.5,            0.,NA,NA,"",   11.6241E-03,  -11.5217E-03,  -1.53944E-03,   1.36832E-03
C:/temp/dataset/8/16_32.odb,Step-1,Increment      1: Step Time =    1.000,"PART-1-1",            38,          -2.5,           -5.,            0.,NA,NA,"",   35.5789E-03,  -33.8921E-03,  -10.8253E-03,   958.513E-06
C:/temp/dataset/8/16_32.odb,Step-1,Increment      1: Step Time =    1.000,"PART-1-1",            39,           2.5,           20.,            0.,NA,NA,"",   25.2911E-03,  -18.3442E-03,  -17.4107E-03,   51.1901E-06
C:/temp/dataset/8/16_32.odb,Step-1,Increment      1: Step Time =    1.000,"PART-1-1",            40,            5.,           15.,            0.,NA,NA,"",   29.3334E-03,  -21.4988E-03,  -19.9562E-03,   46.5554E-06
C:/temp/dataset/8/16_32.odb,Step-1,Increment      1: Step Time =    1.000,"PART-1-1",            41,            5.,          17.5,            0.,NA,NA,"",   28.0483E-03,  -19.8211E-03,  -19.8452E-03,   73.6389E-06
C:/temp/dataset/8/16_32.odb,Step-1,Increment      1: Step Time =    1.000,"PART-1-1",            42,            5.,           7.5,            0.,NA,NA,"",   33.1749E-03,  -26.2559E-03,  -20.2781E-03,   121.509E-06
C:/temp/dataset/8/16_32.odb,Step-1,Increment      1: Step Time =    1.000,"PART-1-1",            43,            5.,           10.,            0.,NA,NA,"",   31.9326E-03,  -24.7735E-03,  -20.1486E-03,   49.5793E-06
C:/temp/dataset/8/16_32.odb,Step-1,Increment      1: Step Time =    1.000,"PART-1-1",            44,           2.5,            5.,            0.,NA,NA,"",   30.9420E-03,  -25.7499E-03,  -17.1567E-03,   368.560E-06
C:/temp/dataset/8/16_32.odb,Step-1,Increment      1: Step Time =    1.000,"PART-1-1",            45,          -2.5,            5.,            0.,NA,NA,"",   27.8893E-03,  -25.7172E-03,  -10.7907E-03,   295.409E-06
C:/temp/dataset/8/16_32.odb,Step-1,Increment      1: Step Time =    1.000,"PART-1-1",            46,           -5.,          17.5,            0.,NA,NA,"",   22.7504E-03,  -20.1903E-03,  -10.4849E-03,   129.163E-06
C:/temp/dataset/8/16_32.odb,Step-1,Increment      1: Step Time =    1.000,"PART-1-1",            47,           -5.,           15.,            0.,NA,NA,"",   24.1596E-03,  -21.8988E-03,  -10.2044E-03,   132.915E-06
C:/temp/dataset/8/16_32.odb,Step-1,Increment      1: Step Time =    1.000,"PART-1-1",            48,           -5.,          12.5,            0.,NA,NA,"",   25.4808E-03,  -23.4851E-03,  -9.88550E-03,   149.524E-06
C:/temp/dataset/8/16_32.odb,Step-1,Increment      1: Step Time =    1.000,"PART-1-1",            49,           -5.,           10.,            0.,NA,NA,"",   26.6659E-03,  -24.9076E-03,  -9.52272E-03,   174.061E-06
C:/temp/dataset/8/16_32.odb,Step-1,Increment      1: Step Time =    1.000,"PART-1-1",            50,           -5.,           7.5,            0.,NA,NA,"",   27.6503E-03,  -26.1051E-03,  -9.11414E-03,   184.002E-06
C:/temp/dataset/8/16_32.odb,Step-1,Increment      1: Step Time =    1.000,"PART-1-1",            51,          -2.5,           20.,            0.,NA,NA,"",   22.6122E-03,  -18.4363E-03,  -13.0925E-03,   21.3475E-06
C:/temp/dataset/8/16_32.odb,Step-1,Increment      1: Step Time =    1.000,"PART-1-1",            52,          12.5,           30.,            0.,NA,NA,"",   27.3381E-03,  -10.4109E-03,  -25.2781E-03,   4.12751E-06
C:/temp/dataset/8/16_32.odb,Step-1,Increment      1: Step Time =    1.000,"PART-1-1",            53,           10.,           30.,            0.,NA,NA,"",   25.5746E-03,  -10.3870E-03,  -23.3703E-03,   17.1634E-06
C:/temp/dataset/8/16_32.odb,Step-1,Increment      1: Step Time =    1.000,"PART-1-1",            54,            5.,           30.,            0.,NA,NA,"",   21.9914E-03,  -10.2610E-03,  -19.4507E-03,   30.7579E-06
C:/temp/dataset/8/16_32.odb,Step-1,Increment      1: Step Time =    1.000,"PART-1-1",            55,           2.5,           30.,            0.,NA,NA,"",   20.1671E-03,  -10.1993E-03,  -17.3979E-03,   20.3831E-06
C:/temp/dataset/8/16_32.odb,Step-1,Increment      1: Step Time =    1.000,"PART-1-1",            56,          -2.5,           30.,            0.,NA,NA,"",   16.6652E-03,  -10.1929E-03,  -13.1845E-03,   18.5914E-06
C:/temp/dataset/8/16_32.odb,Step-1,Increment      1: Step Time =    1.000,"PART-1-1",            57,           -5.,           30.,            0.,NA,NA,"",   15.1092E-03,  -10.2520E-03,  -11.0989E-03,   31.9267E-06
C:/temp/dataset/8/16_32.odb,Step-1,Increment      1: Step Time =    1.000,"PART-1-1",            58,          -7.5,           30.,            0.,NA,NA,"",   13.7413E-03,  -10.3260E-03,  -9.06624E-03,   31.6431E-06
C:/temp/dataset/8/16_32.odb,Step-1,Increment      1: Step Time =    1.000,"PART-1-1",            59,          -10.,           30.,            0.,NA,NA,"",   12.5694E-03,  -10.3834E-03,  -7.08348E-03,   18.3451E-06
C:/temp/dataset/8/16_32.odb,Step-1,Increment      1: Step Time =    1.000,"PART-1-1",            60,         -12.5,           30.,            0.,NA,NA,"",   11.5966E-03,  -10.4057E-03,  -5.11871E-03,   3.63235E-06
C:/temp/dataset/8/16_32.odb,Step-1,Increment      1: Step Time =    1.000,"PART-1-1",            61,          -15.,          27.5,            0.,NA,NA,"",   12.7887E-03,  -12.3974E-03,  -3.13929E-03,   3.58703E-06
C:/temp/dataset/8/16_32.odb,Step-1,Increment      1: Step Time =    1.000,"PART-1-1",            62,          -15.,           25.,            0.,NA,NA,"",   14.7497E-03,  -14.4065E-03,  -3.16359E-03,   21.2595E-06
C:/temp/dataset/8/16_32.odb,Step-1,Increment      1: Step Time =    1.000,"PART-1-1",            63,          -15.,          22.5,            0.,NA,NA,"",   16.7206E-03,  -16.4049E-03,  -3.23366E-03,   44.8439E-06
C:/temp/dataset/8/16_32.odb,Step-1,Increment      1: Step Time =    1.000,"PART-1-1",            64,          -15.,           20.,            0.,NA,NA,"",   18.6577E-03,  -18.3524E-03,  -3.36150E-03,   69.2419E-06
C:/temp/dataset/8/16_32.odb,Step-1,Increment      1: Step Time =    1.000,"PART-1-1",            65,          -15.,          17.5,            0.,NA,NA,"",   20.5149E-03,  -20.2070E-03,  -3.54138E-03,   90.1391E-06
C:/temp/dataset/8/16_32.odb,Step-1,Increment      1: Step Time =    1.000,"PART-1-1",            66,          -15.,           15.,            0.,NA,NA,"",   22.2599E-03,  -21.9398E-03,  -3.76156E-03,   105.313E-06
C:/temp/dataset/8/16_32.odb,Step-1,Increment      1: Step Time =    1.000,"PART-1-1",            67,          -15.,          12.5,            0.,NA,NA,"",   23.8750E-03,  -23.5357E-03,  -4.01090E-03,   116.569E-06
C:/temp/dataset/8/16_32.odb,Step-1,Increment      1: Step Time =    1.000,"PART-1-1",            68,          -15.,           10.,            0.,NA,NA,"",   25.3558E-03,  -24.9915E-03,  -4.28296E-03,   125.582E-06
C:/temp/dataset/8/16_32.odb,Step-1,Increment      1: Step Time =    1.000,"PART-1-1",            69,          -15.,           7.5,            0.,NA,NA,"",   26.7127E-03,  -26.3171E-03,  -4.58007E-03,   144.654E-06
C:/temp/dataset/8/16_32.odb,Step-1,Increment      1: Step Time =    1.000,"PART-1-1",            70,          -15.,            5.,            0.,NA,NA,"",   27.9657E-03,  -27.5267E-03,  -4.93543E-03,   189.726E-06
C:/temp/dataset/8/16_32.odb,Step-1,Increment      1: Step Time =    1.000,"PART-1-1",            71,          -15.,           2.5,            0.,NA,NA,"",   29.1045E-03,  -28.5886E-03,  -5.45537E-03,   286.897E-06
C:/temp/dataset/8/16_32.odb,Step-1,Increment      1: Step Time =    1.000,"PART-1-1",            72,          -15.,            0.,            0.,NA,NA,"",   29.9919E-03,  -29.3326E-03,  -6.25404E-03,   433.949E-06
C:/temp/dataset/8/16_32.odb,Step-1,Increment      1: Step Time =    1.000,"PART-1-1",            73,          -15.,          -2.5,            0.,NA,NA,"",   30.3252E-03,  -29.4097E-03,  -7.39499E-03,   544.882E-06
C:/temp/dataset/8/16_32.odb,Step-1,Increment      1: Step Time =    1.000,"PART-1-1",            74,          -15.,           -5.,            0.,NA,NA,"",   29.7808E-03,  -28.4897E-03,  -8.67373E-03,   565.801E-06
C:/temp/dataset/8/16_32.odb,Step-1,Increment      1: Step Time =    1.000,"PART-1-1",            75,          -15.,          -7.5,            0.,NA,NA,"",   28.1575E-03,  -26.4194E-03,  -9.73966E-03,   364.960E-06
C:/temp/dataset/8/16_32.odb,Step-1,Increment      1: Step Time =    1.000,"PART-1-1",            76,          -15.,          -10.,            0.,NA,NA,"",   25.6257E-03,  -23.4824E-03,  -10.2592E-03,   67.1938E-06
C:/temp/dataset/8/16_32.odb,Step-1,Increment      1: Step Time =    1.000,"PART-1-1",            77,          -15.,         -12.5,            0.,NA,NA,"",   22.4812E-03,  -20.1359E-03,  -9.99764E-03,   299.470E-06
C:/temp/dataset/8/16_32.odb,Step-1,Increment      1: Step Time =    1.000,"PART-1-1",            78,          -15.,          -15.,            0.,NA,NA,"",   19.1811E-03,  -16.9693E-03,  -8.94187E-03,   628.906E-06
C:/temp/dataset/8/16_32.odb,Step-1,Increment      1: Step Time =    1.000,"PART-1-1",            79,          -15.,         -17.5,            0.,NA,NA,"",   16.2694E-03,  -14.5644E-03,  -7.25055E-03,   816.417E-06
C:/temp/dataset/8/16_32.odb,Step-1,Increment      1: Step Time =    1.000,"PART-1-1",            80,          -15.,          -20.,            0.,NA,NA,"",   14.3445E-03,  -13.2716E-03,  -5.44328E-03,   683.716E-06
C:/temp/dataset/8/16_32.odb,Step-1,Increment      1: Step Time =    1.000,"PART-1-1",            81,          -15.,         -22.5,            0.,NA,NA,"",   13.3660E-03,  -12.6502E-03,  -4.31538E-03,   285.712E-06
C:/temp/dataset/8/16_32.odb,Step-1,Increment      1: Step Time =    1.000,"PART-1-1",            82,          -15.,          -25.,            0.,NA,NA,"",   11.8743E-03,  -11.1158E-03,  -4.17586E-03,   160.396E-06
C:/temp/dataset/8/16_32.odb,Step-1,Increment      1: Step Time =    1.000,"PART-1-1",            83,          -15.,         -27.5,            0.,NA,NA,"",   8.09966E-03,  -7.07253E-03,  -3.94763E-03,   765.590E-06
C:/temp/dataset/8/16_32.odb,Step-1,Increment      1: Step Time =    1.000,"PART-1-1",            84,         -12.5,          -30.,            0.,NA,NA,"",            0.,  -2.25284E-39,  -392.631E-42,   1.83106E-03
C:/temp/dataset/8/16_32.odb,Step-1,Increment      1: Step Time =    1.000,"PART-1-1",            85,          -10.,          -30.,            0.,NA,NA,"",            0.,  -2.63033E-39,  -2.66664E-39,   2.65847E-03
C:/temp/dataset/8/16_32.odb,Step-1,Increment      1: Step Time =    1.000,"PART-1-1",            86,          -7.5,          -30.,            0.,NA,NA,"",            0.,  -2.92062E-39,  -1.57483E-39,   3.89024E-03
C:/temp/dataset/8/16_32.odb,Step-1,Increment      1: Step Time =    1.000,"PART-1-1",            87,           -5.,          -30.,            0.,NA,NA,"",            0.,  -6.10196E-39,  -7.88234E-39,   5.77579E-03
C:/temp/dataset/8/16_32.odb,Step-1,Increment      1: Step Time =    1.000,"PART-1-1",            88,          -2.5,          -30.,            0.,NA,NA,"",            0.,  -7.80992E-39,  -13.2717E-39,   7.87971E-03
C:/temp/dataset/8/16_32.odb,Step-1,Increment      1: Step Time =    1.000,"PART-1-1",            89,            0.,          -30.,            0.,NA,NA,"",            0.,   188.396E-42,  -14.8355E-39,   9.40068E-03
C:/temp/dataset/8/16_32.odb,Step-1,Increment      1: Step Time =    1.000,"PART-1-1",            90,           2.5,          -30.,            0.,NA,NA,"",            0.,  -4.99088E-39,  -18.1543E-39,   9.91226E-03
C:/temp/dataset/8/16_32.odb,Step-1,Increment      1: Step Time =    1.000,"PART-1-1",            91,            5.,          -30.,            0.,NA,NA,"",            0.,   8.19071E-39,  -21.0023E-39,   9.88713E-03
C:/temp/dataset/8/16_32.odb,Step-1,Increment      1: Step Time =    1.000,"PART-1-1",            92,           7.5,          -30.,            0.,NA,NA,"",            0.,   2.66322E-39,  -8.74995E-39,   8.61038E-03
C:/temp/dataset/8/16_32.odb,Step-1,Increment      1: Step Time =    1.000,"PART-1-1",            93,           10.,          -30.,            0.,NA,NA,"",            0.,   7.38490E-39,  -9.87110E-39,   7.07857E-03
C:/temp/dataset/8/16_32.odb,Step-1,Increment      1: Step Time =    1.000,"PART-1-1",            94,          12.5,          -30.,            0.,NA,NA,"",            0.,   5.50877E-39,  -1.65937E-39,   5.00714E-03
C:/temp/dataset/8/16_32.odb,Step-1,Increment      1: Step Time =    1.000,"PART-1-1",            95,           15.,      -27.5250,            0.,NA,NA,"",   18.3468E-03,   16.6483E-03,  -7.70968E-03,   826.368E-06
C:/temp/dataset/8/16_32.odb,Step-1,Increment      1: Step Time =    1.000,"PART-1-1",            96,           15.,      -25.0500,            0.,NA,NA,"",   23.0027E-03,   22.5679E-03,  -4.45126E-03,   1.81250E-03
C:/temp/dataset/8/16_32.odb,Step-1,Increment      1: Step Time =    1.000,"PART-1-1",            97,           15.,      -22.5750,            0.,NA,NA,"",   17.9411E-03,   17.9376E-03,  -355.432E-06,   1.44179E-03
C:/temp/dataset/8/16_32.odb,Step-1,Increment      1: Step Time =    1.000,"PART-1-1",            98,           15.,      -17.5875,            0.,NA,NA,"",   8.14061E-03,  -8.07686E-03,  -1.01678E-03,   1.57734E-03
C:/temp/dataset/8/16_32.odb,Step-1,Increment      1: Step Time =    1.000,"PART-1-1",            99,           15.,      -15.0750,            0.,NA,NA,"",   20.9098E-03,  -20.1010E-03,  -5.75924E-03,   2.31831E-03
C:/temp/dataset/8/16_32.odb,Step-1,Increment      1: Step Time =    1.000,"PART-1-1",           100,           15.,      -12.5625,            0.,NA,NA,"",   30.6035E-03,  -28.5194E-03,  -11.1002E-03,   2.31910E-03
C:/temp/dataset/8/16_32.odb,Step-1,Increment      1: Step Time =    1.000,"PART-1-1",           101,           15.,      -7.53750,            0.,NA,NA,"",   41.1514E-03,  -35.9058E-03,  -20.1049E-03,   1.62139E-03
C:/temp/dataset/8/16_32.odb,Step-1,Increment      1: Step Time =    1.000,"PART-1-1",           102,           15.,      -5.02500,            0.,NA,NA,"",   42.9346E-03,  -36.1027E-03,  -23.2372E-03,   1.17154E-03
C:/temp/dataset/8/16_32.odb,Step-1,Increment      1: Step Time =    1.000,"PART-1-1",           103,           15.,      -2.51250,            0.,NA,NA,"",   43.0838E-03,  -34.8155E-03,  -25.3790E-03,   713.434E-06
C:/temp/dataset/8/16_32.odb,Step-1,Increment      1: Step Time =    1.000,"PART-1-1",           104,           15.,       2.47500,            0.,NA,NA,"",   40.7737E-03,  -30.5633E-03,  -26.9885E-03,   110.211E-06
C:/temp/dataset/8/16_32.odb,Step-1,Increment      1: Step Time =    1.000,"PART-1-1",           105,           15.,       4.95000,            0.,NA,NA,"",   39.2869E-03,  -28.4906E-03,  -27.0508E-03,   26.3929E-06
C:/temp/dataset/8/16_32.odb,Step-1,Increment      1: Step Time =    1.000,"PART-1-1",           106,           15.,       7.42500,            0.,NA,NA,"",   37.9004E-03,  -26.6337E-03,  -26.9646E-03,   44.5655E-06
C:/temp/dataset/8/16_32.odb,Step-1,Increment      1: Step Time =    1.000,"PART-1-1",           107,           15.,       12.4125,            0.,NA,NA,"",   35.5314E-03,  -23.2631E-03,  -26.8572E-03,   3.18937E-06
C:/temp/dataset/8/16_32.odb,Step-1,Increment      1: Step Time =    1.000,"PART-1-1",           108,           15.,       14.9250,            0.,NA,NA,"",   34.4757E-03,  -21.5874E-03,  -26.8805E-03,   20.1914E-06
C:/temp/dataset/8/16_32.odb,Step-1,Increment      1: Step Time =    1.000,"PART-1-1",           109,           15.,       17.4375,            0.,NA,NA,"",   33.4757E-03,  -19.8667E-03,  -26.9432E-03,   33.3783E-06
C:/temp/dataset/8/16_32.odb,Step-1,Increment      1: Step Time =    1.000,"PART-1-1",           110,           15.,       22.4625,            0.,NA,NA,"",   31.5884E-03,  -16.2139E-03,  -27.1098E-03,   31.8638E-06
C:/temp/dataset/8/16_32.odb,Step-1,Increment      1: Step Time =    1.000,"PART-1-1",           111,           15.,       24.9750,            0.,NA,NA,"",   30.6978E-03,  -14.2929E-03,  -27.1674E-03,   17.8167E-06
C:/temp/dataset/8/16_32.odb,Step-1,Increment      1: Step Time =    1.000,"PART-1-1",           112,           15.,       27.4875,            0.,NA,NA,"",   29.8640E-03,  -12.3487E-03,  -27.1913E-03,   4.07908E-06
C:/temp/dataset/8/16_32.odb,Step-1,Increment      1: Step Time =    1.000,"PART-1-1",           113,       13.1072,       7.69700,            0.,NA,NA,"",   36.7954E-03,  -26.4142E-03,  -25.6162E-03,   18.8723E-06
C:/temp/dataset/8/16_32.odb,Step-1,Increment      1: Step Time =    1.000,"PART-1-1",           114,       12.9209,      -22.7091,            0.,NA,NA,"",   20.1403E-03,   19.0274E-03,  -6.60229E-03,   1.04240E-03
C:/temp/dataset/8/16_32.odb,Step-1,Increment      1: Step Time =    1.000,"PART-1-1",           115,       12.1836,      -25.1316,            0.,NA,NA,"",   24.2986E-03,   23.3863E-03,  -6.59557E-03,   2.04064E-03
C:/temp/dataset/8/16_32.odb,Step-1,Increment      1: Step Time =    1.000,"PART-1-1",           116,       12.5983,   113.555E-03,            0.,NA,NA,"",   41.3840E-03,  -32.9059E-03,  -25.0966E-03,   423.684E-06
C:/temp/dataset/8/16_32.odb,Step-1,Increment      1: Step Time =    1.000,"PART-1-1",           117,       12.7905,       5.42944,            0.,NA,NA,"",   37.8863E-03,  -28.0884E-03,  -25.4246E-03,   63.1943E-06
C:/temp/dataset/8/16_32.odb,Step-1,Increment      1: Step Time =    1.000,"PART-1-1",           118,       12.0087,       2.86964,            0.,NA,NA,"",   39.1995E-03,  -30.2372E-03,  -24.9462E-03,   247.447E-06
C:/temp/dataset/8/16_32.odb,Step-1,Increment      1: Step Time =    1.000,"PART-1-1",           119,       6.98133,      -9.77136,            0.,NA,NA,"",   46.9780E-03,  -35.0244E-03,  -31.3084E-03,   1.58498E-03
C:/temp/dataset/8/16_32.odb,Step-1,Increment      1: Step Time =    1.000,"PART-1-1",           120,       7.90844,      -27.9171,            0.,NA,NA,"",   18.0086E-03,   15.0441E-03,  -9.89875E-03,   7.78320E-03
C:/temp/dataset/8/16_32.odb,Step-1,Increment      1: Step Time =    1.000,"PART-1-1",           121,      -2.46872,      -27.6632,            0.,NA,NA,"",   17.8092E-03,  -14.1715E-03,  -10.7859E-03,   7.49162E-03
C:/temp/dataset/8/16_32.odb,Step-1,Increment      1: Step Time =    1.000,"PART-1-1",           122,      -12.5126,      -12.5666,            0.,NA,NA,"",   21.0956E-03,  -19.7433E-03,  -7.43138E-03,   535.955E-06
C:/temp/dataset/8/16_32.odb,Step-1,Increment      1: Step Time =    1.000,"PART-1-1",           123,      -12.5815,       17.4815,            0.,NA,NA,"",   20.9589E-03,  -20.2929E-03,  -5.24151E-03,   47.9225E-06
C:/temp/dataset/8/16_32.odb,Step-1,Increment      1: Step Time =    1.000,"PART-1-1",           124,      -2.62887,      -2.48638,            0.,NA,NA,"",   32.8328E-03,  -31.1724E-03,  -10.3090E-03,   801.039E-06
C:/temp/dataset/8/16_32.odb,Step-1,Increment      1: Step Time =    1.000,"PART-1-1",           125,      -2.40475,       2.52951,            0.,NA,NA,"",   29.8292E-03,  -27.8330E-03,  -10.7289E-03,   319.090E-06
C:/temp/dataset/8/16_32.odb,Step-1,Increment      1: Step Time =    1.000,"PART-1-1",           126,       2.45017,      -2.57003,            0.,NA,NA,"",   37.4145E-03,  -32.7066E-03,  -18.1692E-03,   555.197E-06
C:/temp/dataset/8/16_32.odb,Step-1,Increment      1: Step Time =    1.000,"PART-1-1",           127,       2.64402,       2.44720,            0.,NA,NA,"",   33.4349E-03,  -28.4036E-03,  -17.6388E-03,   472.029E-06
C:/temp/dataset/8/16_32.odb,Step-1,Increment      1: Step Time =    1.000,"PART-1-1",           128,       7.27469,       27.6230,            0.,NA,NA,"",   24.5353E-03,  -12.2030E-03,  -21.2854E-03,   15.6265E-06
C:/temp/dataset/8/16_32.odb,Step-1,Increment      1: Step Time =    1.000,"PART-1-1",           129,       2.48679,       22.6352,            0.,NA,NA,"",   23.7584E-03,  -16.1587E-03,  -17.4171E-03,   47.8134E-06
C:/temp/dataset/8/16_32.odb,Step-1,Increment      1: Step Time =    1.000,"PART-1-1",           130,   4.73057E-03,       27.5452,            0.,NA,NA,"",   19.5710E-03,  -12.2047E-03,  -15.2993E-03,   26.7598E-06
C:/temp/dataset/8/16_32.odb,Step-1,Increment      1: Step Time =    1.000,"PART-1-1",           131,      -2.67861,       22.9024,            0.,NA,NA,"",   20.5889E-03,  -15.9956E-03,  -12.9631E-03,   42.9434E-06
C:/temp/dataset/8/16_32.odb,Step-1,Increment      1: Step Time =    1.000,"PART-1-1",           132,      -12.4942,       19.9650,            0.,NA,NA,"",   19.1624E-03,  -18.4372E-03,  -5.22163E-03,   43.9809E-06
C:/temp/dataset/8/16_32.odb,Step-1,Increment      1: Step Time =    1.000,"PART-1-1",           133,      -7.56680,       17.4386,            0.,NA,NA,"",   22.1002E-03,  -20.3264E-03,  -8.67509E-03,   61.1165E-06
C:/temp/dataset/8/16_32.odb,Step-1,Increment      1: Step Time =    1.000,"PART-1-1",           134,       7.64811,       17.7092,            0.,NA,NA,"",   29.3151E-03,  -19.7148E-03,  -21.6957E-03,   48.2314E-06
C:/temp/dataset/8/16_32.odb,Step-1,Increment      1: Step Time =    1.000,"PART-1-1",           135,      -9.58788,      -27.7112,            0.,NA,NA,"",   7.84689E-03,  -7.80655E-03,  -794.696E-06,   2.16636E-03
C:/temp/dataset/8/16_32.odb,Step-1,Increment      1: Step Time =    1.000,"PART-1-1",           136,       4.77230,      -2.62442,            0.,NA,NA,"",   40.0544E-03,  -33.3983E-03,  -22.1113E-03,   848.467E-06
C:/temp/dataset/8/16_32.odb,Step-1,Increment      1: Step Time =    1.000,"PART-1-1",           137,       7.77605,      -12.2161,            0.,NA,NA,"",   45.3293E-03,  -31.6122E-03,  -32.4871E-03,   1.39702E-03
C:/temp/dataset/8/16_32.odb,Step-1,Increment      1: Step Time =    1.000,"PART-1-1",           138,       7.25866,      -19.5166,            0.,NA,NA,"",   40.3516E-03,  -3.20927E-03,  -40.2238E-03,   5.05453E-03
C:/temp/dataset/8/16_32.odb,Step-1,Increment      1: Step Time =    1.000,"PART-1-1",           139,      -4.84221,      -22.7118,            0.,NA,NA,"",   16.3222E-03,  -14.5143E-03,  -7.46659E-03,   2.09084E-03
C:/temp/dataset/8/16_32.odb,Step-1,Increment      1: Step Time =    1.000,"PART-1-1",           140,      -12.1835,      -27.1471,            0.,NA,NA,"",   7.90813E-03,  -7.80439E-03,  -1.27670E-03,   1.49805E-03
C:/temp/dataset/8/16_32.odb,Step-1,Increment      1: Step Time =    1.000,"PART-1-1",           141,      -12.5060,       10.0400,            0.,NA,NA,"",   25.6986E-03,  -25.0737E-03,  -5.63296E-03,   63.7404E-06
C:/temp/dataset/8/16_32.odb,Step-1,Increment      1: Step Time =    1.000,"PART-1-1",           142,      -12.8419,       4.62256,            0.,NA,NA,"",   28.4459E-03,  -27.8394E-03,  -5.84232E-03,   133.738E-06
C:/temp/dataset/8/16_32.odb,Step-1,Increment      1: Step Time =    1.000,"PART-1-1",           143,      -12.8499,  -39.9835E-03,            0.,NA,NA,"",   30.3374E-03,  -29.6445E-03,  -6.44713E-03,   263.083E-06
C:/temp/dataset/8/16_32.odb,Step-1,Increment      1: Step Time =    1.000,"PART-1-1",           144,      -13.3239,      -5.02776,            0.,NA,NA,"",   29.8156E-03,  -28.7829E-03,  -7.77900E-03,   302.485E-06
C:/temp/dataset/8/16_32.odb,Step-1,Increment      1: Step Time =    1.000,"PART-1-1",           145,      -7.45277,      -10.1617,            0.,NA,NA,"",   23.3400E-03,  -22.9265E-03,  -4.37381E-03,   566.352E-06
C:/temp/dataset/8/16_32.odb,Step-1,Increment      1: Step Time =    1.000,"PART-1-1",           146,  -27.8758E-03,      -2.52525,            0.,NA,NA,"",   34.9545E-03,  -31.9330E-03,  -14.2162E-03,   533.613E-06
C:/temp/dataset/8/16_32.odb,Step-1,Increment      1: Step Time =    1.000,"PART-1-1",           147,       4.82974,       22.7243,            0.,NA,NA,"",   25.1853E-03,  -16.0611E-03,  -19.3995E-03,   35.5084E-06
C:/temp/dataset/8/16_32.odb,Step-1,Increment      1: Step Time =    1.000,"PART-1-1",           148,       7.38047,       9.75754,            0.,NA,NA,"",   33.0557E-03,  -24.9619E-03,  -21.6698E-03,   21.6534E-06
C:/temp/dataset/8/16_32.odb,Step-1,Increment      1: Step Time =    1.000,"PART-1-1",           149,       7.06669,       7.50812,            0.,NA,NA,"",   34.0122E-03,  -26.3431E-03,  -21.5145E-03,   92.5018E-06
C:/temp/dataset/8/16_32.odb,Step-1,Increment      1: Step Time =    1.000,"PART-1-1",           150,   54.6531E-03,       2.48775,            0.,NA,NA,"",   31.2746E-03,  -27.9896E-03,  -13.9529E-03,   440.574E-06
C:/temp/dataset/8/16_32.odb,Step-1,Increment      1: Step Time =    1.000,"PART-1-1",           151,      -4.69755,       2.58666,            0.,NA,NA,"",   29.2634E-03,  -27.9786E-03,  -8.57586E-03,   153.561E-06
C:/temp/dataset/8/16_32.odb,Step-1,Increment      1: Step Time =    1.000,"PART-1-1",           152,      -12.4531,       27.7137,            0.,NA,NA,"",   13.2688E-03,  -12.2276E-03,  -5.15234E-03,   15.8323E-06
C:/temp/dataset/8/16_32.odb,Step-1,Increment      1: Step Time =    1.000,"PART-1-1",           153,      -11.8780,       25.1349,            0.,NA,NA,"",   15.3732E-03,  -14.3148E-03,  -5.60551E-03,   30.7240E-06
C:/temp/dataset/8/16_32.odb,Step-1,Increment      1: Step Time =    1.000,"PART-1-1",           154,      -12.3074,       22.4604,            0.,NA,NA,"",   17.3082E-03,  -16.4753E-03,  -5.30458E-03,   38.4866E-06
C:/temp/dataset/8/16_32.odb,Step-1,Increment      1: Step Time =    1.000,"PART-1-1",           155,      -7.54353,       19.8014,            0.,NA,NA,"",   20.5549E-03,  -18.5741E-03,  -8.80390E-03,   47.4154E-06
C:/temp/dataset/8/16_32.odb,Step-1,Increment      1: Step Time =    1.000,"PART-1-1",           156,   45.4396E-03,       22.6227,            0.,NA,NA,"",   22.2905E-03,  -16.1932E-03,  -15.3181E-03,   31.9578E-06
C:/temp/dataset/8/16_32.odb,Step-1,Increment      1: Step Time =    1.000,"PART-1-1",           157,       9.91939,       27.0382,            0.,NA,NA,"",   26.5534E-03,  -12.6905E-03,  -23.3245E-03,   19.5187E-06
C:/temp/dataset/8/16_32.odb,Step-1,Increment      1: Step Time =    1.000,"PART-1-1",           158,       4.86771,       27.6907,            0.,NA,NA,"",   22.8452E-03,  -12.1166E-03,  -19.3673E-03,   15.8470E-06
C:/temp/dataset/8/16_32.odb,Step-1,Increment      1: Step Time =    1.000,"PART-1-1",           159,       2.46310,       27.6480,            0.,NA,NA,"",   21.1932E-03,  -12.1267E-03,  -17.3809E-03,   21.3604E-06
C:/temp/dataset/8/16_32.odb,Step-1,Increment      1: Step Time =    1.000,"PART-1-1",           160,      -2.80472,       27.0882,            0.,NA,NA,"",   18.0324E-03,  -12.5982E-03,  -12.9017E-03,   28.5175E-06
C:/temp/dataset/8/16_32.odb,Step-1,Increment      1: Step Time =    1.000,"PART-1-1",           161,      -5.48605,       27.7688,            0.,NA,NA,"",   16.1239E-03,  -12.0886E-03,  -10.6698E-03,   22.4679E-06
C:/temp/dataset/8/16_32.odb,Step-1,Increment      1: Step Time =    1.000,"PART-1-1",           162,      -7.83752,       28.0673,            0.,NA,NA,"",   14.7775E-03,  -11.8917E-03,  -8.77275E-03,   22.7634E-06
C:/temp/dataset/8/16_32.odb,Step-1,Increment      1: Step Time =    1.000,"PART-1-1",           163,      -7.55682,       15.0000,            0.,NA,NA,"",   23.6146E-03,  -22.0143E-03,  -8.54495E-03,   73.9576E-06
C:/temp/dataset/8/16_32.odb,Step-1,Increment      1: Step Time =    1.000,"PART-1-1",           164,      -12.5962,       15.0033,            0.,NA,NA,"",   22.6587E-03,  -22.0220E-03,  -5.33372E-03,   52.8607E-06
C:/temp/dataset/8/16_32.odb,Step-1,Increment      1: Step Time =    1.000,"PART-1-1",           165,      -7.55941,       12.5503,            0.,NA,NA,"",   25.0275E-03,  -23.5835E-03,  -8.37813E-03,   79.9614E-06
C:/temp/dataset/8/16_32.odb,Step-1,Increment      1: Step Time =    1.000,"PART-1-1",           166,      -12.5765,       12.5372,            0.,NA,NA,"",   24.2312E-03,  -23.6074E-03,  -5.46274E-03,   58.0088E-06
C:/temp/dataset/8/16_32.odb,Step-1,Increment      1: Step Time =    1.000,"PART-1-1",           167,      -7.59139,       10.0650,            0.,NA,NA,"",   26.3283E-03,  -25.0228E-03,  -8.18785E-03,   78.4017E-06
C:/temp/dataset/8/16_32.odb,Step-1,Increment      1: Step Time =    1.000,"PART-1-1",           168,      -7.88191,       7.28317,            0.,NA,NA,"",   27.5567E-03,  -26.4206E-03,  -7.83098E-03,   96.9900E-06
C:/temp/dataset/8/16_32.odb,Step-1,Increment      1: Step Time =    1.000,"PART-1-1",           169,      -12.0831,       7.21074,            0.,NA,NA,"",   27.2464E-03,  -26.5820E-03,  -5.98018E-03,   66.6660E-06
C:/temp/dataset/8/16_32.odb,Step-1,Increment      1: Step Time =    1.000,"PART-1-1",           170,      -13.1416,       2.31003,            0.,NA,NA,"",   29.4733E-03,  -28.8510E-03,  -6.02485E-03,   212.769E-06
C:/temp/dataset/8/16_32.odb,Step-1,Increment      1: Step Time =    1.000,"PART-1-1",           171,      -12.2759,      -2.89935,            0.,NA,NA,"",   30.6172E-03,  -29.8243E-03,  -6.92273E-03,   214.079E-06
C:/temp/dataset/8/16_32.odb,Step-1,Increment      1: Step Time =    1.000,"PART-1-1",           172,      -7.56671,      -5.67297,            0.,NA,NA,"",   29.7396E-03,  -29.1673E-03,  -5.80604E-03,   611.218E-06
C:/temp/dataset/8/16_32.odb,Step-1,Increment      1: Step Time =    1.000,"PART-1-1",           173,      -7.39223,      -7.81567,            0.,NA,NA,"",   26.8363E-03,  -26.3663E-03,  -5.00023E-03,   845.461E-06
C:/temp/dataset/8/16_32.odb,Step-1,Increment      1: Step Time =    1.000,"PART-1-1",           174,      -12.2966,      -7.15451,            0.,NA,NA,"",   28.1339E-03,  -27.0873E-03,  -7.60240E-03,   363.091E-06
C:/temp/dataset/8/16_32.odb,Step-1,Increment      1: Step Time =    1.000,"PART-1-1",           175,      -12.4694,      -9.99482,            0.,NA,NA,"",   24.7341E-03,  -23.4825E-03,  -7.76842E-03,   465.097E-06
C:/temp/dataset/8/16_32.odb,Step-1,Increment      1: Step Time =    1.000,"PART-1-1",           176,      -7.49855,      -12.5983,            0.,NA,NA,"",   19.5821E-03,  -19.2016E-03,  -3.84159E-03,   453.856E-06
C:/temp/dataset/8/16_32.odb,Step-1,Increment      1: Step Time =    1.000,"PART-1-1",           177,      -7.51831,      -15.1107,            0.,NA,NA,"",   15.7961E-03,  -15.3350E-03,  -3.78900E-03,   605.457E-06
C:/temp/dataset/8/16_32.odb,Step-1,Increment      1: Step Time =    1.000,"PART-1-1",           178,      -12.5129,      -15.0992,            0.,NA,NA,"",   17.5766E-03,  -16.2651E-03,  -6.66214E-03,   576.075E-06
C:/temp/dataset/8/16_32.odb,Step-1,Increment      1: Step Time =    1.000,"PART-1-1",           179,      -7.51265,      -17.6713,            0.,NA,NA,"",   12.1966E-03,  -11.6895E-03,  -3.48020E-03,   1.35958E-03
C:/temp/dataset/8/16_32.odb,Step-1,Increment      1: Step Time =    1.000,"PART-1-1",           180,      -12.5452,      -17.6264,            0.,NA,NA,"",   14.7338E-03,  -13.6644E-03,  -5.51070E-03,   603.639E-06
C:/temp/dataset/8/16_32.odb,Step-1,Increment      1: Step Time =    1.000,"PART-1-1",           181,      -12.7276,      -20.0809,            0.,NA,NA,"",   13.2346E-03,  -12.5503E-03,  -4.20071E-03,   710.675E-06
C:/temp/dataset/8/16_32.odb,Step-1,Increment      1: Step Time =    1.000,"PART-1-1",           182,      -13.0628,      -22.3163,            0.,NA,NA,"",   12.8218E-03,  -12.3821E-03,  -3.32918E-03,   636.444E-06
C:/temp/dataset/8/16_32.odb,Step-1,Increment      1: Step Time =    1.000,"PART-1-1",           183,      -7.23303,      -27.7750,            0.,NA,NA,"",   10.2479E-03,  -10.1032E-03,  -1.71621E-03,   3.14512E-03
C:/temp/dataset/8/16_32.odb,Step-1,Increment      1: Step Time =    1.000,"PART-1-1",           184,      -4.86055,      -27.7327,            0.,NA,NA,"",   13.8298E-03,  -13.0229E-03,  -4.65507E-03,   4.72960E-03
C:/temp/dataset/8/16_32.odb,Step-1,Increment      1: Step Time =    1.000,"PART-1-1",           185,      -2.50927,      -22.6041,            0.,NA,NA,"",   32.7728E-03,  -17.9426E-03,  -27.4247E-03,   7.35410E-03
C:/temp/dataset/8/16_32.odb,Step-1,Increment      1: Step Time =    1.000,"PART-1-1",           186,  -77.0891E-03,      -22.5757,            0.,NA,NA,"",   75.1353E-03,  -15.8414E-03,  -73.4463E-03,   21.2329E-03
C:/temp/dataset/8/16_32.odb,Step-1,Increment      1: Step Time =    1.000,"PART-1-1",           187,  -14.9764E-03,      -27.4978,            0.,NA,NA,"",   22.4699E-03,  -10.2057E-03,  -20.0186E-03,   11.3565E-03
C:/temp/dataset/8/16_32.odb,Step-1,Increment      1: Step Time =    1.000,"PART-1-1",           188,       2.64148,      -22.7823,            0.,NA,NA,"",   101.309E-03,   5.62100E-03,  -101.153E-03,   27.1171E-03
C:/temp/dataset/8/16_32.odb,Step-1,Increment      1: Step Time =    1.000,"PART-1-1",           189,       2.81336,      -26.9767,            0.,NA,NA,"",   30.4607E-03,   2.73166E-03,  -30.3379E-03,   14.5893E-03
C:/temp/dataset/8/16_32.odb,Step-1,Increment      1: Step Time =    1.000,"PART-1-1",           190,       5.52532,      -27.5935,            0.,NA,NA,"",   22.2949E-03,   12.8214E-03,  -18.2393E-03,   11.0735E-03
C:/temp/dataset/8/16_32.odb,Step-1,Increment      1: Step Time =    1.000,"PART-1-1",           191,       10.2466,      -28.0300,            0.,NA,NA,"",   15.3812E-03,   14.4992E-03,  -5.13373E-03,   5.79893E-03
C:/temp/dataset/8/16_32.odb,Step-1,Increment      1: Step Time =    1.000,"PART-1-1",           192,       7.32380,      -17.2830,            0.,NA,NA,"",   42.6702E-03,  -16.5664E-03,  -39.3231E-03,   4.51517E-03
C:/temp/dataset/8/16_32.odb,Step-1,Increment      1: Step Time =    1.000,"PART-1-1",           193,       7.51109,      -14.8717,            0.,NA,NA,"",   44.6074E-03,  -24.9766E-03,  -36.9593E-03,   2.06258E-03
C:/temp/dataset/8/16_32.odb,Step-1,Increment      1: Step Time =    1.000,"PART-1-1",           194,       6.94800,      -7.47664,            0.,NA,NA,"",   46.6100E-03,  -36.8306E-03,  -28.5656E-03,   1.27431E-03
C:/temp/dataset/8/16_32.odb,Step-1,Increment      1: Step Time =    1.000,"PART-1-1",           195,       7.18328,       5.40883,            0.,NA,NA,"",   35.0328E-03,  -27.4995E-03,  -21.7041E-03,   251.091E-06
C:/temp/dataset/8/16_32.odb,Step-1,Increment      1: Step Time =    1.000,"PART-1-1",           196,       8.12432,       12.3313,            0.,NA,NA,"",   32.1468E-03,  -23.3082E-03,  -22.1392E-03,   21.5289E-06
C:/temp/dataset/8/16_32.odb,Step-1,Increment      1: Step Time =    1.000,"PART-1-1",           197,       7.72271,       15.1164,            0.,NA,NA,"",   30.5985E-03,  -21.4653E-03,  -21.8062E-03,   35.2198E-06
C:/temp/dataset/8/16_32.odb,Step-1,Increment      1: Step Time =    1.000,"PART-1-1",           198,       12.5747,       27.4046,            0.,NA,NA,"",   28.2142E-03,  -12.4148E-03,  -25.3360E-03,   14.3729E-06
C:/temp/dataset/8/16_32.odb,Step-1,Increment      1: Step Time =    1.000,"PART-1-1",           199,       12.7332,       20.1953,            0.,NA,NA,"",   31.0756E-03,  -17.9268E-03,  -25.3835E-03,   16.7645E-06
C:/temp/dataset/8/16_32.odb,Step-1,Increment      1: Step Time =    1.000,"PART-1-1",           200,       12.7232,      -12.7379,            0.,NA,NA,"",   34.5011E-03,  -29.8382E-03,  -17.3206E-03,   1.20911E-03
C:/temp/dataset/8/16_32.odb,Step-1,Increment      1: Step Time =    1.000,"PART-1-1",           201,       12.5978,      -7.87838,            0.,NA,NA,"",   43.0160E-03,  -37.0506E-03,  -21.8546E-03,   930.637E-06
C:/temp/dataset/8/16_32.odb,Step-1,Increment      1: Step Time =    1.000,"PART-1-1",           202,       12.5520,      -15.1937,            0.,NA,NA,"",   26.3835E-03,  -21.6085E-03,  -15.1382E-03,   1.33189E-03
C:/temp/dataset/8/16_32.odb,Step-1,Increment      1: Step Time =    1.000,"PART-1-1",           203,       12.2949,      -17.8873,            0.,NA,NA,"",   15.2823E-03,  -8.29080E-03,  -12.8379E-03,   1.88050E-03
C:/temp/dataset/8/16_32.odb,Step-1,Increment      1: Step Time =    1.000,"PART-1-1",           204,       11.9648,      -5.07588,            0.,NA,NA,"",   44.1771E-03,  -37.1840E-03,  -23.8531E-03,   769.669E-06
C:/temp/dataset/8/16_32.odb,Step-1,Increment      1: Step Time =    1.000,"PART-1-1",           205,       12.2814,       12.3946,            0.,NA,NA,"",   34.1584E-03,  -23.2737E-03,  -25.0025E-03,   26.9735E-06
C:/temp/dataset/8/16_32.odb,Step-1,Increment      1: Step Time =    1.000,"PART-1-1",           206,       12.5647,       15.1089,            0.,NA,NA,"",   33.1151E-03,  -21.4778E-03,  -25.2054E-03,   21.2483E-06
C:/temp/dataset/8/16_32.odb,Step-1,Increment      1: Step Time =    1.000,"PART-1-1",           207,       13.0607,       22.5349,            0.,NA,NA,"",   30.3358E-03,  -16.1798E-03,  -25.6607E-03,   19.8142E-06
C:/temp/dataset/8/16_32.odb,Step-1,Increment      1: Step Time =    1.000,"PART-1-1",           208,       12.7200,      -2.36234,            0.,NA,NA,"",   42.9771E-03,  -35.2370E-03,  -24.6045E-03,   620.089E-06
C:/temp/dataset/8/16_32.odb,Step-1,Increment      1: Step Time =    1.000,"PART-1-1",           209,       12.7952,      -10.3683,            0.,NA,NA,"",   39.7487E-03,  -34.6301E-03,  -19.5119E-03,   1.11059E-03
C:/temp/dataset/8/16_32.odb,Step-1,Increment      1: Step Time =    1.000,"PART-1-1",           210,       12.9896,      -20.3905,            0.,NA,NA,"",   10.5388E-03,   7.35237E-03,  -7.55039E-03,   1.86586E-03
C:/temp/dataset/8/16_32.odb,Step-1,Increment      1: Step Time =    1.000,"PART-1-1",           211,       13.0547,       9.94817,            0.,NA,NA,"",   35.6652E-03,  -24.8834E-03,  -25.5503E-03,   24.7751E-06
C:/temp/dataset/8/16_32.odb,Step-1,Increment      1: Step Time =    1.000,"PART-1-1",           212,       12.5883,       17.6584,            0.,NA,NA,"",   32.0438E-03,  -19.7376E-03,  -25.2435E-03,   16.9716E-06
C:/temp/dataset/8/16_32.odb,Step-1,Increment      1: Step Time =    1.000,"PART-1-1",           213,       12.5551,      -27.7203,            0.,NA,NA,"",   16.1866E-03,   15.7533E-03,  -3.72022E-03,   4.76940E-03
C:/temp/dataset/8/16_32.odb,Step-1,Increment      1: Step Time =    1.000,"PART-1-1",           214,       9.89421,       4.65062,            0.,NA,NA,"",   36.9803E-03,  -28.4857E-03,  -23.5819E-03,   197.817E-06
C:/temp/dataset/8/16_32.odb,Step-1,Increment      1: Step Time =    1.000,"PART-1-1",           215,       10.7595,       6.33224,            0.,NA,NA,"",   36.3810E-03,  -27.3124E-03,  -24.0335E-03,   80.5041E-06
C:/temp/dataset/8/16_32.odb,Step-1,Increment      1: Step Time =    1.000,"PART-1-1",           216,       9.75763,      -23.6493,            0.,NA,NA,"",   28.3433E-03,   23.0695E-03,  -16.4663E-03,   2.89382E-03
C:/temp/dataset/8/16_32.odb,Step-1,Increment      1: Step Time =    1.000,"PART-1-1",           217,       9.53699,       1.63659,            0.,NA,NA,"",   39.1592E-03,  -31.0821E-03,  -23.8190E-03,   440.834E-06
C:/temp/dataset/8/16_32.odb,Step-1,Increment      1: Step Time =    1.000,"PART-1-1",           218,       11.2350,       8.14750,            0.,NA,NA,"",   35.6409E-03,  -26.0688E-03,  -24.3041E-03,   27.4007E-06
C:/temp/dataset/8/16_32.odb,Step-1,Increment      1: Step Time =    1.000,"PART-1-1",           219,       11.2098,      -20.8622,            0.,NA,NA,"",   16.6111E-03,   9.60148E-03,  -13.5551E-03,   2.05083E-03
C:/temp/dataset/8/16_32.odb,Step-1,Increment      1: Step Time =    1.000,"PART-1-1",           220,       11.0603,      -2.05600,            0.,NA,NA,"",   42.8053E-03,  -35.0305E-03,  -24.5999E-03,   639.401E-06
C:/temp/dataset/8/16_32.odb,Step-1,Increment      1: Step Time =    1.000,"PART-1-1",           221,       5.60149,       2.31416,            0.,NA,NA,"",   36.1212E-03,  -29.3122E-03,  -21.1078E-03,   330.427E-06
C:/temp/dataset/8/16_32.odb,Step-1,Increment      1: Step Time =    1.000,"PART-1-1",           222,      -6.74223,       2.51529,            0.,NA,NA,"",   29.2907E-03,  -28.3165E-03,  -7.49124E-03,   291.331E-06
C:/temp/dataset/8/16_32.odb,Step-1,Increment      1: Step Time =    1.000,"PART-1-1",           223,       7.48229,       20.3552,            0.,NA,NA,"",   27.9700E-03,  -17.8636E-03,  -21.5224E-03,   28.3949E-06
C:/temp/dataset/8/16_32.odb,Step-1,Increment      1: Step Time =    1.000,"PART-1-1",           224,      -7.41549,      -20.2834,            0.,NA,NA,"",   9.54498E-03,  -9.21767E-03,  -2.47816E-03,   1.72091E-03
C:/temp/dataset/8/16_32.odb,Step-1,Increment      1: Step Time =    1.000,"PART-1-1",           225,       7.68091,      -4.90617,            0.,NA,NA,"",   45.0618E-03,  -36.8286E-03,  -25.9658E-03,   920.111E-06
C:/temp/dataset/8/16_32.odb,Step-1,Increment      1: Step Time =    1.000,"PART-1-1",           226,       7.32158,      -21.5125,            0.,NA,NA,"",   40.4609E-03,   16.3327E-03,  -37.0180E-03,   3.86953E-03
C:/temp/dataset/8/16_32.odb,Step-1,Increment      1: Step Time =    1.000,"PART-1-1",           227,      -5.66463,      -2.34251,            0.,NA,NA,"",   31.2442E-03,  -30.4948E-03,  -6.80191E-03,   528.950E-06
C:/temp/dataset/8/16_32.odb,Step-1,Increment      1: Step Time =    1.000,"PART-1-1",           228,      -7.47529,       21.9155,            0.,NA,NA,"",   19.1058E-03,  -16.8932E-03,  -8.92486E-03,   51.0854E-06
C:/temp/dataset/8/16_32.odb,Step-1,Increment      1: Step Time =    1.000,"PART-1-1",           229,      -10.1614,       28.1082,            0.,NA,NA,"",   13.7721E-03,  -11.8942E-03,  -6.94268E-03,   21.4647E-06
C:/temp/dataset/8/16_32.odb,Step-1,Increment      1: Step Time =    1.000,"PART-1-1",           230,      -12.9405,      -24.6359,            0.,NA,NA,"",   11.6351E-03,  -11.3946E-03,  -2.35324E-03,   481.177E-06
C:/temp/dataset/8/16_32.odb,Step-1,Increment      1: Step Time =    1.000,"PART-1-1",           231,       8.38159,      -7.75756,            0.,NA,NA,"",   46.2332E-03,  -37.3017E-03,  -27.3146E-03,   865.737E-06
C:/temp/dataset/8/16_32.odb,Step-1,Increment      1: Step Time =    1.000,"PART-1-1",           232,       2.49333,  -53.6144E-03,            0.,NA,NA,"",   35.2658E-03,  -30.4169E-03,  -17.8463E-03,   578.849E-06
C:/temp/dataset/8/16_32.odb,Step-1,Increment      1: Step Time =    1.000,"PART-1-1",           233,       10.3438,       10.8317,            0.,NA,NA,"",   33.9130E-03,  -24.2914E-03,  -23.6646E-03,   26.7824E-06
C:/temp/dataset/8/16_32.odb,Step-1,Increment      1: Step Time =    1.000,"PART-1-1",           234,       2.48676,       25.2065,            0.,NA,NA,"",   22.4007E-03,  -14.0892E-03,  -17.4151E-03,   33.1830E-06
C:/temp/dataset/8/16_32.odb,Step-1,Increment      1: Step Time =    1.000,"PART-1-1",           235,      -1.68066,       25.0633,            0.,NA,NA,"",   19.8507E-03,  -14.2267E-03,  -13.8438E-03,   35.1970E-06
C:/temp/dataset/8/16_32.odb,Step-1,Increment      1: Step Time =    1.000,"PART-1-1",           236,       8.59823,       25.2987,            0.,NA,NA,"",   26.3806E-03,  -14.0512E-03,  -22.3271E-03,   17.7823E-06
C:/temp/dataset/8/16_32.odb,Step-1,Increment      1: Step Time =    1.000,"PART-1-1",           237,      -9.10993,      -25.5879,            0.,NA,NA,"",   12.1744E-03,  -12.1487E-03,  -789.629E-06,   1.35957E-03
C:/temp/dataset/8/16_32.odb,Step-1,Increment      1: Step Time =    1.000,"PART-1-1",           238,   13.3068E-03,  -28.0450E-03,            0.,NA,NA,"",   32.9968E-03,  -29.8662E-03,  -14.0286E-03,   525.425E-06
C:/temp/dataset/8/16_32.odb,Step-1,Increment      1: Step Time =    1.000,"PART-1-1",           239,      -6.37923,       25.7100,            0.,NA,NA,"",   16.9724E-03,  -13.7809E-03,  -9.90708E-03,   26.4150E-06
C:/temp/dataset/8/16_32.odb,Step-1,Increment      1: Step Time =    1.000,"PART-1-1",           240,      -10.0909,       17.4402,            0.,NA,NA,"",   21.5049E-03,  -20.3524E-03,  -6.94563E-03,   28.0327E-06
C:/temp/dataset/8/16_32.odb,Step-1,Increment      1: Step Time =    1.000,"PART-1-1",           241,      -10.1005,       12.5885,            0.,NA,NA,"",   24.5952E-03,  -23.6048E-03,  -6.90897E-03,   24.2559E-06
C:/temp/dataset/8/16_32.odb,Step-1,Increment      1: Step Time =    1.000,"PART-1-1",           242,      -9.86842,       5.52051,            0.,NA,NA,"",   28.1974E-03,  -27.3496E-03,  -6.86236E-03,   116.820E-06
C:/temp/dataset/8/16_32.odb,Step-1,Increment      1: Step Time =    1.000,"PART-1-1",           243,      -11.6255,       2.21973,            0.,NA,NA,"",   29.6248E-03,  -28.9452E-03,  -6.30892E-03,   182.000E-06
C:/temp/dataset/8/16_32.odb,Step-1,Increment      1: Step Time =    1.000,"PART-1-1",           244,      -10.6231,      -5.01162,            0.,NA,NA,"",   29.9605E-03,  -29.2025E-03,  -6.69698E-03,   294.137E-06
C:/temp/dataset/8/16_32.odb,Step-1,Increment      1: Step Time =    1.000,"PART-1-1",           245,      -9.74824,      -1.61604,            0.,NA,NA,"",   30.8292E-03,  -30.1658E-03,  -6.36126E-03,   198.148E-06
C:/temp/dataset/8/16_32.odb,Step-1,Increment      1: Step Time =    1.000,"PART-1-1",           246,      -9.39443,      -6.20426,            0.,NA,NA,"",   29.0863E-03,  -28.3911E-03,  -6.32116E-03,   478.354E-06
C:/temp/dataset/8/16_32.odb,Step-1,Increment      1: Step Time =    1.000,"PART-1-1",           247,      -9.97662,      -10.1599,            0.,NA,NA,"",   23.9562E-03,  -23.1588E-03,  -6.12956E-03,   610.200E-06
C:/temp/dataset/8/16_32.odb,Step-1,Increment      1: Step Time =    1.000,"PART-1-1",           248,      -10.0249,      -15.1454,            0.,NA,NA,"",   16.4523E-03,  -15.6057E-03,  -5.20969E-03,   634.711E-06
C:/temp/dataset/8/16_32.odb,Step-1,Increment      1: Step Time =    1.000,"PART-1-1",           249,      -10.1027,      -20.6945,            0.,NA,NA,"",   11.5666E-03,  -11.3218E-03,  -2.36701E-03,   919.221E-06
C:/temp/dataset/8/16_32.odb,Step-1,Increment      1: Step Time =    1.000,"PART-1-1",           250,      -4.80323,      -25.3191,            0.,NA,NA,"",   20.0548E-03,  -18.5384E-03,  -7.64995E-03,   3.90276E-03
C:/temp/dataset/8/16_32.odb,Step-1,Increment      1: Step Time =    1.000,"PART-1-1",           251,      -2.51311,      -25.1881,            0.,NA,NA,"",   30.0107E-03,  -20.8955E-03,  -21.5411E-03,   8.02005E-03
C:/temp/dataset/8/16_32.odb,Step-1,Increment      1: Step Time =    1.000,"PART-1-1",           252,       4.39742,      -24.6165,            0.,NA,NA,"",   58.4179E-03,   17.1221E-03,  -55.8523E-03,   15.7879E-03
C:/temp/dataset/8/16_32.odb,Step-1,Increment      1: Step Time =    1.000,"PART-1-1",           253,       1.66428,      -24.9869,            0.,NA,NA,"",   57.2961E-03,  -4.30316E-03,  -57.1342E-03,   17.3063E-03
C:/temp/dataset/8/16_32.odb,Step-1,Increment      1: Step Time =    1.000,"PART-1-1",           254,      -10.0923,       15.0064,            0.,NA,NA,"",   23.1126E-03,  -22.0488E-03,  -6.93125E-03,   26.3922E-06
C:/temp/dataset/8/16_32.odb,Step-1,Increment      1: Step Time =    1.000,"PART-1-1",           255,       10.3928,      -12.7475,            0.,NA,NA,"",   39.3608E-03,  -30.7520E-03,  -24.5681E-03,   597.698E-06
C:/temp/dataset/8/16_32.odb,Step-1,Increment      1: Step Time =    1.000,"PART-1-1",           256,      -10.0380,       8.31527,            0.,NA,NA,"",   26.9093E-03,  -26.0094E-03,  -6.90097E-03,   40.7305E-06
C:/temp/dataset/8/16_32.odb,Step-1,Increment      1: Step Time =    1.000,"PART-1-1",           257,      -2.46664,   5.11286E-03,            0.,NA,NA,"",   31.2960E-03,  -29.4891E-03,  -10.4799E-03,   494.818E-06
C:/temp/dataset/8/16_32.odb,Step-1,Increment      1: Step Time =    1.000,"PART-1-1",           258,       4.76759,       25.2938,            0.,NA,NA,"",   23.8679E-03,  -14.0272E-03,  -19.3110E-03,   19.5609E-06
C:/temp/dataset/8/16_32.odb,Step-1,Increment      1: Step Time =    1.000,"PART-1-1",           259,      -9.80145,       22.1184,            0.,NA,NA,"",   18.2274E-03,  -16.7556E-03,  -7.17562E-03,   41.1734E-06
C:/temp/dataset/8/16_32.odb,Step-1,Increment      1: Step Time =    1.000,"PART-1-1",           260,      -10.0026,       19.8332,            0.,NA,NA,"",   19.8432E-03,  -18.5612E-03,  -7.01692E-03,   38.1089E-06
C:/temp/dataset/8/16_32.odb,Step-1,Increment      1: Step Time =    1.000,"PART-1-1",           261,      -4.38985,       24.8503,            0.,NA,NA,"",   18.4763E-03,  -14.4378E-03,  -11.5293E-03,   35.6951E-06
C:/temp/dataset/8/16_32.odb,Step-1,Increment      1: Step Time =    1.000,"PART-1-1",           262,      -8.41468,       26.1052,            0.,NA,NA,"",   15.8397E-03,  -13.4960E-03,  -8.29183E-03,   27.6276E-06
C:/temp/dataset/8/16_32.odb,Step-1,Increment      1: Step Time =    1.000,"PART-1-1",           263,      -10.8408,       3.63703,            0.,NA,NA,"",   29.0231E-03,  -28.2945E-03,  -6.46250E-03,   149.156E-06
C:/temp/dataset/8/16_32.odb,Step-1,Increment      1: Step Time =    1.000,"PART-1-1",           264,      -10.0123,      -12.6074,            0.,NA,NA,"",   20.2268E-03,  -19.4076E-03,  -5.69785E-03,   633.943E-06
C:/temp/dataset/8/16_32.odb,Step-1,Increment      1: Step Time =    1.000,"PART-1-1",           265,      -10.0363,      -17.7670,            0.,NA,NA,"",   13.0921E-03,  -12.3915E-03,  -4.22515E-03,   890.607E-06
C:/temp/dataset/8/16_32.odb,Step-1,Increment      1: Step Time =    1.000,"PART-1-1",           266,      -11.0603,      -23.9480,            0.,NA,NA,"",   11.9973E-03,  -11.9194E-03,  -1.36450E-03,   513.855E-06
C:/temp/dataset/8/16_32.odb,Step-1,Increment      1: Step Time =    1.000,"PART-1-1",           267,       6.47854,      -25.3722,            0.,NA,NA,"",   38.8576E-03,   22.6412E-03,  -31.5798E-03,   10.4985E-03
C:/temp/dataset/8/16_32.odb,Step-1,Increment      1: Step Time =    1.000,"PART-1-1",           268,       8.63537,      -25.7845,            0.,NA,NA,"",   28.8860E-03,   23.6121E-03,  -16.6393E-03,   6.28297E-03
C:/temp/dataset/8/16_32.odb,Step-1,Increment      1: Step Time =    1.000,"PART-1-1",           269,       9.70324,      -17.2922,            0.,NA,NA,"",   29.1726E-03,  -14.6281E-03,  -25.2400E-03,   2.10732E-03
C:/temp/dataset/8/16_32.odb,Step-1,Increment      1: Step Time =    1.000,"PART-1-1",           270,       9.32190,      -19.2968,            0.,NA,NA,"",   24.9570E-03,  -2.51488E-03,  -24.8300E-03,   2.09772E-03
C:/temp/dataset/8/16_32.odb,Step-1,Increment      1: Step Time =    1.000,"PART-1-1",           271,       10.1737,       15.3696,            0.,NA,NA,"",   31.7385E-03,  -21.3088E-03,  -23.5216E-03,   24.6609E-06
C:/temp/dataset/8/16_32.odb,Step-1,Increment      1: Step Time =    1.000,"PART-1-1",           272,       11.4582,       22.6444,            0.,NA,NA,"",   29.2990E-03,  -16.1083E-03,  -24.4735E-03,   17.0656E-06
C:/temp/dataset/8/16_32.odb,Step-1,Increment      1: Step Time =    1.000,"PART-1-1",           273,       10.7208,      -10.6686,            0.,NA,NA,"",   42.3047E-03,  -34.8348E-03,  -24.0046E-03,   592.837E-06
C:/temp/dataset/8/16_32.odb,Step-1,Increment      1: Step Time =    1.000,"PART-1-1",           274,       12.8969,       24.9220,            0.,NA,NA,"",   29.3168E-03,  -14.3463E-03,  -25.5667E-03,   18.7720E-06
C:/temp/dataset/8/16_32.odb,Step-1,Increment      1: Step Time =    1.000,"PART-1-1",           275,       10.1448,       20.8629,            0.,NA,NA,"",   29.2716E-03,  -17.4604E-03,  -23.4939E-03,   12.5502E-06
C:/temp/dataset/8/16_32.odb,Step-1,Increment      1: Step Time =    1.000,"PART-1-1",           276,       9.65714,      -6.54367,            0.,NA,NA,"",   45.5334E-03,  -37.7331E-03,  -25.4855E-03,   704.101E-06
C:/temp/dataset/8/16_32.odb,Step-1,Increment      1: Step Time =    1.000,"PART-1-1",           277,       9.83992,      -3.38396,            0.,NA,NA,"",   43.8715E-03,  -36.1547E-03,  -24.8505E-03,   769.930E-06
C:/temp/dataset/8/16_32.odb,Step-1,Increment      1: Step Time =    1.000,"PART-1-1",           278,       8.07567,       3.47086,            0.,NA,NA,"",   36.8432E-03,  -29.0660E-03,  -22.6404E-03,   373.385E-06
C:/temp/dataset/8/16_32.odb,Step-1,Increment      1: Step Time =    1.000,"PART-1-1",           279,       7.59381,   482.257E-03,            0.,NA,NA,"",   39.2334E-03,  -31.6640E-03,  -23.1656E-03,   540.595E-06
C:/temp/dataset/8/16_32.odb,Step-1,Increment      1: Step Time =    1.000,"PART-1-1",           280,       4.76722,  -235.440E-03,            0.,NA,NA,"",   37.6509E-03,  -31.2468E-03,  -21.0055E-03,   511.377E-06
C:/temp/dataset/8/16_32.odb,Step-1,Increment      1: Step Time =    1.000,"PART-1-1",           281,      -4.77136,   213.016E-03,            0.,NA,NA,"",   30.4462E-03,  -29.3497E-03,  -8.09718E-03,   303.504E-06
C:/temp/dataset/8/16_32.odb,Step-1,Increment      1: Step Time =    1.000,"PART-1-1",           282,      -7.11180,      -22.9221,            0.,NA,NA,"",   12.8952E-03,  -12.8145E-03,  -1.44094E-03,   1.15756E-03
C:/temp/dataset/8/16_32.odb,Step-1,Increment      1: Step Time =    1.000,"PART-1-1",           283,      -7.18782,       23.8644,            0.,NA,NA,"",   17.8605E-03,  -15.3011E-03,  -9.21265E-03,   38.1820E-06
C:/temp/dataset/8/16_32.odb,Step-1,Increment      1: Step Time =    1.000,"PART-1-1",           284,      -8.39641,      -3.64363,            0.,NA,NA,"",   30.8618E-03,  -30.2510E-03,  -6.10976E-03,   346.081E-06
C:/temp/dataset/8/16_32.odb,Step-1,Increment      1: Step Time =    1.000,"PART-1-1",           285,      -5.55453,       23.5444,            0.,NA,NA,"",   18.7512E-03,  -15.5202E-03,  -10.5230E-03,   38.4692E-06
C:/temp/dataset/8/16_32.odb,Step-1,Increment      1: Step Time =    1.000,"PART-1-1",           286,      -8.96964,       2.09003,            0.,NA,NA,"",   29.6384E-03,  -28.8590E-03,  -6.75243E-03,   247.416E-06
C:/temp/dataset/8/16_32.odb,Step-1,Increment      1: Step Time =    1.000,"PART-1-1",           287,      -8.56063,       4.18956,            0.,NA,NA,"",   28.7340E-03,  -27.8219E-03,  -7.18205E-03,   207.902E-06
C:/temp/dataset/8/16_32.odb,Step-1,Increment      1: Step Time =    1.000,"PART-1-1",           288,      -7.73446,  -335.973E-03,            0.,NA,NA,"",   30.5435E-03,  -29.8259E-03,  -6.58220E-03,   273.223E-06
C:/temp/dataset/8/16_32.odb,Step-1,Increment      1: Step Time =    1.000,"PART-1-1",           289,      -9.21295,      -23.2880,            0.,NA,NA,"",   12.3110E-03,  -12.2871E-03,  -765.698E-06,   770.626E-06
C:/temp/dataset/8/16_32.odb,Step-1,Increment      1: Step Time =    1.000,"PART-1-1",           290,       7.07458,       22.9394,            0.,NA,NA,"",   26.4865E-03,  -15.8989E-03,  -21.1839E-03,   24.2191E-06
C:/temp/dataset/8/16_32.odb,Step-1,Increment      1: Step Time =    1.000,"PART-1-1",           291,       5.55979,      -23.2424,            0.,NA,NA,"",   62.6274E-03,   25.1752E-03,  -57.3446E-03,   13.9439E-03
C:/temp/dataset/8/16_32.odb,Step-1,Increment      1: Step Time =    1.000,"PART-1-1",           292,       8.69880,      -1.44983,            0.,NA,NA,"",   41.8264E-03,  -34.0177E-03,  -24.3361E-03,   703.621E-06
C:/temp/dataset/8/16_32.odb,Step-1,Increment      1: Step Time =    1.000,"PART-1-1",           293,       10.8983,      -19.3920,            0.,NA,NA,"",   16.6027E-03,  -194.171E-06,  -16.6016E-03,   2.39144E-03
C:/temp/dataset/8/16_32.odb,Step-1,Increment      1: Step Time =    1.000,"PART-1-1",           294,       11.5936,       9.64460,            0.,NA,NA,"",   35.0823E-03,  -25.0744E-03,  -24.5365E-03,   27.0604E-06
C:/temp/dataset/8/16_32.odb,Step-1,Increment      1: Step Time =    1.000,"PART-1-1",           295,       7.27669,      -23.4490,            0.,NA,NA,"",   42.3602E-03,   24.6873E-03,  -34.4227E-03,   7.54766E-03
C:/temp/dataset/8/16_32.odb,Step-1,Increment      1: Step Time =    1.000,"PART-1-1",           296,       9.33849,      -21.3324,            0.,NA,NA,"",   24.8418E-03,   12.3728E-03,  -21.5413E-03,   2.00494E-03
C:/temp/dataset/8/16_32.odb,Step-1,Increment      1: Step Time =    1.000,"PART-1-1",           297,       6.40414,  -671.178E-03,            0.,NA,NA,"",   39.5869E-03,  -32.3288E-03,  -22.8467E-03,   618.674E-06
C:/temp/dataset/8/16_32.odb,Step-1,Increment      1: Step Time =    1.000,"PART-1-1",           298,       9.14051,       23.4286,            0.,NA,NA,"",   27.5370E-03,  -15.5168E-03,  -22.7490E-03,   19.4258E-06
C:/temp/dataset/8/16_32.odb,Step-1,Increment      1: Step Time =    1.000,"PART-1-1",           299,       8.65907,       5.77812,            0.,NA,NA,"",   35.6307E-03,  -27.4936E-03,  -22.6639E-03,   158.390E-06
C:/temp/dataset/8/16_32.odb,Step-1,Increment      1: Step Time =    1.000,"PART-1-1",           300,       8.97612,       7.18244,            0.,NA,NA,"",   35.0311E-03,  -26.6083E-03,  -22.7854E-03,   89.4762E-06
C:/temp/dataset/8/16_32.odb,Step-1,Increment      1: Step Time =    1.000,"PART-1-1",           301,       6.88173,      -2.42849,            0.,NA,NA,"",   41.9632E-03,  -34.2859E-03,  -24.1948E-03,   907.369E-06
C:/temp/dataset/8/16_32.odb,Step-1,Increment      1: Step Time =    1.000,"PART-1-1",           302,      -6.42964,   749.171E-03,            0.,NA,NA,"",   30.0927E-03,  -29.2068E-03,  -7.24804E-03,   261.827E-06
C:/temp/dataset/8/16_32.odb,Step-1,Increment      1: Step Time =    1.000,"PART-1-1",           303,       5.11581,      -21.8357,            0.,NA,NA,"",   80.7541E-03,   22.8935E-03,  -77.4410E-03,   19.0690E-03
C:/temp/dataset/8/16_32.odb,Step-1,Increment      1: Step Time =    1.000,"PART-1-1",           304,      -5.14463,       22.0341,            0.,NA,NA,"",   19.9234E-03,  -16.7375E-03,  -10.8074E-03,   58.5763E-06
C:/temp/dataset/8/16_32.odb,Step-1,Increment      1: Step Time =    1.000,"PART-1-1",           305,      -6.99627,       4.73063,            0.,NA,NA,"",   28.4317E-03,  -27.3225E-03,  -7.86391E-03,   279.571E-06
C:/temp/dataset/8/16_32.odb,Step-1,Increment      1: Step Time =    1.000,"PART-1-1",           306,      -9.29341,       24.2181,            0.,NA,NA,"",   16.8501E-03,  -15.0472E-03,  -7.58334E-03,   36.3691E-06
C:/temp/dataset/8/16_32.odb,Step-1,Increment      1: Step Time =    1.000,"PART-1-1",           307,       6.91219,       25.3650,            0.,NA,NA,"",   25.2529E-03,  -13.9887E-03,  -21.0243E-03,   15.4739E-06
C:/temp/dataset/8/16_32.odb,Step-1,Increment      1: Step Time =    1.000,"PART-1-1",           308,      -7.05007,      -25.4591,            0.,NA,NA,"",   14.9081E-03,  -14.7677E-03,  -2.04087E-03,   2.22965E-03
C:/temp/dataset/8/16_32.odb,Step-1,Increment      1: Step Time =    1.000,"PART-1-1",           309,   220.127E-03,       25.1193,            0.,NA,NA,"",   20.9830E-03,  -14.1661E-03,  -15.4793E-03,   34.7972E-06
C:/temp/dataset/8/16_32.odb,Step-1,Increment      1: Step Time =    1.000,"PART-1-1",           310,      -10.0664,       10.2548,            0.,NA,NA,"",   25.9130E-03,  -24.9747E-03,  -6.91006E-03,   25.5673E-06
C:/temp/dataset/8/16_32.odb,Step-1,Increment      1: Step Time =    1.000,"PART-1-1",           311,  -242.668E-03,      -25.0731,            0.,NA,NA,"",   46.1403E-03,  -16.6549E-03,  -43.0296E-03,   13.7438E-03
C:/temp/dataset/8/16_32.odb,Step-1,Increment      1: Step Time =    1.000,"PART-1-1",           312,       10.1301,       17.8656,            0.,NA,NA,"",   30.5921E-03,  -19.6112E-03,  -23.4793E-03,   22.3608E-06
C:/temp/dataset/8/16_32.odb,Step-1,Increment      1: Step Time =    1.000,"PART-1-1",           313,       10.5061,      -8.54167,            0.,NA,NA,"",   44.5317E-03,  -37.1213E-03,  -24.5983E-03,   617.435E-06
C:/temp/dataset/8/16_32.odb,Step-1,Increment      1: Step Time =    1.000,"PART-1-1",           314,       10.4872,  -400.528E-03,            0.,NA,NA,"",   41.3363E-03,  -33.3233E-03,  -24.4590E-03,   560.239E-06
C:/temp/dataset/8/16_32.odb,Step-1,Increment      1: Step Time =    1.000,"PART-1-1",           315,       10.8929,       24.4859,            0.,NA,NA,"",   28.1916E-03,  -14.6909E-03,  -24.0613E-03,   20.0283E-06
C:/temp/dataset/8/16_32.odb,Step-1,Increment      1: Step Time =    1.000,"PART-1-1",           316,      -9.77896,      -7.87942,            0.,NA,NA,"",   27.1563E-03,  -26.4090E-03,  -6.32723E-03,   597.369E-06
C:/temp/dataset/8/16_32.odb,Step-1,Increment      1: Step Time =    1.000,"PART-1-1",           317,      -10.1061,       26.5279,            0.,NA,NA,"",   14.9063E-03,  -13.1730E-03,  -6.97628E-03,   27.1173E-06
C:/temp/dataset/8/16_32.odb,Step-1,Increment      1: Step Time =    1.000,"PART-1-1",           318,       10.2904,      -26.3642,            0.,NA,NA,"",   23.6055E-03,   21.8068E-03,  -9.03780E-03,   4.62703E-03
C:/temp/dataset/8/16_32.odb,Step-1,Increment      1: Step Time =    1.000,"PART-1-1",           319,       8.71706,      -9.20658,            0.,NA,NA,"",   45.8075E-03,  -36.4219E-03,  -27.7807E-03,   864.819E-06
C:/temp/dataset/8/16_32.odb,Step-1,Increment      1: Step Time =    1.000,"PART-1-1",           320,      -10.7949,   625.452E-03,            0.,NA,NA,"",   30.2494E-03,  -29.5593E-03,  -6.42481E-03,   206.771E-06
C:/temp/dataset/8/16_32.odb,Step-1,Increment      1: Step Time =    1.000,"PART-1-1",           321,       9.11771,      -10.6516,            0.,NA,NA,"",   44.5332E-03,  -34.7929E-03,  -27.7966E-03,   799.503E-06
C:/temp/dataset/8/16_32.odb,Step-1,Increment      1: Step Time =    1.000,"PART-1-1",           322,       10.0459,      -15.0301,            0.,NA,NA,"",   34.9774E-03,  -24.0629E-03,  -25.3849E-03,   723.640E-06
C:/temp/dataset/8/16_32.odb,Step-1,Increment      1: Step Time =    1.000,"PART-1-1",           323,       10.1838,       13.4361,            0.,NA,NA,"",   32.6270E-03,  -22.5901E-03,  -23.5416E-03,   26.5831E-06
C:/temp/dataset/8/16_32.odb,Step-1,Increment      1: Step Time =    1.000,"PART-1-1",           324,       9.44411,       8.99394,            0.,NA,NA,"",   34.3554E-03,  -25.4681E-03,  -23.0580E-03,   28.0629E-06
C:/temp/dataset/8/16_32.odb,Step-1,Increment      1: Step Time =    1.000,"PART-1-1",           325,      -11.4742,      -22.3598,            0.,NA,NA,"",   12.2575E-03,  -12.0578E-03,  -2.20317E-03,   714.249E-06
C:/temp/dataset/8/16_32.odb,Step-1,Increment      1: Step Time =    1.000,"PART-1-1",           326,      -10.7157,      -25.5035,            0.,NA,NA,"",   11.0887E-03,  -11.0464E-03,  -968.218E-06,   848.607E-06
C:/temp/dataset/8/16_32.odb,Step-1,Increment      1: Step Time =    1.000,"PART-1-1",           327,       11.3755,      -22.3888,            0.,NA,NA,"",   21.2467E-03,   17.8993E-03,  -11.4471E-03,   1.56790E-03
C:/temp/dataset/8/16_32.odb,Step-1,Increment      1: Step Time =    1.000,"PART-1-1",           328,       12.6965,      -9.12334,            0.,NA,NA,"",   41.7062E-03,  -36.1626E-03,  -20.7768E-03,   1.01570E-03
C:/temp/dataset/8/16_32.odb,Step-1,Increment      1: Step Time =    1.000,"PART-1-1",           329,       11.5519,      -8.21002,            0.,NA,NA,"",   43.7623E-03,  -37.1889E-03,  -23.0679E-03,   697.076E-06
C:/temp/dataset/8/16_32.odb,Step-1,Increment      1: Step Time =    1.000,"PART-1-1",           330,       10.6134,      -9.60511,            0.,NA,NA,"",   43.6291E-03,  -36.2004E-03,  -24.3523E-03,   598.563E-06
C:/temp/dataset/8/16_32.odb,Step-1,Increment      1: Step Time =    1.000,"PART-1-1",           331,       11.7580,      -10.5184,            0.,NA,NA,"",   40.9984E-03,  -34.8211E-03,  -21.6415E-03,   777.152E-06
C:/temp/dataset/8/16_32.odb,Step-1,Increment      1: Step Time =    1.000,"PART-1-1",           332,       12.2813,      -6.47713,            0.,NA,NA,"",   43.9535E-03,  -37.4409E-03,  -23.0236E-03,   830.128E-06
C:/temp/dataset/8/16_32.odb,Step-1,Increment      1: Step Time =    1.000,"PART-1-1",           333,       10.8110,      -5.80977,            0.,NA,NA,"",   44.8415E-03,  -37.5941E-03,  -24.4425E-03,   686.346E-06
C:/temp/dataset/8/16_32.odb,Step-1,Increment      1: Step Time =    1.000,"PART-1-1",           334,       10.0816,      -7.54267,            0.,NA,NA,"",   45.2513E-03,  -37.6109E-03,  -25.1615E-03,   645.519E-06
C:/temp/dataset/8/16_32.odb,Step-1,Increment      1: Step Time =    1.000,"PART-1-1",           335,       11.2990,      -15.1119,            0.,NA,NA,"",   30.5119E-03,  -22.9270E-03,  -20.1328E-03,   992.775E-06
C:/temp/dataset/8/16_32.odb,Step-1,Increment      1: Step Time =    1.000,"PART-1-1",           336,       9.87457,      -16.1611,            0.,NA,NA,"",   32.1627E-03,  -19.6119E-03,  -25.4914E-03,   1.23418E-03
C:/temp/dataset/8/16_32.odb,Step-1,Increment      1: Step Time =    1.000,"PART-1-1",           337,       10.9991,      -17.5898,            0.,NA,NA,"",   21.8964E-03,  -11.3150E-03,  -18.7463E-03,   1.79474E-03
C:/temp/dataset/8/16_32.odb,Step-1,Increment      1: Step Time =    1.000,"PART-1-1",           338,       12.4235,      -16.5405,            0.,NA,NA,"",   20.9477E-03,  -15.5641E-03,  -14.0202E-03,   1.54129E-03
C:/temp/dataset/8/16_32.odb,Step-1,Increment      1: Step Time =    1.000,"PART-1-1",           339,       13.8616,      -12.6502,            0.,NA,NA,"",   32.5140E-03,  -29.3110E-03,  -14.0723E-03,   1.73948E-03
C:/temp/dataset/8/16_32.odb,Step-1,Increment      1: Step Time =    1.000,"PART-1-1",           340,       12.6376,      -13.9658,            0.,NA,NA,"",   30.8468E-03,  -26.2171E-03,  -16.2539E-03,   1.25247E-03
C:/temp/dataset/8/16_32.odb,Step-1,Increment      1: Step Time =    1.000,"PART-1-1",           341,       13.7760,      -15.1344,            0.,NA,NA,"",   23.4362E-03,  -20.9591E-03,  -10.4868E-03,   1.77879E-03
C:/temp/dataset/8/16_32.odb,Step-1,Increment      1: Step Time =    1.000,"PART-1-1",           342,           15.,      -13.8188,            0.,NA,NA,"",   26.1373E-03,  -24.7478E-03,  -8.40836E-03,   2.31052E-03
C:/temp/dataset/8/16_32.odb,Step-1,Increment      1: Step Time =    1.000,"PART-1-1",           343,       10.1233,      -29.0150,            0.,NA,NA,"",   8.64316E-03,   8.18270E-03,  -2.78348E-03,   6.34163E-03
C:/temp/dataset/8/16_32.odb,Step-1,Increment      1: Step Time =    1.000,"PART-1-1",           344,         11.25,          -30.,            0.,NA,NA,"",            0.,   5.49626E-39,  -5.76656E-39,   6.13595E-03
C:/temp/dataset/8/16_32.odb,Step-1,Increment      1: Step Time =    1.000,"PART-1-1",           345,       12.5276,      -28.8602,            0.,NA,NA,"",   8.50348E-03,   8.31597E-03,  -1.77591E-03,   4.99439E-03
C:/temp/dataset/8/16_32.odb,Step-1,Increment      1: Step Time =    1.000,"PART-1-1",           346,       11.4009,      -27.8752,            0.,NA,NA,"",   15.5916E-03,   15.0739E-03,  -3.98444E-03,   5.01330E-03
C:/temp/dataset/8/16_32.odb,Step-1,Increment      1: Step Time =    1.000,"PART-1-1",           347,  -7.48819E-03,      -28.7489,            0.,NA,NA,"",   11.0215E-03,  -6.15350E-03,  -9.14378E-03,   10.2761E-03
C:/temp/dataset/8/16_32.odb,Step-1,Increment      1: Step Time =    1.000,"PART-1-1",           348,          1.25,          -30.,            0.,NA,NA,"",            0.,  -1.90453E-39,  -17.6689E-39,   9.57402E-03
C:/temp/dataset/8/16_32.odb,Step-1,Increment      1: Step Time =    1.000,"PART-1-1",           349,       2.65668,      -28.4883,            0.,NA,NA,"",   13.3527E-03,   853.964E-06,  -13.3254E-03,   11.7619E-03
C:/temp/dataset/8/16_32.odb,Step-1,Increment      1: Step Time =    1.000,"PART-1-1",           350,       1.39919,      -27.2372,            0.,NA,NA,"",   26.8965E-03,  -4.87982E-03,  -26.4501E-03,   12.8176E-03
C:/temp/dataset/8/16_32.odb,Step-1,Increment      1: Step Time =    1.000,"PART-1-1",           351,      -13.5917,      -27.3235,            0.,NA,NA,"",   7.36597E-03,  -7.13636E-03,  -1.82478E-03,   942.712E-06
C:/temp/dataset/8/16_32.odb,Step-1,Increment      1: Step Time =    1.000,"PART-1-1",           352,      -12.5620,      -25.8915,            0.,NA,NA,"",   10.0984E-03,  -9.95327E-03,  -1.70574E-03,   851.373E-06
C:/temp/dataset/8/16_32.odb,Step-1,Increment      1: Step Time =    1.000,"PART-1-1",           353,      -13.9703,      -24.8180,            0.,NA,NA,"",   11.7991E-03,  -11.3404E-03,  -3.25797E-03,   204.095E-06
C:/temp/dataset/8/16_32.odb,Step-1,Increment      1: Step Time =    1.000,"PART-1-1",           354,          -15.,        -26.25,            0.,NA,NA,"",   10.5100E-03,  -9.57593E-03,  -4.33159E-03,   308.213E-06
C:/temp/dataset/8/16_32.odb,Step-1,Increment      1: Step Time =    1.000,"PART-1-1",           355,      -13.7565,      -15.0496,            0.,NA,NA,"",   18.2786E-03,  -16.5984E-03,  -7.65500E-03,   560.095E-06
C:/temp/dataset/8/16_32.odb,Step-1,Increment      1: Step Time =    1.000,"PART-1-1",           356,          -15.,        -16.25,            0.,NA,NA,"",   17.6365E-03,  -15.6444E-03,  -8.14245E-03,   725.608E-06
C:/temp/dataset/8/16_32.odb,Step-1,Increment      1: Step Time =    1.000,"PART-1-1",           357,      -13.7726,      -17.5632,            0.,NA,NA,"",   15.4588E-03,  -14.1054E-03,  -6.32570E-03,   695.770E-06
C:/temp/dataset/8/16_32.odb,Step-1,Increment      1: Step Time =    1.000,"PART-1-1",           358,      -12.5291,      -16.3628,            0.,NA,NA,"",   16.0118E-03,  -14.7886E-03,  -6.13787E-03,   566.022E-06
C:/temp/dataset/8/16_32.odb,Step-1,Increment      1: Step Time =    1.000,"PART-1-1",           359,      -13.7981,       15.0016,            0.,NA,NA,"",   22.4548E-03,  -21.9881E-03,  -4.55426E-03,   77.9019E-06
C:/temp/dataset/8/16_32.odb,Step-1,Increment      1: Step Time =    1.000,"PART-1-1",           360,          -15.,         13.75,            0.,NA,NA,"",   23.0841E-03,  -22.7552E-03,  -3.88292E-03,   110.977E-06
C:/temp/dataset/8/16_32.odb,Step-1,Increment      1: Step Time =    1.000,"PART-1-1",           361,      -13.7882,       12.5186,            0.,NA,NA,"",   24.0520E-03,  -23.5798E-03,  -4.74223E-03,   86.5557E-06
C:/temp/dataset/8/16_32.odb,Step-1,Increment      1: Step Time =    1.000,"PART-1-1",           362,      -12.5863,       13.7702,            0.,NA,NA,"",   23.4613E-03,  -22.8322E-03,  -5.39663E-03,   55.5693E-06
C:/temp/dataset/8/16_32.odb,Step-1,Increment      1: Step Time =    1.000,"PART-1-1",           363,         -1.25,           -5.,            0.,NA,NA,"",   36.9218E-03,  -34.5995E-03,  -12.8876E-03,   645.476E-06
C:/temp/dataset/8/16_32.odb,Step-1,Increment      1: Step Time =    1.000,"PART-1-1",           364,  -13.9379E-03,      -3.76263,            0.,NA,NA,"",   36.4129E-03,  -33.4246E-03,  -14.4464E-03,   445.329E-06
C:/temp/dataset/8/16_32.odb,Step-1,Increment      1: Step Time =    1.000,"PART-1-1",           365,      -1.32837,      -2.50582,            0.,NA,NA,"",   33.8091E-03,  -31.5415E-03,  -12.1733E-03,   595.348E-06
C:/temp/dataset/8/16_32.odb,Step-1,Increment      1: Step Time =    1.000,"PART-1-1",           366,      -2.56444,      -3.74319,            0.,NA,NA,"",   33.7277E-03,  -32.0872E-03,  -10.3908E-03,   719.199E-06
C:/temp/dataset/8/16_32.odb,Step-1,Increment      1: Step Time =    1.000,"PART-1-1",           367,       1.21115,      -2.54764,            0.,NA,NA,"",   36.1728E-03,  -32.3455E-03,  -16.1939E-03,   480.419E-06
C:/temp/dataset/8/16_32.odb,Step-1,Increment      1: Step Time =    1.000,"PART-1-1",           368,          1.25,           -5.,            0.,NA,NA,"",   39.2958E-03,  -35.6252E-03,  -16.5832E-03,   357.700E-06
C:/temp/dataset/8/16_32.odb,Step-1,Increment      1: Step Time =    1.000,"PART-1-1",           369,       2.47509,      -3.78501,            0.,NA,NA,"",   38.7972E-03,  -34.0915E-03,  -18.5201E-03,   286.158E-06
C:/temp/dataset/8/16_32.odb,Step-1,Increment      1: Step Time =    1.000,"PART-1-1",           370,      -2.43569,       1.26731,            0.,NA,NA,"",   30.6050E-03,  -28.7059E-03,  -10.6131E-03,   378.914E-06
C:/temp/dataset/8/16_32.odb,Step-1,Increment      1: Step Time =    1.000,"PART-1-1",           371,      -1.22667,  -11.4661E-03,            0.,NA,NA,"",   32.0734E-03,  -29.6597E-03,  -12.2068E-03,   521.406E-06
C:/temp/dataset/8/16_32.odb,Step-1,Increment      1: Step Time =    1.000,"PART-1-1",           372,   33.9799E-03,       1.22985,            0.,NA,NA,"",   32.1464E-03,  -28.9463E-03,  -13.9824E-03,   492.114E-06
C:/temp/dataset/8/16_32.odb,Step-1,Increment      1: Step Time =    1.000,"PART-1-1",           373,      -1.17505,       2.50863,            0.,NA,NA,"",   30.4444E-03,  -27.8703E-03,  -12.2519E-03,   367.347E-06
C:/temp/dataset/8/16_32.odb,Step-1,Increment      1: Step Time =    1.000,"PART-1-1",           374,       4.76976,      -1.42993,            0.,NA,NA,"",   38.8108E-03,  -32.3229E-03,  -21.4828E-03,   657.250E-06
C:/temp/dataset/8/16_32.odb,Step-1,Increment      1: Step Time =    1.000,"PART-1-1",           375,       3.63028,  -144.527E-03,            0.,NA,NA,"",   36.4522E-03,  -30.8047E-03,  -19.4892E-03,   521.790E-06
C:/temp/dataset/8/16_32.odb,Step-1,Increment      1: Step Time =    1.000,"PART-1-1",           376,       2.47175,      -1.31182,            0.,NA,NA,"",   36.2453E-03,  -31.4427E-03,  -18.0299E-03,   547.984E-06
C:/temp/dataset/8/16_32.odb,Step-1,Increment      1: Step Time =    1.000,"PART-1-1",           377,       3.61124,      -2.59722,            0.,NA,NA,"",   38.7063E-03,  -32.9339E-03,  -20.3355E-03,   613.532E-06
C:/temp/dataset/8/16_32.odb,Step-1,Increment      1: Step Time =    1.000,"PART-1-1",           378,       11.8901,      -2.20917,            0.,NA,NA,"",   42.9073E-03,  -35.1694E-03,  -24.5794E-03,   604.131E-06
C:/temp/dataset/8/16_32.odb,Step-1,Increment      1: Step Time =    1.000,"PART-1-1",           379,       10.4501,      -2.71998,            0.,NA,NA,"",   43.3101E-03,  -35.6103E-03,  -24.6510E-03,   692.695E-06
C:/temp/dataset/8/16_32.odb,Step-1,Increment      1: Step Time =    1.000,"PART-1-1",           380,       10.9024,      -4.22992,            0.,NA,NA,"",   44.2431E-03,  -36.8246E-03,  -24.5235E-03,   704.207E-06
C:/temp/dataset/8/16_32.odb,Step-1,Increment      1: Step Time =    1.000,"PART-1-1",           381,       12.3424,      -3.71911,            0.,NA,NA,"",   43.6506E-03,  -36.3465E-03,  -24.1725E-03,   696.076E-06
C:/temp/dataset/8/16_32.odb,Step-1,Increment      1: Step Time =    1.000,"PART-1-1",           382,       13.7991,   56.7775E-03,            0.,NA,NA,"",   41.7136E-03,  -32.8734E-03,  -25.6781E-03,   326.920E-06
C:/temp/dataset/8/16_32.odb,Step-1,Increment      1: Step Time =    1.000,"PART-1-1",           383,           15.,       1.23750,            0.,NA,NA,"",   41.4998E-03,  -31.6571E-03,  -26.8340E-03,   224.983E-06
C:/temp/dataset/8/16_32.odb,Step-1,Increment      1: Step Time =    1.000,"PART-1-1",           384,       13.5044,       2.67232,            0.,NA,NA,"",   39.9409E-03,  -30.4363E-03,  -25.8633E-03,   147.580E-06
C:/temp/dataset/8/16_32.odb,Step-1,Increment      1: Step Time =    1.000,"PART-1-1",           385,       12.3035,       1.49160,            0.,NA,NA,"",   40.3038E-03,  -31.5517E-03,  -25.0776E-03,   331.869E-06
C:/temp/dataset/8/16_32.odb,Step-1,Increment      1: Step Time =    1.000,"PART-1-1",           386,       9.21011,       8.08819,            0.,NA,NA,"",   34.6919E-03,  -26.0469E-03,  -22.9147E-03,   54.5731E-06
C:/temp/dataset/8/16_32.odb,Step-1,Increment      1: Step Time =    1.000,"PART-1-1",           387,       8.41229,       9.37574,            0.,NA,NA,"",   33.7026E-03,  -25.2154E-03,  -22.3617E-03,   25.5482E-06
C:/temp/dataset/8/16_32.odb,Step-1,Increment      1: Step Time =    1.000,"PART-1-1",           388,       7.22358,       8.63283,            0.,NA,NA,"",   33.5327E-03,  -25.6583E-03,  -21.5892E-03,   36.2643E-06
C:/temp/dataset/8/16_32.odb,Step-1,Increment      1: Step Time =    1.000,"PART-1-1",           389,       8.02141,       7.34528,            0.,NA,NA,"",   34.4930E-03,  -26.4580E-03,  -22.1301E-03,   74.3563E-06
C:/temp/dataset/8/16_32.odb,Step-1,Increment      1: Step Time =    1.000,"PART-1-1",           390,       12.4231,       13.7517,            0.,NA,NA,"",   33.6305E-03,  -22.3812E-03,  -25.1017E-03,   23.6575E-06
C:/temp/dataset/8/16_32.odb,Step-1,Increment      1: Step Time =    1.000,"PART-1-1",           391,       13.6407,       12.4035,            0.,NA,NA,"",   34.8470E-03,  -23.2682E-03,  -25.9404E-03,   15.6480E-06
C:/temp/dataset/8/16_32.odb,Step-1,Increment      1: Step Time =    1.000,"PART-1-1",           392,           15.,       13.6688,            0.,NA,NA,"",   34.9953E-03,  -22.4287E-03,  -26.8631E-03,   10.1207E-06
C:/temp/dataset/8/16_32.odb,Step-1,Increment      1: Step Time =    1.000,"PART-1-1",           393,       13.7824,       15.0169,            0.,NA,NA,"",   33.7991E-03,  -21.5342E-03,  -26.0511E-03,   16.7952E-06
C:/temp/dataset/8/16_32.odb,Step-1,Increment      1: Step Time =    1.000,"PART-1-1",           394,       7.56520,       19.0322,            0.,NA,NA,"",   28.6463E-03,  -18.8162E-03,  -21.6000E-03,   31.3959E-06
C:/temp/dataset/8/16_32.odb,Step-1,Increment      1: Step Time =    1.000,"PART-1-1",           395,       8.88910,       17.7874,            0.,NA,NA,"",   29.9470E-03,  -19.6676E-03,  -22.5834E-03,   30.0643E-06
C:/temp/dataset/8/16_32.odb,Step-1,Increment      1: Step Time =    1.000,"PART-1-1",           396,       10.1374,       19.3643,            0.,NA,NA,"",   29.9295E-03,  -18.5519E-03,  -23.4862E-03,   13.0874E-06
C:/temp/dataset/8/16_32.odb,Step-1,Increment      1: Step Time =    1.000,"PART-1-1",           397,       8.81352,       20.6091,            0.,NA,NA,"",   28.6131E-03,  -17.6598E-03,  -22.5131E-03,   18.0955E-06
C:/temp/dataset/8/16_32.odb,Step-1,Increment      1: Step Time =    1.000,"PART-1-1",           398,       4.93385,       28.8453,            0.,NA,NA,"",   22.4054E-03,  -11.1908E-03,  -19.4105E-03,   22.3326E-06
C:/temp/dataset/8/16_32.odb,Step-1,Increment      1: Step Time =    1.000,"PART-1-1",           399,          3.75,           30.,            0.,NA,NA,"",   21.0793E-03,  -10.2274E-03,  -18.4319E-03,   25.7766E-06
C:/temp/dataset/8/16_32.odb,Step-1,Increment      1: Step Time =    1.000,"PART-1-1",           400,       2.48155,       28.8240,            0.,NA,NA,"",   20.6690E-03,  -11.1700E-03,  -17.3908E-03,   17.0655E-06
C:/temp/dataset/8/16_32.odb,Step-1,Increment      1: Step Time =    1.000,"PART-1-1",           401,       3.66541,       27.6693,            0.,NA,NA,"",   22.0182E-03,  -12.1195E-03,  -18.3825E-03,   17.3424E-06
C:/temp/dataset/8/16_32.odb,Step-1,Increment      1: Step Time =    1.000,"PART-1-1",           402,   132.783E-03,       23.8710,            0.,NA,NA,"",   21.6211E-03,  -15.1771E-03,  -15.3990E-03,   34.7444E-06
C:/temp/dataset/8/16_32.odb,Step-1,Increment      1: Step Time =    1.000,"PART-1-1",           403,       1.26611,       22.6290,            0.,NA,NA,"",   23.0155E-03,  -16.1761E-03,  -16.3722E-03,   35.7837E-06
C:/temp/dataset/8/16_32.odb,Step-1,Increment      1: Step Time =    1.000,"PART-1-1",           404,       2.48677,       23.9209,            0.,NA,NA,"",   23.0643E-03,  -15.1176E-03,  -17.4191E-03,   36.0992E-06
C:/temp/dataset/8/16_32.odb,Step-1,Increment      1: Step Time =    1.000,"PART-1-1",           405,       1.35344,       25.1629,            0.,NA,NA,"",   21.6825E-03,  -14.1260E-03,  -16.4495E-03,   34.3504E-06
C:/temp/dataset/8/16_32.odb,Step-1,Increment      1: Step Time =    1.000,"PART-1-1",           406,      -5.93264,       26.7394,            0.,NA,NA,"",   16.5278E-03,  -12.9349E-03,  -10.2887E-03,   24.1657E-06
C:/temp/dataset/8/16_32.odb,Step-1,Increment      1: Step Time =    1.000,"PART-1-1",           407,      -5.38454,       25.2802,            0.,NA,NA,"",   17.7141E-03,  -14.1096E-03,  -10.7102E-03,   28.2961E-06
C:/temp/dataset/8/16_32.odb,Step-1,Increment      1: Step Time =    1.000,"PART-1-1",           408,      -3.59728,       25.9693,            0.,NA,NA,"",   18.2213E-03,  -13.5181E-03,  -12.2179E-03,   31.1081E-06
C:/temp/dataset/8/16_32.odb,Step-1,Increment      1: Step Time =    1.000,"PART-1-1",           409,      -4.14538,       27.4285,            0.,NA,NA,"",   17.0589E-03,  -12.3415E-03,  -11.7769E-03,   23.3572E-06
C:/temp/dataset/8/16_32.odb,Step-1,Increment      1: Step Time =    1.000,"PART-1-1",           410,      -13.7907,       17.4908,            0.,NA,NA,"",   20.7286E-03,  -20.2562E-03,  -4.40031E-03,   66.9287E-06
C:/temp/dataset/8/16_32.odb,Step-1,Increment      1: Step Time =    1.000,"PART-1-1",           411,      -12.5378,       18.7233,            0.,NA,NA,"",   20.0725E-03,  -19.3796E-03,  -5.22851E-03,   45.5063E-06
C:/temp/dataset/8/16_32.odb,Step-1,Increment      1: Step Time =    1.000,"PART-1-1",           412,      -13.7471,       19.9825,            0.,NA,NA,"",   18.8963E-03,  -18.3997E-03,  -4.30324E-03,   52.8214E-06
C:/temp/dataset/8/16_32.odb,Step-1,Increment      1: Step Time =    1.000,"PART-1-1",           413,          -15.,         18.75,            0.,NA,NA,"",   19.5986E-03,  -19.2934E-03,  -3.44552E-03,   79.8379E-06
C:/temp/dataset/8/16_32.odb,Step-1,Increment      1: Step Time =    1.000,"PART-1-1",           414,      -7.55517,       18.6200,            0.,NA,NA,"",   21.3482E-03,  -19.4735E-03,  -8.74824E-03,   48.3218E-06
C:/temp/dataset/8/16_32.odb,Step-1,Increment      1: Step Time =    1.000,"PART-1-1",           415,      -6.28340,       17.4693,            0.,NA,NA,"",   22.4256E-03,  -20.2732E-03,  -9.58669E-03,   93.0519E-06
C:/temp/dataset/8/16_32.odb,Step-1,Increment      1: Step Time =    1.000,"PART-1-1",           416,           -5.,         18.75,            0.,NA,NA,"",   22.0397E-03,  -19.2974E-03,  -10.6471E-03,   135.644E-06
C:/temp/dataset/8/16_32.odb,Step-1,Increment      1: Step Time =    1.000,"PART-1-1",           417,      -6.27177,       19.9007,            0.,NA,NA,"",   20.9146E-03,  -18.4947E-03,  -9.76545E-03,   71.3935E-06
C:/temp/dataset/8/16_32.odb,Step-1,Increment      1: Step Time =    1.000,"PART-1-1",           418,            5.,         18.75,            0.,NA,NA,"",   27.3867E-03,  -18.9795E-03,  -19.7436E-03,   94.8241E-06
C:/temp/dataset/8/16_32.odb,Step-1,Increment      1: Step Time =    1.000,"PART-1-1",           419,       6.32405,       17.6046,            0.,NA,NA,"",   28.6634E-03,  -19.7819E-03,  -20.7429E-03,   52.1304E-06
C:/temp/dataset/8/16_32.odb,Step-1,Increment      1: Step Time =    1.000,"PART-1-1",           420,       6.24114,       20.1776,            0.,NA,NA,"",   27.3684E-03,  -18.0263E-03,  -20.5933E-03,   61.1358E-06
C:/temp/dataset/8/16_32.odb,Step-1,Increment      1: Step Time =    1.000,"PART-1-1",           421,       5.95216,       22.8319,            0.,NA,NA,"",   25.8420E-03,  -15.9800E-03,  -20.3088E-03,   27.8610E-06
C:/temp/dataset/8/16_32.odb,Step-1,Increment      1: Step Time =    1.000,"PART-1-1",           422,       6.99338,       24.1522,            0.,NA,NA,"",   25.8600E-03,  -14.9468E-03,  -21.1029E-03,   18.7067E-06
C:/temp/dataset/8/16_32.odb,Step-1,Increment      1: Step Time =    1.000,"PART-1-1",           423,       5.83989,       25.3294,            0.,NA,NA,"",   24.5613E-03,  -14.0073E-03,  -20.1755E-03,   14.8672E-06
C:/temp/dataset/8/16_32.odb,Step-1,Increment      1: Step Time =    1.000,"PART-1-1",           424,       4.79866,       24.0091,            0.,NA,NA,"",   24.5149E-03,  -15.0488E-03,  -19.3523E-03,   26.7465E-06
C:/temp/dataset/8/16_32.odb,Step-1,Increment      1: Step Time =    1.000,"PART-1-1",           425,         -6.25,          -30.,            0.,NA,NA,"",            0.,  -4.09160E-39,  -4.38800E-39,   4.81590E-03
C:/temp/dataset/8/16_32.odb,Step-1,Increment      1: Step Time =    1.000,"PART-1-1",           426,      -4.93028,      -28.8663,            0.,NA,NA,"",   7.98595E-03,  -7.57053E-03,  -2.54213E-03,   5.18610E-03
C:/temp/dataset/8/16_32.odb,Step-1,Increment      1: Step Time =    1.000,"PART-1-1",           427,      -6.04679,      -27.7538,            0.,NA,NA,"",   11.9748E-03,  -11.6302E-03,  -2.85222E-03,   3.87273E-03
C:/temp/dataset/8/16_32.odb,Step-1,Increment      1: Step Time =    1.000,"PART-1-1",           428,      -7.36652,      -28.8875,            0.,NA,NA,"",   5.75454E-03,  -5.65049E-03,  -1.08930E-03,   3.43251E-03
C:/temp/dataset/8/16_32.odb,Step-1,Increment      1: Step Time =    1.000,"PART-1-1",           429,       8.56540,       1.05942,            0.,NA,NA,"",   39.2281E-03,  -31.4113E-03,  -23.4985E-03,   484.760E-06
C:/temp/dataset/8/16_32.odb,Step-1,Increment      1: Step Time =    1.000,"PART-1-1",           430,       8.80633,       2.55373,            0.,NA,NA,"",   38.0064E-03,  -30.0502E-03,  -23.2696E-03,   390.381E-06
C:/temp/dataset/8/16_32.odb,Step-1,Increment      1: Step Time =    1.000,"PART-1-1",           431,       6.83858,       2.89251,            0.,NA,NA,"",   36.5239E-03,  -29.1780E-03,  -21.9690E-03,   365.321E-06
C:/temp/dataset/8/16_32.odb,Step-1,Increment      1: Step Time =    1.000,"PART-1-1",           432,       6.59765,       1.39821,            0.,NA,NA,"",   37.6715E-03,  -30.4477E-03,  -22.1828E-03,   427.752E-06
C:/temp/dataset/8/16_32.odb,Step-1,Increment      1: Step Time =    1.000,"PART-1-1",           433,       5.99067,      -9.88568,            0.,NA,NA,"",   47.5141E-03,  -34.0963E-03,  -33.0913E-03,   1.93513E-03
C:/temp/dataset/8/16_32.odb,Step-1,Increment      1: Step Time =    1.000,"PART-1-1",           434,            5.,        -11.25,            0.,NA,NA,"",   48.6028E-03,  -31.0869E-03,  -37.3609E-03,   2.50465E-03
C:/temp/dataset/8/16_32.odb,Step-1,Increment      1: Step Time =    1.000,"PART-1-1",           435,       6.38802,      -12.3580,            0.,NA,NA,"",   47.6507E-03,  -30.4199E-03,  -36.6772E-03,   2.01740E-03
C:/temp/dataset/8/16_32.odb,Step-1,Increment      1: Step Time =    1.000,"PART-1-1",           436,       7.37869,      -10.9937,            0.,NA,NA,"",   46.4768E-03,  -33.6007E-03,  -32.1105E-03,   1.47878E-03
C:/temp/dataset/8/16_32.odb,Step-1,Increment      1: Step Time =    1.000,"PART-1-1",           437,       13.7989,      -7.70794,            0.,NA,NA,"",   42.0505E-03,  -36.5907E-03,  -20.7212E-03,   1.22522E-03
C:/temp/dataset/8/16_32.odb,Step-1,Increment      1: Step Time =    1.000,"PART-1-1",           438,       13.8976,      -10.2092,            0.,NA,NA,"",   38.4583E-03,  -34.2242E-03,  -17.5425E-03,   1.53649E-03
C:/temp/dataset/8/16_32.odb,Step-1,Increment      1: Step Time =    1.000,"PART-1-1",           439,           15.,      -8.79375,            0.,NA,NA,"",   39.4749E-03,  -35.0473E-03,  -18.1646E-03,   1.81510E-03
C:/temp/dataset/8/16_32.odb,Step-1,Increment      1: Step Time =    1.000,"PART-1-1",           440,       13.6474,      -17.7374,            0.,NA,NA,"",   10.9877E-03,  -8.15531E-03,  -7.36347E-03,   1.64322E-03
C:/temp/dataset/8/16_32.odb,Step-1,Increment      1: Step Time =    1.000,"PART-1-1",           441,           15.,      -16.3312,            0.,NA,NA,"",   14.8402E-03,  -14.4992E-03,  -3.16306E-03,   1.97930E-03
C:/temp/dataset/8/16_32.odb,Step-1,Increment      1: Step Time =    1.000,"PART-1-1",           442,       12.6422,      -19.1389,            0.,NA,NA,"",   10.0114E-03,  -470.779E-06,  -10.0003E-03,   1.84474E-03
C:/temp/dataset/8/16_32.odb,Step-1,Increment      1: Step Time =    1.000,"PART-1-1",           443,       13.9948,      -20.2453,            0.,NA,NA,"",   7.70579E-03,   6.75534E-03,  -3.70737E-03,   1.03767E-03
C:/temp/dataset/8/16_32.odb,Step-1,Increment      1: Step Time =    1.000,"PART-1-1",           444,           15.,      -18.8438,            0.,NA,NA,"",   1.20882E-03,  -1.10822E-03,   482.798E-06,   879.176E-06
C:/temp/dataset/8/16_32.odb,Step-1,Increment      1: Step Time =    1.000,"PART-1-1",           445,      -5.97701,      -22.8169,            0.,NA,NA,"",   13.8409E-03,  -13.4749E-03,  -3.16198E-03,   1.24417E-03
C:/temp/dataset/8/16_32.odb,Step-1,Increment      1: Step Time =    1.000,"PART-1-1",           446,      -7.08093,      -24.1906,            0.,NA,NA,"",   14.6016E-03,  -14.5013E-03,  -1.70904E-03,   1.39637E-03
C:/temp/dataset/8/16_32.odb,Step-1,Increment      1: Step Time =    1.000,"PART-1-1",           447,      -5.92665,      -25.3891,            0.,NA,NA,"",   17.1063E-03,  -16.6126E-03,  -4.08012E-03,   2.98243E-03
C:/temp/dataset/8/16_32.odb,Step-1,Increment      1: Step Time =    1.000,"PART-1-1",           448,      -4.82272,      -24.0154,            0.,NA,NA,"",   19.4462E-03,  -17.7846E-03,  -7.86512E-03,   2.83860E-03
C:/temp/dataset/8/16_32.odb,Step-1,Increment      1: Step Time =    1.000,"PART-1-1",           449,      -9.79394,      -28.8556,            0.,NA,NA,"",   4.25677E-03,  -4.21431E-03,  -599.714E-06,   2.34167E-03
C:/temp/dataset/8/16_32.odb,Step-1,Increment      1: Step Time =    1.000,"PART-1-1",           450,      -10.8857,      -27.4291,            0.,NA,NA,"",   7.64938E-03,  -7.60788E-03,  -795.674E-06,   1.76705E-03
C:/temp/dataset/8/16_32.odb,Step-1,Increment      1: Step Time =    1.000,"PART-1-1",           451,      -12.3417,      -28.5735,            0.,NA,NA,"",   4.05450E-03,  -3.99911E-03,  -667.908E-06,   1.73100E-03
C:/temp/dataset/8/16_32.odb,Step-1,Increment      1: Step Time =    1.000,"PART-1-1",           452,        -11.25,          -30.,            0.,NA,NA,"",            0.,  -2.08566E-39,  -1.56714E-39,   2.28153E-03
C:/temp/dataset/8/16_32.odb,Step-1,Increment      1: Step Time =    1.000,"PART-1-1",           453,      -13.5416,       7.35537,            0.,NA,NA,"",   26.9951E-03,  -26.4685E-03,  -5.30577E-03,   100.909E-06
C:/temp/dataset/8/16_32.odb,Step-1,Increment      1: Step Time =    1.000,"PART-1-1",           454,          -15.,          6.25,            0.,NA,NA,"",   27.3497E-03,  -26.9349E-03,  -4.74577E-03,   166.518E-06
C:/temp/dataset/8/16_32.odb,Step-1,Increment      1: Step Time =    1.000,"PART-1-1",           455,      -13.9209,       4.81128,            0.,NA,NA,"",   28.2234E-03,  -27.6968E-03,  -5.42652E-03,   152.482E-06
C:/temp/dataset/8/16_32.odb,Step-1,Increment      1: Step Time =    1.000,"PART-1-1",           456,      -12.4625,       5.91665,            0.,NA,NA,"",   27.8541E-03,  -27.2247E-03,  -5.88758E-03,   100.630E-06
C:/temp/dataset/8/16_32.odb,Step-1,Increment      1: Step Time =    1.000,"PART-1-1",           457,      -14.0708,       2.40501,            0.,NA,NA,"",   29.3088E-03,  -28.7328E-03,  -5.78191E-03,   238.720E-06
C:/temp/dataset/8/16_32.odb,Step-1,Increment      1: Step Time =    1.000,"PART-1-1",           458,          -15.,          1.25,            0.,NA,NA,"",   29.5931E-03,  -29.0159E-03,  -5.81600E-03,   357.796E-06
C:/temp/dataset/8/16_32.odb,Step-1,Increment      1: Step Time =    1.000,"PART-1-1",           459,      -13.9250,  -19.9917E-03,            0.,NA,NA,"",   30.2013E-03,  -29.5138E-03,  -6.40742E-03,   331.658E-06
C:/temp/dataset/8/16_32.odb,Step-1,Increment      1: Step Time =    1.000,"PART-1-1",           460,      -12.9958,       1.13502,            0.,NA,NA,"",   29.9541E-03,  -29.2979E-03,  -6.23559E-03,   236.265E-06
C:/temp/dataset/8/16_32.odb,Step-1,Increment      1: Step Time =    1.000,"PART-1-1",           461,      -13.6379,      -2.69968,            0.,NA,NA,"",   30.5190E-03,  -29.6573E-03,  -7.20133E-03,   371.365E-06
C:/temp/dataset/8/16_32.odb,Step-1,Increment      1: Step Time =    1.000,"PART-1-1",           462,          -15.,         -3.75,            0.,NA,NA,"",   30.1723E-03,  -29.0855E-03,  -8.02484E-03,   557.156E-06
C:/temp/dataset/8/16_32.odb,Step-1,Increment      1: Step Time =    1.000,"PART-1-1",           463,      -14.1619,      -5.01388,            0.,NA,NA,"",   29.8106E-03,  -28.6602E-03,  -8.20153E-03,   422.022E-06
C:/temp/dataset/8/16_32.odb,Step-1,Increment      1: Step Time =    1.000,"PART-1-1",           464,      -12.7999,      -3.96356,            0.,NA,NA,"",   30.3206E-03,  -29.4293E-03,  -7.29770E-03,   249.554E-06
C:/temp/dataset/8/16_32.odb,Step-1,Increment      1: Step Time =    1.000,"PART-1-1",           465,          -15.,         -8.75,            0.,NA,NA,"",   26.9883E-03,  -25.0345E-03,  -10.0818E-03,   216.407E-06
C:/temp/dataset/8/16_32.odb,Step-1,Increment      1: Step Time =    1.000,"PART-1-1",           466,      -13.7347,      -9.99741,            0.,NA,NA,"",   25.1042E-03,  -23.4977E-03,  -8.83621E-03,   246.863E-06
C:/temp/dataset/8/16_32.odb,Step-1,Increment      1: Step Time =    1.000,"PART-1-1",           467,      -12.3830,      -8.57467,            0.,NA,NA,"",   26.5625E-03,  -25.4106E-03,  -7.73731E-03,   406.731E-06
C:/temp/dataset/8/16_32.odb,Step-1,Increment      1: Step Time =    1.000,"PART-1-1",           468,      -13.6483,      -7.32726,            0.,NA,NA,"",   28.1013E-03,  -26.7798E-03,  -8.51621E-03,   293.407E-06
C:/temp/dataset/8/16_32.odb,Step-1,Increment      1: Step Time =    1.000,"PART-1-1",           469,      -11.2230,      -10.0773,            0.,NA,NA,"",   24.3342E-03,  -23.3356E-03,  -6.89951E-03,   540.329E-06
C:/temp/dataset/8/16_32.odb,Step-1,Increment      1: Step Time =    1.000,"PART-1-1",           470,      -9.87779,      -9.01965,            0.,NA,NA,"",   25.5897E-03,  -24.8181E-03,  -6.23672E-03,   610.130E-06
C:/temp/dataset/8/16_32.odb,Step-1,Increment      1: Step Time =    1.000,"PART-1-1",           471,      -11.0378,      -7.51697,            0.,NA,NA,"",   27.6754E-03,  -26.7853E-03,  -6.96248E-03,   452.807E-06
C:/temp/dataset/8/16_32.odb,Step-1,Increment      1: Step Time =    1.000,"PART-1-1",           472,       1.25332,  -40.8297E-03,            0.,NA,NA,"",   34.0662E-03,  -30.1176E-03,  -15.9196E-03,   554.918E-06
C:/temp/dataset/8/16_32.odb,Step-1,Increment      1: Step Time =    1.000,"PART-1-1",           473,  -7.28452E-03,      -1.27665,            0.,NA,NA,"",   33.9243E-03,  -30.8577E-03,  -14.0947E-03,   538.754E-06
C:/temp/dataset/8/16_32.odb,Step-1,Increment      1: Step Time =    1.000,"PART-1-1",           474,       3.65826,       22.6797,            0.,NA,NA,"",   24.4713E-03,  -16.1006E-03,  -18.4287E-03,   36.0466E-06
C:/temp/dataset/8/16_32.odb,Step-1,Increment      1: Step Time =    1.000,"PART-1-1",           475,       2.49339,       21.3176,            0.,NA,NA,"",   24.4999E-03,  -17.2224E-03,  -17.4250E-03,   37.6564E-06
C:/temp/dataset/8/16_32.odb,Step-1,Increment      1: Step Time =    1.000,"PART-1-1",           476,          3.75,           20.,            0.,NA,NA,"",   25.9943E-03,  -18.2690E-03,  -18.4918E-03,   78.3660E-06
C:/temp/dataset/8/16_32.odb,Step-1,Increment      1: Step Time =    1.000,"PART-1-1",           477,       4.91487,       21.3621,            0.,NA,NA,"",   25.9697E-03,  -17.1325E-03,  -19.5167E-03,   63.7668E-06
C:/temp/dataset/8/16_32.odb,Step-1,Increment      1: Step Time =    1.000,"PART-1-1",           478,       12.6680,       11.1714,            0.,NA,NA,"",   34.9061E-03,  -24.0757E-03,  -25.2744E-03,   25.4004E-06
C:/temp/dataset/8/16_32.odb,Step-1,Increment      1: Step Time =    1.000,"PART-1-1",           479,       14.0273,       9.92409,            0.,NA,NA,"",   36.1660E-03,  -24.9058E-03,  -26.2236E-03,   21.7288E-06
C:/temp/dataset/8/16_32.odb,Step-1,Increment      1: Step Time =    1.000,"PART-1-1",           480,           15.,       11.1563,            0.,NA,NA,"",   36.0864E-03,  -24.0951E-03,  -26.8637E-03,   12.9804E-06
C:/temp/dataset/8/16_32.odb,Step-1,Increment      1: Step Time =    1.000,"PART-1-1",           481,       14.0536,       7.56100,            0.,NA,NA,"",   37.3436E-03,  -26.5224E-03,  -26.2889E-03,   29.7870E-06
C:/temp/dataset/8/16_32.odb,Step-1,Increment      1: Step Time =    1.000,"PART-1-1",           482,       12.9489,       6.56322,            0.,NA,NA,"",   37.3189E-03,  -27.2269E-03,  -25.5224E-03,   31.8838E-06
C:/temp/dataset/8/16_32.odb,Step-1,Increment      1: Step Time =    1.000,"PART-1-1",           483,       13.8953,       5.18972,            0.,NA,NA,"",   38.5669E-03,  -28.2889E-03,  -26.2134E-03,   34.7126E-06
C:/temp/dataset/8/16_32.odb,Step-1,Increment      1: Step Time =    1.000,"PART-1-1",           484,           15.,        6.1875,            0.,NA,NA,"",   38.5762E-03,  -27.5370E-03,  -27.0156E-03,   33.8005E-06
C:/temp/dataset/8/16_32.odb,Step-1,Increment      1: Step Time =    1.000,"PART-1-1",           485,       6.19023,       9.87877,            0.,NA,NA,"",   32.4993E-03,  -24.8778E-03,  -20.9118E-03,   26.2890E-06
C:/temp/dataset/8/16_32.odb,Step-1,Increment      1: Step Time =    1.000,"PART-1-1",           486,            5.,          8.75,            0.,NA,NA,"",   32.5917E-03,  -25.5648E-03,  -20.2153E-03,   43.3330E-06
C:/temp/dataset/8/16_32.odb,Step-1,Increment      1: Step Time =    1.000,"PART-1-1",           487,       6.03335,       7.50406,            0.,NA,NA,"",   33.5438E-03,  -26.2804E-03,  -20.8453E-03,   52.8200E-06
C:/temp/dataset/8/16_32.odb,Step-1,Increment      1: Step Time =    1.000,"PART-1-1",           488,   27.3265E-03,       3.74387,            0.,NA,NA,"",   30.2000E-03,  -26.8296E-03,  -13.8641E-03,   232.507E-06
C:/temp/dataset/8/16_32.odb,Step-1,Increment      1: Step Time =    1.000,"PART-1-1",           489,         -1.25,            5.,            0.,NA,NA,"",   28.2689E-03,  -25.4821E-03,  -12.2392E-03,   147.533E-06
C:/temp/dataset/8/16_32.odb,Step-1,Increment      1: Step Time =    1.000,"PART-1-1",           490,      -2.45237,       3.76475,            0.,NA,NA,"",   28.9718E-03,  -26.9140E-03,  -10.7240E-03,   228.029E-06
C:/temp/dataset/8/16_32.odb,Step-1,Increment      1: Step Time =    1.000,"PART-1-1",           491,      -3.55115,       2.55808,            0.,NA,NA,"",   29.4601E-03,  -27.8830E-03,  -9.50990E-03,   188.898E-06
C:/temp/dataset/8/16_32.odb,Step-1,Increment      1: Step Time =    1.000,"PART-1-1",           492,         -3.75,            5.,            0.,NA,NA,"",   27.8838E-03,  -26.1882E-03,  -9.57532E-03,   393.595E-06
C:/temp/dataset/8/16_32.odb,Step-1,Increment      1: Step Time =    1.000,"PART-1-1",           493,      -4.84878,       3.79333,            0.,NA,NA,"",   28.5675E-03,  -27.2393E-03,  -8.60970E-03,   247.472E-06
C:/temp/dataset/8/16_32.odb,Step-1,Increment      1: Step Time =    1.000,"PART-1-1",           494,      -13.7266,       27.6069,            0.,NA,NA,"",   12.9948E-03,  -12.3138E-03,  -4.15135E-03,   8.60738E-06
C:/temp/dataset/8/16_32.odb,Step-1,Increment      1: Step Time =    1.000,"PART-1-1",           495,          -15.,         26.25,            0.,NA,NA,"",   13.7653E-03,  -13.4009E-03,  -3.14644E-03,   12.4133E-06
C:/temp/dataset/8/16_32.odb,Step-1,Increment      1: Step Time =    1.000,"PART-1-1",           496,      -13.4390,       25.0675,            0.,NA,NA,"",   15.0224E-03,  -14.3644E-03,  -4.39738E-03,   21.8031E-06
C:/temp/dataset/8/16_32.odb,Step-1,Increment      1: Step Time =    1.000,"PART-1-1",           497,      -12.1656,       26.4243,            0.,NA,NA,"",   14.3171E-03,  -13.2683E-03,  -5.37870E-03,   23.1053E-06
C:/temp/dataset/8/16_32.odb,Step-1,Increment      1: Step Time =    1.000,"PART-1-1",           498,      -3.53423,       23.8764,            0.,NA,NA,"",   19.5203E-03,  -15.2111E-03,  -12.2338E-03,   38.0748E-06
C:/temp/dataset/8/16_32.odb,Step-1,Increment      1: Step Time =    1.000,"PART-1-1",           499,      -4.97219,       24.1974,            0.,NA,NA,"",   18.6002E-03,  -14.9799E-03,  -11.0258E-03,   36.1084E-06
C:/temp/dataset/8/16_32.odb,Step-1,Increment      1: Step Time =    1.000,"PART-1-1",           500,      -5.34958,       22.7893,            0.,NA,NA,"",   19.3385E-03,  -16.1299E-03,  -10.6678E-03,   46.2404E-06
C:/temp/dataset/8/16_32.odb,Step-1,Increment      1: Step Time =    1.000,"PART-1-1",           501,      -3.91162,       22.4683,            0.,NA,NA,"",   20.2143E-03,  -16.3583E-03,  -11.8753E-03,   44.1646E-06
C:/temp/dataset/8/16_32.odb,Step-1,Increment      1: Step Time =    1.000,"PART-1-1",           502,      -12.4008,       21.2127,            0.,NA,NA,"",   18.2405E-03,  -17.4660E-03,  -5.25889E-03,   40.6320E-06
C:/temp/dataset/8/16_32.odb,Step-1,Increment      1: Step Time =    1.000,"PART-1-1",           503,      -13.6537,       22.4802,            0.,NA,NA,"",   16.9930E-03,  -16.4444E-03,  -4.28319E-03,   36.4584E-06
C:/temp/dataset/8/16_32.odb,Step-1,Increment      1: Step Time =    1.000,"PART-1-1",           504,          -15.,         21.25,            0.,NA,NA,"",   17.6966E-03,  -17.3880E-03,  -3.29081E-03,   57.1371E-06
C:/temp/dataset/8/16_32.odb,Step-1,Increment      1: Step Time =    1.000,"PART-1-1",           505,      -8.82885,       17.4394,            0.,NA,NA,"",   21.7943E-03,  -20.3474E-03,  -7.80858E-03,   38.3349E-06
C:/temp/dataset/8/16_32.odb,Step-1,Increment      1: Step Time =    1.000,"PART-1-1",           506,      -8.77308,       19.8173,            0.,NA,NA,"",   20.1815E-03,  -18.5704E-03,  -7.90139E-03,   36.5516E-06
C:/temp/dataset/8/16_32.odb,Step-1,Increment      1: Step Time =    1.000,"PART-1-1",           507,      -10.0468,       18.6367,            0.,NA,NA,"",   20.6836E-03,  -19.4703E-03,  -6.97987E-03,   32.9920E-06
C:/temp/dataset/8/16_32.odb,Step-1,Increment      1: Step Time =    1.000,"PART-1-1",           508,   22.7198E-03,       21.3114,            0.,NA,NA,"",   23.0801E-03,  -17.2900E-03,  -15.2888E-03,   21.4086E-06
C:/temp/dataset/8/16_32.odb,Step-1,Increment      1: Step Time =    1.000,"PART-1-1",           509,          1.25,           20.,            0.,NA,NA,"",   24.5847E-03,  -18.3798E-03,  -16.3276E-03,   33.2135E-06
C:/temp/dataset/8/16_32.odb,Step-1,Increment      1: Step Time =    1.000,"PART-1-1",           510,       14.0304,       22.4987,            0.,NA,NA,"",   30.9581E-03,  -16.1983E-03,  -26.3822E-03,   24.7124E-06
C:/temp/dataset/8/16_32.odb,Step-1,Increment      1: Step Time =    1.000,"PART-1-1",           511,       12.8970,       21.3651,            0.,NA,NA,"",   30.6992E-03,  -17.0616E-03,  -25.5213E-03,   17.6372E-06
C:/temp/dataset/8/16_32.odb,Step-1,Increment      1: Step Time =    1.000,"PART-1-1",           512,       13.8666,       20.0727,            0.,NA,NA,"",   31.7950E-03,  -18.0043E-03,  -26.2063E-03,   26.9879E-06
C:/temp/dataset/8/16_32.odb,Step-1,Increment      1: Step Time =    1.000,"PART-1-1",           513,           15.,       21.2062,            0.,NA,NA,"",   32.0479E-03,  -17.1545E-03,  -27.0702E-03,   35.0816E-06
C:/temp/dataset/8/16_32.odb,Step-1,Increment      1: Step Time =    1.000,"PART-1-1",           514,       8.59704,       27.3306,            0.,NA,NA,"",   25.5507E-03,  -12.4491E-03,  -22.3127E-03,   16.6535E-06
C:/temp/dataset/8/16_32.odb,Step-1,Increment      1: Step Time =    1.000,"PART-1-1",           515,       9.95970,       28.5191,            0.,NA,NA,"",   26.0410E-03,  -11.5314E-03,  -23.3487E-03,   15.8790E-06
C:/temp/dataset/8/16_32.odb,Step-1,Increment      1: Step Time =    1.000,"PART-1-1",           516,          8.75,           30.,            0.,NA,NA,"",   24.6896E-03,  -10.3632E-03,  -22.4094E-03,   23.2419E-06
C:/temp/dataset/8/16_32.odb,Step-1,Increment      1: Step Time =    1.000,"PART-1-1",           517,       7.38734,       28.8115,            0.,NA,NA,"",   24.1511E-03,  -11.2644E-03,  -21.3633E-03,   21.5058E-06
C:/temp/dataset/8/16_32.odb,Step-1,Increment      1: Step Time =    1.000,"PART-1-1",           518,       7.27843,       21.6473,            0.,NA,NA,"",   27.2352E-03,  -16.8993E-03,  -21.3581E-03,   24.5173E-06
C:/temp/dataset/8/16_32.odb,Step-1,Increment      1: Step Time =    1.000,"PART-1-1",           519,   2.36529E-03,       28.7726,            0.,NA,NA,"",   18.9593E-03,  -11.1984E-03,  -15.2987E-03,   14.4192E-06
C:/temp/dataset/8/16_32.odb,Step-1,Increment      1: Step Time =    1.000,"PART-1-1",           520,       1.23392,       27.5966,            0.,NA,NA,"",   20.3737E-03,  -12.1628E-03,  -16.3449E-03,   23.3389E-06
C:/temp/dataset/8/16_32.odb,Step-1,Increment      1: Step Time =    1.000,"PART-1-1",           521,          1.25,           30.,            0.,NA,NA,"",   19.2619E-03,  -10.1809E-03,  -16.3514E-03,   10.9991E-06
C:/temp/dataset/8/16_32.odb,Step-1,Increment      1: Step Time =    1.000,"PART-1-1",           522,      -5.24302,       28.8844,            0.,NA,NA,"",   15.5980E-03,  -11.1734E-03,  -10.8836E-03,   26.5718E-06
C:/temp/dataset/8/16_32.odb,Step-1,Increment      1: Step Time =    1.000,"PART-1-1",           523,      -2.65236,       28.5441,            0.,NA,NA,"",   17.3273E-03,  -11.4060E-03,  -13.0437E-03,   21.2301E-06
C:/temp/dataset/8/16_32.odb,Step-1,Increment      1: Step Time =    1.000,"PART-1-1",           524,         -3.75,           30.,            0.,NA,NA,"",   15.8650E-03,  -10.2185E-03,  -12.1360E-03,   25.4685E-06
C:/temp/dataset/8/16_32.odb,Step-1,Increment      1: Step Time =    1.000,"PART-1-1",           525,      -7.66876,       29.0336,            0.,NA,NA,"",   14.2444E-03,  -11.1070E-03,  -8.91844E-03,   26.2995E-06
C:/temp/dataset/8/16_32.odb,Step-1,Increment      1: Step Time =    1.000,"PART-1-1",           526,      -6.66179,       27.9180,            0.,NA,NA,"",   15.4314E-03,  -11.9904E-03,  -9.71386E-03,   21.4263E-06
C:/temp/dataset/8/16_32.odb,Step-1,Increment      1: Step Time =    1.000,"PART-1-1",           527,         -6.25,           30.,            0.,NA,NA,"",   14.4004E-03,  -10.2888E-03,  -10.0753E-03,   31.9465E-06
C:/temp/dataset/8/16_32.odb,Step-1,Increment      1: Step Time =    1.000,"PART-1-1",           528,      -8.85404,       25.1616,            0.,NA,NA,"",   16.3295E-03,  -14.2721E-03,  -7.93465E-03,   31.5811E-06
C:/temp/dataset/8/16_32.odb,Step-1,Increment      1: Step Time =    1.000,"PART-1-1",           529,      -8.24061,       24.0412,            0.,NA,NA,"",   17.3428E-03,  -15.1772E-03,  -8.39207E-03,   34.8811E-06
C:/temp/dataset/8/16_32.odb,Step-1,Increment      1: Step Time =    1.000,"PART-1-1",           530,      -6.78352,       24.7872,            0.,NA,NA,"",   17.4013E-03,  -14.5399E-03,  -9.56014E-03,   31.7135E-06
C:/temp/dataset/8/16_32.odb,Step-1,Increment      1: Step Time =    1.000,"PART-1-1",           531,      -7.39696,       25.9076,            0.,NA,NA,"",   16.3929E-03,  -13.6396E-03,  -9.09342E-03,   25.4345E-06
C:/temp/dataset/8/16_32.odb,Step-1,Increment      1: Step Time =    1.000,"PART-1-1",           532,      -12.4766,       28.8569,            0.,NA,NA,"",   12.4226E-03,  -11.3117E-03,  -5.13481E-03,   8.63599E-06
C:/temp/dataset/8/16_32.odb,Step-1,Increment      1: Step Time =    1.000,"PART-1-1",           533,        -13.75,           30.,            0.,NA,NA,"",   11.1965E-03,  -10.4065E-03,  -4.13099E-03,   1.39000E-06
C:/temp/dataset/8/16_32.odb,Step-1,Increment      1: Step Time =    1.000,"PART-1-1",           534,          -15.,         28.75,            0.,NA,NA,"",   11.8235E-03,  -11.3994E-03,  -3.13831E-03,   1.39818E-06
C:/temp/dataset/8/16_32.odb,Step-1,Increment      1: Step Time =    1.000,"PART-1-1",           535,      -7.56181,       16.2193,            0.,NA,NA,"",   22.8711E-03,  -21.1870E-03,  -8.61407E-03,   66.7696E-06
C:/temp/dataset/8/16_32.odb,Step-1,Increment      1: Step Time =    1.000,"PART-1-1",           536,      -6.27841,       15.0000,            0.,NA,NA,"",   23.8780E-03,  -21.9647E-03,  -9.36540E-03,   103.519E-06
C:/temp/dataset/8/16_32.odb,Step-1,Increment      1: Step Time =    1.000,"PART-1-1",           537,           -5.,         16.25,            0.,NA,NA,"",   23.4582E-03,  -21.0533E-03,  -10.3463E-03,   129.712E-06
C:/temp/dataset/8/16_32.odb,Step-1,Increment      1: Step Time =    1.000,"PART-1-1",           538,      -8.82455,       15.0032,            0.,NA,NA,"",   23.3582E-03,  -22.0405E-03,  -7.73458E-03,   43.9808E-06
C:/temp/dataset/8/16_32.odb,Step-1,Increment      1: Step Time =    1.000,"PART-1-1",           539,      -10.0916,       16.2233,            0.,NA,NA,"",   22.3213E-03,  -21.2154E-03,  -6.93889E-03,   26.7871E-06
C:/temp/dataset/8/16_32.odb,Step-1,Increment      1: Step Time =    1.000,"PART-1-1",           540,      -13.7530,       10.0200,            0.,NA,NA,"",   25.5287E-03,  -25.0415E-03,  -4.96381E-03,   94.2694E-06
C:/temp/dataset/8/16_32.odb,Step-1,Increment      1: Step Time =    1.000,"PART-1-1",           541,      -12.5412,       11.2886,            0.,NA,NA,"",   24.9813E-03,  -24.3576E-03,  -5.54696E-03,   60.6846E-06
C:/temp/dataset/8/16_32.odb,Step-1,Increment      1: Step Time =    1.000,"PART-1-1",           542,          -15.,         11.25,            0.,NA,NA,"",   24.6322E-03,  -24.2811E-03,  -4.14406E-03,   121.356E-06
C:/temp/dataset/8/16_32.odb,Step-1,Increment      1: Step Time =    1.000,"PART-1-1",           543,      -7.55812,       13.7752,            0.,NA,NA,"",   24.3349E-03,  -22.8158E-03,  -8.46309E-03,   76.8258E-06
C:/temp/dataset/8/16_32.odb,Step-1,Increment      1: Step Time =    1.000,"PART-1-1",           544,      -6.27971,       12.5252,            0.,NA,NA,"",   25.2508E-03,  -23.5445E-03,  -9.12478E-03,   113.917E-06
C:/temp/dataset/8/16_32.odb,Step-1,Increment      1: Step Time =    1.000,"PART-1-1",           545,           -5.,         13.75,            0.,NA,NA,"",   24.8337E-03,  -22.7095E-03,  -10.0495E-03,   141.304E-06
C:/temp/dataset/8/16_32.odb,Step-1,Increment      1: Step Time =    1.000,"PART-1-1",           546,      -7.73665,       8.67409,            0.,NA,NA,"",   26.9668E-03,  -25.7486E-03,  -8.01350E-03,   86.1440E-06
C:/temp/dataset/8/16_32.odb,Step-1,Increment      1: Step Time =    1.000,"PART-1-1",           547,      -6.44095,       7.39158,            0.,NA,NA,"",   27.5965E-03,  -26.2602E-03,  -8.48346E-03,   126.482E-06
C:/temp/dataset/8/16_32.odb,Step-1,Increment      1: Step Time =    1.000,"PART-1-1",           548,           -5.,          8.75,            0.,NA,NA,"",   27.1984E-03,  -25.5523E-03,  -9.31829E-03,   174.895E-06
C:/temp/dataset/8/16_32.odb,Step-1,Increment      1: Step Time =    1.000,"PART-1-1",           549,      -6.29569,       10.0325,            0.,NA,NA,"",   26.5027E-03,  -24.9821E-03,  -8.84790E-03,   124.847E-06
C:/temp/dataset/8/16_32.odb,Step-1,Increment      1: Step Time =    1.000,"PART-1-1",           550,      -10.9758,       6.36562,            0.,NA,NA,"",   27.7618E-03,  -26.9990E-03,  -6.46283E-03,   65.6108E-06
C:/temp/dataset/8/16_32.odb,Step-1,Increment      1: Step Time =    1.000,"PART-1-1",           551,      -11.8413,       4.12979,            0.,NA,NA,"",   28.7607E-03,  -28.0869E-03,  -6.18929E-03,   122.581E-06
C:/temp/dataset/8/16_32.odb,Step-1,Increment      1: Step Time =    1.000,"PART-1-1",           552,      -10.3546,       4.57877,            0.,NA,NA,"",   28.6055E-03,  -27.8246E-03,  -6.63851E-03,   124.070E-06
C:/temp/dataset/8/16_32.odb,Step-1,Increment      1: Step Time =    1.000,"PART-1-1",           553,      -7.08205,   206.599E-03,            0.,NA,NA,"",   30.3214E-03,  -29.5350E-03,  -6.86063E-03,   259.400E-06
C:/temp/dataset/8/16_32.odb,Step-1,Increment      1: Step Time =    1.000,"PART-1-1",           554,      -6.69954,      -1.33924,            0.,NA,NA,"",   30.8720E-03,  -30.1501E-03,  -6.63714E-03,   338.888E-06
C:/temp/dataset/8/16_32.odb,Step-1,Increment      1: Step Time =    1.000,"PART-1-1",           555,      -5.21800,      -1.06475,            0.,NA,NA,"",   30.9345E-03,  -30.0177E-03,  -7.47526E-03,   397.111E-06
C:/temp/dataset/8/16_32.odb,Step-1,Increment      1: Step Time =    1.000,"PART-1-1",           556,      -5.60050,   481.094E-03,            0.,NA,NA,"",   30.2338E-03,  -29.2642E-03,  -7.59533E-03,   243.825E-06
C:/temp/dataset/8/16_32.odb,Step-1,Increment      1: Step Time =    1.000,"PART-1-1",           557,      -4.73446,       1.39984,            0.,NA,NA,"",   29.8738E-03,  -28.6794E-03,  -8.36276E-03,   227.785E-06
C:/temp/dataset/8/16_32.odb,Step-1,Increment      1: Step Time =    1.000,"PART-1-1",           558,      -3.61900,   109.065E-03,            0.,NA,NA,"",   30.7940E-03,  -29.3936E-03,  -9.18074E-03,   379.457E-06
C:/temp/dataset/8/16_32.odb,Step-1,Increment      1: Step Time =    1.000,"PART-1-1",           559,      -7.98156,      -4.65830,            0.,NA,NA,"",   30.5851E-03,  -29.9856E-03,  -6.02583E-03,   465.724E-06
C:/temp/dataset/8/16_32.odb,Step-1,Increment      1: Step Time =    1.000,"PART-1-1",           560,      -6.28336,      -5.33649,            0.,NA,NA,"",   30.6460E-03,  -30.1234E-03,  -5.63563E-03,   1.13263E-03
C:/temp/dataset/8/16_32.odb,Step-1,Increment      1: Step Time =    1.000,"PART-1-1",           561,      -5.33231,      -3.67126,            0.,NA,NA,"",   31.5208E-03,  -30.8837E-03,  -6.30536E-03,   989.175E-06
C:/temp/dataset/8/16_32.odb,Step-1,Increment      1: Step Time =    1.000,"PART-1-1",           562,      -7.03052,      -2.99307,            0.,NA,NA,"",   31.1980E-03,  -30.5877E-03,  -6.14072E-03,   388.558E-06
C:/temp/dataset/8/16_32.odb,Step-1,Increment      1: Step Time =    1.000,"PART-1-1",           563,      -9.50974,      -4.32763,            0.,NA,NA,"",   30.4521E-03,  -29.7844E-03,  -6.34157E-03,   286.359E-06
C:/temp/dataset/8/16_32.odb,Step-1,Increment      1: Step Time =    1.000,"PART-1-1",           564,      -9.07232,      -2.62983,            0.,NA,NA,"",   30.9220E-03,  -30.2804E-03,  -6.26646E-03,   235.806E-06
C:/temp/dataset/8/16_32.odb,Step-1,Increment      1: Step Time =    1.000,"PART-1-1",           565,      -11.0121,      -2.25769,            0.,NA,NA,"",   30.7706E-03,  -30.0635E-03,  -6.55892E-03,   163.652E-06
C:/temp/dataset/8/16_32.odb,Step-1,Increment      1: Step Time =    1.000,"PART-1-1",           566,      -11.4495,      -3.95549,            0.,NA,NA,"",   30.4147E-03,  -29.6333E-03,  -6.85001E-03,   202.637E-06
C:/temp/dataset/8/16_32.odb,Step-1,Increment      1: Step Time =    1.000,"PART-1-1",           567,      -12.8102,      -6.09114,            0.,NA,NA,"",   29.1200E-03,  -28.0695E-03,  -7.75114E-03,   293.343E-06
C:/temp/dataset/8/16_32.odb,Step-1,Increment      1: Step Time =    1.000,"PART-1-1",           568,          -15.,         -6.25,            0.,NA,NA,"",   29.0978E-03,  -27.5821E-03,  -9.26878E-03,   466.502E-06
C:/temp/dataset/8/16_32.odb,Step-1,Increment      1: Step Time =    1.000,"PART-1-1",           569,      -12.4910,      -11.2807,            0.,NA,NA,"",   22.9433E-03,  -21.6308E-03,  -7.64894E-03,   487.690E-06
C:/temp/dataset/8/16_32.odb,Step-1,Increment      1: Step Time =    1.000,"PART-1-1",           570,      -11.2625,      -12.5870,            0.,NA,NA,"",   20.6321E-03,  -19.5704E-03,  -6.53337E-03,   574.420E-06
C:/temp/dataset/8/16_32.odb,Step-1,Increment      1: Step Time =    1.000,"PART-1-1",           571,      -9.99448,      -11.3836,            0.,NA,NA,"",   22.0998E-03,  -21.2918E-03,  -5.92144E-03,   626.580E-06
C:/temp/dataset/8/16_32.odb,Step-1,Increment      1: Step Time =    1.000,"PART-1-1",           572,      -13.7563,      -12.5333,            0.,NA,NA,"",   21.6870E-03,  -19.9351E-03,  -8.53926E-03,   368.463E-06
C:/temp/dataset/8/16_32.odb,Step-1,Increment      1: Step Time =    1.000,"PART-1-1",           573,          -15.,        -11.25,            0.,NA,NA,"",   24.1000E-03,  -21.8233E-03,  -10.2252E-03,   120.277E-06
C:/temp/dataset/8/16_32.odb,Step-1,Increment      1: Step Time =    1.000,"PART-1-1",           574,      -8.71470,      -10.1608,            0.,NA,NA,"",   23.6603E-03,  -23.0601E-03,  -5.29579E-03,   587.321E-06
C:/temp/dataset/8/16_32.odb,Step-1,Increment      1: Step Time =    1.000,"PART-1-1",           575,      -7.42250,      -8.98868,            0.,NA,NA,"",   25.1380E-03,  -24.6998E-03,  -4.67346E-03,   647.258E-06
C:/temp/dataset/8/16_32.odb,Step-1,Increment      1: Step Time =    1.000,"PART-1-1",           576,      -8.58559,      -7.84754,            0.,NA,NA,"",   27.0614E-03,  -26.4414E-03,  -5.75961E-03,   664.300E-06
C:/temp/dataset/8/16_32.odb,Step-1,Increment      1: Step Time =    1.000,"PART-1-1",           577,      -7.50843,      -13.8545,            0.,NA,NA,"",   17.6649E-03,  -17.2606E-03,  -3.75768E-03,   467.361E-06
C:/temp/dataset/8/16_32.odb,Step-1,Increment      1: Step Time =    1.000,"PART-1-1",           578,      -6.25915,      -15.0553,            0.,NA,NA,"",   15.6847E-03,  -15.4792E-03,  -2.53085E-03,   267.734E-06
C:/temp/dataset/8/16_32.odb,Step-1,Increment      1: Step Time =    1.000,"PART-1-1",           579,           -5.,        -13.75,            0.,NA,NA,"",   17.3844E-03,  -17.3591E-03,  -937.722E-06,   78.6054E-06
C:/temp/dataset/8/16_32.odb,Step-1,Increment      1: Step Time =    1.000,"PART-1-1",           580,      -6.24927,      -12.5492,            0.,NA,NA,"",   19.3547E-03,  -19.1773E-03,  -2.61481E-03,   263.442E-06
C:/temp/dataset/8/16_32.odb,Step-1,Increment      1: Step Time =    1.000,"PART-1-1",           581,      -11.2908,      -17.6967,            0.,NA,NA,"",   13.9453E-03,  -13.0990E-03,  -4.78394E-03,   702.600E-06
C:/temp/dataset/8/16_32.odb,Step-1,Increment      1: Step Time =    1.000,"PART-1-1",           582,      -12.6364,      -18.8537,            0.,NA,NA,"",   13.8238E-03,  -12.9356E-03,  -4.87533E-03,   632.518E-06
C:/temp/dataset/8/16_32.odb,Step-1,Increment      1: Step Time =    1.000,"PART-1-1",           583,      -11.4151,      -20.3877,            0.,NA,NA,"",   12.4067E-03,  -11.9773E-03,  -3.23581E-03,   795.106E-06
C:/temp/dataset/8/16_32.odb,Step-1,Increment      1: Step Time =    1.000,"PART-1-1",           584,      -10.0695,      -19.2307,            0.,NA,NA,"",   12.0031E-03,  -11.5446E-03,  -3.28592E-03,   834.130E-06
C:/temp/dataset/8/16_32.odb,Step-1,Increment      1: Step Time =    1.000,"PART-1-1",           585,      -7.51548,      -16.3910,            0.,NA,NA,"",   13.8349E-03,  -13.3286E-03,  -3.70876E-03,   782.709E-06
C:/temp/dataset/8/16_32.odb,Step-1,Increment      1: Step Time =    1.000,"PART-1-1",           586,      -6.25633,      -17.5856,            0.,NA,NA,"",   11.6414E-03,  -11.1485E-03,  -3.35154E-03,   758.987E-06
C:/temp/dataset/8/16_32.odb,Step-1,Increment      1: Step Time =    1.000,"PART-1-1",           587,           -5.,        -16.25,            0.,NA,NA,"",   13.9028E-03,  -13.8620E-03,  -1.06401E-03,   495.243E-06
C:/temp/dataset/8/16_32.odb,Step-1,Increment      1: Step Time =    1.000,"PART-1-1",           588,      -10.0186,      -13.8764,            0.,NA,NA,"",   18.3132E-03,  -17.4733E-03,  -5.48231E-03,   641.634E-06
C:/temp/dataset/8/16_32.odb,Step-1,Increment      1: Step Time =    1.000,"PART-1-1",           589,      -8.77159,      -15.1281,            0.,NA,NA,"",   16.0797E-03,  -15.4366E-03,  -4.50209E-03,   627.085E-06
C:/temp/dataset/8/16_32.odb,Step-1,Increment      1: Step Time =    1.000,"PART-1-1",           590,      -8.75544,      -12.6029,            0.,NA,NA,"",   19.8990E-03,  -19.2920E-03,  -4.87740E-03,   543.017E-06
C:/temp/dataset/8/16_32.odb,Step-1,Increment      1: Step Time =    1.000,"PART-1-1",           591,      -7.46407,      -18.9773,            0.,NA,NA,"",   9.99157E-03,  -9.39963E-03,  -3.38799E-03,   1.16518E-03
C:/temp/dataset/8/16_32.odb,Step-1,Increment      1: Step Time =    1.000,"PART-1-1",           592,      -8.77449,      -17.7191,            0.,NA,NA,"",   12.5583E-03,  -11.9284E-03,  -3.92734E-03,   895.060E-06
C:/temp/dataset/8/16_32.odb,Step-1,Increment      1: Step Time =    1.000,"PART-1-1",           593,      -8.75908,      -20.4889,            0.,NA,NA,"",   10.7338E-03,  -10.5332E-03,  -2.06555E-03,   1.18891E-03
C:/temp/dataset/8/16_32.odb,Step-1,Increment      1: Step Time =    1.000,"PART-1-1",           594,      -14.0314,      -22.4081,            0.,NA,NA,"",   13.1241E-03,  -12.5242E-03,  -3.92246E-03,   450.085E-06
C:/temp/dataset/8/16_32.odb,Step-1,Increment      1: Step Time =    1.000,"PART-1-1",           595,      -12.8952,      -21.1986,            0.,NA,NA,"",   12.9809E-03,  -12.4345E-03,  -3.72651E-03,   661.195E-06
C:/temp/dataset/8/16_32.odb,Step-1,Increment      1: Step Time =    1.000,"PART-1-1",           596,      -13.8638,      -20.0405,            0.,NA,NA,"",   13.8337E-03,  -12.9261E-03,  -4.92833E-03,   679.128E-06
C:/temp/dataset/8/16_32.odb,Step-1,Increment      1: Step Time =    1.000,"PART-1-1",           597,          -15.,        -21.25,            0.,NA,NA,"",   13.8039E-03,  -12.9512E-03,  -4.77654E-03,   495.144E-06
C:/temp/dataset/8/16_32.odb,Step-1,Increment      1: Step Time =    1.000,"PART-1-1",           598,      -11.2673,      -23.1539,            0.,NA,NA,"",   12.1857E-03,  -12.0617E-03,  -1.73397E-03,   575.450E-06
C:/temp/dataset/8/16_32.odb,Step-1,Increment      1: Step Time =    1.000,"PART-1-1",           599,      -10.1366,      -23.6180,            0.,NA,NA,"",   12.2035E-03,  -12.1613E-03,  -1.01394E-03,   628.445E-06
C:/temp/dataset/8/16_32.odb,Step-1,Increment      1: Step Time =    1.000,"PART-1-1",           600,      -9.65781,      -21.9912,            0.,NA,NA,"",   11.7402E-03,  -11.6532E-03,  -1.42685E-03,   760.805E-06
C:/temp/dataset/8/16_32.odb,Step-1,Increment      1: Step Time =    1.000,"PART-1-1",           601,      -10.7884,      -21.5271,            0.,NA,NA,"",   12.0235E-03,  -11.8211E-03,  -2.19686E-03,   798.370E-06
C:/temp/dataset/8/16_32.odb,Step-1,Increment      1: Step Time =    1.000,"PART-1-1",           602,          -15.,        -28.75,            0.,NA,NA,"",   4.65274E-03,  -3.95442E-03,  -2.45165E-03,   1.85397E-03
C:/temp/dataset/8/16_32.odb,Step-1,Increment      1: Step Time =    1.000,"PART-1-1",           603,        -13.75,          -30.,            0.,NA,NA,"",            0.,  -782.131E-42,  -2.15348E-39,   2.39023E-03
C:/temp/dataset/8/16_32.odb,Step-1,Increment      1: Step Time =    1.000,"PART-1-1",           604,      -2.48436,      -28.8316,            0.,NA,NA,"",   9.97977E-03,  -8.43279E-03,  -5.33704E-03,   7.58847E-03
C:/temp/dataset/8/16_32.odb,Step-1,Increment      1: Step Time =    1.000,"PART-1-1",           605,      -3.66464,      -27.6979,            0.,NA,NA,"",   15.8944E-03,  -14.0957E-03,  -7.34454E-03,   5.92764E-03
C:/temp/dataset/8/16_32.odb,Step-1,Increment      1: Step Time =    1.000,"PART-1-1",           606,         -3.75,          -30.,            0.,NA,NA,"",            0.,  -5.19686E-39,  -8.37058E-39,   6.76924E-03
C:/temp/dataset/8/16_32.odb,Step-1,Increment      1: Step Time =    1.000,"PART-1-1",           607,      -3.65817,      -25.2536,            0.,NA,NA,"",   24.2336E-03,  -20.1976E-03,  -13.3913E-03,   5.72108E-03
C:/temp/dataset/8/16_32.odb,Step-1,Increment      1: Step Time =    1.000,"PART-1-1",           608,      -2.51119,      -23.8961,            0.,NA,NA,"",   33.5281E-03,  -21.4152E-03,  -25.7978E-03,   7.56911E-03
C:/temp/dataset/8/16_32.odb,Step-1,Increment      1: Step Time =    1.000,"PART-1-1",           609,      -3.67574,      -22.6579,            0.,NA,NA,"",   21.9467E-03,  -16.1773E-03,  -14.8307E-03,   3.60299E-03
C:/temp/dataset/8/16_32.odb,Step-1,Increment      1: Step Time =    1.000,"PART-1-1",           610,      -1.29318,      -22.5899,            0.,NA,NA,"",   52.7890E-03,  -19.0674E-03,  -49.2251E-03,   13.0925E-03
C:/temp/dataset/8/16_32.odb,Step-1,Increment      1: Step Time =    1.000,"PART-1-1",           611,  -38.5445E-03,      -21.2879,            0.,NA,NA,"",   90.2002E-03,  -12.5997E-03,  -89.3158E-03,   19.9369E-03
C:/temp/dataset/8/16_32.odb,Step-1,Increment      1: Step Time =    1.000,"PART-1-1",           612,         -1.25,          -20.,            0.,NA,NA,"",   55.4667E-03,   17.5257E-03,  -52.6251E-03,   3.24840E-03
C:/temp/dataset/8/16_32.odb,Step-1,Increment      1: Step Time =    1.000,"PART-1-1",           613,      -2.50464,      -21.3020,            0.,NA,NA,"",   29.1373E-03,  -6.79621E-03,  -28.3336E-03,   2.52495E-03
C:/temp/dataset/8/16_32.odb,Step-1,Increment      1: Step Time =    1.000,"PART-1-1",           614,       6.00193,      -26.4828,            0.,NA,NA,"",   31.7740E-03,   18.4219E-03,  -25.8886E-03,   10.6437E-03
C:/temp/dataset/8/16_32.odb,Step-1,Increment      1: Step Time =    1.000,"PART-1-1",           615,       6.71688,      -27.7553,            0.,NA,NA,"",   20.1931E-03,   14.7012E-03,  -13.8433E-03,   9.19697E-03
C:/temp/dataset/8/16_32.odb,Step-1,Increment      1: Step Time =    1.000,"PART-1-1",           616,       8.27191,      -26.8508,            0.,NA,NA,"",   24.4972E-03,   20.2329E-03,  -13.8109E-03,   7.09577E-03
C:/temp/dataset/8/16_32.odb,Step-1,Increment      1: Step Time =    1.000,"PART-1-1",           617,       7.55696,      -25.5783,            0.,NA,NA,"",   33.1500E-03,   23.6895E-03,  -23.1890E-03,   8.30645E-03
C:/temp/dataset/8/16_32.odb,Step-1,Increment      1: Step Time =    1.000,"PART-1-1",           618,       1.28220,      -22.6790,            0.,NA,NA,"",   93.5552E-03,  -7.20630E-03,  -93.2772E-03,   22.6480E-03
C:/temp/dataset/8/16_32.odb,Step-1,Increment      1: Step Time =    1.000,"PART-1-1",           619,       2.57074,      -21.3912,            0.,NA,NA,"",   129.639E-03,   7.93527E-03,  -129.396E-03,   29.3875E-03
C:/temp/dataset/8/16_32.odb,Step-1,Increment      1: Step Time =    1.000,"PART-1-1",           620,          1.25,          -20.,            0.,NA,NA,"",   154.170E-03,   13.4118E-03,  -153.585E-03,   26.3605E-03
C:/temp/dataset/8/16_32.odb,Step-1,Increment      1: Step Time =    1.000,"PART-1-1",           621,       2.23882,      -25.9818,            0.,NA,NA,"",   43.9427E-03,  -120.150E-06,  -43.9426E-03,   15.6669E-03
C:/temp/dataset/8/16_32.odb,Step-1,Increment      1: Step Time =    1.000,"PART-1-1",           622,       3.60539,      -25.7966,            0.,NA,NA,"",   45.6998E-03,   9.33406E-03,  -44.7364E-03,   14.8046E-03
C:/temp/dataset/8/16_32.odb,Step-1,Increment      1: Step Time =    1.000,"PART-1-1",           623,       3.51945,      -23.6994,            0.,NA,NA,"",   77.2465E-03,   13.1804E-03,  -76.1137E-03,   20.7966E-03
C:/temp/dataset/8/16_32.odb,Step-1,Increment      1: Step Time =    1.000,"PART-1-1",           624,       2.15288,      -23.8846,            0.,NA,NA,"",   77.3773E-03,  -461.948E-06,  -77.3759E-03,   21.4278E-03
C:/temp/dataset/8/16_32.odb,Step-1,Increment      1: Step Time =    1.000,"PART-1-1",           625,       7.70422,      -28.9586,            0.,NA,NA,"",   9.93207E-03,   8.53819E-03,  -5.07400E-03,   8.16642E-03
C:/temp/dataset/8/16_32.odb,Step-1,Increment      1: Step Time =    1.000,"PART-1-1",           626,       5.26266,      -28.7967,            0.,NA,NA,"",   11.2583E-03,   6.97752E-03,  -8.83535E-03,   10.3344E-03
C:/temp/dataset/8/16_32.odb,Step-1,Increment      1: Step Time =    1.000,"PART-1-1",           627,          6.25,          -30.,            0.,NA,NA,"",            0.,   5.16150E-39,  -14.5525E-39,   9.09425E-03
C:/temp/dataset/8/16_32.odb,Step-1,Increment      1: Step Time =    1.000,"PART-1-1",           628,       12.0997,      -20.6264,            0.,NA,NA,"",   13.5382E-03,   8.47388E-03,  -10.5582E-03,   1.94290E-03
C:/temp/dataset/8/16_32.odb,Step-1,Increment      1: Step Time =    1.000,"PART-1-1",           629,       11.2927,      -21.6255,            0.,NA,NA,"",   18.7569E-03,   14.0254E-03,  -12.4544E-03,   1.75906E-03
C:/temp/dataset/8/16_32.odb,Step-1,Increment      1: Step Time =    1.000,"PART-1-1",           630,       12.1482,      -22.5490,            0.,NA,NA,"",   20.4875E-03,   18.4542E-03,  -8.89831E-03,   1.24094E-03
C:/temp/dataset/8/16_32.odb,Step-1,Increment      1: Step Time =    1.000,"PART-1-1",           631,       12.9553,      -21.5498,            0.,NA,NA,"",   15.4736E-03,   13.8048E-03,  -6.99005E-03,   1.40717E-03
C:/temp/dataset/8/16_32.odb,Step-1,Increment      1: Step Time =    1.000,"PART-1-1",           632,         13.75,          -30.,            0.,NA,NA,"",            0.,   2.59426E-39,  -4.78655E-39,   5.98627E-03
C:/temp/dataset/8/16_32.odb,Step-1,Increment      1: Step Time =    1.000,"PART-1-1",           633,           15.,      -28.7625,            0.,NA,NA,"",   10.7391E-03,   9.45669E-03,  -5.08922E-03,   3.79172E-03
C:/temp/dataset/8/16_32.odb,Step-1,Increment      1: Step Time =    1.000,"PART-1-1",           634,       13.7776,      -27.6227,            0.,NA,NA,"",   16.2118E-03,   15.8466E-03,  -3.42174E-03,   2.54668E-03
C:/temp/dataset/8/16_32.odb,Step-1,Increment      1: Step Time =    1.000,"PART-1-1",           635,           15.,      -26.2875,            0.,NA,NA,"",   22.3631E-03,   21.3542E-03,  -6.64101E-03,   861.069E-06
C:/temp/dataset/8/16_32.odb,Step-1,Increment      1: Step Time =    1.000,"PART-1-1",           636,       13.5918,      -25.0908,            0.,NA,NA,"",   23.8803E-03,   23.3326E-03,  -5.08517E-03,   684.017E-06
C:/temp/dataset/8/16_32.odb,Step-1,Increment      1: Step Time =    1.000,"PART-1-1",           637,       12.3694,      -26.4260,            0.,NA,NA,"",   21.6823E-03,   21.0589E-03,  -5.16197E-03,   3.27199E-03
C:/temp/dataset/8/16_32.odb,Step-1,Increment      1: Step Time =    1.000,"PART-1-1",           638,       13.9605,      -22.6420,            0.,NA,NA,"",   18.9974E-03,   18.6072E-03,  -3.83017E-03,   773.581E-06
C:/temp/dataset/8/16_32.odb,Step-1,Increment      1: Step Time =    1.000,"PART-1-1",           639,       12.5523,      -23.9204,            0.,NA,NA,"",   23.5716E-03,   22.5135E-03,  -6.98316E-03,   993.619E-06
C:/temp/dataset/8/16_32.odb,Step-1,Increment      1: Step Time =    1.000,"PART-1-1",           640,           15.,      -23.8125,            0.,NA,NA,"",   21.5608E-03,   21.4304E-03,  -2.36793E-03,   1.62795E-03
C:/temp/dataset/8/16_32.odb,Step-1,Increment      1: Step Time =    1.000,"PART-1-1",           641,           15.,      -21.3375,            0.,NA,NA,"",   12.6010E-03,   12.5741E-03,   823.133E-06,   689.700E-06
C:/temp/dataset/8/16_32.odb,Step-1,Increment      1: Step Time =    1.000,"PART-1-1",           642,       7.29123,      -18.3998,            0.,NA,NA,"",   43.0548E-03,  -11.9319E-03,  -41.3684E-03,   3.47742E-03
C:/temp/dataset/8/16_32.odb,Step-1,Increment      1: Step Time =    1.000,"PART-1-1",           643,       6.16190,      -17.3915,            0.,NA,NA,"",   53.3079E-03,  -16.9965E-03,  -50.5257E-03,   3.53369E-03
C:/temp/dataset/8/16_32.odb,Step-1,Increment      1: Step Time =    1.000,"PART-1-1",           644,            5.,        -18.75,            0.,NA,NA,"",   68.8114E-03,  -9.66272E-03,  -68.1295E-03,   13.2682E-03
C:/temp/dataset/8/16_32.odb,Step-1,Increment      1: Step Time =    1.000,"PART-1-1",           645,       6.12933,      -19.7583,            0.,NA,NA,"",   53.9078E-03,  -4.73008E-03,  -53.6999E-03,   4.87351E-03
C:/temp/dataset/8/16_32.odb,Step-1,Increment      1: Step Time =    1.000,"PART-1-1",           646,       9.51257,      -18.2945,            0.,NA,NA,"",   26.3318E-03,  -8.93245E-03,  -24.7704E-03,   2.02779E-03
C:/temp/dataset/8/16_32.odb,Step-1,Increment      1: Step Time =    1.000,"PART-1-1",           647,       10.1101,      -19.3444,            0.,NA,NA,"",   20.3075E-03,  -1.28323E-03,  -20.2669E-03,   2.06774E-03
C:/temp/dataset/8/16_32.odb,Step-1,Increment      1: Step Time =    1.000,"PART-1-1",           648,       11.5966,      -18.6396,            0.,NA,NA,"",   15.4353E-03,  -4.37201E-03,  -14.8031E-03,   2.12071E-03
C:/temp/dataset/8/16_32.odb,Step-1,Increment      1: Step Time =    1.000,"PART-1-1",           649,       10.5568,      -11.7080,            0.,NA,NA,"",   40.9715E-03,  -33.0256E-03,  -24.2482E-03,   594.925E-06
C:/temp/dataset/8/16_32.odb,Step-1,Increment      1: Step Time =    1.000,"PART-1-1",           650,       11.5580,      -12.7427,            0.,NA,NA,"",   36.9102E-03,  -30.4140E-03,  -20.9130E-03,   768.234E-06
C:/temp/dataset/8/16_32.odb,Step-1,Increment      1: Step Time =    1.000,"PART-1-1",           651,       12.7592,      -11.5531,            0.,NA,NA,"",   37.4485E-03,  -32.5907E-03,  -18.4455E-03,   1.15268E-03
C:/temp/dataset/8/16_32.odb,Step-1,Increment      1: Step Time =    1.000,"PART-1-1",           652,       5.97400,      -7.48832,            0.,NA,NA,"",   46.5366E-03,  -36.3034E-03,  -29.1156E-03,   1.71830E-03
C:/temp/dataset/8/16_32.odb,Step-1,Increment      1: Step Time =    1.000,"PART-1-1",           653,            5.,         -8.75,            0.,NA,NA,"",   47.1791E-03,  -34.4284E-03,  -32.2575E-03,   2.22477E-03
C:/temp/dataset/8/16_32.odb,Step-1,Increment      1: Step Time =    1.000,"PART-1-1",           654,       6.96466,      -8.62400,            0.,NA,NA,"",   46.8982E-03,  -36.1623E-03,  -29.8619E-03,   1.40991E-03
C:/temp/dataset/8/16_32.odb,Step-1,Increment      1: Step Time =    1.000,"PART-1-1",           655,       13.4824,      -5.05044,            0.,NA,NA,"",   43.5030E-03,  -36.7718E-03,  -23.2452E-03,   860.858E-06
C:/temp/dataset/8/16_32.odb,Step-1,Increment      1: Step Time =    1.000,"PART-1-1",           656,           15.,      -6.28125,            0.,NA,NA,"",   42.2785E-03,  -36.2255E-03,  -21.7988E-03,   1.39628E-03
C:/temp/dataset/8/16_32.odb,Step-1,Increment      1: Step Time =    1.000,"PART-1-1",           657,       12.6591,      -1.12439,            0.,NA,NA,"",   42.2345E-03,  -34.1079E-03,  -24.9078E-03,   512.849E-06
C:/temp/dataset/8/16_32.odb,Step-1,Increment      1: Step Time =    1.000,"PART-1-1",           658,       13.8600,      -2.43742,            0.,NA,NA,"",   42.9744E-03,  -35.0777E-03,  -24.8265E-03,   600.637E-06
C:/temp/dataset/8/16_32.odb,Step-1,Increment      1: Step Time =    1.000,"PART-1-1",           659,           15.,      -1.25625,            0.,NA,NA,"",   42.7207E-03,  -33.8464E-03,  -26.0668E-03,   530.655E-06
C:/temp/dataset/8/16_32.odb,Step-1,Increment      1: Step Time =    1.000,"PART-1-1",           660,       5.30074,       3.65708,            0.,NA,NA,"",   34.8445E-03,  -28.0709E-03,  -20.6436E-03,   393.849E-06
C:/temp/dataset/8/16_32.odb,Step-1,Increment      1: Step Time =    1.000,"PART-1-1",           661,       7.62947,       4.43985,            0.,NA,NA,"",   35.8689E-03,  -28.2038E-03,  -22.1613E-03,   295.449E-06
C:/temp/dataset/8/16_32.odb,Step-1,Increment      1: Step Time =    1.000,"PART-1-1",           662,       6.09164,       5.20441,            0.,NA,NA,"",   34.4125E-03,  -27.3052E-03,  -20.9439E-03,   337.126E-06
C:/temp/dataset/8/16_32.odb,Step-1,Increment      1: Step Time =    1.000,"PART-1-1",           663,       10.7729,       2.25312,            0.,NA,NA,"",   39.1704E-03,  -30.7040E-03,  -24.3224E-03,   331.620E-06
C:/temp/dataset/8/16_32.odb,Step-1,Increment      1: Step Time =    1.000,"PART-1-1",           664,       10.9515,       3.76013,            0.,NA,NA,"",   38.1113E-03,  -29.3563E-03,  -24.3039E-03,   207.161E-06
C:/temp/dataset/8/16_32.odb,Step-1,Increment      1: Step Time =    1.000,"PART-1-1",           665,       8.98494,       4.06074,            0.,NA,NA,"",   36.9189E-03,  -28.7990E-03,  -23.1003E-03,   276.538E-06
C:/temp/dataset/8/16_32.odb,Step-1,Increment      1: Step Time =    1.000,"PART-1-1",           666,           15.,       8.66250,            0.,NA,NA,"",   37.2668E-03,  -25.7703E-03,  -26.9203E-03,   34.4327E-06
C:/temp/dataset/8/16_32.odb,Step-1,Increment      1: Step Time =    1.000,"PART-1-1",           667,       13.0810,       8.82259,            0.,NA,NA,"",   36.2177E-03,  -25.6378E-03,  -25.5818E-03,   19.1664E-06
C:/temp/dataset/8/16_32.odb,Step-1,Increment      1: Step Time =    1.000,"PART-1-1",           668,       7.75239,       11.0444,            0.,NA,NA,"",   32.5971E-03,  -24.1408E-03,  -21.9042E-03,   17.1918E-06
C:/temp/dataset/8/16_32.odb,Step-1,Increment      1: Step Time =    1.000,"PART-1-1",           669,       6.56216,       12.4157,            0.,NA,NA,"",   31.3799E-03,  -23.2372E-03,  -21.0887E-03,   29.3567E-06
C:/temp/dataset/8/16_32.odb,Step-1,Increment      1: Step Time =    1.000,"PART-1-1",           670,            5.,         11.25,            0.,NA,NA,"",   31.2846E-03,  -23.9732E-03,  -20.1000E-03,   44.5124E-06
C:/temp/dataset/8/16_32.odb,Step-1,Increment      1: Step Time =    1.000,"PART-1-1",           671,       10.9687,       10.2381,            0.,NA,NA,"",   34.4943E-03,  -24.6801E-03,  -24.0987E-03,   26.5714E-06
C:/temp/dataset/8/16_32.odb,Step-1,Increment      1: Step Time =    1.000,"PART-1-1",           672,       9.89393,       9.91282,            0.,NA,NA,"",   34.1295E-03,  -24.8838E-03,  -23.3585E-03,   28.1126E-06
C:/temp/dataset/8/16_32.odb,Step-1,Increment      1: Step Time =    1.000,"PART-1-1",           673,       10.3396,       8.57072,            0.,NA,NA,"",   34.9927E-03,  -25.7640E-03,  -23.6793E-03,   29.2350E-06
C:/temp/dataset/8/16_32.odb,Step-1,Increment      1: Step Time =    1.000,"PART-1-1",           674,       11.4143,       8.89605,            0.,NA,NA,"",   35.3553E-03,  -25.5684E-03,  -24.4182E-03,   24.2219E-06
C:/temp/dataset/8/16_32.odb,Step-1,Increment      1: Step Time =    1.000,"PART-1-1",           675,       12.6608,       18.9269,            0.,NA,NA,"",   31.5556E-03,  -18.8432E-03,  -25.3118E-03,   15.5746E-06
C:/temp/dataset/8/16_32.odb,Step-1,Increment      1: Step Time =    1.000,"PART-1-1",           676,       13.7941,       17.5480,            0.,NA,NA,"",   32.7623E-03,  -19.8044E-03,  -26.0990E-03,   23.3930E-06
C:/temp/dataset/8/16_32.odb,Step-1,Increment      1: Step Time =    1.000,"PART-1-1",           677,           15.,       18.6938,            0.,NA,NA,"",   32.9914E-03,  -18.9814E-03,  -26.9841E-03,   35.7100E-06
C:/temp/dataset/8/16_32.odb,Step-1,Increment      1: Step Time =    1.000,"PART-1-1",           678,       11.2471,       27.2214,            0.,NA,NA,"",   27.3782E-03,  -12.5539E-03,  -24.3304E-03,   16.8310E-06
C:/temp/dataset/8/16_32.odb,Step-1,Increment      1: Step Time =    1.000,"PART-1-1",           679,       12.5374,       28.7023,            0.,NA,NA,"",   27.7605E-03,  -11.4080E-03,  -25.3082E-03,   8.15126E-06
C:/temp/dataset/8/16_32.odb,Step-1,Increment      1: Step Time =    1.000,"PART-1-1",           680,         11.25,           30.,            0.,NA,NA,"",   26.4559E-03,  -10.4024E-03,  -24.3250E-03,   10.6665E-06
C:/temp/dataset/8/16_32.odb,Step-1,Increment      1: Step Time =    1.000,"PART-1-1",           681,       8.10754,       23.1840,            0.,NA,NA,"",   27.0086E-03,  -15.7083E-03,  -21.9707E-03,   19.8377E-06
C:/temp/dataset/8/16_32.odb,Step-1,Increment      1: Step Time =    1.000,"PART-1-1",           682,       9.64263,       22.1457,            0.,NA,NA,"",   28.4079E-03,  -16.4999E-03,  -23.1249E-03,   14.8177E-06
C:/temp/dataset/8/16_32.odb,Step-1,Increment      1: Step Time =    1.000,"PART-1-1",           683,           15.,       28.7437,            0.,NA,NA,"",   29.4784E-03,  -11.3793E-03,  -27.1935E-03,   1.55812E-06
C:/temp/dataset/8/16_32.odb,Step-1,Increment      1: Step Time =    1.000,"PART-1-1",           684,         13.75,           30.,            0.,NA,NA,"",   28.2252E-03,  -10.4131E-03,  -26.2342E-03,   1.56376E-06
C:/temp/dataset/8/16_32.odb,Step-1,Increment      1: Step Time =    1.000,"PART-1-1",           685,       13.7874,       27.4460,            0.,NA,NA,"",   29.0322E-03,  -12.3826E-03,  -26.2591E-03,   8.03816E-06
C:/temp/dataset/8/16_32.odb,Step-1,Increment      1: Step Time =    1.000,"PART-1-1",           686,       7.12499,       6.45847,            0.,NA,NA,"",   34.4540E-03,  -26.8755E-03,  -21.5589E-03,   136.410E-06
C:/temp/dataset/8/16_32.odb,Step-1,Increment      1: Step Time =    1.000,"PART-1-1",           687,            5.,          6.25,            0.,NA,NA,"",   33.6936E-03,  -26.9088E-03,  -20.2776E-03,   165.422E-06
C:/temp/dataset/8/16_32.odb,Step-1,Increment      1: Step Time =    1.000,"PART-1-1",           688,       9.07752,      -27.9736,            0.,NA,NA,"",   16.7352E-03,   15.0953E-03,  -7.22479E-03,   6.63958E-03
C:/temp/dataset/8/16_32.odb,Step-1,Increment      1: Step Time =    1.000,"PART-1-1",           689,          8.75,          -30.,            0.,NA,NA,"",            0.,   5.87138E-39,  -9.61147E-39,   7.80089E-03
C:/temp/dataset/8/16_32.odb,Step-1,Increment      1: Step Time =    1.000,"PART-1-1",           690,           15.,       3.71250,            0.,NA,NA,"",   40.0315E-03,  -29.4987E-03,  -27.0619E-03,   43.0747E-06
C:/temp/dataset/8/16_32.odb,Step-1,Increment      1: Step Time =    1.000,"PART-1-1",           691,       12.3996,       4.14954,            0.,NA,NA,"",   38.4931E-03,  -29.1205E-03,  -25.1737E-03,   153.214E-06
C:/temp/dataset/8/16_32.odb,Step-1,Increment      1: Step Time =    1.000,"PART-1-1",           692,       9.86779,       6.75734,            0.,NA,NA,"",   35.6980E-03,  -26.9514E-03,  -23.4087E-03,   75.6911E-06
C:/temp/dataset/8/16_32.odb,Step-1,Increment      1: Step Time =    1.000,"PART-1-1",           693,       8.81759,       6.48028,            0.,NA,NA,"",   35.3262E-03,  -27.0501E-03,  -22.7207E-03,   121.209E-06
C:/temp/dataset/8/16_32.odb,Step-1,Increment      1: Step Time =    1.000,"PART-1-1",           694,       9.27664,       5.21437,            0.,NA,NA,"",   36.2991E-03,  -27.9755E-03,  -23.1301E-03,   168.809E-06
C:/temp/dataset/8/16_32.odb,Step-1,Increment      1: Step Time =    1.000,"PART-1-1",           695,       10.3268,       5.49143,            0.,NA,NA,"",   36.6599E-03,  -27.8945E-03,  -23.7875E-03,   134.611E-06
C:/temp/dataset/8/16_32.odb,Step-1,Increment      1: Step Time =    1.000,"PART-1-1",           696,   710.804E-03,      -25.0300,            0.,NA,NA,"",   52.2996E-03,  -11.3588E-03,  -51.0512E-03,   15.6983E-03
C:/temp/dataset/8/16_32.odb,Step-1,Increment      1: Step Time =    1.000,"PART-1-1",           697,  -159.879E-03,      -23.8244,            0.,NA,NA,"",   59.8719E-03,  -17.5693E-03,  -57.2360E-03,   15.8671E-03
C:/temp/dataset/8/16_32.odb,Step-1,Increment      1: Step Time =    1.000,"PART-1-1",           698,         -3.75,          -20.,            0.,NA,NA,"",   15.9445E-03,   2.03318E-03,  -15.8143E-03,   5.33285E-03
C:/temp/dataset/8/16_32.odb,Step-1,Increment      1: Step Time =    1.000,"PART-1-1",           699,      -4.92110,      -21.3559,            0.,NA,NA,"",   10.3570E-03,  -8.58855E-03,  -5.78835E-03,   1.37369E-03
C:/temp/dataset/8/16_32.odb,Step-1,Increment      1: Step Time =    1.000,"PART-1-1",           700,         -1.25,          -30.,            0.,NA,NA,"",            0.,  -4.77099E-39,  -13.7004E-39,   8.45292E-03
C:/temp/dataset/8/16_32.odb,Step-1,Increment      1: Step Time =    1.000,"PART-1-1",           701,      -1.24185,      -27.5805,            0.,NA,NA,"",   20.2661E-03,  -13.1737E-03,  -15.4003E-03,   9.17394E-03
C:/temp/dataset/8/16_32.odb,Step-1,Increment      1: Step Time =    1.000,"PART-1-1",           702,      -7.47566,      -11.3800,            0.,NA,NA,"",   21.4593E-03,  -21.0715E-03,  -4.06122E-03,   494.095E-06
C:/temp/dataset/8/16_32.odb,Step-1,Increment      1: Step Time =    1.000,"PART-1-1",           703,           -5.,        -11.25,            0.,NA,NA,"",   21.0220E-03,  -20.9845E-03,  -1.25487E-03,   277.340E-06
C:/temp/dataset/8/16_32.odb,Step-1,Increment      1: Step Time =    1.000,"PART-1-1",           704,      -6.22639,      -10.0808,            0.,NA,NA,"",   23.0648E-03,  -22.8490E-03,  -3.14798E-03,   438.862E-06
C:/temp/dataset/8/16_32.odb,Step-1,Increment      1: Step Time =    1.000,"PART-1-1",           705,          -15.,        -13.75,            0.,NA,NA,"",   20.8216E-03,  -18.4994E-03,  -9.55568E-03,   461.360E-06
C:/temp/dataset/8/16_32.odb,Step-1,Increment      1: Step Time =    1.000,"PART-1-1",           706,      -12.5127,      -13.8329,            0.,NA,NA,"",   19.2805E-03,  -17.9254E-03,  -7.10063E-03,   544.066E-06
C:/temp/dataset/8/16_32.odb,Step-1,Increment      1: Step Time =    1.000,"PART-1-1",           707,      -10.0964,       13.7974,            0.,NA,NA,"",   23.8687E-03,  -22.8435E-03,  -6.91997E-03,   25.2062E-06
C:/temp/dataset/8/16_32.odb,Step-1,Increment      1: Step Time =    1.000,"PART-1-1",           708,      -8.82993,       12.5694,            0.,NA,NA,"",   24.8116E-03,  -23.6045E-03,  -7.64466E-03,   47.2725E-06
C:/temp/dataset/8/16_32.odb,Step-1,Increment      1: Step Time =    1.000,"PART-1-1",           709,          -15.,         16.25,            0.,NA,NA,"",   21.4027E-03,  -21.0897E-03,  -3.64708E-03,   97.7390E-06
C:/temp/dataset/8/16_32.odb,Step-1,Increment      1: Step Time =    1.000,"PART-1-1",           710,      -12.5888,       16.2424,            0.,NA,NA,"",   21.8241E-03,  -21.1744E-03,  -5.28547E-03,   50.2644E-06
C:/temp/dataset/8/16_32.odb,Step-1,Increment      1: Step Time =    1.000,"PART-1-1",           711,      -12.3835,       2.26488,            0.,NA,NA,"",   29.5616E-03,  -28.9086E-03,  -6.17931E-03,   184.643E-06
C:/temp/dataset/8/16_32.odb,Step-1,Increment      1: Step Time =    1.000,"PART-1-1",           712,      -11.8224,   292.734E-03,            0.,NA,NA,"",   30.3215E-03,  -29.6350E-03,  -6.41535E-03,   209.882E-06
C:/temp/dataset/8/16_32.odb,Step-1,Increment      1: Step Time =    1.000,"PART-1-1",           713,      -11.2102,       1.42259,            0.,NA,NA,"",   29.9546E-03,  -29.2653E-03,  -6.38904E-03,   189.186E-06
C:/temp/dataset/8/16_32.odb,Step-1,Increment      1: Step Time =    1.000,"PART-1-1",           714,         -3.75,           -5.,            0.,NA,NA,"",   33.7031E-03,  -32.5195E-03,  -8.85349E-03,   1.31652E-03
C:/temp/dataset/8/16_32.odb,Step-1,Increment      1: Step Time =    1.000,"PART-1-1",           715,      -4.14675,      -2.41445,            0.,NA,NA,"",   31.6609E-03,  -30.6229E-03,  -8.04029E-03,   555.296E-06
C:/temp/dataset/8/16_32.odb,Step-1,Increment      1: Step Time =    1.000,"PART-1-1",           716,          3.75,           -5.,            0.,NA,NA,"",   41.7820E-03,  -36.1479E-03,  -20.9539E-03,   530.775E-06
C:/temp/dataset/8/16_32.odb,Step-1,Increment      1: Step Time =    1.000,"PART-1-1",           717,       4.88615,      -3.81221,            0.,NA,NA,"",   41.6974E-03,  -34.5847E-03,  -23.2932E-03,   1.09604E-03
C:/temp/dataset/8/16_32.odb,Step-1,Increment      1: Step Time =    1.000,"PART-1-1",           718,          3.75,            5.,            0.,NA,NA,"",   32.3572E-03,  -26.3596E-03,  -18.7658E-03,   510.270E-06
C:/temp/dataset/8/16_32.odb,Step-1,Increment      1: Step Time =    1.000,"PART-1-1",           719,       2.57201,       3.72360,            0.,NA,NA,"",   32.3815E-03,  -27.2900E-03,  -17.4304E-03,   369.552E-06
C:/temp/dataset/8/16_32.odb,Step-1,Increment      1: Step Time =    1.000,"PART-1-1",           720,       4.12275,       2.38068,            0.,NA,NA,"",   34.8613E-03,  -28.8400E-03,  -19.5850E-03,   325.418E-06
C:/temp/dataset/8/16_32.odb,Step-1,Increment      1: Step Time =    1.000,"PART-1-1",           721,       1.34934,       2.46747,            0.,NA,NA,"",   32.3051E-03,  -28.1650E-03,  -15.8224E-03,   443.684E-06
C:/temp/dataset/8/16_32.odb,Step-1,Increment      1: Step Time =    1.000,"PART-1-1",           722,          1.25,            5.,            0.,NA,NA,"",   29.8038E-03,  -25.4809E-03,  -15.4592E-03,   178.792E-06
C:/temp/dataset/8/16_32.odb,Step-1,Increment      1: Step Time =    1.000,"PART-1-1",           723,          6.25,           30.,            0.,NA,NA,"",   22.8987E-03,  -10.2973E-03,  -20.4528E-03,   30.1006E-06
C:/temp/dataset/8/16_32.odb,Step-1,Increment      1: Step Time =    1.000,"PART-1-1",           724,       6.07120,       27.6569,            0.,NA,NA,"",   23.6936E-03,  -12.1599E-03,  -20.3353E-03,   13.9184E-06
C:/temp/dataset/8/16_32.odb,Step-1,Increment      1: Step Time =    1.000,"PART-1-1",           725,         -1.25,           30.,            0.,NA,NA,"",   17.5025E-03,  -10.1774E-03,  -14.2393E-03,   8.87528E-06
C:/temp/dataset/8/16_32.odb,Step-1,Increment      1: Step Time =    1.000,"PART-1-1",           726,      -1.39999,       27.3167,            0.,NA,NA,"",   18.7755E-03,  -12.3981E-03,  -14.0998E-03,   27.2107E-06
C:/temp/dataset/8/16_32.odb,Step-1,Increment      1: Step Time =    1.000,"PART-1-1",           727,         -3.75,           20.,            0.,NA,NA,"",   21.9873E-03,  -18.4253E-03,  -11.9979E-03,   42.6715E-06
C:/temp/dataset/8/16_32.odb,Step-1,Increment      1: Step Time =    1.000,"PART-1-1",           728,      -2.58930,       21.4512,            0.,NA,NA,"",   21.5652E-03,  -17.1912E-03,  -13.0201E-03,   17.9427E-06
C:/temp/dataset/8/16_32.odb,Step-1,Increment      1: Step Time =    1.000,"PART-1-1",           729,      -5.07231,       21.0171,            0.,NA,NA,"",   20.6231E-03,  -17.5639E-03,  -10.8084E-03,   73.7117E-06
C:/temp/dataset/8/16_32.odb,Step-1,Increment      1: Step Time =    1.000,"PART-1-1",           730,      -1.31658,       22.7626,            0.,NA,NA,"",   21.4231E-03,  -16.0943E-03,  -14.1394E-03,   33.3695E-06
C:/temp/dataset/8/16_32.odb,Step-1,Increment      1: Step Time =    1.000,"PART-1-1",           731,         -1.25,           20.,            0.,NA,NA,"",   23.2524E-03,  -18.4257E-03,  -14.1835E-03,   12.4335E-06
C:/temp/dataset/8/16_32.odb,Step-1,Increment      1: Step Time =    1.000,"PART-1-1",           732,  -730.264E-03,       25.0913,            0.,NA,NA,"",   20.4078E-03,  -14.1956E-03,  -14.6616E-03,   34.8728E-06
C:/temp/dataset/8/16_32.odb,Step-1,Increment      1: Step Time =    1.000,"PART-1-1",           733,      -2.17963,       23.9829,            0.,NA,NA,"",   20.1985E-03,  -15.1084E-03,  -13.4058E-03,   35.5899E-06
C:/temp/dataset/8/16_32.odb,Step-1,Increment      1: Step Time =    1.000,"PART-1-1",           734,       6.36136,       15.0582,            0.,NA,NA,"",   29.9557E-03,  -21.4836E-03,  -20.8758E-03,   39.5601E-06
C:/temp/dataset/8/16_32.odb,Step-1,Increment      1: Step Time =    1.000,"PART-1-1",           735,       7.68541,       16.4128,            0.,NA,NA,"",   29.9559E-03,  -20.5980E-03,  -21.7503E-03,   37.7562E-06
C:/temp/dataset/8/16_32.odb,Step-1,Increment      1: Step Time =    1.000,"PART-1-1",           736,            5.,         16.25,            0.,NA,NA,"",   28.6854E-03,  -20.6542E-03,  -19.9062E-03,   56.5781E-06
C:/temp/dataset/8/16_32.odb,Step-1,Increment      1: Step Time =    1.000,"PART-1-1",           737,      -10.0306,      -16.4562,            0.,NA,NA,"",   14.7238E-03,  -13.9236E-03,  -4.78788E-03,   714.597E-06
C:/temp/dataset/8/16_32.odb,Step-1,Increment      1: Step Time =    1.000,"PART-1-1",           738,         -8.75,          -30.,            0.,NA,NA,"",            0.,  -2.83619E-39,  -2.26993E-39,   3.27137E-03
C:/temp/dataset/8/16_32.odb,Step-1,Increment      1: Step Time =    1.000,"PART-1-1",           739,      -8.41046,      -27.7431,            0.,NA,NA,"",   8.91462E-03,  -8.84826E-03,  -1.08569E-03,   2.63277E-03
C:/temp/dataset/8/16_32.odb,Step-1,Increment      1: Step Time =    1.000,"PART-1-1",           740,       8.76042,      -4.14506,            0.,NA,NA,"",   44.4909E-03,  -36.5690E-03,  -25.3407E-03,   793.665E-06
C:/temp/dataset/8/16_32.odb,Step-1,Increment      1: Step Time =    1.000,"PART-1-1",           741,       8.66903,      -5.72492,            0.,NA,NA,"",   45.6079E-03,  -37.4569E-03,  -26.0204E-03,   765.048E-06
C:/temp/dataset/8/16_32.odb,Step-1,Increment      1: Step Time =    1.000,"PART-1-1",           742,            5.,        -13.75,            0.,NA,NA,"",   50.6365E-03,  -25.6970E-03,  -43.6317E-03,   3.02284E-03
C:/temp/dataset/8/16_32.odb,Step-1,Increment      1: Step Time =    1.000,"PART-1-1",           743,       6.25554,      -14.9359,            0.,NA,NA,"",   48.2136E-03,  -23.6808E-03,  -41.9973E-03,   2.61147E-03
C:/temp/dataset/8/16_32.odb,Step-1,Increment      1: Step Time =    1.000,"PART-1-1",           744,       7.64357,      -13.5439,            0.,NA,NA,"",   44.8994E-03,  -28.5949E-03,  -34.6163E-03,   1.57555E-03
C:/temp/dataset/8/16_32.odb,Step-1,Increment      1: Step Time =    1.000,"PART-1-1",           745,       7.29012,      -20.5145,            0.,NA,NA,"",   38.8305E-03,   5.54202E-03,  -38.4330E-03,   2.00104E-03
C:/temp/dataset/8/16_32.odb,Step-1,Increment      1: Step Time =    1.000,"PART-1-1",           746,       5.05790,      -20.9179,            0.,NA,NA,"",   84.0135E-03,   19.1060E-03,  -81.8121E-03,   18.0893E-03
C:/temp/dataset/8/16_32.odb,Step-1,Increment      1: Step Time =    1.000,"PART-1-1",           747,       6.21870,      -21.6741,            0.,NA,NA,"",   57.4259E-03,   20.0399E-03,  -53.8158E-03,   10.3266E-03
C:/temp/dataset/8/16_32.odb,Step-1,Increment      1: Step Time =    1.000,"PART-1-1",           748,      -6.20775,      -20.1417,            0.,NA,NA,"",   7.74717E-03,  -6.94333E-03,  -3.43639E-03,   2.37552E-03
C:/temp/dataset/8/16_32.odb,Step-1,Increment      1: Step Time =    1.000,"PART-1-1",           749,      -7.26365,      -21.6027,            0.,NA,NA,"",   10.5354E-03,  -10.4165E-03,  -1.57870E-03,   942.157E-06
C:/temp/dataset/8/16_32.odb,Step-1,Increment      1: Step Time =    1.000,"PART-1-1",           750,      -7.57540,       11.3077,            0.,NA,NA,"",   25.6962E-03,  -24.3246E-03,  -8.28303E-03,   80.3528E-06
C:/temp/dataset/8/16_32.odb,Step-1,Increment      1: Step Time =    1.000,"PART-1-1",           751,           -5.,         11.25,            0.,NA,NA,"",   26.0945E-03,  -24.2203E-03,  -9.71082E-03,   161.497E-06
C:/temp/dataset/8/16_32.odb,Step-1,Increment      1: Step Time =    1.000,"PART-1-1",           752,          -15.,          8.75,            0.,NA,NA,"",   26.0466E-03,  -25.6680E-03,  -4.42500E-03,   135.293E-06
C:/temp/dataset/8/16_32.odb,Step-1,Increment      1: Step Time =    1.000,"PART-1-1",           753,      -12.2946,       8.62536,            0.,NA,NA,"",   26.4937E-03,  -25.8478E-03,  -5.81431E-03,   63.1013E-06
C:/temp/dataset/8/16_32.odb,Step-1,Increment      1: Step Time =    1.000,"PART-1-1",           754,      -10.0522,       9.28504,            0.,NA,NA,"",   26.4218E-03,  -25.5028E-03,  -6.90786E-03,   31.7363E-06
C:/temp/dataset/8/16_32.odb,Step-1,Increment      1: Step Time =    1.000,"PART-1-1",           755,      -8.95993,       7.79922,            0.,NA,NA,"",   27.2516E-03,  -26.2341E-03,  -7.37690E-03,   63.6195E-06
C:/temp/dataset/8/16_32.odb,Step-1,Increment      1: Step Time =    1.000,"PART-1-1",           756,      -8.82890,       10.1599,            0.,NA,NA,"",   26.1226E-03,  -25.0071E-03,  -7.55233E-03,   48.1025E-06
C:/temp/dataset/8/16_32.odb,Step-1,Increment      1: Step Time =    1.000,"PART-1-1",           757,          -15.,          3.75,            0.,NA,NA,"",   28.5556E-03,  -28.0839E-03,  -5.16905E-03,   237.410E-06
C:/temp/dataset/8/16_32.odb,Step-1,Increment      1: Step Time =    1.000,"PART-1-1",           758,      -12.9917,       3.46630,            0.,NA,NA,"",   28.9758E-03,  -28.3663E-03,  -5.91160E-03,   171.678E-06
C:/temp/dataset/8/16_32.odb,Step-1,Increment      1: Step Time =    1.000,"PART-1-1",           759,          -15.,         -1.25,            0.,NA,NA,"",   30.2529E-03,  -29.4794E-03,  -6.79735E-03,   491.097E-06
C:/temp/dataset/8/16_32.odb,Step-1,Increment      1: Step Time =    1.000,"PART-1-1",           760,      -12.5629,      -1.46967,            0.,NA,NA,"",   30.6326E-03,  -29.8898E-03,  -6.70494E-03,   235.292E-06
C:/temp/dataset/8/16_32.odb,Step-1,Increment      1: Step Time =    1.000,"PART-1-1",           761,      -9.58670,      -7.04184,            0.,NA,NA,"",   28.1652E-03,  -27.4499E-03,  -6.30735E-03,   527.506E-06
C:/temp/dataset/8/16_32.odb,Step-1,Increment      1: Step Time =    1.000,"PART-1-1",           762,      -10.0087,      -5.60794,            0.,NA,NA,"",   29.5692E-03,  -28.8381E-03,  -6.53460E-03,   386.544E-06
C:/temp/dataset/8/16_32.odb,Step-1,Increment      1: Step Time =    1.000,"PART-1-1",           763,      -11.4598,      -6.08307,            0.,NA,NA,"",   29.1216E-03,  -28.2416E-03,  -7.10491E-03,   319.316E-06
C:/temp/dataset/8/16_32.odb,Step-1,Increment      1: Step Time =    1.000,"PART-1-1",           764,           -5.,         -8.75,            0.,NA,NA,"",   24.5875E-03,  -24.4944E-03,  -2.13865E-03,   625.611E-06
C:/temp/dataset/8/16_32.odb,Step-1,Increment      1: Step Time =    1.000,"PART-1-1",           765,      -6.19611,      -7.65783,            0.,NA,NA,"",   26.8882E-03,  -26.5352E-03,  -4.34269E-03,   696.574E-06
C:/temp/dataset/8/16_32.odb,Step-1,Increment      1: Step Time =    1.000,"PART-1-1",           766,      -2.54776,      -1.24063,            0.,NA,NA,"",   31.9918E-03,  -30.2627E-03,  -10.3752E-03,   576.980E-06
C:/temp/dataset/8/16_32.odb,Step-1,Increment      1: Step Time =    1.000,"PART-1-1",           767,       3.62717,       25.2502,            0.,NA,NA,"",   23.1318E-03,  -14.0578E-03,  -18.3700E-03,   25.3467E-06
C:/temp/dataset/8/16_32.odb,Step-1,Increment      1: Step Time =    1.000,"PART-1-1",           768,       4.81765,       26.4923,            0.,NA,NA,"",   23.3431E-03,  -13.0741E-03,  -19.3383E-03,   16.7234E-06
C:/temp/dataset/8/16_32.odb,Step-1,Increment      1: Step Time =    1.000,"PART-1-1",           769,       2.47493,       26.4272,            0.,NA,NA,"",   21.7845E-03,  -13.1106E-03,  -17.3976E-03,   25.8716E-06
C:/temp/dataset/8/16_32.odb,Step-1,Increment      1: Step Time =    1.000,"PART-1-1",           770,       12.1711,       7.92225,            0.,NA,NA,"",   36.2149E-03,  -26.2421E-03,  -24.9574E-03,   22.4076E-06
C:/temp/dataset/8/16_32.odb,Step-1,Increment      1: Step Time =    1.000,"PART-1-1",           771,       10.9972,       7.23987,            0.,NA,NA,"",   35.9944E-03,  -26.6821E-03,  -24.1591E-03,   49.9690E-06
C:/temp/dataset/8/16_32.odb,Step-1,Increment      1: Step Time =    1.000,"PART-1-1",           772,       11.7750,       5.88084,            0.,NA,NA,"",   37.1323E-03,  -27.7039E-03,  -24.7245E-03,   69.3804E-06
C:/temp/dataset/8/16_32.odb,Step-1,Increment      1: Step Time =    1.000,"PART-1-1",           773,       2.56868,       1.19679,            0.,NA,NA,"",   34.3528E-03,  -29.4305E-03,  -17.7190E-03,   496.130E-06
C:/temp/dataset/8/16_32.odb,Step-1,Increment      1: Step Time =    1.000,"PART-1-1",           774,      -8.87516,       6.40184,            0.,NA,NA,"",   27.8468E-03,  -26.8665E-03,  -7.32359E-03,   100.044E-06
C:/temp/dataset/8/16_32.odb,Step-1,Increment      1: Step Time =    1.000,"PART-1-1",           775,      -9.21453,       4.85504,            0.,NA,NA,"",   28.4813E-03,  -27.5982E-03,  -7.03751E-03,   159.895E-06
C:/temp/dataset/8/16_32.odb,Step-1,Increment      1: Step Time =    1.000,"PART-1-1",           776,      -7.77845,       4.46010,            0.,NA,NA,"",   28.5826E-03,  -27.5795E-03,  -7.50561E-03,   233.786E-06
C:/temp/dataset/8/16_32.odb,Step-1,Increment      1: Step Time =    1.000,"PART-1-1",           777,      -7.43909,       6.00690,            0.,NA,NA,"",   28.0180E-03,  -26.8830E-03,  -7.89381E-03,   169.391E-06
C:/temp/dataset/8/16_32.odb,Step-1,Increment      1: Step Time =    1.000,"PART-1-1",           778,      -11.3073,       27.9110,            0.,NA,NA,"",   13.4944E-03,  -12.0634E-03,  -6.04772E-03,   18.2754E-06
C:/temp/dataset/8/16_32.odb,Step-1,Increment      1: Step Time =    1.000,"PART-1-1",           779,      -10.0807,       29.0541,            0.,NA,NA,"",   13.1583E-03,  -11.1339E-03,  -7.01254E-03,   18.1629E-06
C:/temp/dataset/8/16_32.odb,Step-1,Increment      1: Step Time =    1.000,"PART-1-1",           780,        -11.25,           30.,            0.,NA,NA,"",   12.0563E-03,  -10.3984E-03,  -6.10144E-03,   10.8817E-06
C:/temp/dataset/8/16_32.odb,Step-1,Increment      1: Step Time =    1.000,"PART-1-1",           781,          -15.,         23.75,            0.,NA,NA,"",   15.7364E-03,  -15.4092E-03,  -3.19214E-03,   32.9979E-06
C:/temp/dataset/8/16_32.odb,Step-1,Increment      1: Step Time =    1.000,"PART-1-1",           782,      -12.0927,       23.7977,            0.,NA,NA,"",   16.3354E-03,  -15.3993E-03,  -5.45050E-03,   34.4365E-06
C:/temp/dataset/8/16_32.odb,Step-1,Increment      1: Step Time =    1.000,"PART-1-1",           783,      -8.63837,       22.0170,            0.,NA,NA,"",   18.6521E-03,  -16.8281E-03,  -8.04446E-03,   42.9458E-06
C:/temp/dataset/8/16_32.odb,Step-1,Increment      1: Step Time =    1.000,"PART-1-1",           784,      -9.90203,       20.9758,            0.,NA,NA,"",   19.0383E-03,  -17.6670E-03,  -7.09462E-03,   39.9335E-06
C:/temp/dataset/8/16_32.odb,Step-1,Increment      1: Step Time =    1.000,"PART-1-1",           785,      -7.50941,       20.8584,            0.,NA,NA,"",   19.8380E-03,  -17.7472E-03,  -8.86463E-03,   49.4495E-06
C:/temp/dataset/8/16_32.odb,Step-1,Increment      1: Step Time =    1.000,"PART-1-1",           786,      -11.2484,       19.8991,            0.,NA,NA,"",   19.4898E-03,  -18.5033E-03,  -6.12208E-03,   36.3266E-06
C:/temp/dataset/8/16_32.odb,Step-1,Increment      1: Step Time =    1.000,"PART-1-1",           787,      -11.3362,       17.4609,            0.,NA,NA,"",   21.2228E-03,  -20.3282E-03,  -6.09657E-03,   32.5029E-06
C:/temp/dataset/8/16_32.odb,Step-1,Increment      1: Step Time =    1.000,"PART-1-1",           788,      -6.30996,       21.9748,            0.,NA,NA,"",   19.4881E-03,  -16.8191E-03,  -9.84402E-03,   52.1815E-06
C:/temp/dataset/8/16_32.odb,Step-1,Increment      1: Step Time =    1.000,"PART-1-1",           789,      -2.24269,       26.0758,            0.,NA,NA,"",   18.9399E-03,  -13.4133E-03,  -13.3718E-03,   32.0334E-06
C:/temp/dataset/8/16_32.odb,Step-1,Increment      1: Step Time =    1.000,"PART-1-1",           790,       12.7358,       26.1633,            0.,NA,NA,"",   28.7565E-03,  -13.3812E-03,  -25.4535E-03,   16.2219E-06
C:/temp/dataset/8/16_32.odb,Step-1,Increment      1: Step Time =    1.000,"PART-1-1",           791,       13.9485,       24.9485,            0.,NA,NA,"",   30.0004E-03,  -14.3205E-03,  -26.3618E-03,   16.1891E-06
C:/temp/dataset/8/16_32.odb,Step-1,Increment      1: Step Time =    1.000,"PART-1-1",           792,           15.,       26.2313,            0.,NA,NA,"",   30.2717E-03,  -13.3214E-03,  -27.1830E-03,   10.9745E-06
C:/temp/dataset/8/16_32.odb,Step-1,Increment      1: Step Time =    1.000,"PART-1-1",           793,         -8.75,           30.,            0.,NA,NA,"",   13.1307E-03,  -10.3581E-03,  -8.07005E-03,   25.0932E-06
C:/temp/dataset/8/16_32.odb,Step-1,Increment      1: Step Time =    1.000,"PART-1-1",           794,      -8.99948,       28.0877,            0.,NA,NA,"",   14.2536E-03,  -11.8948E-03,  -7.85364E-03,   21.5002E-06
C:/temp/dataset/8/16_32.odb,Step-1,Increment      1: Step Time =    1.000,"PART-1-1",           795,      -11.0605,       7.76300,            0.,NA,NA,"",   27.0802E-03,  -26.3071E-03,  -6.42467E-03,   39.7909E-06
C:/temp/dataset/8/16_32.odb,Step-1,Increment      1: Step Time =    1.000,"PART-1-1",           796,      -9.90520,       2.86353,            0.,NA,NA,"",   29.3528E-03,  -28.5911E-03,  -6.64367E-03,   191.409E-06
C:/temp/dataset/8/16_32.odb,Step-1,Increment      1: Step Time =    1.000,"PART-1-1",           797,      -11.2331,       2.92838,            0.,NA,NA,"",   29.3289E-03,  -28.6297E-03,  -6.36568E-03,   162.299E-06
C:/temp/dataset/8/16_32.odb,Step-1,Increment      1: Step Time =    1.000,"PART-1-1",           798,      -9.88229,       1.35774,            0.,NA,NA,"",   29.9772E-03,  -29.2579E-03,  -6.52735E-03,   210.538E-06
C:/temp/dataset/8/16_32.odb,Step-1,Increment      1: Step Time =    1.000,"PART-1-1",           799,           -5.,          6.25,            0.,NA,NA,"",   28.0503E-03,  -26.5966E-03,  -8.91274E-03,   188.362E-06
C:/temp/dataset/8/16_32.odb,Step-1,Increment      1: Step Time =    1.000,"PART-1-1",           800,      -5.99813,       4.86531,            0.,NA,NA,"",   28.2846E-03,  -27.0319E-03,  -8.32432E-03,   291.236E-06
C:/temp/dataset/8/16_32.odb,Step-1,Increment      1: Step Time =    1.000,"PART-1-1",           801,           -5.,         -6.25,            0.,NA,NA,"",   28.5707E-03,  -28.2533E-03,  -4.24632E-03,   1.44050E-03
C:/temp/dataset/8/16_32.odb,Step-1,Increment      1: Step Time =    1.000,"PART-1-1",           802,      -7.47947,      -6.74432,            0.,NA,NA,"",   28.5694E-03,  -28.0236E-03,  -5.55782E-03,   651.917E-06
C:/temp/dataset/8/16_32.odb,Step-1,Increment      1: Step Time =    1.000,"PART-1-1",           803,      -11.2689,      -15.1223,            0.,NA,NA,"",   16.9692E-03,  -15.9205E-03,  -5.87275E-03,   607.130E-06
C:/temp/dataset/8/16_32.odb,Step-1,Increment      1: Step Time =    1.000,"PART-1-1",           804,          -15.,        -18.75,            0.,NA,NA,"",   15.1605E-03,  -13.7848E-03,  -6.31036E-03,   756.206E-06
C:/temp/dataset/8/16_32.odb,Step-1,Increment      1: Step Time =    1.000,"PART-1-1",           805,           -5.,        -18.75,            0.,NA,NA,"",   9.90236E-03,  -9.32111E-03,  -3.34271E-03,   2.30581E-03
C:/temp/dataset/8/16_32.odb,Step-1,Increment      1: Step Time =    1.000,"PART-1-1",           806,          -15.,        -23.75,            0.,NA,NA,"",   12.8289E-03,  -12.1349E-03,  -4.16226E-03,   97.4571E-06
C:/temp/dataset/8/16_32.odb,Step-1,Increment      1: Step Time =    1.000,"PART-1-1",           807,      -13.0017,      -23.4761,            0.,NA,NA,"",   12.4030E-03,  -12.0761E-03,  -2.82869E-03,   502.938E-06
C:/temp/dataset/8/16_32.odb,Step-1,Increment      1: Step Time =    1.000,"PART-1-1",           808,      -10.8880,      -24.7257,            0.,NA,NA,"",   11.6596E-03,  -11.6044E-03,  -1.13380E-03,   625.747E-06
C:/temp/dataset/8/16_32.odb,Step-1,Increment      1: Step Time =    1.000,"PART-1-1",           809,      -12.0004,      -24.2920,            0.,NA,NA,"",   11.7813E-03,  -11.6373E-03,  -1.83621E-03,   453.621E-06
C:/temp/dataset/8/16_32.odb,Step-1,Increment      1: Step Time =    1.000,"PART-1-1",           810,      -11.4496,      -26.3253,            0.,NA,NA,"",   9.66537E-03,  -9.59788E-03,  -1.14018E-03,   999.072E-06
C:/temp/dataset/8/16_32.odb,Step-1,Increment      1: Step Time =    1.000,"PART-1-1",           811,      -4.83189,      -26.5259,            0.,NA,NA,"",   17.9918E-03,  -16.7951E-03,  -6.45216E-03,   4.28435E-03
C:/temp/dataset/8/16_32.odb,Step-1,Increment      1: Step Time =    1.000,"PART-1-1",           812,      -2.49092,      -26.4256,            0.,NA,NA,"",   24.8570E-03,  -18.5546E-03,  -16.5408E-03,   7.61291E-03
C:/temp/dataset/8/16_32.odb,Step-1,Increment      1: Step Time =    1.000,"PART-1-1",           813,      -1.37789,      -25.1306,            0.,NA,NA,"",   37.6792E-03,  -19.9698E-03,  -31.9520E-03,   10.5281E-03
C:/temp/dataset/8/16_32.odb,Step-1,Increment      1: Step Time =    1.000,"PART-1-1",           814,          3.75,          -30.,            0.,NA,NA,"",            0.,   1.93772E-39,  -17.9676E-39,   9.66540E-03
C:/temp/dataset/8/16_32.odb,Step-1,Increment      1: Step Time =    1.000,"PART-1-1",           815,       4.16934,      -27.2851,            0.,NA,NA,"",   26.6784E-03,   9.06917E-03,  -25.0895E-03,   12.6886E-03
C:/temp/dataset/8/16_32.odb,Step-1,Increment      1: Step Time =    1.000,"PART-1-1",           816,       5.43798,      -24.9943,            0.,NA,NA,"",   47.7074E-03,   21.0202E-03,  -42.8269E-03,   13.1611E-03
C:/temp/dataset/8/16_32.odb,Step-1,Increment      1: Step Time =    1.000,"PART-1-1",           817,          3.75,          -20.,            0.,NA,NA,"",   147.774E-03,   1.44405E-03,  -147.767E-03,   23.7759E-03
C:/temp/dataset/8/16_32.odb,Step-1,Increment      1: Step Time =    1.000,"PART-1-1",           818,       3.87865,      -22.3090,            0.,NA,NA,"",   96.9931E-03,   18.7705E-03,  -95.1595E-03,   22.0996E-03
C:/temp/dataset/8/16_32.odb,Step-1,Increment      1: Step Time =    1.000,"PART-1-1",           819,       4.97861,      -23.9295,            0.,NA,NA,"",   62.0772E-03,   21.5178E-03,  -58.2285E-03,   15.1071E-03
C:/temp/dataset/8/16_32.odb,Step-1,Increment      1: Step Time =    1.000,"PART-1-1",           820,       6.87761,      -24.4106,            0.,NA,NA,"",   42.5474E-03,   25.1447E-03,  -34.3224E-03,   8.86225E-03
C:/temp/dataset/8/16_32.odb,Step-1,Increment      1: Step Time =    1.000,"PART-1-1",           821,       6.41824,      -23.3457,            0.,NA,NA,"",   51.6727E-03,   25.5140E-03,  -44.9344E-03,   10.4277E-03
C:/temp/dataset/8/16_32.odb,Step-1,Increment      1: Step Time =    1.000,"PART-1-1",           822,       11.2370,      -25.7479,            0.,NA,NA,"",   24.2650E-03,   22.9456E-03,  -7.89218E-03,   3.36085E-03
C:/temp/dataset/8/16_32.odb,Step-1,Increment      1: Step Time =    1.000,"PART-1-1",           823,       10.9706,      -24.3905,            0.,NA,NA,"",   25.7903E-03,   23.5248E-03,  -10.5700E-03,   2.46378E-03
C:/temp/dataset/8/16_32.odb,Step-1,Increment      1: Step Time =    1.000,"PART-1-1",           824,       9.19650,      -24.7169,            0.,NA,NA,"",   29.8526E-03,   24.5403E-03,  -16.9985E-03,   4.54301E-03
C:/temp/dataset/8/16_32.odb,Step-1,Increment      1: Step Time =    1.000,"PART-1-1",           825,       9.46288,      -26.0743,            0.,NA,NA,"",   25.8929E-03,   22.8038E-03,  -12.2650E-03,   5.44523E-03
C:/temp/dataset/8/16_32.odb,Step-1,Increment      1: Step Time =    1.000,"PART-1-1",           826,       7.41744,      -16.0774,            0.,NA,NA,"",   43.9220E-03,  -21.4158E-03,  -38.3472E-03,   2.63720E-03
C:/temp/dataset/8/16_32.odb,Step-1,Increment      1: Step Time =    1.000,"PART-1-1",           827,            5.,        -16.25,            0.,NA,NA,"",   53.1350E-03,  -17.4874E-03,  -50.1749E-03,   4.43495E-03
C:/temp/dataset/8/16_32.odb,Step-1,Increment      1: Step Time =    1.000,"PART-1-1",           828,       10.2193,      -13.8888,            0.,NA,NA,"",   37.3471E-03,  -27.7161E-03,  -25.0323E-03,   635.745E-06
C:/temp/dataset/8/16_32.odb,Step-1,Increment      1: Step Time =    1.000,"PART-1-1",           829,            5.,         -6.25,            0.,NA,NA,"",   45.0765E-03,  -35.9492E-03,  -27.1945E-03,   2.17688E-03
C:/temp/dataset/8/16_32.odb,Step-1,Increment      1: Step Time =    1.000,"PART-1-1",           830,       7.31446,      -6.19141,            0.,NA,NA,"",   46.0175E-03,  -37.2759E-03,  -26.9837E-03,   972.442E-06
C:/temp/dataset/8/16_32.odb,Step-1,Increment      1: Step Time =    1.000,"PART-1-1",           831,       6.34046,      -4.95308,            0.,NA,NA,"",   44.8736E-03,  -36.5958E-03,  -25.9690E-03,   1.15580E-03
C:/temp/dataset/8/16_32.odb,Step-1,Increment      1: Step Time =    1.000,"PART-1-1",           832,            5.,         13.75,            0.,NA,NA,"",   29.9836E-03,  -22.3321E-03,  -20.0073E-03,   43.6640E-06
C:/temp/dataset/8/16_32.odb,Step-1,Increment      1: Step Time =    1.000,"PART-1-1",           833,       7.92352,       13.7239,            0.,NA,NA,"",   31.3745E-03,  -22.3912E-03,  -21.9770E-03,   27.6053E-06
C:/temp/dataset/8/16_32.odb,Step-1,Increment      1: Step Time =    1.000,"PART-1-1",           834,       10.1519,       16.6176,            0.,NA,NA,"",   31.1622E-03,  -20.4658E-03,  -23.4997E-03,   24.0328E-06
C:/temp/dataset/8/16_32.odb,Step-1,Increment      1: Step Time =    1.000,"PART-1-1",           835,       11.3692,       15.2392,            0.,NA,NA,"",   32.4258E-03,  -21.3945E-03,  -24.3660E-03,   22.4310E-06
C:/temp/dataset/8/16_32.odb,Step-1,Increment      1: Step Time =    1.000,"PART-1-1",           836,       12.5765,       16.3836,            0.,NA,NA,"",   32.5763E-03,  -20.6166E-03,  -25.2224E-03,   18.3531E-06
C:/temp/dataset/8/16_32.odb,Step-1,Increment      1: Step Time =    1.000,"PART-1-1",           837,       11.3592,       17.7620,            0.,NA,NA,"",   31.3163E-03,  -19.6747E-03,  -24.3642E-03,   17.0488E-06
C:/temp/dataset/8/16_32.odb,Step-1,Increment      1: Step Time =    1.000,"PART-1-1",           838,           15.,       23.7188,            0.,NA,NA,"",   31.1373E-03,  -15.2586E-03,  -27.1424E-03,   24.8929E-06
C:/temp/dataset/8/16_32.odb,Step-1,Increment      1: Step Time =    1.000,"PART-1-1",           839,       12.9788,       23.7285,            0.,NA,NA,"",   29.8208E-03,  -15.2682E-03,  -25.6157E-03,   18.6887E-06
C:/temp/dataset/8/16_32.odb,Step-1,Increment      1: Step Time =    1.000,"PART-1-1",           840,           15.,      -11.3062,            0.,NA,NA,"",   34.2524E-03,  -31.4241E-03,  -13.6291E-03,   2.15484E-03
C:/temp/dataset/8/16_32.odb,Step-1,Increment      1: Step Time =    1.000,"PART-1-1",           841,           15.,      -3.76875,            0.,NA,NA,"",   43.1842E-03,  -35.6021E-03,  -24.4411E-03,   942.817E-06
C:/temp/dataset/8/16_32.odb,Step-1,Increment      1: Step Time =    1.000,"PART-1-1",           842,       8.77849,      -14.9509,            0.,NA,NA,"",   39.5836E-03,  -24.7507E-03,  -30.8912E-03,   1.10378E-03
C:/temp/dataset/8/16_32.odb,Step-1,Increment      1: Step Time =    1.000,"PART-1-1",           843,       8.51352,      -17.2876,            0.,NA,NA,"",   35.8369E-03,  -15.9749E-03,  -32.0793E-03,   1.76595E-03
C:/temp/dataset/8/16_32.odb,Step-1,Increment      1: Step Time =    1.000,"PART-1-1",           844,       8.29028,      -19.4067,            0.,NA,NA,"",   31.1444E-03,  -2.60227E-03,  -31.0355E-03,   2.36869E-03
C:/temp/dataset/8/16_32.odb,Step-1,Increment      1: Step Time =    1.000,"PART-1-1",           845,       8.54933,      -8.48207,            0.,NA,NA,"",   46.1121E-03,  -36.9475E-03,  -27.5900E-03,   873.134E-06
C:/temp/dataset/8/16_32.odb,Step-1,Increment      1: Step Time =    1.000,"PART-1-1",           846,       9.61157,      -8.87413,            0.,NA,NA,"",   45.1700E-03,  -36.8646E-03,  -26.1024E-03,   656.687E-06
C:/temp/dataset/8/16_32.odb,Step-1,Increment      1: Step Time =    1.000,"PART-1-1",           847,       9.01937,      -7.15061,            0.,NA,NA,"",   45.8953E-03,  -37.6090E-03,  -26.3048E-03,   718.473E-06
C:/temp/dataset/8/16_32.odb,Step-1,Increment      1: Step Time =    1.000,"PART-1-1",           848,           15.,       16.1812,            0.,NA,NA,"",   33.9701E-03,  -20.7344E-03,  -26.9082E-03,   26.7836E-06
C:/temp/dataset/8/16_32.odb,Step-1,Increment      1: Step Time =    1.000,"PART-1-1",           849,       8.94821,       15.2430,            0.,NA,NA,"",   31.1618E-03,  -21.3897E-03,  -22.6615E-03,   28.4648E-06
C:/temp/dataset/8/16_32.odb,Step-1,Increment      1: Step Time =    1.000,"PART-1-1",           850,       10.4061,       25.7620,            0.,NA,NA,"",   27.3683E-03,  -13.6939E-03,  -23.6960E-03,   19.0779E-06
C:/temp/dataset/8/16_32.odb,Step-1,Increment      1: Step Time =    1.000,"PART-1-1",           851,       11.8949,       24.7039,            0.,NA,NA,"",   28.7482E-03,  -14.5191E-03,  -24.8124E-03,   18.8053E-06
C:/temp/dataset/8/16_32.odb,Step-1,Increment      1: Step Time =    1.000,"PART-1-1",           852,       10.0121,   618.030E-03,            0.,NA,NA,"",   40.2750E-03,  -32.2021E-03,  -24.1889E-03,   491.244E-06
C:/temp/dataset/8/16_32.odb,Step-1,Increment      1: Step Time =    1.000,"PART-1-1",           853,       8.14630,  -483.786E-03,            0.,NA,NA,"",   40.5526E-03,  -32.8336E-03,  -23.8007E-03,   614.003E-06
C:/temp/dataset/8/16_32.odb,Step-1,Increment      1: Step Time =    1.000,"PART-1-1",           854,       9.59300,  -925.178E-03,            0.,NA,NA,"",   41.5883E-03,  -33.7089E-03,  -24.3577E-03,   614.128E-06
C:/temp/dataset/8/16_32.odb,Step-1,Increment      1: Step Time =    1.000,"PART-1-1",           855,       8.91739,      -9.92907,            0.,NA,NA,"",   45.2713E-03,  -35.7053E-03,  -27.8321E-03,   832.106E-06
C:/temp/dataset/8/16_32.odb,Step-1,Increment      1: Step Time =    1.000,"PART-1-1",           856,       9.91925,      -10.6601,            0.,NA,NA,"",   43.4268E-03,  -34.8630E-03,  -25.8933E-03,   612.011E-06
C:/temp/dataset/8/16_32.odb,Step-1,Increment      1: Step Time =    1.000,"PART-1-1",           857,       10.2742,      -21.0973,            0.,NA,NA,"",   20.2978E-03,   10.8283E-03,  -17.1682E-03,   1.94849E-03
C:/temp/dataset/8/16_32.odb,Step-1,Increment      1: Step Time =    1.000,"PART-1-1",           858,       9.54806,      -22.4908,            0.,NA,NA,"",   26.8498E-03,   19.0182E-03,  -18.9531E-03,   2.09446E-03
C:/temp/dataset/8/16_32.odb,Step-1,Increment      1: Step Time =    1.000,"PART-1-1",           859,       10.5666,      -23.0191,            0.,NA,NA,"",   24.7375E-03,   20.5798E-03,  -13.7264E-03,   1.89805E-03
C:/temp/dataset/8/16_32.odb,Step-1,Increment      1: Step Time =    1.000,"PART-1-1",           860,       12.3242,       9.79639,            0.,NA,NA,"",   35.3721E-03,  -24.9795E-03,  -25.0442E-03,   25.3895E-06
C:/temp/dataset/8/16_32.odb,Step-1,Increment      1: Step Time =    1.000,"PART-1-1",           861,       7.92117,       5.59347,            0.,NA,NA,"",   35.3484E-03,  -27.5133E-03,  -22.1929E-03,   193.962E-06
C:/temp/dataset/8/16_32.odb,Step-1,Increment      1: Step Time =    1.000,"PART-1-1",           862,       8.33004,      -21.4224,            0.,NA,NA,"",   31.1269E-03,   13.7156E-03,  -27.9422E-03,   2.24888E-03
C:/temp/dataset/8/16_32.odb,Step-1,Increment      1: Step Time =    1.000,"PART-1-1",           863,       7.29914,      -22.4807,            0.,NA,NA,"",   42.8352E-03,   22.1760E-03,  -36.6481E-03,   5.32166E-03
C:/temp/dataset/8/16_32.odb,Step-1,Increment      1: Step Time =    1.000,"PART-1-1",           864,       8.51716,      -23.5491,            0.,NA,NA,"",   33.6178E-03,   23.8165E-03,  -23.7262E-03,   4.98564E-03
C:/temp/dataset/8/16_32.odb,Step-1,Increment      1: Step Time =    1.000,"PART-1-1",           865,       6.99898,  -94.4608E-03,            0.,NA,NA,"",   39.4293E-03,  -32.0118E-03,  -23.0199E-03,   566.342E-06
C:/temp/dataset/8/16_32.odb,Step-1,Increment      1: Step Time =    1.000,"PART-1-1",           866,       6.64294,      -1.54983,            0.,NA,NA,"",   40.7351E-03,  -33.2841E-03,  -23.4844E-03,   725.772E-06
C:/temp/dataset/8/16_32.odb,Step-1,Increment      1: Step Time =    1.000,"PART-1-1",           867,       7.79026,      -1.93916,            0.,NA,NA,"",   41.9473E-03,  -34.1877E-03,  -24.3059E-03,   771.580E-06
C:/temp/dataset/8/16_32.odb,Step-1,Increment      1: Step Time =    1.000,"PART-1-1",           868,       11.5427,  -143.487E-03,            0.,NA,NA,"",   41.3529E-03,  -33.1582E-03,  -24.7102E-03,   470.695E-06
C:/temp/dataset/8/16_32.odb,Step-1,Increment      1: Step Time =    1.000,"PART-1-1",           869,       11.3126,       11.6131,            0.,NA,NA,"",   34.0258E-03,  -23.7842E-03,  -24.3324E-03,   26.8018E-06
C:/temp/dataset/8/16_32.odb,Step-1,Increment      1: Step Time =    1.000,"PART-1-1",           870,       9.33019,      -20.3146,            0.,NA,NA,"",   23.6961E-03,   5.20731E-03,  -23.1168E-03,   2.05097E-03
C:/temp/dataset/8/16_32.odb,Step-1,Increment      1: Step Time =    1.000,"PART-1-1",           871,       7.28132,      -3.66733,            0.,NA,NA,"",   43.7372E-03,  -35.7495E-03,  -25.1974E-03,   928.843E-06
C:/temp/dataset/8/16_32.odb,Step-1,Increment      1: Step Time =    1.000,"PART-1-1",           872,       5.82701,      -2.52645,            0.,NA,NA,"",   41.1427E-03,  -33.8363E-03,  -23.4056E-03,   852.917E-06
C:/temp/dataset/8/16_32.odb,Step-1,Increment      1: Step Time =    1.000,"PART-1-1",           873,       10.7738,      -1.22826,            0.,NA,NA,"",   42.1124E-03,  -34.2035E-03,  -24.5678E-03,   592.150E-06
C:/temp/dataset/8/16_32.odb,Step-1,Increment      1: Step Time =    1.000,"PART-1-1",           874,       5.18435,       1.03936,            0.,NA,NA,"",   36.8759E-03,  -30.2848E-03,  -21.0395E-03,   414.132E-06
C:/temp/dataset/8/16_32.odb,Step-1,Increment      1: Step Time =    1.000,"PART-1-1",           875,      -5.71989,       2.55098,            0.,NA,NA,"",   29.2340E-03,  -28.1343E-03,  -7.94269E-03,   225.340E-06
C:/temp/dataset/8/16_32.odb,Step-1,Increment      1: Step Time =    1.000,"PART-1-1",           876,      -6.86925,       3.62296,            0.,NA,NA,"",   28.8255E-03,  -27.7839E-03,  -7.67912E-03,   294.654E-06
C:/temp/dataset/8/16_32.odb,Step-1,Increment      1: Step Time =    1.000,"PART-1-1",           877,       11.1755,       23.5651,            0.,NA,NA,"",   28.7445E-03,  -15.4032E-03,  -24.2691E-03,   18.2538E-06
C:/temp/dataset/8/16_32.odb,Step-1,Increment      1: Step Time =    1.000,"PART-1-1",           878,       10.0167,       23.9572,            0.,NA,NA,"",   27.8549E-03,  -15.1036E-03,  -23.4046E-03,   19.4698E-06
C:/temp/dataset/8/16_32.odb,Step-1,Increment      1: Step Time =    1.000,"PART-1-1",           879,       10.8015,       21.7536,            0.,NA,NA,"",   29.2741E-03,  -16.7879E-03,  -23.9820E-03,   13.4809E-06
C:/temp/dataset/8/16_32.odb,Step-1,Increment      1: Step Time =    1.000,"PART-1-1",           880,      -8.16238,      -23.1050,            0.,NA,NA,"",   12.5543E-03,  -12.5275E-03,  -820.900E-06,   861.839E-06
C:/temp/dataset/8/16_32.odb,Step-1,Increment      1: Step Time =    1.000,"PART-1-1",           881,       7.66479,      -7.61710,            0.,NA,NA,"",   46.4785E-03,  -37.0889E-03,  -28.0119E-03,   1.05903E-03
C:/temp/dataset/8/16_32.odb,Step-1,Increment      1: Step Time =    1.000,"PART-1-1",           882,       5.33780,      -22.5391,            0.,NA,NA,"",   71.1513E-03,   24.2293E-03,  -66.8987E-03,   15.3890E-03
C:/temp/dataset/8/16_32.odb,Step-1,Increment      1: Step Time =    1.000,"PART-1-1",           883,      -9.54743,       23.1682,            0.,NA,NA,"",   17.5322E-03,  -15.9049E-03,  -7.37663E-03,   38.8289E-06
C:/temp/dataset/8/16_32.odb,Step-1,Increment      1: Step Time =    1.000,"PART-1-1",           884,      -7.33156,       22.8900,            0.,NA,NA,"",   18.4769E-03,  -16.0976E-03,  -9.06979E-03,   43.5889E-06
C:/temp/dataset/8/16_32.odb,Step-1,Increment      1: Step Time =    1.000,"PART-1-1",           885,      -10.1338,       27.3181,            0.,NA,NA,"",   14.3347E-03,  -12.5320E-03,  -6.95948E-03,   23.7835E-06
C:/temp/dataset/8/16_32.odb,Step-1,Increment      1: Step Time =    1.000,"PART-1-1",           886,      -10.9921,       25.8314,            0.,NA,NA,"",   15.1156E-03,  -13.7460E-03,  -6.28711E-03,   27.6264E-06
C:/temp/dataset/8/16_32.odb,Step-1,Increment      1: Step Time =    1.000,"PART-1-1",           887,      -9.34891,      -26.6495,            0.,NA,NA,"",   10.4628E-03,  -10.4295E-03,  -833.880E-06,   1.72344E-03
C:/temp/dataset/8/16_32.odb,Step-1,Increment      1: Step Time =    1.000,"PART-1-1",           888,      -9.91282,      -25.5457,            0.,NA,NA,"",   11.5075E-03,  -11.4814E-03,  -773.911E-06,   1.10794E-03
C:/temp/dataset/8/16_32.odb,Step-1,Increment      1: Step Time =    1.000,"PART-1-1",           889,       7.84920,      -9.48897,            0.,NA,NA,"",   46.4104E-03,  -35.8229E-03,  -29.5067E-03,   1.18802E-03
C:/temp/dataset/8/16_32.odb,Step-1,Increment      1: Step Time =    1.000,"PART-1-1",           890,       10.1788,       14.4028,            0.,NA,NA,"",   32.1814E-03,  -21.9522E-03,  -23.5317E-03,   25.7134E-06
C:/temp/dataset/8/16_32.odb,Step-1,Increment      1: Step Time =    1.000,"PART-1-1",           891,       11.2326,       12.9154,            0.,NA,NA,"",   33.3934E-03,  -22.9327E-03,  -24.2736E-03,   26.2655E-06
C:/temp/dataset/8/16_32.odb,Step-1,Increment      1: Step Time =    1.000,"PART-1-1",           892,       9.23404,       11.5815,            0.,NA,NA,"",   33.0271E-03,  -23.8001E-03,  -22.8986E-03,   22.3679E-06
C:/temp/dataset/8/16_32.odb,Step-1,Increment      1: Step Time =    1.000,"PART-1-1",           893,   112.429E-03,       26.3323,            0.,NA,NA,"",   20.2672E-03,  -13.1882E-03,  -15.3894E-03,   30.9079E-06
C:/temp/dataset/8/16_32.odb,Step-1,Increment      1: Step Time =    1.000,"PART-1-1",           894,       9.25881,       26.1684,            0.,NA,NA,"",   26.4535E-03,  -13.3702E-03,  -22.8259E-03,   18.1505E-06
C:/temp/dataset/8/16_32.odb,Step-1,Increment      1: Step Time =    1.000,"PART-1-1",           895,       7.09344,       26.4940,            0.,NA,NA,"",   24.8791E-03,  -13.0953E-03,  -21.1537E-03,   15.0431E-06
C:/temp/dataset/8/16_32.odb,Step-1,Increment      1: Step Time =    1.000,"PART-1-1",           896,       7.75521,       25.3319,            0.,NA,NA,"",   25.8185E-03,  -14.0206E-03,  -21.6799E-03,   15.5637E-06
C:/temp/dataset/8/16_32.odb,Step-1,Increment      1: Step Time =    1.000,"PART-1-1",           897,      -7.14155,      -26.6171,            0.,NA,NA,"",   13.3570E-03,  -13.2062E-03,  -2.00086E-03,   2.60138E-03
C:/temp/dataset/8/16_32.odb,Step-1,Increment      1: Step Time =    1.000,"PART-1-1",           898,      -8.08000,      -25.5235,            0.,NA,NA,"",   13.3494E-03,  -13.3042E-03,  -1.09671E-03,   1.76610E-03
C:/temp/dataset/8/16_32.odb,Step-1,Increment      1: Step Time =    1.000,"PART-1-1",           899,      -8.48057,      -5.93862,            0.,NA,NA,"",   29.3750E-03,  -28.7552E-03,  -6.00232E-03,   541.296E-06
C:/temp/dataset/8/16_32.odb,Step-1,Increment      1: Step Time =    1.000,"PART-1-1",           900,      -8.12610,       27.0862,            0.,NA,NA,"",   15.2940E-03,  -12.6928E-03,  -8.53213E-03,   24.4976E-06
C:/temp/dataset/8/16_32.odb,Step-1,Increment      1: Step Time =    1.000,"PART-1-1",           901,      -9.26041,       26.3166,            0.,NA,NA,"",   15.3651E-03,  -13.3356E-03,  -7.63198E-03,   26.8148E-06
C:/temp/dataset/8/16_32.odb,Step-1,Increment      1: Step Time =    1.000,"PART-1-1",           902,      -11.3442,       15.0048,            0.,NA,NA,"",   22.8810E-03,  -22.0431E-03,  -6.13520E-03,   30.3410E-06
C:/temp/dataset/8/16_32.odb,Step-1,Increment      1: Step Time =    1.000,"PART-1-1",           903,      -11.3385,       12.5628,            0.,NA,NA,"",   24.4125E-03,  -23.6149E-03,  -6.18912E-03,   31.5637E-06
C:/temp/dataset/8/16_32.odb,Step-1,Increment      1: Step Time =    1.000,"PART-1-1",           904,      -8.76514,       3.13980,            0.,NA,NA,"",   29.1818E-03,  -28.3394E-03,  -6.96077E-03,   225.149E-06
C:/temp/dataset/8/16_32.odb,Step-1,Increment      1: Step Time =    1.000,"PART-1-1",           905,      -10.2716,  -495.292E-03,            0.,NA,NA,"",   30.5891E-03,  -29.9085E-03,  -6.41670E-03,   194.782E-06
C:/temp/dataset/8/16_32.odb,Step-1,Increment      1: Step Time =    1.000,"PART-1-1",           906,      -8.74135,  -976.005E-03,            0.,NA,NA,"",   30.7251E-03,  -30.0541E-03,  -6.38622E-03,   233.284E-06
C:/temp/dataset/8/16_32.odb,Step-1,Increment      1: Step Time =    1.000,"PART-1-1",           907,      -12.2685,      -22.3380,            0.,NA,NA,"",   12.5153E-03,  -12.2085E-03,  -2.75385E-03,   662.667E-06
C:/temp/dataset/8/16_32.odb,Step-1,Increment      1: Step Time =    1.000,"PART-1-1",           908,  -128.822E-03,      -26.2855,            0.,NA,NA,"",   34.1564E-03,  -13.6619E-03,  -31.3051E-03,   12.4874E-03
C:/temp/dataset/8/16_32.odb,Step-1,Increment      1: Step Time =    1.000,"PART-1-1",           909,       9.08441,      -12.4818,            0.,NA,NA,"",   42.6609E-03,  -31.4747E-03,  -28.7975E-03,   791.642E-06
C:/temp/dataset/8/16_32.odb,Step-1,Increment      1: Step Time =    1.000,"PART-1-1",           910,      -10.0834,       11.4216,            0.,NA,NA,"",   25.2702E-03,  -24.3068E-03,  -6.91107E-03,   24.6797E-06
C:/temp/dataset/8/16_32.odb,Step-1,Increment      1: Step Time =    1.000,"PART-1-1",           911,      -11.2862,       10.1474,            0.,NA,NA,"",   25.8076E-03,  -25.0336E-03,  -6.27283E-03,   32.8212E-06
C:/temp/dataset/8/16_32.odb,Step-1,Increment      1: Step Time =    1.000,"PART-1-1",           912,      -6.58594,       1.63223,            0.,NA,NA,"",   29.6940E-03,  -28.7659E-03,  -7.36596E-03,   263.569E-06
C:/temp/dataset/8/16_32.odb,Step-1,Increment      1: Step Time =    1.000,"PART-1-1",           913,      -11.0544,       22.2894,            0.,NA,NA,"",   17.7533E-03,  -16.6190E-03,  -6.24406E-03,   37.4371E-06
C:/temp/dataset/8/16_32.odb,Step-1,Increment      1: Step Time =    1.000,"PART-1-1",           914,      -10.5857,       24.6765,            0.,NA,NA,"",   16.0982E-03,  -14.6844E-03,  -6.59686E-03,   31.9824E-06
C:/temp/dataset/8/16_32.odb,Step-1,Increment      1: Step Time =    1.000,"PART-1-1",           915,      -9.16144,      -24.4379,            0.,NA,NA,"",   12.6280E-03,  -12.6094E-03,  -685.466E-06,   851.801E-06
C:/temp/dataset/8/16_32.odb,Step-1,Increment      1: Step Time =    1.000,"PART-1-1",           916,       10.2685,      -27.1971,            0.,NA,NA,"",   20.1129E-03,   18.8087E-03,  -7.12481E-03,   5.29141E-03
C:/temp/dataset/8/16_32.odb,Step-1,Increment      1: Step Time =    1.000,"PART-1-1",           917,       11.0541,      -20.1271,            0.,NA,NA,"",   15.7747E-03,   4.82058E-03,  -15.0200E-03,   2.17780E-03
C:/temp/dataset/8/16_32.odb,Step-1,Increment      1: Step Time =    1.000,"PART-1-1",           918,       9.15406,       12.8837,            0.,NA,NA,"",   32.3746E-03,  -22.9513E-03,  -22.8332E-03,   23.0832E-06
C:/temp/dataset/8/16_32.odb,Step-1,Increment      1: Step Time =    1.000,"PART-1-1",           919,       12.2594,       22.5896,            0.,NA,NA,"",   29.8158E-03,  -16.1445E-03,  -25.0666E-03,   17.7595E-06
C:/temp/dataset/8/16_32.odb,Step-1,Increment      1: Step Time =    1.000,"PART-1-1",           920,       11.4390,       20.5291,            0.,NA,NA,"",   30.1745E-03,  -17.6944E-03,  -24.4419E-03,   12.2792E-06
C:/temp/dataset/8/16_32.odb,Step-1,Increment      1: Step Time =    1.000,"PART-1-1",           921,       9.26936,      -2.41689,            0.,NA,NA,"",   42.9510E-03,  -35.1397E-03,  -24.6979E-03,   726.841E-06
C:/temp/dataset/8/16_32.odb,Step-1,Increment      1: Step Time =    1.000,"PART-1-1",           922,       5.58568,  -453.309E-03,            0.,NA,NA,"",   38.6280E-03,  -31.7612E-03,  -21.9851E-03,   550.345E-06
C:/temp/dataset/8/16_32.odb,Step-1,Increment      1: Step Time =    1.000,"PART-1-1",           923,      -8.35205,   877.030E-03,            0.,NA,NA,"",   30.1060E-03,  -29.3536E-03,  -6.68880E-03,   255.031E-06
C:/temp/dataset/8/16_32.odb,Step-1,Increment      1: Step Time =    1.000,"PART-1-1",           924,      -7.85594,       2.30266,            0.,NA,NA,"",   29.4702E-03,  -28.6099E-03,  -7.06866E-03,   260.439E-06
C:/temp/dataset/8/16_32.odb,Step-1,Increment      1: Step Time =    1.000,"PART-1-1",           925,      -6.37117,       23.7044,            0.,NA,NA,"",   18.2960E-03,  -15.4107E-03,  -9.86169E-03,   37.4177E-06
C:/temp/dataset/8/16_32.odb,Step-1,Increment      1: Step Time =    1.000,"PART-1-1",           926,       8.86937,       24.3636,            0.,NA,NA,"",   26.9572E-03,  -14.7869E-03,  -22.5398E-03,   18.2961E-06
C:/temp/dataset/8/16_32.odb,Step-1,Increment      1: Step Time =    1.000,"PART-1-1",           927,       8.44688,      -11.4338,            0.,NA,NA,"",   44.7941E-03,  -33.3399E-03,  -29.9158E-03,   1.05142E-03
