ODB Name,Step,Frame,Part Instance Name,    êﬂì_ÉâÉxÉã,X,Y,Z,Section Name,Material Name,Section Point,   U-Magnitude,          U-U1,          U-U2,       S-Mises
C:/temp/dataset/8/16_8.odb,Step-1,Increment      1: Step Time =    1.000,"PART-1-1",             1,            5.,           -5.,            0.,NA,NA,"",   11.1787E-03,  -9.30605E-03,  -6.19368E-03,   437.555E-06
C:/temp/dataset/8/16_8.odb,Step-1,Increment      1: Step Time =    1.000,"PART-1-1",             2,            0.,           -5.,            0.,NA,NA,"",   9.75850E-03,  -9.03575E-03,  -3.68558E-03,   120.891E-06
C:/temp/dataset/8/16_8.odb,Step-1,Increment      1: Step Time =    1.000,"PART-1-1",             3,            5.,         -12.5,            0.,NA,NA,"",   12.5667E-03,  -7.44020E-03,  -10.1274E-03,   687.024E-06
C:/temp/dataset/8/16_8.odb,Step-1,Increment      1: Step Time =    1.000,"PART-1-1",             4,            5.,          -20.,            0.,NA,NA,"",   21.9431E-03,  -744.231E-06,  -21.9305E-03,   4.57648E-03
C:/temp/dataset/8/16_8.odb,Step-1,Increment      1: Step Time =    1.000,"PART-1-1",             5,            0.,          -20.,            0.,NA,NA,"",   26.9897E-03,   5.85005E-03,  -26.3481E-03,   4.19066E-03
C:/temp/dataset/8/16_8.odb,Step-1,Increment      1: Step Time =    1.000,"PART-1-1",             6,           -5.,          -20.,            0.,NA,NA,"",   1.78443E-03,  -1.19320E-03,  -1.32682E-03,   1.16592E-03
C:/temp/dataset/8/16_8.odb,Step-1,Increment      1: Step Time =    1.000,"PART-1-1",             7,           -5.,           -5.,            0.,NA,NA,"",   8.14778E-03,  -8.00387E-03,  -1.52461E-03,   505.020E-06
C:/temp/dataset/8/16_8.odb,Step-1,Increment      1: Step Time =    1.000,"PART-1-1",             8,            5.,           20.,            0.,NA,NA,"",   6.90255E-03,  -4.83087E-03,  -4.93030E-03,   30.4696E-06
C:/temp/dataset/8/16_8.odb,Step-1,Increment      1: Step Time =    1.000,"PART-1-1",             9,            0.,           20.,            0.,NA,NA,"",   6.21736E-03,  -4.88980E-03,  -3.83998E-03,   5.95700E-06
C:/temp/dataset/8/16_8.odb,Step-1,Increment      1: Step Time =    1.000,"PART-1-1",            10,            5.,          12.5,            0.,NA,NA,"",   7.88001E-03,  -6.06198E-03,  -5.03458E-03,   9.61731E-06
C:/temp/dataset/8/16_8.odb,Step-1,Increment      1: Step Time =    1.000,"PART-1-1",            11,            5.,            5.,            0.,NA,NA,"",   8.66477E-03,  -7.02784E-03,  -5.06831E-03,   135.617E-06
C:/temp/dataset/8/16_8.odb,Step-1,Increment      1: Step Time =    1.000,"PART-1-1",            12,            0.,            5.,            0.,NA,NA,"",   7.46403E-03,  -6.61379E-03,  -3.45969E-03,   9.13220E-06
C:/temp/dataset/8/16_8.odb,Step-1,Increment      1: Step Time =    1.000,"PART-1-1",            13,           -5.,            5.,            0.,NA,NA,"",   7.29517E-03,  -6.95890E-03,  -2.18933E-03,   92.8301E-06
C:/temp/dataset/8/16_8.odb,Step-1,Increment      1: Step Time =    1.000,"PART-1-1",            14,           -5.,           20.,            0.,NA,NA,"",   5.60314E-03,  -4.89261E-03,  -2.73085E-03,   29.3651E-06
C:/temp/dataset/8/16_8.odb,Step-1,Increment      1: Step Time =    1.000,"PART-1-1",            15,           15.,           30.,            0.,NA,NA,"",   7.39885E-03,  -2.90124E-03,  -6.80630E-03,   286.897E-09
C:/temp/dataset/8/16_8.odb,Step-1,Increment      1: Step Time =    1.000,"PART-1-1",            16,           7.5,           30.,            0.,NA,NA,"",   6.10084E-03,  -2.88123E-03,  -5.37761E-03,   7.43977E-06
C:/temp/dataset/8/16_8.odb,Step-1,Increment      1: Step Time =    1.000,"PART-1-1",            17,            0.,           30.,            0.,NA,NA,"",   4.78423E-03,  -2.84030E-03,  -3.84988E-03,   719.531E-09
C:/temp/dataset/8/16_8.odb,Step-1,Increment      1: Step Time =    1.000,"PART-1-1",            18,          -15.,           30.,            0.,NA,NA,"",   3.01212E-03,  -2.89883E-03,  -818.338E-06,   340.353E-09
C:/temp/dataset/8/16_8.odb,Step-1,Increment      1: Step Time =    1.000,"PART-1-1",            19,          -15.,          -30.,            0.,NA,NA,"",            0.,  -286.899E-42,  -442.609E-42,   848.703E-06
C:/temp/dataset/8/16_8.odb,Step-1,Increment      1: Step Time =    1.000,"PART-1-1",            20,           15.,          -30.,            0.,NA,NA,"",            0.,   657.519E-42,  -981.730E-42,   1.93557E-03
C:/temp/dataset/8/16_8.odb,Step-1,Increment      1: Step Time =    1.000,"PART-1-1",            21,           15.,      -20.1000,            0.,NA,NA,"",   1.38978E-03,   1.34269E-03,   358.727E-06,   52.1137E-06
C:/temp/dataset/8/16_8.odb,Step-1,Increment      1: Step Time =    1.000,"PART-1-1",            22,           15.,      -10.0500,            0.,NA,NA,"",   9.55540E-03,  -8.67570E-03,  -4.00473E-03,   508.989E-06
C:/temp/dataset/8/16_8.odb,Step-1,Increment      1: Step Time =    1.000,"PART-1-1",            23,           15.,            0.,            0.,NA,NA,"",   10.7672E-03,  -8.46104E-03,  -6.65917E-03,   86.1668E-06
C:/temp/dataset/8/16_8.odb,Step-1,Increment      1: Step Time =    1.000,"PART-1-1",            24,           15.,       9.90000,            0.,NA,NA,"",   9.36012E-03,  -6.50207E-03,  -6.73312E-03,   7.38759E-06
C:/temp/dataset/8/16_8.odb,Step-1,Increment      1: Step Time =    1.000,"PART-1-1",            25,           15.,       19.9500,            0.,NA,NA,"",   8.29674E-03,  -4.80331E-03,  -6.76492E-03,   9.49336E-06
C:/temp/dataset/8/16_8.odb,Step-1,Increment      1: Step Time =    1.000,"PART-1-1",            26,           2.5,           -5.,            0.,NA,NA,"",   10.3915E-03,  -9.27021E-03,  -4.69526E-03,   108.663E-06
C:/temp/dataset/8/16_8.odb,Step-1,Increment      1: Step Time =    1.000,"PART-1-1",            27,            5.,          -10.,            0.,NA,NA,"",   12.2104E-03,  -8.54630E-03,  -8.72093E-03,   575.555E-06
C:/temp/dataset/8/16_8.odb,Step-1,Increment      1: Step Time =    1.000,"PART-1-1",            28,            5.,          -7.5,            0.,NA,NA,"",   11.8263E-03,  -9.14606E-03,  -7.49733E-03,   554.176E-06
C:/temp/dataset/8/16_8.odb,Step-1,Increment      1: Step Time =    1.000,"PART-1-1",            29,            5.,         -17.5,            0.,NA,NA,"",   14.2595E-03,  -3.99930E-03,  -13.6872E-03,   1.57400E-03
C:/temp/dataset/8/16_8.odb,Step-1,Increment      1: Step Time =    1.000,"PART-1-1",            30,            5.,          -15.,            0.,NA,NA,"",   13.2430E-03,  -5.79258E-03,  -11.9089E-03,   812.504E-06
C:/temp/dataset/8/16_8.odb,Step-1,Increment      1: Step Time =    1.000,"PART-1-1",            31,           2.5,          -20.,            0.,NA,NA,"",   39.8475E-03,   993.219E-06,  -39.8352E-03,   8.97929E-03
C:/temp/dataset/8/16_8.odb,Step-1,Increment      1: Step Time =    1.000,"PART-1-1",            32,          -2.5,          -20.,            0.,NA,NA,"",   8.04944E-03,   2.08376E-03,  -7.77505E-03,   1.73433E-03
C:/temp/dataset/8/16_8.odb,Step-1,Increment      1: Step Time =    1.000,"PART-1-1",            33,           -5.,          -7.5,            0.,NA,NA,"",   6.84144E-03,  -6.80499E-03,  -705.263E-06,   229.564E-06
C:/temp/dataset/8/16_8.odb,Step-1,Increment      1: Step Time =    1.000,"PART-1-1",            34,           -5.,          -10.,            0.,NA,NA,"",   5.87916E-03,  -5.86528E-03,  -403.764E-06,   104.042E-06
C:/temp/dataset/8/16_8.odb,Step-1,Increment      1: Step Time =    1.000,"PART-1-1",            35,           -5.,         -12.5,            0.,NA,NA,"",   4.94474E-03,  -4.93891E-03,  -240.016E-06,   33.0303E-06
C:/temp/dataset/8/16_8.odb,Step-1,Increment      1: Step Time =    1.000,"PART-1-1",            36,           -5.,          -15.,            0.,NA,NA,"",   3.99867E-03,  -3.99152E-03,  -239.021E-06,   49.3325E-06
C:/temp/dataset/8/16_8.odb,Step-1,Increment      1: Step Time =    1.000,"PART-1-1",            37,           -5.,         -17.5,            0.,NA,NA,"",   2.99282E-03,  -2.96819E-03,  -383.147E-06,   348.406E-06
C:/temp/dataset/8/16_8.odb,Step-1,Increment      1: Step Time =    1.000,"PART-1-1",            38,          -2.5,           -5.,            0.,NA,NA,"",   9.13734E-03,  -8.72464E-03,  -2.71509E-03,   244.844E-06
C:/temp/dataset/8/16_8.odb,Step-1,Increment      1: Step Time =    1.000,"PART-1-1",            39,           2.5,           20.,            0.,NA,NA,"",   6.55048E-03,  -4.87395E-03,  -4.37646E-03,   13.3776E-06
C:/temp/dataset/8/16_8.odb,Step-1,Increment      1: Step Time =    1.000,"PART-1-1",            40,            5.,           15.,            0.,NA,NA,"",   7.55254E-03,  -5.65103E-03,  -5.01066E-03,   11.3013E-06
C:/temp/dataset/8/16_8.odb,Step-1,Increment      1: Step Time =    1.000,"PART-1-1",            41,            5.,          17.5,            0.,NA,NA,"",   7.22837E-03,  -5.23595E-03,  -4.98338E-03,   18.3851E-06
C:/temp/dataset/8/16_8.odb,Step-1,Increment      1: Step Time =    1.000,"PART-1-1",            42,            5.,           7.5,            0.,NA,NA,"",   8.51691E-03,  -6.83055E-03,  -5.08737E-03,   30.2027E-06
C:/temp/dataset/8/16_8.odb,Step-1,Increment      1: Step Time =    1.000,"PART-1-1",            43,            5.,           10.,            0.,NA,NA,"",   8.20584E-03,  -6.46272E-03,  -5.05658E-03,   11.7358E-06
C:/temp/dataset/8/16_8.odb,Step-1,Increment      1: Step Time =    1.000,"PART-1-1",            44,           2.5,            5.,            0.,NA,NA,"",   7.95947E-03,  -6.69956E-03,  -4.29756E-03,   92.1892E-06
C:/temp/dataset/8/16_8.odb,Step-1,Increment      1: Step Time =    1.000,"PART-1-1",            45,          -2.5,            5.,            0.,NA,NA,"",   7.22229E-03,  -6.69683E-03,  -2.70443E-03,   75.5335E-06
C:/temp/dataset/8/16_8.odb,Step-1,Increment      1: Step Time =    1.000,"PART-1-1",            46,           -5.,          17.5,            0.,NA,NA,"",   5.95985E-03,  -5.33904E-03,  -2.64848E-03,   32.8670E-06
C:/temp/dataset/8/16_8.odb,Step-1,Increment      1: Step Time =    1.000,"PART-1-1",            47,           -5.,           15.,            0.,NA,NA,"",   6.31445E-03,  -5.76471E-03,  -2.57691E-03,   34.0231E-06
C:/temp/dataset/8/16_8.odb,Step-1,Increment      1: Step Time =    1.000,"PART-1-1",            48,           -5.,          12.5,            0.,NA,NA,"",   6.64521E-03,  -6.15893E-03,  -2.49527E-03,   38.3899E-06
C:/temp/dataset/8/16_8.odb,Step-1,Increment      1: Step Time =    1.000,"PART-1-1",            49,           -5.,           10.,            0.,NA,NA,"",   6.94006E-03,  -6.51110E-03,  -2.40211E-03,   44.7593E-06
C:/temp/dataset/8/16_8.odb,Step-1,Increment      1: Step Time =    1.000,"PART-1-1",            50,           -5.,           7.5,            0.,NA,NA,"",   7.18278E-03,  -6.80561E-03,  -2.29695E-03,   47.4628E-06
C:/temp/dataset/8/16_8.odb,Step-1,Increment      1: Step Time =    1.000,"PART-1-1",            51,          -2.5,           20.,            0.,NA,NA,"",   5.90742E-03,  -4.89949E-03,  -3.30039E-03,   5.40285E-06
C:/temp/dataset/8/16_8.odb,Step-1,Increment      1: Step Time =    1.000,"PART-1-1",            52,          12.5,           30.,            0.,NA,NA,"",   6.96384E-03,  -2.90088E-03,  -6.33087E-03,   1.05322E-06
C:/temp/dataset/8/16_8.odb,Step-1,Increment      1: Step Time =    1.000,"PART-1-1",            53,           10.,           30.,            0.,NA,NA,"",   6.53367E-03,  -2.89491E-03,  -5.85733E-03,   4.37816E-06
C:/temp/dataset/8/16_8.odb,Step-1,Increment      1: Step Time =    1.000,"PART-1-1",            54,            5.,           30.,            0.,NA,NA,"",   5.66102E-03,  -2.86303E-03,  -4.88367E-03,   7.89699E-06
C:/temp/dataset/8/16_8.odb,Step-1,Increment      1: Step Time =    1.000,"PART-1-1",            55,           2.5,           30.,            0.,NA,NA,"",   5.21823E-03,  -2.84727E-03,  -4.37299E-03,   5.31131E-06
C:/temp/dataset/8/16_8.odb,Step-1,Increment      1: Step Time =    1.000,"PART-1-1",            56,          -2.5,           30.,            0.,NA,NA,"",   4.37494E-03,  -2.84521E-03,  -3.32339E-03,   4.53339E-06
C:/temp/dataset/8/16_8.odb,Step-1,Increment      1: Step Time =    1.000,"PART-1-1",            57,           -5.,           30.,            0.,NA,NA,"",   4.00478E-03,  -2.85996E-03,  -2.80338E-03,   7.93208E-06
C:/temp/dataset/8/16_8.odb,Step-1,Increment      1: Step Time =    1.000,"PART-1-1",            58,          -7.5,           30.,            0.,NA,NA,"",   3.68237E-03,  -2.87855E-03,  -2.29648E-03,   7.90633E-06
C:/temp/dataset/8/16_8.odb,Step-1,Increment      1: Step Time =    1.000,"PART-1-1",            59,          -10.,           30.,            0.,NA,NA,"",   3.40838E-03,  -2.89306E-03,  -1.80200E-03,   4.59048E-06
C:/temp/dataset/8/16_8.odb,Step-1,Increment      1: Step Time =    1.000,"PART-1-1",            60,         -12.5,           30.,            0.,NA,NA,"",   3.18187E-03,  -2.89879E-03,  -1.31199E-03,   906.471E-09
C:/temp/dataset/8/16_8.odb,Step-1,Increment      1: Step Time =    1.000,"PART-1-1",            61,          -15.,          27.5,            0.,NA,NA,"",   3.49296E-03,  -3.39573E-03,  -818.428E-06,   893.954E-09
C:/temp/dataset/8/16_8.odb,Step-1,Increment      1: Step Time =    1.000,"PART-1-1",            62,          -15.,           25.,            0.,NA,NA,"",   3.98322E-03,  -3.89692E-03,  -824.668E-06,   5.34243E-06
C:/temp/dataset/8/16_8.odb,Step-1,Increment      1: Step Time =    1.000,"PART-1-1",            63,          -15.,          22.5,            0.,NA,NA,"",   4.47555E-03,  -4.39554E-03,  -842.450E-06,   11.3180E-06
C:/temp/dataset/8/16_8.odb,Step-1,Increment      1: Step Time =    1.000,"PART-1-1",            64,          -15.,           20.,            0.,NA,NA,"",   4.95922E-03,  -4.88143E-03,  -874.933E-06,   17.5678E-06
C:/temp/dataset/8/16_8.odb,Step-1,Increment      1: Step Time =    1.000,"PART-1-1",            65,          -15.,          17.5,            0.,NA,NA,"",   5.42267E-03,  -5.34392E-03,  -920.829E-06,   22.9985E-06
C:/temp/dataset/8/16_8.odb,Step-1,Increment      1: Step Time =    1.000,"PART-1-1",            66,          -15.,           15.,            0.,NA,NA,"",   5.85758E-03,  -5.77548E-03,  -977.281E-06,   27.0184E-06
C:/temp/dataset/8/16_8.odb,Step-1,Increment      1: Step Time =    1.000,"PART-1-1",            67,          -15.,          12.5,            0.,NA,NA,"",   6.25926E-03,  -6.17200E-03,  -1.04151E-03,   30.0534E-06
C:/temp/dataset/8/16_8.odb,Step-1,Increment      1: Step Time =    1.000,"PART-1-1",            68,          -15.,           10.,            0.,NA,NA,"",   6.62642E-03,  -6.53247E-03,  -1.11189E-03,   32.5125E-06
C:/temp/dataset/8/16_8.odb,Step-1,Increment      1: Step Time =    1.000,"PART-1-1",            69,          -15.,           7.5,            0.,NA,NA,"",   6.96141E-03,  -6.85912E-03,  -1.18898E-03,   37.4928E-06
C:/temp/dataset/8/16_8.odb,Step-1,Increment      1: Step Time =    1.000,"PART-1-1",            70,          -15.,            5.,            0.,NA,NA,"",   7.26918E-03,  -7.15540E-03,  -1.28110E-03,   49.0262E-06
C:/temp/dataset/8/16_8.odb,Step-1,Increment      1: Step Time =    1.000,"PART-1-1",            71,          -15.,           2.5,            0.,NA,NA,"",   7.54699E-03,  -7.41313E-03,  -1.41511E-03,   73.7137E-06
C:/temp/dataset/8/16_8.odb,Step-1,Increment      1: Step Time =    1.000,"PART-1-1",            72,          -15.,            0.,            0.,NA,NA,"",   7.76008E-03,  -7.58913E-03,  -1.61982E-03,   111.009E-06
C:/temp/dataset/8/16_8.odb,Step-1,Increment      1: Step Time =    1.000,"PART-1-1",            73,          -15.,          -2.5,            0.,NA,NA,"",   7.83169E-03,  -7.59489E-03,  -1.91127E-03,   139.029E-06
C:/temp/dataset/8/16_8.odb,Step-1,Increment      1: Step Time =    1.000,"PART-1-1",            74,          -15.,           -5.,            0.,NA,NA,"",   7.67979E-03,  -7.34667E-03,  -2.23732E-03,   144.121E-06
C:/temp/dataset/8/16_8.odb,Step-1,Increment      1: Step Time =    1.000,"PART-1-1",            75,          -15.,          -7.5,            0.,NA,NA,"",   7.25354E-03,  -6.80589E-03,  -2.50874E-03,   92.7664E-06
C:/temp/dataset/8/16_8.odb,Step-1,Increment      1: Step Time =    1.000,"PART-1-1",            76,          -15.,          -10.,            0.,NA,NA,"",   6.59665E-03,  -6.04501E-03,  -2.64076E-03,   16.8031E-06
C:/temp/dataset/8/16_8.odb,Step-1,Increment      1: Step Time =    1.000,"PART-1-1",            77,          -15.,         -12.5,            0.,NA,NA,"",   5.78463E-03,  -5.18056E-03,  -2.57367E-03,   76.6877E-06
C:/temp/dataset/8/16_8.odb,Step-1,Increment      1: Step Time =    1.000,"PART-1-1",            78,          -15.,          -15.,            0.,NA,NA,"",   4.93369E-03,  -4.36259E-03,  -2.30416E-03,   160.642E-06
C:/temp/dataset/8/16_8.odb,Step-1,Increment      1: Step Time =    1.000,"PART-1-1",            79,          -15.,         -17.5,            0.,NA,NA,"",   4.18166E-03,  -3.73899E-03,  -1.87249E-03,   208.548E-06
C:/temp/dataset/8/16_8.odb,Step-1,Increment      1: Step Time =    1.000,"PART-1-1",            80,          -15.,          -20.,            0.,NA,NA,"",   3.67967E-03,  -3.39862E-03,  -1.41044E-03,   175.349E-06
C:/temp/dataset/8/16_8.odb,Step-1,Increment      1: Step Time =    1.000,"PART-1-1",            81,          -15.,         -22.5,            0.,NA,NA,"",   3.41820E-03,  -3.22978E-03,  -1.11919E-03,   75.1212E-06
C:/temp/dataset/8/16_8.odb,Step-1,Increment      1: Step Time =    1.000,"PART-1-1",            82,          -15.,          -25.,            0.,NA,NA,"",   3.02914E-03,  -2.83134E-03,  -1.07667E-03,   38.3596E-06
C:/temp/dataset/8/16_8.odb,Step-1,Increment      1: Step Time =    1.000,"PART-1-1",            83,          -15.,         -27.5,            0.,NA,NA,"",   2.06396E-03,  -1.79990E-03,  -1.01009E-03,   198.126E-06
C:/temp/dataset/8/16_8.odb,Step-1,Increment      1: Step Time =    1.000,"PART-1-1",            84,         -12.5,          -30.,            0.,NA,NA,"",            0.,  -566.433E-42,  -104.713E-42,   464.639E-06
C:/temp/dataset/8/16_8.odb,Step-1,Increment      1: Step Time =    1.000,"PART-1-1",            85,          -10.,          -30.,            0.,NA,NA,"",            0.,  -660.751E-42,  -670.062E-42,   673.284E-06
C:/temp/dataset/8/16_8.odb,Step-1,Increment      1: Step Time =    1.000,"PART-1-1",            86,          -7.5,          -30.,            0.,NA,NA,"",            0.,  -735.235E-42,  -397.635E-42,   983.218E-06
C:/temp/dataset/8/16_8.odb,Step-1,Increment      1: Step Time =    1.000,"PART-1-1",            87,           -5.,          -30.,            0.,NA,NA,"",            0.,  -1.53271E-39,  -1.97850E-39,   1.45803E-03
C:/temp/dataset/8/16_8.odb,Step-1,Increment      1: Step Time =    1.000,"PART-1-1",            88,          -2.5,          -30.,            0.,NA,NA,"",            0.,  -1.96110E-39,  -3.33364E-39,   1.98784E-03
C:/temp/dataset/8/16_8.odb,Step-1,Increment      1: Step Time =    1.000,"PART-1-1",            89,            0.,          -30.,            0.,NA,NA,"",            0.,   43.2455E-42,  -3.73589E-39,   2.37138E-03
C:/temp/dataset/8/16_8.odb,Step-1,Increment      1: Step Time =    1.000,"PART-1-1",            90,           2.5,          -30.,            0.,NA,NA,"",            0.,  -1.25400E-39,  -4.57182E-39,   2.49862E-03
C:/temp/dataset/8/16_8.odb,Step-1,Increment      1: Step Time =    1.000,"PART-1-1",            91,            5.,          -30.,            0.,NA,NA,"",            0.,   2.04377E-39,  -5.26614E-39,   2.48667E-03
C:/temp/dataset/8/16_8.odb,Step-1,Increment      1: Step Time =    1.000,"PART-1-1",            92,           7.5,          -30.,            0.,NA,NA,"",            0.,   661.955E-42,  -2.20510E-39,   2.15991E-03
C:/temp/dataset/8/16_8.odb,Step-1,Increment      1: Step Time =    1.000,"PART-1-1",            93,           10.,          -30.,            0.,NA,NA,"",            0.,   1.84117E-39,  -2.46249E-39,   1.77104E-03
C:/temp/dataset/8/16_8.odb,Step-1,Increment      1: Step Time =    1.000,"PART-1-1",            94,          12.5,          -30.,            0.,NA,NA,"",            0.,   1.36944E-39,  -407.449E-42,   1.24989E-03
C:/temp/dataset/8/16_8.odb,Step-1,Increment      1: Step Time =    1.000,"PART-1-1",            95,           15.,      -27.5250,            0.,NA,NA,"",   4.55255E-03,   4.13699E-03,  -1.90028E-03,   200.934E-06
C:/temp/dataset/8/16_8.odb,Step-1,Increment      1: Step Time =    1.000,"PART-1-1",            96,           15.,      -25.0500,            0.,NA,NA,"",   5.68212E-03,   5.58000E-03,  -1.07244E-03,   457.649E-06
C:/temp/dataset/8/16_8.odb,Step-1,Increment      1: Step Time =    1.000,"PART-1-1",            97,           15.,      -22.5750,            0.,NA,NA,"",   4.37596E-03,   4.37578E-03,  -39.8643E-06,   361.207E-06
C:/temp/dataset/8/16_8.odb,Step-1,Increment      1: Step Time =    1.000,"PART-1-1",            98,           15.,      -17.5875,            0.,NA,NA,"",   2.24089E-03,  -2.23075E-03,  -213.025E-06,   402.505E-06
C:/temp/dataset/8/16_8.odb,Step-1,Increment      1: Step Time =    1.000,"PART-1-1",            99,           15.,      -15.0750,            0.,NA,NA,"",   5.45971E-03,  -5.27348E-03,  -1.41382E-03,   588.504E-06
C:/temp/dataset/8/16_8.odb,Step-1,Increment      1: Step Time =    1.000,"PART-1-1",           100,           15.,      -12.5625,            0.,NA,NA,"",   7.89963E-03,  -7.39996E-03,  -2.76493E-03,   587.257E-06
C:/temp/dataset/8/16_8.odb,Step-1,Increment      1: Step Time =    1.000,"PART-1-1",           101,           15.,      -7.53750,            0.,NA,NA,"",   10.5420E-03,  -9.25927E-03,  -5.03977E-03,   408.963E-06
C:/temp/dataset/8/16_8.odb,Step-1,Increment      1: Step Time =    1.000,"PART-1-1",           102,           15.,      -5.02500,            0.,NA,NA,"",   10.9807E-03,  -9.30596E-03,  -5.82886E-03,   294.769E-06
C:/temp/dataset/8/16_8.odb,Step-1,Increment      1: Step Time =    1.000,"PART-1-1",           103,           15.,      -2.51250,            0.,NA,NA,"",   11.0076E-03,  -8.97950E-03,  -6.36672E-03,   178.760E-06
C:/temp/dataset/8/16_8.odb,Step-1,Increment      1: Step Time =    1.000,"PART-1-1",           104,           15.,       2.47500,            0.,NA,NA,"",   10.4086E-03,  -7.90891E-03,  -6.76674E-03,   26.6289E-06
C:/temp/dataset/8/16_8.odb,Step-1,Increment      1: Step Time =    1.000,"PART-1-1",           105,           15.,       4.95000,            0.,NA,NA,"",   10.0284E-03,  -7.38943E-03,  -6.77969E-03,   7.71023E-06
C:/temp/dataset/8/16_8.odb,Step-1,Increment      1: Step Time =    1.000,"PART-1-1",           106,           15.,       7.42500,            0.,NA,NA,"",   9.67476E-03,  -6.92564E-03,  -6.75548E-03,   12.2178E-06
C:/temp/dataset/8/16_8.odb,Step-1,Increment      1: Step Time =    1.000,"PART-1-1",           107,           15.,       12.4125,            0.,NA,NA,"",   9.07095E-03,  -6.08790E-03,  -6.72455E-03,   1.07504E-06
C:/temp/dataset/8/16_8.odb,Step-1,Increment      1: Step Time =    1.000,"PART-1-1",           108,           15.,       14.9250,            0.,NA,NA,"",   8.80117E-03,  -5.67268E-03,  -6.72914E-03,   4.67232E-06
C:/temp/dataset/8/16_8.odb,Step-1,Increment      1: Step Time =    1.000,"PART-1-1",           109,           15.,       17.4375,            0.,NA,NA,"",   8.54454E-03,  -5.24656E-03,  -6.74409E-03,   8.18863E-06
C:/temp/dataset/8/16_8.odb,Step-1,Increment      1: Step Time =    1.000,"PART-1-1",           110,           15.,       22.4625,            0.,NA,NA,"",   8.05538E-03,  -4.34124E-03,  -6.78549E-03,   8.05680E-06
C:/temp/dataset/8/16_8.odb,Step-1,Increment      1: Step Time =    1.000,"PART-1-1",           111,           15.,       24.9750,            0.,NA,NA,"",   7.82139E-03,  -3.86452E-03,  -6.79997E-03,   4.52937E-06
C:/temp/dataset/8/16_8.odb,Step-1,Increment      1: Step Time =    1.000,"PART-1-1",           112,           15.,       27.4875,            0.,NA,NA,"",   7.59983E-03,  -3.38184E-03,  -6.80592E-03,   1.04141E-06
C:/temp/dataset/8/16_8.odb,Step-1,Increment      1: Step Time =    1.000,"PART-1-1",           113,       13.1072,       7.69700,            0.,NA,NA,"",   9.40233E-03,  -6.87028E-03,  -6.41897E-03,   5.33115E-06
C:/temp/dataset/8/16_8.odb,Step-1,Increment      1: Step Time =    1.000,"PART-1-1",           114,       12.9209,      -22.7091,            0.,NA,NA,"",   4.93017E-03,   4.64984E-03,  -1.63877E-03,   265.571E-06
C:/temp/dataset/8/16_8.odb,Step-1,Increment      1: Step Time =    1.000,"PART-1-1",           115,       12.1836,      -25.1316,            0.,NA,NA,"",   6.01950E-03,   5.78933E-03,  -1.64865E-03,   508.118E-06
C:/temp/dataset/8/16_8.odb,Step-1,Increment      1: Step Time =    1.000,"PART-1-1",           116,       12.5983,   113.555E-03,            0.,NA,NA,"",   10.5739E-03,  -8.49700E-03,  -6.29355E-03,   106.608E-06
C:/temp/dataset/8/16_8.odb,Step-1,Increment      1: Step Time =    1.000,"PART-1-1",           117,       12.7905,       5.42944,            0.,NA,NA,"",   9.68114E-03,  -7.28803E-03,  -6.37254E-03,   15.8661E-06
C:/temp/dataset/8/16_8.odb,Step-1,Increment      1: Step Time =    1.000,"PART-1-1",           118,       12.0087,       2.86964,            0.,NA,NA,"",   10.0182E-03,  -7.82608E-03,  -6.25431E-03,   62.2816E-06
C:/temp/dataset/8/16_8.odb,Step-1,Increment      1: Step Time =    1.000,"PART-1-1",           119,       6.98133,      -9.77136,            0.,NA,NA,"",   11.9844E-03,  -9.04362E-03,  -7.86383E-03,   400.143E-06
C:/temp/dataset/8/16_8.odb,Step-1,Increment      1: Step Time =    1.000,"PART-1-1",           120,       7.90844,      -27.9171,            0.,NA,NA,"",   4.49842E-03,   3.74223E-03,  -2.49629E-03,   1.95445E-03
C:/temp/dataset/8/16_8.odb,Step-1,Increment      1: Step Time =    1.000,"PART-1-1",           121,      -2.46872,      -27.6632,            0.,NA,NA,"",   4.49507E-03,  -3.56891E-03,  -2.73287E-03,   1.89572E-03
C:/temp/dataset/8/16_8.odb,Step-1,Increment      1: Step Time =    1.000,"PART-1-1",           122,      -12.5126,      -12.5666,            0.,NA,NA,"",   5.42651E-03,  -5.07974E-03,  -1.90873E-03,   136.614E-06
C:/temp/dataset/8/16_8.odb,Step-1,Increment      1: Step Time =    1.000,"PART-1-1",           123,      -12.5815,       17.4815,            0.,NA,NA,"",   5.53146E-03,  -5.36567E-03,  -1.34412E-03,   12.3293E-06
C:/temp/dataset/8/16_8.odb,Step-1,Increment      1: Step Time =    1.000,"PART-1-1",           124,      -2.62887,      -2.48638,            0.,NA,NA,"",   8.45151E-03,  -8.04708E-03,  -2.58313E-03,   203.601E-06
C:/temp/dataset/8/16_8.odb,Step-1,Increment      1: Step Time =    1.000,"PART-1-1",           125,      -2.40475,       2.52951,            0.,NA,NA,"",   7.70585E-03,  -7.22187E-03,  -2.68788E-03,   80.2096E-06
C:/temp/dataset/8/16_8.odb,Step-1,Increment      1: Step Time =    1.000,"PART-1-1",           126,       2.45017,      -2.57003,            0.,NA,NA,"",   9.58986E-03,  -8.43999E-03,  -4.55324E-03,   139.962E-06
C:/temp/dataset/8/16_8.odb,Step-1,Increment      1: Step Time =    1.000,"PART-1-1",           127,       2.64402,       2.44720,            0.,NA,NA,"",   8.58821E-03,  -7.36439E-03,  -4.41850E-03,   119.540E-06
C:/temp/dataset/8/16_8.odb,Step-1,Increment      1: Step Time =    1.000,"PART-1-1",           128,       7.27469,       27.6230,            0.,NA,NA,"",   6.30156E-03,  -3.34590E-03,  -5.33990E-03,   3.97794E-06
C:/temp/dataset/8/16_8.odb,Step-1,Increment      1: Step Time =    1.000,"PART-1-1",           129,       2.48679,       22.6352,            0.,NA,NA,"",   6.15783E-03,  -4.33005E-03,  -4.37831E-03,   12.2307E-06
C:/temp/dataset/8/16_8.odb,Step-1,Increment      1: Step Time =    1.000,"PART-1-1",           130,   4.73057E-03,       27.5452,            0.,NA,NA,"",   5.10158E-03,  -3.34640E-03,  -3.85067E-03,   6.75349E-06
C:/temp/dataset/8/16_8.odb,Step-1,Increment      1: Step Time =    1.000,"PART-1-1",           131,      -2.67861,       22.9024,            0.,NA,NA,"",   5.39407E-03,  -4.29109E-03,  -3.26841E-03,   10.8346E-06
C:/temp/dataset/8/16_8.odb,Step-1,Increment      1: Step Time =    1.000,"PART-1-1",           132,      -12.4942,       19.9650,            0.,NA,NA,"",   5.08215E-03,  -4.90271E-03,  -1.33856E-03,   11.2568E-06
C:/temp/dataset/8/16_8.odb,Step-1,Increment      1: Step Time =    1.000,"PART-1-1",           133,      -7.56680,       17.4386,            0.,NA,NA,"",   5.80573E-03,  -5.37369E-03,  -2.19772E-03,   15.5732E-06
C:/temp/dataset/8/16_8.odb,Step-1,Increment      1: Step Time =    1.000,"PART-1-1",           134,       7.64811,       17.7092,            0.,NA,NA,"",   7.53344E-03,  -5.20942E-03,  -5.44194E-03,   12.3563E-06
C:/temp/dataset/8/16_8.odb,Step-1,Increment      1: Step Time =    1.000,"PART-1-1",           135,      -9.58788,      -27.7112,            0.,NA,NA,"",   1.98758E-03,  -1.97692E-03,  -205.578E-06,   549.367E-06
C:/temp/dataset/8/16_8.odb,Step-1,Increment      1: Step Time =    1.000,"PART-1-1",           136,       4.77230,      -2.62442,            0.,NA,NA,"",   10.2460E-03,  -8.61657E-03,  -5.54395E-03,   214.101E-06
C:/temp/dataset/8/16_8.odb,Step-1,Increment      1: Step Time =    1.000,"PART-1-1",           137,       7.77605,      -12.2161,            0.,NA,NA,"",   11.5616E-03,  -8.18813E-03,  -8.16242E-03,   353.178E-06
C:/temp/dataset/8/16_8.odb,Step-1,Increment      1: Step Time =    1.000,"PART-1-1",           138,       7.25866,      -19.5166,            0.,NA,NA,"",   10.1763E-03,  -1.02131E-03,  -10.1249E-03,   1.27706E-03
C:/temp/dataset/8/16_8.odb,Step-1,Increment      1: Step Time =    1.000,"PART-1-1",           139,      -4.84221,      -22.7118,            0.,NA,NA,"",   4.16864E-03,  -3.70451E-03,  -1.91158E-03,   536.258E-06
C:/temp/dataset/8/16_8.odb,Step-1,Increment      1: Step Time =    1.000,"PART-1-1",           140,      -12.1835,      -27.1471,            0.,NA,NA,"",   2.00879E-03,  -1.98146E-03,  -330.207E-06,   381.255E-06
C:/temp/dataset/8/16_8.odb,Step-1,Increment      1: Step Time =    1.000,"PART-1-1",           141,      -12.5060,       10.0400,            0.,NA,NA,"",   6.71132E-03,  -6.55395E-03,  -1.44484E-03,   16.5514E-06
C:/temp/dataset/8/16_8.odb,Step-1,Increment      1: Step Time =    1.000,"PART-1-1",           142,      -12.8419,       4.62256,            0.,NA,NA,"",   7.38793E-03,  -7.23371E-03,  -1.50168E-03,   34.3714E-06
C:/temp/dataset/8/16_8.odb,Step-1,Increment      1: Step Time =    1.000,"PART-1-1",           143,      -12.8499,  -39.9835E-03,            0.,NA,NA,"",   7.84585E-03,  -7.66877E-03,  -1.65752E-03,   67.1440E-06
C:/temp/dataset/8/16_8.odb,Step-1,Increment      1: Step Time =    1.000,"PART-1-1",           144,      -13.3239,      -5.02776,            0.,NA,NA,"",   7.68608E-03,  -7.42121E-03,  -2.00035E-03,   77.2066E-06
C:/temp/dataset/8/16_8.odb,Step-1,Increment      1: Step Time =    1.000,"PART-1-1",           145,      -7.45277,      -10.1617,            0.,NA,NA,"",   6.00545E-03,  -5.90275E-03,  -1.10591E-03,   143.957E-06
C:/temp/dataset/8/16_8.odb,Step-1,Increment      1: Step Time =    1.000,"PART-1-1",           146,  -27.8758E-03,      -2.52525,            0.,NA,NA,"",   8.97857E-03,  -8.24196E-03,  -3.56158E-03,   135.917E-06
C:/temp/dataset/8/16_8.odb,Step-1,Increment      1: Step Time =    1.000,"PART-1-1",           147,       4.82974,       22.7243,            0.,NA,NA,"",   6.50127E-03,  -4.30504E-03,  -4.87167E-03,   8.94258E-06
C:/temp/dataset/8/16_8.odb,Step-1,Increment      1: Step Time =    1.000,"PART-1-1",           148,       7.38047,       9.75754,            0.,NA,NA,"",   8.47936E-03,  -6.50884E-03,  -5.43457E-03,   5.48492E-06
C:/temp/dataset/8/16_8.odb,Step-1,Increment      1: Step Time =    1.000,"PART-1-1",           149,       7.06669,       7.50812,            0.,NA,NA,"",   8.72101E-03,  -6.85187E-03,  -5.39517E-03,   23.6425E-06
C:/temp/dataset/8/16_8.odb,Step-1,Increment      1: Step Time =    1.000,"PART-1-1",           150,   54.6531E-03,       2.48775,            0.,NA,NA,"",   8.05748E-03,  -7.26068E-03,  -3.49365E-03,   111.234E-06
C:/temp/dataset/8/16_8.odb,Step-1,Increment      1: Step Time =    1.000,"PART-1-1",           151,      -4.69755,       2.58666,            0.,NA,NA,"",   7.57245E-03,  -7.25948E-03,  -2.15450E-03,   39.3138E-06
C:/temp/dataset/8/16_8.odb,Step-1,Increment      1: Step Time =    1.000,"PART-1-1",           152,      -12.4531,       27.7137,            0.,NA,NA,"",   3.60385E-03,  -3.35320E-03,  -1.32052E-03,   3.97171E-06
C:/temp/dataset/8/16_8.odb,Step-1,Increment      1: Step Time =    1.000,"PART-1-1",           153,      -11.8780,       25.1349,            0.,NA,NA,"",   4.13065E-03,  -3.87387E-03,  -1.43368E-03,   7.75554E-06
C:/temp/dataset/8/16_8.odb,Step-1,Increment      1: Step Time =    1.000,"PART-1-1",           154,      -12.3074,       22.4604,            0.,NA,NA,"",   4.61751E-03,  -4.41303E-03,  -1.35886E-03,   9.78848E-06
C:/temp/dataset/8/16_8.odb,Step-1,Increment      1: Step Time =    1.000,"PART-1-1",           155,      -7.54353,       19.8014,            0.,NA,NA,"",   5.41672E-03,  -4.93623E-03,  -2.23036E-03,   12.2412E-06
C:/temp/dataset/8/16_8.odb,Step-1,Increment      1: Step Time =    1.000,"PART-1-1",           156,   45.4396E-03,       22.6227,            0.,NA,NA,"",   5.80475E-03,  -4.33944E-03,  -3.85543E-03,   8.19207E-06
C:/temp/dataset/8/16_8.odb,Step-1,Increment      1: Step Time =    1.000,"PART-1-1",           157,       9.91939,       27.0382,            0.,NA,NA,"",   6.79693E-03,  -3.46698E-03,  -5.84622E-03,   4.96090E-06
C:/temp/dataset/8/16_8.odb,Step-1,Increment      1: Step Time =    1.000,"PART-1-1",           158,       4.86771,       27.6907,            0.,NA,NA,"",   5.89091E-03,  -3.32442E-03,  -4.86324E-03,   4.00798E-06
C:/temp/dataset/8/16_8.odb,Step-1,Increment      1: Step Time =    1.000,"PART-1-1",           159,       2.46310,       27.6480,            0.,NA,NA,"",   5.49155E-03,  -3.32691E-03,  -4.36908E-03,   5.38102E-06
C:/temp/dataset/8/16_8.odb,Step-1,Increment      1: Step Time =    1.000,"PART-1-1",           160,      -2.80472,       27.0882,            0.,NA,NA,"",   4.73794E-03,  -3.44462E-03,  -3.25310E-03,   7.22070E-06
C:/temp/dataset/8/16_8.odb,Step-1,Increment      1: Step Time =    1.000,"PART-1-1",           161,      -5.48605,       27.7688,            0.,NA,NA,"",   4.27545E-03,  -3.31789E-03,  -2.69650E-03,   5.65835E-06
C:/temp/dataset/8/16_8.odb,Step-1,Increment      1: Step Time =    1.000,"PART-1-1",           162,      -7.83752,       28.0673,            0.,NA,NA,"",   3.95349E-03,  -3.26905E-03,  -2.22337E-03,   5.71011E-06
C:/temp/dataset/8/16_8.odb,Step-1,Increment      1: Step Time =    1.000,"PART-1-1",           163,      -7.55682,       15.0000,            0.,NA,NA,"",   6.18547E-03,  -5.79437E-03,  -2.16455E-03,   18.9380E-06
C:/temp/dataset/8/16_8.odb,Step-1,Increment      1: Step Time =    1.000,"PART-1-1",           164,      -12.5962,       15.0033,            0.,NA,NA,"",   5.95572E-03,  -5.79649E-03,  -1.36795E-03,   13.6487E-06
C:/temp/dataset/8/16_8.odb,Step-1,Increment      1: Step Time =    1.000,"PART-1-1",           165,      -7.55941,       12.5503,            0.,NA,NA,"",   6.53844E-03,  -6.18453E-03,  -2.12197E-03,   20.5531E-06
C:/temp/dataset/8/16_8.odb,Step-1,Increment      1: Step Time =    1.000,"PART-1-1",           166,      -12.5765,       12.5372,            0.,NA,NA,"",   6.34724E-03,  -6.19065E-03,  -1.40118E-03,   15.0250E-06
C:/temp/dataset/8/16_8.odb,Step-1,Increment      1: Step Time =    1.000,"PART-1-1",           167,      -7.59139,       10.0650,            0.,NA,NA,"",   6.86186E-03,  -6.54113E-03,  -2.07332E-03,   20.2555E-06
C:/temp/dataset/8/16_8.odb,Step-1,Increment      1: Step Time =    1.000,"PART-1-1",           168,      -7.88191,       7.28317,            0.,NA,NA,"",   7.16542E-03,  -6.88544E-03,  -1.98342E-03,   24.6994E-06
C:/temp/dataset/8/16_8.odb,Step-1,Increment      1: Step Time =    1.000,"PART-1-1",           169,      -12.0831,       7.21074,            0.,NA,NA,"",   7.09333E-03,  -6.92588E-03,  -1.53217E-03,   17.3075E-06
C:/temp/dataset/8/16_8.odb,Step-1,Increment      1: Step Time =    1.000,"PART-1-1",           170,      -13.1416,       2.31003,            0.,NA,NA,"",   7.63843E-03,  -7.47939E-03,  -1.55063E-03,   54.4634E-06
C:/temp/dataset/8/16_8.odb,Step-1,Increment      1: Step Time =    1.000,"PART-1-1",           171,      -12.2759,      -2.89935,            0.,NA,NA,"",   7.90079E-03,  -7.69851E-03,  -1.77639E-03,   54.6679E-06
C:/temp/dataset/8/16_8.odb,Step-1,Increment      1: Step Time =    1.000,"PART-1-1",           172,      -7.56671,      -5.67297,            0.,NA,NA,"",   7.65800E-03,  -7.51591E-03,  -1.46832E-03,   155.683E-06
C:/temp/dataset/8/16_8.odb,Step-1,Increment      1: Step Time =    1.000,"PART-1-1",           173,      -7.39223,      -7.81567,            0.,NA,NA,"",   6.90744E-03,  -6.79091E-03,  -1.26343E-03,   214.978E-06
C:/temp/dataset/8/16_8.odb,Step-1,Increment      1: Step Time =    1.000,"PART-1-1",           174,      -12.2966,      -7.15451,            0.,NA,NA,"",   7.24507E-03,  -6.97762E-03,  -1.95037E-03,   92.7488E-06
C:/temp/dataset/8/16_8.odb,Step-1,Increment      1: Step Time =    1.000,"PART-1-1",           175,      -12.4694,      -9.99482,            0.,NA,NA,"",   6.36504E-03,  -6.04464E-03,  -1.99399E-03,   118.618E-06
C:/temp/dataset/8/16_8.odb,Step-1,Increment      1: Step Time =    1.000,"PART-1-1",           176,      -7.49855,      -12.5983,            0.,NA,NA,"",   5.03697E-03,  -4.94216E-03,  -972.671E-06,   115.576E-06
C:/temp/dataset/8/16_8.odb,Step-1,Increment      1: Step Time =    1.000,"PART-1-1",           177,      -7.51831,      -15.1107,            0.,NA,NA,"",   4.06178E-03,  -3.94634E-03,  -961.503E-06,   154.426E-06
C:/temp/dataset/8/16_8.odb,Step-1,Increment      1: Step Time =    1.000,"PART-1-1",           178,      -12.5129,      -15.0992,            0.,NA,NA,"",   4.51948E-03,  -4.18229E-03,  -1.71296E-03,   146.922E-06
C:/temp/dataset/8/16_8.odb,Step-1,Increment      1: Step Time =    1.000,"PART-1-1",           179,      -7.51265,      -17.6713,            0.,NA,NA,"",   3.13572E-03,  -3.00806E-03,  -885.587E-06,   345.472E-06
C:/temp/dataset/8/16_8.odb,Step-1,Increment      1: Step Time =    1.000,"PART-1-1",           180,      -12.5452,      -17.6264,            0.,NA,NA,"",   3.78505E-03,  -3.50874E-03,  -1.41962E-03,   154.048E-06
C:/temp/dataset/8/16_8.odb,Step-1,Increment      1: Step Time =    1.000,"PART-1-1",           181,      -12.7276,      -20.0809,            0.,NA,NA,"",   3.39221E-03,  -3.21370E-03,  -1.08592E-03,   180.970E-06
C:/temp/dataset/8/16_8.odb,Step-1,Increment      1: Step Time =    1.000,"PART-1-1",           182,      -13.0628,      -22.3163,            0.,NA,NA,"",   3.27620E-03,  -3.16054E-03,  -862.837E-06,   162.051E-06
C:/temp/dataset/8/16_8.odb,Step-1,Increment      1: Step Time =    1.000,"PART-1-1",           183,      -7.23303,      -27.7750,            0.,NA,NA,"",   2.59125E-03,  -2.55376E-03,  -439.175E-06,   796.295E-06
C:/temp/dataset/8/16_8.odb,Step-1,Increment      1: Step Time =    1.000,"PART-1-1",           184,      -4.86055,      -27.7327,            0.,NA,NA,"",   3.49181E-03,  -3.28512E-03,  -1.18351E-03,   1.19767E-03
C:/temp/dataset/8/16_8.odb,Step-1,Increment      1: Step Time =    1.000,"PART-1-1",           185,      -2.50927,      -22.6041,            0.,NA,NA,"",   8.34098E-03,  -4.57062E-03,  -6.97721E-03,   1.87791E-03
C:/temp/dataset/8/16_8.odb,Step-1,Increment      1: Step Time =    1.000,"PART-1-1",           186,  -77.0891E-03,      -22.5757,            0.,NA,NA,"",   19.0068E-03,  -3.99434E-03,  -18.5823E-03,   5.38743E-03
C:/temp/dataset/8/16_8.odb,Step-1,Increment      1: Step Time =    1.000,"PART-1-1",           187,  -14.9764E-03,      -27.4978,            0.,NA,NA,"",   5.67522E-03,  -2.57127E-03,  -5.05932E-03,   2.86829E-03
C:/temp/dataset/8/16_8.odb,Step-1,Increment      1: Step Time =    1.000,"PART-1-1",           188,       2.64148,      -22.7823,            0.,NA,NA,"",   25.5736E-03,   1.33059E-03,  -25.5389E-03,   6.86278E-03
C:/temp/dataset/8/16_8.odb,Step-1,Increment      1: Step Time =    1.000,"PART-1-1",           189,       2.81336,      -26.9767,            0.,NA,NA,"",   7.68153E-03,   656.990E-06,  -7.65338E-03,   3.67651E-03
C:/temp/dataset/8/16_8.odb,Step-1,Increment      1: Step Time =    1.000,"PART-1-1",           190,       5.52532,      -27.5935,            0.,NA,NA,"",   5.59435E-03,   3.18131E-03,  -4.60173E-03,   2.78722E-03
C:/temp/dataset/8/16_8.odb,Step-1,Increment      1: Step Time =    1.000,"PART-1-1",           191,       10.2466,      -28.0300,            0.,NA,NA,"",   3.83360E-03,   3.60944E-03,  -1.29167E-03,   1.45035E-03
C:/temp/dataset/8/16_8.odb,Step-1,Increment      1: Step Time =    1.000,"PART-1-1",           192,       7.32380,      -17.2830,            0.,NA,NA,"",   10.8273E-03,  -4.40145E-03,  -9.89228E-03,   1.14560E-03
C:/temp/dataset/8/16_8.odb,Step-1,Increment      1: Step Time =    1.000,"PART-1-1",           193,       7.51109,      -14.8717,            0.,NA,NA,"",   11.3541E-03,  -6.52039E-03,  -9.29521E-03,   523.531E-06
C:/temp/dataset/8/16_8.odb,Step-1,Increment      1: Step Time =    1.000,"PART-1-1",           194,       6.94800,      -7.47664,            0.,NA,NA,"",   11.8976E-03,  -9.49313E-03,  -7.17172E-03,   321.145E-06
C:/temp/dataset/8/16_8.odb,Step-1,Increment      1: Step Time =    1.000,"PART-1-1",           195,       7.18328,       5.40883,            0.,NA,NA,"",   8.97690E-03,  -7.13936E-03,  -5.44190E-03,   63.1931E-06
C:/temp/dataset/8/16_8.odb,Step-1,Increment      1: Step Time =    1.000,"PART-1-1",           196,       8.12432,       12.3313,            0.,NA,NA,"",   8.24728E-03,  -6.09872E-03,  -5.55187E-03,   5.47796E-06
C:/temp/dataset/8/16_8.odb,Step-1,Increment      1: Step Time =    1.000,"PART-1-1",           197,       7.72271,       15.1164,            0.,NA,NA,"",   7.85816E-03,  -5.64244E-03,  -5.46934E-03,   8.89012E-06
C:/temp/dataset/8/16_8.odb,Step-1,Increment      1: Step Time =    1.000,"PART-1-1",           198,       12.5747,       27.4046,            0.,NA,NA,"",   7.19814E-03,  -3.39840E-03,  -6.34539E-03,   3.65414E-06
C:/temp/dataset/8/16_8.odb,Step-1,Increment      1: Step Time =    1.000,"PART-1-1",           199,       12.7332,       20.1953,            0.,NA,NA,"",   7.94550E-03,  -4.76617E-03,  -6.35725E-03,   4.18091E-06
C:/temp/dataset/8/16_8.odb,Step-1,Increment      1: Step Time =    1.000,"PART-1-1",           200,       12.7232,      -12.7379,            0.,NA,NA,"",   8.86711E-03,  -7.73607E-03,  -4.33346E-03,   306.702E-06
C:/temp/dataset/8/16_8.odb,Step-1,Increment      1: Step Time =    1.000,"PART-1-1",           201,       12.5978,      -7.87838,            0.,NA,NA,"",   11.0091E-03,  -9.54874E-03,  -5.47914E-03,   235.526E-06
C:/temp/dataset/8/16_8.odb,Step-1,Increment      1: Step Time =    1.000,"PART-1-1",           202,       12.5520,      -15.1937,            0.,NA,NA,"",   6.80730E-03,  -5.65959E-03,  -3.78265E-03,   337.318E-06
C:/temp/dataset/8/16_8.odb,Step-1,Increment      1: Step Time =    1.000,"PART-1-1",           203,       12.2949,      -17.8873,            0.,NA,NA,"",   3.94053E-03,  -2.29193E-03,  -3.20544E-03,   475.408E-06
C:/temp/dataset/8/16_8.odb,Step-1,Increment      1: Step Time =    1.000,"PART-1-1",           204,       11.9648,      -5.07588,            0.,NA,NA,"",   11.2930E-03,  -9.57790E-03,  -5.98289E-03,   194.716E-06
C:/temp/dataset/8/16_8.odb,Step-1,Increment      1: Step Time =    1.000,"PART-1-1",           205,       12.2814,       12.3946,            0.,NA,NA,"",   8.73649E-03,  -6.09009E-03,  -6.26395E-03,   7.09767E-06
C:/temp/dataset/8/16_8.odb,Step-1,Increment      1: Step Time =    1.000,"PART-1-1",           206,       12.5647,       15.1089,            0.,NA,NA,"",   8.46948E-03,  -5.64536E-03,  -6.31364E-03,   5.56173E-06
C:/temp/dataset/8/16_8.odb,Step-1,Increment      1: Step Time =    1.000,"PART-1-1",           207,       13.0607,       22.5349,            0.,NA,NA,"",   7.75039E-03,  -4.33298E-03,  -6.42603E-03,   4.96864E-06
C:/temp/dataset/8/16_8.odb,Step-1,Increment      1: Step Time =    1.000,"PART-1-1",           208,       12.7200,      -2.36234,            0.,NA,NA,"",   10.9826E-03,  -9.08483E-03,  -6.17109E-03,   156.215E-06
C:/temp/dataset/8/16_8.odb,Step-1,Increment      1: Step Time =    1.000,"PART-1-1",           209,       12.7952,      -10.3683,            0.,NA,NA,"",   10.1907E-03,  -8.94216E-03,  -4.88745E-03,   281.317E-06
C:/temp/dataset/8/16_8.odb,Step-1,Increment      1: Step Time =    1.000,"PART-1-1",           210,       12.9896,      -20.3905,            0.,NA,NA,"",   2.51339E-03,   1.67583E-03,  -1.87316E-03,   473.028E-06
C:/temp/dataset/8/16_8.odb,Step-1,Increment      1: Step Time =    1.000,"PART-1-1",           211,       13.0547,       9.94817,            0.,NA,NA,"",   9.11534E-03,  -6.48950E-03,  -6.40123E-03,   6.63677E-06
C:/temp/dataset/8/16_8.odb,Step-1,Increment      1: Step Time =    1.000,"PART-1-1",           212,       12.5883,       17.6584,            0.,NA,NA,"",   8.19564E-03,  -5.21462E-03,  -6.32267E-03,   4.36244E-06
C:/temp/dataset/8/16_8.odb,Step-1,Increment      1: Step Time =    1.000,"PART-1-1",           213,       12.5551,      -27.7203,            0.,NA,NA,"",   4.02666E-03,   3.91877E-03,  -925.849E-06,   1.18859E-03
C:/temp/dataset/8/16_8.odb,Step-1,Increment      1: Step Time =    1.000,"PART-1-1",           214,       9.89421,       4.65062,            0.,NA,NA,"",   9.46111E-03,  -7.38655E-03,  -5.91197E-03,   49.8389E-06
C:/temp/dataset/8/16_8.odb,Step-1,Increment      1: Step Time =    1.000,"PART-1-1",           215,       10.7595,       6.33224,            0.,NA,NA,"",   9.30660E-03,  -7.09364E-03,  -6.02437E-03,   20.3585E-06
C:/temp/dataset/8/16_8.odb,Step-1,Increment      1: Step Time =    1.000,"PART-1-1",           216,       9.75763,      -23.6493,            0.,NA,NA,"",   7.03551E-03,   5.68076E-03,  -4.15058E-03,   725.553E-06
C:/temp/dataset/8/16_8.odb,Step-1,Increment      1: Step Time =    1.000,"PART-1-1",           217,       9.53699,       1.63659,            0.,NA,NA,"",   10.0135E-03,  -8.03745E-03,  -5.97242E-03,   111.053E-06
C:/temp/dataset/8/16_8.odb,Step-1,Increment      1: Step Time =    1.000,"PART-1-1",           218,       11.2350,       8.14750,            0.,NA,NA,"",   9.11731E-03,  -6.78387E-03,  -6.09134E-03,   7.20013E-06
C:/temp/dataset/8/16_8.odb,Step-1,Increment      1: Step Time =    1.000,"PART-1-1",           219,       11.2098,      -20.8622,            0.,NA,NA,"",   4.07457E-03,   2.24612E-03,  -3.39957E-03,   519.669E-06
C:/temp/dataset/8/16_8.odb,Step-1,Increment      1: Step Time =    1.000,"PART-1-1",           220,       11.0603,      -2.05600,            0.,NA,NA,"",   10.9383E-03,  -9.03200E-03,  -6.17001E-03,   161.535E-06
C:/temp/dataset/8/16_8.odb,Step-1,Increment      1: Step Time =    1.000,"PART-1-1",           221,       5.60149,       2.31416,            0.,NA,NA,"",   9.25434E-03,  -7.59251E-03,  -5.29119E-03,   82.7833E-06
C:/temp/dataset/8/16_8.odb,Step-1,Increment      1: Step Time =    1.000,"PART-1-1",           222,      -6.74223,       2.51529,            0.,NA,NA,"",   7.58469E-03,  -7.34530E-03,  -1.89053E-03,   74.3646E-06
C:/temp/dataset/8/16_8.odb,Step-1,Increment      1: Step Time =    1.000,"PART-1-1",           223,       7.48229,       20.3552,            0.,NA,NA,"",   7.19202E-03,  -4.75150E-03,  -5.39893E-03,   7.33730E-06
C:/temp/dataset/8/16_8.odb,Step-1,Increment      1: Step Time =    1.000,"PART-1-1",           224,      -7.41549,      -20.2834,            0.,NA,NA,"",   2.45521E-03,  -2.37176E-03,  -634.701E-06,   433.328E-06
C:/temp/dataset/8/16_8.odb,Step-1,Increment      1: Step Time =    1.000,"PART-1-1",           225,       7.68091,      -4.90617,            0.,NA,NA,"",   11.5084E-03,  -9.48595E-03,  -6.51619E-03,   233.316E-06
C:/temp/dataset/8/16_8.odb,Step-1,Increment      1: Step Time =    1.000,"PART-1-1",           226,       7.32158,      -21.5125,            0.,NA,NA,"",   10.1393E-03,   3.94780E-03,  -9.33916E-03,   976.770E-06
C:/temp/dataset/8/16_8.odb,Step-1,Increment      1: Step Time =    1.000,"PART-1-1",           227,      -5.66463,      -2.34251,            0.,NA,NA,"",   8.05752E-03,  -7.87409E-03,  -1.70948E-03,   134.157E-06
C:/temp/dataset/8/16_8.odb,Step-1,Increment      1: Step Time =    1.000,"PART-1-1",           228,      -7.47529,       21.9155,            0.,NA,NA,"",   5.05081E-03,  -4.51651E-03,  -2.26093E-03,   13.0851E-06
C:/temp/dataset/8/16_8.odb,Step-1,Increment      1: Step Time =    1.000,"PART-1-1",           229,      -10.1614,       28.1082,            0.,NA,NA,"",   3.71675E-03,  -3.26986E-03,  -1.76698E-03,   5.38812E-06
C:/temp/dataset/8/16_8.odb,Step-1,Increment      1: Step Time =    1.000,"PART-1-1",           230,      -12.9405,      -24.6359,            0.,NA,NA,"",   2.96377E-03,  -2.90024E-03,  -610.377E-06,   124.447E-06
C:/temp/dataset/8/16_8.odb,Step-1,Increment      1: Step Time =    1.000,"PART-1-1",           231,       8.38159,      -7.75756,            0.,NA,NA,"",   11.8074E-03,  -9.61243E-03,  -6.85682E-03,   219.213E-06
C:/temp/dataset/8/16_8.odb,Step-1,Increment      1: Step Time =    1.000,"PART-1-1",           232,       2.49333,  -53.6144E-03,            0.,NA,NA,"",   9.04886E-03,  -7.86717E-03,  -4.47095E-03,   146.368E-06
C:/temp/dataset/8/16_8.odb,Step-1,Increment      1: Step Time =    1.000,"PART-1-1",           233,       10.3438,       10.8317,            0.,NA,NA,"",   8.68366E-03,  -6.34229E-03,  -5.93138E-03,   7.09698E-06
C:/temp/dataset/8/16_8.odb,Step-1,Increment      1: Step Time =    1.000,"PART-1-1",           234,       2.48676,       25.2065,            0.,NA,NA,"",   5.80695E-03,  -3.81520E-03,  -4.37778E-03,   8.36628E-06
C:/temp/dataset/8/16_8.odb,Step-1,Increment      1: Step Time =    1.000,"PART-1-1",           235,      -1.68066,       25.0633,            0.,NA,NA,"",   5.19519E-03,  -3.85014E-03,  -3.48803E-03,   8.92880E-06
C:/temp/dataset/8/16_8.odb,Step-1,Increment      1: Step Time =    1.000,"PART-1-1",           236,       8.59823,       25.2987,            0.,NA,NA,"",   6.76938E-03,  -3.80508E-03,  -5.59875E-03,   4.49229E-06
C:/temp/dataset/8/16_8.odb,Step-1,Increment      1: Step Time =    1.000,"PART-1-1",           237,      -9.10993,      -25.5879,            0.,NA,NA,"",   3.08958E-03,  -3.08247E-03,  -209.451E-06,   345.137E-06
C:/temp/dataset/8/16_8.odb,Step-1,Increment      1: Step Time =    1.000,"PART-1-1",           238,   13.3068E-03,  -28.0450E-03,            0.,NA,NA,"",   8.48840E-03,  -7.72734E-03,  -3.51299E-03,   132.894E-06
C:/temp/dataset/8/16_8.odb,Step-1,Increment      1: Step Time =    1.000,"PART-1-1",           239,      -6.37923,       25.7100,            0.,NA,NA,"",   4.50205E-03,  -3.73992E-03,  -2.50629E-03,   6.71671E-06
C:/temp/dataset/8/16_8.odb,Step-1,Increment      1: Step Time =    1.000,"PART-1-1",           240,      -10.0909,       17.4402,            0.,NA,NA,"",   5.66345E-03,  -5.38049E-03,  -1.76776E-03,   7.39561E-06
C:/temp/dataset/8/16_8.odb,Step-1,Increment      1: Step Time =    1.000,"PART-1-1",           241,      -10.1005,       12.5885,            0.,NA,NA,"",   6.43525E-03,  -6.19025E-03,  -1.75878E-03,   6.44826E-06
C:/temp/dataset/8/16_8.odb,Step-1,Increment      1: Step Time =    1.000,"PART-1-1",           242,      -9.86842,       5.52051,            0.,NA,NA,"",   7.32513E-03,  -7.11387E-03,  -1.74652E-03,   29.6030E-06
C:/temp/dataset/8/16_8.odb,Step-1,Increment      1: Step Time =    1.000,"PART-1-1",           243,      -11.6255,       2.21973,            0.,NA,NA,"",   7.67509E-03,  -7.50319E-03,  -1.61526E-03,   46.2884E-06
C:/temp/dataset/8/16_8.odb,Step-1,Increment      1: Step Time =    1.000,"PART-1-1",           244,      -10.6231,      -5.01162,            0.,NA,NA,"",   7.72019E-03,  -7.52825E-03,  -1.71079E-03,   75.2337E-06
C:/temp/dataset/8/16_8.odb,Step-1,Increment      1: Step Time =    1.000,"PART-1-1",           245,      -9.74824,      -1.61604,            0.,NA,NA,"",   7.95971E-03,  -7.79314E-03,  -1.61986E-03,   50.1936E-06
C:/temp/dataset/8/16_8.odb,Step-1,Increment      1: Step Time =    1.000,"PART-1-1",           246,      -9.39443,      -6.20426,            0.,NA,NA,"",   7.48993E-03,  -7.31503E-03,  -1.60916E-03,   122.038E-06
C:/temp/dataset/8/16_8.odb,Step-1,Increment      1: Step Time =    1.000,"PART-1-1",           247,      -9.97662,      -10.1599,            0.,NA,NA,"",   6.16341E-03,  -5.96145E-03,  -1.56486E-03,   155.536E-06
C:/temp/dataset/8/16_8.odb,Step-1,Increment      1: Step Time =    1.000,"PART-1-1",           248,      -10.0249,      -15.1454,            0.,NA,NA,"",   4.22991E-03,  -4.01437E-03,  -1.33301E-03,   161.737E-06
C:/temp/dataset/8/16_8.odb,Step-1,Increment      1: Step Time =    1.000,"PART-1-1",           249,      -10.1027,      -20.6945,            0.,NA,NA,"",   2.96310E-03,  -2.89901E-03,  -612.909E-06,   231.831E-06
C:/temp/dataset/8/16_8.odb,Step-1,Increment      1: Step Time =    1.000,"PART-1-1",           250,      -4.80323,      -25.3191,            0.,NA,NA,"",   5.08104E-03,  -4.69063E-03,  -1.95321E-03,   992.217E-06
C:/temp/dataset/8/16_8.odb,Step-1,Increment      1: Step Time =    1.000,"PART-1-1",           251,      -2.51311,      -25.1881,            0.,NA,NA,"",   7.60084E-03,  -5.27946E-03,  -5.46810E-03,   2.03304E-03
C:/temp/dataset/8/16_8.odb,Step-1,Increment      1: Step Time =    1.000,"PART-1-1",           252,       4.39742,      -24.6165,            0.,NA,NA,"",   14.7074E-03,   4.21801E-03,  -14.0896E-03,   3.97789E-03
C:/temp/dataset/8/16_8.odb,Step-1,Increment      1: Step Time =    1.000,"PART-1-1",           253,       1.66428,      -24.9869,            0.,NA,NA,"",   14.4615E-03,  -1.11768E-03,  -14.4182E-03,   4.36511E-03
C:/temp/dataset/8/16_8.odb,Step-1,Increment      1: Step Time =    1.000,"PART-1-1",           254,      -10.0923,       15.0064,            0.,NA,NA,"",   6.06556E-03,  -5.80331E-03,  -1.76425E-03,   6.98430E-06
C:/temp/dataset/8/16_8.odb,Step-1,Increment      1: Step Time =    1.000,"PART-1-1",           255,       10.3928,      -12.7475,            0.,NA,NA,"",   10.0752E-03,  -7.96975E-03,  -6.16383E-03,   152.485E-06
C:/temp/dataset/8/16_8.odb,Step-1,Increment      1: Step Time =    1.000,"PART-1-1",           256,      -10.0380,       8.31527,            0.,NA,NA,"",   7.00888E-03,  -6.78514E-03,  -1.75679E-03,   10.4870E-06
C:/temp/dataset/8/16_8.odb,Step-1,Increment      1: Step Time =    1.000,"PART-1-1",           257,      -2.46664,   5.11286E-03,            0.,NA,NA,"",   8.07013E-03,  -7.63124E-03,  -2.62508E-03,   125.020E-06
C:/temp/dataset/8/16_8.odb,Step-1,Increment      1: Step Time =    1.000,"PART-1-1",           258,       4.76759,       25.2938,            0.,NA,NA,"",   6.16066E-03,  -3.79949E-03,  -4.84949E-03,   4.88923E-06
C:/temp/dataset/8/16_8.odb,Step-1,Increment      1: Step Time =    1.000,"PART-1-1",           259,      -9.80145,       22.1184,            0.,NA,NA,"",   4.84001E-03,  -4.48272E-03,  -1.82508E-03,   10.5306E-06
C:/temp/dataset/8/16_8.odb,Step-1,Increment      1: Step Time =    1.000,"PART-1-1",           260,      -10.0026,       19.8332,            0.,NA,NA,"",   5.24664E-03,  -4.93348E-03,  -1.78549E-03,   9.86829E-06
C:/temp/dataset/8/16_8.odb,Step-1,Increment      1: Step Time =    1.000,"PART-1-1",           261,      -4.38985,       24.8503,            0.,NA,NA,"",   4.86917E-03,  -3.90328E-03,  -2.91087E-03,   9.08911E-06
C:/temp/dataset/8/16_8.odb,Step-1,Increment      1: Step Time =    1.000,"PART-1-1",           262,      -8.41468,       26.1052,            0.,NA,NA,"",   4.22936E-03,  -3.66919E-03,  -2.10347E-03,   6.97634E-06
C:/temp/dataset/8/16_8.odb,Step-1,Increment      1: Step Time =    1.000,"PART-1-1",           263,      -10.8408,       3.63703,            0.,NA,NA,"",   7.52806E-03,  -7.34502E-03,  -1.64997E-03,   37.8630E-06
C:/temp/dataset/8/16_8.odb,Step-1,Increment      1: Step Time =    1.000,"PART-1-1",           264,      -10.0123,      -12.6074,            0.,NA,NA,"",   5.20209E-03,  -4.99411E-03,  -1.45624E-03,   161.577E-06
C:/temp/dataset/8/16_8.odb,Step-1,Increment      1: Step Time =    1.000,"PART-1-1",           265,      -10.0363,      -17.7670,            0.,NA,NA,"",   3.36406E-03,  -3.18472E-03,  -1.08374E-03,   226.210E-06
C:/temp/dataset/8/16_8.odb,Step-1,Increment      1: Step Time =    1.000,"PART-1-1",           266,      -11.0603,      -23.9480,            0.,NA,NA,"",   3.05532E-03,  -3.03423E-03,  -358.346E-06,   130.376E-06
C:/temp/dataset/8/16_8.odb,Step-1,Increment      1: Step Time =    1.000,"PART-1-1",           267,       6.47854,      -25.3722,            0.,NA,NA,"",   9.74275E-03,   5.60562E-03,  -7.96857E-03,   2.64136E-03
C:/temp/dataset/8/16_8.odb,Step-1,Increment      1: Step Time =    1.000,"PART-1-1",           268,       8.63537,      -25.7845,            0.,NA,NA,"",   7.20605E-03,   5.85637E-03,  -4.19881E-03,   1.57719E-03
C:/temp/dataset/8/16_8.odb,Step-1,Increment      1: Step Time =    1.000,"PART-1-1",           269,       9.70324,      -17.2922,            0.,NA,NA,"",   7.44416E-03,  -3.90243E-03,  -6.33928E-03,   533.908E-06
C:/temp/dataset/8/16_8.odb,Step-1,Increment      1: Step Time =    1.000,"PART-1-1",           270,       9.32190,      -19.2968,            0.,NA,NA,"",   6.29698E-03,  -835.631E-06,  -6.24129E-03,   531.714E-06
C:/temp/dataset/8/16_8.odb,Step-1,Increment      1: Step Time =    1.000,"PART-1-1",           271,       10.1737,       15.3696,            0.,NA,NA,"",   8.13361E-03,  -5.60358E-03,  -5.89538E-03,   6.55004E-06
C:/temp/dataset/8/16_8.odb,Step-1,Increment      1: Step Time =    1.000,"PART-1-1",           272,       11.4582,       22.6444,            0.,NA,NA,"",   7.49786E-03,  -4.31544E-03,  -6.13146E-03,   4.26359E-06
C:/temp/dataset/8/16_8.odb,Step-1,Increment      1: Step Time =    1.000,"PART-1-1",           273,       10.7208,      -10.6686,            0.,NA,NA,"",   10.8251E-03,  -8.99601E-03,  -6.02122E-03,   151.230E-06
C:/temp/dataset/8/16_8.odb,Step-1,Increment      1: Step Time =    1.000,"PART-1-1",           274,       12.8969,       24.9220,            0.,NA,NA,"",   7.48555E-03,  -3.87796E-03,  -6.40272E-03,   4.74601E-06
C:/temp/dataset/8/16_8.odb,Step-1,Increment      1: Step Time =    1.000,"PART-1-1",           275,       10.1448,       20.8629,            0.,NA,NA,"",   7.50357E-03,  -4.65094E-03,  -5.88832E-03,   3.19466E-06
C:/temp/dataset/8/16_8.odb,Step-1,Increment      1: Step Time =    1.000,"PART-1-1",           276,       9.65714,      -6.54367,            0.,NA,NA,"",   11.6338E-03,  -9.71835E-03,  -6.39517E-03,   179.085E-06
C:/temp/dataset/8/16_8.odb,Step-1,Increment      1: Step Time =    1.000,"PART-1-1",           277,       9.83992,      -3.38396,            0.,NA,NA,"",   11.2090E-03,  -9.31557E-03,  -6.23400E-03,   194.924E-06
C:/temp/dataset/8/16_8.odb,Step-1,Increment      1: Step Time =    1.000,"PART-1-1",           278,       8.07567,       3.47086,            0.,NA,NA,"",   9.43096E-03,  -7.53133E-03,  -5.67645E-03,   93.8437E-06
C:/temp/dataset/8/16_8.odb,Step-1,Increment      1: Step Time =    1.000,"PART-1-1",           279,       7.59381,   482.257E-03,            0.,NA,NA,"",   10.0350E-03,  -8.18294E-03,  -5.80865E-03,   136.120E-06
C:/temp/dataset/8/16_8.odb,Step-1,Increment      1: Step Time =    1.000,"PART-1-1",           280,       4.76722,  -235.440E-03,            0.,NA,NA,"",   9.64127E-03,  -8.07663E-03,  -5.26518E-03,   129.155E-06
C:/temp/dataset/8/16_8.odb,Step-1,Increment      1: Step Time =    1.000,"PART-1-1",           281,      -4.77136,   213.016E-03,            0.,NA,NA,"",   7.86383E-03,  -7.59648E-03,  -2.03304E-03,   76.8347E-06
C:/temp/dataset/8/16_8.odb,Step-1,Increment      1: Step Time =    1.000,"PART-1-1",           282,      -7.11180,      -22.9221,            0.,NA,NA,"",   3.29101E-03,  -3.26909E-03,  -379.211E-06,   289.807E-06
C:/temp/dataset/8/16_8.odb,Step-1,Increment      1: Step Time =    1.000,"PART-1-1",           283,      -7.18782,       23.8644,            0.,NA,NA,"",   4.73398E-03,  -4.11919E-03,  -2.33298E-03,   9.73450E-06
C:/temp/dataset/8/16_8.odb,Step-1,Increment      1: Step Time =    1.000,"PART-1-1",           284,      -8.39641,      -3.64363,            0.,NA,NA,"",   7.95580E-03,  -7.80349E-03,  -1.54928E-03,   88.0976E-06
C:/temp/dataset/8/16_8.odb,Step-1,Increment      1: Step Time =    1.000,"PART-1-1",           285,      -5.55453,       23.5444,            0.,NA,NA,"",   4.94890E-03,  -4.17339E-03,  -2.65977E-03,   9.82405E-06
C:/temp/dataset/8/16_8.odb,Step-1,Increment      1: Step Time =    1.000,"PART-1-1",           286,      -8.96964,       2.09003,            0.,NA,NA,"",   7.67495E-03,  -7.48100E-03,  -1.71450E-03,   62.8283E-06
C:/temp/dataset/8/16_8.odb,Step-1,Increment      1: Step Time =    1.000,"PART-1-1",           287,      -8.56063,       4.18956,            0.,NA,NA,"",   7.45383E-03,  -7.22784E-03,  -1.82150E-03,   52.8465E-06
C:/temp/dataset/8/16_8.odb,Step-1,Increment      1: Step Time =    1.000,"PART-1-1",           288,      -7.73446,  -335.973E-03,            0.,NA,NA,"",   7.89184E-03,  -7.71422E-03,  -1.66489E-03,   69.4008E-06
C:/temp/dataset/8/16_8.odb,Step-1,Increment      1: Step Time =    1.000,"PART-1-1",           289,      -9.21295,      -23.2880,            0.,NA,NA,"",   3.13708E-03,  -3.13029E-03,  -206.208E-06,   193.107E-06
C:/temp/dataset/8/16_8.odb,Step-1,Increment      1: Step Time =    1.000,"PART-1-1",           290,       7.07458,       22.9394,            0.,NA,NA,"",   6.81419E-03,  -4.26427E-03,  -5.31500E-03,   6.08383E-06
C:/temp/dataset/8/16_8.odb,Step-1,Increment      1: Step Time =    1.000,"PART-1-1",           291,       5.55979,      -23.2424,            0.,NA,NA,"",   15.7464E-03,   6.19882E-03,  -14.4749E-03,   3.51673E-03
C:/temp/dataset/8/16_8.odb,Step-1,Increment      1: Step Time =    1.000,"PART-1-1",           292,       8.69880,      -1.44983,            0.,NA,NA,"",   10.6895E-03,  -8.77548E-03,  -6.10372E-03,   177.684E-06
C:/temp/dataset/8/16_8.odb,Step-1,Increment      1: Step Time =    1.000,"PART-1-1",           293,       10.8983,      -19.3920,            0.,NA,NA,"",   4.17072E-03,  -242.127E-06,  -4.16368E-03,   605.894E-06
C:/temp/dataset/8/16_8.odb,Step-1,Increment      1: Step Time =    1.000,"PART-1-1",           294,       11.5936,       9.64460,            0.,NA,NA,"",   8.97420E-03,  -6.53670E-03,  -6.14881E-03,   7.17736E-06
C:/temp/dataset/8/16_8.odb,Step-1,Increment      1: Step Time =    1.000,"PART-1-1",           295,       7.27669,      -23.4490,            0.,NA,NA,"",   10.6058E-03,   6.08092E-03,  -8.68939E-03,   1.89395E-03
C:/temp/dataset/8/16_8.odb,Step-1,Increment      1: Step Time =    1.000,"PART-1-1",           296,       9.33849,      -21.3324,            0.,NA,NA,"",   6.17082E-03,   2.94537E-03,  -5.42253E-03,   508.410E-06
C:/temp/dataset/8/16_8.odb,Step-1,Increment      1: Step Time =    1.000,"PART-1-1",           297,       6.40414,  -671.178E-03,            0.,NA,NA,"",   10.1255E-03,  -8.34923E-03,  -5.72854E-03,   155.972E-06
C:/temp/dataset/8/16_8.odb,Step-1,Increment      1: Step Time =    1.000,"PART-1-1",           298,       9.14051,       23.4286,            0.,NA,NA,"",   7.06475E-03,  -4.16899E-03,  -5.70353E-03,   4.88815E-06
C:/temp/dataset/8/16_8.odb,Step-1,Increment      1: Step Time =    1.000,"PART-1-1",           299,       8.65907,       5.77812,            0.,NA,NA,"",   9.12365E-03,  -7.13830E-03,  -5.68205E-03,   39.8759E-06
C:/temp/dataset/8/16_8.odb,Step-1,Increment      1: Step Time =    1.000,"PART-1-1",           300,       8.97612,       7.18244,            0.,NA,NA,"",   8.97141E-03,  -6.91774E-03,  -5.71236E-03,   22.6792E-06
C:/temp/dataset/8/16_8.odb,Step-1,Increment      1: Step Time =    1.000,"PART-1-1",           301,       6.88173,      -2.42849,            0.,NA,NA,"",   10.7241E-03,  -8.84181E-03,  -6.06863E-03,   229.213E-06
C:/temp/dataset/8/16_8.odb,Step-1,Increment      1: Step Time =    1.000,"PART-1-1",           302,      -6.42964,   749.171E-03,            0.,NA,NA,"",   7.78021E-03,  -7.56270E-03,  -1.82678E-03,   66.6870E-06
C:/temp/dataset/8/16_8.odb,Step-1,Increment      1: Step Time =    1.000,"PART-1-1",           303,       5.11581,      -21.8357,            0.,NA,NA,"",   20.3179E-03,   5.56085E-03,  -19.5421E-03,   4.81762E-03
C:/temp/dataset/8/16_8.odb,Step-1,Increment      1: Step Time =    1.000,"PART-1-1",           304,      -5.14463,       22.0341,            0.,NA,NA,"",   5.24385E-03,  -4.47685E-03,  -2.73054E-03,   14.9196E-06
C:/temp/dataset/8/16_8.odb,Step-1,Increment      1: Step Time =    1.000,"PART-1-1",           305,      -6.99627,       4.73063,            0.,NA,NA,"",   7.37626E-03,  -7.10358E-03,  -1.98703E-03,   71.0975E-06
C:/temp/dataset/8/16_8.odb,Step-1,Increment      1: Step Time =    1.000,"PART-1-1",           306,      -9.29341,       24.2181,            0.,NA,NA,"",   4.49065E-03,  -4.05629E-03,  -1.92678E-03,   9.22979E-06
C:/temp/dataset/8/16_8.odb,Step-1,Increment      1: Step Time =    1.000,"PART-1-1",           307,       6.91219,       25.3650,            0.,NA,NA,"",   6.49541E-03,  -3.78972E-03,  -5.27526E-03,   3.88428E-06
C:/temp/dataset/8/16_8.odb,Step-1,Increment      1: Step Time =    1.000,"PART-1-1",           308,      -7.05007,      -25.4591,            0.,NA,NA,"",   3.78053E-03,  -3.74334E-03,  -529.015E-06,   566.038E-06
C:/temp/dataset/8/16_8.odb,Step-1,Increment      1: Step Time =    1.000,"PART-1-1",           309,   220.127E-03,       25.1193,            0.,NA,NA,"",   5.46633E-03,  -3.83468E-03,  -3.89564E-03,   8.80447E-06
C:/temp/dataset/8/16_8.odb,Step-1,Increment      1: Step Time =    1.000,"PART-1-1",           310,      -10.0664,       10.2548,            0.,NA,NA,"",   6.76258E-03,  -6.52979E-03,  -1.75906E-03,   6.74148E-06
C:/temp/dataset/8/16_8.odb,Step-1,Increment      1: Step Time =    1.000,"PART-1-1",           311,  -242.668E-03,      -25.0731,            0.,NA,NA,"",   11.6673E-03,  -4.20231E-03,  -10.8842E-03,   3.47961E-03
C:/temp/dataset/8/16_8.odb,Step-1,Increment      1: Step Time =    1.000,"PART-1-1",           312,       10.1301,       17.8656,            0.,NA,NA,"",   7.84213E-03,  -5.18356E-03,  -5.88470E-03,   5.95583E-06
C:/temp/dataset/8/16_8.odb,Step-1,Increment      1: Step Time =    1.000,"PART-1-1",           313,       10.5061,      -8.54167,            0.,NA,NA,"",   11.3859E-03,  -9.56845E-03,  -6.17121E-03,   157.357E-06
C:/temp/dataset/8/16_8.odb,Step-1,Increment      1: Step Time =    1.000,"PART-1-1",           314,       10.4872,  -400.528E-03,            0.,NA,NA,"",   10.5645E-03,  -8.60139E-03,  -6.13388E-03,   141.378E-06
C:/temp/dataset/8/16_8.odb,Step-1,Increment      1: Step Time =    1.000,"PART-1-1",           315,       10.8929,       24.4859,            0.,NA,NA,"",   7.21539E-03,  -3.96371E-03,  -6.02916E-03,   5.04950E-06
C:/temp/dataset/8/16_8.odb,Step-1,Increment      1: Step Time =    1.000,"PART-1-1",           316,      -9.77896,      -7.87942,            0.,NA,NA,"",   6.98977E-03,  -6.80105E-03,  -1.61326E-03,   152.324E-06
C:/temp/dataset/8/16_8.odb,Step-1,Increment      1: Step Time =    1.000,"PART-1-1",           317,      -10.1061,       26.5279,            0.,NA,NA,"",   4.00399E-03,  -3.58884E-03,  -1.77542E-03,   6.82980E-06
C:/temp/dataset/8/16_8.odb,Step-1,Increment      1: Step Time =    1.000,"PART-1-1",           318,       10.2904,      -26.3642,            0.,NA,NA,"",   5.87420E-03,   5.41506E-03,  -2.27670E-03,   1.15794E-03
C:/temp/dataset/8/16_8.odb,Step-1,Increment      1: Step Time =    1.000,"PART-1-1",           319,       8.71706,      -9.20658,            0.,NA,NA,"",   11.7001E-03,  -9.39418E-03,  -6.97429E-03,   219.031E-06
C:/temp/dataset/8/16_8.odb,Step-1,Increment      1: Step Time =    1.000,"PART-1-1",           320,      -10.7949,   625.452E-03,            0.,NA,NA,"",   7.82508E-03,  -7.65109E-03,  -1.64094E-03,   52.4501E-06
C:/temp/dataset/8/16_8.odb,Step-1,Increment      1: Step Time =    1.000,"PART-1-1",           321,       9.11771,      -10.6516,            0.,NA,NA,"",   11.3778E-03,  -8.98646E-03,  -6.97845E-03,   202.769E-06
C:/temp/dataset/8/16_8.odb,Step-1,Increment      1: Step Time =    1.000,"PART-1-1",           322,       10.0459,      -15.0301,            0.,NA,NA,"",   8.95038E-03,  -6.28505E-03,  -6.37239E-03,   183.635E-06
C:/temp/dataset/8/16_8.odb,Step-1,Increment      1: Step Time =    1.000,"PART-1-1",           323,       10.1838,       13.4361,            0.,NA,NA,"",   8.35889E-03,  -5.92072E-03,  -5.90052E-03,   7.04574E-06
C:/temp/dataset/8/16_8.odb,Step-1,Increment      1: Step Time =    1.000,"PART-1-1",           324,       9.44411,       8.99394,            0.,NA,NA,"",   8.79923E-03,  -6.63431E-03,  -5.78034E-03,   7.35614E-06
C:/temp/dataset/8/16_8.odb,Step-1,Increment      1: Step Time =    1.000,"PART-1-1",           325,      -11.4742,      -22.3598,            0.,NA,NA,"",   3.13018E-03,  -3.07719E-03,  -573.540E-06,   180.586E-06
C:/temp/dataset/8/16_8.odb,Step-1,Increment      1: Step Time =    1.000,"PART-1-1",           326,      -10.7157,      -25.5035,            0.,NA,NA,"",   2.81746E-03,  -2.80590E-03,  -254.953E-06,   216.315E-06
C:/temp/dataset/8/16_8.odb,Step-1,Increment      1: Step Time =    1.000,"PART-1-1",           327,       11.3755,      -22.3888,            0.,NA,NA,"",   5.22092E-03,   4.36005E-03,  -2.87192E-03,   396.990E-06
C:/temp/dataset/8/16_8.odb,Step-1,Increment      1: Step Time =    1.000,"PART-1-1",           328,       12.6965,      -9.12334,            0.,NA,NA,"",   10.6819E-03,  -9.32683E-03,  -5.20700E-03,   257.150E-06
C:/temp/dataset/8/16_8.odb,Step-1,Increment      1: Step Time =    1.000,"PART-1-1",           329,       11.5519,      -8.21002,            0.,NA,NA,"",   11.1951E-03,  -9.58449E-03,  -5.78506E-03,   177.055E-06
C:/temp/dataset/8/16_8.odb,Step-1,Increment      1: Step Time =    1.000,"PART-1-1",           330,       10.6134,      -9.60511,            0.,NA,NA,"",   11.1591E-03,  -9.33838E-03,  -6.10902E-03,   152.613E-06
C:/temp/dataset/8/16_8.odb,Step-1,Increment      1: Step Time =    1.000,"PART-1-1",           331,       11.7580,      -10.5184,            0.,NA,NA,"",   10.5011E-03,  -8.99142E-03,  -5.42469E-03,   197.392E-06
C:/temp/dataset/8/16_8.odb,Step-1,Increment      1: Step Time =    1.000,"PART-1-1",           332,       12.2813,      -6.47713,            0.,NA,NA,"",   11.2411E-03,  -9.64483E-03,  -5.77398E-03,   210.026E-06
C:/temp/dataset/8/16_8.odb,Step-1,Increment      1: Step Time =    1.000,"PART-1-1",           333,       10.8110,      -5.80977,            0.,NA,NA,"",   11.4605E-03,  -9.68218E-03,  -6.13179E-03,   174.271E-06
C:/temp/dataset/8/16_8.odb,Step-1,Increment      1: Step Time =    1.000,"PART-1-1",           334,       10.0816,      -7.54267,            0.,NA,NA,"",   11.5651E-03,  -9.68981E-03,  -6.31341E-03,   164.361E-06
C:/temp/dataset/8/16_8.odb,Step-1,Increment      1: Step Time =    1.000,"PART-1-1",           335,       11.2990,      -15.1119,            0.,NA,NA,"",   7.83561E-03,  -5.99536E-03,  -5.04504E-03,   251.646E-06
C:/temp/dataset/8/16_8.odb,Step-1,Increment      1: Step Time =    1.000,"PART-1-1",           336,       9.87457,      -16.1611,            0.,NA,NA,"",   8.22229E-03,  -5.16131E-03,  -6.40054E-03,   312.495E-06
C:/temp/dataset/8/16_8.odb,Step-1,Increment      1: Step Time =    1.000,"PART-1-1",           337,       10.9991,      -17.5898,            0.,NA,NA,"",   5.60801E-03,  -3.06026E-03,  -4.69942E-03,   454.149E-06
C:/temp/dataset/8/16_8.odb,Step-1,Increment      1: Step Time =    1.000,"PART-1-1",           338,       12.4235,      -16.5405,            0.,NA,NA,"",   5.41651E-03,  -4.13245E-03,  -3.50163E-03,   389.698E-06
C:/temp/dataset/8/16_8.odb,Step-1,Increment      1: Step Time =    1.000,"PART-1-1",           339,       13.8616,      -12.6502,            0.,NA,NA,"",   8.37410E-03,  -7.60125E-03,  -3.51378E-03,   440.672E-06
C:/temp/dataset/8/16_8.odb,Step-1,Increment      1: Step Time =    1.000,"PART-1-1",           340,       12.6376,      -13.9658,            0.,NA,NA,"",   7.94171E-03,  -6.82310E-03,  -4.06398E-03,   317.483E-06
C:/temp/dataset/8/16_8.odb,Step-1,Increment      1: Step Time =    1.000,"PART-1-1",           341,       13.7760,      -15.1344,            0.,NA,NA,"",   6.08028E-03,  -5.49299E-03,  -2.60707E-03,   451.295E-06
C:/temp/dataset/8/16_8.odb,Step-1,Increment      1: Step Time =    1.000,"PART-1-1",           342,           15.,      -13.8188,            0.,NA,NA,"",   6.77607E-03,  -6.44762E-03,  -2.08406E-03,   585.763E-06
C:/temp/dataset/8/16_8.odb,Step-1,Increment      1: Step Time =    1.000,"PART-1-1",           343,       10.1233,      -29.0150,            0.,NA,NA,"",   2.15594E-03,   2.03931E-03,  -699.510E-06,   1.58650E-03
C:/temp/dataset/8/16_8.odb,Step-1,Increment      1: Step Time =    1.000,"PART-1-1",           344,         11.25,          -30.,            0.,NA,NA,"",            0.,   1.37315E-39,  -1.44570E-39,   1.53353E-03
C:/temp/dataset/8/16_8.odb,Step-1,Increment      1: Step Time =    1.000,"PART-1-1",           345,       12.5276,      -28.8602,            0.,NA,NA,"",   2.11852E-03,   2.07187E-03,  -442.113E-06,   1.24547E-03
C:/temp/dataset/8/16_8.odb,Step-1,Increment      1: Step Time =    1.000,"PART-1-1",           346,       11.4009,      -27.8752,            0.,NA,NA,"",   3.88234E-03,   3.75150E-03,  -999.408E-06,   1.25200E-03
C:/temp/dataset/8/16_8.odb,Step-1,Increment      1: Step Time =    1.000,"PART-1-1",           347,  -7.48819E-03,      -28.7489,            0.,NA,NA,"",   2.78158E-03,  -1.54790E-03,  -2.31110E-03,   2.59446E-03
C:/temp/dataset/8/16_8.odb,Step-1,Increment      1: Step Time =    1.000,"PART-1-1",           348,          1.25,          -30.,            0.,NA,NA,"",            0.,  -484.247E-42,  -4.47359E-39,   2.41433E-03
C:/temp/dataset/8/16_8.odb,Step-1,Increment      1: Step Time =    1.000,"PART-1-1",           349,       2.65668,      -28.4883,            0.,NA,NA,"",   3.37013E-03,   201.966E-06,  -3.36408E-03,   2.96571E-03
C:/temp/dataset/8/16_8.odb,Step-1,Increment      1: Step Time =    1.000,"PART-1-1",           350,       1.39919,      -27.2372,            0.,NA,NA,"",   6.79112E-03,  -1.24105E-03,  -6.67676E-03,   3.23395E-03
C:/temp/dataset/8/16_8.odb,Step-1,Increment      1: Step Time =    1.000,"PART-1-1",           351,      -13.5917,      -27.3235,            0.,NA,NA,"",   1.87361E-03,  -1.81361E-03,  -470.329E-06,   241.336E-06
C:/temp/dataset/8/16_8.odb,Step-1,Increment      1: Step Time =    1.000,"PART-1-1",           352,      -12.5620,      -25.8915,            0.,NA,NA,"",   2.56841E-03,  -2.52998E-03,  -442.585E-06,   217.951E-06
C:/temp/dataset/8/16_8.odb,Step-1,Increment      1: Step Time =    1.000,"PART-1-1",           353,      -13.9703,      -24.8180,            0.,NA,NA,"",   3.00738E-03,  -2.88725E-03,  -841.480E-06,   54.6315E-06
C:/temp/dataset/8/16_8.odb,Step-1,Increment      1: Step Time =    1.000,"PART-1-1",           354,          -15.,        -26.25,            0.,NA,NA,"",   2.67904E-03,  -2.43745E-03,  -1.11179E-03,   81.6365E-06
C:/temp/dataset/8/16_8.odb,Step-1,Increment      1: Step Time =    1.000,"PART-1-1",           355,      -13.7565,      -15.0496,            0.,NA,NA,"",   4.70078E-03,  -4.26758E-03,  -1.97107E-03,   142.966E-06
C:/temp/dataset/8/16_8.odb,Step-1,Increment      1: Step Time =    1.000,"PART-1-1",           356,          -15.,        -16.25,            0.,NA,NA,"",   4.53517E-03,  -4.01959E-03,  -2.10017E-03,   185.342E-06
C:/temp/dataset/8/16_8.odb,Step-1,Increment      1: Step Time =    1.000,"PART-1-1",           357,      -13.7726,      -17.5632,            0.,NA,NA,"",   3.97217E-03,  -3.62148E-03,  -1.63189E-03,   177.665E-06
C:/temp/dataset/8/16_8.odb,Step-1,Increment      1: Step Time =    1.000,"PART-1-1",           358,      -12.5291,      -16.3628,            0.,NA,NA,"",   4.11578E-03,  -3.80065E-03,  -1.57946E-03,   144.474E-06
C:/temp/dataset/8/16_8.odb,Step-1,Increment      1: Step Time =    1.000,"PART-1-1",           359,      -13.7981,       15.0016,            0.,NA,NA,"",   5.90578E-03,  -5.78784E-03,  -1.17438E-03,   20.0116E-06
C:/temp/dataset/8/16_8.odb,Step-1,Increment      1: Step Time =    1.000,"PART-1-1",           360,          -15.,         13.75,            0.,NA,NA,"",   6.06270E-03,  -5.97823E-03,  -1.00851E-03,   28.5454E-06
C:/temp/dataset/8/16_8.odb,Step-1,Increment      1: Step Time =    1.000,"PART-1-1",           361,      -13.7882,       12.5186,            0.,NA,NA,"",   6.30321E-03,  -6.18347E-03,  -1.22280E-03,   22.3362E-06
C:/temp/dataset/8/16_8.odb,Step-1,Increment      1: Step Time =    1.000,"PART-1-1",           362,      -12.5863,       13.7702,            0.,NA,NA,"",   6.15569E-03,  -5.99806E-03,  -1.38414E-03,   14.3699E-06
C:/temp/dataset/8/16_8.odb,Step-1,Increment      1: Step Time =    1.000,"PART-1-1",           363,         -1.25,           -5.,            0.,NA,NA,"",   9.47415E-03,  -8.90571E-03,  -3.23233E-03,   165.488E-06
C:/temp/dataset/8/16_8.odb,Step-1,Increment      1: Step Time =    1.000,"PART-1-1",           364,  -13.9379E-03,      -3.76263,            0.,NA,NA,"",   9.34498E-03,  -8.61498E-03,  -3.62088E-03,   114.396E-06
C:/temp/dataset/8/16_8.odb,Step-1,Increment      1: Step Time =    1.000,"PART-1-1",           365,      -1.32837,      -2.50582,            0.,NA,NA,"",   8.69399E-03,  -8.14160E-03,  -3.04957E-03,   151.510E-06
C:/temp/dataset/8/16_8.odb,Step-1,Increment      1: Step Time =    1.000,"PART-1-1",           366,      -2.56444,      -3.74319,            0.,NA,NA,"",   8.67311E-03,  -8.27295E-03,  -2.60406E-03,   183.638E-06
C:/temp/dataset/8/16_8.odb,Step-1,Increment      1: Step Time =    1.000,"PART-1-1",           367,       1.21115,      -2.54764,            0.,NA,NA,"",   9.28143E-03,  -8.34756E-03,  -4.05750E-03,   121.992E-06
C:/temp/dataset/8/16_8.odb,Step-1,Increment      1: Step Time =    1.000,"PART-1-1",           368,          1.25,           -5.,            0.,NA,NA,"",   10.0681E-03,  -9.16919E-03,  -4.15839E-03,   92.7655E-06
C:/temp/dataset/8/16_8.odb,Step-1,Increment      1: Step Time =    1.000,"PART-1-1",           369,       2.47509,      -3.78501,            0.,NA,NA,"",   9.93849E-03,  -8.78760E-03,  -4.64238E-03,   73.4914E-06
C:/temp/dataset/8/16_8.odb,Step-1,Increment      1: Step Time =    1.000,"PART-1-1",           370,      -2.43569,       1.26731,            0.,NA,NA,"",   7.89878E-03,  -7.43790E-03,  -2.65866E-03,   95.4948E-06
C:/temp/dataset/8/16_8.odb,Step-1,Increment      1: Step Time =    1.000,"PART-1-1",           371,      -1.22667,  -11.4661E-03,            0.,NA,NA,"",   8.26109E-03,  -7.67473E-03,  -3.05682E-03,   131.821E-06
C:/temp/dataset/8/16_8.odb,Step-1,Increment      1: Step Time =    1.000,"PART-1-1",           372,   33.9799E-03,       1.22985,            0.,NA,NA,"",   8.27572E-03,  -7.49864E-03,  -3.50113E-03,   124.342E-06
C:/temp/dataset/8/16_8.odb,Step-1,Increment      1: Step Time =    1.000,"PART-1-1",           373,      -1.17505,       2.50863,            0.,NA,NA,"",   7.85483E-03,  -7.23091E-03,  -3.06795E-03,   92.5909E-06
C:/temp/dataset/8/16_8.odb,Step-1,Increment      1: Step Time =    1.000,"PART-1-1",           374,       4.76976,      -1.42993,            0.,NA,NA,"",   9.93308E-03,  -8.34642E-03,  -5.38547E-03,   165.909E-06
C:/temp/dataset/8/16_8.odb,Step-1,Increment      1: Step Time =    1.000,"PART-1-1",           375,       3.63028,  -144.527E-03,            0.,NA,NA,"",   9.34313E-03,  -7.96506E-03,  -4.88383E-03,   131.923E-06
C:/temp/dataset/8/16_8.odb,Step-1,Increment      1: Step Time =    1.000,"PART-1-1",           376,       2.47175,      -1.31182,            0.,NA,NA,"",   9.29511E-03,  -8.12351E-03,  -4.51749E-03,   138.549E-06
C:/temp/dataset/8/16_8.odb,Step-1,Increment      1: Step Time =    1.000,"PART-1-1",           377,       3.61124,      -2.59722,            0.,NA,NA,"",   9.91004E-03,  -8.49862E-03,  -5.09728E-03,   154.927E-06
C:/temp/dataset/8/16_8.odb,Step-1,Increment      1: Step Time =    1.000,"PART-1-1",           378,       11.8901,      -2.20917,            0.,NA,NA,"",   10.9646E-03,  -9.06740E-03,  -6.16476E-03,   152.461E-06
C:/temp/dataset/8/16_8.odb,Step-1,Increment      1: Step Time =    1.000,"PART-1-1",           379,       10.4501,      -2.71998,            0.,NA,NA,"",   11.0667E-03,  -9.17819E-03,  -6.18328E-03,   175.214E-06
C:/temp/dataset/8/16_8.odb,Step-1,Increment      1: Step Time =    1.000,"PART-1-1",           380,       10.9024,      -4.22992,            0.,NA,NA,"",   11.3060E-03,  -9.48586E-03,  -6.15174E-03,   178.308E-06
C:/temp/dataset/8/16_8.odb,Step-1,Increment      1: Step Time =    1.000,"PART-1-1",           381,       12.3424,      -3.71911,            0.,NA,NA,"",   11.1565E-03,  -9.36530E-03,  -6.06293E-03,   175.760E-06
C:/temp/dataset/8/16_8.odb,Step-1,Increment      1: Step Time =    1.000,"PART-1-1",           382,       13.7991,   56.7775E-03,            0.,NA,NA,"",   10.6554E-03,  -8.48924E-03,  -6.43969E-03,   81.7164E-06
C:/temp/dataset/8/16_8.odb,Step-1,Increment      1: Step Time =    1.000,"PART-1-1",           383,           15.,       1.23750,            0.,NA,NA,"",   10.5951E-03,  -8.18368E-03,  -6.72925E-03,   55.5146E-06
C:/temp/dataset/8/16_8.odb,Step-1,Increment      1: Step Time =    1.000,"PART-1-1",           384,       13.5044,       2.67232,            0.,NA,NA,"",   10.2022E-03,  -7.87649E-03,  -6.48428E-03,   36.8412E-06
C:/temp/dataset/8/16_8.odb,Step-1,Increment      1: Step Time =    1.000,"PART-1-1",           385,       12.3035,       1.49160,            0.,NA,NA,"",   10.2987E-03,  -8.15626E-03,  -6.28801E-03,   83.5002E-06
C:/temp/dataset/8/16_8.odb,Step-1,Increment      1: Step Time =    1.000,"PART-1-1",           386,       9.21011,       8.08819,            0.,NA,NA,"",   8.88505E-03,  -6.77816E-03,  -5.74461E-03,   13.9434E-06
C:/temp/dataset/8/16_8.odb,Step-1,Increment      1: Step Time =    1.000,"PART-1-1",           387,       8.41229,       9.37574,            0.,NA,NA,"",   8.63845E-03,  -6.57164E-03,  -5.60682E-03,   6.64387E-06
C:/temp/dataset/8/16_8.odb,Step-1,Increment      1: Step Time =    1.000,"PART-1-1",           388,       7.22358,       8.63283,            0.,NA,NA,"",   8.59991E-03,  -6.68171E-03,  -5.41417E-03,   9.24475E-06
C:/temp/dataset/8/16_8.odb,Step-1,Increment      1: Step Time =    1.000,"PART-1-1",           389,       8.02141,       7.34528,            0.,NA,NA,"",   8.83891E-03,  -6.88029E-03,  -5.54869E-03,   18.9094E-06
C:/temp/dataset/8/16_8.odb,Step-1,Increment      1: Step Time =    1.000,"PART-1-1",           390,       12.4231,       13.7517,            0.,NA,NA,"",   8.60156E-03,  -5.86902E-03,  -6.28820E-03,   6.21667E-06
C:/temp/dataset/8/16_8.odb,Step-1,Increment      1: Step Time =    1.000,"PART-1-1",           391,       13.6407,       12.4035,            0.,NA,NA,"",   8.90427E-03,  -6.08889E-03,  -6.49703E-03,   4.14708E-06
C:/temp/dataset/8/16_8.odb,Step-1,Increment      1: Step Time =    1.000,"PART-1-1",           392,           15.,       13.6688,            0.,NA,NA,"",   8.93405E-03,  -5.88109E-03,  -6.72533E-03,   2.05012E-06
C:/temp/dataset/8/16_8.odb,Step-1,Increment      1: Step Time =    1.000,"PART-1-1",           393,       13.7824,       15.0169,            0.,NA,NA,"",   8.63627E-03,  -5.65940E-03,  -6.52352E-03,   4.10044E-06
C:/temp/dataset/8/16_8.odb,Step-1,Increment      1: Step Time =    1.000,"PART-1-1",           394,       7.56520,       19.0322,            0.,NA,NA,"",   7.36406E-03,  -4.98734E-03,  -5.41810E-03,   8.11721E-06
C:/temp/dataset/8/16_8.odb,Step-1,Increment      1: Step Time =    1.000,"PART-1-1",           395,       8.88910,       17.7874,            0.,NA,NA,"",   7.68613E-03,  -5.19764E-03,  -5.66226E-03,   7.82453E-06
C:/temp/dataset/8/16_8.odb,Step-1,Increment      1: Step Time =    1.000,"PART-1-1",           396,       10.1374,       19.3643,            0.,NA,NA,"",   7.67263E-03,  -4.92133E-03,  -5.88640E-03,   3.51271E-06
C:/temp/dataset/8/16_8.odb,Step-1,Increment      1: Step Time =    1.000,"PART-1-1",           397,       8.81352,       20.6091,            0.,NA,NA,"",   7.34579E-03,  -4.70063E-03,  -5.64488E-03,   4.70062E-06
C:/temp/dataset/8/16_8.odb,Step-1,Increment      1: Step Time =    1.000,"PART-1-1",           398,       4.93385,       28.8453,            0.,NA,NA,"",   5.77307E-03,  -3.09420E-03,  -4.87384E-03,   5.71371E-06
C:/temp/dataset/8/16_8.odb,Step-1,Increment      1: Step Time =    1.000,"PART-1-1",           399,          3.75,           30.,            0.,NA,NA,"",   5.43944E-03,  -2.85446E-03,  -4.63029E-03,   6.65671E-06
C:/temp/dataset/8/16_8.odb,Step-1,Increment      1: Step Time =    1.000,"PART-1-1",           400,       2.48155,       28.8240,            0.,NA,NA,"",   5.35258E-03,  -3.08884E-03,  -4.37140E-03,   4.37814E-06
C:/temp/dataset/8/16_8.odb,Step-1,Increment      1: Step Time =    1.000,"PART-1-1",           401,       3.66541,       27.6693,            0.,NA,NA,"",   5.69082E-03,  -3.32512E-03,  -4.61833E-03,   4.37076E-06
C:/temp/dataset/8/16_8.odb,Step-1,Increment      1: Step Time =    1.000,"PART-1-1",           402,   132.783E-03,       23.8710,            0.,NA,NA,"",   5.63199E-03,  -4.08640E-03,  -3.87564E-03,   8.82791E-06
C:/temp/dataset/8/16_8.odb,Step-1,Increment      1: Step Time =    1.000,"PART-1-1",           403,       1.26611,       22.6290,            0.,NA,NA,"",   5.97902E-03,  -4.33476E-03,  -4.11808E-03,   9.17312E-06
C:/temp/dataset/8/16_8.odb,Step-1,Increment      1: Step Time =    1.000,"PART-1-1",           404,       2.48677,       23.9209,            0.,NA,NA,"",   5.97889E-03,  -4.07100E-03,  -4.37881E-03,   9.16583E-06
C:/temp/dataset/8/16_8.odb,Step-1,Increment      1: Step Time =    1.000,"PART-1-1",           405,       1.35344,       25.1629,            0.,NA,NA,"",   5.63423E-03,  -3.82452E-03,  -4.13733E-03,   8.68113E-06
C:/temp/dataset/8/16_8.odb,Step-1,Increment      1: Step Time =    1.000,"PART-1-1",           406,      -5.93264,       26.7394,            0.,NA,NA,"",   4.38417E-03,  -3.52893E-03,  -2.60146E-03,   6.11940E-06
C:/temp/dataset/8/16_8.odb,Step-1,Increment      1: Step Time =    1.000,"PART-1-1",           407,      -5.38454,       25.2802,            0.,NA,NA,"",   4.68303E-03,  -3.82166E-03,  -2.70659E-03,   7.21778E-06
C:/temp/dataset/8/16_8.odb,Step-1,Increment      1: Step Time =    1.000,"PART-1-1",           408,      -3.59728,       25.9693,            0.,NA,NA,"",   4.79587E-03,  -3.67393E-03,  -3.08263E-03,   7.89965E-06
C:/temp/dataset/8/16_8.odb,Step-1,Increment      1: Step Time =    1.000,"PART-1-1",           409,      -4.14538,       27.4285,            0.,NA,NA,"",   4.50178E-03,  -3.38078E-03,  -2.97260E-03,   5.90874E-06
C:/temp/dataset/8/16_8.odb,Step-1,Increment      1: Step Time =    1.000,"PART-1-1",           410,      -13.7907,       17.4908,            0.,NA,NA,"",   5.47527E-03,  -5.35638E-03,  -1.13480E-03,   17.1049E-06
C:/temp/dataset/8/16_8.odb,Step-1,Increment      1: Step Time =    1.000,"PART-1-1",           411,      -12.5378,       18.7233,            0.,NA,NA,"",   5.30986E-03,  -5.13786E-03,  -1.34054E-03,   11.6820E-06
C:/temp/dataset/8/16_8.odb,Step-1,Increment      1: Step Time =    1.000,"PART-1-1",           412,      -13.7471,       19.9825,            0.,NA,NA,"",   5.01759E-03,  -4.89333E-03,  -1.10976E-03,   13.4280E-06
C:/temp/dataset/8/16_8.odb,Step-1,Increment      1: Step Time =    1.000,"PART-1-1",           413,          -15.,         18.75,            0.,NA,NA,"",   5.19407E-03,  -5.11614E-03,  -896.346E-06,   20.3198E-06
C:/temp/dataset/8/16_8.odb,Step-1,Increment      1: Step Time =    1.000,"PART-1-1",           414,      -7.55517,       18.6200,            0.,NA,NA,"",   5.61653E-03,  -5.16079E-03,  -2.21623E-03,   12.4317E-06
C:/temp/dataset/8/16_8.odb,Step-1,Increment      1: Step Time =    1.000,"PART-1-1",           415,      -6.28340,       17.4693,            0.,NA,NA,"",   5.88300E-03,  -5.36010E-03,  -2.42465E-03,   23.6927E-06
C:/temp/dataset/8/16_8.odb,Step-1,Increment      1: Step Time =    1.000,"PART-1-1",           416,           -5.,         18.75,            0.,NA,NA,"",   5.78013E-03,  -5.11624E-03,  -2.68961E-03,   34.3637E-06
C:/temp/dataset/8/16_8.odb,Step-1,Increment      1: Step Time =    1.000,"PART-1-1",           417,      -6.27177,       19.9007,            0.,NA,NA,"",   5.50163E-03,  -4.91601E-03,  -2.46998E-03,   18.1058E-06
C:/temp/dataset/8/16_8.odb,Step-1,Increment      1: Step Time =    1.000,"PART-1-1",           418,            5.,         18.75,            0.,NA,NA,"",   7.06120E-03,  -5.02793E-03,  -4.95788E-03,   23.8982E-06
C:/temp/dataset/8/16_8.odb,Step-1,Increment      1: Step Time =    1.000,"PART-1-1",           419,       6.32405,       17.6046,            0.,NA,NA,"",   7.37640E-03,  -5.22622E-03,  -5.20556E-03,   13.0484E-06
C:/temp/dataset/8/16_8.odb,Step-1,Increment      1: Step Time =    1.000,"PART-1-1",           420,       6.24114,       20.1776,            0.,NA,NA,"",   7.04828E-03,  -4.79238E-03,  -5.16830E-03,   15.6280E-06
C:/temp/dataset/8/16_8.odb,Step-1,Increment      1: Step Time =    1.000,"PART-1-1",           421,       5.95216,       22.8319,            0.,NA,NA,"",   6.65918E-03,  -4.28464E-03,  -5.09769E-03,   7.00612E-06
C:/temp/dataset/8/16_8.odb,Step-1,Increment      1: Step Time =    1.000,"PART-1-1",           422,       6.99338,       24.1522,            0.,NA,NA,"",   6.65270E-03,  -4.02779E-03,  -5.29484E-03,   4.68911E-06
C:/temp/dataset/8/16_8.odb,Step-1,Increment      1: Step Time =    1.000,"PART-1-1",           423,       5.83989,       25.3294,            0.,NA,NA,"",   6.32816E-03,  -3.79443E-03,  -5.06437E-03,   3.70627E-06
C:/temp/dataset/8/16_8.odb,Step-1,Increment      1: Step Time =    1.000,"PART-1-1",           424,       4.79866,       24.0091,            0.,NA,NA,"",   6.32841E-03,  -4.05348E-03,  -4.85984E-03,   6.71902E-06
C:/temp/dataset/8/16_8.odb,Step-1,Increment      1: Step Time =    1.000,"PART-1-1",           425,         -6.25,          -30.,            0.,NA,NA,"",            0.,  -1.03347E-39,  -1.11299E-39,   1.21630E-03
C:/temp/dataset/8/16_8.odb,Step-1,Increment      1: Step Time =    1.000,"PART-1-1",           426,      -4.93028,      -28.8663,            0.,NA,NA,"",   2.01418E-03,  -1.90822E-03,  -644.689E-06,   1.31135E-03
C:/temp/dataset/8/16_8.odb,Step-1,Increment      1: Step Time =    1.000,"PART-1-1",           427,      -6.04679,      -27.7538,            0.,NA,NA,"",   3.02535E-03,  -2.93669E-03,  -727.035E-06,   980.676E-06
C:/temp/dataset/8/16_8.odb,Step-1,Increment      1: Step Time =    1.000,"PART-1-1",           428,      -7.36652,      -28.8875,            0.,NA,NA,"",   1.45389E-03,  -1.42720E-03,  -277.303E-06,   868.808E-06
C:/temp/dataset/8/16_8.odb,Step-1,Increment      1: Step Time =    1.000,"PART-1-1",           429,       8.56540,       1.05942,            0.,NA,NA,"",   10.0324E-03,  -8.11984E-03,  -5.89216E-03,   122.085E-06
C:/temp/dataset/8/16_8.odb,Step-1,Increment      1: Step Time =    1.000,"PART-1-1",           430,       8.80633,       2.55373,            0.,NA,NA,"",   9.72321E-03,  -7.77826E-03,  -5.83434E-03,   98.2315E-06
C:/temp/dataset/8/16_8.odb,Step-1,Increment      1: Step Time =    1.000,"PART-1-1",           431,       6.83858,       2.89251,            0.,NA,NA,"",   9.35288E-03,  -7.55907E-03,  -5.50789E-03,   91.5943E-06
C:/temp/dataset/8/16_8.odb,Step-1,Increment      1: Step Time =    1.000,"PART-1-1",           432,       6.59765,       1.39821,            0.,NA,NA,"",   9.64270E-03,  -7.87732E-03,  -5.56142E-03,   107.480E-06
C:/temp/dataset/8/16_8.odb,Step-1,Increment      1: Step Time =    1.000,"PART-1-1",           433,       5.99067,      -9.88568,            0.,NA,NA,"",   12.1125E-03,  -8.80983E-03,  -8.31262E-03,   488.474E-06
C:/temp/dataset/8/16_8.odb,Step-1,Increment      1: Step Time =    1.000,"PART-1-1",           434,            5.,        -11.25,            0.,NA,NA,"",   12.3704E-03,  -8.05393E-03,  -9.38938E-03,   632.720E-06
C:/temp/dataset/8/16_8.odb,Step-1,Increment      1: Step Time =    1.000,"PART-1-1",           435,       6.38802,      -12.3580,            0.,NA,NA,"",   12.1336E-03,  -7.88868E-03,  -9.21916E-03,   509.765E-06
C:/temp/dataset/8/16_8.odb,Step-1,Increment      1: Step Time =    1.000,"PART-1-1",           436,       7.37869,      -10.9937,            0.,NA,NA,"",   11.8551E-03,  -8.68734E-03,  -8.06676E-03,   373.489E-06
C:/temp/dataset/8/16_8.odb,Step-1,Increment      1: Step Time =    1.000,"PART-1-1",           437,       13.7989,      -7.70794,            0.,NA,NA,"",   10.7677E-03,  -9.43224E-03,  -5.19388E-03,   309.287E-06
C:/temp/dataset/8/16_8.odb,Step-1,Increment      1: Step Time =    1.000,"PART-1-1",           438,       13.8976,      -10.2092,            0.,NA,NA,"",   9.86945E-03,  -8.83875E-03,  -4.39119E-03,   388.572E-06
C:/temp/dataset/8/16_8.odb,Step-1,Increment      1: Step Time =    1.000,"PART-1-1",           439,           15.,      -8.79375,            0.,NA,NA,"",   10.1244E-03,  -9.04428E-03,  -4.55017E-03,   458.350E-06
C:/temp/dataset/8/16_8.odb,Step-1,Increment      1: Step Time =    1.000,"PART-1-1",           440,       13.6474,      -17.7374,            0.,NA,NA,"",   2.89712E-03,  -2.25491E-03,  -1.81897E-03,   417.179E-06
C:/temp/dataset/8/16_8.odb,Step-1,Increment      1: Step Time =    1.000,"PART-1-1",           441,           15.,      -16.3312,            0.,NA,NA,"",   3.92994E-03,  -3.85643E-03,  -756.513E-06,   503.488E-06
C:/temp/dataset/8/16_8.odb,Step-1,Increment      1: Step Time =    1.000,"PART-1-1",           442,       12.6422,      -19.1389,            0.,NA,NA,"",   2.50978E-03,  -309.879E-06,  -2.49058E-03,   466.869E-06
C:/temp/dataset/8/16_8.odb,Step-1,Increment      1: Step Time =    1.000,"PART-1-1",           443,       13.9948,      -20.2453,            0.,NA,NA,"",   1.76977E-03,   1.52600E-03,  -896.338E-06,   263.831E-06
C:/temp/dataset/8/16_8.odb,Step-1,Increment      1: Step Time =    1.000,"PART-1-1",           444,           15.,      -18.8438,            0.,NA,NA,"",   494.213E-06,  -465.087E-06,   167.156E-06,   226.324E-06
C:/temp/dataset/8/16_8.odb,Step-1,Increment      1: Step Time =    1.000,"PART-1-1",           445,      -5.97701,      -22.8169,            0.,NA,NA,"",   3.53415E-03,  -3.43837E-03,  -817.185E-06,   316.286E-06
C:/temp/dataset/8/16_8.odb,Step-1,Increment      1: Step Time =    1.000,"PART-1-1",           446,      -7.08093,      -24.1906,            0.,NA,NA,"",   3.71216E-03,  -3.68515E-03,  -446.918E-06,   354.276E-06
C:/temp/dataset/8/16_8.odb,Step-1,Increment      1: Step Time =    1.000,"PART-1-1",           447,      -5.92665,      -25.3891,            0.,NA,NA,"",   4.33623E-03,  -4.20775E-03,  -1.04771E-03,   757.852E-06
C:/temp/dataset/8/16_8.odb,Step-1,Increment      1: Step Time =    1.000,"PART-1-1",           448,      -4.82272,      -24.0154,            0.,NA,NA,"",   4.94494E-03,  -4.51621E-03,  -2.01402E-03,   725.449E-06
C:/temp/dataset/8/16_8.odb,Step-1,Increment      1: Step Time =    1.000,"PART-1-1",           449,      -9.79394,      -28.8556,            0.,NA,NA,"",   1.07758E-03,  -1.06656E-03,  -153.710E-06,   593.618E-06
C:/temp/dataset/8/16_8.odb,Step-1,Increment      1: Step Time =    1.000,"PART-1-1",           450,      -10.8857,      -27.4291,            0.,NA,NA,"",   1.94012E-03,  -1.92906E-03,  -206.776E-06,   448.847E-06
C:/temp/dataset/8/16_8.odb,Step-1,Increment      1: Step Time =    1.000,"PART-1-1",           451,      -12.3417,      -28.5735,            0.,NA,NA,"",   1.02893E-03,  -1.01439E-03,  -172.349E-06,   439.959E-06
C:/temp/dataset/8/16_8.odb,Step-1,Increment      1: Step Time =    1.000,"PART-1-1",           452,        -11.25,          -30.,            0.,NA,NA,"",            0.,  -528.191E-42,  -400.931E-42,   578.429E-06
C:/temp/dataset/8/16_8.odb,Step-1,Increment      1: Step Time =    1.000,"PART-1-1",           453,      -13.5416,       7.35537,            0.,NA,NA,"",   7.03157E-03,  -6.89738E-03,  -1.36719E-03,   26.1870E-06
C:/temp/dataset/8/16_8.odb,Step-1,Increment      1: Step Time =    1.000,"PART-1-1",           454,          -15.,          6.25,            0.,NA,NA,"",   7.11810E-03,  -7.01068E-03,  -1.23197E-03,   43.0900E-06
C:/temp/dataset/8/16_8.odb,Step-1,Increment      1: Step Time =    1.000,"PART-1-1",           455,      -13.9209,       4.81128,            0.,NA,NA,"",   7.33315E-03,  -7.19807E-03,  -1.40100E-03,   39.3713E-06
C:/temp/dataset/8/16_8.odb,Step-1,Increment      1: Step Time =    1.000,"PART-1-1",           456,      -12.4625,       5.91665,            0.,NA,NA,"",   7.24284E-03,  -7.08350E-03,  -1.51084E-03,   25.9454E-06
C:/temp/dataset/8/16_8.odb,Step-1,Increment      1: Step Time =    1.000,"PART-1-1",           457,      -14.0708,       2.40501,            0.,NA,NA,"",   7.59783E-03,  -7.44960E-03,  -1.49350E-03,   61.2966E-06
C:/temp/dataset/8/16_8.odb,Step-1,Increment      1: Step Time =    1.000,"PART-1-1",           458,          -15.,          1.25,            0.,NA,NA,"",   7.66504E-03,  -7.51530E-03,  -1.50766E-03,   91.6916E-06
C:/temp/dataset/8/16_8.odb,Step-1,Increment      1: Step Time =    1.000,"PART-1-1",           459,      -13.9250,  -19.9917E-03,            0.,NA,NA,"",   7.81230E-03,  -7.63540E-03,  -1.65309E-03,   84.8351E-06
C:/temp/dataset/8/16_8.odb,Step-1,Increment      1: Step Time =    1.000,"PART-1-1",           460,      -12.9958,       1.13502,            0.,NA,NA,"",   7.75463E-03,  -7.58692E-03,  -1.60400E-03,   60.3864E-06
C:/temp/dataset/8/16_8.odb,Step-1,Increment      1: Step Time =    1.000,"PART-1-1",           461,      -13.6379,      -2.69968,            0.,NA,NA,"",   7.87835E-03,  -7.65697E-03,  -1.85452E-03,   94.8063E-06
C:/temp/dataset/8/16_8.odb,Step-1,Increment      1: Step Time =    1.000,"PART-1-1",           462,          -15.,         -3.75,            0.,NA,NA,"",   7.78608E-03,  -7.50534E-03,  -2.07192E-03,   142.040E-06
C:/temp/dataset/8/16_8.odb,Step-1,Increment      1: Step Time =    1.000,"PART-1-1",           463,      -14.1619,      -5.01388,            0.,NA,NA,"",   7.68602E-03,  -7.39002E-03,  -2.11244E-03,   107.555E-06
C:/temp/dataset/8/16_8.odb,Step-1,Increment      1: Step Time =    1.000,"PART-1-1",           464,      -12.7999,      -3.96356,            0.,NA,NA,"",   7.81990E-03,  -7.59182E-03,  -1.87485E-03,   63.7538E-06
C:/temp/dataset/8/16_8.odb,Step-1,Increment      1: Step Time =    1.000,"PART-1-1",           465,          -15.,         -8.75,            0.,NA,NA,"",   6.94962E-03,  -6.44665E-03,  -2.59576E-03,   54.8560E-06
C:/temp/dataset/8/16_8.odb,Step-1,Increment      1: Step Time =    1.000,"PART-1-1",           466,      -13.7347,      -9.99741,            0.,NA,NA,"",   6.46128E-03,  -6.04863E-03,  -2.27207E-03,   62.9627E-06
C:/temp/dataset/8/16_8.odb,Step-1,Increment      1: Step Time =    1.000,"PART-1-1",           467,      -12.3830,      -8.57467,            0.,NA,NA,"",   6.83761E-03,  -6.54302E-03,  -1.98540E-03,   103.811E-06
C:/temp/dataset/8/16_8.odb,Step-1,Increment      1: Step Time =    1.000,"PART-1-1",           468,      -13.6483,      -7.32726,            0.,NA,NA,"",   7.23771E-03,  -6.89842E-03,  -2.19002E-03,   74.7750E-06
C:/temp/dataset/8/16_8.odb,Step-1,Increment      1: Step Time =    1.000,"PART-1-1",           469,      -11.2230,      -10.0773,            0.,NA,NA,"",   6.26125E-03,  -6.00680E-03,  -1.76679E-03,   137.767E-06
C:/temp/dataset/8/16_8.odb,Step-1,Increment      1: Step Time =    1.000,"PART-1-1",           470,      -9.87779,      -9.01965,            0.,NA,NA,"",   6.58503E-03,  -6.38989E-03,  -1.59118E-03,   155.533E-06
C:/temp/dataset/8/16_8.odb,Step-1,Increment      1: Step Time =    1.000,"PART-1-1",           471,      -11.0378,      -7.51697,            0.,NA,NA,"",   7.12499E-03,  -6.89876E-03,  -1.78116E-03,   115.576E-06
C:/temp/dataset/8/16_8.odb,Step-1,Increment      1: Step Time =    1.000,"PART-1-1",           472,       1.25332,  -40.8297E-03,            0.,NA,NA,"",   8.75225E-03,  -7.79127E-03,  -3.98722E-03,   140.361E-06
C:/temp/dataset/8/16_8.odb,Step-1,Increment      1: Step Time =    1.000,"PART-1-1",           473,  -7.28452E-03,      -1.27665,            0.,NA,NA,"",   8.72055E-03,  -7.97409E-03,  -3.53014E-03,   136.601E-06
C:/temp/dataset/8/16_8.odb,Step-1,Increment      1: Step Time =    1.000,"PART-1-1",           474,       3.65826,       22.6797,            0.,NA,NA,"",   6.32926E-03,  -4.31516E-03,  -4.63021E-03,   9.15031E-06
C:/temp/dataset/8/16_8.odb,Step-1,Increment      1: Step Time =    1.000,"PART-1-1",           475,       2.49339,       21.3176,            0.,NA,NA,"",   6.34798E-03,  -4.59459E-03,  -4.38025E-03,   9.82745E-06
C:/temp/dataset/8/16_8.odb,Step-1,Increment      1: Step Time =    1.000,"PART-1-1",           476,          3.75,           20.,            0.,NA,NA,"",   6.71907E-03,  -4.85421E-03,  -4.64569E-03,   20.2933E-06
C:/temp/dataset/8/16_8.odb,Step-1,Increment      1: Step Time =    1.000,"PART-1-1",           477,       4.91487,       21.3621,            0.,NA,NA,"",   6.70193E-03,  -4.57121E-03,  -4.90101E-03,   16.2449E-06
C:/temp/dataset/8/16_8.odb,Step-1,Increment      1: Step Time =    1.000,"PART-1-1",           478,       12.6680,       11.1714,            0.,NA,NA,"",   8.92442E-03,  -6.28896E-03,  -6.33200E-03,   6.72938E-06
C:/temp/dataset/8/16_8.odb,Step-1,Increment      1: Step Time =    1.000,"PART-1-1",           479,       14.0273,       9.92409,            0.,NA,NA,"",   9.23788E-03,  -6.49529E-03,  -6.56883E-03,   6.07736E-06
C:/temp/dataset/8/16_8.odb,Step-1,Increment      1: Step Time =    1.000,"PART-1-1",           480,           15.,       11.1563,            0.,NA,NA,"",   9.21253E-03,  -6.29428E-03,  -6.72701E-03,   3.98500E-06
C:/temp/dataset/8/16_8.odb,Step-1,Increment      1: Step Time =    1.000,"PART-1-1",           481,       14.0536,       7.56100,            0.,NA,NA,"",   9.53743E-03,  -6.89751E-03,  -6.58687E-03,   8.30422E-06
C:/temp/dataset/8/16_8.odb,Step-1,Increment      1: Step Time =    1.000,"PART-1-1",           482,       12.9489,       6.56322,            0.,NA,NA,"",   9.53613E-03,  -7.07286E-03,  -6.39627E-03,   8.15584E-06
C:/temp/dataset/8/16_8.odb,Step-1,Increment      1: Step Time =    1.000,"PART-1-1",           483,       13.8953,       5.18972,            0.,NA,NA,"",   9.84980E-03,  -7.33851E-03,  -6.56999E-03,   9.01677E-06
C:/temp/dataset/8/16_8.odb,Step-1,Increment      1: Step Time =    1.000,"PART-1-1",           484,           15.,        6.1875,            0.,NA,NA,"",   9.84702E-03,  -7.15103E-03,  -6.76954E-03,   9.56394E-06
C:/temp/dataset/8/16_8.odb,Step-1,Increment      1: Step Time =    1.000,"PART-1-1",           485,       6.19023,       9.87877,            0.,NA,NA,"",   8.34384E-03,  -6.48828E-03,  -5.24613E-03,   6.03913E-06
C:/temp/dataset/8/16_8.odb,Step-1,Increment      1: Step Time =    1.000,"PART-1-1",           486,            5.,          8.75,            0.,NA,NA,"",   8.37115E-03,  -6.65923E-03,  -5.07256E-03,   10.0744E-06
C:/temp/dataset/8/16_8.odb,Step-1,Increment      1: Step Time =    1.000,"PART-1-1",           487,       6.03335,       7.50406,            0.,NA,NA,"",   8.60632E-03,  -6.83630E-03,  -5.22817E-03,   13.1345E-06
C:/temp/dataset/8/16_8.odb,Step-1,Increment      1: Step Time =    1.000,"PART-1-1",           488,   27.3265E-03,       3.74387,            0.,NA,NA,"",   7.78785E-03,  -6.97137E-03,  -3.47141E-03,   58.5554E-06
C:/temp/dataset/8/16_8.odb,Step-1,Increment      1: Step Time =    1.000,"PART-1-1",           489,         -1.25,            5.,            0.,NA,NA,"",   7.30997E-03,  -6.63617E-03,  -3.06544E-03,   38.2458E-06
C:/temp/dataset/8/16_8.odb,Step-1,Increment      1: Step Time =    1.000,"PART-1-1",           490,      -2.45237,       3.76475,            0.,NA,NA,"",   7.49264E-03,  -6.99423E-03,  -2.68709E-03,   57.7789E-06
C:/temp/dataset/8/16_8.odb,Step-1,Increment      1: Step Time =    1.000,"PART-1-1",           491,      -3.55115,       2.55808,            0.,NA,NA,"",   7.61782E-03,  -7.23483E-03,  -2.38505E-03,   47.3454E-06
C:/temp/dataset/8/16_8.odb,Step-1,Increment      1: Step Time =    1.000,"PART-1-1",           492,         -3.75,            5.,            0.,NA,NA,"",   7.22798E-03,  -6.81683E-03,  -2.40302E-03,   99.9862E-06
C:/temp/dataset/8/16_8.odb,Step-1,Increment      1: Step Time =    1.000,"PART-1-1",           493,      -4.84878,       3.79333,            0.,NA,NA,"",   7.40112E-03,  -7.07752E-03,  -2.16455E-03,   63.0465E-06
C:/temp/dataset/8/16_8.odb,Step-1,Increment      1: Step Time =    1.000,"PART-1-1",           494,      -13.7266,       27.6069,            0.,NA,NA,"",   3.54062E-03,  -3.37479E-03,  -1.07086E-03,   2.15695E-06
C:/temp/dataset/8/16_8.odb,Step-1,Increment      1: Step Time =    1.000,"PART-1-1",           495,          -15.,         26.25,            0.,NA,NA,"",   3.73719E-03,  -3.64605E-03,  -820.287E-06,   3.11564E-06
C:/temp/dataset/8/16_8.odb,Step-1,Increment      1: Step Time =    1.000,"PART-1-1",           496,      -13.4390,       25.0675,            0.,NA,NA,"",   4.04796E-03,  -3.88634E-03,  -1.13242E-03,   5.49123E-06
C:/temp/dataset/8/16_8.odb,Step-1,Increment      1: Step Time =    1.000,"PART-1-1",           497,      -12.1656,       26.4243,            0.,NA,NA,"",   3.86635E-03,  -3.61281E-03,  -1.37705E-03,   5.81924E-06
C:/temp/dataset/8/16_8.odb,Step-1,Increment      1: Step Time =    1.000,"PART-1-1",           498,      -3.53423,       23.8764,            0.,NA,NA,"",   5.12858E-03,  -4.09579E-03,  -3.08656E-03,   9.67404E-06
C:/temp/dataset/8/16_8.odb,Step-1,Increment      1: Step Time =    1.000,"PART-1-1",           499,      -4.97219,       24.1974,            0.,NA,NA,"",   4.90586E-03,  -4.03854E-03,  -2.78526E-03,   9.21147E-06
C:/temp/dataset/8/16_8.odb,Step-1,Increment      1: Step Time =    1.000,"PART-1-1",           500,      -5.34958,       22.7893,            0.,NA,NA,"",   5.09670E-03,  -4.32539E-03,  -2.69581E-03,   11.7992E-06
C:/temp/dataset/8/16_8.odb,Step-1,Increment      1: Step Time =    1.000,"PART-1-1",           501,      -3.91162,       22.4683,            0.,NA,NA,"",   5.30879E-03,  -4.38189E-03,  -2.99704E-03,   11.2162E-06
C:/temp/dataset/8/16_8.odb,Step-1,Increment      1: Step Time =    1.000,"PART-1-1",           502,      -12.4008,       21.2127,            0.,NA,NA,"",   4.85124E-03,  -4.66031E-03,  -1.34763E-03,   10.3731E-06
C:/temp/dataset/8/16_8.odb,Step-1,Increment      1: Step Time =    1.000,"PART-1-1",           503,      -13.6537,       22.4802,            0.,NA,NA,"",   4.54166E-03,  -4.40537E-03,  -1.10425E-03,   9.22421E-06
C:/temp/dataset/8/16_8.odb,Step-1,Increment      1: Step Time =    1.000,"PART-1-1",           504,          -15.,         21.25,            0.,NA,NA,"",   4.71928E-03,  -4.64082E-03,  -856.959E-06,   14.4658E-06
C:/temp/dataset/8/16_8.odb,Step-1,Increment      1: Step Time =    1.000,"PART-1-1",           505,      -8.82885,       17.4394,            0.,NA,NA,"",   5.73274E-03,  -5.37912E-03,  -1.98225E-03,   9.90081E-06
C:/temp/dataset/8/16_8.odb,Step-1,Increment      1: Step Time =    1.000,"PART-1-1",           506,      -8.77308,       19.8173,            0.,NA,NA,"",   5.32754E-03,  -4.93560E-03,  -2.00563E-03,   9.48360E-06
C:/temp/dataset/8/16_8.odb,Step-1,Increment      1: Step Time =    1.000,"PART-1-1",           507,      -10.0468,       18.6367,            0.,NA,NA,"",   5.45755E-03,  -5.16040E-03,  -1.77626E-03,   8.61334E-06
C:/temp/dataset/8/16_8.odb,Step-1,Increment      1: Step Time =    1.000,"PART-1-1",           508,   22.7198E-03,       21.3114,            0.,NA,NA,"",   6.00697E-03,  -4.61264E-03,  -3.84802E-03,   5.70367E-06
C:/temp/dataset/8/16_8.odb,Step-1,Increment      1: Step Time =    1.000,"PART-1-1",           509,          1.25,           20.,            0.,NA,NA,"",   6.38067E-03,  -4.88351E-03,  -4.10661E-03,   8.82818E-06
C:/temp/dataset/8/16_8.odb,Step-1,Increment      1: Step Time =    1.000,"PART-1-1",           510,       14.0304,       22.4987,            0.,NA,NA,"",   7.90189E-03,  -4.33748E-03,  -6.60501E-03,   6.23533E-06
C:/temp/dataset/8/16_8.odb,Step-1,Increment      1: Step Time =    1.000,"PART-1-1",           511,       12.8970,       21.3651,            0.,NA,NA,"",   7.84656E-03,  -4.55170E-03,  -6.39144E-03,   4.39432E-06
C:/temp/dataset/8/16_8.odb,Step-1,Increment      1: Step Time =    1.000,"PART-1-1",           512,       13.8666,       20.0727,            0.,NA,NA,"",   8.12096E-03,  -4.78528E-03,  -6.56133E-03,   6.74810E-06
C:/temp/dataset/8/16_8.odb,Step-1,Increment      1: Step Time =    1.000,"PART-1-1",           513,           15.,       21.2062,            0.,NA,NA,"",   8.17524E-03,  -4.57452E-03,  -6.77557E-03,   8.82359E-06
C:/temp/dataset/8/16_8.odb,Step-1,Increment      1: Step Time =    1.000,"PART-1-1",           514,       8.59704,       27.3306,            0.,NA,NA,"",   6.55077E-03,  -3.40706E-03,  -5.59504E-03,   4.23916E-06
C:/temp/dataset/8/16_8.odb,Step-1,Increment      1: Step Time =    1.000,"PART-1-1",           515,       9.95970,       28.5191,            0.,NA,NA,"",   6.65987E-03,  -3.17909E-03,  -5.85211E-03,   4.03774E-06
C:/temp/dataset/8/16_8.odb,Step-1,Increment      1: Step Time =    1.000,"PART-1-1",           516,          8.75,           30.,            0.,NA,NA,"",   6.31795E-03,  -2.88892E-03,  -5.61878E-03,   5.93319E-06
C:/temp/dataset/8/16_8.odb,Step-1,Increment      1: Step Time =    1.000,"PART-1-1",           517,       7.38734,       28.8115,            0.,NA,NA,"",   6.19749E-03,  -3.11267E-03,  -5.35912E-03,   5.48267E-06
C:/temp/dataset/8/16_8.odb,Step-1,Increment      1: Step Time =    1.000,"PART-1-1",           518,       7.27843,       21.6473,            0.,NA,NA,"",   7.00528E-03,  -4.51255E-03,  -5.35825E-03,   6.23623E-06
C:/temp/dataset/8/16_8.odb,Step-1,Increment      1: Step Time =    1.000,"PART-1-1",           519,   2.36529E-03,       28.7726,            0.,NA,NA,"",   4.94064E-03,  -3.09582E-03,  -3.85042E-03,   3.63512E-06
C:/temp/dataset/8/16_8.odb,Step-1,Increment      1: Step Time =    1.000,"PART-1-1",           520,       1.23392,       27.5966,            0.,NA,NA,"",   5.29431E-03,  -3.33593E-03,  -4.11113E-03,   5.88317E-06
C:/temp/dataset/8/16_8.odb,Step-1,Increment      1: Step Time =    1.000,"PART-1-1",           521,          1.25,           30.,            0.,NA,NA,"",   4.99922E-03,  -2.84252E-03,  -4.11245E-03,   2.94651E-06
C:/temp/dataset/8/16_8.odb,Step-1,Increment      1: Step Time =    1.000,"PART-1-1",           522,      -5.24302,       28.8844,            0.,NA,NA,"",   4.13613E-03,  -3.08972E-03,  -2.74977E-03,   6.63477E-06
C:/temp/dataset/8/16_8.odb,Step-1,Increment      1: Step Time =    1.000,"PART-1-1",           523,      -2.65236,       28.5441,            0.,NA,NA,"",   4.55201E-03,  -3.14756E-03,  -3.28841E-03,   5.30706E-06
C:/temp/dataset/8/16_8.odb,Step-1,Increment      1: Step Time =    1.000,"PART-1-1",           524,         -3.75,           30.,            0.,NA,NA,"",   4.18415E-03,  -2.85156E-03,  -3.06198E-03,   6.28473E-06
C:/temp/dataset/8/16_8.odb,Step-1,Increment      1: Step Time =    1.000,"PART-1-1",           525,      -7.66876,       29.0336,            0.,NA,NA,"",   3.81464E-03,  -3.07334E-03,  -2.25967E-03,   6.58479E-06
C:/temp/dataset/8/16_8.odb,Step-1,Increment      1: Step Time =    1.000,"PART-1-1",           526,      -6.66179,       27.9180,            0.,NA,NA,"",   4.10968E-03,  -3.29352E-03,  -2.45809E-03,   5.38120E-06
C:/temp/dataset/8/16_8.odb,Step-1,Increment      1: Step Time =    1.000,"PART-1-1",           527,         -6.25,           30.,            0.,NA,NA,"",   3.83735E-03,  -2.86920E-03,  -2.54812E-03,   7.96034E-06
C:/temp/dataset/8/16_8.odb,Step-1,Increment      1: Step Time =    1.000,"PART-1-1",           528,      -8.85404,       25.1616,            0.,NA,NA,"",   4.35654E-03,  -3.86285E-03,  -2.01439E-03,   7.99735E-06
C:/temp/dataset/8/16_8.odb,Step-1,Increment      1: Step Time =    1.000,"PART-1-1",           529,      -8.24061,       24.0412,            0.,NA,NA,"",   4.60934E-03,  -4.08852E-03,  -2.12839E-03,   8.87526E-06
C:/temp/dataset/8/16_8.odb,Step-1,Increment      1: Step Time =    1.000,"PART-1-1",           530,      -6.78352,       24.7872,            0.,NA,NA,"",   4.61454E-03,  -3.92924E-03,  -2.41972E-03,   8.07809E-06
C:/temp/dataset/8/16_8.odb,Step-1,Increment      1: Step Time =    1.000,"PART-1-1",           531,      -7.39696,       25.9076,            0.,NA,NA,"",   4.36250E-03,  -3.70485E-03,  -2.30337E-03,   6.44493E-06
C:/temp/dataset/8/16_8.odb,Step-1,Increment      1: Step Time =    1.000,"PART-1-1",           532,      -12.4766,       28.8569,            0.,NA,NA,"",   3.39059E-03,  -3.12475E-03,  -1.31608E-03,   2.16499E-06
C:/temp/dataset/8/16_8.odb,Step-1,Increment      1: Step Time =    1.000,"PART-1-1",           533,        -13.75,           30.,            0.,NA,NA,"",   3.08871E-03,  -2.89906E-03,  -1.06564E-03,   347.042E-09
C:/temp/dataset/8/16_8.odb,Step-1,Increment      1: Step Time =    1.000,"PART-1-1",           534,          -15.,         28.75,            0.,NA,NA,"",   3.25140E-03,  -3.14679E-03,  -818.112E-06,   348.784E-09
C:/temp/dataset/8/16_8.odb,Step-1,Increment      1: Step Time =    1.000,"PART-1-1",           535,      -7.56181,       16.2193,            0.,NA,NA,"",   5.99922E-03,  -5.58826E-03,  -2.18218E-03,   17.0828E-06
C:/temp/dataset/8/16_8.odb,Step-1,Increment      1: Step Time =    1.000,"PART-1-1",           536,      -6.27841,       15.0000,            0.,NA,NA,"",   6.24789E-03,  -5.78164E-03,  -2.36830E-03,   26.4839E-06
C:/temp/dataset/8/16_8.odb,Step-1,Increment      1: Step Time =    1.000,"PART-1-1",           537,           -5.,         16.25,            0.,NA,NA,"",   6.13820E-03,  -5.55417E-03,  -2.61318E-03,   33.1175E-06
C:/temp/dataset/8/16_8.odb,Step-1,Increment      1: Step Time =    1.000,"PART-1-1",           538,      -8.82455,       15.0032,            0.,NA,NA,"",   6.12439E-03,  -5.80111E-03,  -1.96348E-03,   11.3357E-06
C:/temp/dataset/8/16_8.odb,Step-1,Increment      1: Step Time =    1.000,"PART-1-1",           539,      -10.0916,       16.2233,            0.,NA,NA,"",   5.86778E-03,  -5.59569E-03,  -1.76611E-03,   7.08397E-06
C:/temp/dataset/8/16_8.odb,Step-1,Increment      1: Step Time =    1.000,"PART-1-1",           540,      -13.7530,       10.0200,            0.,NA,NA,"",   6.66949E-03,  -6.54552E-03,  -1.27993E-03,   24.4167E-06
C:/temp/dataset/8/16_8.odb,Step-1,Increment      1: Step Time =    1.000,"PART-1-1",           541,      -12.5412,       11.2886,            0.,NA,NA,"",   6.53351E-03,  -6.37672E-03,  -1.42277E-03,   15.7407E-06
C:/temp/dataset/8/16_8.odb,Step-1,Increment      1: Step Time =    1.000,"PART-1-1",           542,          -15.,         11.25,            0.,NA,NA,"",   6.44717E-03,  -6.35676E-03,  -1.07593E-03,   31.3540E-06
C:/temp/dataset/8/16_8.odb,Step-1,Increment      1: Step Time =    1.000,"PART-1-1",           543,      -7.55812,       13.7752,            0.,NA,NA,"",   6.36560E-03,  -5.99379E-03,  -2.14368E-03,   19.7145E-06
C:/temp/dataset/8/16_8.odb,Step-1,Increment      1: Step Time =    1.000,"PART-1-1",           544,      -6.27971,       12.5252,            0.,NA,NA,"",   6.59118E-03,  -6.17435E-03,  -2.30674E-03,   29.2453E-06
C:/temp/dataset/8/16_8.odb,Step-1,Increment      1: Step Time =    1.000,"PART-1-1",           545,           -5.,         13.75,            0.,NA,NA,"",   6.48342E-03,  -5.96632E-03,  -2.53730E-03,   36.2278E-06
C:/temp/dataset/8/16_8.odb,Step-1,Increment      1: Step Time =    1.000,"PART-1-1",           546,      -7.73665,       8.67409,            0.,NA,NA,"",   7.01999E-03,  -6.72026E-03,  -2.02936E-03,   22.1510E-06
C:/temp/dataset/8/16_8.odb,Step-1,Increment      1: Step Time =    1.000,"PART-1-1",           547,      -6.44095,       7.39158,            0.,NA,NA,"",   7.17253E-03,  -6.84502E-03,  -2.14265E-03,   32.6408E-06
C:/temp/dataset/8/16_8.odb,Step-1,Increment      1: Step Time =    1.000,"PART-1-1",           548,           -5.,          8.75,            0.,NA,NA,"",   7.07178E-03,  -6.67005E-03,  -2.34958E-03,   45.1066E-06
C:/temp/dataset/8/16_8.odb,Step-1,Increment      1: Step Time =    1.000,"PART-1-1",           549,      -6.29569,       10.0325,            0.,NA,NA,"",   6.90257E-03,  -6.53045E-03,  -2.23576E-03,   32.1467E-06
C:/temp/dataset/8/16_8.odb,Step-1,Increment      1: Step Time =    1.000,"PART-1-1",           550,      -10.9758,       6.36562,            0.,NA,NA,"",   7.21947E-03,  -7.02838E-03,  -1.65002E-03,   16.7210E-06
C:/temp/dataset/8/16_8.odb,Step-1,Increment      1: Step Time =    1.000,"PART-1-1",           551,      -11.8413,       4.12979,            0.,NA,NA,"",   7.46473E-03,  -7.29446E-03,  -1.58526E-03,   31.2820E-06
C:/temp/dataset/8/16_8.odb,Step-1,Increment      1: Step Time =    1.000,"PART-1-1",           552,      -10.3546,       4.57877,            0.,NA,NA,"",   7.42554E-03,  -7.23017E-03,  -1.69213E-03,   31.4801E-06
C:/temp/dataset/8/16_8.odb,Step-1,Increment      1: Step Time =    1.000,"PART-1-1",           553,      -7.08205,   206.599E-03,            0.,NA,NA,"",   7.83704E-03,  -7.64326E-03,  -1.73198E-03,   65.9836E-06
C:/temp/dataset/8/16_8.odb,Step-1,Increment      1: Step Time =    1.000,"PART-1-1",           554,      -6.69954,      -1.33924,            0.,NA,NA,"",   7.96917E-03,  -7.79153E-03,  -1.67327E-03,   86.0109E-06
C:/temp/dataset/8/16_8.odb,Step-1,Increment      1: Step Time =    1.000,"PART-1-1",           555,      -5.21800,      -1.06475,            0.,NA,NA,"",   7.98372E-03,  -7.75977E-03,  -1.87772E-03,   100.705E-06
C:/temp/dataset/8/16_8.odb,Step-1,Increment      1: Step Time =    1.000,"PART-1-1",           556,      -5.60050,   481.094E-03,            0.,NA,NA,"",   7.81312E-03,  -7.57599E-03,  -1.91030E-03,   61.9598E-06
C:/temp/dataset/8/16_8.odb,Step-1,Increment      1: Step Time =    1.000,"PART-1-1",           557,      -4.73446,       1.39984,            0.,NA,NA,"",   7.72298E-03,  -7.43189E-03,  -2.10034E-03,   57.6969E-06
C:/temp/dataset/8/16_8.odb,Step-1,Increment      1: Step Time =    1.000,"PART-1-1",           558,      -3.61900,   109.065E-03,            0.,NA,NA,"",   7.94785E-03,  -7.60729E-03,  -2.30163E-03,   95.8587E-06
C:/temp/dataset/8/16_8.odb,Step-1,Increment      1: Step Time =    1.000,"PART-1-1",           559,      -7.98156,      -4.65830,            0.,NA,NA,"",   7.87916E-03,  -7.72996E-03,  -1.52608E-03,   118.707E-06
C:/temp/dataset/8/16_8.odb,Step-1,Increment      1: Step Time =    1.000,"PART-1-1",           560,      -6.28336,      -5.33649,            0.,NA,NA,"",   7.88967E-03,  -7.76123E-03,  -1.41781E-03,   288.261E-06
C:/temp/dataset/8/16_8.odb,Step-1,Increment      1: Step Time =    1.000,"PART-1-1",           561,      -5.33231,      -3.67126,            0.,NA,NA,"",   8.12120E-03,  -7.96562E-03,  -1.58203E-03,   251.601E-06
C:/temp/dataset/8/16_8.odb,Step-1,Increment      1: Step Time =    1.000,"PART-1-1",           562,      -7.03052,      -2.99307,            0.,NA,NA,"",   8.04400E-03,  -7.89336E-03,  -1.54948E-03,   98.7209E-06
C:/temp/dataset/8/16_8.odb,Step-1,Increment      1: Step Time =    1.000,"PART-1-1",           563,      -9.50974,      -4.32763,            0.,NA,NA,"",   7.84831E-03,  -7.68048E-03,  -1.61438E-03,   73.1107E-06
C:/temp/dataset/8/16_8.odb,Step-1,Increment      1: Step Time =    1.000,"PART-1-1",           564,      -9.07232,      -2.62983,            0.,NA,NA,"",   7.97723E-03,  -7.81667E-03,  -1.59242E-03,   59.9283E-06
C:/temp/dataset/8/16_8.odb,Step-1,Increment      1: Step Time =    1.000,"PART-1-1",           565,      -11.0121,      -2.25769,            0.,NA,NA,"",   7.94230E-03,  -7.76324E-03,  -1.67698E-03,   41.6578E-06
C:/temp/dataset/8/16_8.odb,Step-1,Increment      1: Step Time =    1.000,"PART-1-1",           566,      -11.4495,      -3.95549,            0.,NA,NA,"",   7.84254E-03,  -7.64392E-03,  -1.75379E-03,   51.9031E-06
C:/temp/dataset/8/16_8.odb,Step-1,Increment      1: Step Time =    1.000,"PART-1-1",           567,      -12.8102,      -6.09114,            0.,NA,NA,"",   7.50251E-03,  -7.23359E-03,  -1.99071E-03,   74.9632E-06
C:/temp/dataset/8/16_8.odb,Step-1,Increment      1: Step Time =    1.000,"PART-1-1",           568,          -15.,         -6.25,            0.,NA,NA,"",   7.49935E-03,  -7.10869E-03,  -2.38888E-03,   118.726E-06
C:/temp/dataset/8/16_8.odb,Step-1,Increment      1: Step Time =    1.000,"PART-1-1",           569,      -12.4910,      -11.2807,            0.,NA,NA,"",   5.90290E-03,  -5.56663E-03,  -1.96387E-03,   124.345E-06
C:/temp/dataset/8/16_8.odb,Step-1,Increment      1: Step Time =    1.000,"PART-1-1",           570,      -11.2625,      -12.5870,            0.,NA,NA,"",   5.30668E-03,  -5.03557E-03,  -1.67446E-03,   146.410E-06
C:/temp/dataset/8/16_8.odb,Step-1,Increment      1: Step Time =    1.000,"PART-1-1",           571,      -9.99448,      -11.3836,            0.,NA,NA,"",   5.68477E-03,  -5.47986E-03,  -1.51252E-03,   159.701E-06
C:/temp/dataset/8/16_8.odb,Step-1,Increment      1: Step Time =    1.000,"PART-1-1",           572,      -13.7563,      -12.5333,            0.,NA,NA,"",   5.57947E-03,  -5.12891E-03,  -2.19653E-03,   94.0579E-06
C:/temp/dataset/8/16_8.odb,Step-1,Increment      1: Step Time =    1.000,"PART-1-1",           573,          -15.,        -11.25,            0.,NA,NA,"",   6.20238E-03,  -5.61629E-03,  -2.63189E-03,   31.0073E-06
C:/temp/dataset/8/16_8.odb,Step-1,Increment      1: Step Time =    1.000,"PART-1-1",           574,      -8.71470,      -10.1608,            0.,NA,NA,"",   6.08730E-03,  -5.93648E-03,  -1.34664E-03,   149.550E-06
C:/temp/dataset/8/16_8.odb,Step-1,Increment      1: Step Time =    1.000,"PART-1-1",           575,      -7.42250,      -8.98868,            0.,NA,NA,"",   6.46909E-03,  -6.36034E-03,  -1.18117E-03,   164.568E-06
C:/temp/dataset/8/16_8.odb,Step-1,Increment      1: Step Time =    1.000,"PART-1-1",           576,      -8.58559,      -7.84754,            0.,NA,NA,"",   6.96498E-03,  -6.80965E-03,  -1.46277E-03,   169.130E-06
C:/temp/dataset/8/16_8.odb,Step-1,Increment      1: Step Time =    1.000,"PART-1-1",           577,      -7.50843,      -13.8545,            0.,NA,NA,"",   4.54307E-03,  -4.44212E-03,  -952.419E-06,   119.190E-06
C:/temp/dataset/8/16_8.odb,Step-1,Increment      1: Step Time =    1.000,"PART-1-1",           578,      -6.25915,      -15.0553,            0.,NA,NA,"",   4.03415E-03,  -3.98365E-03,  -636.311E-06,   68.8030E-06
C:/temp/dataset/8/16_8.odb,Step-1,Increment      1: Step Time =    1.000,"PART-1-1",           579,           -5.,        -13.75,            0.,NA,NA,"",   4.47417E-03,  -4.46857E-03,  -223.663E-06,   19.6168E-06
C:/temp/dataset/8/16_8.odb,Step-1,Increment      1: Step Time =    1.000,"PART-1-1",           580,      -6.24927,      -12.5492,            0.,NA,NA,"",   4.97984E-03,  -4.93661E-03,  -654.757E-06,   66.6960E-06
C:/temp/dataset/8/16_8.odb,Step-1,Increment      1: Step Time =    1.000,"PART-1-1",           581,      -11.2908,      -17.6967,            0.,NA,NA,"",   3.58242E-03,  -3.36459E-03,  -1.23015E-03,   178.824E-06
C:/temp/dataset/8/16_8.odb,Step-1,Increment      1: Step Time =    1.000,"PART-1-1",           582,      -12.6364,      -18.8537,            0.,NA,NA,"",   3.54800E-03,  -3.31753E-03,  -1.25790E-03,   161.313E-06
C:/temp/dataset/8/16_8.odb,Step-1,Increment      1: Step Time =    1.000,"PART-1-1",           583,      -11.4151,      -20.3877,            0.,NA,NA,"",   3.17861E-03,  -3.06649E-03,  -836.787E-06,   201.467E-06
C:/temp/dataset/8/16_8.odb,Step-1,Increment      1: Step Time =    1.000,"PART-1-1",           584,      -10.0695,      -19.2307,            0.,NA,NA,"",   3.08114E-03,  -2.96281E-03,  -845.684E-06,   211.291E-06
C:/temp/dataset/8/16_8.odb,Step-1,Increment      1: Step Time =    1.000,"PART-1-1",           585,      -7.51548,      -16.3910,            0.,NA,NA,"",   3.55734E-03,  -3.43026E-03,  -942.342E-06,   199.245E-06
C:/temp/dataset/8/16_8.odb,Step-1,Increment      1: Step Time =    1.000,"PART-1-1",           586,      -6.25633,      -17.5856,            0.,NA,NA,"",   2.99504E-03,  -2.87235E-03,  -848.453E-06,   193.733E-06
C:/temp/dataset/8/16_8.odb,Step-1,Increment      1: Step Time =    1.000,"PART-1-1",           587,           -5.,        -16.25,            0.,NA,NA,"",   3.57724E-03,  -3.56779E-03,  -259.861E-06,   127.420E-06
C:/temp/dataset/8/16_8.odb,Step-1,Increment      1: Step Time =    1.000,"PART-1-1",           588,      -10.0186,      -13.8764,            0.,NA,NA,"",   4.70914E-03,  -4.49563E-03,  -1.40190E-03,   163.522E-06
C:/temp/dataset/8/16_8.odb,Step-1,Increment      1: Step Time =    1.000,"PART-1-1",           589,      -8.77159,      -15.1281,            0.,NA,NA,"",   4.13423E-03,  -3.97165E-03,  -1.14800E-03,   159.777E-06
C:/temp/dataset/8/16_8.odb,Step-1,Increment      1: Step Time =    1.000,"PART-1-1",           590,      -8.75544,      -12.6029,            0.,NA,NA,"",   5.11784E-03,  -4.96489E-03,  -1.24184E-03,   138.354E-06
C:/temp/dataset/8/16_8.odb,Step-1,Increment      1: Step Time =    1.000,"PART-1-1",           591,      -7.46407,      -18.9773,            0.,NA,NA,"",   2.57140E-03,  -2.42209E-03,  -863.485E-06,   294.610E-06
C:/temp/dataset/8/16_8.odb,Step-1,Increment      1: Step Time =    1.000,"PART-1-1",           592,      -8.77449,      -17.7191,            0.,NA,NA,"",   3.22791E-03,  -3.06796E-03,  -1.00349E-03,   227.364E-06
C:/temp/dataset/8/16_8.odb,Step-1,Increment      1: Step Time =    1.000,"PART-1-1",           593,      -8.75908,      -20.4889,            0.,NA,NA,"",   2.75370E-03,  -2.70152E-03,  -533.545E-06,   299.367E-06
C:/temp/dataset/8/16_8.odb,Step-1,Increment      1: Step Time =    1.000,"PART-1-1",           594,      -14.0314,      -22.4081,            0.,NA,NA,"",   3.35468E-03,  -3.19710E-03,  -1.01611E-03,   115.777E-06
C:/temp/dataset/8/16_8.odb,Step-1,Increment      1: Step Time =    1.000,"PART-1-1",           595,      -12.8952,      -21.1986,            0.,NA,NA,"",   3.32215E-03,  -3.17897E-03,  -964.816E-06,   168.404E-06
C:/temp/dataset/8/16_8.odb,Step-1,Increment      1: Step Time =    1.000,"PART-1-1",           596,      -13.8638,      -20.0405,            0.,NA,NA,"",   3.54691E-03,  -3.30991E-03,  -1.27478E-03,   173.672E-06
C:/temp/dataset/8/16_8.odb,Step-1,Increment      1: Step Time =    1.000,"PART-1-1",           597,          -15.,        -21.25,            0.,NA,NA,"",   3.53573E-03,  -3.31155E-03,  -1.23897E-03,   127.912E-06
C:/temp/dataset/8/16_8.odb,Step-1,Increment      1: Step Time =    1.000,"PART-1-1",           598,      -11.2673,      -23.1539,            0.,NA,NA,"",   3.10741E-03,  -3.07416E-03,  -453.346E-06,   145.618E-06
C:/temp/dataset/8/16_8.odb,Step-1,Increment      1: Step Time =    1.000,"PART-1-1",           599,      -10.1366,      -23.6180,            0.,NA,NA,"",   3.10831E-03,  -3.09663E-03,  -269.172E-06,   158.058E-06
C:/temp/dataset/8/16_8.odb,Step-1,Increment      1: Step Time =    1.000,"PART-1-1",           600,      -9.65781,      -21.9912,            0.,NA,NA,"",   3.00003E-03,  -2.97661E-03,  -374.123E-06,   191.044E-06
C:/temp/dataset/8/16_8.odb,Step-1,Increment      1: Step Time =    1.000,"PART-1-1",           601,      -10.7884,      -21.5271,            0.,NA,NA,"",   3.07470E-03,  -3.02118E-03,  -571.204E-06,   201.633E-06
C:/temp/dataset/8/16_8.odb,Step-1,Increment      1: Step Time =    1.000,"PART-1-1",           602,          -15.,        -28.75,            0.,NA,NA,"",   1.18591E-03,  -1.00699E-03,  -626.375E-06,   474.354E-06
C:/temp/dataset/8/16_8.odb,Step-1,Increment      1: Step Time =    1.000,"PART-1-1",           603,        -13.75,          -30.,            0.,NA,NA,"",            0.,  -198.693E-42,  -550.871E-42,   609.198E-06
C:/temp/dataset/8/16_8.odb,Step-1,Increment      1: Step Time =    1.000,"PART-1-1",           604,      -2.48436,      -28.8316,            0.,NA,NA,"",   2.51487E-03,  -2.12139E-03,  -1.35066E-03,   1.91747E-03
C:/temp/dataset/8/16_8.odb,Step-1,Increment      1: Step Time =    1.000,"PART-1-1",           605,      -3.66464,      -27.6979,            0.,NA,NA,"",   4.01184E-03,  -3.55261E-03,  -1.86381E-03,   1.50067E-03
C:/temp/dataset/8/16_8.odb,Step-1,Increment      1: Step Time =    1.000,"PART-1-1",           606,         -3.75,          -30.,            0.,NA,NA,"",            0.,  -1.31114E-39,  -2.12042E-39,   1.70814E-03
C:/temp/dataset/8/16_8.odb,Step-1,Increment      1: Step Time =    1.000,"PART-1-1",           607,      -3.65817,      -25.2536,            0.,NA,NA,"",   6.13957E-03,  -5.10654E-03,  -3.40846E-03,   1.45273E-03
C:/temp/dataset/8/16_8.odb,Step-1,Increment      1: Step Time =    1.000,"PART-1-1",           608,      -2.51119,      -23.8961,            0.,NA,NA,"",   8.50588E-03,  -5.42202E-03,  -6.55375E-03,   1.92770E-03
C:/temp/dataset/8/16_8.odb,Step-1,Increment      1: Step Time =    1.000,"PART-1-1",           609,      -3.67574,      -22.6579,            0.,NA,NA,"",   5.59939E-03,  -4.12899E-03,  -3.78214E-03,   923.412E-06
C:/temp/dataset/8/16_8.odb,Step-1,Increment      1: Step Time =    1.000,"PART-1-1",           610,      -1.29318,      -22.5899,            0.,NA,NA,"",   13.3879E-03,  -4.82265E-03,  -12.4891E-03,   3.33423E-03
C:/temp/dataset/8/16_8.odb,Step-1,Increment      1: Step Time =    1.000,"PART-1-1",           611,  -38.5445E-03,      -21.2879,            0.,NA,NA,"",   22.8569E-03,  -3.16747E-03,  -22.6364E-03,   5.04774E-03
C:/temp/dataset/8/16_8.odb,Step-1,Increment      1: Step Time =    1.000,"PART-1-1",           612,         -1.25,          -20.,            0.,NA,NA,"",   13.9747E-03,   4.37730E-03,  -13.2715E-03,   815.935E-06
C:/temp/dataset/8/16_8.odb,Step-1,Increment      1: Step Time =    1.000,"PART-1-1",           613,      -2.50464,      -21.3020,            0.,NA,NA,"",   7.40700E-03,  -1.76977E-03,  -7.19246E-03,   652.239E-06
C:/temp/dataset/8/16_8.odb,Step-1,Increment      1: Step Time =    1.000,"PART-1-1",           614,       6.00193,      -26.4828,            0.,NA,NA,"",   7.97032E-03,   4.56741E-03,  -6.53183E-03,   2.67879E-03
C:/temp/dataset/8/16_8.odb,Step-1,Increment      1: Step Time =    1.000,"PART-1-1",           615,       6.71688,      -27.7553,            0.,NA,NA,"",   5.05407E-03,   3.65366E-03,  -3.49204E-03,   2.31321E-03
C:/temp/dataset/8/16_8.odb,Step-1,Increment      1: Step Time =    1.000,"PART-1-1",           616,       8.27191,      -26.8508,            0.,NA,NA,"",   6.11615E-03,   5.02672E-03,  -3.48415E-03,   1.78146E-03
C:/temp/dataset/8/16_8.odb,Step-1,Increment      1: Step Time =    1.000,"PART-1-1",           617,       7.55696,      -25.5783,            0.,NA,NA,"",   8.28994E-03,   5.87117E-03,  -5.85256E-03,   2.08792E-03
C:/temp/dataset/8/16_8.odb,Step-1,Increment      1: Step Time =    1.000,"PART-1-1",           618,       1.28220,      -22.6790,            0.,NA,NA,"",   23.6424E-03,  -1.85531E-03,  -23.5695E-03,   5.74729E-03
C:/temp/dataset/8/16_8.odb,Step-1,Increment      1: Step Time =    1.000,"PART-1-1",           619,       2.57074,      -21.3912,            0.,NA,NA,"",   32.7603E-03,   1.89745E-03,  -32.7053E-03,   7.43398E-03
C:/temp/dataset/8/16_8.odb,Step-1,Increment      1: Step Time =    1.000,"PART-1-1",           620,          1.25,          -20.,            0.,NA,NA,"",   38.9570E-03,   3.47357E-03,  -38.8018E-03,   6.72451E-03
C:/temp/dataset/8/16_8.odb,Step-1,Increment      1: Step Time =    1.000,"PART-1-1",           621,       2.23882,      -25.9818,            0.,NA,NA,"",   11.0865E-03,  -64.7623E-06,  -11.0863E-03,   3.95002E-03
C:/temp/dataset/8/16_8.odb,Step-1,Increment      1: Step Time =    1.000,"PART-1-1",           622,       3.60539,      -25.7966,            0.,NA,NA,"",   11.5135E-03,   2.29106E-03,  -11.2833E-03,   3.73102E-03
C:/temp/dataset/8/16_8.odb,Step-1,Increment      1: Step Time =    1.000,"PART-1-1",           623,       3.51945,      -23.6994,            0.,NA,NA,"",   19.4745E-03,   3.22036E-03,  -19.2064E-03,   5.25314E-03
C:/temp/dataset/8/16_8.odb,Step-1,Increment      1: Step Time =    1.000,"PART-1-1",           624,       2.15288,      -23.8846,            0.,NA,NA,"",   19.5280E-03,  -167.460E-06,  -19.5272E-03,   5.41558E-03
C:/temp/dataset/8/16_8.odb,Step-1,Increment      1: Step Time =    1.000,"PART-1-1",           625,       7.70422,      -28.9586,            0.,NA,NA,"",   2.48114E-03,   2.12615E-03,  -1.27888E-03,   2.04952E-03
C:/temp/dataset/8/16_8.odb,Step-1,Increment      1: Step Time =    1.000,"PART-1-1",           626,       5.26266,      -28.7967,            0.,NA,NA,"",   2.82412E-03,   1.73361E-03,  -2.22941E-03,   2.60047E-03
C:/temp/dataset/8/16_8.odb,Step-1,Increment      1: Step Time =    1.000,"PART-1-1",           627,          6.25,          -30.,            0.,NA,NA,"",            0.,   1.29057E-39,  -3.67535E-39,   2.28457E-03
C:/temp/dataset/8/16_8.odb,Step-1,Increment      1: Step Time =    1.000,"PART-1-1",           628,       12.0997,      -20.6264,            0.,NA,NA,"",   3.28646E-03,   1.96007E-03,  -2.63798E-03,   492.741E-06
C:/temp/dataset/8/16_8.odb,Step-1,Increment      1: Step Time =    1.000,"PART-1-1",           629,       11.2927,      -21.6255,            0.,NA,NA,"",   4.59603E-03,   3.37126E-03,  -3.12380E-03,   446.150E-06
C:/temp/dataset/8/16_8.odb,Step-1,Increment      1: Step Time =    1.000,"PART-1-1",           630,       12.1482,      -22.5490,            0.,NA,NA,"",   5.02206E-03,   4.50261E-03,  -2.22432E-03,   315.236E-06
C:/temp/dataset/8/16_8.odb,Step-1,Increment      1: Step Time =    1.000,"PART-1-1",           631,       12.9553,      -21.5498,            0.,NA,NA,"",   3.74298E-03,   3.31689E-03,  -1.73440E-03,   357.591E-06
C:/temp/dataset/8/16_8.odb,Step-1,Increment      1: Step Time =    1.000,"PART-1-1",           632,         13.75,          -30.,            0.,NA,NA,"",            0.,   650.914E-42,  -1.18466E-39,   1.49107E-03
C:/temp/dataset/8/16_8.odb,Step-1,Increment      1: Step Time =    1.000,"PART-1-1",           633,           15.,      -28.7625,            0.,NA,NA,"",   2.66770E-03,   2.35204E-03,  -1.25878E-03,   939.814E-06
C:/temp/dataset/8/16_8.odb,Step-1,Increment      1: Step Time =    1.000,"PART-1-1",           634,       13.7776,      -27.6227,            0.,NA,NA,"",   4.02872E-03,   3.93945E-03,  -843.420E-06,   633.572E-06
C:/temp/dataset/8/16_8.odb,Step-1,Increment      1: Step Time =    1.000,"PART-1-1",           635,           15.,      -26.2875,            0.,NA,NA,"",   5.53965E-03,   5.29601E-03,  -1.62480E-03,   220.528E-06
C:/temp/dataset/8/16_8.odb,Step-1,Increment      1: Step Time =    1.000,"PART-1-1",           636,       13.5918,      -25.0908,            0.,NA,NA,"",   5.90833E-03,   5.77413E-03,  -1.25211E-03,   169.834E-06
C:/temp/dataset/8/16_8.odb,Step-1,Increment      1: Step Time =    1.000,"PART-1-1",           637,       12.3694,      -26.4260,            0.,NA,NA,"",   5.38472E-03,   5.22852E-03,  -1.28753E-03,   815.071E-06
C:/temp/dataset/8/16_8.odb,Step-1,Increment      1: Step Time =    1.000,"PART-1-1",           638,       13.9605,      -22.6420,            0.,NA,NA,"",   4.63793E-03,   4.54388E-03,  -929.310E-06,   195.708E-06
C:/temp/dataset/8/16_8.odb,Step-1,Increment      1: Step Time =    1.000,"PART-1-1",           639,       12.5523,      -23.9204,            0.,NA,NA,"",   5.81417E-03,   5.54750E-03,  -1.74061E-03,   248.141E-06
C:/temp/dataset/8/16_8.odb,Step-1,Increment      1: Step Time =    1.000,"PART-1-1",           640,           15.,      -23.8125,            0.,NA,NA,"",   5.30209E-03,   5.27384E-03,  -546.592E-06,   409.824E-06
C:/temp/dataset/8/16_8.odb,Step-1,Increment      1: Step Time =    1.000,"PART-1-1",           641,           15.,      -21.3375,            0.,NA,NA,"",   3.01938E-03,   3.00849E-03,   256.217E-06,   170.671E-06
C:/temp/dataset/8/16_8.odb,Step-1,Increment      1: Step Time =    1.000,"PART-1-1",           642,       7.29123,      -18.3998,            0.,NA,NA,"",   10.9016E-03,  -3.24056E-03,  -10.4088E-03,   876.221E-06
C:/temp/dataset/8/16_8.odb,Step-1,Increment      1: Step Time =    1.000,"PART-1-1",           643,       6.16190,      -17.3915,            0.,NA,NA,"",   13.5006E-03,  -4.52651E-03,  -12.7191E-03,   894.585E-06
C:/temp/dataset/8/16_8.odb,Step-1,Increment      1: Step Time =    1.000,"PART-1-1",           644,            5.,        -18.75,            0.,NA,NA,"",   17.3624E-03,  -2.70670E-03,  -17.1501E-03,   3.32976E-03
C:/temp/dataset/8/16_8.odb,Step-1,Increment      1: Step Time =    1.000,"PART-1-1",           645,       6.12933,      -19.7583,            0.,NA,NA,"",   13.5818E-03,  -1.44230E-03,  -13.5050E-03,   1.22909E-03
C:/temp/dataset/8/16_8.odb,Step-1,Increment      1: Step Time =    1.000,"PART-1-1",           646,       9.51257,      -18.2945,            0.,NA,NA,"",   6.69157E-03,  -2.46010E-03,  -6.22294E-03,   514.028E-06
C:/temp/dataset/8/16_8.odb,Step-1,Increment      1: Step Time =    1.000,"PART-1-1",           647,       10.1101,      -19.3444,            0.,NA,NA,"",   5.11644E-03,  -520.304E-06,  -5.08992E-03,   524.204E-06
C:/temp/dataset/8/16_8.odb,Step-1,Increment      1: Step Time =    1.000,"PART-1-1",           648,       11.5966,      -18.6396,            0.,NA,NA,"",   3.92710E-03,  -1.30045E-03,  -3.70553E-03,   536.699E-06
C:/temp/dataset/8/16_8.odb,Step-1,Increment      1: Step Time =    1.000,"PART-1-1",           649,       10.5568,      -11.7080,            0.,NA,NA,"",   10.4861E-03,  -8.54159E-03,  -6.08271E-03,   151.773E-06
C:/temp/dataset/8/16_8.odb,Step-1,Increment      1: Step Time =    1.000,"PART-1-1",           650,       11.5580,      -12.7427,            0.,NA,NA,"",   9.46612E-03,  -7.88306E-03,  -5.24069E-03,   195.174E-06
C:/temp/dataset/8/16_8.odb,Step-1,Increment      1: Step Time =    1.000,"PART-1-1",           651,       12.7592,      -11.5531,            0.,NA,NA,"",   9.61132E-03,  -8.42930E-03,  -4.61784E-03,   292.154E-06
C:/temp/dataset/8/16_8.odb,Step-1,Increment      1: Step Time =    1.000,"PART-1-1",           652,       5.97400,      -7.48832,            0.,NA,NA,"",   11.8760E-03,  -9.35996E-03,  -7.30964E-03,   433.115E-06
C:/temp/dataset/8/16_8.odb,Step-1,Increment      1: Step Time =    1.000,"PART-1-1",           653,            5.,         -8.75,            0.,NA,NA,"",   12.0273E-03,  -8.89052E-03,  -8.10022E-03,   561.341E-06
C:/temp/dataset/8/16_8.odb,Step-1,Increment      1: Step Time =    1.000,"PART-1-1",           654,       6.96466,      -8.62400,            0.,NA,NA,"",   11.9680E-03,  -9.32755E-03,  -7.49873E-03,   355.804E-06
C:/temp/dataset/8/16_8.odb,Step-1,Increment      1: Step Time =    1.000,"PART-1-1",           655,       13.4824,      -5.05044,            0.,NA,NA,"",   11.1243E-03,  -9.47427E-03,  -5.82990E-03,   216.873E-06
C:/temp/dataset/8/16_8.odb,Step-1,Increment      1: Step Time =    1.000,"PART-1-1",           656,           15.,      -6.28125,            0.,NA,NA,"",   10.8208E-03,  -9.33832E-03,  -5.46674E-03,   351.813E-06
C:/temp/dataset/8/16_8.odb,Step-1,Increment      1: Step Time =    1.000,"PART-1-1",           657,       12.6591,      -1.12439,            0.,NA,NA,"",   10.7916E-03,  -8.79986E-03,  -6.24676E-03,   129.123E-06
C:/temp/dataset/8/16_8.odb,Step-1,Increment      1: Step Time =    1.000,"PART-1-1",           658,       13.8600,      -2.43742,            0.,NA,NA,"",   10.9814E-03,  -9.04510E-03,  -6.22716E-03,   150.744E-06
C:/temp/dataset/8/16_8.odb,Step-1,Increment      1: Step Time =    1.000,"PART-1-1",           659,           15.,      -1.25625,            0.,NA,NA,"",   10.9112E-03,  -8.73490E-03,  -6.53876E-03,   132.621E-06
C:/temp/dataset/8/16_8.odb,Step-1,Increment      1: Step Time =    1.000,"PART-1-1",           660,       5.30074,       3.65708,            0.,NA,NA,"",   8.93335E-03,  -7.28167E-03,  -5.17513E-03,   99.0724E-06
C:/temp/dataset/8/16_8.odb,Step-1,Increment      1: Step Time =    1.000,"PART-1-1",           661,       7.62947,       4.43985,            0.,NA,NA,"",   9.18619E-03,  -7.31529E-03,  -5.55631E-03,   74.2396E-06
C:/temp/dataset/8/16_8.odb,Step-1,Increment      1: Step Time =    1.000,"PART-1-1",           662,       6.09164,       5.20441,            0.,NA,NA,"",   8.82310E-03,  -7.09014E-03,  -5.25138E-03,   85.0757E-06
C:/temp/dataset/8/16_8.odb,Step-1,Increment      1: Step Time =    1.000,"PART-1-1",           663,       10.7729,       2.25312,            0.,NA,NA,"",   10.0140E-03,  -7.94289E-03,  -6.09835E-03,   83.5830E-06
C:/temp/dataset/8/16_8.odb,Step-1,Increment      1: Step Time =    1.000,"PART-1-1",           664,       10.9515,       3.76013,            0.,NA,NA,"",   9.74469E-03,  -7.60488E-03,  -6.09302E-03,   52.2060E-06
C:/temp/dataset/8/16_8.odb,Step-1,Increment      1: Step Time =    1.000,"PART-1-1",           665,       8.98494,       4.06074,            0.,NA,NA,"",   9.44798E-03,  -7.46472E-03,  -5.79158E-03,   69.5928E-06
C:/temp/dataset/8/16_8.odb,Step-1,Increment      1: Step Time =    1.000,"PART-1-1",           666,           15.,       8.66250,            0.,NA,NA,"",   9.51330E-03,  -6.71059E-03,  -6.74321E-03,   9.58222E-06
C:/temp/dataset/8/16_8.odb,Step-1,Increment      1: Step Time =    1.000,"PART-1-1",           667,       13.0810,       8.82259,            0.,NA,NA,"",   9.25562E-03,  -6.67699E-03,  -6.40969E-03,   5.34702E-06
C:/temp/dataset/8/16_8.odb,Step-1,Increment      1: Step Time =    1.000,"PART-1-1",           668,       7.75239,       11.0444,            0.,NA,NA,"",   8.36240E-03,  -6.30511E-03,  -5.49322E-03,   4.30963E-06
C:/temp/dataset/8/16_8.odb,Step-1,Increment      1: Step Time =    1.000,"PART-1-1",           669,       6.56216,       12.4157,            0.,NA,NA,"",   8.06079E-03,  -6.08134E-03,  -5.29090E-03,   7.02651E-06
C:/temp/dataset/8/16_8.odb,Step-1,Increment      1: Step Time =    1.000,"PART-1-1",           670,            5.,         11.25,            0.,NA,NA,"",   8.04320E-03,  -6.26416E-03,  -5.04513E-03,   10.5161E-06
C:/temp/dataset/8/16_8.odb,Step-1,Increment      1: Step Time =    1.000,"PART-1-1",           671,       10.9687,       10.2381,            0.,NA,NA,"",   8.82803E-03,  -6.43874E-03,  -6.03959E-03,   7.04027E-06
C:/temp/dataset/8/16_8.odb,Step-1,Increment      1: Step Time =    1.000,"PART-1-1",           672,       9.89393,       9.91282,            0.,NA,NA,"",   8.74036E-03,  -6.48925E-03,  -5.85521E-03,   7.41026E-06
C:/temp/dataset/8/16_8.odb,Step-1,Increment      1: Step Time =    1.000,"PART-1-1",           673,       10.3396,       8.57072,            0.,NA,NA,"",   8.95681E-03,  -6.70791E-03,  -5.93535E-03,   7.64100E-06
C:/temp/dataset/8/16_8.odb,Step-1,Increment      1: Step Time =    1.000,"PART-1-1",           674,       11.4143,       8.89605,            0.,NA,NA,"",   9.04418E-03,  -6.65943E-03,  -6.11958E-03,   6.45747E-06
C:/temp/dataset/8/16_8.odb,Step-1,Increment      1: Step Time =    1.000,"PART-1-1",           675,       12.6608,       18.9269,            0.,NA,NA,"",   8.06978E-03,  -4.99318E-03,  -6.33953E-03,   3.92898E-06
C:/temp/dataset/8/16_8.odb,Step-1,Increment      1: Step Time =    1.000,"PART-1-1",           676,       13.7941,       17.5480,            0.,NA,NA,"",   8.37075E-03,  -5.23114E-03,  -6.53488E-03,   5.76658E-06
C:/temp/dataset/8/16_8.odb,Step-1,Increment      1: Step Time =    1.000,"PART-1-1",           677,           15.,       18.6938,            0.,NA,NA,"",   8.41975E-03,  -5.02729E-03,  -6.75415E-03,   8.85592E-06
C:/temp/dataset/8/16_8.odb,Step-1,Increment      1: Step Time =    1.000,"PART-1-1",           678,       11.2471,       27.2214,            0.,NA,NA,"",   6.99606E-03,  -3.43300E-03,  -6.09585E-03,   4.27877E-06
C:/temp/dataset/8/16_8.odb,Step-1,Increment      1: Step Time =    1.000,"PART-1-1",           679,       12.5374,       28.7023,            0.,NA,NA,"",   7.07729E-03,  -3.14840E-03,  -6.33843E-03,   2.07379E-06
C:/temp/dataset/8/16_8.odb,Step-1,Increment      1: Step Time =    1.000,"PART-1-1",           680,         11.25,           30.,            0.,NA,NA,"",   6.74859E-03,  -2.89877E-03,  -6.09430E-03,   2.72131E-06
C:/temp/dataset/8/16_8.odb,Step-1,Increment      1: Step Time =    1.000,"PART-1-1",           681,       8.10754,       23.1840,            0.,NA,NA,"",   6.93863E-03,  -4.21674E-03,  -5.51033E-03,   4.99164E-06
C:/temp/dataset/8/16_8.odb,Step-1,Increment      1: Step Time =    1.000,"PART-1-1",           682,       9.64263,       22.1457,            0.,NA,NA,"",   7.28533E-03,  -4.41287E-03,  -5.79678E-03,   3.70721E-06
C:/temp/dataset/8/16_8.odb,Step-1,Increment      1: Step Time =    1.000,"PART-1-1",           683,           15.,       28.7437,            0.,NA,NA,"",   7.49626E-03,  -3.14115E-03,  -6.80639E-03,   397.640E-09
C:/temp/dataset/8/16_8.odb,Step-1,Increment      1: Step Time =    1.000,"PART-1-1",           684,         13.75,           30.,            0.,NA,NA,"",   7.18046E-03,  -2.90136E-03,  -6.56819E-03,   399.278E-09
C:/temp/dataset/8/16_8.odb,Step-1,Increment      1: Step Time =    1.000,"PART-1-1",           685,       13.7874,       27.4460,            0.,NA,NA,"",   7.39719E-03,  -3.39032E-03,  -6.57451E-03,   2.04583E-06
C:/temp/dataset/8/16_8.odb,Step-1,Increment      1: Step Time =    1.000,"PART-1-1",           686,       7.12499,       6.45847,            0.,NA,NA,"",   8.83156E-03,  -6.98387E-03,  -5.40574E-03,   34.4180E-06
C:/temp/dataset/8/16_8.odb,Step-1,Increment      1: Step Time =    1.000,"PART-1-1",           687,            5.,          6.25,            0.,NA,NA,"",   8.64644E-03,  -6.99260E-03,  -5.08570E-03,   42.2562E-06
C:/temp/dataset/8/16_8.odb,Step-1,Increment      1: Step Time =    1.000,"PART-1-1",           688,       9.07752,      -27.9736,            0.,NA,NA,"",   4.17478E-03,   3.75682E-03,  -1.82074E-03,   1.66455E-03
C:/temp/dataset/8/16_8.odb,Step-1,Increment      1: Step Time =    1.000,"PART-1-1",           689,          8.75,          -30.,            0.,NA,NA,"",            0.,   1.46732E-39,  -2.42189E-39,   1.95432E-03
C:/temp/dataset/8/16_8.odb,Step-1,Increment      1: Step Time =    1.000,"PART-1-1",           690,           15.,       3.71250,            0.,NA,NA,"",   10.2186E-03,  -7.64187E-03,  -6.78385E-03,   9.80342E-06
C:/temp/dataset/8/16_8.odb,Step-1,Increment      1: Step Time =    1.000,"PART-1-1",           691,       12.3996,       4.14954,            0.,NA,NA,"",   9.83710E-03,  -7.54621E-03,  -6.31056E-03,   38.5192E-06
C:/temp/dataset/8/16_8.odb,Step-1,Increment      1: Step Time =    1.000,"PART-1-1",           692,       9.86779,       6.75734,            0.,NA,NA,"",   9.13686E-03,  -7.00338E-03,  -5.86812E-03,   19.1617E-06
C:/temp/dataset/8/16_8.odb,Step-1,Increment      1: Step Time =    1.000,"PART-1-1",           693,       8.81759,       6.48028,            0.,NA,NA,"",   9.04635E-03,  -7.02776E-03,  -5.69624E-03,   30.5611E-06
C:/temp/dataset/8/16_8.odb,Step-1,Increment      1: Step Time =    1.000,"PART-1-1",           694,       9.27664,       5.21437,            0.,NA,NA,"",   9.29064E-03,  -7.25882E-03,  -5.79876E-03,   42.4997E-06
C:/temp/dataset/8/16_8.odb,Step-1,Increment      1: Step Time =    1.000,"PART-1-1",           695,       10.3268,       5.49143,            0.,NA,NA,"",   9.37872E-03,  -7.23888E-03,  -5.96314E-03,   33.9434E-06
C:/temp/dataset/8/16_8.odb,Step-1,Increment      1: Step Time =    1.000,"PART-1-1",           696,   710.804E-03,      -25.0300,            0.,NA,NA,"",   13.2130E-03,  -2.87583E-03,  -12.8962E-03,   3.96646E-03
C:/temp/dataset/8/16_8.odb,Step-1,Increment      1: Step Time =    1.000,"PART-1-1",           697,  -159.879E-03,      -23.8244,            0.,NA,NA,"",   15.1468E-03,  -4.43970E-03,  -14.4816E-03,   4.01418E-03
C:/temp/dataset/8/16_8.odb,Step-1,Increment      1: Step Time =    1.000,"PART-1-1",           698,         -3.75,          -20.,            0.,NA,NA,"",   4.03332E-03,   456.177E-06,  -4.00744E-03,   1.33213E-03
C:/temp/dataset/8/16_8.odb,Step-1,Increment      1: Step Time =    1.000,"PART-1-1",           699,      -4.92110,      -21.3559,            0.,NA,NA,"",   2.66842E-03,  -2.22183E-03,  -1.47782E-03,   347.120E-06
C:/temp/dataset/8/16_8.odb,Step-1,Increment      1: Step Time =    1.000,"PART-1-1",           700,         -1.25,          -30.,            0.,NA,NA,"",            0.,  -1.20466E-39,  -3.46888E-39,   2.13275E-03
C:/temp/dataset/8/16_8.odb,Step-1,Increment      1: Step Time =    1.000,"PART-1-1",           701,      -1.24185,      -27.5805,            0.,NA,NA,"",   5.11636E-03,  -3.31593E-03,  -3.89638E-03,   2.31950E-03
C:/temp/dataset/8/16_8.odb,Step-1,Increment      1: Step Time =    1.000,"PART-1-1",           702,      -7.47566,      -11.3800,            0.,NA,NA,"",   5.52071E-03,  -5.42426E-03,  -1.02744E-03,   125.678E-06
C:/temp/dataset/8/16_8.odb,Step-1,Increment      1: Step Time =    1.000,"PART-1-1",           703,           -5.,        -11.25,            0.,NA,NA,"",   5.41184E-03,  -5.40345E-03,  -301.194E-06,   69.5313E-06
C:/temp/dataset/8/16_8.odb,Step-1,Increment      1: Step Time =    1.000,"PART-1-1",           704,      -6.22639,      -10.0808,            0.,NA,NA,"",   5.93626E-03,  -5.88374E-03,  -787.898E-06,   111.066E-06
C:/temp/dataset/8/16_8.odb,Step-1,Increment      1: Step Time =    1.000,"PART-1-1",           705,          -15.,        -13.75,            0.,NA,NA,"",   5.35665E-03,  -4.75794E-03,  -2.46083E-03,   117.946E-06
C:/temp/dataset/8/16_8.odb,Step-1,Increment      1: Step Time =    1.000,"PART-1-1",           706,      -12.5127,      -13.8329,            0.,NA,NA,"",   4.95877E-03,  -4.61088E-03,  -1.82460E-03,   138.724E-06
C:/temp/dataset/8/16_8.odb,Step-1,Increment      1: Step Time =    1.000,"PART-1-1",           707,      -10.0964,       13.7974,            0.,NA,NA,"",   6.25425E-03,  -6.00107E-03,  -1.76148E-03,   6.68596E-06
C:/temp/dataset/8/16_8.odb,Step-1,Increment      1: Step Time =    1.000,"PART-1-1",           708,      -8.82993,       12.5694,            0.,NA,NA,"",   6.48713E-03,  -6.19006E-03,  -1.94062E-03,   12.2052E-06
C:/temp/dataset/8/16_8.odb,Step-1,Increment      1: Step Time =    1.000,"PART-1-1",           709,          -15.,         16.25,            0.,NA,NA,"",   5.64402E-03,  -5.56385E-03,  -947.897E-06,   25.0121E-06
C:/temp/dataset/8/16_8.odb,Step-1,Increment      1: Step Time =    1.000,"PART-1-1",           710,      -12.5888,       16.2424,            0.,NA,NA,"",   5.74751E-03,  -5.58539E-03,  -1.35547E-03,   12.9565E-06
C:/temp/dataset/8/16_8.odb,Step-1,Increment      1: Step Time =    1.000,"PART-1-1",           711,      -12.3835,       2.26488,            0.,NA,NA,"",   7.65998E-03,  -7.49397E-03,  -1.58611E-03,   47.1332E-06
C:/temp/dataset/8/16_8.odb,Step-1,Increment      1: Step Time =    1.000,"PART-1-1",           712,      -11.8224,   292.734E-03,            0.,NA,NA,"",   7.84261E-03,  -7.66837E-03,  -1.64396E-03,   53.4240E-06
C:/temp/dataset/8/16_8.odb,Step-1,Increment      1: Step Time =    1.000,"PART-1-1",           713,      -11.2102,       1.42259,            0.,NA,NA,"",   7.75456E-03,  -7.58050E-03,  -1.63376E-03,   48.0423E-06
C:/temp/dataset/8/16_8.odb,Step-1,Increment      1: Step Time =    1.000,"PART-1-1",           714,         -3.75,           -5.,            0.,NA,NA,"",   8.66384E-03,  -8.37438E-03,  -2.22079E-03,   335.888E-06
C:/temp/dataset/8/16_8.odb,Step-1,Increment      1: Step Time =    1.000,"PART-1-1",           715,      -4.14675,      -2.41445,            0.,NA,NA,"",   8.15985E-03,  -7.90703E-03,  -2.01541E-03,   140.929E-06
C:/temp/dataset/8/16_8.odb,Step-1,Increment      1: Step Time =    1.000,"PART-1-1",           716,          3.75,           -5.,            0.,NA,NA,"",   10.6883E-03,  -9.30722E-03,  -5.25500E-03,   132.946E-06
C:/temp/dataset/8/16_8.odb,Step-1,Increment      1: Step Time =    1.000,"PART-1-1",           717,       4.88615,      -3.81221,            0.,NA,NA,"",   10.6585E-03,  -8.91521E-03,  -5.84155E-03,   275.820E-06
C:/temp/dataset/8/16_8.odb,Step-1,Increment      1: Step Time =    1.000,"PART-1-1",           718,          3.75,            5.,            0.,NA,NA,"",   8.31061E-03,  -6.85240E-03,  -4.70222E-03,   128.354E-06
C:/temp/dataset/8/16_8.odb,Step-1,Increment      1: Step Time =    1.000,"PART-1-1",           719,       2.57201,       3.72360,            0.,NA,NA,"",   8.32318E-03,  -7.08597E-03,  -4.36627E-03,   93.0724E-06
C:/temp/dataset/8/16_8.odb,Step-1,Increment      1: Step Time =    1.000,"PART-1-1",           720,       4.12275,       2.38068,            0.,NA,NA,"",   8.94150E-03,  -7.47402E-03,  -4.90809E-03,   82.3121E-06
C:/temp/dataset/8/16_8.odb,Step-1,Increment      1: Step Time =    1.000,"PART-1-1",           721,       1.34934,       2.46747,            0.,NA,NA,"",   8.31008E-03,  -7.30458E-03,  -3.96240E-03,   112.154E-06
C:/temp/dataset/8/16_8.odb,Step-1,Increment      1: Step Time =    1.000,"PART-1-1",           722,          1.25,            5.,            0.,NA,NA,"",   7.68011E-03,  -6.63301E-03,  -3.87134E-03,   44.1539E-06
C:/temp/dataset/8/16_8.odb,Step-1,Increment      1: Step Time =    1.000,"PART-1-1",           723,          6.25,           30.,            0.,NA,NA,"",   5.88175E-03,  -2.87225E-03,  -5.13275E-03,   7.70881E-06
C:/temp/dataset/8/16_8.odb,Step-1,Increment      1: Step Time =    1.000,"PART-1-1",           724,       6.07120,       27.6569,            0.,NA,NA,"",   6.09696E-03,  -3.33520E-03,  -5.10386E-03,   3.53416E-06
C:/temp/dataset/8/16_8.odb,Step-1,Increment      1: Step Time =    1.000,"PART-1-1",           725,         -1.25,           30.,            0.,NA,NA,"",   4.57548E-03,  -2.84141E-03,  -3.58628E-03,   2.07706E-06
C:/temp/dataset/8/16_8.odb,Step-1,Increment      1: Step Time =    1.000,"PART-1-1",           726,      -1.39999,       27.3167,            0.,NA,NA,"",   4.91312E-03,  -3.39465E-03,  -3.55178E-03,   6.87762E-06
C:/temp/dataset/8/16_8.odb,Step-1,Increment      1: Step Time =    1.000,"PART-1-1",           727,         -3.75,           20.,            0.,NA,NA,"",   5.75761E-03,  -4.89743E-03,  -3.02742E-03,   10.4884E-06
C:/temp/dataset/8/16_8.odb,Step-1,Increment      1: Step Time =    1.000,"PART-1-1",           728,      -2.58930,       21.4512,            0.,NA,NA,"",   5.64222E-03,  -4.58909E-03,  -3.28252E-03,   4.56366E-06
C:/temp/dataset/8/16_8.odb,Step-1,Increment      1: Step Time =    1.000,"PART-1-1",           729,      -5.07231,       21.0171,            0.,NA,NA,"",   5.42094E-03,  -4.68298E-03,  -2.73062E-03,   18.6223E-06
C:/temp/dataset/8/16_8.odb,Step-1,Increment      1: Step Time =    1.000,"PART-1-1",           730,      -1.31658,       22.7626,            0.,NA,NA,"",   5.59527E-03,  -4.31527E-03,  -3.56168E-03,   8.48656E-06
C:/temp/dataset/8/16_8.odb,Step-1,Increment      1: Step Time =    1.000,"PART-1-1",           731,         -1.25,           20.,            0.,NA,NA,"",   6.06092E-03,  -4.89621E-03,  -3.57238E-03,   3.55028E-06
C:/temp/dataset/8/16_8.odb,Step-1,Increment      1: Step Time =    1.000,"PART-1-1",           732,  -730.264E-03,       25.0913,            0.,NA,NA,"",   5.32848E-03,  -3.84221E-03,  -3.69189E-03,   8.83606E-06
C:/temp/dataset/8/16_8.odb,Step-1,Increment      1: Step Time =    1.000,"PART-1-1",           733,      -2.17963,       23.9829,            0.,NA,NA,"",   5.28964E-03,  -4.06988E-03,  -3.37882E-03,   9.03382E-06
C:/temp/dataset/8/16_8.odb,Step-1,Increment      1: Step Time =    1.000,"PART-1-1",           734,       6.36136,       15.0582,            0.,NA,NA,"",   7.70273E-03,  -5.64709E-03,  -5.23855E-03,   9.70390E-06
C:/temp/dataset/8/16_8.odb,Step-1,Increment      1: Step Time =    1.000,"PART-1-1",           735,       7.68541,       16.4128,            0.,NA,NA,"",   7.69574E-03,  -5.42790E-03,  -5.45549E-03,   9.59931E-06
C:/temp/dataset/8/16_8.odb,Step-1,Increment      1: Step Time =    1.000,"PART-1-1",           736,            5.,         16.25,            0.,NA,NA,"",   7.38915E-03,  -5.44196E-03,  -4.99846E-03,   13.9288E-06
C:/temp/dataset/8/16_8.odb,Step-1,Increment      1: Step Time =    1.000,"PART-1-1",           737,      -10.0306,      -16.4562,            0.,NA,NA,"",   3.78450E-03,  -3.58033E-03,  -1.22625E-03,   181.851E-06
C:/temp/dataset/8/16_8.odb,Step-1,Increment      1: Step Time =    1.000,"PART-1-1",           738,         -8.75,          -30.,            0.,NA,NA,"",            0.,  -717.231E-42,  -577.677E-42,   827.530E-06
C:/temp/dataset/8/16_8.odb,Step-1,Increment      1: Step Time =    1.000,"PART-1-1",           739,      -8.41046,      -27.7431,            0.,NA,NA,"",   2.25607E-03,  -2.23872E-03,  -279.248E-06,   667.056E-06
C:/temp/dataset/8/16_8.odb,Step-1,Increment      1: Step Time =    1.000,"PART-1-1",           740,       8.76042,      -4.14506,            0.,NA,NA,"",   11.3651E-03,  -9.42014E-03,  -6.35814E-03,   201.223E-06
C:/temp/dataset/8/16_8.odb,Step-1,Increment      1: Step Time =    1.000,"PART-1-1",           741,       8.66903,      -5.72492,            0.,NA,NA,"",   11.6491E-03,  -9.64668E-03,  -6.53010E-03,   194.252E-06
C:/temp/dataset/8/16_8.odb,Step-1,Increment      1: Step Time =    1.000,"PART-1-1",           742,            5.,        -13.75,            0.,NA,NA,"",   12.8581E-03,  -6.70065E-03,  -10.9741E-03,   762.458E-06
C:/temp/dataset/8/16_8.odb,Step-1,Increment      1: Step Time =    1.000,"PART-1-1",           743,       6.25554,      -14.9359,            0.,NA,NA,"",   12.2463E-03,  -6.19380E-03,  -10.5645E-03,   659.487E-06
C:/temp/dataset/8/16_8.odb,Step-1,Increment      1: Step Time =    1.000,"PART-1-1",           744,       7.64357,      -13.5439,            0.,NA,NA,"",   11.4420E-03,  -7.43029E-03,  -8.70119E-03,   398.951E-06
C:/temp/dataset/8/16_8.odb,Step-1,Increment      1: Step Time =    1.000,"PART-1-1",           745,       7.29012,      -20.5145,            0.,NA,NA,"",   9.74797E-03,   1.19404E-03,  -9.67457E-03,   504.499E-06
C:/temp/dataset/8/16_8.odb,Step-1,Increment      1: Step Time =    1.000,"PART-1-1",           746,       5.05790,      -20.9179,            0.,NA,NA,"",   21.1484E-03,   4.58502E-03,  -20.6454E-03,   4.52878E-03
C:/temp/dataset/8/16_8.odb,Step-1,Increment      1: Step Time =    1.000,"PART-1-1",           747,       6.21870,      -21.6741,            0.,NA,NA,"",   14.4216E-03,   4.85978E-03,  -13.5781E-03,   2.60800E-03
C:/temp/dataset/8/16_8.odb,Step-1,Increment      1: Step Time =    1.000,"PART-1-1",           748,      -6.20775,      -20.1417,            0.,NA,NA,"",   1.99899E-03,  -1.79773E-03,  -874.142E-06,   598.400E-06
C:/temp/dataset/8/16_8.odb,Step-1,Increment      1: Step Time =    1.000,"PART-1-1",           749,      -7.26365,      -21.6027,            0.,NA,NA,"",   2.70029E-03,  -2.66896E-03,  -410.112E-06,   233.713E-06
C:/temp/dataset/8/16_8.odb,Step-1,Increment      1: Step Time =    1.000,"PART-1-1",           750,      -7.57540,       11.3077,            0.,NA,NA,"",   6.70493E-03,  -6.36834E-03,  -2.09768E-03,   20.6971E-06
C:/temp/dataset/8/16_8.odb,Step-1,Increment      1: Step Time =    1.000,"PART-1-1",           751,           -5.,         11.25,            0.,NA,NA,"",   6.79816E-03,  -6.34117E-03,  -2.45043E-03,   41.5017E-06
C:/temp/dataset/8/16_8.odb,Step-1,Increment      1: Step Time =    1.000,"PART-1-1",           752,          -15.,          8.75,            0.,NA,NA,"",   6.79716E-03,  -6.69939E-03,  -1.14875E-03,   35.0476E-06
C:/temp/dataset/8/16_8.odb,Step-1,Increment      1: Step Time =    1.000,"PART-1-1",           753,      -12.2946,       8.62536,            0.,NA,NA,"",   6.90783E-03,  -6.74512E-03,  -1.49047E-03,   16.4112E-06
C:/temp/dataset/8/16_8.odb,Step-1,Increment      1: Step Time =    1.000,"PART-1-1",           754,      -10.0522,       9.28504,            0.,NA,NA,"",   6.88850E-03,  -6.66026E-03,  -1.75852E-03,   8.25881E-06
C:/temp/dataset/8/16_8.odb,Step-1,Increment      1: Step Time =    1.000,"PART-1-1",           755,      -8.95993,       7.79922,            0.,NA,NA,"",   7.09196E-03,  -6.84018E-03,  -1.87294E-03,   16.2508E-06
C:/temp/dataset/8/16_8.odb,Step-1,Increment      1: Step Time =    1.000,"PART-1-1",           756,      -8.82890,       10.1599,            0.,NA,NA,"",   6.81290E-03,  -6.53762E-03,  -1.91704E-03,   12.4385E-06
C:/temp/dataset/8/16_8.odb,Step-1,Increment      1: Step Time =    1.000,"PART-1-1",           757,          -15.,          3.75,            0.,NA,NA,"",   7.41341E-03,  -7.29104E-03,  -1.34141E-03,   61.1399E-06
C:/temp/dataset/8/16_8.odb,Step-1,Increment      1: Step Time =    1.000,"PART-1-1",           758,      -12.9917,       3.46630,            0.,NA,NA,"",   7.51741E-03,  -7.36203E-03,  -1.52055E-03,   44.0189E-06
C:/temp/dataset/8/16_8.odb,Step-1,Increment      1: Step Time =    1.000,"PART-1-1",           759,          -15.,         -1.25,            0.,NA,NA,"",   7.81994E-03,  -7.61961E-03,  -1.75869E-03,   125.448E-06
C:/temp/dataset/8/16_8.odb,Step-1,Increment      1: Step Time =    1.000,"PART-1-1",           760,      -12.5629,      -1.46967,            0.,NA,NA,"",   7.91294E-03,  -7.72328E-03,  -1.72208E-03,   60.0546E-06
C:/temp/dataset/8/16_8.odb,Step-1,Increment      1: Step Time =    1.000,"PART-1-1",           761,      -9.58670,      -7.04184,            0.,NA,NA,"",   7.25100E-03,  -7.07070E-03,  -1.60694E-03,   134.562E-06
C:/temp/dataset/8/16_8.odb,Step-1,Increment      1: Step Time =    1.000,"PART-1-1",           762,      -10.0087,      -5.60794,            0.,NA,NA,"",   7.61668E-03,  -7.43215E-03,  -1.66645E-03,   98.7214E-06
C:/temp/dataset/8/16_8.odb,Step-1,Increment      1: Step Time =    1.000,"PART-1-1",           763,      -11.4598,      -6.08307,            0.,NA,NA,"",   7.50143E-03,  -7.27750E-03,  -1.81921E-03,   81.6421E-06
C:/temp/dataset/8/16_8.odb,Step-1,Increment      1: Step Time =    1.000,"PART-1-1",           764,           -5.,         -8.75,            0.,NA,NA,"",   6.33160E-03,  -6.30991E-03,  -523.569E-06,   158.369E-06
C:/temp/dataset/8/16_8.odb,Step-1,Increment      1: Step Time =    1.000,"PART-1-1",           765,      -6.19611,      -7.65783,            0.,NA,NA,"",   6.92136E-03,  -6.83504E-03,  -1.08969E-03,   176.731E-06
C:/temp/dataset/8/16_8.odb,Step-1,Increment      1: Step Time =    1.000,"PART-1-1",           766,      -2.54776,      -1.24063,            0.,NA,NA,"",   8.24256E-03,  -7.82205E-03,  -2.59911E-03,   146.297E-06
C:/temp/dataset/8/16_8.odb,Step-1,Increment      1: Step Time =    1.000,"PART-1-1",           767,       3.62717,       25.2502,            0.,NA,NA,"",   5.98308E-03,  -3.80723E-03,  -4.61544E-03,   6.36336E-06
C:/temp/dataset/8/16_8.odb,Step-1,Increment      1: Step Time =    1.000,"PART-1-1",           768,       4.81765,       26.4923,            0.,NA,NA,"",   6.02276E-03,  -3.56250E-03,  -4.85616E-03,   4.18334E-06
C:/temp/dataset/8/16_8.odb,Step-1,Increment      1: Step Time =    1.000,"PART-1-1",           769,       2.47493,       26.4272,            0.,NA,NA,"",   5.64653E-03,  -3.57171E-03,  -4.37334E-03,   6.50984E-06
C:/temp/dataset/8/16_8.odb,Step-1,Increment      1: Step Time =    1.000,"PART-1-1",           770,       12.1711,       7.92225,            0.,NA,NA,"",   9.25897E-03,  -6.82718E-03,  -6.25444E-03,   6.06419E-06
C:/temp/dataset/8/16_8.odb,Step-1,Increment      1: Step Time =    1.000,"PART-1-1",           771,       10.9972,       7.23987,            0.,NA,NA,"",   9.20781E-03,  -6.93652E-03,  -6.05545E-03,   12.7339E-06
C:/temp/dataset/8/16_8.odb,Step-1,Increment      1: Step Time =    1.000,"PART-1-1",           772,       11.7750,       5.88084,            0.,NA,NA,"",   9.49348E-03,  -7.19166E-03,  -6.19726E-03,   17.5564E-06
C:/temp/dataset/8/16_8.odb,Step-1,Increment      1: Step Time =    1.000,"PART-1-1",           773,       2.56868,       1.19679,            0.,NA,NA,"",   8.81934E-03,  -7.62091E-03,  -4.43875E-03,   125.569E-06
C:/temp/dataset/8/16_8.odb,Step-1,Increment      1: Step Time =    1.000,"PART-1-1",           774,      -8.87516,       6.40184,            0.,NA,NA,"",   7.23789E-03,  -6.99509E-03,  -1.85898E-03,   25.4431E-06
C:/temp/dataset/8/16_8.odb,Step-1,Increment      1: Step Time =    1.000,"PART-1-1",           775,      -9.21453,       4.85504,            0.,NA,NA,"",   7.39351E-03,  -7.17406E-03,  -1.78798E-03,   40.5836E-06
C:/temp/dataset/8/16_8.odb,Step-1,Increment      1: Step Time =    1.000,"PART-1-1",           776,      -7.77845,       4.46010,            0.,NA,NA,"",   7.41508E-03,  -7.16756E-03,  -1.89986E-03,   59.4554E-06
C:/temp/dataset/8/16_8.odb,Step-1,Increment      1: Step Time =    1.000,"PART-1-1",           777,      -7.43909,       6.00690,            0.,NA,NA,"",   7.27701E-03,  -6.99763E-03,  -1.99701E-03,   43.0815E-06
C:/temp/dataset/8/16_8.odb,Step-1,Increment      1: Step Time =    1.000,"PART-1-1",           778,      -11.3073,       27.9110,            0.,NA,NA,"",   3.65428E-03,  -3.31216E-03,  -1.54381E-03,   4.58676E-06
C:/temp/dataset/8/16_8.odb,Step-1,Increment      1: Step Time =    1.000,"PART-1-1",           779,      -10.0807,       29.0541,            0.,NA,NA,"",   3.55976E-03,  -3.08025E-03,  -1.78436E-03,   4.55490E-06
C:/temp/dataset/8/16_8.odb,Step-1,Increment      1: Step Time =    1.000,"PART-1-1",           780,        -11.25,           30.,            0.,NA,NA,"",   3.28884E-03,  -2.89688E-03,  -1.55709E-03,   2.72054E-06
C:/temp/dataset/8/16_8.odb,Step-1,Increment      1: Step Time =    1.000,"PART-1-1",           781,          -15.,         23.75,            0.,NA,NA,"",   4.22972E-03,  -4.14710E-03,  -831.915E-06,   8.31550E-06
C:/temp/dataset/8/16_8.odb,Step-1,Increment      1: Step Time =    1.000,"PART-1-1",           782,      -12.0927,       23.7977,            0.,NA,NA,"",   4.37301E-03,  -4.14450E-03,  -1.39512E-03,   8.72991E-06
C:/temp/dataset/8/16_8.odb,Step-1,Increment      1: Step Time =    1.000,"PART-1-1",           783,      -8.63837,       22.0170,            0.,NA,NA,"",   4.94199E-03,  -4.50059E-03,  -2.04154E-03,   10.9996E-06
C:/temp/dataset/8/16_8.odb,Step-1,Increment      1: Step Time =    1.000,"PART-1-1",           784,      -9.90203,       20.9758,            0.,NA,NA,"",   5.04421E-03,  -4.71026E-03,  -1.80486E-03,   10.2721E-06
C:/temp/dataset/8/16_8.odb,Step-1,Increment      1: Step Time =    1.000,"PART-1-1",           785,      -7.50941,       20.8584,            0.,NA,NA,"",   5.23580E-03,  -4.72973E-03,  -2.24572E-03,   12.7297E-06
C:/temp/dataset/8/16_8.odb,Step-1,Increment      1: Step Time =    1.000,"PART-1-1",           786,      -11.2484,       19.8991,            0.,NA,NA,"",   5.16143E-03,  -4.91916E-03,  -1.56276E-03,   9.36168E-06
C:/temp/dataset/8/16_8.odb,Step-1,Increment      1: Step Time =    1.000,"PART-1-1",           787,      -11.3362,       17.4609,            0.,NA,NA,"",   5.59543E-03,  -5.37452E-03,  -1.55673E-03,   8.46254E-06
C:/temp/dataset/8/16_8.odb,Step-1,Increment      1: Step Time =    1.000,"PART-1-1",           788,      -6.30996,       21.9748,            0.,NA,NA,"",   5.14098E-03,  -4.49763E-03,  -2.49017E-03,   13.3402E-06
C:/temp/dataset/8/16_8.odb,Step-1,Increment      1: Step Time =    1.000,"PART-1-1",           789,      -2.24269,       26.0758,            0.,NA,NA,"",   4.96632E-03,  -3.64761E-03,  -3.37036E-03,   8.12268E-06
C:/temp/dataset/8/16_8.odb,Step-1,Increment      1: Step Time =    1.000,"PART-1-1",           790,       12.7358,       26.1633,            0.,NA,NA,"",   7.33984E-03,  -3.63836E-03,  -6.37461E-03,   4.11055E-06
C:/temp/dataset/8/16_8.odb,Step-1,Increment      1: Step Time =    1.000,"PART-1-1",           791,       13.9485,       24.9485,            0.,NA,NA,"",   7.65171E-03,  -3.87148E-03,  -6.60002E-03,   4.10603E-06
C:/temp/dataset/8/16_8.odb,Step-1,Increment      1: Step Time =    1.000,"PART-1-1",           792,           15.,       26.2313,            0.,NA,NA,"",   7.70850E-03,  -3.62333E-03,  -6.80386E-03,   2.79186E-06
C:/temp/dataset/8/16_8.odb,Step-1,Increment      1: Step Time =    1.000,"PART-1-1",           793,         -8.75,           30.,            0.,NA,NA,"",   3.53939E-03,  -2.88666E-03,  -2.04804E-03,   6.27384E-06
C:/temp/dataset/8/16_8.odb,Step-1,Increment      1: Step Time =    1.000,"PART-1-1",           794,      -8.99948,       28.0877,            0.,NA,NA,"",   3.83002E-03,  -3.26992E-03,  -1.99416E-03,   5.39324E-06
C:/temp/dataset/8/16_8.odb,Step-1,Increment      1: Step Time =    1.000,"PART-1-1",           795,      -11.0605,       7.76300,            0.,NA,NA,"",   7.05191E-03,  -6.85846E-03,  -1.64039E-03,   10.3578E-06
C:/temp/dataset/8/16_8.odb,Step-1,Increment      1: Step Time =    1.000,"PART-1-1",           796,      -9.90520,       2.86353,            0.,NA,NA,"",   7.60716E-03,  -7.41672E-03,  -1.69153E-03,   48.5598E-06
C:/temp/dataset/8/16_8.odb,Step-1,Increment      1: Step Time =    1.000,"PART-1-1",           797,      -11.2331,       2.92838,            0.,NA,NA,"",   7.60289E-03,  -7.42666E-03,  -1.62750E-03,   41.2431E-06
C:/temp/dataset/8/16_8.odb,Step-1,Increment      1: Step Time =    1.000,"PART-1-1",           798,      -9.88229,       1.35774,            0.,NA,NA,"",   7.75864E-03,  -7.57851E-03,  -1.66211E-03,   53.4023E-06
C:/temp/dataset/8/16_8.odb,Step-1,Increment      1: Step Time =    1.000,"PART-1-1",           799,           -5.,          6.25,            0.,NA,NA,"",   7.28012E-03,  -6.92545E-03,  -2.24460E-03,   48.5825E-06
C:/temp/dataset/8/16_8.odb,Step-1,Increment      1: Step Time =    1.000,"PART-1-1",           800,      -5.99813,       4.86531,            0.,NA,NA,"",   7.33712E-03,  -7.03046E-03,  -2.09902E-03,   74.1728E-06
C:/temp/dataset/8/16_8.odb,Step-1,Increment      1: Step Time =    1.000,"PART-1-1",           801,           -5.,         -6.25,            0.,NA,NA,"",   7.35689E-03,  -7.28045E-03,  -1.05777E-03,   366.087E-06
C:/temp/dataset/8/16_8.odb,Step-1,Increment      1: Step Time =    1.000,"PART-1-1",           802,      -7.47947,      -6.74432,            0.,NA,NA,"",   7.35415E-03,  -7.21866E-03,  -1.40513E-03,   165.940E-06
C:/temp/dataset/8/16_8.odb,Step-1,Increment      1: Step Time =    1.000,"PART-1-1",           803,      -11.2689,      -15.1223,            0.,NA,NA,"",   4.36294E-03,  -4.09446E-03,  -1.50686E-03,   154.720E-06
C:/temp/dataset/8/16_8.odb,Step-1,Increment      1: Step Time =    1.000,"PART-1-1",           804,          -15.,        -18.75,            0.,NA,NA,"",   3.89358E-03,  -3.53489E-03,  -1.63233E-03,   193.511E-06
C:/temp/dataset/8/16_8.odb,Step-1,Increment      1: Step Time =    1.000,"PART-1-1",           805,           -5.,        -18.75,            0.,NA,NA,"",   2.54942E-03,  -2.40570E-03,  -843.891E-06,   585.274E-06
C:/temp/dataset/8/16_8.odb,Step-1,Increment      1: Step Time =    1.000,"PART-1-1",           806,          -15.,        -23.75,            0.,NA,NA,"",   3.27622E-03,  -3.09413E-03,  -1.07702E-03,   27.7727E-06
C:/temp/dataset/8/16_8.odb,Step-1,Increment      1: Step Time =    1.000,"PART-1-1",           807,      -13.0017,      -23.4761,            0.,NA,NA,"",   3.16397E-03,  -3.07776E-03,  -733.581E-06,   128.991E-06
C:/temp/dataset/8/16_8.odb,Step-1,Increment      1: Step Time =    1.000,"PART-1-1",           808,      -10.8880,      -24.7257,            0.,NA,NA,"",   2.96577E-03,  -2.95071E-03,  -298.450E-06,   159.563E-06
C:/temp/dataset/8/16_8.odb,Step-1,Increment      1: Step Time =    1.000,"PART-1-1",           809,      -12.0004,      -24.2920,            0.,NA,NA,"",   3.00047E-03,  -2.96207E-03,  -478.488E-06,   116.441E-06
C:/temp/dataset/8/16_8.odb,Step-1,Increment      1: Step Time =    1.000,"PART-1-1",           810,      -11.4496,      -26.3253,            0.,NA,NA,"",   2.45508E-03,  -2.43704E-03,  -297.097E-06,   254.785E-06
C:/temp/dataset/8/16_8.odb,Step-1,Increment      1: Step Time =    1.000,"PART-1-1",           811,      -4.83189,      -26.5259,            0.,NA,NA,"",   4.55015E-03,  -4.24270E-03,  -1.64418E-03,   1.08680E-03
C:/temp/dataset/8/16_8.odb,Step-1,Increment      1: Step Time =    1.000,"PART-1-1",           812,      -2.49092,      -26.4256,            0.,NA,NA,"",   6.28342E-03,  -4.67796E-03,  -4.19500E-03,   1.92950E-03
C:/temp/dataset/8/16_8.odb,Step-1,Increment      1: Step Time =    1.000,"PART-1-1",           813,      -1.37789,      -25.1306,            0.,NA,NA,"",   9.53410E-03,  -5.04053E-03,  -8.09272E-03,   2.66858E-03
C:/temp/dataset/8/16_8.odb,Step-1,Increment      1: Step Time =    1.000,"PART-1-1",           814,          3.75,          -30.,            0.,NA,NA,"",            0.,   483.870E-42,  -4.54576E-39,   2.43397E-03
C:/temp/dataset/8/16_8.odb,Step-1,Increment      1: Step Time =    1.000,"PART-1-1",           815,       4.16934,      -27.2851,            0.,NA,NA,"",   6.71324E-03,   2.24141E-03,  -6.32801E-03,   3.19636E-03
C:/temp/dataset/8/16_8.odb,Step-1,Increment      1: Step Time =    1.000,"PART-1-1",           816,       5.43798,      -24.9943,            0.,NA,NA,"",   11.9900E-03,   5.19512E-03,  -10.8060E-03,   3.31443E-03
C:/temp/dataset/8/16_8.odb,Step-1,Increment      1: Step Time =    1.000,"PART-1-1",           817,          3.75,          -20.,            0.,NA,NA,"",   37.2839E-03,  -28.0019E-06,  -37.2839E-03,   6.06300E-03
C:/temp/dataset/8/16_8.odb,Step-1,Increment      1: Step Time =    1.000,"PART-1-1",           818,       3.87865,      -22.3090,            0.,NA,NA,"",   24.4595E-03,   4.58979E-03,  -24.0250E-03,   5.58823E-03
C:/temp/dataset/8/16_8.odb,Step-1,Increment      1: Step Time =    1.000,"PART-1-1",           819,       4.97861,      -23.9295,            0.,NA,NA,"",   15.6196E-03,   5.29803E-03,  -14.6937E-03,   3.80910E-03
C:/temp/dataset/8/16_8.odb,Step-1,Increment      1: Step Time =    1.000,"PART-1-1",           820,       6.87761,      -24.4106,            0.,NA,NA,"",   10.6615E-03,   6.21476E-03,  -8.66281E-03,   2.22846E-03
C:/temp/dataset/8/16_8.odb,Step-1,Increment      1: Step Time =    1.000,"PART-1-1",           821,       6.41824,      -23.3457,            0.,NA,NA,"",   12.9668E-03,   6.28470E-03,  -11.3420E-03,   2.62575E-03
C:/temp/dataset/8/16_8.odb,Step-1,Increment      1: Step Time =    1.000,"PART-1-1",           822,       11.2370,      -25.7479,            0.,NA,NA,"",   6.02539E-03,   5.68992E-03,  -1.98248E-03,   839.677E-06
C:/temp/dataset/8/16_8.odb,Step-1,Increment      1: Step Time =    1.000,"PART-1-1",           823,       10.9706,      -24.3905,            0.,NA,NA,"",   6.38924E-03,   5.81015E-03,  -2.65792E-03,   615.160E-06
C:/temp/dataset/8/16_8.odb,Step-1,Increment      1: Step Time =    1.000,"PART-1-1",           824,       9.19650,      -24.7169,            0.,NA,NA,"",   7.43293E-03,   6.07066E-03,  -4.28900E-03,   1.13923E-03
C:/temp/dataset/8/16_8.odb,Step-1,Increment      1: Step Time =    1.000,"PART-1-1",           825,       9.46288,      -26.0743,            0.,NA,NA,"",   6.44964E-03,   5.65947E-03,  -3.09328E-03,   1.36505E-03
C:/temp/dataset/8/16_8.odb,Step-1,Increment      1: Step Time =    1.000,"PART-1-1",           826,       7.41744,      -16.0774,            0.,NA,NA,"",   11.1667E-03,  -5.62469E-03,  -9.64666E-03,   666.997E-06
C:/temp/dataset/8/16_8.odb,Step-1,Increment      1: Step Time =    1.000,"PART-1-1",           827,            5.,        -16.25,            0.,NA,NA,"",   13.4498E-03,  -4.63782E-03,  -12.6249E-03,   1.12042E-03
C:/temp/dataset/8/16_8.odb,Step-1,Increment      1: Step Time =    1.000,"PART-1-1",           828,       10.2193,      -13.8888,            0.,NA,NA,"",   9.55952E-03,  -7.20556E-03,  -6.28207E-03,   161.785E-06
C:/temp/dataset/8/16_8.odb,Step-1,Increment      1: Step Time =    1.000,"PART-1-1",           829,            5.,         -6.25,            0.,NA,NA,"",   11.5083E-03,  -9.26693E-03,  -6.82391E-03,   547.799E-06
C:/temp/dataset/8/16_8.odb,Step-1,Increment      1: Step Time =    1.000,"PART-1-1",           830,       7.31446,      -6.19141,            0.,NA,NA,"",   11.7501E-03,  -9.60137E-03,  -6.77331E-03,   245.978E-06
C:/temp/dataset/8/16_8.odb,Step-1,Increment      1: Step Time =    1.000,"PART-1-1",           831,       6.34046,      -4.95308,            0.,NA,NA,"",   11.4593E-03,  -9.42560E-03,  -6.51714E-03,   291.430E-06
C:/temp/dataset/8/16_8.odb,Step-1,Increment      1: Step Time =    1.000,"PART-1-1",           832,            5.,         13.75,            0.,NA,NA,"",   7.71624E-03,  -5.85740E-03,  -5.02307E-03,   10.4811E-06
C:/temp/dataset/8/16_8.odb,Step-1,Increment      1: Step Time =    1.000,"PART-1-1",           833,       7.92352,       13.7239,            0.,NA,NA,"",   8.05324E-03,  -5.87161E-03,  -5.51170E-03,   6.96278E-06
C:/temp/dataset/8/16_8.odb,Step-1,Increment      1: Step Time =    1.000,"PART-1-1",           834,       10.1519,       16.6176,            0.,NA,NA,"",   7.98724E-03,  -5.39499E-03,  -5.88983E-03,   6.38493E-06
C:/temp/dataset/8/16_8.odb,Step-1,Increment      1: Step Time =    1.000,"PART-1-1",           835,       11.3692,       15.2392,            0.,NA,NA,"",   8.30125E-03,  -5.62475E-03,  -6.10516E-03,   5.96046E-06
C:/temp/dataset/8/16_8.odb,Step-1,Increment      1: Step Time =    1.000,"PART-1-1",           836,       12.5765,       16.3836,            0.,NA,NA,"",   8.33195E-03,  -5.43222E-03,  -6.31762E-03,   4.77083E-06
C:/temp/dataset/8/16_8.odb,Step-1,Increment      1: Step Time =    1.000,"PART-1-1",           837,       11.3592,       17.7620,            0.,NA,NA,"",   8.01841E-03,  -5.19913E-03,  -6.10443E-03,   4.54121E-06
C:/temp/dataset/8/16_8.odb,Step-1,Increment      1: Step Time =    1.000,"PART-1-1",           838,           15.,       23.7188,            0.,NA,NA,"",   7.93717E-03,  -4.10422E-03,  -6.79368E-03,   6.30657E-06
C:/temp/dataset/8/16_8.odb,Step-1,Increment      1: Step Time =    1.000,"PART-1-1",           839,       12.9788,       23.7285,            0.,NA,NA,"",   7.61684E-03,  -4.10679E-03,  -6.41487E-03,   4.70123E-06
C:/temp/dataset/8/16_8.odb,Step-1,Increment      1: Step Time =    1.000,"PART-1-1",           840,           15.,      -11.3062,            0.,NA,NA,"",   8.81628E-03,  -8.13248E-03,  -3.40434E-03,   545.167E-06
C:/temp/dataset/8/16_8.odb,Step-1,Increment      1: Step Time =    1.000,"PART-1-1",           841,           15.,      -3.76875,            0.,NA,NA,"",   11.0382E-03,  -9.17860E-03,  -6.13150E-03,   236.838E-06
C:/temp/dataset/8/16_8.odb,Step-1,Increment      1: Step Time =    1.000,"PART-1-1",           842,       8.77849,      -14.9509,            0.,NA,NA,"",   10.0996E-03,  -6.46106E-03,  -7.76251E-03,   280.408E-06
C:/temp/dataset/8/16_8.odb,Step-1,Increment      1: Step Time =    1.000,"PART-1-1",           843,       8.51352,      -17.2876,            0.,NA,NA,"",   9.11637E-03,  -4.24691E-03,  -8.06672E-03,   448.950E-06
C:/temp/dataset/8/16_8.odb,Step-1,Increment      1: Step Time =    1.000,"PART-1-1",           844,       8.29028,      -19.4067,            0.,NA,NA,"",   7.85517E-03,  -859.227E-06,  -7.80803E-03,   603.464E-06
C:/temp/dataset/8/16_8.odb,Step-1,Increment      1: Step Time =    1.000,"PART-1-1",           845,       8.54933,      -8.48207,            0.,NA,NA,"",   11.7770E-03,  -9.52498E-03,  -6.92620E-03,   221.073E-06
C:/temp/dataset/8/16_8.odb,Step-1,Increment      1: Step Time =    1.000,"PART-1-1",           846,       9.61157,      -8.87413,            0.,NA,NA,"",   11.5435E-03,  -9.50473E-03,  -6.55080E-03,   166.984E-06
C:/temp/dataset/8/16_8.odb,Step-1,Increment      1: Step Time =    1.000,"PART-1-1",           847,       9.01937,      -7.15061,            0.,NA,NA,"",   11.7239E-03,  -9.68840E-03,  -6.60196E-03,   182.529E-06
C:/temp/dataset/8/16_8.odb,Step-1,Increment      1: Step Time =    1.000,"PART-1-1",           848,           15.,       16.1812,            0.,NA,NA,"",   8.67157E-03,  -5.46143E-03,  -6.73565E-03,   6.42935E-06
C:/temp/dataset/8/16_8.odb,Step-1,Increment      1: Step Time =    1.000,"PART-1-1",           849,       8.94821,       15.2430,            0.,NA,NA,"",   7.99420E-03,  -5.62364E-03,  -5.68172E-03,   7.37875E-06
C:/temp/dataset/8/16_8.odb,Step-1,Increment      1: Step Time =    1.000,"PART-1-1",           850,       10.4061,       25.7620,            0.,NA,NA,"",   7.00540E-03,  -3.71619E-03,  -5.93848E-03,   4.82668E-06
C:/temp/dataset/8/16_8.odb,Step-1,Increment      1: Step Time =    1.000,"PART-1-1",           851,       11.8949,       24.7039,            0.,NA,NA,"",   7.34893E-03,  -3.92096E-03,  -6.21553E-03,   4.74926E-06
C:/temp/dataset/8/16_8.odb,Step-1,Increment      1: Step Time =    1.000,"PART-1-1",           852,       10.0121,   618.030E-03,            0.,NA,NA,"",   10.2956E-03,  -8.31908E-03,  -6.06563E-03,   123.878E-06
C:/temp/dataset/8/16_8.odb,Step-1,Increment      1: Step Time =    1.000,"PART-1-1",           853,       8.14630,  -483.786E-03,            0.,NA,NA,"",   10.3676E-03,  -8.47713E-03,  -5.96862E-03,   154.848E-06
C:/temp/dataset/8/16_8.odb,Step-1,Increment      1: Step Time =    1.000,"PART-1-1",           854,       9.59300,  -925.178E-03,            0.,NA,NA,"",   10.6290E-03,  -8.69813E-03,  -6.10880E-03,   155.069E-06
C:/temp/dataset/8/16_8.odb,Step-1,Increment      1: Step Time =    1.000,"PART-1-1",           855,       8.91739,      -9.92907,            0.,NA,NA,"",   11.5646E-03,  -9.21508E-03,  -6.98728E-03,   210.872E-06
C:/temp/dataset/8/16_8.odb,Step-1,Increment      1: Step Time =    1.000,"PART-1-1",           856,       9.91925,      -10.6601,            0.,NA,NA,"",   11.1036E-03,  -9.00364E-03,  -6.49797E-03,   155.818E-06
C:/temp/dataset/8/16_8.odb,Step-1,Increment      1: Step Time =    1.000,"PART-1-1",           857,       10.2742,      -21.0973,            0.,NA,NA,"",   5.01587E-03,   2.55596E-03,  -4.31579E-03,   494.047E-06
C:/temp/dataset/8/16_8.odb,Step-1,Increment      1: Step Time =    1.000,"PART-1-1",           858,       9.54806,      -22.4908,            0.,NA,NA,"",   6.65967E-03,   4.64159E-03,  -4.77566E-03,   524.667E-06
C:/temp/dataset/8/16_8.odb,Step-1,Increment      1: Step Time =    1.000,"PART-1-1",           859,       10.5666,      -23.0191,            0.,NA,NA,"",   6.11358E-03,   5.04453E-03,  -3.45378E-03,   476.633E-06
C:/temp/dataset/8/16_8.odb,Step-1,Increment      1: Step Time =    1.000,"PART-1-1",           860,       12.3242,       9.79639,            0.,NA,NA,"",   9.04439E-03,  -6.51324E-03,  -6.27525E-03,   6.77061E-06
C:/temp/dataset/8/16_8.odb,Step-1,Increment      1: Step Time =    1.000,"PART-1-1",           861,       7.92117,       5.59347,            0.,NA,NA,"",   9.05450E-03,  -7.14303E-03,  -5.56427E-03,   48.7986E-06
C:/temp/dataset/8/16_8.odb,Step-1,Increment      1: Step Time =    1.000,"PART-1-1",           862,       8.33004,      -21.4224,            0.,NA,NA,"",   7.77067E-03,   3.28583E-03,  -7.04178E-03,   567.105E-06
C:/temp/dataset/8/16_8.odb,Step-1,Increment      1: Step Time =    1.000,"PART-1-1",           863,       7.29914,      -22.4807,            0.,NA,NA,"",   10.7252E-03,   5.42867E-03,  -9.24984E-03,   1.33756E-03
C:/temp/dataset/8/16_8.odb,Step-1,Increment      1: Step Time =    1.000,"PART-1-1",           864,       8.51716,      -23.5491,            0.,NA,NA,"",   8.38297E-03,   5.86667E-03,  -5.98801E-03,   1.25029E-03
C:/temp/dataset/8/16_8.odb,Step-1,Increment      1: Step Time =    1.000,"PART-1-1",           865,       6.99898,  -94.4608E-03,            0.,NA,NA,"",   10.0851E-03,  -8.26997E-03,  -5.77209E-03,   142.687E-06
C:/temp/dataset/8/16_8.odb,Step-1,Increment      1: Step Time =    1.000,"PART-1-1",           866,       6.64294,      -1.54983,            0.,NA,NA,"",   10.4146E-03,  -8.58947E-03,  -5.88933E-03,   183.150E-06
C:/temp/dataset/8/16_8.odb,Step-1,Increment      1: Step Time =    1.000,"PART-1-1",           867,       7.79026,      -1.93916,            0.,NA,NA,"",   10.7200E-03,  -8.81779E-03,  -6.09637E-03,   194.913E-06
C:/temp/dataset/8/16_8.odb,Step-1,Increment      1: Step Time =    1.000,"PART-1-1",           868,       11.5427,  -143.487E-03,            0.,NA,NA,"",   10.5677E-03,  -8.56019E-03,  -6.19670E-03,   118.695E-06
C:/temp/dataset/8/16_8.odb,Step-1,Increment      1: Step Time =    1.000,"PART-1-1",           869,       11.3126,       11.6131,            0.,NA,NA,"",   8.70773E-03,  -6.21654E-03,  -6.09747E-03,   7.08476E-06
C:/temp/dataset/8/16_8.odb,Step-1,Increment      1: Step Time =    1.000,"PART-1-1",           870,       9.33019,      -20.3146,            0.,NA,NA,"",   5.92434E-03,   1.12622E-03,  -5.81631E-03,   520.283E-06
C:/temp/dataset/8/16_8.odb,Step-1,Increment      1: Step Time =    1.000,"PART-1-1",           871,       7.28132,      -3.66733,            0.,NA,NA,"",   11.1723E-03,  -9.21168E-03,  -6.32188E-03,   235.064E-06
C:/temp/dataset/8/16_8.odb,Step-1,Increment      1: Step Time =    1.000,"PART-1-1",           872,       5.82701,      -2.52645,            0.,NA,NA,"",   10.5179E-03,  -8.72773E-03,  -5.86967E-03,   215.375E-06
C:/temp/dataset/8/16_8.odb,Step-1,Increment      1: Step Time =    1.000,"PART-1-1",           873,       10.7738,      -1.22826,            0.,NA,NA,"",   10.7617E-03,  -8.82325E-03,  -6.16158E-03,   149.526E-06
C:/temp/dataset/8/16_8.odb,Step-1,Increment      1: Step Time =    1.000,"PART-1-1",           874,       5.18435,       1.03936,            0.,NA,NA,"",   9.44530E-03,  -7.83591E-03,  -5.27373E-03,   104.374E-06
C:/temp/dataset/8/16_8.odb,Step-1,Increment      1: Step Time =    1.000,"PART-1-1",           875,      -5.71989,       2.55098,            0.,NA,NA,"",   7.56800E-03,  -7.29906E-03,  -1.99957E-03,   57.7100E-06
C:/temp/dataset/8/16_8.odb,Step-1,Increment      1: Step Time =    1.000,"PART-1-1",           876,      -6.86925,       3.62296,            0.,NA,NA,"",   7.47152E-03,  -7.21548E-03,  -1.93920E-03,   75.0953E-06
C:/temp/dataset/8/16_8.odb,Step-1,Increment      1: Step Time =    1.000,"PART-1-1",           877,       11.1755,       23.5651,            0.,NA,NA,"",   7.35657E-03,  -4.14051E-03,  -6.08074E-03,   4.57932E-06
C:/temp/dataset/8/16_8.odb,Step-1,Increment      1: Step Time =    1.000,"PART-1-1",           878,       10.0167,       23.9572,            0.,NA,NA,"",   7.13773E-03,  -4.06629E-03,  -5.86621E-03,   4.90493E-06
C:/temp/dataset/8/16_8.odb,Step-1,Increment      1: Step Time =    1.000,"PART-1-1",           879,       10.8015,       21.7536,            0.,NA,NA,"",   7.49807E-03,  -4.48409E-03,  -6.00949E-03,   3.36817E-06
C:/temp/dataset/8/16_8.odb,Step-1,Increment      1: Step Time =    1.000,"PART-1-1",           880,      -8.16238,      -23.1050,            0.,NA,NA,"",   3.20081E-03,  -3.19321E-03,  -220.455E-06,   215.410E-06
C:/temp/dataset/8/16_8.odb,Step-1,Increment      1: Step Time =    1.000,"PART-1-1",           881,       7.66479,      -7.61710,            0.,NA,NA,"",   11.8668E-03,  -9.55854E-03,  -7.03252E-03,   267.399E-06
C:/temp/dataset/8/16_8.odb,Step-1,Increment      1: Step Time =    1.000,"PART-1-1",           882,       5.33780,      -22.5391,            0.,NA,NA,"",   17.8982E-03,   5.93947E-03,  -16.8840E-03,   3.87415E-03
C:/temp/dataset/8/16_8.odb,Step-1,Increment      1: Step Time =    1.000,"PART-1-1",           883,      -9.54743,       23.1682,            0.,NA,NA,"",   4.66394E-03,  -4.27036E-03,  -1.87521E-03,   9.89400E-06
C:/temp/dataset/8/16_8.odb,Step-1,Increment      1: Step Time =    1.000,"PART-1-1",           884,      -7.33156,       22.8900,            0.,NA,NA,"",   4.89100E-03,  -4.31794E-03,  -2.29724E-03,   11.1391E-06
C:/temp/dataset/8/16_8.odb,Step-1,Increment      1: Step Time =    1.000,"PART-1-1",           885,      -10.1338,       27.3181,            0.,NA,NA,"",   3.85938E-03,  -3.42894E-03,  -1.77120E-03,   5.98166E-06
C:/temp/dataset/8/16_8.odb,Step-1,Increment      1: Step Time =    1.000,"PART-1-1",           886,      -10.9921,       25.8314,            0.,NA,NA,"",   4.06183E-03,  -3.73188E-03,  -1.60360E-03,   6.96589E-06
C:/temp/dataset/8/16_8.odb,Step-1,Increment      1: Step Time =    1.000,"PART-1-1",           887,      -9.34891,      -26.6495,            0.,NA,NA,"",   2.65246E-03,  -2.64348E-03,  -218.146E-06,   437.678E-06
C:/temp/dataset/8/16_8.odb,Step-1,Increment      1: Step Time =    1.000,"PART-1-1",           888,      -9.91282,      -25.5457,            0.,NA,NA,"",   2.92210E-03,  -2.91488E-03,  -205.412E-06,   281.647E-06
C:/temp/dataset/8/16_8.odb,Step-1,Increment      1: Step Time =    1.000,"PART-1-1",           889,       7.84920,      -9.48897,            0.,NA,NA,"",   11.8472E-03,  -9.24410E-03,  -7.40962E-03,   300.197E-06
C:/temp/dataset/8/16_8.odb,Step-1,Increment      1: Step Time =    1.000,"PART-1-1",           890,       10.1788,       14.4028,            0.,NA,NA,"",   8.24596E-03,  -5.76279E-03,  -5.89797E-03,   6.82027E-06
C:/temp/dataset/8/16_8.odb,Step-1,Increment      1: Step Time =    1.000,"PART-1-1",           891,       11.2326,       12.9154,            0.,NA,NA,"",   8.54778E-03,  -6.00556E-03,  -6.08258E-03,   6.95377E-06
C:/temp/dataset/8/16_8.odb,Step-1,Increment      1: Step Time =    1.000,"PART-1-1",           892,       9.23404,       11.5815,            0.,NA,NA,"",   8.46462E-03,  -6.22049E-03,  -5.74067E-03,   5.90531E-06
C:/temp/dataset/8/16_8.odb,Step-1,Increment      1: Step Time =    1.000,"PART-1-1",           893,   112.429E-03,       26.3323,            0.,NA,NA,"",   5.28193E-03,  -3.59125E-03,  -3.87320E-03,   7.80940E-06
C:/temp/dataset/8/16_8.odb,Step-1,Increment      1: Step Time =    1.000,"PART-1-1",           894,       9.25881,       26.1684,            0.,NA,NA,"",   6.77989E-03,  -3.63587E-03,  -5.72253E-03,   4.59928E-06
C:/temp/dataset/8/16_8.odb,Step-1,Increment      1: Step Time =    1.000,"PART-1-1",           895,       7.09344,       26.4940,            0.,NA,NA,"",   6.39499E-03,  -3.56768E-03,  -5.30731E-03,   3.79702E-06
C:/temp/dataset/8/16_8.odb,Step-1,Increment      1: Step Time =    1.000,"PART-1-1",           896,       7.75521,       25.3319,            0.,NA,NA,"",   6.63280E-03,  -3.79757E-03,  -5.43806E-03,   3.92548E-06
C:/temp/dataset/8/16_8.odb,Step-1,Increment      1: Step Time =    1.000,"PART-1-1",           897,      -7.14155,      -26.6171,            0.,NA,NA,"",   3.38124E-03,  -3.34177E-03,  -515.152E-06,   660.079E-06
C:/temp/dataset/8/16_8.odb,Step-1,Increment      1: Step Time =    1.000,"PART-1-1",           898,      -8.08000,      -25.5235,            0.,NA,NA,"",   3.38643E-03,  -3.37414E-03,  -288.354E-06,   448.249E-06
C:/temp/dataset/8/16_8.odb,Step-1,Increment      1: Step Time =    1.000,"PART-1-1",           899,      -8.48057,      -5.93862,            0.,NA,NA,"",   7.56430E-03,  -7.40935E-03,  -1.52319E-03,   137.995E-06
C:/temp/dataset/8/16_8.odb,Step-1,Increment      1: Step Time =    1.000,"PART-1-1",           900,      -8.12610,       27.0862,            0.,NA,NA,"",   4.08818E-03,  -3.46886E-03,  -2.16339E-03,   6.16945E-06
C:/temp/dataset/8/16_8.odb,Step-1,Increment      1: Step Time =    1.000,"PART-1-1",           901,      -9.26041,       26.3166,            0.,NA,NA,"",   4.11476E-03,  -3.62930E-03,  -1.93893E-03,   6.76043E-06
C:/temp/dataset/8/16_8.odb,Step-1,Increment      1: Step Time =    1.000,"PART-1-1",           902,      -11.3442,       15.0048,            0.,NA,NA,"",   6.00973E-03,  -5.80189E-03,  -1.56682E-03,   7.95528E-06
C:/temp/dataset/8/16_8.odb,Step-1,Increment      1: Step Time =    1.000,"PART-1-1",           903,      -11.3385,       12.5628,            0.,NA,NA,"",   6.39130E-03,  -6.19272E-03,  -1.58083E-03,   8.28653E-06
C:/temp/dataset/8/16_8.odb,Step-1,Increment      1: Step Time =    1.000,"PART-1-1",           904,      -8.76514,       3.13980,            0.,NA,NA,"",   7.56339E-03,  -7.35425E-03,  -1.76632E-03,   57.2047E-06
C:/temp/dataset/8/16_8.odb,Step-1,Increment      1: Step Time =    1.000,"PART-1-1",           905,      -10.2716,  -495.292E-03,            0.,NA,NA,"",   7.90512E-03,  -7.73389E-03,  -1.63643E-03,   49.3445E-06
C:/temp/dataset/8/16_8.odb,Step-1,Increment      1: Step Time =    1.000,"PART-1-1",           906,      -8.74135,  -976.005E-03,            0.,NA,NA,"",   7.93581E-03,  -7.76856E-03,  -1.62065E-03,   59.1592E-06
C:/temp/dataset/8/16_8.odb,Step-1,Increment      1: Step Time =    1.000,"PART-1-1",           907,      -12.2685,      -22.3380,            0.,NA,NA,"",   3.19683E-03,  -3.11588E-03,  -714.852E-06,   168.108E-06
C:/temp/dataset/8/16_8.odb,Step-1,Increment      1: Step Time =    1.000,"PART-1-1",           908,  -128.822E-03,      -26.2855,            0.,NA,NA,"",   8.63142E-03,  -3.44618E-03,  -7.91361E-03,   3.15753E-03
C:/temp/dataset/8/16_8.odb,Step-1,Increment      1: Step Time =    1.000,"PART-1-1",           909,       9.08441,      -12.4818,            0.,NA,NA,"",   10.8983E-03,  -8.15314E-03,  -7.23179E-03,   200.770E-06
C:/temp/dataset/8/16_8.odb,Step-1,Increment      1: Step Time =    1.000,"PART-1-1",           910,      -10.0834,       11.4216,            0.,NA,NA,"",   6.60308E-03,  -6.36439E-03,  -1.75931E-03,   6.54096E-06
C:/temp/dataset/8/16_8.odb,Step-1,Increment      1: Step Time =    1.000,"PART-1-1",           911,      -11.2862,       10.1474,            0.,NA,NA,"",   6.73759E-03,  -6.54429E-03,  -1.60230E-03,   8.63814E-06
C:/temp/dataset/8/16_8.odb,Step-1,Increment      1: Step Time =    1.000,"PART-1-1",           912,      -6.58594,       1.63223,            0.,NA,NA,"",   7.68306E-03,  -7.45509E-03,  -1.85768E-03,   67.2264E-06
C:/temp/dataset/8/16_8.odb,Step-1,Increment      1: Step Time =    1.000,"PART-1-1",           913,      -11.0544,       22.2894,            0.,NA,NA,"",   4.72541E-03,  -4.44881E-03,  -1.59299E-03,   9.54632E-06
C:/temp/dataset/8/16_8.odb,Step-1,Increment      1: Step Time =    1.000,"PART-1-1",           914,      -10.5857,       24.6765,            0.,NA,NA,"",   4.30745E-03,  -3.96596E-03,  -1.68086E-03,   8.09290E-06
C:/temp/dataset/8/16_8.odb,Step-1,Increment      1: Step Time =    1.000,"PART-1-1",           915,      -9.16144,      -24.4379,            0.,NA,NA,"",   3.21074E-03,  -3.20540E-03,  -185.057E-06,   215.786E-06
C:/temp/dataset/8/16_8.odb,Step-1,Increment      1: Step Time =    1.000,"PART-1-1",           916,       10.2685,      -27.1971,            0.,NA,NA,"",   5.00921E-03,   4.67692E-03,  -1.79405E-03,   1.32377E-03
C:/temp/dataset/8/16_8.odb,Step-1,Increment      1: Step Time =    1.000,"PART-1-1",           917,       11.0541,      -20.1271,            0.,NA,NA,"",   3.90503E-03,   1.03092E-03,  -3.76649E-03,   551.980E-06
C:/temp/dataset/8/16_8.odb,Step-1,Increment      1: Step Time =    1.000,"PART-1-1",           918,       9.15406,       12.8837,            0.,NA,NA,"",   8.30009E-03,  -6.01020E-03,  -5.72442E-03,   6.06510E-06
C:/temp/dataset/8/16_8.odb,Step-1,Increment      1: Step Time =    1.000,"PART-1-1",           919,       12.2594,       22.5896,            0.,NA,NA,"",   7.62370E-03,  -4.32432E-03,  -6.27862E-03,   4.44835E-06
C:/temp/dataset/8/16_8.odb,Step-1,Increment      1: Step Time =    1.000,"PART-1-1",           920,       11.4390,       20.5291,            0.,NA,NA,"",   7.72468E-03,  -4.70872E-03,  -6.12361E-03,   3.10751E-06
C:/temp/dataset/8/16_8.odb,Step-1,Increment      1: Step Time =    1.000,"PART-1-1",           921,       9.26936,      -2.41689,            0.,NA,NA,"",   10.9746E-03,  -9.05878E-03,  -6.19521E-03,   183.778E-06
C:/temp/dataset/8/16_8.odb,Step-1,Increment      1: Step Time =    1.000,"PART-1-1",           922,       5.58568,  -453.309E-03,            0.,NA,NA,"",   9.88536E-03,  -8.20620E-03,  -5.51168E-03,   138.831E-06
C:/temp/dataset/8/16_8.odb,Step-1,Increment      1: Step Time =    1.000,"PART-1-1",           923,      -8.35205,   877.030E-03,            0.,NA,NA,"",   7.78724E-03,  -7.60049E-03,  -1.69518E-03,   64.7810E-06
C:/temp/dataset/8/16_8.odb,Step-1,Increment      1: Step Time =    1.000,"PART-1-1",           924,      -7.85594,       2.30266,            0.,NA,NA,"",   7.63151E-03,  -7.41885E-03,  -1.78905E-03,   66.3147E-06
C:/temp/dataset/8/16_8.odb,Step-1,Increment      1: Step Time =    1.000,"PART-1-1",           925,      -6.37117,       23.7044,            0.,NA,NA,"",   4.83902E-03,  -4.14631E-03,  -2.49484E-03,   9.55679E-06
C:/temp/dataset/8/16_8.odb,Step-1,Increment      1: Step Time =    1.000,"PART-1-1",           926,       8.86937,       24.3636,            0.,NA,NA,"",   6.91685E-03,  -3.98779E-03,  -5.65158E-03,   4.60667E-06
C:/temp/dataset/8/16_8.odb,Step-1,Increment      1: Step Time =    1.000,"PART-1-1",           927,       8.44688,      -11.4338,            0.,NA,NA,"",   11.4363E-03,  -8.62194E-03,  -7.51335E-03,   266.079E-06
