ODB Name,Step,Frame,Part Instance Name,    êﬂì_ÉâÉxÉã,X,Y,Z,Section Name,Material Name,Section Point,   U-Magnitude,          U-U1,          U-U2,       S-Mises
C:/temp/dataset/8/1_36.odb,Step-1,Increment      4: Step Time =    1.000,"PART-1-1",             1,            5.,           -5.,            0.,NA,NA,"",       5.59821,      -5.58807,  -336.708E-03,   198.661E-03
C:/temp/dataset/8/1_36.odb,Step-1,Increment      4: Step Time =    1.000,"PART-1-1",             2,            0.,           -5.,            0.,NA,NA,"",       5.97943,      -5.94246,  -663.898E-03,   11.8561E-03
C:/temp/dataset/8/1_36.odb,Step-1,Increment      4: Step Time =    1.000,"PART-1-1",             3,            5.,         -12.5,            0.,NA,NA,"",       3.02414,      -2.98444,  -488.421E-03,   37.5397E-03
C:/temp/dataset/8/1_36.odb,Step-1,Increment      4: Step Time =    1.000,"PART-1-1",             4,            5.,          -20.,            0.,NA,NA,"",   771.708E-03,  -761.276E-03,  -126.456E-03,   149.639E-03
C:/temp/dataset/8/1_36.odb,Step-1,Increment      4: Step Time =    1.000,"PART-1-1",             5,            0.,          -20.,            0.,NA,NA,"",   486.486E-03,  -486.267E-03,   14.6047E-03,   10.6575E-03
C:/temp/dataset/8/1_36.odb,Step-1,Increment      4: Step Time =    1.000,"PART-1-1",             6,           -5.,          -20.,            0.,NA,NA,"",   701.480E-03,  -687.990E-03,   136.912E-03,   140.777E-03
C:/temp/dataset/8/1_36.odb,Step-1,Increment      4: Step Time =    1.000,"PART-1-1",             7,           -5.,           -5.,            0.,NA,NA,"",       5.77278,      -5.71631,  -805.471E-03,   207.789E-03
C:/temp/dataset/8/1_36.odb,Step-1,Increment      4: Step Time =    1.000,"PART-1-1",             8,            5.,           20.,            0.,NA,NA,"",       14.2397,      -14.1595,      -1.50885,   164.404E-03
C:/temp/dataset/8/1_36.odb,Step-1,Increment      4: Step Time =    1.000,"PART-1-1",             9,            0.,           20.,            0.,NA,NA,"",       14.4924,      -14.3235,      -2.20631,   7.24432E-03
C:/temp/dataset/8/1_36.odb,Step-1,Increment      4: Step Time =    1.000,"PART-1-1",            10,            5.,          12.5,            0.,NA,NA,"",       11.0306,      -10.9442,      -1.37801,   21.8353E-03
C:/temp/dataset/8/1_36.odb,Step-1,Increment      4: Step Time =    1.000,"PART-1-1",            11,            5.,            5.,            0.,NA,NA,"",       7.85626,      -7.83845,  -528.698E-03,   178.189E-03
C:/temp/dataset/8/1_36.odb,Step-1,Increment      4: Step Time =    1.000,"PART-1-1",            12,            0.,            5.,            0.,NA,NA,"",       7.61075,      -7.56940,  -792.232E-03,   17.3230E-03
C:/temp/dataset/8/1_36.odb,Step-1,Increment      4: Step Time =    1.000,"PART-1-1",            13,           -5.,            5.,            0.,NA,NA,"",       8.09840,      -7.99538,      -1.28762,   187.169E-03
C:/temp/dataset/8/1_36.odb,Step-1,Increment      4: Step Time =    1.000,"PART-1-1",            14,           -5.,           20.,            0.,NA,NA,"",       14.3580,      -14.0946,      -2.73799,   168.937E-03
C:/temp/dataset/8/1_36.odb,Step-1,Increment      4: Step Time =    1.000,"PART-1-1",            15,           15.,           30.,            0.,NA,NA,"",       17.6400,      -17.6073,       1.07398,   34.9788E-03
C:/temp/dataset/8/1_36.odb,Step-1,Increment      4: Step Time =    1.000,"PART-1-1",            16,            0.,           30.,            0.,NA,NA,"",       16.6125,      -16.4433,      -2.36444,   17.1362E-03
C:/temp/dataset/8/1_36.odb,Step-1,Increment      4: Step Time =    1.000,"PART-1-1",            17,          -15.,           30.,            0.,NA,NA,"",       17.3125,      -16.2537,      -5.96153,   1.41217E-03
C:/temp/dataset/8/1_36.odb,Step-1,Increment      4: Step Time =    1.000,"PART-1-1",            18,          -15.,          -30.,            0.,NA,NA,"",            0.,   1.06912E-39,   1.91472E-39,   205.183E-03
C:/temp/dataset/8/1_36.odb,Step-1,Increment      4: Step Time =    1.000,"PART-1-1",            19,           15.,          -30.,            0.,NA,NA,"",            0.,  -319.638E-42,   387.645E-42,   250.957E-03
C:/temp/dataset/8/1_36.odb,Step-1,Increment      4: Step Time =    1.000,"PART-1-1",            20,           15.,      -20.1000,            0.,NA,NA,"",       2.04775,      -1.45422,       1.44172,   164.501E-03
C:/temp/dataset/8/1_36.odb,Step-1,Increment      4: Step Time =    1.000,"PART-1-1",            21,           15.,      -10.0500,            0.,NA,NA,"",       4.85843,      -4.37028,       2.12251,   68.0661E-03
C:/temp/dataset/8/1_36.odb,Step-1,Increment      4: Step Time =    1.000,"PART-1-1",            22,           15.,            0.,            0.,NA,NA,"",       7.54886,      -7.22840,       2.17612,   70.2397E-03
C:/temp/dataset/8/1_36.odb,Step-1,Increment      4: Step Time =    1.000,"PART-1-1",            23,           15.,       9.90000,            0.,NA,NA,"",       10.9127,      -10.6550,       2.35762,   59.4314E-03
C:/temp/dataset/8/1_36.odb,Step-1,Increment      4: Step Time =    1.000,"PART-1-1",            24,           15.,       19.9500,            0.,NA,NA,"",       14.7187,      -14.6291,       1.62162,   36.3937E-03
C:/temp/dataset/8/1_36.odb,Step-1,Increment      4: Step Time =    1.000,"PART-1-1",            25,           2.5,           -5.,            0.,NA,NA,"",       5.90410,      -5.88415,  -484.970E-03,   71.5547E-03
C:/temp/dataset/8/1_36.odb,Step-1,Increment      4: Step Time =    1.000,"PART-1-1",            26,            5.,          -10.,            0.,NA,NA,"",       3.80677,      -3.77349,  -502.247E-03,   56.0637E-03
C:/temp/dataset/8/1_36.odb,Step-1,Increment      4: Step Time =    1.000,"PART-1-1",            27,            5.,          -7.5,            0.,NA,NA,"",       4.63354,      -4.60754,  -490.215E-03,   98.7733E-03
C:/temp/dataset/8/1_36.odb,Step-1,Increment      4: Step Time =    1.000,"PART-1-1",            28,            5.,         -17.5,            0.,NA,NA,"",       1.55984,      -1.51999,  -350.329E-03,   32.7065E-03
C:/temp/dataset/8/1_36.odb,Step-1,Increment      4: Step Time =    1.000,"PART-1-1",            29,            5.,          -15.,            0.,NA,NA,"",       2.27716,      -2.23501,  -436.098E-03,   17.3626E-03
C:/temp/dataset/8/1_36.odb,Step-1,Increment      4: Step Time =    1.000,"PART-1-1",            30,           2.5,          -20.,            0.,NA,NA,"",   542.607E-03,  -541.640E-03,  -32.3760E-03,   63.8436E-03
C:/temp/dataset/8/1_36.odb,Step-1,Increment      4: Step Time =    1.000,"PART-1-1",            31,          -2.5,          -20.,            0.,NA,NA,"",   498.735E-03,  -495.184E-03,   59.4041E-03,   38.8973E-03
C:/temp/dataset/8/1_36.odb,Step-1,Increment      4: Step Time =    1.000,"PART-1-1",            32,           -5.,          -7.5,            0.,NA,NA,"",       4.71249,      -4.70364,  -288.561E-03,   85.3684E-03
C:/temp/dataset/8/1_36.odb,Step-1,Increment      4: Step Time =    1.000,"PART-1-1",            33,           -5.,          -10.,            0.,NA,NA,"",       3.80350,      -3.80342,  -24.5676E-03,   30.0885E-03
C:/temp/dataset/8/1_36.odb,Step-1,Increment      4: Step Time =    1.000,"PART-1-1",            34,           -5.,         -12.5,            0.,NA,NA,"",       2.95762,      -2.95289,   167.219E-03,   3.18428E-03
C:/temp/dataset/8/1_36.odb,Step-1,Increment      4: Step Time =    1.000,"PART-1-1",            35,           -5.,          -15.,            0.,NA,NA,"",       2.16392,      -2.14696,   270.445E-03,   25.4318E-03
C:/temp/dataset/8/1_36.odb,Step-1,Increment      4: Step Time =    1.000,"PART-1-1",            36,           -5.,         -17.5,            0.,NA,NA,"",       1.43554,      -1.40501,   294.452E-03,   68.7236E-03
C:/temp/dataset/8/1_36.odb,Step-1,Increment      4: Step Time =    1.000,"PART-1-1",            37,          -2.5,           -5.,            0.,NA,NA,"",       5.97145,      -5.91684,  -805.761E-03,   76.7788E-03
C:/temp/dataset/8/1_36.odb,Step-1,Increment      4: Step Time =    1.000,"PART-1-1",            38,           2.5,           20.,            0.,NA,NA,"",       14.4530,      -14.3361,      -1.83504,   43.2266E-03
C:/temp/dataset/8/1_36.odb,Step-1,Increment      4: Step Time =    1.000,"PART-1-1",            39,            5.,           15.,            0.,NA,NA,"",       12.0802,      -11.9847,      -1.51567,   47.0816E-03
C:/temp/dataset/8/1_36.odb,Step-1,Increment      4: Step Time =    1.000,"PART-1-1",            40,            5.,          17.5,            0.,NA,NA,"",       13.1325,      -13.0348,      -1.59907,   92.3048E-03
C:/temp/dataset/8/1_36.odb,Step-1,Increment      4: Step Time =    1.000,"PART-1-1",            41,            5.,           7.5,            0.,NA,NA,"",       8.96483,      -8.91427,  -950.794E-03,   54.9324E-03
C:/temp/dataset/8/1_36.odb,Step-1,Increment      4: Step Time =    1.000,"PART-1-1",            42,            5.,           10.,            0.,NA,NA,"",       9.99574,      -9.92523,      -1.18511,   5.32861E-03
C:/temp/dataset/8/1_36.odb,Step-1,Increment      4: Step Time =    1.000,"PART-1-1",            43,           2.5,            5.,            0.,NA,NA,"",       7.62460,      -7.59857,  -629.530E-03,   74.8472E-03
C:/temp/dataset/8/1_36.odb,Step-1,Increment      4: Step Time =    1.000,"PART-1-1",            44,          -2.5,            5.,            0.,NA,NA,"",       7.72056,      -7.65529,      -1.00174,   83.5259E-03
C:/temp/dataset/8/1_36.odb,Step-1,Increment      4: Step Time =    1.000,"PART-1-1",            45,           -5.,          17.5,            0.,NA,NA,"",       13.2776,      -13.0833,      -2.26338,   82.9502E-03
C:/temp/dataset/8/1_36.odb,Step-1,Increment      4: Step Time =    1.000,"PART-1-1",            46,           -5.,           15.,            0.,NA,NA,"",       12.2701,      -12.1131,      -1.95638,   36.5480E-03
C:/temp/dataset/8/1_36.odb,Step-1,Increment      4: Step Time =    1.000,"PART-1-1",            47,           -5.,          12.5,            0.,NA,NA,"",       11.2619,      -11.1341,      -1.69228,   14.9496E-03
C:/temp/dataset/8/1_36.odb,Step-1,Increment      4: Step Time =    1.000,"PART-1-1",            48,           -5.,           10.,            0.,NA,NA,"",       10.2470,      -10.1397,      -1.47882,   8.10524E-03
C:/temp/dataset/8/1_36.odb,Step-1,Increment      4: Step Time =    1.000,"PART-1-1",            49,           -5.,           7.5,            0.,NA,NA,"",       9.22674,      -9.13259,      -1.31475,   55.4846E-03
C:/temp/dataset/8/1_36.odb,Step-1,Increment      4: Step Time =    1.000,"PART-1-1",            50,          -2.5,           20.,            0.,NA,NA,"",       14.4914,      -14.2644,      -2.55485,   60.4115E-03
C:/temp/dataset/8/1_36.odb,Step-1,Increment      4: Step Time =    1.000,"PART-1-1",            51,          12.5,           30.,            0.,NA,NA,"",       17.4295,      -17.4252,   386.239E-03,   41.6396E-03
C:/temp/dataset/8/1_36.odb,Step-1,Increment      4: Step Time =    1.000,"PART-1-1",            52,           10.,           30.,            0.,NA,NA,"",       17.2145,      -17.2119,  -298.480E-03,   59.8841E-03
C:/temp/dataset/8/1_36.odb,Step-1,Increment      4: Step Time =    1.000,"PART-1-1",            53,           7.5,           30.,            0.,NA,NA,"",       16.9972,      -16.9718,  -929.868E-03,   72.0919E-03
C:/temp/dataset/8/1_36.odb,Step-1,Increment      4: Step Time =    1.000,"PART-1-1",            54,            5.,           30.,            0.,NA,NA,"",       16.8046,      -16.7395,      -1.47684,   69.6346E-03
C:/temp/dataset/8/1_36.odb,Step-1,Increment      4: Step Time =    1.000,"PART-1-1",            55,           2.5,           30.,            0.,NA,NA,"",       16.6687,      -16.5552,      -1.94203,   49.0005E-03
C:/temp/dataset/8/1_36.odb,Step-1,Increment      4: Step Time =    1.000,"PART-1-1",            56,          -2.5,           30.,            0.,NA,NA,"",       16.6440,      -16.4064,      -2.80203,   14.8439E-03
C:/temp/dataset/8/1_36.odb,Step-1,Increment      4: Step Time =    1.000,"PART-1-1",            57,           -5.,           30.,            0.,NA,NA,"",       16.7473,      -16.4175,      -3.30721,   35.5811E-03
C:/temp/dataset/8/1_36.odb,Step-1,Increment      4: Step Time =    1.000,"PART-1-1",            58,          -7.5,           30.,            0.,NA,NA,"",       16.8907,      -16.4331,      -3.90477,   37.4199E-03
C:/temp/dataset/8/1_36.odb,Step-1,Increment      4: Step Time =    1.000,"PART-1-1",            59,          -10.,           30.,            0.,NA,NA,"",       17.0402,      -16.4141,      -4.57688,   23.2841E-03
C:/temp/dataset/8/1_36.odb,Step-1,Increment      4: Step Time =    1.000,"PART-1-1",            60,         -12.5,           30.,            0.,NA,NA,"",       17.1775,      -16.3470,      -5.27655,   5.72870E-03
C:/temp/dataset/8/1_36.odb,Step-1,Increment      4: Step Time =    1.000,"PART-1-1",            61,          -15.,          27.5,            0.,NA,NA,"",       16.6519,      -15.5823,      -5.87183,   5.81434E-03
C:/temp/dataset/8/1_36.odb,Step-1,Increment      4: Step Time =    1.000,"PART-1-1",            62,          -15.,           25.,            0.,NA,NA,"",       16.0024,      -14.9090,      -5.81363,   23.6385E-03
C:/temp/dataset/8/1_36.odb,Step-1,Increment      4: Step Time =    1.000,"PART-1-1",            63,          -15.,          22.5,            0.,NA,NA,"",       15.3218,      -14.1882,      -5.78368,   39.7313E-03
C:/temp/dataset/8/1_36.odb,Step-1,Increment      4: Step Time =    1.000,"PART-1-1",            64,          -15.,           20.,            0.,NA,NA,"",       14.5667,      -13.3820,      -5.75434,   43.6860E-03
C:/temp/dataset/8/1_36.odb,Step-1,Increment      4: Step Time =    1.000,"PART-1-1",            65,          -15.,          17.5,            0.,NA,NA,"",       13.7174,      -12.4845,      -5.68383,   32.1840E-03
C:/temp/dataset/8/1_36.odb,Step-1,Increment      4: Step Time =    1.000,"PART-1-1",            66,          -15.,           15.,            0.,NA,NA,"",       12.7885,      -11.5244,      -5.54389,   8.53941E-03
C:/temp/dataset/8/1_36.odb,Step-1,Increment      4: Step Time =    1.000,"PART-1-1",            67,          -15.,          12.5,            0.,NA,NA,"",       11.8171,      -10.5462,      -5.33109,   20.1391E-03
C:/temp/dataset/8/1_36.odb,Step-1,Increment      4: Step Time =    1.000,"PART-1-1",            68,          -15.,           10.,            0.,NA,NA,"",       10.8442,      -9.59216,      -5.05846,   48.5267E-03
C:/temp/dataset/8/1_36.odb,Step-1,Increment      4: Step Time =    1.000,"PART-1-1",            69,          -15.,           7.5,            0.,NA,NA,"",       9.91100,      -8.70111,      -4.74538,   71.3509E-03
C:/temp/dataset/8/1_36.odb,Step-1,Increment      4: Step Time =    1.000,"PART-1-1",            70,          -15.,            5.,            0.,NA,NA,"",       9.05401,      -7.89971,      -4.42375,   82.7892E-03
C:/temp/dataset/8/1_36.odb,Step-1,Increment      4: Step Time =    1.000,"PART-1-1",            71,          -15.,           2.5,            0.,NA,NA,"",       8.29345,      -7.19109,      -4.13153,   74.7110E-03
C:/temp/dataset/8/1_36.odb,Step-1,Increment      4: Step Time =    1.000,"PART-1-1",            72,          -15.,            0.,            0.,NA,NA,"",       7.61217,      -6.53978,      -3.89569,   52.1151E-03
C:/temp/dataset/8/1_36.odb,Step-1,Increment      4: Step Time =    1.000,"PART-1-1",            73,          -15.,          -2.5,            0.,NA,NA,"",       6.95781,      -5.88215,      -3.71637,   31.2183E-03
C:/temp/dataset/8/1_36.odb,Step-1,Increment      4: Step Time =    1.000,"PART-1-1",            74,          -15.,           -5.,            0.,NA,NA,"",       6.27520,      -5.17121,      -3.55482,   21.6739E-03
C:/temp/dataset/8/1_36.odb,Step-1,Increment      4: Step Time =    1.000,"PART-1-1",            75,          -15.,          -7.5,            0.,NA,NA,"",       5.53073,      -4.39166,      -3.36189,   39.4851E-03
C:/temp/dataset/8/1_36.odb,Step-1,Increment      4: Step Time =    1.000,"PART-1-1",            76,          -15.,          -10.,            0.,NA,NA,"",       4.73923,      -3.58025,      -3.10518,   68.1885E-03
C:/temp/dataset/8/1_36.odb,Step-1,Increment      4: Step Time =    1.000,"PART-1-1",            77,          -15.,         -12.5,            0.,NA,NA,"",       3.93388,      -2.78851,      -2.77482,   102.850E-03
C:/temp/dataset/8/1_36.odb,Step-1,Increment      4: Step Time =    1.000,"PART-1-1",            78,          -15.,          -15.,            0.,NA,NA,"",       3.15787,      -2.06600,      -2.38826,   135.453E-03
C:/temp/dataset/8/1_36.odb,Step-1,Increment      4: Step Time =    1.000,"PART-1-1",            79,          -15.,         -17.5,            0.,NA,NA,"",       2.44391,      -1.45174,      -1.96600,   160.911E-03
C:/temp/dataset/8/1_36.odb,Step-1,Increment      4: Step Time =    1.000,"PART-1-1",            80,          -15.,          -20.,            0.,NA,NA,"",       1.81513,  -971.547E-03,      -1.53323,   173.618E-03
C:/temp/dataset/8/1_36.odb,Step-1,Increment      4: Step Time =    1.000,"PART-1-1",            81,          -15.,         -22.5,            0.,NA,NA,"",       1.28093,  -629.281E-03,      -1.11569,   173.319E-03
C:/temp/dataset/8/1_36.odb,Step-1,Increment      4: Step Time =    1.000,"PART-1-1",            82,          -15.,          -25.,            0.,NA,NA,"",   832.899E-03,  -398.171E-03,  -731.560E-03,   159.943E-03
C:/temp/dataset/8/1_36.odb,Step-1,Increment      4: Step Time =    1.000,"PART-1-1",            83,          -15.,         -27.5,            0.,NA,NA,"",   444.278E-03,  -234.325E-03,  -377.458E-03,   166.042E-03
C:/temp/dataset/8/1_36.odb,Step-1,Increment      4: Step Time =    1.000,"PART-1-1",            84,         -12.5,          -30.,            0.,NA,NA,"",            0.,   29.3950E-39,  -270.893E-39,   86.6735E-03
C:/temp/dataset/8/1_36.odb,Step-1,Increment      4: Step Time =    1.000,"PART-1-1",            85,          -10.,          -30.,            0.,NA,NA,"",            0.,  -57.6856E-39,  -115.372E-39,   61.2966E-03
C:/temp/dataset/8/1_36.odb,Step-1,Increment      4: Step Time =    1.000,"PART-1-1",            86,          -7.5,          -30.,            0.,NA,NA,"",            0.,   44.2481E-39,  -87.2863E-39,   29.4437E-03
C:/temp/dataset/8/1_36.odb,Step-1,Increment      4: Step Time =    1.000,"PART-1-1",            87,           -5.,          -30.,            0.,NA,NA,"",            0.,  -24.4951E-39,  -32.5927E-39,   13.0060E-03
C:/temp/dataset/8/1_36.odb,Step-1,Increment      4: Step Time =    1.000,"PART-1-1",            88,          -2.5,          -30.,            0.,NA,NA,"",            0.,  -33.6944E-39,  -33.3283E-39,   23.2004E-03
C:/temp/dataset/8/1_36.odb,Step-1,Increment      4: Step Time =    1.000,"PART-1-1",            89,            0.,          -30.,            0.,NA,NA,"",            0.,  -31.8643E-39,   27.2234E-39,   29.5636E-03
C:/temp/dataset/8/1_36.odb,Step-1,Increment      4: Step Time =    1.000,"PART-1-1",            90,           2.5,          -30.,            0.,NA,NA,"",            0.,  -26.6102E-39,  -43.7429E-39,   24.9988E-03
C:/temp/dataset/8/1_36.odb,Step-1,Increment      4: Step Time =    1.000,"PART-1-1",            91,            5.,          -30.,            0.,NA,NA,"",            0.,  -33.5166E-39,   35.4712E-39,   16.1607E-03
C:/temp/dataset/8/1_36.odb,Step-1,Increment      4: Step Time =    1.000,"PART-1-1",            92,           7.5,          -30.,            0.,NA,NA,"",            0.,   24.7102E-39,   51.6290E-39,   29.3441E-03
C:/temp/dataset/8/1_36.odb,Step-1,Increment      4: Step Time =    1.000,"PART-1-1",            93,           10.,          -30.,            0.,NA,NA,"",            0.,  -71.5750E-39,   169.761E-39,   63.4613E-03
C:/temp/dataset/8/1_36.odb,Step-1,Increment      4: Step Time =    1.000,"PART-1-1",            94,          12.5,          -30.,            0.,NA,NA,"",            0.,  -19.5520E-39,   193.895E-39,   98.9084E-03
C:/temp/dataset/8/1_36.odb,Step-1,Increment      4: Step Time =    1.000,"PART-1-1",            95,           15.,      -27.5250,            0.,NA,NA,"",   539.441E-03,  -342.873E-03,   416.454E-03,   177.037E-03
C:/temp/dataset/8/1_36.odb,Step-1,Increment      4: Step Time =    1.000,"PART-1-1",            96,           15.,      -25.0500,            0.,NA,NA,"",   981.140E-03,  -617.085E-03,   762.786E-03,   165.457E-03
C:/temp/dataset/8/1_36.odb,Step-1,Increment      4: Step Time =    1.000,"PART-1-1",            97,           15.,      -22.5750,            0.,NA,NA,"",       1.47784,  -974.158E-03,       1.11132,   169.514E-03
C:/temp/dataset/8/1_36.odb,Step-1,Increment      4: Step Time =    1.000,"PART-1-1",            98,           15.,      -17.5875,            0.,NA,NA,"",       2.69819,      -2.07479,       1.72495,   145.995E-03
C:/temp/dataset/8/1_36.odb,Step-1,Increment      4: Step Time =    1.000,"PART-1-1",            99,           15.,      -15.0750,            0.,NA,NA,"",       3.39949,      -2.79687,       1.93238,   120.639E-03
C:/temp/dataset/8/1_36.odb,Step-1,Increment      4: Step Time =    1.000,"PART-1-1",           100,           15.,      -12.5625,            0.,NA,NA,"",       4.12714,      -3.57579,       2.06083,   93.4211E-03
C:/temp/dataset/8/1_36.odb,Step-1,Increment      4: Step Time =    1.000,"PART-1-1",           101,           15.,      -7.53750,            0.,NA,NA,"",       5.57072,      -5.14514,       2.13550,   47.6881E-03
C:/temp/dataset/8/1_36.odb,Step-1,Increment      4: Step Time =    1.000,"PART-1-1",           102,           15.,      -5.02500,            0.,NA,NA,"",       6.24605,      -5.87305,       2.12613,   41.4317E-03
C:/temp/dataset/8/1_36.odb,Step-1,Increment      4: Step Time =    1.000,"PART-1-1",           103,           15.,      -2.51250,            0.,NA,NA,"",       6.89314,      -6.55581,       2.12999,   48.8445E-03
C:/temp/dataset/8/1_36.odb,Step-1,Increment      4: Step Time =    1.000,"PART-1-1",           104,           15.,       2.47500,            0.,NA,NA,"",       8.25672,      -7.94148,       2.25972,   89.1909E-03
C:/temp/dataset/8/1_36.odb,Step-1,Increment      4: Step Time =    1.000,"PART-1-1",           105,           15.,       4.95000,            0.,NA,NA,"",       9.05972,      -8.75064,       2.34626,   96.7823E-03
C:/temp/dataset/8/1_36.odb,Step-1,Increment      4: Step Time =    1.000,"PART-1-1",           106,           15.,       7.42500,            0.,NA,NA,"",       9.95664,      -9.66574,       2.38919,   84.4768E-03
C:/temp/dataset/8/1_36.odb,Step-1,Increment      4: Step Time =    1.000,"PART-1-1",           107,           15.,       12.4125,            0.,NA,NA,"",       11.9009,      -11.6868,       2.24732,   30.6500E-03
C:/temp/dataset/8/1_36.odb,Step-1,Increment      4: Step Time =    1.000,"PART-1-1",           108,           15.,       14.9250,            0.,NA,NA,"",       12.8732,      -12.7049,       2.07459,   4.18990E-03
C:/temp/dataset/8/1_36.odb,Step-1,Increment      4: Step Time =    1.000,"PART-1-1",           109,           15.,       17.4375,            0.,NA,NA,"",       13.8074,      -13.6816,       1.85956,   18.0635E-03
C:/temp/dataset/8/1_36.odb,Step-1,Increment      4: Step Time =    1.000,"PART-1-1",           110,           15.,       22.4625,            0.,NA,NA,"",       15.5378,      -15.4759,       1.38467,   44.4179E-03
C:/temp/dataset/8/1_36.odb,Step-1,Increment      4: Step Time =    1.000,"PART-1-1",           111,           15.,       24.9750,            0.,NA,NA,"",       16.2500,      -16.2034,       1.23028,   32.0227E-03
C:/temp/dataset/8/1_36.odb,Step-1,Increment      4: Step Time =    1.000,"PART-1-1",           112,           15.,       27.4875,            0.,NA,NA,"",       16.9352,      -16.8971,       1.13613,   32.4501E-03
C:/temp/dataset/8/1_36.odb,Step-1,Increment      4: Step Time =    1.000,"PART-1-1",           113,       13.1365,       7.82775,            0.,NA,NA,"",       9.80796,      -9.65004,       1.75291,   62.7950E-03
C:/temp/dataset/8/1_36.odb,Step-1,Increment      4: Step Time =    1.000,"PART-1-1",           114,       12.9206,      -22.7091,            0.,NA,NA,"",       1.14386,  -800.139E-03,   817.431E-03,   132.929E-03
C:/temp/dataset/8/1_36.odb,Step-1,Increment      4: Step Time =    1.000,"PART-1-1",           115,       12.1826,      -25.1314,            0.,NA,NA,"",   638.160E-03,  -423.895E-03,   477.034E-03,   122.689E-03
C:/temp/dataset/8/1_36.odb,Step-1,Increment      4: Step Time =    1.000,"PART-1-1",           116,       12.6244,   112.324E-03,            0.,NA,NA,"",       7.27214,      -7.10560,       1.54742,   62.0174E-03
C:/temp/dataset/8/1_36.odb,Step-1,Increment      4: Step Time =    1.000,"PART-1-1",           117,       12.7971,       5.51469,            0.,NA,NA,"",       8.91478,      -8.75679,       1.67092,   67.5436E-03
C:/temp/dataset/8/1_36.odb,Step-1,Increment      4: Step Time =    1.000,"PART-1-1",           118,       12.0259,       2.90661,            0.,NA,NA,"",       7.96980,      -7.84164,       1.42350,   63.8651E-03
C:/temp/dataset/8/1_36.odb,Step-1,Increment      4: Step Time =    1.000,"PART-1-1",           119,       6.98518,      -9.77271,            0.,NA,NA,"",       3.98082,      -3.98038,   59.3900E-03,   70.8982E-03
C:/temp/dataset/8/1_36.odb,Step-1,Increment      4: Step Time =    1.000,"PART-1-1",           120,       7.90645,      -27.9165,            0.,NA,NA,"",   87.9103E-03,  -66.7497E-03,   57.2075E-03,   38.2370E-03
C:/temp/dataset/8/1_36.odb,Step-1,Increment      4: Step Time =    1.000,"PART-1-1",           121,      -2.48144,      -27.6485,            0.,NA,NA,"",   99.0945E-03,  -98.9751E-03,   4.86161E-03,   36.0303E-03
C:/temp/dataset/8/1_36.odb,Step-1,Increment      4: Step Time =    1.000,"PART-1-1",           122,      -12.5133,      -12.5664,            0.,NA,NA,"",       3.41385,      -2.78209,      -1.97846,   94.1899E-03
C:/temp/dataset/8/1_36.odb,Step-1,Increment      4: Step Time =    1.000,"PART-1-1",           123,      -12.5789,       17.4824,            0.,NA,NA,"",       13.5470,      -12.6503,      -4.84673,   26.7727E-03
C:/temp/dataset/8/1_36.odb,Step-1,Increment      4: Step Time =    1.000,"PART-1-1",           124,      -2.62827,      -2.48556,            0.,NA,NA,"",       6.28828,      -6.23320,  -830.465E-03,   111.767E-03
C:/temp/dataset/8/1_36.odb,Step-1,Increment      4: Step Time =    1.000,"PART-1-1",           125,      -2.40341,       2.52844,            0.,NA,NA,"",       7.32669,      -7.26812,  -924.601E-03,   96.8756E-03
C:/temp/dataset/8/1_36.odb,Step-1,Increment      4: Step Time =    1.000,"PART-1-1",           126,       2.45915,      -2.56896,            0.,NA,NA,"",       6.23541,      -6.21268,  -531.815E-03,   92.6571E-03
C:/temp/dataset/8/1_36.odb,Step-1,Increment      4: Step Time =    1.000,"PART-1-1",           127,       2.65554,       2.44196,            0.,NA,NA,"",       7.25554,      -7.23007,  -607.374E-03,   110.839E-03
C:/temp/dataset/8/1_36.odb,Step-1,Increment      4: Step Time =    1.000,"PART-1-1",           128,       2.47444,       22.5736,            0.,NA,NA,"",       14.9613,      -14.8425,      -1.88178,   66.8086E-03
C:/temp/dataset/8/1_36.odb,Step-1,Increment      4: Step Time =    1.000,"PART-1-1",           129,   16.3473E-03,       27.5162,            0.,NA,NA,"",       16.1128,      -15.9434,      -2.33039,   47.8812E-03
C:/temp/dataset/8/1_36.odb,Step-1,Increment      4: Step Time =    1.000,"PART-1-1",           130,      -2.67853,       22.8897,            0.,NA,NA,"",       15.0407,      -14.8106,      -2.62133,   78.1518E-03
C:/temp/dataset/8/1_36.odb,Step-1,Increment      4: Step Time =    1.000,"PART-1-1",           131,      -12.4925,       19.9647,            0.,NA,NA,"",       14.4169,      -13.5401,      -4.95115,   18.7301E-03
C:/temp/dataset/8/1_36.odb,Step-1,Increment      4: Step Time =    1.000,"PART-1-1",           132,      -7.56076,       17.4403,            0.,NA,NA,"",       13.3086,      -12.9184,      -3.19915,   75.5909E-03
C:/temp/dataset/8/1_36.odb,Step-1,Increment      4: Step Time =    1.000,"PART-1-1",           133,       7.61200,       17.3671,            0.,NA,NA,"",       13.2140,      -13.1961,  -688.406E-03,   72.4510E-03
C:/temp/dataset/8/1_36.odb,Step-1,Increment      4: Step Time =    1.000,"PART-1-1",           134,      -9.59813,      -27.6832,            0.,NA,NA,"",   99.8762E-03,  -19.5546E-03,  -97.9433E-03,   53.1493E-03
C:/temp/dataset/8/1_36.odb,Step-1,Increment      4: Step Time =    1.000,"PART-1-1",           135,       4.78979,      -2.62807,            0.,NA,NA,"",       6.15960,      -6.15150,  -315.916E-03,   61.7040E-03
C:/temp/dataset/8/1_36.odb,Step-1,Increment      4: Step Time =    1.000,"PART-1-1",           136,       7.77864,      -12.2173,            0.,NA,NA,"",       3.24341,      -3.23261,   264.407E-03,   61.0545E-03
C:/temp/dataset/8/1_36.odb,Step-1,Increment      4: Step Time =    1.000,"PART-1-1",           137,       7.25860,      -19.5166,            0.,NA,NA,"",       1.08064,      -1.05972,   211.600E-03,   87.0300E-03
C:/temp/dataset/8/1_36.odb,Step-1,Increment      4: Step Time =    1.000,"PART-1-1",           138,      -4.85223,      -22.6747,            0.,NA,NA,"",   401.473E-03,  -396.898E-03,   60.4385E-03,   50.2180E-03
C:/temp/dataset/8/1_36.odb,Step-1,Increment      4: Step Time =    1.000,"PART-1-1",           139,      -12.1899,      -27.1304,            0.,NA,NA,"",   268.325E-03,  -102.444E-03,  -247.999E-03,   110.811E-03
C:/temp/dataset/8/1_36.odb,Step-1,Increment      4: Step Time =    1.000,"PART-1-1",           140,      -12.5022,       10.0467,            0.,NA,NA,"",       10.5801,      -9.73875,      -4.13456,   49.3596E-03
C:/temp/dataset/8/1_36.odb,Step-1,Increment      4: Step Time =    1.000,"PART-1-1",           141,      -12.8398,       4.62624,            0.,NA,NA,"",       8.64943,      -7.83456,      -3.66501,   55.9070E-03
C:/temp/dataset/8/1_36.odb,Step-1,Increment      4: Step Time =    1.000,"PART-1-1",           142,      -12.8490,  -38.7177E-03,            0.,NA,NA,"",       7.33677,      -6.57260,      -3.26025,   53.7505E-03
C:/temp/dataset/8/1_36.odb,Step-1,Increment      4: Step Time =    1.000,"PART-1-1",           143,      -13.3237,      -5.02762,            0.,NA,NA,"",       6.03881,      -5.21852,      -3.03880,   37.7607E-03
C:/temp/dataset/8/1_36.odb,Step-1,Increment      4: Step Time =    1.000,"PART-1-1",           144,      -7.45280,      -10.1617,            0.,NA,NA,"",       3.74665,      -3.65518,  -822.836E-03,   70.1321E-03
C:/temp/dataset/8/1_36.odb,Step-1,Increment      4: Step Time =    1.000,"PART-1-1",           145,  -24.6675E-03,      -2.52386,            0.,NA,NA,"",       6.27405,      -6.23633,  -686.891E-03,   80.6203E-03
C:/temp/dataset/8/1_36.odb,Step-1,Increment      4: Step Time =    1.000,"PART-1-1",           146,       4.79423,       22.5397,            0.,NA,NA,"",       14.9489,      -14.8726,      -1.50869,   64.4133E-03
C:/temp/dataset/8/1_36.odb,Step-1,Increment      4: Step Time =    1.000,"PART-1-1",           147,       7.23210,       9.87276,            0.,NA,NA,"",       10.0505,      -10.0453,  -323.967E-03,   35.9735E-03
C:/temp/dataset/8/1_36.odb,Step-1,Increment      4: Step Time =    1.000,"PART-1-1",           148,       7.03782,       7.56931,            0.,NA,NA,"",       9.09867,      -9.09644,  -201.114E-03,   65.5312E-03
C:/temp/dataset/8/1_36.odb,Step-1,Increment      4: Step Time =    1.000,"PART-1-1",           149,   58.7546E-03,       2.48470,            0.,NA,NA,"",       7.27760,      -7.23800,  -758.222E-03,   90.7957E-03
C:/temp/dataset/8/1_36.odb,Step-1,Increment      4: Step Time =    1.000,"PART-1-1",           150,      -4.69679,       2.58686,            0.,NA,NA,"",       7.43474,      -7.33868,      -1.19131,   48.6747E-03
C:/temp/dataset/8/1_36.odb,Step-1,Increment      4: Step Time =    1.000,"PART-1-1",           151,      -12.4528,       27.7132,            0.,NA,NA,"",       16.5687,      -15.7392,      -5.17673,   17.8200E-03
C:/temp/dataset/8/1_36.odb,Step-1,Increment      4: Step Time =    1.000,"PART-1-1",           152,      -11.8772,       25.1339,            0.,NA,NA,"",       15.8797,      -15.0944,      -4.93192,   24.6144E-03
C:/temp/dataset/8/1_36.odb,Step-1,Increment      4: Step Time =    1.000,"PART-1-1",           153,      -12.3064,       22.4596,            0.,NA,NA,"",       15.1755,      -14.3345,      -4.98153,   19.3487E-03
C:/temp/dataset/8/1_36.odb,Step-1,Increment      4: Step Time =    1.000,"PART-1-1",           154,      -7.54035,       19.8016,            0.,NA,NA,"",       14.2227,      -13.8043,      -3.42439,   52.9771E-03
C:/temp/dataset/8/1_36.odb,Step-1,Increment      4: Step Time =    1.000,"PART-1-1",           155,   42.2180E-03,       22.5936,            0.,NA,NA,"",       14.9639,      -14.7962,      -2.23402,   52.6604E-03
C:/temp/dataset/8/1_36.odb,Step-1,Increment      4: Step Time =    1.000,"PART-1-1",           156,       10.3286,       27.6906,            0.,NA,NA,"",       16.6040,      -16.6030,  -177.198E-03,   49.1146E-03
C:/temp/dataset/8/1_36.odb,Step-1,Increment      4: Step Time =    1.000,"PART-1-1",           157,       7.73802,       27.2328,            0.,NA,NA,"",       16.3011,      -16.2784,  -859.492E-03,   46.9069E-03
C:/temp/dataset/8/1_36.odb,Step-1,Increment      4: Step Time =    1.000,"PART-1-1",           158,       4.99833,       27.5198,            0.,NA,NA,"",       16.2287,      -16.1613,      -1.47794,   48.3778E-03
C:/temp/dataset/8/1_36.odb,Step-1,Increment      4: Step Time =    1.000,"PART-1-1",           159,       2.50368,       27.5752,            0.,NA,NA,"",       16.1593,      -16.0432,      -1.93374,   50.0935E-03
C:/temp/dataset/8/1_36.odb,Step-1,Increment      4: Step Time =    1.000,"PART-1-1",           160,      -2.79867,       27.0761,            0.,NA,NA,"",       16.0330,      -15.7909,      -2.77567,   40.2806E-03
C:/temp/dataset/8/1_36.odb,Step-1,Increment      4: Step Time =    1.000,"PART-1-1",           161,      -5.48457,       27.7642,            0.,NA,NA,"",       16.2652,      -15.9207,      -3.33006,   19.8998E-03
C:/temp/dataset/8/1_36.odb,Step-1,Increment      4: Step Time =    1.000,"PART-1-1",           162,      -7.83691,       28.0652,            0.,NA,NA,"",       16.4330,      -15.9614,      -3.90861,   20.2816E-03
C:/temp/dataset/8/1_36.odb,Step-1,Increment      4: Step Time =    1.000,"PART-1-1",           163,      -7.54955,       15.0035,            0.,NA,NA,"",       12.3164,      -11.9623,      -2.93233,   52.3439E-03
C:/temp/dataset/8/1_36.odb,Step-1,Increment      4: Step Time =    1.000,"PART-1-1",           164,      -12.5932,       15.0060,            0.,NA,NA,"",       12.5900,      -11.6943,      -4.66383,   35.8559E-03
C:/temp/dataset/8/1_36.odb,Step-1,Increment      4: Step Time =    1.000,"PART-1-1",           165,      -7.55247,       12.5555,            0.,NA,NA,"",       11.3050,      -10.9856,      -2.66849,   39.7123E-03
C:/temp/dataset/8/1_36.odb,Step-1,Increment      4: Step Time =    1.000,"PART-1-1",           166,      -12.5729,       12.5419,            0.,NA,NA,"",       11.5931,      -10.7159,      -4.42376,   43.4895E-03
C:/temp/dataset/8/1_36.odb,Step-1,Increment      4: Step Time =    1.000,"PART-1-1",           167,      -7.58565,       10.0709,            0.,NA,NA,"",       10.2785,      -9.98273,      -2.44805,   38.8408E-03
C:/temp/dataset/8/1_36.odb,Step-1,Increment      4: Step Time =    1.000,"PART-1-1",           168,      -7.87743,       7.29005,            0.,NA,NA,"",       9.16623,      -8.87157,      -2.30541,   62.9441E-03
C:/temp/dataset/8/1_36.odb,Step-1,Increment      4: Step Time =    1.000,"PART-1-1",           169,      -12.0798,       7.21824,            0.,NA,NA,"",       9.45154,      -8.70492,      -3.68184,   51.6882E-03
C:/temp/dataset/8/1_36.odb,Step-1,Increment      4: Step Time =    1.000,"PART-1-1",           170,      -13.1404,       2.31216,            0.,NA,NA,"",       7.99808,      -7.17113,      -3.54177,   58.6886E-03
C:/temp/dataset/8/1_36.odb,Step-1,Increment      4: Step Time =    1.000,"PART-1-1",           171,      -12.2753,      -2.89865,            0.,NA,NA,"",       6.52660,      -5.85548,      -2.88268,   40.9737E-03
C:/temp/dataset/8/1_36.odb,Step-1,Increment      4: Step Time =    1.000,"PART-1-1",           172,      -7.56646,      -5.67272,            0.,NA,NA,"",       5.42647,      -5.25544,      -1.35162,   74.5151E-03
C:/temp/dataset/8/1_36.odb,Step-1,Increment      4: Step Time =    1.000,"PART-1-1",           173,      -7.39215,      -7.81560,            0.,NA,NA,"",       4.61656,      -4.49274,      -1.06201,   103.106E-03
C:/temp/dataset/8/1_36.odb,Step-1,Increment      4: Step Time =    1.000,"PART-1-1",           174,      -12.2965,      -7.15435,            0.,NA,NA,"",       5.24410,      -4.58690,      -2.54183,   57.5741E-03
C:/temp/dataset/8/1_36.odb,Step-1,Increment      4: Step Time =    1.000,"PART-1-1",           175,      -12.4696,      -9.99468,            0.,NA,NA,"",       4.29343,      -3.63451,      -2.28557,   80.4257E-03
C:/temp/dataset/8/1_36.odb,Step-1,Increment      4: Step Time =    1.000,"PART-1-1",           176,      -7.49885,      -12.5985,            0.,NA,NA,"",       2.88230,      -2.82038,  -594.222E-03,   53.2680E-03
C:/temp/dataset/8/1_36.odb,Step-1,Increment      4: Step Time =    1.000,"PART-1-1",           177,      -7.51661,      -15.1105,            0.,NA,NA,"",       2.05407,      -2.01174,  -414.873E-03,   45.4958E-03
C:/temp/dataset/8/1_36.odb,Step-1,Increment      4: Step Time =    1.000,"PART-1-1",           178,      -12.5153,      -15.0988,            0.,NA,NA,"",       2.59774,      -2.00563,      -1.65098,   103.078E-03
C:/temp/dataset/8/1_36.odb,Step-1,Increment      4: Step Time =    1.000,"PART-1-1",           179,      -7.51181,      -17.6666,            0.,NA,NA,"",       1.31140,      -1.28259,  -273.395E-03,   56.9623E-03
C:/temp/dataset/8/1_36.odb,Step-1,Increment      4: Step Time =    1.000,"PART-1-1",           180,      -12.5518,      -17.6234,            0.,NA,NA,"",       1.89389,      -1.34167,      -1.33669,   108.963E-03
C:/temp/dataset/8/1_36.odb,Step-1,Increment      4: Step Time =    1.000,"PART-1-1",           181,      -12.7381,      -20.0729,            0.,NA,NA,"",       1.36450,  -845.147E-03,      -1.07126,   116.638E-03
C:/temp/dataset/8/1_36.odb,Step-1,Increment      4: Step Time =    1.000,"PART-1-1",           182,      -13.0750,      -22.3076,            0.,NA,NA,"",       1.01049,  -533.089E-03,  -858.428E-03,   125.856E-03
C:/temp/dataset/8/1_36.odb,Step-1,Increment      4: Step Time =    1.000,"PART-1-1",           183,      -7.24239,      -27.7492,            0.,NA,NA,"",   46.0255E-03,  -28.2049E-03,  -36.3707E-03,   27.3831E-03
C:/temp/dataset/8/1_36.odb,Step-1,Increment      4: Step Time =    1.000,"PART-1-1",           184,      -4.87121,      -27.7117,            0.,NA,NA,"",   62.4858E-03,  -62.4448E-03,  -2.26283E-03,   28.7149E-03
C:/temp/dataset/8/1_36.odb,Step-1,Increment      4: Step Time =    1.000,"PART-1-1",           185,      -2.51629,      -22.5836,            0.,NA,NA,"",   414.833E-03,  -411.046E-03,   55.9257E-03,   65.6587E-03
C:/temp/dataset/8/1_36.odb,Step-1,Increment      4: Step Time =    1.000,"PART-1-1",           186,  -83.6569E-03,      -22.5653,            0.,NA,NA,"",   435.640E-03,  -435.603E-03,   5.71927E-03,   53.4956E-03
C:/temp/dataset/8/1_36.odb,Step-1,Increment      4: Step Time =    1.000,"PART-1-1",           187,  -26.1876E-03,      -27.4903,            0.,NA,NA,"",   124.739E-03,  -124.672E-03,  -4.06926E-03,   39.7240E-03
C:/temp/dataset/8/1_36.odb,Step-1,Increment      4: Step Time =    1.000,"PART-1-1",           188,       2.63365,      -22.7776,            0.,NA,NA,"",   443.276E-03,  -440.181E-03,  -52.2911E-03,   73.5512E-03
C:/temp/dataset/8/1_36.odb,Step-1,Increment      4: Step Time =    1.000,"PART-1-1",           189,       2.80249,      -26.9735,            0.,NA,NA,"",   147.190E-03,  -146.130E-03,  -17.6335E-03,   41.1801E-03
C:/temp/dataset/8/1_36.odb,Step-1,Increment      4: Step Time =    1.000,"PART-1-1",           190,       5.52127,      -27.5919,            0.,NA,NA,"",   88.9658E-03,  -88.1171E-03,   12.2596E-03,   26.7989E-03
C:/temp/dataset/8/1_36.odb,Step-1,Increment      4: Step Time =    1.000,"PART-1-1",           191,       10.2455,      -28.0297,            0.,NA,NA,"",   141.945E-03,  -83.7244E-03,   114.624E-03,   76.9244E-03
C:/temp/dataset/8/1_36.odb,Step-1,Increment      4: Step Time =    1.000,"PART-1-1",           192,       7.32442,      -17.2829,            0.,NA,NA,"",       1.68947,      -1.67717,   203.453E-03,   59.6290E-03
C:/temp/dataset/8/1_36.odb,Step-1,Increment      4: Step Time =    1.000,"PART-1-1",           193,       7.51239,      -14.8720,            0.,NA,NA,"",       2.40263,      -2.39265,   218.870E-03,   49.9715E-03
C:/temp/dataset/8/1_36.odb,Step-1,Increment      4: Step Time =    1.000,"PART-1-1",           194,       6.95682,      -7.47937,            0.,NA,NA,"",       4.73878,      -4.73844,   56.9705E-03,   92.8307E-03
C:/temp/dataset/8/1_36.odb,Step-1,Increment      4: Step Time =    1.000,"PART-1-1",           195,       7.18655,       5.44056,            0.,NA,NA,"",       8.25871,      -8.25870,   12.4879E-03,   81.5159E-03
C:/temp/dataset/8/1_36.odb,Step-1,Increment      4: Step Time =    1.000,"PART-1-1",           196,       7.54073,       12.3094,            0.,NA,NA,"",       11.0853,      -11.0780,  -404.125E-03,   41.0435E-03
C:/temp/dataset/8/1_36.odb,Step-1,Increment      4: Step Time =    1.000,"PART-1-1",           197,       7.60223,       14.8257,            0.,NA,NA,"",       12.1548,      -12.1426,  -545.951E-03,   53.4178E-03
C:/temp/dataset/8/1_36.odb,Step-1,Increment      4: Step Time =    1.000,"PART-1-1",           198,       12.6819,       27.6459,            0.,NA,NA,"",       16.7837,      -16.7766,   488.899E-03,   41.7000E-03
C:/temp/dataset/8/1_36.odb,Step-1,Increment      4: Step Time =    1.000,"PART-1-1",           199,       12.0457,       20.1903,            0.,NA,NA,"",       14.5311,      -14.5195,   578.608E-03,   22.4539E-03
C:/temp/dataset/8/1_36.odb,Step-1,Increment      4: Step Time =    1.000,"PART-1-1",           200,       12.7260,      -12.7389,            0.,NA,NA,"",       3.65731,      -3.35284,       1.46096,   87.0871E-03
C:/temp/dataset/8/1_36.odb,Step-1,Increment      4: Step Time =    1.000,"PART-1-1",           201,       12.6061,      -7.88185,            0.,NA,NA,"",       5.11774,      -4.89648,       1.48852,   59.9554E-03
C:/temp/dataset/8/1_36.odb,Step-1,Increment      4: Step Time =    1.000,"PART-1-1",           202,       12.5539,      -15.1942,            0.,NA,NA,"",       2.90208,      -2.57449,       1.33944,   99.9034E-03
C:/temp/dataset/8/1_36.odb,Step-1,Increment      4: Step Time =    1.000,"PART-1-1",           203,       12.2961,      -17.8876,            0.,NA,NA,"",       2.12047,      -1.78572,       1.14351,   112.021E-03
C:/temp/dataset/8/1_36.odb,Step-1,Increment      4: Step Time =    1.000,"PART-1-1",           204,       11.9819,      -5.08387,            0.,NA,NA,"",       5.84885,      -5.69593,       1.32873,   45.8193E-03
C:/temp/dataset/8/1_36.odb,Step-1,Increment      4: Step Time =    1.000,"PART-1-1",           205,       12.8886,       12.3962,            0.,NA,NA,"",       11.5897,      -11.4977,       1.45743,   42.0569E-03
C:/temp/dataset/8/1_36.odb,Step-1,Increment      4: Step Time =    1.000,"PART-1-1",           206,       12.6351,       22.8269,            0.,NA,NA,"",       15.4405,      -15.4278,   624.079E-03,   30.8612E-03
C:/temp/dataset/8/1_36.odb,Step-1,Increment      4: Step Time =    1.000,"PART-1-1",           207,       12.6677,       14.8477,            0.,NA,NA,"",       12.5522,      -12.4943,       1.20436,   34.6102E-03
C:/temp/dataset/8/1_36.odb,Step-1,Increment      4: Step Time =    1.000,"PART-1-1",           208,       12.7436,      -2.36883,            0.,NA,NA,"",       6.64915,      -6.46727,       1.54451,   51.6983E-03
C:/temp/dataset/8/1_36.odb,Step-1,Increment      4: Step Time =    1.000,"PART-1-1",           209,       12.7993,      -10.3700,            0.,NA,NA,"",       4.39140,      -4.11928,       1.52180,   73.7000E-03
C:/temp/dataset/8/1_36.odb,Step-1,Increment      4: Step Time =    1.000,"PART-1-1",           210,       12.9901,      -20.3906,            0.,NA,NA,"",       1.63105,      -1.23518,       1.06520,   130.558E-03
C:/temp/dataset/8/1_36.odb,Step-1,Increment      4: Step Time =    1.000,"PART-1-1",           211,       13.2149,       10.1248,            0.,NA,NA,"",       10.7178,      -10.5820,       1.70076,   51.2117E-03
C:/temp/dataset/8/1_36.odb,Step-1,Increment      4: Step Time =    1.000,"PART-1-1",           212,       12.5082,       17.3754,            0.,NA,NA,"",       13.5253,      -13.4921,   947.780E-03,   29.9130E-03
C:/temp/dataset/8/1_36.odb,Step-1,Increment      4: Step Time =    1.000,"PART-1-1",           213,       12.5546,      -27.7200,            0.,NA,NA,"",   297.899E-03,  -186.347E-03,   232.419E-03,   134.916E-03
C:/temp/dataset/8/1_36.odb,Step-1,Increment      4: Step Time =    1.000,"PART-1-1",           214,       9.90568,       4.71999,            0.,NA,NA,"",       8.27864,      -8.23886,   810.608E-03,   61.1434E-03
C:/temp/dataset/8/1_36.odb,Step-1,Increment      4: Step Time =    1.000,"PART-1-1",           215,       10.7501,       6.50016,            0.,NA,NA,"",       9.00435,      -8.94553,       1.02760,   58.5022E-03
C:/temp/dataset/8/1_36.odb,Step-1,Increment      4: Step Time =    1.000,"PART-1-1",           216,       9.75591,      -23.6488,            0.,NA,NA,"",   602.992E-03,  -481.555E-03,   362.910E-03,   78.7391E-03
C:/temp/dataset/8/1_36.odb,Step-1,Increment      4: Step Time =    1.000,"PART-1-1",           217,       9.57327,       1.65180,            0.,NA,NA,"",       7.33962,      -7.30472,   714.911E-03,   51.5888E-03
C:/temp/dataset/8/1_36.odb,Step-1,Increment      4: Step Time =    1.000,"PART-1-1",           218,       11.2006,       8.46802,            0.,NA,NA,"",       9.80940,      -9.74784,       1.09727,   56.7790E-03
C:/temp/dataset/8/1_36.odb,Step-1,Increment      4: Step Time =    1.000,"PART-1-1",           219,       11.2103,      -20.8620,            0.,NA,NA,"",       1.26026,      -1.01469,   747.432E-03,   107.392E-03
C:/temp/dataset/8/1_36.odb,Step-1,Increment      4: Step Time =    1.000,"PART-1-1",           220,       11.1015,      -2.06477,            0.,NA,NA,"",       6.55237,      -6.45840,       1.10573,   47.4104E-03
C:/temp/dataset/8/1_36.odb,Step-1,Increment      4: Step Time =    1.000,"PART-1-1",           221,       5.62425,       2.31421,            0.,NA,NA,"",       7.26194,      -7.25734,  -258.467E-03,   34.0000E-03
C:/temp/dataset/8/1_36.odb,Step-1,Increment      4: Step Time =    1.000,"PART-1-1",           222,      -6.74047,       2.51715,            0.,NA,NA,"",       7.49759,      -7.32048,      -1.62001,   31.3806E-03
C:/temp/dataset/8/1_36.odb,Step-1,Increment      4: Step Time =    1.000,"PART-1-1",           223,      -7.42064,      -20.2654,            0.,NA,NA,"",   707.716E-03,  -688.582E-03,  -163.449E-03,   40.3395E-03
C:/temp/dataset/8/1_36.odb,Step-1,Increment      4: Step Time =    1.000,"PART-1-1",           224,       7.69979,      -4.91359,            0.,NA,NA,"",       5.60212,      -5.59685,   242.888E-03,   51.1238E-03
C:/temp/dataset/8/1_36.odb,Step-1,Increment      4: Step Time =    1.000,"PART-1-1",           225,       7.31956,      -21.5115,            0.,NA,NA,"",   687.075E-03,  -663.787E-03,   177.364E-03,   60.5143E-03
C:/temp/dataset/8/1_36.odb,Step-1,Increment      4: Step Time =    1.000,"PART-1-1",           226,      -5.66399,      -2.34175,            0.,NA,NA,"",       6.33230,      -6.22842,      -1.14229,   68.1410E-03
C:/temp/dataset/8/1_36.odb,Step-1,Increment      4: Step Time =    1.000,"PART-1-1",           227,       7.85227,       20.1110,            0.,NA,NA,"",       14.2856,      -14.2670,  -729.499E-03,   32.6000E-03
C:/temp/dataset/8/1_36.odb,Step-1,Increment      4: Step Time =    1.000,"PART-1-1",           228,      -7.47305,       21.9136,            0.,NA,NA,"",       14.8780,      -14.4535,      -3.52881,   38.2506E-03
C:/temp/dataset/8/1_36.odb,Step-1,Increment      4: Step Time =    1.000,"PART-1-1",           229,      -10.1610,       28.1071,            0.,NA,NA,"",       16.5539,      -15.9188,      -4.54120,   21.1162E-03
C:/temp/dataset/8/1_36.odb,Step-1,Increment      4: Step Time =    1.000,"PART-1-1",           230,      -12.9524,      -24.6214,            0.,NA,NA,"",   642.690E-03,  -298.992E-03,  -568.906E-03,   127.824E-03
C:/temp/dataset/8/1_36.odb,Step-1,Increment      4: Step Time =    1.000,"PART-1-1",           231,       8.38984,      -7.76285,            0.,NA,NA,"",       4.74717,      -4.72789,   427.396E-03,   76.2635E-03
C:/temp/dataset/8/1_36.odb,Step-1,Increment      4: Step Time =    1.000,"PART-1-1",           232,       2.50724,  -56.7369E-03,            0.,NA,NA,"",       6.73567,      -6.71033,  -583.729E-03,   100.039E-03
C:/temp/dataset/8/1_36.odb,Step-1,Increment      4: Step Time =    1.000,"PART-1-1",           233,       10.3135,       11.8620,            0.,NA,NA,"",       11.1024,      -11.0864,   595.374E-03,   52.9104E-03
C:/temp/dataset/8/1_36.odb,Step-1,Increment      4: Step Time =    1.000,"PART-1-1",           234,       2.50286,       25.1199,            0.,NA,NA,"",       15.5697,      -15.4518,      -1.91278,   63.5263E-03
C:/temp/dataset/8/1_36.odb,Step-1,Increment      4: Step Time =    1.000,"PART-1-1",           235,      -1.67654,       25.0421,            0.,NA,NA,"",       15.5387,      -15.3309,      -2.53298,   57.9242E-03
C:/temp/dataset/8/1_36.odb,Step-1,Increment      4: Step Time =    1.000,"PART-1-1",           236,      -9.12088,      -25.5416,            0.,NA,NA,"",   208.279E-03,  -125.655E-03,  -166.106E-03,   45.4083E-03
C:/temp/dataset/8/1_36.odb,Step-1,Increment      4: Step Time =    1.000,"PART-1-1",           237,   18.1833E-03,  -29.2602E-03,            0.,NA,NA,"",       6.76344,      -6.72503,  -719.742E-03,   104.019E-03
C:/temp/dataset/8/1_36.odb,Step-1,Increment      4: Step Time =    1.000,"PART-1-1",           238,      -6.37745,       25.7068,            0.,NA,NA,"",       15.8062,      -15.4259,      -3.44638,   21.0402E-03
C:/temp/dataset/8/1_36.odb,Step-1,Increment      4: Step Time =    1.000,"PART-1-1",           239,      -10.0857,       17.4416,            0.,NA,NA,"",       13.4087,      -12.7886,      -4.03053,   46.1536E-03
C:/temp/dataset/8/1_36.odb,Step-1,Increment      4: Step Time =    1.000,"PART-1-1",           240,      -10.0934,       12.5946,            0.,NA,NA,"",       11.4356,      -10.8658,      -3.56480,   53.0831E-03
C:/temp/dataset/8/1_36.odb,Step-1,Increment      4: Step Time =    1.000,"PART-1-1",           241,      -9.86502,       5.52778,            0.,NA,NA,"",       8.64395,      -8.18287,      -2.78541,   53.2198E-03
C:/temp/dataset/8/1_36.odb,Step-1,Increment      4: Step Time =    1.000,"PART-1-1",           242,      -11.6239,       2.22269,            0.,NA,NA,"",       7.80429,      -7.18118,      -3.05574,   54.3527E-03
C:/temp/dataset/8/1_36.odb,Step-1,Increment      4: Step Time =    1.000,"PART-1-1",           243,      -10.6228,      -5.01114,            0.,NA,NA,"",       5.77573,      -5.32175,      -2.24458,   39.2073E-03
C:/temp/dataset/8/1_36.odb,Step-1,Increment      4: Step Time =    1.000,"PART-1-1",           244,      -9.74711,      -1.61456,            0.,NA,NA,"",       6.65883,      -6.28017,      -2.21348,   45.5250E-03
C:/temp/dataset/8/1_36.odb,Step-1,Increment      4: Step Time =    1.000,"PART-1-1",           245,      -9.39421,      -6.20391,            0.,NA,NA,"",       5.31030,      -4.99463,      -1.80358,   61.0302E-03
C:/temp/dataset/8/1_36.odb,Step-1,Increment      4: Step Time =    1.000,"PART-1-1",           246,      -9.97684,      -10.1599,            0.,NA,NA,"",       3.93155,      -3.61232,      -1.55184,   83.5008E-03
C:/temp/dataset/8/1_36.odb,Step-1,Increment      4: Step Time =    1.000,"PART-1-1",           247,      -10.0276,      -15.1451,            0.,NA,NA,"",       2.22524,      -1.97520,      -1.02484,   78.7150E-03
C:/temp/dataset/8/1_36.odb,Step-1,Increment      4: Step Time =    1.000,"PART-1-1",           248,      -10.1181,      -20.6738,            0.,NA,NA,"",   866.670E-03,  -664.459E-03,  -556.427E-03,   69.6927E-03
C:/temp/dataset/8/1_36.odb,Step-1,Increment      4: Step Time =    1.000,"PART-1-1",           249,      -4.81760,      -25.2822,            0.,NA,NA,"",   196.373E-03,  -195.317E-03,   20.3347E-03,   39.2673E-03
C:/temp/dataset/8/1_36.odb,Step-1,Increment      4: Step Time =    1.000,"PART-1-1",           250,      -2.52593,      -25.1657,            0.,NA,NA,"",   246.235E-03,  -244.212E-03,   31.5051E-03,   55.3984E-03
C:/temp/dataset/8/1_36.odb,Step-1,Increment      4: Step Time =    1.000,"PART-1-1",           251,       4.38823,      -24.6132,            0.,NA,NA,"",   298.458E-03,  -297.009E-03,  -29.3714E-03,   40.3509E-03
C:/temp/dataset/8/1_36.odb,Step-1,Increment      4: Step Time =    1.000,"PART-1-1",           252,       1.65324,      -24.9792,            0.,NA,NA,"",   285.569E-03,  -284.169E-03,  -28.2471E-03,   53.6242E-03
C:/temp/dataset/8/1_36.odb,Step-1,Increment      4: Step Time =    1.000,"PART-1-1",           253,      -10.0865,       15.0098,            0.,NA,NA,"",       12.4338,      -11.8361,      -3.80880,   50.6204E-03
C:/temp/dataset/8/1_36.odb,Step-1,Increment      4: Step Time =    1.000,"PART-1-1",           254,       10.3961,      -12.7490,            0.,NA,NA,"",       3.33123,      -3.20700,   901.229E-03,   78.1079E-03
C:/temp/dataset/8/1_36.odb,Step-1,Increment      4: Step Time =    1.000,"PART-1-1",           255,      -10.0322,       8.32342,            0.,NA,NA,"",       9.69409,      -9.18097,      -3.11211,   50.6305E-03
C:/temp/dataset/8/1_36.odb,Step-1,Increment      4: Step Time =    1.000,"PART-1-1",           256,      -2.46516,   4.89972E-03,            0.,NA,NA,"",       6.79361,      -6.73945,  -856.112E-03,   103.034E-03
C:/temp/dataset/8/1_36.odb,Step-1,Increment      4: Step Time =    1.000,"PART-1-1",           257,      -9.79923,       22.1172,            0.,NA,NA,"",       14.9868,      -14.3823,      -4.21327,   20.4541E-03
C:/temp/dataset/8/1_36.odb,Step-1,Increment      4: Step Time =    1.000,"PART-1-1",           258,      -9.99953,       19.8330,            0.,NA,NA,"",       14.2774,      -13.6555,      -4.16809,   25.9475E-03
C:/temp/dataset/8/1_36.odb,Step-1,Increment      4: Step Time =    1.000,"PART-1-1",           259,       4.79880,       25.0430,            0.,NA,NA,"",       15.6013,      -15.5282,      -1.50882,   50.5321E-03
C:/temp/dataset/8/1_36.odb,Step-1,Increment      4: Step Time =    1.000,"PART-1-1",           260,      -4.38714,       24.8432,            0.,NA,NA,"",       15.5353,      -15.2475,      -2.97631,   43.4519E-03
C:/temp/dataset/8/1_36.odb,Step-1,Increment      4: Step Time =    1.000,"PART-1-1",           261,      -8.41357,       26.1031,            0.,NA,NA,"",       15.9775,      -15.4733,      -3.98181,   19.9738E-03
C:/temp/dataset/8/1_36.odb,Step-1,Increment      4: Step Time =    1.000,"PART-1-1",           262,      -10.8386,       3.64138,            0.,NA,NA,"",       8.13143,      -7.58702,      -2.92527,   50.3977E-03
C:/temp/dataset/8/1_36.odb,Step-1,Increment      4: Step Time =    1.000,"PART-1-1",           263,      -10.0134,      -12.6076,            0.,NA,NA,"",       3.06114,      -2.77865,      -1.28439,   83.3394E-03
C:/temp/dataset/8/1_36.odb,Step-1,Increment      4: Step Time =    1.000,"PART-1-1",           264,      -10.0439,      -17.7611,            0.,NA,NA,"",       1.48204,      -1.25807,  -783.380E-03,   78.0384E-03
C:/temp/dataset/8/1_36.odb,Step-1,Increment      4: Step Time =    1.000,"PART-1-1",           265,      -11.0756,      -23.9180,            0.,NA,NA,"",   519.363E-03,  -284.274E-03,  -434.656E-03,   84.2625E-03
C:/temp/dataset/8/1_36.odb,Step-1,Increment      4: Step Time =    1.000,"PART-1-1",           266,       6.47384,      -25.3706,            0.,NA,NA,"",   236.200E-03,  -230.790E-03,   50.2628E-03,   22.2772E-03
C:/temp/dataset/8/1_36.odb,Step-1,Increment      4: Step Time =    1.000,"PART-1-1",           267,       8.63297,      -25.7838,            0.,NA,NA,"",   273.634E-03,  -221.882E-03,   160.137E-03,   50.0935E-03
C:/temp/dataset/8/1_36.odb,Step-1,Increment      4: Step Time =    1.000,"PART-1-1",           268,       9.70463,      -17.2924,            0.,NA,NA,"",       1.90892,      -1.78348,   680.556E-03,   87.4612E-03
C:/temp/dataset/8/1_36.odb,Step-1,Increment      4: Step Time =    1.000,"PART-1-1",           269,       9.32258,      -19.2967,            0.,NA,NA,"",       1.35073,      -1.23374,   549.854E-03,   86.3358E-03
C:/temp/dataset/8/1_36.odb,Step-1,Increment      4: Step Time =    1.000,"PART-1-1",           270,       10.5097,       23.5233,            0.,NA,NA,"",       15.4819,      -15.4818,  -47.9494E-03,   30.7925E-03
C:/temp/dataset/8/1_36.odb,Step-1,Increment      4: Step Time =    1.000,"PART-1-1",           271,       10.7249,      -10.6710,            0.,NA,NA,"",       4.02437,      -3.89841,   998.996E-03,   75.1806E-03
C:/temp/dataset/8/1_36.odb,Step-1,Increment      4: Step Time =    1.000,"PART-1-1",           272,       12.7841,       25.2838,            0.,NA,NA,"",       16.1521,      -16.1417,   580.163E-03,   38.2270E-03
C:/temp/dataset/8/1_36.odb,Step-1,Increment      4: Step Time =    1.000,"PART-1-1",           273,       9.70769,       21.6927,            0.,NA,NA,"",       14.8820,      -14.8802,  -233.292E-03,   16.6856E-03
C:/temp/dataset/8/1_36.odb,Step-1,Increment      4: Step Time =    1.000,"PART-1-1",           274,       9.66832,      -6.55030,            0.,NA,NA,"",       5.22079,      -5.16817,   739.343E-03,   55.9758E-03
C:/temp/dataset/8/1_36.odb,Step-1,Increment      4: Step Time =    1.000,"PART-1-1",           275,       10.0513,       19.0714,            0.,NA,NA,"",       14.0029,      -14.0029,   3.51678E-03,   33.1651E-03
C:/temp/dataset/8/1_36.odb,Step-1,Increment      4: Step Time =    1.000,"PART-1-1",           276,       9.87331,      -3.39328,            0.,NA,NA,"",       6.11582,      -6.06641,   775.859E-03,   38.5675E-03
C:/temp/dataset/8/1_36.odb,Step-1,Increment      4: Step Time =    1.000,"PART-1-1",           277,       8.09153,       3.50199,            0.,NA,NA,"",       7.71124,      -7.70515,   306.270E-03,   60.8269E-03
C:/temp/dataset/8/1_36.odb,Step-1,Increment      4: Step Time =    1.000,"PART-1-1",           278,       7.63606,   479.494E-03,            0.,NA,NA,"",       6.91025,      -6.90707,   209.822E-03,   28.2567E-03
C:/temp/dataset/8/1_36.odb,Step-1,Increment      4: Step Time =    1.000,"PART-1-1",           279,       4.79213,  -240.588E-03,            0.,NA,NA,"",       6.67949,      -6.67100,  -336.649E-03,   50.0764E-03
C:/temp/dataset/8/1_36.odb,Step-1,Increment      4: Step Time =    1.000,"PART-1-1",           280,      -4.77040,   213.509E-03,            0.,NA,NA,"",       6.88569,      -6.79359,      -1.12241,   52.4281E-03
C:/temp/dataset/8/1_36.odb,Step-1,Increment      4: Step Time =    1.000,"PART-1-1",           281,      -7.12451,      -22.8795,            0.,NA,NA,"",   354.731E-03,  -346.889E-03,  -74.1758E-03,   7.69112E-03
C:/temp/dataset/8/1_36.odb,Step-1,Increment      4: Step Time =    1.000,"PART-1-1",           282,      -7.18564,       23.8616,            0.,NA,NA,"",       15.3789,      -14.9629,      -3.55288,   28.5051E-03
C:/temp/dataset/8/1_36.odb,Step-1,Increment      4: Step Time =    1.000,"PART-1-1",           283,      -8.39584,      -3.64273,            0.,NA,NA,"",       6.06518,      -5.81884,      -1.71100,   49.8802E-03
C:/temp/dataset/8/1_36.odb,Step-1,Increment      4: Step Time =    1.000,"PART-1-1",           284,      -5.55212,       23.5400,            0.,NA,NA,"",       15.2441,      -14.9165,      -3.14303,   40.9339E-03
C:/temp/dataset/8/1_36.odb,Step-1,Increment      4: Step Time =    1.000,"PART-1-1",           285,      -8.96751,       2.09330,            0.,NA,NA,"",       7.53091,      -7.19587,      -2.22127,   49.4070E-03
C:/temp/dataset/8/1_36.odb,Step-1,Increment      4: Step Time =    1.000,"PART-1-1",           286,      -8.55747,       4.19463,            0.,NA,NA,"",       8.09848,      -7.77709,      -2.25883,   49.7351E-03
C:/temp/dataset/8/1_36.odb,Step-1,Increment      4: Step Time =    1.000,"PART-1-1",           287,      -7.73317,  -334.415E-03,            0.,NA,NA,"",       6.85928,      -6.63894,      -1.72455,   38.0478E-03
C:/temp/dataset/8/1_36.odb,Step-1,Increment      4: Step Time =    1.000,"PART-1-1",           288,      -9.22795,      -23.2507,            0.,NA,NA,"",   416.559E-03,  -313.216E-03,  -274.621E-03,   48.5934E-03
C:/temp/dataset/8/1_36.odb,Step-1,Increment      4: Step Time =    1.000,"PART-1-1",           289,       6.93223,       22.5746,            0.,NA,NA,"",       15.0217,      -14.9857,      -1.03948,   42.8670E-03
C:/temp/dataset/8/1_36.odb,Step-1,Increment      4: Step Time =    1.000,"PART-1-1",           290,       5.55352,      -23.2395,            0.,NA,NA,"",   416.696E-03,  -416.695E-03,  -848.617E-06,   27.3260E-03
C:/temp/dataset/8/1_36.odb,Step-1,Increment      4: Step Time =    1.000,"PART-1-1",           291,       8.74083,      -1.45726,            0.,NA,NA,"",       6.51993,      -6.50195,   483.799E-03,   38.3679E-03
C:/temp/dataset/8/1_36.odb,Step-1,Increment      4: Step Time =    1.000,"PART-1-1",           292,       10.8991,      -19.3920,            0.,NA,NA,"",       1.53718,      -1.31238,   800.371E-03,   102.734E-03
C:/temp/dataset/8/1_36.odb,Step-1,Increment      4: Step Time =    1.000,"PART-1-1",           293,       11.6521,       10.1032,            0.,NA,NA,"",       10.5134,      -10.4487,       1.16410,   53.4089E-03
C:/temp/dataset/8/1_36.odb,Step-1,Increment      4: Step Time =    1.000,"PART-1-1",           294,       7.27299,      -23.4476,            0.,NA,NA,"",   435.055E-03,  -416.211E-03,   126.654E-03,   25.6175E-03
C:/temp/dataset/8/1_36.odb,Step-1,Increment      4: Step Time =    1.000,"PART-1-1",           295,       9.33799,      -21.3321,            0.,NA,NA,"",   921.934E-03,  -805.064E-03,   449.258E-03,   85.4022E-03
C:/temp/dataset/8/1_36.odb,Step-1,Increment      4: Step Time =    1.000,"PART-1-1",           296,       6.43909,  -678.324E-03,            0.,NA,NA,"",       6.60511,      -6.60495,  -45.8477E-03,   26.2237E-03
C:/temp/dataset/8/1_36.odb,Step-1,Increment      4: Step Time =    1.000,"PART-1-1",           297,       8.38797,       22.8532,            0.,NA,NA,"",       15.1633,      -15.1493,  -651.365E-03,   29.3201E-03
C:/temp/dataset/8/1_36.odb,Step-1,Increment      4: Step Time =    1.000,"PART-1-1",           298,       8.65495,       5.84832,            0.,NA,NA,"",       8.54219,      -8.53178,   421.649E-03,   57.9806E-03
C:/temp/dataset/8/1_36.odb,Step-1,Increment      4: Step Time =    1.000,"PART-1-1",           299,       8.94133,       7.33953,            0.,NA,NA,"",       9.13747,      -9.12690,   439.376E-03,   63.6257E-03
C:/temp/dataset/8/1_36.odb,Step-1,Increment      4: Step Time =    1.000,"PART-1-1",           300,       6.91134,      -2.43572,            0.,NA,NA,"",       6.22033,      -6.22011,   51.8532E-03,   39.5164E-03
C:/temp/dataset/8/1_36.odb,Step-1,Increment      4: Step Time =    1.000,"PART-1-1",           301,      -6.42836,   750.251E-03,            0.,NA,NA,"",       7.05677,      -6.90296,      -1.46535,   23.2924E-03
C:/temp/dataset/8/1_36.odb,Step-1,Increment      4: Step Time =    1.000,"PART-1-1",           302,       5.11217,      -21.8336,            0.,NA,NA,"",   550.813E-03,  -548.506E-03,  -50.3602E-03,   42.9210E-03
C:/temp/dataset/8/1_36.odb,Step-1,Increment      4: Step Time =    1.000,"PART-1-1",           303,      -5.14370,       22.0291,            0.,NA,NA,"",       14.8602,      -14.5627,      -2.95872,   67.4579E-03
C:/temp/dataset/8/1_36.odb,Step-1,Increment      4: Step Time =    1.000,"PART-1-1",           304,      -6.99385,       4.73375,            0.,NA,NA,"",       8.15226,      -7.94472,      -1.82775,   65.7442E-03
C:/temp/dataset/8/1_36.odb,Step-1,Increment      4: Step Time =    1.000,"PART-1-1",           305,      -9.29188,       24.2162,            0.,NA,NA,"",       15.5373,      -14.9732,      -4.14884,   22.6058E-03
C:/temp/dataset/8/1_36.odb,Step-1,Increment      4: Step Time =    1.000,"PART-1-1",           306,       6.91679,       24.7863,            0.,NA,NA,"",       15.6211,      -15.5859,      -1.04847,   43.8267E-03
C:/temp/dataset/8/1_36.odb,Step-1,Increment      4: Step Time =    1.000,"PART-1-1",           307,      -7.06121,      -25.4189,            0.,NA,NA,"",   153.900E-03,  -144.645E-03,  -52.5646E-03,   24.0765E-03
C:/temp/dataset/8/1_36.odb,Step-1,Increment      4: Step Time =    1.000,"PART-1-1",           308,   226.332E-03,       25.0801,            0.,NA,NA,"",       15.5420,      -15.3777,      -2.25376,   60.9087E-03
C:/temp/dataset/8/1_36.odb,Step-1,Increment      4: Step Time =    1.000,"PART-1-1",           309,      -10.0604,       10.2616,            0.,NA,NA,"",       10.4717,      -9.93297,      -3.31547,   52.6462E-03
C:/temp/dataset/8/1_36.odb,Step-1,Increment      4: Step Time =    1.000,"PART-1-1",           310,  -253.177E-03,      -25.0610,            0.,NA,NA,"",   275.285E-03,  -275.284E-03,   613.698E-06,   53.8459E-03
C:/temp/dataset/8/1_36.odb,Step-1,Increment      4: Step Time =    1.000,"PART-1-1",           311,       10.5126,      -8.54534,            0.,NA,NA,"",       4.67378,      -4.57539,   953.934E-03,   68.2845E-03
C:/temp/dataset/8/1_36.odb,Step-1,Increment      4: Step Time =    1.000,"PART-1-1",           312,       8.69507,       24.2171,            0.,NA,NA,"",       15.5619,      -15.5510,  -583.715E-03,   37.0598E-03
C:/temp/dataset/8/1_36.odb,Step-1,Increment      4: Step Time =    1.000,"PART-1-1",           313,       10.6943,       25.6018,            0.,NA,NA,"",       16.0726,      -16.0726,  -40.0142E-03,   42.5784E-03
C:/temp/dataset/8/1_36.odb,Step-1,Increment      4: Step Time =    1.000,"PART-1-1",           314,       10.1073,       17.1283,            0.,NA,NA,"",       13.2595,      -13.2587,   150.238E-03,   48.5894E-03
C:/temp/dataset/8/1_36.odb,Step-1,Increment      4: Step Time =    1.000,"PART-1-1",           315,       10.1760,       14.6796,            0.,NA,NA,"",       12.2644,      -12.2595,   347.933E-03,   50.0478E-03
C:/temp/dataset/8/1_36.odb,Step-1,Increment      4: Step Time =    1.000,"PART-1-1",           316,       10.5274,  -400.724E-03,            0.,NA,NA,"",       6.91194,      -6.84468,   961.962E-03,   50.5121E-03
C:/temp/dataset/8/1_36.odb,Step-1,Increment      4: Step Time =    1.000,"PART-1-1",           317,      -9.77892,      -7.87927,            0.,NA,NA,"",       4.74682,      -4.41336,      -1.74773,   76.0684E-03
C:/temp/dataset/8/1_36.odb,Step-1,Increment      4: Step Time =    1.000,"PART-1-1",           318,      -10.1056,       26.5264,            0.,NA,NA,"",       16.1535,      -15.5236,      -4.46706,   22.9789E-03
C:/temp/dataset/8/1_36.odb,Step-1,Increment      4: Step Time =    1.000,"PART-1-1",           319,       8.72249,      -9.20974,            0.,NA,NA,"",       4.29698,      -4.26704,   506.330E-03,   71.5046E-03
C:/temp/dataset/8/1_36.odb,Step-1,Increment      4: Step Time =    1.000,"PART-1-1",           320,       10.2890,      -26.3639,            0.,NA,NA,"",   311.899E-03,  -213.438E-03,   227.432E-03,   83.6794E-03
C:/temp/dataset/8/1_36.odb,Step-1,Increment      4: Step Time =    1.000,"PART-1-1",           321,      -10.7934,   627.825E-03,            0.,NA,NA,"",       7.30059,      -6.79287,      -2.67498,   53.5374E-03
C:/temp/dataset/8/1_36.odb,Step-1,Increment      4: Step Time =    1.000,"PART-1-1",           322,       9.12166,      -10.6535,            0.,NA,NA,"",       3.86241,      -3.81499,   603.365E-03,   72.1111E-03
C:/temp/dataset/8/1_36.odb,Step-1,Increment      4: Step Time =    1.000,"PART-1-1",           323,       10.0480,      -15.0307,            0.,NA,NA,"",       2.59499,      -2.47041,   794.390E-03,   79.1371E-03
C:/temp/dataset/8/1_36.odb,Step-1,Increment      4: Step Time =    1.000,"PART-1-1",           324,       9.34152,       9.36934,            0.,NA,NA,"",       9.98921,      -9.97952,   439.936E-03,   51.8446E-03
C:/temp/dataset/8/1_36.odb,Step-1,Increment      4: Step Time =    1.000,"PART-1-1",           325,      -11.4891,      -22.3432,            0.,NA,NA,"",   777.540E-03,  -464.986E-03,  -623.183E-03,   93.8237E-03
C:/temp/dataset/8/1_36.odb,Step-1,Increment      4: Step Time =    1.000,"PART-1-1",           326,      -10.7249,      -25.4704,            0.,NA,NA,"",   323.725E-03,  -152.051E-03,  -285.794E-03,   77.6752E-03
C:/temp/dataset/8/1_36.odb,Step-1,Increment      4: Step Time =    1.000,"PART-1-1",           327,       9.08969,       25.6240,            0.,NA,NA,"",       15.9661,      -15.9585,  -492.253E-03,   42.3243E-03
C:/temp/dataset/8/1_36.odb,Step-1,Increment      4: Step Time =    1.000,"PART-1-1",           328,       11.3751,      -22.3885,            0.,NA,NA,"",   992.288E-03,  -752.027E-03,   647.371E-03,   109.925E-03
C:/temp/dataset/8/1_36.odb,Step-1,Increment      4: Step Time =    1.000,"PART-1-1",           329,       12.7027,      -9.12592,            0.,NA,NA,"",       4.75667,      -4.51136,       1.50781,   66.8585E-03
C:/temp/dataset/8/1_36.odb,Step-1,Increment      4: Step Time =    1.000,"PART-1-1",           330,       11.5594,      -8.21360,            0.,NA,NA,"",       4.89007,      -4.73578,       1.21869,   63.4137E-03
C:/temp/dataset/8/1_36.odb,Step-1,Increment      4: Step Time =    1.000,"PART-1-1",           331,       10.6187,      -9.60815,            0.,NA,NA,"",       4.34941,      -4.23805,   977.915E-03,   71.2865E-03
C:/temp/dataset/8/1_36.odb,Step-1,Increment      4: Step Time =    1.000,"PART-1-1",           332,       11.7621,      -10.5205,            0.,NA,NA,"",       4.19985,      -4.00733,       1.25701,   74.3239E-03
C:/temp/dataset/8/1_36.odb,Step-1,Increment      4: Step Time =    1.000,"PART-1-1",           333,       12.2940,      -6.48286,            0.,NA,NA,"",       5.48986,      -5.30590,       1.40925,   52.1304E-03
C:/temp/dataset/8/1_36.odb,Step-1,Increment      4: Step Time =    1.000,"PART-1-1",           334,       10.8251,      -5.81708,            0.,NA,NA,"",       5.53019,      -5.43345,       1.02989,   48.1971E-03
C:/temp/dataset/8/1_36.odb,Step-1,Increment      4: Step Time =    1.000,"PART-1-1",           335,       10.0905,      -7.54782,            0.,NA,NA,"",       4.94697,      -4.87355,   849.171E-03,   62.2366E-03
C:/temp/dataset/8/1_36.odb,Step-1,Increment      4: Step Time =    1.000,"PART-1-1",           336,       11.3010,      -15.1125,            0.,NA,NA,"",       2.73421,      -2.51820,       1.06517,   89.1434E-03
C:/temp/dataset/8/1_36.odb,Step-1,Increment      4: Step Time =    1.000,"PART-1-1",           337,       12.6399,      -13.9666,            0.,NA,NA,"",       3.27514,      -2.95845,       1.40503,   93.3644E-03
C:/temp/dataset/8/1_36.odb,Step-1,Increment      4: Step Time =    1.000,"PART-1-1",           338,       11.5610,      -12.7439,            0.,NA,NA,"",       3.48257,      -3.27717,       1.17832,   81.9954E-03
C:/temp/dataset/8/1_36.odb,Step-1,Increment      4: Step Time =    1.000,"PART-1-1",           339,       10.2221,      -13.8898,            0.,NA,NA,"",       2.95890,      -2.83467,   848.345E-03,   78.8590E-03
C:/temp/dataset/8/1_36.odb,Step-1,Increment      4: Step Time =    1.000,"PART-1-1",           340,       13.8630,      -12.6507,            0.,NA,NA,"",       3.87816,      -3.46028,       1.75118,   89.1395E-03
C:/temp/dataset/8/1_36.odb,Step-1,Increment      4: Step Time =    1.000,"PART-1-1",           341,       13.7769,      -15.1346,            0.,NA,NA,"",       3.13429,      -2.68008,       1.62509,   109.037E-03
C:/temp/dataset/8/1_36.odb,Step-1,Increment      4: Step Time =    1.000,"PART-1-1",           342,           15.,      -13.8188,            0.,NA,NA,"",       3.76134,      -3.18198,       2.00565,   106.900E-03
C:/temp/dataset/8/1_36.odb,Step-1,Increment      4: Step Time =    1.000,"PART-1-1",           343,       10.1228,      -29.0148,            0.,NA,NA,"",   61.2141E-03,  -29.3814E-03,   53.7020E-03,   68.2041E-03
C:/temp/dataset/8/1_36.odb,Step-1,Increment      4: Step Time =    1.000,"PART-1-1",           344,         11.25,          -30.,            0.,NA,NA,"",            0.,  -394.813E-42,   203.775E-42,   83.2641E-03
C:/temp/dataset/8/1_36.odb,Step-1,Increment      4: Step Time =    1.000,"PART-1-1",           345,       12.5273,      -28.8600,            0.,NA,NA,"",   127.910E-03,  -73.1169E-03,   104.952E-03,   118.625E-03
C:/temp/dataset/8/1_36.odb,Step-1,Increment      4: Step Time =    1.000,"PART-1-1",           346,       11.4001,      -27.8749,            0.,NA,NA,"",   205.148E-03,  -124.250E-03,   163.242E-03,   105.526E-03
C:/temp/dataset/8/1_36.odb,Step-1,Increment      4: Step Time =    1.000,"PART-1-1",           347,  -13.0938E-03,      -28.7451,            0.,NA,NA,"",   59.9020E-03,  -59.8336E-03,  -2.86328E-03,   34.1675E-03
C:/temp/dataset/8/1_36.odb,Step-1,Increment      4: Step Time =    1.000,"PART-1-1",           348,          1.25,          -30.,            0.,NA,NA,"",            0.,  -49.8638E-42,  -520.155E-42,   27.0277E-03
C:/temp/dataset/8/1_36.odb,Step-1,Increment      4: Step Time =    1.000,"PART-1-1",           349,       2.65125,      -28.4867,            0.,NA,NA,"",   65.7458E-03,  -65.5092E-03,  -5.57303E-03,   32.3482E-03
C:/temp/dataset/8/1_36.odb,Step-1,Increment      4: Step Time =    1.000,"PART-1-1",           350,       1.38815,      -27.2319,            0.,NA,NA,"",   139.896E-03,  -139.360E-03,  -12.2340E-03,   39.8254E-03
C:/temp/dataset/8/1_36.odb,Step-1,Increment      4: Step Time =    1.000,"PART-1-1",           351,      -13.5950,      -27.3152,            0.,NA,NA,"",   337.256E-03,  -149.188E-03,  -302.464E-03,   136.681E-03
C:/temp/dataset/8/1_36.odb,Step-1,Increment      4: Step Time =    1.000,"PART-1-1",           352,      -12.5712,      -25.8759,            0.,NA,NA,"",   437.393E-03,  -187.911E-03,  -394.971E-03,   116.454E-03
C:/temp/dataset/8/1_36.odb,Step-1,Increment      4: Step Time =    1.000,"PART-1-1",           353,      -13.9762,      -24.8107,            0.,NA,NA,"",   741.968E-03,  -344.084E-03,  -657.360E-03,   143.811E-03
C:/temp/dataset/8/1_36.odb,Step-1,Increment      4: Step Time =    1.000,"PART-1-1",           354,          -15.,        -26.25,            0.,NA,NA,"",   640.463E-03,  -316.950E-03,  -556.539E-03,   160.992E-03
C:/temp/dataset/8/1_36.odb,Step-1,Increment      4: Step Time =    1.000,"PART-1-1",           355,      -13.7576,      -15.0494,            0.,NA,NA,"",       2.85247,      -2.03480,      -1.99904,   116.110E-03
C:/temp/dataset/8/1_36.odb,Step-1,Increment      4: Step Time =    1.000,"PART-1-1",           356,          -15.,        -16.25,            0.,NA,NA,"",       2.79116,      -1.74346,      -2.17966,   148.147E-03
C:/temp/dataset/8/1_36.odb,Step-1,Increment      4: Step Time =    1.000,"PART-1-1",           357,      -13.7759,      -17.5617,            0.,NA,NA,"",       2.14654,      -1.39089,      -1.63494,   133.116E-03
C:/temp/dataset/8/1_36.odb,Step-1,Increment      4: Step Time =    1.000,"PART-1-1",           358,      -12.5335,      -16.3611,            0.,NA,NA,"",       2.22978,      -1.65659,      -1.49252,   105.968E-03
C:/temp/dataset/8/1_36.odb,Step-1,Increment      4: Step Time =    1.000,"PART-1-1",           359,      -13.7966,       15.0030,            0.,NA,NA,"",       12.6832,      -11.6158,      -5.09270,   18.8616E-03
C:/temp/dataset/8/1_36.odb,Step-1,Increment      4: Step Time =    1.000,"PART-1-1",           360,          -15.,         13.75,            0.,NA,NA,"",       12.3053,      -11.0348,      -5.44562,   6.31656E-03
C:/temp/dataset/8/1_36.odb,Step-1,Increment      4: Step Time =    1.000,"PART-1-1",           361,      -13.7864,       12.5210,            0.,NA,NA,"",       11.6962,      -10.6367,      -4.86436,   28.4720E-03
C:/temp/dataset/8/1_36.odb,Step-1,Increment      4: Step Time =    1.000,"PART-1-1",           362,      -12.5830,       13.7740,            0.,NA,NA,"",       12.0946,      -11.2066,      -4.54868,   38.7823E-03
C:/temp/dataset/8/1_36.odb,Step-1,Increment      4: Step Time =    1.000,"PART-1-1",           363,         -1.25,           -5.,            0.,NA,NA,"",       5.99264,      -5.94476,  -756.006E-03,   24.1249E-03
C:/temp/dataset/8/1_36.odb,Step-1,Increment      4: Step Time =    1.000,"PART-1-1",           364,  -12.3337E-03,      -3.76193,            0.,NA,NA,"",       6.10489,      -6.06732,  -676.264E-03,   36.8907E-03
C:/temp/dataset/8/1_36.odb,Step-1,Increment      4: Step Time =    1.000,"PART-1-1",           365,      -1.32647,      -2.50471,            0.,NA,NA,"",       6.28414,      -6.23925,  -749.732E-03,   85.0925E-03
C:/temp/dataset/8/1_36.odb,Step-1,Increment      4: Step Time =    1.000,"PART-1-1",           366,      -2.56414,      -3.74278,            0.,NA,NA,"",       6.06710,      -6.01447,  -797.430E-03,   66.7794E-03
C:/temp/dataset/8/1_36.odb,Step-1,Increment      4: Step Time =    1.000,"PART-1-1",           367,       1.21724,      -2.54641,            0.,NA,NA,"",       6.26136,      -6.23063,  -619.572E-03,   78.4860E-03
C:/temp/dataset/8/1_36.odb,Step-1,Increment      4: Step Time =    1.000,"PART-1-1",           368,          1.25,           -5.,            0.,NA,NA,"",       5.95620,      -5.92892,  -569.456E-03,   36.8352E-03
C:/temp/dataset/8/1_36.odb,Step-1,Increment      4: Step Time =    1.000,"PART-1-1",           369,       2.47957,      -3.78448,            0.,NA,NA,"",       6.02220,      -6.00005,  -516.065E-03,   60.7797E-03
C:/temp/dataset/8/1_36.odb,Step-1,Increment      4: Step Time =    1.000,"PART-1-1",           370,      -2.43429,       1.26667,            0.,NA,NA,"",       7.07183,      -7.01564,  -889.708E-03,   93.1963E-03
C:/temp/dataset/8/1_36.odb,Step-1,Increment      4: Step Time =    1.000,"PART-1-1",           371,      -1.22349,  -12.1802E-03,            0.,NA,NA,"",       6.77844,      -6.73284,  -784.854E-03,   105.984E-03
C:/temp/dataset/8/1_36.odb,Step-1,Increment      4: Step Time =    1.000,"PART-1-1",           372,   38.4689E-03,       1.22772,            0.,NA,NA,"",       7.02513,      -6.98604,  -740.093E-03,   101.181E-03
C:/temp/dataset/8/1_36.odb,Step-1,Increment      4: Step Time =    1.000,"PART-1-1",           373,      -1.17233,       2.50657,            0.,NA,NA,"",       7.29436,      -7.24719,  -828.240E-03,   87.1822E-03
C:/temp/dataset/8/1_36.odb,Step-1,Increment      4: Step Time =    1.000,"PART-1-1",           374,       4.79096,      -1.43433,            0.,NA,NA,"",       6.42169,      -6.41371,  -320.058E-03,   56.9833E-03
C:/temp/dataset/8/1_36.odb,Step-1,Increment      4: Step Time =    1.000,"PART-1-1",           375,       3.64969,  -148.662E-03,            0.,NA,NA,"",       6.70495,      -6.68814,  -474.540E-03,   74.8074E-03
C:/temp/dataset/8/1_36.odb,Step-1,Increment      4: Step Time =    1.000,"PART-1-1",           376,       2.48320,      -1.31285,            0.,NA,NA,"",       6.46934,      -6.44522,  -558.178E-03,   90.0535E-03
C:/temp/dataset/8/1_36.odb,Step-1,Increment      4: Step Time =    1.000,"PART-1-1",           377,       3.62447,      -2.59851,            0.,NA,NA,"",       6.18431,      -6.16772,  -452.698E-03,   73.1775E-03
C:/temp/dataset/8/1_36.odb,Step-1,Increment      4: Step Time =    1.000,"PART-1-1",           378,       11.9226,      -2.21680,            0.,NA,NA,"",       6.59653,      -6.46195,       1.32566,   48.8958E-03
C:/temp/dataset/8/1_36.odb,Step-1,Increment      4: Step Time =    1.000,"PART-1-1",           379,       10.4874,      -2.72902,            0.,NA,NA,"",       6.33063,      -6.26078,   937.830E-03,   42.6600E-03
C:/temp/dataset/8/1_36.odb,Step-1,Increment      4: Step Time =    1.000,"PART-1-1",           380,       10.9276,      -4.23857,            0.,NA,NA,"",       5.97628,      -5.88274,       1.05326,   40.8030E-03
C:/temp/dataset/8/1_36.odb,Step-1,Increment      4: Step Time =    1.000,"PART-1-1",           381,       12.3627,      -3.72635,            0.,NA,NA,"",       6.25510,      -6.08874,       1.43303,   47.3122E-03
C:/temp/dataset/8/1_36.odb,Step-1,Increment      4: Step Time =    1.000,"PART-1-1",           382,       13.8122,   56.1618E-03,            0.,NA,NA,"",       7.40789,      -7.16794,       1.87016,   65.0818E-03
C:/temp/dataset/8/1_36.odb,Step-1,Increment      4: Step Time =    1.000,"PART-1-1",           383,           15.,       1.23750,            0.,NA,NA,"",       7.89259,      -7.57522,       2.21561,   79.9467E-03
C:/temp/dataset/8/1_36.odb,Step-1,Increment      4: Step Time =    1.000,"PART-1-1",           384,       13.5130,       2.69080,            0.,NA,NA,"",       8.10603,      -7.89221,       1.84952,   75.7356E-03
C:/temp/dataset/8/1_36.odb,Step-1,Increment      4: Step Time =    1.000,"PART-1-1",           385,       12.3252,       1.50947,            0.,NA,NA,"",       7.60903,      -7.46198,       1.48868,   62.7308E-03
C:/temp/dataset/8/1_36.odb,Step-1,Increment      4: Step Time =    1.000,"PART-1-1",           386,       10.2711,       8.91868,            0.,NA,NA,"",       9.89098,      -9.86073,   772.978E-03,   54.1919E-03
C:/temp/dataset/8/1_36.odb,Step-1,Increment      4: Step Time =    1.000,"PART-1-1",           387,       9.14142,       8.35444,            0.,NA,NA,"",       9.56192,      -9.55176,   440.775E-03,   56.2255E-03
C:/temp/dataset/8/1_36.odb,Step-1,Increment      4: Step Time =    1.000,"PART-1-1",           388,       9.84573,       6.91985,            0.,NA,NA,"",       9.06230,      -9.03220,   737.983E-03,   57.6165E-03
C:/temp/dataset/8/1_36.odb,Step-1,Increment      4: Step Time =    1.000,"PART-1-1",           389,       10.9754,       7.48409,            0.,NA,NA,"",       9.40058,      -9.33987,       1.06661,   57.2827E-03
C:/temp/dataset/8/1_36.odb,Step-1,Increment      4: Step Time =    1.000,"PART-1-1",           390,       13.8339,       14.8863,            0.,NA,NA,"",       12.7005,      -12.5956,       1.62845,   18.5909E-03
C:/temp/dataset/8/1_36.odb,Step-1,Increment      4: Step Time =    1.000,"PART-1-1",           391,       12.7782,       13.6219,            0.,NA,NA,"",       12.0726,      -11.9987,       1.33430,   37.4336E-03
C:/temp/dataset/8/1_36.odb,Step-1,Increment      4: Step Time =    1.000,"PART-1-1",           392,       13.9443,       12.4043,            0.,NA,NA,"",       11.7333,      -11.5876,       1.84321,   33.2199E-03
C:/temp/dataset/8/1_36.odb,Step-1,Increment      4: Step Time =    1.000,"PART-1-1",           393,           15.,       13.6688,            0.,NA,NA,"",       12.3902,      -12.1992,       2.16744,   17.5613E-03
C:/temp/dataset/8/1_36.odb,Step-1,Increment      4: Step Time =    1.000,"PART-1-1",           394,       6.42614,       20.0555,            0.,NA,NA,"",       14.2534,      -14.2069,      -1.15078,   84.2690E-03
C:/temp/dataset/8/1_36.odb,Step-1,Increment      4: Step Time =    1.000,"PART-1-1",           395,       7.39225,       21.3428,            0.,NA,NA,"",       14.6770,      -14.6491,  -903.917E-03,   33.1563E-03
C:/temp/dataset/8/1_36.odb,Step-1,Increment      4: Step Time =    1.000,"PART-1-1",           396,       5.86323,       22.5571,            0.,NA,NA,"",       14.9801,      -14.9239,      -1.29550,   54.5822E-03
C:/temp/dataset/8/1_36.odb,Step-1,Increment      4: Step Time =    1.000,"PART-1-1",           397,       4.89712,       21.2698,            0.,NA,NA,"",       14.6109,      -14.5322,      -1.51438,   91.8804E-03
C:/temp/dataset/8/1_36.odb,Step-1,Increment      4: Step Time =    1.000,"PART-1-1",           398,       13.8410,       27.5667,            0.,NA,NA,"",       16.8596,      -16.8398,   817.686E-03,   36.1817E-03
C:/temp/dataset/8/1_36.odb,Step-1,Increment      4: Step Time =    1.000,"PART-1-1",           399,       12.7330,       26.4648,            0.,NA,NA,"",       16.4682,      -16.4596,   532.204E-03,   39.4590E-03
C:/temp/dataset/8/1_36.odb,Step-1,Increment      4: Step Time =    1.000,"PART-1-1",           400,       13.8920,       25.1294,            0.,NA,NA,"",       16.2021,      -16.1765,   910.103E-03,   32.8736E-03
C:/temp/dataset/8/1_36.odb,Step-1,Increment      4: Step Time =    1.000,"PART-1-1",           401,           15.,       26.2313,            0.,NA,NA,"",       16.5926,      -16.5508,       1.17743,   30.2675E-03
C:/temp/dataset/8/1_36.odb,Step-1,Increment      4: Step Time =    1.000,"PART-1-1",           402,       1.26001,       27.5457,            0.,NA,NA,"",       16.1300,      -15.9879,      -2.13601,   48.1469E-03
C:/temp/dataset/8/1_36.odb,Step-1,Increment      4: Step Time =    1.000,"PART-1-1",           403,   121.340E-03,       26.2982,            0.,NA,NA,"",       15.8325,      -15.6656,      -2.29257,   54.5139E-03
C:/temp/dataset/8/1_36.odb,Step-1,Increment      4: Step Time =    1.000,"PART-1-1",           404,       1.36459,       25.1000,            0.,NA,NA,"",       15.5523,      -15.4118,      -2.08533,   62.1124E-03
C:/temp/dataset/8/1_36.odb,Step-1,Increment      4: Step Time =    1.000,"PART-1-1",           405,       2.50327,       26.3475,            0.,NA,NA,"",       15.8691,      -15.7521,      -1.92344,   54.8867E-03
C:/temp/dataset/8/1_36.odb,Step-1,Increment      4: Step Time =    1.000,"PART-1-1",           406,   134.275E-03,       23.8369,            0.,NA,NA,"",       15.2488,      -15.0830,      -2.24225,   59.3765E-03
C:/temp/dataset/8/1_36.odb,Step-1,Increment      4: Step Time =    1.000,"PART-1-1",           407,       1.25833,       22.5836,            0.,NA,NA,"",       14.9634,      -14.8204,      -2.06364,   54.2129E-03
C:/temp/dataset/8/1_36.odb,Step-1,Increment      4: Step Time =    1.000,"PART-1-1",           408,       2.48865,       23.8467,            0.,NA,NA,"",       15.2557,      -15.1370,      -1.89961,   59.6798E-03
C:/temp/dataset/8/1_36.odb,Step-1,Increment      4: Step Time =    1.000,"PART-1-1",           409,      -5.93101,       26.7355,            0.,NA,NA,"",       16.0383,      -15.6764,      -3.38811,   19.8097E-03
C:/temp/dataset/8/1_36.odb,Step-1,Increment      4: Step Time =    1.000,"PART-1-1",           410,      -5.38229,       25.2750,            0.,NA,NA,"",       15.6688,      -15.3386,      -3.19976,   28.9018E-03
C:/temp/dataset/8/1_36.odb,Step-1,Increment      4: Step Time =    1.000,"PART-1-1",           411,      -3.59290,       25.9597,            0.,NA,NA,"",       15.7866,      -15.5220,      -2.87832,   41.3735E-03
C:/temp/dataset/8/1_36.odb,Step-1,Increment      4: Step Time =    1.000,"PART-1-1",           412,      -4.14162,       27.4201,            0.,NA,NA,"",       16.1430,      -15.8548,      -3.03691,   26.4371E-03
C:/temp/dataset/8/1_36.odb,Step-1,Increment      4: Step Time =    1.000,"PART-1-1",           413,      -13.7895,       17.4912,            0.,NA,NA,"",       13.6280,      -12.5729,      -5.25777,   23.7857E-03
C:/temp/dataset/8/1_36.odb,Step-1,Increment      4: Step Time =    1.000,"PART-1-1",           414,      -12.5357,       18.7235,            0.,NA,NA,"",       13.9954,      -13.1072,      -4.90614,   20.7121E-03
C:/temp/dataset/8/1_36.odb,Step-1,Increment      4: Step Time =    1.000,"PART-1-1",           415,      -13.7462,       19.9824,            0.,NA,NA,"",       14.4883,      -13.4640,      -5.35087,   29.9513E-03
C:/temp/dataset/8/1_36.odb,Step-1,Increment      4: Step Time =    1.000,"PART-1-1",           416,          -15.,         18.75,            0.,NA,NA,"",       14.1535,      -12.9435,      -5.72604,   38.1708E-03
C:/temp/dataset/8/1_36.odb,Step-1,Increment      4: Step Time =    1.000,"PART-1-1",           417,      -7.55055,       18.6209,            0.,NA,NA,"",       13.7952,      -13.3858,      -3.33602,   55.7690E-03
C:/temp/dataset/8/1_36.odb,Step-1,Increment      4: Step Time =    1.000,"PART-1-1",           418,      -6.28038,       17.4701,            0.,NA,NA,"",       13.2921,      -12.9993,      -2.77460,   62.2781E-03
C:/temp/dataset/8/1_36.odb,Step-1,Increment      4: Step Time =    1.000,"PART-1-1",           419,           -5.,         18.75,            0.,NA,NA,"",       13.7724,      -13.5481,      -2.47568,   114.536E-03
C:/temp/dataset/8/1_36.odb,Step-1,Increment      4: Step Time =    1.000,"PART-1-1",           420,      -6.27018,       19.9008,            0.,NA,NA,"",       14.2912,      -13.9567,      -3.07414,   92.8470E-03
C:/temp/dataset/8/1_36.odb,Step-1,Increment      4: Step Time =    1.000,"PART-1-1",           421,            5.,         18.75,            0.,NA,NA,"",       13.6691,      -13.5794,      -1.56327,   136.260E-03
C:/temp/dataset/8/1_36.odb,Step-1,Increment      4: Step Time =    1.000,"PART-1-1",           422,       6.30600,       17.4335,            0.,NA,NA,"",       13.1898,      -13.1426,      -1.11498,   71.2549E-03
C:/temp/dataset/8/1_36.odb,Step-1,Increment      4: Step Time =    1.000,"PART-1-1",           423,       7.73213,       18.7390,            0.,NA,NA,"",       13.7842,      -13.7660,  -708.481E-03,   49.6372E-03
C:/temp/dataset/8/1_36.odb,Step-1,Increment      4: Step Time =    1.000,"PART-1-1",           424,         -6.25,          -30.,            0.,NA,NA,"",            0.,   410.412E-42,   76.9061E-42,   19.5102E-03
C:/temp/dataset/8/1_36.odb,Step-1,Increment      4: Step Time =    1.000,"PART-1-1",           425,      -4.93560,      -28.8558,            0.,NA,NA,"",   23.4325E-03,  -22.8243E-03,  -5.30393E-03,   19.0535E-03
C:/temp/dataset/8/1_36.odb,Step-1,Increment      4: Step Time =    1.000,"PART-1-1",           426,      -6.05680,      -27.7304,            0.,NA,NA,"",   46.3621E-03,  -43.5432E-03,  -15.9195E-03,   25.0560E-03
C:/temp/dataset/8/1_36.odb,Step-1,Increment      4: Step Time =    1.000,"PART-1-1",           427,      -7.37120,      -28.8746,            0.,NA,NA,"",   21.6785E-03,  -534.046E-06,  -21.6720E-03,   26.4335E-03
C:/temp/dataset/8/1_36.odb,Step-1,Increment      4: Step Time =    1.000,"PART-1-1",           428,       8.60466,       1.06565,            0.,NA,NA,"",       7.11267,      -7.09822,   453.254E-03,   40.3132E-03
C:/temp/dataset/8/1_36.odb,Step-1,Increment      4: Step Time =    1.000,"PART-1-1",           429,       8.83240,       2.57689,            0.,NA,NA,"",       7.51902,      -7.50135,   515.112E-03,   50.9459E-03
C:/temp/dataset/8/1_36.odb,Step-1,Increment      4: Step Time =    1.000,"PART-1-1",           430,       6.85789,       2.90810,            0.,NA,NA,"",       7.44584,      -7.44583,  -8.76505E-03,   28.2902E-03
C:/temp/dataset/8/1_36.odb,Step-1,Increment      4: Step Time =    1.000,"PART-1-1",           431,       6.63016,       1.39685,            0.,NA,NA,"",       7.08077,      -7.08071,  -29.8660E-03,   13.6466E-03
C:/temp/dataset/8/1_36.odb,Step-1,Increment      4: Step Time =    1.000,"PART-1-1",           432,       5.99259,      -9.88635,            0.,NA,NA,"",       3.88174,      -3.87564,  -217.443E-03,   63.0054E-03
C:/temp/dataset/8/1_36.odb,Step-1,Increment      4: Step Time =    1.000,"PART-1-1",           433,            5.,        -11.25,            0.,NA,NA,"",       3.41164,      -3.37483,  -499.773E-03,   46.9402E-03
C:/temp/dataset/8/1_36.odb,Step-1,Increment      4: Step Time =    1.000,"PART-1-1",           434,       6.38932,      -12.3587,            0.,NA,NA,"",       3.11222,      -3.11067,  -98.2163E-03,   47.5073E-03
C:/temp/dataset/8/1_36.odb,Step-1,Increment      4: Step Time =    1.000,"PART-1-1",           435,       7.38191,      -10.9950,            0.,NA,NA,"",       3.60802,      -3.60444,   160.852E-03,   64.3004E-03
C:/temp/dataset/8/1_36.odb,Step-1,Increment      4: Step Time =    1.000,"PART-1-1",           436,       13.8031,      -7.70967,            0.,NA,NA,"",       5.33404,      -5.01939,       1.80493,   53.3392E-03
C:/temp/dataset/8/1_36.odb,Step-1,Increment      4: Step Time =    1.000,"PART-1-1",           437,       13.8997,      -10.2100,            0.,NA,NA,"",       4.61373,      -4.24230,       1.81367,   69.9850E-03
C:/temp/dataset/8/1_36.odb,Step-1,Increment      4: Step Time =    1.000,"PART-1-1",           438,           15.,      -8.79375,            0.,NA,NA,"",       5.21795,      -4.76189,       2.13341,   58.1007E-03
C:/temp/dataset/8/1_36.odb,Step-1,Increment      4: Step Time =    1.000,"PART-1-1",           439,       12.4250,      -16.5409,            0.,NA,NA,"",       2.50082,      -2.16705,       1.24819,   105.712E-03
C:/temp/dataset/8/1_36.odb,Step-1,Increment      4: Step Time =    1.000,"PART-1-1",           440,       13.6481,      -17.7375,            0.,NA,NA,"",       2.39263,      -1.92428,       1.42191,   127.992E-03
C:/temp/dataset/8/1_36.odb,Step-1,Increment      4: Step Time =    1.000,"PART-1-1",           441,           15.,      -16.3312,            0.,NA,NA,"",       3.04375,      -2.42576,       1.83850,   133.345E-03
C:/temp/dataset/8/1_36.odb,Step-1,Increment      4: Step Time =    1.000,"PART-1-1",           442,       12.6431,      -19.1391,            0.,NA,NA,"",       1.86459,      -1.49332,       1.11656,   120.253E-03
C:/temp/dataset/8/1_36.odb,Step-1,Increment      4: Step Time =    1.000,"PART-1-1",           443,       13.9950,      -20.2453,            0.,NA,NA,"",       1.83263,      -1.34171,       1.24833,   147.020E-03
C:/temp/dataset/8/1_36.odb,Step-1,Increment      4: Step Time =    1.000,"PART-1-1",           444,           15.,      -18.8438,            0.,NA,NA,"",       2.36559,      -1.74953,       1.59222,   155.421E-03
C:/temp/dataset/8/1_36.odb,Step-1,Increment      4: Step Time =    1.000,"PART-1-1",           445,      -5.98837,      -22.7771,            0.,NA,NA,"",   369.787E-03,  -369.599E-03,   11.8184E-03,   27.9195E-03
C:/temp/dataset/8/1_36.odb,Step-1,Increment      4: Step Time =    1.000,"PART-1-1",           446,      -7.09286,      -24.1492,            0.,NA,NA,"",   243.463E-03,  -235.177E-03,  -62.9773E-03,   15.9489E-03
C:/temp/dataset/8/1_36.odb,Step-1,Increment      4: Step Time =    1.000,"PART-1-1",           447,      -5.93941,      -25.3506,            0.,NA,NA,"",   168.471E-03,  -168.224E-03,  -9.12255E-03,   29.3673E-03
C:/temp/dataset/8/1_36.odb,Step-1,Increment      4: Step Time =    1.000,"PART-1-1",           448,      -4.83491,      -23.9785,            0.,NA,NA,"",   288.481E-03,  -286.052E-03,   37.3576E-03,   44.0525E-03
C:/temp/dataset/8/1_36.odb,Step-1,Increment      4: Step Time =    1.000,"PART-1-1",           449,      -9.79906,      -28.8416,            0.,NA,NA,"",   52.5310E-03,   6.56302E-03,  -52.1194E-03,   55.7801E-03
C:/temp/dataset/8/1_36.odb,Step-1,Increment      4: Step Time =    1.000,"PART-1-1",           450,      -10.8940,      -27.4068,            0.,NA,NA,"",   165.528E-03,  -45.4797E-03,  -159.158E-03,   81.6743E-03
C:/temp/dataset/8/1_36.odb,Step-1,Increment      4: Step Time =    1.000,"PART-1-1",           451,      -12.3450,      -28.5652,            0.,NA,NA,"",   117.183E-03,  -28.1154E-03,  -113.761E-03,   100.282E-03
C:/temp/dataset/8/1_36.odb,Step-1,Increment      4: Step Time =    1.000,"PART-1-1",           452,        -11.25,          -30.,            0.,NA,NA,"",            0.,   802.208E-42,   720.060E-42,   75.5302E-03
C:/temp/dataset/8/1_36.odb,Step-1,Increment      4: Step Time =    1.000,"PART-1-1",           453,      -13.5399,       7.35912,            0.,NA,NA,"",       9.66468,      -8.70490,      -4.19891,   58.7678E-03
C:/temp/dataset/8/1_36.odb,Step-1,Increment      4: Step Time =    1.000,"PART-1-1",           454,          -15.,          6.25,            0.,NA,NA,"",       9.47067,      -8.28749,      -4.58378,   77.3131E-03
C:/temp/dataset/8/1_36.odb,Step-1,Increment      4: Step Time =    1.000,"PART-1-1",           455,      -13.9199,       4.81312,            0.,NA,NA,"",       8.84225,      -7.86481,      -4.04104,   68.8000E-03
C:/temp/dataset/8/1_36.odb,Step-1,Increment      4: Step Time =    1.000,"PART-1-1",           456,      -12.4598,       5.92224,            0.,NA,NA,"",       9.03327,      -8.25308,      -3.67239,   51.7906E-03
C:/temp/dataset/8/1_36.odb,Step-1,Increment      4: Step Time =    1.000,"PART-1-1",           457,      -14.0702,       2.40608,            0.,NA,NA,"",       8.14064,      -7.17787,      -3.84034,   65.5916E-03
C:/temp/dataset/8/1_36.odb,Step-1,Increment      4: Step Time =    1.000,"PART-1-1",           458,          -15.,          1.25,            0.,NA,NA,"",       7.94536,      -6.86138,      -4.00628,   63.6349E-03
C:/temp/dataset/8/1_36.odb,Step-1,Increment      4: Step Time =    1.000,"PART-1-1",           459,      -13.9245,  -19.3588E-03,            0.,NA,NA,"",       7.47005,      -6.55278,      -3.58647,   51.2894E-03
C:/temp/dataset/8/1_36.odb,Step-1,Increment      4: Step Time =    1.000,"PART-1-1",           460,      -12.9947,       1.13672,            0.,NA,NA,"",       7.66186,      -6.86760,      -3.39707,   55.7202E-03
C:/temp/dataset/8/1_36.odb,Step-1,Increment      4: Step Time =    1.000,"PART-1-1",           461,      -13.6376,      -2.69932,            0.,NA,NA,"",       6.73349,      -5.86649,      -3.30518,   35.8646E-03
C:/temp/dataset/8/1_36.odb,Step-1,Increment      4: Step Time =    1.000,"PART-1-1",           462,          -15.,         -3.75,            0.,NA,NA,"",       6.62221,      -5.53528,      -3.63516,   26.2609E-03
C:/temp/dataset/8/1_36.odb,Step-1,Increment      4: Step Time =    1.000,"PART-1-1",           463,      -14.1618,      -5.01381,            0.,NA,NA,"",       6.15370,      -5.19659,      -3.29598,   30.2369E-03
C:/temp/dataset/8/1_36.odb,Step-1,Increment      4: Step Time =    1.000,"PART-1-1",           464,      -12.7995,      -3.96314,            0.,NA,NA,"",       6.28725,      -5.54529,      -2.96298,   37.7374E-03
C:/temp/dataset/8/1_36.odb,Step-1,Increment      4: Step Time =    1.000,"PART-1-1",           465,          -15.,         -8.75,            0.,NA,NA,"",       5.13900,      -3.98721,      -3.24215,   53.6325E-03
C:/temp/dataset/8/1_36.odb,Step-1,Increment      4: Step Time =    1.000,"PART-1-1",           466,      -13.7348,      -9.99734,            0.,NA,NA,"",       4.49663,      -3.61313,      -2.67676,   71.0035E-03
C:/temp/dataset/8/1_36.odb,Step-1,Increment      4: Step Time =    1.000,"PART-1-1",           467,      -12.3830,      -8.57451,            0.,NA,NA,"",       4.77505,      -4.11542,      -2.42166,   68.9689E-03
C:/temp/dataset/8/1_36.odb,Step-1,Increment      4: Step Time =    1.000,"PART-1-1",           468,      -13.6482,      -7.32717,            0.,NA,NA,"",       5.36893,      -4.49327,      -2.93870,   46.7776E-03
C:/temp/dataset/8/1_36.odb,Step-1,Increment      4: Step Time =    1.000,"PART-1-1",           469,      -11.2232,      -10.0773,            0.,NA,NA,"",       4.09784,      -3.62428,      -1.91229,   81.4984E-03
C:/temp/dataset/8/1_36.odb,Step-1,Increment      4: Step Time =    1.000,"PART-1-1",           470,      -9.87788,      -9.01957,            0.,NA,NA,"",       4.33702,      -4.01031,      -1.65142,   81.5451E-03
C:/temp/dataset/8/1_36.odb,Step-1,Increment      4: Step Time =    1.000,"PART-1-1",           471,      -11.0377,      -7.51681,            0.,NA,NA,"",       4.98525,      -4.50222,      -2.14073,   64.4837E-03
C:/temp/dataset/8/1_36.odb,Step-1,Increment      4: Step Time =    1.000,"PART-1-1",           472,       1.26271,  -42.9986E-03,            0.,NA,NA,"",       6.74918,      -6.71733,  -654.996E-03,   104.826E-03
C:/temp/dataset/8/1_36.odb,Step-1,Increment      4: Step Time =    1.000,"PART-1-1",           473,  -3.24210E-03,      -1.27656,            0.,NA,NA,"",       6.50994,      -6.47205,  -701.325E-03,   96.1246E-03
C:/temp/dataset/8/1_36.odb,Step-1,Increment      4: Step Time =    1.000,"PART-1-1",           474,       3.63434,       22.5567,            0.,NA,NA,"",       14.9414,      -14.8426,      -1.71583,   60.5700E-03
C:/temp/dataset/8/1_36.odb,Step-1,Increment      4: Step Time =    1.000,"PART-1-1",           475,       2.48722,       21.2868,            0.,NA,NA,"",       14.6662,      -14.5472,      -1.86472,   34.4261E-03
C:/temp/dataset/8/1_36.odb,Step-1,Increment      4: Step Time =    1.000,"PART-1-1",           476,          3.75,           20.,            0.,NA,NA,"",       14.3672,      -14.2734,      -1.63917,   94.5812E-03
C:/temp/dataset/8/1_36.odb,Step-1,Increment      4: Step Time =    1.000,"PART-1-1",           477,       13.0518,       11.2605,            0.,NA,NA,"",       11.1513,      -11.0382,       1.58446,   45.7964E-03
C:/temp/dataset/8/1_36.odb,Step-1,Increment      4: Step Time =    1.000,"PART-1-1",           478,       14.1075,       10.0124,            0.,NA,NA,"",       10.8055,      -10.6144,       2.02365,   53.2242E-03
C:/temp/dataset/8/1_36.odb,Step-1,Increment      4: Step Time =    1.000,"PART-1-1",           479,           15.,       11.1563,            0.,NA,NA,"",       11.4067,      -11.1700,       2.31158,   45.1020E-03
C:/temp/dataset/8/1_36.odb,Step-1,Increment      4: Step Time =    1.000,"PART-1-1",           480,       10.1417,       15.9039,            0.,NA,NA,"",       12.7651,      -12.7627,   248.216E-03,   49.8782E-03
C:/temp/dataset/8/1_36.odb,Step-1,Increment      4: Step Time =    1.000,"PART-1-1",           481,       11.4219,       14.7636,            0.,NA,NA,"",       12.3997,      -12.3757,   770.960E-03,   42.6049E-03
C:/temp/dataset/8/1_36.odb,Step-1,Increment      4: Step Time =    1.000,"PART-1-1",           482,       12.5880,       16.1115,            0.,NA,NA,"",       13.0449,      -13.0004,       1.07733,   30.3673E-03
C:/temp/dataset/8/1_36.odb,Step-1,Increment      4: Step Time =    1.000,"PART-1-1",           483,       11.3078,       17.2518,            0.,NA,NA,"",       13.3858,      -13.3748,   543.683E-03,   38.0645E-03
C:/temp/dataset/8/1_36.odb,Step-1,Increment      4: Step Time =    1.000,"PART-1-1",           484,       14.0683,       7.62638,            0.,NA,NA,"",       9.87324,      -9.65414,       2.06841,   72.2071E-03
C:/temp/dataset/8/1_36.odb,Step-1,Increment      4: Step Time =    1.000,"PART-1-1",           485,       12.9668,       6.67122,            0.,NA,NA,"",       9.35126,      -9.19226,       1.71710,   64.5639E-03
C:/temp/dataset/8/1_36.odb,Step-1,Increment      4: Step Time =    1.000,"PART-1-1",           486,       13.8986,       5.23234,            0.,NA,NA,"",       8.97904,      -8.75106,       2.01050,   81.1932E-03
C:/temp/dataset/8/1_36.odb,Step-1,Increment      4: Step Time =    1.000,"PART-1-1",           487,           15.,        6.1875,            0.,NA,NA,"",       9.49806,      -9.19626,       2.37526,   90.5365E-03
C:/temp/dataset/8/1_36.odb,Step-1,Increment      4: Step Time =    1.000,"PART-1-1",           488,       7.13496,       8.72104,            0.,NA,NA,"",       9.56834,      -9.56473,  -262.886E-03,   42.3367E-03
C:/temp/dataset/8/1_36.odb,Step-1,Increment      4: Step Time =    1.000,"PART-1-1",           489,       6.11605,       9.93638,            0.,NA,NA,"",       10.0177,      -9.98987,  -746.508E-03,   16.1289E-03
C:/temp/dataset/8/1_36.odb,Step-1,Increment      4: Step Time =    1.000,"PART-1-1",           490,            5.,          8.75,            0.,NA,NA,"",       9.48994,      -9.42819,      -1.08082,   18.0268E-03
C:/temp/dataset/8/1_36.odb,Step-1,Increment      4: Step Time =    1.000,"PART-1-1",           491,       6.01891,       7.53466,            0.,NA,NA,"",       9.02511,      -9.00879,  -542.460E-03,   33.8114E-03
C:/temp/dataset/8/1_36.odb,Step-1,Increment      4: Step Time =    1.000,"PART-1-1",           492,   29.3773E-03,       3.74235,            0.,NA,NA,"",       7.46995,      -7.42977,  -773.688E-03,   44.8422E-03
C:/temp/dataset/8/1_36.odb,Step-1,Increment      4: Step Time =    1.000,"PART-1-1",           493,         -1.25,            5.,            0.,NA,NA,"",       7.64678,      -7.59415,  -895.571E-03,   48.7993E-03
C:/temp/dataset/8/1_36.odb,Step-1,Increment      4: Step Time =    1.000,"PART-1-1",           494,      -2.45171,       3.76422,            0.,NA,NA,"",       7.57128,      -7.51069,  -955.907E-03,   70.5813E-03
C:/temp/dataset/8/1_36.odb,Step-1,Increment      4: Step Time =    1.000,"PART-1-1",           495,      -3.55010,       2.55765,            0.,NA,NA,"",       7.38710,      -7.31539,      -1.02679,   71.5425E-03
C:/temp/dataset/8/1_36.odb,Step-1,Increment      4: Step Time =    1.000,"PART-1-1",           496,         -3.75,            5.,            0.,NA,NA,"",       7.87959,      -7.79498,      -1.15162,   149.566E-03
C:/temp/dataset/8/1_36.odb,Step-1,Increment      4: Step Time =    1.000,"PART-1-1",           497,      -4.84840,       3.79343,            0.,NA,NA,"",       7.73185,      -7.63351,      -1.22925,   102.412E-03
C:/temp/dataset/8/1_36.odb,Step-1,Increment      4: Step Time =    1.000,"PART-1-1",           498,      -13.7264,       27.6066,            0.,NA,NA,"",       16.6086,      -15.6607,      -5.53050,   10.3948E-03
C:/temp/dataset/8/1_36.odb,Step-1,Increment      4: Step Time =    1.000,"PART-1-1",           499,          -15.,         26.25,            0.,NA,NA,"",       16.3282,      -15.2486,      -5.83872,   14.7269E-03
C:/temp/dataset/8/1_36.odb,Step-1,Increment      4: Step Time =    1.000,"PART-1-1",           500,      -13.4386,       25.0669,            0.,NA,NA,"",       15.9384,      -15.0022,      -5.38205,   20.2382E-03
C:/temp/dataset/8/1_36.odb,Step-1,Increment      4: Step Time =    1.000,"PART-1-1",           501,      -12.1650,       26.4235,            0.,NA,NA,"",       16.2241,      -15.4169,      -5.05385,   21.0050E-03
C:/temp/dataset/8/1_36.odb,Step-1,Increment      4: Step Time =    1.000,"PART-1-1",           502,      -3.53283,       23.8665,            0.,NA,NA,"",       15.2781,      -15.0238,      -2.77620,   58.7681E-03
C:/temp/dataset/8/1_36.odb,Step-1,Increment      4: Step Time =    1.000,"PART-1-1",           503,      -4.96963,       24.1916,            0.,NA,NA,"",       15.3940,      -15.0870,      -3.05911,   40.5514E-03
C:/temp/dataset/8/1_36.odb,Step-1,Increment      4: Step Time =    1.000,"PART-1-1",           504,      -5.34791,       22.7845,            0.,NA,NA,"",       15.0529,      -14.7396,      -3.05490,   49.1678E-03
C:/temp/dataset/8/1_36.odb,Step-1,Increment      4: Step Time =    1.000,"PART-1-1",           505,      -3.91112,       22.4594,            0.,NA,NA,"",       14.9370,      -14.6787,      -2.76600,   65.4933E-03
C:/temp/dataset/8/1_36.odb,Step-1,Increment      4: Step Time =    1.000,"PART-1-1",           506,      -12.3994,       21.2122,            0.,NA,NA,"",       14.8095,      -13.9507,      -4.96969,   15.9049E-03
C:/temp/dataset/8/1_36.odb,Step-1,Increment      4: Step Time =    1.000,"PART-1-1",           507,      -13.6532,       22.4798,            0.,NA,NA,"",       15.2461,      -14.2624,      -5.38786,   27.5072E-03
C:/temp/dataset/8/1_36.odb,Step-1,Increment      4: Step Time =    1.000,"PART-1-1",           508,          -15.,         21.25,            0.,NA,NA,"",       14.9556,      -13.7970,      -5.77173,   41.9466E-03
C:/temp/dataset/8/1_36.odb,Step-1,Increment      4: Step Time =    1.000,"PART-1-1",           509,      -8.82323,       17.4409,            0.,NA,NA,"",       13.3567,      -12.8558,      -3.62350,   54.8364E-03
C:/temp/dataset/8/1_36.odb,Step-1,Increment      4: Step Time =    1.000,"PART-1-1",           510,      -8.76994,       19.8173,            0.,NA,NA,"",       14.2415,      -13.7279,      -3.79014,   37.1220E-03
C:/temp/dataset/8/1_36.odb,Step-1,Increment      4: Step Time =    1.000,"PART-1-1",           511,      -10.0426,       18.6373,            0.,NA,NA,"",       13.8550,      -13.2333,      -4.10382,   34.0728E-03
C:/temp/dataset/8/1_36.odb,Step-1,Increment      4: Step Time =    1.000,"PART-1-1",           512,   21.1090E-03,       21.2968,            0.,NA,NA,"",       14.7140,      -14.5455,      -2.22009,   23.6399E-03
C:/temp/dataset/8/1_36.odb,Step-1,Increment      4: Step Time =    1.000,"PART-1-1",           513,          1.25,           20.,            0.,NA,NA,"",       14.4821,      -14.3413,      -2.01483,   16.0976E-03
C:/temp/dataset/8/1_36.odb,Step-1,Increment      4: Step Time =    1.000,"PART-1-1",           514,       13.8176,       22.6447,            0.,NA,NA,"",       15.4895,      -15.4568,       1.00584,   33.4971E-03
C:/temp/dataset/8/1_36.odb,Step-1,Increment      4: Step Time =    1.000,"PART-1-1",           515,       12.3404,       21.5086,            0.,NA,NA,"",       15.0003,      -14.9885,   595.554E-03,   20.4465E-03
C:/temp/dataset/8/1_36.odb,Step-1,Increment      4: Step Time =    1.000,"PART-1-1",           516,       13.5229,       20.0701,            0.,NA,NA,"",       14.6101,      -14.5705,       1.07620,   26.5519E-03
C:/temp/dataset/8/1_36.odb,Step-1,Increment      4: Step Time =    1.000,"PART-1-1",           517,           15.,       21.2062,            0.,NA,NA,"",       15.1559,      -15.0822,       1.49336,   42.4744E-03
C:/temp/dataset/8/1_36.odb,Step-1,Increment      4: Step Time =    1.000,"PART-1-1",           518,          6.25,           30.,            0.,NA,NA,"",       16.8960,      -16.8522,      -1.21516,   71.2871E-03
C:/temp/dataset/8/1_36.odb,Step-1,Increment      4: Step Time =    1.000,"PART-1-1",           519,       4.99916,       28.7599,            0.,NA,NA,"",       16.5242,      -16.4577,      -1.48170,   57.2664E-03
C:/temp/dataset/8/1_36.odb,Step-1,Increment      4: Step Time =    1.000,"PART-1-1",           520,       6.36817,       27.3763,            0.,NA,NA,"",       16.2591,      -16.2159,      -1.18491,   45.8156E-03
C:/temp/dataset/8/1_36.odb,Step-1,Increment      4: Step Time =    1.000,"PART-1-1",           521,       7.61901,       28.6164,            0.,NA,NA,"",       16.6479,      -16.6236,  -897.737E-03,   58.7275E-03
C:/temp/dataset/8/1_36.odb,Step-1,Increment      4: Step Time =    1.000,"PART-1-1",           522,       9.03329,       27.4617,            0.,NA,NA,"",       16.4465,      -16.4380,  -527.283E-03,   47.7570E-03
C:/temp/dataset/8/1_36.odb,Step-1,Increment      4: Step Time =    1.000,"PART-1-1",           523,       10.1643,       28.8453,            0.,NA,NA,"",       16.9023,      -16.9006,  -238.224E-03,   53.2098E-03
C:/temp/dataset/8/1_36.odb,Step-1,Increment      4: Step Time =    1.000,"PART-1-1",           524,          8.75,           30.,            0.,NA,NA,"",       17.1035,      -17.0922,  -623.654E-03,   66.1391E-03
C:/temp/dataset/8/1_36.odb,Step-1,Increment      4: Step Time =    1.000,"PART-1-1",           525,   8.17364E-03,       28.7581,            0.,NA,NA,"",       16.3797,      -16.2102,      -2.35031,   29.2304E-03
C:/temp/dataset/8/1_36.odb,Step-1,Increment      4: Step Time =    1.000,"PART-1-1",           526,       2.50184,       28.7876,            0.,NA,NA,"",       16.4283,      -16.3130,      -1.94236,   44.9343E-03
C:/temp/dataset/8/1_36.odb,Step-1,Increment      4: Step Time =    1.000,"PART-1-1",           527,          1.25,           30.,            0.,NA,NA,"",       16.6305,      -16.4903,      -2.15504,   33.0053E-03
C:/temp/dataset/8/1_36.odb,Step-1,Increment      4: Step Time =    1.000,"PART-1-1",           528,      -5.24228,       28.8821,            0.,NA,NA,"",       16.5121,      -16.1753,      -3.31845,   26.0193E-03
C:/temp/dataset/8/1_36.odb,Step-1,Increment      4: Step Time =    1.000,"PART-1-1",           529,      -2.64934,       28.5381,            0.,NA,NA,"",       16.3560,      -16.1159,      -2.79213,   23.3190E-03
C:/temp/dataset/8/1_36.odb,Step-1,Increment      4: Step Time =    1.000,"PART-1-1",           530,         -3.75,           30.,            0.,NA,NA,"",       16.6876,      -16.4078,      -3.04338,   25.4599E-03
C:/temp/dataset/8/1_36.odb,Step-1,Increment      4: Step Time =    1.000,"PART-1-1",           531,      -7.66846,       29.0326,            0.,NA,NA,"",       16.6611,      -16.1971,      -3.90484,   27.8330E-03
C:/temp/dataset/8/1_36.odb,Step-1,Increment      4: Step Time =    1.000,"PART-1-1",           532,      -6.66074,       27.9147,            0.,NA,NA,"",       16.3460,      -15.9428,      -3.60793,   17.5602E-03
C:/temp/dataset/8/1_36.odb,Step-1,Increment      4: Step Time =    1.000,"PART-1-1",           533,         -6.25,           30.,            0.,NA,NA,"",       16.8158,      -16.4271,      -3.59470,   36.5487E-03
C:/temp/dataset/8/1_36.odb,Step-1,Increment      4: Step Time =    1.000,"PART-1-1",           534,      -8.85273,       25.1596,            0.,NA,NA,"",       15.7609,      -15.2283,      -4.06283,   20.7377E-03
C:/temp/dataset/8/1_36.odb,Step-1,Increment      4: Step Time =    1.000,"PART-1-1",           535,      -8.23876,       24.0389,            0.,NA,NA,"",       15.4573,      -14.9714,      -3.84512,   22.6973E-03
C:/temp/dataset/8/1_36.odb,Step-1,Increment      4: Step Time =    1.000,"PART-1-1",           536,      -6.78155,       24.7842,            0.,NA,NA,"",       15.5938,      -15.1963,      -3.49859,   23.3402E-03
C:/temp/dataset/8/1_36.odb,Step-1,Increment      4: Step Time =    1.000,"PART-1-1",           537,      -7.39551,       25.9049,            0.,NA,NA,"",       15.8903,      -15.4522,      -3.70572,   16.9547E-03
C:/temp/dataset/8/1_36.odb,Step-1,Increment      4: Step Time =    1.000,"PART-1-1",           538,      -12.4764,       28.8566,            0.,NA,NA,"",       16.8678,      -16.0383,      -5.22427,   10.3057E-03
C:/temp/dataset/8/1_36.odb,Step-1,Increment      4: Step Time =    1.000,"PART-1-1",           539,        -13.75,           30.,            0.,NA,NA,"",       17.2433,      -16.3013,      -5.62126,   2.18496E-03
C:/temp/dataset/8/1_36.odb,Step-1,Increment      4: Step Time =    1.000,"PART-1-1",           540,          -15.,         28.75,            0.,NA,NA,"",       16.9798,      -15.9164,      -5.91459,   2.22005E-03
C:/temp/dataset/8/1_36.odb,Step-1,Increment      4: Step Time =    1.000,"PART-1-1",           541,      -7.55516,       16.2219,            0.,NA,NA,"",       12.8190,      -12.4463,      -3.06880,   57.6115E-03
C:/temp/dataset/8/1_36.odb,Step-1,Increment      4: Step Time =    1.000,"PART-1-1",           542,      -6.27478,       15.0018,            0.,NA,NA,"",       12.2794,      -12.0314,      -2.45549,   39.9275E-03
C:/temp/dataset/8/1_36.odb,Step-1,Increment      4: Step Time =    1.000,"PART-1-1",           543,           -5.,         16.25,            0.,NA,NA,"",       12.7650,      -12.5917,      -2.09624,   54.5345E-03
C:/temp/dataset/8/1_36.odb,Step-1,Increment      4: Step Time =    1.000,"PART-1-1",           544,      -12.5375,       11.2943,            0.,NA,NA,"",       11.0837,      -10.2235,      -4.28121,   45.9815E-03
C:/temp/dataset/8/1_36.odb,Step-1,Increment      4: Step Time =    1.000,"PART-1-1",           545,      -11.2813,       10.1542,            0.,NA,NA,"",       10.5161,      -9.83574,      -3.72118,   50.1983E-03
C:/temp/dataset/8/1_36.odb,Step-1,Increment      4: Step Time =    1.000,"PART-1-1",           546,      -10.0769,       11.4281,            0.,NA,NA,"",       10.9517,      -10.3974,      -3.44006,   52.8394E-03
C:/temp/dataset/8/1_36.odb,Step-1,Increment      4: Step Time =    1.000,"PART-1-1",           547,      -11.3331,       12.5683,            0.,NA,NA,"",       11.5065,      -10.7922,      -3.99088,   47.7710E-03
C:/temp/dataset/8/1_36.odb,Step-1,Increment      4: Step Time =    1.000,"PART-1-1",           548,      -8.81802,       15.0067,            0.,NA,NA,"",       12.3688,      -11.8996,      -3.37430,   51.2689E-03
C:/temp/dataset/8/1_36.odb,Step-1,Increment      4: Step Time =    1.000,"PART-1-1",           549,      -10.0861,       16.2257,            0.,NA,NA,"",       12.9257,      -12.3159,      -3.92347,   49.1364E-03
C:/temp/dataset/8/1_36.odb,Step-1,Increment      4: Step Time =    1.000,"PART-1-1",           550,      -13.7511,       10.0234,            0.,NA,NA,"",       10.6999,      -9.66906,      -4.58228,   44.8214E-03
C:/temp/dataset/8/1_36.odb,Step-1,Increment      4: Step Time =    1.000,"PART-1-1",           551,          -15.,         11.25,            0.,NA,NA,"",       11.3285,      -10.0640,      -5.20099,   34.2830E-03
C:/temp/dataset/8/1_36.odb,Step-1,Increment      4: Step Time =    1.000,"PART-1-1",           552,      -7.55101,       13.7795,            0.,NA,NA,"",       11.8116,      -11.4757,      -2.79700,   44.3441E-03
C:/temp/dataset/8/1_36.odb,Step-1,Increment      4: Step Time =    1.000,"PART-1-1",           553,      -6.27623,       12.5278,            0.,NA,NA,"",       11.2689,      -11.0532,      -2.19431,   24.5877E-03
C:/temp/dataset/8/1_36.odb,Step-1,Increment      4: Step Time =    1.000,"PART-1-1",           554,           -5.,         13.75,            0.,NA,NA,"",       11.7671,      -11.6257,      -1.81868,   25.8536E-03
C:/temp/dataset/8/1_36.odb,Step-1,Increment      4: Step Time =    1.000,"PART-1-1",           555,      -7.73154,       8.68047,            0.,NA,NA,"",       9.71241,      -9.41719,      -2.37643,   47.8253E-03
C:/temp/dataset/8/1_36.odb,Step-1,Increment      4: Step Time =    1.000,"PART-1-1",           556,      -6.43871,       7.39503,            0.,NA,NA,"",       9.15688,      -8.96992,      -1.84090,   36.0627E-03
C:/temp/dataset/8/1_36.odb,Step-1,Increment      4: Step Time =    1.000,"PART-1-1",           557,           -5.,          8.75,            0.,NA,NA,"",       9.74701,      -9.64760,      -1.38855,   26.1606E-03
C:/temp/dataset/8/1_36.odb,Step-1,Increment      4: Step Time =    1.000,"PART-1-1",           558,      -6.29283,       10.0354,            0.,NA,NA,"",       10.2489,      -10.0569,      -1.97472,   18.5989E-03
C:/temp/dataset/8/1_36.odb,Step-1,Increment      4: Step Time =    1.000,"PART-1-1",           559,      -10.9724,       6.37301,            0.,NA,NA,"",       9.03962,      -8.44425,      -3.22636,   51.5834E-03
C:/temp/dataset/8/1_36.odb,Step-1,Increment      4: Step Time =    1.000,"PART-1-1",           560,      -11.8392,       4.13381,            0.,NA,NA,"",       8.38331,      -7.71014,      -3.29145,   53.2293E-03
C:/temp/dataset/8/1_36.odb,Step-1,Increment      4: Step Time =    1.000,"PART-1-1",           561,      -10.3518,       4.58458,            0.,NA,NA,"",       8.37594,      -7.87475,      -2.85388,   48.5248E-03
C:/temp/dataset/8/1_36.odb,Step-1,Increment      4: Step Time =    1.000,"PART-1-1",           562,      -7.08076,   207.918E-03,            0.,NA,NA,"",       6.95657,      -6.77251,      -1.58965,   28.3512E-03
C:/temp/dataset/8/1_36.odb,Step-1,Increment      4: Step Time =    1.000,"PART-1-1",           563,      -6.69858,      -1.33808,            0.,NA,NA,"",       6.58529,      -6.43123,      -1.41610,   42.1411E-03
C:/temp/dataset/8/1_36.odb,Step-1,Increment      4: Step Time =    1.000,"PART-1-1",           564,      -5.21720,      -1.06412,            0.,NA,NA,"",       6.60925,      -6.51043,      -1.13864,   52.6324E-03
C:/temp/dataset/8/1_36.odb,Step-1,Increment      4: Step Time =    1.000,"PART-1-1",           565,      -5.59938,   481.880E-03,            0.,NA,NA,"",       6.96860,      -6.85019,      -1.27916,   30.7787E-03
C:/temp/dataset/8/1_36.odb,Step-1,Increment      4: Step Time =    1.000,"PART-1-1",           566,      -4.73360,       1.40018,            0.,NA,NA,"",       7.15452,      -7.05950,      -1.16215,   52.2529E-03
C:/temp/dataset/8/1_36.odb,Step-1,Increment      4: Step Time =    1.000,"PART-1-1",           567,      -3.61778,   109.205E-03,            0.,NA,NA,"",       6.83695,      -6.76759,  -971.341E-03,   76.7106E-03
C:/temp/dataset/8/1_36.odb,Step-1,Increment      4: Step Time =    1.000,"PART-1-1",           568,      -7.98115,      -4.65772,            0.,NA,NA,"",       5.77750,      -5.56809,      -1.54137,   54.2358E-03
C:/temp/dataset/8/1_36.odb,Step-1,Increment      4: Step Time =    1.000,"PART-1-1",           569,      -6.28323,      -5.33636,            0.,NA,NA,"",       5.59190,      -5.48924,      -1.06654,   123.068E-03
C:/temp/dataset/8/1_36.odb,Step-1,Increment      4: Step Time =    1.000,"PART-1-1",           570,      -5.33200,      -3.67088,            0.,NA,NA,"",       6.03792,      -5.96219,  -953.277E-03,   109.153E-03
C:/temp/dataset/8/1_36.odb,Step-1,Increment      4: Step Time =    1.000,"PART-1-1",           571,      -7.02992,      -2.99224,            0.,NA,NA,"",       6.21738,      -6.05966,      -1.39153,   48.8562E-03
C:/temp/dataset/8/1_36.odb,Step-1,Increment      4: Step Time =    1.000,"PART-1-1",           572,      -9.50932,      -4.32694,            0.,NA,NA,"",       5.91522,      -5.57511,      -1.97687,   41.0577E-03
C:/temp/dataset/8/1_36.odb,Step-1,Increment      4: Step Time =    1.000,"PART-1-1",           573,      -9.07148,      -2.62864,            0.,NA,NA,"",       6.36231,      -6.05267,      -1.96066,   42.1719E-03
C:/temp/dataset/8/1_36.odb,Step-1,Increment      4: Step Time =    1.000,"PART-1-1",           574,      -11.0112,      -2.25660,            0.,NA,NA,"",       6.58197,      -6.06914,      -2.54714,   41.3648E-03
C:/temp/dataset/8/1_36.odb,Step-1,Increment      4: Step Time =    1.000,"PART-1-1",           575,      -11.4490,      -3.95490,            0.,NA,NA,"",       6.15415,      -5.59599,      -2.56095,   36.0204E-03
C:/temp/dataset/8/1_36.odb,Step-1,Increment      4: Step Time =    1.000,"PART-1-1",           576,      -12.8101,      -6.09098,            0.,NA,NA,"",       5.65156,      -4.91195,      -2.79514,   46.1322E-03
C:/temp/dataset/8/1_36.odb,Step-1,Increment      4: Step Time =    1.000,"PART-1-1",           577,          -15.,         -6.25,            0.,NA,NA,"",       5.91046,      -4.78741,      -3.46616,   30.3162E-03
C:/temp/dataset/8/1_36.odb,Step-1,Increment      4: Step Time =    1.000,"PART-1-1",           578,      -12.4915,      -11.2805,            0.,NA,NA,"",       3.85044,      -3.20412,      -2.13530,   86.8881E-03
C:/temp/dataset/8/1_36.odb,Step-1,Increment      4: Step Time =    1.000,"PART-1-1",           579,      -11.2634,      -12.5870,            0.,NA,NA,"",       3.21942,      -2.77874,      -1.62581,   87.5726E-03
C:/temp/dataset/8/1_36.odb,Step-1,Increment      4: Step Time =    1.000,"PART-1-1",           580,      -9.99512,      -11.3837,            0.,NA,NA,"",       3.49053,      -3.19007,      -1.41680,   83.7659E-03
C:/temp/dataset/8/1_36.odb,Step-1,Increment      4: Step Time =    1.000,"PART-1-1",           581,      -13.7566,      -12.5332,            0.,NA,NA,"",       3.65082,      -2.78853,      -2.35640,   94.7031E-03
C:/temp/dataset/8/1_36.odb,Step-1,Increment      4: Step Time =    1.000,"PART-1-1",           582,          -15.,        -11.25,            0.,NA,NA,"",       4.33502,      -3.17853,      -2.94777,   85.6457E-03
C:/temp/dataset/8/1_36.odb,Step-1,Increment      4: Step Time =    1.000,"PART-1-1",           583,      -8.71482,      -10.1608,            0.,NA,NA,"",       3.82115,      -3.63066,      -1.19141,   77.1299E-03
C:/temp/dataset/8/1_36.odb,Step-1,Increment      4: Step Time =    1.000,"PART-1-1",           584,      -7.42248,      -8.98866,            0.,NA,NA,"",       4.18121,      -4.07385,  -941.423E-03,   78.8776E-03
C:/temp/dataset/8/1_36.odb,Step-1,Increment      4: Step Time =    1.000,"PART-1-1",           585,      -8.58554,      -7.84743,            0.,NA,NA,"",       4.67310,      -4.45320,      -1.41663,   85.3372E-03
C:/temp/dataset/8/1_36.odb,Step-1,Increment      4: Step Time =    1.000,"PART-1-1",           586,      -7.50773,      -13.8545,            0.,NA,NA,"",       2.45844,      -2.40772,  -496.806E-03,   47.9425E-03
C:/temp/dataset/8/1_36.odb,Step-1,Increment      4: Step Time =    1.000,"PART-1-1",           587,      -6.25830,      -15.0553,            0.,NA,NA,"",       2.07303,      -2.07132,  -84.2565E-03,   22.1697E-03
C:/temp/dataset/8/1_36.odb,Step-1,Increment      4: Step Time =    1.000,"PART-1-1",           588,           -5.,        -13.75,            0.,NA,NA,"",       2.55281,      -2.54245,   229.750E-03,   11.5573E-03
C:/temp/dataset/8/1_36.odb,Step-1,Increment      4: Step Time =    1.000,"PART-1-1",           589,      -6.24942,      -12.5493,            0.,NA,NA,"",       2.88602,      -2.87683,  -230.073E-03,   28.2759E-03
C:/temp/dataset/8/1_36.odb,Step-1,Increment      4: Step Time =    1.000,"PART-1-1",           590,      -11.2978,      -17.6923,            0.,NA,NA,"",       1.67003,      -1.29686,      -1.05221,   91.7858E-03
C:/temp/dataset/8/1_36.odb,Step-1,Increment      4: Step Time =    1.000,"PART-1-1",           591,      -12.6450,      -18.8482,            0.,NA,NA,"",       1.61329,      -1.07396,      -1.20388,   112.699E-03
C:/temp/dataset/8/1_36.odb,Step-1,Increment      4: Step Time =    1.000,"PART-1-1",           592,      -11.4281,      -20.3734,            0.,NA,NA,"",       1.09727,  -749.058E-03,  -801.819E-03,   93.1621E-03
C:/temp/dataset/8/1_36.odb,Step-1,Increment      4: Step Time =    1.000,"PART-1-1",           593,      -10.0810,      -19.2175,            0.,NA,NA,"",       1.14614,  -933.674E-03,  -664.747E-03,   73.7795E-03
C:/temp/dataset/8/1_36.odb,Step-1,Increment      4: Step Time =    1.000,"PART-1-1",           594,      -7.51421,      -16.3885,            0.,NA,NA,"",       1.66476,      -1.63010,  -337.913E-03,   47.7509E-03
C:/temp/dataset/8/1_36.odb,Step-1,Increment      4: Step Time =    1.000,"PART-1-1",           595,      -6.25590,      -17.5833,            0.,NA,NA,"",       1.31854,      -1.31838,  -20.2797E-03,   39.8289E-03
C:/temp/dataset/8/1_36.odb,Step-1,Increment      4: Step Time =    1.000,"PART-1-1",           596,           -5.,        -16.25,            0.,NA,NA,"",       1.79910,      -1.77486,   294.352E-03,   44.2550E-03
C:/temp/dataset/8/1_36.odb,Step-1,Increment      4: Step Time =    1.000,"PART-1-1",           597,      -10.0205,      -13.8763,            0.,NA,NA,"",       2.63194,      -2.36674,      -1.15137,   81.1536E-03
C:/temp/dataset/8/1_36.odb,Step-1,Increment      4: Step Time =    1.000,"PART-1-1",           598,      -8.77208,      -15.1278,            0.,NA,NA,"",       2.11396,      -1.98696,  -721.678E-03,   61.7159E-03
C:/temp/dataset/8/1_36.odb,Step-1,Increment      4: Step Time =    1.000,"PART-1-1",           599,      -8.75613,      -12.6031,            0.,NA,NA,"",       2.94927,      -2.79332,  -946.318E-03,   68.0394E-03
C:/temp/dataset/8/1_36.odb,Step-1,Increment      4: Step Time =    1.000,"PART-1-1",           600,      -7.46622,      -18.9660,            0.,NA,NA,"",   970.755E-03,  -945.983E-03,  -217.903E-03,   45.6441E-03
C:/temp/dataset/8/1_36.odb,Step-1,Increment      4: Step Time =    1.000,"PART-1-1",           601,      -8.77786,      -17.7139,            0.,NA,NA,"",       1.36833,      -1.26080,  -531.718E-03,   58.0219E-03
C:/temp/dataset/8/1_36.odb,Step-1,Increment      4: Step Time =    1.000,"PART-1-1",           602,      -8.76934,      -20.4696,            0.,NA,NA,"",   762.592E-03,  -674.556E-03,  -355.698E-03,   51.3181E-03
C:/temp/dataset/8/1_36.odb,Step-1,Increment      4: Step Time =    1.000,"PART-1-1",           603,      -14.0375,      -22.4038,            0.,NA,NA,"",       1.14374,  -573.132E-03,  -989.780E-03,   149.365E-03
C:/temp/dataset/8/1_36.odb,Step-1,Increment      4: Step Time =    1.000,"PART-1-1",           604,      -12.9066,      -21.1902,            0.,NA,NA,"",       1.17811,  -673.441E-03,  -966.653E-03,   120.955E-03
C:/temp/dataset/8/1_36.odb,Step-1,Increment      4: Step Time =    1.000,"PART-1-1",           605,      -13.8691,      -20.0365,            0.,NA,NA,"",       1.57788,  -899.905E-03,      -1.29611,   144.437E-03
C:/temp/dataset/8/1_36.odb,Step-1,Increment      4: Step Time =    1.000,"PART-1-1",           606,          -15.,        -21.25,            0.,NA,NA,"",       1.53667,  -783.456E-03,      -1.32195,   173.583E-03
C:/temp/dataset/8/1_36.odb,Step-1,Increment      4: Step Time =    1.000,"PART-1-1",           607,      -11.2823,      -23.1306,            0.,NA,NA,"",   641.918E-03,  -369.335E-03,  -525.025E-03,   89.4395E-03
C:/temp/dataset/8/1_36.odb,Step-1,Increment      4: Step Time =    1.000,"PART-1-1",           608,      -12.2820,      -22.3254,            0.,NA,NA,"",   889.943E-03,  -495.968E-03,  -738.928E-03,   109.605E-03
C:/temp/dataset/8/1_36.odb,Step-1,Increment      4: Step Time =    1.000,"PART-1-1",           609,      -13.0137,      -23.4645,            0.,NA,NA,"",   818.279E-03,  -404.075E-03,  -711.551E-03,   126.111E-03
C:/temp/dataset/8/1_36.odb,Step-1,Increment      4: Step Time =    1.000,"PART-1-1",           610,      -12.0140,      -24.2697,            0.,NA,NA,"",   581.198E-03,  -284.673E-03,  -506.708E-03,   106.105E-03
C:/temp/dataset/8/1_36.odb,Step-1,Increment      4: Step Time =    1.000,"PART-1-1",           611,          -15.,        -28.75,            0.,NA,NA,"",   249.556E-03,  -162.172E-03,  -189.680E-03,   168.347E-03
C:/temp/dataset/8/1_36.odb,Step-1,Increment      4: Step Time =    1.000,"PART-1-1",           612,        -13.75,          -30.,            0.,NA,NA,"",            0.,  -134.305E-42,   2.03037E-39,   139.857E-03
C:/temp/dataset/8/1_36.odb,Step-1,Increment      4: Step Time =    1.000,"PART-1-1",           613,      -2.49072,      -28.8242,            0.,NA,NA,"",   45.6829E-03,  -45.6815E-03,  -349.778E-06,   28.7482E-03
C:/temp/dataset/8/1_36.odb,Step-1,Increment      4: Step Time =    1.000,"PART-1-1",           614,      -3.67632,      -27.6801,            0.,NA,NA,"",   82.5002E-03,  -82.3743E-03,   4.55603E-03,   31.9108E-03
C:/temp/dataset/8/1_36.odb,Step-1,Increment      4: Step Time =    1.000,"PART-1-1",           615,         -3.75,          -30.,            0.,NA,NA,"",            0.,   158.292E-42,  -147.586E-42,   16.8812E-03
C:/temp/dataset/8/1_36.odb,Step-1,Increment      4: Step Time =    1.000,"PART-1-1",           616,      -3.67176,      -25.2240,            0.,NA,NA,"",   221.971E-03,  -219.696E-03,   31.6965E-03,   47.2009E-03
C:/temp/dataset/8/1_36.odb,Step-1,Increment      4: Step Time =    1.000,"PART-1-1",           617,      -2.52111,      -23.8746,            0.,NA,NA,"",   337.011E-03,  -333.859E-03,   45.9840E-03,   55.3504E-03
C:/temp/dataset/8/1_36.odb,Step-1,Increment      4: Step Time =    1.000,"PART-1-1",           618,      -3.68426,      -22.6291,            0.,NA,NA,"",   421.340E-03,  -413.568E-03,   80.5518E-03,   55.0808E-03
C:/temp/dataset/8/1_36.odb,Step-1,Increment      4: Step Time =    1.000,"PART-1-1",           619,      -1.29997,      -22.5744,            0.,NA,NA,"",   424.030E-03,  -422.524E-03,   35.7065E-03,   55.2051E-03
C:/temp/dataset/8/1_36.odb,Step-1,Increment      4: Step Time =    1.000,"PART-1-1",           620,  -41.8285E-03,      -21.2827,            0.,NA,NA,"",   476.041E-03,  -475.919E-03,   10.8051E-03,   26.1939E-03
C:/temp/dataset/8/1_36.odb,Step-1,Increment      4: Step Time =    1.000,"PART-1-1",           621,         -1.25,          -20.,            0.,NA,NA,"",   479.769E-03,  -478.808E-03,   30.3472E-03,   12.9387E-03
C:/temp/dataset/8/1_36.odb,Step-1,Increment      4: Step Time =    1.000,"PART-1-1",           622,      -2.50814,      -21.2918,            0.,NA,NA,"",   497.962E-03,  -492.985E-03,   70.2297E-03,   35.5682E-03
C:/temp/dataset/8/1_36.odb,Step-1,Increment      4: Step Time =    1.000,"PART-1-1",           623,       5.99755,      -26.4812,            0.,NA,NA,"",   153.160E-03,  -151.035E-03,   25.4277E-03,   24.1562E-03
C:/temp/dataset/8/1_36.odb,Step-1,Increment      4: Step Time =    1.000,"PART-1-1",           624,       6.71386,      -27.7542,            0.,NA,NA,"",   81.1619E-03,  -74.0415E-03,   33.2432E-03,   29.0036E-03
C:/temp/dataset/8/1_36.odb,Step-1,Increment      4: Step Time =    1.000,"PART-1-1",           625,       8.26971,      -26.8502,            0.,NA,NA,"",   167.603E-03,  -133.151E-03,   101.791E-03,   43.7288E-03
C:/temp/dataset/8/1_36.odb,Step-1,Increment      4: Step Time =    1.000,"PART-1-1",           626,       7.55340,      -25.5772,            0.,NA,NA,"",   244.613E-03,  -221.847E-03,   103.051E-03,   33.4936E-03
C:/temp/dataset/8/1_36.odb,Step-1,Increment      4: Step Time =    1.000,"PART-1-1",           627,       1.27500,      -22.6714,            0.,NA,NA,"",   440.913E-03,  -439.931E-03,  -29.4217E-03,   59.1398E-03
C:/temp/dataset/8/1_36.odb,Step-1,Increment      4: Step Time =    1.000,"PART-1-1",           628,       2.56683,      -21.3888,            0.,NA,NA,"",   537.269E-03,  -534.186E-03,  -57.4729E-03,   48.7890E-03
C:/temp/dataset/8/1_36.odb,Step-1,Increment      4: Step Time =    1.000,"PART-1-1",           629,          1.25,          -20.,            0.,NA,NA,"",   500.379E-03,  -500.379E-03,  -63.3193E-06,   32.5646E-03
C:/temp/dataset/8/1_36.odb,Step-1,Increment      4: Step Time =    1.000,"PART-1-1",           630,       2.22787,      -25.9763,            0.,NA,NA,"",   215.145E-03,  -213.747E-03,  -24.4896E-03,   48.0037E-03
C:/temp/dataset/8/1_36.odb,Step-1,Increment      4: Step Time =    1.000,"PART-1-1",           631,       3.59536,      -25.7933,            0.,NA,NA,"",   217.014E-03,  -215.489E-03,  -25.6812E-03,   41.8197E-03
C:/temp/dataset/8/1_36.odb,Step-1,Increment      4: Step Time =    1.000,"PART-1-1",           632,       3.51094,      -23.6954,            0.,NA,NA,"",   378.997E-03,  -374.850E-03,  -55.9144E-03,   54.8427E-03
C:/temp/dataset/8/1_36.odb,Step-1,Increment      4: Step Time =    1.000,"PART-1-1",           633,       2.14345,      -23.8784,            0.,NA,NA,"",   363.573E-03,  -361.485E-03,  -38.9077E-03,   56.1209E-03
C:/temp/dataset/8/1_36.odb,Step-1,Increment      4: Step Time =    1.000,"PART-1-1",           634,       7.70323,      -28.9583,            0.,NA,NA,"",   33.9714E-03,  -21.7303E-03,   26.1122E-03,   33.5890E-03
C:/temp/dataset/8/1_36.odb,Step-1,Increment      4: Step Time =    1.000,"PART-1-1",           635,       5.26063,      -28.7960,            0.,NA,NA,"",   35.5142E-03,  -34.8866E-03,   6.64727E-03,   21.1420E-03
C:/temp/dataset/8/1_36.odb,Step-1,Increment      4: Step Time =    1.000,"PART-1-1",           636,          6.25,          -30.,            0.,NA,NA,"",            0.,  -116.430E-42,  -412.353E-42,   21.0487E-03
C:/temp/dataset/8/1_36.odb,Step-1,Increment      4: Step Time =    1.000,"PART-1-1",           637,       12.1002,      -20.6263,            0.,NA,NA,"",       1.44021,      -1.12303,   901.661E-03,   119.368E-03
C:/temp/dataset/8/1_36.odb,Step-1,Increment      4: Step Time =    1.000,"PART-1-1",           638,       11.2927,      -21.6253,            0.,NA,NA,"",       1.12127,  -876.316E-03,   699.512E-03,   108.363E-03
C:/temp/dataset/8/1_36.odb,Step-1,Increment      4: Step Time =    1.000,"PART-1-1",           639,       12.1479,      -22.5488,            0.,NA,NA,"",       1.06643,  -775.059E-03,   732.494E-03,   121.011E-03
C:/temp/dataset/8/1_36.odb,Step-1,Increment      4: Step Time =    1.000,"PART-1-1",           640,       12.9554,      -21.5499,            0.,NA,NA,"",       1.37738,      -1.00270,   944.329E-03,   131.548E-03
C:/temp/dataset/8/1_36.odb,Step-1,Increment      4: Step Time =    1.000,"PART-1-1",           641,         13.75,          -30.,            0.,NA,NA,"",            0.,  -563.510E-42,   487.052E-42,   169.936E-03
C:/temp/dataset/8/1_36.odb,Step-1,Increment      4: Step Time =    1.000,"PART-1-1",           642,           15.,      -28.7625,            0.,NA,NA,"",   300.091E-03,  -210.786E-03,   213.597E-03,   197.026E-03
C:/temp/dataset/8/1_36.odb,Step-1,Increment      4: Step Time =    1.000,"PART-1-1",           643,       13.7773,      -27.6225,            0.,NA,NA,"",   393.944E-03,  -249.862E-03,   304.567E-03,   153.258E-03
C:/temp/dataset/8/1_36.odb,Step-1,Increment      4: Step Time =    1.000,"PART-1-1",           644,           15.,      -26.2875,            0.,NA,NA,"",   761.404E-03,  -479.099E-03,   591.778E-03,   168.945E-03
C:/temp/dataset/8/1_36.odb,Step-1,Increment      4: Step Time =    1.000,"PART-1-1",           645,       13.5913,      -25.0907,            0.,NA,NA,"",   806.003E-03,  -516.912E-03,   618.420E-03,   144.696E-03
C:/temp/dataset/8/1_36.odb,Step-1,Increment      4: Step Time =    1.000,"PART-1-1",           646,       12.3686,      -26.4257,            0.,NA,NA,"",   464.786E-03,  -295.825E-03,   358.488E-03,   125.835E-03
C:/temp/dataset/8/1_36.odb,Step-1,Increment      4: Step Time =    1.000,"PART-1-1",           647,       13.9603,      -22.6421,            0.,NA,NA,"",       1.30712,  -884.166E-03,   962.710E-03,   151.264E-03
C:/temp/dataset/8/1_36.odb,Step-1,Increment      4: Step Time =    1.000,"PART-1-1",           648,       12.5516,      -23.9202,            0.,NA,NA,"",   878.035E-03,  -598.595E-03,   642.362E-03,   127.853E-03
C:/temp/dataset/8/1_36.odb,Step-1,Increment      4: Step Time =    1.000,"PART-1-1",           649,           15.,      -23.8125,            0.,NA,NA,"",       1.22123,  -781.872E-03,   938.126E-03,   167.513E-03
C:/temp/dataset/8/1_36.odb,Step-1,Increment      4: Step Time =    1.000,"PART-1-1",           650,           15.,      -21.3375,            0.,NA,NA,"",       1.75357,      -1.19744,       1.28107,   167.040E-03
C:/temp/dataset/8/1_36.odb,Step-1,Increment      4: Step Time =    1.000,"PART-1-1",           651,       7.29151,      -18.3998,            0.,NA,NA,"",       1.36691,      -1.34837,   224.353E-03,   65.6034E-03
C:/temp/dataset/8/1_36.odb,Step-1,Increment      4: Step Time =    1.000,"PART-1-1",           652,       6.16221,      -17.3915,            0.,NA,NA,"",       1.59567,      -1.59506,  -43.9986E-03,   22.0945E-03
C:/temp/dataset/8/1_36.odb,Step-1,Increment      4: Step Time =    1.000,"PART-1-1",           653,            5.,        -18.75,            0.,NA,NA,"",       1.21440,      -1.18480,  -266.524E-03,   63.8612E-03
C:/temp/dataset/8/1_36.odb,Step-1,Increment      4: Step Time =    1.000,"PART-1-1",           654,       6.12930,      -19.7583,            0.,NA,NA,"",   909.742E-03,  -908.636E-03,   44.8582E-03,   90.0011E-03
C:/temp/dataset/8/1_36.odb,Step-1,Increment      4: Step Time =    1.000,"PART-1-1",           655,       11.0004,      -17.5900,            0.,NA,NA,"",       2.00077,      -1.77941,   914.759E-03,   97.4712E-03
C:/temp/dataset/8/1_36.odb,Step-1,Increment      4: Step Time =    1.000,"PART-1-1",           656,       9.51360,      -18.2945,            0.,NA,NA,"",       1.62105,      -1.49975,   615.279E-03,   86.8765E-03
C:/temp/dataset/8/1_36.odb,Step-1,Increment      4: Step Time =    1.000,"PART-1-1",           657,       10.1108,      -19.3444,            0.,NA,NA,"",       1.43976,      -1.27230,   673.917E-03,   93.6126E-03
C:/temp/dataset/8/1_36.odb,Step-1,Increment      4: Step Time =    1.000,"PART-1-1",           658,       11.5976,      -18.6398,            0.,NA,NA,"",       1.82118,      -1.54314,   967.166E-03,   107.360E-03
C:/temp/dataset/8/1_36.odb,Step-1,Increment      4: Step Time =    1.000,"PART-1-1",           659,       10.5605,      -11.7100,            0.,NA,NA,"",       3.67634,      -3.55142,   950.203E-03,   76.7294E-03
C:/temp/dataset/8/1_36.odb,Step-1,Increment      4: Step Time =    1.000,"PART-1-1",           660,       12.7627,      -11.5544,            0.,NA,NA,"",       4.02357,      -3.73548,       1.49511,   80.3169E-03
C:/temp/dataset/8/1_36.odb,Step-1,Increment      4: Step Time =    1.000,"PART-1-1",           661,       5.97841,      -7.48969,            0.,NA,NA,"",       4.69478,      -4.69093,  -190.176E-03,   87.4526E-03
C:/temp/dataset/8/1_36.odb,Step-1,Increment      4: Step Time =    1.000,"PART-1-1",           662,            5.,         -8.75,            0.,NA,NA,"",       4.20444,      -4.17444,  -501.377E-03,   73.8333E-03
C:/temp/dataset/8/1_36.odb,Step-1,Increment      4: Step Time =    1.000,"PART-1-1",           663,       6.97100,      -8.62604,            0.,NA,NA,"",       4.36239,      -4.36201,   57.6596E-03,   75.3518E-03
C:/temp/dataset/8/1_36.odb,Step-1,Increment      4: Step Time =    1.000,"PART-1-1",           664,       13.4909,      -5.05443,            0.,NA,NA,"",       6.03453,      -5.78240,       1.72611,   43.7071E-03
C:/temp/dataset/8/1_36.odb,Step-1,Increment      4: Step Time =    1.000,"PART-1-1",           665,           15.,      -6.28125,            0.,NA,NA,"",       5.91267,      -5.51558,       2.13027,   44.1736E-03
C:/temp/dataset/8/1_36.odb,Step-1,Increment      4: Step Time =    1.000,"PART-1-1",           666,       12.6840,      -1.12825,            0.,NA,NA,"",       6.95905,      -6.78556,       1.54420,   56.6663E-03
C:/temp/dataset/8/1_36.odb,Step-1,Increment      4: Step Time =    1.000,"PART-1-1",           667,       13.8718,      -2.44066,            0.,NA,NA,"",       6.76824,      -6.51244,       1.84317,   50.0369E-03
C:/temp/dataset/8/1_36.odb,Step-1,Increment      4: Step Time =    1.000,"PART-1-1",           668,           15.,      -1.25625,            0.,NA,NA,"",       7.21676,      -6.88971,       2.14792,   59.4589E-03
C:/temp/dataset/8/1_36.odb,Step-1,Increment      4: Step Time =    1.000,"PART-1-1",           669,       5.31213,       3.65711,            0.,NA,NA,"",       7.55406,      -7.54324,  -404.118E-03,   83.5305E-03
C:/temp/dataset/8/1_36.odb,Step-1,Increment      4: Step Time =    1.000,"PART-1-1",           670,       7.63904,       4.47127,            0.,NA,NA,"",       7.95487,      -7.95300,   172.649E-03,   62.3866E-03
C:/temp/dataset/8/1_36.odb,Step-1,Increment      4: Step Time =    1.000,"PART-1-1",           671,       6.09328,       5.22028,            0.,NA,NA,"",       8.04971,      -8.04547,  -261.250E-03,   107.308E-03
C:/temp/dataset/8/1_36.odb,Step-1,Increment      4: Step Time =    1.000,"PART-1-1",           672,       10.7996,       2.27920,            0.,NA,NA,"",       7.63981,      -7.56547,       1.06316,   57.5594E-03
C:/temp/dataset/8/1_36.odb,Step-1,Increment      4: Step Time =    1.000,"PART-1-1",           673,       10.9658,       3.81330,            0.,NA,NA,"",       8.11203,      -8.03420,       1.12102,   59.6917E-03
C:/temp/dataset/8/1_36.odb,Step-1,Increment      4: Step Time =    1.000,"PART-1-1",           674,       8.99860,       4.11099,            0.,NA,NA,"",       7.98200,      -7.96268,   555.120E-03,   56.3883E-03
C:/temp/dataset/8/1_36.odb,Step-1,Increment      4: Step Time =    1.000,"PART-1-1",           675,           15.,       8.66250,            0.,NA,NA,"",       10.4299,      -10.1540,       2.38326,   71.7294E-03
C:/temp/dataset/8/1_36.odb,Step-1,Increment      4: Step Time =    1.000,"PART-1-1",           676,       13.1757,       8.97628,            0.,NA,NA,"",       10.2578,      -10.1103,       1.73293,   56.6035E-03
C:/temp/dataset/8/1_36.odb,Step-1,Increment      4: Step Time =    1.000,"PART-1-1",           677,       7.38641,       11.0911,            0.,NA,NA,"",       10.5648,      -10.5584,  -367.431E-03,   36.6190E-03
C:/temp/dataset/8/1_36.odb,Step-1,Increment      4: Step Time =    1.000,"PART-1-1",           678,       6.27036,       12.4047,            0.,NA,NA,"",       11.0526,      -11.0177,  -877.299E-03,   28.1795E-03
C:/temp/dataset/8/1_36.odb,Step-1,Increment      4: Step Time =    1.000,"PART-1-1",           679,            5.,         11.25,            0.,NA,NA,"",       10.5107,      -10.4316,      -1.28704,   11.0115E-03
C:/temp/dataset/8/1_36.odb,Step-1,Increment      4: Step Time =    1.000,"PART-1-1",           680,       10.9828,       10.9826,            0.,NA,NA,"",       10.8011,      -10.7649,   883.806E-03,   52.1239E-03
C:/temp/dataset/8/1_36.odb,Step-1,Increment      4: Step Time =    1.000,"PART-1-1",           681,       9.82750,       10.6157,            0.,NA,NA,"",       10.5435,      -10.5308,   517.208E-03,   52.9331E-03
C:/temp/dataset/8/1_36.odb,Step-1,Increment      4: Step Time =    1.000,"PART-1-1",           682,       11.4264,       9.28562,            0.,NA,NA,"",       10.1588,      -10.0955,       1.13205,   54.4945E-03
C:/temp/dataset/8/1_36.odb,Step-1,Increment      4: Step Time =    1.000,"PART-1-1",           683,       12.2770,       18.7828,            0.,NA,NA,"",       14.0404,      -14.0201,   754.999E-03,   27.0059E-03
C:/temp/dataset/8/1_36.odb,Step-1,Increment      4: Step Time =    1.000,"PART-1-1",           684,       13.7541,       17.4065,            0.,NA,NA,"",       13.6556,      -13.5843,       1.39366,   17.4298E-03
C:/temp/dataset/8/1_36.odb,Step-1,Increment      4: Step Time =    1.000,"PART-1-1",           685,           15.,       18.6938,            0.,NA,NA,"",       14.2569,      -14.1494,       1.74669,   23.9290E-03
C:/temp/dataset/8/1_36.odb,Step-1,Increment      4: Step Time =    1.000,"PART-1-1",           686,       11.5052,       27.6683,            0.,NA,NA,"",       16.6919,      -16.6912,   154.183E-03,   45.4080E-03
C:/temp/dataset/8/1_36.odb,Step-1,Increment      4: Step Time =    1.000,"PART-1-1",           687,       12.5910,       28.8229,            0.,NA,NA,"",       17.1005,      -17.0949,   437.875E-03,   40.8336E-03
C:/temp/dataset/8/1_36.odb,Step-1,Increment      4: Step Time =    1.000,"PART-1-1",           688,         11.25,           30.,            0.,NA,NA,"",       17.3225,      -17.3225,   40.8624E-03,   50.7760E-03
C:/temp/dataset/8/1_36.odb,Step-1,Increment      4: Step Time =    1.000,"PART-1-1",           689,       7.66010,       22.7139,            0.,NA,NA,"",       15.0894,      -15.0655,  -849.120E-03,   35.2964E-03
C:/temp/dataset/8/1_36.odb,Step-1,Increment      4: Step Time =    1.000,"PART-1-1",           690,       8.77998,       20.9019,            0.,NA,NA,"",       14.5826,      -14.5746,  -482.854E-03,   23.5114E-03
C:/temp/dataset/8/1_36.odb,Step-1,Increment      4: Step Time =    1.000,"PART-1-1",           691,       9.04783,       22.2730,            0.,NA,NA,"",       15.0248,      -15.0182,  -447.472E-03,   22.0888E-03
C:/temp/dataset/8/1_36.odb,Step-1,Increment      4: Step Time =    1.000,"PART-1-1",           692,           15.,       28.7437,            0.,NA,NA,"",       17.2846,      -17.2493,       1.10402,   33.7530E-03
C:/temp/dataset/8/1_36.odb,Step-1,Increment      4: Step Time =    1.000,"PART-1-1",           693,         13.75,           30.,            0.,NA,NA,"",       17.5336,      -17.5183,   731.568E-03,   37.8433E-03
C:/temp/dataset/8/1_36.odb,Step-1,Increment      4: Step Time =    1.000,"PART-1-1",           694,       7.11219,       6.50494,            0.,NA,NA,"",       8.65767,      -8.65742,  -65.9109E-03,   61.9347E-03
C:/temp/dataset/8/1_36.odb,Step-1,Increment      4: Step Time =    1.000,"PART-1-1",           695,            5.,          6.25,            0.,NA,NA,"",       8.47027,      -8.43410,  -781.839E-03,   91.6032E-03
C:/temp/dataset/8/1_36.odb,Step-1,Increment      4: Step Time =    1.000,"PART-1-1",           696,       9.07599,      -27.9731,            0.,NA,NA,"",   110.534E-03,  -71.0251E-03,   84.6941E-03,   56.6140E-03
C:/temp/dataset/8/1_36.odb,Step-1,Increment      4: Step Time =    1.000,"PART-1-1",           697,          8.75,          -30.,            0.,NA,NA,"",            0.,  -249.632E-42,  -119.995E-42,   46.7168E-03
C:/temp/dataset/8/1_36.odb,Step-1,Increment      4: Step Time =    1.000,"PART-1-1",           698,           15.,       3.71250,            0.,NA,NA,"",       8.64517,      -8.33230,       2.30474,   93.3514E-03
C:/temp/dataset/8/1_36.odb,Step-1,Increment      4: Step Time =    1.000,"PART-1-1",           699,       12.4115,       4.21065,            0.,NA,NA,"",       8.42442,      -8.28060,       1.55000,   64.3209E-03
C:/temp/dataset/8/1_36.odb,Step-1,Increment      4: Step Time =    1.000,"PART-1-1",           700,       8.79814,       6.59392,            0.,NA,NA,"",       8.83426,      -8.82374,   430.872E-03,   59.6105E-03
C:/temp/dataset/8/1_36.odb,Step-1,Increment      4: Step Time =    1.000,"PART-1-1",           701,       9.28031,       5.28415,            0.,NA,NA,"",       8.40485,      -8.38184,   621.439E-03,   57.6581E-03
C:/temp/dataset/8/1_36.odb,Step-1,Increment      4: Step Time =    1.000,"PART-1-1",           702,       10.3279,       5.61007,            0.,NA,NA,"",       8.63358,      -8.58422,   921.905E-03,   57.8537E-03
C:/temp/dataset/8/1_36.odb,Step-1,Increment      4: Step Time =    1.000,"PART-1-1",           703,   700.033E-03,      -25.0201,            0.,NA,NA,"",   281.476E-03,  -281.082E-03,  -14.8740E-03,   53.4797E-03
C:/temp/dataset/8/1_36.odb,Step-1,Increment      4: Step Time =    1.000,"PART-1-1",           704,  -168.417E-03,      -23.8132,            0.,NA,NA,"",   357.267E-03,  -357.264E-03,   1.64566E-03,   56.1759E-03
C:/temp/dataset/8/1_36.odb,Step-1,Increment      4: Step Time =    1.000,"PART-1-1",           705,         -3.75,          -20.,            0.,NA,NA,"",   579.578E-03,  -574.178E-03,   78.9344E-03,   88.5430E-03
C:/temp/dataset/8/1_36.odb,Step-1,Increment      4: Step Time =    1.000,"PART-1-1",           706,      -4.92611,      -21.3374,            0.,NA,NA,"",   529.903E-03,  -519.814E-03,   102.911E-03,   72.6853E-03
C:/temp/dataset/8/1_36.odb,Step-1,Increment      4: Step Time =    1.000,"PART-1-1",           707,         -1.25,          -30.,            0.,NA,NA,"",            0.,   9.28500E-42,  -366.428E-42,   26.5082E-03
C:/temp/dataset/8/1_36.odb,Step-1,Increment      4: Step Time =    1.000,"PART-1-1",           708,      -1.25381,      -27.5694,            0.,NA,NA,"",   114.999E-03,  -114.981E-03,   2.03642E-03,   37.1195E-03
C:/temp/dataset/8/1_36.odb,Step-1,Increment      4: Step Time =    1.000,"PART-1-1",           709,      -7.47582,      -11.3801,            0.,NA,NA,"",       3.30826,      -3.23298,  -701.751E-03,   59.9491E-03
C:/temp/dataset/8/1_36.odb,Step-1,Increment      4: Step Time =    1.000,"PART-1-1",           710,           -5.,        -11.25,            0.,NA,NA,"",       3.37487,      -3.37390,   81.1244E-03,   17.2122E-03
C:/temp/dataset/8/1_36.odb,Step-1,Increment      4: Step Time =    1.000,"PART-1-1",           711,      -6.22640,      -10.0809,            0.,NA,NA,"",       3.74517,      -3.71971,  -435.964E-03,   46.7253E-03
C:/temp/dataset/8/1_36.odb,Step-1,Increment      4: Step Time =    1.000,"PART-1-1",           712,          -15.,        -13.75,            0.,NA,NA,"",       3.53994,      -2.41629,      -2.58703,   119.142E-03
C:/temp/dataset/8/1_36.odb,Step-1,Increment      4: Step Time =    1.000,"PART-1-1",           713,      -12.5143,      -13.8326,            0.,NA,NA,"",       2.99527,      -2.38278,      -1.81494,   98.5986E-03
C:/temp/dataset/8/1_36.odb,Step-1,Increment      4: Step Time =    1.000,"PART-1-1",           714,      -10.0899,       13.8022,            0.,NA,NA,"",       11.9360,      -11.3519,      -3.68809,   52.2682E-03
C:/temp/dataset/8/1_36.odb,Step-1,Increment      4: Step Time =    1.000,"PART-1-1",           715,      -8.82292,       12.5751,            0.,NA,NA,"",       11.3606,      -10.9228,      -3.12355,   46.1710E-03
C:/temp/dataset/8/1_36.odb,Step-1,Increment      4: Step Time =    1.000,"PART-1-1",           716,          -15.,         16.25,            0.,NA,NA,"",       13.2604,      -12.0094,      -5.62271,   20.2187E-03
C:/temp/dataset/8/1_36.odb,Step-1,Increment      4: Step Time =    1.000,"PART-1-1",           717,      -12.5861,       16.2442,            0.,NA,NA,"",       13.0775,      -12.1796,      -4.76243,   30.3676E-03
C:/temp/dataset/8/1_36.odb,Step-1,Increment      4: Step Time =    1.000,"PART-1-1",           718,      -12.3822,       2.26742,            0.,NA,NA,"",       7.89810,      -7.17600,      -3.29925,   56.4990E-03
C:/temp/dataset/8/1_36.odb,Step-1,Increment      4: Step Time =    1.000,"PART-1-1",           719,      -11.8212,   294.554E-03,            0.,NA,NA,"",       7.31301,      -6.68322,      -2.96894,   53.3444E-03
C:/temp/dataset/8/1_36.odb,Step-1,Increment      4: Step Time =    1.000,"PART-1-1",           720,      -11.2086,       1.42526,            0.,NA,NA,"",       7.54705,      -6.98314,      -2.86246,   53.3073E-03
C:/temp/dataset/8/1_36.odb,Step-1,Increment      4: Step Time =    1.000,"PART-1-1",           721,         -3.75,           -5.,            0.,NA,NA,"",       5.87168,      -5.80770,  -864.435E-03,   113.217E-03
C:/temp/dataset/8/1_36.odb,Step-1,Increment      4: Step Time =    1.000,"PART-1-1",           722,      -4.14613,      -2.41365,            0.,NA,NA,"",       6.28724,      -6.22102,  -910.122E-03,   78.3280E-03
C:/temp/dataset/8/1_36.odb,Step-1,Increment      4: Step Time =    1.000,"PART-1-1",           723,          3.75,           -5.,            0.,NA,NA,"",       5.77945,      -5.76729,  -374.711E-03,   133.695E-03
C:/temp/dataset/8/1_36.odb,Step-1,Increment      4: Step Time =    1.000,"PART-1-1",           724,       4.89490,      -3.81404,            0.,NA,NA,"",       5.90009,      -5.89083,  -330.473E-03,   111.554E-03
C:/temp/dataset/8/1_36.odb,Step-1,Increment      4: Step Time =    1.000,"PART-1-1",           725,          3.75,            5.,            0.,NA,NA,"",       7.73878,      -7.71867,  -557.545E-03,   113.187E-03
C:/temp/dataset/8/1_36.odb,Step-1,Increment      4: Step Time =    1.000,"PART-1-1",           726,       2.57777,       3.72098,            0.,NA,NA,"",       7.50294,      -7.47550,  -641.108E-03,   69.0184E-03
C:/temp/dataset/8/1_36.odb,Step-1,Increment      4: Step Time =    1.000,"PART-1-1",           727,       4.13990,       2.37808,            0.,NA,NA,"",       7.26028,      -7.24295,  -501.367E-03,   68.9646E-03
C:/temp/dataset/8/1_36.odb,Step-1,Increment      4: Step Time =    1.000,"PART-1-1",           728,       1.35715,       2.46333,            0.,NA,NA,"",       7.26320,      -7.23012,  -692.441E-03,   93.1801E-03
C:/temp/dataset/8/1_36.odb,Step-1,Increment      4: Step Time =    1.000,"PART-1-1",           729,          1.25,            5.,            0.,NA,NA,"",       7.59651,      -7.56470,  -694.491E-03,   24.2938E-03
C:/temp/dataset/8/1_36.odb,Step-1,Increment      4: Step Time =    1.000,"PART-1-1",           730,         -1.25,           30.,            0.,NA,NA,"",       16.6184,      -16.4174,      -2.57693,   3.21060E-03
C:/temp/dataset/8/1_36.odb,Step-1,Increment      4: Step Time =    1.000,"PART-1-1",           731,      -1.39116,       27.2962,            0.,NA,NA,"",       16.0661,      -15.8627,      -2.54813,   43.4710E-03
C:/temp/dataset/8/1_36.odb,Step-1,Increment      4: Step Time =    1.000,"PART-1-1",           732,         -3.75,           20.,            0.,NA,NA,"",       14.4354,      -14.1789,      -2.70909,   96.6019E-03
C:/temp/dataset/8/1_36.odb,Step-1,Increment      4: Step Time =    1.000,"PART-1-1",           733,      -2.58927,       21.4449,            0.,NA,NA,"",       14.7183,      -14.4929,      -2.56587,   46.8857E-03
C:/temp/dataset/8/1_36.odb,Step-1,Increment      4: Step Time =    1.000,"PART-1-1",           734,      -5.07185,       21.0145,            0.,NA,NA,"",       14.6071,      -14.3281,      -2.84144,   99.9531E-03
C:/temp/dataset/8/1_36.odb,Step-1,Increment      4: Step Time =    1.000,"PART-1-1",           735,      -1.31816,       22.7417,            0.,NA,NA,"",       14.9994,      -14.8025,      -2.42266,   59.1634E-03
C:/temp/dataset/8/1_36.odb,Step-1,Increment      4: Step Time =    1.000,"PART-1-1",           736,         -1.25,           20.,            0.,NA,NA,"",       14.5032,      -14.3039,      -2.39624,   24.9697E-03
C:/temp/dataset/8/1_36.odb,Step-1,Increment      4: Step Time =    1.000,"PART-1-1",           737,  -725.106E-03,       25.0611,            0.,NA,NA,"",       15.5387,      -15.3534,      -2.39239,   59.1842E-03
C:/temp/dataset/8/1_36.odb,Step-1,Increment      4: Step Time =    1.000,"PART-1-1",           738,      -2.17754,       23.9659,            0.,NA,NA,"",       15.2873,      -15.0681,      -2.57951,   59.6783E-03
C:/temp/dataset/8/1_36.odb,Step-1,Increment      4: Step Time =    1.000,"PART-1-1",           739,       6.30112,       14.9129,            0.,NA,NA,"",       12.1121,      -12.0690,      -1.02058,   46.3586E-03
C:/temp/dataset/8/1_36.odb,Step-1,Increment      4: Step Time =    1.000,"PART-1-1",           740,       7.60711,       16.0964,            0.,NA,NA,"",       12.6914,      -12.6763,  -620.563E-03,   59.3677E-03
C:/temp/dataset/8/1_36.odb,Step-1,Increment      4: Step Time =    1.000,"PART-1-1",           741,            5.,         16.25,            0.,NA,NA,"",       12.5987,      -12.5009,      -1.56670,   67.4211E-03
C:/temp/dataset/8/1_36.odb,Step-1,Increment      4: Step Time =    1.000,"PART-1-1",           742,       11.0485,       19.6309,            0.,NA,NA,"",       14.2639,      -14.2610,   290.616E-03,   24.4394E-03
C:/temp/dataset/8/1_36.odb,Step-1,Increment      4: Step Time =    1.000,"PART-1-1",           743,       10.8767,       20.9415,            0.,NA,NA,"",       14.7071,      -14.7062,   161.298E-03,   14.2608E-03
C:/temp/dataset/8/1_36.odb,Step-1,Increment      4: Step Time =    1.000,"PART-1-1",           744,       8.95178,       19.5912,            0.,NA,NA,"",       14.1393,      -14.1344,  -373.610E-03,   33.5302E-03
C:/temp/dataset/8/1_36.odb,Step-1,Increment      4: Step Time =    1.000,"PART-1-1",           745,      -10.0357,      -16.4531,            0.,NA,NA,"",       1.83702,      -1.60092,  -900.933E-03,   77.5959E-03
C:/temp/dataset/8/1_36.odb,Step-1,Increment      4: Step Time =    1.000,"PART-1-1",           746,         -8.75,          -30.,            0.,NA,NA,"",            0.,   709.808E-42,   295.185E-42,   46.2403E-03
C:/temp/dataset/8/1_36.odb,Step-1,Increment      4: Step Time =    1.000,"PART-1-1",           747,      -8.42026,      -27.7162,            0.,NA,NA,"",   66.1788E-03,  -19.2253E-03,  -63.3247E-03,   38.4295E-03
C:/temp/dataset/8/1_36.odb,Step-1,Increment      4: Step Time =    1.000,"PART-1-1",           748,       8.78655,      -4.15343,            0.,NA,NA,"",       5.85301,      -5.83137,   502.887E-03,   42.7972E-03
C:/temp/dataset/8/1_36.odb,Step-1,Increment      4: Step Time =    1.000,"PART-1-1",           749,       8.68406,      -5.73195,            0.,NA,NA,"",       5.40284,      -5.38078,   487.766E-03,   54.3298E-03
C:/temp/dataset/8/1_36.odb,Step-1,Increment      4: Step Time =    1.000,"PART-1-1",           750,            5.,        -13.75,            0.,NA,NA,"",       2.64585,      -2.60435,  -466.766E-03,   27.0585E-03
C:/temp/dataset/8/1_36.odb,Step-1,Increment      4: Step Time =    1.000,"PART-1-1",           751,       6.25620,      -14.9360,            0.,NA,NA,"",       2.31719,      -2.31512,  -97.8795E-03,   30.5639E-03
C:/temp/dataset/8/1_36.odb,Step-1,Increment      4: Step Time =    1.000,"PART-1-1",           752,       7.64552,      -13.5447,            0.,NA,NA,"",       2.81690,      -2.80679,   238.431E-03,   55.0919E-03
C:/temp/dataset/8/1_36.odb,Step-1,Increment      4: Step Time =    1.000,"PART-1-1",           753,       7.28908,      -20.5141,            0.,NA,NA,"",   853.507E-03,  -830.019E-03,   198.857E-03,   70.2296E-03
C:/temp/dataset/8/1_36.odb,Step-1,Increment      4: Step Time =    1.000,"PART-1-1",           754,       5.05608,      -20.9168,            0.,NA,NA,"",   649.156E-03,  -641.937E-03,  -96.5422E-03,   84.4804E-03
C:/temp/dataset/8/1_36.odb,Step-1,Increment      4: Step Time =    1.000,"PART-1-1",           755,       6.21587,      -21.6726,            0.,NA,NA,"",   589.040E-03,  -587.740E-03,   39.1103E-03,   32.3298E-03
C:/temp/dataset/8/1_36.odb,Step-1,Increment      4: Step Time =    1.000,"PART-1-1",           756,      -6.21032,      -20.1327,            0.,NA,NA,"",   684.389E-03,  -684.332E-03,   8.80577E-03,   63.2343E-03
C:/temp/dataset/8/1_36.odb,Step-1,Increment      4: Step Time =    1.000,"PART-1-1",           757,      -7.27258,      -21.5724,            0.,NA,NA,"",   501.574E-03,  -490.130E-03,  -106.532E-03,   18.2278E-03
C:/temp/dataset/8/1_36.odb,Step-1,Increment      4: Step Time =    1.000,"PART-1-1",           758,      -7.56906,       11.3132,            0.,NA,NA,"",       10.7909,      -10.4843,      -2.55385,   37.5413E-03
C:/temp/dataset/8/1_36.odb,Step-1,Increment      4: Step Time =    1.000,"PART-1-1",           759,           -5.,         11.25,            0.,NA,NA,"",       10.7548,      -10.6382,      -1.57951,   5.30277E-03
C:/temp/dataset/8/1_36.odb,Step-1,Increment      4: Step Time =    1.000,"PART-1-1",           760,          -15.,          8.75,            0.,NA,NA,"",       10.3696,      -9.13650,      -4.90447,   60.0110E-03
C:/temp/dataset/8/1_36.odb,Step-1,Increment      4: Step Time =    1.000,"PART-1-1",           761,      -12.2910,       8.63249,            0.,NA,NA,"",       10.0054,      -9.21134,      -3.90634,   50.3712E-03
C:/temp/dataset/8/1_36.odb,Step-1,Increment      4: Step Time =    1.000,"PART-1-1",           762,      -10.0463,       9.29253,            0.,NA,NA,"",       10.0791,      -9.55337,      -3.21284,   51.1704E-03
C:/temp/dataset/8/1_36.odb,Step-1,Increment      4: Step Time =    1.000,"PART-1-1",           763,      -8.95480,       7.80674,            0.,NA,NA,"",       9.42399,      -9.02725,      -2.70561,   49.4836E-03
C:/temp/dataset/8/1_36.odb,Step-1,Increment      4: Step Time =    1.000,"PART-1-1",           764,      -8.82303,       10.1663,            0.,NA,NA,"",       10.3631,      -9.95382,      -2.88356,   46.5625E-03
C:/temp/dataset/8/1_36.odb,Step-1,Increment      4: Step Time =    1.000,"PART-1-1",           765,          -15.,          3.75,            0.,NA,NA,"",       8.66193,      -7.53498,      -4.27237,   78.9135E-03
C:/temp/dataset/8/1_36.odb,Step-1,Increment      4: Step Time =    1.000,"PART-1-1",           766,      -12.9901,       3.46920,            0.,NA,NA,"",       8.31257,      -7.49225,      -3.60070,   57.0553E-03
C:/temp/dataset/8/1_36.odb,Step-1,Increment      4: Step Time =    1.000,"PART-1-1",           767,          -15.,         -1.25,            0.,NA,NA,"",       7.28594,      -6.21544,      -3.80173,   41.3141E-03
C:/temp/dataset/8/1_36.odb,Step-1,Increment      4: Step Time =    1.000,"PART-1-1",           768,      -12.5622,      -1.46868,            0.,NA,NA,"",       6.93632,      -6.21990,      -3.07008,   47.1931E-03
C:/temp/dataset/8/1_36.odb,Step-1,Increment      4: Step Time =    1.000,"PART-1-1",           769,      -9.58657,      -7.04159,            0.,NA,NA,"",       5.03102,      -4.70713,      -1.77598,   66.2317E-03
C:/temp/dataset/8/1_36.odb,Step-1,Increment      4: Step Time =    1.000,"PART-1-1",           770,      -10.0085,      -5.60753,            0.,NA,NA,"",       5.54371,      -5.16059,      -2.02509,   50.5999E-03
C:/temp/dataset/8/1_36.odb,Step-1,Increment      4: Step Time =    1.000,"PART-1-1",           771,      -11.4596,      -6.08275,            0.,NA,NA,"",       5.50709,      -4.95791,      -2.39733,   47.5568E-03
C:/temp/dataset/8/1_36.odb,Step-1,Increment      4: Step Time =    1.000,"PART-1-1",           772,           -5.,         -8.75,            0.,NA,NA,"",       4.24065,      -4.23843,  -137.413E-03,   52.2340E-03
C:/temp/dataset/8/1_36.odb,Step-1,Increment      4: Step Time =    1.000,"PART-1-1",           773,      -6.19608,      -7.65780,            0.,NA,NA,"",       4.64758,      -4.59045,  -726.501E-03,   73.5205E-03
C:/temp/dataset/8/1_36.odb,Step-1,Increment      4: Step Time =    1.000,"PART-1-1",           774,      -2.54672,      -1.24033,            0.,NA,NA,"",       6.52651,      -6.47206,  -841.241E-03,   98.3795E-03
C:/temp/dataset/8/1_36.odb,Step-1,Increment      4: Step Time =    1.000,"PART-1-1",           775,       12.1686,       8.14789,            0.,NA,NA,"",       9.80002,      -9.69587,       1.42493,   58.2732E-03
C:/temp/dataset/8/1_36.odb,Step-1,Increment      4: Step Time =    1.000,"PART-1-1",           776,       11.7736,       6.00742,            0.,NA,NA,"",       8.95031,      -8.84758,       1.35218,   61.6651E-03
C:/temp/dataset/8/1_36.odb,Step-1,Increment      4: Step Time =    1.000,"PART-1-1",           777,       2.58139,       1.19261,            0.,NA,NA,"",       7.00454,      -6.97922,  -595.072E-03,   96.5359E-03
C:/temp/dataset/8/1_36.odb,Step-1,Increment      4: Step Time =    1.000,"PART-1-1",           778,      -8.87122,       6.40892,            0.,NA,NA,"",       8.87814,      -8.50429,      -2.54922,   52.2790E-03
C:/temp/dataset/8/1_36.odb,Step-1,Increment      4: Step Time =    1.000,"PART-1-1",           779,      -9.21124,       4.86121,            0.,NA,NA,"",       8.36534,      -7.97820,      -2.51539,   50.9591E-03
C:/temp/dataset/8/1_36.odb,Step-1,Increment      4: Step Time =    1.000,"PART-1-1",           780,      -7.77566,       4.46419,            0.,NA,NA,"",       8.12395,      -7.86334,      -2.04121,   54.8308E-03
C:/temp/dataset/8/1_36.odb,Step-1,Increment      4: Step Time =    1.000,"PART-1-1",           781,      -7.43564,       6.01190,            0.,NA,NA,"",       8.63478,      -8.38426,      -2.06486,   59.5582E-03
C:/temp/dataset/8/1_36.odb,Step-1,Increment      4: Step Time =    1.000,"PART-1-1",           782,      -11.3069,       27.9101,            0.,NA,NA,"",       16.5604,      -15.8318,      -4.85820,   18.8245E-03
C:/temp/dataset/8/1_36.odb,Step-1,Increment      4: Step Time =    1.000,"PART-1-1",           783,      -10.0805,       29.0536,            0.,NA,NA,"",       16.7924,      -16.1623,      -4.55670,   19.9780E-03
C:/temp/dataset/8/1_36.odb,Step-1,Increment      4: Step Time =    1.000,"PART-1-1",           784,        -11.25,           30.,            0.,NA,NA,"",       17.1100,      -16.3854,      -4.92627,   14.5682E-03
C:/temp/dataset/8/1_36.odb,Step-1,Increment      4: Step Time =    1.000,"PART-1-1",           785,          -15.,         23.75,            0.,NA,NA,"",       15.6689,      -14.5572,      -5.79663,   31.7654E-03
C:/temp/dataset/8/1_36.odb,Step-1,Increment      4: Step Time =    1.000,"PART-1-1",           786,      -12.0918,       23.7968,            0.,NA,NA,"",       15.5371,      -14.7253,      -4.95656,   21.0771E-03
C:/temp/dataset/8/1_36.odb,Step-1,Increment      4: Step Time =    1.000,"PART-1-1",           787,      -8.63614,       22.0154,            0.,NA,NA,"",       14.9283,      -14.4192,      -3.86529,   26.1276E-03
C:/temp/dataset/8/1_36.odb,Step-1,Increment      4: Step Time =    1.000,"PART-1-1",           788,      -9.89938,       20.9751,            0.,NA,NA,"",       14.6454,      -14.0316,      -4.19538,   18.1894E-03
C:/temp/dataset/8/1_36.odb,Step-1,Increment      4: Step Time =    1.000,"PART-1-1",           789,      -7.50670,       20.8576,            0.,NA,NA,"",       14.5791,      -14.1575,      -3.48103,   39.0868E-03
C:/temp/dataset/8/1_36.odb,Step-1,Increment      4: Step Time =    1.000,"PART-1-1",           790,      -11.2460,       19.8989,            0.,NA,NA,"",       14.3410,      -13.5979,      -4.55641,   19.9287E-03
C:/temp/dataset/8/1_36.odb,Step-1,Increment      4: Step Time =    1.000,"PART-1-1",           791,      -11.3323,       17.4620,            0.,NA,NA,"",       13.4721,      -12.7211,      -4.43503,   34.3705E-03
C:/temp/dataset/8/1_36.odb,Step-1,Increment      4: Step Time =    1.000,"PART-1-1",           792,      -6.30838,       21.9713,            0.,NA,NA,"",       14.8771,      -14.5252,      -3.21644,   46.5522E-03
C:/temp/dataset/8/1_36.odb,Step-1,Increment      4: Step Time =    1.000,"PART-1-1",           793,      -2.23761,       26.0591,            0.,NA,NA,"",       15.7865,      -15.5622,      -2.65184,   49.6098E-03
C:/temp/dataset/8/1_36.odb,Step-1,Increment      4: Step Time =    1.000,"PART-1-1",           794,       8.85967,       17.2477,            0.,NA,NA,"",       13.2335,      -13.2308,  -267.633E-03,   55.4210E-03
C:/temp/dataset/8/1_36.odb,Step-1,Increment      4: Step Time =    1.000,"PART-1-1",           795,       10.0793,       18.0998,            0.,NA,NA,"",       13.6363,      -13.6361,   74.3482E-03,   40.9090E-03
C:/temp/dataset/8/1_36.odb,Step-1,Increment      4: Step Time =    1.000,"PART-1-1",           796,          3.75,           30.,            0.,NA,NA,"",       16.7285,      -16.6401,      -1.71797,   59.5390E-03
C:/temp/dataset/8/1_36.odb,Step-1,Increment      4: Step Time =    1.000,"PART-1-1",           797,       3.75100,       27.5475,            0.,NA,NA,"",       16.1877,      -16.0964,      -1.71691,   48.3595E-03
C:/temp/dataset/8/1_36.odb,Step-1,Increment      4: Step Time =    1.000,"PART-1-1",           798,       6.92451,       23.6804,            0.,NA,NA,"",       15.3256,      -15.2900,      -1.04376,   42.0916E-03
C:/temp/dataset/8/1_36.odb,Step-1,Increment      4: Step Time =    1.000,"PART-1-1",           799,       5.85780,       24.9146,            0.,NA,NA,"",       15.6069,      -15.5535,      -1.28953,   45.9136E-03
C:/temp/dataset/8/1_36.odb,Step-1,Increment      4: Step Time =    1.000,"PART-1-1",           800,       4.79652,       23.7913,            0.,NA,NA,"",       15.2808,      -15.2064,      -1.50671,   56.7448E-03
C:/temp/dataset/8/1_36.odb,Step-1,Increment      4: Step Time =    1.000,"PART-1-1",           801,       3.65083,       25.0814,            0.,NA,NA,"",       15.5824,      -15.4872,      -1.71986,   56.3815E-03
C:/temp/dataset/8/1_36.odb,Step-1,Increment      4: Step Time =    1.000,"PART-1-1",           802,       4.89856,       26.2814,            0.,NA,NA,"",       15.9195,      -15.8493,      -1.49314,   48.6112E-03
C:/temp/dataset/8/1_36.odb,Step-1,Increment      4: Step Time =    1.000,"PART-1-1",           803,         -8.75,           30.,            0.,NA,NA,"",       16.9660,      -16.4292,      -4.23400,   30.3399E-03
C:/temp/dataset/8/1_36.odb,Step-1,Increment      4: Step Time =    1.000,"PART-1-1",           804,      -8.99895,       28.0861,            0.,NA,NA,"",       16.4919,      -15.9432,      -4.21863,   19.8502E-03
C:/temp/dataset/8/1_36.odb,Step-1,Increment      4: Step Time =    1.000,"PART-1-1",           805,      -11.0560,       7.77083,            0.,NA,NA,"",       9.56305,      -8.93935,      -3.39705,   50.3331E-03
C:/temp/dataset/8/1_36.odb,Step-1,Increment      4: Step Time =    1.000,"PART-1-1",           806,      -9.90307,       2.86734,            0.,NA,NA,"",       7.81902,      -7.38591,      -2.56620,   49.7377E-03
C:/temp/dataset/8/1_36.odb,Step-1,Increment      4: Step Time =    1.000,"PART-1-1",           807,      -11.2313,       2.93204,            0.,NA,NA,"",       7.96279,      -7.38016,      -2.98984,   51.7074E-03
C:/temp/dataset/8/1_36.odb,Step-1,Increment      4: Step Time =    1.000,"PART-1-1",           808,      -9.88044,       1.36056,            0.,NA,NA,"",       7.41153,      -6.99596,      -2.44689,   50.0498E-03
C:/temp/dataset/8/1_36.odb,Step-1,Increment      4: Step Time =    1.000,"PART-1-1",           809,           -5.,          6.25,            0.,NA,NA,"",       8.70326,      -8.60658,      -1.29363,   109.978E-03
C:/temp/dataset/8/1_36.odb,Step-1,Increment      4: Step Time =    1.000,"PART-1-1",           810,      -5.99693,       4.86688,            0.,NA,NA,"",       8.11626,      -7.96842,      -1.54208,   99.6252E-03
C:/temp/dataset/8/1_36.odb,Step-1,Increment      4: Step Time =    1.000,"PART-1-1",           811,           -5.,         -6.25,            0.,NA,NA,"",       5.17474,      -5.15014,  -504.040E-03,   134.392E-03
C:/temp/dataset/8/1_36.odb,Step-1,Increment      4: Step Time =    1.000,"PART-1-1",           812,      -7.47931,      -6.74416,            0.,NA,NA,"",       5.04574,      -4.89273,      -1.23317,   79.7281E-03
C:/temp/dataset/8/1_36.odb,Step-1,Increment      4: Step Time =    1.000,"PART-1-1",           813,      -11.2714,      -15.1219,            0.,NA,NA,"",       2.39130,      -1.98698,      -1.33050,   89.8415E-03
C:/temp/dataset/8/1_36.odb,Step-1,Increment      4: Step Time =    1.000,"PART-1-1",           814,          -15.,        -18.75,            0.,NA,NA,"",       2.11753,      -1.19366,      -1.74903,   167.175E-03
C:/temp/dataset/8/1_36.odb,Step-1,Increment      4: Step Time =    1.000,"PART-1-1",           815,           -5.,        -18.75,            0.,NA,NA,"",       1.07881,      -1.05430,   228.641E-03,   110.553E-03
C:/temp/dataset/8/1_36.odb,Step-1,Increment      4: Step Time =    1.000,"PART-1-1",           816,          -15.,        -23.75,            0.,NA,NA,"",       1.04793,  -503.235E-03,  -919.188E-03,   166.555E-03
C:/temp/dataset/8/1_36.odb,Step-1,Increment      4: Step Time =    1.000,"PART-1-1",           817,      -10.9002,      -24.6942,            0.,NA,NA,"",   416.392E-03,  -213.422E-03,  -357.538E-03,   80.7025E-03
C:/temp/dataset/8/1_36.odb,Step-1,Increment      4: Step Time =    1.000,"PART-1-1",           818,      -9.92286,      -25.5060,            0.,NA,NA,"",   260.854E-03,  -135.871E-03,  -222.674E-03,   61.7092E-03
C:/temp/dataset/8/1_36.odb,Step-1,Increment      4: Step Time =    1.000,"PART-1-1",           819,      -9.17441,      -24.3962,            0.,NA,NA,"",   301.964E-03,  -209.621E-03,  -217.351E-03,   45.8340E-03
C:/temp/dataset/8/1_36.odb,Step-1,Increment      4: Step Time =    1.000,"PART-1-1",           820,      -10.1518,      -23.5844,            0.,NA,NA,"",   463.585E-03,  -294.724E-03,  -357.839E-03,   66.1843E-03
C:/temp/dataset/8/1_36.odb,Step-1,Increment      4: Step Time =    1.000,"PART-1-1",           821,      -4.84440,      -26.4970,            0.,NA,NA,"",   120.894E-03,  -120.712E-03,   6.62323E-03,   33.7404E-03
C:/temp/dataset/8/1_36.odb,Step-1,Increment      4: Step Time =    1.000,"PART-1-1",           822,      -2.50369,      -26.4071,            0.,NA,NA,"",   167.771E-03,  -167.007E-03,   15.9941E-03,   44.4797E-03
C:/temp/dataset/8/1_36.odb,Step-1,Increment      4: Step Time =    1.000,"PART-1-1",           823,      -1.38955,      -25.1134,            0.,NA,NA,"",   263.055E-03,  -262.502E-03,   17.0564E-03,   54.4117E-03
C:/temp/dataset/8/1_36.odb,Step-1,Increment      4: Step Time =    1.000,"PART-1-1",           824,  -139.682E-03,      -26.2756,            0.,NA,NA,"",   196.824E-03,  -196.799E-03,  -3.13877E-03,   47.2239E-03
C:/temp/dataset/8/1_36.odb,Step-1,Increment      4: Step Time =    1.000,"PART-1-1",           825,          3.75,          -30.,            0.,NA,NA,"",            0.,  -70.1140E-42,  -557.714E-42,   20.0386E-03
C:/temp/dataset/8/1_36.odb,Step-1,Increment      4: Step Time =    1.000,"PART-1-1",           826,       4.16188,      -27.2827,            0.,NA,NA,"",   116.303E-03,  -116.093E-03,  -6.99393E-03,   32.8033E-03
C:/temp/dataset/8/1_36.odb,Step-1,Increment      4: Step Time =    1.000,"PART-1-1",           827,       5.43104,      -24.9919,            0.,NA,NA,"",   261.429E-03,  -261.382E-03,   4.98203E-03,   28.1501E-03
C:/temp/dataset/8/1_36.odb,Step-1,Increment      4: Step Time =    1.000,"PART-1-1",           828,          3.75,          -20.,            0.,NA,NA,"",   637.595E-03,  -635.454E-03,  -52.2119E-03,   104.503E-03
C:/temp/dataset/8/1_36.odb,Step-1,Increment      4: Step Time =    1.000,"PART-1-1",           829,       3.87291,      -22.3056,            0.,NA,NA,"",   503.978E-03,  -498.131E-03,  -76.5416E-03,   57.2214E-03
C:/temp/dataset/8/1_36.odb,Step-1,Increment      4: Step Time =    1.000,"PART-1-1",           830,       4.97088,      -23.9263,            0.,NA,NA,"",   349.463E-03,  -348.881E-03,  -20.1670E-03,   32.8203E-03
C:/temp/dataset/8/1_36.odb,Step-1,Increment      4: Step Time =    1.000,"PART-1-1",           831,       6.87342,      -24.4091,            0.,NA,NA,"",   326.115E-03,  -315.752E-03,   81.5558E-03,   21.5458E-03
C:/temp/dataset/8/1_36.odb,Step-1,Increment      4: Step Time =    1.000,"PART-1-1",           832,       6.41326,      -23.3435,            0.,NA,NA,"",   418.058E-03,  -414.246E-03,   56.3290E-03,   18.6165E-03
C:/temp/dataset/8/1_36.odb,Step-1,Increment      4: Step Time =    1.000,"PART-1-1",           833,       9.46100,      -26.0738,            0.,NA,NA,"",   291.081E-03,  -215.407E-03,   195.775E-03,   67.1758E-03
C:/temp/dataset/8/1_36.odb,Step-1,Increment      4: Step Time =    1.000,"PART-1-1",           834,       10.2673,      -27.1968,            0.,NA,NA,"",   222.800E-03,  -144.513E-03,   169.575E-03,   80.6576E-03
C:/temp/dataset/8/1_36.odb,Step-1,Increment      4: Step Time =    1.000,"PART-1-1",           835,       7.41841,      -16.0775,            0.,NA,NA,"",       2.03773,      -2.02684,   210.366E-03,   50.8108E-03
C:/temp/dataset/8/1_36.odb,Step-1,Increment      4: Step Time =    1.000,"PART-1-1",           836,            5.,        -16.25,            0.,NA,NA,"",       1.92255,      -1.87991,  -402.636E-03,   4.92991E-03
C:/temp/dataset/8/1_36.odb,Step-1,Increment      4: Step Time =    1.000,"PART-1-1",           837,            5.,         -6.25,            0.,NA,NA,"",       5.07300,      -5.05587,  -416.614E-03,   145.406E-03
C:/temp/dataset/8/1_36.odb,Step-1,Increment      4: Step Time =    1.000,"PART-1-1",           838,       7.32831,      -6.19648,            0.,NA,NA,"",       5.20673,      -5.20418,   163.070E-03,   67.8415E-03
C:/temp/dataset/8/1_36.odb,Step-1,Increment      4: Step Time =    1.000,"PART-1-1",           839,       6.34990,      -4.95679,            0.,NA,NA,"",       5.58979,      -5.58934,  -71.1821E-03,   106.265E-03
C:/temp/dataset/8/1_36.odb,Step-1,Increment      4: Step Time =    1.000,"PART-1-1",           840,            5.,         13.75,            0.,NA,NA,"",       11.5547,      -11.4629,      -1.45393,   34.9954E-03
C:/temp/dataset/8/1_36.odb,Step-1,Increment      4: Step Time =    1.000,"PART-1-1",           841,       7.57148,       13.5676,            0.,NA,NA,"",       11.6195,      -11.6096,  -479.291E-03,   45.7768E-03
C:/temp/dataset/8/1_36.odb,Step-1,Increment      4: Step Time =    1.000,"PART-1-1",           842,           15.,       23.7188,            0.,NA,NA,"",       15.9018,      -15.8486,       1.29947,   35.9262E-03
C:/temp/dataset/8/1_36.odb,Step-1,Increment      4: Step Time =    1.000,"PART-1-1",           843,       12.7096,       24.0554,            0.,NA,NA,"",       15.8046,      -15.7932,   598.852E-03,   34.2299E-03
C:/temp/dataset/8/1_36.odb,Step-1,Increment      4: Step Time =    1.000,"PART-1-1",           844,           15.,      -11.3062,            0.,NA,NA,"",       4.49362,      -3.97333,       2.09888,   80.7724E-03
C:/temp/dataset/8/1_36.odb,Step-1,Increment      4: Step Time =    1.000,"PART-1-1",           845,           15.,      -3.76875,            0.,NA,NA,"",       6.57228,      -6.21919,       2.12523,   44.7656E-03
C:/temp/dataset/8/1_36.odb,Step-1,Increment      4: Step Time =    1.000,"PART-1-1",           846,       9.87633,      -16.1616,            0.,NA,NA,"",       2.24663,      -2.12175,   738.613E-03,   81.9252E-03
C:/temp/dataset/8/1_36.odb,Step-1,Increment      4: Step Time =    1.000,"PART-1-1",           847,       8.51452,      -17.2877,            0.,NA,NA,"",       1.78269,      -1.72456,   451.526E-03,   68.0757E-03
C:/temp/dataset/8/1_36.odb,Step-1,Increment      4: Step Time =    1.000,"PART-1-1",           848,       8.29059,      -19.4066,            0.,NA,NA,"",       1.20780,      -1.14702,   378.315E-03,   82.7331E-03
C:/temp/dataset/8/1_36.odb,Step-1,Increment      4: Step Time =    1.000,"PART-1-1",           849,       8.55616,      -8.48630,            0.,NA,NA,"",       4.52025,      -4.49612,   466.422E-03,   73.9175E-03
C:/temp/dataset/8/1_36.odb,Step-1,Increment      4: Step Time =    1.000,"PART-1-1",           850,       9.61754,      -8.87754,            0.,NA,NA,"",       4.48259,      -4.42260,   730.907E-03,   69.6024E-03
C:/temp/dataset/8/1_36.odb,Step-1,Increment      4: Step Time =    1.000,"PART-1-1",           851,       9.02908,      -7.15658,            0.,NA,NA,"",       4.98463,      -4.95054,   581.975E-03,   66.5133E-03
C:/temp/dataset/8/1_36.odb,Step-1,Increment      4: Step Time =    1.000,"PART-1-1",           852,           15.,       16.1812,            0.,NA,NA,"",       13.3448,      -13.1985,       1.97082,   6.51137E-03
C:/temp/dataset/8/1_36.odb,Step-1,Increment      4: Step Time =    1.000,"PART-1-1",           853,       9.89201,       25.6129,            0.,NA,NA,"",       16.0174,      -16.0152,  -268.986E-03,   42.0156E-03
C:/temp/dataset/8/1_36.odb,Step-1,Increment      4: Step Time =    1.000,"PART-1-1",           854,       8.89238,       24.9206,            0.,NA,NA,"",       15.7652,      -15.7560,  -537.934E-03,   39.6496E-03
C:/temp/dataset/8/1_36.odb,Step-1,Increment      4: Step Time =    1.000,"PART-1-1",           855,       9.60238,       23.8702,            0.,NA,NA,"",       15.5206,      -15.5172,  -322.410E-03,   33.3992E-03
C:/temp/dataset/8/1_36.odb,Step-1,Increment      4: Step Time =    1.000,"PART-1-1",           856,       10.6020,       24.5625,            0.,NA,NA,"",       15.7818,      -15.7817,  -45.8215E-03,   36.5378E-03
C:/temp/dataset/8/1_36.odb,Step-1,Increment      4: Step Time =    1.000,"PART-1-1",           857,       10.8145,      -1.23275,            0.,NA,NA,"",       6.73272,      -6.65289,       1.03375,   48.7934E-03
C:/temp/dataset/8/1_36.odb,Step-1,Increment      4: Step Time =    1.000,"PART-1-1",           858,       11.5759,  -144.200E-03,            0.,NA,NA,"",       7.08400,      -6.97217,       1.25377,   56.1851E-03
C:/temp/dataset/8/1_36.odb,Step-1,Increment      4: Step Time =    1.000,"PART-1-1",           859,       8.92207,      -9.93164,            0.,NA,NA,"",       4.07812,      -4.04013,   555.354E-03,   72.1009E-03
C:/temp/dataset/8/1_36.odb,Step-1,Increment      4: Step Time =    1.000,"PART-1-1",           860,       9.92328,      -10.6623,            0.,NA,NA,"",       3.93866,      -3.85634,   801.056E-03,   73.4507E-03
C:/temp/dataset/8/1_36.odb,Step-1,Increment      4: Step Time =    1.000,"PART-1-1",           861,       10.2741,      -21.0971,            0.,NA,NA,"",       1.08570,  -908.185E-03,   594.931E-03,   95.9310E-03
C:/temp/dataset/8/1_36.odb,Step-1,Increment      4: Step Time =    1.000,"PART-1-1",           862,       9.54695,      -22.4905,            0.,NA,NA,"",   751.137E-03,  -629.395E-03,   409.962E-03,   80.3333E-03
C:/temp/dataset/8/1_36.odb,Step-1,Increment      4: Step Time =    1.000,"PART-1-1",           863,       10.5655,      -23.0186,            0.,NA,NA,"",   783.458E-03,  -607.077E-03,   495.241E-03,   94.4376E-03
C:/temp/dataset/8/1_36.odb,Step-1,Increment      4: Step Time =    1.000,"PART-1-1",           864,       9.19444,      -24.7163,            0.,NA,NA,"",   418.950E-03,  -336.849E-03,   249.101E-03,   63.7763E-03
C:/temp/dataset/8/1_36.odb,Step-1,Increment      4: Step Time =    1.000,"PART-1-1",           865,       11.2358,      -25.7476,            0.,NA,NA,"",   460.614E-03,  -310.566E-03,   340.167E-03,   102.259E-03
C:/temp/dataset/8/1_36.odb,Step-1,Increment      4: Step Time =    1.000,"PART-1-1",           866,       10.9693,      -24.3901,            0.,NA,NA,"",   621.619E-03,  -447.609E-03,   431.342E-03,   99.8038E-03
C:/temp/dataset/8/1_36.odb,Step-1,Increment      4: Step Time =    1.000,"PART-1-1",           867,       12.4335,       10.1140,            0.,NA,NA,"",       10.6102,      -10.5135,       1.42939,   51.7560E-03
C:/temp/dataset/8/1_36.odb,Step-1,Increment      4: Step Time =    1.000,"PART-1-1",           868,       7.92075,       5.64444,            0.,NA,NA,"",       8.40015,      -8.39747,   212.487E-03,   66.3996E-03
C:/temp/dataset/8/1_36.odb,Step-1,Increment      4: Step Time =    1.000,"PART-1-1",           869,       7.98957,       7.45442,            0.,NA,NA,"",       9.10930,      -9.10835,   131.749E-03,   56.3164E-03
C:/temp/dataset/8/1_36.odb,Step-1,Increment      4: Step Time =    1.000,"PART-1-1",           870,       8.32878,      -21.4218,            0.,NA,NA,"",   794.240E-03,  -731.623E-03,   309.103E-03,   69.7402E-03
C:/temp/dataset/8/1_36.odb,Step-1,Increment      4: Step Time =    1.000,"PART-1-1",           871,       7.29628,      -22.4795,            0.,NA,NA,"",   548.956E-03,  -528.394E-03,   148.836E-03,   40.8488E-03
C:/temp/dataset/8/1_36.odb,Step-1,Increment      4: Step Time =    1.000,"PART-1-1",           872,       8.51445,      -23.5482,            0.,NA,NA,"",   504.023E-03,  -442.311E-03,   241.662E-03,   53.1776E-03
C:/temp/dataset/8/1_36.odb,Step-1,Increment      4: Step Time =    1.000,"PART-1-1",           873,       8.18845,  -488.883E-03,            0.,NA,NA,"",       6.71533,      -6.70636,   346.960E-03,   32.8989E-03
C:/temp/dataset/8/1_36.odb,Step-1,Increment      4: Step Time =    1.000,"PART-1-1",           874,       7.03757,  -99.4150E-03,            0.,NA,NA,"",       6.75285,      -6.75243,   75.3239E-03,   22.8145E-03
C:/temp/dataset/8/1_36.odb,Step-1,Increment      4: Step Time =    1.000,"PART-1-1",           875,       6.67521,      -1.55702,            0.,NA,NA,"",       6.41341,      -6.41341,   4.30270E-03,   32.3331E-03
C:/temp/dataset/8/1_36.odb,Step-1,Increment      4: Step Time =    1.000,"PART-1-1",           876,       7.82608,      -1.94649,            0.,NA,NA,"",       6.35994,      -6.35466,   259.178E-03,   36.9625E-03
C:/temp/dataset/8/1_36.odb,Step-1,Increment      4: Step Time =    1.000,"PART-1-1",           877,       10.0503,   625.537E-03,            0.,NA,NA,"",       7.12343,      -7.07385,   838.970E-03,   49.9015E-03
C:/temp/dataset/8/1_36.odb,Step-1,Increment      4: Step Time =    1.000,"PART-1-1",           878,       11.6011,       12.1291,            0.,NA,NA,"",       11.3356,      -11.2895,       1.02129,   47.2458E-03
C:/temp/dataset/8/1_36.odb,Step-1,Increment      4: Step Time =    1.000,"PART-1-1",           879,       9.33028,      -20.3144,            0.,NA,NA,"",       1.12467,      -1.00539,   504.060E-03,   86.7329E-03
C:/temp/dataset/8/1_36.odb,Step-1,Increment      4: Step Time =    1.000,"PART-1-1",           880,       7.30556,      -3.67465,            0.,NA,NA,"",       5.92979,      -5.92817,   138.549E-03,   46.3453E-03
C:/temp/dataset/8/1_36.odb,Step-1,Increment      4: Step Time =    1.000,"PART-1-1",           881,       5.85057,      -2.53190,            0.,NA,NA,"",       6.18048,      -6.17845,  -158.302E-03,   51.2066E-03
C:/temp/dataset/8/1_36.odb,Step-1,Increment      4: Step Time =    1.000,"PART-1-1",           882,       5.20819,       1.03681,            0.,NA,NA,"",       6.96441,      -6.95813,  -295.569E-03,   36.8472E-03
C:/temp/dataset/8/1_36.odb,Step-1,Increment      4: Step Time =    1.000,"PART-1-1",           883,      -5.71863,       2.55200,            0.,NA,NA,"",       7.46269,      -7.33414,      -1.37919,   34.4972E-03
C:/temp/dataset/8/1_36.odb,Step-1,Increment      4: Step Time =    1.000,"PART-1-1",           884,      -6.86716,       3.62545,            0.,NA,NA,"",       7.80275,      -7.61217,      -1.71402,   51.6195E-03
C:/temp/dataset/8/1_36.odb,Step-1,Increment      4: Step Time =    1.000,"PART-1-1",           885,      -8.17623,      -23.0651,            0.,NA,NA,"",   367.491E-03,  -325.381E-03,  -170.814E-03,   25.7194E-03
C:/temp/dataset/8/1_36.odb,Step-1,Increment      4: Step Time =    1.000,"PART-1-1",           886,      -9.67300,      -21.9623,            0.,NA,NA,"",   616.606E-03,  -468.078E-03,  -401.379E-03,   59.1218E-03
C:/temp/dataset/8/1_36.odb,Step-1,Increment      4: Step Time =    1.000,"PART-1-1",           887,       7.67333,      -7.62111,            0.,NA,NA,"",       4.74042,      -4.73406,   245.575E-03,   79.9159E-03
C:/temp/dataset/8/1_36.odb,Step-1,Increment      4: Step Time =    1.000,"PART-1-1",           888,       5.33284,      -22.5365,            0.,NA,NA,"",   481.889E-03,  -481.429E-03,  -21.0462E-03,   30.4321E-03
C:/temp/dataset/8/1_36.odb,Step-1,Increment      4: Step Time =    1.000,"PART-1-1",           889,       8.54152,       23.5352,            0.,NA,NA,"",       15.3647,      -15.3522,  -618.065E-03,   33.2317E-03
C:/temp/dataset/8/1_36.odb,Step-1,Increment      4: Step Time =    1.000,"PART-1-1",           890,       10.1087,       22.6080,            0.,NA,NA,"",       15.1860,      -15.1853,  -142.303E-03,   22.5130E-03
C:/temp/dataset/8/1_36.odb,Step-1,Increment      4: Step Time =    1.000,"PART-1-1",           891,      -9.54555,       23.1667,            0.,NA,NA,"",       15.2699,      -14.6864,      -4.18078,   20.3296E-03
C:/temp/dataset/8/1_36.odb,Step-1,Increment      4: Step Time =    1.000,"PART-1-1",           892,      -7.32935,       22.8876,            0.,NA,NA,"",       15.1351,      -14.7154,      -3.53961,   30.6900E-03
C:/temp/dataset/8/1_36.odb,Step-1,Increment      4: Step Time =    1.000,"PART-1-1",           893,      -10.1333,       27.3168,            0.,NA,NA,"",       16.3526,      -15.7202,      -4.50353,   21.4716E-03
C:/temp/dataset/8/1_36.odb,Step-1,Increment      4: Step Time =    1.000,"PART-1-1",           894,      -10.9914,       25.8301,            0.,NA,NA,"",       16.0175,      -15.3135,      -4.69622,   22.5057E-03
C:/temp/dataset/8/1_36.odb,Step-1,Increment      4: Step Time =    1.000,"PART-1-1",           895,      -11.4574,      -26.3004,            0.,NA,NA,"",   302.521E-03,  -120.897E-03,  -277.314E-03,   90.8625E-03
C:/temp/dataset/8/1_36.odb,Step-1,Increment      4: Step Time =    1.000,"PART-1-1",           896,       7.85383,      -9.49123,            0.,NA,NA,"",       4.13508,      -4.12521,   285.510E-03,   71.1840E-03
C:/temp/dataset/8/1_36.odb,Step-1,Increment      4: Step Time =    1.000,"PART-1-1",           897,       8.45015,      -11.4354,            0.,NA,NA,"",       3.54903,      -3.52246,   433.467E-03,   66.8359E-03
C:/temp/dataset/8/1_36.odb,Step-1,Increment      4: Step Time =    1.000,"PART-1-1",           898,       10.2448,       13.2708,            0.,NA,NA,"",       11.6835,      -11.6739,   472.683E-03,   51.9246E-03
C:/temp/dataset/8/1_36.odb,Step-1,Increment      4: Step Time =    1.000,"PART-1-1",           899,       8.92711,       12.0857,            0.,NA,NA,"",       11.0849,      -11.0844,   102.685E-03,   46.9152E-03
C:/temp/dataset/8/1_36.odb,Step-1,Increment      4: Step Time =    1.000,"PART-1-1",           900,       8.28681,       9.62105,            0.,NA,NA,"",       10.0130,      -10.0128,   63.9473E-03,   44.7581E-03
C:/temp/dataset/8/1_36.odb,Step-1,Increment      4: Step Time =    1.000,"PART-1-1",           901,      -9.35950,      -26.6124,            0.,NA,NA,"",   150.128E-03,  -65.3568E-03,  -135.155E-03,   50.3902E-03
C:/temp/dataset/8/1_36.odb,Step-1,Increment      4: Step Time =    1.000,"PART-1-1",           902,      -7.15180,      -26.5840,            0.,NA,NA,"",   89.9975E-03,  -76.8801E-03,  -46.7868E-03,   25.1455E-03
C:/temp/dataset/8/1_36.odb,Step-1,Increment      4: Step Time =    1.000,"PART-1-1",           903,      -8.09105,      -25.4802,            0.,NA,NA,"",   167.468E-03,  -130.402E-03,  -105.075E-03,   30.4231E-03
C:/temp/dataset/8/1_36.odb,Step-1,Increment      4: Step Time =    1.000,"PART-1-1",           904,      -8.48034,      -5.93831,            0.,NA,NA,"",       5.35596,      -5.12002,      -1.57219,   63.2248E-03
C:/temp/dataset/8/1_36.odb,Step-1,Increment      4: Step Time =    1.000,"PART-1-1",           905,      -8.12524,       27.0841,            0.,NA,NA,"",       16.2062,      -15.7189,      -3.94462,   18.8721E-03
C:/temp/dataset/8/1_36.odb,Step-1,Increment      4: Step Time =    1.000,"PART-1-1",           906,      -9.25957,       26.3148,            0.,NA,NA,"",       16.0642,      -15.4996,      -4.22123,   20.6020E-03
C:/temp/dataset/8/1_36.odb,Step-1,Increment      4: Step Time =    1.000,"PART-1-1",           907,      -11.3398,       15.0079,            0.,NA,NA,"",       12.5063,      -11.7683,      -4.23252,   43.4528E-03
C:/temp/dataset/8/1_36.odb,Step-1,Increment      4: Step Time =    1.000,"PART-1-1",           908,      -8.76249,       3.14397,            0.,NA,NA,"",       7.80221,      -7.47436,      -2.23794,   48.0924E-03
C:/temp/dataset/8/1_36.odb,Step-1,Increment      4: Step Time =    1.000,"PART-1-1",           909,      -10.2702,  -493.365E-03,            0.,NA,NA,"",       6.97381,      -6.53338,      -2.43905,   49.6463E-03
C:/temp/dataset/8/1_36.odb,Step-1,Increment      4: Step Time =    1.000,"PART-1-1",           910,      -8.74014,  -974.485E-03,            0.,NA,NA,"",       6.75488,      -6.46329,      -1.96324,   43.5068E-03
C:/temp/dataset/8/1_36.odb,Step-1,Increment      4: Step Time =    1.000,"PART-1-1",           911,      -10.8036,      -21.5085,            0.,NA,NA,"",   815.483E-03,  -555.543E-03,  -596.979E-03,   81.9187E-03
C:/temp/dataset/8/1_36.odb,Step-1,Increment      4: Step Time =    1.000,"PART-1-1",           912,       8.88912,       14.7527,            0.,NA,NA,"",       12.2041,      -12.2037,  -98.6802E-03,   51.5789E-03
C:/temp/dataset/8/1_36.odb,Step-1,Increment      4: Step Time =    1.000,"PART-1-1",           913,       8.78021,      -14.9514,            0.,NA,NA,"",       2.48285,      -2.42932,   512.748E-03,   65.1524E-03
C:/temp/dataset/8/1_36.odb,Step-1,Increment      4: Step Time =    1.000,"PART-1-1",           914,       9.08736,      -12.4831,            0.,NA,NA,"",       3.27301,      -3.21942,   589.830E-03,   69.7675E-03
C:/temp/dataset/8/1_36.odb,Step-1,Increment      4: Step Time =    1.000,"PART-1-1",           915,      -6.58441,       1.63370,            0.,NA,NA,"",       7.27298,      -7.10778,      -1.54137,   24.3063E-03
C:/temp/dataset/8/1_36.odb,Step-1,Increment      4: Step Time =    1.000,"PART-1-1",           916,      -11.0528,       22.2884,            0.,NA,NA,"",       15.0754,      -14.3574,      -4.59708,   18.1590E-03
C:/temp/dataset/8/1_36.odb,Step-1,Increment      4: Step Time =    1.000,"PART-1-1",           917,      -10.5845,       24.6750,            0.,NA,NA,"",       15.7050,      -15.0345,      -4.53977,   22.3565E-03
C:/temp/dataset/8/1_36.odb,Step-1,Increment      4: Step Time =    1.000,"PART-1-1",           918,       7.32741,       26.0095,            0.,NA,NA,"",       15.9616,      -15.9331,  -953.089E-03,   44.3546E-03
C:/temp/dataset/8/1_36.odb,Step-1,Increment      4: Step Time =    1.000,"PART-1-1",           919,       11.0547,      -20.1270,            0.,NA,NA,"",       1.39365,      -1.15703,   776.875E-03,   104.477E-03
C:/temp/dataset/8/1_36.odb,Step-1,Increment      4: Step Time =    1.000,"PART-1-1",           920,       11.5724,       23.1751,            0.,NA,NA,"",       15.4578,      -15.4552,   283.229E-03,   29.2054E-03
C:/temp/dataset/8/1_36.odb,Step-1,Increment      4: Step Time =    1.000,"PART-1-1",           921,       11.7392,       25.4428,            0.,NA,NA,"",       16.1105,      -16.1083,   268.155E-03,   40.0340E-03
C:/temp/dataset/8/1_36.odb,Step-1,Increment      4: Step Time =    1.000,"PART-1-1",           922,       10.5115,       26.6462,            0.,NA,NA,"",       16.3390,      -16.3387,  -110.018E-03,   45.5859E-03
C:/temp/dataset/8/1_36.odb,Step-1,Increment      4: Step Time =    1.000,"PART-1-1",           923,       8.41385,       26.4284,            0.,NA,NA,"",       16.1349,      -16.1206,  -680.561E-03,   44.5705E-03
C:/temp/dataset/8/1_36.odb,Step-1,Increment      4: Step Time =    1.000,"PART-1-1",           924,       9.30707,      -2.42527,            0.,NA,NA,"",       6.32017,      -6.28876,   629.319E-03,   38.1049E-03
C:/temp/dataset/8/1_36.odb,Step-1,Increment      4: Step Time =    1.000,"PART-1-1",           925,       9.63410,  -928.992E-03,            0.,NA,NA,"",       6.70632,      -6.66778,   717.966E-03,   43.8759E-03
C:/temp/dataset/8/1_36.odb,Step-1,Increment      4: Step Time =    1.000,"PART-1-1",           926,       5.61561,  -459.456E-03,            0.,NA,NA,"",       6.63769,      -6.63464,  -201.300E-03,   32.7382E-03
C:/temp/dataset/8/1_36.odb,Step-1,Increment      4: Step Time =    1.000,"PART-1-1",           927,      -8.35034,   879.442E-03,            0.,NA,NA,"",       7.18187,      -6.90821,      -1.96363,   42.2667E-03
C:/temp/dataset/8/1_36.odb,Step-1,Increment      4: Step Time =    1.000,"PART-1-1",           928,      -7.85399,       2.30522,            0.,NA,NA,"",       7.50801,      -7.26063,      -1.91140,   39.3611E-03
C:/temp/dataset/8/1_36.odb,Step-1,Increment      4: Step Time =    1.000,"PART-1-1",           929,      -6.36888,       23.7008,            0.,NA,NA,"",       15.3096,      -14.9409,      -3.33940,   32.7166E-03
C:/temp/dataset/8/1_36.odb,Step-1,Increment      4: Step Time =    1.000,"PART-1-1",           930,       7.80593,       24.5017,            0.,NA,NA,"",       15.5901,      -15.5683,  -824.547E-03,   39.2582E-03
