ODB Name,Step,Frame,Part Instance Name,    êﬂì_ÉâÉxÉã,X,Y,Z,Section Name,Material Name,Section Point,   U-Magnitude,          U-U1,          U-U2,       S-Mises
C:/temp/dataset/8/2_24.odb,Step-1,Increment      1: Step Time =    1.000,"PART-1-1",             1,            5.,           -5.,            0.,NA,NA,"",       3.25199,      -3.24619,  -194.093E-03,   115.434E-03
C:/temp/dataset/8/2_24.odb,Step-1,Increment      1: Step Time =    1.000,"PART-1-1",             2,            0.,           -5.,            0.,NA,NA,"",       3.48801,      -3.47484,  -302.840E-03,   9.91584E-03
C:/temp/dataset/8/2_24.odb,Step-1,Increment      1: Step Time =    1.000,"PART-1-1",             3,            5.,         -12.5,            0.,NA,NA,"",       1.75456,      -1.72312,  -330.666E-03,   12.0807E-03
C:/temp/dataset/8/2_24.odb,Step-1,Increment      1: Step Time =    1.000,"PART-1-1",             4,            5.,          -20.,            0.,NA,NA,"",   449.186E-03,  -435.865E-03,  -108.578E-03,   91.0805E-03
C:/temp/dataset/8/2_24.odb,Step-1,Increment      1: Step Time =    1.000,"PART-1-1",             5,            0.,          -20.,            0.,NA,NA,"",   297.206E-03,  -297.188E-03,   3.29250E-03,   3.50408E-03
C:/temp/dataset/8/2_24.odb,Step-1,Increment      1: Step Time =    1.000,"PART-1-1",             6,           -5.,          -20.,            0.,NA,NA,"",   459.064E-03,  -447.021E-03,   104.458E-03,   93.3381E-03
C:/temp/dataset/8/2_24.odb,Step-1,Increment      1: Step Time =    1.000,"PART-1-1",             7,           -5.,           -5.,            0.,NA,NA,"",       3.35285,      -3.34026,  -290.305E-03,   124.125E-03
C:/temp/dataset/8/2_24.odb,Step-1,Increment      1: Step Time =    1.000,"PART-1-1",             8,            5.,           20.,            0.,NA,NA,"",       7.42137,      -7.42058,  -108.757E-03,   47.8781E-03
C:/temp/dataset/8/2_24.odb,Step-1,Increment      1: Step Time =    1.000,"PART-1-1",             9,            0.,           20.,            0.,NA,NA,"",       7.36976,      -7.35865,  -404.566E-03,   19.9033E-03
C:/temp/dataset/8/2_24.odb,Step-1,Increment      1: Step Time =    1.000,"PART-1-1",            10,            5.,          12.5,            0.,NA,NA,"",       6.25598,      -6.24363,  -392.888E-03,   40.3910E-03
C:/temp/dataset/8/2_24.odb,Step-1,Increment      1: Step Time =    1.000,"PART-1-1",            11,            5.,            5.,            0.,NA,NA,"",       4.50845,      -4.50324,  -216.828E-03,   115.508E-03
C:/temp/dataset/8/2_24.odb,Step-1,Increment      1: Step Time =    1.000,"PART-1-1",            12,            0.,            5.,            0.,NA,NA,"",       4.26799,      -4.25626,  -316.297E-03,   8.88082E-03
C:/temp/dataset/8/2_24.odb,Step-1,Increment      1: Step Time =    1.000,"PART-1-1",            13,           -5.,            5.,            0.,NA,NA,"",       4.44007,      -4.41527,  -468.652E-03,   80.9268E-03
C:/temp/dataset/8/2_24.odb,Step-1,Increment      1: Step Time =    1.000,"PART-1-1",            14,           -5.,           20.,            0.,NA,NA,"",       7.23117,      -7.19277,  -744.245E-03,   65.7760E-03
C:/temp/dataset/8/2_24.odb,Step-1,Increment      1: Step Time =    1.000,"PART-1-1",            15,           15.,           30.,            0.,NA,NA,"",       8.44250,      -8.39584,   886.416E-03,   392.617E-06
C:/temp/dataset/8/2_24.odb,Step-1,Increment      1: Step Time =    1.000,"PART-1-1",            16,            0.,           30.,            0.,NA,NA,"",       8.29842,      -8.28760,  -423.636E-03,   7.64511E-03
C:/temp/dataset/8/2_24.odb,Step-1,Increment      1: Step Time =    1.000,"PART-1-1",            17,          -15.,           30.,            0.,NA,NA,"",       8.61958,      -8.33806,      -2.18493,   589.368E-06
C:/temp/dataset/8/2_24.odb,Step-1,Increment      1: Step Time =    1.000,"PART-1-1",            18,          -15.,          -30.,            0.,NA,NA,"",            0.,  -33.8147E-39,  -61.4128E-39,   121.716E-03
C:/temp/dataset/8/2_24.odb,Step-1,Increment      1: Step Time =    1.000,"PART-1-1",            19,           15.,          -30.,            0.,NA,NA,"",            0.,  -40.8400E-39,   69.0072E-39,   131.034E-03
C:/temp/dataset/8/2_24.odb,Step-1,Increment      1: Step Time =    1.000,"PART-1-1",            20,           15.,      -20.1000,            0.,NA,NA,"",       1.10566,  -764.901E-03,   798.374E-03,   89.7297E-03
C:/temp/dataset/8/2_24.odb,Step-1,Increment      1: Step Time =    1.000,"PART-1-1",            21,           15.,      -10.0500,            0.,NA,NA,"",       2.71863,      -2.41884,       1.24104,   31.6041E-03
C:/temp/dataset/8/2_24.odb,Step-1,Increment      1: Step Time =    1.000,"PART-1-1",            22,           15.,            0.,            0.,NA,NA,"",       4.25377,      -4.05868,       1.27343,   28.2820E-03
C:/temp/dataset/8/2_24.odb,Step-1,Increment      1: Step Time =    1.000,"PART-1-1",            23,           15.,       9.90000,            0.,NA,NA,"",       6.11034,      -5.95579,       1.36556,   12.8526E-03
C:/temp/dataset/8/2_24.odb,Step-1,Increment      1: Step Time =    1.000,"PART-1-1",            24,           15.,       19.9500,            0.,NA,NA,"",       7.60464,      -7.54002,   989.307E-03,   29.0522E-03
C:/temp/dataset/8/2_24.odb,Step-1,Increment      1: Step Time =    1.000,"PART-1-1",            25,           2.5,           -5.,            0.,NA,NA,"",       3.43808,      -3.42966,  -240.546E-03,   46.7627E-03
C:/temp/dataset/8/2_24.odb,Step-1,Increment      1: Step Time =    1.000,"PART-1-1",            26,            5.,          -10.,            0.,NA,NA,"",       2.21098,      -2.18614,  -330.468E-03,   24.4191E-03
C:/temp/dataset/8/2_24.odb,Step-1,Increment      1: Step Time =    1.000,"PART-1-1",            27,            5.,          -7.5,            0.,NA,NA,"",       2.69402,      -2.67624,  -308.925E-03,   52.9166E-03
C:/temp/dataset/8/2_24.odb,Step-1,Increment      1: Step Time =    1.000,"PART-1-1",            28,            5.,         -17.5,            0.,NA,NA,"",   903.342E-03,  -868.085E-03,  -249.910E-03,   28.4619E-03
C:/temp/dataset/8/2_24.odb,Step-1,Increment      1: Step Time =    1.000,"PART-1-1",            29,            5.,          -15.,            0.,NA,NA,"",       1.31916,      -1.28402,  -302.450E-03,   2.71954E-03
C:/temp/dataset/8/2_24.odb,Step-1,Increment      1: Step Time =    1.000,"PART-1-1",            30,           2.5,          -20.,            0.,NA,NA,"",   318.928E-03,  -317.281E-03,  -32.3682E-03,   32.5694E-03
C:/temp/dataset/8/2_24.odb,Step-1,Increment      1: Step Time =    1.000,"PART-1-1",            31,          -2.5,          -20.,            0.,NA,NA,"",   316.131E-03,  -313.823E-03,   38.1318E-03,   30.2353E-03
C:/temp/dataset/8/2_24.odb,Step-1,Increment      1: Step Time =    1.000,"PART-1-1",            32,           -5.,          -7.5,            0.,NA,NA,"",       2.77802,      -2.77789,  -27.5257E-03,   57.3995E-03
C:/temp/dataset/8/2_24.odb,Step-1,Increment      1: Step Time =    1.000,"PART-1-1",            33,           -5.,          -10.,            0.,NA,NA,"",       2.28012,      -2.27813,   95.2709E-03,   24.7415E-03
C:/temp/dataset/8/2_24.odb,Step-1,Increment      1: Step Time =    1.000,"PART-1-1",            34,           -5.,         -12.5,            0.,NA,NA,"",       1.80572,      -1.79659,   181.437E-03,   7.86671E-03
C:/temp/dataset/8/2_24.odb,Step-1,Increment      1: Step Time =    1.000,"PART-1-1",            35,           -5.,          -15.,            0.,NA,NA,"",       1.34991,      -1.33173,   220.757E-03,   10.2943E-03
C:/temp/dataset/8/2_24.odb,Step-1,Increment      1: Step Time =    1.000,"PART-1-1",            36,           -5.,         -17.5,            0.,NA,NA,"",   917.876E-03,  -891.603E-03,   218.036E-03,   40.7917E-03
C:/temp/dataset/8/2_24.odb,Step-1,Increment      1: Step Time =    1.000,"PART-1-1",            37,          -2.5,           -5.,            0.,NA,NA,"",       3.48407,      -3.46766,  -337.741E-03,   42.4767E-03
C:/temp/dataset/8/2_24.odb,Step-1,Increment      1: Step Time =    1.000,"PART-1-1",            38,           2.5,           20.,            0.,NA,NA,"",       7.40806,      -7.40453,  -228.784E-03,   15.1136E-03
C:/temp/dataset/8/2_24.odb,Step-1,Increment      1: Step Time =    1.000,"PART-1-1",            39,            5.,           15.,            0.,NA,NA,"",       6.71241,      -6.70446,  -326.664E-03,   51.1694E-03
C:/temp/dataset/8/2_24.odb,Step-1,Increment      1: Step Time =    1.000,"PART-1-1",            40,            5.,          17.5,            0.,NA,NA,"",       7.10022,      -7.09629,  -236.414E-03,   57.9893E-03
C:/temp/dataset/8/2_24.odb,Step-1,Increment      1: Step Time =    1.000,"PART-1-1",            41,            5.,           7.5,            0.,NA,NA,"",       5.17598,      -5.16163,  -385.147E-03,   24.9035E-03
C:/temp/dataset/8/2_24.odb,Step-1,Increment      1: Step Time =    1.000,"PART-1-1",            42,            5.,           10.,            0.,NA,NA,"",       5.74137,      -5.72644,  -413.743E-03,   24.3725E-03
C:/temp/dataset/8/2_24.odb,Step-1,Increment      1: Step Time =    1.000,"PART-1-1",            43,           2.5,            5.,            0.,NA,NA,"",       4.31738,      -4.30947,  -261.339E-03,   60.2131E-03
C:/temp/dataset/8/2_24.odb,Step-1,Increment      1: Step Time =    1.000,"PART-1-1",            44,          -2.5,            5.,            0.,NA,NA,"",       4.28950,      -4.27244,  -382.156E-03,   31.4248E-03
C:/temp/dataset/8/2_24.odb,Step-1,Increment      1: Step Time =    1.000,"PART-1-1",            45,           -5.,          17.5,            0.,NA,NA,"",       6.74081,      -6.71323,  -609.148E-03,   28.4749E-03
C:/temp/dataset/8/2_24.odb,Step-1,Increment      1: Step Time =    1.000,"PART-1-1",            46,           -5.,           15.,            0.,NA,NA,"",       6.28807,      -6.26523,  -535.493E-03,   10.9525E-03
C:/temp/dataset/8/2_24.odb,Step-1,Increment      1: Step Time =    1.000,"PART-1-1",            47,           -5.,          12.5,            0.,NA,NA,"",       5.83757,      -5.81789,  -478.902E-03,   2.71160E-03
C:/temp/dataset/8/2_24.odb,Step-1,Increment      1: Step Time =    1.000,"PART-1-1",            48,           -5.,           10.,            0.,NA,NA,"",       5.38716,      -5.36900,  -441.882E-03,   5.48939E-03
C:/temp/dataset/8/2_24.odb,Step-1,Increment      1: Step Time =    1.000,"PART-1-1",            49,           -5.,           7.5,            0.,NA,NA,"",       4.93575,      -4.91755,  -423.528E-03,   26.5206E-03
C:/temp/dataset/8/2_24.odb,Step-1,Increment      1: Step Time =    1.000,"PART-1-1",            50,          -2.5,           20.,            0.,NA,NA,"",       7.32388,      -7.29997,  -591.377E-03,   35.5005E-03
C:/temp/dataset/8/2_24.odb,Step-1,Increment      1: Step Time =    1.000,"PART-1-1",            51,          12.5,           30.,            0.,NA,NA,"",       8.41121,      -8.38546,   657.646E-03,   869.104E-06
C:/temp/dataset/8/2_24.odb,Step-1,Increment      1: Step Time =    1.000,"PART-1-1",            52,           10.,           30.,            0.,NA,NA,"",       8.37892,      -8.36819,   423.835E-03,   5.38074E-03
C:/temp/dataset/8/2_24.odb,Step-1,Increment      1: Step Time =    1.000,"PART-1-1",            53,           7.5,           30.,            0.,NA,NA,"",       8.34259,      -8.34031,   194.999E-03,   8.86552E-03
C:/temp/dataset/8/2_24.odb,Step-1,Increment      1: Step Time =    1.000,"PART-1-1",            54,            5.,           30.,            0.,NA,NA,"",       8.30961,      -8.30959,  -19.4936E-03,   7.94058E-03
C:/temp/dataset/8/2_24.odb,Step-1,Increment      1: Step Time =    1.000,"PART-1-1",            55,           2.5,           30.,            0.,NA,NA,"",       8.29225,      -8.28930,  -221.156E-03,   1.75779E-03
C:/temp/dataset/8/2_24.odb,Step-1,Increment      1: Step Time =    1.000,"PART-1-1",            56,          -2.5,           30.,            0.,NA,NA,"",       8.33029,      -8.30526,  -645.168E-03,   15.5622E-03
C:/temp/dataset/8/2_24.odb,Step-1,Increment      1: Step Time =    1.000,"PART-1-1",            57,           -5.,           30.,            0.,NA,NA,"",       8.38234,      -8.33379,  -900.802E-03,   19.5449E-03
C:/temp/dataset/8/2_24.odb,Step-1,Increment      1: Step Time =    1.000,"PART-1-1",            58,          -7.5,           30.,            0.,NA,NA,"",       8.44417,      -8.35910,      -1.19557,   17.0620E-03
C:/temp/dataset/8/2_24.odb,Step-1,Increment      1: Step Time =    1.000,"PART-1-1",            59,          -10.,           30.,            0.,NA,NA,"",       8.50587,      -8.36893,      -1.52012,   9.68585E-03
C:/temp/dataset/8/2_24.odb,Step-1,Increment      1: Step Time =    1.000,"PART-1-1",            60,         -12.5,           30.,            0.,NA,NA,"",       8.56260,      -8.35914,      -1.85551,   2.19265E-03
C:/temp/dataset/8/2_24.odb,Step-1,Increment      1: Step Time =    1.000,"PART-1-1",            61,          -15.,          27.5,            0.,NA,NA,"",       8.30169,      -8.01453,      -2.16459,   2.25268E-03
C:/temp/dataset/8/2_24.odb,Step-1,Increment      1: Step Time =    1.000,"PART-1-1",            62,          -15.,           25.,            0.,NA,NA,"",       7.98999,      -7.69332,      -2.15702,   9.53481E-03
C:/temp/dataset/8/2_24.odb,Step-1,Increment      1: Step Time =    1.000,"PART-1-1",            63,          -15.,          22.5,            0.,NA,NA,"",       7.66812,      -7.35635,      -2.16429,   16.1533E-03
C:/temp/dataset/8/2_24.odb,Step-1,Increment      1: Step Time =    1.000,"PART-1-1",            64,          -15.,           20.,            0.,NA,NA,"",       7.31870,      -6.98723,      -2.17762,   17.6926E-03
C:/temp/dataset/8/2_24.odb,Step-1,Increment      1: Step Time =    1.000,"PART-1-1",            65,          -15.,          17.5,            0.,NA,NA,"",       6.93381,      -6.58175,      -2.18135,   12.9630E-03
C:/temp/dataset/8/2_24.odb,Step-1,Increment      1: Step Time =    1.000,"PART-1-1",            66,          -15.,           15.,            0.,NA,NA,"",       6.51898,      -6.14953,      -2.16340,   3.64935E-03
C:/temp/dataset/8/2_24.odb,Step-1,Increment      1: Step Time =    1.000,"PART-1-1",            67,          -15.,          12.5,            0.,NA,NA,"",       6.08816,      -5.70724,      -2.11969,   7.45777E-03
C:/temp/dataset/8/2_24.odb,Step-1,Increment      1: Step Time =    1.000,"PART-1-1",            68,          -15.,           10.,            0.,NA,NA,"",       5.65716,      -5.27190,      -2.05196,   18.3460E-03
C:/temp/dataset/8/2_24.odb,Step-1,Increment      1: Step Time =    1.000,"PART-1-1",            69,          -15.,           7.5,            0.,NA,NA,"",       5.24232,      -4.86019,      -1.96481,   26.6307E-03
C:/temp/dataset/8/2_24.odb,Step-1,Increment      1: Step Time =    1.000,"PART-1-1",            70,          -15.,            5.,            0.,NA,NA,"",       4.85910,      -4.48504,      -1.86957,   29.7249E-03
C:/temp/dataset/8/2_24.odb,Step-1,Increment      1: Step Time =    1.000,"PART-1-1",            71,          -15.,           2.5,            0.,NA,NA,"",       4.51574,      -4.14843,      -1.78394,   23.9577E-03
C:/temp/dataset/8/2_24.odb,Step-1,Increment      1: Step Time =    1.000,"PART-1-1",            72,          -15.,            0.,            0.,NA,NA,"",       4.20233,      -3.83291,      -1.72291,   11.5381E-03
C:/temp/dataset/8/2_24.odb,Step-1,Increment      1: Step Time =    1.000,"PART-1-1",            73,          -15.,          -2.5,            0.,NA,NA,"",       3.89145,      -3.50496,      -1.69075,   1.89116E-03
C:/temp/dataset/8/2_24.odb,Step-1,Increment      1: Step Time =    1.000,"PART-1-1",            74,          -15.,           -5.,            0.,NA,NA,"",       3.55309,      -3.13624,      -1.66986,   4.42412E-03
C:/temp/dataset/8/2_24.odb,Step-1,Increment      1: Step Time =    1.000,"PART-1-1",            75,          -15.,          -7.5,            0.,NA,NA,"",       3.16815,      -2.71423,      -1.63405,   6.39264E-03
C:/temp/dataset/8/2_24.odb,Step-1,Increment      1: Step Time =    1.000,"PART-1-1",            76,          -15.,          -10.,            0.,NA,NA,"",       2.74442,      -2.25692,      -1.56146,   23.4032E-03
C:/temp/dataset/8/2_24.odb,Step-1,Increment      1: Step Time =    1.000,"PART-1-1",            77,          -15.,         -12.5,            0.,NA,NA,"",       2.30075,      -1.79344,      -1.44119,   44.4287E-03
C:/temp/dataset/8/2_24.odb,Step-1,Increment      1: Step Time =    1.000,"PART-1-1",            78,          -15.,          -15.,            0.,NA,NA,"",       1.86282,      -1.35544,      -1.27785,   64.9451E-03
C:/temp/dataset/8/2_24.odb,Step-1,Increment      1: Step Time =    1.000,"PART-1-1",            79,          -15.,         -17.5,            0.,NA,NA,"",       1.45152,  -970.164E-03,      -1.07968,   82.1232E-03
C:/temp/dataset/8/2_24.odb,Step-1,Increment      1: Step Time =    1.000,"PART-1-1",            80,          -15.,          -20.,            0.,NA,NA,"",       1.08342,  -658.511E-03,  -860.321E-03,   92.2991E-03
C:/temp/dataset/8/2_24.odb,Step-1,Increment      1: Step Time =    1.000,"PART-1-1",            81,          -15.,         -22.5,            0.,NA,NA,"",   767.461E-03,  -428.002E-03,  -637.033E-03,   94.8549E-03
C:/temp/dataset/8/2_24.odb,Step-1,Increment      1: Step Time =    1.000,"PART-1-1",            82,          -15.,          -25.,            0.,NA,NA,"",   500.742E-03,  -266.372E-03,  -424.015E-03,   89.5647E-03
C:/temp/dataset/8/2_24.odb,Step-1,Increment      1: Step Time =    1.000,"PART-1-1",            83,          -15.,         -27.5,            0.,NA,NA,"",   267.995E-03,  -149.937E-03,  -222.127E-03,   95.2220E-03
C:/temp/dataset/8/2_24.odb,Step-1,Increment      1: Step Time =    1.000,"PART-1-1",            84,         -12.5,          -30.,            0.,NA,NA,"",            0.,  -8.04334E-39,  -132.644E-39,   48.6305E-03
C:/temp/dataset/8/2_24.odb,Step-1,Increment      1: Step Time =    1.000,"PART-1-1",            85,          -10.,          -30.,            0.,NA,NA,"",            0.,  -19.9935E-39,  -68.0900E-39,   31.8146E-03
C:/temp/dataset/8/2_24.odb,Step-1,Increment      1: Step Time =    1.000,"PART-1-1",            86,          -7.5,          -30.,            0.,NA,NA,"",            0.,   8.91708E-39,  -33.9285E-39,   13.1232E-03
C:/temp/dataset/8/2_24.odb,Step-1,Increment      1: Step Time =    1.000,"PART-1-1",            87,           -5.,          -30.,            0.,NA,NA,"",            0.,  -14.3083E-39,  -12.4676E-39,   9.53295E-03
C:/temp/dataset/8/2_24.odb,Step-1,Increment      1: Step Time =    1.000,"PART-1-1",            88,          -2.5,          -30.,            0.,NA,NA,"",            0.,  -22.3146E-39,  -10.0342E-39,   17.8407E-03
C:/temp/dataset/8/2_24.odb,Step-1,Increment      1: Step Time =    1.000,"PART-1-1",            89,            0.,          -30.,            0.,NA,NA,"",            0.,  -25.7541E-39,   14.8718E-39,   21.3425E-03
C:/temp/dataset/8/2_24.odb,Step-1,Increment      1: Step Time =    1.000,"PART-1-1",            90,           2.5,          -30.,            0.,NA,NA,"",            0.,  -21.1054E-39,  -20.4414E-39,   18.2059E-03
C:/temp/dataset/8/2_24.odb,Step-1,Increment      1: Step Time =    1.000,"PART-1-1",            91,            5.,          -30.,            0.,NA,NA,"",            0.,  -17.9377E-39,   13.0878E-39,   11.0714E-03
C:/temp/dataset/8/2_24.odb,Step-1,Increment      1: Step Time =    1.000,"PART-1-1",            92,           7.5,          -30.,            0.,NA,NA,"",            0.,   4.88786E-39,   27.2165E-39,   13.8113E-03
C:/temp/dataset/8/2_24.odb,Step-1,Increment      1: Step Time =    1.000,"PART-1-1",            93,           10.,          -30.,            0.,NA,NA,"",            0.,  -22.0648E-39,   81.6467E-39,   31.9341E-03
C:/temp/dataset/8/2_24.odb,Step-1,Increment      1: Step Time =    1.000,"PART-1-1",            94,          12.5,          -30.,            0.,NA,NA,"",            0.,  -21.9449E-39,   115.379E-39,   50.5779E-03
C:/temp/dataset/8/2_24.odb,Step-1,Increment      1: Step Time =    1.000,"PART-1-1",            95,           15.,      -27.5250,            0.,NA,NA,"",   285.637E-03,  -176.459E-03,   224.612E-03,   95.3329E-03
C:/temp/dataset/8/2_24.odb,Step-1,Increment      1: Step Time =    1.000,"PART-1-1",            96,           15.,      -25.0500,            0.,NA,NA,"",   522.662E-03,  -318.877E-03,   414.117E-03,   88.8919E-03
C:/temp/dataset/8/2_24.odb,Step-1,Increment      1: Step Time =    1.000,"PART-1-1",            97,           15.,      -22.5750,            0.,NA,NA,"",   791.906E-03,  -507.204E-03,   608.160E-03,   91.7351E-03
C:/temp/dataset/8/2_24.odb,Step-1,Increment      1: Step Time =    1.000,"PART-1-1",            98,           15.,      -17.5875,            0.,NA,NA,"",       1.47052,      -1.10565,   969.519E-03,   79.7047E-03
C:/temp/dataset/8/2_24.odb,Step-1,Increment      1: Step Time =    1.000,"PART-1-1",            99,           15.,      -15.0750,            0.,NA,NA,"",       1.87116,      -1.51138,       1.10316,   64.9408E-03
C:/temp/dataset/8/2_24.odb,Step-1,Increment      1: Step Time =    1.000,"PART-1-1",           100,           15.,      -12.5625,            0.,NA,NA,"",       2.29245,      -1.95776,       1.19268,   48.0559E-03
C:/temp/dataset/8/2_24.odb,Step-1,Increment      1: Step Time =    1.000,"PART-1-1",           101,           15.,      -7.53750,            0.,NA,NA,"",       3.13326,      -2.87050,       1.25600,   18.0372E-03
C:/temp/dataset/8/2_24.odb,Step-1,Increment      1: Step Time =    1.000,"PART-1-1",           102,           15.,      -5.02500,            0.,NA,NA,"",       3.52243,      -3.29246,       1.25190,   13.2188E-03
C:/temp/dataset/8/2_24.odb,Step-1,Increment      1: Step Time =    1.000,"PART-1-1",           103,           15.,      -2.51250,            0.,NA,NA,"",       3.88909,      -3.68233,       1.25118,   16.7062E-03
C:/temp/dataset/8/2_24.odb,Step-1,Increment      1: Step Time =    1.000,"PART-1-1",           104,           15.,       2.47500,            0.,NA,NA,"",       4.64360,      -4.45243,       1.31866,   36.8411E-03
C:/temp/dataset/8/2_24.odb,Step-1,Increment      1: Step Time =    1.000,"PART-1-1",           105,           15.,       4.95000,            0.,NA,NA,"",       5.08339,      -4.89611,       1.36710,   37.4717E-03
C:/temp/dataset/8/2_24.odb,Step-1,Increment      1: Step Time =    1.000,"PART-1-1",           106,           15.,       7.42500,            0.,NA,NA,"",       5.57283,      -5.39675,       1.38977,   26.4013E-03
C:/temp/dataset/8/2_24.odb,Step-1,Increment      1: Step Time =    1.000,"PART-1-1",           107,           15.,       12.4125,            0.,NA,NA,"",       6.62013,      -6.49536,       1.27923,   29.8955E-03
C:/temp/dataset/8/2_24.odb,Step-1,Increment      1: Step Time =    1.000,"PART-1-1",           108,           15.,       14.9250,            0.,NA,NA,"",       7.03834,      -6.93869,       1.18021,   36.9203E-03
C:/temp/dataset/8/2_24.odb,Step-1,Increment      1: Step Time =    1.000,"PART-1-1",           109,           15.,       17.4375,            0.,NA,NA,"",       7.37332,      -7.29398,       1.07874,   40.6110E-03
C:/temp/dataset/8/2_24.odb,Step-1,Increment      1: Step Time =    1.000,"PART-1-1",           110,           15.,       22.4625,            0.,NA,NA,"",       7.79569,      -7.73842,   943.275E-03,   14.1230E-03
C:/temp/dataset/8/2_24.odb,Step-1,Increment      1: Step Time =    1.000,"PART-1-1",           111,           15.,       24.9750,            0.,NA,NA,"",       8.00387,      -7.95172,   912.192E-03,   5.65966E-03
C:/temp/dataset/8/2_24.odb,Step-1,Increment      1: Step Time =    1.000,"PART-1-1",           112,           15.,       27.4875,            0.,NA,NA,"",       8.21888,      -8.16983,   896.581E-03,   852.858E-06
C:/temp/dataset/8/2_24.odb,Step-1,Increment      1: Step Time =    1.000,"PART-1-1",           113,       13.1365,       7.82775,            0.,NA,NA,"",       5.52666,      -5.43053,       1.02632,   25.3242E-03
C:/temp/dataset/8/2_24.odb,Step-1,Increment      1: Step Time =    1.000,"PART-1-1",           114,       12.9206,      -22.7091,            0.,NA,NA,"",   602.930E-03,  -415.762E-03,   436.655E-03,   69.4977E-03
C:/temp/dataset/8/2_24.odb,Step-1,Increment      1: Step Time =    1.000,"PART-1-1",           115,       12.1826,      -25.1314,            0.,NA,NA,"",   330.694E-03,  -216.751E-03,   249.755E-03,   63.2895E-03
C:/temp/dataset/8/2_24.odb,Step-1,Increment      1: Step Time =    1.000,"PART-1-1",           116,       12.6244,   112.324E-03,            0.,NA,NA,"",       4.12112,      -4.02005,   907.088E-03,   26.0076E-03
C:/temp/dataset/8/2_24.odb,Step-1,Increment      1: Step Time =    1.000,"PART-1-1",           117,       12.7971,       5.51469,            0.,NA,NA,"",       5.03617,      -4.93995,   979.730E-03,   26.0196E-03
C:/temp/dataset/8/2_24.odb,Step-1,Increment      1: Step Time =    1.000,"PART-1-1",           118,       12.0259,       2.90661,            0.,NA,NA,"",       4.51844,      -4.44022,   837.070E-03,   25.1832E-03
C:/temp/dataset/8/2_24.odb,Step-1,Increment      1: Step Time =    1.000,"PART-1-1",           119,       6.98518,      -9.77271,            0.,NA,NA,"",       2.28212,      -2.28209,   11.2242E-03,   35.8589E-03
C:/temp/dataset/8/2_24.odb,Step-1,Increment      1: Step Time =    1.000,"PART-1-1",           120,       7.90645,      -27.9165,            0.,NA,NA,"",   44.8804E-03,  -37.1705E-03,   25.1516E-03,   18.3167E-03
C:/temp/dataset/8/2_24.odb,Step-1,Increment      1: Step Time =    1.000,"PART-1-1",           121,      -2.48144,      -27.6485,            0.,NA,NA,"",   71.7184E-03,  -71.3685E-03,   7.07571E-03,   24.4696E-03
C:/temp/dataset/8/2_24.odb,Step-1,Increment      1: Step Time =    1.000,"PART-1-1",           122,      -12.5133,      -12.5664,            0.,NA,NA,"",       2.03762,      -1.77133,      -1.00712,   46.9099E-03
C:/temp/dataset/8/2_24.odb,Step-1,Increment      1: Step Time =    1.000,"PART-1-1",           123,      -12.5789,       17.4824,            0.,NA,NA,"",       6.85842,      -6.61935,      -1.79505,   11.0095E-03
C:/temp/dataset/8/2_24.odb,Step-1,Increment      1: Step Time =    1.000,"PART-1-1",           124,      -2.62827,      -2.48556,            0.,NA,NA,"",       3.62019,      -3.60394,  -342.567E-03,   66.4192E-03
C:/temp/dataset/8/2_24.odb,Step-1,Increment      1: Step Time =    1.000,"PART-1-1",           125,      -2.40341,       2.52844,            0.,NA,NA,"",       4.12004,      -4.10390,  -364.346E-03,   52.1876E-03
C:/temp/dataset/8/2_24.odb,Step-1,Increment      1: Step Time =    1.000,"PART-1-1",           126,       2.45915,      -2.56896,            0.,NA,NA,"",       3.60028,      -3.59075,  -261.755E-03,   55.4264E-03
C:/temp/dataset/8/2_24.odb,Step-1,Increment      1: Step Time =    1.000,"PART-1-1",           127,       2.65554,       2.44196,            0.,NA,NA,"",       4.13347,      -4.12441,  -273.522E-03,   66.8542E-03
C:/temp/dataset/8/2_24.odb,Step-1,Increment      1: Step Time =    1.000,"PART-1-1",           128,       2.47444,       22.5736,            0.,NA,NA,"",       7.61266,      -7.60949,  -219.698E-03,   18.9804E-03
C:/temp/dataset/8/2_24.odb,Step-1,Increment      1: Step Time =    1.000,"PART-1-1",           129,   16.3473E-03,       27.5162,            0.,NA,NA,"",       8.07279,      -8.06251,  -407.229E-03,   11.9563E-03
C:/temp/dataset/8/2_24.odb,Step-1,Increment      1: Step Time =    1.000,"PART-1-1",           130,      -2.67853,       22.8897,            0.,NA,NA,"",       7.59581,      -7.57196,  -601.551E-03,   25.3146E-03
C:/temp/dataset/8/2_24.odb,Step-1,Increment      1: Step Time =    1.000,"PART-1-1",           131,      -12.4925,       19.9647,            0.,NA,NA,"",       7.25273,      -7.02546,      -1.80140,   8.29665E-03
C:/temp/dataset/8/2_24.odb,Step-1,Increment      1: Step Time =    1.000,"PART-1-1",           132,      -7.56076,       17.4403,            0.,NA,NA,"",       6.75673,      -6.67729,      -1.03305,   26.8946E-03
C:/temp/dataset/8/2_24.odb,Step-1,Increment      1: Step Time =    1.000,"PART-1-1",           133,       7.61200,       17.3671,            0.,NA,NA,"",       7.14682,      -7.14610,   101.805E-03,   26.1502E-03
C:/temp/dataset/8/2_24.odb,Step-1,Increment      1: Step Time =    1.000,"PART-1-1",           134,      -9.59813,      -27.6832,            0.,NA,NA,"",   58.9919E-03,  -27.9183E-03,  -51.9674E-03,   28.5056E-03
C:/temp/dataset/8/2_24.odb,Step-1,Increment      1: Step Time =    1.000,"PART-1-1",           135,       4.78979,      -2.62807,            0.,NA,NA,"",       3.55795,      -3.55419,  -163.390E-03,   35.1995E-03
C:/temp/dataset/8/2_24.odb,Step-1,Increment      1: Step Time =    1.000,"PART-1-1",           136,       7.77864,      -12.2173,            0.,NA,NA,"",       1.83707,      -1.83302,   121.979E-03,   30.8562E-03
C:/temp/dataset/8/2_24.odb,Step-1,Increment      1: Step Time =    1.000,"PART-1-1",           137,       7.25860,      -19.5166,            0.,NA,NA,"",   586.922E-03,  -582.238E-03,   74.0023E-03,   43.0273E-03
C:/temp/dataset/8/2_24.odb,Step-1,Increment      1: Step Time =    1.000,"PART-1-1",           138,      -4.85223,      -22.6747,            0.,NA,NA,"",   272.242E-03,  -267.563E-03,   50.2553E-03,   32.4053E-03
C:/temp/dataset/8/2_24.odb,Step-1,Increment      1: Step Time =    1.000,"PART-1-1",           139,      -12.1899,      -27.1304,            0.,NA,NA,"",   161.003E-03,  -79.8857E-03,  -139.786E-03,   62.2857E-03
C:/temp/dataset/8/2_24.odb,Step-1,Increment      1: Step Time =    1.000,"PART-1-1",           140,      -12.5022,       10.0467,            0.,NA,NA,"",       5.54537,      -5.29732,      -1.63998,   17.7534E-03
C:/temp/dataset/8/2_24.odb,Step-1,Increment      1: Step Time =    1.000,"PART-1-1",           141,      -12.8398,       4.62624,            0.,NA,NA,"",       4.69021,      -4.43064,      -1.53869,   20.4106E-03
C:/temp/dataset/8/2_24.odb,Step-1,Increment      1: Step Time =    1.000,"PART-1-1",           142,      -12.8490,  -38.7177E-03,            0.,NA,NA,"",       4.09217,      -3.83568,      -1.42598,   19.8338E-03
C:/temp/dataset/8/2_24.odb,Step-1,Increment      1: Step Time =    1.000,"PART-1-1",           143,      -13.3237,      -5.02762,            0.,NA,NA,"",       3.45078,      -3.15043,      -1.40807,   8.84571E-03
C:/temp/dataset/8/2_24.odb,Step-1,Increment      1: Step Time =    1.000,"PART-1-1",           144,      -7.45280,      -10.1617,            0.,NA,NA,"",       2.26151,      -2.23522,  -343.822E-03,   41.5493E-03
C:/temp/dataset/8/2_24.odb,Step-1,Increment      1: Step Time =    1.000,"PART-1-1",           145,  -24.6675E-03,      -2.52386,            0.,NA,NA,"",       3.61822,      -3.60479,  -311.425E-03,   48.1271E-03
C:/temp/dataset/8/2_24.odb,Step-1,Increment      1: Step Time =    1.000,"PART-1-1",           146,       4.79423,       22.5397,            0.,NA,NA,"",       7.63579,      -7.63551,  -65.6668E-03,   25.8592E-03
C:/temp/dataset/8/2_24.odb,Step-1,Increment      1: Step Time =    1.000,"PART-1-1",           147,       7.23210,       9.87276,            0.,NA,NA,"",       5.75913,      -5.75911,   15.4162E-03,   30.4293E-03
C:/temp/dataset/8/2_24.odb,Step-1,Increment      1: Step Time =    1.000,"PART-1-1",           148,       7.03782,       7.56931,            0.,NA,NA,"",       5.23459,      -5.23455,   21.0918E-03,   48.3289E-03
C:/temp/dataset/8/2_24.odb,Step-1,Increment      1: Step Time =    1.000,"PART-1-1",           149,   58.7546E-03,       2.48470,            0.,NA,NA,"",       4.11974,      -4.10725,  -320.553E-03,   54.3450E-03
C:/temp/dataset/8/2_24.odb,Step-1,Increment      1: Step Time =    1.000,"PART-1-1",           150,      -4.69679,       2.58686,            0.,NA,NA,"",       4.15561,      -4.13032,  -457.739E-03,   26.0063E-03
C:/temp/dataset/8/2_24.odb,Step-1,Increment      1: Step Time =    1.000,"PART-1-1",           151,      -12.4528,       27.7132,            0.,NA,NA,"",       8.26960,      -8.06488,      -1.82867,   7.52581E-03
C:/temp/dataset/8/2_24.odb,Step-1,Increment      1: Step Time =    1.000,"PART-1-1",           152,      -11.8772,       25.1339,            0.,NA,NA,"",       7.93996,      -7.74837,      -1.73370,   10.8436E-03
C:/temp/dataset/8/2_24.odb,Step-1,Increment      1: Step Time =    1.000,"PART-1-1",           153,      -12.3064,       22.4596,            0.,NA,NA,"",       7.60487,      -7.39270,      -1.78384,   8.69737E-03
C:/temp/dataset/8/2_24.odb,Step-1,Increment      1: Step Time =    1.000,"PART-1-1",           154,      -7.54035,       19.8016,            0.,NA,NA,"",       7.17003,      -7.08772,      -1.08327,   20.6808E-03
C:/temp/dataset/8/2_24.odb,Step-1,Increment      1: Step Time =    1.000,"PART-1-1",           155,   42.2180E-03,       22.5936,            0.,NA,NA,"",       7.58769,      -7.57758,  -391.738E-03,   19.0228E-03
C:/temp/dataset/8/2_24.odb,Step-1,Increment      1: Step Time =    1.000,"PART-1-1",           156,       10.3286,       27.6906,            0.,NA,NA,"",       8.17580,      -8.16288,   459.475E-03,   7.65095E-03
C:/temp/dataset/8/2_24.odb,Step-1,Increment      1: Step Time =    1.000,"PART-1-1",           157,       7.73802,       27.2328,            0.,NA,NA,"",       8.10058,      -8.09770,   216.008E-03,   8.24785E-03
C:/temp/dataset/8/2_24.odb,Step-1,Increment      1: Step Time =    1.000,"PART-1-1",           158,       4.99833,       27.5198,            0.,NA,NA,"",       8.09366,      -8.09364,  -19.4258E-03,   9.03961E-03
C:/temp/dataset/8/2_24.odb,Step-1,Increment      1: Step Time =    1.000,"PART-1-1",           159,       2.50368,       27.5752,            0.,NA,NA,"",       8.08134,      -8.07849,  -214.671E-03,   11.2939E-03
C:/temp/dataset/8/2_24.odb,Step-1,Increment      1: Step Time =    1.000,"PART-1-1",           160,      -2.79867,       27.0761,            0.,NA,NA,"",       8.04116,      -8.01536,  -643.656E-03,   10.3844E-03
C:/temp/dataset/8/2_24.odb,Step-1,Increment      1: Step Time =    1.000,"PART-1-1",           161,      -5.48457,       27.7642,            0.,NA,NA,"",       8.14543,      -8.09258,  -926.417E-03,   9.15284E-03
C:/temp/dataset/8/2_24.odb,Step-1,Increment      1: Step Time =    1.000,"PART-1-1",           162,      -7.83691,       28.0652,            0.,NA,NA,"",       8.21914,      -8.12915,      -1.21292,   10.4103E-03
C:/temp/dataset/8/2_24.odb,Step-1,Increment      1: Step Time =    1.000,"PART-1-1",           163,      -7.54955,       15.0035,            0.,NA,NA,"",       6.31483,      -6.23947,  -972.625E-03,   17.9620E-03
C:/temp/dataset/8/2_24.odb,Step-1,Increment      1: Step Time =    1.000,"PART-1-1",           164,      -12.5932,       15.0060,            0.,NA,NA,"",       6.43173,      -6.18540,      -1.76296,   13.7031E-03
C:/temp/dataset/8/2_24.odb,Step-1,Increment      1: Step Time =    1.000,"PART-1-1",           165,      -7.55247,       12.5555,            0.,NA,NA,"",       5.86646,      -5.79450,  -916.054E-03,   13.8694E-03
C:/temp/dataset/8/2_24.odb,Step-1,Increment      1: Step Time =    1.000,"PART-1-1",           166,      -12.5729,       12.5419,            0.,NA,NA,"",       5.99132,      -5.74172,      -1.71132,   15.9647E-03
C:/temp/dataset/8/2_24.odb,Step-1,Increment      1: Step Time =    1.000,"PART-1-1",           167,      -7.58565,       10.0709,            0.,NA,NA,"",       5.41389,      -5.34217,  -878.341E-03,   15.3355E-03
C:/temp/dataset/8/2_24.odb,Step-1,Increment      1: Step Time =    1.000,"PART-1-1",           168,      -7.87743,       7.29005,            0.,NA,NA,"",       4.92298,      -4.84416,  -877.398E-03,   26.9270E-03
C:/temp/dataset/8/2_24.odb,Step-1,Increment      1: Step Time =    1.000,"PART-1-1",           169,      -12.0798,       7.21824,            0.,NA,NA,"",       5.04843,      -4.82087,      -1.49862,   18.5361E-03
C:/temp/dataset/8/2_24.odb,Step-1,Increment      1: Step Time =    1.000,"PART-1-1",           170,      -13.1404,       2.31216,            0.,NA,NA,"",       4.39544,      -4.12421,      -1.52013,   21.1723E-03
C:/temp/dataset/8/2_24.odb,Step-1,Increment      1: Step Time =    1.000,"PART-1-1",           171,      -12.2753,      -2.89865,            0.,NA,NA,"",       3.70638,      -3.47465,      -1.28998,   13.1667E-03
C:/temp/dataset/8/2_24.odb,Step-1,Increment      1: Step Time =    1.000,"PART-1-1",           172,      -7.56646,      -5.67272,            0.,NA,NA,"",       3.17260,      -3.12233,  -562.513E-03,   41.4345E-03
C:/temp/dataset/8/2_24.odb,Step-1,Increment      1: Step Time =    1.000,"PART-1-1",           173,      -7.39215,      -7.81560,            0.,NA,NA,"",       2.74048,      -2.70504,  -439.359E-03,   59.7480E-03
C:/temp/dataset/8/2_24.odb,Step-1,Increment      1: Step Time =    1.000,"PART-1-1",           174,      -12.2965,      -7.15435,            0.,NA,NA,"",       3.04595,      -2.80080,      -1.19721,   25.3278E-03
C:/temp/dataset/8/2_24.odb,Step-1,Increment      1: Step Time =    1.000,"PART-1-1",           175,      -12.4696,      -9.99468,            0.,NA,NA,"",       2.52912,      -2.26678,      -1.12167,   38.4661E-03
C:/temp/dataset/8/2_24.odb,Step-1,Increment      1: Step Time =    1.000,"PART-1-1",           176,      -7.49885,      -12.5985,            0.,NA,NA,"",       1.77254,      -1.75480,  -250.124E-03,   32.2716E-03
C:/temp/dataset/8/2_24.odb,Step-1,Increment      1: Step Time =    1.000,"PART-1-1",           177,      -7.51661,      -15.1105,            0.,NA,NA,"",       1.29164,      -1.27899,  -180.361E-03,   29.4924E-03
C:/temp/dataset/8/2_24.odb,Step-1,Increment      1: Step Time =    1.000,"PART-1-1",           178,      -12.5153,      -15.0988,            0.,NA,NA,"",       1.56956,      -1.30676,  -869.436E-03,   53.4372E-03
C:/temp/dataset/8/2_24.odb,Step-1,Increment      1: Step Time =    1.000,"PART-1-1",           179,      -7.51181,      -17.6666,            0.,NA,NA,"",   846.026E-03,  -836.914E-03,  -123.836E-03,   40.4759E-03
C:/temp/dataset/8/2_24.odb,Step-1,Increment      1: Step Time =    1.000,"PART-1-1",           180,      -12.5518,      -17.6234,            0.,NA,NA,"",       1.15403,  -898.073E-03,  -724.741E-03,   58.4712E-03
C:/temp/dataset/8/2_24.odb,Step-1,Increment      1: Step Time =    1.000,"PART-1-1",           181,      -12.7381,      -20.0729,            0.,NA,NA,"",   831.683E-03,  -582.865E-03,  -593.266E-03,   63.7882E-03
C:/temp/dataset/8/2_24.odb,Step-1,Increment      1: Step Time =    1.000,"PART-1-1",           182,      -13.0750,      -22.3076,            0.,NA,NA,"",   611.811E-03,  -376.659E-03,  -482.121E-03,   69.2924E-03
C:/temp/dataset/8/2_24.odb,Step-1,Increment      1: Step Time =    1.000,"PART-1-1",           183,      -7.24239,      -27.7492,            0.,NA,NA,"",   35.2476E-03,  -31.5496E-03,  -15.7167E-03,   15.0691E-03
C:/temp/dataset/8/2_24.odb,Step-1,Increment      1: Step Time =    1.000,"PART-1-1",           184,      -4.87121,      -27.7117,            0.,NA,NA,"",   50.9044E-03,  -50.7400E-03,   4.08766E-03,   19.4592E-03
C:/temp/dataset/8/2_24.odb,Step-1,Increment      1: Step Time =    1.000,"PART-1-1",           185,      -2.51629,      -22.5836,            0.,NA,NA,"",   270.995E-03,  -268.000E-03,   40.1813E-03,   42.7120E-03
C:/temp/dataset/8/2_24.odb,Step-1,Increment      1: Step Time =    1.000,"PART-1-1",           186,  -83.6569E-03,      -22.5653,            0.,NA,NA,"",   273.823E-03,  -273.798E-03,   3.69836E-03,   31.5809E-03
C:/temp/dataset/8/2_24.odb,Step-1,Increment      1: Step Time =    1.000,"PART-1-1",           187,  -26.1876E-03,      -27.4903,            0.,NA,NA,"",   85.5528E-03,  -85.5524E-03,  -252.127E-06,   26.3007E-03
C:/temp/dataset/8/2_24.odb,Step-1,Increment      1: Step Time =    1.000,"PART-1-1",           188,       2.63365,      -22.7776,            0.,NA,NA,"",   270.766E-03,  -268.014E-03,  -38.5019E-03,   43.8357E-03
C:/temp/dataset/8/2_24.odb,Step-1,Increment      1: Step Time =    1.000,"PART-1-1",           189,       2.80249,      -26.9735,            0.,NA,NA,"",   97.2412E-03,  -96.4043E-03,  -12.7300E-03,   27.0413E-03
C:/temp/dataset/8/2_24.odb,Step-1,Increment      1: Step Time =    1.000,"PART-1-1",           190,       5.52127,      -27.5919,            0.,NA,NA,"",   55.9878E-03,  -55.9810E-03,   871.610E-06,   17.8732E-03
C:/temp/dataset/8/2_24.odb,Step-1,Increment      1: Step Time =    1.000,"PART-1-1",           191,       10.2455,      -28.0297,            0.,NA,NA,"",   70.1914E-03,  -40.8610E-03,   57.0720E-03,   38.1346E-03
C:/temp/dataset/8/2_24.odb,Step-1,Increment      1: Step Time =    1.000,"PART-1-1",           192,       7.32442,      -17.2829,            0.,NA,NA,"",   933.170E-03,  -930.449E-03,   71.2170E-03,   34.9528E-03
C:/temp/dataset/8/2_24.odb,Step-1,Increment      1: Step Time =    1.000,"PART-1-1",           193,       7.51239,      -14.8720,            0.,NA,NA,"",       1.34633,      -1.34358,   85.9952E-03,   25.5973E-03
C:/temp/dataset/8/2_24.odb,Step-1,Increment      1: Step Time =    1.000,"PART-1-1",           194,       6.95682,      -7.47937,            0.,NA,NA,"",       2.72882,      -2.72872,   22.5304E-03,   51.0249E-03
C:/temp/dataset/8/2_24.odb,Step-1,Increment      1: Step Time =    1.000,"PART-1-1",           195,       7.18655,       5.44056,            0.,NA,NA,"",       4.74207,      -4.74117,   92.4341E-03,   58.6905E-03
C:/temp/dataset/8/2_24.odb,Step-1,Increment      1: Step Time =    1.000,"PART-1-1",           196,       7.54073,       12.3094,            0.,NA,NA,"",       6.28113,      -6.28094,   48.8190E-03,   29.6348E-03
C:/temp/dataset/8/2_24.odb,Step-1,Increment      1: Step Time =    1.000,"PART-1-1",           197,       7.60223,       14.8257,            0.,NA,NA,"",       6.75306,      -6.75268,   71.3143E-03,   29.1694E-03
C:/temp/dataset/8/2_24.odb,Step-1,Increment      1: Step Time =    1.000,"PART-1-1",           198,       12.6819,       27.6459,            0.,NA,NA,"",       8.20299,      -8.17444,   683.849E-03,   4.63718E-03
C:/temp/dataset/8/2_24.odb,Step-1,Increment      1: Step Time =    1.000,"PART-1-1",           199,       12.0457,       20.1903,            0.,NA,NA,"",       7.57264,      -7.54268,   672.909E-03,   22.9363E-03
C:/temp/dataset/8/2_24.odb,Step-1,Increment      1: Step Time =    1.000,"PART-1-1",           200,       12.7260,      -12.7389,            0.,NA,NA,"",       2.02923,      -1.85212,   829.097E-03,   45.2291E-03
C:/temp/dataset/8/2_24.odb,Step-1,Increment      1: Step Time =    1.000,"PART-1-1",           201,       12.6061,      -7.88185,            0.,NA,NA,"",       2.88876,      -2.75562,   866.912E-03,   28.4159E-03
C:/temp/dataset/8/2_24.odb,Step-1,Increment      1: Step Time =    1.000,"PART-1-1",           202,       12.5539,      -15.1942,            0.,NA,NA,"",       1.58969,      -1.40407,   745.455E-03,   52.4745E-03
C:/temp/dataset/8/2_24.odb,Step-1,Increment      1: Step Time =    1.000,"PART-1-1",           203,       12.2961,      -17.8876,            0.,NA,NA,"",       1.14210,  -958.403E-03,   621.171E-03,   58.4578E-03
C:/temp/dataset/8/2_24.odb,Step-1,Increment      1: Step Time =    1.000,"PART-1-1",           204,       11.9819,      -5.08387,            0.,NA,NA,"",       3.32095,      -3.22826,   779.101E-03,   18.2833E-03
C:/temp/dataset/8/2_24.odb,Step-1,Increment      1: Step Time =    1.000,"PART-1-1",           205,       12.8886,       12.3962,            0.,NA,NA,"",       6.49618,      -6.43382,   898.003E-03,   28.1131E-03
C:/temp/dataset/8/2_24.odb,Step-1,Increment      1: Step Time =    1.000,"PART-1-1",           206,       12.6351,       22.8269,            0.,NA,NA,"",       7.80052,      -7.76789,   712.750E-03,   16.4765E-03
C:/temp/dataset/8/2_24.odb,Step-1,Increment      1: Step Time =    1.000,"PART-1-1",           207,       12.6677,       14.8477,            0.,NA,NA,"",       6.92789,      -6.87953,   817.146E-03,   21.0006E-03
C:/temp/dataset/8/2_24.odb,Step-1,Increment      1: Step Time =    1.000,"PART-1-1",           208,       12.7436,      -2.36883,            0.,NA,NA,"",       3.77052,      -3.65984,   906.851E-03,   20.8885E-03
C:/temp/dataset/8/2_24.odb,Step-1,Increment      1: Step Time =    1.000,"PART-1-1",           209,       12.7993,      -10.3700,            0.,NA,NA,"",       2.46012,      -2.29857,   876.801E-03,   37.0857E-03
C:/temp/dataset/8/2_24.odb,Step-1,Increment      1: Step Time =    1.000,"PART-1-1",           210,       12.9901,      -20.3906,            0.,NA,NA,"",   868.721E-03,  -650.765E-03,   575.483E-03,   68.4901E-03
C:/temp/dataset/8/2_24.odb,Step-1,Increment      1: Step Time =    1.000,"PART-1-1",           211,       13.2149,       10.1248,            0.,NA,NA,"",       6.03583,      -5.95249,   999.563E-03,   35.1506E-03
C:/temp/dataset/8/2_24.odb,Step-1,Increment      1: Step Time =    1.000,"PART-1-1",           212,       12.5082,       17.3754,            0.,NA,NA,"",       7.28956,      -7.25008,   757.692E-03,   18.2660E-03
C:/temp/dataset/8/2_24.odb,Step-1,Increment      1: Step Time =    1.000,"PART-1-1",           213,       12.5546,      -27.7200,            0.,NA,NA,"",   153.152E-03,  -92.5652E-03,   122.013E-03,   70.1261E-03
C:/temp/dataset/8/2_24.odb,Step-1,Increment      1: Step Time =    1.000,"PART-1-1",           214,       9.90568,       4.71999,            0.,NA,NA,"",       4.72393,      -4.69661,   507.395E-03,   35.5945E-03
C:/temp/dataset/8/2_24.odb,Step-1,Increment      1: Step Time =    1.000,"PART-1-1",           215,       10.7501,       6.50016,            0.,NA,NA,"",       5.12561,      -5.08602,   635.836E-03,   37.1420E-03
C:/temp/dataset/8/2_24.odb,Step-1,Increment      1: Step Time =    1.000,"PART-1-1",           216,       9.75591,      -23.6488,            0.,NA,NA,"",   310.105E-03,  -254.823E-03,   176.722E-03,   36.8387E-03
C:/temp/dataset/8/2_24.odb,Step-1,Increment      1: Step Time =    1.000,"PART-1-1",           217,       9.57327,       1.65180,            0.,NA,NA,"",       4.19087,      -4.16818,   435.541E-03,   24.7561E-03
C:/temp/dataset/8/2_24.odb,Step-1,Increment      1: Step Time =    1.000,"PART-1-1",           218,       11.2006,       8.46802,            0.,NA,NA,"",       5.57179,      -5.52939,   686.044E-03,   41.6610E-03
C:/temp/dataset/8/2_24.odb,Step-1,Increment      1: Step Time =    1.000,"PART-1-1",           219,       11.2103,      -20.8620,            0.,NA,NA,"",   663.062E-03,  -537.095E-03,   388.818E-03,   54.1327E-03
C:/temp/dataset/8/2_24.odb,Step-1,Increment      1: Step Time =    1.000,"PART-1-1",           220,       11.1015,      -2.06477,            0.,NA,NA,"",       3.73222,      -3.67497,   651.192E-03,   19.9832E-03
C:/temp/dataset/8/2_24.odb,Step-1,Increment      1: Step Time =    1.000,"PART-1-1",           221,       5.62425,       2.31421,            0.,NA,NA,"",       4.15998,      -4.15883,  -97.9698E-03,   20.2177E-03
C:/temp/dataset/8/2_24.odb,Step-1,Increment      1: Step Time =    1.000,"PART-1-1",           222,      -6.74047,       2.51715,            0.,NA,NA,"",       4.17952,      -4.12999,  -641.589E-03,   13.2345E-03
C:/temp/dataset/8/2_24.odb,Step-1,Increment      1: Step Time =    1.000,"PART-1-1",           223,      -7.42064,      -20.2654,            0.,NA,NA,"",   469.526E-03,  -463.489E-03,  -75.0503E-03,   30.0727E-03
C:/temp/dataset/8/2_24.odb,Step-1,Increment      1: Step Time =    1.000,"PART-1-1",           224,       7.69979,      -4.91359,            0.,NA,NA,"",       3.22581,      -3.22252,   145.746E-03,   29.8621E-03
C:/temp/dataset/8/2_24.odb,Step-1,Increment      1: Step Time =    1.000,"PART-1-1",           225,       7.31956,      -21.5115,            0.,NA,NA,"",   371.484E-03,  -366.616E-03,   59.9403E-03,   25.0419E-03
C:/temp/dataset/8/2_24.odb,Step-1,Increment      1: Step Time =    1.000,"PART-1-1",           226,      -5.66399,      -2.34175,            0.,NA,NA,"",       3.63289,      -3.60514,  -448.168E-03,   40.1723E-03
C:/temp/dataset/8/2_24.odb,Step-1,Increment      1: Step Time =    1.000,"PART-1-1",           227,       7.85227,       20.1110,            0.,NA,NA,"",       7.47646,      -7.47451,   170.610E-03,   24.1897E-03
C:/temp/dataset/8/2_24.odb,Step-1,Increment      1: Step Time =    1.000,"PART-1-1",           228,      -7.47305,       21.9136,            0.,NA,NA,"",       7.47888,      -7.39793,      -1.09745,   14.7077E-03
C:/temp/dataset/8/2_24.odb,Step-1,Increment      1: Step Time =    1.000,"PART-1-1",           229,      -10.1610,       28.1071,            0.,NA,NA,"",       8.26976,      -8.12886,      -1.52008,   9.67936E-03
C:/temp/dataset/8/2_24.odb,Step-1,Increment      1: Step Time =    1.000,"PART-1-1",           230,      -12.9524,      -24.6214,            0.,NA,NA,"",   387.548E-03,  -215.980E-03,  -321.786E-03,   71.0563E-03
C:/temp/dataset/8/2_24.odb,Step-1,Increment      1: Step Time =    1.000,"PART-1-1",           231,       8.38984,      -7.76285,            0.,NA,NA,"",       2.71671,      -2.70594,   241.570E-03,   41.6883E-03
C:/temp/dataset/8/2_24.odb,Step-1,Increment      1: Step Time =    1.000,"PART-1-1",           232,       2.50724,  -56.7369E-03,            0.,NA,NA,"",       3.86113,      -3.85114,  -277.502E-03,   58.2361E-03
C:/temp/dataset/8/2_24.odb,Step-1,Increment      1: Step Time =    1.000,"PART-1-1",           233,       10.3135,       11.8620,            0.,NA,NA,"",       6.27541,      -6.25602,   492.917E-03,   35.9369E-03
C:/temp/dataset/8/2_24.odb,Step-1,Increment      1: Step Time =    1.000,"PART-1-1",           234,       2.50286,       25.1199,            0.,NA,NA,"",       7.84916,      -7.84624,  -214.216E-03,   17.8843E-03
C:/temp/dataset/8/2_24.odb,Step-1,Increment      1: Step Time =    1.000,"PART-1-1",           235,      -1.67654,       25.0421,            0.,NA,NA,"",       7.82394,      -7.80597,  -530.032E-03,   14.7897E-03
C:/temp/dataset/8/2_24.odb,Step-1,Increment      1: Step Time =    1.000,"PART-1-1",           236,      -9.12088,      -25.5416,            0.,NA,NA,"",   135.844E-03,  -104.444E-03,  -86.8624E-03,   23.9344E-03
C:/temp/dataset/8/2_24.odb,Step-1,Increment      1: Step Time =    1.000,"PART-1-1",           237,   18.1833E-03,  -29.2602E-03,            0.,NA,NA,"",       3.86257,      -3.84948,  -317.771E-03,   61.2260E-03
C:/temp/dataset/8/2_24.odb,Step-1,Increment      1: Step Time =    1.000,"PART-1-1",           238,      -6.37745,       25.7068,            0.,NA,NA,"",       7.92526,      -7.86122,      -1.00548,   7.29932E-03
C:/temp/dataset/8/2_24.odb,Step-1,Increment      1: Step Time =    1.000,"PART-1-1",           239,      -10.0857,       17.4416,            0.,NA,NA,"",       6.79842,      -6.64913,      -1.41691,   17.6023E-03
C:/temp/dataset/8/2_24.odb,Step-1,Increment      1: Step Time =    1.000,"PART-1-1",           240,      -10.0934,       12.5946,            0.,NA,NA,"",       5.92444,      -5.77527,      -1.32105,   19.4137E-03
C:/temp/dataset/8/2_24.odb,Step-1,Increment      1: Step Time =    1.000,"PART-1-1",           241,      -9.86502,       5.52778,            0.,NA,NA,"",       4.69270,      -4.55545,      -1.12663,   21.4518E-03
C:/temp/dataset/8/2_24.odb,Step-1,Increment      1: Step Time =    1.000,"PART-1-1",           242,      -11.6239,       2.22269,            0.,NA,NA,"",       4.31395,      -4.11403,      -1.29807,   22.1988E-03
C:/temp/dataset/8/2_24.odb,Step-1,Increment      1: Step Time =    1.000,"PART-1-1",           243,      -10.6228,      -5.01114,            0.,NA,NA,"",       3.33960,      -3.18464,      -1.00548,   18.2959E-03
C:/temp/dataset/8/2_24.odb,Step-1,Increment      1: Step Time =    1.000,"PART-1-1",           244,      -9.74711,      -1.61456,            0.,NA,NA,"",       3.78572,      -3.66550,  -946.493E-03,   20.6952E-03
C:/temp/dataset/8/2_24.odb,Step-1,Increment      1: Step Time =    1.000,"PART-1-1",           245,      -9.39421,      -6.20391,            0.,NA,NA,"",       3.10509,      -3.00022,  -800.198E-03,   32.8192E-03
C:/temp/dataset/8/2_24.odb,Step-1,Increment      1: Step Time =    1.000,"PART-1-1",           246,      -9.97684,      -10.1599,            0.,NA,NA,"",       2.35307,      -2.23568,  -733.932E-03,   45.2185E-03
C:/temp/dataset/8/2_24.odb,Step-1,Increment      1: Step Time =    1.000,"PART-1-1",           247,      -10.0276,      -15.1451,            0.,NA,NA,"",       1.37809,      -1.27496,  -523.094E-03,   45.2934E-03
C:/temp/dataset/8/2_24.odb,Step-1,Increment      1: Step Time =    1.000,"PART-1-1",           248,      -10.1181,      -20.6738,            0.,NA,NA,"",   551.168E-03,  -461.291E-03,  -301.658E-03,   40.5613E-03
C:/temp/dataset/8/2_24.odb,Step-1,Increment      1: Step Time =    1.000,"PART-1-1",           249,      -4.81760,      -25.2822,            0.,NA,NA,"",   141.980E-03,  -140.195E-03,   22.4425E-03,   25.4595E-03
C:/temp/dataset/8/2_24.odb,Step-1,Increment      1: Step Time =    1.000,"PART-1-1",           250,      -2.52593,      -25.1657,            0.,NA,NA,"",   167.952E-03,  -165.894E-03,   26.2077E-03,   35.2815E-03
C:/temp/dataset/8/2_24.odb,Step-1,Increment      1: Step Time =    1.000,"PART-1-1",           251,       4.38823,      -24.6132,            0.,NA,NA,"",   184.191E-03,  -181.756E-03,  -29.8539E-03,   28.1659E-03
C:/temp/dataset/8/2_24.odb,Step-1,Increment      1: Step Time =    1.000,"PART-1-1",           252,       1.65324,      -24.9792,            0.,NA,NA,"",   182.568E-03,  -181.652E-03,  -18.2683E-03,   33.6479E-03
C:/temp/dataset/8/2_24.odb,Step-1,Increment      1: Step Time =    1.000,"PART-1-1",           253,      -10.0865,       15.0098,            0.,NA,NA,"",       6.36502,      -6.21545,      -1.37173,   18.6015E-03
C:/temp/dataset/8/2_24.odb,Step-1,Increment      1: Step Time =    1.000,"PART-1-1",           254,       10.3961,      -12.7490,            0.,NA,NA,"",       1.85769,      -1.79014,   496.395E-03,   41.5046E-03
C:/temp/dataset/8/2_24.odb,Step-1,Increment      1: Step Time =    1.000,"PART-1-1",           255,      -10.0322,       8.32342,            0.,NA,NA,"",       5.15776,      -5.01164,      -1.21900,   18.6162E-03
C:/temp/dataset/8/2_24.odb,Step-1,Increment      1: Step Time =    1.000,"PART-1-1",           256,      -2.46516,   4.89972E-03,            0.,NA,NA,"",       3.86434,      -3.84878,  -346.428E-03,   60.5803E-03
C:/temp/dataset/8/2_24.odb,Step-1,Increment      1: Step Time =    1.000,"PART-1-1",           257,      -9.79923,       22.1172,            0.,NA,NA,"",       7.52136,      -7.38551,      -1.42309,   9.17515E-03
C:/temp/dataset/8/2_24.odb,Step-1,Increment      1: Step Time =    1.000,"PART-1-1",           258,      -9.99953,       19.8330,            0.,NA,NA,"",       7.19177,      -7.04713,      -1.43509,   10.6096E-03
C:/temp/dataset/8/2_24.odb,Step-1,Increment      1: Step Time =    1.000,"PART-1-1",           259,       4.79880,       25.0430,            0.,NA,NA,"",       7.86533,      -7.86522,  -42.9985E-03,   15.3497E-03
C:/temp/dataset/8/2_24.odb,Step-1,Increment      1: Step Time =    1.000,"PART-1-1",           260,      -4.38714,       24.8432,            0.,NA,NA,"",       7.80963,      -7.77123,  -773.496E-03,   10.6033E-03
C:/temp/dataset/8/2_24.odb,Step-1,Increment      1: Step Time =    1.000,"PART-1-1",           261,      -8.41357,       26.1031,            0.,NA,NA,"",       7.99824,      -7.89731,      -1.26660,   10.0557E-03
C:/temp/dataset/8/2_24.odb,Step-1,Increment      1: Step Time =    1.000,"PART-1-1",           262,      -10.8386,       3.64138,            0.,NA,NA,"",       4.46340,      -4.29381,      -1.21863,   20.6127E-03
C:/temp/dataset/8/2_24.odb,Step-1,Increment      1: Step Time =    1.000,"PART-1-1",           263,      -10.0134,      -12.6076,            0.,NA,NA,"",       1.86248,      -1.75276,  -629.820E-03,   46.3642E-03
C:/temp/dataset/8/2_24.odb,Step-1,Increment      1: Step Time =    1.000,"PART-1-1",           264,      -10.0439,      -17.7611,            0.,NA,NA,"",   933.182E-03,  -835.855E-03,  -414.939E-03,   46.8731E-03
C:/temp/dataset/8/2_24.odb,Step-1,Increment      1: Step Time =    1.000,"PART-1-1",           265,      -11.0756,      -23.9180,            0.,NA,NA,"",   321.027E-03,  -212.948E-03,  -240.232E-03,   46.5981E-03
C:/temp/dataset/8/2_24.odb,Step-1,Increment      1: Step Time =    1.000,"PART-1-1",           266,       6.47384,      -25.3706,            0.,NA,NA,"",   135.135E-03,  -134.643E-03,   11.5164E-03,   13.8691E-03
C:/temp/dataset/8/2_24.odb,Step-1,Increment      1: Step Time =    1.000,"PART-1-1",           267,       8.63297,      -25.7838,            0.,NA,NA,"",   139.870E-03,  -119.508E-03,   72.6746E-03,   22.1536E-03
C:/temp/dataset/8/2_24.odb,Step-1,Increment      1: Step Time =    1.000,"PART-1-1",           268,       9.70463,      -17.2924,            0.,NA,NA,"",       1.03343,  -972.874E-03,   348.563E-03,   45.4902E-03
C:/temp/dataset/8/2_24.odb,Step-1,Increment      1: Step Time =    1.000,"PART-1-1",           269,       9.32258,      -19.2967,            0.,NA,NA,"",   718.964E-03,  -666.476E-03,   269.665E-03,   42.6462E-03
C:/temp/dataset/8/2_24.odb,Step-1,Increment      1: Step Time =    1.000,"PART-1-1",           270,       10.5097,       23.5233,            0.,NA,NA,"",       7.82848,      -7.81348,   484.327E-03,   16.5430E-03
C:/temp/dataset/8/2_24.odb,Step-1,Increment      1: Step Time =    1.000,"PART-1-1",           271,       10.7249,      -10.6710,            0.,NA,NA,"",       2.26342,      -2.19190,   564.474E-03,   39.6702E-03
C:/temp/dataset/8/2_24.odb,Step-1,Increment      1: Step Time =    1.000,"PART-1-1",           272,       12.7841,       25.2838,            0.,NA,NA,"",       8.00400,      -7.97278,   706.271E-03,   9.18738E-03
C:/temp/dataset/8/2_24.odb,Step-1,Increment      1: Step Time =    1.000,"PART-1-1",           273,       9.70769,       21.6927,            0.,NA,NA,"",       7.66067,      -7.65048,   394.925E-03,   20.8492E-03
C:/temp/dataset/8/2_24.odb,Step-1,Increment      1: Step Time =    1.000,"PART-1-1",           274,       9.66832,      -6.55030,            0.,NA,NA,"",       2.98096,      -2.94979,   429.920E-03,   28.8161E-03
C:/temp/dataset/8/2_24.odb,Step-1,Increment      1: Step Time =    1.000,"PART-1-1",           275,       10.0513,       19.0714,            0.,NA,NA,"",       7.41550,      -7.40298,   430.727E-03,   17.4690E-03
C:/temp/dataset/8/2_24.odb,Step-1,Increment      1: Step Time =    1.000,"PART-1-1",           276,       9.87331,      -3.39328,            0.,NA,NA,"",       3.49737,      -3.46720,   458.355E-03,   16.2675E-03
C:/temp/dataset/8/2_24.odb,Step-1,Increment      1: Step Time =    1.000,"PART-1-1",           277,       8.09153,       3.50199,            0.,NA,NA,"",       4.41458,      -4.40890,   224.022E-03,   38.3740E-03
C:/temp/dataset/8/2_24.odb,Step-1,Increment      1: Step Time =    1.000,"PART-1-1",           278,       7.63606,   479.494E-03,            0.,NA,NA,"",       3.96184,      -3.95914,   146.156E-03,   15.6525E-03
C:/temp/dataset/8/2_24.odb,Step-1,Increment      1: Step Time =    1.000,"PART-1-1",           279,       4.79213,  -240.588E-03,            0.,NA,NA,"",       3.83832,      -3.83501,  -159.307E-03,   27.9216E-03
C:/temp/dataset/8/2_24.odb,Step-1,Increment      1: Step Time =    1.000,"PART-1-1",           280,      -4.77040,   213.509E-03,            0.,NA,NA,"",       3.90059,      -3.87566,  -440.307E-03,   32.0942E-03
C:/temp/dataset/8/2_24.odb,Step-1,Increment      1: Step Time =    1.000,"PART-1-1",           281,      -7.12451,      -22.8795,            0.,NA,NA,"",   246.224E-03,  -244.680E-03,  -27.5315E-03,   4.28662E-03
C:/temp/dataset/8/2_24.odb,Step-1,Increment      1: Step Time =    1.000,"PART-1-1",           282,      -7.18564,       23.8616,            0.,NA,NA,"",       7.71878,      -7.64256,      -1.08205,   10.1454E-03
C:/temp/dataset/8/2_24.odb,Step-1,Increment      1: Step Time =    1.000,"PART-1-1",           283,      -8.39584,      -3.64273,            0.,NA,NA,"",       3.49863,      -3.42360,  -720.678E-03,   25.6093E-03
C:/temp/dataset/8/2_24.odb,Step-1,Increment      1: Step Time =    1.000,"PART-1-1",           284,      -5.55212,       23.5400,            0.,NA,NA,"",       7.66700,      -7.61628,  -880.443E-03,   11.3039E-03
C:/temp/dataset/8/2_24.odb,Step-1,Increment      1: Step Time =    1.000,"PART-1-1",           285,      -8.96751,       2.09330,            0.,NA,NA,"",       4.19416,      -4.09295,  -915.844E-03,   22.4487E-03
C:/temp/dataset/8/2_24.odb,Step-1,Increment      1: Step Time =    1.000,"PART-1-1",           286,      -8.55747,       4.19463,            0.,NA,NA,"",       4.44927,      -4.35531,  -909.528E-03,   21.4374E-03
C:/temp/dataset/8/2_24.odb,Step-1,Increment      1: Step Time =    1.000,"PART-1-1",           287,      -7.73317,  -334.415E-03,            0.,NA,NA,"",       3.88503,      -3.82026,  -706.458E-03,   18.1905E-03
C:/temp/dataset/8/2_24.odb,Step-1,Increment      1: Step Time =    1.000,"PART-1-1",           288,      -9.22795,      -23.2507,            0.,NA,NA,"",   272.259E-03,  -230.294E-03,  -145.223E-03,   26.8370E-03
C:/temp/dataset/8/2_24.odb,Step-1,Increment      1: Step Time =    1.000,"PART-1-1",           289,       6.93223,       22.5746,            0.,NA,NA,"",       7.68079,      -7.68002,   108.738E-03,   25.4336E-03
C:/temp/dataset/8/2_24.odb,Step-1,Increment      1: Step Time =    1.000,"PART-1-1",           290,       5.55352,      -23.2395,            0.,NA,NA,"",   245.313E-03,  -244.061E-03,  -24.7492E-03,   20.2343E-03
C:/temp/dataset/8/2_24.odb,Step-1,Increment      1: Step Time =    1.000,"PART-1-1",           291,       8.74083,      -1.45726,            0.,NA,NA,"",       3.73686,      -3.72533,   293.237E-03,   18.0363E-03
C:/temp/dataset/8/2_24.odb,Step-1,Increment      1: Step Time =    1.000,"PART-1-1",           292,       10.8991,      -19.3920,            0.,NA,NA,"",   816.591E-03,  -701.979E-03,   417.189E-03,   52.0205E-03
C:/temp/dataset/8/2_24.odb,Step-1,Increment      1: Step Time =    1.000,"PART-1-1",           293,       11.6521,       10.1032,            0.,NA,NA,"",       5.95258,      -5.90732,   732.686E-03,   40.3497E-03
C:/temp/dataset/8/2_24.odb,Step-1,Increment      1: Step Time =    1.000,"PART-1-1",           294,       7.27299,      -23.4476,            0.,NA,NA,"",   236.799E-03,  -232.914E-03,   42.7153E-03,   7.11375E-03
C:/temp/dataset/8/2_24.odb,Step-1,Increment      1: Step Time =    1.000,"PART-1-1",           295,       9.33799,      -21.3321,            0.,NA,NA,"",   482.452E-03,  -431.625E-03,   215.545E-03,   40.4695E-03
C:/temp/dataset/8/2_24.odb,Step-1,Increment      1: Step Time =    1.000,"PART-1-1",           296,       6.43909,  -678.324E-03,            0.,NA,NA,"",       3.79683,      -3.79683,  -3.83131E-03,   13.8870E-03
C:/temp/dataset/8/2_24.odb,Step-1,Increment      1: Step Time =    1.000,"PART-1-1",           297,       8.38797,       22.8532,            0.,NA,NA,"",       7.73495,      -7.73068,   257.005E-03,   20.2225E-03
C:/temp/dataset/8/2_24.odb,Step-1,Increment      1: Step Time =    1.000,"PART-1-1",           298,       8.65495,       5.84832,            0.,NA,NA,"",       4.89280,      -4.88270,   314.079E-03,   43.9428E-03
C:/temp/dataset/8/2_24.odb,Step-1,Increment      1: Step Time =    1.000,"PART-1-1",           299,       8.94133,       7.33953,            0.,NA,NA,"",       5.23164,      -5.22036,   343.332E-03,   49.6476E-03
C:/temp/dataset/8/2_24.odb,Step-1,Increment      1: Step Time =    1.000,"PART-1-1",           300,       6.91134,      -2.43572,            0.,NA,NA,"",       3.58342,      -3.58315,   43.3214E-03,   20.3719E-03
C:/temp/dataset/8/2_24.odb,Step-1,Increment      1: Step Time =    1.000,"PART-1-1",           301,      -6.42836,   750.251E-03,            0.,NA,NA,"",       3.97832,      -3.93513,  -584.638E-03,   12.4465E-03
C:/temp/dataset/8/2_24.odb,Step-1,Increment      1: Step Time =    1.000,"PART-1-1",           302,       5.11217,      -21.8336,            0.,NA,NA,"",   324.590E-03,  -319.619E-03,  -56.5899E-03,   31.3093E-03
C:/temp/dataset/8/2_24.odb,Step-1,Increment      1: Step Time =    1.000,"PART-1-1",           303,      -5.14370,       22.0291,            0.,NA,NA,"",       7.48795,      -7.44393,  -810.795E-03,   19.4327E-03
C:/temp/dataset/8/2_24.odb,Step-1,Increment      1: Step Time =    1.000,"PART-1-1",           304,      -6.99385,       4.73375,            0.,NA,NA,"",       4.47065,      -4.41387,  -710.288E-03,   29.8962E-03
C:/temp/dataset/8/2_24.odb,Step-1,Increment      1: Step Time =    1.000,"PART-1-1",           305,      -9.29188,       24.2162,            0.,NA,NA,"",       7.78444,      -7.66339,      -1.36751,   10.7135E-03
C:/temp/dataset/8/2_24.odb,Step-1,Increment      1: Step Time =    1.000,"PART-1-1",           306,       6.91679,       24.7863,            0.,NA,NA,"",       7.87458,      -7.87347,   131.991E-03,   14.8939E-03
C:/temp/dataset/8/2_24.odb,Step-1,Increment      1: Step Time =    1.000,"PART-1-1",           307,      -7.06121,      -25.4189,            0.,NA,NA,"",   114.784E-03,  -113.063E-03,  -19.8052E-03,   13.7778E-03
C:/temp/dataset/8/2_24.odb,Step-1,Increment      1: Step Time =    1.000,"PART-1-1",           308,   226.332E-03,       25.0801,            0.,NA,NA,"",       7.83203,      -7.82277,  -380.825E-03,   16.2943E-03
C:/temp/dataset/8/2_24.odb,Step-1,Increment      1: Step Time =    1.000,"PART-1-1",           309,      -10.0604,       10.2616,            0.,NA,NA,"",       5.50024,      -5.35259,      -1.26587,   19.3676E-03
C:/temp/dataset/8/2_24.odb,Step-1,Increment      1: Step Time =    1.000,"PART-1-1",           310,  -253.177E-03,      -25.0610,            0.,NA,NA,"",   180.235E-03,  -180.201E-03,   3.52728E-03,   33.5840E-03
C:/temp/dataset/8/2_24.odb,Step-1,Increment      1: Step Time =    1.000,"PART-1-1",           311,       10.5126,      -8.54534,            0.,NA,NA,"",       2.64931,      -2.59204,   547.847E-03,   35.6413E-03
C:/temp/dataset/8/2_24.odb,Step-1,Increment      1: Step Time =    1.000,"PART-1-1",           312,       8.69507,       24.2171,            0.,NA,NA,"",       7.85603,      -7.85040,   297.450E-03,   16.0650E-03
C:/temp/dataset/8/2_24.odb,Step-1,Increment      1: Step Time =    1.000,"PART-1-1",           313,       10.6943,       25.6018,            0.,NA,NA,"",       8.00306,      -7.98749,   499.090E-03,   11.1385E-03
C:/temp/dataset/8/2_24.odb,Step-1,Increment      1: Step Time =    1.000,"PART-1-1",           314,       10.1073,       17.1283,            0.,NA,NA,"",       7.18040,      -7.16712,   436.362E-03,   13.8887E-03
C:/temp/dataset/8/2_24.odb,Step-1,Increment      1: Step Time =    1.000,"PART-1-1",           315,       10.1760,       14.6796,            0.,NA,NA,"",       6.80544,      -6.79054,   450.162E-03,   21.7144E-03
C:/temp/dataset/8/2_24.odb,Step-1,Increment      1: Step Time =    1.000,"PART-1-1",           316,       10.5274,  -400.724E-03,            0.,NA,NA,"",       3.94062,      -3.89920,   569.833E-03,   22.4322E-03
C:/temp/dataset/8/2_24.odb,Step-1,Increment      1: Step Time =    1.000,"PART-1-1",           317,      -9.77892,      -7.87927,            0.,NA,NA,"",       2.80149,      -2.68540,  -798.096E-03,   41.4516E-03
C:/temp/dataset/8/2_24.odb,Step-1,Increment      1: Step Time =    1.000,"PART-1-1",           318,      -10.1056,       26.5264,            0.,NA,NA,"",       8.07682,      -7.93667,      -1.49811,   10.7230E-03
C:/temp/dataset/8/2_24.odb,Step-1,Increment      1: Step Time =    1.000,"PART-1-1",           319,       8.72249,      -9.20974,            0.,NA,NA,"",       2.44714,      -2.43101,   280.437E-03,   37.7885E-03
C:/temp/dataset/8/2_24.odb,Step-1,Increment      1: Step Time =    1.000,"PART-1-1",           320,       10.2890,      -26.3639,            0.,NA,NA,"",   157.156E-03,  -109.118E-03,   113.099E-03,   40.9288E-03
C:/temp/dataset/8/2_24.odb,Step-1,Increment      1: Step Time =    1.000,"PART-1-1",           321,      -10.7934,   627.825E-03,            0.,NA,NA,"",       4.08549,      -3.92278,      -1.14150,   23.2256E-03
C:/temp/dataset/8/2_24.odb,Step-1,Increment      1: Step Time =    1.000,"PART-1-1",           322,       9.12166,      -10.6535,            0.,NA,NA,"",       2.18554,      -2.16041,   330.508E-03,   38.0344E-03
C:/temp/dataset/8/2_24.odb,Step-1,Increment      1: Step Time =    1.000,"PART-1-1",           323,       10.0480,      -15.0307,            0.,NA,NA,"",       1.42869,      -1.36457,   423.223E-03,   41.7278E-03
C:/temp/dataset/8/2_24.odb,Step-1,Increment      1: Step Time =    1.000,"PART-1-1",           324,       9.34152,       9.36934,            0.,NA,NA,"",       5.70284,      -5.69054,   374.451E-03,   42.4063E-03
C:/temp/dataset/8/2_24.odb,Step-1,Increment      1: Step Time =    1.000,"PART-1-1",           325,      -11.4891,      -22.3432,            0.,NA,NA,"",   480.299E-03,  -333.891E-03,  -345.259E-03,   52.0880E-03
C:/temp/dataset/8/2_24.odb,Step-1,Increment      1: Step Time =    1.000,"PART-1-1",           326,      -10.7249,      -25.4704,            0.,NA,NA,"",   199.011E-03,  -122.298E-03,  -156.999E-03,   42.4775E-03
C:/temp/dataset/8/2_24.odb,Step-1,Increment      1: Step Time =    1.000,"PART-1-1",           327,       9.08969,       25.6240,            0.,NA,NA,"",       7.98142,      -7.97415,   340.654E-03,   11.7429E-03
C:/temp/dataset/8/2_24.odb,Step-1,Increment      1: Step Time =    1.000,"PART-1-1",           328,       11.3751,      -22.3885,            0.,NA,NA,"",   517.692E-03,  -394.069E-03,   335.729E-03,   55.4678E-03
C:/temp/dataset/8/2_24.odb,Step-1,Increment      1: Step Time =    1.000,"PART-1-1",           329,       12.7027,      -9.12592,            0.,NA,NA,"",       2.67587,      -2.52918,   873.798E-03,   32.7467E-03
C:/temp/dataset/8/2_24.odb,Step-1,Increment      1: Step Time =    1.000,"PART-1-1",           330,       11.5594,      -8.21360,            0.,NA,NA,"",       2.76552,      -2.67398,   705.649E-03,   31.5754E-03
C:/temp/dataset/8/2_24.odb,Step-1,Increment      1: Step Time =    1.000,"PART-1-1",           331,       10.6187,      -9.60815,            0.,NA,NA,"",       2.45663,      -2.39262,   557.138E-03,   37.3701E-03
C:/temp/dataset/8/2_24.odb,Step-1,Increment      1: Step Time =    1.000,"PART-1-1",           332,       11.7621,      -10.5205,            0.,NA,NA,"",       2.35665,      -2.24454,   718.204E-03,   38.2663E-03
C:/temp/dataset/8/2_24.odb,Step-1,Increment      1: Step Time =    1.000,"PART-1-1",           333,       12.2940,      -6.48286,            0.,NA,NA,"",       3.10942,      -2.99827,   823.931E-03,   22.8942E-03
C:/temp/dataset/8/2_24.odb,Step-1,Increment      1: Step Time =    1.000,"PART-1-1",           334,       10.8251,      -5.81708,            0.,NA,NA,"",       3.14855,      -3.09043,   602.181E-03,   21.8689E-03
C:/temp/dataset/8/2_24.odb,Step-1,Increment      1: Step Time =    1.000,"PART-1-1",           335,       10.0905,      -7.54782,            0.,NA,NA,"",       2.81500,      -2.77194,   490.488E-03,   32.1599E-03
C:/temp/dataset/8/2_24.odb,Step-1,Increment      1: Step Time =    1.000,"PART-1-1",           336,       11.3010,      -15.1125,            0.,NA,NA,"",       1.49961,      -1.38177,   582.714E-03,   46.6630E-03
C:/temp/dataset/8/2_24.odb,Step-1,Increment      1: Step Time =    1.000,"PART-1-1",           337,       12.6399,      -13.9666,            0.,NA,NA,"",       1.80620,      -1.62435,   789.840E-03,   48.7582E-03
C:/temp/dataset/8/2_24.odb,Step-1,Increment      1: Step Time =    1.000,"PART-1-1",           338,       11.5610,      -12.7439,            0.,NA,NA,"",       1.93578,      -1.81958,   660.596E-03,   42.8376E-03
C:/temp/dataset/8/2_24.odb,Step-1,Increment      1: Step Time =    1.000,"PART-1-1",           339,       10.2221,      -13.8898,            0.,NA,NA,"",       1.64029,      -1.57450,   459.912E-03,   41.7612E-03
C:/temp/dataset/8/2_24.odb,Step-1,Increment      1: Step Time =    1.000,"PART-1-1",           340,       13.8630,      -12.6507,            0.,NA,NA,"",       2.15160,      -1.90298,       1.00401,   45.6060E-03
C:/temp/dataset/8/2_24.odb,Step-1,Increment      1: Step Time =    1.000,"PART-1-1",           341,       13.7769,      -15.1346,            0.,NA,NA,"",       1.71955,      -1.45472,   916.866E-03,   57.6740E-03
C:/temp/dataset/8/2_24.odb,Step-1,Increment      1: Step Time =    1.000,"PART-1-1",           342,           15.,      -13.8188,            0.,NA,NA,"",       2.08012,      -1.73118,       1.15320,   56.4390E-03
C:/temp/dataset/8/2_24.odb,Step-1,Increment      1: Step Time =    1.000,"PART-1-1",           343,       10.1228,      -29.0148,            0.,NA,NA,"",   29.9919E-03,  -13.3619E-03,   26.8509E-03,   33.9339E-03
C:/temp/dataset/8/2_24.odb,Step-1,Increment      1: Step Time =    1.000,"PART-1-1",           344,         11.25,          -30.,            0.,NA,NA,"",            0.,  -5.45914E-39,   83.4583E-39,   42.5314E-03
C:/temp/dataset/8/2_24.odb,Step-1,Increment      1: Step Time =    1.000,"PART-1-1",           345,       12.5273,      -28.8600,            0.,NA,NA,"",   64.6926E-03,  -34.4570E-03,   54.7526E-03,   61.1751E-03
C:/temp/dataset/8/2_24.odb,Step-1,Increment      1: Step Time =    1.000,"PART-1-1",           346,       11.4001,      -27.8749,            0.,NA,NA,"",   103.216E-03,  -60.5729E-03,   83.5731E-03,   53.7246E-03
C:/temp/dataset/8/2_24.odb,Step-1,Increment      1: Step Time =    1.000,"PART-1-1",           347,  -13.0938E-03,      -28.7451,            0.,NA,NA,"",   42.1791E-03,  -42.1764E-03,  -479.375E-06,   23.5520E-03
C:/temp/dataset/8/2_24.odb,Step-1,Increment      1: Step Time =    1.000,"PART-1-1",           348,          1.25,          -30.,            0.,NA,NA,"",            0.,  -20.2999E-39,  -1.90239E-39,   19.6267E-03
C:/temp/dataset/8/2_24.odb,Step-1,Increment      1: Step Time =    1.000,"PART-1-1",           349,       2.65125,      -28.4867,            0.,NA,NA,"",   45.4252E-03,  -45.2524E-03,  -3.95878E-03,   22.1026E-03
C:/temp/dataset/8/2_24.odb,Step-1,Increment      1: Step Time =    1.000,"PART-1-1",           350,       1.38815,      -27.2319,            0.,NA,NA,"",   93.9528E-03,  -93.7038E-03,  -6.83643E-03,   26.1757E-03
C:/temp/dataset/8/2_24.odb,Step-1,Increment      1: Step Time =    1.000,"PART-1-1",           351,      -13.5950,      -27.3152,            0.,NA,NA,"",   202.967E-03,  -104.258E-03,  -174.143E-03,   77.6750E-03
C:/temp/dataset/8/2_24.odb,Step-1,Increment      1: Step Time =    1.000,"PART-1-1",           352,      -12.5712,      -25.8759,            0.,NA,NA,"",   263.529E-03,  -139.996E-03,  -223.268E-03,   65.0187E-03
C:/temp/dataset/8/2_24.odb,Step-1,Increment      1: Step Time =    1.000,"PART-1-1",           353,      -13.9762,      -24.8107,            0.,NA,NA,"",   445.568E-03,  -239.222E-03,  -375.903E-03,   80.3012E-03
C:/temp/dataset/8/2_24.odb,Step-1,Increment      1: Step Time =    1.000,"PART-1-1",           354,          -15.,        -26.25,            0.,NA,NA,"",   385.485E-03,  -207.625E-03,  -324.793E-03,   91.2732E-03
C:/temp/dataset/8/2_24.odb,Step-1,Increment      1: Step Time =    1.000,"PART-1-1",           355,      -13.7576,      -15.0494,            0.,NA,NA,"",       1.70235,      -1.33034,      -1.06216,   57.0937E-03
C:/temp/dataset/8/2_24.odb,Step-1,Increment      1: Step Time =    1.000,"PART-1-1",           356,          -15.,        -16.25,            0.,NA,NA,"",       1.65261,      -1.15482,      -1.18216,   73.5583E-03
C:/temp/dataset/8/2_24.odb,Step-1,Increment      1: Step Time =    1.000,"PART-1-1",           357,      -13.7759,      -17.5617,            0.,NA,NA,"",       1.29026,  -931.552E-03,  -892.742E-03,   69.0091E-03
C:/temp/dataset/8/2_24.odb,Step-1,Increment      1: Step Time =    1.000,"PART-1-1",           358,      -12.5335,      -16.3611,            0.,NA,NA,"",       1.35377,      -1.09336,  -798.280E-03,   55.8508E-03
C:/temp/dataset/8/2_24.odb,Step-1,Increment      1: Step Time =    1.000,"PART-1-1",           359,      -13.7966,       15.0030,            0.,NA,NA,"",       6.47224,      -6.16885,      -1.95837,   7.38689E-03
C:/temp/dataset/8/2_24.odb,Step-1,Increment      1: Step Time =    1.000,"PART-1-1",           360,          -15.,         13.75,            0.,NA,NA,"",       6.30448,      -5.92851,      -2.14460,   2.13398E-03
C:/temp/dataset/8/2_24.odb,Step-1,Increment      1: Step Time =    1.000,"PART-1-1",           361,      -13.7864,       12.5210,            0.,NA,NA,"",       6.03555,      -5.72529,      -1.91023,   10.3468E-03
C:/temp/dataset/8/2_24.odb,Step-1,Increment      1: Step Time =    1.000,"PART-1-1",           362,      -12.5830,       13.7740,            0.,NA,NA,"",       6.21248,      -5.96419,      -1.73876,   14.4838E-03
C:/temp/dataset/8/2_24.odb,Step-1,Increment      1: Step Time =    1.000,"PART-1-1",           363,         -1.25,           -5.,            0.,NA,NA,"",       3.49729,      -3.48142,  -332.829E-03,   11.7534E-03
C:/temp/dataset/8/2_24.odb,Step-1,Increment      1: Step Time =    1.000,"PART-1-1",           364,  -12.3337E-03,      -3.76193,            0.,NA,NA,"",       3.54016,      -3.52668,  -308.626E-03,   22.3731E-03
C:/temp/dataset/8/2_24.odb,Step-1,Increment      1: Step Time =    1.000,"PART-1-1",           365,      -1.32647,      -2.50471,            0.,NA,NA,"",       3.62102,      -3.60656,  -323.207E-03,   51.2371E-03
C:/temp/dataset/8/2_24.odb,Step-1,Increment      1: Step Time =    1.000,"PART-1-1",           366,      -2.56414,      -3.74278,            0.,NA,NA,"",       3.51488,      -3.49936,  -329.903E-03,   39.3365E-03
C:/temp/dataset/8/2_24.odb,Step-1,Increment      1: Step Time =    1.000,"PART-1-1",           367,       1.21724,      -2.54641,            0.,NA,NA,"",       3.61342,      -3.60145,  -293.835E-03,   46.9798E-03
C:/temp/dataset/8/2_24.odb,Step-1,Increment      1: Step Time =    1.000,"PART-1-1",           368,          1.25,           -5.,            0.,NA,NA,"",       3.47193,      -3.46149,  -269.032E-03,   25.6071E-03
C:/temp/dataset/8/2_24.odb,Step-1,Increment      1: Step Time =    1.000,"PART-1-1",           369,       2.47957,      -3.78448,            0.,NA,NA,"",       3.49051,      -3.48096,  -257.984E-03,   37.6324E-03
C:/temp/dataset/8/2_24.odb,Step-1,Increment      1: Step Time =    1.000,"PART-1-1",           370,      -2.43429,       1.26667,            0.,NA,NA,"",       3.99934,      -3.98349,  -355.692E-03,   53.1065E-03
C:/temp/dataset/8/2_24.odb,Step-1,Increment      1: Step Time =    1.000,"PART-1-1",           371,      -1.22349,  -12.1802E-03,            0.,NA,NA,"",       3.86350,      -3.84925,  -331.498E-03,   62.3160E-03
C:/temp/dataset/8/2_24.odb,Step-1,Increment      1: Step Time =    1.000,"PART-1-1",           372,   38.4689E-03,       1.22772,            0.,NA,NA,"",       3.99402,      -3.98114,  -320.486E-03,   59.6465E-03
C:/temp/dataset/8/2_24.odb,Step-1,Increment      1: Step Time =    1.000,"PART-1-1",           373,      -1.17233,       2.50657,            0.,NA,NA,"",       4.11545,      -4.10164,  -336.843E-03,   49.7357E-03
C:/temp/dataset/8/2_24.odb,Step-1,Increment      1: Step Time =    1.000,"PART-1-1",           374,       4.79096,      -1.43433,            0.,NA,NA,"",       3.69931,      -3.69594,  -157.889E-03,   31.9371E-03
C:/temp/dataset/8/2_24.odb,Step-1,Increment      1: Step Time =    1.000,"PART-1-1",           375,       3.64969,  -148.662E-03,            0.,NA,NA,"",       3.84925,      -3.84248,  -228.195E-03,   42.9204E-03
C:/temp/dataset/8/2_24.odb,Step-1,Increment      1: Step Time =    1.000,"PART-1-1",           376,       2.48320,      -1.31285,            0.,NA,NA,"",       3.72132,      -3.71144,  -271.005E-03,   52.5385E-03
C:/temp/dataset/8/2_24.odb,Step-1,Increment      1: Step Time =    1.000,"PART-1-1",           377,       3.62447,      -2.59851,            0.,NA,NA,"",       3.57229,      -3.56473,  -232.271E-03,   42.6719E-03
C:/temp/dataset/8/2_24.odb,Step-1,Increment      1: Step Time =    1.000,"PART-1-1",           378,       11.9226,      -2.21680,            0.,NA,NA,"",       3.74877,      -3.66694,   779.000E-03,   20.0101E-03
C:/temp/dataset/8/2_24.odb,Step-1,Increment      1: Step Time =    1.000,"PART-1-1",           379,       10.4874,      -2.72902,            0.,NA,NA,"",       3.61295,      -3.57036,   553.130E-03,   17.6537E-03
C:/temp/dataset/8/2_24.odb,Step-1,Increment      1: Step Time =    1.000,"PART-1-1",           380,       10.9276,      -4.23857,            0.,NA,NA,"",       3.40567,      -3.34899,   618.751E-03,   16.1432E-03
C:/temp/dataset/8/2_24.odb,Step-1,Increment      1: Step Time =    1.000,"PART-1-1",           381,       12.3627,      -3.72635,            0.,NA,NA,"",       3.55050,      -3.44931,   841.602E-03,   18.1993E-03
C:/temp/dataset/8/2_24.odb,Step-1,Increment      1: Step Time =    1.000,"PART-1-1",           382,       13.8122,   56.1618E-03,            0.,NA,NA,"",       4.18527,      -4.03956,       1.09473,   26.3989E-03
C:/temp/dataset/8/2_24.odb,Step-1,Increment      1: Step Time =    1.000,"PART-1-1",           383,           15.,       1.23750,            0.,NA,NA,"",       4.44349,      -4.25067,       1.29476,   32.7924E-03
C:/temp/dataset/8/2_24.odb,Step-1,Increment      1: Step Time =    1.000,"PART-1-1",           384,       13.5130,       2.69080,            0.,NA,NA,"",       4.57538,      -4.44611,       1.07990,   30.5566E-03
C:/temp/dataset/8/2_24.odb,Step-1,Increment      1: Step Time =    1.000,"PART-1-1",           385,       12.3252,       1.50947,            0.,NA,NA,"",       4.31240,      -4.22311,   873.041E-03,   25.1046E-03
C:/temp/dataset/8/2_24.odb,Step-1,Increment      1: Step Time =    1.000,"PART-1-1",           386,       10.2711,       8.91868,            0.,NA,NA,"",       5.63441,      -5.60946,   529.615E-03,   42.5009E-03
C:/temp/dataset/8/2_24.odb,Step-1,Increment      1: Step Time =    1.000,"PART-1-1",           387,       9.14142,       8.35444,            0.,NA,NA,"",       5.46917,      -5.45737,   358.992E-03,   45.7230E-03
C:/temp/dataset/8/2_24.odb,Step-1,Increment      1: Step Time =    1.000,"PART-1-1",           388,       9.84573,       6.91985,            0.,NA,NA,"",       5.17454,      -5.15129,   489.964E-03,   42.1808E-03
C:/temp/dataset/8/2_24.odb,Step-1,Increment      1: Step Time =    1.000,"PART-1-1",           389,       10.9754,       7.48409,            0.,NA,NA,"",       5.34589,      -5.30461,   663.077E-03,   39.1448E-03
C:/temp/dataset/8/2_24.odb,Step-1,Increment      1: Step Time =    1.000,"PART-1-1",           390,       13.8339,       14.8863,            0.,NA,NA,"",       6.98307,      -6.91182,   994.993E-03,   26.3136E-03
C:/temp/dataset/8/2_24.odb,Step-1,Increment      1: Step Time =    1.000,"PART-1-1",           391,       12.7782,       13.6219,            0.,NA,NA,"",       6.72196,      -6.66715,   856.611E-03,   23.6671E-03
C:/temp/dataset/8/2_24.odb,Step-1,Increment      1: Step Time =    1.000,"PART-1-1",           392,       13.9443,       12.4043,            0.,NA,NA,"",       6.55517,      -6.46526,       1.08194,   24.0385E-03
C:/temp/dataset/8/2_24.odb,Step-1,Increment      1: Step Time =    1.000,"PART-1-1",           393,           15.,       13.6688,            0.,NA,NA,"",       6.83955,      -6.72790,       1.23077,   32.4189E-03
C:/temp/dataset/8/2_24.odb,Step-1,Increment      1: Step Time =    1.000,"PART-1-1",           394,       6.42614,       20.0555,            0.,NA,NA,"",       7.44827,      -7.44827,   11.0247E-03,   32.2636E-03
C:/temp/dataset/8/2_24.odb,Step-1,Increment      1: Step Time =    1.000,"PART-1-1",           395,       7.39225,       21.3428,            0.,NA,NA,"",       7.58393,      -7.58272,   135.406E-03,   25.7276E-03
C:/temp/dataset/8/2_24.odb,Step-1,Increment      1: Step Time =    1.000,"PART-1-1",           396,       5.86323,       22.5571,            0.,NA,NA,"",       7.65740,      -7.65738,   15.3496E-03,   25.2184E-03
C:/temp/dataset/8/2_24.odb,Step-1,Increment      1: Step Time =    1.000,"PART-1-1",           397,       4.89712,       21.2698,            0.,NA,NA,"",       7.52314,      -7.52268,  -83.6366E-03,   31.5935E-03
C:/temp/dataset/8/2_24.odb,Step-1,Increment      1: Step Time =    1.000,"PART-1-1",           398,       13.8410,       27.5667,            0.,NA,NA,"",       8.21084,      -8.17259,   791.659E-03,   2.38302E-03
C:/temp/dataset/8/2_24.odb,Step-1,Increment      1: Step Time =    1.000,"PART-1-1",           399,       12.7330,       26.4648,            0.,NA,NA,"",       8.10241,      -8.07260,   694.313E-03,   6.79028E-03
C:/temp/dataset/8/2_24.odb,Step-1,Increment      1: Step Time =    1.000,"PART-1-1",           400,       13.8920,       25.1294,            0.,NA,NA,"",       8.00425,      -7.96294,   812.238E-03,   6.44062E-03
C:/temp/dataset/8/2_24.odb,Step-1,Increment      1: Step Time =    1.000,"PART-1-1",           401,           15.,       26.2313,            0.,NA,NA,"",       8.11018,      -8.05973,   903.159E-03,   3.25677E-03
C:/temp/dataset/8/2_24.odb,Step-1,Increment      1: Step Time =    1.000,"PART-1-1",           402,       1.26001,       27.5457,            0.,NA,NA,"",       8.07533,      -8.06937,  -310.087E-03,   11.3286E-03
C:/temp/dataset/8/2_24.odb,Step-1,Increment      1: Step Time =    1.000,"PART-1-1",           403,   121.340E-03,       26.2982,            0.,NA,NA,"",       7.95326,      -7.94353,  -393.222E-03,   13.9218E-03
C:/temp/dataset/8/2_24.odb,Step-1,Increment      1: Step Time =    1.000,"PART-1-1",           404,       1.36459,       25.1000,            0.,NA,NA,"",       7.83948,      -7.83387,  -296.317E-03,   16.9887E-03
C:/temp/dataset/8/2_24.odb,Step-1,Increment      1: Step Time =    1.000,"PART-1-1",           405,       2.50327,       26.3475,            0.,NA,NA,"",       7.96620,      -7.96334,  -213.443E-03,   14.1335E-03
C:/temp/dataset/8/2_24.odb,Step-1,Increment      1: Step Time =    1.000,"PART-1-1",           406,   134.275E-03,       23.8369,            0.,NA,NA,"",       7.70903,      -7.69942,  -384.803E-03,   17.6561E-03
C:/temp/dataset/8/2_24.odb,Step-1,Increment      1: Step Time =    1.000,"PART-1-1",           407,       1.25833,       22.5836,            0.,NA,NA,"",       7.60038,      -7.59426,  -304.936E-03,   17.4111E-03
C:/temp/dataset/8/2_24.odb,Step-1,Increment      1: Step Time =    1.000,"PART-1-1",           408,       2.48865,       23.8467,            0.,NA,NA,"",       7.72762,      -7.72458,  -216.796E-03,   17.9455E-03
C:/temp/dataset/8/2_24.odb,Step-1,Increment      1: Step Time =    1.000,"PART-1-1",           409,      -5.93101,       26.7355,            0.,NA,NA,"",       8.03649,      -7.97832,  -965.174E-03,   7.69819E-03
C:/temp/dataset/8/2_24.odb,Step-1,Increment      1: Step Time =    1.000,"PART-1-1",           410,      -5.38229,       25.2750,            0.,NA,NA,"",       7.86582,      -7.81587,  -885.020E-03,   7.05384E-03
C:/temp/dataset/8/2_24.odb,Step-1,Increment      1: Step Time =    1.000,"PART-1-1",           411,      -3.59290,       25.9597,            0.,NA,NA,"",       7.92759,      -7.89592,  -707.980E-03,   10.1929E-03
C:/temp/dataset/8/2_24.odb,Step-1,Increment      1: Step Time =    1.000,"PART-1-1",           412,      -4.14162,       27.4201,            0.,NA,NA,"",       8.09036,      -8.05284,  -778.228E-03,   8.13463E-03
C:/temp/dataset/8/2_24.odb,Step-1,Increment      1: Step Time =    1.000,"PART-1-1",           413,      -13.7895,       17.4912,            0.,NA,NA,"",       6.89394,      -6.60205,      -1.98476,   9.97153E-03
C:/temp/dataset/8/2_24.odb,Step-1,Increment      1: Step Time =    1.000,"PART-1-1",           414,      -12.5357,       18.7235,            0.,NA,NA,"",       7.06063,      -6.82733,      -1.80001,   8.94846E-03
C:/temp/dataset/8/2_24.odb,Step-1,Increment      1: Step Time =    1.000,"PART-1-1",           415,      -13.7462,       19.9824,            0.,NA,NA,"",       7.28405,      -7.00737,      -1.98849,   12.5306E-03
C:/temp/dataset/8/2_24.odb,Step-1,Increment      1: Step Time =    1.000,"PART-1-1",           416,          -15.,         18.75,            0.,NA,NA,"",       7.13056,      -6.78870,      -2.18141,   15.4210E-03
C:/temp/dataset/8/2_24.odb,Step-1,Increment      1: Step Time =    1.000,"PART-1-1",           417,      -7.55055,       18.6209,            0.,NA,NA,"",       6.97438,      -6.89258,      -1.06510,   20.6319E-03
C:/temp/dataset/8/2_24.odb,Step-1,Increment      1: Step Time =    1.000,"PART-1-1",           418,      -6.28038,       17.4701,            0.,NA,NA,"",       6.75030,      -6.69827,  -836.445E-03,   21.2522E-03
C:/temp/dataset/8/2_24.odb,Step-1,Increment      1: Step Time =    1.000,"PART-1-1",           419,           -5.,         18.75,            0.,NA,NA,"",       6.96762,      -6.93538,  -669.519E-03,   42.1065E-03
C:/temp/dataset/8/2_24.odb,Step-1,Increment      1: Step Time =    1.000,"PART-1-1",           420,      -6.27018,       19.9008,            0.,NA,NA,"",       7.19906,      -7.14132,  -909.904E-03,   35.9516E-03
C:/temp/dataset/8/2_24.odb,Step-1,Increment      1: Step Time =    1.000,"PART-1-1",           421,            5.,         18.75,            0.,NA,NA,"",       7.26941,      -7.26735,  -173.046E-03,   59.6114E-03
C:/temp/dataset/8/2_24.odb,Step-1,Increment      1: Step Time =    1.000,"PART-1-1",           422,       6.30600,       17.4335,            0.,NA,NA,"",       7.12719,      -7.12691,  -63.2480E-03,   41.2112E-03
C:/temp/dataset/8/2_24.odb,Step-1,Increment      1: Step Time =    1.000,"PART-1-1",           423,       7.73213,       18.7390,            0.,NA,NA,"",       7.32703,      -7.32573,   138.463E-03,   20.8396E-03
C:/temp/dataset/8/2_24.odb,Step-1,Increment      1: Step Time =    1.000,"PART-1-1",           424,         -6.25,          -30.,            0.,NA,NA,"",            0.,  -4.17230E-39,  -15.9174E-39,   9.25292E-03
C:/temp/dataset/8/2_24.odb,Step-1,Increment      1: Step Time =    1.000,"PART-1-1",           425,      -4.93560,      -28.8558,            0.,NA,NA,"",   20.8501E-03,  -20.8474E-03,  -329.822E-06,   13.9424E-03
C:/temp/dataset/8/2_24.odb,Step-1,Increment      1: Step Time =    1.000,"PART-1-1",           426,      -6.05680,      -27.7304,            0.,NA,NA,"",   40.2464E-03,  -40.0748E-03,  -3.71202E-03,   15.8430E-03
C:/temp/dataset/8/2_24.odb,Step-1,Increment      1: Step Time =    1.000,"PART-1-1",           427,      -7.37120,      -28.8746,            0.,NA,NA,"",   12.7561E-03,  -8.13261E-03,  -9.82741E-03,   12.9543E-03
C:/temp/dataset/8/2_24.odb,Step-1,Increment      1: Step Time =    1.000,"PART-1-1",           428,       8.60466,       1.06565,            0.,NA,NA,"",       4.07012,      -4.06006,   285.981E-03,   20.4909E-03
C:/temp/dataset/8/2_24.odb,Step-1,Increment      1: Step Time =    1.000,"PART-1-1",           429,       8.83240,       2.57689,            0.,NA,NA,"",       4.29907,      -4.28639,   329.951E-03,   28.8425E-03
C:/temp/dataset/8/2_24.odb,Step-1,Increment      1: Step Time =    1.000,"PART-1-1",           430,       6.85789,       2.90810,            0.,NA,NA,"",       4.26655,      -4.26632,   44.4342E-03,   23.7593E-03
C:/temp/dataset/8/2_24.odb,Step-1,Increment      1: Step Time =    1.000,"PART-1-1",           431,       6.63016,       1.39685,            0.,NA,NA,"",       4.05974,      -4.05969,   19.6056E-03,   12.8420E-03
C:/temp/dataset/8/2_24.odb,Step-1,Increment      1: Step Time =    1.000,"PART-1-1",           432,       5.99259,      -9.88635,            0.,NA,NA,"",       2.23848,      -2.23300,  -156.649E-03,   29.3659E-03
C:/temp/dataset/8/2_24.odb,Step-1,Increment      1: Step Time =    1.000,"PART-1-1",           433,            5.,        -11.25,            0.,NA,NA,"",       1.98057,      -1.95224,  -333.798E-03,   18.3350E-03
C:/temp/dataset/8/2_24.odb,Step-1,Increment      1: Step Time =    1.000,"PART-1-1",           434,       6.38932,      -12.3587,            0.,NA,NA,"",       1.78079,      -1.77826,  -94.8562E-03,   20.2796E-03
C:/temp/dataset/8/2_24.odb,Step-1,Increment      1: Step Time =    1.000,"PART-1-1",           435,       7.38191,      -10.9950,            0.,NA,NA,"",       2.05735,      -2.05629,   65.8064E-03,   32.1278E-03
C:/temp/dataset/8/2_24.odb,Step-1,Increment      1: Step Time =    1.000,"PART-1-1",           436,       13.8031,      -7.70967,            0.,NA,NA,"",       3.00460,      -2.81277,       1.05639,   22.6532E-03
C:/temp/dataset/8/2_24.odb,Step-1,Increment      1: Step Time =    1.000,"PART-1-1",           437,       13.8997,      -10.2100,            0.,NA,NA,"",       2.58216,      -2.35776,       1.05287,   33.4553E-03
C:/temp/dataset/8/2_24.odb,Step-1,Increment      1: Step Time =    1.000,"PART-1-1",           438,           15.,      -8.79375,            0.,NA,NA,"",       2.92817,      -2.64712,       1.25177,   24.9517E-03
C:/temp/dataset/8/2_24.odb,Step-1,Increment      1: Step Time =    1.000,"PART-1-1",           439,       12.4250,      -16.5409,            0.,NA,NA,"",       1.35872,      -1.17263,   686.330E-03,   55.3332E-03
C:/temp/dataset/8/2_24.odb,Step-1,Increment      1: Step Time =    1.000,"PART-1-1",           440,       13.6481,      -17.7375,            0.,NA,NA,"",       1.29537,      -1.02856,   787.439E-03,   68.3321E-03
C:/temp/dataset/8/2_24.odb,Step-1,Increment      1: Step Time =    1.000,"PART-1-1",           441,           15.,      -16.3312,            0.,NA,NA,"",       1.66710,      -1.30173,       1.04150,   72.3969E-03
C:/temp/dataset/8/2_24.odb,Step-1,Increment      1: Step Time =    1.000,"PART-1-1",           442,       12.6431,      -19.1391,            0.,NA,NA,"",   997.872E-03,  -793.920E-03,   604.516E-03,   62.8934E-03
C:/temp/dataset/8/2_24.odb,Step-1,Increment      1: Step Time =    1.000,"PART-1-1",           443,       13.9950,      -20.2453,            0.,NA,NA,"",   982.765E-03,  -705.820E-03,   683.846E-03,   78.7976E-03
C:/temp/dataset/8/2_24.odb,Step-1,Increment      1: Step Time =    1.000,"PART-1-1",           444,           15.,      -18.8438,            0.,NA,NA,"",       1.28310,  -926.000E-03,   888.180E-03,   84.8495E-03
C:/temp/dataset/8/2_24.odb,Step-1,Increment      1: Step Time =    1.000,"PART-1-1",           445,      -5.98837,      -22.7771,            0.,NA,NA,"",   255.552E-03,  -254.477E-03,   23.4168E-03,   19.0591E-03
C:/temp/dataset/8/2_24.odb,Step-1,Increment      1: Step Time =    1.000,"PART-1-1",           446,      -7.09286,      -24.1492,            0.,NA,NA,"",   174.286E-03,  -172.716E-03,  -23.3350E-03,   8.81228E-03
C:/temp/dataset/8/2_24.odb,Step-1,Increment      1: Step Time =    1.000,"PART-1-1",           447,      -5.93941,      -25.3506,            0.,NA,NA,"",   125.749E-03,  -125.628E-03,   5.52354E-03,   18.7191E-03
C:/temp/dataset/8/2_24.odb,Step-1,Increment      1: Step Time =    1.000,"PART-1-1",           448,      -4.83491,      -23.9785,            0.,NA,NA,"",   201.181E-03,  -198.197E-03,   34.5211E-03,   28.6332E-03
C:/temp/dataset/8/2_24.odb,Step-1,Increment      1: Step Time =    1.000,"PART-1-1",           449,      -9.79906,      -28.8416,            0.,NA,NA,"",   28.1596E-03,  -4.53008E-03,  -27.7928E-03,   29.2610E-03
C:/temp/dataset/8/2_24.odb,Step-1,Increment      1: Step Time =    1.000,"PART-1-1",           450,      -10.8940,      -27.4068,            0.,NA,NA,"",   98.6558E-03,  -45.2277E-03,  -87.6780E-03,   45.2439E-03
C:/temp/dataset/8/2_24.odb,Step-1,Increment      1: Step Time =    1.000,"PART-1-1",           451,      -12.3450,      -28.5652,            0.,NA,NA,"",   69.4270E-03,  -25.9369E-03,  -64.4002E-03,   56.4836E-03
C:/temp/dataset/8/2_24.odb,Step-1,Increment      1: Step Time =    1.000,"PART-1-1",           452,        -11.25,          -30.,            0.,NA,NA,"",            0.,   250.024E-42,  -81.8404E-39,   41.2189E-03
C:/temp/dataset/8/2_24.odb,Step-1,Increment      1: Step Time =    1.000,"PART-1-1",           453,      -13.5399,       7.35912,            0.,NA,NA,"",       5.13905,      -4.84025,      -1.72681,   21.6314E-03
C:/temp/dataset/8/2_24.odb,Step-1,Increment      1: Step Time =    1.000,"PART-1-1",           454,          -15.,          6.25,            0.,NA,NA,"",       5.04583,      -4.66731,      -1.91746,   28.3110E-03
C:/temp/dataset/8/2_24.odb,Step-1,Increment      1: Step Time =    1.000,"PART-1-1",           455,      -13.9199,       4.81312,            0.,NA,NA,"",       4.77155,      -4.45692,      -1.70399,   24.7869E-03
C:/temp/dataset/8/2_24.odb,Step-1,Increment      1: Step Time =    1.000,"PART-1-1",           456,      -12.4598,       5.92224,            0.,NA,NA,"",       4.86232,      -4.61888,      -1.51924,   18.4330E-03
C:/temp/dataset/8/2_24.odb,Step-1,Increment      1: Step Time =    1.000,"PART-1-1",           457,      -14.0702,       2.40608,            0.,NA,NA,"",       4.45421,      -4.13550,      -1.65457,   21.7714E-03
C:/temp/dataset/8/2_24.odb,Step-1,Increment      1: Step Time =    1.000,"PART-1-1",           458,          -15.,          1.25,            0.,NA,NA,"",       4.35659,      -3.98967,      -1.74998,   17.8772E-03
C:/temp/dataset/8/2_24.odb,Step-1,Increment      1: Step Time =    1.000,"PART-1-1",           459,      -13.9245,  -19.3588E-03,            0.,NA,NA,"",       4.14631,      -3.83382,      -1.57913,   14.8127E-03
C:/temp/dataset/8/2_24.odb,Step-1,Increment      1: Step Time =    1.000,"PART-1-1",           460,      -12.9947,       1.13672,            0.,NA,NA,"",       4.24235,      -3.97888,      -1.47176,   20.0810E-03
C:/temp/dataset/8/2_24.odb,Step-1,Increment      1: Step Time =    1.000,"PART-1-1",           461,      -13.6376,      -2.69932,            0.,NA,NA,"",       3.79617,      -3.48990,      -1.49382,   7.29088E-03
C:/temp/dataset/8/2_24.odb,Step-1,Increment      1: Step Time =    1.000,"PART-1-1",           462,          -15.,         -3.75,            0.,NA,NA,"",       3.72683,      -3.32683,      -1.67972,   2.29497E-03
C:/temp/dataset/8/2_24.odb,Step-1,Increment      1: Step Time =    1.000,"PART-1-1",           463,      -14.1618,      -5.01381,            0.,NA,NA,"",       3.50058,      -3.14446,      -1.53831,   2.83004E-03
C:/temp/dataset/8/2_24.odb,Step-1,Increment      1: Step Time =    1.000,"PART-1-1",           464,      -12.7995,      -3.96314,            0.,NA,NA,"",       3.58231,      -3.31877,      -1.34859,   9.46235E-03
C:/temp/dataset/8/2_24.odb,Step-1,Increment      1: Step Time =    1.000,"PART-1-1",           465,          -15.,         -8.75,            0.,NA,NA,"",       2.96003,      -2.48841,      -1.60300,   14.7424E-03
C:/temp/dataset/8/2_24.odb,Step-1,Increment      1: Step Time =    1.000,"PART-1-1",           466,      -13.7348,      -9.99734,            0.,NA,NA,"",       2.62630,      -2.26413,      -1.33085,   29.0527E-03
C:/temp/dataset/8/2_24.odb,Step-1,Increment      1: Step Time =    1.000,"PART-1-1",           467,      -12.3830,      -8.57451,            0.,NA,NA,"",       2.79315,      -2.53908,      -1.16396,   31.8542E-03
C:/temp/dataset/8/2_24.odb,Step-1,Increment      1: Step Time =    1.000,"PART-1-1",           468,      -13.6482,      -7.32717,            0.,NA,NA,"",       3.09767,      -2.75943,      -1.40752,   15.3161E-03
C:/temp/dataset/8/2_24.odb,Step-1,Increment      1: Step Time =    1.000,"PART-1-1",           469,      -11.2232,      -10.0773,            0.,NA,NA,"",       2.43421,      -2.25187,  -924.372E-03,   41.8163E-03
C:/temp/dataset/8/2_24.odb,Step-1,Increment      1: Step Time =    1.000,"PART-1-1",           470,      -9.87788,      -9.01957,            0.,NA,NA,"",       2.57762,      -2.46078,  -767.236E-03,   44.1890E-03
C:/temp/dataset/8/2_24.odb,Step-1,Increment      1: Step Time =    1.000,"PART-1-1",           471,      -11.0377,      -7.51681,            0.,NA,NA,"",       2.91984,      -2.74464,  -996.199E-03,   32.3143E-03
C:/temp/dataset/8/2_24.odb,Step-1,Increment      1: Step Time =    1.000,"PART-1-1",           472,       1.26271,  -42.9986E-03,            0.,NA,NA,"",       3.86174,      -3.84999,  -301.007E-03,   61.3213E-03
C:/temp/dataset/8/2_24.odb,Step-1,Increment      1: Step Time =    1.000,"PART-1-1",           473,  -3.24210E-03,      -1.27656,            0.,NA,NA,"",       3.73542,      -3.72218,  -314.254E-03,   56.9594E-03
C:/temp/dataset/8/2_24.odb,Step-1,Increment      1: Step Time =    1.000,"PART-1-1",           474,       3.63434,       22.5567,            0.,NA,NA,"",       7.62056,      -7.61914,  -147.369E-03,   20.3178E-03
C:/temp/dataset/8/2_24.odb,Step-1,Increment      1: Step Time =    1.000,"PART-1-1",           475,       2.48722,       21.2868,            0.,NA,NA,"",       7.50116,      -7.49777,  -225.468E-03,   12.0996E-03
C:/temp/dataset/8/2_24.odb,Step-1,Increment      1: Step Time =    1.000,"PART-1-1",           476,          3.75,           20.,            0.,NA,NA,"",       7.41774,      -7.41624,  -149.283E-03,   16.6667E-03
C:/temp/dataset/8/2_24.odb,Step-1,Increment      1: Step Time =    1.000,"PART-1-1",           477,       13.0518,       11.2605,            0.,NA,NA,"",       6.27212,      -6.20010,   947.776E-03,   31.5947E-03
C:/temp/dataset/8/2_24.odb,Step-1,Increment      1: Step Time =    1.000,"PART-1-1",           478,       14.1075,       10.0124,            0.,NA,NA,"",       6.06556,      -5.95190,       1.16874,   23.9357E-03
C:/temp/dataset/8/2_24.odb,Step-1,Increment      1: Step Time =    1.000,"PART-1-1",           479,           15.,       11.1563,            0.,NA,NA,"",       6.38214,      -6.24323,       1.32431,   21.5940E-03
C:/temp/dataset/8/2_24.odb,Step-1,Increment      1: Step Time =    1.000,"PART-1-1",           480,       10.1417,       15.9039,            0.,NA,NA,"",       7.00377,      -6.98982,   441.779E-03,   16.3984E-03
C:/temp/dataset/8/2_24.odb,Step-1,Increment      1: Step Time =    1.000,"PART-1-1",           481,       11.4219,       14.7636,            0.,NA,NA,"",       6.86492,      -6.83569,   632.844E-03,   19.6950E-03
C:/temp/dataset/8/2_24.odb,Step-1,Increment      1: Step Time =    1.000,"PART-1-1",           482,       12.5880,       16.1115,            0.,NA,NA,"",       7.12031,      -7.07687,   785.284E-03,   18.3369E-03
C:/temp/dataset/8/2_24.odb,Step-1,Increment      1: Step Time =    1.000,"PART-1-1",           483,       11.3078,       17.2518,            0.,NA,NA,"",       7.23369,      -7.20890,   598.362E-03,   14.0944E-03
C:/temp/dataset/8/2_24.odb,Step-1,Increment      1: Step Time =    1.000,"PART-1-1",           484,       14.0683,       7.62638,            0.,NA,NA,"",       5.54349,      -5.41113,       1.20415,   20.7536E-03
C:/temp/dataset/8/2_24.odb,Step-1,Increment      1: Step Time =    1.000,"PART-1-1",           485,       12.9668,       6.67122,            0.,NA,NA,"",       5.27640,      -5.17951,       1.00650,   24.2918E-03
C:/temp/dataset/8/2_24.odb,Step-1,Increment      1: Step Time =    1.000,"PART-1-1",           486,       13.8986,       5.23234,            0.,NA,NA,"",       5.05335,      -4.91576,       1.17120,   30.1749E-03
C:/temp/dataset/8/2_24.odb,Step-1,Increment      1: Step Time =    1.000,"PART-1-1",           487,           15.,        6.1875,            0.,NA,NA,"",       5.32232,      -5.13959,       1.38265,   31.7677E-03
C:/temp/dataset/8/2_24.odb,Step-1,Increment      1: Step Time =    1.000,"PART-1-1",           488,       7.13496,       8.72104,            0.,NA,NA,"",       5.49778,      -5.49776,   15.9152E-03,   34.5080E-03
C:/temp/dataset/8/2_24.odb,Step-1,Increment      1: Step Time =    1.000,"PART-1-1",           489,       6.11605,       9.93638,            0.,NA,NA,"",       5.74993,      -5.74670,  -192.532E-03,   21.3584E-03
C:/temp/dataset/8/2_24.odb,Step-1,Increment      1: Step Time =    1.000,"PART-1-1",           490,            5.,          8.75,            0.,NA,NA,"",       5.47076,      -5.45541,  -409.488E-03,   10.8644E-03
C:/temp/dataset/8/2_24.odb,Step-1,Increment      1: Step Time =    1.000,"PART-1-1",           491,       6.01891,       7.53466,            0.,NA,NA,"",       5.20053,      -5.19811,  -158.549E-03,   19.2387E-03
C:/temp/dataset/8/2_24.odb,Step-1,Increment      1: Step Time =    1.000,"PART-1-1",           492,   29.3773E-03,       3.74235,            0.,NA,NA,"",       4.20959,      -4.19759,  -317.582E-03,   27.4574E-03
C:/temp/dataset/8/2_24.odb,Step-1,Increment      1: Step Time =    1.000,"PART-1-1",           493,         -1.25,            5.,            0.,NA,NA,"",       4.26859,      -4.25421,  -350.070E-03,   11.4889E-03
C:/temp/dataset/8/2_24.odb,Step-1,Increment      1: Step Time =    1.000,"PART-1-1",           494,      -2.45171,       3.76422,            0.,NA,NA,"",       4.23065,      -4.21458,  -368.411E-03,   30.9775E-03
C:/temp/dataset/8/2_24.odb,Step-1,Increment      1: Step Time =    1.000,"PART-1-1",           495,      -3.55010,       2.55765,            0.,NA,NA,"",       4.13963,      -4.12078,  -394.597E-03,   38.8121E-03
C:/temp/dataset/8/2_24.odb,Step-1,Increment      1: Step Time =    1.000,"PART-1-1",           496,         -3.75,            5.,            0.,NA,NA,"",       4.35223,      -4.33083,  -431.082E-03,   61.0886E-03
C:/temp/dataset/8/2_24.odb,Step-1,Increment      1: Step Time =    1.000,"PART-1-1",           497,      -4.84840,       3.79343,            0.,NA,NA,"",       4.28534,      -4.26053,  -460.425E-03,   44.8045E-03
C:/temp/dataset/8/2_24.odb,Step-1,Increment      1: Step Time =    1.000,"PART-1-1",           498,      -13.7264,       27.6066,            0.,NA,NA,"",       8.28489,      -8.04004,      -1.99927,   4.30552E-03
C:/temp/dataset/8/2_24.odb,Step-1,Increment      1: Step Time =    1.000,"PART-1-1",           499,          -15.,         26.25,            0.,NA,NA,"",       8.14600,      -7.85468,      -2.15898,   5.88989E-03
C:/temp/dataset/8/2_24.odb,Step-1,Increment      1: Step Time =    1.000,"PART-1-1",           500,      -13.4386,       25.0669,            0.,NA,NA,"",       7.96367,      -7.72138,      -1.94945,   8.70035E-03
C:/temp/dataset/8/2_24.odb,Step-1,Increment      1: Step Time =    1.000,"PART-1-1",           501,      -12.1650,       26.4235,            0.,NA,NA,"",       8.10443,      -7.90637,      -1.78076,   9.12756E-03
C:/temp/dataset/8/2_24.odb,Step-1,Increment      1: Step Time =    1.000,"PART-1-1",           502,      -3.53283,       23.8665,            0.,NA,NA,"",       7.69789,      -7.66788,  -679.095E-03,   16.4704E-03
C:/temp/dataset/8/2_24.odb,Step-1,Increment      1: Step Time =    1.000,"PART-1-1",           503,      -4.96963,       24.1916,            0.,NA,NA,"",       7.74060,      -7.69638,  -826.209E-03,   10.2707E-03
C:/temp/dataset/8/2_24.odb,Step-1,Increment      1: Step Time =    1.000,"PART-1-1",           504,      -5.34791,       22.7845,            0.,NA,NA,"",       7.57840,      -7.53093,  -846.897E-03,   13.9439E-03
C:/temp/dataset/8/2_24.odb,Step-1,Increment      1: Step Time =    1.000,"PART-1-1",           505,      -3.91112,       22.4594,            0.,NA,NA,"",       7.53802,      -7.50578,  -696.481E-03,   19.7473E-03
C:/temp/dataset/8/2_24.odb,Step-1,Increment      1: Step Time =    1.000,"PART-1-1",           506,      -12.3994,       21.2122,            0.,NA,NA,"",       7.43389,      -7.21441,      -1.79307,   7.34842E-03
C:/temp/dataset/8/2_24.odb,Step-1,Increment      1: Step Time =    1.000,"PART-1-1",           507,      -13.6532,       22.4798,            0.,NA,NA,"",       7.63531,      -7.37513,      -1.97621,   11.6584E-03
C:/temp/dataset/8/2_24.odb,Step-1,Increment      1: Step Time =    1.000,"PART-1-1",           508,          -15.,         21.25,            0.,NA,NA,"",       7.49771,      -7.17646,      -2.17119,   17.0229E-03
C:/temp/dataset/8/2_24.odb,Step-1,Increment      1: Step Time =    1.000,"PART-1-1",           509,      -8.82323,       17.4409,            0.,NA,NA,"",       6.77680,      -6.66460,      -1.22808,   20.0570E-03
C:/temp/dataset/8/2_24.odb,Step-1,Increment      1: Step Time =    1.000,"PART-1-1",           510,      -8.76994,       19.8173,            0.,NA,NA,"",       7.17712,      -7.06621,      -1.25690,   14.9962E-03
C:/temp/dataset/8/2_24.odb,Step-1,Increment      1: Step Time =    1.000,"PART-1-1",           511,      -10.0426,       18.6373,            0.,NA,NA,"",       6.99952,      -6.85251,      -1.42703,   13.3831E-03
C:/temp/dataset/8/2_24.odb,Step-1,Increment      1: Step Time =    1.000,"PART-1-1",           512,   21.1090E-03,       21.2968,            0.,NA,NA,"",       7.47510,      -7.46454,  -397.233E-03,   17.6482E-03
C:/temp/dataset/8/2_24.odb,Step-1,Increment      1: Step Time =    1.000,"PART-1-1",           513,          1.25,           20.,            0.,NA,NA,"",       7.39066,      -7.38404,  -312.695E-03,   16.1789E-03
C:/temp/dataset/8/2_24.odb,Step-1,Increment      1: Step Time =    1.000,"PART-1-1",           514,       13.8176,       22.6447,            0.,NA,NA,"",       7.79923,      -7.75476,   831.653E-03,   13.2143E-03
C:/temp/dataset/8/2_24.odb,Step-1,Increment      1: Step Time =    1.000,"PART-1-1",           515,       12.3404,       21.5086,            0.,NA,NA,"",       7.69126,      -7.65977,   695.192E-03,   20.0989E-03
C:/temp/dataset/8/2_24.odb,Step-1,Increment      1: Step Time =    1.000,"PART-1-1",           516,       13.5229,       20.0701,            0.,NA,NA,"",       7.59254,      -7.54514,   847.060E-03,   23.9073E-03
C:/temp/dataset/8/2_24.odb,Step-1,Increment      1: Step Time =    1.000,"PART-1-1",           517,           15.,       21.2062,            0.,NA,NA,"",       7.69169,      -7.63114,   963.211E-03,   19.4211E-03
C:/temp/dataset/8/2_24.odb,Step-1,Increment      1: Step Time =    1.000,"PART-1-1",           518,          6.25,           30.,            0.,NA,NA,"",       8.32497,      -8.32453,   85.6782E-03,   8.55953E-03
C:/temp/dataset/8/2_24.odb,Step-1,Increment      1: Step Time =    1.000,"PART-1-1",           519,       4.99916,       28.7599,            0.,NA,NA,"",       8.20374,      -8.20372,  -19.2745E-03,   7.96899E-03
C:/temp/dataset/8/2_24.odb,Step-1,Increment      1: Step Time =    1.000,"PART-1-1",           520,       6.36817,       27.3763,            0.,NA,NA,"",       8.09582,      -8.09526,   94.9698E-03,   7.53526E-03
C:/temp/dataset/8/2_24.odb,Step-1,Increment      1: Step Time =    1.000,"PART-1-1",           521,       7.61901,       28.6164,            0.,NA,NA,"",       8.22057,      -8.21799,   205.806E-03,   8.18726E-03
C:/temp/dataset/8/2_24.odb,Step-1,Increment      1: Step Time =    1.000,"PART-1-1",           522,       9.03329,       27.4617,            0.,NA,NA,"",       8.13810,      -8.13115,   336.382E-03,   7.72135E-03
C:/temp/dataset/8/2_24.odb,Step-1,Increment      1: Step Time =    1.000,"PART-1-1",           523,       10.1643,       28.8453,            0.,NA,NA,"",       8.27506,      -8.26327,   441.589E-03,   5.83031E-03
C:/temp/dataset/8/2_24.odb,Step-1,Increment      1: Step Time =    1.000,"PART-1-1",           524,          8.75,           30.,            0.,NA,NA,"",       8.36059,      -8.35491,   307.954E-03,   7.16166E-03
C:/temp/dataset/8/2_24.odb,Step-1,Increment      1: Step Time =    1.000,"PART-1-1",           525,   8.17364E-03,       28.7581,            0.,NA,NA,"",       8.19004,      -8.17952,  -414.905E-03,   7.73868E-03
C:/temp/dataset/8/2_24.odb,Step-1,Increment      1: Step Time =    1.000,"PART-1-1",           526,       2.50184,       28.7876,            0.,NA,NA,"",       8.19065,      -8.18776,  -217.810E-03,   6.28298E-03
C:/temp/dataset/8/2_24.odb,Step-1,Increment      1: Step Time =    1.000,"PART-1-1",           527,          1.25,           30.,            0.,NA,NA,"",       8.29232,      -8.28610,  -321.166E-03,   3.08190E-03
C:/temp/dataset/8/2_24.odb,Step-1,Increment      1: Step Time =    1.000,"PART-1-1",           528,      -5.24228,       28.8821,            0.,NA,NA,"",       8.26502,      -8.21448,  -912.616E-03,   14.1109E-03
C:/temp/dataset/8/2_24.odb,Step-1,Increment      1: Step Time =    1.000,"PART-1-1",           529,      -2.64934,       28.5381,            0.,NA,NA,"",       8.19027,      -8.16493,  -643.768E-03,   11.1634E-03
C:/temp/dataset/8/2_24.odb,Step-1,Increment      1: Step Time =    1.000,"PART-1-1",           530,         -3.75,           30.,            0.,NA,NA,"",       8.35416,      -8.31878,  -767.988E-03,   17.6817E-03
C:/temp/dataset/8/2_24.odb,Step-1,Increment      1: Step Time =    1.000,"PART-1-1",           531,      -7.66846,       29.0326,            0.,NA,NA,"",       8.33060,      -8.24324,      -1.20323,   13.0636E-03
C:/temp/dataset/8/2_24.odb,Step-1,Increment      1: Step Time =    1.000,"PART-1-1",           532,      -6.66074,       27.9147,            0.,NA,NA,"",       8.18089,      -8.11124,      -1.06525,   9.39500E-03
C:/temp/dataset/8/2_24.odb,Step-1,Increment      1: Step Time =    1.000,"PART-1-1",           533,         -6.25,           30.,            0.,NA,NA,"",       8.41253,      -8.34754,      -1.04360,   18.3291E-03
C:/temp/dataset/8/2_24.odb,Step-1,Increment      1: Step Time =    1.000,"PART-1-1",           534,      -8.85273,       25.1596,            0.,NA,NA,"",       7.89288,      -7.78244,      -1.31578,   10.0725E-03
C:/temp/dataset/8/2_24.odb,Step-1,Increment      1: Step Time =    1.000,"PART-1-1",           535,      -8.23876,       24.0389,            0.,NA,NA,"",       7.75060,      -7.65358,      -1.22251,   9.90828E-03
C:/temp/dataset/8/2_24.odb,Step-1,Increment      1: Step Time =    1.000,"PART-1-1",           536,      -6.78155,       24.7842,            0.,NA,NA,"",       7.82314,      -7.75331,      -1.04293,   8.22580E-03
C:/temp/dataset/8/2_24.odb,Step-1,Increment      1: Step Time =    1.000,"PART-1-1",           537,      -7.39551,       25.9049,            0.,NA,NA,"",       7.96065,      -7.87962,      -1.13292,   8.13321E-03
C:/temp/dataset/8/2_24.odb,Step-1,Increment      1: Step Time =    1.000,"PART-1-1",           538,      -12.4764,       28.8566,            0.,NA,NA,"",       8.41379,      -8.20982,      -1.84139,   4.25388E-03
C:/temp/dataset/8/2_24.odb,Step-1,Increment      1: Step Time =    1.000,"PART-1-1",           539,        -13.75,           30.,            0.,NA,NA,"",       8.59021,      -8.34906,      -2.02111,   841.116E-06
C:/temp/dataset/8/2_24.odb,Step-1,Increment      1: Step Time =    1.000,"PART-1-1",           540,          -15.,         28.75,            0.,NA,NA,"",       8.45962,      -8.17550,      -2.17403,   852.156E-06
C:/temp/dataset/8/2_24.odb,Step-1,Increment      1: Step Time =    1.000,"PART-1-1",           541,      -7.55516,       16.2219,            0.,NA,NA,"",       6.53799,      -6.46055,      -1.00330,   20.1347E-03
C:/temp/dataset/8/2_24.odb,Step-1,Increment      1: Step Time =    1.000,"PART-1-1",           542,      -6.27478,       15.0018,            0.,NA,NA,"",       6.29685,      -6.25099,  -758.530E-03,   12.6792E-03
C:/temp/dataset/8/2_24.odb,Step-1,Increment      1: Step Time =    1.000,"PART-1-1",           543,           -5.,         16.25,            0.,NA,NA,"",       6.51071,      -6.48590,  -567.836E-03,   17.7143E-03
C:/temp/dataset/8/2_24.odb,Step-1,Increment      1: Step Time =    1.000,"PART-1-1",           544,      -12.5375,       11.2943,            0.,NA,NA,"",       5.76698,      -5.51786,      -1.67670,   16.6549E-03
C:/temp/dataset/8/2_24.odb,Step-1,Increment      1: Step Time =    1.000,"PART-1-1",           545,      -11.2813,       10.1542,            0.,NA,NA,"",       5.51882,      -5.32449,      -1.45160,   18.2103E-03
C:/temp/dataset/8/2_24.odb,Step-1,Increment      1: Step Time =    1.000,"PART-1-1",           546,      -10.0769,       11.4281,            0.,NA,NA,"",       5.71145,      -5.56301,      -1.29368,   19.3746E-03
C:/temp/dataset/8/2_24.odb,Step-1,Increment      1: Step Time =    1.000,"PART-1-1",           547,      -11.3331,       12.5683,            0.,NA,NA,"",       5.95449,      -5.75857,      -1.51487,   17.4796E-03
C:/temp/dataset/8/2_24.odb,Step-1,Increment      1: Step Time =    1.000,"PART-1-1",           548,      -8.81802,       15.0067,            0.,NA,NA,"",       6.33740,      -6.22780,      -1.17353,   18.2854E-03
C:/temp/dataset/8/2_24.odb,Step-1,Increment      1: Step Time =    1.000,"PART-1-1",           549,      -10.0861,       16.2257,            0.,NA,NA,"",       6.58329,      -6.43373,      -1.39533,   18.3046E-03
C:/temp/dataset/8/2_24.odb,Step-1,Increment      1: Step Time =    1.000,"PART-1-1",           550,      -13.7511,       10.0234,            0.,NA,NA,"",       5.59597,      -5.28459,      -1.84064,   16.4265E-03
C:/temp/dataset/8/2_24.odb,Step-1,Increment      1: Step Time =    1.000,"PART-1-1",           551,          -15.,         11.25,            0.,NA,NA,"",       5.87171,      -5.48772,      -2.08852,   12.8722E-03
C:/temp/dataset/8/2_24.odb,Step-1,Increment      1: Step Time =    1.000,"PART-1-1",           552,      -7.55101,       13.7795,            0.,NA,NA,"",       6.09071,      -6.01728,  -942.897E-03,   15.2637E-03
C:/temp/dataset/8/2_24.odb,Step-1,Increment      1: Step Time =    1.000,"PART-1-1",           553,      -6.27623,       12.5278,            0.,NA,NA,"",       5.84729,      -5.80486,  -703.095E-03,   7.66210E-03
C:/temp/dataset/8/2_24.odb,Step-1,Increment      1: Step Time =    1.000,"PART-1-1",           554,           -5.,         13.75,            0.,NA,NA,"",       6.06286,      -6.04180,  -504.898E-03,   6.90157E-03
C:/temp/dataset/8/2_24.odb,Step-1,Increment      1: Step Time =    1.000,"PART-1-1",           555,      -7.73154,       8.68047,            0.,NA,NA,"",       5.16430,      -5.08891,  -879.194E-03,   19.3809E-03
C:/temp/dataset/8/2_24.odb,Step-1,Increment      1: Step Time =    1.000,"PART-1-1",           556,      -6.43871,       7.39503,            0.,NA,NA,"",       4.91498,      -4.86959,  -666.428E-03,   16.6119E-03
C:/temp/dataset/8/2_24.odb,Step-1,Increment      1: Step Time =    1.000,"PART-1-1",           557,           -5.,          8.75,            0.,NA,NA,"",       5.16604,      -5.14824,  -428.523E-03,   13.2012E-03
C:/temp/dataset/8/2_24.odb,Step-1,Increment      1: Step Time =    1.000,"PART-1-1",           558,      -6.29283,       10.0354,            0.,NA,NA,"",       5.39633,      -5.35524,  -664.648E-03,   8.03380E-03
C:/temp/dataset/8/2_24.odb,Step-1,Increment      1: Step Time =    1.000,"PART-1-1",           559,      -10.9724,       6.37301,            0.,NA,NA,"",       4.86774,      -4.68809,      -1.31021,   19.4807E-03
C:/temp/dataset/8/2_24.odb,Step-1,Increment      1: Step Time =    1.000,"PART-1-1",           560,      -11.8392,       4.13381,            0.,NA,NA,"",       4.57429,      -4.36185,      -1.37782,   20.4406E-03
C:/temp/dataset/8/2_24.odb,Step-1,Increment      1: Step Time =    1.000,"PART-1-1",           561,      -10.3518,       4.58458,            0.,NA,NA,"",       4.57322,      -4.42037,      -1.17245,   19.3144E-03
C:/temp/dataset/8/2_24.odb,Step-1,Increment      1: Step Time =    1.000,"PART-1-1",           562,      -7.08076,   207.918E-03,            0.,NA,NA,"",       3.93114,      -3.87832,  -642.223E-03,   13.8907E-03
C:/temp/dataset/8/2_24.odb,Step-1,Increment      1: Step Time =    1.000,"PART-1-1",           563,      -6.69858,      -1.33808,            0.,NA,NA,"",       3.75527,      -3.71181,  -569.701E-03,   23.8361E-03
C:/temp/dataset/8/2_24.odb,Step-1,Increment      1: Step Time =    1.000,"PART-1-1",           564,      -5.21720,      -1.06412,            0.,NA,NA,"",       3.76786,      -3.74112,  -448.145E-03,   32.6481E-03
C:/temp/dataset/8/2_24.odb,Step-1,Increment      1: Step Time =    1.000,"PART-1-1",           565,      -5.59938,   481.880E-03,            0.,NA,NA,"",       3.93835,      -3.90586,  -504.787E-03,   18.9673E-03
C:/temp/dataset/8/2_24.odb,Step-1,Increment      1: Step Time =    1.000,"PART-1-1",           566,      -4.73360,       1.40018,            0.,NA,NA,"",       4.02702,      -4.00146,  -452.923E-03,   29.5479E-03
C:/temp/dataset/8/2_24.odb,Step-1,Increment      1: Step Time =    1.000,"PART-1-1",           567,      -3.61778,   109.205E-03,            0.,NA,NA,"",       3.88087,      -3.86179,  -384.355E-03,   45.9926E-03
C:/temp/dataset/8/2_24.odb,Step-1,Increment      1: Step Time =    1.000,"PART-1-1",           568,      -7.98115,      -4.65772,            0.,NA,NA,"",       3.35367,      -3.29079,  -646.364E-03,   30.7755E-03
C:/temp/dataset/8/2_24.odb,Step-1,Increment      1: Step Time =    1.000,"PART-1-1",           569,      -6.28323,      -5.33636,            0.,NA,NA,"",       3.26123,      -3.23522,  -411.087E-03,   72.6370E-03
C:/temp/dataset/8/2_24.odb,Step-1,Increment      1: Step Time =    1.000,"PART-1-1",           570,      -5.33200,      -3.67088,            0.,NA,NA,"",       3.48707,      -3.46850,  -359.346E-03,   65.2311E-03
C:/temp/dataset/8/2_24.odb,Step-1,Increment      1: Step Time =    1.000,"PART-1-1",           571,      -7.02992,      -2.99224,            0.,NA,NA,"",       3.57593,      -3.53152,  -561.826E-03,   27.9929E-03
C:/temp/dataset/8/2_24.odb,Step-1,Increment      1: Step Time =    1.000,"PART-1-1",           572,      -9.50932,      -4.32694,            0.,NA,NA,"",       3.41777,      -3.30759,  -860.812E-03,   20.3523E-03
C:/temp/dataset/8/2_24.odb,Step-1,Increment      1: Step Time =    1.000,"PART-1-1",           573,      -9.07148,      -2.62864,            0.,NA,NA,"",       3.64364,      -3.54693,  -833.872E-03,   20.5200E-03
C:/temp/dataset/8/2_24.odb,Step-1,Increment      1: Step Time =    1.000,"PART-1-1",           574,      -11.0112,      -2.25660,            0.,NA,NA,"",       3.74255,      -3.57233,      -1.11587,   16.2276E-03
C:/temp/dataset/8/2_24.odb,Step-1,Increment      1: Step Time =    1.000,"PART-1-1",           575,      -11.4490,      -3.95490,            0.,NA,NA,"",       3.52673,      -3.33478,      -1.14765,   12.5134E-03
C:/temp/dataset/8/2_24.odb,Step-1,Increment      1: Step Time =    1.000,"PART-1-1",           576,      -12.8101,      -6.09098,            0.,NA,NA,"",       3.25560,      -2.98221,      -1.30590,   16.5591E-03
C:/temp/dataset/8/2_24.odb,Step-1,Increment      1: Step Time =    1.000,"PART-1-1",           577,          -15.,         -6.25,            0.,NA,NA,"",       3.36637,      -2.93076,      -1.65623,   976.263E-06
C:/temp/dataset/8/2_24.odb,Step-1,Increment      1: Step Time =    1.000,"PART-1-1",           578,      -12.4915,      -11.2805,            0.,NA,NA,"",       2.28324,      -2.01844,      -1.06727,   42.3457E-03
C:/temp/dataset/8/2_24.odb,Step-1,Increment      1: Step Time =    1.000,"PART-1-1",           579,      -11.2634,      -12.5870,            0.,NA,NA,"",       1.94102,      -1.76140,  -815.504E-03,   46.0434E-03
C:/temp/dataset/8/2_24.odb,Step-1,Increment      1: Step Time =    1.000,"PART-1-1",           580,      -9.99512,      -11.3837,            0.,NA,NA,"",       2.10620,      -1.99270,  -682.073E-03,   46.0060E-03
C:/temp/dataset/8/2_24.odb,Step-1,Increment      1: Step Time =    1.000,"PART-1-1",           581,      -13.7566,      -12.5332,            0.,NA,NA,"",       2.15674,      -1.78344,      -1.21280,   43.2281E-03
C:/temp/dataset/8/2_24.odb,Step-1,Increment      1: Step Time =    1.000,"PART-1-1",           582,          -15.,        -11.25,            0.,NA,NA,"",       2.52316,      -2.02378,      -1.50686,   33.9899E-03
C:/temp/dataset/8/2_24.odb,Step-1,Increment      1: Step Time =    1.000,"PART-1-1",           583,      -8.71482,      -10.1608,            0.,NA,NA,"",       2.29961,      -2.23493,  -541.553E-03,   43.5060E-03
C:/temp/dataset/8/2_24.odb,Step-1,Increment      1: Step Time =    1.000,"PART-1-1",           584,      -7.42248,      -8.98866,            0.,NA,NA,"",       2.50248,      -2.47167,  -391.448E-03,   46.4355E-03
C:/temp/dataset/8/2_24.odb,Step-1,Increment      1: Step Time =    1.000,"PART-1-1",           585,      -8.58554,      -7.84743,            0.,NA,NA,"",       2.76839,      -2.69687,  -625.208E-03,   47.7866E-03
C:/temp/dataset/8/2_24.odb,Step-1,Increment      1: Step Time =    1.000,"PART-1-1",           586,      -7.50773,      -13.8545,            0.,NA,NA,"",       1.52818,      -1.51346,  -211.578E-03,   29.8330E-03
C:/temp/dataset/8/2_24.odb,Step-1,Increment      1: Step Time =    1.000,"PART-1-1",           587,      -6.25830,      -15.0553,            0.,NA,NA,"",       1.30240,      -1.30235,   11.3970E-03,   13.9888E-03
C:/temp/dataset/8/2_24.odb,Step-1,Increment      1: Step Time =    1.000,"PART-1-1",           588,           -5.,        -13.75,            0.,NA,NA,"",       1.57475,      -1.56112,   206.771E-03,   2.35562E-03
C:/temp/dataset/8/2_24.odb,Step-1,Increment      1: Step Time =    1.000,"PART-1-1",           589,      -6.24942,      -12.5493,            0.,NA,NA,"",       1.77276,      -1.77218,  -45.4925E-03,   18.9990E-03
C:/temp/dataset/8/2_24.odb,Step-1,Increment      1: Step Time =    1.000,"PART-1-1",           590,      -11.2978,      -17.6923,            0.,NA,NA,"",       1.03397,  -865.728E-03,  -565.337E-03,   51.3072E-03
C:/temp/dataset/8/2_24.odb,Step-1,Increment      1: Step Time =    1.000,"PART-1-1",           591,      -12.6450,      -18.8482,            0.,NA,NA,"",   984.070E-03,  -729.525E-03,  -660.444E-03,   60.9995E-03
C:/temp/dataset/8/2_24.odb,Step-1,Increment      1: Step Time =    1.000,"PART-1-1",           592,      -11.4281,      -20.3734,            0.,NA,NA,"",   681.123E-03,  -519.438E-03,  -440.583E-03,   52.0043E-03
C:/temp/dataset/8/2_24.odb,Step-1,Increment      1: Step Time =    1.000,"PART-1-1",           593,      -10.0810,      -19.2175,            0.,NA,NA,"",   726.445E-03,  -632.675E-03,  -356.994E-03,   43.6283E-03
C:/temp/dataset/8/2_24.odb,Step-1,Increment      1: Step Time =    1.000,"PART-1-1",           594,      -7.51421,      -16.3885,            0.,NA,NA,"",       1.05980,      -1.04914,  -149.956E-03,   32.3647E-03
C:/temp/dataset/8/2_24.odb,Step-1,Increment      1: Step Time =    1.000,"PART-1-1",           595,      -6.25590,      -17.5833,            0.,NA,NA,"",   850.205E-03,  -849.860E-03,   24.2135E-03,   26.0073E-03
C:/temp/dataset/8/2_24.odb,Step-1,Increment      1: Step Time =    1.000,"PART-1-1",           596,           -5.,        -16.25,            0.,NA,NA,"",       1.13646,      -1.11364,   226.613E-03,   22.9967E-03
C:/temp/dataset/8/2_24.odb,Step-1,Increment      1: Step Time =    1.000,"PART-1-1",           597,      -10.0205,      -13.8763,            0.,NA,NA,"",       1.61562,      -1.50945,  -575.994E-03,   45.9355E-03
C:/temp/dataset/8/2_24.odb,Step-1,Increment      1: Step Time =    1.000,"PART-1-1",           598,      -8.77208,      -15.1278,            0.,NA,NA,"",       1.32198,      -1.27380,  -353.637E-03,   37.4279E-03
C:/temp/dataset/8/2_24.odb,Step-1,Increment      1: Step Time =    1.000,"PART-1-1",           599,      -8.75613,      -12.6031,            0.,NA,NA,"",       1.80710,      -1.75147,  -444.925E-03,   39.2122E-03
C:/temp/dataset/8/2_24.odb,Step-1,Increment      1: Step Time =    1.000,"PART-1-1",           600,      -7.46622,      -18.9660,            0.,NA,NA,"",   634.027E-03,  -625.771E-03,  -101.980E-03,   33.1852E-03
C:/temp/dataset/8/2_24.odb,Step-1,Increment      1: Step Time =    1.000,"PART-1-1",           601,      -8.77786,      -17.7139,            0.,NA,NA,"",   874.637E-03,  -831.039E-03,  -272.699E-03,   37.9061E-03
C:/temp/dataset/8/2_24.odb,Step-1,Increment      1: Step Time =    1.000,"PART-1-1",           602,      -8.76934,      -20.4696,            0.,NA,NA,"",   498.031E-03,  -461.996E-03,  -185.997E-03,   33.0700E-03
C:/temp/dataset/8/2_24.odb,Step-1,Increment      1: Step Time =    1.000,"PART-1-1",           603,      -14.0375,      -22.4038,            0.,NA,NA,"",   687.572E-03,  -398.709E-03,  -560.167E-03,   81.9760E-03
C:/temp/dataset/8/2_24.odb,Step-1,Increment      1: Step Time =    1.000,"PART-1-1",           604,      -12.9066,      -21.1902,            0.,NA,NA,"",   715.852E-03,  -470.654E-03,  -539.378E-03,   66.2735E-03
C:/temp/dataset/8/2_24.odb,Step-1,Increment      1: Step Time =    1.000,"PART-1-1",           605,      -13.8691,      -20.0365,            0.,NA,NA,"",   950.305E-03,  -617.168E-03,  -722.622E-03,   77.5633E-03
C:/temp/dataset/8/2_24.odb,Step-1,Increment      1: Step Time =    1.000,"PART-1-1",           606,          -15.,        -21.25,            0.,NA,NA,"",   919.006E-03,  -533.143E-03,  -748.552E-03,   93.7457E-03
C:/temp/dataset/8/2_24.odb,Step-1,Increment      1: Step Time =    1.000,"PART-1-1",           607,      -11.2823,      -23.1306,            0.,NA,NA,"",   396.794E-03,  -270.123E-03,  -290.653E-03,   49.5403E-03
C:/temp/dataset/8/2_24.odb,Step-1,Increment      1: Step Time =    1.000,"PART-1-1",           608,      -12.2820,      -22.3254,            0.,NA,NA,"",   543.378E-03,  -353.859E-03,  -412.364E-03,   60.5739E-03
C:/temp/dataset/8/2_24.odb,Step-1,Increment      1: Step Time =    1.000,"PART-1-1",           609,      -13.0137,      -23.4645,            0.,NA,NA,"",   494.415E-03,  -288.991E-03,  -401.161E-03,   69.7484E-03
C:/temp/dataset/8/2_24.odb,Step-1,Increment      1: Step Time =    1.000,"PART-1-1",           610,      -12.0140,      -24.2697,            0.,NA,NA,"",   353.463E-03,  -211.095E-03,  -283.504E-03,   58.8844E-03
C:/temp/dataset/8/2_24.odb,Step-1,Increment      1: Step Time =    1.000,"PART-1-1",           611,          -15.,        -28.75,            0.,NA,NA,"",   150.133E-03,  -99.4122E-03,  -112.504E-03,   98.6965E-03
C:/temp/dataset/8/2_24.odb,Step-1,Increment      1: Step Time =    1.000,"PART-1-1",           612,        -13.75,          -30.,            0.,NA,NA,"",            0.,  -2.86955E-39,  -124.587E-39,   82.0488E-03
C:/temp/dataset/8/2_24.odb,Step-1,Increment      1: Step Time =    1.000,"PART-1-1",           613,      -2.49072,      -28.8242,            0.,NA,NA,"",   34.0957E-03,  -34.0363E-03,   2.01139E-03,   20.7293E-03
C:/temp/dataset/8/2_24.odb,Step-1,Increment      1: Step Time =    1.000,"PART-1-1",           614,      -3.67632,      -27.6801,            0.,NA,NA,"",   62.5523E-03,  -62.0813E-03,   7.66160E-03,   21.8514E-03
C:/temp/dataset/8/2_24.odb,Step-1,Increment      1: Step Time =    1.000,"PART-1-1",           615,         -3.75,          -30.,            0.,NA,NA,"",            0.,  -13.2276E-39,  -2.13303E-39,   13.5294E-03
C:/temp/dataset/8/2_24.odb,Step-1,Increment      1: Step Time =    1.000,"PART-1-1",           616,      -3.67176,      -25.2240,            0.,NA,NA,"",   155.443E-03,  -152.938E-03,   27.7971E-03,   30.3189E-03
C:/temp/dataset/8/2_24.odb,Step-1,Increment      1: Step Time =    1.000,"PART-1-1",           617,      -2.52111,      -23.8746,            0.,NA,NA,"",   224.326E-03,  -221.554E-03,   35.1557E-03,   35.4461E-03
C:/temp/dataset/8/2_24.odb,Step-1,Increment      1: Step Time =    1.000,"PART-1-1",           618,      -3.68426,      -22.6291,            0.,NA,NA,"",   280.692E-03,  -274.206E-03,   59.9919E-03,   35.4619E-03
C:/temp/dataset/8/2_24.odb,Step-1,Increment      1: Step Time =    1.000,"PART-1-1",           619,      -1.29997,      -22.5744,            0.,NA,NA,"",   271.646E-03,  -270.502E-03,   24.9014E-03,   34.2224E-03
C:/temp/dataset/8/2_24.odb,Step-1,Increment      1: Step Time =    1.000,"PART-1-1",           620,  -41.8285E-03,      -21.2827,            0.,NA,NA,"",   294.399E-03,  -294.374E-03,   3.83546E-03,   14.4197E-03
C:/temp/dataset/8/2_24.odb,Step-1,Increment      1: Step Time =    1.000,"PART-1-1",           621,         -1.25,          -20.,            0.,NA,NA,"",   298.512E-03,  -298.105E-03,   15.5731E-03,   13.2403E-03
C:/temp/dataset/8/2_24.odb,Step-1,Increment      1: Step Time =    1.000,"PART-1-1",           622,      -2.50814,      -21.2918,            0.,NA,NA,"",   320.683E-03,  -317.110E-03,   47.7406E-03,   25.3332E-03
C:/temp/dataset/8/2_24.odb,Step-1,Increment      1: Step Time =    1.000,"PART-1-1",           623,       5.99755,      -26.4812,            0.,NA,NA,"",   91.4421E-03,  -91.3782E-03,   3.42031E-03,   15.8916E-03
C:/temp/dataset/8/2_24.odb,Step-1,Increment      1: Step Time =    1.000,"PART-1-1",           624,       6.71386,      -27.7542,            0.,NA,NA,"",   46.1829E-03,  -44.6159E-03,   11.9283E-03,   15.8735E-03
C:/temp/dataset/8/2_24.odb,Step-1,Increment      1: Step Time =    1.000,"PART-1-1",           625,       8.26971,      -26.8502,            0.,NA,NA,"",   85.4881E-03,  -72.5324E-03,   45.2468E-03,   19.9524E-03
C:/temp/dataset/8/2_24.odb,Step-1,Increment      1: Step Time =    1.000,"PART-1-1",           626,       7.55340,      -25.5772,            0.,NA,NA,"",   130.860E-03,  -124.460E-03,   40.4212E-03,   14.8537E-03
C:/temp/dataset/8/2_24.odb,Step-1,Increment      1: Step Time =    1.000,"PART-1-1",           627,       1.27500,      -22.6714,            0.,NA,NA,"",   272.439E-03,  -271.667E-03,  -20.4907E-03,   34.7592E-03
C:/temp/dataset/8/2_24.odb,Step-1,Increment      1: Step Time =    1.000,"PART-1-1",           628,       2.56683,      -21.3888,            0.,NA,NA,"",   321.260E-03,  -318.262E-03,  -43.7932E-03,   25.7831E-03
C:/temp/dataset/8/2_24.odb,Step-1,Increment      1: Step Time =    1.000,"PART-1-1",           629,          1.25,          -20.,            0.,NA,NA,"",   299.461E-03,  -299.326E-03,  -8.99878E-03,   13.7371E-03
C:/temp/dataset/8/2_24.odb,Step-1,Increment      1: Step Time =    1.000,"PART-1-1",           630,       2.22787,      -25.9763,            0.,NA,NA,"",   139.429E-03,  -138.441E-03,  -16.5672E-03,   30.7603E-03
C:/temp/dataset/8/2_24.odb,Step-1,Increment      1: Step Time =    1.000,"PART-1-1",           631,       3.59536,      -25.7933,            0.,NA,NA,"",   138.340E-03,  -136.662E-03,  -21.4819E-03,   28.0703E-03
C:/temp/dataset/8/2_24.odb,Step-1,Increment      1: Step Time =    1.000,"PART-1-1",           632,       3.51094,      -23.6954,            0.,NA,NA,"",   233.394E-03,  -229.306E-03,  -43.4904E-03,   34.8191E-03
C:/temp/dataset/8/2_24.odb,Step-1,Increment      1: Step Time =    1.000,"PART-1-1",           633,       2.14345,      -23.8784,            0.,NA,NA,"",   226.948E-03,  -225.296E-03,  -27.3289E-03,   34.5066E-03
C:/temp/dataset/8/2_24.odb,Step-1,Increment      1: Step Time =    1.000,"PART-1-1",           634,       7.70323,      -28.9583,            0.,NA,NA,"",   17.0969E-03,  -12.4717E-03,   11.6944E-03,   15.9897E-03
C:/temp/dataset/8/2_24.odb,Step-1,Increment      1: Step Time =    1.000,"PART-1-1",           635,       5.26063,      -28.7960,            0.,NA,NA,"",   23.7887E-03,  -23.7450E-03,   1.44022E-03,   14.0818E-03
C:/temp/dataset/8/2_24.odb,Step-1,Increment      1: Step Time =    1.000,"PART-1-1",           636,          6.25,          -30.,            0.,NA,NA,"",            0.,  -6.57040E-39,   15.2315E-39,   10.9394E-03
C:/temp/dataset/8/2_24.odb,Step-1,Increment      1: Step Time =    1.000,"PART-1-1",           637,       12.1002,      -20.6263,            0.,NA,NA,"",   762.235E-03,  -592.731E-03,   479.242E-03,   61.5624E-03
C:/temp/dataset/8/2_24.odb,Step-1,Increment      1: Step Time =    1.000,"PART-1-1",           638,       11.2927,      -21.6253,            0.,NA,NA,"",   587.311E-03,  -461.547E-03,   363.192E-03,   54.6548E-03
C:/temp/dataset/8/2_24.odb,Step-1,Increment      1: Step Time =    1.000,"PART-1-1",           639,       12.1479,      -22.5488,            0.,NA,NA,"",   559.019E-03,  -404.101E-03,   386.271E-03,   62.2538E-03
C:/temp/dataset/8/2_24.odb,Step-1,Increment      1: Step Time =    1.000,"PART-1-1",           640,       12.9554,      -21.5499,            0.,NA,NA,"",   729.635E-03,  -524.641E-03,   507.070E-03,   68.9401E-03
C:/temp/dataset/8/2_24.odb,Step-1,Increment      1: Step Time =    1.000,"PART-1-1",           641,         13.75,          -30.,            0.,NA,NA,"",            0.,  -4.87857E-39,   129.633E-39,   87.9159E-03
C:/temp/dataset/8/2_24.odb,Step-1,Increment      1: Step Time =    1.000,"PART-1-1",           642,           15.,      -28.7625,            0.,NA,NA,"",   158.115E-03,  -109.197E-03,   114.353E-03,   103.776E-03
C:/temp/dataset/8/2_24.odb,Step-1,Increment      1: Step Time =    1.000,"PART-1-1",           643,       13.7773,      -27.6225,            0.,NA,NA,"",   205.104E-03,  -125.975E-03,   161.857E-03,   81.0954E-03
C:/temp/dataset/8/2_24.odb,Step-1,Increment      1: Step Time =    1.000,"PART-1-1",           644,           15.,      -26.2875,            0.,NA,NA,"",   404.674E-03,  -247.209E-03,   320.389E-03,   90.6587E-03
C:/temp/dataset/8/2_24.odb,Step-1,Increment      1: Step Time =    1.000,"PART-1-1",           645,       13.5913,      -25.0907,            0.,NA,NA,"",   424.158E-03,  -265.099E-03,   331.108E-03,   76.4635E-03
C:/temp/dataset/8/2_24.odb,Step-1,Increment      1: Step Time =    1.000,"PART-1-1",           646,       12.3686,      -26.4257,            0.,NA,NA,"",   239.899E-03,  -149.204E-03,   187.855E-03,   65.1091E-03
C:/temp/dataset/8/2_24.odb,Step-1,Increment      1: Step Time =    1.000,"PART-1-1",           647,       13.9603,      -22.6421,            0.,NA,NA,"",   694.971E-03,  -459.317E-03,   521.548E-03,   80.6423E-03
C:/temp/dataset/8/2_24.odb,Step-1,Increment      1: Step Time =    1.000,"PART-1-1",           648,       12.5516,      -23.9202,            0.,NA,NA,"",   459.239E-03,  -308.947E-03,   339.782E-03,   66.4505E-03
C:/temp/dataset/8/2_24.odb,Step-1,Increment      1: Step Time =    1.000,"PART-1-1",           649,           15.,      -23.8125,            0.,NA,NA,"",   652.371E-03,  -405.384E-03,   511.128E-03,   90.3130E-03
C:/temp/dataset/8/2_24.odb,Step-1,Increment      1: Step Time =    1.000,"PART-1-1",           650,           15.,      -21.3375,            0.,NA,NA,"",   943.003E-03,  -626.352E-03,   704.939E-03,   90.7886E-03
C:/temp/dataset/8/2_24.odb,Step-1,Increment      1: Step Time =    1.000,"PART-1-1",           651,       7.29151,      -18.3998,            0.,NA,NA,"",   747.006E-03,  -742.592E-03,   81.0812E-03,   34.7998E-03
C:/temp/dataset/8/2_24.odb,Step-1,Increment      1: Step Time =    1.000,"PART-1-1",           652,       6.16221,      -17.3915,            0.,NA,NA,"",   897.281E-03,  -894.496E-03,  -70.6449E-03,   16.5723E-03
C:/temp/dataset/8/2_24.odb,Step-1,Increment      1: Step Time =    1.000,"PART-1-1",           653,            5.,        -18.75,            0.,NA,NA,"",   701.232E-03,  -674.149E-03,  -193.001E-03,   51.0636E-03
C:/temp/dataset/8/2_24.odb,Step-1,Increment      1: Step Time =    1.000,"PART-1-1",           654,       6.12930,      -19.7583,            0.,NA,NA,"",   506.096E-03,  -505.600E-03,  -22.4045E-03,   51.6905E-03
C:/temp/dataset/8/2_24.odb,Step-1,Increment      1: Step Time =    1.000,"PART-1-1",           655,       11.0004,      -17.5900,            0.,NA,NA,"",       1.07812,  -962.379E-03,   485.973E-03,   50.3169E-03
C:/temp/dataset/8/2_24.odb,Step-1,Increment      1: Step Time =    1.000,"PART-1-1",           656,       9.51360,      -18.2945,            0.,NA,NA,"",   870.472E-03,  -813.973E-03,   308.494E-03,   44.0839E-03
C:/temp/dataset/8/2_24.odb,Step-1,Increment      1: Step Time =    1.000,"PART-1-1",           657,       10.1108,      -19.3444,            0.,NA,NA,"",   764.784E-03,  -683.772E-03,   342.564E-03,   46.8034E-03
C:/temp/dataset/8/2_24.odb,Step-1,Increment      1: Step Time =    1.000,"PART-1-1",           658,       11.5976,      -18.6398,            0.,NA,NA,"",   974.359E-03,  -826.625E-03,   515.816E-03,   55.2646E-03
C:/temp/dataset/8/2_24.odb,Step-1,Increment      1: Step Time =    1.000,"PART-1-1",           659,       10.5605,      -11.7100,            0.,NA,NA,"",       2.05959,      -1.99012,   530.426E-03,   40.6320E-03
C:/temp/dataset/8/2_24.odb,Step-1,Increment      1: Step Time =    1.000,"PART-1-1",           660,       12.7627,      -11.5544,            0.,NA,NA,"",       2.24404,      -2.07467,   855.255E-03,   41.0822E-03
C:/temp/dataset/8/2_24.odb,Step-1,Increment      1: Step Time =    1.000,"PART-1-1",           661,       5.97841,      -7.48969,            0.,NA,NA,"",       2.71460,      -2.71172,  -125.072E-03,   45.5450E-03
C:/temp/dataset/8/2_24.odb,Step-1,Increment      1: Step Time =    1.000,"PART-1-1",           662,            5.,         -8.75,            0.,NA,NA,"",       2.44305,      -2.42143,  -324.293E-03,   35.8703E-03
C:/temp/dataset/8/2_24.odb,Step-1,Increment      1: Step Time =    1.000,"PART-1-1",           663,       6.97100,      -8.62604,            0.,NA,NA,"",       2.50721,      -2.50715,   16.6775E-03,   39.2245E-03
C:/temp/dataset/8/2_24.odb,Step-1,Increment      1: Step Time =    1.000,"PART-1-1",           664,       13.4909,      -5.05443,            0.,NA,NA,"",       3.41344,      -3.25939,       1.01385,   15.6353E-03
C:/temp/dataset/8/2_24.odb,Step-1,Increment      1: Step Time =    1.000,"PART-1-1",           665,           15.,      -6.28125,            0.,NA,NA,"",       3.33106,      -3.08589,       1.25429,   15.3754E-03
C:/temp/dataset/8/2_24.odb,Step-1,Increment      1: Step Time =    1.000,"PART-1-1",           666,       12.6840,      -1.12825,            0.,NA,NA,"",       3.94532,      -3.83988,   905.989E-03,   23.3019E-03
C:/temp/dataset/8/2_24.odb,Step-1,Increment      1: Step Time =    1.000,"PART-1-1",           667,       13.8718,      -2.44066,            0.,NA,NA,"",       3.82762,      -3.67144,       1.08224,   18.5969E-03
C:/temp/dataset/8/2_24.odb,Step-1,Increment      1: Step Time =    1.000,"PART-1-1",           668,           15.,      -1.25625,            0.,NA,NA,"",       4.06985,      -3.87009,       1.25940,   22.4182E-03
C:/temp/dataset/8/2_24.odb,Step-1,Increment      1: Step Time =    1.000,"PART-1-1",           669,       5.31213,       3.65711,            0.,NA,NA,"",       4.32493,      -4.32182,  -163.934E-03,   56.0710E-03
C:/temp/dataset/8/2_24.odb,Step-1,Increment      1: Step Time =    1.000,"PART-1-1",           670,       7.63904,       4.47127,            0.,NA,NA,"",       4.56065,      -4.55775,   162.728E-03,   45.7776E-03
C:/temp/dataset/8/2_24.odb,Step-1,Increment      1: Step Time =    1.000,"PART-1-1",           671,       6.09328,       5.22028,            0.,NA,NA,"",       4.62358,      -4.62318,  -61.4669E-03,   73.9368E-03
C:/temp/dataset/8/2_24.odb,Step-1,Increment      1: Step Time =    1.000,"PART-1-1",           672,       10.7996,       2.27920,            0.,NA,NA,"",       4.34790,      -4.30155,   633.177E-03,   24.9885E-03
C:/temp/dataset/8/2_24.odb,Step-1,Increment      1: Step Time =    1.000,"PART-1-1",           673,       10.9658,       3.81330,            0.,NA,NA,"",       4.61367,      -4.56462,   670.990E-03,   27.8432E-03
C:/temp/dataset/8/2_24.odb,Step-1,Increment      1: Step Time =    1.000,"PART-1-1",           674,       8.99860,       4.11099,            0.,NA,NA,"",       4.56423,      -4.54962,   364.839E-03,   34.5533E-03
C:/temp/dataset/8/2_24.odb,Step-1,Increment      1: Step Time =    1.000,"PART-1-1",           675,           15.,       8.66250,            0.,NA,NA,"",       5.83138,      -5.66416,       1.38645,   14.3619E-03
C:/temp/dataset/8/2_24.odb,Step-1,Increment      1: Step Time =    1.000,"PART-1-1",           676,       13.1757,       8.97628,            0.,NA,NA,"",       5.77909,      -5.68929,       1.01482,   30.0132E-03
C:/temp/dataset/8/2_24.odb,Step-1,Increment      1: Step Time =    1.000,"PART-1-1",           677,       7.38641,       11.0911,            0.,NA,NA,"",       6.02585,      -6.02578,   28.6653E-03,   28.8441E-03
C:/temp/dataset/8/2_24.odb,Step-1,Increment      1: Step Time =    1.000,"PART-1-1",           678,       6.27036,       12.4047,            0.,NA,NA,"",       6.26789,      -6.26572,  -164.794E-03,   32.3351E-03
C:/temp/dataset/8/2_24.odb,Step-1,Increment      1: Step Time =    1.000,"PART-1-1",           679,            5.,         11.25,            0.,NA,NA,"",       6.00490,      -5.99095,  -409.005E-03,   32.3010E-03
C:/temp/dataset/8/2_24.odb,Step-1,Increment      1: Step Time =    1.000,"PART-1-1",           680,       10.9828,       10.9826,            0.,NA,NA,"",       6.11523,      -6.08470,   610.298E-03,   37.9901E-03
C:/temp/dataset/8/2_24.odb,Step-1,Increment      1: Step Time =    1.000,"PART-1-1",           681,       9.82750,       10.6157,            0.,NA,NA,"",       5.99387,      -5.97822,   432.812E-03,   39.3912E-03
C:/temp/dataset/8/2_24.odb,Step-1,Increment      1: Step Time =    1.000,"PART-1-1",           682,       11.4264,       9.28562,            0.,NA,NA,"",       5.76193,      -5.71807,   709.614E-03,   40.6301E-03
C:/temp/dataset/8/2_24.odb,Step-1,Increment      1: Step Time =    1.000,"PART-1-1",           683,       12.2770,       18.7828,            0.,NA,NA,"",       7.44241,      -7.40807,   714.060E-03,   18.9494E-03
C:/temp/dataset/8/2_24.odb,Step-1,Increment      1: Step Time =    1.000,"PART-1-1",           684,       13.7541,       17.4065,            0.,NA,NA,"",       7.33362,      -7.27587,   918.557E-03,   26.6507E-03
C:/temp/dataset/8/2_24.odb,Step-1,Increment      1: Step Time =    1.000,"PART-1-1",           685,           15.,       18.6938,            0.,NA,NA,"",       7.50829,      -7.43739,       1.02934,   35.7565E-03
C:/temp/dataset/8/2_24.odb,Step-1,Increment      1: Step Time =    1.000,"PART-1-1",           686,       11.5052,       27.6683,            0.,NA,NA,"",       8.18954,      -8.16953,   572.121E-03,   6.00604E-03
C:/temp/dataset/8/2_24.odb,Step-1,Increment      1: Step Time =    1.000,"PART-1-1",           687,       12.5910,       28.8229,            0.,NA,NA,"",       8.30548,      -8.27837,   670.588E-03,   2.47181E-03
C:/temp/dataset/8/2_24.odb,Step-1,Increment      1: Step Time =    1.000,"PART-1-1",           688,         11.25,           30.,            0.,NA,NA,"",       8.39546,      -8.37801,   541.025E-03,   3.04803E-03
C:/temp/dataset/8/2_24.odb,Step-1,Increment      1: Step Time =    1.000,"PART-1-1",           689,       7.66010,       22.7139,            0.,NA,NA,"",       7.70813,      -7.70600,   181.321E-03,   22.1689E-03
C:/temp/dataset/8/2_24.odb,Step-1,Increment      1: Step Time =    1.000,"PART-1-1",           690,       8.77998,       20.9019,            0.,NA,NA,"",       7.57054,      -7.56519,   284.557E-03,   20.8272E-03
C:/temp/dataset/8/2_24.odb,Step-1,Increment      1: Step Time =    1.000,"PART-1-1",           691,       9.04783,       22.2730,            0.,NA,NA,"",       7.69765,      -7.69084,   323.709E-03,   20.1991E-03
C:/temp/dataset/8/2_24.odb,Step-1,Increment      1: Step Time =    1.000,"PART-1-1",           692,           15.,       28.7437,            0.,NA,NA,"",       8.33004,      -8.28221,   891.306E-03,   343.548E-06
C:/temp/dataset/8/2_24.odb,Step-1,Increment      1: Step Time =    1.000,"PART-1-1",           693,         13.75,           30.,            0.,NA,NA,"",       8.42644,      -8.39094,   772.653E-03,   340.746E-06
C:/temp/dataset/8/2_24.odb,Step-1,Increment      1: Step Time =    1.000,"PART-1-1",           694,       7.11219,       6.50494,            0.,NA,NA,"",       4.97599,      -4.97549,   70.2715E-03,   48.5440E-03
C:/temp/dataset/8/2_24.odb,Step-1,Increment      1: Step Time =    1.000,"PART-1-1",           695,            5.,          6.25,            0.,NA,NA,"",       4.88650,      -4.87567,  -325.159E-03,   51.2595E-03
C:/temp/dataset/8/2_24.odb,Step-1,Increment      1: Step Time =    1.000,"PART-1-1",           696,       9.07599,      -27.9731,            0.,NA,NA,"",   54.3459E-03,  -36.4797E-03,   40.2829E-03,   27.3378E-03
C:/temp/dataset/8/2_24.odb,Step-1,Increment      1: Step Time =    1.000,"PART-1-1",           697,          8.75,          -30.,            0.,NA,NA,"",            0.,  -1.59947E-39,   43.0901E-39,   23.0002E-03
C:/temp/dataset/8/2_24.odb,Step-1,Increment      1: Step Time =    1.000,"PART-1-1",           698,           15.,       3.71250,            0.,NA,NA,"",       4.85639,      -4.66681,       1.34364,   37.5096E-03
C:/temp/dataset/8/2_24.odb,Step-1,Increment      1: Step Time =    1.000,"PART-1-1",           699,       12.4115,       4.21065,            0.,NA,NA,"",       4.76805,      -4.68037,   910.166E-03,   24.2151E-03
C:/temp/dataset/8/2_24.odb,Step-1,Increment      1: Step Time =    1.000,"PART-1-1",           700,       8.79814,       6.59392,            0.,NA,NA,"",       5.06001,      -5.04934,   328.514E-03,   46.0202E-03
C:/temp/dataset/8/2_24.odb,Step-1,Increment      1: Step Time =    1.000,"PART-1-1",           701,       9.28031,       5.28415,            0.,NA,NA,"",       4.80504,      -4.78733,   412.110E-03,   39.5101E-03
C:/temp/dataset/8/2_24.odb,Step-1,Increment      1: Step Time =    1.000,"PART-1-1",           702,       10.3279,       5.61007,            0.,NA,NA,"",       4.92113,      -4.88756,   573.809E-03,   35.2246E-03
C:/temp/dataset/8/2_24.odb,Step-1,Increment      1: Step Time =    1.000,"PART-1-1",           703,   700.033E-03,      -25.0201,            0.,NA,NA,"",   181.979E-03,  -181.810E-03,  -7.84905E-03,   33.4660E-03
C:/temp/dataset/8/2_24.odb,Step-1,Increment      1: Step Time =    1.000,"PART-1-1",           704,  -168.417E-03,      -23.8132,            0.,NA,NA,"",   228.816E-03,  -228.794E-03,   3.15618E-03,   34.2596E-03
C:/temp/dataset/8/2_24.odb,Step-1,Increment      1: Step Time =    1.000,"PART-1-1",           705,         -3.75,          -20.,            0.,NA,NA,"",   374.155E-03,  -369.906E-03,   56.2266E-03,   61.1961E-03
C:/temp/dataset/8/2_24.odb,Step-1,Increment      1: Step Time =    1.000,"PART-1-1",           706,      -4.92611,      -21.3374,            0.,NA,NA,"",   352.655E-03,  -343.456E-03,   80.0235E-03,   49.2492E-03
C:/temp/dataset/8/2_24.odb,Step-1,Increment      1: Step Time =    1.000,"PART-1-1",           707,         -1.25,          -30.,            0.,NA,NA,"",            0.,  -19.8201E-39,   95.2743E-42,   19.6573E-03
C:/temp/dataset/8/2_24.odb,Step-1,Increment      1: Step Time =    1.000,"PART-1-1",           708,      -1.25381,      -27.5694,            0.,NA,NA,"",   80.5584E-03,  -80.4278E-03,   4.58438E-03,   24.9333E-03
C:/temp/dataset/8/2_24.odb,Step-1,Increment      1: Step Time =    1.000,"PART-1-1",           709,      -7.47582,      -11.3801,            0.,NA,NA,"",       2.01503,      -1.99350,  -293.766E-03,   35.8998E-03
C:/temp/dataset/8/2_24.odb,Step-1,Increment      1: Step Time =    1.000,"PART-1-1",           710,           -5.,        -11.25,            0.,NA,NA,"",       2.04106,      -2.03600,   143.577E-03,   16.6361E-03
C:/temp/dataset/8/2_24.odb,Step-1,Increment      1: Step Time =    1.000,"PART-1-1",           711,      -6.22640,      -10.0809,            0.,NA,NA,"",       2.25725,      -2.25336,  -132.513E-03,   30.7868E-03
C:/temp/dataset/8/2_24.odb,Step-1,Increment      1: Step Time =    1.000,"PART-1-1",           712,          -15.,        -13.75,            0.,NA,NA,"",       2.07967,      -1.56963,      -1.36430,   54.6864E-03
C:/temp/dataset/8/2_24.odb,Step-1,Increment      1: Step Time =    1.000,"PART-1-1",           713,      -12.5143,      -13.8326,            0.,NA,NA,"",       1.79914,      -1.53398,  -940.096E-03,   50.0677E-03
C:/temp/dataset/8/2_24.odb,Step-1,Increment      1: Step Time =    1.000,"PART-1-1",           714,      -10.0899,       13.8022,            0.,NA,NA,"",       6.14505,      -5.99567,      -1.34670,   19.1523E-03
C:/temp/dataset/8/2_24.odb,Step-1,Increment      1: Step Time =    1.000,"PART-1-1",           715,      -8.82292,       12.5751,            0.,NA,NA,"",       5.89199,      -5.78429,      -1.12141,   16.5724E-03
C:/temp/dataset/8/2_24.odb,Step-1,Increment      1: Step Time =    1.000,"PART-1-1",           716,          -15.,         16.25,            0.,NA,NA,"",       6.72920,      -6.36790,      -2.17531,   8.25607E-03
C:/temp/dataset/8/2_24.odb,Step-1,Increment      1: Step Time =    1.000,"PART-1-1",           717,      -12.5861,       16.2442,            0.,NA,NA,"",       6.64835,      -6.40536,      -1.78101,   12.0168E-03
C:/temp/dataset/8/2_24.odb,Step-1,Increment      1: Step Time =    1.000,"PART-1-1",           718,      -12.3822,       2.26742,            0.,NA,NA,"",       4.35375,      -4.11925,      -1.40957,   21.6624E-03
C:/temp/dataset/8/2_24.odb,Step-1,Increment      1: Step Time =    1.000,"PART-1-1",           719,      -11.8212,   294.554E-03,            0.,NA,NA,"",       4.08706,      -3.88017,      -1.28388,   21.4130E-03
C:/temp/dataset/8/2_24.odb,Step-1,Increment      1: Step Time =    1.000,"PART-1-1",           720,      -11.2086,       1.42526,            0.,NA,NA,"",       4.19784,      -4.01688,      -1.21926,   22.3753E-03
C:/temp/dataset/8/2_24.odb,Step-1,Increment      1: Step Time =    1.000,"PART-1-1",           721,         -3.75,           -5.,            0.,NA,NA,"",       3.42178,      -3.40416,  -346.820E-03,   68.8882E-03
C:/temp/dataset/8/2_24.odb,Step-1,Increment      1: Step Time =    1.000,"PART-1-1",           722,      -4.14613,      -2.41365,            0.,NA,NA,"",       3.61270,      -3.59522,  -354.960E-03,   48.2887E-03
C:/temp/dataset/8/2_24.odb,Step-1,Increment      1: Step Time =    1.000,"PART-1-1",           723,          3.75,           -5.,            0.,NA,NA,"",       3.35937,      -3.35364,  -196.054E-03,   81.6738E-03
C:/temp/dataset/8/2_24.odb,Step-1,Increment      1: Step Time =    1.000,"PART-1-1",           724,       4.89490,      -3.81404,            0.,NA,NA,"",       3.41856,      -3.41374,  -181.476E-03,   64.2106E-03
C:/temp/dataset/8/2_24.odb,Step-1,Increment      1: Step Time =    1.000,"PART-1-1",           725,          3.75,            5.,            0.,NA,NA,"",       4.40932,      -4.40320,  -232.212E-03,   84.5064E-03
C:/temp/dataset/8/2_24.odb,Step-1,Increment      1: Step Time =    1.000,"PART-1-1",           726,       2.57777,       3.72098,            0.,NA,NA,"",       4.26450,      -4.25523,  -280.983E-03,   49.4709E-03
C:/temp/dataset/8/2_24.odb,Step-1,Increment      1: Step Time =    1.000,"PART-1-1",           727,       4.13990,       2.37808,            0.,NA,NA,"",       4.15085,      -4.14467,  -226.412E-03,   40.9371E-03
C:/temp/dataset/8/2_24.odb,Step-1,Increment      1: Step Time =    1.000,"PART-1-1",           728,       1.35715,       2.46333,            0.,NA,NA,"",       4.12556,      -4.11429,  -304.753E-03,   56.8166E-03
C:/temp/dataset/8/2_24.odb,Step-1,Increment      1: Step Time =    1.000,"PART-1-1",           729,          1.25,            5.,            0.,NA,NA,"",       4.27996,      -4.27070,  -281.407E-03,   30.8604E-03
C:/temp/dataset/8/2_24.odb,Step-1,Increment      1: Step Time =    1.000,"PART-1-1",           730,         -1.25,           30.,            0.,NA,NA,"",       8.31160,      -8.29464,  -530.729E-03,   11.6534E-03
C:/temp/dataset/8/2_24.odb,Step-1,Increment      1: Step Time =    1.000,"PART-1-1",           731,      -1.39116,       27.2962,            0.,NA,NA,"",       8.05547,      -8.03858,  -521.372E-03,   10.9917E-03
C:/temp/dataset/8/2_24.odb,Step-1,Increment      1: Step Time =    1.000,"PART-1-1",           732,         -3.75,           20.,            0.,NA,NA,"",       7.28145,      -7.24920,  -684.538E-03,   48.7351E-03
C:/temp/dataset/8/2_24.odb,Step-1,Increment      1: Step Time =    1.000,"PART-1-1",           733,      -2.58927,       21.4449,            0.,NA,NA,"",       7.44455,      -7.42132,  -587.618E-03,   24.4764E-03
C:/temp/dataset/8/2_24.odb,Step-1,Increment      1: Step Time =    1.000,"PART-1-1",           734,      -5.07185,       21.0145,            0.,NA,NA,"",       7.36533,      -7.32437,  -775.766E-03,   37.1841E-03
C:/temp/dataset/8/2_24.odb,Step-1,Increment      1: Step Time =    1.000,"PART-1-1",           735,      -1.31816,       22.7417,            0.,NA,NA,"",       7.58932,      -7.57334,  -492.170E-03,   20.2641E-03
C:/temp/dataset/8/2_24.odb,Step-1,Increment      1: Step Time =    1.000,"PART-1-1",           736,         -1.25,           20.,            0.,NA,NA,"",       7.34977,      -7.33267,  -500.988E-03,   25.8605E-03
C:/temp/dataset/8/2_24.odb,Step-1,Increment      1: Step Time =    1.000,"PART-1-1",           737,  -725.106E-03,       25.0611,            0.,NA,NA,"",       7.82747,      -7.81430,  -453.855E-03,   15.4844E-03
C:/temp/dataset/8/2_24.odb,Step-1,Increment      1: Step Time =    1.000,"PART-1-1",           738,      -2.17754,       23.9659,            0.,NA,NA,"",       7.71080,      -7.69000,  -565.927E-03,   16.6181E-03
C:/temp/dataset/8/2_24.odb,Step-1,Increment      1: Step Time =    1.000,"PART-1-1",           739,       6.30112,       14.9129,            0.,NA,NA,"",       6.73238,      -6.73120,  -126.129E-03,   39.3982E-03
C:/temp/dataset/8/2_24.odb,Step-1,Increment      1: Step Time =    1.000,"PART-1-1",           740,       7.60711,       16.0964,            0.,NA,NA,"",       6.96117,      -6.96065,   85.3014E-03,   27.1012E-03
C:/temp/dataset/8/2_24.odb,Step-1,Increment      1: Step Time =    1.000,"PART-1-1",           741,            5.,         16.25,            0.,NA,NA,"",       6.91349,      -6.90764,  -284.442E-03,   54.1181E-03
C:/temp/dataset/8/2_24.odb,Step-1,Increment      1: Step Time =    1.000,"PART-1-1",           742,       11.0485,       19.6309,            0.,NA,NA,"",       7.49783,      -7.47722,   555.555E-03,   18.2575E-03
C:/temp/dataset/8/2_24.odb,Step-1,Increment      1: Step Time =    1.000,"PART-1-1",           743,       10.8767,       20.9415,            0.,NA,NA,"",       7.61635,      -7.59783,   530.906E-03,   19.8672E-03
C:/temp/dataset/8/2_24.odb,Step-1,Increment      1: Step Time =    1.000,"PART-1-1",           744,       8.95178,       19.5912,            0.,NA,NA,"",       7.44586,      -7.44000,   295.216E-03,   19.3381E-03
C:/temp/dataset/8/2_24.odb,Step-1,Increment      1: Step Time =    1.000,"PART-1-1",           745,      -10.0357,      -16.4531,            0.,NA,NA,"",       1.14778,      -1.04764,  -468.871E-03,   45.6219E-03
C:/temp/dataset/8/2_24.odb,Step-1,Increment      1: Step Time =    1.000,"PART-1-1",           746,         -8.75,          -30.,            0.,NA,NA,"",            0.,   3.02061E-39,  -43.3035E-39,   22.9040E-03
C:/temp/dataset/8/2_24.odb,Step-1,Increment      1: Step Time =    1.000,"PART-1-1",           747,      -8.42026,      -27.7162,            0.,NA,NA,"",   41.5595E-03,  -27.0687E-03,  -31.5353E-03,   20.2872E-03
C:/temp/dataset/8/2_24.odb,Step-1,Increment      1: Step Time =    1.000,"PART-1-1",           748,       8.78655,      -4.15343,            0.,NA,NA,"",       3.35860,      -3.34529,   298.723E-03,   20.9749E-03
C:/temp/dataset/8/2_24.odb,Step-1,Increment      1: Step Time =    1.000,"PART-1-1",           749,       8.68406,      -5.73195,            0.,NA,NA,"",       3.09890,      -3.08571,   285.627E-03,   29.0971E-03
C:/temp/dataset/8/2_24.odb,Step-1,Increment      1: Step Time =    1.000,"PART-1-1",           750,            5.,        -13.75,            0.,NA,NA,"",       1.53387,      -1.50013,  -319.953E-03,   5.27597E-03
C:/temp/dataset/8/2_24.odb,Step-1,Increment      1: Step Time =    1.000,"PART-1-1",           751,       6.25620,      -14.9360,            0.,NA,NA,"",       1.31742,      -1.31354,  -101.126E-03,   11.7054E-03
C:/temp/dataset/8/2_24.odb,Step-1,Increment      1: Step Time =    1.000,"PART-1-1",           752,       7.64552,      -13.5447,            0.,NA,NA,"",       1.58780,      -1.58455,   101.573E-03,   27.7212E-03
C:/temp/dataset/8/2_24.odb,Step-1,Increment      1: Step Time =    1.000,"PART-1-1",           753,       7.28908,      -20.5141,            0.,NA,NA,"",   461.591E-03,  -456.558E-03,   67.9740E-03,   32.5879E-03
C:/temp/dataset/8/2_24.odb,Step-1,Increment      1: Step Time =    1.000,"PART-1-1",           754,       5.05608,      -20.9168,            0.,NA,NA,"",   382.280E-03,  -372.234E-03,  -87.0611E-03,   51.4703E-03
C:/temp/dataset/8/2_24.odb,Step-1,Increment      1: Step Time =    1.000,"PART-1-1",           755,       6.21587,      -21.6726,            0.,NA,NA,"",   334.190E-03,  -333.896E-03,  -14.0108E-03,   16.7116E-03
C:/temp/dataset/8/2_24.odb,Step-1,Increment      1: Step Time =    1.000,"PART-1-1",           756,      -6.21032,      -20.1327,            0.,NA,NA,"",   452.207E-03,  -451.467E-03,   25.8590E-03,   45.3855E-03
C:/temp/dataset/8/2_24.odb,Step-1,Increment      1: Step Time =    1.000,"PART-1-1",           757,      -7.27258,      -21.5724,            0.,NA,NA,"",   339.166E-03,  -336.293E-03,  -44.0584E-03,   16.0452E-03
C:/temp/dataset/8/2_24.odb,Step-1,Increment      1: Step Time =    1.000,"PART-1-1",           758,      -7.56906,       11.3132,            0.,NA,NA,"",       5.63960,      -5.56805,  -895.487E-03,   13.6905E-03
C:/temp/dataset/8/2_24.odb,Step-1,Increment      1: Step Time =    1.000,"PART-1-1",           759,           -5.,         11.25,            0.,NA,NA,"",       5.61229,      -5.59356,  -458.202E-03,   1.85194E-03
C:/temp/dataset/8/2_24.odb,Step-1,Increment      1: Step Time =    1.000,"PART-1-1",           760,          -15.,          8.75,            0.,NA,NA,"",       5.44639,      -5.06195,      -2.00994,   22.5078E-03
C:/temp/dataset/8/2_24.odb,Step-1,Increment      1: Step Time =    1.000,"PART-1-1",           761,      -12.2910,       8.63249,            0.,NA,NA,"",       5.29257,      -5.05449,      -1.56950,   17.9726E-03
C:/temp/dataset/8/2_24.odb,Step-1,Increment      1: Step Time =    1.000,"PART-1-1",           762,      -10.0463,       9.29253,            0.,NA,NA,"",       5.32742,      -5.18052,      -1.24243,   18.7649E-03
C:/temp/dataset/8/2_24.odb,Step-1,Increment      1: Step Time =    1.000,"PART-1-1",           763,      -8.95480,       7.80674,            0.,NA,NA,"",       5.03834,      -4.92841,      -1.04670,   19.1927E-03
C:/temp/dataset/8/2_24.odb,Step-1,Increment      1: Step Time =    1.000,"PART-1-1",           764,      -8.82303,       10.1663,            0.,NA,NA,"",       5.45247,      -5.34585,      -1.07301,   17.5112E-03
C:/temp/dataset/8/2_24.odb,Step-1,Increment      1: Step Time =    1.000,"PART-1-1",           765,          -15.,          3.75,            0.,NA,NA,"",       4.68275,      -4.31260,      -1.82473,   26.9102E-03
C:/temp/dataset/8/2_24.odb,Step-1,Increment      1: Step Time =    1.000,"PART-1-1",           766,      -12.9901,       3.46920,            0.,NA,NA,"",       4.53852,      -4.27333,      -1.52864,   20.5700E-03
C:/temp/dataset/8/2_24.odb,Step-1,Increment      1: Step Time =    1.000,"PART-1-1",           767,          -15.,         -1.25,            0.,NA,NA,"",       4.04885,      -3.67261,      -1.70444,   5.95934E-03
C:/temp/dataset/8/2_24.odb,Step-1,Increment      1: Step Time =    1.000,"PART-1-1",           768,      -12.5622,      -1.46868,            0.,NA,NA,"",       3.90412,      -3.66037,      -1.35788,   16.4021E-03
C:/temp/dataset/8/2_24.odb,Step-1,Increment      1: Step Time =    1.000,"PART-1-1",           769,      -9.58657,      -7.04159,            0.,NA,NA,"",       2.95538,      -2.84535,  -798.921E-03,   36.0118E-03
C:/temp/dataset/8/2_24.odb,Step-1,Increment      1: Step Time =    1.000,"PART-1-1",           770,      -10.0085,      -5.60753,            0.,NA,NA,"",       3.22352,      -3.09423,  -903.786E-03,   26.0560E-03
C:/temp/dataset/8/2_24.odb,Step-1,Increment      1: Step Time =    1.000,"PART-1-1",           771,      -11.4596,      -6.08275,            0.,NA,NA,"",       3.19303,      -2.99688,      -1.10187,   21.1005E-03
C:/temp/dataset/8/2_24.odb,Step-1,Increment      1: Step Time =    1.000,"PART-1-1",           772,           -5.,         -8.75,            0.,NA,NA,"",       2.52021,      -2.51984,   43.4038E-03,   38.4400E-03
C:/temp/dataset/8/2_24.odb,Step-1,Increment      1: Step Time =    1.000,"PART-1-1",           773,      -6.19608,      -7.65780,            0.,NA,NA,"",       2.75654,      -2.74392,  -263.505E-03,   47.0762E-03
C:/temp/dataset/8/2_24.odb,Step-1,Increment      1: Step Time =    1.000,"PART-1-1",           774,      -2.54672,      -1.24033,            0.,NA,NA,"",       3.73427,      -3.71835,  -344.460E-03,   58.5089E-03
C:/temp/dataset/8/2_24.odb,Step-1,Increment      1: Step Time =    1.000,"PART-1-1",           775,       12.1686,       8.14789,            0.,NA,NA,"",       5.54537,      -5.47960,   851.534E-03,   33.9005E-03
C:/temp/dataset/8/2_24.odb,Step-1,Increment      1: Step Time =    1.000,"PART-1-1",           776,       11.7736,       6.00742,            0.,NA,NA,"",       5.07517,      -5.01077,   805.909E-03,   30.1664E-03
C:/temp/dataset/8/2_24.odb,Step-1,Increment      1: Step Time =    1.000,"PART-1-1",           777,       2.58139,       1.19261,            0.,NA,NA,"",       4.00221,      -3.99273,  -275.383E-03,   56.6078E-03
C:/temp/dataset/8/2_24.odb,Step-1,Increment      1: Step Time =    1.000,"PART-1-1",           778,      -8.87122,       6.40892,            0.,NA,NA,"",       4.79629,      -4.68980,      -1.00511,   20.9626E-03
C:/temp/dataset/8/2_24.odb,Step-1,Increment      1: Step Time =    1.000,"PART-1-1",           779,      -9.21124,       4.86121,            0.,NA,NA,"",       4.56851,      -4.45425,      -1.01534,   21.1855E-03
C:/temp/dataset/8/2_24.odb,Step-1,Increment      1: Step Time =    1.000,"PART-1-1",           780,      -7.77566,       4.46419,            0.,NA,NA,"",       4.45961,      -4.38571,  -808.516E-03,   24.0459E-03
C:/temp/dataset/8/2_24.odb,Step-1,Increment      1: Step Time =    1.000,"PART-1-1",           781,      -7.43564,       6.01190,            0.,NA,NA,"",       4.68620,      -4.61811,  -795.968E-03,   25.6244E-03
C:/temp/dataset/8/2_24.odb,Step-1,Increment      1: Step Time =    1.000,"PART-1-1",           782,      -11.3069,       27.9101,            0.,NA,NA,"",       8.26923,      -8.09798,      -1.67422,   8.37180E-03
C:/temp/dataset/8/2_24.odb,Step-1,Increment      1: Step Time =    1.000,"PART-1-1",           783,      -10.0805,       29.0536,            0.,NA,NA,"",       8.38552,      -8.24673,      -1.51931,   8.66475E-03
C:/temp/dataset/8/2_24.odb,Step-1,Increment      1: Step Time =    1.000,"PART-1-1",           784,        -11.25,           30.,            0.,NA,NA,"",       8.53457,      -8.36604,      -1.68768,   5.96799E-03
C:/temp/dataset/8/2_24.odb,Step-1,Increment      1: Step Time =    1.000,"PART-1-1",           785,          -15.,         23.75,            0.,NA,NA,"",       7.83151,      -7.52796,      -2.15926,   12.9019E-03
C:/temp/dataset/8/2_24.odb,Step-1,Increment      1: Step Time =    1.000,"PART-1-1",           786,      -12.0918,       23.7968,            0.,NA,NA,"",       7.77603,      -7.57469,      -1.75804,   9.41376E-03
C:/temp/dataset/8/2_24.odb,Step-1,Increment      1: Step Time =    1.000,"PART-1-1",           787,      -8.63614,       22.0154,            0.,NA,NA,"",       7.49753,      -7.39117,      -1.25842,   11.1456E-03
C:/temp/dataset/8/2_24.odb,Step-1,Increment      1: Step Time =    1.000,"PART-1-1",           788,      -9.89938,       20.9751,            0.,NA,NA,"",       7.36188,      -7.22164,      -1.43006,   8.09130E-03
C:/temp/dataset/8/2_24.odb,Step-1,Increment      1: Step Time =    1.000,"PART-1-1",           789,      -7.50670,       20.8576,            0.,NA,NA,"",       7.33458,      -7.25298,      -1.09101,   16.1935E-03
C:/temp/dataset/8/2_24.odb,Step-1,Increment      1: Step Time =    1.000,"PART-1-1",           790,      -11.2460,       19.8989,            0.,NA,NA,"",       7.21938,      -7.03596,      -1.61701,   8.72923E-03
C:/temp/dataset/8/2_24.odb,Step-1,Increment      1: Step Time =    1.000,"PART-1-1",           791,      -11.3323,       17.4620,            0.,NA,NA,"",       6.82581,      -6.63453,      -1.60458,   13.5014E-03
C:/temp/dataset/8/2_24.odb,Step-1,Increment      1: Step Time =    1.000,"PART-1-1",           792,      -6.30838,       21.9713,            0.,NA,NA,"",       7.48425,      -7.42441,  -944.474E-03,   16.1406E-03
C:/temp/dataset/8/2_24.odb,Step-1,Increment      1: Step Time =    1.000,"PART-1-1",           793,      -2.23761,       26.0591,            0.,NA,NA,"",       7.93123,      -7.90961,  -585.143E-03,   12.1210E-03
C:/temp/dataset/8/2_24.odb,Step-1,Increment      1: Step Time =    1.000,"PART-1-1",           794,       8.85967,       17.2477,            0.,NA,NA,"",       7.16180,      -7.15677,   268.331E-03,   19.2840E-03
C:/temp/dataset/8/2_24.odb,Step-1,Increment      1: Step Time =    1.000,"PART-1-1",           795,       10.0793,       18.0998,            0.,NA,NA,"",       7.30419,      -7.29135,   432.883E-03,   13.8704E-03
C:/temp/dataset/8/2_24.odb,Step-1,Increment      1: Step Time =    1.000,"PART-1-1",           796,          3.75,           30.,            0.,NA,NA,"",       8.29858,      -8.29769,  -121.243E-03,   4.86178E-03
C:/temp/dataset/8/2_24.odb,Step-1,Increment      1: Step Time =    1.000,"PART-1-1",           797,       3.75100,       27.5475,            0.,NA,NA,"",       8.08575,      -8.08488,  -118.631E-03,   9.73930E-03
C:/temp/dataset/8/2_24.odb,Step-1,Increment      1: Step Time =    1.000,"PART-1-1",           798,       6.92451,       23.6804,            0.,NA,NA,"",       7.77757,      -7.77660,   122.602E-03,   19.2617E-03
C:/temp/dataset/8/2_24.odb,Step-1,Increment      1: Step Time =    1.000,"PART-1-1",           799,       5.85780,       24.9146,            0.,NA,NA,"",       7.86868,      -7.86856,   41.7772E-03,   14.3146E-03
C:/temp/dataset/8/2_24.odb,Step-1,Increment      1: Step Time =    1.000,"PART-1-1",           800,       4.79652,       23.7913,            0.,NA,NA,"",       7.75079,      -7.75061,  -51.8997E-03,   19.9232E-03
C:/temp/dataset/8/2_24.odb,Step-1,Increment      1: Step Time =    1.000,"PART-1-1",           801,       3.65083,       25.0814,            0.,NA,NA,"",       7.85614,      -7.85507,  -129.717E-03,   16.2412E-03
C:/temp/dataset/8/2_24.odb,Step-1,Increment      1: Step Time =    1.000,"PART-1-1",           802,       4.89856,       26.2814,            0.,NA,NA,"",       7.98048,      -7.98042,  -29.8416E-03,   12.1886E-03
C:/temp/dataset/8/2_24.odb,Step-1,Increment      1: Step Time =    1.000,"PART-1-1",           803,         -8.75,           30.,            0.,NA,NA,"",       8.47537,      -8.36633,      -1.35516,   13.3727E-03
C:/temp/dataset/8/2_24.odb,Step-1,Increment      1: Step Time =    1.000,"PART-1-1",           804,      -8.99895,       28.0861,            0.,NA,NA,"",       8.24371,      -8.13005,      -1.36420,   9.82204E-03
C:/temp/dataset/8/2_24.odb,Step-1,Increment      1: Step Time =    1.000,"PART-1-1",           805,      -11.0560,       7.77083,            0.,NA,NA,"",       5.09922,      -4.91474,      -1.35918,   18.1854E-03
C:/temp/dataset/8/2_24.odb,Step-1,Increment      1: Step Time =    1.000,"PART-1-1",           806,      -9.90307,       2.86734,            0.,NA,NA,"",       4.32396,      -4.19073,      -1.06507,   21.5607E-03
C:/temp/dataset/8/2_24.odb,Step-1,Increment      1: Step Time =    1.000,"PART-1-1",           807,      -11.2313,       2.93204,            0.,NA,NA,"",       4.38680,      -4.20253,      -1.25808,   21.0663E-03
C:/temp/dataset/8/2_24.odb,Step-1,Increment      1: Step Time =    1.000,"PART-1-1",           808,      -9.88044,       1.36056,            0.,NA,NA,"",       4.13886,      -4.00938,      -1.02715,   22.1323E-03
C:/temp/dataset/8/2_24.odb,Step-1,Increment      1: Step Time =    1.000,"PART-1-1",           809,           -5.,          6.25,            0.,NA,NA,"",       4.70714,      -4.68641,  -441.301E-03,   48.2980E-03
C:/temp/dataset/8/2_24.odb,Step-1,Increment      1: Step Time =    1.000,"PART-1-1",           810,      -5.99693,       4.86688,            0.,NA,NA,"",       4.45053,      -4.41212,  -583.403E-03,   43.6526E-03
C:/temp/dataset/8/2_24.odb,Step-1,Increment      1: Step Time =    1.000,"PART-1-1",           811,           -5.,         -6.25,            0.,NA,NA,"",       3.02998,      -3.02673,  -140.265E-03,   88.8787E-03
C:/temp/dataset/8/2_24.odb,Step-1,Increment      1: Step Time =    1.000,"PART-1-1",           812,      -7.47931,      -6.74416,            0.,NA,NA,"",       2.97262,      -2.92780,  -514.262E-03,   45.3437E-03
C:/temp/dataset/8/2_24.odb,Step-1,Increment      1: Step Time =    1.000,"PART-1-1",           813,      -11.2714,      -15.1219,            0.,NA,NA,"",       1.46318,      -1.28909,  -692.206E-03,   48.7592E-03
C:/temp/dataset/8/2_24.odb,Step-1,Increment      1: Step Time =    1.000,"PART-1-1",           814,          -15.,        -18.75,            0.,NA,NA,"",       1.26114,  -804.201E-03,  -971.461E-03,   87.2552E-03
C:/temp/dataset/8/2_24.odb,Step-1,Increment      1: Step Time =    1.000,"PART-1-1",           815,           -5.,        -18.75,            0.,NA,NA,"",   700.350E-03,  -679.701E-03,   168.810E-03,   68.0964E-03
C:/temp/dataset/8/2_24.odb,Step-1,Increment      1: Step Time =    1.000,"PART-1-1",           816,          -15.,        -23.75,            0.,NA,NA,"",   628.908E-03,  -340.441E-03,  -528.796E-03,   92.2475E-03
C:/temp/dataset/8/2_24.odb,Step-1,Increment      1: Step Time =    1.000,"PART-1-1",           817,      -10.9002,      -24.6942,            0.,NA,NA,"",   256.805E-03,  -164.630E-03,  -197.093E-03,   44.3993E-03
C:/temp/dataset/8/2_24.odb,Step-1,Increment      1: Step Time =    1.000,"PART-1-1",           818,      -9.92286,      -25.5060,            0.,NA,NA,"",   163.948E-03,  -111.672E-03,  -120.034E-03,   33.3305E-03
C:/temp/dataset/8/2_24.odb,Step-1,Increment      1: Step Time =    1.000,"PART-1-1",           819,      -9.17441,      -24.3962,            0.,NA,NA,"",   197.869E-03,  -161.524E-03,  -114.289E-03,   24.4426E-03
C:/temp/dataset/8/2_24.odb,Step-1,Increment      1: Step Time =    1.000,"PART-1-1",           820,      -10.1518,      -23.5844,            0.,NA,NA,"",   293.514E-03,  -219.813E-03,  -194.507E-03,   36.5868E-03
C:/temp/dataset/8/2_24.odb,Step-1,Increment      1: Step Time =    1.000,"PART-1-1",           821,      -4.84440,      -26.4970,            0.,NA,NA,"",   91.8808E-03,  -91.0989E-03,   11.9613E-03,   22.4619E-03
C:/temp/dataset/8/2_24.odb,Step-1,Increment      1: Step Time =    1.000,"PART-1-1",           822,      -2.50369,      -26.4071,            0.,NA,NA,"",   117.543E-03,  -116.507E-03,   15.5694E-03,   29.0782E-03
C:/temp/dataset/8/2_24.odb,Step-1,Increment      1: Step Time =    1.000,"PART-1-1",           823,      -1.38955,      -25.1134,            0.,NA,NA,"",   175.414E-03,  -174.736E-03,   15.4022E-03,   34.3816E-03
C:/temp/dataset/8/2_24.odb,Step-1,Increment      1: Step Time =    1.000,"PART-1-1",           824,  -139.682E-03,      -26.2756,            0.,NA,NA,"",   131.683E-03,  -131.679E-03,   1.01210E-03,   30.2532E-03
C:/temp/dataset/8/2_24.odb,Step-1,Increment      1: Step Time =    1.000,"PART-1-1",           825,          3.75,          -30.,            0.,NA,NA,"",            0.,  -14.2844E-39,   1.01960E-39,   14.6173E-03
C:/temp/dataset/8/2_24.odb,Step-1,Increment      1: Step Time =    1.000,"PART-1-1",           826,       4.16188,      -27.2827,            0.,NA,NA,"",   76.2881E-03,  -75.7923E-03,  -8.68324E-03,   21.9910E-03
C:/temp/dataset/8/2_24.odb,Step-1,Increment      1: Step Time =    1.000,"PART-1-1",           827,       5.43104,      -24.9919,            0.,NA,NA,"",   157.521E-03,  -156.990E-03,  -12.9265E-03,   19.9815E-03
C:/temp/dataset/8/2_24.odb,Step-1,Increment      1: Step Time =    1.000,"PART-1-1",           828,          3.75,          -20.,            0.,NA,NA,"",   369.050E-03,  -365.722E-03,  -49.4445E-03,   58.7347E-03
C:/temp/dataset/8/2_24.odb,Step-1,Increment      1: Step Time =    1.000,"PART-1-1",           829,       3.87291,      -22.3056,            0.,NA,NA,"",   303.339E-03,  -297.153E-03,  -60.9508E-03,   36.4801E-03
C:/temp/dataset/8/2_24.odb,Step-1,Increment      1: Step Time =    1.000,"PART-1-1",           830,       4.97088,      -23.9263,            0.,NA,NA,"",   210.998E-03,  -208.874E-03,  -29.8664E-03,   23.8236E-03
C:/temp/dataset/8/2_24.odb,Step-1,Increment      1: Step Time =    1.000,"PART-1-1",           831,       6.87342,      -24.4091,            0.,NA,NA,"",   181.596E-03,  -180.080E-03,   23.4117E-03,   9.31207E-03
C:/temp/dataset/8/2_24.odb,Step-1,Increment      1: Step Time =    1.000,"PART-1-1",           832,       6.41326,      -23.3435,            0.,NA,NA,"",   237.398E-03,  -237.351E-03,   4.75477E-03,   11.3901E-03
C:/temp/dataset/8/2_24.odb,Step-1,Increment      1: Step Time =    1.000,"PART-1-1",           833,       9.46100,      -26.0738,            0.,NA,NA,"",   146.720E-03,  -112.746E-03,   93.8886E-03,   31.6355E-03
C:/temp/dataset/8/2_24.odb,Step-1,Increment      1: Step Time =    1.000,"PART-1-1",           834,       10.2673,      -27.1968,            0.,NA,NA,"",   111.338E-03,  -72.6814E-03,   84.3413E-03,   39.7416E-03
C:/temp/dataset/8/2_24.odb,Step-1,Increment      1: Step Time =    1.000,"PART-1-1",           835,       7.41841,      -16.0775,            0.,NA,NA,"",       1.13419,      -1.13153,   77.7382E-03,   27.5298E-03
C:/temp/dataset/8/2_24.odb,Step-1,Increment      1: Step Time =    1.000,"PART-1-1",           836,            5.,        -16.25,            0.,NA,NA,"",       1.11370,      -1.07738,  -282.078E-03,   12.1273E-03
C:/temp/dataset/8/2_24.odb,Step-1,Increment      1: Step Time =    1.000,"PART-1-1",           837,            5.,         -6.25,            0.,NA,NA,"",       2.94604,      -2.93500,  -254.876E-03,   79.3570E-03
C:/temp/dataset/8/2_24.odb,Step-1,Increment      1: Step Time =    1.000,"PART-1-1",           838,       7.32831,      -6.19648,            0.,NA,NA,"",       2.99992,      -2.99843,   94.5096E-03,   37.2033E-03
C:/temp/dataset/8/2_24.odb,Step-1,Increment      1: Step Time =    1.000,"PART-1-1",           839,       6.34990,      -4.95679,            0.,NA,NA,"",       3.23528,      -3.23508,  -36.1688E-03,   60.5995E-03
C:/temp/dataset/8/2_24.odb,Step-1,Increment      1: Step Time =    1.000,"PART-1-1",           840,            5.,         13.75,            0.,NA,NA,"",       6.49262,      -6.48239,  -364.289E-03,   45.9938E-03
C:/temp/dataset/8/2_24.odb,Step-1,Increment      1: Step Time =    1.000,"PART-1-1",           841,       7.57148,       13.5676,            0.,NA,NA,"",       6.52608,      -6.52583,   56.7122E-03,   28.4394E-03
C:/temp/dataset/8/2_24.odb,Step-1,Increment      1: Step Time =    1.000,"PART-1-1",           842,           15.,       23.7188,            0.,NA,NA,"",       7.89889,      -7.84449,   925.454E-03,   9.85421E-03
C:/temp/dataset/8/2_24.odb,Step-1,Increment      1: Step Time =    1.000,"PART-1-1",           843,       12.7096,       24.0554,            0.,NA,NA,"",       7.90201,      -7.87018,   708.571E-03,   11.9250E-03
C:/temp/dataset/8/2_24.odb,Step-1,Increment      1: Step Time =    1.000,"PART-1-1",           844,           15.,      -11.3062,            0.,NA,NA,"",       2.50587,      -2.18798,       1.22152,   39.8467E-03
C:/temp/dataset/8/2_24.odb,Step-1,Increment      1: Step Time =    1.000,"PART-1-1",           845,           15.,      -3.76875,            0.,NA,NA,"",       3.70819,      -3.49102,       1.25039,   14.7162E-03
C:/temp/dataset/8/2_24.odb,Step-1,Increment      1: Step Time =    1.000,"PART-1-1",           846,       9.87633,      -16.1616,            0.,NA,NA,"",       1.22729,      -1.16493,   386.221E-03,   42.9366E-03
C:/temp/dataset/8/2_24.odb,Step-1,Increment      1: Step Time =    1.000,"PART-1-1",           847,       8.51452,      -17.2877,            0.,NA,NA,"",   971.680E-03,  -947.596E-03,   214.999E-03,   35.6800E-03
C:/temp/dataset/8/2_24.odb,Step-1,Increment      1: Step Time =    1.000,"PART-1-1",           848,       8.29059,      -19.4066,            0.,NA,NA,"",   646.949E-03,  -624.341E-03,   169.530E-03,   40.7415E-03
C:/temp/dataset/8/2_24.odb,Step-1,Increment      1: Step Time =    1.000,"PART-1-1",           849,       8.55616,      -8.48630,            0.,NA,NA,"",       2.58093,      -2.56774,   260.588E-03,   39.5329E-03
C:/temp/dataset/8/2_24.odb,Step-1,Increment      1: Step Time =    1.000,"PART-1-1",           850,       9.61754,      -8.87754,            0.,NA,NA,"",       2.54641,      -2.51240,   414.784E-03,   36.5497E-03
C:/temp/dataset/8/2_24.odb,Step-1,Increment      1: Step Time =    1.000,"PART-1-1",           851,       9.02908,      -7.15658,            0.,NA,NA,"",       2.84943,      -2.82964,   335.223E-03,   35.7476E-03
C:/temp/dataset/8/2_24.odb,Step-1,Increment      1: Step Time =    1.000,"PART-1-1",           852,           15.,       16.1812,            0.,NA,NA,"",       7.21699,      -7.12821,       1.12852,   38.2389E-03
C:/temp/dataset/8/2_24.odb,Step-1,Increment      1: Step Time =    1.000,"PART-1-1",           853,       9.89201,       25.6129,            0.,NA,NA,"",       7.99253,      -7.98151,   419.586E-03,   11.1646E-03
C:/temp/dataset/8/2_24.odb,Step-1,Increment      1: Step Time =    1.000,"PART-1-1",           854,       8.89238,       24.9206,            0.,NA,NA,"",       7.91881,      -7.91235,   319.843E-03,   13.7467E-03
C:/temp/dataset/8/2_24.odb,Step-1,Increment      1: Step Time =    1.000,"PART-1-1",           855,       9.60238,       23.8702,            0.,NA,NA,"",       7.84250,      -7.83285,   388.889E-03,   15.6426E-03
C:/temp/dataset/8/2_24.odb,Step-1,Increment      1: Step Time =    1.000,"PART-1-1",           856,       10.6020,       24.5625,            0.,NA,NA,"",       7.91548,      -7.90017,   492.090E-03,   13.7733E-03
C:/temp/dataset/8/2_24.odb,Step-1,Increment      1: Step Time =    1.000,"PART-1-1",           857,       10.8145,      -1.23275,            0.,NA,NA,"",       3.83689,      -3.78808,   610.066E-03,   21.0830E-03
C:/temp/dataset/8/2_24.odb,Step-1,Increment      1: Step Time =    1.000,"PART-1-1",           858,       11.5759,  -144.200E-03,            0.,NA,NA,"",       4.02653,      -3.95839,   737.622E-03,   24.1698E-03
C:/temp/dataset/8/2_24.odb,Step-1,Increment      1: Step Time =    1.000,"PART-1-1",           859,       8.92207,      -9.93164,            0.,NA,NA,"",       2.31538,      -2.29511,   305.702E-03,   38.0935E-03
C:/temp/dataset/8/2_24.odb,Step-1,Increment      1: Step Time =    1.000,"PART-1-1",           860,       9.92328,      -10.6623,            0.,NA,NA,"",       2.22147,      -2.17595,   447.393E-03,   38.7679E-03
C:/temp/dataset/8/2_24.odb,Step-1,Increment      1: Step Time =    1.000,"PART-1-1",           861,       10.2741,      -21.0971,            0.,NA,NA,"",   568.646E-03,  -483.155E-03,   299.866E-03,   47.0129E-03
C:/temp/dataset/8/2_24.odb,Step-1,Increment      1: Step Time =    1.000,"PART-1-1",           862,       9.54695,      -22.4905,            0.,NA,NA,"",   389.428E-03,  -335.416E-03,   197.864E-03,   37.6811E-03
C:/temp/dataset/8/2_24.odb,Step-1,Increment      1: Step Time =    1.000,"PART-1-1",           863,       10.5655,      -23.0186,            0.,NA,NA,"",   405.199E-03,  -318.950E-03,   249.913E-03,   46.2114E-03
C:/temp/dataset/8/2_24.odb,Step-1,Increment      1: Step Time =    1.000,"PART-1-1",           864,       9.19444,      -24.7163,            0.,NA,NA,"",   214.220E-03,  -179.277E-03,   117.260E-03,   28.9168E-03
C:/temp/dataset/8/2_24.odb,Step-1,Increment      1: Step Time =    1.000,"PART-1-1",           865,       11.2358,      -25.7476,            0.,NA,NA,"",   235.510E-03,  -158.457E-03,   174.231E-03,   51.5122E-03
C:/temp/dataset/8/2_24.odb,Step-1,Increment      1: Step Time =    1.000,"PART-1-1",           866,       10.9693,      -24.3901,            0.,NA,NA,"",   319.607E-03,  -232.043E-03,   219.784E-03,   49.6262E-03
C:/temp/dataset/8/2_24.odb,Step-1,Increment      1: Step Time =    1.000,"PART-1-1",           867,       12.4335,       10.1140,            0.,NA,NA,"",       5.99161,      -5.92918,   862.655E-03,   36.6139E-03
C:/temp/dataset/8/2_24.odb,Step-1,Increment      1: Step Time =    1.000,"PART-1-1",           868,       7.92075,       5.64444,            0.,NA,NA,"",       4.81856,      -4.81435,   201.526E-03,   49.3741E-03
C:/temp/dataset/8/2_24.odb,Step-1,Increment      1: Step Time =    1.000,"PART-1-1",           869,       7.98957,       7.45442,            0.,NA,NA,"",       5.22858,      -5.22513,   189.944E-03,   45.9095E-03
C:/temp/dataset/8/2_24.odb,Step-1,Increment      1: Step Time =    1.000,"PART-1-1",           870,       8.32878,      -21.4218,            0.,NA,NA,"",   419.468E-03,  -397.208E-03,   134.830E-03,   30.9611E-03
C:/temp/dataset/8/2_24.odb,Step-1,Increment      1: Step Time =    1.000,"PART-1-1",           871,       7.29628,      -22.4795,            0.,NA,NA,"",   298.082E-03,  -293.925E-03,   49.6122E-03,   14.6238E-03
C:/temp/dataset/8/2_24.odb,Step-1,Increment      1: Step Time =    1.000,"PART-1-1",           872,       8.51445,      -23.5482,            0.,NA,NA,"",   262.561E-03,  -239.751E-03,   107.042E-03,   22.1188E-03
C:/temp/dataset/8/2_24.odb,Step-1,Increment      1: Step Time =    1.000,"PART-1-1",           873,       8.18845,  -488.883E-03,            0.,NA,NA,"",       3.85004,      -3.84383,   218.632E-03,   16.0736E-03
C:/temp/dataset/8/2_24.odb,Step-1,Increment      1: Step Time =    1.000,"PART-1-1",           874,       7.03757,  -99.4150E-03,            0.,NA,NA,"",       3.87662,      -3.87603,   67.5457E-03,   12.5131E-03
C:/temp/dataset/8/2_24.odb,Step-1,Increment      1: Step Time =    1.000,"PART-1-1",           875,       6.67521,      -1.55702,            0.,NA,NA,"",       3.69100,      -3.69095,   19.6802E-03,   16.1177E-03
C:/temp/dataset/8/2_24.odb,Step-1,Increment      1: Step Time =    1.000,"PART-1-1",           876,       7.82608,      -1.94649,            0.,NA,NA,"",       3.65447,      -3.65082,   163.210E-03,   17.9199E-03
C:/temp/dataset/8/2_24.odb,Step-1,Increment      1: Step Time =    1.000,"PART-1-1",           877,       10.0503,   625.537E-03,            0.,NA,NA,"",       4.06428,      -4.03320,   501.709E-03,   22.6476E-03
C:/temp/dataset/8/2_24.odb,Step-1,Increment      1: Step Time =    1.000,"PART-1-1",           878,       11.6011,       12.1291,            0.,NA,NA,"",       6.38137,      -6.34371,   692.208E-03,   31.4778E-03
C:/temp/dataset/8/2_24.odb,Step-1,Increment      1: Step Time =    1.000,"PART-1-1",           879,       9.33028,      -20.3144,            0.,NA,NA,"",   593.439E-03,  -540.807E-03,   244.329E-03,   41.8859E-03
C:/temp/dataset/8/2_24.odb,Step-1,Increment      1: Step Time =    1.000,"PART-1-1",           880,       7.30556,      -3.67465,            0.,NA,NA,"",       3.41831,      -3.41716,   88.5672E-03,   24.5826E-03
C:/temp/dataset/8/2_24.odb,Step-1,Increment      1: Step Time =    1.000,"PART-1-1",           881,       5.85057,      -2.53190,            0.,NA,NA,"",       3.56699,      -3.56615,  -77.3558E-03,   27.2895E-03
C:/temp/dataset/8/2_24.odb,Step-1,Increment      1: Step Time =    1.000,"PART-1-1",           882,       5.20819,       1.03681,            0.,NA,NA,"",       3.99374,      -3.99167,  -128.597E-03,   22.1102E-03
C:/temp/dataset/8/2_24.odb,Step-1,Increment      1: Step Time =    1.000,"PART-1-1",           883,      -5.71863,       2.55200,            0.,NA,NA,"",       4.16464,      -4.13005,  -535.631E-03,   15.4774E-03
C:/temp/dataset/8/2_24.odb,Step-1,Increment      1: Step Time =    1.000,"PART-1-1",           884,      -6.86716,       3.62545,            0.,NA,NA,"",       4.31505,      -4.26229,  -672.716E-03,   22.6522E-03
C:/temp/dataset/8/2_24.odb,Step-1,Increment      1: Step Time =    1.000,"PART-1-1",           885,      -8.17623,      -23.0651,            0.,NA,NA,"",   249.653E-03,  -234.961E-03,  -84.3805E-03,   13.8207E-03
C:/temp/dataset/8/2_24.odb,Step-1,Increment      1: Step Time =    1.000,"PART-1-1",           886,      -9.67300,      -21.9623,            0.,NA,NA,"",   396.981E-03,  -332.957E-03,  -216.179E-03,   33.7683E-03
C:/temp/dataset/8/2_24.odb,Step-1,Increment      1: Step Time =    1.000,"PART-1-1",           887,       7.67333,      -7.62111,            0.,NA,NA,"",       2.72096,      -2.71763,   134.495E-03,   42.7145E-03
C:/temp/dataset/8/2_24.odb,Step-1,Increment      1: Step Time =    1.000,"PART-1-1",           888,       5.33284,      -22.5365,            0.,NA,NA,"",   283.803E-03,  -281.211E-03,  -38.2700E-03,   23.3835E-03
C:/temp/dataset/8/2_24.odb,Step-1,Increment      1: Step Time =    1.000,"PART-1-1",           889,       8.54152,       23.5352,            0.,NA,NA,"",       7.79577,      -7.79082,   277.884E-03,   18.1921E-03
C:/temp/dataset/8/2_24.odb,Step-1,Increment      1: Step Time =    1.000,"PART-1-1",           890,       10.1087,       22.6080,            0.,NA,NA,"",       7.74557,      -7.73300,   441.224E-03,   18.6252E-03
C:/temp/dataset/8/2_24.odb,Step-1,Increment      1: Step Time =    1.000,"PART-1-1",           891,      -9.54555,       23.1667,            0.,NA,NA,"",       7.65632,      -7.52821,      -1.39470,   9.25497E-03
C:/temp/dataset/8/2_24.odb,Step-1,Increment      1: Step Time =    1.000,"PART-1-1",           892,      -7.32935,       22.8876,            0.,NA,NA,"",       7.60179,      -7.52340,      -1.08885,   11.6541E-03
C:/temp/dataset/8/2_24.odb,Step-1,Increment      1: Step Time =    1.000,"PART-1-1",           893,      -10.1333,       27.3168,            0.,NA,NA,"",       8.17267,      -8.03219,      -1.50877,   9.92711E-03
C:/temp/dataset/8/2_24.odb,Step-1,Increment      1: Step Time =    1.000,"PART-1-1",           894,      -10.9914,       25.8301,            0.,NA,NA,"",       8.00861,      -7.84415,      -1.61463,   10.2922E-03
C:/temp/dataset/8/2_24.odb,Step-1,Increment      1: Step Time =    1.000,"PART-1-1",           895,      -11.4574,      -26.3004,            0.,NA,NA,"",   182.678E-03,  -97.6461E-03,  -154.391E-03,   50.4187E-03
C:/temp/dataset/8/2_24.odb,Step-1,Increment      1: Step Time =    1.000,"PART-1-1",           896,       7.85383,      -9.49123,            0.,NA,NA,"",       2.36198,      -2.35735,   147.797E-03,   37.0403E-03
C:/temp/dataset/8/2_24.odb,Step-1,Increment      1: Step Time =    1.000,"PART-1-1",           897,       8.45015,      -11.4354,            0.,NA,NA,"",       2.00857,      -1.99583,   225.921E-03,   34.5160E-03
C:/temp/dataset/8/2_24.odb,Step-1,Increment      1: Step Time =    1.000,"PART-1-1",           898,       10.2448,       13.2708,            0.,NA,NA,"",       6.55270,      -6.53592,   468.744E-03,   28.1385E-03
C:/temp/dataset/8/2_24.odb,Step-1,Increment      1: Step Time =    1.000,"PART-1-1",           899,       8.92711,       12.0857,            0.,NA,NA,"",       6.27513,      -6.26916,   273.475E-03,   31.6839E-03
C:/temp/dataset/8/2_24.odb,Step-1,Increment      1: Step Time =    1.000,"PART-1-1",           900,       8.28681,       9.62105,            0.,NA,NA,"",       5.72924,      -5.72583,   197.735E-03,   37.1473E-03
C:/temp/dataset/8/2_24.odb,Step-1,Increment      1: Step Time =    1.000,"PART-1-1",           901,      -9.35950,      -26.6124,            0.,NA,NA,"",   94.4673E-03,  -62.0339E-03,  -71.2451E-03,   26.8103E-03
C:/temp/dataset/8/2_24.odb,Step-1,Increment      1: Step Time =    1.000,"PART-1-1",           902,      -7.15180,      -26.5840,            0.,NA,NA,"",   69.6856E-03,  -67.0243E-03,  -19.0744E-03,   14.1006E-03
C:/temp/dataset/8/2_24.odb,Step-1,Increment      1: Step Time =    1.000,"PART-1-1",           903,      -8.09105,      -25.4802,            0.,NA,NA,"",   117.582E-03,  -106.030E-03,  -50.8251E-03,   15.6149E-03
C:/temp/dataset/8/2_24.odb,Step-1,Increment      1: Step Time =    1.000,"PART-1-1",           904,      -8.48034,      -5.93831,            0.,NA,NA,"",       3.13329,      -3.05912,  -677.706E-03,   35.9270E-03
C:/temp/dataset/8/2_24.odb,Step-1,Increment      1: Step Time =    1.000,"PART-1-1",           905,      -8.12524,       27.0841,            0.,NA,NA,"",       8.10887,      -8.01363,      -1.23915,   9.64241E-03
C:/temp/dataset/8/2_24.odb,Step-1,Increment      1: Step Time =    1.000,"PART-1-1",           906,      -9.25957,       26.3148,            0.,NA,NA,"",       8.03671,      -7.91712,      -1.38124,   10.2176E-03
C:/temp/dataset/8/2_24.odb,Step-1,Increment      1: Step Time =    1.000,"PART-1-1",           907,      -11.3398,       15.0079,            0.,NA,NA,"",       6.39576,      -6.20116,      -1.56572,   16.2418E-03
C:/temp/dataset/8/2_24.odb,Step-1,Increment      1: Step Time =    1.000,"PART-1-1",           908,      -8.76249,       3.14397,            0.,NA,NA,"",       4.31669,      -4.21911,  -912.676E-03,   21.2058E-03
C:/temp/dataset/8/2_24.odb,Step-1,Increment      1: Step Time =    1.000,"PART-1-1",           909,      -10.2702,  -493.365E-03,            0.,NA,NA,"",       3.93416,      -3.79343,      -1.04284,   21.9412E-03
C:/temp/dataset/8/2_24.odb,Step-1,Increment      1: Step Time =    1.000,"PART-1-1",           910,      -8.74014,  -974.485E-03,            0.,NA,NA,"",       3.83421,      -3.74506,  -821.996E-03,   20.2039E-03
C:/temp/dataset/8/2_24.odb,Step-1,Increment      1: Step Time =    1.000,"PART-1-1",           911,      -10.8036,      -21.5085,            0.,NA,NA,"",   511.313E-03,  -392.728E-03,  -327.424E-03,   46.2028E-03
C:/temp/dataset/8/2_24.odb,Step-1,Increment      1: Step Time =    1.000,"PART-1-1",           912,       8.88912,       14.7527,            0.,NA,NA,"",       6.77706,      -6.77204,   260.772E-03,   24.1223E-03
C:/temp/dataset/8/2_24.odb,Step-1,Increment      1: Step Time =    1.000,"PART-1-1",           913,       8.78021,      -14.9514,            0.,NA,NA,"",       1.37656,      -1.35214,   258.101E-03,   33.8199E-03
C:/temp/dataset/8/2_24.odb,Step-1,Increment      1: Step Time =    1.000,"PART-1-1",           914,       9.08736,      -12.4831,            0.,NA,NA,"",       1.83777,      -1.81080,   313.674E-03,   36.2911E-03
C:/temp/dataset/8/2_24.odb,Step-1,Increment      1: Step Time =    1.000,"PART-1-1",           915,      -6.58441,       1.63370,            0.,NA,NA,"",       4.07782,      -4.03146,  -613.089E-03,   10.8081E-03
C:/temp/dataset/8/2_24.odb,Step-1,Increment      1: Step Time =    1.000,"PART-1-1",           916,      -11.0528,       22.2884,            0.,NA,NA,"",       7.56040,      -7.38841,      -1.60346,   8.50007E-03
C:/temp/dataset/8/2_24.odb,Step-1,Increment      1: Step Time =    1.000,"PART-1-1",           917,      -10.5845,       24.6750,            0.,NA,NA,"",       7.86013,      -7.70570,      -1.55043,   10.3996E-03
C:/temp/dataset/8/2_24.odb,Step-1,Increment      1: Step Time =    1.000,"PART-1-1",           918,       7.32741,       26.0095,            0.,NA,NA,"",       7.98793,      -7.98600,   175.846E-03,   11.4097E-03
C:/temp/dataset/8/2_24.odb,Step-1,Increment      1: Step Time =    1.000,"PART-1-1",           919,       11.0547,      -20.1270,            0.,NA,NA,"",   736.605E-03,  -615.678E-03,   404.385E-03,   52.7451E-03
C:/temp/dataset/8/2_24.odb,Step-1,Increment      1: Step Time =    1.000,"PART-1-1",           920,       11.5724,       23.1751,            0.,NA,NA,"",       7.81538,      -7.79243,   598.513E-03,   15.7297E-03
C:/temp/dataset/8/2_24.odb,Step-1,Increment      1: Step Time =    1.000,"PART-1-1",           921,       11.7392,       25.4428,            0.,NA,NA,"",       8.00403,      -7.98125,   603.434E-03,   9.72386E-03
C:/temp/dataset/8/2_24.odb,Step-1,Increment      1: Step Time =    1.000,"PART-1-1",           922,       10.5115,       26.6462,            0.,NA,NA,"",       8.08852,      -8.07432,   479.083E-03,   9.24296E-03
C:/temp/dataset/8/2_24.odb,Step-1,Increment      1: Step Time =    1.000,"PART-1-1",           923,       8.41385,       26.4284,            0.,NA,NA,"",       8.04014,      -8.03535,   277.459E-03,   9.79512E-03
C:/temp/dataset/8/2_24.odb,Step-1,Increment      1: Step Time =    1.000,"PART-1-1",           924,       9.30707,      -2.42527,            0.,NA,NA,"",       3.61907,      -3.59959,   375.014E-03,   16.8358E-03
C:/temp/dataset/8/2_24.odb,Step-1,Increment      1: Step Time =    1.000,"PART-1-1",           925,       9.63410,  -928.992E-03,            0.,NA,NA,"",       3.83354,      -3.80948,   428.869E-03,   19.8550E-03
C:/temp/dataset/8/2_24.odb,Step-1,Increment      1: Step Time =    1.000,"PART-1-1",           926,       5.61561,  -459.456E-03,            0.,NA,NA,"",       3.81582,      -3.81481,  -88.0784E-03,   17.7848E-03
C:/temp/dataset/8/2_24.odb,Step-1,Increment      1: Step Time =    1.000,"PART-1-1",           927,      -8.35034,   879.442E-03,            0.,NA,NA,"",       4.03499,      -3.95316,  -808.502E-03,   19.4293E-03
C:/temp/dataset/8/2_24.odb,Step-1,Increment      1: Step Time =    1.000,"PART-1-1",           928,      -7.85399,       2.30522,            0.,NA,NA,"",       4.18408,      -4.11198,  -773.432E-03,   17.2960E-03
C:/temp/dataset/8/2_24.odb,Step-1,Increment      1: Step Time =    1.000,"PART-1-1",           929,      -6.36888,       23.7008,            0.,NA,NA,"",       7.69180,      -7.62935,  -978.183E-03,   9.65604E-03
C:/temp/dataset/8/2_24.odb,Step-1,Increment      1: Step Time =    1.000,"PART-1-1",           930,       7.80593,       24.5017,            0.,NA,NA,"",       7.86489,      -7.86203,   212.181E-03,   14.6293E-03
