ODB Name,Step,Frame,Part Instance Name,    êﬂì_ÉâÉxÉã,X,Y,Z,Section Name,Material Name,Section Point,   U-Magnitude,          U-U1,          U-U2,       S-Mises
C:/temp/dataset/8/2_40.odb,Step-1,Increment      1: Step Time =    1.000,"PART-1-1",             1,            5.,           -5.,            0.,NA,NA,"",       5.33178,      -5.30436,  -540.057E-03,   193.974E-03
C:/temp/dataset/8/2_40.odb,Step-1,Increment      1: Step Time =    1.000,"PART-1-1",             2,            0.,           -5.,            0.,NA,NA,"",       5.75472,      -5.70594,  -747.724E-03,   20.7435E-03
C:/temp/dataset/8/2_40.odb,Step-1,Increment      1: Step Time =    1.000,"PART-1-1",             3,            5.,         -12.5,            0.,NA,NA,"",       2.89017,      -2.81937,  -635.765E-03,   23.0611E-03
C:/temp/dataset/8/2_40.odb,Step-1,Increment      1: Step Time =    1.000,"PART-1-1",             4,            5.,          -20.,            0.,NA,NA,"",   735.363E-03,  -709.706E-03,  -192.554E-03,   152.826E-03
C:/temp/dataset/8/2_40.odb,Step-1,Increment      1: Step Time =    1.000,"PART-1-1",             5,            0.,          -20.,            0.,NA,NA,"",   482.033E-03,  -481.950E-03,   8.94077E-03,   6.10098E-03
C:/temp/dataset/8/2_40.odb,Step-1,Increment      1: Step Time =    1.000,"PART-1-1",             6,           -5.,          -20.,            0.,NA,NA,"",   746.447E-03,  -724.992E-03,   177.682E-03,   159.496E-03
C:/temp/dataset/8/2_40.odb,Step-1,Increment      1: Step Time =    1.000,"PART-1-1",             7,           -5.,           -5.,            0.,NA,NA,"",       5.56959,      -5.52732,  -684.946E-03,   208.783E-03
C:/temp/dataset/8/2_40.odb,Step-1,Increment      1: Step Time =    1.000,"PART-1-1",             8,            5.,           20.,            0.,NA,NA,"",       12.1614,      -12.1357,  -790.861E-03,   80.3719E-03
C:/temp/dataset/8/2_40.odb,Step-1,Increment      1: Step Time =    1.000,"PART-1-1",             9,            0.,           20.,            0.,NA,NA,"",       12.1043,      -12.0386,      -1.25979,   31.0534E-03
C:/temp/dataset/8/2_40.odb,Step-1,Increment      1: Step Time =    1.000,"PART-1-1",            10,            5.,          12.5,            0.,NA,NA,"",       10.2302,      -10.1638,      -1.16379,   67.4691E-03
C:/temp/dataset/8/2_40.odb,Step-1,Increment      1: Step Time =    1.000,"PART-1-1",            11,            5.,            5.,            0.,NA,NA,"",       7.35952,      -7.32724,  -688.506E-03,   189.971E-03
C:/temp/dataset/8/2_40.odb,Step-1,Increment      1: Step Time =    1.000,"PART-1-1",            12,            0.,            5.,            0.,NA,NA,"",       7.01084,      -6.96486,  -801.625E-03,   9.68674E-03
C:/temp/dataset/8/2_40.odb,Step-1,Increment      1: Step Time =    1.000,"PART-1-1",            13,           -5.,            5.,            0.,NA,NA,"",       7.33468,      -7.25549,      -1.07492,   137.663E-03
C:/temp/dataset/8/2_40.odb,Step-1,Increment      1: Step Time =    1.000,"PART-1-1",            14,           -5.,           20.,            0.,NA,NA,"",       11.9040,      -11.7697,      -1.78348,   107.531E-03
C:/temp/dataset/8/2_40.odb,Step-1,Increment      1: Step Time =    1.000,"PART-1-1",            15,           15.,           30.,            0.,NA,NA,"",       13.7949,      -13.7729,   779.089E-03,   645.228E-06
C:/temp/dataset/8/2_40.odb,Step-1,Increment      1: Step Time =    1.000,"PART-1-1",            16,            0.,           30.,            0.,NA,NA,"",       13.6039,      -13.5383,      -1.33504,   12.7170E-03
C:/temp/dataset/8/2_40.odb,Step-1,Increment      1: Step Time =    1.000,"PART-1-1",            17,          -15.,           30.,            0.,NA,NA,"",       14.1578,      -13.5200,      -4.20155,   983.934E-06
C:/temp/dataset/8/2_40.odb,Step-1,Increment      1: Step Time =    1.000,"PART-1-1",            18,          -15.,          -30.,            0.,NA,NA,"",            0.,  -49.7460E-39,  -86.5334E-39,   191.696E-03
C:/temp/dataset/8/2_40.odb,Step-1,Increment      1: Step Time =    1.000,"PART-1-1",            19,           15.,          -30.,            0.,NA,NA,"",            0.,  -68.3704E-39,   114.695E-39,   218.972E-03
C:/temp/dataset/8/2_40.odb,Step-1,Increment      1: Step Time =    1.000,"PART-1-1",            20,           15.,      -20.1000,            0.,NA,NA,"",       1.83466,      -1.31632,       1.27800,   146.456E-03
C:/temp/dataset/8/2_40.odb,Step-1,Increment      1: Step Time =    1.000,"PART-1-1",            21,           15.,      -10.0500,            0.,NA,NA,"",       4.47020,      -4.07169,       1.84501,   50.4802E-03
C:/temp/dataset/8/2_40.odb,Step-1,Increment      1: Step Time =    1.000,"PART-1-1",            22,           15.,            0.,            0.,NA,NA,"",       6.96122,      -6.73386,       1.76458,   46.9234E-03
C:/temp/dataset/8/2_40.odb,Step-1,Increment      1: Step Time =    1.000,"PART-1-1",            23,           15.,       9.90000,            0.,NA,NA,"",       10.0045,      -9.85344,       1.73183,   21.5915E-03
C:/temp/dataset/8/2_40.odb,Step-1,Increment      1: Step Time =    1.000,"PART-1-1",            24,           15.,       19.9500,            0.,NA,NA,"",       12.4315,      -12.3926,   982.777E-03,   47.5633E-03
C:/temp/dataset/8/2_40.odb,Step-1,Increment      1: Step Time =    1.000,"PART-1-1",            25,           2.5,           -5.,            0.,NA,NA,"",       5.65846,      -5.62189,  -642.321E-03,   78.6910E-03
C:/temp/dataset/8/2_40.odb,Step-1,Increment      1: Step Time =    1.000,"PART-1-1",            26,            5.,          -10.,            0.,NA,NA,"",       3.63402,      -3.57149,  -671.203E-03,   42.6204E-03
C:/temp/dataset/8/2_40.odb,Step-1,Increment      1: Step Time =    1.000,"PART-1-1",            27,            5.,          -7.5,            0.,NA,NA,"",       4.41911,      -4.36692,  -677.113E-03,   86.9766E-03
C:/temp/dataset/8/2_40.odb,Step-1,Increment      1: Step Time =    1.000,"PART-1-1",            28,            5.,         -17.5,            0.,NA,NA,"",       1.49496,      -1.42633,  -447.780E-03,   43.5770E-03
C:/temp/dataset/8/2_40.odb,Step-1,Increment      1: Step Time =    1.000,"PART-1-1",            29,            5.,          -15.,            0.,NA,NA,"",       2.17895,      -2.10599,  -559.170E-03,   4.20161E-03
C:/temp/dataset/8/2_40.odb,Step-1,Increment      1: Step Time =    1.000,"PART-1-1",            30,           2.5,          -20.,            0.,NA,NA,"",   520.332E-03,  -517.498E-03,  -54.2353E-03,   56.1835E-03
C:/temp/dataset/8/2_40.odb,Step-1,Increment      1: Step Time =    1.000,"PART-1-1",            31,          -2.5,          -20.,            0.,NA,NA,"",   509.764E-03,  -505.181E-03,   68.2017E-03,   46.9941E-03
C:/temp/dataset/8/2_40.odb,Step-1,Increment      1: Step Time =    1.000,"PART-1-1",            32,           -5.,          -7.5,            0.,NA,NA,"",       4.60726,      -4.60328,  -191.592E-03,   91.1412E-03
C:/temp/dataset/8/2_40.odb,Step-1,Increment      1: Step Time =    1.000,"PART-1-1",            33,           -5.,          -10.,            0.,NA,NA,"",       3.77310,      -3.77265,   58.3417E-03,   34.7050E-03
C:/temp/dataset/8/2_40.odb,Step-1,Increment      1: Step Time =    1.000,"PART-1-1",            34,           -5.,         -12.5,            0.,NA,NA,"",       2.98165,      -2.97185,   241.448E-03,   5.95176E-03
C:/temp/dataset/8/2_40.odb,Step-1,Increment      1: Step Time =    1.000,"PART-1-1",            35,           -5.,          -15.,            0.,NA,NA,"",       2.22171,      -2.19578,   338.425E-03,   25.2473E-03
C:/temp/dataset/8/2_40.odb,Step-1,Increment      1: Step Time =    1.000,"PART-1-1",            36,           -5.,         -17.5,            0.,NA,NA,"",       1.50581,      -1.46299,   356.550E-03,   73.9438E-03
C:/temp/dataset/8/2_40.odb,Step-1,Increment      1: Step Time =    1.000,"PART-1-1",            37,          -2.5,           -5.,            0.,NA,NA,"",       5.76297,      -5.70771,  -796.181E-03,   68.3484E-03
C:/temp/dataset/8/2_40.odb,Step-1,Increment      1: Step Time =    1.000,"PART-1-1",            38,           2.5,           20.,            0.,NA,NA,"",       12.1553,      -12.1156,  -981.766E-03,   23.1444E-03
C:/temp/dataset/8/2_40.odb,Step-1,Increment      1: Step Time =    1.000,"PART-1-1",            39,            5.,           15.,            0.,NA,NA,"",       10.9843,      -10.9294,      -1.09759,   84.8140E-03
C:/temp/dataset/8/2_40.odb,Step-1,Increment      1: Step Time =    1.000,"PART-1-1",            40,            5.,          17.5,            0.,NA,NA,"",       11.6263,      -11.5848,  -980.985E-03,   95.8967E-03
C:/temp/dataset/8/2_40.odb,Step-1,Increment      1: Step Time =    1.000,"PART-1-1",            41,            5.,           7.5,            0.,NA,NA,"",       8.45441,      -8.39040,      -1.03843,   41.7089E-03
C:/temp/dataset/8/2_40.odb,Step-1,Increment      1: Step Time =    1.000,"PART-1-1",            42,            5.,           10.,            0.,NA,NA,"",       9.38304,      -9.31285,      -1.14559,   41.7980E-03
C:/temp/dataset/8/2_40.odb,Step-1,Increment      1: Step Time =    1.000,"PART-1-1",            43,           2.5,            5.,            0.,NA,NA,"",       7.07345,      -7.03619,  -725.081E-03,   94.8462E-03
C:/temp/dataset/8/2_40.odb,Step-1,Increment      1: Step Time =    1.000,"PART-1-1",            44,          -2.5,            5.,            0.,NA,NA,"",       7.06398,      -7.00510,  -910.197E-03,   55.9082E-03
C:/temp/dataset/8/2_40.odb,Step-1,Increment      1: Step Time =    1.000,"PART-1-1",            45,           -5.,          17.5,            0.,NA,NA,"",       11.1066,      -11.0022,      -1.51930,   46.5612E-03
C:/temp/dataset/8/2_40.odb,Step-1,Increment      1: Step Time =    1.000,"PART-1-1",            46,           -5.,           15.,            0.,NA,NA,"",       10.3692,      -10.2799,      -1.35800,   17.6867E-03
C:/temp/dataset/8/2_40.odb,Step-1,Increment      1: Step Time =    1.000,"PART-1-1",            47,           -5.,          12.5,            0.,NA,NA,"",       9.63406,      -9.55598,      -1.22400,   4.40897E-03
C:/temp/dataset/8/2_40.odb,Step-1,Increment      1: Step Time =    1.000,"PART-1-1",            48,           -5.,           10.,            0.,NA,NA,"",       8.89690,      -8.82595,      -1.12130,   8.96679E-03
C:/temp/dataset/8/2_40.odb,Step-1,Increment      1: Step Time =    1.000,"PART-1-1",            49,           -5.,           7.5,            0.,NA,NA,"",       8.15574,      -8.08808,      -1.04828,   42.8445E-03
C:/temp/dataset/8/2_40.odb,Step-1,Increment      1: Step Time =    1.000,"PART-1-1",            50,          -2.5,           20.,            0.,NA,NA,"",       12.0406,      -11.9400,      -1.55365,   57.3102E-03
C:/temp/dataset/8/2_40.odb,Step-1,Increment      1: Step Time =    1.000,"PART-1-1",            51,          12.5,           30.,            0.,NA,NA,"",       13.7515,      -13.7454,   408.243E-03,   1.42844E-03
C:/temp/dataset/8/2_40.odb,Step-1,Increment      1: Step Time =    1.000,"PART-1-1",            52,           10.,           30.,            0.,NA,NA,"",       13.7062,      -13.7061,   29.7942E-03,   8.85528E-03
C:/temp/dataset/8/2_40.odb,Step-1,Increment      1: Step Time =    1.000,"PART-1-1",            53,           7.5,           30.,            0.,NA,NA,"",       13.6541,      -13.6499,  -339.381E-03,   14.6415E-03
C:/temp/dataset/8/2_40.odb,Step-1,Increment      1: Step Time =    1.000,"PART-1-1",            54,            5.,           30.,            0.,NA,NA,"",       13.6074,      -13.5901,  -684.350E-03,   13.1631E-03
C:/temp/dataset/8/2_40.odb,Step-1,Increment      1: Step Time =    1.000,"PART-1-1",            55,           2.5,           30.,            0.,NA,NA,"",       13.5862,      -13.5488,      -1.00851,   2.94038E-03
C:/temp/dataset/8/2_40.odb,Step-1,Increment      1: Step Time =    1.000,"PART-1-1",            56,          -2.5,           30.,            0.,NA,NA,"",       13.6639,      -13.5584,      -1.69450,   25.9601E-03
C:/temp/dataset/8/2_40.odb,Step-1,Increment      1: Step Time =    1.000,"PART-1-1",            57,           -5.,           30.,            0.,NA,NA,"",       13.7564,      -13.5934,      -2.11154,   32.6689E-03
C:/temp/dataset/8/2_40.odb,Step-1,Increment      1: Step Time =    1.000,"PART-1-1",            58,          -7.5,           30.,            0.,NA,NA,"",       13.8635,      -13.6188,      -2.59334,   28.5639E-03
C:/temp/dataset/8/2_40.odb,Step-1,Increment      1: Step Time =    1.000,"PART-1-1",            59,          -10.,           30.,            0.,NA,NA,"",       13.9683,      -13.6147,      -3.12289,   16.2392E-03
C:/temp/dataset/8/2_40.odb,Step-1,Increment      1: Step Time =    1.000,"PART-1-1",            60,         -12.5,           30.,            0.,NA,NA,"",       14.0632,      -13.5764,      -3.66796,   3.68039E-03
C:/temp/dataset/8/2_40.odb,Step-1,Increment      1: Step Time =    1.000,"PART-1-1",            61,          -15.,          27.5,            0.,NA,NA,"",       13.6418,      -12.9962,      -4.14722,   3.78038E-03
C:/temp/dataset/8/2_40.odb,Step-1,Increment      1: Step Time =    1.000,"PART-1-1",            62,          -15.,           25.,            0.,NA,NA,"",       13.1355,      -12.4744,      -4.11456,   16.0133E-03
C:/temp/dataset/8/2_40.odb,Step-1,Increment      1: Step Time =    1.000,"PART-1-1",            63,          -15.,          22.5,            0.,NA,NA,"",       12.6110,      -11.9243,      -4.10458,   27.1756E-03
C:/temp/dataset/8/2_40.odb,Step-1,Increment      1: Step Time =    1.000,"PART-1-1",            64,          -15.,           20.,            0.,NA,NA,"",       12.0394,      -11.3197,      -4.10023,   29.9455E-03
C:/temp/dataset/8/2_40.odb,Step-1,Increment      1: Step Time =    1.000,"PART-1-1",            65,          -15.,          17.5,            0.,NA,NA,"",       11.4082,      -10.6558,      -4.07457,   22.3410E-03
C:/temp/dataset/8/2_40.odb,Step-1,Increment      1: Step Time =    1.000,"PART-1-1",            66,          -15.,           15.,            0.,NA,NA,"",       10.7277,      -9.95055,      -4.00882,   7.10837E-03
C:/temp/dataset/8/2_40.odb,Step-1,Increment      1: Step Time =    1.000,"PART-1-1",            67,          -15.,          12.5,            0.,NA,NA,"",       10.0218,      -9.23226,      -3.89906,   11.0336E-03
C:/temp/dataset/8/2_40.odb,Step-1,Increment      1: Step Time =    1.000,"PART-1-1",            68,          -15.,           10.,            0.,NA,NA,"",       9.31701,      -8.52848,      -3.75122,   28.8064E-03
C:/temp/dataset/8/2_40.odb,Step-1,Increment      1: Step Time =    1.000,"PART-1-1",            69,          -15.,           7.5,            0.,NA,NA,"",       8.64020,      -7.86553,      -3.57583,   42.2119E-03
C:/temp/dataset/8/2_40.odb,Step-1,Increment      1: Step Time =    1.000,"PART-1-1",            70,          -15.,            5.,            0.,NA,NA,"",       8.01607,      -7.26229,      -3.39361,   46.9464E-03
C:/temp/dataset/8/2_40.odb,Step-1,Increment      1: Step Time =    1.000,"PART-1-1",            71,          -15.,           2.5,            0.,NA,NA,"",       7.45662,      -6.71888,      -3.23384,   36.8175E-03
C:/temp/dataset/8/2_40.odb,Step-1,Increment      1: Step Time =    1.000,"PART-1-1",            72,          -15.,            0.,            0.,NA,NA,"",       6.94328,      -6.20349,      -3.11863,   15.6356E-03
C:/temp/dataset/8/2_40.odb,Step-1,Increment      1: Step Time =    1.000,"PART-1-1",            73,          -15.,          -2.5,            0.,NA,NA,"",       6.42856,      -5.65908,      -3.04979,   4.73757E-03
C:/temp/dataset/8/2_40.odb,Step-1,Increment      1: Step Time =    1.000,"PART-1-1",            74,          -15.,           -5.,            0.,NA,NA,"",       5.86175,      -5.04041,      -2.99239,   11.3878E-03
C:/temp/dataset/8/2_40.odb,Step-1,Increment      1: Step Time =    1.000,"PART-1-1",            75,          -15.,          -7.5,            0.,NA,NA,"",       5.21205,      -4.33178,      -2.89847,   7.71984E-03
C:/temp/dataset/8/2_40.odb,Step-1,Increment      1: Step Time =    1.000,"PART-1-1",            76,          -15.,          -10.,            0.,NA,NA,"",       4.49598,      -3.56946,      -2.73364,   37.0844E-03
C:/temp/dataset/8/2_40.odb,Step-1,Increment      1: Step Time =    1.000,"PART-1-1",            77,          -15.,         -12.5,            0.,NA,NA,"",       3.74888,      -2.80651,      -2.48547,   73.3853E-03
C:/temp/dataset/8/2_40.odb,Step-1,Increment      1: Step Time =    1.000,"PART-1-1",            78,          -15.,          -15.,            0.,NA,NA,"",       3.01630,      -2.09565,      -2.16941,   108.551E-03
C:/temp/dataset/8/2_40.odb,Step-1,Increment      1: Step Time =    1.000,"PART-1-1",            79,          -15.,         -17.5,            0.,NA,NA,"",       2.33445,      -1.48011,      -1.80525,   137.533E-03
C:/temp/dataset/8/2_40.odb,Step-1,Increment      1: Step Time =    1.000,"PART-1-1",            80,          -15.,          -20.,            0.,NA,NA,"",       1.73064,  -990.886E-03,      -1.41889,   154.177E-03
C:/temp/dataset/8/2_40.odb,Step-1,Increment      1: Step Time =    1.000,"PART-1-1",            81,          -15.,         -22.5,            0.,NA,NA,"",       1.21787,  -636.587E-03,      -1.03825,   157.460E-03
C:/temp/dataset/8/2_40.odb,Step-1,Increment      1: Step Time =    1.000,"PART-1-1",            82,          -15.,          -25.,            0.,NA,NA,"",   789.480E-03,  -394.263E-03,  -683.985E-03,   147.335E-03
C:/temp/dataset/8/2_40.odb,Step-1,Increment      1: Step Time =    1.000,"PART-1-1",            83,          -15.,         -27.5,            0.,NA,NA,"",   418.910E-03,  -224.225E-03,  -353.848E-03,   154.823E-03
C:/temp/dataset/8/2_40.odb,Step-1,Increment      1: Step Time =    1.000,"PART-1-1",            84,         -12.5,          -30.,            0.,NA,NA,"",            0.,   2.43840E-39,  -316.644E-39,   77.9691E-03
C:/temp/dataset/8/2_40.odb,Step-1,Increment      1: Step Time =    1.000,"PART-1-1",            85,          -10.,          -30.,            0.,NA,NA,"",            0.,  -50.0832E-39,  -148.742E-39,   51.8311E-03
C:/temp/dataset/8/2_40.odb,Step-1,Increment      1: Step Time =    1.000,"PART-1-1",            86,          -7.5,          -30.,            0.,NA,NA,"",            0.,   28.1013E-39,  -79.5476E-39,   21.0702E-03
C:/temp/dataset/8/2_40.odb,Step-1,Increment      1: Step Time =    1.000,"PART-1-1",            87,           -5.,          -30.,            0.,NA,NA,"",            0.,  -33.2149E-39,  -30.5879E-39,   14.7268E-03
C:/temp/dataset/8/2_40.odb,Step-1,Increment      1: Step Time =    1.000,"PART-1-1",            88,          -2.5,          -30.,            0.,NA,NA,"",            0.,  -52.1827E-39,  -30.4478E-39,   29.1448E-03
C:/temp/dataset/8/2_40.odb,Step-1,Increment      1: Step Time =    1.000,"PART-1-1",            89,            0.,          -30.,            0.,NA,NA,"",            0.,  -58.8344E-39,   38.1039E-39,   35.2725E-03
C:/temp/dataset/8/2_40.odb,Step-1,Increment      1: Step Time =    1.000,"PART-1-1",            90,           2.5,          -30.,            0.,NA,NA,"",            0.,  -50.4398E-39,  -59.1711E-39,   30.3656E-03
C:/temp/dataset/8/2_40.odb,Step-1,Increment      1: Step Time =    1.000,"PART-1-1",            91,            5.,          -30.,            0.,NA,NA,"",            0.,  -44.0273E-39,   30.4852E-39,   18.6778E-03
C:/temp/dataset/8/2_40.odb,Step-1,Increment      1: Step Time =    1.000,"PART-1-1",            92,           7.5,          -30.,            0.,NA,NA,"",            0.,   12.0620E-39,   56.1032E-39,   22.4180E-03
C:/temp/dataset/8/2_40.odb,Step-1,Increment      1: Step Time =    1.000,"PART-1-1",            93,           10.,          -30.,            0.,NA,NA,"",            0.,  -62.8648E-39,   189.964E-39,   52.3177E-03
C:/temp/dataset/8/2_40.odb,Step-1,Increment      1: Step Time =    1.000,"PART-1-1",            94,          12.5,          -30.,            0.,NA,NA,"",            0.,  -45.8452E-39,   254.628E-39,   84.5418E-03
C:/temp/dataset/8/2_40.odb,Step-1,Increment      1: Step Time =    1.000,"PART-1-1",            95,           15.,      -27.5250,            0.,NA,NA,"",   474.392E-03,  -300.274E-03,   367.264E-03,   156.119E-03
C:/temp/dataset/8/2_40.odb,Step-1,Increment      1: Step Time =    1.000,"PART-1-1",            96,           15.,      -25.0500,            0.,NA,NA,"",   867.593E-03,  -546.851E-03,   673.551E-03,   146.009E-03
C:/temp/dataset/8/2_40.odb,Step-1,Increment      1: Step Time =    1.000,"PART-1-1",            97,           15.,      -22.5750,            0.,NA,NA,"",       1.31453,  -872.801E-03,   982.962E-03,   150.340E-03
C:/temp/dataset/8/2_40.odb,Step-1,Increment      1: Step Time =    1.000,"PART-1-1",            98,           15.,      -17.5875,            0.,NA,NA,"",       2.43691,      -1.89655,       1.53024,   129.067E-03
C:/temp/dataset/8/2_40.odb,Step-1,Increment      1: Step Time =    1.000,"PART-1-1",            99,           15.,      -15.0750,            0.,NA,NA,"",       3.09366,      -2.57807,       1.71005,   104.251E-03
C:/temp/dataset/8/2_40.odb,Step-1,Increment      1: Step Time =    1.000,"PART-1-1",           100,           15.,      -12.5625,            0.,NA,NA,"",       3.77960,      -3.31721,       1.81149,   76.7108E-03
C:/temp/dataset/8/2_40.odb,Step-1,Increment      1: Step Time =    1.000,"PART-1-1",           101,           15.,      -7.53750,            0.,NA,NA,"",       5.14059,      -4.80466,       1.82782,   29.0291E-03
C:/temp/dataset/8/2_40.odb,Step-1,Increment      1: Step Time =    1.000,"PART-1-1",           102,           15.,      -5.02500,            0.,NA,NA,"",       5.77030,      -5.48693,       1.78604,   21.6246E-03
C:/temp/dataset/8/2_40.odb,Step-1,Increment      1: Step Time =    1.000,"PART-1-1",           103,           15.,      -2.51250,            0.,NA,NA,"",       6.36563,      -6.11879,       1.75547,   27.7208E-03
C:/temp/dataset/8/2_40.odb,Step-1,Increment      1: Step Time =    1.000,"PART-1-1",           104,           15.,       2.47500,            0.,NA,NA,"",       7.60093,      -7.38276,       1.80804,   61.3410E-03
C:/temp/dataset/8/2_40.odb,Step-1,Increment      1: Step Time =    1.000,"PART-1-1",           105,           15.,       4.95000,            0.,NA,NA,"",       8.32411,      -8.11634,       1.84823,   62.5971E-03
C:/temp/dataset/8/2_40.odb,Step-1,Increment      1: Step Time =    1.000,"PART-1-1",           106,           15.,       7.42500,            0.,NA,NA,"",       9.12711,      -8.94074,       1.83502,   44.6739E-03
C:/temp/dataset/8/2_40.odb,Step-1,Increment      1: Step Time =    1.000,"PART-1-1",           107,           15.,       12.4125,            0.,NA,NA,"",       10.8318,      -10.7228,       1.53265,   48.3897E-03
C:/temp/dataset/8/2_40.odb,Step-1,Increment      1: Step Time =    1.000,"PART-1-1",           108,           15.,       14.9250,            0.,NA,NA,"",       11.5112,      -11.4340,       1.33167,   60.0419E-03
C:/temp/dataset/8/2_40.odb,Step-1,Increment      1: Step Time =    1.000,"PART-1-1",           109,           15.,       17.4375,            0.,NA,NA,"",       12.0556,      -12.0015,       1.14075,   66.1880E-03
C:/temp/dataset/8/2_40.odb,Step-1,Increment      1: Step Time =    1.000,"PART-1-1",           110,           15.,       22.4625,            0.,NA,NA,"",       12.7418,      -12.7100,   900.455E-03,   22.9555E-03
C:/temp/dataset/8/2_40.odb,Step-1,Increment      1: Step Time =    1.000,"PART-1-1",           111,           15.,       24.9750,            0.,NA,NA,"",       13.0806,      -13.0536,   840.886E-03,   9.25606E-03
C:/temp/dataset/8/2_40.odb,Step-1,Increment      1: Step Time =    1.000,"PART-1-1",           112,           15.,       27.4875,            0.,NA,NA,"",       13.4307,      -13.4065,   805.902E-03,   1.39464E-03
C:/temp/dataset/8/2_40.odb,Step-1,Increment      1: Step Time =    1.000,"PART-1-1",           113,       13.1365,       7.82775,            0.,NA,NA,"",       9.04446,      -8.95896,       1.24067,   41.5744E-03
C:/temp/dataset/8/2_40.odb,Step-1,Increment      1: Step Time =    1.000,"PART-1-1",           114,       12.9206,      -22.7091,            0.,NA,NA,"",       1.00771,  -717.886E-03,   707.193E-03,   114.793E-03
C:/temp/dataset/8/2_40.odb,Step-1,Increment      1: Step Time =    1.000,"PART-1-1",           115,       12.1826,      -25.1314,            0.,NA,NA,"",   555.392E-03,  -376.971E-03,   407.864E-03,   104.541E-03
C:/temp/dataset/8/2_40.odb,Step-1,Increment      1: Step Time =    1.000,"PART-1-1",           116,       12.6244,   112.324E-03,            0.,NA,NA,"",       6.74565,      -6.64234,       1.17603,   42.7554E-03
C:/temp/dataset/8/2_40.odb,Step-1,Increment      1: Step Time =    1.000,"PART-1-1",           117,       12.7971,       5.51469,            0.,NA,NA,"",       8.24286,      -8.15263,       1.21627,   43.2965E-03
C:/temp/dataset/8/2_40.odb,Step-1,Increment      1: Step Time =    1.000,"PART-1-1",           118,       12.0259,       2.90661,            0.,NA,NA,"",       7.39455,      -7.32239,       1.03051,   41.7823E-03
C:/temp/dataset/8/2_40.odb,Step-1,Increment      1: Step Time =    1.000,"PART-1-1",           119,       6.98518,      -9.77271,            0.,NA,NA,"",       3.75946,      -3.75717,  -131.270E-03,   58.7807E-03
C:/temp/dataset/8/2_40.odb,Step-1,Increment      1: Step Time =    1.000,"PART-1-1",           120,       7.90645,      -27.9165,            0.,NA,NA,"",   77.6391E-03,  -66.0972E-03,   40.7307E-03,   30.2006E-03
C:/temp/dataset/8/2_40.odb,Step-1,Increment      1: Step Time =    1.000,"PART-1-1",           121,      -2.48144,      -27.6485,            0.,NA,NA,"",   116.280E-03,  -115.736E-03,   11.2319E-03,   40.1731E-03
C:/temp/dataset/8/2_40.odb,Step-1,Increment      1: Step Time =    1.000,"PART-1-1",           122,      -12.5133,      -12.5664,            0.,NA,NA,"",       3.31328,      -2.81435,      -1.74850,   78.8738E-03
C:/temp/dataset/8/2_40.odb,Step-1,Increment      1: Step Time =    1.000,"PART-1-1",           123,      -12.5789,       17.4824,            0.,NA,NA,"",       11.2898,      -10.7500,      -3.44904,   18.1498E-03
C:/temp/dataset/8/2_40.odb,Step-1,Increment      1: Step Time =    1.000,"PART-1-1",           124,      -2.62827,      -2.48556,            0.,NA,NA,"",       5.97317,      -5.91771,  -812.042E-03,   112.047E-03
C:/temp/dataset/8/2_40.odb,Step-1,Increment      1: Step Time =    1.000,"PART-1-1",           125,      -2.40341,       2.52844,            0.,NA,NA,"",       6.78514,      -6.72911,  -870.229E-03,   84.6085E-03
C:/temp/dataset/8/2_40.odb,Step-1,Increment      1: Step Time =    1.000,"PART-1-1",           126,       2.45915,      -2.56896,            0.,NA,NA,"",       5.92470,      -5.88477,  -686.733E-03,   89.5603E-03
C:/temp/dataset/8/2_40.odb,Step-1,Increment      1: Step Time =    1.000,"PART-1-1",           127,       2.65554,       2.44196,            0.,NA,NA,"",       6.78626,      -6.74632,  -735.117E-03,   112.206E-03
C:/temp/dataset/8/2_40.odb,Step-1,Increment      1: Step Time =    1.000,"PART-1-1",           128,       2.47444,       22.5736,            0.,NA,NA,"",       12.4856,      -12.4474,  -975.872E-03,   31.5943E-03
C:/temp/dataset/8/2_40.odb,Step-1,Increment      1: Step Time =    1.000,"PART-1-1",           129,   16.3473E-03,       27.5162,            0.,NA,NA,"",       13.2394,      -13.1757,      -1.29804,   19.9322E-03
C:/temp/dataset/8/2_40.odb,Step-1,Increment      1: Step Time =    1.000,"PART-1-1",           130,      -2.67853,       22.8897,            0.,NA,NA,"",       12.4773,      -12.3764,      -1.58347,   41.9052E-03
C:/temp/dataset/8/2_40.odb,Step-1,Increment      1: Step Time =    1.000,"PART-1-1",           131,      -12.4925,       19.9647,            0.,NA,NA,"",       11.9344,      -11.4121,      -3.49205,   14.2116E-03
C:/temp/dataset/8/2_40.odb,Step-1,Increment      1: Step Time =    1.000,"PART-1-1",           132,      -7.56076,       17.4403,            0.,NA,NA,"",       11.1274,      -10.9057,      -2.21046,   44.3278E-03
C:/temp/dataset/8/2_40.odb,Step-1,Increment      1: Step Time =    1.000,"PART-1-1",           133,       7.61200,       17.3671,            0.,NA,NA,"",       11.6975,      -11.6894,  -435.775E-03,   44.6803E-03
C:/temp/dataset/8/2_40.odb,Step-1,Increment      1: Step Time =    1.000,"PART-1-1",           134,      -9.59813,      -27.6832,            0.,NA,NA,"",   87.2766E-03,  -32.1659E-03,  -81.1330E-03,   44.4537E-03
C:/temp/dataset/8/2_40.odb,Step-1,Increment      1: Step Time =    1.000,"PART-1-1",           135,       4.78979,      -2.62807,            0.,NA,NA,"",       5.84218,      -5.81892,  -520.783E-03,   55.2969E-03
C:/temp/dataset/8/2_40.odb,Step-1,Increment      1: Step Time =    1.000,"PART-1-1",           136,       7.77864,      -12.2173,            0.,NA,NA,"",       3.03905,      -3.03780,   87.1977E-03,   50.1565E-03
C:/temp/dataset/8/2_40.odb,Step-1,Increment      1: Step Time =    1.000,"PART-1-1",           137,       7.25860,      -19.5166,            0.,NA,NA,"",   983.801E-03,  -977.774E-03,   108.733E-03,   77.1733E-03
C:/temp/dataset/8/2_40.odb,Step-1,Increment      1: Step Time =    1.000,"PART-1-1",           138,      -4.85223,      -22.6747,            0.,NA,NA,"",   437.828E-03,  -428.488E-03,   89.9529E-03,   55.1127E-03
C:/temp/dataset/8/2_40.odb,Step-1,Increment      1: Step Time =    1.000,"PART-1-1",           139,      -12.1899,      -27.1304,            0.,NA,NA,"",   247.457E-03,  -107.787E-03,  -222.748E-03,   99.0670E-03
C:/temp/dataset/8/2_40.odb,Step-1,Increment      1: Step Time =    1.000,"PART-1-1",           140,      -12.5022,       10.0467,            0.,NA,NA,"",       9.14098,      -8.60724,      -3.07779,   28.5542E-03
C:/temp/dataset/8/2_40.odb,Step-1,Increment      1: Step Time =    1.000,"PART-1-1",           141,      -12.8398,       4.62624,            0.,NA,NA,"",       7.74260,      -7.20121,      -2.84436,   32.1836E-03
C:/temp/dataset/8/2_40.odb,Step-1,Increment      1: Step Time =    1.000,"PART-1-1",           142,      -12.8490,  -38.7177E-03,            0.,NA,NA,"",       6.76380,      -6.23339,      -2.62562,   32.1136E-03
C:/temp/dataset/8/2_40.odb,Step-1,Increment      1: Step Time =    1.000,"PART-1-1",           143,      -13.3237,      -5.02762,            0.,NA,NA,"",       5.69534,      -5.09016,      -2.55485,   12.3858E-03
C:/temp/dataset/8/2_40.odb,Step-1,Increment      1: Step Time =    1.000,"PART-1-1",           144,      -7.45280,      -10.1617,            0.,NA,NA,"",       3.71085,      -3.64810,  -679.516E-03,   68.4573E-03
C:/temp/dataset/8/2_40.odb,Step-1,Increment      1: Step Time =    1.000,"PART-1-1",           145,  -24.6675E-03,      -2.52386,            0.,NA,NA,"",       5.96329,      -5.91361,  -768.185E-03,   78.5124E-03
C:/temp/dataset/8/2_40.odb,Step-1,Increment      1: Step Time =    1.000,"PART-1-1",           146,       4.79423,       22.5397,            0.,NA,NA,"",       12.5141,      -12.4928,  -729.957E-03,   42.2871E-03
C:/temp/dataset/8/2_40.odb,Step-1,Increment      1: Step Time =    1.000,"PART-1-1",           147,       7.23210,       9.87276,            0.,NA,NA,"",       9.42132,      -9.41055,  -450.445E-03,   48.9242E-03
C:/temp/dataset/8/2_40.odb,Step-1,Increment      1: Step Time =    1.000,"PART-1-1",           148,       7.03782,       7.56931,            0.,NA,NA,"",       8.56452,      -8.55604,  -381.076E-03,   78.6361E-03
C:/temp/dataset/8/2_40.odb,Step-1,Increment      1: Step Time =    1.000,"PART-1-1",           149,   58.7546E-03,       2.48470,            0.,NA,NA,"",       6.77457,      -6.72710,  -800.571E-03,   89.2893E-03
C:/temp/dataset/8/2_40.odb,Step-1,Increment      1: Step Time =    1.000,"PART-1-1",           150,      -4.69679,       2.58686,            0.,NA,NA,"",       6.85638,      -6.77867,      -1.02939,   41.2089E-03
C:/temp/dataset/8/2_40.odb,Step-1,Increment      1: Step Time =    1.000,"PART-1-1",           151,      -12.4528,       27.7132,            0.,NA,NA,"",       13.5877,      -13.1007,      -3.60500,   12.6107E-03
C:/temp/dataset/8/2_40.odb,Step-1,Increment      1: Step Time =    1.000,"PART-1-1",           152,      -11.8772,       25.1339,            0.,NA,NA,"",       13.0527,      -12.5937,      -3.43098,   18.2563E-03
C:/temp/dataset/8/2_40.odb,Step-1,Increment      1: Step Time =    1.000,"PART-1-1",           153,      -12.3064,       22.4596,            0.,NA,NA,"",       12.5085,      -12.0118,      -3.48967,   14.8996E-03
C:/temp/dataset/8/2_40.odb,Step-1,Increment      1: Step Time =    1.000,"PART-1-1",           154,      -7.54035,       19.8016,            0.,NA,NA,"",       11.8016,      -11.5697,      -2.32813,   34.7128E-03
C:/temp/dataset/8/2_40.odb,Step-1,Increment      1: Step Time =    1.000,"PART-1-1",           155,   42.2180E-03,       22.5936,            0.,NA,NA,"",       12.4540,      -12.3913,      -1.24894,   30.9745E-03
C:/temp/dataset/8/2_40.odb,Step-1,Increment      1: Step Time =    1.000,"PART-1-1",           156,       10.3286,       27.6906,            0.,NA,NA,"",       13.3749,      -13.3745,   96.8886E-03,   12.5698E-03
C:/temp/dataset/8/2_40.odb,Step-1,Increment      1: Step Time =    1.000,"PART-1-1",           157,       7.73802,       27.2328,            0.,NA,NA,"",       13.2604,      -13.2571,  -294.759E-03,   13.4574E-03
C:/temp/dataset/8/2_40.odb,Step-1,Increment      1: Step Time =    1.000,"PART-1-1",           158,       4.99833,       27.5198,            0.,NA,NA,"",       13.2574,      -13.2402,  -675.068E-03,   14.8056E-03
C:/temp/dataset/8/2_40.odb,Step-1,Increment      1: Step Time =    1.000,"PART-1-1",           159,       2.50368,       27.5752,            0.,NA,NA,"",       13.2452,      -13.2083,  -988.946E-03,   18.7221E-03
C:/temp/dataset/8/2_40.odb,Step-1,Increment      1: Step Time =    1.000,"PART-1-1",           160,      -2.79867,       27.0761,            0.,NA,NA,"",       13.1979,      -13.0909,      -1.67665,   17.5657E-03
C:/temp/dataset/8/2_40.odb,Step-1,Increment      1: Step Time =    1.000,"PART-1-1",           161,      -5.48457,       27.7642,            0.,NA,NA,"",       13.3750,      -13.2028,      -2.13927,   15.6703E-03
C:/temp/dataset/8/2_40.odb,Step-1,Increment      1: Step Time =    1.000,"PART-1-1",           162,      -7.83691,       28.0652,            0.,NA,NA,"",       13.5001,      -13.2459,      -2.60730,   17.5628E-03
C:/temp/dataset/8/2_40.odb,Step-1,Increment      1: Step Time =    1.000,"PART-1-1",           163,      -7.54955,       15.0035,            0.,NA,NA,"",       10.4063,      -10.1981,      -2.07114,   29.3206E-03
C:/temp/dataset/8/2_40.odb,Step-1,Increment      1: Step Time =    1.000,"PART-1-1",           164,      -12.5932,       15.0060,            0.,NA,NA,"",       10.5915,      -10.0449,      -3.35876,   22.3297E-03
C:/temp/dataset/8/2_40.odb,Step-1,Increment      1: Step Time =    1.000,"PART-1-1",           165,      -7.55247,       12.5555,            0.,NA,NA,"",       9.67424,      -9.47838,      -1.93679,   22.5733E-03
C:/temp/dataset/8/2_40.odb,Step-1,Increment      1: Step Time =    1.000,"PART-1-1",           166,      -12.5729,       12.5419,            0.,NA,NA,"",       9.87069,      -9.32578,      -3.23426,   25.8697E-03
C:/temp/dataset/8/2_40.odb,Step-1,Increment      1: Step Time =    1.000,"PART-1-1",           167,      -7.58565,       10.0709,            0.,NA,NA,"",       8.93327,      -8.74334,      -1.83233,   24.9265E-03
C:/temp/dataset/8/2_40.odb,Step-1,Increment      1: Step Time =    1.000,"PART-1-1",           168,      -7.87743,       7.29005,            0.,NA,NA,"",       8.12823,      -7.92986,      -1.78478,   43.7206E-03
C:/temp/dataset/8/2_40.odb,Step-1,Increment      1: Step Time =    1.000,"PART-1-1",           169,      -12.0798,       7.21824,            0.,NA,NA,"",       8.32886,      -7.84199,      -2.80590,   29.3632E-03
C:/temp/dataset/8/2_40.odb,Step-1,Increment      1: Step Time =    1.000,"PART-1-1",           170,      -13.1404,       2.31216,            0.,NA,NA,"",       7.26090,      -6.70089,      -2.79620,   33.8302E-03
C:/temp/dataset/8/2_40.odb,Step-1,Increment      1: Step Time =    1.000,"PART-1-1",           171,      -12.2753,      -2.89865,            0.,NA,NA,"",       6.12635,      -5.64539,      -2.37944,   20.5508E-03
C:/temp/dataset/8/2_40.odb,Step-1,Increment      1: Step Time =    1.000,"PART-1-1",           172,      -7.56646,      -5.67272,            0.,NA,NA,"",       5.24707,      -5.12267,      -1.13578,   73.6028E-03
C:/temp/dataset/8/2_40.odb,Step-1,Increment      1: Step Time =    1.000,"PART-1-1",           173,      -7.39215,      -7.81560,            0.,NA,NA,"",       4.51720,      -4.42900,  -888.304E-03,   101.587E-03
C:/temp/dataset/8/2_40.odb,Step-1,Increment      1: Step Time =    1.000,"PART-1-1",           174,      -12.2965,      -7.15435,            0.,NA,NA,"",       5.01693,      -4.52251,      -2.17175,   42.1671E-03
C:/temp/dataset/8/2_40.odb,Step-1,Increment      1: Step Time =    1.000,"PART-1-1",           175,      -12.4696,      -9.99468,            0.,NA,NA,"",       4.14295,      -3.63263,      -1.99199,   64.8708E-03
C:/temp/dataset/8/2_40.odb,Step-1,Increment      1: Step Time =    1.000,"PART-1-1",           176,      -7.49885,      -12.5985,            0.,NA,NA,"",       2.89236,      -2.85285,  -476.426E-03,   52.8136E-03
C:/temp/dataset/8/2_40.odb,Step-1,Increment      1: Step Time =    1.000,"PART-1-1",           177,      -7.51661,      -15.1105,            0.,NA,NA,"",       2.09009,      -2.06552,  -319.584E-03,   48.4801E-03
C:/temp/dataset/8/2_40.odb,Step-1,Increment      1: Step Time =    1.000,"PART-1-1",           178,      -12.5153,      -15.0988,            0.,NA,NA,"",       2.52713,      -2.05308,      -1.47350,   88.5790E-03
C:/temp/dataset/8/2_40.odb,Step-1,Increment      1: Step Time =    1.000,"PART-1-1",           179,      -7.51181,      -17.6666,            0.,NA,NA,"",       1.35387,      -1.33945,  -197.068E-03,   64.8525E-03
C:/temp/dataset/8/2_40.odb,Step-1,Increment      1: Step Time =    1.000,"PART-1-1",           180,      -12.5518,      -17.6234,            0.,NA,NA,"",       1.83602,      -1.38900,      -1.20069,   94.9703E-03
C:/temp/dataset/8/2_40.odb,Step-1,Increment      1: Step Time =    1.000,"PART-1-1",           181,      -12.7381,      -20.0729,            0.,NA,NA,"",       1.30894,  -882.123E-03,  -967.053E-03,   102.392E-03
C:/temp/dataset/8/2_40.odb,Step-1,Increment      1: Step Time =    1.000,"PART-1-1",           182,      -13.0750,      -22.3076,            0.,NA,NA,"",   957.723E-03,  -556.182E-03,  -779.676E-03,   111.701E-03
C:/temp/dataset/8/2_40.odb,Step-1,Increment      1: Step Time =    1.000,"PART-1-1",           183,      -7.24239,      -27.7492,            0.,NA,NA,"",   49.5965E-03,  -43.9164E-03,  -23.0471E-03,   24.2744E-03
C:/temp/dataset/8/2_40.odb,Step-1,Increment      1: Step Time =    1.000,"PART-1-1",           184,      -4.87121,      -27.7117,            0.,NA,NA,"",   79.8519E-03,  -79.4700E-03,   7.80039E-03,   32.2220E-03
C:/temp/dataset/8/2_40.odb,Step-1,Increment      1: Step Time =    1.000,"PART-1-1",           185,      -2.51629,      -22.5836,            0.,NA,NA,"",   438.059E-03,  -432.553E-03,   69.2330E-03,   69.2695E-03
C:/temp/dataset/8/2_40.odb,Step-1,Increment      1: Step Time =    1.000,"PART-1-1",           186,  -83.6569E-03,      -22.5653,            0.,NA,NA,"",   446.606E-03,  -446.546E-03,   7.27666E-03,   51.9614E-03
C:/temp/dataset/8/2_40.odb,Step-1,Increment      1: Step Time =    1.000,"PART-1-1",           187,  -26.1876E-03,      -27.4903,            0.,NA,NA,"",   140.562E-03,  -140.549E-03,  -1.85972E-03,   43.2556E-03
C:/temp/dataset/8/2_40.odb,Step-1,Increment      1: Step Time =    1.000,"PART-1-1",           188,       2.63365,      -22.7776,            0.,NA,NA,"",   446.778E-03,  -441.856E-03,  -66.1350E-03,   74.0034E-03
C:/temp/dataset/8/2_40.odb,Step-1,Increment      1: Step Time =    1.000,"PART-1-1",           189,       2.80249,      -26.9735,            0.,NA,NA,"",   161.521E-03,  -159.820E-03,  -23.3829E-03,   44.7527E-03
C:/temp/dataset/8/2_40.odb,Step-1,Increment      1: Step Time =    1.000,"PART-1-1",           190,       5.52127,      -27.5919,            0.,NA,NA,"",   94.8898E-03,  -94.8898E-03,  -84.7342E-06,   29.4031E-03
C:/temp/dataset/8/2_40.odb,Step-1,Increment      1: Step Time =    1.000,"PART-1-1",           191,       10.2455,      -28.0297,            0.,NA,NA,"",   119.992E-03,  -74.7732E-03,   93.8458E-03,   63.3741E-03
C:/temp/dataset/8/2_40.odb,Step-1,Increment      1: Step Time =    1.000,"PART-1-1",           192,       7.32442,      -17.2829,            0.,NA,NA,"",       1.56083,      -1.55880,   79.5993E-03,   57.9478E-03
C:/temp/dataset/8/2_40.odb,Step-1,Increment      1: Step Time =    1.000,"PART-1-1",           193,       7.51239,      -14.8720,            0.,NA,NA,"",       2.23925,      -2.23815,   70.2156E-03,   41.6149E-03
C:/temp/dataset/8/2_40.odb,Step-1,Increment      1: Step Time =    1.000,"PART-1-1",           194,       6.95682,      -7.47937,            0.,NA,NA,"",       4.48292,      -4.48035,  -151.808E-03,   82.8199E-03
C:/temp/dataset/8/2_40.odb,Step-1,Increment      1: Step Time =    1.000,"PART-1-1",           195,       7.18655,       5.44056,            0.,NA,NA,"",       7.75603,      -7.75328,  -206.415E-03,   100.408E-03
C:/temp/dataset/8/2_40.odb,Step-1,Increment      1: Step Time =    1.000,"PART-1-1",           196,       7.54073,       12.3094,            0.,NA,NA,"",       10.2752,      -10.2653,  -450.321E-03,   48.6201E-03
C:/temp/dataset/8/2_40.odb,Step-1,Increment      1: Step Time =    1.000,"PART-1-1",           197,       7.60223,       14.8257,            0.,NA,NA,"",       11.0496,      -11.0402,  -456.659E-03,   48.9663E-03
C:/temp/dataset/8/2_40.odb,Step-1,Increment      1: Step Time =    1.000,"PART-1-1",           198,       12.6819,       27.6459,            0.,NA,NA,"",       13.4120,      -13.4041,   460.413E-03,   7.60193E-03
C:/temp/dataset/8/2_40.odb,Step-1,Increment      1: Step Time =    1.000,"PART-1-1",           199,       12.0457,       20.1903,            0.,NA,NA,"",       12.3880,      -12.3791,   468.752E-03,   37.6727E-03
C:/temp/dataset/8/2_40.odb,Step-1,Increment      1: Step Time =    1.000,"PART-1-1",           200,       12.7260,      -12.7389,            0.,NA,NA,"",       3.35436,      -3.11878,       1.23490,   72.5220E-03
C:/temp/dataset/8/2_40.odb,Step-1,Increment      1: Step Time =    1.000,"PART-1-1",           201,       12.6061,      -7.88185,            0.,NA,NA,"",       4.74512,      -4.58794,       1.21119,   45.4832E-03
C:/temp/dataset/8/2_40.odb,Step-1,Increment      1: Step Time =    1.000,"PART-1-1",           202,       12.5539,      -15.1942,            0.,NA,NA,"",       2.63915,      -2.37970,       1.14110,   84.9771E-03
C:/temp/dataset/8/2_40.odb,Step-1,Increment      1: Step Time =    1.000,"PART-1-1",           203,       12.2961,      -17.8876,            0.,NA,NA,"",       1.90513,      -1.63571,   976.713E-03,   96.0572E-03
C:/temp/dataset/8/2_40.odb,Step-1,Increment      1: Step Time =    1.000,"PART-1-1",           204,       11.9819,      -5.08387,            0.,NA,NA,"",       5.44425,      -5.34617,       1.02876,   29.5416E-03
C:/temp/dataset/8/2_40.odb,Step-1,Increment      1: Step Time =    1.000,"PART-1-1",           205,       12.8886,       12.3962,            0.,NA,NA,"",       10.6254,      -10.5856,   918.388E-03,   46.5414E-03
C:/temp/dataset/8/2_40.odb,Step-1,Increment      1: Step Time =    1.000,"PART-1-1",           206,       12.6351,       22.8269,            0.,NA,NA,"",       12.7573,      -12.7465,   524.754E-03,   27.0142E-03
C:/temp/dataset/8/2_40.odb,Step-1,Increment      1: Step Time =    1.000,"PART-1-1",           207,       12.6677,       14.8477,            0.,NA,NA,"",       11.3317,      -11.3072,   744.983E-03,   34.7982E-03
C:/temp/dataset/8/2_40.odb,Step-1,Increment      1: Step Time =    1.000,"PART-1-1",           208,       12.7436,      -2.36883,            0.,NA,NA,"",       6.17407,      -6.05599,       1.20172,   34.0598E-03
C:/temp/dataset/8/2_40.odb,Step-1,Increment      1: Step Time =    1.000,"PART-1-1",           209,       12.7993,      -10.3700,            0.,NA,NA,"",       4.05223,      -3.84823,       1.26951,   59.2248E-03
C:/temp/dataset/8/2_40.odb,Step-1,Increment      1: Step Time =    1.000,"PART-1-1",           210,       12.9901,      -20.3906,            0.,NA,NA,"",       1.45021,      -1.11889,   922.608E-03,   113.012E-03
C:/temp/dataset/8/2_40.odb,Step-1,Increment      1: Step Time =    1.000,"PART-1-1",           211,       13.2149,       10.1248,            0.,NA,NA,"",       9.87422,      -9.80855,       1.13686,   57.9445E-03
C:/temp/dataset/8/2_40.odb,Step-1,Increment      1: Step Time =    1.000,"PART-1-1",           212,       12.5082,       17.3754,            0.,NA,NA,"",       11.9242,      -11.9080,   621.144E-03,   30.3432E-03
C:/temp/dataset/8/2_40.odb,Step-1,Increment      1: Step Time =    1.000,"PART-1-1",           213,       12.5546,      -27.7200,            0.,NA,NA,"",   257.840E-03,  -162.433E-03,   200.243E-03,   116.054E-03
C:/temp/dataset/8/2_40.odb,Step-1,Increment      1: Step Time =    1.000,"PART-1-1",           214,       9.90568,       4.71999,            0.,NA,NA,"",       7.72824,      -7.71373,   473.294E-03,   59.3357E-03
C:/temp/dataset/8/2_40.odb,Step-1,Increment      1: Step Time =    1.000,"PART-1-1",           215,       10.7501,       6.50016,            0.,NA,NA,"",       8.38634,      -8.36175,   641.807E-03,   61.0243E-03
C:/temp/dataset/8/2_40.odb,Step-1,Increment      1: Step Time =    1.000,"PART-1-1",           216,       9.75591,      -23.6488,            0.,NA,NA,"",   524.240E-03,  -438.269E-03,   287.661E-03,   62.2225E-03
C:/temp/dataset/8/2_40.odb,Step-1,Increment      1: Step Time =    1.000,"PART-1-1",           217,       9.57327,       1.65180,            0.,NA,NA,"",       6.85753,      -6.84573,   402.111E-03,   40.5158E-03
C:/temp/dataset/8/2_40.odb,Step-1,Increment      1: Step Time =    1.000,"PART-1-1",           218,       11.2006,       8.46802,            0.,NA,NA,"",       9.11554,      -9.09059,   673.986E-03,   68.4819E-03
C:/temp/dataset/8/2_40.odb,Step-1,Increment      1: Step Time =    1.000,"PART-1-1",           219,       11.2103,      -20.8620,            0.,NA,NA,"",       1.11294,  -920.897E-03,   624.968E-03,   90.4697E-03
C:/temp/dataset/8/2_40.odb,Step-1,Increment      1: Step Time =    1.000,"PART-1-1",           220,       11.1015,      -2.06477,            0.,NA,NA,"",       6.11175,      -6.06077,   787.717E-03,   32.3080E-03
C:/temp/dataset/8/2_40.odb,Step-1,Increment      1: Step Time =    1.000,"PART-1-1",           221,       5.62425,       2.31421,            0.,NA,NA,"",       6.81250,      -6.79679,  -462.412E-03,   35.1988E-03
C:/temp/dataset/8/2_40.odb,Step-1,Increment      1: Step Time =    1.000,"PART-1-1",           222,      -6.74047,       2.51715,            0.,NA,NA,"",       6.90444,      -6.77398,      -1.33586,   24.2869E-03
C:/temp/dataset/8/2_40.odb,Step-1,Increment      1: Step Time =    1.000,"PART-1-1",           223,      -7.42064,      -20.2654,            0.,NA,NA,"",   740.447E-03,  -733.013E-03,  -104.655E-03,   42.5981E-03
C:/temp/dataset/8/2_40.odb,Step-1,Increment      1: Step Time =    1.000,"PART-1-1",           224,       7.69979,      -4.91359,            0.,NA,NA,"",       5.28955,      -5.28955,   5.31220E-03,   48.0137E-03
C:/temp/dataset/8/2_40.odb,Step-1,Increment      1: Step Time =    1.000,"PART-1-1",           225,       7.31956,      -21.5115,            0.,NA,NA,"",   623.216E-03,  -616.000E-03,   94.5613E-03,   46.7864E-03
C:/temp/dataset/8/2_40.odb,Step-1,Increment      1: Step Time =    1.000,"PART-1-1",           226,      -5.66399,      -2.34175,            0.,NA,NA,"",       6.00774,      -5.92789,  -976.252E-03,   71.4261E-03
C:/temp/dataset/8/2_40.odb,Step-1,Increment      1: Step Time =    1.000,"PART-1-1",           227,       7.85227,       20.1110,            0.,NA,NA,"",       12.2412,      -12.2364,  -342.227E-03,   39.2008E-03
C:/temp/dataset/8/2_40.odb,Step-1,Increment      1: Step Time =    1.000,"PART-1-1",           228,      -7.47305,       21.9136,            0.,NA,NA,"",       12.3030,      -12.0717,      -2.37417,   25.3916E-03
C:/temp/dataset/8/2_40.odb,Step-1,Increment      1: Step Time =    1.000,"PART-1-1",           229,      -10.1610,       28.1071,            0.,NA,NA,"",       13.5857,      -13.2256,      -3.10716,   16.2095E-03
C:/temp/dataset/8/2_40.odb,Step-1,Increment      1: Step Time =    1.000,"PART-1-1",           230,      -12.9524,      -24.6214,            0.,NA,NA,"",   602.827E-03,  -310.519E-03,  -516.699E-03,   114.487E-03
C:/temp/dataset/8/2_40.odb,Step-1,Increment      1: Step Time =    1.000,"PART-1-1",           231,       8.38984,      -7.76285,            0.,NA,NA,"",       4.46530,      -4.46068,   202.960E-03,   67.0747E-03
C:/temp/dataset/8/2_40.odb,Step-1,Increment      1: Step Time =    1.000,"PART-1-1",           232,       2.50724,  -56.7369E-03,            0.,NA,NA,"",       6.34672,      -6.30496,  -726.848E-03,   95.7320E-03
C:/temp/dataset/8/2_40.odb,Step-1,Increment      1: Step Time =    1.000,"PART-1-1",           233,       10.3135,       11.8620,            0.,NA,NA,"",       10.2654,      -10.2617,   277.086E-03,   58.6977E-03
C:/temp/dataset/8/2_40.odb,Step-1,Increment      1: Step Time =    1.000,"PART-1-1",           234,       2.50286,       25.1199,            0.,NA,NA,"",       12.8689,      -12.8317,  -977.584E-03,   29.6042E-03
C:/temp/dataset/8/2_40.odb,Step-1,Increment      1: Step Time =    1.000,"PART-1-1",           235,      -1.67654,       25.0421,            0.,NA,NA,"",       12.8425,      -12.7567,      -1.48193,   24.5867E-03
C:/temp/dataset/8/2_40.odb,Step-1,Increment      1: Step Time =    1.000,"PART-1-1",           236,      -9.12088,      -25.5416,            0.,NA,NA,"",   199.728E-03,  -148.915E-03,  -133.099E-03,   36.2930E-03
C:/temp/dataset/8/2_40.odb,Step-1,Increment      1: Step Time =    1.000,"PART-1-1",           237,   18.1833E-03,  -29.2602E-03,            0.,NA,NA,"",       6.35815,      -6.30932,  -786.533E-03,   100.924E-03
C:/temp/dataset/8/2_40.odb,Step-1,Increment      1: Step Time =    1.000,"PART-1-1",           238,      -6.37745,       25.7068,            0.,NA,NA,"",       13.0217,      -12.8252,      -2.25369,   12.6604E-03
C:/temp/dataset/8/2_40.odb,Step-1,Increment      1: Step Time =    1.000,"PART-1-1",           239,      -10.0857,       17.4416,            0.,NA,NA,"",       11.1942,      -10.8292,      -2.83518,   28.8195E-03
C:/temp/dataset/8/2_40.odb,Step-1,Increment      1: Step Time =    1.000,"PART-1-1",           240,      -10.0934,       12.5946,            0.,NA,NA,"",       9.76520,      -9.41318,      -2.59828,   31.6260E-03
C:/temp/dataset/8/2_40.odb,Step-1,Increment      1: Step Time =    1.000,"PART-1-1",           241,      -9.86502,       5.52778,            0.,NA,NA,"",       7.74938,      -7.43884,      -2.17173,   34.8277E-03
C:/temp/dataset/8/2_40.odb,Step-1,Increment      1: Step Time =    1.000,"PART-1-1",           242,      -11.6239,       2.22269,            0.,NA,NA,"",       7.12860,      -6.70269,      -2.42713,   36.5014E-03
C:/temp/dataset/8/2_40.odb,Step-1,Increment      1: Step Time =    1.000,"PART-1-1",           243,      -10.6228,      -5.01114,            0.,NA,NA,"",       5.51753,      -5.18594,      -1.88393,   30.3386E-03
C:/temp/dataset/8/2_40.odb,Step-1,Increment      1: Step Time =    1.000,"PART-1-1",           244,      -9.74711,      -1.61456,            0.,NA,NA,"",       6.26279,      -5.99362,      -1.81633,   35.2953E-03
C:/temp/dataset/8/2_40.odb,Step-1,Increment      1: Step Time =    1.000,"PART-1-1",           245,      -9.39421,      -6.20391,            0.,NA,NA,"",       5.12572,      -4.89391,      -1.52402,   55.4199E-03
C:/temp/dataset/8/2_40.odb,Step-1,Increment      1: Step Time =    1.000,"PART-1-1",           246,      -9.97684,      -10.1599,            0.,NA,NA,"",       3.85342,      -3.61415,      -1.33671,   76.9334E-03
C:/temp/dataset/8/2_40.odb,Step-1,Increment      1: Step Time =    1.000,"PART-1-1",           247,      -10.0276,      -15.1451,            0.,NA,NA,"",       2.21585,      -2.02917,  -890.202E-03,   74.4666E-03
C:/temp/dataset/8/2_40.odb,Step-1,Increment      1: Step Time =    1.000,"PART-1-1",           248,      -10.1181,      -20.6738,            0.,NA,NA,"",   854.052E-03,  -707.365E-03,  -478.581E-03,   61.5518E-03
C:/temp/dataset/8/2_40.odb,Step-1,Increment      1: Step Time =    1.000,"PART-1-1",           249,      -4.81760,      -25.2822,            0.,NA,NA,"",   226.038E-03,  -222.348E-03,   40.6799E-03,   43.2831E-03
C:/temp/dataset/8/2_40.odb,Step-1,Increment      1: Step Time =    1.000,"PART-1-1",           250,      -2.52593,      -25.1657,            0.,NA,NA,"",   271.800E-03,  -268.252E-03,   43.7722E-03,   58.3353E-03
C:/temp/dataset/8/2_40.odb,Step-1,Increment      1: Step Time =    1.000,"PART-1-1",           251,       4.38823,      -24.6132,            0.,NA,NA,"",   306.453E-03,  -301.860E-03,  -52.8569E-03,   46.1063E-03
C:/temp/dataset/8/2_40.odb,Step-1,Increment      1: Step Time =    1.000,"PART-1-1",           252,       1.65324,      -24.9792,            0.,NA,NA,"",   300.950E-03,  -299.187E-03,  -32.5253E-03,   55.4966E-03
C:/temp/dataset/8/2_40.odb,Step-1,Increment      1: Step Time =    1.000,"PART-1-1",           253,      -10.0865,       15.0098,            0.,NA,NA,"",       10.4857,      -10.1262,      -2.72211,   30.3432E-03
C:/temp/dataset/8/2_40.odb,Step-1,Increment      1: Step Time =    1.000,"PART-1-1",           254,       10.3961,      -12.7490,            0.,NA,NA,"",       3.07604,      -2.99529,   700.205E-03,   66.5774E-03
C:/temp/dataset/8/2_40.odb,Step-1,Increment      1: Step Time =    1.000,"PART-1-1",           255,      -10.0322,       8.32342,            0.,NA,NA,"",       8.51040,      -8.17621,      -2.36148,   30.1182E-03
C:/temp/dataset/8/2_40.odb,Step-1,Increment      1: Step Time =    1.000,"PART-1-1",           256,      -2.46516,   4.89972E-03,            0.,NA,NA,"",       6.36873,      -6.31480,  -827.092E-03,   100.598E-03
C:/temp/dataset/8/2_40.odb,Step-1,Increment      1: Step Time =    1.000,"PART-1-1",           257,      -9.79923,       22.1172,            0.,NA,NA,"",       12.3731,      -12.0278,      -2.90283,   15.7944E-03
C:/temp/dataset/8/2_40.odb,Step-1,Increment      1: Step Time =    1.000,"PART-1-1",           258,      -9.99953,       19.8330,            0.,NA,NA,"",       11.8365,      -11.4763,      -2.89782,   17.4719E-03
C:/temp/dataset/8/2_40.odb,Step-1,Increment      1: Step Time =    1.000,"PART-1-1",           259,       4.79880,       25.0430,            0.,NA,NA,"",       12.8875,      -12.8683,  -703.074E-03,   25.1334E-03
C:/temp/dataset/8/2_40.odb,Step-1,Increment      1: Step Time =    1.000,"PART-1-1",           260,      -4.38714,       24.8432,            0.,NA,NA,"",       12.8290,      -12.6917,      -1.87196,   18.0584E-03
C:/temp/dataset/8/2_40.odb,Step-1,Increment      1: Step Time =    1.000,"PART-1-1",           261,      -8.41357,       26.1031,            0.,NA,NA,"",       13.1438,      -12.8675,      -2.68049,   17.0642E-03
C:/temp/dataset/8/2_40.odb,Step-1,Increment      1: Step Time =    1.000,"PART-1-1",           262,      -10.8386,       3.64138,            0.,NA,NA,"",       7.37353,      -7.00371,      -2.30586,   33.8080E-03
C:/temp/dataset/8/2_40.odb,Step-1,Increment      1: Step Time =    1.000,"PART-1-1",           263,      -10.0134,      -12.6076,            0.,NA,NA,"",       3.02730,      -2.81545,      -1.11256,   78.0051E-03
C:/temp/dataset/8/2_40.odb,Step-1,Increment      1: Step Time =    1.000,"PART-1-1",           264,      -10.0439,      -17.7611,            0.,NA,NA,"",       1.47769,      -1.31241,  -679.067E-03,   74.1686E-03
C:/temp/dataset/8/2_40.odb,Step-1,Increment      1: Step Time =    1.000,"PART-1-1",           265,      -11.0756,      -23.9180,            0.,NA,NA,"",   490.050E-03,  -308.804E-03,  -380.511E-03,   72.7415E-03
C:/temp/dataset/8/2_40.odb,Step-1,Increment      1: Step Time =    1.000,"PART-1-1",           266,       6.47384,      -25.3706,            0.,NA,NA,"",   228.105E-03,  -227.487E-03,   16.7795E-03,   22.1303E-03
C:/temp/dataset/8/2_40.odb,Step-1,Increment      1: Step Time =    1.000,"PART-1-1",           267,       8.63297,      -25.7838,            0.,NA,NA,"",   238.776E-03,  -207.199E-03,   118.669E-03,   37.0120E-03
C:/temp/dataset/8/2_40.odb,Step-1,Increment      1: Step Time =    1.000,"PART-1-1",           268,       9.70463,      -17.2924,            0.,NA,NA,"",       1.72939,      -1.64559,   531.795E-03,   75.6820E-03
C:/temp/dataset/8/2_40.odb,Step-1,Increment      1: Step Time =    1.000,"PART-1-1",           269,       9.32258,      -19.2967,            0.,NA,NA,"",       1.20830,      -1.13117,   424.776E-03,   72.4575E-03
C:/temp/dataset/8/2_40.odb,Step-1,Increment      1: Step Time =    1.000,"PART-1-1",           270,       10.5097,       23.5233,            0.,NA,NA,"",       12.8094,      -12.8085,   151.890E-03,   27.0207E-03
C:/temp/dataset/8/2_40.odb,Step-1,Increment      1: Step Time =    1.000,"PART-1-1",           271,       10.7249,      -10.6710,            0.,NA,NA,"",       3.73368,      -3.65271,   773.328E-03,   63.4233E-03
C:/temp/dataset/8/2_40.odb,Step-1,Increment      1: Step Time =    1.000,"PART-1-1",           272,       12.7841,       25.2838,            0.,NA,NA,"",       13.0879,      -13.0782,   505.574E-03,   15.0284E-03
C:/temp/dataset/8/2_40.odb,Step-1,Increment      1: Step Time =    1.000,"PART-1-1",           273,       9.70769,       21.6927,            0.,NA,NA,"",       12.5380,      -12.5380,   13.3940E-03,   33.9391E-03
C:/temp/dataset/8/2_40.odb,Step-1,Increment      1: Step Time =    1.000,"PART-1-1",           274,       9.66832,      -6.55030,            0.,NA,NA,"",       4.89310,      -4.86880,   486.986E-03,   46.4080E-03
C:/temp/dataset/8/2_40.odb,Step-1,Increment      1: Step Time =    1.000,"PART-1-1",           275,       10.0513,       19.0714,            0.,NA,NA,"",       12.1353,      -12.1351,   82.3612E-03,   28.7668E-03
C:/temp/dataset/8/2_40.odb,Step-1,Increment      1: Step Time =    1.000,"PART-1-1",           276,       9.87331,      -3.39328,            0.,NA,NA,"",       5.72996,      -5.70883,   491.611E-03,   26.0845E-03
C:/temp/dataset/8/2_40.odb,Step-1,Increment      1: Step Time =    1.000,"PART-1-1",           277,       8.09153,       3.50199,            0.,NA,NA,"",       7.22250,      -7.22239,   39.3979E-03,   63.9724E-03
C:/temp/dataset/8/2_40.odb,Step-1,Increment      1: Step Time =    1.000,"PART-1-1",           278,       7.63606,   479.494E-03,            0.,NA,NA,"",       6.48675,      -6.48654,  -51.0967E-03,   23.8108E-03
C:/temp/dataset/8/2_40.odb,Step-1,Increment      1: Step Time =    1.000,"PART-1-1",           279,       4.79213,  -240.588E-03,            0.,NA,NA,"",       6.29763,      -6.27476,  -536.188E-03,   45.3290E-03
C:/temp/dataset/8/2_40.odb,Step-1,Increment      1: Step Time =    1.000,"PART-1-1",           280,      -4.77040,   213.509E-03,            0.,NA,NA,"",       6.43896,      -6.36365,  -981.884E-03,   53.0365E-03
C:/temp/dataset/8/2_40.odb,Step-1,Increment      1: Step Time =    1.000,"PART-1-1",           281,      -7.12451,      -22.8795,            0.,NA,NA,"",   382.805E-03,  -381.542E-03,  -31.0674E-03,   9.59841E-03
C:/temp/dataset/8/2_40.odb,Step-1,Increment      1: Step Time =    1.000,"PART-1-1",           282,      -7.18564,       23.8616,            0.,NA,NA,"",       12.6902,      -12.4680,      -2.36449,   17.6057E-03
C:/temp/dataset/8/2_40.odb,Step-1,Increment      1: Step Time =    1.000,"PART-1-1",           283,      -8.39584,      -3.64273,            0.,NA,NA,"",       5.78824,      -5.61044,      -1.42361,   46.1867E-03
C:/temp/dataset/8/2_40.odb,Step-1,Increment      1: Step Time =    1.000,"PART-1-1",           284,      -5.55212,       23.5400,            0.,NA,NA,"",       12.6025,      -12.4371,      -2.03524,   19.0119E-03
C:/temp/dataset/8/2_40.odb,Step-1,Increment      1: Step Time =    1.000,"PART-1-1",           285,      -8.96751,       2.09330,            0.,NA,NA,"",       6.93254,      -6.69748,      -1.78990,   38.3690E-03
C:/temp/dataset/8/2_40.odb,Step-1,Increment      1: Step Time =    1.000,"PART-1-1",           286,      -8.55747,       4.19463,            0.,NA,NA,"",       7.35073,      -7.12761,      -1.79730,   35.9020E-03
C:/temp/dataset/8/2_40.odb,Step-1,Increment      1: Step Time =    1.000,"PART-1-1",           287,      -7.73317,  -334.415E-03,            0.,NA,NA,"",       6.42465,      -6.26523,      -1.42233,   32.8922E-03
C:/temp/dataset/8/2_40.odb,Step-1,Increment      1: Step Time =    1.000,"PART-1-1",           288,      -9.22795,      -23.2507,            0.,NA,NA,"",   411.405E-03,  -345.728E-03,  -222.995E-03,   39.2651E-03
C:/temp/dataset/8/2_40.odb,Step-1,Increment      1: Step Time =    1.000,"PART-1-1",           289,       6.93223,       22.5746,            0.,NA,NA,"",       12.5799,      -12.5719,  -450.708E-03,   41.2125E-03
C:/temp/dataset/8/2_40.odb,Step-1,Increment      1: Step Time =    1.000,"PART-1-1",           290,       5.55352,      -23.2395,            0.,NA,NA,"",   408.514E-03,  -406.009E-03,  -45.1742E-03,   33.2301E-03
C:/temp/dataset/8/2_40.odb,Step-1,Increment      1: Step Time =    1.000,"PART-1-1",           291,       8.74083,      -1.45726,            0.,NA,NA,"",       6.11997,      -6.11652,   205.340E-03,   28.3079E-03
C:/temp/dataset/8/2_40.odb,Step-1,Increment      1: Step Time =    1.000,"PART-1-1",           292,       10.8991,      -19.3920,            0.,NA,NA,"",       1.36925,      -1.19820,   662.676E-03,   86.9015E-03
C:/temp/dataset/8/2_40.odb,Step-1,Increment      1: Step Time =    1.000,"PART-1-1",           293,       11.6521,       10.1032,            0.,NA,NA,"",       9.73715,      -9.71146,   706.894E-03,   66.3618E-03
C:/temp/dataset/8/2_40.odb,Step-1,Increment      1: Step Time =    1.000,"PART-1-1",           294,       7.27299,      -23.4476,            0.,NA,NA,"",   398.266E-03,  -392.542E-03,   67.2856E-03,   12.6119E-03
C:/temp/dataset/8/2_40.odb,Step-1,Increment      1: Step Time =    1.000,"PART-1-1",           295,       9.33799,      -21.3321,            0.,NA,NA,"",   812.697E-03,  -734.860E-03,   347.069E-03,   69.4817E-03
C:/temp/dataset/8/2_40.odb,Step-1,Increment      1: Step Time =    1.000,"PART-1-1",           296,       6.43909,  -678.324E-03,            0.,NA,NA,"",       6.22292,      -6.21657,  -280.871E-03,   20.1860E-03
C:/temp/dataset/8/2_40.odb,Step-1,Increment      1: Step Time =    1.000,"PART-1-1",           297,       8.38797,       22.8532,            0.,NA,NA,"",       12.6633,      -12.6615,  -213.081E-03,   32.8621E-03
C:/temp/dataset/8/2_40.odb,Step-1,Increment      1: Step Time =    1.000,"PART-1-1",           298,       8.65495,       5.84832,            0.,NA,NA,"",       8.00498,      -8.00376,   139.682E-03,   72.0928E-03
C:/temp/dataset/8/2_40.odb,Step-1,Increment      1: Step Time =    1.000,"PART-1-1",           299,       8.94133,       7.33953,            0.,NA,NA,"",       8.56024,      -8.55893,   149.653E-03,   82.0353E-03
C:/temp/dataset/8/2_40.odb,Step-1,Increment      1: Step Time =    1.000,"PART-1-1",           300,       6.91134,      -2.43572,            0.,NA,NA,"",       5.87399,      -5.87097,  -188.349E-03,   31.6722E-03
C:/temp/dataset/8/2_40.odb,Step-1,Increment      1: Step Time =    1.000,"PART-1-1",           301,      -6.42836,   750.251E-03,            0.,NA,NA,"",       6.57313,      -6.45761,      -1.22691,   22.6357E-03
C:/temp/dataset/8/2_40.odb,Step-1,Increment      1: Step Time =    1.000,"PART-1-1",           302,       5.11217,      -21.8336,            0.,NA,NA,"",   537.131E-03,  -527.721E-03,  -100.102E-03,   52.8288E-03
C:/temp/dataset/8/2_40.odb,Step-1,Increment      1: Step Time =    1.000,"PART-1-1",           303,      -5.14370,       22.0291,            0.,NA,NA,"",       12.3130,      -12.1639,      -1.91080,   32.9028E-03
C:/temp/dataset/8/2_40.odb,Step-1,Increment      1: Step Time =    1.000,"PART-1-1",           304,      -6.99385,       4.73375,            0.,NA,NA,"",       7.38544,      -7.23728,      -1.47192,   49.5071E-03
C:/temp/dataset/8/2_40.odb,Step-1,Increment      1: Step Time =    1.000,"PART-1-1",           305,      -9.29188,       24.2162,            0.,NA,NA,"",       12.7991,      -12.4823,      -2.83025,   18.2273E-03
C:/temp/dataset/8/2_40.odb,Step-1,Increment      1: Step Time =    1.000,"PART-1-1",           306,       6.91679,       24.7863,            0.,NA,NA,"",       12.8957,      -12.8888,  -421.084E-03,   24.2847E-03
C:/temp/dataset/8/2_40.odb,Step-1,Increment      1: Step Time =    1.000,"PART-1-1",           307,      -7.06121,      -25.4189,            0.,NA,NA,"",   173.103E-03,  -171.277E-03,  -25.0769E-03,   23.9924E-03
C:/temp/dataset/8/2_40.odb,Step-1,Increment      1: Step Time =    1.000,"PART-1-1",           308,   226.332E-03,       25.0801,            0.,NA,NA,"",       12.8489,      -12.7885,      -1.24355,   27.0837E-03
C:/temp/dataset/8/2_40.odb,Step-1,Increment      1: Step Time =    1.000,"PART-1-1",           309,      -10.0604,       10.2616,            0.,NA,NA,"",       9.07106,      -8.72863,      -2.46883,   31.4135E-03
C:/temp/dataset/8/2_40.odb,Step-1,Increment      1: Step Time =    1.000,"PART-1-1",           310,  -253.177E-03,      -25.0610,            0.,NA,NA,"",   294.680E-03,  -294.643E-03,   4.67560E-03,   55.3040E-03
C:/temp/dataset/8/2_40.odb,Step-1,Increment      1: Step Time =    1.000,"PART-1-1",           311,       10.5126,      -8.54534,            0.,NA,NA,"",       4.35751,      -4.29936,   709.520E-03,   57.0206E-03
C:/temp/dataset/8/2_40.odb,Step-1,Increment      1: Step Time =    1.000,"PART-1-1",           312,       8.69507,       24.2171,            0.,NA,NA,"",       12.8598,      -12.8589,  -152.472E-03,   26.1609E-03
C:/temp/dataset/8/2_40.odb,Step-1,Increment      1: Step Time =    1.000,"PART-1-1",           313,       10.6943,       25.6018,            0.,NA,NA,"",       13.0929,      -13.0918,   168.670E-03,   18.2183E-03
C:/temp/dataset/8/2_40.odb,Step-1,Increment      1: Step Time =    1.000,"PART-1-1",           314,       10.1073,       17.1283,            0.,NA,NA,"",       11.7492,      -11.7487,   105.181E-03,   23.7348E-03
C:/temp/dataset/8/2_40.odb,Step-1,Increment      1: Step Time =    1.000,"PART-1-1",           315,       10.1760,       14.6796,            0.,NA,NA,"",       11.1336,      -11.1325,   156.084E-03,   36.2912E-03
C:/temp/dataset/8/2_40.odb,Step-1,Increment      1: Step Time =    1.000,"PART-1-1",           316,       10.5274,  -400.724E-03,            0.,NA,NA,"",       6.45082,      -6.41902,   639.735E-03,   36.3535E-03
C:/temp/dataset/8/2_40.odb,Step-1,Increment      1: Step Time =    1.000,"PART-1-1",           317,      -9.77892,      -7.87927,            0.,NA,NA,"",       4.61182,      -4.36417,      -1.49093,   70.8710E-03
C:/temp/dataset/8/2_40.odb,Step-1,Increment      1: Step Time =    1.000,"PART-1-1",           318,      -10.1056,       26.5264,            0.,NA,NA,"",       13.2732,      -12.9157,      -3.05950,   18.0659E-03
C:/temp/dataset/8/2_40.odb,Step-1,Increment      1: Step Time =    1.000,"PART-1-1",           319,       8.72249,      -9.20974,            0.,NA,NA,"",       4.02951,      -4.01902,   290.541E-03,   60.8639E-03
C:/temp/dataset/8/2_40.odb,Step-1,Increment      1: Step Time =    1.000,"PART-1-1",           320,       10.2890,      -26.3639,            0.,NA,NA,"",   267.176E-03,  -192.250E-03,   185.534E-03,   68.0524E-03
C:/temp/dataset/8/2_40.odb,Step-1,Increment      1: Step Time =    1.000,"PART-1-1",           321,      -10.7934,   627.825E-03,            0.,NA,NA,"",       6.75455,      -6.40120,      -2.15606,   39.1568E-03
C:/temp/dataset/8/2_40.odb,Step-1,Increment      1: Step Time =    1.000,"PART-1-1",           322,       9.12166,      -10.6535,            0.,NA,NA,"",       3.60655,      -3.58471,   396.291E-03,   61.1183E-03
C:/temp/dataset/8/2_40.odb,Step-1,Increment      1: Step Time =    1.000,"PART-1-1",           323,       10.0480,      -15.0307,            0.,NA,NA,"",       2.37771,      -2.29545,   619.985E-03,   67.6707E-03
C:/temp/dataset/8/2_40.odb,Step-1,Increment      1: Step Time =    1.000,"PART-1-1",           324,       9.34152,       9.36934,            0.,NA,NA,"",       9.33037,      -9.32923,   145.981E-03,   69.1684E-03
C:/temp/dataset/8/2_40.odb,Step-1,Increment      1: Step Time =    1.000,"PART-1-1",           325,      -11.4891,      -22.3432,            0.,NA,NA,"",   741.787E-03,  -495.843E-03,  -551.714E-03,   81.7613E-03
C:/temp/dataset/8/2_40.odb,Step-1,Increment      1: Step Time =    1.000,"PART-1-1",           326,      -10.7249,      -25.4704,            0.,NA,NA,"",   300.606E-03,  -170.698E-03,  -247.439E-03,   66.5110E-03
C:/temp/dataset/8/2_40.odb,Step-1,Increment      1: Step Time =    1.000,"PART-1-1",           327,       9.08969,       25.6240,            0.,NA,NA,"",       13.0626,      -13.0623,  -87.6388E-03,   19.1888E-03
C:/temp/dataset/8/2_40.odb,Step-1,Increment      1: Step Time =    1.000,"PART-1-1",           328,       11.3751,      -22.3885,            0.,NA,NA,"",   869.727E-03,  -678.765E-03,   543.786E-03,   92.4331E-03
C:/temp/dataset/8/2_40.odb,Step-1,Increment      1: Step Time =    1.000,"PART-1-1",           329,       12.7027,      -9.12592,            0.,NA,NA,"",       4.40101,      -4.22182,       1.24302,   52.3468E-03
C:/temp/dataset/8/2_40.odb,Step-1,Increment      1: Step Time =    1.000,"PART-1-1",           330,       11.5594,      -8.21360,            0.,NA,NA,"",       4.54569,      -4.44366,   957.737E-03,   50.5549E-03
C:/temp/dataset/8/2_40.odb,Step-1,Increment      1: Step Time =    1.000,"PART-1-1",           331,       10.6187,      -9.60815,            0.,NA,NA,"",       4.04611,      -3.97734,   742.789E-03,   59.7752E-03
C:/temp/dataset/8/2_40.odb,Step-1,Increment      1: Step Time =    1.000,"PART-1-1",           332,       11.7621,      -10.5205,            0.,NA,NA,"",       3.88475,      -3.74905,       1.01782,   61.1839E-03
C:/temp/dataset/8/2_40.odb,Step-1,Increment      1: Step Time =    1.000,"PART-1-1",           333,       12.2940,      -6.48286,            0.,NA,NA,"",       5.10184,      -4.97730,       1.12040,   36.7712E-03
C:/temp/dataset/8/2_40.odb,Step-1,Increment      1: Step Time =    1.000,"PART-1-1",           334,       10.8251,      -5.81708,            0.,NA,NA,"",       5.16483,      -5.10948,   754.101E-03,   35.3010E-03
C:/temp/dataset/8/2_40.odb,Step-1,Increment      1: Step Time =    1.000,"PART-1-1",           335,       10.0905,      -7.54782,            0.,NA,NA,"",       4.62515,      -4.58600,   600.460E-03,   51.6471E-03
C:/temp/dataset/8/2_40.odb,Step-1,Increment      1: Step Time =    1.000,"PART-1-1",           336,       11.3010,      -15.1125,            0.,NA,NA,"",       2.49324,      -2.33334,   878.508E-03,   75.6842E-03
C:/temp/dataset/8/2_40.odb,Step-1,Increment      1: Step Time =    1.000,"PART-1-1",           337,       12.6399,      -13.9666,            0.,NA,NA,"",       2.99200,      -2.74394,       1.19285,   78.5636E-03
C:/temp/dataset/8/2_40.odb,Step-1,Increment      1: Step Time =    1.000,"PART-1-1",           338,       11.5610,      -12.7439,            0.,NA,NA,"",       3.20300,      -3.05432,   964.542E-03,   68.7723E-03
C:/temp/dataset/8/2_40.odb,Step-1,Increment      1: Step Time =    1.000,"PART-1-1",           339,       10.2221,      -13.8898,            0.,NA,NA,"",       2.72271,      -2.64132,   660.716E-03,   67.3732E-03
C:/temp/dataset/8/2_40.odb,Step-1,Increment      1: Step Time =    1.000,"PART-1-1",           340,       13.8630,      -12.6507,            0.,NA,NA,"",       3.55224,      -3.21394,       1.51296,   73.0802E-03
C:/temp/dataset/8/2_40.odb,Step-1,Increment      1: Step Time =    1.000,"PART-1-1",           341,       13.7769,      -15.1346,            0.,NA,NA,"",       2.84918,      -2.47329,       1.41443,   93.0357E-03
C:/temp/dataset/8/2_40.odb,Step-1,Increment      1: Step Time =    1.000,"PART-1-1",           342,           15.,      -13.8188,            0.,NA,NA,"",       3.43439,      -2.94324,       1.76985,   90.3559E-03
C:/temp/dataset/8/2_40.odb,Step-1,Increment      1: Step Time =    1.000,"PART-1-1",           343,       10.1228,      -29.0148,            0.,NA,NA,"",   51.1303E-03,  -25.9610E-03,   44.0492E-03,   56.1184E-03
C:/temp/dataset/8/2_40.odb,Step-1,Increment      1: Step Time =    1.000,"PART-1-1",           344,         11.25,          -30.,            0.,NA,NA,"",            0.,  -10.9982E-39,   136.633E-39,   70.3482E-03
C:/temp/dataset/8/2_40.odb,Step-1,Increment      1: Step Time =    1.000,"PART-1-1",           345,       12.5273,      -28.8600,            0.,NA,NA,"",   109.800E-03,  -62.4953E-03,   90.2794E-03,   101.788E-03
C:/temp/dataset/8/2_40.odb,Step-1,Increment      1: Step Time =    1.000,"PART-1-1",           346,       11.4001,      -27.8749,            0.,NA,NA,"",   175.405E-03,  -108.766E-03,   137.611E-03,   89.2160E-03
C:/temp/dataset/8/2_40.odb,Step-1,Increment      1: Step Time =    1.000,"PART-1-1",           347,  -13.0938E-03,      -28.7451,            0.,NA,NA,"",   69.4938E-03,  -69.4732E-03,  -1.69145E-03,   38.8067E-03
C:/temp/dataset/8/2_40.odb,Step-1,Increment      1: Step Time =    1.000,"PART-1-1",           348,          1.25,          -30.,            0.,NA,NA,"",            0.,  -33.6462E-39,  -5.20154E-39,   32.5596E-03
C:/temp/dataset/8/2_40.odb,Step-1,Increment      1: Step Time =    1.000,"PART-1-1",           349,       2.65125,      -28.4867,            0.,NA,NA,"",   75.5544E-03,  -75.1448E-03,  -7.85679E-03,   36.7160E-03
C:/temp/dataset/8/2_40.odb,Step-1,Increment      1: Step Time =    1.000,"PART-1-1",           350,       1.38815,      -27.2319,            0.,NA,NA,"",   155.207E-03,  -154.640E-03,  -13.2557E-03,   43.2083E-03
C:/temp/dataset/8/2_40.odb,Step-1,Increment      1: Step Time =    1.000,"PART-1-1",           351,      -13.5950,      -27.3152,            0.,NA,NA,"",   314.834E-03,  -147.411E-03,  -278.192E-03,   125.141E-03
C:/temp/dataset/8/2_40.odb,Step-1,Increment      1: Step Time =    1.000,"PART-1-1",           352,      -12.5712,      -25.8759,            0.,NA,NA,"",   407.143E-03,  -196.198E-03,  -356.752E-03,   104.093E-03
C:/temp/dataset/8/2_40.odb,Step-1,Increment      1: Step Time =    1.000,"PART-1-1",           353,      -13.9762,      -24.8107,            0.,NA,NA,"",   698.770E-03,  -348.003E-03,  -605.948E-03,   130.849E-03
C:/temp/dataset/8/2_40.odb,Step-1,Increment      1: Step Time =    1.000,"PART-1-1",           354,          -15.,        -26.25,            0.,NA,NA,"",   605.603E-03,  -308.507E-03,  -521.132E-03,   149.162E-03
C:/temp/dataset/8/2_40.odb,Step-1,Increment      1: Step Time =    1.000,"PART-1-1",           355,      -13.7576,      -15.0494,            0.,NA,NA,"",       2.74738,      -2.07515,      -1.80052,   94.4665E-03
C:/temp/dataset/8/2_40.odb,Step-1,Increment      1: Step Time =    1.000,"PART-1-1",           356,          -15.,        -16.25,            0.,NA,NA,"",       2.66691,      -1.77389,      -1.99141,   123.038E-03
C:/temp/dataset/8/2_40.odb,Step-1,Increment      1: Step Time =    1.000,"PART-1-1",           357,      -13.7759,      -17.5617,            0.,NA,NA,"",       2.06235,      -1.43077,      -1.48531,   113.727E-03
C:/temp/dataset/8/2_40.odb,Step-1,Increment      1: Step Time =    1.000,"PART-1-1",           358,      -12.5335,      -16.3611,            0.,NA,NA,"",       2.16708,      -1.70553,      -1.33694,   91.6651E-03
C:/temp/dataset/8/2_40.odb,Step-1,Increment      1: Step Time =    1.000,"PART-1-1",           359,      -13.7966,       15.0030,            0.,NA,NA,"",       10.6552,      -10.0009,      -3.67629,   12.2593E-03
C:/temp/dataset/8/2_40.odb,Step-1,Increment      1: Step Time =    1.000,"PART-1-1",           360,          -15.,         13.75,            0.,NA,NA,"",       10.3762,      -9.59120,      -3.95897,   2.45784E-03
C:/temp/dataset/8/2_40.odb,Step-1,Increment      1: Step Time =    1.000,"PART-1-1",           361,      -13.7864,       12.5210,            0.,NA,NA,"",       9.94008,      -9.28139,      -3.55823,   16.3127E-03
C:/temp/dataset/8/2_40.odb,Step-1,Increment      1: Step Time =    1.000,"PART-1-1",           362,      -12.5830,       13.7740,            0.,NA,NA,"",       10.2327,      -9.68620,      -3.29930,   23.5046E-03
C:/temp/dataset/8/2_40.odb,Step-1,Increment      1: Step Time =    1.000,"PART-1-1",           363,         -1.25,           -5.,            0.,NA,NA,"",       5.77778,      -5.72277,  -795.349E-03,   15.1063E-03
C:/temp/dataset/8/2_40.odb,Step-1,Increment      1: Step Time =    1.000,"PART-1-1",           364,  -12.3337E-03,      -3.76193,            0.,NA,NA,"",       5.83856,      -5.78879,  -760.740E-03,   37.0874E-03
C:/temp/dataset/8/2_40.odb,Step-1,Increment      1: Step Time =    1.000,"PART-1-1",           365,      -1.32647,      -2.50471,            0.,NA,NA,"",       5.97122,      -5.91949,  -784.229E-03,   83.8720E-03
C:/temp/dataset/8/2_40.odb,Step-1,Increment      1: Step Time =    1.000,"PART-1-1",           366,      -2.56414,      -3.74278,            0.,NA,NA,"",       5.80546,      -5.75185,  -787.161E-03,   63.4639E-03
C:/temp/dataset/8/2_40.odb,Step-1,Increment      1: Step Time =    1.000,"PART-1-1",           367,       1.21724,      -2.54641,            0.,NA,NA,"",       5.95158,      -5.90538,  -740.152E-03,   76.1330E-03
C:/temp/dataset/8/2_40.odb,Step-1,Increment      1: Step Time =    1.000,"PART-1-1",           368,          1.25,           -5.,            0.,NA,NA,"",       5.72096,      -5.67887,  -692.671E-03,   46.2178E-03
C:/temp/dataset/8/2_40.odb,Step-1,Increment      1: Step Time =    1.000,"PART-1-1",           369,       2.47957,      -3.78448,            0.,NA,NA,"",       5.74620,      -5.70654,  -673.965E-03,   63.5577E-03
C:/temp/dataset/8/2_40.odb,Step-1,Increment      1: Step Time =    1.000,"PART-1-1",           370,      -2.43429,       1.26667,            0.,NA,NA,"",       6.58883,      -6.53385,  -849.390E-03,   87.1592E-03
C:/temp/dataset/8/2_40.odb,Step-1,Increment      1: Step Time =    1.000,"PART-1-1",           371,      -1.22349,  -12.1802E-03,            0.,NA,NA,"",       6.36336,      -6.31210,  -806.038E-03,   103.163E-03
C:/temp/dataset/8/2_40.odb,Step-1,Increment      1: Step Time =    1.000,"PART-1-1",           372,   38.4689E-03,       1.22772,            0.,NA,NA,"",       6.57108,      -6.52272,  -795.727E-03,   98.3563E-03
C:/temp/dataset/8/2_40.odb,Step-1,Increment      1: Step Time =    1.000,"PART-1-1",           373,      -1.17233,       2.50657,            0.,NA,NA,"",       6.77196,      -6.72155,  -824.788E-03,   80.9408E-03
C:/temp/dataset/8/2_40.odb,Step-1,Increment      1: Step Time =    1.000,"PART-1-1",           374,       4.79096,      -1.43433,            0.,NA,NA,"",       6.07236,      -6.04978,  -523.205E-03,   51.5038E-03
C:/temp/dataset/8/2_40.odb,Step-1,Increment      1: Step Time =    1.000,"PART-1-1",           375,       3.64969,  -148.662E-03,            0.,NA,NA,"",       6.32141,      -6.28817,  -647.442E-03,   70.3356E-03
C:/temp/dataset/8/2_40.odb,Step-1,Increment      1: Step Time =    1.000,"PART-1-1",           376,       2.48320,      -1.31285,            0.,NA,NA,"",       6.12052,      -6.07939,  -708.408E-03,   85.6967E-03
C:/temp/dataset/8/2_40.odb,Step-1,Increment      1: Step Time =    1.000,"PART-1-1",           377,       3.62447,      -2.59851,            0.,NA,NA,"",       5.87277,      -5.83840,  -634.502E-03,   68.7107E-03
C:/temp/dataset/8/2_40.odb,Step-1,Increment      1: Step Time =    1.000,"PART-1-1",           378,       11.9226,      -2.21680,            0.,NA,NA,"",       6.13876,      -6.05762,   994.787E-03,   32.5017E-03
C:/temp/dataset/8/2_40.odb,Step-1,Increment      1: Step Time =    1.000,"PART-1-1",           379,       10.4874,      -2.72902,            0.,NA,NA,"",       5.91787,      -5.88348,   637.074E-03,   28.3930E-03
C:/temp/dataset/8/2_40.odb,Step-1,Increment      1: Step Time =    1.000,"PART-1-1",           380,       10.9276,      -4.23857,            0.,NA,NA,"",       5.58142,      -5.52943,   760.036E-03,   26.0477E-03
C:/temp/dataset/8/2_40.odb,Step-1,Increment      1: Step Time =    1.000,"PART-1-1",           381,       12.3627,      -3.72635,            0.,NA,NA,"",       5.81651,      -5.70919,       1.11222,   29.5899E-03
C:/temp/dataset/8/2_40.odb,Step-1,Increment      1: Step Time =    1.000,"PART-1-1",           382,       13.8122,   56.1618E-03,            0.,NA,NA,"",       6.85029,      -6.68905,       1.47752,   43.5951E-03
C:/temp/dataset/8/2_40.odb,Step-1,Increment      1: Step Time =    1.000,"PART-1-1",           383,           15.,       1.23750,            0.,NA,NA,"",       7.27229,      -7.04984,       1.78496,   54.4929E-03
C:/temp/dataset/8/2_40.odb,Step-1,Increment      1: Step Time =    1.000,"PART-1-1",           384,       13.5130,       2.69080,            0.,NA,NA,"",       7.48917,      -7.35277,       1.42284,   50.8393E-03
C:/temp/dataset/8/2_40.odb,Step-1,Increment      1: Step Time =    1.000,"PART-1-1",           385,       12.3252,       1.50947,            0.,NA,NA,"",       7.05805,      -6.97086,       1.10595,   41.4541E-03
C:/temp/dataset/8/2_40.odb,Step-1,Increment      1: Step Time =    1.000,"PART-1-1",           386,       10.2711,       8.91868,            0.,NA,NA,"",       9.21804,      -9.20895,   409.175E-03,   69.6741E-03
C:/temp/dataset/8/2_40.odb,Step-1,Increment      1: Step Time =    1.000,"PART-1-1",           387,       9.14142,       8.35444,            0.,NA,NA,"",       8.94872,      -8.94750,   147.578E-03,   74.9529E-03
C:/temp/dataset/8/2_40.odb,Step-1,Increment      1: Step Time =    1.000,"PART-1-1",           388,       9.84573,       6.91985,            0.,NA,NA,"",       8.46641,      -8.45710,   396.870E-03,   69.3871E-03
C:/temp/dataset/8/2_40.odb,Step-1,Increment      1: Step Time =    1.000,"PART-1-1",           389,       10.9754,       7.48409,            0.,NA,NA,"",       8.74656,      -8.72147,   662.081E-03,   64.2994E-03
C:/temp/dataset/8/2_40.odb,Step-1,Increment      1: Step Time =    1.000,"PART-1-1",           390,       13.8339,       14.8863,            0.,NA,NA,"",       11.4212,      -11.3745,       1.03156,   42.8570E-03
C:/temp/dataset/8/2_40.odb,Step-1,Increment      1: Step Time =    1.000,"PART-1-1",           391,       12.7782,       13.6219,            0.,NA,NA,"",       10.9946,      -10.9634,   828.044E-03,   39.1698E-03
C:/temp/dataset/8/2_40.odb,Step-1,Increment      1: Step Time =    1.000,"PART-1-1",           392,       13.9443,       12.4043,            0.,NA,NA,"",       10.7229,      -10.6539,       1.21434,   39.3176E-03
C:/temp/dataset/8/2_40.odb,Step-1,Increment      1: Step Time =    1.000,"PART-1-1",           393,           15.,       13.6688,            0.,NA,NA,"",       11.1882,      -11.0962,       1.43190,   52.5891E-03
C:/temp/dataset/8/2_40.odb,Step-1,Increment      1: Step Time =    1.000,"PART-1-1",           394,       6.42614,       20.0555,            0.,NA,NA,"",       12.1995,      -12.1848,  -598.780E-03,   53.4998E-03
C:/temp/dataset/8/2_40.odb,Step-1,Increment      1: Step Time =    1.000,"PART-1-1",           395,       7.39225,       21.3428,            0.,NA,NA,"",       12.4194,      -12.4128,  -403.660E-03,   41.7944E-03
C:/temp/dataset/8/2_40.odb,Step-1,Increment      1: Step Time =    1.000,"PART-1-1",           396,       5.86323,       22.5571,            0.,NA,NA,"",       12.5456,      -12.5312,  -600.426E-03,   41.1866E-03
C:/temp/dataset/8/2_40.odb,Step-1,Increment      1: Step Time =    1.000,"PART-1-1",           397,       4.89712,       21.2698,            0.,NA,NA,"",       12.3304,      -12.3073,  -754.617E-03,   52.1108E-03
C:/temp/dataset/8/2_40.odb,Step-1,Increment      1: Step Time =    1.000,"PART-1-1",           398,       13.8410,       27.5667,            0.,NA,NA,"",       13.4213,      -13.4062,   635.479E-03,   3.90404E-03
C:/temp/dataset/8/2_40.odb,Step-1,Increment      1: Step Time =    1.000,"PART-1-1",           399,       12.7330,       26.4648,            0.,NA,NA,"",       13.2482,      -13.2395,   481.866E-03,   11.1137E-03
C:/temp/dataset/8/2_40.odb,Step-1,Increment      1: Step Time =    1.000,"PART-1-1",           400,       13.8920,       25.1294,            0.,NA,NA,"",       13.0849,      -13.0673,   678.084E-03,   10.5240E-03
C:/temp/dataset/8/2_40.odb,Step-1,Increment      1: Step Time =    1.000,"PART-1-1",           401,           15.,       26.2313,            0.,NA,NA,"",       13.2537,      -13.2282,   821.486E-03,   5.32556E-03
C:/temp/dataset/8/2_40.odb,Step-1,Increment      1: Step Time =    1.000,"PART-1-1",           402,       1.26001,       27.5457,            0.,NA,NA,"",       13.2395,      -13.1901,      -1.14205,   18.8241E-03
C:/temp/dataset/8/2_40.odb,Step-1,Increment      1: Step Time =    1.000,"PART-1-1",           403,   121.340E-03,       26.2982,            0.,NA,NA,"",       13.0456,      -12.9837,      -1.26955,   23.1889E-03
C:/temp/dataset/8/2_40.odb,Step-1,Increment      1: Step Time =    1.000,"PART-1-1",           404,       1.36459,       25.1000,            0.,NA,NA,"",       12.8570,      -12.8091,      -1.10865,   28.1768E-03
C:/temp/dataset/8/2_40.odb,Step-1,Increment      1: Step Time =    1.000,"PART-1-1",           405,       2.50327,       26.3475,            0.,NA,NA,"",       13.0586,      -13.0217,  -981.689E-03,   23.3812E-03
C:/temp/dataset/8/2_40.odb,Step-1,Increment      1: Step Time =    1.000,"PART-1-1",           406,   134.275E-03,       23.8369,            0.,NA,NA,"",       12.6500,      -12.5887,      -1.24376,   29.1199E-03
C:/temp/dataset/8/2_40.odb,Step-1,Increment      1: Step Time =    1.000,"PART-1-1",           407,       1.25833,       22.5836,            0.,NA,NA,"",       12.4701,      -12.4205,      -1.11135,   28.5640E-03
C:/temp/dataset/8/2_40.odb,Step-1,Increment      1: Step Time =    1.000,"PART-1-1",           408,       2.48865,       23.8467,            0.,NA,NA,"",       12.6717,      -12.6341,  -976.227E-03,   29.6320E-03
C:/temp/dataset/8/2_40.odb,Step-1,Increment      1: Step Time =    1.000,"PART-1-1",           409,      -5.93101,       26.7355,            0.,NA,NA,"",       13.2002,      -13.0164,      -2.19536,   13.3102E-03
C:/temp/dataset/8/2_40.odb,Step-1,Increment      1: Step Time =    1.000,"PART-1-1",           410,      -5.38229,       25.2750,            0.,NA,NA,"",       12.9229,      -12.7584,      -2.05534,   12.1419E-03
C:/temp/dataset/8/2_40.odb,Step-1,Increment      1: Step Time =    1.000,"PART-1-1",           411,      -3.59290,       25.9597,            0.,NA,NA,"",       13.0169,      -12.8955,      -1.77367,   17.2755E-03
C:/temp/dataset/8/2_40.odb,Step-1,Increment      1: Step Time =    1.000,"PART-1-1",           412,      -4.14162,       27.4201,            0.,NA,NA,"",       13.2819,      -13.1458,      -1.89655,   13.8899E-03
C:/temp/dataset/8/2_40.odb,Step-1,Increment      1: Step Time =    1.000,"PART-1-1",           413,      -13.7895,       17.4912,            0.,NA,NA,"",       11.3459,      -10.7059,      -3.75658,   17.0845E-03
C:/temp/dataset/8/2_40.odb,Step-1,Increment      1: Step Time =    1.000,"PART-1-1",           414,      -12.5357,       18.7235,            0.,NA,NA,"",       11.6205,      -11.0890,      -3.47432,   14.9441E-03
C:/temp/dataset/8/2_40.odb,Step-1,Increment      1: Step Time =    1.000,"PART-1-1",           415,      -13.7462,       19.9824,            0.,NA,NA,"",       11.9843,      -11.3676,      -3.79477,   21.3690E-03
C:/temp/dataset/8/2_40.odb,Step-1,Increment      1: Step Time =    1.000,"PART-1-1",           416,          -15.,         18.75,            0.,NA,NA,"",       11.7310,      -10.9944,      -4.09123,   26.2953E-03
C:/temp/dataset/8/2_40.odb,Step-1,Increment      1: Step Time =    1.000,"PART-1-1",           417,      -7.55055,       18.6209,            0.,NA,NA,"",       11.4827,      -11.2535,      -2.28279,   33.9200E-03
C:/temp/dataset/8/2_40.odb,Step-1,Increment      1: Step Time =    1.000,"PART-1-1",           418,      -6.28038,       17.4701,            0.,NA,NA,"",       11.1179,      -10.9560,      -1.89060,   34.5192E-03
C:/temp/dataset/8/2_40.odb,Step-1,Increment      1: Step Time =    1.000,"PART-1-1",           419,           -5.,         18.75,            0.,NA,NA,"",       11.4738,      -11.3565,      -1.63687,   67.5228E-03
C:/temp/dataset/8/2_40.odb,Step-1,Increment      1: Step Time =    1.000,"PART-1-1",           420,      -6.27018,       19.9008,            0.,NA,NA,"",       11.8506,      -11.6716,      -2.05159,   59.0016E-03
C:/temp/dataset/8/2_40.odb,Step-1,Increment      1: Step Time =    1.000,"PART-1-1",           421,            5.,         18.75,            0.,NA,NA,"",       11.9070,      -11.8739,  -888.164E-03,   99.8895E-03
C:/temp/dataset/8/2_40.odb,Step-1,Increment      1: Step Time =    1.000,"PART-1-1",           422,       6.30600,       17.4335,            0.,NA,NA,"",       11.6677,      -11.6466,  -702.102E-03,   68.8824E-03
C:/temp/dataset/8/2_40.odb,Step-1,Increment      1: Step Time =    1.000,"PART-1-1",           423,       7.73213,       18.7390,            0.,NA,NA,"",       11.9950,      -11.9887,  -386.798E-03,   34.6327E-03
C:/temp/dataset/8/2_40.odb,Step-1,Increment      1: Step Time =    1.000,"PART-1-1",           424,         -6.25,          -30.,            0.,NA,NA,"",            0.,  -5.46849E-39,  -25.8630E-39,   14.1549E-03
C:/temp/dataset/8/2_40.odb,Step-1,Increment      1: Step Time =    1.000,"PART-1-1",           425,      -4.93560,      -28.8558,            0.,NA,NA,"",   32.4261E-03,  -32.4252E-03,  -246.649E-06,   22.4630E-03
C:/temp/dataset/8/2_40.odb,Step-1,Increment      1: Step Time =    1.000,"PART-1-1",           426,      -6.05680,      -27.7304,            0.,NA,NA,"",   60.3160E-03,  -60.1724E-03,  -4.15909E-03,   26.0140E-03
C:/temp/dataset/8/2_40.odb,Step-1,Increment      1: Step Time =    1.000,"PART-1-1",           427,      -7.37120,      -28.8746,            0.,NA,NA,"",   17.7172E-03,  -9.23956E-03,  -15.1172E-03,   20.2639E-03
C:/temp/dataset/8/2_40.odb,Step-1,Increment      1: Step Time =    1.000,"PART-1-1",           428,       8.60466,       1.06565,            0.,NA,NA,"",       6.66159,      -6.65947,   168.040E-03,   32.7260E-03
C:/temp/dataset/8/2_40.odb,Step-1,Increment      1: Step Time =    1.000,"PART-1-1",           429,       8.83240,       2.57689,            0.,NA,NA,"",       7.03386,      -7.03035,   221.920E-03,   47.1217E-03
C:/temp/dataset/8/2_40.odb,Step-1,Increment      1: Step Time =    1.000,"PART-1-1",           430,       6.85789,       2.90810,            0.,NA,NA,"",       6.97934,      -6.97517,  -241.195E-03,   36.9052E-03
C:/temp/dataset/8/2_40.odb,Step-1,Increment      1: Step Time =    1.000,"PART-1-1",           431,       6.63016,       1.39685,            0.,NA,NA,"",       6.64777,      -6.64251,  -264.405E-03,   18.9094E-03
C:/temp/dataset/8/2_40.odb,Step-1,Increment      1: Step Time =    1.000,"PART-1-1",           432,       5.99259,      -9.88635,            0.,NA,NA,"",       3.68464,      -3.66323,  -396.683E-03,   49.6560E-03
C:/temp/dataset/8/2_40.odb,Step-1,Increment      1: Step Time =    1.000,"PART-1-1",           433,            5.,        -11.25,            0.,NA,NA,"",       3.25866,      -3.19148,  -658.290E-03,   32.9898E-03
C:/temp/dataset/8/2_40.odb,Step-1,Increment      1: Step Time =    1.000,"PART-1-1",           434,       6.38932,      -12.3587,            0.,NA,NA,"",       2.94227,      -2.93079,  -259.653E-03,   34.6192E-03
C:/temp/dataset/8/2_40.odb,Step-1,Increment      1: Step Time =    1.000,"PART-1-1",           435,       7.38191,      -10.9950,            0.,NA,NA,"",       3.39570,      -3.39562,  -23.3594E-03,   52.5806E-03
C:/temp/dataset/8/2_40.odb,Step-1,Increment      1: Step Time =    1.000,"PART-1-1",           436,       13.8031,      -7.70967,            0.,NA,NA,"",       4.93243,      -4.69504,       1.51178,   36.4147E-03
C:/temp/dataset/8/2_40.odb,Step-1,Increment      1: Step Time =    1.000,"PART-1-1",           437,       13.8997,      -10.2100,            0.,NA,NA,"",       4.24958,      -3.95753,       1.54818,   53.5459E-03
C:/temp/dataset/8/2_40.odb,Step-1,Increment      1: Step Time =    1.000,"PART-1-1",           438,           15.,      -8.79375,            0.,NA,NA,"",       4.80906,      -4.44270,       1.84107,   39.9690E-03
C:/temp/dataset/8/2_40.odb,Step-1,Increment      1: Step Time =    1.000,"PART-1-1",           439,       12.4250,      -16.5409,            0.,NA,NA,"",       2.26124,      -1.99450,       1.06545,   90.2259E-03
C:/temp/dataset/8/2_40.odb,Step-1,Increment      1: Step Time =    1.000,"PART-1-1",           440,       13.6481,      -17.7375,            0.,NA,NA,"",       2.15387,      -1.76022,       1.24128,   111.391E-03
C:/temp/dataset/8/2_40.odb,Step-1,Increment      1: Step Time =    1.000,"PART-1-1",           441,           15.,      -16.3312,            0.,NA,NA,"",       2.75975,      -2.22716,       1.62972,   116.725E-03
C:/temp/dataset/8/2_40.odb,Step-1,Increment      1: Step Time =    1.000,"PART-1-1",           442,       12.6431,      -19.1391,            0.,NA,NA,"",       1.66570,      -1.36036,   961.240E-03,   103.428E-03
C:/temp/dataset/8/2_40.odb,Step-1,Increment      1: Step Time =    1.000,"PART-1-1",           443,       13.9950,      -20.2453,            0.,NA,NA,"",       1.63563,      -1.21458,       1.09547,   129.220E-03
C:/temp/dataset/8/2_40.odb,Step-1,Increment      1: Step Time =    1.000,"PART-1-1",           444,           15.,      -18.8438,            0.,NA,NA,"",       2.12803,      -1.59164,       1.41251,   137.950E-03
C:/temp/dataset/8/2_40.odb,Step-1,Increment      1: Step Time =    1.000,"PART-1-1",           445,      -5.98837,      -22.7771,            0.,NA,NA,"",   406.404E-03,  -403.473E-03,   48.7177E-03,   34.4572E-03
C:/temp/dataset/8/2_40.odb,Step-1,Increment      1: Step Time =    1.000,"PART-1-1",           446,      -7.09286,      -24.1492,            0.,NA,NA,"",   267.616E-03,  -266.186E-03,  -27.6299E-03,   16.6575E-03
C:/temp/dataset/8/2_40.odb,Step-1,Increment      1: Step Time =    1.000,"PART-1-1",           447,      -5.93941,      -25.3506,            0.,NA,NA,"",   196.046E-03,  -195.481E-03,   14.8668E-03,   32.4014E-03
C:/temp/dataset/8/2_40.odb,Step-1,Increment      1: Step Time =    1.000,"PART-1-1",           448,      -4.83491,      -23.9785,            0.,NA,NA,"",   321.823E-03,  -315.693E-03,   62.5158E-03,   48.8300E-03
C:/temp/dataset/8/2_40.odb,Step-1,Increment      1: Step Time =    1.000,"PART-1-1",           449,      -9.79906,      -28.8416,            0.,NA,NA,"",   43.9680E-03,  -86.6631E-06,  -43.9679E-03,   46.6282E-03
C:/temp/dataset/8/2_40.odb,Step-1,Increment      1: Step Time =    1.000,"PART-1-1",           450,      -10.8940,      -27.4068,            0.,NA,NA,"",   149.248E-03,  -55.6834E-03,  -138.472E-03,   71.2522E-03
C:/temp/dataset/8/2_40.odb,Step-1,Increment      1: Step Time =    1.000,"PART-1-1",           451,      -12.3450,      -28.5652,            0.,NA,NA,"",   106.948E-03,  -30.3351E-03,  -102.556E-03,   90.0490E-03
C:/temp/dataset/8/2_40.odb,Step-1,Increment      1: Step Time =    1.000,"PART-1-1",           452,        -11.25,          -30.,            0.,NA,NA,"",            0.,   3.40676E-39,  -130.554E-39,   66.4518E-03
C:/temp/dataset/8/2_40.odb,Step-1,Increment      1: Step Time =    1.000,"PART-1-1",           453,      -13.5399,       7.35912,            0.,NA,NA,"",       8.47454,      -7.85410,      -3.18290,   34.2070E-03
C:/temp/dataset/8/2_40.odb,Step-1,Increment      1: Step Time =    1.000,"PART-1-1",           454,          -15.,          6.25,            0.,NA,NA,"",       8.32003,      -7.55533,      -3.48423,   44.7939E-03
C:/temp/dataset/8/2_40.odb,Step-1,Increment      1: Step Time =    1.000,"PART-1-1",           455,      -13.9199,       4.81312,            0.,NA,NA,"",       7.87422,      -7.23020,      -3.11890,   39.0719E-03
C:/temp/dataset/8/2_40.odb,Step-1,Increment      1: Step Time =    1.000,"PART-1-1",           456,      -12.4598,       5.92224,            0.,NA,NA,"",       8.02416,      -7.51048,      -2.82487,   29.0076E-03
C:/temp/dataset/8/2_40.odb,Step-1,Increment      1: Step Time =    1.000,"PART-1-1",           457,      -14.0702,       2.40608,            0.,NA,NA,"",       7.35640,      -6.70817,      -3.01945,   33.8356E-03
C:/temp/dataset/8/2_40.odb,Step-1,Increment      1: Step Time =    1.000,"PART-1-1",           458,          -15.,          1.25,            0.,NA,NA,"",       7.19646,      -6.46050,      -3.17034,   26.4300E-03
C:/temp/dataset/8/2_40.odb,Step-1,Increment      1: Step Time =    1.000,"PART-1-1",           459,      -13.9245,  -19.3588E-03,            0.,NA,NA,"",       6.85186,      -6.21713,      -2.88015,   22.4997E-03
C:/temp/dataset/8/2_40.odb,Step-1,Increment      1: Step Time =    1.000,"PART-1-1",           460,      -12.9947,       1.13672,            0.,NA,NA,"",       7.01037,      -6.46593,      -2.70869,   32.2249E-03
C:/temp/dataset/8/2_40.odb,Step-1,Increment      1: Step Time =    1.000,"PART-1-1",           461,      -13.6376,      -2.69932,            0.,NA,NA,"",       6.27271,      -5.65198,      -2.72067,   10.2230E-03
C:/temp/dataset/8/2_40.odb,Step-1,Increment      1: Step Time =    1.000,"PART-1-1",           462,          -15.,         -3.75,            0.,NA,NA,"",       6.15352,      -5.36074,      -3.02130,   7.70342E-03
C:/temp/dataset/8/2_40.odb,Step-1,Increment      1: Step Time =    1.000,"PART-1-1",           463,      -14.1618,      -5.01381,            0.,NA,NA,"",       5.77630,      -5.06734,      -2.77266,   3.41575E-03
C:/temp/dataset/8/2_40.odb,Step-1,Increment      1: Step Time =    1.000,"PART-1-1",           464,      -12.7995,      -3.96314,            0.,NA,NA,"",       5.91768,      -5.37875,      -2.46738,   13.3322E-03
C:/temp/dataset/8/2_40.odb,Step-1,Increment      1: Step Time =    1.000,"PART-1-1",           465,          -15.,         -8.75,            0.,NA,NA,"",       4.86030,      -3.95445,      -2.82575,   22.0464E-03
C:/temp/dataset/8/2_40.odb,Step-1,Increment      1: Step Time =    1.000,"PART-1-1",           466,      -13.7348,      -9.99734,            0.,NA,NA,"",       4.30254,      -3.60762,      -2.34456,   47.5050E-03
C:/temp/dataset/8/2_40.odb,Step-1,Increment      1: Step Time =    1.000,"PART-1-1",           467,      -12.3830,      -8.57451,            0.,NA,NA,"",       4.58960,      -4.08573,      -2.09076,   53.3878E-03
C:/temp/dataset/8/2_40.odb,Step-1,Increment      1: Step Time =    1.000,"PART-1-1",           468,      -13.6482,      -7.32717,            0.,NA,NA,"",       5.09927,      -4.43222,      -2.52150,   24.2606E-03
C:/temp/dataset/8/2_40.odb,Step-1,Increment      1: Step Time =    1.000,"PART-1-1",           469,      -11.2232,      -10.0773,            0.,NA,NA,"",       3.98666,      -3.62532,      -1.65846,   70.8568E-03
C:/temp/dataset/8/2_40.odb,Step-1,Increment      1: Step Time =    1.000,"PART-1-1",           470,      -9.87788,      -9.01957,            0.,NA,NA,"",       4.23285,      -3.98897,      -1.41601,   75.2207E-03
C:/temp/dataset/8/2_40.odb,Step-1,Increment      1: Step Time =    1.000,"PART-1-1",           471,      -11.0377,      -7.51681,            0.,NA,NA,"",       4.80796,      -4.44645,      -1.82910,   54.5340E-03
C:/temp/dataset/8/2_40.odb,Step-1,Increment      1: Step Time =    1.000,"PART-1-1",           472,       1.26271,  -42.9986E-03,            0.,NA,NA,"",       6.35271,      -6.30681,  -762.278E-03,   101.079E-03
C:/temp/dataset/8/2_40.odb,Step-1,Increment      1: Step Time =    1.000,"PART-1-1",           473,  -3.24210E-03,      -1.27656,            0.,NA,NA,"",       6.15243,      -6.10321,  -776.625E-03,   93.5914E-03
C:/temp/dataset/8/2_40.odb,Step-1,Increment      1: Step Time =    1.000,"PART-1-1",           474,       3.63434,       22.5567,            0.,NA,NA,"",       12.4938,      -12.4641,  -860.616E-03,   33.4813E-03
C:/temp/dataset/8/2_40.odb,Step-1,Increment      1: Step Time =    1.000,"PART-1-1",           475,       2.48722,       21.2868,            0.,NA,NA,"",       12.3045,      -12.2654,  -980.432E-03,   18.9392E-03
C:/temp/dataset/8/2_40.odb,Step-1,Increment      1: Step Time =    1.000,"PART-1-1",           476,          3.75,           20.,            0.,NA,NA,"",       12.1635,      -12.1334,  -855.232E-03,   27.6137E-03
C:/temp/dataset/8/2_40.odb,Step-1,Increment      1: Step Time =    1.000,"PART-1-1",           477,       13.0518,       11.2605,            0.,NA,NA,"",       10.2595,      -10.2082,       1.02448,   52.1760E-03
C:/temp/dataset/8/2_40.odb,Step-1,Increment      1: Step Time =    1.000,"PART-1-1",           478,       14.1075,       10.0124,            0.,NA,NA,"",       9.92511,      -9.82409,       1.41246,   39.7087E-03
C:/temp/dataset/8/2_40.odb,Step-1,Increment      1: Step Time =    1.000,"PART-1-1",           479,           15.,       11.1563,            0.,NA,NA,"",       10.4453,      -10.3172,       1.63141,   35.0115E-03
C:/temp/dataset/8/2_40.odb,Step-1,Increment      1: Step Time =    1.000,"PART-1-1",           480,       10.1417,       15.9039,            0.,NA,NA,"",       11.4590,      -11.4583,   126.470E-03,   27.7323E-03
C:/temp/dataset/8/2_40.odb,Step-1,Increment      1: Step Time =    1.000,"PART-1-1",           481,       11.4219,       14.7636,            0.,NA,NA,"",       11.2298,      -11.2208,   449.152E-03,   32.8566E-03
C:/temp/dataset/8/2_40.odb,Step-1,Increment      1: Step Time =    1.000,"PART-1-1",           482,       12.5880,       16.1115,            0.,NA,NA,"",       11.6469,      -11.6272,   677.641E-03,   30.3385E-03
C:/temp/dataset/8/2_40.odb,Step-1,Increment      1: Step Time =    1.000,"PART-1-1",           483,       11.3078,       17.2518,            0.,NA,NA,"",       11.8347,      -11.8291,   365.190E-03,   23.7007E-03
C:/temp/dataset/8/2_40.odb,Step-1,Increment      1: Step Time =    1.000,"PART-1-1",           484,       14.0683,       7.62638,            0.,NA,NA,"",       9.07529,      -8.94500,       1.53230,   34.8595E-03
C:/temp/dataset/8/2_40.odb,Step-1,Increment      1: Step Time =    1.000,"PART-1-1",           485,       12.9668,       6.67122,            0.,NA,NA,"",       8.63572,      -8.54689,       1.23547,   40.0448E-03
C:/temp/dataset/8/2_40.odb,Step-1,Increment      1: Step Time =    1.000,"PART-1-1",           486,       13.8986,       5.23234,            0.,NA,NA,"",       8.27313,      -8.13054,       1.52934,   50.4607E-03
C:/temp/dataset/8/2_40.odb,Step-1,Increment      1: Step Time =    1.000,"PART-1-1",           487,           15.,        6.1875,            0.,NA,NA,"",       8.71649,      -8.51792,       1.84994,   53.2775E-03
C:/temp/dataset/8/2_40.odb,Step-1,Increment      1: Step Time =    1.000,"PART-1-1",           488,       7.13496,       8.72104,            0.,NA,NA,"",       8.99424,      -8.98442,  -420.180E-03,   54.9561E-03
C:/temp/dataset/8/2_40.odb,Step-1,Increment      1: Step Time =    1.000,"PART-1-1",           489,       6.11605,       9.93638,            0.,NA,NA,"",       9.40242,      -9.36928,  -788.690E-03,   35.7680E-03
C:/temp/dataset/8/2_40.odb,Step-1,Increment      1: Step Time =    1.000,"PART-1-1",           490,            5.,          8.75,            0.,NA,NA,"",       8.93821,      -8.86896,      -1.11048,   20.7003E-03
C:/temp/dataset/8/2_40.odb,Step-1,Increment      1: Step Time =    1.000,"PART-1-1",           491,       6.01891,       7.53466,            0.,NA,NA,"",       8.50598,      -8.47933,  -672.786E-03,   30.6125E-03
C:/temp/dataset/8/2_40.odb,Step-1,Increment      1: Step Time =    1.000,"PART-1-1",           492,   29.3773E-03,       3.74235,            0.,NA,NA,"",       6.91815,      -6.87183,  -799.190E-03,   43.8320E-03
C:/temp/dataset/8/2_40.odb,Step-1,Increment      1: Step Time =    1.000,"PART-1-1",           493,         -1.25,            5.,            0.,NA,NA,"",       7.02092,      -6.96863,  -855.280E-03,   24.4723E-03
C:/temp/dataset/8/2_40.odb,Step-1,Increment      1: Step Time =    1.000,"PART-1-1",           494,      -2.45171,       3.76422,            0.,NA,NA,"",       6.96593,      -6.90967,  -883.545E-03,   52.9383E-03
C:/temp/dataset/8/2_40.odb,Step-1,Increment      1: Step Time =    1.000,"PART-1-1",           495,      -3.55010,       2.55765,            0.,NA,NA,"",       6.82354,      -6.76083,  -922.968E-03,   62.5406E-03
C:/temp/dataset/8/2_40.odb,Step-1,Increment      1: Step Time =    1.000,"PART-1-1",           496,         -3.75,            5.,            0.,NA,NA,"",       7.17701,      -7.10726,  -998.145E-03,   107.096E-03
C:/temp/dataset/8/2_40.odb,Step-1,Increment      1: Step Time =    1.000,"PART-1-1",           497,      -4.84840,       3.79343,            0.,NA,NA,"",       7.07213,      -6.99431,      -1.04625,   76.2015E-03
C:/temp/dataset/8/2_40.odb,Step-1,Increment      1: Step Time =    1.000,"PART-1-1",           498,      -13.7264,       27.6066,            0.,NA,NA,"",       13.6134,      -13.0486,      -3.88056,   7.22062E-03
C:/temp/dataset/8/2_40.odb,Step-1,Increment      1: Step Time =    1.000,"PART-1-1",           499,          -15.,         26.25,            0.,NA,NA,"",       13.3890,      -12.7368,      -4.12793,   9.88575E-03
C:/temp/dataset/8/2_40.odb,Step-1,Increment      1: Step Time =    1.000,"PART-1-1",           500,      -13.4386,       25.0669,            0.,NA,NA,"",       13.0919,      -12.5344,      -3.77969,   14.6331E-03
C:/temp/dataset/8/2_40.odb,Step-1,Increment      1: Step Time =    1.000,"PART-1-1",           501,      -12.1650,       26.4235,            0.,NA,NA,"",       13.3196,      -12.8468,      -3.51722,   15.3224E-03
C:/temp/dataset/8/2_40.odb,Step-1,Increment      1: Step Time =    1.000,"PART-1-1",           502,      -3.53283,       23.8665,            0.,NA,NA,"",       12.6454,      -12.5289,      -1.71312,   27.2616E-03
C:/temp/dataset/8/2_40.odb,Step-1,Increment      1: Step Time =    1.000,"PART-1-1",           503,      -4.96963,       24.1916,            0.,NA,NA,"",       12.7196,      -12.5688,      -1.95263,   17.3244E-03
C:/temp/dataset/8/2_40.odb,Step-1,Increment      1: Step Time =    1.000,"PART-1-1",           504,      -5.34791,       22.7845,            0.,NA,NA,"",       12.4591,      -12.3015,      -1.97531,   23.3035E-03
C:/temp/dataset/8/2_40.odb,Step-1,Increment      1: Step Time =    1.000,"PART-1-1",           505,      -3.91112,       22.4594,            0.,NA,NA,"",       12.3887,      -12.2673,      -1.73057,   32.7046E-03
C:/temp/dataset/8/2_40.odb,Step-1,Increment      1: Step Time =    1.000,"PART-1-1",           506,      -12.3994,       21.2122,            0.,NA,NA,"",       12.2300,      -11.7207,      -3.49235,   12.6732E-03
C:/temp/dataset/8/2_40.odb,Step-1,Increment      1: Step Time =    1.000,"PART-1-1",           507,      -13.6532,       22.4798,            0.,NA,NA,"",       12.5577,      -11.9687,      -3.80084,   19.7471E-03
C:/temp/dataset/8/2_40.odb,Step-1,Increment      1: Step Time =    1.000,"PART-1-1",           508,          -15.,         21.25,            0.,NA,NA,"",       12.3324,      -11.6297,      -4.10346,   28.7263E-03
C:/temp/dataset/8/2_40.odb,Step-1,Increment      1: Step Time =    1.000,"PART-1-1",           509,      -8.82323,       17.4409,            0.,NA,NA,"",       11.1594,      -10.8693,      -2.52823,   32.8670E-03
C:/temp/dataset/8/2_40.odb,Step-1,Increment      1: Step Time =    1.000,"PART-1-1",           510,      -8.76994,       19.8173,            0.,NA,NA,"",       11.8130,      -11.5212,      -2.60928,   24.7277E-03
C:/temp/dataset/8/2_40.odb,Step-1,Increment      1: Step Time =    1.000,"PART-1-1",           511,      -10.0426,       18.6373,            0.,NA,NA,"",       11.5227,      -11.1599,      -2.86889,   21.8587E-03
C:/temp/dataset/8/2_40.odb,Step-1,Increment      1: Step Time =    1.000,"PART-1-1",           512,   21.1090E-03,       21.2968,            0.,NA,NA,"",       12.2730,      -12.2089,      -1.25266,   27.7727E-03
C:/temp/dataset/8/2_40.odb,Step-1,Increment      1: Step Time =    1.000,"PART-1-1",           513,          1.25,           20.,            0.,NA,NA,"",       12.1328,      -12.0815,      -1.11443,   24.7130E-03
C:/temp/dataset/8/2_40.odb,Step-1,Increment      1: Step Time =    1.000,"PART-1-1",           514,       13.8176,       22.6447,            0.,NA,NA,"",       12.7514,      -12.7312,   718.460E-03,   21.5369E-03
C:/temp/dataset/8/2_40.odb,Step-1,Increment      1: Step Time =    1.000,"PART-1-1",           515,       12.3404,       21.5086,            0.,NA,NA,"",       12.5805,      -12.5706,   500.404E-03,   32.8838E-03
C:/temp/dataset/8/2_40.odb,Step-1,Increment      1: Step Time =    1.000,"PART-1-1",           516,       13.5229,       20.0701,            0.,NA,NA,"",       12.4166,      -12.3939,   751.822E-03,   38.9881E-03
C:/temp/dataset/8/2_40.odb,Step-1,Increment      1: Step Time =    1.000,"PART-1-1",           517,           15.,       21.2062,            0.,NA,NA,"",       12.5725,      -12.5375,   937.332E-03,   31.6962E-03
C:/temp/dataset/8/2_40.odb,Step-1,Increment      1: Step Time =    1.000,"PART-1-1",           518,          6.25,           30.,            0.,NA,NA,"",       13.6289,      -13.6191,  -515.317E-03,   14.1603E-03
C:/temp/dataset/8/2_40.odb,Step-1,Increment      1: Step Time =    1.000,"PART-1-1",           519,       4.99916,       28.7599,            0.,NA,NA,"",       13.4359,      -13.4187,  -679.618E-03,   13.1009E-03
C:/temp/dataset/8/2_40.odb,Step-1,Increment      1: Step Time =    1.000,"PART-1-1",           520,       6.36817,       27.3763,            0.,NA,NA,"",       13.2568,      -13.2477,  -490.416E-03,   12.2809E-03
C:/temp/dataset/8/2_40.odb,Step-1,Increment      1: Step Time =    1.000,"PART-1-1",           521,       7.61901,       28.6164,            0.,NA,NA,"",       13.4556,      -13.4518,  -316.518E-03,   13.4322E-03
C:/temp/dataset/8/2_40.odb,Step-1,Increment      1: Step Time =    1.000,"PART-1-1",           522,       9.03329,       27.4617,            0.,NA,NA,"",       13.3174,      -13.3171,  -101.265E-03,   12.6521E-03
C:/temp/dataset/8/2_40.odb,Step-1,Increment      1: Step Time =    1.000,"PART-1-1",           523,       10.1643,       28.8453,            0.,NA,NA,"",       13.5367,      -13.5366,   63.4404E-03,   9.57301E-03
C:/temp/dataset/8/2_40.odb,Step-1,Increment      1: Step Time =    1.000,"PART-1-1",           524,          8.75,           30.,            0.,NA,NA,"",       13.6799,      -13.6790,  -157.287E-03,   11.8103E-03
C:/temp/dataset/8/2_40.odb,Step-1,Increment      1: Step Time =    1.000,"PART-1-1",           525,   8.17364E-03,       28.7581,            0.,NA,NA,"",       13.4290,      -13.3644,      -1.31608,   12.9748E-03
C:/temp/dataset/8/2_40.odb,Step-1,Increment      1: Step Time =    1.000,"PART-1-1",           526,       2.50184,       28.7876,            0.,NA,NA,"",       13.4222,      -13.3849,  -998.896E-03,   10.4078E-03
C:/temp/dataset/8/2_40.odb,Step-1,Increment      1: Step Time =    1.000,"PART-1-1",           527,          1.25,           30.,            0.,NA,NA,"",       13.5901,      -13.5397,      -1.16958,   5.11631E-03
C:/temp/dataset/8/2_40.odb,Step-1,Increment      1: Step Time =    1.000,"PART-1-1",           528,      -5.24228,       28.8821,            0.,NA,NA,"",       13.5676,      -13.4003,      -2.12399,   23.7652E-03
C:/temp/dataset/8/2_40.odb,Step-1,Increment      1: Step Time =    1.000,"PART-1-1",           529,      -2.64934,       28.5381,            0.,NA,NA,"",       13.4384,      -13.3323,      -1.68507,   18.8420E-03
C:/temp/dataset/8/2_40.odb,Step-1,Increment      1: Step Time =    1.000,"PART-1-1",           530,         -3.75,           30.,            0.,NA,NA,"",       13.7067,      -13.5752,      -1.89465,   29.5255E-03
C:/temp/dataset/8/2_40.odb,Step-1,Increment      1: Step Time =    1.000,"PART-1-1",           531,      -7.66846,       29.0326,            0.,NA,NA,"",       13.6801,      -13.4310,      -2.59857,   21.9583E-03
C:/temp/dataset/8/2_40.odb,Step-1,Increment      1: Step Time =    1.000,"PART-1-1",           532,      -6.66074,       27.9147,            0.,NA,NA,"",       13.4355,      -13.2256,      -2.36600,   15.9444E-03
C:/temp/dataset/8/2_40.odb,Step-1,Increment      1: Step Time =    1.000,"PART-1-1",           533,         -6.25,           30.,            0.,NA,NA,"",       13.8090,      -13.6085,      -2.34494,   30.6514E-03
C:/temp/dataset/8/2_40.odb,Step-1,Increment      1: Step Time =    1.000,"PART-1-1",           534,      -8.85273,       25.1596,            0.,NA,NA,"",       12.9741,      -12.6785,      -2.75345,   17.1250E-03
C:/temp/dataset/8/2_40.odb,Step-1,Increment      1: Step Time =    1.000,"PART-1-1",           535,      -8.23876,       24.0389,            0.,NA,NA,"",       12.7433,      -12.4765,      -2.59381,   17.0324E-03
C:/temp/dataset/8/2_40.odb,Step-1,Increment      1: Step Time =    1.000,"PART-1-1",           536,      -6.78155,       24.7842,            0.,NA,NA,"",       12.8577,      -12.6489,      -2.30784,   14.2377E-03
C:/temp/dataset/8/2_40.odb,Step-1,Increment      1: Step Time =    1.000,"PART-1-1",           537,      -7.39551,       25.9049,            0.,NA,NA,"",       13.0812,      -12.8474,      -2.46195,   13.9356E-03
C:/temp/dataset/8/2_40.odb,Step-1,Increment      1: Step Time =    1.000,"PART-1-1",           538,      -12.4764,       28.8566,            0.,NA,NA,"",       13.8216,      -13.3350,      -3.63501,   7.13698E-03
C:/temp/dataset/8/2_40.odb,Step-1,Increment      1: Step Time =    1.000,"PART-1-1",           539,        -13.75,           30.,            0.,NA,NA,"",       14.1091,      -13.5489,      -3.93631,   1.41325E-03
C:/temp/dataset/8/2_40.odb,Step-1,Increment      1: Step Time =    1.000,"PART-1-1",           540,          -15.,         28.75,            0.,NA,NA,"",       13.8982,      -13.2569,      -4.17306,   1.43229E-03
C:/temp/dataset/8/2_40.odb,Step-1,Increment      1: Step Time =    1.000,"PART-1-1",           541,      -7.55516,       16.2219,            0.,NA,NA,"",       10.7706,      -10.5554,      -2.14201,   32.8498E-03
C:/temp/dataset/8/2_40.odb,Step-1,Increment      1: Step Time =    1.000,"PART-1-1",           542,      -6.27478,       15.0018,            0.,NA,NA,"",       10.3797,      -10.2359,      -1.72159,   20.5375E-03
C:/temp/dataset/8/2_40.odb,Step-1,Increment      1: Step Time =    1.000,"PART-1-1",           543,           -5.,         16.25,            0.,NA,NA,"",       10.7319,      -10.6361,      -1.43077,   28.6139E-03
C:/temp/dataset/8/2_40.odb,Step-1,Increment      1: Step Time =    1.000,"PART-1-1",           544,      -12.5375,       11.2943,            0.,NA,NA,"",       9.50359,      -8.96375,      -3.15743,   26.8793E-03
C:/temp/dataset/8/2_40.odb,Step-1,Increment      1: Step Time =    1.000,"PART-1-1",           545,      -11.2813,       10.1542,            0.,NA,NA,"",       9.09970,      -8.66750,      -2.77109,   29.4359E-03
C:/temp/dataset/8/2_40.odb,Step-1,Increment      1: Step Time =    1.000,"PART-1-1",           546,      -10.0769,       11.4281,            0.,NA,NA,"",       9.41670,      -9.06942,      -2.53374,   31.5021E-03
C:/temp/dataset/8/2_40.odb,Step-1,Increment      1: Step Time =    1.000,"PART-1-1",           547,      -11.3331,       12.5683,            0.,NA,NA,"",       9.81262,      -9.36991,      -2.91417,   28.4136E-03
C:/temp/dataset/8/2_40.odb,Step-1,Increment      1: Step Time =    1.000,"PART-1-1",           548,      -8.81802,       15.0067,            0.,NA,NA,"",       10.4418,      -10.1625,      -2.39894,   29.8200E-03
C:/temp/dataset/8/2_40.odb,Step-1,Increment      1: Step Time =    1.000,"PART-1-1",           549,      -10.0861,       16.2257,            0.,NA,NA,"",       10.8425,      -10.4799,      -2.78060,   29.8840E-03
C:/temp/dataset/8/2_40.odb,Step-1,Increment      1: Step Time =    1.000,"PART-1-1",           550,      -13.7511,       10.0234,            0.,NA,NA,"",       9.22089,      -8.56887,      -3.40576,   25.9495E-03
C:/temp/dataset/8/2_40.odb,Step-1,Increment      1: Step Time =    1.000,"PART-1-1",           551,          -15.,         11.25,            0.,NA,NA,"",       9.66771,      -8.87704,      -3.82921,   19.8670E-03
C:/temp/dataset/8/2_40.odb,Step-1,Increment      1: Step Time =    1.000,"PART-1-1",           552,      -7.55101,       13.7795,            0.,NA,NA,"",       10.0406,      -9.83903,      -2.00168,   24.8496E-03
C:/temp/dataset/8/2_40.odb,Step-1,Increment      1: Step Time =    1.000,"PART-1-1",           553,      -6.27623,       12.5278,            0.,NA,NA,"",       9.64581,      -9.51398,      -1.58926,   12.4473E-03
C:/temp/dataset/8/2_40.odb,Step-1,Increment      1: Step Time =    1.000,"PART-1-1",           554,           -5.,         13.75,            0.,NA,NA,"",       10.0019,      -9.91872,      -1.28738,   11.1412E-03
C:/temp/dataset/8/2_40.odb,Step-1,Increment      1: Step Time =    1.000,"PART-1-1",           555,      -7.73154,       8.68047,            0.,NA,NA,"",       8.52404,      -8.32967,      -1.80992,   31.6204E-03
C:/temp/dataset/8/2_40.odb,Step-1,Increment      1: Step Time =    1.000,"PART-1-1",           556,      -6.43871,       7.39503,            0.,NA,NA,"",       8.11679,      -7.98796,      -1.44041,   26.9797E-03
C:/temp/dataset/8/2_40.odb,Step-1,Increment      1: Step Time =    1.000,"PART-1-1",           557,           -5.,          8.75,            0.,NA,NA,"",       8.53422,      -8.46576,      -1.07885,   21.5578E-03
C:/temp/dataset/8/2_40.odb,Step-1,Increment      1: Step Time =    1.000,"PART-1-1",           558,      -6.29283,       10.0354,            0.,NA,NA,"",       8.90772,      -8.78323,      -1.48402,   13.1326E-03
C:/temp/dataset/8/2_40.odb,Step-1,Increment      1: Step Time =    1.000,"PART-1-1",           559,      -10.9724,       6.37301,            0.,NA,NA,"",       8.03481,      -7.64084,      -2.48509,   31.2587E-03
C:/temp/dataset/8/2_40.odb,Step-1,Increment      1: Step Time =    1.000,"PART-1-1",           560,      -11.8392,       4.13381,            0.,NA,NA,"",       7.55418,      -7.10213,      -2.57399,   32.8681E-03
C:/temp/dataset/8/2_40.odb,Step-1,Increment      1: Step Time =    1.000,"PART-1-1",           561,      -10.3518,       4.58458,            0.,NA,NA,"",       7.55350,      -7.21443,      -2.23774,   31.5073E-03
C:/temp/dataset/8/2_40.odb,Step-1,Increment      1: Step Time =    1.000,"PART-1-1",           562,      -7.08076,   207.918E-03,            0.,NA,NA,"",       6.49815,      -6.36292,      -1.31877,   25.3976E-03
C:/temp/dataset/8/2_40.odb,Step-1,Increment      1: Step Time =    1.000,"PART-1-1",           563,      -6.69858,      -1.33808,            0.,NA,NA,"",       6.20993,      -6.09561,      -1.18606,   41.5279E-03
C:/temp/dataset/8/2_40.odb,Step-1,Increment      1: Step Time =    1.000,"PART-1-1",           564,      -5.21720,      -1.06412,            0.,NA,NA,"",       6.22478,      -6.14620,  -985.925E-03,   55.0282E-03
C:/temp/dataset/8/2_40.odb,Step-1,Increment      1: Step Time =    1.000,"PART-1-1",           565,      -5.59938,   481.880E-03,            0.,NA,NA,"",       6.50433,      -6.41212,      -1.09136,   31.5461E-03
C:/temp/dataset/8/2_40.odb,Step-1,Increment      1: Step Time =    1.000,"PART-1-1",           566,      -4.73360,       1.40018,            0.,NA,NA,"",       6.64541,      -6.56794,      -1.01173,   48.3839E-03
C:/temp/dataset/8/2_40.odb,Step-1,Increment      1: Step Time =    1.000,"PART-1-1",           567,      -3.61778,   109.205E-03,            0.,NA,NA,"",       6.40134,      -6.33927,  -889.294E-03,   75.9439E-03
C:/temp/dataset/8/2_40.odb,Step-1,Increment      1: Step Time =    1.000,"PART-1-1",           568,      -7.98115,      -4.65772,            0.,NA,NA,"",       5.55121,      -5.39928,      -1.28983,   51.5789E-03
C:/temp/dataset/8/2_40.odb,Step-1,Increment      1: Step Time =    1.000,"PART-1-1",           569,      -6.28323,      -5.33636,            0.,NA,NA,"",       5.40661,      -5.33206,  -894.739E-03,   122.186E-03
C:/temp/dataset/8/2_40.odb,Step-1,Increment      1: Step Time =    1.000,"PART-1-1",           570,      -5.33200,      -3.67088,            0.,NA,NA,"",       5.77176,      -5.71446,  -811.256E-03,   110.573E-03
C:/temp/dataset/8/2_40.odb,Step-1,Increment      1: Step Time =    1.000,"PART-1-1",           571,      -7.02992,      -2.99224,            0.,NA,NA,"",       5.92033,      -5.80531,      -1.16129,   46.6525E-03
C:/temp/dataset/8/2_40.odb,Step-1,Increment      1: Step Time =    1.000,"PART-1-1",           572,      -9.50932,      -4.32694,            0.,NA,NA,"",       5.65225,      -5.40584,      -1.65071,   34.3287E-03
C:/temp/dataset/8/2_40.odb,Step-1,Increment      1: Step Time =    1.000,"PART-1-1",           573,      -9.07148,      -2.62864,            0.,NA,NA,"",       6.02853,      -5.80638,      -1.62144,   34.9214E-03
C:/temp/dataset/8/2_40.odb,Step-1,Increment      1: Step Time =    1.000,"PART-1-1",           574,      -11.0112,      -2.25660,            0.,NA,NA,"",       6.18890,      -5.82379,      -2.09427,   26.7130E-03
C:/temp/dataset/8/2_40.odb,Step-1,Increment      1: Step Time =    1.000,"PART-1-1",           575,      -11.4490,      -3.95490,            0.,NA,NA,"",       5.82855,      -5.42446,      -2.13240,   19.5483E-03
C:/temp/dataset/8/2_40.odb,Step-1,Increment      1: Step Time =    1.000,"PART-1-1",           576,      -12.8101,      -6.09098,            0.,NA,NA,"",       5.36886,      -4.81728,      -2.37034,   26.4720E-03
C:/temp/dataset/8/2_40.odb,Step-1,Increment      1: Step Time =    1.000,"PART-1-1",           577,          -15.,         -6.25,            0.,NA,NA,"",       5.54676,      -4.69475,      -2.95396,   2.58626E-03
C:/temp/dataset/8/2_40.odb,Step-1,Increment      1: Step Time =    1.000,"PART-1-1",           578,      -12.4915,      -11.2805,            0.,NA,NA,"",       3.72765,      -3.22183,      -1.87489,   71.2832E-03
C:/temp/dataset/8/2_40.odb,Step-1,Increment      1: Step Time =    1.000,"PART-1-1",           579,      -11.2634,      -12.5870,            0.,NA,NA,"",       3.15463,      -2.81437,      -1.42513,   77.3185E-03
C:/temp/dataset/8/2_40.odb,Step-1,Increment      1: Step Time =    1.000,"PART-1-1",           580,      -9.99512,      -11.3837,            0.,NA,NA,"",       3.43721,      -3.21175,      -1.22436,   77.8496E-03
C:/temp/dataset/8/2_40.odb,Step-1,Increment      1: Step Time =    1.000,"PART-1-1",           581,      -13.7566,      -12.5332,            0.,NA,NA,"",       3.51016,      -2.81494,      -2.09699,   71.4533E-03
C:/temp/dataset/8/2_40.odb,Step-1,Increment      1: Step Time =    1.000,"PART-1-1",           582,          -15.,        -11.25,            0.,NA,NA,"",       4.12297,      -3.18450,      -2.61874,   55.3543E-03
C:/temp/dataset/8/2_40.odb,Step-1,Increment      1: Step Time =    1.000,"PART-1-1",           583,      -8.71482,      -10.1608,            0.,NA,NA,"",       3.76802,      -3.62935,      -1.01282,   73.0497E-03
C:/temp/dataset/8/2_40.odb,Step-1,Increment      1: Step Time =    1.000,"PART-1-1",           584,      -7.42248,      -8.98866,            0.,NA,NA,"",       4.11618,      -4.04088,  -783.717E-03,   77.3085E-03
C:/temp/dataset/8/2_40.odb,Step-1,Increment      1: Step Time =    1.000,"PART-1-1",           585,      -8.58554,      -7.84743,            0.,NA,NA,"",       4.55938,      -4.39818,      -1.20163,   80.9870E-03
C:/temp/dataset/8/2_40.odb,Step-1,Increment      1: Step Time =    1.000,"PART-1-1",           586,      -7.50773,      -13.8545,            0.,NA,NA,"",       2.48419,      -2.45327,  -390.730E-03,   48.7767E-03
C:/temp/dataset/8/2_40.odb,Step-1,Increment      1: Step Time =    1.000,"PART-1-1",           587,      -6.25830,      -15.0553,            0.,NA,NA,"",       2.12344,      -2.12344,  -4.26814E-03,   25.5298E-03
C:/temp/dataset/8/2_40.odb,Step-1,Increment      1: Step Time =    1.000,"PART-1-1",           588,           -5.,        -13.75,            0.,NA,NA,"",       2.59627,      -2.57880,   300.688E-03,   10.2069E-03
C:/temp/dataset/8/2_40.odb,Step-1,Increment      1: Step Time =    1.000,"PART-1-1",           589,      -6.24942,      -12.5493,            0.,NA,NA,"",       2.90673,      -2.90356,  -135.648E-03,   28.7447E-03
C:/temp/dataset/8/2_40.odb,Step-1,Increment      1: Step Time =    1.000,"PART-1-1",           590,      -11.2978,      -17.6923,            0.,NA,NA,"",       1.63941,      -1.34885,  -931.808E-03,   82.1533E-03
C:/temp/dataset/8/2_40.odb,Step-1,Increment      1: Step Time =    1.000,"PART-1-1",           591,      -12.6450,      -18.8482,            0.,NA,NA,"",       1.55671,      -1.11693,      -1.08435,   98.5011E-03
C:/temp/dataset/8/2_40.odb,Step-1,Increment      1: Step Time =    1.000,"PART-1-1",           592,      -11.4281,      -20.3734,            0.,NA,NA,"",       1.06273,  -790.263E-03,  -710.555E-03,   81.7272E-03
C:/temp/dataset/8/2_40.odb,Step-1,Increment      1: Step Time =    1.000,"PART-1-1",           593,      -10.0810,      -19.2175,            0.,NA,NA,"",       1.13862,  -983.288E-03,  -574.110E-03,   67.6164E-03
C:/temp/dataset/8/2_40.odb,Step-1,Increment      1: Step Time =    1.000,"PART-1-1",           594,      -7.51421,      -16.3885,            0.,NA,NA,"",       1.70612,      -1.68734,  -252.481E-03,   52.6369E-03
C:/temp/dataset/8/2_40.odb,Step-1,Increment      1: Step Time =    1.000,"PART-1-1",           595,      -6.25590,      -17.5833,            0.,NA,NA,"",       1.37524,      -1.37450,   44.9102E-03,   47.4462E-03
C:/temp/dataset/8/2_40.odb,Step-1,Increment      1: Step Time =    1.000,"PART-1-1",           596,           -5.,        -16.25,            0.,NA,NA,"",       1.86677,      -1.83176,   359.807E-03,   46.4093E-03
C:/temp/dataset/8/2_40.odb,Step-1,Increment      1: Step Time =    1.000,"PART-1-1",           597,      -10.0205,      -13.8763,            0.,NA,NA,"",       2.61300,      -2.41443,  -999.171E-03,   76.4446E-03
C:/temp/dataset/8/2_40.odb,Step-1,Increment      1: Step Time =    1.000,"PART-1-1",           598,      -8.77208,      -15.1278,            0.,NA,NA,"",       2.12998,      -2.04154,  -607.397E-03,   61.1832E-03
C:/temp/dataset/8/2_40.odb,Step-1,Increment      1: Step Time =    1.000,"PART-1-1",           599,      -8.75613,      -12.6031,            0.,NA,NA,"",       2.94053,      -2.82894,  -802.376E-03,   65.1747E-03
C:/temp/dataset/8/2_40.odb,Step-1,Increment      1: Step Time =    1.000,"PART-1-1",           600,      -7.46622,      -18.9660,            0.,NA,NA,"",       1.00755,  -996.099E-03,  -151.485E-03,   50.8654E-03
C:/temp/dataset/8/2_40.odb,Step-1,Increment      1: Step Time =    1.000,"PART-1-1",           601,      -8.77786,      -17.7139,            0.,NA,NA,"",       1.38890,      -1.31658,  -442.326E-03,   59.4271E-03
C:/temp/dataset/8/2_40.odb,Step-1,Increment      1: Step Time =    1.000,"PART-1-1",           602,      -8.76934,      -20.4696,            0.,NA,NA,"",   774.639E-03,  -719.494E-03,  -287.043E-03,   48.0490E-03
C:/temp/dataset/8/2_40.odb,Step-1,Increment      1: Step Time =    1.000,"PART-1-1",           603,      -14.0375,      -22.4038,            0.,NA,NA,"",       1.08420,  -589.054E-03,  -910.220E-03,   134.378E-03
C:/temp/dataset/8/2_40.odb,Step-1,Increment      1: Step Time =    1.000,"PART-1-1",           604,      -12.9066,      -21.1902,            0.,NA,NA,"",       1.12301,  -703.654E-03,  -875.232E-03,   106.640E-03
C:/temp/dataset/8/2_40.odb,Step-1,Increment      1: Step Time =    1.000,"PART-1-1",           605,      -13.8691,      -20.0365,            0.,NA,NA,"",       1.50617,  -929.588E-03,      -1.18509,   127.364E-03
C:/temp/dataset/8/2_40.odb,Step-1,Increment      1: Step Time =    1.000,"PART-1-1",           606,          -15.,        -21.25,            0.,NA,NA,"",       1.46307,  -796.877E-03,      -1.22701,   155.997E-03
C:/temp/dataset/8/2_40.odb,Step-1,Increment      1: Step Time =    1.000,"PART-1-1",           607,      -11.2823,      -23.1306,            0.,NA,NA,"",   609.409E-03,  -396.981E-03,  -462.369E-03,   77.6157E-03
C:/temp/dataset/8/2_40.odb,Step-1,Increment      1: Step Time =    1.000,"PART-1-1",           608,      -12.2820,      -22.3254,            0.,NA,NA,"",   844.999E-03,  -523.364E-03,  -663.410E-03,   96.5267E-03
C:/temp/dataset/8/2_40.odb,Step-1,Increment      1: Step Time =    1.000,"PART-1-1",           609,      -13.0137,      -23.4645,            0.,NA,NA,"",   771.414E-03,  -421.221E-03,  -646.260E-03,   112.433E-03
C:/temp/dataset/8/2_40.odb,Step-1,Increment      1: Step Time =    1.000,"PART-1-1",           610,      -12.0140,      -24.2697,            0.,NA,NA,"",   544.997E-03,  -303.286E-03,  -452.812E-03,   93.7313E-03
C:/temp/dataset/8/2_40.odb,Step-1,Increment      1: Step Time =    1.000,"PART-1-1",           611,          -15.,        -28.75,            0.,NA,NA,"",   234.022E-03,  -152.058E-03,  -177.890E-03,   157.298E-03
C:/temp/dataset/8/2_40.odb,Step-1,Increment      1: Step Time =    1.000,"PART-1-1",           612,        -13.75,          -30.,            0.,NA,NA,"",            0.,  -6.01923E-39,  -195.377E-39,   129.354E-03
C:/temp/dataset/8/2_40.odb,Step-1,Increment      1: Step Time =    1.000,"PART-1-1",           613,      -2.49072,      -28.8242,            0.,NA,NA,"",   55.4727E-03,  -55.3955E-03,   2.92449E-03,   33.8652E-03
C:/temp/dataset/8/2_40.odb,Step-1,Increment      1: Step Time =    1.000,"PART-1-1",           614,      -3.67632,      -27.6801,            0.,NA,NA,"",   100.293E-03,  -99.4638E-03,   12.8697E-03,   35.9336E-03
C:/temp/dataset/8/2_40.odb,Step-1,Increment      1: Step Time =    1.000,"PART-1-1",           615,         -3.75,          -30.,            0.,NA,NA,"",            0.,  -21.2818E-39,  -4.20528E-39,   21.6932E-03
C:/temp/dataset/8/2_40.odb,Step-1,Increment      1: Step Time =    1.000,"PART-1-1",           616,      -3.67176,      -25.2240,            0.,NA,NA,"",   250.027E-03,  -245.401E-03,   47.8774E-03,   50.6578E-03
C:/temp/dataset/8/2_40.odb,Step-1,Increment      1: Step Time =    1.000,"PART-1-1",           617,      -2.52111,      -23.8746,            0.,NA,NA,"",   363.013E-03,  -358.072E-03,   59.6902E-03,   58.1218E-03
C:/temp/dataset/8/2_40.odb,Step-1,Increment      1: Step Time =    1.000,"PART-1-1",           618,      -3.68426,      -22.6291,            0.,NA,NA,"",   453.161E-03,  -441.355E-03,   102.765E-03,   58.8497E-03
C:/temp/dataset/8/2_40.odb,Step-1,Increment      1: Step Time =    1.000,"PART-1-1",           619,      -1.29997,      -22.5744,            0.,NA,NA,"",   440.837E-03,  -438.730E-03,   43.0494E-03,   55.8823E-03
C:/temp/dataset/8/2_40.odb,Step-1,Increment      1: Step Time =    1.000,"PART-1-1",           620,  -41.8285E-03,      -21.2827,            0.,NA,NA,"",   478.749E-03,  -478.663E-03,   9.04453E-03,   23.7145E-03
C:/temp/dataset/8/2_40.odb,Step-1,Increment      1: Step Time =    1.000,"PART-1-1",           621,         -1.25,          -20.,            0.,NA,NA,"",   482.548E-03,  -481.584E-03,   30.4861E-03,   19.8745E-03
C:/temp/dataset/8/2_40.odb,Step-1,Increment      1: Step Time =    1.000,"PART-1-1",           622,      -2.50814,      -21.2918,            0.,NA,NA,"",   518.056E-03,  -511.407E-03,   82.7381E-03,   39.9810E-03
C:/temp/dataset/8/2_40.odb,Step-1,Increment      1: Step Time =    1.000,"PART-1-1",           623,       5.99755,      -26.4812,            0.,NA,NA,"",   154.713E-03,  -154.668E-03,   3.74196E-03,   25.7519E-03
C:/temp/dataset/8/2_40.odb,Step-1,Increment      1: Step Time =    1.000,"PART-1-1",           624,       6.71386,      -27.7542,            0.,NA,NA,"",   79.4025E-03,  -77.2037E-03,   18.5564E-03,   26.1044E-03
C:/temp/dataset/8/2_40.odb,Step-1,Increment      1: Step Time =    1.000,"PART-1-1",           625,       8.26971,      -26.8502,            0.,NA,NA,"",   146.860E-03,  -127.006E-03,   73.7386E-03,   33.1304E-03
C:/temp/dataset/8/2_40.odb,Step-1,Increment      1: Step Time =    1.000,"PART-1-1",           626,       7.55340,      -25.5772,            0.,NA,NA,"",   222.652E-03,  -212.944E-03,   65.0278E-03,   24.4140E-03
C:/temp/dataset/8/2_40.odb,Step-1,Increment      1: Step Time =    1.000,"PART-1-1",           627,       1.27500,      -22.6714,            0.,NA,NA,"",   447.059E-03,  -445.726E-03,  -34.5004E-03,   57.7827E-03
C:/temp/dataset/8/2_40.odb,Step-1,Increment      1: Step Time =    1.000,"PART-1-1",           628,       2.56683,      -21.3888,            0.,NA,NA,"",   528.391E-03,  -523.196E-03,  -73.9082E-03,   43.9309E-03
C:/temp/dataset/8/2_40.odb,Step-1,Increment      1: Step Time =    1.000,"PART-1-1",           629,          1.25,          -20.,            0.,NA,NA,"",   486.842E-03,  -486.680E-03,  -12.5301E-03,   24.1150E-03
C:/temp/dataset/8/2_40.odb,Step-1,Increment      1: Step Time =    1.000,"PART-1-1",           630,       2.22787,      -25.9763,            0.,NA,NA,"",   230.782E-03,  -228.833E-03,  -29.9289E-03,   50.8238E-03
C:/temp/dataset/8/2_40.odb,Step-1,Increment      1: Step Time =    1.000,"PART-1-1",           631,       3.59536,      -25.7933,            0.,NA,NA,"",   230.103E-03,  -226.872E-03,  -38.4277E-03,   46.2228E-03
C:/temp/dataset/8/2_40.odb,Step-1,Increment      1: Step Time =    1.000,"PART-1-1",           632,       3.51094,      -23.6954,            0.,NA,NA,"",   386.655E-03,  -379.129E-03,  -75.9149E-03,   57.9578E-03
C:/temp/dataset/8/2_40.odb,Step-1,Increment      1: Step Time =    1.000,"PART-1-1",           633,       2.14345,      -23.8784,            0.,NA,NA,"",   374.252E-03,  -371.222E-03,  -47.5259E-03,   57.4058E-03
C:/temp/dataset/8/2_40.odb,Step-1,Increment      1: Step Time =    1.000,"PART-1-1",           634,       7.70323,      -28.9583,            0.,NA,NA,"",   29.6775E-03,  -22.9856E-03,   18.7728E-03,   26.2775E-03
C:/temp/dataset/8/2_40.odb,Step-1,Increment      1: Step Time =    1.000,"PART-1-1",           635,       5.26063,      -28.7960,            0.,NA,NA,"",   40.4175E-03,  -40.3907E-03,   1.47300E-03,   23.4760E-03
C:/temp/dataset/8/2_40.odb,Step-1,Increment      1: Step Time =    1.000,"PART-1-1",           636,          6.25,          -30.,            0.,NA,NA,"",            0.,  -11.6380E-39,   22.8021E-39,   18.0957E-03
C:/temp/dataset/8/2_40.odb,Step-1,Increment      1: Step Time =    1.000,"PART-1-1",           637,       12.1002,      -20.6263,            0.,NA,NA,"",       1.27593,      -1.01797,   769.245E-03,   102.132E-03
C:/temp/dataset/8/2_40.odb,Step-1,Increment      1: Step Time =    1.000,"PART-1-1",           638,       11.2927,      -21.6253,            0.,NA,NA,"",   986.210E-03,  -793.035E-03,   586.265E-03,   91.1577E-03
C:/temp/dataset/8/2_40.odb,Step-1,Increment      1: Step Time =    1.000,"PART-1-1",           639,       12.1479,      -22.5488,            0.,NA,NA,"",   936.826E-03,  -697.267E-03,   625.668E-03,   103.219E-03
C:/temp/dataset/8/2_40.odb,Step-1,Increment      1: Step Time =    1.000,"PART-1-1",           640,       12.9554,      -21.5499,            0.,NA,NA,"",       1.21884,  -904.013E-03,   817.516E-03,   113.712E-03
C:/temp/dataset/8/2_40.odb,Step-1,Increment      1: Step Time =    1.000,"PART-1-1",           641,         13.75,          -30.,            0.,NA,NA,"",            0.,  -10.2887E-39,   213.938E-39,   147.326E-03
C:/temp/dataset/8/2_40.odb,Step-1,Increment      1: Step Time =    1.000,"PART-1-1",           642,           15.,      -28.7625,            0.,NA,NA,"",   262.988E-03,  -183.924E-03,   187.975E-03,   172.662E-03
C:/temp/dataset/8/2_40.odb,Step-1,Increment      1: Step Time =    1.000,"PART-1-1",           643,       13.7773,      -27.6225,            0.,NA,NA,"",   343.758E-03,  -217.899E-03,   265.875E-03,   133.616E-03
C:/temp/dataset/8/2_40.odb,Step-1,Increment      1: Step Time =    1.000,"PART-1-1",           644,           15.,      -26.2875,            0.,NA,NA,"",   671.513E-03,  -422.102E-03,   522.264E-03,   148.925E-03
C:/temp/dataset/8/2_40.odb,Step-1,Increment      1: Step Time =    1.000,"PART-1-1",           645,       13.5913,      -25.0907,            0.,NA,NA,"",   707.702E-03,  -458.091E-03,   539.439E-03,   125.847E-03
C:/temp/dataset/8/2_40.odb,Step-1,Increment      1: Step Time =    1.000,"PART-1-1",           646,       12.3686,      -26.4257,            0.,NA,NA,"",   403.328E-03,  -260.782E-03,   307.679E-03,   107.661E-03
C:/temp/dataset/8/2_40.odb,Step-1,Increment      1: Step Time =    1.000,"PART-1-1",           647,       13.9603,      -22.6421,            0.,NA,NA,"",       1.15742,  -792.329E-03,   843.698E-03,   132.599E-03
C:/temp/dataset/8/2_40.odb,Step-1,Increment      1: Step Time =    1.000,"PART-1-1",           648,       12.5516,      -23.9202,            0.,NA,NA,"",   769.002E-03,  -534.800E-03,   552.588E-03,   109.718E-03
C:/temp/dataset/8/2_40.odb,Step-1,Increment      1: Step Time =    1.000,"PART-1-1",           649,           15.,      -23.8125,            0.,NA,NA,"",       1.08293,  -696.770E-03,   829.010E-03,   148.164E-03
C:/temp/dataset/8/2_40.odb,Step-1,Increment      1: Step Time =    1.000,"PART-1-1",           650,           15.,      -21.3375,            0.,NA,NA,"",       1.56523,      -1.07842,       1.13444,   148.419E-03
C:/temp/dataset/8/2_40.odb,Step-1,Increment      1: Step Time =    1.000,"PART-1-1",           651,       7.29151,      -18.3998,            0.,NA,NA,"",       1.25213,      -1.24718,   111.217E-03,   59.3741E-03
C:/temp/dataset/8/2_40.odb,Step-1,Increment      1: Step Time =    1.000,"PART-1-1",           652,       6.16221,      -17.3915,            0.,NA,NA,"",       1.49639,      -1.48856,  -152.849E-03,   25.2734E-03
C:/temp/dataset/8/2_40.odb,Step-1,Increment      1: Step Time =    1.000,"PART-1-1",           653,            5.,        -18.75,            0.,NA,NA,"",       1.16303,      -1.11003,  -347.108E-03,   77.7444E-03
C:/temp/dataset/8/2_40.odb,Step-1,Increment      1: Step Time =    1.000,"PART-1-1",           654,       6.12930,      -19.7583,            0.,NA,NA,"",   840.568E-03,  -839.427E-03,  -43.7685E-03,   88.1149E-03
C:/temp/dataset/8/2_40.odb,Step-1,Increment      1: Step Time =    1.000,"PART-1-1",           655,       11.0004,      -17.5900,            0.,NA,NA,"",       1.80211,      -1.63559,   756.590E-03,   83.0841E-03
C:/temp/dataset/8/2_40.odb,Step-1,Increment      1: Step Time =    1.000,"PART-1-1",           656,       9.51360,      -18.2945,            0.,NA,NA,"",       1.45987,      -1.37934,   478.163E-03,   73.9914E-03
C:/temp/dataset/8/2_40.odb,Step-1,Increment      1: Step Time =    1.000,"PART-1-1",           657,       10.1108,      -19.3444,            0.,NA,NA,"",       1.28414,      -1.16397,   542.393E-03,   78.6672E-03
C:/temp/dataset/8/2_40.odb,Step-1,Increment      1: Step Time =    1.000,"PART-1-1",           658,       11.5976,      -18.6398,            0.,NA,NA,"",       1.62956,      -1.41110,   815.029E-03,   91.4727E-03
C:/temp/dataset/8/2_40.odb,Step-1,Increment      1: Step Time =    1.000,"PART-1-1",           659,       10.5605,      -11.7100,            0.,NA,NA,"",       3.40354,      -3.32281,   736.893E-03,   65.0836E-03
C:/temp/dataset/8/2_40.odb,Step-1,Increment      1: Step Time =    1.000,"PART-1-1",           660,       12.7627,      -11.5544,            0.,NA,NA,"",       3.70254,      -3.48300,       1.25600,   65.7483E-03
C:/temp/dataset/8/2_40.odb,Step-1,Increment      1: Step Time =    1.000,"PART-1-1",           661,       5.97841,      -7.48969,            0.,NA,NA,"",       4.45827,      -4.44139,  -387.685E-03,   75.1965E-03
C:/temp/dataset/8/2_40.odb,Step-1,Increment      1: Step Time =    1.000,"PART-1-1",           662,            5.,         -8.75,            0.,NA,NA,"",       4.01155,      -3.95352,  -679.867E-03,   60.7974E-03
C:/temp/dataset/8/2_40.odb,Step-1,Increment      1: Step Time =    1.000,"PART-1-1",           663,       6.97100,      -8.62604,            0.,NA,NA,"",       4.12404,      -4.12159,  -142.288E-03,   64.2037E-03
C:/temp/dataset/8/2_40.odb,Step-1,Increment      1: Step Time =    1.000,"PART-1-1",           664,       13.4909,      -5.05443,            0.,NA,NA,"",       5.59409,      -5.41474,       1.40512,   25.4195E-03
C:/temp/dataset/8/2_40.odb,Step-1,Increment      1: Step Time =    1.000,"PART-1-1",           665,           15.,      -6.28125,            0.,NA,NA,"",       5.46042,      -5.15288,       1.80667,   24.9267E-03
C:/temp/dataset/8/2_40.odb,Step-1,Increment      1: Step Time =    1.000,"PART-1-1",           666,       12.6840,      -1.12825,            0.,NA,NA,"",       6.45878,      -6.34872,       1.18725,   38.1525E-03
C:/temp/dataset/8/2_40.odb,Step-1,Increment      1: Step Time =    1.000,"PART-1-1",           667,       13.8718,      -2.44066,            0.,NA,NA,"",       6.26657,      -6.08837,       1.48382,   30.5343E-03
C:/temp/dataset/8/2_40.odb,Step-1,Increment      1: Step Time =    1.000,"PART-1-1",           668,           15.,      -1.25625,            0.,NA,NA,"",       6.66043,      -6.42496,       1.75534,   37.1820E-03
C:/temp/dataset/8/2_40.odb,Step-1,Increment      1: Step Time =    1.000,"PART-1-1",           669,       5.31213,       3.65711,            0.,NA,NA,"",       7.07556,      -7.05108,  -588.149E-03,   92.3657E-03
C:/temp/dataset/8/2_40.odb,Step-1,Increment      1: Step Time =    1.000,"PART-1-1",           670,       7.63904,       4.47127,            0.,NA,NA,"",       7.45771,      -7.45735,  -73.2400E-03,   75.3589E-03
C:/temp/dataset/8/2_40.odb,Step-1,Increment      1: Step Time =    1.000,"PART-1-1",           671,       6.09328,       5.22028,            0.,NA,NA,"",       7.55768,      -7.54485,  -440.071E-03,   121.847E-03
C:/temp/dataset/8/2_40.odb,Step-1,Increment      1: Step Time =    1.000,"PART-1-1",           672,       10.7996,       2.27920,            0.,NA,NA,"",       7.11476,      -7.07908,   711.609E-03,   41.0873E-03
C:/temp/dataset/8/2_40.odb,Step-1,Increment      1: Step Time =    1.000,"PART-1-1",           673,       10.9658,       3.81330,            0.,NA,NA,"",       7.54907,      -7.51166,   750.658E-03,   46.0436E-03
C:/temp/dataset/8/2_40.odb,Step-1,Increment      1: Step Time =    1.000,"PART-1-1",           674,       8.99860,       4.11099,            0.,NA,NA,"",       7.46608,      -7.46171,   255.515E-03,   56.3706E-03
C:/temp/dataset/8/2_40.odb,Step-1,Increment      1: Step Time =    1.000,"PART-1-1",           675,           15.,       8.66250,            0.,NA,NA,"",       9.55023,      -9.37893,       1.80073,   24.6739E-03
C:/temp/dataset/8/2_40.odb,Step-1,Increment      1: Step Time =    1.000,"PART-1-1",           676,       13.1757,       8.97628,            0.,NA,NA,"",       9.45574,      -9.38026,       1.19235,   49.3050E-03
C:/temp/dataset/8/2_40.odb,Step-1,Increment      1: Step Time =    1.000,"PART-1-1",           677,       7.38641,       11.0911,            0.,NA,NA,"",       9.85727,      -9.84666,  -457.275E-03,   46.7019E-03
C:/temp/dataset/8/2_40.odb,Step-1,Increment      1: Step Time =    1.000,"PART-1-1",           678,       6.27036,       12.4047,            0.,NA,NA,"",       10.2522,      -10.2212,  -796.481E-03,   53.9873E-03
C:/temp/dataset/8/2_40.odb,Step-1,Increment      1: Step Time =    1.000,"PART-1-1",           679,            5.,         11.25,            0.,NA,NA,"",       9.81653,      -9.74715,      -1.16509,   54.5039E-03
C:/temp/dataset/8/2_40.odb,Step-1,Increment      1: Step Time =    1.000,"PART-1-1",           680,       10.9828,       10.9826,            0.,NA,NA,"",       10.0031,      -9.99123,   487.228E-03,   62.2390E-03
C:/temp/dataset/8/2_40.odb,Step-1,Increment      1: Step Time =    1.000,"PART-1-1",           681,       9.82750,       10.6157,            0.,NA,NA,"",       9.80555,      -9.80332,   208.924E-03,   64.2131E-03
C:/temp/dataset/8/2_40.odb,Step-1,Increment      1: Step Time =    1.000,"PART-1-1",           682,       11.4264,       9.28562,            0.,NA,NA,"",       9.42591,      -9.40056,   690.901E-03,   66.7868E-03
C:/temp/dataset/8/2_40.odb,Step-1,Increment      1: Step Time =    1.000,"PART-1-1",           683,       12.2770,       18.7828,            0.,NA,NA,"",       12.1748,      -12.1627,   541.640E-03,   31.1306E-03
C:/temp/dataset/8/2_40.odb,Step-1,Increment      1: Step Time =    1.000,"PART-1-1",           684,       13.7541,       17.4065,            0.,NA,NA,"",       11.9939,      -11.9615,   880.770E-03,   43.4690E-03
C:/temp/dataset/8/2_40.odb,Step-1,Increment      1: Step Time =    1.000,"PART-1-1",           685,           15.,       18.6938,            0.,NA,NA,"",       12.2752,      -12.2301,       1.05199,   58.4781E-03
C:/temp/dataset/8/2_40.odb,Step-1,Increment      1: Step Time =    1.000,"PART-1-1",           686,       11.5052,       27.6683,            0.,NA,NA,"",       13.3937,      -13.3908,   279.320E-03,   9.86099E-03
C:/temp/dataset/8/2_40.odb,Step-1,Increment      1: Step Time =    1.000,"PART-1-1",           687,       12.5910,       28.8229,            0.,NA,NA,"",       13.5791,      -13.5722,   434.213E-03,   4.05058E-03
C:/temp/dataset/8/2_40.odb,Step-1,Increment      1: Step Time =    1.000,"PART-1-1",           688,         11.25,           30.,            0.,NA,NA,"",       13.7295,      -13.7277,   219.376E-03,   5.01370E-03
C:/temp/dataset/8/2_40.odb,Step-1,Increment      1: Step Time =    1.000,"PART-1-1",           689,       7.66010,       22.7139,            0.,NA,NA,"",       12.6220,      -12.6175,  -334.469E-03,   35.9984E-03
C:/temp/dataset/8/2_40.odb,Step-1,Increment      1: Step Time =    1.000,"PART-1-1",           690,       8.77998,       20.9019,            0.,NA,NA,"",       12.3930,      -12.3920,  -161.812E-03,   33.8128E-03
C:/temp/dataset/8/2_40.odb,Step-1,Increment      1: Step Time =    1.000,"PART-1-1",           691,       9.04783,       22.2730,            0.,NA,NA,"",       12.6003,      -12.5999,  -103.575E-03,   32.8618E-03
C:/temp/dataset/8/2_40.odb,Step-1,Increment      1: Step Time =    1.000,"PART-1-1",           692,           15.,       28.7437,            0.,NA,NA,"",       13.6117,      -13.5887,   792.239E-03,   562.511E-06
C:/temp/dataset/8/2_40.odb,Step-1,Increment      1: Step Time =    1.000,"PART-1-1",           693,         13.75,           30.,            0.,NA,NA,"",       13.7725,      -13.7597,   594.657E-03,   558.971E-06
C:/temp/dataset/8/2_40.odb,Step-1,Increment      1: Step Time =    1.000,"PART-1-1",           694,       7.11219,       6.50494,            0.,NA,NA,"",       8.14182,      -8.13742,  -267.671E-03,   80.2166E-03
C:/temp/dataset/8/2_40.odb,Step-1,Increment      1: Step Time =    1.000,"PART-1-1",           695,            5.,          6.25,            0.,NA,NA,"",       7.98354,      -7.93099,  -914.546E-03,   77.8191E-03
C:/temp/dataset/8/2_40.odb,Step-1,Increment      1: Step Time =    1.000,"PART-1-1",           696,       9.07599,      -27.9731,            0.,NA,NA,"",   93.5460E-03,  -66.3165E-03,   65.9771E-03,   45.4042E-03
C:/temp/dataset/8/2_40.odb,Step-1,Increment      1: Step Time =    1.000,"PART-1-1",           697,          8.75,          -30.,            0.,NA,NA,"",            0.,  -4.13410E-39,   69.3158E-39,   37.5031E-03
C:/temp/dataset/8/2_40.odb,Step-1,Increment      1: Step Time =    1.000,"PART-1-1",           698,           15.,       3.71250,            0.,NA,NA,"",       7.95085,      -7.73721,       1.83074,   62.5501E-03
C:/temp/dataset/8/2_40.odb,Step-1,Increment      1: Step Time =    1.000,"PART-1-1",           699,       12.4115,       4.21065,            0.,NA,NA,"",       7.80352,      -7.72156,       1.12802,   40.1965E-03
C:/temp/dataset/8/2_40.odb,Step-1,Increment      1: Step Time =    1.000,"PART-1-1",           700,       8.79814,       6.59392,            0.,NA,NA,"",       8.27874,      -8.27748,   144.668E-03,   75.6317E-03
C:/temp/dataset/8/2_40.odb,Step-1,Increment      1: Step Time =    1.000,"PART-1-1",           701,       9.28031,       5.28415,            0.,NA,NA,"",       7.86125,      -7.85515,   309.697E-03,   65.1820E-03
C:/temp/dataset/8/2_40.odb,Step-1,Increment      1: Step Time =    1.000,"PART-1-1",           702,       10.3279,       5.61007,            0.,NA,NA,"",       8.05157,      -8.03193,   562.022E-03,   57.9125E-03
C:/temp/dataset/8/2_40.odb,Step-1,Increment      1: Step Time =    1.000,"PART-1-1",           703,   700.033E-03,      -25.0201,            0.,NA,NA,"",   298.744E-03,  -298.381E-03,  -14.7108E-03,   55.1110E-03
C:/temp/dataset/8/2_40.odb,Step-1,Increment      1: Step Time =    1.000,"PART-1-1",           704,  -168.417E-03,      -23.8132,            0.,NA,NA,"",   373.690E-03,  -373.657E-03,   4.91569E-03,   56.4280E-03
C:/temp/dataset/8/2_40.odb,Step-1,Increment      1: Step Time =    1.000,"PART-1-1",           705,         -3.75,          -20.,            0.,NA,NA,"",   603.886E-03,  -595.803E-03,   98.4740E-03,   101.143E-03
C:/temp/dataset/8/2_40.odb,Step-1,Increment      1: Step Time =    1.000,"PART-1-1",           706,      -4.92611,      -21.3374,            0.,NA,NA,"",   569.852E-03,  -552.798E-03,   138.368E-03,   83.6423E-03
C:/temp/dataset/8/2_40.odb,Step-1,Increment      1: Step Time =    1.000,"PART-1-1",           707,         -1.25,          -30.,            0.,NA,NA,"",            0.,  -32.6199E-39,  -1.35451E-39,   32.3140E-03
C:/temp/dataset/8/2_40.odb,Step-1,Increment      1: Step Time =    1.000,"PART-1-1",           708,      -1.25381,      -27.5694,            0.,NA,NA,"",   131.601E-03,  -131.439E-03,   6.53275E-03,   40.9209E-03
C:/temp/dataset/8/2_40.odb,Step-1,Increment      1: Step Time =    1.000,"PART-1-1",           709,      -7.47582,      -11.3801,            0.,NA,NA,"",       3.29796,      -3.24801,  -571.849E-03,   58.7148E-03
C:/temp/dataset/8/2_40.odb,Step-1,Increment      1: Step Time =    1.000,"PART-1-1",           710,           -5.,        -11.25,            0.,NA,NA,"",       3.37422,      -3.37047,   159.241E-03,   20.9043E-03
C:/temp/dataset/8/2_40.odb,Step-1,Increment      1: Step Time =    1.000,"PART-1-1",           711,      -6.22640,      -10.0809,            0.,NA,NA,"",       3.71635,      -3.70220,  -323.984E-03,   47.2392E-03
C:/temp/dataset/8/2_40.odb,Step-1,Increment      1: Step Time =    1.000,"PART-1-1",           712,          -15.,        -13.75,            0.,NA,NA,"",       3.37839,      -2.44206,      -2.33450,   90.9629E-03
C:/temp/dataset/8/2_40.odb,Step-1,Increment      1: Step Time =    1.000,"PART-1-1",           713,      -12.5143,      -13.8326,            0.,NA,NA,"",       2.91205,      -2.42475,      -1.61265,   83.5710E-03
C:/temp/dataset/8/2_40.odb,Step-1,Increment      1: Step Time =    1.000,"PART-1-1",           714,      -10.0899,       13.8022,            0.,NA,NA,"",       10.1260,      -9.77017,      -2.66077,   31.2293E-03
C:/temp/dataset/8/2_40.odb,Step-1,Increment      1: Step Time =    1.000,"PART-1-1",           715,      -8.82292,       12.5751,            0.,NA,NA,"",       9.71378,      -9.44431,      -2.27209,   26.9841E-03
C:/temp/dataset/8/2_40.odb,Step-1,Increment      1: Step Time =    1.000,"PART-1-1",           716,          -15.,         16.25,            0.,NA,NA,"",       11.0725,      -10.3065,      -4.04690,   14.6476E-03
C:/temp/dataset/8/2_40.odb,Step-1,Increment      1: Step Time =    1.000,"PART-1-1",           717,      -12.5861,       16.2442,            0.,NA,NA,"",       10.9461,      -10.4021,      -3.40777,   19.6313E-03
C:/temp/dataset/8/2_40.odb,Step-1,Increment      1: Step Time =    1.000,"PART-1-1",           718,      -12.3822,       2.26742,            0.,NA,NA,"",       7.19318,      -6.70197,      -2.61255,   35.1169E-03
C:/temp/dataset/8/2_40.odb,Step-1,Increment      1: Step Time =    1.000,"PART-1-1",           719,      -11.8212,   294.554E-03,            0.,NA,NA,"",       6.75651,      -6.31922,      -2.39120,   35.4041E-03
C:/temp/dataset/8/2_40.odb,Step-1,Increment      1: Step Time =    1.000,"PART-1-1",           720,      -11.2086,       1.42526,            0.,NA,NA,"",       6.93858,      -6.54954,      -2.29074,   37.2478E-03
C:/temp/dataset/8/2_40.odb,Step-1,Increment      1: Step Time =    1.000,"PART-1-1",           721,         -3.75,           -5.,            0.,NA,NA,"",       5.66912,      -5.61175,  -804.484E-03,   107.667E-03
C:/temp/dataset/8/2_40.odb,Step-1,Increment      1: Step Time =    1.000,"PART-1-1",           722,      -4.14613,      -2.41365,            0.,NA,NA,"",       5.96541,      -5.90862,  -821.204E-03,   81.1187E-03
C:/temp/dataset/8/2_40.odb,Step-1,Increment      1: Step Time =    1.000,"PART-1-1",           723,          3.75,           -5.,            0.,NA,NA,"",       5.52106,      -5.49244,  -561.445E-03,   139.970E-03
C:/temp/dataset/8/2_40.odb,Step-1,Increment      1: Step Time =    1.000,"PART-1-1",           724,       4.89490,      -3.81404,            0.,NA,NA,"",       5.61242,      -5.58678,  -535.878E-03,   107.114E-03
C:/temp/dataset/8/2_40.odb,Step-1,Increment      1: Step Time =    1.000,"PART-1-1",           725,          3.75,            5.,            0.,NA,NA,"",       7.21394,      -7.18074,  -691.235E-03,   131.535E-03
C:/temp/dataset/8/2_40.odb,Step-1,Increment      1: Step Time =    1.000,"PART-1-1",           726,       2.57777,       3.72098,            0.,NA,NA,"",       6.99632,      -6.95559,  -753.777E-03,   78.8060E-03
C:/temp/dataset/8/2_40.odb,Step-1,Increment      1: Step Time =    1.000,"PART-1-1",           727,       4.13990,       2.37808,            0.,NA,NA,"",       6.80635,      -6.77341,  -668.870E-03,   68.4600E-03
C:/temp/dataset/8/2_40.odb,Step-1,Increment      1: Step Time =    1.000,"PART-1-1",           728,       1.35715,       2.46333,            0.,NA,NA,"",       6.77924,      -6.73425,  -779.719E-03,   93.7732E-03
C:/temp/dataset/8/2_40.odb,Step-1,Increment      1: Step Time =    1.000,"PART-1-1",           729,          1.25,            5.,            0.,NA,NA,"",       7.02094,      -6.98096,  -748.226E-03,   44.8083E-03
C:/temp/dataset/8/2_40.odb,Step-1,Increment      1: Step Time =    1.000,"PART-1-1",           730,         -1.25,           30.,            0.,NA,NA,"",       13.6294,      -13.5457,      -1.50853,   19.4121E-03
C:/temp/dataset/8/2_40.odb,Step-1,Increment      1: Step Time =    1.000,"PART-1-1",           731,      -1.39116,       27.2962,            0.,NA,NA,"",       13.2162,      -13.1330,      -1.48066,   18.4010E-03
C:/temp/dataset/8/2_40.odb,Step-1,Increment      1: Step Time =    1.000,"PART-1-1",           732,         -3.75,           20.,            0.,NA,NA,"",       11.9774,      -11.8564,      -1.69809,   77.5929E-03
C:/temp/dataset/8/2_40.odb,Step-1,Increment      1: Step Time =    1.000,"PART-1-1",           733,      -2.58927,       21.4449,            0.,NA,NA,"",       12.2334,      -12.1345,      -1.55268,   39.2397E-03
C:/temp/dataset/8/2_40.odb,Step-1,Increment      1: Step Time =    1.000,"PART-1-1",           734,      -5.07185,       21.0145,            0.,NA,NA,"",       12.1164,      -11.9752,      -1.84430,   61.1082E-03
C:/temp/dataset/8/2_40.odb,Step-1,Increment      1: Step Time =    1.000,"PART-1-1",           735,      -1.31816,       22.7417,            0.,NA,NA,"",       12.4617,      -12.3819,      -1.40874,   33.0957E-03
C:/temp/dataset/8/2_40.odb,Step-1,Increment      1: Step Time =    1.000,"PART-1-1",           736,         -1.25,           20.,            0.,NA,NA,"",       12.0773,      -11.9945,      -1.41236,   40.8734E-03
C:/temp/dataset/8/2_40.odb,Step-1,Increment      1: Step Time =    1.000,"PART-1-1",           737,  -725.106E-03,       25.0611,            0.,NA,NA,"",       12.8448,      -12.7726,      -1.36019,   25.7148E-03
C:/temp/dataset/8/2_40.odb,Step-1,Increment      1: Step Time =    1.000,"PART-1-1",           738,      -2.17754,       23.9659,            0.,NA,NA,"",       12.6613,      -12.5681,      -1.53312,   27.4795E-03
C:/temp/dataset/8/2_40.odb,Step-1,Increment      1: Step Time =    1.000,"PART-1-1",           739,       6.30112,       14.9129,            0.,NA,NA,"",       11.0162,      -10.9889,  -775.314E-03,   65.7428E-03
C:/temp/dataset/8/2_40.odb,Step-1,Increment      1: Step Time =    1.000,"PART-1-1",           740,       7.60711,       16.0964,            0.,NA,NA,"",       11.3918,      -11.3829,  -450.086E-03,   45.7879E-03
C:/temp/dataset/8/2_40.odb,Step-1,Increment      1: Step Time =    1.000,"PART-1-1",           741,            5.,         16.25,            0.,NA,NA,"",       11.3170,      -11.2686,      -1.04519,   89.5627E-03
C:/temp/dataset/8/2_40.odb,Step-1,Increment      1: Step Time =    1.000,"PART-1-1",           742,       11.0485,       19.6309,            0.,NA,NA,"",       12.2681,      -12.2649,   281.153E-03,   29.7993E-03
C:/temp/dataset/8/2_40.odb,Step-1,Increment      1: Step Time =    1.000,"PART-1-1",           743,       10.8767,       20.9415,            0.,NA,NA,"",       12.4624,      -12.4601,   236.051E-03,   32.4366E-03
C:/temp/dataset/8/2_40.odb,Step-1,Increment      1: Step Time =    1.000,"PART-1-1",           744,       8.95178,       19.5912,            0.,NA,NA,"",       12.1877,      -12.1869,  -138.928E-03,   31.6085E-03
C:/temp/dataset/8/2_40.odb,Step-1,Increment      1: Step Time =    1.000,"PART-1-1",           745,      -10.0357,      -16.4531,            0.,NA,NA,"",       1.83254,      -1.65714,  -782.357E-03,   73.7346E-03
C:/temp/dataset/8/2_40.odb,Step-1,Increment      1: Step Time =    1.000,"PART-1-1",           746,         -8.75,          -30.,            0.,NA,NA,"",            0.,   7.59726E-39,  -69.5652E-39,   37.2481E-03
C:/temp/dataset/8/2_40.odb,Step-1,Increment      1: Step Time =    1.000,"PART-1-1",           747,      -8.42026,      -27.7162,            0.,NA,NA,"",   58.9063E-03,  -33.7938E-03,  -48.2486E-03,   31.5659E-03
C:/temp/dataset/8/2_40.odb,Step-1,Increment      1: Step Time =    1.000,"PART-1-1",           748,       8.78655,      -4.15343,            0.,NA,NA,"",       5.50486,      -5.49951,   242.805E-03,   34.0707E-03
C:/temp/dataset/8/2_40.odb,Step-1,Increment      1: Step Time =    1.000,"PART-1-1",           749,       8.68406,      -5.73195,            0.,NA,NA,"",       5.08360,      -5.07782,   242.295E-03,   47.2662E-03
C:/temp/dataset/8/2_40.odb,Step-1,Increment      1: Step Time =    1.000,"PART-1-1",           750,            5.,        -13.75,            0.,NA,NA,"",       2.53005,      -2.45732,  -602.267E-03,   12.3657E-03
C:/temp/dataset/8/2_40.odb,Step-1,Increment      1: Step Time =    1.000,"PART-1-1",           751,       6.25620,      -14.9360,            0.,NA,NA,"",       2.18577,      -2.17328,  -233.318E-03,   19.9104E-03
C:/temp/dataset/8/2_40.odb,Step-1,Increment      1: Step Time =    1.000,"PART-1-1",           752,       7.64552,      -13.5447,            0.,NA,NA,"",       2.63329,      -2.63221,   75.3972E-03,   45.0726E-03
C:/temp/dataset/8/2_40.odb,Step-1,Increment      1: Step Time =    1.000,"PART-1-1",           753,       7.28908,      -20.5141,            0.,NA,NA,"",   772.343E-03,  -765.174E-03,   104.989E-03,   57.9288E-03
C:/temp/dataset/8/2_40.odb,Step-1,Increment      1: Step Time =    1.000,"PART-1-1",           754,       5.05608,      -20.9168,            0.,NA,NA,"",   630.710E-03,  -611.419E-03,  -154.797E-03,   86.8333E-03
C:/temp/dataset/8/2_40.odb,Step-1,Increment      1: Step Time =    1.000,"PART-1-1",           755,       6.21587,      -21.6726,            0.,NA,NA,"",   554.642E-03,  -553.880E-03,  -29.0659E-03,   28.9038E-03
C:/temp/dataset/8/2_40.odb,Step-1,Increment      1: Step Time =    1.000,"PART-1-1",           756,      -6.21032,      -20.1327,            0.,NA,NA,"",   727.721E-03,  -725.310E-03,   59.1980E-03,   76.0598E-03
C:/temp/dataset/8/2_40.odb,Step-1,Increment      1: Step Time =    1.000,"PART-1-1",           757,      -7.27258,      -21.5724,            0.,NA,NA,"",   531.952E-03,  -529.052E-03,  -55.4724E-03,   21.1580E-03
C:/temp/dataset/8/2_40.odb,Step-1,Increment      1: Step Time =    1.000,"PART-1-1",           758,      -7.56906,       11.3132,            0.,NA,NA,"",       9.30305,      -9.11075,      -1.88175,   22.2881E-03
C:/temp/dataset/8/2_40.odb,Step-1,Increment      1: Step Time =    1.000,"PART-1-1",           759,           -5.,         11.25,            0.,NA,NA,"",       9.26561,      -9.19155,      -1.16910,   3.04844E-03
C:/temp/dataset/8/2_40.odb,Step-1,Increment      1: Step Time =    1.000,"PART-1-1",           760,          -15.,          8.75,            0.,NA,NA,"",       8.97297,      -8.19021,      -3.66532,   35.5461E-03
C:/temp/dataset/8/2_40.odb,Step-1,Increment      1: Step Time =    1.000,"PART-1-1",           761,      -12.2910,       8.63249,            0.,NA,NA,"",       8.72778,      -8.21721,      -2.94138,   28.6963E-03
C:/temp/dataset/8/2_40.odb,Step-1,Increment      1: Step Time =    1.000,"PART-1-1",           762,      -10.0463,       9.29253,            0.,NA,NA,"",       8.78818,      -8.44987,      -2.41488,   30.3992E-03
C:/temp/dataset/8/2_40.odb,Step-1,Increment      1: Step Time =    1.000,"PART-1-1",           763,      -8.95480,       7.80674,            0.,NA,NA,"",       8.31611,      -8.05416,      -2.07082,   31.1352E-03
C:/temp/dataset/8/2_40.odb,Step-1,Increment      1: Step Time =    1.000,"PART-1-1",           764,      -8.82303,       10.1663,            0.,NA,NA,"",       8.99457,      -8.73339,      -2.15178,   28.4727E-03
C:/temp/dataset/8/2_40.odb,Step-1,Increment      1: Step Time =    1.000,"PART-1-1",           765,          -15.,          3.75,            0.,NA,NA,"",       7.72887,      -6.98437,      -3.30968,   42.0115E-03
C:/temp/dataset/8/2_40.odb,Step-1,Increment      1: Step Time =    1.000,"PART-1-1",           766,      -12.9901,       3.46920,            0.,NA,NA,"",       7.49476,      -6.94467,      -2.81835,   32.6085E-03
C:/temp/dataset/8/2_40.odb,Step-1,Increment      1: Step Time =    1.000,"PART-1-1",           767,          -15.,         -1.25,            0.,NA,NA,"",       6.68999,      -5.93840,      -3.08082,   6.30469E-03
C:/temp/dataset/8/2_40.odb,Step-1,Increment      1: Step Time =    1.000,"PART-1-1",           768,      -12.5622,      -1.46868,            0.,NA,NA,"",       6.45392,      -5.94864,      -2.50335,   26.2269E-03
C:/temp/dataset/8/2_40.odb,Step-1,Increment      1: Step Time =    1.000,"PART-1-1",           769,      -9.58657,      -7.04159,            0.,NA,NA,"",       4.87270,      -4.63362,      -1.50756,   60.9196E-03
C:/temp/dataset/8/2_40.odb,Step-1,Increment      1: Step Time =    1.000,"PART-1-1",           770,      -10.0085,      -5.60753,            0.,NA,NA,"",       5.32363,      -5.04269,      -1.70654,   43.6703E-03
C:/temp/dataset/8/2_40.odb,Step-1,Increment      1: Step Time =    1.000,"PART-1-1",           771,      -11.4596,      -6.08275,            0.,NA,NA,"",       5.26793,      -4.86126,      -2.02958,   34.9024E-03
C:/temp/dataset/8/2_40.odb,Step-1,Increment      1: Step Time =    1.000,"PART-1-1",           772,           -5.,         -8.75,            0.,NA,NA,"",       4.17514,      -4.17485,  -48.4008E-03,   57.6743E-03
C:/temp/dataset/8/2_40.odb,Step-1,Increment      1: Step Time =    1.000,"PART-1-1",           773,      -6.19608,      -7.65780,            0.,NA,NA,"",       4.55037,      -4.51165,  -592.412E-03,   74.7457E-03
C:/temp/dataset/8/2_40.odb,Step-1,Increment      1: Step Time =    1.000,"PART-1-1",           774,      -2.54672,      -1.24033,            0.,NA,NA,"",       6.15713,      -6.10246,  -818.747E-03,   98.0055E-03
C:/temp/dataset/8/2_40.odb,Step-1,Increment      1: Step Time =    1.000,"PART-1-1",           775,       12.1686,       8.14789,            0.,NA,NA,"",       9.07299,      -9.02313,   949.919E-03,   55.7070E-03
C:/temp/dataset/8/2_40.odb,Step-1,Increment      1: Step Time =    1.000,"PART-1-1",           776,       11.7736,       6.00742,            0.,NA,NA,"",       8.30481,      -8.25295,   926.685E-03,   49.7235E-03
C:/temp/dataset/8/2_40.odb,Step-1,Increment      1: Step Time =    1.000,"PART-1-1",           777,       2.58139,       1.19261,            0.,NA,NA,"",       6.57500,      -6.53424,  -731.031E-03,   93.9891E-03
C:/temp/dataset/8/2_40.odb,Step-1,Increment      1: Step Time =    1.000,"PART-1-1",           778,      -8.87122,       6.40892,            0.,NA,NA,"",       7.91970,      -7.66780,      -1.98154,   34.0887E-03
C:/temp/dataset/8/2_40.odb,Step-1,Increment      1: Step Time =    1.000,"PART-1-1",           779,      -9.21124,       4.86121,            0.,NA,NA,"",       7.54635,      -7.28194,      -1.98010,   34.9701E-03
C:/temp/dataset/8/2_40.odb,Step-1,Increment      1: Step Time =    1.000,"PART-1-1",           780,      -7.77566,       4.46419,            0.,NA,NA,"",       7.36753,      -7.18443,      -1.63230,   40.1719E-03
C:/temp/dataset/8/2_40.odb,Step-1,Increment      1: Step Time =    1.000,"PART-1-1",           781,      -7.43564,       6.01190,            0.,NA,NA,"",       7.73982,      -7.56619,      -1.63020,   42.2172E-03
C:/temp/dataset/8/2_40.odb,Step-1,Increment      1: Step Time =    1.000,"PART-1-1",           782,      -11.3069,       27.9101,            0.,NA,NA,"",       13.5861,      -13.1650,      -3.35597,   14.0173E-03
C:/temp/dataset/8/2_40.odb,Step-1,Increment      1: Step Time =    1.000,"PART-1-1",           783,      -10.0805,       29.0536,            0.,NA,NA,"",       13.7732,      -13.4167,      -3.11342,   14.5419E-03
C:/temp/dataset/8/2_40.odb,Step-1,Increment      1: Step Time =    1.000,"PART-1-1",           784,        -11.25,           30.,            0.,NA,NA,"",       14.0164,      -13.5989,      -3.39546,   10.0068E-03
C:/temp/dataset/8/2_40.odb,Step-1,Increment      1: Step Time =    1.000,"PART-1-1",           785,          -15.,         23.75,            0.,NA,NA,"",       12.8775,      -12.2048,      -4.10767,   21.6843E-03
C:/temp/dataset/8/2_40.odb,Step-1,Increment      1: Step Time =    1.000,"PART-1-1",           786,      -12.0918,       23.7968,            0.,NA,NA,"",       12.7867,      -12.3098,      -3.45962,   15.9444E-03
C:/temp/dataset/8/2_40.odb,Step-1,Increment      1: Step Time =    1.000,"PART-1-1",           787,      -8.63614,       22.0154,            0.,NA,NA,"",       12.3340,      -12.0492,      -2.63532,   18.9396E-03
C:/temp/dataset/8/2_40.odb,Step-1,Increment      1: Step Time =    1.000,"PART-1-1",           788,      -9.89938,       20.9751,            0.,NA,NA,"",       12.1136,      -11.7607,      -2.90275,   13.6004E-03
C:/temp/dataset/8/2_40.odb,Step-1,Increment      1: Step Time =    1.000,"PART-1-1",           789,      -7.50670,       20.8576,            0.,NA,NA,"",       12.0699,      -11.8382,      -2.35355,   26.6603E-03
C:/temp/dataset/8/2_40.odb,Step-1,Increment      1: Step Time =    1.000,"PART-1-1",           790,      -11.2460,       19.8989,            0.,NA,NA,"",       11.8809,      -11.4438,      -3.19296,   14.5613E-03
C:/temp/dataset/8/2_40.odb,Step-1,Increment      1: Step Time =    1.000,"PART-1-1",           791,      -11.3323,       17.4620,            0.,NA,NA,"",       11.2379,      -10.7904,      -3.13990,   22.1035E-03
C:/temp/dataset/8/2_40.odb,Step-1,Increment      1: Step Time =    1.000,"PART-1-1",           792,      -6.30838,       21.9713,            0.,NA,NA,"",       12.3107,      -12.1256,      -2.12649,   26.7971E-03
C:/temp/dataset/8/2_40.odb,Step-1,Increment      1: Step Time =    1.000,"PART-1-1",           793,      -2.23761,       26.0591,            0.,NA,NA,"",       13.0181,      -12.9223,      -1.57636,   20.3097E-03
C:/temp/dataset/8/2_40.odb,Step-1,Increment      1: Step Time =    1.000,"PART-1-1",           794,       8.85967,       17.2477,            0.,NA,NA,"",       11.7205,      -11.7193,  -166.609E-03,   33.0324E-03
C:/temp/dataset/8/2_40.odb,Step-1,Increment      1: Step Time =    1.000,"PART-1-1",           795,       10.0793,       18.0998,            0.,NA,NA,"",       11.9525,      -11.9521,   91.8349E-03,   23.1578E-03
C:/temp/dataset/8/2_40.odb,Step-1,Increment      1: Step Time =    1.000,"PART-1-1",           796,          3.75,           30.,            0.,NA,NA,"",       13.5929,      -13.5665,  -847.873E-03,   8.07593E-03
C:/temp/dataset/8/2_40.odb,Step-1,Increment      1: Step Time =    1.000,"PART-1-1",           797,       3.75100,       27.5475,            0.,NA,NA,"",       13.2484,      -13.2221,  -834.610E-03,   16.0607E-03
C:/temp/dataset/8/2_40.odb,Step-1,Increment      1: Step Time =    1.000,"PART-1-1",           798,       6.92451,       23.6804,            0.,NA,NA,"",       12.7377,      -12.7304,  -432.229E-03,   31.3811E-03
C:/temp/dataset/8/2_40.odb,Step-1,Increment      1: Step Time =    1.000,"PART-1-1",           799,       5.85780,       24.9146,            0.,NA,NA,"",       12.8895,      -12.8770,  -566.519E-03,   23.3686E-03
C:/temp/dataset/8/2_40.odb,Step-1,Increment      1: Step Time =    1.000,"PART-1-1",           800,       4.79652,       23.7913,            0.,NA,NA,"",       12.7014,      -12.6814,  -712.554E-03,   32.6586E-03
C:/temp/dataset/8/2_40.odb,Step-1,Increment      1: Step Time =    1.000,"PART-1-1",           801,       3.65083,       25.0814,            0.,NA,NA,"",       12.8764,      -12.8488,  -842.220E-03,   26.7434E-03
C:/temp/dataset/8/2_40.odb,Step-1,Increment      1: Step Time =    1.000,"PART-1-1",           802,       4.89856,       26.2814,            0.,NA,NA,"",       13.0741,      -13.0561,  -686.901E-03,   19.9725E-03
C:/temp/dataset/8/2_40.odb,Step-1,Increment      1: Step Time =    1.000,"PART-1-1",           803,         -8.75,           30.,            0.,NA,NA,"",       13.9167,      -13.6210,      -2.85393,   22.3961E-03
C:/temp/dataset/8/2_40.odb,Step-1,Increment      1: Step Time =    1.000,"PART-1-1",           804,      -8.99895,       28.0861,            0.,NA,NA,"",       13.5419,      -13.2378,      -2.85354,   16.4869E-03
C:/temp/dataset/8/2_40.odb,Step-1,Increment      1: Step Time =    1.000,"PART-1-1",           805,      -11.0560,       7.77083,            0.,NA,NA,"",       8.41334,      -8.00672,      -2.58392,   29.1511E-03
C:/temp/dataset/8/2_40.odb,Step-1,Increment      1: Step Time =    1.000,"PART-1-1",           806,      -9.90307,       2.86734,            0.,NA,NA,"",       7.14551,      -6.84682,      -2.04433,   36.1516E-03
C:/temp/dataset/8/2_40.odb,Step-1,Increment      1: Step Time =    1.000,"PART-1-1",           807,      -11.2313,       2.93204,            0.,NA,NA,"",       7.24798,      -6.85103,      -2.36574,   34.6006E-03
C:/temp/dataset/8/2_40.odb,Step-1,Increment      1: Step Time =    1.000,"PART-1-1",           808,      -9.88044,       1.36056,            0.,NA,NA,"",       6.84223,      -6.55243,      -1.97022,   37.5072E-03
C:/temp/dataset/8/2_40.odb,Step-1,Increment      1: Step Time =    1.000,"PART-1-1",           809,           -5.,          6.25,            0.,NA,NA,"",       7.77689,      -7.70494,      -1.05540,   81.0193E-03
C:/temp/dataset/8/2_40.odb,Step-1,Increment      1: Step Time =    1.000,"PART-1-1",           810,      -5.99693,       4.86688,            0.,NA,NA,"",       7.35295,      -7.24383,      -1.26210,   73.6105E-03
C:/temp/dataset/8/2_40.odb,Step-1,Increment      1: Step Time =    1.000,"PART-1-1",           811,           -5.,         -6.25,            0.,NA,NA,"",       5.02456,      -5.00863,  -399.734E-03,   140.236E-03
C:/temp/dataset/8/2_40.odb,Step-1,Increment      1: Step Time =    1.000,"PART-1-1",           812,      -7.47931,      -6.74416,            0.,NA,NA,"",       4.90881,      -4.79767,      -1.03863,   77.8536E-03
C:/temp/dataset/8/2_40.odb,Step-1,Increment      1: Step Time =    1.000,"PART-1-1",           813,      -11.2714,      -15.1219,            0.,NA,NA,"",       2.35278,      -2.03872,      -1.17438,   80.3064E-03
C:/temp/dataset/8/2_40.odb,Step-1,Increment      1: Step Time =    1.000,"PART-1-1",           814,          -15.,        -18.75,            0.,NA,NA,"",       2.02118,      -1.21825,      -1.61277,   145.826E-03
C:/temp/dataset/8/2_40.odb,Step-1,Increment      1: Step Time =    1.000,"PART-1-1",           815,           -5.,        -18.75,            0.,NA,NA,"",       1.14307,      -1.10780,   281.729E-03,   122.634E-03
C:/temp/dataset/8/2_40.odb,Step-1,Increment      1: Step Time =    1.000,"PART-1-1",           816,          -15.,        -23.75,            0.,NA,NA,"",   994.923E-03,  -504.614E-03,  -857.459E-03,   152.314E-03
C:/temp/dataset/8/2_40.odb,Step-1,Increment      1: Step Time =    1.000,"PART-1-1",           817,      -10.9002,      -24.6942,            0.,NA,NA,"",   390.058E-03,  -234.927E-03,  -311.375E-03,   69.3848E-03
C:/temp/dataset/8/2_40.odb,Step-1,Increment      1: Step Time =    1.000,"PART-1-1",           818,      -9.92286,      -25.5060,            0.,NA,NA,"",   244.147E-03,  -157.023E-03,  -186.954E-03,   51.4351E-03
C:/temp/dataset/8/2_40.odb,Step-1,Increment      1: Step Time =    1.000,"PART-1-1",           819,      -9.17441,      -24.3962,            0.,NA,NA,"",   294.967E-03,  -237.477E-03,  -174.957E-03,   36.3918E-03
C:/temp/dataset/8/2_40.odb,Step-1,Increment      1: Step Time =    1.000,"PART-1-1",           820,      -10.1518,      -23.5844,            0.,NA,NA,"",   444.562E-03,  -323.852E-03,  -304.558E-03,   55.7869E-03
C:/temp/dataset/8/2_40.odb,Step-1,Increment      1: Step Time =    1.000,"PART-1-1",           821,      -4.84440,      -26.4970,            0.,NA,NA,"",   145.261E-03,  -143.589E-03,   21.9817E-03,   37.7399E-03
C:/temp/dataset/8/2_40.odb,Step-1,Increment      1: Step Time =    1.000,"PART-1-1",           822,      -2.50369,      -26.4071,            0.,NA,NA,"",   190.363E-03,  -188.638E-03,   25.5681E-03,   47.9563E-03
C:/temp/dataset/8/2_40.odb,Step-1,Increment      1: Step Time =    1.000,"PART-1-1",           823,      -1.38955,      -25.1134,            0.,NA,NA,"",   285.390E-03,  -284.284E-03,   25.1008E-03,   56.6474E-03
C:/temp/dataset/8/2_40.odb,Step-1,Increment      1: Step Time =    1.000,"PART-1-1",           824,  -139.682E-03,      -26.2756,            0.,NA,NA,"",   215.778E-03,  -215.778E-03,   99.8922E-06,   49.7782E-03
C:/temp/dataset/8/2_40.odb,Step-1,Increment      1: Step Time =    1.000,"PART-1-1",           825,          3.75,          -30.,            0.,NA,NA,"",            0.,  -23.9748E-39,  -739.088E-42,   24.5477E-03
C:/temp/dataset/8/2_40.odb,Step-1,Increment      1: Step Time =    1.000,"PART-1-1",           826,       4.16188,      -27.2827,            0.,NA,NA,"",   127.675E-03,  -126.621E-03,  -16.3716E-03,   36.3051E-03
C:/temp/dataset/8/2_40.odb,Step-1,Increment      1: Step Time =    1.000,"PART-1-1",           827,       5.43104,      -24.9919,            0.,NA,NA,"",   263.610E-03,  -262.485E-03,  -24.3336E-03,   32.3728E-03
C:/temp/dataset/8/2_40.odb,Step-1,Increment      1: Step Time =    1.000,"PART-1-1",           828,          3.75,          -20.,            0.,NA,NA,"",   604.043E-03,  -598.000E-03,  -85.2248E-03,   96.5760E-03
C:/temp/dataset/8/2_40.odb,Step-1,Increment      1: Step Time =    1.000,"PART-1-1",           829,       3.87291,      -22.3056,            0.,NA,NA,"",   502.216E-03,  -490.929E-03,  -105.874E-03,   61.1591E-03
C:/temp/dataset/8/2_40.odb,Step-1,Increment      1: Step Time =    1.000,"PART-1-1",           830,       4.97088,      -23.9263,            0.,NA,NA,"",   350.953E-03,  -346.907E-03,  -53.1408E-03,   38.9446E-03
C:/temp/dataset/8/2_40.odb,Step-1,Increment      1: Step Time =    1.000,"PART-1-1",           831,       6.87342,      -24.4091,            0.,NA,NA,"",   305.905E-03,  -303.785E-03,   35.9558E-03,   14.9991E-03
C:/temp/dataset/8/2_40.odb,Step-1,Increment      1: Step Time =    1.000,"PART-1-1",           832,       6.41326,      -23.3435,            0.,NA,NA,"",   397.288E-03,  -397.268E-03,   3.93890E-03,   18.3431E-03
C:/temp/dataset/8/2_40.odb,Step-1,Increment      1: Step Time =    1.000,"PART-1-1",           833,       9.46100,      -26.0738,            0.,NA,NA,"",   250.185E-03,  -197.331E-03,   153.796E-03,   52.7625E-03
C:/temp/dataset/8/2_40.odb,Step-1,Increment      1: Step Time =    1.000,"PART-1-1",           834,       10.2673,      -27.1968,            0.,NA,NA,"",   189.825E-03,  -129.758E-03,   138.552E-03,   66.0160E-03
C:/temp/dataset/8/2_40.odb,Step-1,Increment      1: Step Time =    1.000,"PART-1-1",           835,       7.41841,      -16.0775,            0.,NA,NA,"",       1.89164,      -1.89018,   74.2613E-03,   44.8120E-03
C:/temp/dataset/8/2_40.odb,Step-1,Increment      1: Step Time =    1.000,"PART-1-1",           836,            5.,        -16.25,            0.,NA,NA,"",       1.84195,      -1.76899,  -513.283E-03,   14.9453E-03
C:/temp/dataset/8/2_40.odb,Step-1,Increment      1: Step Time =    1.000,"PART-1-1",           837,            5.,         -6.25,            0.,NA,NA,"",       4.83270,      -4.79377,  -612.139E-03,   133.581E-03
C:/temp/dataset/8/2_40.odb,Step-1,Increment      1: Step Time =    1.000,"PART-1-1",           838,       7.32831,      -6.19648,            0.,NA,NA,"",       4.92225,      -4.92189,  -59.8606E-03,   60.4539E-03
C:/temp/dataset/8/2_40.odb,Step-1,Increment      1: Step Time =    1.000,"PART-1-1",           839,       6.34990,      -4.95679,            0.,NA,NA,"",       5.30298,      -5.29509,  -289.136E-03,   100.885E-03
C:/temp/dataset/8/2_40.odb,Step-1,Increment      1: Step Time =    1.000,"PART-1-1",           840,            5.,         13.75,            0.,NA,NA,"",       10.6209,      -10.5596,      -1.13954,   76.4956E-03
C:/temp/dataset/8/2_40.odb,Step-1,Increment      1: Step Time =    1.000,"PART-1-1",           841,       7.57148,       13.5676,            0.,NA,NA,"",       10.6768,      -10.6668,  -460.725E-03,   47.1128E-03
C:/temp/dataset/8/2_40.odb,Step-1,Increment      1: Step Time =    1.000,"PART-1-1",           842,           15.,       23.7188,            0.,NA,NA,"",       12.9097,      -12.8806,   867.062E-03,   16.0280E-03
C:/temp/dataset/8/2_40.odb,Step-1,Increment      1: Step Time =    1.000,"PART-1-1",           843,       12.7096,       24.0554,            0.,NA,NA,"",       12.9222,      -12.9120,   513.656E-03,   19.4939E-03
C:/temp/dataset/8/2_40.odb,Step-1,Increment      1: Step Time =    1.000,"PART-1-1",           844,           15.,      -11.3062,            0.,NA,NA,"",       4.12574,      -3.69487,       1.83566,   63.6180E-03
C:/temp/dataset/8/2_40.odb,Step-1,Increment      1: Step Time =    1.000,"PART-1-1",           845,           15.,      -3.76875,            0.,NA,NA,"",       6.07158,      -5.80839,       1.76823,   24.2729E-03
C:/temp/dataset/8/2_40.odb,Step-1,Increment      1: Step Time =    1.000,"PART-1-1",           846,       9.87633,      -16.1616,            0.,NA,NA,"",       2.04818,      -1.96519,   577.129E-03,   70.4244E-03
C:/temp/dataset/8/2_40.odb,Step-1,Increment      1: Step Time =    1.000,"PART-1-1",           847,       8.51452,      -17.2877,            0.,NA,NA,"",       1.62708,      -1.59629,   315.040E-03,   59.5370E-03
C:/temp/dataset/8/2_40.odb,Step-1,Increment      1: Step Time =    1.000,"PART-1-1",           848,       8.29059,      -19.4066,            0.,NA,NA,"",       1.08732,      -1.05484,   263.774E-03,   70.8100E-03
C:/temp/dataset/8/2_40.odb,Step-1,Increment      1: Step Time =    1.000,"PART-1-1",           849,       8.55616,      -8.48630,            0.,NA,NA,"",       4.24578,      -4.23864,   246.172E-03,   63.7178E-03
C:/temp/dataset/8/2_40.odb,Step-1,Increment      1: Step Time =    1.000,"PART-1-1",           850,       9.61754,      -8.87754,            0.,NA,NA,"",       4.19077,      -4.16072,   500.954E-03,   58.6736E-03
C:/temp/dataset/8/2_40.odb,Step-1,Increment      1: Step Time =    1.000,"PART-1-1",           851,       9.02908,      -7.15658,            0.,NA,NA,"",       4.68015,      -4.66750,   343.922E-03,   57.4933E-03
C:/temp/dataset/8/2_40.odb,Step-1,Increment      1: Step Time =    1.000,"PART-1-1",           852,           15.,       16.1812,            0.,NA,NA,"",       11.8016,      -11.7370,       1.23292,   62.2995E-03
C:/temp/dataset/8/2_40.odb,Step-1,Increment      1: Step Time =    1.000,"PART-1-1",           853,       9.89201,       25.6129,            0.,NA,NA,"",       13.0782,      -13.0782,   39.9860E-03,   18.2478E-03
C:/temp/dataset/8/2_40.odb,Step-1,Increment      1: Step Time =    1.000,"PART-1-1",           854,       8.89238,       24.9206,            0.,NA,NA,"",       12.9614,      -12.9608,  -118.769E-03,   22.4071E-03
C:/temp/dataset/8/2_40.odb,Step-1,Increment      1: Step Time =    1.000,"PART-1-1",           855,       9.60238,       23.8702,            0.,NA,NA,"",       12.8350,      -12.8350,  -3.65068E-03,   25.5307E-03
C:/temp/dataset/8/2_40.odb,Step-1,Increment      1: Step Time =    1.000,"PART-1-1",           856,       10.6020,       24.5625,            0.,NA,NA,"",       12.9507,      -12.9497,   160.964E-03,   22.5072E-03
C:/temp/dataset/8/2_40.odb,Step-1,Increment      1: Step Time =    1.000,"PART-1-1",           857,       10.8145,      -1.23275,            0.,NA,NA,"",       6.28202,      -6.24144,   712.955E-03,   34.1174E-03
C:/temp/dataset/8/2_40.odb,Step-1,Increment      1: Step Time =    1.000,"PART-1-1",           858,       11.5759,  -144.200E-03,            0.,NA,NA,"",       6.59099,      -6.52833,   906.692E-03,   39.4484E-03
C:/temp/dataset/8/2_40.odb,Step-1,Increment      1: Step Time =    1.000,"PART-1-1",           859,       8.92207,      -9.93164,            0.,NA,NA,"",       3.81655,      -3.80103,   343.803E-03,   61.2753E-03
C:/temp/dataset/8/2_40.odb,Step-1,Increment      1: Step Time =    1.000,"PART-1-1",           860,       9.92328,      -10.6623,            0.,NA,NA,"",       3.66533,      -3.61840,   584.666E-03,   62.1333E-03
C:/temp/dataset/8/2_40.odb,Step-1,Increment      1: Step Time =    1.000,"PART-1-1",           861,       10.2741,      -21.0971,            0.,NA,NA,"",   956.716E-03,  -826.077E-03,   482.599E-03,   79.4530E-03
C:/temp/dataset/8/2_40.odb,Step-1,Increment      1: Step Time =    1.000,"PART-1-1",           862,       9.54695,      -22.4905,            0.,NA,NA,"",   657.313E-03,  -573.707E-03,   320.813E-03,   63.9952E-03
C:/temp/dataset/8/2_40.odb,Step-1,Increment      1: Step Time =    1.000,"PART-1-1",           863,       10.5655,      -23.0186,            0.,NA,NA,"",   682.953E-03,  -549.147E-03,   406.033E-03,   77.4645E-03
C:/temp/dataset/8/2_40.odb,Step-1,Increment      1: Step Time =    1.000,"PART-1-1",           864,       9.19444,      -24.7163,            0.,NA,NA,"",   363.698E-03,  -309.271E-03,   191.382E-03,   48.7179E-03
C:/temp/dataset/8/2_40.odb,Step-1,Increment      1: Step Time =    1.000,"PART-1-1",           865,       11.2358,      -25.7476,            0.,NA,NA,"",   397.643E-03,  -277.071E-03,   285.222E-03,   85.4008E-03
C:/temp/dataset/8/2_40.odb,Step-1,Increment      1: Step Time =    1.000,"PART-1-1",           866,       10.9693,      -24.3901,            0.,NA,NA,"",   538.996E-03,  -402.407E-03,   358.587E-03,   82.5761E-03
C:/temp/dataset/8/2_40.odb,Step-1,Increment      1: Step Time =    1.000,"PART-1-1",           867,       12.4335,       10.1140,            0.,NA,NA,"",       9.80105,      -9.75811,   916.431E-03,   60.3444E-03
C:/temp/dataset/8/2_40.odb,Step-1,Increment      1: Step Time =    1.000,"PART-1-1",           868,       7.92075,       5.64444,            0.,NA,NA,"",       7.88292,      -7.88284,  -36.2340E-03,   82.5107E-03
C:/temp/dataset/8/2_40.odb,Step-1,Increment      1: Step Time =    1.000,"PART-1-1",           869,       7.98957,       7.45442,            0.,NA,NA,"",       8.55566,      -8.55505,  -102.123E-03,   75.3550E-03
C:/temp/dataset/8/2_40.odb,Step-1,Increment      1: Step Time =    1.000,"PART-1-1",           870,       8.32878,      -21.4218,            0.,NA,NA,"",   706.081E-03,  -672.194E-03,   216.112E-03,   54.3827E-03
C:/temp/dataset/8/2_40.odb,Step-1,Increment      1: Step Time =    1.000,"PART-1-1",           871,       7.29628,      -22.4795,            0.,NA,NA,"",   500.044E-03,  -493.915E-03,   78.0554E-03,   27.6594E-03
C:/temp/dataset/8/2_40.odb,Step-1,Increment      1: Step Time =    1.000,"PART-1-1",           872,       8.51445,      -23.5482,            0.,NA,NA,"",   444.147E-03,  -408.773E-03,   173.700E-03,   37.9630E-03
C:/temp/dataset/8/2_40.odb,Step-1,Increment      1: Step Time =    1.000,"PART-1-1",           873,       8.18845,  -488.883E-03,            0.,NA,NA,"",       6.30461,      -6.30416,   75.4181E-03,   24.7679E-03
C:/temp/dataset/8/2_40.odb,Step-1,Increment      1: Step Time =    1.000,"PART-1-1",           874,       7.03757,  -99.4150E-03,            0.,NA,NA,"",       6.35025,      -6.34792,  -171.827E-03,   17.5717E-03
C:/temp/dataset/8/2_40.odb,Step-1,Increment      1: Step Time =    1.000,"PART-1-1",           875,       6.67521,      -1.55702,            0.,NA,NA,"",       6.04997,      -6.04542,  -234.579E-03,   24.6460E-03
C:/temp/dataset/8/2_40.odb,Step-1,Increment      1: Step Time =    1.000,"PART-1-1",           876,       7.82608,      -1.94649,            0.,NA,NA,"",       5.98752,      -5.98752,   568.544E-06,   27.8610E-03
C:/temp/dataset/8/2_40.odb,Step-1,Increment      1: Step Time =    1.000,"PART-1-1",           877,       10.0503,   625.537E-03,            0.,NA,NA,"",       6.65185,      -6.63153,   519.497E-03,   36.7715E-03
C:/temp/dataset/8/2_40.odb,Step-1,Increment      1: Step Time =    1.000,"PART-1-1",           878,       11.6011,       12.1291,            0.,NA,NA,"",       10.4379,      -10.4210,   592.854E-03,   51.7536E-03
C:/temp/dataset/8/2_40.odb,Step-1,Increment      1: Step Time =    1.000,"PART-1-1",           879,       9.33028,      -20.3144,            0.,NA,NA,"",   998.711E-03,  -919.399E-03,   390.038E-03,   71.6080E-03
C:/temp/dataset/8/2_40.odb,Step-1,Increment      1: Step Time =    1.000,"PART-1-1",           880,       7.30556,      -3.67465,            0.,NA,NA,"",       5.60251,      -5.60159,  -101.661E-03,   40.2553E-03
C:/temp/dataset/8/2_40.odb,Step-1,Increment      1: Step Time =    1.000,"PART-1-1",           881,       5.85057,      -2.53190,            0.,NA,NA,"",       5.85085,      -5.83843,  -381.143E-03,   43.8242E-03
C:/temp/dataset/8/2_40.odb,Step-1,Increment      1: Step Time =    1.000,"PART-1-1",           882,       5.20819,       1.03681,            0.,NA,NA,"",       6.54667,      -6.52767,  -498.372E-03,   35.7356E-03
C:/temp/dataset/8/2_40.odb,Step-1,Increment      1: Step Time =    1.000,"PART-1-1",           883,      -5.71863,       2.55200,            0.,NA,NA,"",       6.87660,      -6.77806,      -1.16002,   26.4269E-03
C:/temp/dataset/8/2_40.odb,Step-1,Increment      1: Step Time =    1.000,"PART-1-1",           884,      -6.86716,       3.62545,            0.,NA,NA,"",       7.12893,      -6.99050,      -1.39808,   39.0211E-03
C:/temp/dataset/8/2_40.odb,Step-1,Increment      1: Step Time =    1.000,"PART-1-1",           885,      -8.17623,      -23.0651,            0.,NA,NA,"",   380.144E-03,  -359.590E-03,  -123.307E-03,   17.9902E-03
C:/temp/dataset/8/2_40.odb,Step-1,Increment      1: Step Time =    1.000,"PART-1-1",           886,      -9.67300,      -21.9623,            0.,NA,NA,"",   607.825E-03,  -505.663E-03,  -337.279E-03,   50.3408E-03
C:/temp/dataset/8/2_40.odb,Step-1,Increment      1: Step Time =    1.000,"PART-1-1",           887,       7.67333,      -7.62111,            0.,NA,NA,"",       4.47158,      -4.47148,   29.1243E-03,   69.4478E-03
C:/temp/dataset/8/2_40.odb,Step-1,Increment      1: Step Time =    1.000,"PART-1-1",           888,       5.33284,      -22.5365,            0.,NA,NA,"",   471.189E-03,  -466.187E-03,  -68.4759E-03,   38.2642E-03
C:/temp/dataset/8/2_40.odb,Step-1,Increment      1: Step Time =    1.000,"PART-1-1",           889,       8.54152,       23.5352,            0.,NA,NA,"",       12.7621,      -12.7608,  -181.722E-03,   29.5864E-03
C:/temp/dataset/8/2_40.odb,Step-1,Increment      1: Step Time =    1.000,"PART-1-1",           890,       10.1087,       22.6080,            0.,NA,NA,"",       12.6754,      -12.6751,   85.1730E-03,   30.3420E-03
C:/temp/dataset/8/2_40.odb,Step-1,Increment      1: Step Time =    1.000,"PART-1-1",           891,      -9.54555,       23.1667,            0.,NA,NA,"",       12.5918,      -12.2613,      -2.86602,   15.8903E-03
C:/temp/dataset/8/2_40.odb,Step-1,Increment      1: Step Time =    1.000,"PART-1-1",           892,      -7.32935,       22.8876,            0.,NA,NA,"",       12.5017,      -12.2753,      -2.36809,   19.9289E-03
C:/temp/dataset/8/2_40.odb,Step-1,Increment      1: Step Time =    1.000,"PART-1-1",           893,      -10.1333,       27.3168,            0.,NA,NA,"",       13.4284,      -13.0698,      -3.08271,   16.6846E-03
C:/temp/dataset/8/2_40.odb,Step-1,Increment      1: Step Time =    1.000,"PART-1-1",           894,      -10.9914,       25.8301,            0.,NA,NA,"",       13.1635,      -12.7577,      -3.24331,   17.3193E-03
C:/temp/dataset/8/2_40.odb,Step-1,Increment      1: Step Time =    1.000,"PART-1-1",           895,      -11.4574,      -26.3004,            0.,NA,NA,"",   278.756E-03,  -132.831E-03,  -245.073E-03,   79.6201E-03
C:/temp/dataset/8/2_40.odb,Step-1,Increment      1: Step Time =    1.000,"PART-1-1",           896,       7.85383,      -9.49123,            0.,NA,NA,"",       3.89059,      -3.88971,   82.5836E-03,   60.0900E-03
C:/temp/dataset/8/2_40.odb,Step-1,Increment      1: Step Time =    1.000,"PART-1-1",           897,       8.45015,      -11.4354,            0.,NA,NA,"",       3.31884,      -3.31004,   241.479E-03,   55.7793E-03
C:/temp/dataset/8/2_40.odb,Step-1,Increment      1: Step Time =    1.000,"PART-1-1",           898,       10.2448,       13.2708,            0.,NA,NA,"",       10.7193,      -10.7172,   209.460E-03,   46.1538E-03
C:/temp/dataset/8/2_40.odb,Step-1,Increment      1: Step Time =    1.000,"PART-1-1",           899,       8.92711,       12.0857,            0.,NA,NA,"",       10.2656,      -10.2653,  -82.5886E-03,   51.7360E-03
C:/temp/dataset/8/2_40.odb,Step-1,Increment      1: Step Time =    1.000,"PART-1-1",           900,       8.28681,       9.62105,            0.,NA,NA,"",       9.37359,      -9.37242,  -147.933E-03,   60.1297E-03
C:/temp/dataset/8/2_40.odb,Step-1,Increment      1: Step Time =    1.000,"PART-1-1",           901,      -9.35950,      -26.6124,            0.,NA,NA,"",   138.091E-03,  -83.2747E-03,  -110.156E-03,   41.4792E-03
C:/temp/dataset/8/2_40.odb,Step-1,Increment      1: Step Time =    1.000,"PART-1-1",           902,      -7.15180,      -26.5840,            0.,NA,NA,"",   102.102E-03,  -98.6443E-03,  -26.3459E-03,   23.4441E-03
C:/temp/dataset/8/2_40.odb,Step-1,Increment      1: Step Time =    1.000,"PART-1-1",           903,      -8.09105,      -25.4802,            0.,NA,NA,"",   172.735E-03,  -155.761E-03,  -74.6721E-03,   24.1415E-03
C:/temp/dataset/8/2_40.odb,Step-1,Increment      1: Step Time =    1.000,"PART-1-1",           904,      -8.48034,      -5.93831,            0.,NA,NA,"",       5.17646,      -5.00427,      -1.32401,   60.7466E-03
C:/temp/dataset/8/2_40.odb,Step-1,Increment      1: Step Time =    1.000,"PART-1-1",           905,      -8.12524,       27.0841,            0.,NA,NA,"",       13.3222,      -13.0574,      -2.64291,   16.3207E-03
C:/temp/dataset/8/2_40.odb,Step-1,Increment      1: Step Time =    1.000,"PART-1-1",           906,      -9.25957,       26.3148,            0.,NA,NA,"",       13.2072,      -12.8920,      -2.86817,   17.2495E-03
C:/temp/dataset/8/2_40.odb,Step-1,Increment      1: Step Time =    1.000,"PART-1-1",           907,      -11.3398,       15.0079,            0.,NA,NA,"",       10.5346,      -10.0871,      -3.03796,   26.4708E-03
C:/temp/dataset/8/2_40.odb,Step-1,Increment      1: Step Time =    1.000,"PART-1-1",           908,      -8.76249,       3.14397,            0.,NA,NA,"",       7.13329,      -6.90431,      -1.79286,   35.8717E-03
C:/temp/dataset/8/2_40.odb,Step-1,Increment      1: Step Time =    1.000,"PART-1-1",           909,      -10.2702,  -493.365E-03,            0.,NA,NA,"",       6.50640,      -6.19644,      -1.98428,   37.1477E-03
C:/temp/dataset/8/2_40.odb,Step-1,Increment      1: Step Time =    1.000,"PART-1-1",           910,      -8.74014,  -974.485E-03,            0.,NA,NA,"",       6.34239,      -6.13411,      -1.61203,   35.4107E-03
C:/temp/dataset/8/2_40.odb,Step-1,Increment      1: Step Time =    1.000,"PART-1-1",           911,      -10.8036,      -21.5085,            0.,NA,NA,"",   789.630E-03,  -592.974E-03,  -521.439E-03,   71.5186E-03
C:/temp/dataset/8/2_40.odb,Step-1,Increment      1: Step Time =    1.000,"PART-1-1",           912,       8.88912,       14.7527,            0.,NA,NA,"",       11.0881,      -11.0871,  -150.296E-03,   40.4433E-03
C:/temp/dataset/8/2_40.odb,Step-1,Increment      1: Step Time =    1.000,"PART-1-1",           913,       8.78021,      -14.9514,            0.,NA,NA,"",       2.29154,      -2.26448,   351.125E-03,   55.0040E-03
C:/temp/dataset/8/2_40.odb,Step-1,Increment      1: Step Time =    1.000,"PART-1-1",           914,       9.08736,      -12.4831,            0.,NA,NA,"",       3.04268,      -3.01616,   400.807E-03,   58.5438E-03
C:/temp/dataset/8/2_40.odb,Step-1,Increment      1: Step Time =    1.000,"PART-1-1",           915,      -6.58441,       1.63370,            0.,NA,NA,"",       6.73683,      -6.61388,      -1.28123,   20.3669E-03
C:/temp/dataset/8/2_40.odb,Step-1,Increment      1: Step Time =    1.000,"PART-1-1",           916,      -11.0528,       22.2884,            0.,NA,NA,"",       12.4364,      -12.0186,      -3.19626,   14.6191E-03
C:/temp/dataset/8/2_40.odb,Step-1,Increment      1: Step Time =    1.000,"PART-1-1",           917,      -10.5845,       24.6750,            0.,NA,NA,"",       12.9226,      -12.5378,      -3.13041,   17.6381E-03
C:/temp/dataset/8/2_40.odb,Step-1,Increment      1: Step Time =    1.000,"PART-1-1",           918,       7.32741,       26.0095,            0.,NA,NA,"",       13.0786,      -13.0738,  -354.930E-03,   18.5968E-03
C:/temp/dataset/8/2_40.odb,Step-1,Increment      1: Step Time =    1.000,"PART-1-1",           919,       11.0547,      -20.1270,            0.,NA,NA,"",       1.23583,      -1.05322,   646.535E-03,   88.0520E-03
C:/temp/dataset/8/2_40.odb,Step-1,Increment      1: Step Time =    1.000,"PART-1-1",           920,       11.5724,       23.1751,            0.,NA,NA,"",       12.7848,      -12.7804,   338.094E-03,   25.7225E-03
C:/temp/dataset/8/2_40.odb,Step-1,Increment      1: Step Time =    1.000,"PART-1-1",           921,       11.7392,       25.4428,            0.,NA,NA,"",       13.0913,      -13.0869,   338.265E-03,   15.9061E-03
C:/temp/dataset/8/2_40.odb,Step-1,Increment      1: Step Time =    1.000,"PART-1-1",           922,       10.5115,       26.6462,            0.,NA,NA,"",       13.2324,      -13.2318,   132.529E-03,   15.1439E-03
C:/temp/dataset/8/2_40.odb,Step-1,Increment      1: Step Time =    1.000,"PART-1-1",           923,       8.41385,       26.4284,            0.,NA,NA,"",       13.1601,      -13.1587,  -192.586E-03,   15.9998E-03
C:/temp/dataset/8/2_40.odb,Step-1,Increment      1: Step Time =    1.000,"PART-1-1",           924,       9.30707,      -2.42527,            0.,NA,NA,"",       5.92812,      -5.91796,   346.866E-03,   26.6854E-03
C:/temp/dataset/8/2_40.odb,Step-1,Increment      1: Step Time =    1.000,"PART-1-1",           925,       9.63410,  -928.992E-03,            0.,NA,NA,"",       6.27660,      -6.26265,   418.357E-03,   31.6528E-03
C:/temp/dataset/8/2_40.odb,Step-1,Increment      1: Step Time =    1.000,"PART-1-1",           926,       5.61561,  -459.456E-03,            0.,NA,NA,"",       6.25732,      -6.24327,  -419.146E-03,   27.7750E-03
C:/temp/dataset/8/2_40.odb,Step-1,Increment      1: Step Time =    1.000,"PART-1-1",           927,      -8.35034,   879.442E-03,            0.,NA,NA,"",       6.67096,      -6.47580,      -1.60179,   34.2272E-03
C:/temp/dataset/8/2_40.odb,Step-1,Increment      1: Step Time =    1.000,"PART-1-1",           928,      -7.85399,       2.30522,            0.,NA,NA,"",       6.91453,      -6.73765,      -1.55396,   30.4786E-03
C:/temp/dataset/8/2_40.odb,Step-1,Increment      1: Step Time =    1.000,"PART-1-1",           929,      -6.36888,       23.7008,            0.,NA,NA,"",       12.6447,      -12.4528,      -2.19469,   16.4457E-03
C:/temp/dataset/8/2_40.odb,Step-1,Increment      1: Step Time =    1.000,"PART-1-1",           930,       7.80593,       24.5017,            0.,NA,NA,"",       12.8771,      -12.8738,  -290.953E-03,   23.8388E-03
