ODB Name,Step,Frame,Part Instance Name,    êﬂì_ÉâÉxÉã,X,Y,Z,Section Name,Material Name,Section Point,   U-Magnitude,          U-U1,          U-U2,       S-Mises
C:/temp/dataset/8/5_24.odb,Step-1,Increment      1: Step Time =    1.000,"PART-1-1",             1,            5.,           -5.,            0.,NA,NA,"",       1.20285,      -1.19822,   105.462E-03,   14.1565E-03
C:/temp/dataset/8/5_24.odb,Step-1,Increment      1: Step Time =    1.000,"PART-1-1",             2,            0.,           -5.,            0.,NA,NA,"",       1.15291,      -1.14911,   93.5052E-03,   11.4905E-03
C:/temp/dataset/8/5_24.odb,Step-1,Increment      1: Step Time =    1.000,"PART-1-1",             3,            5.,         -12.5,            0.,NA,NA,"",       1.03475,      -1.03289,  -61.9105E-03,   29.0029E-03
C:/temp/dataset/8/5_24.odb,Step-1,Increment      1: Step Time =    1.000,"PART-1-1",             4,            5.,          -20.,            0.,NA,NA,"",   381.596E-03,  -368.285E-03,  -99.9096E-03,   76.9006E-03
C:/temp/dataset/8/5_24.odb,Step-1,Increment      1: Step Time =    1.000,"PART-1-1",             5,            0.,          -20.,            0.,NA,NA,"",   211.778E-03,  -211.774E-03,   1.41981E-03,   11.1911E-03
C:/temp/dataset/8/5_24.odb,Step-1,Increment      1: Step Time =    1.000,"PART-1-1",             6,           -5.,          -20.,            0.,NA,NA,"",   230.240E-03,  -220.263E-03,   67.0403E-03,   32.2013E-03
C:/temp/dataset/8/5_24.odb,Step-1,Increment      1: Step Time =    1.000,"PART-1-1",             7,           -5.,           -5.,            0.,NA,NA,"",       1.07198,      -1.06954,   72.1900E-03,   32.9497E-03
C:/temp/dataset/8/5_24.odb,Step-1,Increment      1: Step Time =    1.000,"PART-1-1",             8,            5.,           20.,            0.,NA,NA,"",       1.55254,      -1.54878,   108.032E-03,   2.78210E-03
C:/temp/dataset/8/5_24.odb,Step-1,Increment      1: Step Time =    1.000,"PART-1-1",             9,            0.,           20.,            0.,NA,NA,"",       1.55897,      -1.55858,   35.0021E-03,   1.69011E-03
C:/temp/dataset/8/5_24.odb,Step-1,Increment      1: Step Time =    1.000,"PART-1-1",            10,            5.,          12.5,            0.,NA,NA,"",       1.41425,      -1.40975,   112.681E-03,   1.67798E-03
C:/temp/dataset/8/5_24.odb,Step-1,Increment      1: Step Time =    1.000,"PART-1-1",            11,            5.,            5.,            0.,NA,NA,"",       1.29024,      -1.28310,   135.577E-03,   7.45679E-03
C:/temp/dataset/8/5_24.odb,Step-1,Increment      1: Step Time =    1.000,"PART-1-1",            12,            0.,            5.,            0.,NA,NA,"",       1.28495,      -1.28038,   108.261E-03,   3.95489E-03
C:/temp/dataset/8/5_24.odb,Step-1,Increment      1: Step Time =    1.000,"PART-1-1",            13,           -5.,            5.,            0.,NA,NA,"",       1.30932,      -1.30912,   22.7013E-03,   6.92794E-03
C:/temp/dataset/8/5_24.odb,Step-1,Increment      1: Step Time =    1.000,"PART-1-1",            14,           -5.,           20.,            0.,NA,NA,"",       1.56640,      -1.56604,  -33.6941E-03,   1.71307E-03
C:/temp/dataset/8/5_24.odb,Step-1,Increment      1: Step Time =    1.000,"PART-1-1",            15,           15.,           30.,            0.,NA,NA,"",       1.73682,      -1.71503,   274.309E-03,   18.4479E-06
C:/temp/dataset/8/5_24.odb,Step-1,Increment      1: Step Time =    1.000,"PART-1-1",            16,            0.,           30.,            0.,NA,NA,"",       1.70672,      -1.70642,   31.9610E-03,   633.192E-06
C:/temp/dataset/8/5_24.odb,Step-1,Increment      1: Step Time =    1.000,"PART-1-1",            17,          -15.,           30.,            0.,NA,NA,"",       1.71248,      -1.70342,  -175.941E-03,   9.13731E-06
C:/temp/dataset/8/5_24.odb,Step-1,Increment      1: Step Time =    1.000,"PART-1-1",            18,          -15.,          -30.,            0.,NA,NA,"",            0.,  -12.3544E-39,  -21.5877E-39,   41.2226E-03
C:/temp/dataset/8/5_24.odb,Step-1,Increment      1: Step Time =    1.000,"PART-1-1",            19,           15.,          -30.,            0.,NA,NA,"",            0.,  -22.3495E-39,   38.2949E-39,   71.9330E-03
C:/temp/dataset/8/5_24.odb,Step-1,Increment      1: Step Time =    1.000,"PART-1-1",            20,           15.,      -20.1000,            0.,NA,NA,"",   694.923E-03,  -589.365E-03,   368.193E-03,   26.8386E-03
C:/temp/dataset/8/5_24.odb,Step-1,Increment      1: Step Time =    1.000,"PART-1-1",            21,           15.,      -10.0500,            0.,NA,NA,"",       1.22875,      -1.19418,   289.398E-03,   20.8334E-03
C:/temp/dataset/8/5_24.odb,Step-1,Increment      1: Step Time =    1.000,"PART-1-1",            22,           15.,            0.,            0.,NA,NA,"",       1.27448,      -1.25199,   238.390E-03,   1.39822E-03
C:/temp/dataset/8/5_24.odb,Step-1,Increment      1: Step Time =    1.000,"PART-1-1",            23,           15.,       9.90000,            0.,NA,NA,"",       1.39436,      -1.36840,   267.801E-03,   2.97118E-03
C:/temp/dataset/8/5_24.odb,Step-1,Increment      1: Step Time =    1.000,"PART-1-1",            24,           15.,       19.9500,            0.,NA,NA,"",       1.56895,      -1.54417,   277.762E-03,   125.868E-06
C:/temp/dataset/8/5_24.odb,Step-1,Increment      1: Step Time =    1.000,"PART-1-1",            25,           2.5,           -5.,            0.,NA,NA,"",       1.17856,      -1.17358,   108.211E-03,   10.3912E-03
C:/temp/dataset/8/5_24.odb,Step-1,Increment      1: Step Time =    1.000,"PART-1-1",            26,            5.,          -10.,            0.,NA,NA,"",       1.12853,      -1.12853,   2.70519E-03,   28.0702E-03
C:/temp/dataset/8/5_24.odb,Step-1,Increment      1: Step Time =    1.000,"PART-1-1",            27,            5.,          -7.5,            0.,NA,NA,"",       1.18250,      -1.18105,   58.5671E-03,   22.8469E-03
C:/temp/dataset/8/5_24.odb,Step-1,Increment      1: Step Time =    1.000,"PART-1-1",            28,            5.,         -17.5,            0.,NA,NA,"",   692.392E-03,  -674.365E-03,  -156.967E-03,   16.0434E-03
C:/temp/dataset/8/5_24.odb,Step-1,Increment      1: Step Time =    1.000,"PART-1-1",            29,            5.,          -15.,            0.,NA,NA,"",   892.101E-03,  -883.889E-03,  -120.767E-03,   24.8728E-03
C:/temp/dataset/8/5_24.odb,Step-1,Increment      1: Step Time =    1.000,"PART-1-1",            30,           2.5,          -20.,            0.,NA,NA,"",   250.208E-03,  -248.360E-03,  -30.3466E-03,   33.3689E-03
C:/temp/dataset/8/5_24.odb,Step-1,Increment      1: Step Time =    1.000,"PART-1-1",            31,          -2.5,          -20.,            0.,NA,NA,"",   196.822E-03,  -195.153E-03,   25.5825E-03,   4.89381E-03
C:/temp/dataset/8/5_24.odb,Step-1,Increment      1: Step Time =    1.000,"PART-1-1",            32,           -5.,          -7.5,            0.,NA,NA,"",   915.740E-03,  -907.224E-03,   124.596E-03,   13.0165E-03
C:/temp/dataset/8/5_24.odb,Step-1,Increment      1: Step Time =    1.000,"PART-1-1",            33,           -5.,          -10.,            0.,NA,NA,"",   777.022E-03,  -763.866E-03,   142.380E-03,   3.80606E-03
C:/temp/dataset/8/5_24.odb,Step-1,Increment      1: Step Time =    1.000,"PART-1-1",            34,           -5.,         -12.5,            0.,NA,NA,"",   640.530E-03,  -622.841E-03,   149.491E-03,   1.51722E-03
C:/temp/dataset/8/5_24.odb,Step-1,Increment      1: Step Time =    1.000,"PART-1-1",            35,           -5.,          -15.,            0.,NA,NA,"",   505.684E-03,  -484.994E-03,   143.168E-03,   7.12791E-03
C:/temp/dataset/8/5_24.odb,Step-1,Increment      1: Step Time =    1.000,"PART-1-1",            36,           -5.,         -17.5,            0.,NA,NA,"",   373.752E-03,  -352.377E-03,   124.586E-03,   17.5876E-03
C:/temp/dataset/8/5_24.odb,Step-1,Increment      1: Step Time =    1.000,"PART-1-1",            37,          -2.5,           -5.,            0.,NA,NA,"",       1.12399,      -1.12139,   76.4286E-03,   18.7758E-03
C:/temp/dataset/8/5_24.odb,Step-1,Increment      1: Step Time =    1.000,"PART-1-1",            38,           2.5,           20.,            0.,NA,NA,"",       1.55658,      -1.55494,   71.4002E-03,   2.14845E-03
C:/temp/dataset/8/5_24.odb,Step-1,Increment      1: Step Time =    1.000,"PART-1-1",            39,            5.,           15.,            0.,NA,NA,"",       1.45794,      -1.45384,   109.312E-03,   1.04338E-03
C:/temp/dataset/8/5_24.odb,Step-1,Increment      1: Step Time =    1.000,"PART-1-1",            40,            5.,          17.5,            0.,NA,NA,"",       1.50351,      -1.49968,   107.282E-03,   496.558E-06
C:/temp/dataset/8/5_24.odb,Step-1,Increment      1: Step Time =    1.000,"PART-1-1",            41,            5.,           7.5,            0.,NA,NA,"",       1.33246,      -1.32675,   123.257E-03,   3.63022E-03
C:/temp/dataset/8/5_24.odb,Step-1,Increment      1: Step Time =    1.000,"PART-1-1",            42,            5.,           10.,            0.,NA,NA,"",       1.37264,      -1.36760,   117.537E-03,   2.24093E-03
C:/temp/dataset/8/5_24.odb,Step-1,Increment      1: Step Time =    1.000,"PART-1-1",            43,           2.5,            5.,            0.,NA,NA,"",       1.28179,      -1.27552,   126.554E-03,   1.22985E-03
C:/temp/dataset/8/5_24.odb,Step-1,Increment      1: Step Time =    1.000,"PART-1-1",            44,          -2.5,            5.,            0.,NA,NA,"",       1.29458,      -1.29229,   76.9044E-03,   6.68671E-03
C:/temp/dataset/8/5_24.odb,Step-1,Increment      1: Step Time =    1.000,"PART-1-1",            45,           -5.,          17.5,            0.,NA,NA,"",       1.53422,      -1.53395,  -28.9287E-03,   2.25415E-03
C:/temp/dataset/8/5_24.odb,Step-1,Increment      1: Step Time =    1.000,"PART-1-1",            46,           -5.,           15.,            0.,NA,NA,"",       1.49830,      -1.49812,  -22.8410E-03,   2.96330E-03
C:/temp/dataset/8/5_24.odb,Step-1,Increment      1: Step Time =    1.000,"PART-1-1",            47,           -5.,          12.5,            0.,NA,NA,"",       1.45916,      -1.45908,  -15.0378E-03,   3.72444E-03
C:/temp/dataset/8/5_24.odb,Step-1,Increment      1: Step Time =    1.000,"PART-1-1",            48,           -5.,           10.,            0.,NA,NA,"",       1.41599,      -1.41598,  -5.28585E-03,   4.58955E-03
C:/temp/dataset/8/5_24.odb,Step-1,Increment      1: Step Time =    1.000,"PART-1-1",            49,           -5.,           7.5,            0.,NA,NA,"",       1.36765,      -1.36764,   6.45014E-03,   5.54121E-03
C:/temp/dataset/8/5_24.odb,Step-1,Increment      1: Step Time =    1.000,"PART-1-1",            50,          -2.5,           20.,            0.,NA,NA,"",       1.56203,      -1.56203,  -428.587E-06,   1.62007E-03
C:/temp/dataset/8/5_24.odb,Step-1,Increment      1: Step Time =    1.000,"PART-1-1",            51,          12.5,           30.,            0.,NA,NA,"",       1.73029,      -1.71464,   232.207E-03,   81.4358E-06
C:/temp/dataset/8/5_24.odb,Step-1,Increment      1: Step Time =    1.000,"PART-1-1",            52,           10.,           30.,            0.,NA,NA,"",       1.72434,      -1.71384,   190.023E-03,   330.814E-06
C:/temp/dataset/8/5_24.odb,Step-1,Increment      1: Step Time =    1.000,"PART-1-1",            53,           7.5,           30.,            0.,NA,NA,"",       1.71882,      -1.71241,   148.368E-03,   604.038E-06
C:/temp/dataset/8/5_24.odb,Step-1,Increment      1: Step Time =    1.000,"PART-1-1",            54,            5.,           30.,            0.,NA,NA,"",       1.71387,      -1.71047,   107.897E-03,   786.807E-06
C:/temp/dataset/8/5_24.odb,Step-1,Increment      1: Step Time =    1.000,"PART-1-1",            55,           2.5,           30.,            0.,NA,NA,"",       1.70973,      -1.70833,   69.0714E-03,   795.071E-06
C:/temp/dataset/8/5_24.odb,Step-1,Increment      1: Step Time =    1.000,"PART-1-1",            56,          -2.5,           30.,            0.,NA,NA,"",       1.70503,      -1.70503,  -3.74983E-03,   372.989E-06
C:/temp/dataset/8/5_24.odb,Step-1,Increment      1: Step Time =    1.000,"PART-1-1",            57,           -5.,           30.,            0.,NA,NA,"",       1.70468,      -1.70424,  -38.5633E-03,   114.946E-06
C:/temp/dataset/8/5_24.odb,Step-1,Increment      1: Step Time =    1.000,"PART-1-1",            58,          -7.5,           30.,            0.,NA,NA,"",       1.70553,      -1.70396,  -73.0057E-03,   46.1129E-06
C:/temp/dataset/8/5_24.odb,Step-1,Increment      1: Step Time =    1.000,"PART-1-1",            59,          -10.,           30.,            0.,NA,NA,"",       1.70724,      -1.70386,  -107.407E-03,   50.3253E-06
C:/temp/dataset/8/5_24.odb,Step-1,Increment      1: Step Time =    1.000,"PART-1-1",            60,         -12.5,           30.,            0.,NA,NA,"",       1.70956,      -1.70367,  -141.749E-03,   8.29009E-06
C:/temp/dataset/8/5_24.odb,Step-1,Increment      1: Step Time =    1.000,"PART-1-1",            61,          -15.,          27.5,            0.,NA,NA,"",       1.67852,      -1.66930,  -175.698E-03,   10.6929E-06
C:/temp/dataset/8/5_24.odb,Step-1,Increment      1: Step Time =    1.000,"PART-1-1",            62,          -15.,           25.,            0.,NA,NA,"",       1.64481,      -1.63542,  -175.557E-03,   136.603E-06
C:/temp/dataset/8/5_24.odb,Step-1,Increment      1: Step Time =    1.000,"PART-1-1",            63,          -15.,          22.5,            0.,NA,NA,"",       1.61144,      -1.60181,  -175.861E-03,   452.978E-06
C:/temp/dataset/8/5_24.odb,Step-1,Increment      1: Step Time =    1.000,"PART-1-1",            64,          -15.,           20.,            0.,NA,NA,"",       1.57816,      -1.56818,  -177.189E-03,   1.01243E-03
C:/temp/dataset/8/5_24.odb,Step-1,Increment      1: Step Time =    1.000,"PART-1-1",            65,          -15.,          17.5,            0.,NA,NA,"",       1.54425,      -1.53372,  -180.015E-03,   1.75551E-03
C:/temp/dataset/8/5_24.odb,Step-1,Increment      1: Step Time =    1.000,"PART-1-1",            66,          -15.,           15.,            0.,NA,NA,"",       1.50867,      -1.49733,  -184.585E-03,   2.55332E-03
C:/temp/dataset/8/5_24.odb,Step-1,Increment      1: Step Time =    1.000,"PART-1-1",            67,          -15.,          12.5,            0.,NA,NA,"",       1.47039,      -1.45795,  -190.888E-03,   3.32175E-03
C:/temp/dataset/8/5_24.odb,Step-1,Increment      1: Step Time =    1.000,"PART-1-1",            68,          -15.,           10.,            0.,NA,NA,"",       1.42858,      -1.41468,  -198.794E-03,   4.02808E-03
C:/temp/dataset/8/5_24.odb,Step-1,Increment      1: Step Time =    1.000,"PART-1-1",            69,          -15.,           7.5,            0.,NA,NA,"",       1.38266,      -1.36689,  -208.205E-03,   4.77927E-03
C:/temp/dataset/8/5_24.odb,Step-1,Increment      1: Step Time =    1.000,"PART-1-1",            70,          -15.,            5.,            0.,NA,NA,"",       1.33237,      -1.31420,  -219.267E-03,   5.78088E-03
C:/temp/dataset/8/5_24.odb,Step-1,Increment      1: Step Time =    1.000,"PART-1-1",            71,          -15.,           2.5,            0.,NA,NA,"",       1.27730,      -1.25584,  -233.168E-03,   7.38445E-03
C:/temp/dataset/8/5_24.odb,Step-1,Increment      1: Step Time =    1.000,"PART-1-1",            72,          -15.,            0.,            0.,NA,NA,"",       1.21545,      -1.18920,  -251.238E-03,   9.63575E-03
C:/temp/dataset/8/5_24.odb,Step-1,Increment      1: Step Time =    1.000,"PART-1-1",            73,          -15.,          -2.5,            0.,NA,NA,"",       1.14228,      -1.10893,  -274.002E-03,   11.0961E-03
C:/temp/dataset/8/5_24.odb,Step-1,Increment      1: Step Time =    1.000,"PART-1-1",            74,          -15.,           -5.,            0.,NA,NA,"",       1.05311,      -1.01024,  -297.445E-03,   10.9512E-03
C:/temp/dataset/8/5_24.odb,Step-1,Increment      1: Step Time =    1.000,"PART-1-1",            75,          -15.,          -7.5,            0.,NA,NA,"",   945.759E-03,  -891.726E-03,  -315.095E-03,   6.96518E-03
C:/temp/dataset/8/5_24.odb,Step-1,Increment      1: Step Time =    1.000,"PART-1-1",            76,          -15.,          -10.,            0.,NA,NA,"",   824.756E-03,  -759.468E-03,  -321.606E-03,   1.40080E-03
C:/temp/dataset/8/5_24.odb,Step-1,Increment      1: Step Time =    1.000,"PART-1-1",            77,          -15.,         -12.5,            0.,NA,NA,"",   696.556E-03,  -621.963E-03,  -313.610E-03,   5.13057E-03
C:/temp/dataset/8/5_24.odb,Step-1,Increment      1: Step Time =    1.000,"PART-1-1",            78,          -15.,          -15.,            0.,NA,NA,"",   569.071E-03,  -488.703E-03,  -291.568E-03,   11.2813E-03
C:/temp/dataset/8/5_24.odb,Step-1,Increment      1: Step Time =    1.000,"PART-1-1",            79,          -15.,         -17.5,            0.,NA,NA,"",   449.015E-03,  -368.090E-03,  -257.145E-03,   16.3908E-03
C:/temp/dataset/8/5_24.odb,Step-1,Increment      1: Step Time =    1.000,"PART-1-1",            80,          -15.,          -20.,            0.,NA,NA,"",   341.824E-03,  -266.434E-03,  -214.142E-03,   19.3967E-03
C:/temp/dataset/8/5_24.odb,Step-1,Increment      1: Step Time =    1.000,"PART-1-1",            81,          -15.,         -22.5,            0.,NA,NA,"",   249.758E-03,  -185.269E-03,  -167.495E-03,   20.6312E-03
C:/temp/dataset/8/5_24.odb,Step-1,Increment      1: Step Time =    1.000,"PART-1-1",            82,          -15.,          -25.,            0.,NA,NA,"",   169.790E-03,  -119.828E-03,  -120.291E-03,   20.6255E-03
C:/temp/dataset/8/5_24.odb,Step-1,Increment      1: Step Time =    1.000,"PART-1-1",            83,          -15.,         -27.5,            0.,NA,NA,"",   94.6933E-03,  -64.0881E-03,  -69.7104E-03,   26.3788E-03
C:/temp/dataset/8/5_24.odb,Step-1,Increment      1: Step Time =    1.000,"PART-1-1",            84,         -12.5,          -30.,            0.,NA,NA,"",            0.,  -12.3357E-39,  -28.4545E-39,   13.4940E-03
C:/temp/dataset/8/5_24.odb,Step-1,Increment      1: Step Time =    1.000,"PART-1-1",            85,          -10.,          -30.,            0.,NA,NA,"",            0.,  -12.5470E-39,  -20.0480E-39,   9.97366E-03
C:/temp/dataset/8/5_24.odb,Step-1,Increment      1: Step Time =    1.000,"PART-1-1",            86,          -7.5,          -30.,            0.,NA,NA,"",            0.,  -10.8563E-39,   282.112E-42,   10.3523E-03
C:/temp/dataset/8/5_24.odb,Step-1,Increment      1: Step Time =    1.000,"PART-1-1",            87,           -5.,          -30.,            0.,NA,NA,"",            0.,  -18.4517E-39,  -11.8771E-39,   14.9075E-03
C:/temp/dataset/8/5_24.odb,Step-1,Increment      1: Step Time =    1.000,"PART-1-1",            88,          -2.5,          -30.,            0.,NA,NA,"",            0.,  -24.6659E-39,  -18.1044E-39,   19.2641E-03
C:/temp/dataset/8/5_24.odb,Step-1,Increment      1: Step Time =    1.000,"PART-1-1",            89,            0.,          -30.,            0.,NA,NA,"",            0.,  -21.3629E-39,   3.14663E-39,   21.5597E-03
C:/temp/dataset/8/5_24.odb,Step-1,Increment      1: Step Time =    1.000,"PART-1-1",            90,           2.5,          -30.,            0.,NA,NA,"",            0.,  -27.9043E-39,  -34.3733E-39,   20.5130E-03
C:/temp/dataset/8/5_24.odb,Step-1,Increment      1: Step Time =    1.000,"PART-1-1",            91,            5.,          -30.,            0.,NA,NA,"",            0.,  -17.1001E-39,  -7.99673E-39,   16.0735E-03
C:/temp/dataset/8/5_24.odb,Step-1,Increment      1: Step Time =    1.000,"PART-1-1",            92,           7.5,          -30.,            0.,NA,NA,"",            0.,  -10.9605E-39,  -8.77593E-39,   9.76794E-03
C:/temp/dataset/8/5_24.odb,Step-1,Increment      1: Step Time =    1.000,"PART-1-1",            93,           10.,          -30.,            0.,NA,NA,"",            0.,  -14.6149E-39,   27.0278E-39,   11.4349E-03
C:/temp/dataset/8/5_24.odb,Step-1,Increment      1: Step Time =    1.000,"PART-1-1",            94,          12.5,          -30.,            0.,NA,NA,"",            0.,  -18.3604E-39,   47.5895E-39,   22.0227E-03
C:/temp/dataset/8/5_24.odb,Step-1,Increment      1: Step Time =    1.000,"PART-1-1",            95,           15.,      -27.5250,            0.,NA,NA,"",   164.355E-03,  -108.674E-03,   123.299E-03,   50.4498E-03
C:/temp/dataset/8/5_24.odb,Step-1,Increment      1: Step Time =    1.000,"PART-1-1",            96,           15.,      -25.0500,            0.,NA,NA,"",   308.179E-03,  -218.161E-03,   217.670E-03,   41.4924E-03
C:/temp/dataset/8/5_24.odb,Step-1,Increment      1: Step Time =    1.000,"PART-1-1",            97,           15.,      -22.5750,            0.,NA,NA,"",   475.302E-03,  -367.535E-03,   301.381E-03,   37.7920E-03
C:/temp/dataset/8/5_24.odb,Step-1,Increment      1: Step Time =    1.000,"PART-1-1",            98,           15.,      -17.5875,            0.,NA,NA,"",   912.917E-03,  -828.530E-03,   383.349E-03,   23.7068E-03
C:/temp/dataset/8/5_24.odb,Step-1,Increment      1: Step Time =    1.000,"PART-1-1",            99,           15.,      -15.0750,            0.,NA,NA,"",       1.08111,      -1.01510,   371.987E-03,   22.3692E-03
C:/temp/dataset/8/5_24.odb,Step-1,Increment      1: Step Time =    1.000,"PART-1-1",           100,           15.,      -12.5625,            0.,NA,NA,"",       1.19713,      -1.14854,   337.578E-03,   28.6697E-03
C:/temp/dataset/8/5_24.odb,Step-1,Increment      1: Step Time =    1.000,"PART-1-1",           101,           15.,      -7.53750,            0.,NA,NA,"",       1.22938,      -1.20027,   265.946E-03,   11.2101E-03
C:/temp/dataset/8/5_24.odb,Step-1,Increment      1: Step Time =    1.000,"PART-1-1",           102,           15.,      -5.02500,            0.,NA,NA,"",       1.24450,      -1.21967,   247.343E-03,   6.41113E-03
C:/temp/dataset/8/5_24.odb,Step-1,Increment      1: Step Time =    1.000,"PART-1-1",           103,           15.,      -2.51250,            0.,NA,NA,"",       1.25844,      -1.23561,   238.664E-03,   1.80528E-03
C:/temp/dataset/8/5_24.odb,Step-1,Increment      1: Step Time =    1.000,"PART-1-1",           104,           15.,       2.47500,            0.,NA,NA,"",       1.29550,      -1.27230,   244.058E-03,   3.19112E-03
C:/temp/dataset/8/5_24.odb,Step-1,Increment      1: Step Time =    1.000,"PART-1-1",           105,           15.,       4.95000,            0.,NA,NA,"",       1.32278,      -1.29852,   252.179E-03,   3.96779E-03
C:/temp/dataset/8/5_24.odb,Step-1,Increment      1: Step Time =    1.000,"PART-1-1",           106,           15.,       7.42500,            0.,NA,NA,"",       1.35616,      -1.33089,   260.615E-03,   3.70383E-03
C:/temp/dataset/8/5_24.odb,Step-1,Increment      1: Step Time =    1.000,"PART-1-1",           107,           15.,       12.4125,            0.,NA,NA,"",       1.43639,      -1.41018,   273.167E-03,   2.08679E-03
C:/temp/dataset/8/5_24.odb,Step-1,Increment      1: Step Time =    1.000,"PART-1-1",           108,           15.,       14.9250,            0.,NA,NA,"",       1.48027,      -1.45422,   276.505E-03,   1.22529E-03
C:/temp/dataset/8/5_24.odb,Step-1,Increment      1: Step Time =    1.000,"PART-1-1",           109,           15.,       17.4375,            0.,NA,NA,"",       1.52483,      -1.49928,   277.944E-03,   442.284E-06
C:/temp/dataset/8/5_24.odb,Step-1,Increment      1: Step Time =    1.000,"PART-1-1",           110,           15.,       22.4625,            0.,NA,NA,"",       1.61200,      -1.58807,   276.685E-03,   386.745E-06
C:/temp/dataset/8/5_24.odb,Step-1,Increment      1: Step Time =    1.000,"PART-1-1",           111,           15.,       24.9750,            0.,NA,NA,"",       1.65392,      -1.63081,   275.483E-03,   299.204E-06
C:/temp/dataset/8/5_24.odb,Step-1,Increment      1: Step Time =    1.000,"PART-1-1",           112,           15.,       27.4875,            0.,NA,NA,"",       1.69530,      -1.67290,   274.697E-03,   83.5527E-06
C:/temp/dataset/8/5_24.odb,Step-1,Increment      1: Step Time =    1.000,"PART-1-1",           113,       13.1365,       7.82775,            0.,NA,NA,"",       1.35472,      -1.33406,   235.688E-03,   2.27905E-03
C:/temp/dataset/8/5_24.odb,Step-1,Increment      1: Step Time =    1.000,"PART-1-1",           114,       12.9206,      -22.7091,            0.,NA,NA,"",   369.798E-03,  -325.210E-03,   176.038E-03,   23.8022E-03
C:/temp/dataset/8/5_24.odb,Step-1,Increment      1: Step Time =    1.000,"PART-1-1",           115,       12.1826,      -25.1314,            0.,NA,NA,"",   196.983E-03,  -170.583E-03,   98.5082E-03,   25.2578E-03
C:/temp/dataset/8/5_24.odb,Step-1,Increment      1: Step Time =    1.000,"PART-1-1",           116,       12.6244,   112.324E-03,            0.,NA,NA,"",       1.26977,      -1.25123,   216.162E-03,   3.43584E-03
C:/temp/dataset/8/5_24.odb,Step-1,Increment      1: Step Time =    1.000,"PART-1-1",           117,       12.7971,       5.51469,            0.,NA,NA,"",       1.32173,      -1.30212,   226.855E-03,   2.17204E-03
C:/temp/dataset/8/5_24.odb,Step-1,Increment      1: Step Time =    1.000,"PART-1-1",           118,       12.0259,       2.90661,            0.,NA,NA,"",       1.29024,      -1.27252,   213.084E-03,   2.39903E-03
C:/temp/dataset/8/5_24.odb,Step-1,Increment      1: Step Time =    1.000,"PART-1-1",           119,       6.98518,      -9.77271,            0.,NA,NA,"",       1.15703,      -1.15513,   66.2957E-03,   16.3407E-03
C:/temp/dataset/8/5_24.odb,Step-1,Increment      1: Step Time =    1.000,"PART-1-1",           120,       7.90645,      -27.9165,            0.,NA,NA,"",   44.8417E-03,  -44.7959E-03,  -2.02672E-03,   14.3467E-03
C:/temp/dataset/8/5_24.odb,Step-1,Increment      1: Step Time =    1.000,"PART-1-1",           121,      -2.48144,      -27.6485,            0.,NA,NA,"",   66.2958E-03,  -66.2930E-03,  -612.436E-06,   19.6059E-03
C:/temp/dataset/8/5_24.odb,Step-1,Increment      1: Step Time =    1.000,"PART-1-1",           122,      -12.5133,      -12.5664,            0.,NA,NA,"",   645.106E-03,  -616.253E-03,  -190.774E-03,   9.42671E-03
C:/temp/dataset/8/5_24.odb,Step-1,Increment      1: Step Time =    1.000,"PART-1-1",           123,      -12.5789,       17.4824,            0.,NA,NA,"",       1.54193,      -1.53517,  -144.283E-03,   1.36368E-03
C:/temp/dataset/8/5_24.odb,Step-1,Increment      1: Step Time =    1.000,"PART-1-1",           124,      -2.62827,      -2.48556,            0.,NA,NA,"",       1.15904,      -1.15605,   83.1987E-03,   13.0531E-03
C:/temp/dataset/8/5_24.odb,Step-1,Increment      1: Step Time =    1.000,"PART-1-1",           125,      -2.40341,       2.52844,            0.,NA,NA,"",       1.25249,      -1.24972,   83.3774E-03,   2.45750E-03
C:/temp/dataset/8/5_24.odb,Step-1,Increment      1: Step Time =    1.000,"PART-1-1",           126,       2.45915,      -2.56896,            0.,NA,NA,"",       1.19593,      -1.19011,   117.864E-03,   7.22875E-03
C:/temp/dataset/8/5_24.odb,Step-1,Increment      1: Step Time =    1.000,"PART-1-1",           127,       2.65554,       2.44196,            0.,NA,NA,"",       1.25735,      -1.25088,   127.391E-03,   6.22515E-03
C:/temp/dataset/8/5_24.odb,Step-1,Increment      1: Step Time =    1.000,"PART-1-1",           128,       2.47444,       22.5736,            0.,NA,NA,"",       1.59566,      -1.59416,   69.3306E-03,   1.27784E-03
C:/temp/dataset/8/5_24.odb,Step-1,Increment      1: Step Time =    1.000,"PART-1-1",           129,   16.3473E-03,       27.5162,            0.,NA,NA,"",       1.67012,      -1.66982,   32.0659E-03,   300.611E-06
C:/temp/dataset/8/5_24.odb,Step-1,Increment      1: Step Time =    1.000,"PART-1-1",           130,      -2.67853,       22.8897,            0.,NA,NA,"",       1.60273,      -1.60272,  -4.78529E-03,   865.345E-06
C:/temp/dataset/8/5_24.odb,Step-1,Increment      1: Step Time =    1.000,"PART-1-1",           131,      -12.4925,       19.9647,            0.,NA,NA,"",       1.57516,      -1.56877,  -141.721E-03,   1.02945E-03
C:/temp/dataset/8/5_24.odb,Step-1,Increment      1: Step Time =    1.000,"PART-1-1",           132,      -7.56076,       17.4403,            0.,NA,NA,"",       1.53626,      -1.53484,  -66.0897E-03,   1.51795E-03
C:/temp/dataset/8/5_24.odb,Step-1,Increment      1: Step Time =    1.000,"PART-1-1",           133,       7.61200,       17.3671,            0.,NA,NA,"",       1.50482,      -1.49698,   153.372E-03,   1.44396E-03
C:/temp/dataset/8/5_24.odb,Step-1,Increment      1: Step Time =    1.000,"PART-1-1",           134,      -9.59813,      -27.6832,            0.,NA,NA,"",   37.3922E-03,  -36.2398E-03,  -9.21162E-03,   10.9864E-03
C:/temp/dataset/8/5_24.odb,Step-1,Increment      1: Step Time =    1.000,"PART-1-1",           135,       4.78979,      -2.62807,            0.,NA,NA,"",       1.21015,      -1.20371,   124.668E-03,   8.83761E-03
C:/temp/dataset/8/5_24.odb,Step-1,Increment      1: Step Time =    1.000,"PART-1-1",           136,       7.77864,      -12.2173,            0.,NA,NA,"",       1.07887,      -1.07697,   64.0540E-03,   13.7021E-03
C:/temp/dataset/8/5_24.odb,Step-1,Increment      1: Step Time =    1.000,"PART-1-1",           137,       7.25860,      -19.5166,            0.,NA,NA,"",   490.287E-03,  -490.276E-03,  -3.36693E-03,   48.8655E-03
C:/temp/dataset/8/5_24.odb,Step-1,Increment      1: Step Time =    1.000,"PART-1-1",           138,      -4.85223,      -22.6747,            0.,NA,NA,"",   172.610E-03,  -169.300E-03,   33.6404E-03,   18.7212E-03
C:/temp/dataset/8/5_24.odb,Step-1,Increment      1: Step Time =    1.000,"PART-1-1",           139,      -12.1899,      -27.1304,            0.,NA,NA,"",   62.0621E-03,  -51.7254E-03,  -34.2955E-03,   16.6830E-03
C:/temp/dataset/8/5_24.odb,Step-1,Increment      1: Step Time =    1.000,"PART-1-1",           140,      -12.5022,       10.0467,            0.,NA,NA,"",       1.42745,      -1.41935,  -151.831E-03,   2.25435E-03
C:/temp/dataset/8/5_24.odb,Step-1,Increment      1: Step Time =    1.000,"PART-1-1",           141,      -12.8398,       4.62624,            0.,NA,NA,"",       1.32193,      -1.31087,  -170.633E-03,   3.63130E-03
C:/temp/dataset/8/5_24.odb,Step-1,Increment      1: Step Time =    1.000,"PART-1-1",           142,      -12.8490,  -38.7177E-03,            0.,NA,NA,"",       1.21055,      -1.19609,  -186.537E-03,   5.64276E-03
C:/temp/dataset/8/5_24.odb,Step-1,Increment      1: Step Time =    1.000,"PART-1-1",           143,      -13.3237,      -5.02762,            0.,NA,NA,"",       1.04192,      -1.01671,  -227.821E-03,   6.53108E-03
C:/temp/dataset/8/5_24.odb,Step-1,Increment      1: Step Time =    1.000,"PART-1-1",           144,      -7.45280,      -10.1617,            0.,NA,NA,"",   755.342E-03,  -755.135E-03,   17.6413E-03,   9.26910E-03
C:/temp/dataset/8/5_24.odb,Step-1,Increment      1: Step Time =    1.000,"PART-1-1",           145,  -24.6675E-03,      -2.52386,            0.,NA,NA,"",       1.17761,      -1.17300,   104.093E-03,   9.99407E-03
C:/temp/dataset/8/5_24.odb,Step-1,Increment      1: Step Time =    1.000,"PART-1-1",           146,       4.79423,       22.5397,            0.,NA,NA,"",       1.59535,      -1.59191,   104.739E-03,   726.103E-06
C:/temp/dataset/8/5_24.odb,Step-1,Increment      1: Step Time =    1.000,"PART-1-1",           147,       7.23210,       9.87276,            0.,NA,NA,"",       1.37257,      -1.36401,   153.087E-03,   1.76041E-03
C:/temp/dataset/8/5_24.odb,Step-1,Increment      1: Step Time =    1.000,"PART-1-1",           148,       7.03782,       7.56931,            0.,NA,NA,"",       1.33567,      -1.32683,   153.357E-03,   2.88345E-03
C:/temp/dataset/8/5_24.odb,Step-1,Increment      1: Step Time =    1.000,"PART-1-1",           149,   58.7546E-03,       2.48470,            0.,NA,NA,"",       1.25384,      -1.24893,   110.870E-03,   4.68378E-03
C:/temp/dataset/8/5_24.odb,Step-1,Increment      1: Step Time =    1.000,"PART-1-1",           150,      -4.69679,       2.58686,            0.,NA,NA,"",       1.25528,      -1.25464,   40.2025E-03,   4.53936E-03
C:/temp/dataset/8/5_24.odb,Step-1,Increment      1: Step Time =    1.000,"PART-1-1",           151,      -12.4528,       27.7132,            0.,NA,NA,"",       1.67835,      -1.67243,  -140.884E-03,   79.1729E-06
C:/temp/dataset/8/5_24.odb,Step-1,Increment      1: Step Time =    1.000,"PART-1-1",           152,      -11.8772,       25.1339,            0.,NA,NA,"",       1.64291,      -1.63754,  -132.690E-03,   325.195E-06
C:/temp/dataset/8/5_24.odb,Step-1,Increment      1: Step Time =    1.000,"PART-1-1",           153,      -12.3064,       22.4596,            0.,NA,NA,"",       1.60784,      -1.60186,  -138.594E-03,   665.953E-06
C:/temp/dataset/8/5_24.odb,Step-1,Increment      1: Step Time =    1.000,"PART-1-1",           154,      -7.54035,       19.8016,            0.,NA,NA,"",       1.56731,      -1.56583,  -68.1594E-03,   1.64890E-03
C:/temp/dataset/8/5_24.odb,Step-1,Increment      1: Step Time =    1.000,"PART-1-1",           155,   42.2180E-03,       22.5936,            0.,NA,NA,"",       1.59671,      -1.59635,   33.7504E-03,   1.14304E-03
C:/temp/dataset/8/5_24.odb,Step-1,Increment      1: Step Time =    1.000,"PART-1-1",           156,       10.3286,       27.6906,            0.,NA,NA,"",       1.68694,      -1.67555,   195.670E-03,   316.863E-06
C:/temp/dataset/8/5_24.odb,Step-1,Increment      1: Step Time =    1.000,"PART-1-1",           157,       7.73802,       27.2328,            0.,NA,NA,"",       1.67436,      -1.66743,   152.209E-03,   317.579E-06
C:/temp/dataset/8/5_24.odb,Step-1,Increment      1: Step Time =    1.000,"PART-1-1",           158,       4.99833,       27.5198,            0.,NA,NA,"",       1.67469,      -1.67123,   107.593E-03,   254.435E-06
C:/temp/dataset/8/5_24.odb,Step-1,Increment      1: Step Time =    1.000,"PART-1-1",           159,       2.50368,       27.5752,            0.,NA,NA,"",       1.67272,      -1.67130,   68.8647E-03,   234.718E-06
C:/temp/dataset/8/5_24.odb,Step-1,Increment      1: Step Time =    1.000,"PART-1-1",           160,      -2.79867,       27.0761,            0.,NA,NA,"",       1.66314,      -1.66313,  -7.78587E-03,   383.523E-06
C:/temp/dataset/8/5_24.odb,Step-1,Increment      1: Step Time =    1.000,"PART-1-1",           161,      -5.48457,       27.7642,            0.,NA,NA,"",       1.67358,      -1.67297,  -44.9936E-03,   265.824E-06
C:/temp/dataset/8/5_24.odb,Step-1,Increment      1: Step Time =    1.000,"PART-1-1",           162,      -7.83691,       28.0652,            0.,NA,NA,"",       1.67903,      -1.67725,  -77.3638E-03,   153.692E-06
C:/temp/dataset/8/5_24.odb,Step-1,Increment      1: Step Time =    1.000,"PART-1-1",           163,      -7.54955,       15.0035,            0.,NA,NA,"",       1.50171,      -1.50039,  -62.9004E-03,   1.80162E-03
C:/temp/dataset/8/5_24.odb,Step-1,Increment      1: Step Time =    1.000,"PART-1-1",           164,      -12.5932,       15.0060,            0.,NA,NA,"",       1.50696,      -1.49981,  -146.678E-03,   1.66633E-03
C:/temp/dataset/8/5_24.odb,Step-1,Increment      1: Step Time =    1.000,"PART-1-1",           165,      -7.55247,       12.5555,            0.,NA,NA,"",       1.46396,      -1.46277,  -59.0499E-03,   2.13847E-03
C:/temp/dataset/8/5_24.odb,Step-1,Increment      1: Step Time =    1.000,"PART-1-1",           166,      -12.5729,       12.5419,            0.,NA,NA,"",       1.46933,      -1.46172,  -149.339E-03,   1.96389E-03
C:/temp/dataset/8/5_24.odb,Step-1,Increment      1: Step Time =    1.000,"PART-1-1",           167,      -7.58565,       10.0709,            0.,NA,NA,"",       1.42176,      -1.42071,  -54.8394E-03,   2.44317E-03
C:/temp/dataset/8/5_24.odb,Step-1,Increment      1: Step Time =    1.000,"PART-1-1",           168,      -7.87743,       7.29005,            0.,NA,NA,"",       1.36896,      -1.36785,  -55.1170E-03,   2.30537E-03
C:/temp/dataset/8/5_24.odb,Step-1,Increment      1: Step Time =    1.000,"PART-1-1",           169,      -12.0798,       7.21824,            0.,NA,NA,"",       1.37420,      -1.36624,  -147.766E-03,   2.35111E-03
C:/temp/dataset/8/5_24.odb,Step-1,Increment      1: Step Time =    1.000,"PART-1-1",           170,      -13.1404,       2.31216,            0.,NA,NA,"",       1.27047,      -1.25682,  -185.745E-03,   5.01018E-03
C:/temp/dataset/8/5_24.odb,Step-1,Increment      1: Step Time =    1.000,"PART-1-1",           171,      -12.2753,      -2.89865,            0.,NA,NA,"",       1.12093,      -1.10658,  -178.805E-03,   4.93330E-03
C:/temp/dataset/8/5_24.odb,Step-1,Increment      1: Step Time =    1.000,"PART-1-1",           172,      -7.56646,      -5.67272,            0.,NA,NA,"",       1.00976,      -1.00971,  -9.90385E-03,   11.1728E-03
C:/temp/dataset/8/5_24.odb,Step-1,Increment      1: Step Time =    1.000,"PART-1-1",           173,      -7.39215,      -7.81560,            0.,NA,NA,"",   890.804E-03,  -890.757E-03,   9.19880E-03,   14.0048E-03
C:/temp/dataset/8/5_24.odb,Step-1,Increment      1: Step Time =    1.000,"PART-1-1",           174,      -12.2965,      -7.15435,            0.,NA,NA,"",   938.170E-03,  -918.392E-03,  -191.623E-03,   7.21463E-03
C:/temp/dataset/8/5_24.odb,Step-1,Increment      1: Step Time =    1.000,"PART-1-1",           175,      -12.4696,      -9.99468,            0.,NA,NA,"",   788.387E-03,  -763.126E-03,  -197.970E-03,   8.46862E-03
C:/temp/dataset/8/5_24.odb,Step-1,Increment      1: Step Time =    1.000,"PART-1-1",           176,      -7.49885,      -12.5985,            0.,NA,NA,"",   613.935E-03,  -613.457E-03,   24.2239E-03,   8.15274E-03
C:/temp/dataset/8/5_24.odb,Step-1,Increment      1: Step Time =    1.000,"PART-1-1",           177,      -7.51661,      -15.1105,            0.,NA,NA,"",   471.491E-03,  -470.887E-03,   23.8645E-03,   9.82607E-03
C:/temp/dataset/8/5_24.odb,Step-1,Increment      1: Step Time =    1.000,"PART-1-1",           178,      -12.5153,      -15.0988,            0.,NA,NA,"",   507.117E-03,  -476.011E-03,  -174.875E-03,   10.5009E-03
C:/temp/dataset/8/5_24.odb,Step-1,Increment      1: Step Time =    1.000,"PART-1-1",           179,      -7.51181,      -17.6666,            0.,NA,NA,"",   336.488E-03,  -335.788E-03,   21.6982E-03,   14.4542E-03
C:/temp/dataset/8/5_24.odb,Step-1,Increment      1: Step Time =    1.000,"PART-1-1",           180,      -12.5518,      -17.6234,            0.,NA,NA,"",   382.223E-03,  -349.849E-03,  -153.950E-03,   11.5351E-03
C:/temp/dataset/8/5_24.odb,Step-1,Increment      1: Step Time =    1.000,"PART-1-1",           181,      -12.7381,      -20.0729,            0.,NA,NA,"",   282.023E-03,  -248.569E-03,  -133.231E-03,   13.0244E-03
C:/temp/dataset/8/5_24.odb,Step-1,Increment      1: Step Time =    1.000,"PART-1-1",           182,      -13.0750,      -22.3076,            0.,NA,NA,"",   210.558E-03,  -176.357E-03,  -115.034E-03,   14.6979E-03
C:/temp/dataset/8/5_24.odb,Step-1,Increment      1: Step Time =    1.000,"PART-1-1",           183,      -7.24239,      -27.7492,            0.,NA,NA,"",   42.1037E-03,  -42.1036E-03,  -105.591E-06,   12.6850E-03
C:/temp/dataset/8/5_24.odb,Step-1,Increment      1: Step Time =    1.000,"PART-1-1",           184,      -4.87121,      -27.7117,            0.,NA,NA,"",   54.0781E-03,  -53.9977E-03,   2.94804E-03,   16.5335E-03
C:/temp/dataset/8/5_24.odb,Step-1,Increment      1: Step Time =    1.000,"PART-1-1",           185,      -2.51629,      -22.5836,            0.,NA,NA,"",   183.426E-03,  -182.627E-03,   17.1043E-03,   20.4587E-03
C:/temp/dataset/8/5_24.odb,Step-1,Increment      1: Step Time =    1.000,"PART-1-1",           186,  -83.6569E-03,      -22.5653,            0.,NA,NA,"",   203.349E-03,  -203.137E-03,  -9.27460E-03,   21.8595E-03
C:/temp/dataset/8/5_24.odb,Step-1,Increment      1: Step Time =    1.000,"PART-1-1",           187,  -26.1876E-03,      -27.4903,            0.,NA,NA,"",   77.5030E-03,  -77.0045E-03,  -8.77610E-03,   21.9089E-03
C:/temp/dataset/8/5_24.odb,Step-1,Increment      1: Step Time =    1.000,"PART-1-1",           188,       2.63365,      -22.7776,            0.,NA,NA,"",   224.997E-03,  -220.441E-03,  -45.0492E-03,   36.2116E-03
C:/temp/dataset/8/5_24.odb,Step-1,Increment      1: Step Time =    1.000,"PART-1-1",           189,       2.80249,      -26.9735,            0.,NA,NA,"",   93.6682E-03,  -90.9524E-03,  -22.3918E-03,   24.1169E-03
C:/temp/dataset/8/5_24.odb,Step-1,Increment      1: Step Time =    1.000,"PART-1-1",           190,       5.52127,      -27.5919,            0.,NA,NA,"",   63.8314E-03,  -61.8859E-03,  -15.6390E-03,   19.9376E-03
C:/temp/dataset/8/5_24.odb,Step-1,Increment      1: Step Time =    1.000,"PART-1-1",           191,       10.2455,      -28.0297,            0.,NA,NA,"",   43.3321E-03,  -40.1838E-03,   16.2152E-03,   16.9967E-03
C:/temp/dataset/8/5_24.odb,Step-1,Increment      1: Step Time =    1.000,"PART-1-1",           192,       7.32442,      -17.2829,            0.,NA,NA,"",   717.937E-03,  -717.932E-03,   2.86178E-03,   35.9374E-03
C:/temp/dataset/8/5_24.odb,Step-1,Increment      1: Step Time =    1.000,"PART-1-1",           193,       7.51239,      -14.8720,            0.,NA,NA,"",   919.558E-03,  -919.166E-03,   26.8228E-03,   18.5697E-03
C:/temp/dataset/8/5_24.odb,Step-1,Increment      1: Step Time =    1.000,"PART-1-1",           194,       6.95682,      -7.47937,            0.,NA,NA,"",       1.20104,      -1.19736,   93.9623E-03,   13.7462E-03
C:/temp/dataset/8/5_24.odb,Step-1,Increment      1: Step Time =    1.000,"PART-1-1",           195,       7.18655,       5.44056,            0.,NA,NA,"",       1.30379,      -1.29420,   157.860E-03,   2.38273E-03
C:/temp/dataset/8/5_24.odb,Step-1,Increment      1: Step Time =    1.000,"PART-1-1",           196,       7.54073,       12.3094,            0.,NA,NA,"",       1.41391,      -1.40538,   155.072E-03,   1.29014E-03
C:/temp/dataset/8/5_24.odb,Step-1,Increment      1: Step Time =    1.000,"PART-1-1",           197,       7.60223,       14.8257,            0.,NA,NA,"",       1.45840,      -1.45021,   154.375E-03,   1.12865E-03
C:/temp/dataset/8/5_24.odb,Step-1,Increment      1: Step Time =    1.000,"PART-1-1",           198,       12.6819,       27.6459,            0.,NA,NA,"",       1.69174,      -1.67526,   235.577E-03,   227.309E-06
C:/temp/dataset/8/5_24.odb,Step-1,Increment      1: Step Time =    1.000,"PART-1-1",           199,       12.0457,       20.1903,            0.,NA,NA,"",       1.56472,      -1.54821,   226.708E-03,   632.341E-06
C:/temp/dataset/8/5_24.odb,Step-1,Increment      1: Step Time =    1.000,"PART-1-1",           200,       12.7260,      -12.7389,            0.,NA,NA,"",       1.14145,      -1.11332,   251.866E-03,   19.2232E-03
C:/temp/dataset/8/5_24.odb,Step-1,Increment      1: Step Time =    1.000,"PART-1-1",           201,       12.6061,      -7.88185,            0.,NA,NA,"",       1.22816,      -1.20553,   234.680E-03,   12.6557E-03
C:/temp/dataset/8/5_24.odb,Step-1,Increment      1: Step Time =    1.000,"PART-1-1",           202,       12.5539,      -15.1942,            0.,NA,NA,"",   996.118E-03,  -966.788E-03,   239.942E-03,   25.5591E-03
C:/temp/dataset/8/5_24.odb,Step-1,Increment      1: Step Time =    1.000,"PART-1-1",           203,       12.2961,      -17.8876,            0.,NA,NA,"",   771.422E-03,  -742.779E-03,   208.257E-03,   37.0013E-03
C:/temp/dataset/8/5_24.odb,Step-1,Increment      1: Step Time =    1.000,"PART-1-1",           204,       11.9819,      -5.08387,            0.,NA,NA,"",       1.24294,      -1.22506,   210.106E-03,   8.53518E-03
C:/temp/dataset/8/5_24.odb,Step-1,Increment      1: Step Time =    1.000,"PART-1-1",           205,       12.8886,       12.3962,            0.,NA,NA,"",       1.42807,      -1.40802,   238.448E-03,   1.61051E-03
C:/temp/dataset/8/5_24.odb,Step-1,Increment      1: Step Time =    1.000,"PART-1-1",           206,       12.6351,       22.8269,            0.,NA,NA,"",       1.61168,      -1.59431,   236.002E-03,   195.969E-06
C:/temp/dataset/8/5_24.odb,Step-1,Increment      1: Step Time =    1.000,"PART-1-1",           207,       12.6677,       14.8477,            0.,NA,NA,"",       1.47062,      -1.45145,   236.642E-03,   1.29270E-03
C:/temp/dataset/8/5_24.odb,Step-1,Increment      1: Step Time =    1.000,"PART-1-1",           208,       12.7436,      -2.36883,            0.,NA,NA,"",       1.25652,      -1.23762,   217.096E-03,   4.92847E-03
C:/temp/dataset/8/5_24.odb,Step-1,Increment      1: Step Time =    1.000,"PART-1-1",           209,       12.7993,      -10.3700,            0.,NA,NA,"",       1.20969,      -1.18302,   252.584E-03,   16.8435E-03
C:/temp/dataset/8/5_24.odb,Step-1,Increment      1: Step Time =    1.000,"PART-1-1",           210,       12.9901,      -20.3906,            0.,NA,NA,"",   562.452E-03,  -520.252E-03,   213.754E-03,   33.9389E-03
C:/temp/dataset/8/5_24.odb,Step-1,Increment      1: Step Time =    1.000,"PART-1-1",           211,       13.2149,       10.1248,            0.,NA,NA,"",       1.39088,      -1.36989,   240.723E-03,   2.01127E-03
C:/temp/dataset/8/5_24.odb,Step-1,Increment      1: Step Time =    1.000,"PART-1-1",           212,       12.5082,       17.3754,            0.,NA,NA,"",       1.51566,      -1.49737,   234.743E-03,   1.00860E-03
C:/temp/dataset/8/5_24.odb,Step-1,Increment      1: Step Time =    1.000,"PART-1-1",           213,       12.5546,      -27.7200,            0.,NA,NA,"",   84.0877E-03,  -65.1808E-03,   53.1243E-03,   32.0561E-03
C:/temp/dataset/8/5_24.odb,Step-1,Increment      1: Step Time =    1.000,"PART-1-1",           214,       9.90568,       4.71999,            0.,NA,NA,"",       1.30262,      -1.28867,   190.161E-03,   1.73059E-03
C:/temp/dataset/8/5_24.odb,Step-1,Increment      1: Step Time =    1.000,"PART-1-1",           215,       10.7501,       6.50016,            0.,NA,NA,"",       1.32818,      -1.31269,   202.306E-03,   1.41191E-03
C:/temp/dataset/8/5_24.odb,Step-1,Increment      1: Step Time =    1.000,"PART-1-1",           216,       9.75591,      -23.6488,            0.,NA,NA,"",   232.170E-03,  -228.403E-03,   41.6489E-03,   21.4453E-03
C:/temp/dataset/8/5_24.odb,Step-1,Increment      1: Step Time =    1.000,"PART-1-1",           217,       9.57327,       1.65180,            0.,NA,NA,"",       1.27051,      -1.25738,   182.164E-03,   3.49307E-03
C:/temp/dataset/8/5_24.odb,Step-1,Increment      1: Step Time =    1.000,"PART-1-1",           218,       11.2006,       8.46802,            0.,NA,NA,"",       1.35826,      -1.34193,   209.948E-03,   1.50363E-03
C:/temp/dataset/8/5_24.odb,Step-1,Increment      1: Step Time =    1.000,"PART-1-1",           219,       11.2103,      -20.8620,            0.,NA,NA,"",   464.612E-03,  -447.824E-03,   123.766E-03,   35.0390E-03
C:/temp/dataset/8/5_24.odb,Step-1,Increment      1: Step Time =    1.000,"PART-1-1",           220,       11.1015,      -2.06477,            0.,NA,NA,"",       1.25312,      -1.23781,   195.249E-03,   6.45403E-03
C:/temp/dataset/8/5_24.odb,Step-1,Increment      1: Step Time =    1.000,"PART-1-1",           221,       5.62425,       2.31421,            0.,NA,NA,"",       1.26301,      -1.25485,   143.391E-03,   2.58928E-03
C:/temp/dataset/8/5_24.odb,Step-1,Increment      1: Step Time =    1.000,"PART-1-1",           222,      -6.74047,       2.51715,            0.,NA,NA,"",       1.25883,      -1.25879,  -9.96651E-03,   6.13771E-03
C:/temp/dataset/8/5_24.odb,Step-1,Increment      1: Step Time =    1.000,"PART-1-1",           223,      -7.42064,      -20.2654,            0.,NA,NA,"",   222.014E-03,  -221.174E-03,   19.2946E-03,   7.38795E-03
C:/temp/dataset/8/5_24.odb,Step-1,Increment      1: Step Time =    1.000,"PART-1-1",           224,       7.69979,      -4.91359,            0.,NA,NA,"",       1.22388,      -1.21687,   130.839E-03,   13.2034E-03
C:/temp/dataset/8/5_24.odb,Step-1,Increment      1: Step Time =    1.000,"PART-1-1",           225,       7.31956,      -21.5115,            0.,NA,NA,"",   327.039E-03,  -326.631E-03,  -16.3275E-03,   29.6966E-03
C:/temp/dataset/8/5_24.odb,Step-1,Increment      1: Step Time =    1.000,"PART-1-1",           226,      -5.66399,      -2.34175,            0.,NA,NA,"",       1.14607,      -1.14540,   38.9550E-03,   8.34512E-03
C:/temp/dataset/8/5_24.odb,Step-1,Increment      1: Step Time =    1.000,"PART-1-1",           227,       7.85227,       20.1110,            0.,NA,NA,"",       1.55587,      -1.54798,   156.413E-03,   1.34428E-03
C:/temp/dataset/8/5_24.odb,Step-1,Increment      1: Step Time =    1.000,"PART-1-1",           228,      -7.47305,       21.9136,            0.,NA,NA,"",       1.59464,      -1.59314,  -69.2159E-03,   1.32092E-03
C:/temp/dataset/8/5_24.odb,Step-1,Increment      1: Step Time =    1.000,"PART-1-1",           229,      -10.1610,       28.1071,            0.,NA,NA,"",       1.68144,      -1.67788,  -109.376E-03,   123.053E-06
C:/temp/dataset/8/5_24.odb,Step-1,Increment      1: Step Time =    1.000,"PART-1-1",           230,      -12.9524,      -24.6214,            0.,NA,NA,"",   138.215E-03,  -113.158E-03,  -79.3639E-03,   16.4028E-03
C:/temp/dataset/8/5_24.odb,Step-1,Increment      1: Step Time =    1.000,"PART-1-1",           231,       8.38984,      -7.76285,            0.,NA,NA,"",       1.20753,      -1.20090,   126.420E-03,   11.8886E-03
C:/temp/dataset/8/5_24.odb,Step-1,Increment      1: Step Time =    1.000,"PART-1-1",           232,       2.50724,  -56.7369E-03,            0.,NA,NA,"",       1.22508,      -1.21883,   123.585E-03,   6.96630E-03
C:/temp/dataset/8/5_24.odb,Step-1,Increment      1: Step Time =    1.000,"PART-1-1",           233,       10.3135,       11.8620,            0.,NA,NA,"",       1.41156,      -1.39756,   198.315E-03,   1.43418E-03
C:/temp/dataset/8/5_24.odb,Step-1,Increment      1: Step Time =    1.000,"PART-1-1",           234,       2.50286,       25.1199,            0.,NA,NA,"",       1.63494,      -1.63348,   68.9658E-03,   426.200E-06
C:/temp/dataset/8/5_24.odb,Step-1,Increment      1: Step Time =    1.000,"PART-1-1",           235,      -1.67654,       25.0421,            0.,NA,NA,"",       1.63338,      -1.63336,   8.36303E-03,   604.393E-06
C:/temp/dataset/8/5_24.odb,Step-1,Increment      1: Step Time =    1.000,"PART-1-1",           236,      -9.12088,      -25.5416,            0.,NA,NA,"",   83.2622E-03,  -82.5224E-03,  -11.0742E-03,   8.44012E-03
C:/temp/dataset/8/5_24.odb,Step-1,Increment      1: Step Time =    1.000,"PART-1-1",           237,   18.1833E-03,  -29.2602E-03,            0.,NA,NA,"",       1.21480,      -1.20984,   109.633E-03,   6.58278E-03
C:/temp/dataset/8/5_24.odb,Step-1,Increment      1: Step Time =    1.000,"PART-1-1",           238,      -6.37745,       25.7068,            0.,NA,NA,"",       1.64526,      -1.64429,  -56.6526E-03,   493.521E-06
C:/temp/dataset/8/5_24.odb,Step-1,Increment      1: Step Time =    1.000,"PART-1-1",           239,      -10.0857,       17.4416,            0.,NA,NA,"",       1.53890,      -1.53528,  -105.397E-03,   1.41687E-03
C:/temp/dataset/8/5_24.odb,Step-1,Increment      1: Step Time =    1.000,"PART-1-1",           240,      -10.0934,       12.5946,            0.,NA,NA,"",       1.46770,      -1.46395,  -104.840E-03,   1.39379E-03
C:/temp/dataset/8/5_24.odb,Step-1,Increment      1: Step Time =    1.000,"PART-1-1",           241,      -9.86502,       5.52778,            0.,NA,NA,"",       1.33562,      -1.33204,  -97.7370E-03,   1.80322E-03
C:/temp/dataset/8/5_24.odb,Step-1,Increment      1: Step Time =    1.000,"PART-1-1",           242,      -11.6239,       2.22269,            0.,NA,NA,"",       1.26550,      -1.25730,  -143.815E-03,   3.44583E-03
C:/temp/dataset/8/5_24.odb,Step-1,Increment      1: Step Time =    1.000,"PART-1-1",           243,      -10.6228,      -5.01114,            0.,NA,NA,"",       1.03542,      -1.02808,  -123.057E-03,   6.26331E-03
C:/temp/dataset/8/5_24.odb,Step-1,Increment      1: Step Time =    1.000,"PART-1-1",           244,      -9.74711,      -1.61456,            0.,NA,NA,"",       1.16111,      -1.15779,  -87.8313E-03,   3.36512E-03
C:/temp/dataset/8/5_24.odb,Step-1,Increment      1: Step Time =    1.000,"PART-1-1",           245,      -9.39421,      -6.20391,            0.,NA,NA,"",   979.115E-03,  -976.038E-03,  -77.5694E-03,   8.93696E-03
C:/temp/dataset/8/5_24.odb,Step-1,Increment      1: Step Time =    1.000,"PART-1-1",           246,      -9.97684,      -10.1599,            0.,NA,NA,"",   760.788E-03,  -755.274E-03,  -91.4373E-03,   11.0501E-03
C:/temp/dataset/8/5_24.odb,Step-1,Increment      1: Step Time =    1.000,"PART-1-1",           247,      -10.0276,      -15.1451,            0.,NA,NA,"",   474.581E-03,  -468.561E-03,  -75.3516E-03,   11.0849E-03
C:/temp/dataset/8/5_24.odb,Step-1,Increment      1: Step Time =    1.000,"PART-1-1",           248,      -10.1181,      -20.6738,            0.,NA,NA,"",   220.163E-03,  -214.642E-03,  -48.9947E-03,   7.79619E-03
C:/temp/dataset/8/5_24.odb,Step-1,Increment      1: Step Time =    1.000,"PART-1-1",           249,      -4.81760,      -25.2822,            0.,NA,NA,"",   112.811E-03,  -111.882E-03,   14.4465E-03,   17.7519E-03
C:/temp/dataset/8/5_24.odb,Step-1,Increment      1: Step Time =    1.000,"PART-1-1",           250,      -2.52593,      -25.1657,            0.,NA,NA,"",   130.577E-03,  -130.395E-03,   6.89481E-03,   22.1772E-03
C:/temp/dataset/8/5_24.odb,Step-1,Increment      1: Step Time =    1.000,"PART-1-1",           251,       4.38823,      -24.6132,            0.,NA,NA,"",   172.271E-03,  -165.879E-03,  -46.4884E-03,   25.5650E-03
C:/temp/dataset/8/5_24.odb,Step-1,Increment      1: Step Time =    1.000,"PART-1-1",           252,       1.65324,      -24.9792,            0.,NA,NA,"",   156.379E-03,  -153.703E-03,  -28.8071E-03,   25.9968E-03
C:/temp/dataset/8/5_24.odb,Step-1,Increment      1: Step Time =    1.000,"PART-1-1",           253,      -10.0865,       15.0098,            0.,NA,NA,"",       1.50462,      -1.50094,  -105.037E-03,   1.40785E-03
C:/temp/dataset/8/5_24.odb,Step-1,Increment      1: Step Time =    1.000,"PART-1-1",           254,       10.3961,      -12.7490,            0.,NA,NA,"",       1.09193,      -1.07962,   163.480E-03,   14.5515E-03
C:/temp/dataset/8/5_24.odb,Step-1,Increment      1: Step Time =    1.000,"PART-1-1",           255,      -10.0322,       8.32342,            0.,NA,NA,"",       1.39286,      -1.38905,  -102.968E-03,   1.37505E-03
C:/temp/dataset/8/5_24.odb,Step-1,Increment      1: Step Time =    1.000,"PART-1-1",           256,      -2.46516,   4.89972E-03,            0.,NA,NA,"",       1.20599,      -1.20290,   86.2806E-03,   5.79155E-03
C:/temp/dataset/8/5_24.odb,Step-1,Increment      1: Step Time =    1.000,"PART-1-1",           257,      -9.79923,       22.1172,            0.,NA,NA,"",       1.60039,      -1.59710,  -102.598E-03,   962.635E-06
C:/temp/dataset/8/5_24.odb,Step-1,Increment      1: Step Time =    1.000,"PART-1-1",           258,      -9.99953,       19.8330,            0.,NA,NA,"",       1.57068,      -1.56719,  -104.662E-03,   1.29160E-03
C:/temp/dataset/8/5_24.odb,Step-1,Increment      1: Step Time =    1.000,"PART-1-1",           259,       4.79880,       25.0430,            0.,NA,NA,"",       1.63536,      -1.63202,   104.479E-03,   305.417E-06
C:/temp/dataset/8/5_24.odb,Step-1,Increment      1: Step Time =    1.000,"PART-1-1",           260,      -4.38714,       24.8432,            0.,NA,NA,"",       1.63169,      -1.63143,  -29.0731E-03,   675.442E-06
C:/temp/dataset/8/5_24.odb,Step-1,Increment      1: Step Time =    1.000,"PART-1-1",           261,      -8.41357,       26.1031,            0.,NA,NA,"",       1.65246,      -1.65028,  -84.8188E-03,   359.454E-06
C:/temp/dataset/8/5_24.odb,Step-1,Increment      1: Step Time =    1.000,"PART-1-1",           262,      -10.8386,       3.64138,            0.,NA,NA,"",       1.29644,      -1.29075,  -121.283E-03,   2.53650E-03
C:/temp/dataset/8/5_24.odb,Step-1,Increment      1: Step Time =    1.000,"PART-1-1",           263,      -10.0134,      -12.6076,            0.,NA,NA,"",   618.170E-03,  -612.435E-03,  -84.0142E-03,   11.3391E-03
C:/temp/dataset/8/5_24.odb,Step-1,Increment      1: Step Time =    1.000,"PART-1-1",           264,      -10.0439,      -17.7611,            0.,NA,NA,"",   339.616E-03,  -333.546E-03,  -63.9249E-03,   11.2722E-03
C:/temp/dataset/8/5_24.odb,Step-1,Increment      1: Step Time =    1.000,"PART-1-1",           265,      -11.0756,      -23.9180,            0.,NA,NA,"",   131.545E-03,  -122.098E-03,  -48.9518E-03,   9.47919E-03
C:/temp/dataset/8/5_24.odb,Step-1,Increment      1: Step Time =    1.000,"PART-1-1",           266,       6.47384,      -25.3706,            0.,NA,NA,"",   136.213E-03,  -133.648E-03,  -26.3081E-03,   19.3207E-03
C:/temp/dataset/8/5_24.odb,Step-1,Increment      1: Step Time =    1.000,"PART-1-1",           267,       8.63297,      -25.7838,            0.,NA,NA,"",   118.096E-03,  -117.966E-03,   5.53164E-03,   15.2729E-03
C:/temp/dataset/8/5_24.odb,Step-1,Increment      1: Step Time =    1.000,"PART-1-1",           268,       9.70463,      -17.2924,            0.,NA,NA,"",   751.543E-03,  -744.127E-03,   105.322E-03,   39.9804E-03
C:/temp/dataset/8/5_24.odb,Step-1,Increment      1: Step Time =    1.000,"PART-1-1",           269,       9.32258,      -19.2967,            0.,NA,NA,"",   555.603E-03,  -550.739E-03,   73.3566E-03,   43.1486E-03
C:/temp/dataset/8/5_24.odb,Step-1,Increment      1: Step Time =    1.000,"PART-1-1",           270,       10.5097,       23.5233,            0.,NA,NA,"",       1.61869,      -1.60634,   199.631E-03,   320.340E-06
C:/temp/dataset/8/5_24.odb,Step-1,Increment      1: Step Time =    1.000,"PART-1-1",           271,       10.7249,      -10.6710,            0.,NA,NA,"",       1.17450,      -1.15971,   185.829E-03,   10.6845E-03
C:/temp/dataset/8/5_24.odb,Step-1,Increment      1: Step Time =    1.000,"PART-1-1",           272,       12.7841,       25.2838,            0.,NA,NA,"",       1.65310,      -1.63590,   237.819E-03,   249.306E-06
C:/temp/dataset/8/5_24.odb,Step-1,Increment      1: Step Time =    1.000,"PART-1-1",           273,       9.70769,       21.6927,            0.,NA,NA,"",       1.58620,      -1.57517,   186.739E-03,   667.507E-06
C:/temp/dataset/8/5_24.odb,Step-1,Increment      1: Step Time =    1.000,"PART-1-1",           274,       9.66832,      -6.55030,            0.,NA,NA,"",       1.22701,      -1.21606,   163.559E-03,   11.6193E-03
C:/temp/dataset/8/5_24.odb,Step-1,Increment      1: Step Time =    1.000,"PART-1-1",           275,       10.0513,       19.0714,            0.,NA,NA,"",       1.54049,      -1.52828,   193.546E-03,   1.12335E-03
C:/temp/dataset/8/5_24.odb,Step-1,Increment      1: Step Time =    1.000,"PART-1-1",           276,       9.87331,      -3.39328,            0.,NA,NA,"",       1.24260,      -1.23030,   174.447E-03,   9.30813E-03
C:/temp/dataset/8/5_24.odb,Step-1,Increment      1: Step Time =    1.000,"PART-1-1",           277,       8.09153,       3.50199,            0.,NA,NA,"",       1.28288,      -1.27189,   167.565E-03,   2.42411E-03
C:/temp/dataset/8/5_24.odb,Step-1,Increment      1: Step Time =    1.000,"PART-1-1",           278,       7.63606,   479.494E-03,            0.,NA,NA,"",       1.25282,      -1.24278,   158.239E-03,   4.23416E-03
C:/temp/dataset/8/5_24.odb,Step-1,Increment      1: Step Time =    1.000,"PART-1-1",           279,       4.79213,  -240.588E-03,            0.,NA,NA,"",       1.23273,      -1.22541,   134.145E-03,   5.62383E-03
C:/temp/dataset/8/5_24.odb,Step-1,Increment      1: Step Time =    1.000,"PART-1-1",           280,      -4.77040,   213.509E-03,            0.,NA,NA,"",       1.20682,      -1.20588,   47.6647E-03,   4.62449E-03
C:/temp/dataset/8/5_24.odb,Step-1,Increment      1: Step Time =    1.000,"PART-1-1",           281,      -7.12451,      -22.8795,            0.,NA,NA,"",   151.722E-03,  -150.689E-03,   17.6793E-03,   8.53076E-03
C:/temp/dataset/8/5_24.odb,Step-1,Increment      1: Step Time =    1.000,"PART-1-1",           282,      -7.18564,       23.8616,            0.,NA,NA,"",       1.62053,      -1.61916,  -66.7894E-03,   801.256E-06
C:/temp/dataset/8/5_24.odb,Step-1,Increment      1: Step Time =    1.000,"PART-1-1",           283,      -8.39584,      -3.64273,            0.,NA,NA,"",       1.09549,      -1.09472,  -41.1613E-03,   6.50218E-03
C:/temp/dataset/8/5_24.odb,Step-1,Increment      1: Step Time =    1.000,"PART-1-1",           284,      -5.55212,       23.5400,            0.,NA,NA,"",       1.61434,      -1.61373,  -44.2265E-03,   875.826E-06
C:/temp/dataset/8/5_24.odb,Step-1,Increment      1: Step Time =    1.000,"PART-1-1",           285,      -8.96751,       2.09330,            0.,NA,NA,"",       1.25597,      -1.25410,  -68.5003E-03,   4.10630E-03
C:/temp/dataset/8/5_24.odb,Step-1,Increment      1: Step Time =    1.000,"PART-1-1",           286,      -8.55747,       4.19463,            0.,NA,NA,"",       1.30274,      -1.30120,  -63.1842E-03,   3.56291E-03
C:/temp/dataset/8/5_24.odb,Step-1,Increment      1: Step Time =    1.000,"PART-1-1",           287,      -7.73317,  -334.415E-03,            0.,NA,NA,"",       1.19551,      -1.19523,  -25.8406E-03,   4.82499E-03
C:/temp/dataset/8/5_24.odb,Step-1,Increment      1: Step Time =    1.000,"PART-1-1",           288,      -9.22795,      -23.2507,            0.,NA,NA,"",   137.785E-03,  -136.741E-03,  -16.9308E-03,   4.87160E-03
C:/temp/dataset/8/5_24.odb,Step-1,Increment      1: Step Time =    1.000,"PART-1-1",           289,       6.93223,       22.5746,            0.,NA,NA,"",       1.59766,      -1.59154,   139.684E-03,   782.156E-06
C:/temp/dataset/8/5_24.odb,Step-1,Increment      1: Step Time =    1.000,"PART-1-1",           290,       5.55352,      -23.2395,            0.,NA,NA,"",   227.245E-03,  -221.025E-03,  -52.8005E-03,   24.1973E-03
C:/temp/dataset/8/5_24.odb,Step-1,Increment      1: Step Time =    1.000,"PART-1-1",           291,       8.74083,      -1.45726,            0.,NA,NA,"",       1.24518,      -1.23428,   164.353E-03,   7.05651E-03
C:/temp/dataset/8/5_24.odb,Step-1,Increment      1: Step Time =    1.000,"PART-1-1",           292,       10.8991,      -19.3920,            0.,NA,NA,"",   587.747E-03,  -573.320E-03,   129.426E-03,   40.0790E-03
C:/temp/dataset/8/5_24.odb,Step-1,Increment      1: Step Time =    1.000,"PART-1-1",           293,       11.6521,       10.1032,            0.,NA,NA,"",       1.38552,      -1.36832,   217.595E-03,   1.58155E-03
C:/temp/dataset/8/5_24.odb,Step-1,Increment      1: Step Time =    1.000,"PART-1-1",           294,       7.27299,      -23.4476,            0.,NA,NA,"",   218.993E-03,  -217.859E-03,  -22.2550E-03,   17.4213E-03
C:/temp/dataset/8/5_24.odb,Step-1,Increment      1: Step Time =    1.000,"PART-1-1",           295,       9.33799,      -21.3321,            0.,NA,NA,"",   379.774E-03,  -376.473E-03,   49.9654E-03,   34.6050E-03
C:/temp/dataset/8/5_24.odb,Step-1,Increment      1: Step Time =    1.000,"PART-1-1",           296,       6.43909,  -678.324E-03,            0.,NA,NA,"",       1.23719,      -1.22882,   143.661E-03,   5.63713E-03
C:/temp/dataset/8/5_24.odb,Step-1,Increment      1: Step Time =    1.000,"PART-1-1",           297,       8.38797,       22.8532,            0.,NA,NA,"",       1.60395,      -1.59555,   163.958E-03,   593.023E-06
C:/temp/dataset/8/5_24.odb,Step-1,Increment      1: Step Time =    1.000,"PART-1-1",           298,       8.65495,       5.84832,            0.,NA,NA,"",       1.31327,      -1.30147,   175.636E-03,   1.56232E-03
C:/temp/dataset/8/5_24.odb,Step-1,Increment      1: Step Time =    1.000,"PART-1-1",           299,       8.94133,       7.33953,            0.,NA,NA,"",       1.33532,      -1.32323,   179.299E-03,   1.61136E-03
C:/temp/dataset/8/5_24.odb,Step-1,Increment      1: Step Time =    1.000,"PART-1-1",           300,       6.91134,      -2.43572,            0.,NA,NA,"",       1.22739,      -1.21958,   138.250E-03,   9.71301E-03
C:/temp/dataset/8/5_24.odb,Step-1,Increment      1: Step Time =    1.000,"PART-1-1",           301,      -6.42836,   750.251E-03,            0.,NA,NA,"",       1.21943,      -1.21941,   5.78109E-03,   5.23558E-03
C:/temp/dataset/8/5_24.odb,Step-1,Increment      1: Step Time =    1.000,"PART-1-1",           302,       5.11217,      -21.8336,            0.,NA,NA,"",   286.063E-03,  -277.051E-03,  -71.2386E-03,   27.5149E-03
C:/temp/dataset/8/5_24.odb,Step-1,Increment      1: Step Time =    1.000,"PART-1-1",           303,      -5.14370,       22.0291,            0.,NA,NA,"",       1.59303,      -1.59259,  -37.6056E-03,   1.22546E-03
C:/temp/dataset/8/5_24.odb,Step-1,Increment      1: Step Time =    1.000,"PART-1-1",           304,      -6.99385,       4.73375,            0.,NA,NA,"",       1.31010,      -1.30983,  -26.5615E-03,   4.92593E-03
C:/temp/dataset/8/5_24.odb,Step-1,Increment      1: Step Time =    1.000,"PART-1-1",           305,      -9.29188,       24.2162,            0.,NA,NA,"",       1.62772,      -1.62486,  -96.3221E-03,   611.004E-06
C:/temp/dataset/8/5_24.odb,Step-1,Increment      1: Step Time =    1.000,"PART-1-1",           306,       6.91679,       24.7863,            0.,NA,NA,"",       1.63370,      -1.62779,   138.842E-03,   348.088E-06
C:/temp/dataset/8/5_24.odb,Step-1,Increment      1: Step Time =    1.000,"PART-1-1",           307,      -7.06121,      -25.4189,            0.,NA,NA,"",   93.6585E-03,  -93.3915E-03,   7.06722E-03,   12.5083E-03
C:/temp/dataset/8/5_24.odb,Step-1,Increment      1: Step Time =    1.000,"PART-1-1",           308,   226.332E-03,       25.0801,            0.,NA,NA,"",       1.63375,      -1.63336,   35.4342E-03,   544.121E-06
C:/temp/dataset/8/5_24.odb,Step-1,Increment      1: Step Time =    1.000,"PART-1-1",           309,      -10.0604,       10.2616,            0.,NA,NA,"",       1.42854,      -1.42476,  -103.875E-03,   1.35873E-03
C:/temp/dataset/8/5_24.odb,Step-1,Increment      1: Step Time =    1.000,"PART-1-1",           310,  -253.177E-03,      -25.0610,            0.,NA,NA,"",   145.788E-03,  -145.346E-03,  -11.3465E-03,   23.4443E-03
C:/temp/dataset/8/5_24.odb,Step-1,Increment      1: Step Time =    1.000,"PART-1-1",           311,       10.5126,      -8.54534,            0.,NA,NA,"",       1.21231,      -1.19844,   182.869E-03,   11.5122E-03
C:/temp/dataset/8/5_24.odb,Step-1,Increment      1: Step Time =    1.000,"PART-1-1",           312,       8.69507,       24.2171,            0.,NA,NA,"",       1.62700,      -1.61823,   168.701E-03,   394.304E-06
C:/temp/dataset/8/5_24.odb,Step-1,Increment      1: Step Time =    1.000,"PART-1-1",           313,       10.6943,       25.6018,            0.,NA,NA,"",       1.65350,      -1.64109,   202.198E-03,   299.348E-06
C:/temp/dataset/8/5_24.odb,Step-1,Increment      1: Step Time =    1.000,"PART-1-1",           314,       10.1073,       17.1283,            0.,NA,NA,"",       1.50527,      -1.49260,   194.935E-03,   1.37893E-03
C:/temp/dataset/8/5_24.odb,Step-1,Increment      1: Step Time =    1.000,"PART-1-1",           315,       10.1760,       14.6796,            0.,NA,NA,"",       1.46090,      -1.44766,   196.237E-03,   1.39730E-03
C:/temp/dataset/8/5_24.odb,Step-1,Increment      1: Step Time =    1.000,"PART-1-1",           316,       10.5274,  -400.724E-03,            0.,NA,NA,"",       1.25964,      -1.24522,   190.056E-03,   5.22359E-03
C:/temp/dataset/8/5_24.odb,Step-1,Increment      1: Step Time =    1.000,"PART-1-1",           317,      -9.77892,      -7.87927,            0.,NA,NA,"",   890.454E-03,  -885.929E-03,  -89.6571E-03,   11.0327E-03
C:/temp/dataset/8/5_24.odb,Step-1,Increment      1: Step Time =    1.000,"PART-1-1",           318,      -10.1056,       26.5264,            0.,NA,NA,"",       1.65983,      -1.65629,  -108.341E-03,   253.475E-06
C:/temp/dataset/8/5_24.odb,Step-1,Increment      1: Step Time =    1.000,"PART-1-1",           319,       8.72249,      -9.20974,            0.,NA,NA,"",       1.18676,      -1.18003,   126.210E-03,   11.3434E-03
C:/temp/dataset/8/5_24.odb,Step-1,Increment      1: Step Time =    1.000,"PART-1-1",           320,       10.2890,      -26.3639,            0.,NA,NA,"",   103.994E-03,  -99.0882E-03,   31.5642E-03,   18.0434E-03
C:/temp/dataset/8/5_24.odb,Step-1,Increment      1: Step Time =    1.000,"PART-1-1",           321,      -10.7934,   627.825E-03,            0.,NA,NA,"",       1.22432,      -1.21833,  -120.953E-03,   3.48791E-03
C:/temp/dataset/8/5_24.odb,Step-1,Increment      1: Step Time =    1.000,"PART-1-1",           322,       9.12166,      -10.6535,            0.,NA,NA,"",       1.15476,      -1.14744,   129.748E-03,   10.3703E-03
C:/temp/dataset/8/5_24.odb,Step-1,Increment      1: Step Time =    1.000,"PART-1-1",           323,       10.0480,      -15.0307,            0.,NA,NA,"",   946.088E-03,  -936.312E-03,   135.651E-03,   25.4348E-03
C:/temp/dataset/8/5_24.odb,Step-1,Increment      1: Step Time =    1.000,"PART-1-1",           324,       9.34152,       9.36934,            0.,NA,NA,"",       1.36784,      -1.35537,   184.290E-03,   1.36179E-03
C:/temp/dataset/8/5_24.odb,Step-1,Increment      1: Step Time =    1.000,"PART-1-1",           325,      -11.4891,      -22.3432,            0.,NA,NA,"",   181.815E-03,  -166.839E-03,  -72.2612E-03,   10.3469E-03
C:/temp/dataset/8/5_24.odb,Step-1,Increment      1: Step Time =    1.000,"PART-1-1",           326,      -10.7249,      -25.4704,            0.,NA,NA,"",   89.4438E-03,  -83.7523E-03,  -31.3966E-03,   9.75443E-03
C:/temp/dataset/8/5_24.odb,Step-1,Increment      1: Step Time =    1.000,"PART-1-1",           327,       9.08969,       25.6240,            0.,NA,NA,"",       1.65070,      -1.64139,   175.029E-03,   326.360E-06
C:/temp/dataset/8/5_24.odb,Step-1,Increment      1: Step Time =    1.000,"PART-1-1",           328,       11.3751,      -22.3885,            0.,NA,NA,"",   347.896E-03,  -329.418E-03,   111.873E-03,   27.8071E-03
C:/temp/dataset/8/5_24.odb,Step-1,Increment      1: Step Time =    1.000,"PART-1-1",           329,       12.7027,      -9.12592,            0.,NA,NA,"",       1.22178,      -1.19700,   244.786E-03,   14.3886E-03
C:/temp/dataset/8/5_24.odb,Step-1,Increment      1: Step Time =    1.000,"PART-1-1",           330,       11.5594,      -8.21360,            0.,NA,NA,"",       1.22261,      -1.20415,   211.647E-03,   11.3872E-03
C:/temp/dataset/8/5_24.odb,Step-1,Increment      1: Step Time =    1.000,"PART-1-1",           331,       10.6187,      -9.60815,            0.,NA,NA,"",       1.19708,      -1.18273,   184.786E-03,   10.3605E-03
C:/temp/dataset/8/5_24.odb,Step-1,Increment      1: Step Time =    1.000,"PART-1-1",           332,       11.7621,      -10.5205,            0.,NA,NA,"",       1.19275,      -1.17212,   220.861E-03,   12.1415E-03
C:/temp/dataset/8/5_24.odb,Step-1,Increment      1: Step Time =    1.000,"PART-1-1",           333,       12.2940,      -6.48286,            0.,NA,NA,"",       1.23637,      -1.21653,   220.599E-03,   9.60303E-03
C:/temp/dataset/8/5_24.odb,Step-1,Increment      1: Step Time =    1.000,"PART-1-1",           334,       10.8251,      -5.81708,            0.,NA,NA,"",       1.23622,      -1.22159,   189.655E-03,   9.86094E-03
C:/temp/dataset/8/5_24.odb,Step-1,Increment      1: Step Time =    1.000,"PART-1-1",           335,       10.0905,      -7.54782,            0.,NA,NA,"",       1.22096,      -1.20874,   172.330E-03,   11.2748E-03
C:/temp/dataset/8/5_24.odb,Step-1,Increment      1: Step Time =    1.000,"PART-1-1",           336,       11.3010,      -15.1125,            0.,NA,NA,"",   968.369E-03,  -950.397E-03,   185.699E-03,   25.3768E-03
C:/temp/dataset/8/5_24.odb,Step-1,Increment      1: Step Time =    1.000,"PART-1-1",           337,       12.6399,      -13.9666,            0.,NA,NA,"",       1.07661,      -1.04788,   247.068E-03,   21.5339E-03
C:/temp/dataset/8/5_24.odb,Step-1,Increment      1: Step Time =    1.000,"PART-1-1",           338,       11.5610,      -12.7439,            0.,NA,NA,"",       1.11520,      -1.09561,   208.143E-03,   16.0933E-03
C:/temp/dataset/8/5_24.odb,Step-1,Increment      1: Step Time =    1.000,"PART-1-1",           339,       10.2221,      -13.8898,            0.,NA,NA,"",       1.02621,      -1.01521,   149.834E-03,   19.4395E-03
C:/temp/dataset/8/5_24.odb,Step-1,Increment      1: Step Time =    1.000,"PART-1-1",           340,       13.8630,      -12.6507,            0.,NA,NA,"",       1.17018,      -1.13282,   293.330E-03,   21.7620E-03
C:/temp/dataset/8/5_24.odb,Step-1,Increment      1: Step Time =    1.000,"PART-1-1",           341,       13.7769,      -15.1346,            0.,NA,NA,"",       1.03705,  -992.495E-03,   300.710E-03,   21.5029E-03
C:/temp/dataset/8/5_24.odb,Step-1,Increment      1: Step Time =    1.000,"PART-1-1",           342,           15.,      -13.8188,            0.,NA,NA,"",       1.14686,      -1.08994,   356.805E-03,   24.3551E-03
C:/temp/dataset/8/5_24.odb,Step-1,Increment      1: Step Time =    1.000,"PART-1-1",           343,       10.1228,      -29.0148,            0.,NA,NA,"",   17.3338E-03,  -15.5320E-03,   7.69518E-03,   13.6888E-03
C:/temp/dataset/8/5_24.odb,Step-1,Increment      1: Step Time =    1.000,"PART-1-1",           344,         11.25,          -30.,            0.,NA,NA,"",            0.,  -6.50967E-39,   31.4200E-39,   17.4017E-03
C:/temp/dataset/8/5_24.odb,Step-1,Increment      1: Step Time =    1.000,"PART-1-1",           345,       12.5273,      -28.8600,            0.,NA,NA,"",   33.5706E-03,  -23.6280E-03,   23.8475E-03,   27.7371E-03
C:/temp/dataset/8/5_24.odb,Step-1,Increment      1: Step Time =    1.000,"PART-1-1",           346,       11.4001,      -27.8749,            0.,NA,NA,"",   58.0052E-03,  -49.4591E-03,   30.3051E-03,   23.4875E-03
C:/temp/dataset/8/5_24.odb,Step-1,Increment      1: Step Time =    1.000,"PART-1-1",           347,  -13.0938E-03,      -28.7451,            0.,NA,NA,"",   40.0370E-03,  -39.7430E-03,  -4.84281E-03,   21.5442E-03
C:/temp/dataset/8/5_24.odb,Step-1,Increment      1: Step Time =    1.000,"PART-1-1",           348,          1.25,          -30.,            0.,NA,NA,"",            0.,  -20.2189E-39,  -11.9823E-39,   20.8568E-03
C:/temp/dataset/8/5_24.odb,Step-1,Increment      1: Step Time =    1.000,"PART-1-1",           349,       2.65125,      -28.4867,            0.,NA,NA,"",   46.2689E-03,  -45.1734E-03,  -10.0086E-03,   22.1138E-03
C:/temp/dataset/8/5_24.odb,Step-1,Increment      1: Step Time =    1.000,"PART-1-1",           350,       1.38815,      -27.2319,            0.,NA,NA,"",   86.7975E-03,  -85.3993E-03,  -15.5166E-03,   22.7881E-03
C:/temp/dataset/8/5_24.odb,Step-1,Increment      1: Step Time =    1.000,"PART-1-1",           351,      -13.5950,      -27.3152,            0.,NA,NA,"",   72.0272E-03,  -54.1881E-03,  -47.4508E-03,   20.4192E-03
C:/temp/dataset/8/5_24.odb,Step-1,Increment      1: Step Time =    1.000,"PART-1-1",           352,      -12.5712,      -25.8759,            0.,NA,NA,"",   97.4943E-03,  -80.6872E-03,  -54.7239E-03,   15.8332E-03
C:/temp/dataset/8/5_24.odb,Step-1,Increment      1: Step Time =    1.000,"PART-1-1",           353,      -13.9762,      -24.8107,            0.,NA,NA,"",   153.144E-03,  -116.214E-03,  -99.7358E-03,   18.4732E-03
C:/temp/dataset/8/5_24.odb,Step-1,Increment      1: Step Time =    1.000,"PART-1-1",           354,          -15.,        -26.25,            0.,NA,NA,"",   133.618E-03,  -92.1896E-03,  -96.7199E-03,   23.1118E-03
C:/temp/dataset/8/5_24.odb,Step-1,Increment      1: Step Time =    1.000,"PART-1-1",           355,      -13.7576,      -15.0494,            0.,NA,NA,"",   534.079E-03,  -481.981E-03,  -230.077E-03,   9.95709E-03
C:/temp/dataset/8/5_24.odb,Step-1,Increment      1: Step Time =    1.000,"PART-1-1",           356,          -15.,        -16.25,            0.,NA,NA,"",   507.731E-03,  -426.386E-03,  -275.654E-03,   13.8484E-03
C:/temp/dataset/8/5_24.odb,Step-1,Increment      1: Step Time =    1.000,"PART-1-1",           357,      -13.7759,      -17.5617,            0.,NA,NA,"",   411.833E-03,  -358.311E-03,  -203.027E-03,   13.4299E-03
C:/temp/dataset/8/5_24.odb,Step-1,Increment      1: Step Time =    1.000,"PART-1-1",           358,      -12.5335,      -16.3611,            0.,NA,NA,"",   442.522E-03,  -410.527E-03,  -165.206E-03,   10.9131E-03
C:/temp/dataset/8/5_24.odb,Step-1,Increment      1: Step Time =    1.000,"PART-1-1",           359,      -13.7966,       15.0030,            0.,NA,NA,"",       1.50790,      -1.49873,  -166.018E-03,   2.00081E-03
C:/temp/dataset/8/5_24.odb,Step-1,Increment      1: Step Time =    1.000,"PART-1-1",           360,          -15.,         13.75,            0.,NA,NA,"",       1.48993,      -1.47808,  -187.529E-03,   2.93916E-03
C:/temp/dataset/8/5_24.odb,Step-1,Increment      1: Step Time =    1.000,"PART-1-1",           361,      -13.7864,       12.5210,            0.,NA,NA,"",       1.46997,      -1.46005,  -170.478E-03,   2.55564E-03
C:/temp/dataset/8/5_24.odb,Step-1,Increment      1: Step Time =    1.000,"PART-1-1",           362,      -12.5830,       13.7740,            0.,NA,NA,"",       1.48855,      -1.48119,  -147.912E-03,   1.80965E-03
C:/temp/dataset/8/5_24.odb,Step-1,Increment      1: Step Time =    1.000,"PART-1-1",           363,         -1.25,           -5.,            0.,NA,NA,"",       1.13971,      -1.13668,   82.9780E-03,   14.0587E-03
C:/temp/dataset/8/5_24.odb,Step-1,Increment      1: Step Time =    1.000,"PART-1-1",           364,  -12.3337E-03,      -3.76193,            0.,NA,NA,"",       1.16426,      -1.16005,   98.8834E-03,   10.5375E-03
C:/temp/dataset/8/5_24.odb,Step-1,Increment      1: Step Time =    1.000,"PART-1-1",           365,      -1.32647,      -2.50471,            0.,NA,NA,"",       1.16789,      -1.16399,   95.3946E-03,   10.3298E-03
C:/temp/dataset/8/5_24.odb,Step-1,Increment      1: Step Time =    1.000,"PART-1-1",           366,      -2.56414,      -3.74278,            0.,NA,NA,"",       1.13497,      -1.13192,   83.1637E-03,   13.7409E-03
C:/temp/dataset/8/5_24.odb,Step-1,Increment      1: Step Time =    1.000,"PART-1-1",           367,       1.21724,      -2.54641,            0.,NA,NA,"",       1.18734,      -1.18209,   111.556E-03,   8.40274E-03
C:/temp/dataset/8/5_24.odb,Step-1,Increment      1: Step Time =    1.000,"PART-1-1",           368,          1.25,           -5.,            0.,NA,NA,"",       1.16615,      -1.16170,   101.752E-03,   10.8250E-03
C:/temp/dataset/8/5_24.odb,Step-1,Increment      1: Step Time =    1.000,"PART-1-1",           369,       2.47957,      -3.78448,            0.,NA,NA,"",       1.18605,      -1.18062,   113.336E-03,   8.23164E-03
C:/temp/dataset/8/5_24.odb,Step-1,Increment      1: Step Time =    1.000,"PART-1-1",           370,      -2.43429,       1.26667,            0.,NA,NA,"",       1.22979,      -1.22686,   84.8051E-03,   3.62049E-03
C:/temp/dataset/8/5_24.odb,Step-1,Increment      1: Step Time =    1.000,"PART-1-1",           371,      -1.22349,  -12.1802E-03,            0.,NA,NA,"",       1.21014,      -1.20607,   99.1908E-03,   6.34565E-03
C:/temp/dataset/8/5_24.odb,Step-1,Increment      1: Step Time =    1.000,"PART-1-1",           372,   38.4689E-03,       1.22772,            0.,NA,NA,"",       1.23456,      -1.22959,   110.656E-03,   5.57580E-03
C:/temp/dataset/8/5_24.odb,Step-1,Increment      1: Step Time =    1.000,"PART-1-1",           373,      -1.17233,       2.50657,            0.,NA,NA,"",       1.25275,      -1.24881,   99.2386E-03,   3.43028E-03
C:/temp/dataset/8/5_24.odb,Step-1,Increment      1: Step Time =    1.000,"PART-1-1",           374,       4.79096,      -1.43433,            0.,NA,NA,"",       1.22079,      -1.21382,   130.246E-03,   6.95517E-03
C:/temp/dataset/8/5_24.odb,Step-1,Increment      1: Step Time =    1.000,"PART-1-1",           375,       3.64969,  -148.662E-03,            0.,NA,NA,"",       1.22866,      -1.22188,   128.847E-03,   6.17033E-03
C:/temp/dataset/8/5_24.odb,Step-1,Increment      1: Step Time =    1.000,"PART-1-1",           376,       2.48320,      -1.31285,            0.,NA,NA,"",       1.20925,      -1.20317,   121.072E-03,   7.06534E-03
C:/temp/dataset/8/5_24.odb,Step-1,Increment      1: Step Time =    1.000,"PART-1-1",           377,       3.62447,      -2.59851,            0.,NA,NA,"",       1.20273,      -1.19664,   120.843E-03,   7.39345E-03
C:/temp/dataset/8/5_24.odb,Step-1,Increment      1: Step Time =    1.000,"PART-1-1",           378,       11.9226,      -2.21680,            0.,NA,NA,"",       1.25513,      -1.23801,   206.585E-03,   5.68954E-03
C:/temp/dataset/8/5_24.odb,Step-1,Increment      1: Step Time =    1.000,"PART-1-1",           379,       10.4874,      -2.72902,            0.,NA,NA,"",       1.24788,      -1.23401,   185.578E-03,   7.76072E-03
C:/temp/dataset/8/5_24.odb,Step-1,Increment      1: Step Time =    1.000,"PART-1-1",           380,       10.9276,      -4.23857,            0.,NA,NA,"",       1.24357,      -1.22878,   191.281E-03,   8.50153E-03
C:/temp/dataset/8/5_24.odb,Step-1,Increment      1: Step Time =    1.000,"PART-1-1",           381,       12.3627,      -3.72635,            0.,NA,NA,"",       1.24964,      -1.23126,   213.568E-03,   6.69423E-03
C:/temp/dataset/8/5_24.odb,Step-1,Increment      1: Step Time =    1.000,"PART-1-1",           382,       13.8122,   56.1618E-03,            0.,NA,NA,"",       1.27241,      -1.25171,   228.567E-03,   2.11699E-03
C:/temp/dataset/8/5_24.odb,Step-1,Increment      1: Step Time =    1.000,"PART-1-1",           383,           15.,       1.23750,            0.,NA,NA,"",       1.28422,      -1.26145,   240.743E-03,   2.31203E-03
C:/temp/dataset/8/5_24.odb,Step-1,Increment      1: Step Time =    1.000,"PART-1-1",           384,       13.5130,       2.69080,            0.,NA,NA,"",       1.29285,      -1.27233,   229.471E-03,   2.59250E-03
C:/temp/dataset/8/5_24.odb,Step-1,Increment      1: Step Time =    1.000,"PART-1-1",           385,       12.3252,       1.50947,            0.,NA,NA,"",       1.27897,      -1.26086,   214.451E-03,   2.83465E-03
C:/temp/dataset/8/5_24.odb,Step-1,Increment      1: Step Time =    1.000,"PART-1-1",           386,       10.2711,       8.91868,            0.,NA,NA,"",       1.36280,      -1.34843,   197.344E-03,   1.33742E-03
C:/temp/dataset/8/5_24.odb,Step-1,Increment      1: Step Time =    1.000,"PART-1-1",           387,       9.14142,       8.35444,            0.,NA,NA,"",       1.35138,      -1.33910,   181.768E-03,   1.48527E-03
C:/temp/dataset/8/5_24.odb,Step-1,Increment      1: Step Time =    1.000,"PART-1-1",           388,       9.84573,       6.91985,            0.,NA,NA,"",       1.33148,      -1.31771,   191.009E-03,   1.31117E-03
C:/temp/dataset/8/5_24.odb,Step-1,Increment      1: Step Time =    1.000,"PART-1-1",           389,       10.9754,       7.48409,            0.,NA,NA,"",       1.34281,      -1.32690,   206.133E-03,   1.43905E-03
C:/temp/dataset/8/5_24.odb,Step-1,Increment      1: Step Time =    1.000,"PART-1-1",           390,       13.8339,       14.8863,            0.,NA,NA,"",       1.47518,      -1.45276,   256.193E-03,   1.13133E-03
C:/temp/dataset/8/5_24.odb,Step-1,Increment      1: Step Time =    1.000,"PART-1-1",           391,       12.7782,       13.6219,            0.,NA,NA,"",       1.44917,      -1.42954,   237.705E-03,   1.43077E-03
C:/temp/dataset/8/5_24.odb,Step-1,Increment      1: Step Time =    1.000,"PART-1-1",           392,       13.9443,       12.4043,            0.,NA,NA,"",       1.43196,      -1.40899,   255.478E-03,   1.74349E-03
C:/temp/dataset/8/5_24.odb,Step-1,Increment      1: Step Time =    1.000,"PART-1-1",           393,           15.,       13.6688,            0.,NA,NA,"",       1.45817,      -1.43199,   275.078E-03,   1.65892E-03
C:/temp/dataset/8/5_24.odb,Step-1,Increment      1: Step Time =    1.000,"PART-1-1",           394,       6.42614,       20.0555,            0.,NA,NA,"",       1.55403,      -1.54838,   132.460E-03,   1.72170E-03
C:/temp/dataset/8/5_24.odb,Step-1,Increment      1: Step Time =    1.000,"PART-1-1",           395,       7.39225,       21.3428,            0.,NA,NA,"",       1.57721,      -1.57026,   147.917E-03,   1.04500E-03
C:/temp/dataset/8/5_24.odb,Step-1,Increment      1: Step Time =    1.000,"PART-1-1",           396,       5.86323,       22.5571,            0.,NA,NA,"",       1.59639,      -1.59173,   121.858E-03,   765.877E-06
C:/temp/dataset/8/5_24.odb,Step-1,Increment      1: Step Time =    1.000,"PART-1-1",           397,       4.89712,       21.2698,            0.,NA,NA,"",       1.57466,      -1.57107,   106.211E-03,   1.60488E-03
C:/temp/dataset/8/5_24.odb,Step-1,Increment      1: Step Time =    1.000,"PART-1-1",           398,       13.8410,       27.5667,            0.,NA,NA,"",       1.69344,      -1.67410,   255.205E-03,   136.155E-06
C:/temp/dataset/8/5_24.odb,Step-1,Increment      1: Step Time =    1.000,"PART-1-1",           399,       12.7330,       26.4648,            0.,NA,NA,"",       1.67244,      -1.65561,   236.670E-03,   228.705E-06
C:/temp/dataset/8/5_24.odb,Step-1,Increment      1: Step Time =    1.000,"PART-1-1",           400,       13.8920,       25.1294,            0.,NA,NA,"",       1.65342,      -1.63338,   256.703E-03,   243.495E-06
C:/temp/dataset/8/5_24.odb,Step-1,Increment      1: Step Time =    1.000,"PART-1-1",           401,           15.,       26.2313,            0.,NA,NA,"",       1.67463,      -1.65189,   275.036E-03,   191.345E-06
C:/temp/dataset/8/5_24.odb,Step-1,Increment      1: Step Time =    1.000,"PART-1-1",           402,       1.26001,       27.5457,            0.,NA,NA,"",       1.67127,      -1.67052,   50.2432E-03,   251.118E-06
C:/temp/dataset/8/5_24.odb,Step-1,Increment      1: Step Time =    1.000,"PART-1-1",           403,   121.340E-03,       26.2982,            0.,NA,NA,"",       1.65199,      -1.65164,   33.6955E-03,   367.085E-06
C:/temp/dataset/8/5_24.odb,Step-1,Increment      1: Step Time =    1.000,"PART-1-1",           404,       1.36459,       25.1000,            0.,NA,NA,"",       1.63422,      -1.63339,   52.0559E-03,   512.234E-06
C:/temp/dataset/8/5_24.odb,Step-1,Increment      1: Step Time =    1.000,"PART-1-1",           405,       2.50327,       26.3475,            0.,NA,NA,"",       1.65386,      -1.65242,   68.8729E-03,   223.125E-06
C:/temp/dataset/8/5_24.odb,Step-1,Increment      1: Step Time =    1.000,"PART-1-1",           406,   134.275E-03,       23.8369,            0.,NA,NA,"",       1.61517,      -1.61481,   34.5085E-03,   816.709E-06
C:/temp/dataset/8/5_24.odb,Step-1,Increment      1: Step Time =    1.000,"PART-1-1",           407,       1.25833,       22.5836,            0.,NA,NA,"",       1.59605,      -1.59522,   51.3363E-03,   1.15001E-03
C:/temp/dataset/8/5_24.odb,Step-1,Increment      1: Step Time =    1.000,"PART-1-1",           408,       2.48865,       23.8467,            0.,NA,NA,"",       1.61524,      -1.61376,   69.0303E-03,   798.074E-06
C:/temp/dataset/8/5_24.odb,Step-1,Increment      1: Step Time =    1.000,"PART-1-1",           409,      -5.93101,       26.7355,            0.,NA,NA,"",       1.65935,      -1.65857,  -50.8777E-03,   361.613E-06
C:/temp/dataset/8/5_24.odb,Step-1,Increment      1: Step Time =    1.000,"PART-1-1",           410,      -5.38229,       25.2750,            0.,NA,NA,"",       1.63847,      -1.63791,  -42.8454E-03,   581.780E-06
C:/temp/dataset/8/5_24.odb,Step-1,Increment      1: Step Time =    1.000,"PART-1-1",           411,      -3.59290,       25.9597,            0.,NA,NA,"",       1.64724,      -1.64714,  -18.5531E-03,   498.115E-06
C:/temp/dataset/8/5_24.odb,Step-1,Increment      1: Step Time =    1.000,"PART-1-1",           412,      -4.14162,       27.4201,            0.,NA,NA,"",       1.66829,      -1.66808,  -26.4562E-03,   324.657E-06
C:/temp/dataset/8/5_24.odb,Step-1,Increment      1: Step Time =    1.000,"PART-1-1",           413,      -13.7895,       17.4912,            0.,NA,NA,"",       1.54314,      -1.53456,  -162.536E-03,   1.43040E-03
C:/temp/dataset/8/5_24.odb,Step-1,Increment      1: Step Time =    1.000,"PART-1-1",           414,      -12.5357,       18.7235,            0.,NA,NA,"",       1.55869,      -1.55213,  -142.886E-03,   1.19227E-03
C:/temp/dataset/8/5_24.odb,Step-1,Increment      1: Step Time =    1.000,"PART-1-1",           415,      -13.7462,       19.9824,            0.,NA,NA,"",       1.57668,      -1.56856,  -159.807E-03,   891.636E-06
C:/temp/dataset/8/5_24.odb,Step-1,Increment      1: Step Time =    1.000,"PART-1-1",           416,          -15.,         18.75,            0.,NA,NA,"",       1.56135,      -1.55112,  -178.399E-03,   1.38356E-03
C:/temp/dataset/8/5_24.odb,Step-1,Increment      1: Step Time =    1.000,"PART-1-1",           417,      -7.55055,       18.6209,            0.,NA,NA,"",       1.55193,      -1.55048,  -67.1353E-03,   1.53657E-03
C:/temp/dataset/8/5_24.odb,Step-1,Increment      1: Step Time =    1.000,"PART-1-1",           418,      -6.28038,       17.4701,            0.,NA,NA,"",       1.53526,      -1.53454,  -47.0804E-03,   1.70378E-03
C:/temp/dataset/8/5_24.odb,Step-1,Increment      1: Step Time =    1.000,"PART-1-1",           419,           -5.,         18.75,            0.,NA,NA,"",       1.55110,      -1.55077,  -31.5126E-03,   1.91664E-03
C:/temp/dataset/8/5_24.odb,Step-1,Increment      1: Step Time =    1.000,"PART-1-1",           420,      -6.27018,       19.9008,            0.,NA,NA,"",       1.56690,      -1.56610,  -50.0716E-03,   1.61446E-03
C:/temp/dataset/8/5_24.odb,Step-1,Increment      1: Step Time =    1.000,"PART-1-1",           421,            5.,         18.75,            0.,NA,NA,"",       1.52703,      -1.52325,   107.466E-03,   1.12152E-03
C:/temp/dataset/8/5_24.odb,Step-1,Increment      1: Step Time =    1.000,"PART-1-1",           422,       6.30600,       17.4335,            0.,NA,NA,"",       1.50422,      -1.49849,   131.122E-03,   671.319E-06
C:/temp/dataset/8/5_24.odb,Step-1,Increment      1: Step Time =    1.000,"PART-1-1",           423,       7.73213,       18.7390,            0.,NA,NA,"",       1.53080,      -1.52292,   155.106E-03,   1.32875E-03
C:/temp/dataset/8/5_24.odb,Step-1,Increment      1: Step Time =    1.000,"PART-1-1",           424,         -6.25,          -30.,            0.,NA,NA,"",            0.,  -11.9575E-39,  -3.31301E-39,   12.6057E-03
C:/temp/dataset/8/5_24.odb,Step-1,Increment      1: Step Time =    1.000,"PART-1-1",           425,      -4.93560,      -28.8558,            0.,NA,NA,"",   26.7579E-03,  -26.7566E-03,   264.603E-06,   15.4442E-03
C:/temp/dataset/8/5_24.odb,Step-1,Increment      1: Step Time =    1.000,"PART-1-1",           426,      -6.05680,      -27.7304,            0.,NA,NA,"",   47.7804E-03,  -47.7273E-03,   2.25315E-03,   14.5511E-03
C:/temp/dataset/8/5_24.odb,Step-1,Increment      1: Step Time =    1.000,"PART-1-1",           427,      -7.37120,      -28.8746,            0.,NA,NA,"",   19.4939E-03,  -19.4625E-03,  -1.10674E-03,   11.3317E-03
C:/temp/dataset/8/5_24.odb,Step-1,Increment      1: Step Time =    1.000,"PART-1-1",           428,       8.60466,       1.06565,            0.,NA,NA,"",       1.26192,      -1.25042,   169.940E-03,   3.80578E-03
C:/temp/dataset/8/5_24.odb,Step-1,Increment      1: Step Time =    1.000,"PART-1-1",           429,       8.83240,       2.57689,            0.,NA,NA,"",       1.27608,      -1.26403,   174.990E-03,   2.76131E-03
C:/temp/dataset/8/5_24.odb,Step-1,Increment      1: Step Time =    1.000,"PART-1-1",           430,       6.85789,       2.90810,            0.,NA,NA,"",       1.27247,      -1.26310,   154.108E-03,   2.01485E-03
C:/temp/dataset/8/5_24.odb,Step-1,Increment      1: Step Time =    1.000,"PART-1-1",           431,       6.63016,       1.39685,            0.,NA,NA,"",       1.25689,      -1.24782,   150.710E-03,   2.84422E-03
C:/temp/dataset/8/5_24.odb,Step-1,Increment      1: Step Time =    1.000,"PART-1-1",           432,       5.99259,      -9.88635,            0.,NA,NA,"",       1.14356,      -1.14307,   33.2607E-03,   21.8869E-03
C:/temp/dataset/8/5_24.odb,Step-1,Increment      1: Step Time =    1.000,"PART-1-1",           433,            5.,        -11.25,            0.,NA,NA,"",       1.08742,      -1.08701,  -29.9541E-03,   28.5631E-03
C:/temp/dataset/8/5_24.odb,Step-1,Increment      1: Step Time =    1.000,"PART-1-1",           434,       6.38932,      -12.3587,            0.,NA,NA,"",       1.05653,      -1.05653,   3.52080E-03,   20.9813E-03
C:/temp/dataset/8/5_24.odb,Step-1,Increment      1: Step Time =    1.000,"PART-1-1",           435,       7.38191,      -10.9950,            0.,NA,NA,"",       1.12365,      -1.12186,   63.4333E-03,   14.5855E-03
C:/temp/dataset/8/5_24.odb,Step-1,Increment      1: Step Time =    1.000,"PART-1-1",           436,       13.8031,      -7.70967,            0.,NA,NA,"",       1.22964,      -1.20329,   253.184E-03,   10.6908E-03
C:/temp/dataset/8/5_24.odb,Step-1,Increment      1: Step Time =    1.000,"PART-1-1",           437,       13.8997,      -10.2100,            0.,NA,NA,"",       1.22457,      -1.19160,   282.276E-03,   18.0955E-03
C:/temp/dataset/8/5_24.odb,Step-1,Increment      1: Step Time =    1.000,"PART-1-1",           438,           15.,      -8.79375,            0.,NA,NA,"",       1.22041,      -1.18868,   276.438E-03,   13.3751E-03
C:/temp/dataset/8/5_24.odb,Step-1,Increment      1: Step Time =    1.000,"PART-1-1",           439,       12.4250,      -16.5409,            0.,NA,NA,"",   890.215E-03,  -860.868E-03,   226.689E-03,   30.2160E-03
C:/temp/dataset/8/5_24.odb,Step-1,Increment      1: Step Time =    1.000,"PART-1-1",           440,       13.6481,      -17.7375,            0.,NA,NA,"",   836.665E-03,  -786.176E-03,   286.246E-03,   27.3905E-03
C:/temp/dataset/8/5_24.odb,Step-1,Increment      1: Step Time =    1.000,"PART-1-1",           441,           15.,      -16.3312,            0.,NA,NA,"",       1.00325,  -927.957E-03,   381.327E-03,   20.7811E-03
C:/temp/dataset/8/5_24.odb,Step-1,Increment      1: Step Time =    1.000,"PART-1-1",           442,       12.6431,      -19.1391,            0.,NA,NA,"",   666.537E-03,  -632.167E-03,   211.275E-03,   36.7360E-03
C:/temp/dataset/8/5_24.odb,Step-1,Increment      1: Step Time =    1.000,"PART-1-1",           443,       13.9950,      -20.2453,            0.,NA,NA,"",   617.743E-03,  -552.140E-03,   277.033E-03,   29.3487E-03
C:/temp/dataset/8/5_24.odb,Step-1,Increment      1: Step Time =    1.000,"PART-1-1",           444,           15.,      -18.8438,            0.,NA,NA,"",   815.037E-03,  -721.596E-03,   378.925E-03,   24.5718E-03
C:/temp/dataset/8/5_24.odb,Step-1,Increment      1: Step Time =    1.000,"PART-1-1",           445,      -5.98837,      -22.7771,            0.,NA,NA,"",   161.873E-03,  -159.021E-03,   30.2522E-03,   14.1715E-03
C:/temp/dataset/8/5_24.odb,Step-1,Increment      1: Step Time =    1.000,"PART-1-1",           446,      -7.09286,      -24.1492,            0.,NA,NA,"",   122.295E-03,  -121.699E-03,   12.0563E-03,   10.4843E-03
C:/temp/dataset/8/5_24.odb,Step-1,Increment      1: Step Time =    1.000,"PART-1-1",           447,      -5.93941,      -25.3506,            0.,NA,NA,"",   103.026E-03,  -102.276E-03,   12.4035E-03,   15.1118E-03
C:/temp/dataset/8/5_24.odb,Step-1,Increment      1: Step Time =    1.000,"PART-1-1",           448,      -4.83491,      -23.9785,            0.,NA,NA,"",   142.708E-03,  -140.849E-03,   22.9590E-03,   17.9710E-03
C:/temp/dataset/8/5_24.odb,Step-1,Increment      1: Step Time =    1.000,"PART-1-1",           449,      -9.79906,      -28.8416,            0.,NA,NA,"",   16.5699E-03,  -15.5652E-03,  -5.68211E-03,   10.1975E-03
C:/temp/dataset/8/5_24.odb,Step-1,Increment      1: Step Time =    1.000,"PART-1-1",           450,      -10.8940,      -27.4068,            0.,NA,NA,"",   45.5173E-03,  -41.4715E-03,  -18.7601E-03,   12.9621E-03
C:/temp/dataset/8/5_24.odb,Step-1,Increment      1: Step Time =    1.000,"PART-1-1",           451,      -12.3450,      -28.5652,            0.,NA,NA,"",   26.4763E-03,  -20.9370E-03,  -16.2061E-03,   15.7378E-03
C:/temp/dataset/8/5_24.odb,Step-1,Increment      1: Step Time =    1.000,"PART-1-1",           452,        -11.25,          -30.,            0.,NA,NA,"",            0.,  -6.28953E-39,  -20.4179E-39,   12.1427E-03
C:/temp/dataset/8/5_24.odb,Step-1,Increment      1: Step Time =    1.000,"PART-1-1",           453,      -13.5399,       7.35912,            0.,NA,NA,"",       1.37866,      -1.36703,  -178.736E-03,   3.45470E-03
C:/temp/dataset/8/5_24.odb,Step-1,Increment      1: Step Time =    1.000,"PART-1-1",           454,          -15.,          6.25,            0.,NA,NA,"",       1.35805,      -1.34116,  -213.471E-03,   5.27385E-03
C:/temp/dataset/8/5_24.odb,Step-1,Increment      1: Step Time =    1.000,"PART-1-1",           455,      -13.9199,       4.81312,            0.,NA,NA,"",       1.32737,      -1.31287,  -195.708E-03,   4.60140E-03
C:/temp/dataset/8/5_24.odb,Step-1,Increment      1: Step Time =    1.000,"PART-1-1",           456,      -12.4598,       5.92224,            0.,NA,NA,"",       1.34864,      -1.33928,  -158.610E-03,   2.98448E-03
C:/temp/dataset/8/5_24.odb,Step-1,Increment      1: Step Time =    1.000,"PART-1-1",           457,      -14.0702,       2.40608,            0.,NA,NA,"",       1.27406,      -1.25661,  -210.162E-03,   6.09066E-03
C:/temp/dataset/8/5_24.odb,Step-1,Increment      1: Step Time =    1.000,"PART-1-1",           458,          -15.,          1.25,            0.,NA,NA,"",       1.24742,      -1.22379,  -241.650E-03,   8.46124E-03
C:/temp/dataset/8/5_24.odb,Step-1,Increment      1: Step Time =    1.000,"PART-1-1",           459,      -13.9245,  -19.3588E-03,            0.,NA,NA,"",       1.21319,      -1.19312,  -219.771E-03,   7.46074E-03
C:/temp/dataset/8/5_24.odb,Step-1,Increment      1: Step Time =    1.000,"PART-1-1",           460,      -12.9947,       1.13672,            0.,NA,NA,"",       1.24163,      -1.22759,  -186.223E-03,   5.30727E-03
C:/temp/dataset/8/5_24.odb,Step-1,Increment      1: Step Time =    1.000,"PART-1-1",           461,      -13.6376,      -2.69932,            0.,NA,NA,"",       1.13145,      -1.10846,  -226.956E-03,   7.90483E-03
C:/temp/dataset/8/5_24.odb,Step-1,Increment      1: Step Time =    1.000,"PART-1-1",           462,          -15.,         -3.75,            0.,NA,NA,"",       1.09979,      -1.06201,  -285.793E-03,   11.0608E-03
C:/temp/dataset/8/5_24.odb,Step-1,Increment      1: Step Time =    1.000,"PART-1-1",           463,      -14.1618,      -5.01381,            0.,NA,NA,"",       1.04722,      -1.01389,  -262.084E-03,   8.50237E-03
C:/temp/dataset/8/5_24.odb,Step-1,Increment      1: Step Time =    1.000,"PART-1-1",           464,      -12.7995,      -3.96314,            0.,NA,NA,"",       1.08297,      -1.06388,  -202.473E-03,   5.65370E-03
C:/temp/dataset/8/5_24.odb,Step-1,Increment      1: Step Time =    1.000,"PART-1-1",           465,          -15.,         -8.75,            0.,NA,NA,"",   886.585E-03,  -826.837E-03,  -319.958E-03,   4.18720E-03
C:/temp/dataset/8/5_24.odb,Step-1,Increment      1: Step Time =    1.000,"PART-1-1",           466,      -13.7348,      -9.99734,            0.,NA,NA,"",   803.724E-03,  -761.681E-03,  -256.543E-03,   4.53163E-03
C:/temp/dataset/8/5_24.odb,Step-1,Increment      1: Step Time =    1.000,"PART-1-1",           467,      -12.3830,      -8.57451,            0.,NA,NA,"",   865.165E-03,  -842.695E-03,  -195.897E-03,   7.68604E-03
C:/temp/dataset/8/5_24.odb,Step-1,Increment      1: Step Time =    1.000,"PART-1-1",           468,      -13.6482,      -7.32717,            0.,NA,NA,"",   939.598E-03,  -905.597E-03,  -250.477E-03,   5.94679E-03
C:/temp/dataset/8/5_24.odb,Step-1,Increment      1: Step Time =    1.000,"PART-1-1",           469,      -11.2232,      -10.0773,            0.,NA,NA,"",   772.912E-03,  -759.427E-03,  -143.746E-03,   9.80873E-03
C:/temp/dataset/8/5_24.odb,Step-1,Increment      1: Step Time =    1.000,"PART-1-1",           470,      -9.87788,      -9.01957,            0.,NA,NA,"",   826.006E-03,  -821.006E-03,  -90.7452E-03,   11.0891E-03
C:/temp/dataset/8/5_24.odb,Step-1,Increment      1: Step Time =    1.000,"PART-1-1",           471,      -11.0377,      -7.51681,            0.,NA,NA,"",   913.667E-03,  -902.798E-03,  -140.513E-03,   8.64252E-03
C:/temp/dataset/8/5_24.odb,Step-1,Increment      1: Step Time =    1.000,"PART-1-1",           472,       1.26271,  -42.9986E-03,            0.,NA,NA,"",       1.21988,      -1.21421,   117.524E-03,   6.90921E-03
C:/temp/dataset/8/5_24.odb,Step-1,Increment      1: Step Time =    1.000,"PART-1-1",           473,  -3.24210E-03,      -1.27656,            0.,NA,NA,"",       1.19587,      -1.19102,   107.586E-03,   8.06253E-03
C:/temp/dataset/8/5_24.odb,Step-1,Increment      1: Step Time =    1.000,"PART-1-1",           474,       3.63434,       22.5567,            0.,NA,NA,"",       1.59518,      -1.59283,   86.5802E-03,   874.774E-06
C:/temp/dataset/8/5_24.odb,Step-1,Increment      1: Step Time =    1.000,"PART-1-1",           475,       2.48722,       21.2868,            0.,NA,NA,"",       1.57557,      -1.57401,   70.0865E-03,   1.58939E-03
C:/temp/dataset/8/5_24.odb,Step-1,Increment      1: Step Time =    1.000,"PART-1-1",           476,          3.75,           20.,            0.,NA,NA,"",       1.55466,      -1.55206,   89.9483E-03,   2.70649E-03
C:/temp/dataset/8/5_24.odb,Step-1,Increment      1: Step Time =    1.000,"PART-1-1",           477,       13.0518,       11.2605,            0.,NA,NA,"",       1.40920,      -1.38865,   239.770E-03,   1.78949E-03
C:/temp/dataset/8/5_24.odb,Step-1,Increment      1: Step Time =    1.000,"PART-1-1",           478,       14.1075,       10.0124,            0.,NA,NA,"",       1.39240,      -1.36902,   254.082E-03,   2.43326E-03
C:/temp/dataset/8/5_24.odb,Step-1,Increment      1: Step Time =    1.000,"PART-1-1",           479,           15.,       11.1563,            0.,NA,NA,"",       1.41505,      -1.38891,   270.738E-03,   2.52972E-03
C:/temp/dataset/8/5_24.odb,Step-1,Increment      1: Step Time =    1.000,"PART-1-1",           480,       10.1417,       15.9039,            0.,NA,NA,"",       1.48297,      -1.47001,   195.614E-03,   1.39235E-03
C:/temp/dataset/8/5_24.odb,Step-1,Increment      1: Step Time =    1.000,"PART-1-1",           481,       11.4219,       14.7636,            0.,NA,NA,"",       1.46553,      -1.44948,   216.291E-03,   1.31297E-03
C:/temp/dataset/8/5_24.odb,Step-1,Increment      1: Step Time =    1.000,"PART-1-1",           482,       12.5880,       16.1115,            0.,NA,NA,"",       1.49311,      -1.47437,   235.826E-03,   1.13571E-03
C:/temp/dataset/8/5_24.odb,Step-1,Increment      1: Step Time =    1.000,"PART-1-1",           483,       11.3078,       17.2518,            0.,NA,NA,"",       1.51027,      -1.49493,   214.709E-03,   1.15699E-03
C:/temp/dataset/8/5_24.odb,Step-1,Increment      1: Step Time =    1.000,"PART-1-1",           484,       14.0683,       7.62638,            0.,NA,NA,"",       1.35521,      -1.33231,   248.113E-03,   2.95303E-03
C:/temp/dataset/8/5_24.odb,Step-1,Increment      1: Step Time =    1.000,"PART-1-1",           485,       12.9668,       6.67122,            0.,NA,NA,"",       1.33757,      -1.31744,   231.213E-03,   2.20905E-03
C:/temp/dataset/8/5_24.odb,Step-1,Increment      1: Step Time =    1.000,"PART-1-1",           486,       13.8986,       5.23234,            0.,NA,NA,"",       1.32201,      -1.30009,   239.753E-03,   3.03313E-03
C:/temp/dataset/8/5_24.odb,Step-1,Increment      1: Step Time =    1.000,"PART-1-1",           487,           15.,        6.1875,            0.,NA,NA,"",       1.33877,      -1.31398,   256.456E-03,   3.82526E-03
C:/temp/dataset/8/5_24.odb,Step-1,Increment      1: Step Time =    1.000,"PART-1-1",           488,       7.13496,       8.72104,            0.,NA,NA,"",       1.35376,      -1.34507,   153.146E-03,   2.03200E-03
C:/temp/dataset/8/5_24.odb,Step-1,Increment      1: Step Time =    1.000,"PART-1-1",           489,       6.11605,       9.93638,            0.,NA,NA,"",       1.37247,      -1.36576,   135.539E-03,   1.92333E-03
C:/temp/dataset/8/5_24.odb,Step-1,Increment      1: Step Time =    1.000,"PART-1-1",           490,            5.,          8.75,            0.,NA,NA,"",       1.35281,      -1.34747,   120.125E-03,   2.75350E-03
C:/temp/dataset/8/5_24.odb,Step-1,Increment      1: Step Time =    1.000,"PART-1-1",           491,       6.01891,       7.53466,            0.,NA,NA,"",       1.33367,      -1.32635,   139.517E-03,   2.65647E-03
C:/temp/dataset/8/5_24.odb,Step-1,Increment      1: Step Time =    1.000,"PART-1-1",           492,   29.3773E-03,       3.74235,            0.,NA,NA,"",       1.27085,      -1.26606,   110.277E-03,   2.82596E-03
C:/temp/dataset/8/5_24.odb,Step-1,Increment      1: Step Time =    1.000,"PART-1-1",           493,         -1.25,            5.,            0.,NA,NA,"",       1.28917,      -1.28570,   94.5911E-03,   5.25039E-03
C:/temp/dataset/8/5_24.odb,Step-1,Increment      1: Step Time =    1.000,"PART-1-1",           494,      -2.45171,       3.76422,            0.,NA,NA,"",       1.27439,      -1.27183,   80.6639E-03,   3.82360E-03
C:/temp/dataset/8/5_24.odb,Step-1,Increment      1: Step Time =    1.000,"PART-1-1",           495,      -3.55010,       2.55765,            0.,NA,NA,"",       1.25326,      -1.25163,   63.9340E-03,   2.17729E-03
C:/temp/dataset/8/5_24.odb,Step-1,Increment      1: Step Time =    1.000,"PART-1-1",           496,         -3.75,            5.,            0.,NA,NA,"",       1.30192,      -1.30079,   54.2706E-03,   6.80789E-03
C:/temp/dataset/8/5_24.odb,Step-1,Increment      1: Step Time =    1.000,"PART-1-1",           497,      -4.84840,       3.79343,            0.,NA,NA,"",       1.27967,      -1.27926,   32.1175E-03,   5.60770E-03
C:/temp/dataset/8/5_24.odb,Step-1,Increment      1: Step Time =    1.000,"PART-1-1",           498,      -13.7264,       27.6066,            0.,NA,NA,"",       1.67835,      -1.67087,  -158.320E-03,   35.3618E-06
C:/temp/dataset/8/5_24.odb,Step-1,Increment      1: Step Time =    1.000,"PART-1-1",           499,          -15.,         26.25,            0.,NA,NA,"",       1.66162,      -1.65232,  -175.581E-03,   67.2905E-06
C:/temp/dataset/8/5_24.odb,Step-1,Increment      1: Step Time =    1.000,"PART-1-1",           500,      -13.4386,       25.0669,            0.,NA,NA,"",       1.64378,      -1.63653,  -154.274E-03,   188.495E-06
C:/temp/dataset/8/5_24.odb,Step-1,Increment      1: Step Time =    1.000,"PART-1-1",           501,      -12.1650,       26.4235,            0.,NA,NA,"",       1.66057,      -1.65493,  -136.801E-03,   195.944E-06
C:/temp/dataset/8/5_24.odb,Step-1,Increment      1: Step Time =    1.000,"PART-1-1",           502,      -3.53283,       23.8665,            0.,NA,NA,"",       1.61722,      -1.61713,  -16.9497E-03,   786.037E-06
C:/temp/dataset/8/5_24.odb,Step-1,Increment      1: Step Time =    1.000,"PART-1-1",           503,      -4.96963,       24.1916,            0.,NA,NA,"",       1.62290,      -1.62248,  -36.6895E-03,   761.398E-06
C:/temp/dataset/8/5_24.odb,Step-1,Increment      1: Step Time =    1.000,"PART-1-1",           504,      -5.34791,       22.7845,            0.,NA,NA,"",       1.60366,      -1.60314,  -40.9394E-03,   1.02255E-03
C:/temp/dataset/8/5_24.odb,Step-1,Increment      1: Step Time =    1.000,"PART-1-1",           505,      -3.91112,       22.4594,            0.,NA,NA,"",       1.59770,      -1.59755,  -21.3435E-03,   943.845E-06
C:/temp/dataset/8/5_24.odb,Step-1,Increment      1: Step Time =    1.000,"PART-1-1",           506,      -12.3994,       21.2122,            0.,NA,NA,"",       1.59152,      -1.58534,  -140.063E-03,   843.301E-06
C:/temp/dataset/8/5_24.odb,Step-1,Increment      1: Step Time =    1.000,"PART-1-1",           507,      -13.6532,       22.4798,            0.,NA,NA,"",       1.60963,      -1.60190,  -157.498E-03,   465.088E-06
C:/temp/dataset/8/5_24.odb,Step-1,Increment      1: Step Time =    1.000,"PART-1-1",           508,          -15.,         21.25,            0.,NA,NA,"",       1.59483,      -1.58504,  -176.371E-03,   730.663E-06
C:/temp/dataset/8/5_24.odb,Step-1,Increment      1: Step Time =    1.000,"PART-1-1",           509,      -8.82323,       17.4409,            0.,NA,NA,"",       1.53758,      -1.53519,  -85.5782E-03,   1.40761E-03
C:/temp/dataset/8/5_24.odb,Step-1,Increment      1: Step Time =    1.000,"PART-1-1",           510,      -8.76994,       19.8173,            0.,NA,NA,"",       1.56902,      -1.56665,  -86.2733E-03,   1.36835E-03
C:/temp/dataset/8/5_24.odb,Step-1,Increment      1: Step Time =    1.000,"PART-1-1",           511,      -10.0426,       18.6373,            0.,NA,NA,"",       1.55494,      -1.55139,  -104.980E-03,   1.34959E-03
C:/temp/dataset/8/5_24.odb,Step-1,Increment      1: Step Time =    1.000,"PART-1-1",           512,   21.1090E-03,       21.2968,            0.,NA,NA,"",       1.57775,      -1.57738,   34.3125E-03,   1.41823E-03
C:/temp/dataset/8/5_24.odb,Step-1,Increment      1: Step Time =    1.000,"PART-1-1",           513,          1.25,           20.,            0.,NA,NA,"",       1.55778,      -1.55687,   53.2320E-03,   1.87889E-03
C:/temp/dataset/8/5_24.odb,Step-1,Increment      1: Step Time =    1.000,"PART-1-1",           514,       13.8176,       22.6447,            0.,NA,NA,"",       1.61172,      -1.59121,   256.297E-03,   267.756E-06
C:/temp/dataset/8/5_24.odb,Step-1,Increment      1: Step Time =    1.000,"PART-1-1",           515,       12.3404,       21.5086,            0.,NA,NA,"",       1.58843,      -1.57149,   231.370E-03,   369.645E-06
C:/temp/dataset/8/5_24.odb,Step-1,Increment      1: Step Time =    1.000,"PART-1-1",           516,       13.5229,       20.0701,            0.,NA,NA,"",       1.56654,      -1.54614,   251.958E-03,   347.476E-06
C:/temp/dataset/8/5_24.odb,Step-1,Increment      1: Step Time =    1.000,"PART-1-1",           517,           15.,       21.2062,            0.,NA,NA,"",       1.59063,      -1.56627,   277.309E-03,   259.615E-06
C:/temp/dataset/8/5_24.odb,Step-1,Increment      1: Step Time =    1.000,"PART-1-1",           518,          6.25,           30.,            0.,NA,NA,"",       1.71626,      -1.71149,   127.947E-03,   699.030E-06
C:/temp/dataset/8/5_24.odb,Step-1,Increment      1: Step Time =    1.000,"PART-1-1",           519,       4.99916,       28.7599,            0.,NA,NA,"",       1.69424,      -1.69082,   107.680E-03,   503.318E-06
C:/temp/dataset/8/5_24.odb,Step-1,Increment      1: Step Time =    1.000,"PART-1-1",           520,       6.36817,       27.3763,            0.,NA,NA,"",       1.67440,      -1.66937,   129.662E-03,   264.116E-06
C:/temp/dataset/8/5_24.odb,Step-1,Increment      1: Step Time =    1.000,"PART-1-1",           521,       7.61901,       28.6164,            0.,NA,NA,"",       1.69650,      -1.68984,   150.218E-03,   395.576E-06
C:/temp/dataset/8/5_24.odb,Step-1,Increment      1: Step Time =    1.000,"PART-1-1",           522,       9.03329,       27.4617,            0.,NA,NA,"",       1.68049,      -1.67148,   173.842E-03,   318.755E-06
C:/temp/dataset/8/5_24.odb,Step-1,Increment      1: Step Time =    1.000,"PART-1-1",           523,       10.1643,       28.8453,            0.,NA,NA,"",       1.70554,      -1.69460,   192.813E-03,   272.580E-06
C:/temp/dataset/8/5_24.odb,Step-1,Increment      1: Step Time =    1.000,"PART-1-1",           524,          8.75,           30.,            0.,NA,NA,"",       1.72152,      -1.71319,   169.084E-03,   467.143E-06
C:/temp/dataset/8/5_24.odb,Step-1,Increment      1: Step Time =    1.000,"PART-1-1",           525,   8.17364E-03,       28.7581,            0.,NA,NA,"",       1.68852,      -1.68822,   31.9412E-03,   384.654E-06
C:/temp/dataset/8/5_24.odb,Step-1,Increment      1: Step Time =    1.000,"PART-1-1",           526,       2.50184,       28.7876,            0.,NA,NA,"",       1.69127,      -1.68986,   68.8955E-03,   491.110E-06
C:/temp/dataset/8/5_24.odb,Step-1,Increment      1: Step Time =    1.000,"PART-1-1",           527,          1.25,           30.,            0.,NA,NA,"",       1.70807,      -1.70733,   50.3198E-03,   713.318E-06
C:/temp/dataset/8/5_24.odb,Step-1,Increment      1: Step Time =    1.000,"PART-1-1",           528,      -5.24228,       28.8821,            0.,NA,NA,"",       1.68918,      -1.68866,  -41.8204E-03,   127.345E-06
C:/temp/dataset/8/5_24.odb,Step-1,Increment      1: Step Time =    1.000,"PART-1-1",           529,      -2.64934,       28.5381,            0.,NA,NA,"",       1.68420,      -1.68419,  -5.85667E-03,   242.406E-06
C:/temp/dataset/8/5_24.odb,Step-1,Increment      1: Step Time =    1.000,"PART-1-1",           530,         -3.75,           30.,            0.,NA,NA,"",       1.70469,      -1.70456,  -21.2337E-03,   243.032E-06
C:/temp/dataset/8/5_24.odb,Step-1,Increment      1: Step Time =    1.000,"PART-1-1",           531,      -7.66846,       29.0326,            0.,NA,NA,"",       1.69229,      -1.69062,  -75.2005E-03,   96.0887E-06
C:/temp/dataset/8/5_24.odb,Step-1,Increment      1: Step Time =    1.000,"PART-1-1",           532,      -6.66074,       27.9147,            0.,NA,NA,"",       1.67624,      -1.67512,  -61.1755E-03,   197.169E-06
C:/temp/dataset/8/5_24.odb,Step-1,Increment      1: Step Time =    1.000,"PART-1-1",           533,         -6.25,           30.,            0.,NA,NA,"",       1.70497,      -1.70406,  -55.7999E-03,   35.6745E-06
C:/temp/dataset/8/5_24.odb,Step-1,Increment      1: Step Time =    1.000,"PART-1-1",           534,      -8.85273,       25.1596,            0.,NA,NA,"",       1.64000,      -1.63750,  -90.5594E-03,   471.027E-06
C:/temp/dataset/8/5_24.odb,Step-1,Increment      1: Step Time =    1.000,"PART-1-1",           535,      -8.23876,       24.0389,            0.,NA,NA,"",       1.62413,      -1.62208,  -81.5028E-03,   683.410E-06
C:/temp/dataset/8/5_24.odb,Step-1,Increment      1: Step Time =    1.000,"PART-1-1",           536,      -6.78155,       24.7842,            0.,NA,NA,"",       1.63279,      -1.63162,  -61.7744E-03,   634.452E-06
C:/temp/dataset/8/5_24.odb,Step-1,Increment      1: Step Time =    1.000,"PART-1-1",           537,      -7.39551,       25.9049,            0.,NA,NA,"",       1.64884,      -1.64732,  -70.7111E-03,   415.974E-06
C:/temp/dataset/8/5_24.odb,Step-1,Increment      1: Step Time =    1.000,"PART-1-1",           538,      -12.4764,       28.8566,            0.,NA,NA,"",       1.69393,      -1.68802,  -141.316E-03,   37.5004E-06
C:/temp/dataset/8/5_24.odb,Step-1,Increment      1: Step Time =    1.000,"PART-1-1",           539,        -13.75,           30.,            0.,NA,NA,"",       1.71094,      -1.70355,  -158.857E-03,   7.78154E-06
C:/temp/dataset/8/5_24.odb,Step-1,Increment      1: Step Time =    1.000,"PART-1-1",           540,          -15.,         28.75,            0.,NA,NA,"",       1.69549,      -1.68635,  -175.818E-03,   2.63395E-06
C:/temp/dataset/8/5_24.odb,Step-1,Increment      1: Step Time =    1.000,"PART-1-1",           541,      -7.55516,       16.2219,            0.,NA,NA,"",       1.51932,      -1.51795,  -64.6033E-03,   1.64918E-03
C:/temp/dataset/8/5_24.odb,Step-1,Increment      1: Step Time =    1.000,"PART-1-1",           542,      -6.27478,       15.0018,            0.,NA,NA,"",       1.50009,      -1.49949,  -42.4506E-03,   2.27815E-03
C:/temp/dataset/8/5_24.odb,Step-1,Increment      1: Step Time =    1.000,"PART-1-1",           543,           -5.,         16.25,            0.,NA,NA,"",       1.51664,      -1.51642,  -26.0938E-03,   2.60100E-03
C:/temp/dataset/8/5_24.odb,Step-1,Increment      1: Step Time =    1.000,"PART-1-1",           544,      -12.5375,       11.2943,            0.,NA,NA,"",       1.44890,      -1.44106,  -150.515E-03,   2.10453E-03
C:/temp/dataset/8/5_24.odb,Step-1,Increment      1: Step Time =    1.000,"PART-1-1",           545,      -11.2813,       10.1542,            0.,NA,NA,"",       1.42806,      -1.42232,  -127.932E-03,   1.56099E-03
C:/temp/dataset/8/5_24.odb,Step-1,Increment      1: Step Time =    1.000,"PART-1-1",           546,      -10.0769,       11.4281,            0.,NA,NA,"",       1.44859,      -1.44483,  -104.372E-03,   1.37866E-03
C:/temp/dataset/8/5_24.odb,Step-1,Increment      1: Step Time =    1.000,"PART-1-1",           547,      -11.3331,       12.5683,            0.,NA,NA,"",       1.46859,      -1.46307,  -127.222E-03,   1.46695E-03
C:/temp/dataset/8/5_24.odb,Step-1,Increment      1: Step Time =    1.000,"PART-1-1",           548,      -8.81802,       15.0067,            0.,NA,NA,"",       1.50321,      -1.50088,  -83.8255E-03,   1.43982E-03
C:/temp/dataset/8/5_24.odb,Step-1,Increment      1: Step Time =    1.000,"PART-1-1",           549,      -10.0861,       16.2257,            0.,NA,NA,"",       1.52207,      -1.51843,  -105.205E-03,   1.41106E-03
C:/temp/dataset/8/5_24.odb,Step-1,Increment      1: Step Time =    1.000,"PART-1-1",           550,      -13.7511,       10.0234,            0.,NA,NA,"",       1.42812,      -1.41728,  -175.672E-03,   3.07397E-03
C:/temp/dataset/8/5_24.odb,Step-1,Increment      1: Step Time =    1.000,"PART-1-1",           551,          -15.,         11.25,            0.,NA,NA,"",       1.44997,      -1.43685,  -194.650E-03,   3.67877E-03
C:/temp/dataset/8/5_24.odb,Step-1,Increment      1: Step Time =    1.000,"PART-1-1",           552,      -7.55101,       13.7795,            0.,NA,NA,"",       1.48326,      -1.48200,  -61.0827E-03,   1.96889E-03
C:/temp/dataset/8/5_24.odb,Step-1,Increment      1: Step Time =    1.000,"PART-1-1",           553,      -6.27623,       12.5278,            0.,NA,NA,"",       1.46167,      -1.46121,  -36.6243E-03,   2.84005E-03
C:/temp/dataset/8/5_24.odb,Step-1,Increment      1: Step Time =    1.000,"PART-1-1",           554,           -5.,         13.75,            0.,NA,NA,"",       1.47917,      -1.47904,  -19.1599E-03,   3.34409E-03
C:/temp/dataset/8/5_24.odb,Step-1,Increment      1: Step Time =    1.000,"PART-1-1",           555,      -7.73154,       8.68047,            0.,NA,NA,"",       1.39624,      -1.39516,  -54.9114E-03,   2.46120E-03
C:/temp/dataset/8/5_24.odb,Step-1,Increment      1: Step Time =    1.000,"PART-1-1",           556,      -6.43871,       7.39503,            0.,NA,NA,"",       1.36847,      -1.36827,  -23.5371E-03,   3.77738E-03
C:/temp/dataset/8/5_24.odb,Step-1,Increment      1: Step Time =    1.000,"PART-1-1",           557,           -5.,          8.75,            0.,NA,NA,"",       1.39257,      -1.39257,   291.637E-06,   5.05824E-03
C:/temp/dataset/8/5_24.odb,Step-1,Increment      1: Step Time =    1.000,"PART-1-1",           558,      -6.29283,       10.0354,            0.,NA,NA,"",       1.41902,      -1.41871,  -29.7047E-03,   3.42964E-03
C:/temp/dataset/8/5_24.odb,Step-1,Increment      1: Step Time =    1.000,"PART-1-1",           559,      -10.9724,       6.37301,            0.,NA,NA,"",       1.35555,      -1.34988,  -123.827E-03,   1.59297E-03
C:/temp/dataset/8/5_24.odb,Step-1,Increment      1: Step Time =    1.000,"PART-1-1",           560,      -11.8392,       4.13381,            0.,NA,NA,"",       1.30950,      -1.30125,  -146.795E-03,   2.75825E-03
C:/temp/dataset/8/5_24.odb,Step-1,Increment      1: Step Time =    1.000,"PART-1-1",           561,      -10.3518,       4.58458,            0.,NA,NA,"",       1.31623,      -1.31171,  -108.968E-03,   2.04666E-03
C:/temp/dataset/8/5_24.odb,Step-1,Increment      1: Step Time =    1.000,"PART-1-1",           562,      -7.08076,   207.918E-03,            0.,NA,NA,"",       1.20783,      -1.20779,  -9.11657E-03,   4.87203E-03
C:/temp/dataset/8/5_24.odb,Step-1,Increment      1: Step Time =    1.000,"PART-1-1",           563,      -6.69858,      -1.33808,            0.,NA,NA,"",       1.17005,      -1.17003,   7.29247E-03,   5.53628E-03
C:/temp/dataset/8/5_24.odb,Step-1,Increment      1: Step Time =    1.000,"PART-1-1",           564,      -5.21720,      -1.06412,            0.,NA,NA,"",       1.17855,      -1.17776,   43.1234E-03,   6.12162E-03
C:/temp/dataset/8/5_24.odb,Step-1,Increment      1: Step Time =    1.000,"PART-1-1",           565,      -5.59938,   481.880E-03,            0.,NA,NA,"",       1.21264,      -1.21232,   27.8757E-03,   4.59601E-03
C:/temp/dataset/8/5_24.odb,Step-1,Increment      1: Step Time =    1.000,"PART-1-1",           566,      -4.73360,       1.40018,            0.,NA,NA,"",       1.23130,      -1.23052,   43.7631E-03,   4.06717E-03
C:/temp/dataset/8/5_24.odb,Step-1,Increment      1: Step Time =    1.000,"PART-1-1",           567,      -3.61778,   109.205E-03,            0.,NA,NA,"",       1.20587,      -1.20390,   68.8226E-03,   4.58342E-03
C:/temp/dataset/8/5_24.odb,Step-1,Increment      1: Step Time =    1.000,"PART-1-1",           568,      -7.98115,      -4.65772,            0.,NA,NA,"",       1.05737,      -1.05703,  -26.7820E-03,   8.48408E-03
C:/temp/dataset/8/5_24.odb,Step-1,Increment      1: Step Time =    1.000,"PART-1-1",           569,      -6.28323,      -5.33636,            0.,NA,NA,"",       1.04011,      -1.03952,   34.9169E-03,   18.9837E-03
C:/temp/dataset/8/5_24.odb,Step-1,Increment      1: Step Time =    1.000,"PART-1-1",           570,      -5.33200,      -3.67088,            0.,NA,NA,"",       1.11159,      -1.11008,   57.9449E-03,   16.2479E-03
C:/temp/dataset/8/5_24.odb,Step-1,Increment      1: Step Time =    1.000,"PART-1-1",           571,      -7.02992,      -2.99224,            0.,NA,NA,"",       1.12411,      -1.12410,   3.76785E-03,   6.31774E-03
C:/temp/dataset/8/5_24.odb,Step-1,Increment      1: Step Time =    1.000,"PART-1-1",           572,      -9.50932,      -4.32694,            0.,NA,NA,"",       1.06547,      -1.06237,  -81.2776E-03,   5.70850E-03
C:/temp/dataset/8/5_24.odb,Step-1,Increment      1: Step Time =    1.000,"PART-1-1",           573,      -9.07148,      -2.62864,            0.,NA,NA,"",       1.12948,      -1.12760,  -65.0585E-03,   4.27114E-03
C:/temp/dataset/8/5_24.odb,Step-1,Increment      1: Step Time =    1.000,"PART-1-1",           574,      -11.0112,      -2.25660,            0.,NA,NA,"",       1.14112,      -1.13347,  -131.944E-03,   3.56587E-03
C:/temp/dataset/8/5_24.odb,Step-1,Increment      1: Step Time =    1.000,"PART-1-1",           575,      -11.4490,      -3.95490,            0.,NA,NA,"",       1.08018,      -1.06947,  -151.724E-03,   4.83644E-03
C:/temp/dataset/8/5_24.odb,Step-1,Increment      1: Step Time =    1.000,"PART-1-1",           576,      -12.8101,      -6.09098,            0.,NA,NA,"",   992.491E-03,  -969.832E-03,  -210.868E-03,   6.23412E-03
C:/temp/dataset/8/5_24.odb,Step-1,Increment      1: Step Time =    1.000,"PART-1-1",           577,          -15.,         -6.25,            0.,NA,NA,"",       1.00148,  -953.076E-03,  -307.582E-03,   8.97342E-03
C:/temp/dataset/8/5_24.odb,Step-1,Increment      1: Step Time =    1.000,"PART-1-1",           578,      -12.4915,      -11.2805,            0.,NA,NA,"",   716.929E-03,  -689.817E-03,  -195.295E-03,   8.73799E-03
C:/temp/dataset/8/5_24.odb,Step-1,Increment      1: Step Time =    1.000,"PART-1-1",           579,      -11.2634,      -12.5870,            0.,NA,NA,"",   629.194E-03,  -614.199E-03,  -136.543E-03,   10.2422E-03
C:/temp/dataset/8/5_24.odb,Step-1,Increment      1: Step Time =    1.000,"PART-1-1",           580,      -9.99512,      -11.3837,            0.,NA,NA,"",   689.357E-03,  -683.737E-03,  -87.8414E-03,   11.2570E-03
C:/temp/dataset/8/5_24.odb,Step-1,Increment      1: Step Time =    1.000,"PART-1-1",           581,      -13.7566,      -12.5332,            0.,NA,NA,"",   667.305E-03,  -619.131E-03,  -248.943E-03,   6.34191E-03
C:/temp/dataset/8/5_24.odb,Step-1,Increment      1: Step Time =    1.000,"PART-1-1",           582,          -15.,        -11.25,            0.,NA,NA,"",   760.980E-03,  -690.721E-03,  -319.367E-03,   1.97148E-03
C:/temp/dataset/8/5_24.odb,Step-1,Increment      1: Step Time =    1.000,"PART-1-1",           583,      -8.71482,      -10.1608,            0.,NA,NA,"",   756.249E-03,  -755.304E-03,  -37.7800E-03,   10.2668E-03
C:/temp/dataset/8/5_24.odb,Step-1,Increment      1: Step Time =    1.000,"PART-1-1",           584,      -7.42248,      -8.98866,            0.,NA,NA,"",   823.792E-03,  -823.678E-03,   13.6615E-03,   10.6190E-03
C:/temp/dataset/8/5_24.odb,Step-1,Increment      1: Step Time =    1.000,"PART-1-1",           585,      -8.58554,      -7.84743,            0.,NA,NA,"",   890.110E-03,  -889.116E-03,  -42.0529E-03,   11.5194E-03
C:/temp/dataset/8/5_24.odb,Step-1,Increment      1: Step Time =    1.000,"PART-1-1",           586,      -7.50773,      -13.8545,            0.,NA,NA,"",   542.033E-03,  -541.457E-03,   24.9944E-03,   8.54999E-03
C:/temp/dataset/8/5_24.odb,Step-1,Increment      1: Step Time =    1.000,"PART-1-1",           587,      -6.25830,      -15.0553,            0.,NA,NA,"",   484.347E-03,  -477.582E-03,   80.6723E-03,   6.94568E-03
C:/temp/dataset/8/5_24.odb,Step-1,Increment      1: Step Time =    1.000,"PART-1-1",           588,           -5.,        -13.75,            0.,NA,NA,"",   572.684E-03,  -553.246E-03,   147.940E-03,   4.36208E-03
C:/temp/dataset/8/5_24.odb,Step-1,Increment      1: Step Time =    1.000,"PART-1-1",           589,      -6.24942,      -12.5493,            0.,NA,NA,"",   623.305E-03,  -617.701E-03,   83.3966E-03,   4.32147E-03
C:/temp/dataset/8/5_24.odb,Step-1,Increment      1: Step Time =    1.000,"PART-1-1",           590,      -11.2978,      -17.6923,            0.,NA,NA,"",   357.996E-03,  -341.471E-03,  -107.510E-03,   10.7991E-03
C:/temp/dataset/8/5_24.odb,Step-1,Increment      1: Step Time =    1.000,"PART-1-1",           591,      -12.6450,      -18.8482,            0.,NA,NA,"",   329.696E-03,  -296.386E-03,  -144.411E-03,   12.1746E-03
C:/temp/dataset/8/5_24.odb,Step-1,Increment      1: Step Time =    1.000,"PART-1-1",           592,      -11.4281,      -20.3734,            0.,NA,NA,"",   247.338E-03,  -230.806E-03,  -88.9072E-03,   10.2415E-03
C:/temp/dataset/8/5_24.odb,Step-1,Increment      1: Step Time =    1.000,"PART-1-1",           593,      -10.0810,      -19.2175,            0.,NA,NA,"",   275.739E-03,  -269.905E-03,  -56.4207E-03,   9.47195E-03
C:/temp/dataset/8/5_24.odb,Step-1,Increment      1: Step Time =    1.000,"PART-1-1",           594,      -7.51421,      -16.3885,            0.,NA,NA,"",   401.502E-03,  -400.846E-03,   22.9387E-03,   11.2615E-03
C:/temp/dataset/8/5_24.odb,Step-1,Increment      1: Step Time =    1.000,"PART-1-1",           595,      -6.25590,      -17.5833,            0.,NA,NA,"",   346.148E-03,  -340.068E-03,   64.5890E-03,   12.3009E-03
C:/temp/dataset/8/5_24.odb,Step-1,Increment      1: Step Time =    1.000,"PART-1-1",           596,           -5.,        -16.25,            0.,NA,NA,"",   441.383E-03,  -419.781E-03,   136.391E-03,   11.5998E-03
C:/temp/dataset/8/5_24.odb,Step-1,Increment      1: Step Time =    1.000,"PART-1-1",           597,      -10.0205,      -13.8763,            0.,NA,NA,"",   545.393E-03,  -539.519E-03,  -79.8336E-03,   11.2807E-03
C:/temp/dataset/8/5_24.odb,Step-1,Increment      1: Step Time =    1.000,"PART-1-1",           598,      -8.77208,      -15.1278,            0.,NA,NA,"",   469.684E-03,  -468.946E-03,  -26.3186E-03,   10.2869E-03
C:/temp/dataset/8/5_24.odb,Step-1,Increment      1: Step Time =    1.000,"PART-1-1",           599,      -8.75613,      -12.6031,            0.,NA,NA,"",   613.385E-03,  -612.579E-03,  -31.4335E-03,   9.68582E-03
C:/temp/dataset/8/5_24.odb,Step-1,Increment      1: Step Time =    1.000,"PART-1-1",           600,      -7.46622,      -18.9660,            0.,NA,NA,"",   271.426E-03,  -270.763E-03,   18.9587E-03,   10.3663E-03
C:/temp/dataset/8/5_24.odb,Step-1,Increment      1: Step Time =    1.000,"PART-1-1",           601,      -8.77786,      -17.7139,            0.,NA,NA,"",   334.027E-03,  -333.292E-03,  -22.1356E-03,   10.8428E-03
C:/temp/dataset/8/5_24.odb,Step-1,Increment      1: Step Time =    1.000,"PART-1-1",           602,      -8.76934,      -20.4696,            0.,NA,NA,"",   218.299E-03,  -217.875E-03,  -13.5972E-03,   6.88485E-03
C:/temp/dataset/8/5_24.odb,Step-1,Increment      1: Step Time =    1.000,"PART-1-1",           603,      -14.0375,      -22.4038,            0.,NA,NA,"",   228.677E-03,  -180.027E-03,  -141.010E-03,   17.6406E-03
C:/temp/dataset/8/5_24.odb,Step-1,Increment      1: Step Time =    1.000,"PART-1-1",           604,      -12.9066,      -21.1902,            0.,NA,NA,"",   244.558E-03,  -210.305E-03,  -124.821E-03,   13.7475E-03
C:/temp/dataset/8/5_24.odb,Step-1,Increment      1: Step Time =    1.000,"PART-1-1",           605,      -13.8691,      -20.0365,            0.,NA,NA,"",   309.343E-03,  -256.790E-03,  -172.488E-03,   16.0340E-03
C:/temp/dataset/8/5_24.odb,Step-1,Increment      1: Step Time =    1.000,"PART-1-1",           606,          -15.,        -21.25,            0.,NA,NA,"",   294.011E-03,  -223.399E-03,  -191.143E-03,   20.0812E-03
C:/temp/dataset/8/5_24.odb,Step-1,Increment      1: Step Time =    1.000,"PART-1-1",           607,      -11.2823,      -23.1306,            0.,NA,NA,"",   155.850E-03,  -143.810E-03,  -60.0662E-03,   9.89026E-03
C:/temp/dataset/8/5_24.odb,Step-1,Increment      1: Step Time =    1.000,"PART-1-1",           608,      -12.2820,      -22.3254,            0.,NA,NA,"",   194.827E-03,  -171.189E-03,  -93.0159E-03,   12.4189E-03
C:/temp/dataset/8/5_24.odb,Step-1,Increment      1: Step Time =    1.000,"PART-1-1",           609,      -13.0137,      -23.4645,            0.,NA,NA,"",   173.193E-03,  -143.251E-03,  -97.3389E-03,   15.3571E-03
C:/temp/dataset/8/5_24.odb,Step-1,Increment      1: Step Time =    1.000,"PART-1-1",           610,      -12.0140,      -24.2697,            0.,NA,NA,"",   133.322E-03,  -116.658E-03,  -64.5409E-03,   12.8524E-03
C:/temp/dataset/8/5_24.odb,Step-1,Increment      1: Step Time =    1.000,"PART-1-1",           611,          -15.,        -28.75,            0.,NA,NA,"",   52.9350E-03,  -38.0405E-03,  -36.8108E-03,   30.7609E-03
C:/temp/dataset/8/5_24.odb,Step-1,Increment      1: Step Time =    1.000,"PART-1-1",           612,        -13.75,          -30.,            0.,NA,NA,"",            0.,  -2.31759E-39,  -37.3689E-39,   26.6526E-03
C:/temp/dataset/8/5_24.odb,Step-1,Increment      1: Step Time =    1.000,"PART-1-1",           613,      -2.49072,      -28.8242,            0.,NA,NA,"",   34.0827E-03,  -34.0615E-03,  -1.20144E-03,   19.1979E-03
C:/temp/dataset/8/5_24.odb,Step-1,Increment      1: Step Time =    1.000,"PART-1-1",           614,      -3.67632,      -27.6801,            0.,NA,NA,"",   60.6346E-03,  -60.6015E-03,   2.00202E-03,   18.0421E-03
C:/temp/dataset/8/5_24.odb,Step-1,Increment      1: Step Time =    1.000,"PART-1-1",           615,         -3.75,          -30.,            0.,NA,NA,"",            0.,  -16.5378E-39,  -3.00925E-39,   17.0845E-03
C:/temp/dataset/8/5_24.odb,Step-1,Increment      1: Step Time =    1.000,"PART-1-1",           616,      -3.67176,      -25.2240,            0.,NA,NA,"",   121.624E-03,  -121.030E-03,   12.0018E-03,   19.9184E-03
C:/temp/dataset/8/5_24.odb,Step-1,Increment      1: Step Time =    1.000,"PART-1-1",           617,      -2.52111,      -23.8746,            0.,NA,NA,"",   161.101E-03,  -160.642E-03,   12.1627E-03,   20.4340E-03
C:/temp/dataset/8/5_24.odb,Step-1,Increment      1: Step Time =    1.000,"PART-1-1",           618,      -3.68426,      -22.6291,            0.,NA,NA,"",   180.479E-03,  -177.840E-03,   30.7519E-03,   19.0150E-03
C:/temp/dataset/8/5_24.odb,Step-1,Increment      1: Step Time =    1.000,"PART-1-1",           619,      -1.29997,      -22.5744,            0.,NA,NA,"",   191.951E-03,  -191.877E-03,   5.33205E-03,   19.6118E-03
C:/temp/dataset/8/5_24.odb,Step-1,Increment      1: Step Time =    1.000,"PART-1-1",           620,  -41.8285E-03,      -21.2827,            0.,NA,NA,"",   212.975E-03,  -212.943E-03,  -3.70579E-03,   14.0069E-03
C:/temp/dataset/8/5_24.odb,Step-1,Increment      1: Step Time =    1.000,"PART-1-1",           621,         -1.25,          -20.,            0.,NA,NA,"",   200.604E-03,  -200.255E-03,   11.8370E-03,   6.02859E-03
C:/temp/dataset/8/5_24.odb,Step-1,Increment      1: Step Time =    1.000,"PART-1-1",           622,      -2.50814,      -21.2918,            0.,NA,NA,"",   201.655E-03,  -200.231E-03,   23.9200E-03,   9.55153E-03
C:/temp/dataset/8/5_24.odb,Step-1,Increment      1: Step Time =    1.000,"PART-1-1",           623,       5.99755,      -26.4812,            0.,NA,NA,"",   97.8137E-03,  -95.1991E-03,  -22.4645E-03,   19.4978E-03
C:/temp/dataset/8/5_24.odb,Step-1,Increment      1: Step Time =    1.000,"PART-1-1",           624,       6.71386,      -27.7542,            0.,NA,NA,"",   53.4835E-03,  -52.6041E-03,  -9.65877E-03,   16.8376E-03
C:/temp/dataset/8/5_24.odb,Step-1,Increment      1: Step Time =    1.000,"PART-1-1",           625,       8.26971,      -26.8502,            0.,NA,NA,"",   77.3772E-03,  -77.3771E-03,  -125.448E-06,   14.7311E-03
C:/temp/dataset/8/5_24.odb,Step-1,Increment      1: Step Time =    1.000,"PART-1-1",           626,       7.55340,      -25.5772,            0.,NA,NA,"",   125.572E-03,  -125.021E-03,  -11.7477E-03,   16.6068E-03
C:/temp/dataset/8/5_24.odb,Step-1,Increment      1: Step Time =    1.000,"PART-1-1",           627,       1.27500,      -22.6714,            0.,NA,NA,"",   214.730E-03,  -212.852E-03,  -28.3422E-03,   27.1031E-03
C:/temp/dataset/8/5_24.odb,Step-1,Increment      1: Step Time =    1.000,"PART-1-1",           628,       2.56683,      -21.3888,            0.,NA,NA,"",   259.355E-03,  -255.427E-03,  -44.9665E-03,   26.1544E-03
C:/temp/dataset/8/5_24.odb,Step-1,Increment      1: Step Time =    1.000,"PART-1-1",           629,          1.25,          -20.,            0.,NA,NA,"",   224.530E-03,  -224.356E-03,  -8.83192E-03,   20.3980E-03
C:/temp/dataset/8/5_24.odb,Step-1,Increment      1: Step Time =    1.000,"PART-1-1",           630,       2.22787,      -25.9763,            0.,NA,NA,"",   126.218E-03,  -123.292E-03,  -27.0220E-03,   25.2969E-03
C:/temp/dataset/8/5_24.odb,Step-1,Increment      1: Step Time =    1.000,"PART-1-1",           631,       3.59536,      -25.7933,            0.,NA,NA,"",   131.224E-03,  -126.648E-03,  -34.3519E-03,   25.4943E-03
C:/temp/dataset/8/5_24.odb,Step-1,Increment      1: Step Time =    1.000,"PART-1-1",           632,       3.51094,      -23.6954,            0.,NA,NA,"",   205.008E-03,  -197.987E-03,  -53.1892E-03,   29.9587E-03
C:/temp/dataset/8/5_24.odb,Step-1,Increment      1: Step Time =    1.000,"PART-1-1",           633,       2.14345,      -23.8784,            0.,NA,NA,"",   190.761E-03,  -187.192E-03,  -36.7260E-03,   27.3021E-03
C:/temp/dataset/8/5_24.odb,Step-1,Increment      1: Step Time =    1.000,"PART-1-1",           634,       7.70323,      -28.9583,            0.,NA,NA,"",   18.9642E-03,  -18.9320E-03,  -1.10371E-03,   12.1403E-03
C:/temp/dataset/8/5_24.odb,Step-1,Increment      1: Step Time =    1.000,"PART-1-1",           635,       5.26063,      -28.7960,            0.,NA,NA,"",   29.7964E-03,  -28.9633E-03,  -6.99635E-03,   17.8502E-03
C:/temp/dataset/8/5_24.odb,Step-1,Increment      1: Step Time =    1.000,"PART-1-1",           636,          6.25,          -30.,            0.,NA,NA,"",            0.,  -11.6998E-39,  -7.81150E-39,   12.8166E-03
C:/temp/dataset/8/5_24.odb,Step-1,Increment      1: Step Time =    1.000,"PART-1-1",           637,       12.1002,      -20.6263,            0.,NA,NA,"",   510.861E-03,  -483.336E-03,   165.423E-03,   33.7391E-03
C:/temp/dataset/8/5_24.odb,Step-1,Increment      1: Step Time =    1.000,"PART-1-1",           638,       11.2927,      -21.6253,            0.,NA,NA,"",   403.936E-03,  -386.366E-03,   117.838E-03,   31.0195E-03
C:/temp/dataset/8/5_24.odb,Step-1,Increment      1: Step Time =    1.000,"PART-1-1",           639,       12.1479,      -22.5488,            0.,NA,NA,"",   356.865E-03,  -327.658E-03,   141.396E-03,   25.8030E-03
C:/temp/dataset/8/5_24.odb,Step-1,Increment      1: Step Time =    1.000,"PART-1-1",           640,       12.9554,      -21.5499,            0.,NA,NA,"",   460.391E-03,  -416.585E-03,   196.002E-03,   26.8761E-03
C:/temp/dataset/8/5_24.odb,Step-1,Increment      1: Step Time =    1.000,"PART-1-1",           641,         13.75,          -30.,            0.,NA,NA,"",            0.,  -1.92006E-39,   64.5469E-39,   45.6095E-03
C:/temp/dataset/8/5_24.odb,Step-1,Increment      1: Step Time =    1.000,"PART-1-1",           642,           15.,      -28.7625,            0.,NA,NA,"",   89.0349E-03,  -62.5344E-03,   63.3771E-03,   56.1948E-03
C:/temp/dataset/8/5_24.odb,Step-1,Increment      1: Step Time =    1.000,"PART-1-1",           643,       13.7773,      -27.6225,            0.,NA,NA,"",   113.585E-03,  -81.1469E-03,   79.4775E-03,   39.4620E-03
C:/temp/dataset/8/5_24.odb,Step-1,Increment      1: Step Time =    1.000,"PART-1-1",           644,           15.,      -26.2875,            0.,NA,NA,"",   236.241E-03,  -161.205E-03,   172.693E-03,   45.1246E-03
C:/temp/dataset/8/5_24.odb,Step-1,Increment      1: Step Time =    1.000,"PART-1-1",           645,       13.5913,      -25.0907,            0.,NA,NA,"",   245.736E-03,  -192.116E-03,   153.225E-03,   32.8578E-03
C:/temp/dataset/8/5_24.odb,Step-1,Increment      1: Step Time =    1.000,"PART-1-1",           646,       12.3686,      -26.4257,            0.,NA,NA,"",   136.883E-03,  -112.569E-03,   77.8793E-03,   27.6260E-03
C:/temp/dataset/8/5_24.odb,Step-1,Increment      1: Step Time =    1.000,"PART-1-1",           647,       13.9603,      -22.6421,            0.,NA,NA,"",   417.383E-03,  -345.002E-03,   234.910E-03,   29.3429E-03
C:/temp/dataset/8/5_24.odb,Step-1,Increment      1: Step Time =    1.000,"PART-1-1",           648,       12.5516,      -23.9202,            0.,NA,NA,"",   278.023E-03,  -242.375E-03,   136.202E-03,   24.8114E-03
C:/temp/dataset/8/5_24.odb,Step-1,Increment      1: Step Time =    1.000,"PART-1-1",           649,           15.,      -23.8125,            0.,NA,NA,"",   387.737E-03,  -286.455E-03,   261.311E-03,   39.2376E-03
C:/temp/dataset/8/5_24.odb,Step-1,Increment      1: Step Time =    1.000,"PART-1-1",           650,           15.,      -21.3375,            0.,NA,NA,"",   573.938E-03,  -462.417E-03,   339.964E-03,   31.2809E-03
C:/temp/dataset/8/5_24.odb,Step-1,Increment      1: Step Time =    1.000,"PART-1-1",           651,       7.29151,      -18.3998,            0.,NA,NA,"",   600.012E-03,  -599.991E-03,   5.11348E-03,   40.2831E-03
C:/temp/dataset/8/5_24.odb,Step-1,Increment      1: Step Time =    1.000,"PART-1-1",           652,       6.16221,      -17.3915,            0.,NA,NA,"",   696.594E-03,  -694.125E-03,  -58.5913E-03,   15.6352E-03
C:/temp/dataset/8/5_24.odb,Step-1,Increment      1: Step Time =    1.000,"PART-1-1",           653,            5.,        -18.75,            0.,NA,NA,"",   569.395E-03,  -551.094E-03,  -143.200E-03,   30.0201E-03
C:/temp/dataset/8/5_24.odb,Step-1,Increment      1: Step Time =    1.000,"PART-1-1",           654,       6.12930,      -19.7583,            0.,NA,NA,"",   432.151E-03,  -429.655E-03,  -46.3781E-03,   52.3202E-03
C:/temp/dataset/8/5_24.odb,Step-1,Increment      1: Step Time =    1.000,"PART-1-1",           655,       11.0004,      -17.5900,            0.,NA,NA,"",   757.381E-03,  -741.593E-03,   153.839E-03,   37.5671E-03
C:/temp/dataset/8/5_24.odb,Step-1,Increment      1: Step Time =    1.000,"PART-1-1",           656,       9.51360,      -18.2945,            0.,NA,NA,"",   654.912E-03,  -648.851E-03,   88.8948E-03,   41.6202E-03
C:/temp/dataset/8/5_24.odb,Step-1,Increment      1: Step Time =    1.000,"PART-1-1",           657,       10.1108,      -19.3444,            0.,NA,NA,"",   571.002E-03,  -562.127E-03,   100.281E-03,   41.6822E-03
C:/temp/dataset/8/5_24.odb,Step-1,Increment      1: Step Time =    1.000,"PART-1-1",           658,       11.5976,      -18.6398,            0.,NA,NA,"",   678.242E-03,  -657.162E-03,   167.782E-03,   38.6199E-03
C:/temp/dataset/8/5_24.odb,Step-1,Increment      1: Step Time =    1.000,"PART-1-1",           659,       10.5605,      -11.7100,            0.,NA,NA,"",       1.13914,      -1.12555,   175.418E-03,   11.3041E-03
C:/temp/dataset/8/5_24.odb,Step-1,Increment      1: Step Time =    1.000,"PART-1-1",           660,       12.7627,      -11.5544,            0.,NA,NA,"",       1.18369,      -1.15623,   253.490E-03,   15.9665E-03
C:/temp/dataset/8/5_24.odb,Step-1,Increment      1: Step Time =    1.000,"PART-1-1",           661,       5.97841,      -7.48969,            0.,NA,NA,"",       1.19272,      -1.19035,   75.1516E-03,   17.6365E-03
C:/temp/dataset/8/5_24.odb,Step-1,Increment      1: Step Time =    1.000,"PART-1-1",           662,            5.,         -8.75,            0.,NA,NA,"",       1.15970,      -1.15926,   31.8953E-03,   25.2965E-03
C:/temp/dataset/8/5_24.odb,Step-1,Increment      1: Step Time =    1.000,"PART-1-1",           663,       6.97100,      -8.62604,            0.,NA,NA,"",       1.18276,      -1.18000,   80.7852E-03,   15.0635E-03
C:/temp/dataset/8/5_24.odb,Step-1,Increment      1: Step Time =    1.000,"PART-1-1",           664,       13.4909,      -5.05443,            0.,NA,NA,"",       1.24499,      -1.22306,   232.626E-03,   6.10323E-03
C:/temp/dataset/8/5_24.odb,Step-1,Increment      1: Step Time =    1.000,"PART-1-1",           665,           15.,      -6.28125,            0.,NA,NA,"",       1.23686,      -1.21016,   255.616E-03,   8.31596E-03
C:/temp/dataset/8/5_24.odb,Step-1,Increment      1: Step Time =    1.000,"PART-1-1",           666,       12.6840,      -1.12825,            0.,NA,NA,"",       1.26255,      -1.24392,   216.138E-03,   4.04447E-03
C:/temp/dataset/8/5_24.odb,Step-1,Increment      1: Step Time =    1.000,"PART-1-1",           667,       13.8718,      -2.44066,            0.,NA,NA,"",       1.25792,      -1.23682,   229.426E-03,   2.89147E-03
C:/temp/dataset/8/5_24.odb,Step-1,Increment      1: Step Time =    1.000,"PART-1-1",           668,           15.,      -1.25625,            0.,NA,NA,"",       1.26606,      -1.24356,   237.632E-03,   328.537E-06
C:/temp/dataset/8/5_24.odb,Step-1,Increment      1: Step Time =    1.000,"PART-1-1",           669,       5.31213,       3.65711,            0.,NA,NA,"",       1.27655,      -1.26890,   139.552E-03,   4.19817E-03
C:/temp/dataset/8/5_24.odb,Step-1,Increment      1: Step Time =    1.000,"PART-1-1",           670,       7.63904,       4.47127,            0.,NA,NA,"",       1.29218,      -1.28184,   163.112E-03,   2.12407E-03
C:/temp/dataset/8/5_24.odb,Step-1,Increment      1: Step Time =    1.000,"PART-1-1",           671,       6.09328,       5.22028,            0.,NA,NA,"",       1.29660,      -1.28839,   145.681E-03,   4.30147E-03
C:/temp/dataset/8/5_24.odb,Step-1,Increment      1: Step Time =    1.000,"PART-1-1",           672,       10.7996,       2.27920,            0.,NA,NA,"",       1.28040,      -1.26505,   197.649E-03,   2.91101E-03
C:/temp/dataset/8/5_24.odb,Step-1,Increment      1: Step Time =    1.000,"PART-1-1",           673,       10.9658,       3.81330,            0.,NA,NA,"",       1.29592,      -1.28011,   201.825E-03,   1.98357E-03
C:/temp/dataset/8/5_24.odb,Step-1,Increment      1: Step Time =    1.000,"PART-1-1",           674,       8.99860,       4.11099,            0.,NA,NA,"",       1.29258,      -1.28018,   178.616E-03,   2.04792E-03
C:/temp/dataset/8/5_24.odb,Step-1,Increment      1: Step Time =    1.000,"PART-1-1",           675,           15.,       8.66250,            0.,NA,NA,"",       1.37476,      -1.34910,   264.411E-03,   3.32882E-03
C:/temp/dataset/8/5_24.odb,Step-1,Increment      1: Step Time =    1.000,"PART-1-1",           676,       13.1757,       8.97628,            0.,NA,NA,"",       1.37236,      -1.35152,   238.283E-03,   2.13984E-03
C:/temp/dataset/8/5_24.odb,Step-1,Increment      1: Step Time =    1.000,"PART-1-1",           677,       7.38641,       11.0911,            0.,NA,NA,"",       1.39295,      -1.38442,   153.892E-03,   1.46175E-03
C:/temp/dataset/8/5_24.odb,Step-1,Increment      1: Step Time =    1.000,"PART-1-1",           678,       6.27036,       12.4047,            0.,NA,NA,"",       1.41384,      -1.40745,   134.346E-03,   1.34182E-03
C:/temp/dataset/8/5_24.odb,Step-1,Increment      1: Step Time =    1.000,"PART-1-1",           679,            5.,         11.25,            0.,NA,NA,"",       1.39316,      -1.38841,   114.956E-03,   1.96389E-03
C:/temp/dataset/8/5_24.odb,Step-1,Increment      1: Step Time =    1.000,"PART-1-1",           680,       10.9828,       10.9826,            0.,NA,NA,"",       1.39827,      -1.38268,   208.226E-03,   1.44524E-03
C:/temp/dataset/8/5_24.odb,Step-1,Increment      1: Step Time =    1.000,"PART-1-1",           681,       9.82750,       10.6157,            0.,NA,NA,"",       1.38934,      -1.37614,   191.086E-03,   1.39646E-03
C:/temp/dataset/8/5_24.odb,Step-1,Increment      1: Step Time =    1.000,"PART-1-1",           682,       11.4264,       9.28562,            0.,NA,NA,"",       1.37167,      -1.35492,   213.723E-03,   1.52498E-03
C:/temp/dataset/8/5_24.odb,Step-1,Increment      1: Step Time =    1.000,"PART-1-1",           683,       12.2770,       18.7828,            0.,NA,NA,"",       1.54033,      -1.52293,   230.852E-03,   808.859E-06
C:/temp/dataset/8/5_24.odb,Step-1,Increment      1: Step Time =    1.000,"PART-1-1",           684,       13.7541,       17.4065,            0.,NA,NA,"",       1.52000,      -1.49829,   255.975E-03,   636.935E-06
C:/temp/dataset/8/5_24.odb,Step-1,Increment      1: Step Time =    1.000,"PART-1-1",           685,           15.,       18.6938,            0.,NA,NA,"",       1.54700,      -1.52181,   277.998E-03,   165.474E-06
C:/temp/dataset/8/5_24.odb,Step-1,Increment      1: Step Time =    1.000,"PART-1-1",           686,       11.5052,       27.6683,            0.,NA,NA,"",       1.68924,      -1.67542,   215.616E-03,   265.918E-06
C:/temp/dataset/8/5_24.odb,Step-1,Increment      1: Step Time =    1.000,"PART-1-1",           687,       12.5910,       28.8229,            0.,NA,NA,"",       1.71094,      -1.69488,   233.874E-03,   133.401E-06
C:/temp/dataset/8/5_24.odb,Step-1,Increment      1: Step Time =    1.000,"PART-1-1",           688,         11.25,           30.,            0.,NA,NA,"",       1.72725,      -1.71430,   211.093E-03,   207.249E-06
C:/temp/dataset/8/5_24.odb,Step-1,Increment      1: Step Time =    1.000,"PART-1-1",           689,       7.66010,       22.7139,            0.,NA,NA,"",       1.60070,      -1.59349,   151.798E-03,   671.949E-06
C:/temp/dataset/8/5_24.odb,Step-1,Increment      1: Step Time =    1.000,"PART-1-1",           690,       8.77998,       20.9019,            0.,NA,NA,"",       1.57103,      -1.56164,   171.535E-03,   973.952E-06
C:/temp/dataset/8/5_24.odb,Step-1,Increment      1: Step Time =    1.000,"PART-1-1",           691,       9.04783,       22.2730,            0.,NA,NA,"",       1.59508,      -1.58541,   175.366E-03,   614.644E-06
C:/temp/dataset/8/5_24.odb,Step-1,Increment      1: Step Time =    1.000,"PART-1-1",           692,           15.,       28.7437,            0.,NA,NA,"",       1.71603,      -1.69393,   274.483E-03,   31.2047E-06
C:/temp/dataset/8/5_24.odb,Step-1,Increment      1: Step Time =    1.000,"PART-1-1",           693,         13.75,           30.,            0.,NA,NA,"",       1.73346,      -1.71485,   253.285E-03,   31.7192E-06
C:/temp/dataset/8/5_24.odb,Step-1,Increment      1: Step Time =    1.000,"PART-1-1",           694,       7.11219,       6.50494,            0.,NA,NA,"",       1.31874,      -1.30944,   156.369E-03,   2.15203E-03
C:/temp/dataset/8/5_24.odb,Step-1,Increment      1: Step Time =    1.000,"PART-1-1",           695,            5.,          6.25,            0.,NA,NA,"",       1.31323,      -1.30692,   128.575E-03,   5.46256E-03
C:/temp/dataset/8/5_24.odb,Step-1,Increment      1: Step Time =    1.000,"PART-1-1",           696,       9.07599,      -27.9731,            0.,NA,NA,"",   41.8805E-03,  -41.4079E-03,   6.27396E-03,   14.2340E-03
C:/temp/dataset/8/5_24.odb,Step-1,Increment      1: Step Time =    1.000,"PART-1-1",           697,          8.75,          -30.,            0.,NA,NA,"",            0.,  -7.22621E-39,   6.92284E-39,   9.16623E-03
C:/temp/dataset/8/5_24.odb,Step-1,Increment      1: Step Time =    1.000,"PART-1-1",           698,           15.,       3.71250,            0.,NA,NA,"",       1.30830,      -1.28460,   247.859E-03,   3.58218E-03
C:/temp/dataset/8/5_24.odb,Step-1,Increment      1: Step Time =    1.000,"PART-1-1",           699,       12.4115,       4.21065,            0.,NA,NA,"",       1.30497,      -1.28633,   219.784E-03,   2.11195E-03
C:/temp/dataset/8/5_24.odb,Step-1,Increment      1: Step Time =    1.000,"PART-1-1",           700,       8.79814,       6.59392,            0.,NA,NA,"",       1.32406,      -1.31212,   177.406E-03,   1.50449E-03
C:/temp/dataset/8/5_24.odb,Step-1,Increment      1: Step Time =    1.000,"PART-1-1",           701,       9.28031,       5.28415,            0.,NA,NA,"",       1.30768,      -1.29481,   183.042E-03,   1.47331E-03
C:/temp/dataset/8/5_24.odb,Step-1,Increment      1: Step Time =    1.000,"PART-1-1",           702,       10.3279,       5.61007,            0.,NA,NA,"",       1.31504,      -1.30032,   196.222E-03,   1.46856E-03
C:/temp/dataset/8/5_24.odb,Step-1,Increment      1: Step Time =    1.000,"PART-1-1",           703,   700.033E-03,      -25.0201,            0.,NA,NA,"",   151.172E-03,  -149.827E-03,  -20.1245E-03,   24.5887E-03
C:/temp/dataset/8/5_24.odb,Step-1,Increment      1: Step Time =    1.000,"PART-1-1",           704,  -168.417E-03,      -23.8132,            0.,NA,NA,"",   176.937E-03,  -176.545E-03,  -11.7598E-03,   23.1842E-03
C:/temp/dataset/8/5_24.odb,Step-1,Increment      1: Step Time =    1.000,"PART-1-1",           705,         -3.75,          -20.,            0.,NA,NA,"",   207.546E-03,  -203.975E-03,   38.3343E-03,   15.3698E-03
C:/temp/dataset/8/5_24.odb,Step-1,Increment      1: Step Time =    1.000,"PART-1-1",           706,      -4.92611,      -21.3374,            0.,NA,NA,"",   201.281E-03,  -194.730E-03,   50.9355E-03,   20.3161E-03
C:/temp/dataset/8/5_24.odb,Step-1,Increment      1: Step Time =    1.000,"PART-1-1",           707,         -1.25,          -30.,            0.,NA,NA,"",            0.,  -19.8620E-39,  -6.98416E-39,   20.4215E-03
C:/temp/dataset/8/5_24.odb,Step-1,Increment      1: Step Time =    1.000,"PART-1-1",           708,      -1.25381,      -27.5694,            0.,NA,NA,"",   72.6409E-03,  -72.5217E-03,  -4.15928E-03,   20.5418E-03
C:/temp/dataset/8/5_24.odb,Step-1,Increment      1: Step Time =    1.000,"PART-1-1",           709,      -7.47582,      -11.3801,            0.,NA,NA,"",   684.494E-03,  -684.147E-03,   21.8094E-03,   8.38532E-03
C:/temp/dataset/8/5_24.odb,Step-1,Increment      1: Step Time =    1.000,"PART-1-1",           710,           -5.,        -11.25,            0.,NA,NA,"",   708.685E-03,  -693.173E-03,   147.459E-03,   1.33493E-03
C:/temp/dataset/8/5_24.odb,Step-1,Increment      1: Step Time =    1.000,"PART-1-1",           711,      -6.22640,      -10.0809,            0.,NA,NA,"",   763.060E-03,  -759.121E-03,   77.4372E-03,   5.56974E-03
C:/temp/dataset/8/5_24.odb,Step-1,Increment      1: Step Time =    1.000,"PART-1-1",           712,          -15.,        -13.75,            0.,NA,NA,"",   632.290E-03,  -554.293E-03,  -304.220E-03,   8.19754E-03
C:/temp/dataset/8/5_24.odb,Step-1,Increment      1: Step Time =    1.000,"PART-1-1",           713,      -12.5143,      -13.8326,            0.,NA,NA,"",   575.046E-03,  -544.926E-03,  -183.666E-03,   9.82337E-03
C:/temp/dataset/8/5_24.odb,Step-1,Increment      1: Step Time =    1.000,"PART-1-1",           714,      -10.0899,       13.8022,            0.,NA,NA,"",       1.48657,      -1.48286,  -104.933E-03,   1.40094E-03
C:/temp/dataset/8/5_24.odb,Step-1,Increment      1: Step Time =    1.000,"PART-1-1",           715,      -8.82292,       12.5751,            0.,NA,NA,"",       1.46592,      -1.46363,  -81.8354E-03,   1.54295E-03
C:/temp/dataset/8/5_24.odb,Step-1,Increment      1: Step Time =    1.000,"PART-1-1",           716,          -15.,         16.25,            0.,NA,NA,"",       1.52674,      -1.51584,  -182.083E-03,   2.15564E-03
C:/temp/dataset/8/5_24.odb,Step-1,Increment      1: Step Time =    1.000,"PART-1-1",           717,      -12.5861,       16.2442,            0.,NA,NA,"",       1.52474,      -1.51779,  -145.369E-03,   1.50917E-03
C:/temp/dataset/8/5_24.odb,Step-1,Increment      1: Step Time =    1.000,"PART-1-1",           718,      -12.3822,       2.26742,            0.,NA,NA,"",       1.26804,      -1.25726,  -165.013E-03,   4.03924E-03
C:/temp/dataset/8/5_24.odb,Step-1,Increment      1: Step Time =    1.000,"PART-1-1",           719,      -11.8212,   294.554E-03,            0.,NA,NA,"",       1.21756,      -1.20787,  -153.343E-03,   4.17409E-03
C:/temp/dataset/8/5_24.odb,Step-1,Increment      1: Step Time =    1.000,"PART-1-1",           720,      -11.2086,       1.42526,            0.,NA,NA,"",       1.24525,      -1.23814,  -132.851E-03,   3.37425E-03
C:/temp/dataset/8/5_24.odb,Step-1,Increment      1: Step Time =    1.000,"PART-1-1",           721,         -3.75,           -5.,            0.,NA,NA,"",       1.09769,      -1.09556,   68.2916E-03,   23.6397E-03
C:/temp/dataset/8/5_24.odb,Step-1,Increment      1: Step Time =    1.000,"PART-1-1",           722,      -4.14613,      -2.41365,            0.,NA,NA,"",       1.14929,      -1.14716,   69.8808E-03,   8.36888E-03
C:/temp/dataset/8/5_24.odb,Step-1,Increment      1: Step Time =    1.000,"PART-1-1",           723,          3.75,           -5.,            0.,NA,NA,"",       1.19127,      -1.18592,   112.783E-03,   10.2106E-03
C:/temp/dataset/8/5_24.odb,Step-1,Increment      1: Step Time =    1.000,"PART-1-1",           724,       4.89490,      -3.81404,            0.,NA,NA,"",       1.20233,      -1.19666,   116.705E-03,   10.7241E-03
C:/temp/dataset/8/5_24.odb,Step-1,Increment      1: Step Time =    1.000,"PART-1-1",           725,          3.75,            5.,            0.,NA,NA,"",       1.28544,      -1.27857,   132.782E-03,   4.01875E-03
C:/temp/dataset/8/5_24.odb,Step-1,Increment      1: Step Time =    1.000,"PART-1-1",           726,       2.57777,       3.72098,            0.,NA,NA,"",       1.27239,      -1.26606,   126.780E-03,   3.35084E-03
C:/temp/dataset/8/5_24.odb,Step-1,Increment      1: Step Time =    1.000,"PART-1-1",           727,       4.13990,       2.37808,            0.,NA,NA,"",       1.26025,      -1.25314,   133.705E-03,   4.48649E-03
C:/temp/dataset/8/5_24.odb,Step-1,Increment      1: Step Time =    1.000,"PART-1-1",           728,       1.35715,       2.46333,            0.,NA,NA,"",       1.25538,      -1.24962,   120.053E-03,   5.14508E-03
C:/temp/dataset/8/5_24.odb,Step-1,Increment      1: Step Time =    1.000,"PART-1-1",           729,          1.25,            5.,            0.,NA,NA,"",       1.28235,      -1.27681,   119.064E-03,   1.79618E-03
C:/temp/dataset/8/5_24.odb,Step-1,Increment      1: Step Time =    1.000,"PART-1-1",           730,         -1.25,           30.,            0.,NA,NA,"",       1.70571,      -1.70565,   13.9663E-03,   501.777E-06
C:/temp/dataset/8/5_24.odb,Step-1,Increment      1: Step Time =    1.000,"PART-1-1",           731,      -1.39116,       27.2962,            0.,NA,NA,"",       1.66643,      -1.66638,   11.9385E-03,   328.749E-06
C:/temp/dataset/8/5_24.odb,Step-1,Increment      1: Step Time =    1.000,"PART-1-1",           732,         -3.75,           20.,            0.,NA,NA,"",       1.56405,      -1.56395,  -17.6775E-03,   1.68532E-03
C:/temp/dataset/8/5_24.odb,Step-1,Increment      1: Step Time =    1.000,"PART-1-1",           733,      -2.58927,       21.4449,            0.,NA,NA,"",       1.58234,      -1.58233,  -2.74406E-03,   1.19787E-03
C:/temp/dataset/8/5_24.odb,Step-1,Increment      1: Step Time =    1.000,"PART-1-1",           734,      -5.07185,       21.0145,            0.,NA,NA,"",       1.57920,      -1.57880,  -35.7230E-03,   1.45605E-03
C:/temp/dataset/8/5_24.odb,Step-1,Increment      1: Step Time =    1.000,"PART-1-1",           735,      -1.31816,       22.7417,            0.,NA,NA,"",       1.59969,      -1.59962,   14.2956E-03,   995.394E-06
C:/temp/dataset/8/5_24.odb,Step-1,Increment      1: Step Time =    1.000,"PART-1-1",           736,         -1.25,           20.,            0.,NA,NA,"",       1.56042,      -1.56032,   17.1400E-03,   1.65530E-03
C:/temp/dataset/8/5_24.odb,Step-1,Increment      1: Step Time =    1.000,"PART-1-1",           737,  -725.106E-03,       25.0611,            0.,NA,NA,"",       1.63349,      -1.63334,   21.8100E-03,   575.917E-06
C:/temp/dataset/8/5_24.odb,Step-1,Increment      1: Step Time =    1.000,"PART-1-1",           738,      -2.17754,       23.9659,            0.,NA,NA,"",       1.61789,      -1.61788,   1.71193E-03,   730.031E-06
C:/temp/dataset/8/5_24.odb,Step-1,Increment      1: Step Time =    1.000,"PART-1-1",           739,       6.30112,       14.9129,            0.,NA,NA,"",       1.45792,      -1.45191,   132.249E-03,   859.187E-06
C:/temp/dataset/8/5_24.odb,Step-1,Increment      1: Step Time =    1.000,"PART-1-1",           740,       7.60711,       16.0964,            0.,NA,NA,"",       1.48150,      -1.47350,   153.826E-03,   1.19676E-03
C:/temp/dataset/8/5_24.odb,Step-1,Increment      1: Step Time =    1.000,"PART-1-1",           741,            5.,         16.25,            0.,NA,NA,"",       1.48035,      -1.47640,   108.052E-03,   607.334E-06
C:/temp/dataset/8/5_24.odb,Step-1,Increment      1: Step Time =    1.000,"PART-1-1",           742,       11.0485,       19.6309,            0.,NA,NA,"",       1.55253,      -1.53826,   210.046E-03,   866.952E-06
C:/temp/dataset/8/5_24.odb,Step-1,Increment      1: Step Time =    1.000,"PART-1-1",           743,       10.8767,       20.9415,            0.,NA,NA,"",       1.57530,      -1.56167,   206.746E-03,   620.122E-06
C:/temp/dataset/8/5_24.odb,Step-1,Increment      1: Step Time =    1.000,"PART-1-1",           744,       8.95178,       19.5912,            0.,NA,NA,"",       1.54795,      -1.53802,   175.017E-03,   1.15820E-03
C:/temp/dataset/8/5_24.odb,Step-1,Increment      1: Step Time =    1.000,"PART-1-1",           745,      -10.0357,      -16.4531,            0.,NA,NA,"",   405.210E-03,  -399.116E-03,  -70.0066E-03,   11.1474E-03
C:/temp/dataset/8/5_24.odb,Step-1,Increment      1: Step Time =    1.000,"PART-1-1",           746,         -8.75,          -30.,            0.,NA,NA,"",            0.,  -7.65049E-39,  -9.12381E-39,   9.79198E-03
C:/temp/dataset/8/5_24.odb,Step-1,Increment      1: Step Time =    1.000,"PART-1-1",           747,      -8.42026,      -27.7162,            0.,NA,NA,"",   38.5637E-03,  -38.3775E-03,  -3.78509E-03,   11.3827E-03
C:/temp/dataset/8/5_24.odb,Step-1,Increment      1: Step Time =    1.000,"PART-1-1",           748,       8.78655,      -4.15343,            0.,NA,NA,"",       1.23369,      -1.22411,   153.460E-03,   10.7611E-03
C:/temp/dataset/8/5_24.odb,Step-1,Increment      1: Step Time =    1.000,"PART-1-1",           749,       8.68406,      -5.73195,            0.,NA,NA,"",       1.22667,      -1.21815,   144.311E-03,   11.7485E-03
C:/temp/dataset/8/5_24.odb,Step-1,Increment      1: Step Time =    1.000,"PART-1-1",           750,            5.,        -13.75,            0.,NA,NA,"",   970.065E-03,  -965.595E-03,  -93.0183E-03,   26.9279E-03
C:/temp/dataset/8/5_24.odb,Step-1,Increment      1: Step Time =    1.000,"PART-1-1",           751,       6.25620,      -14.9360,            0.,NA,NA,"",   904.574E-03,  -903.613E-03,  -41.7025E-03,   18.3891E-03
C:/temp/dataset/8/5_24.odb,Step-1,Increment      1: Step Time =    1.000,"PART-1-1",           752,       7.64552,      -13.5447,            0.,NA,NA,"",       1.00763,      -1.00665,   44.5025E-03,   14.7359E-03
C:/temp/dataset/8/5_24.odb,Step-1,Increment      1: Step Time =    1.000,"PART-1-1",           753,       7.28908,      -20.5141,            0.,NA,NA,"",   397.266E-03,  -397.135E-03,  -10.2092E-03,   40.4273E-03
C:/temp/dataset/8/5_24.odb,Step-1,Increment      1: Step Time =    1.000,"PART-1-1",           754,       5.05608,      -20.9168,            0.,NA,NA,"",   329.153E-03,  -316.566E-03,  -90.1511E-03,   47.0421E-03
C:/temp/dataset/8/5_24.odb,Step-1,Increment      1: Step Time =    1.000,"PART-1-1",           755,       6.21587,      -21.6726,            0.,NA,NA,"",   300.601E-03,  -296.012E-03,  -52.3228E-03,   25.5156E-03
C:/temp/dataset/8/5_24.odb,Step-1,Increment      1: Step Time =    1.000,"PART-1-1",           756,      -6.21032,      -20.1327,            0.,NA,NA,"",   224.310E-03,  -219.096E-03,   48.0832E-03,   16.2979E-03
C:/temp/dataset/8/5_24.odb,Step-1,Increment      1: Step Time =    1.000,"PART-1-1",           757,      -7.27258,      -21.5724,            0.,NA,NA,"",   182.539E-03,  -181.355E-03,   20.7538E-03,   6.09343E-03
C:/temp/dataset/8/5_24.odb,Step-1,Increment      1: Step Time =    1.000,"PART-1-1",           758,      -7.56906,       11.3132,            0.,NA,NA,"",       1.44342,      -1.44229,  -57.0328E-03,   2.28436E-03
C:/temp/dataset/8/5_24.odb,Step-1,Increment      1: Step Time =    1.000,"PART-1-1",           759,           -5.,         11.25,            0.,NA,NA,"",       1.43815,      -1.43811,  -10.4152E-03,   4.15803E-03
C:/temp/dataset/8/5_24.odb,Step-1,Increment      1: Step Time =    1.000,"PART-1-1",           760,          -15.,          8.75,            0.,NA,NA,"",       1.40613,      -1.39136,  -203.282E-03,   4.40825E-03
C:/temp/dataset/8/5_24.odb,Step-1,Increment      1: Step Time =    1.000,"PART-1-1",           761,      -12.2910,       8.63249,            0.,NA,NA,"",       1.40159,      -1.39355,  -149.948E-03,   2.29152E-03
C:/temp/dataset/8/5_24.odb,Step-1,Increment      1: Step Time =    1.000,"PART-1-1",           762,      -10.0463,       9.29253,            0.,NA,NA,"",       1.41106,      -1.40726,  -103.460E-03,   1.35851E-03
C:/temp/dataset/8/5_24.odb,Step-1,Increment      1: Step Time =    1.000,"PART-1-1",           763,      -8.95480,       7.80674,            0.,NA,NA,"",       1.38114,      -1.37885,  -79.4338E-03,   1.58938E-03
C:/temp/dataset/8/5_24.odb,Step-1,Increment      1: Step Time =    1.000,"PART-1-1",           764,      -8.82303,       10.1663,            0.,NA,NA,"",       1.42523,      -1.42302,  -79.4050E-03,   1.65222E-03
C:/temp/dataset/8/5_24.odb,Step-1,Increment      1: Step Time =    1.000,"PART-1-1",           765,          -15.,          3.75,            0.,NA,NA,"",       1.30553,      -1.28585,  -225.797E-03,   6.56496E-03
C:/temp/dataset/8/5_24.odb,Step-1,Increment      1: Step Time =    1.000,"PART-1-1",           766,      -12.9901,       3.46920,            0.,NA,NA,"",       1.29679,      -1.28455,  -177.760E-03,   4.29882E-03
C:/temp/dataset/8/5_24.odb,Step-1,Increment      1: Step Time =    1.000,"PART-1-1",           767,          -15.,         -1.25,            0.,NA,NA,"",       1.18066,      -1.15114,  -262.351E-03,   10.3952E-03
C:/temp/dataset/8/5_24.odb,Step-1,Increment      1: Step Time =    1.000,"PART-1-1",           768,      -12.5622,      -1.46868,            0.,NA,NA,"",       1.16872,      -1.15427,  -183.190E-03,   5.20685E-03
C:/temp/dataset/8/5_24.odb,Step-1,Increment      1: Step Time =    1.000,"PART-1-1",           769,      -9.58657,      -7.04159,            0.,NA,NA,"",   935.518E-03,  -931.792E-03,  -83.4169E-03,   9.81874E-03
C:/temp/dataset/8/5_24.odb,Step-1,Increment      1: Step Time =    1.000,"PART-1-1",           770,      -10.0085,      -5.60753,            0.,NA,NA,"",       1.00782,      -1.00277,  -100.812E-03,   7.57043E-03
C:/temp/dataset/8/5_24.odb,Step-1,Increment      1: Step Time =    1.000,"PART-1-1",           771,      -11.4596,      -6.08275,            0.,NA,NA,"",   987.347E-03,  -974.830E-03,  -156.723E-03,   6.59639E-03
C:/temp/dataset/8/5_24.odb,Step-1,Increment      1: Step Time =    1.000,"PART-1-1",           772,           -5.,         -8.75,            0.,NA,NA,"",   844.744E-03,  -833.758E-03,   135.797E-03,   7.67382E-03
C:/temp/dataset/8/5_24.odb,Step-1,Increment      1: Step Time =    1.000,"PART-1-1",           773,      -6.19608,      -7.65780,            0.,NA,NA,"",   902.954E-03,  -900.989E-03,   59.5358E-03,   9.96474E-03
C:/temp/dataset/8/5_24.odb,Step-1,Increment      1: Step Time =    1.000,"PART-1-1",           774,      -2.54672,      -1.24033,            0.,NA,NA,"",       1.18195,      -1.17887,   85.2745E-03,   8.32516E-03
C:/temp/dataset/8/5_24.odb,Step-1,Increment      1: Step Time =    1.000,"PART-1-1",           775,       12.1686,       8.14789,            0.,NA,NA,"",       1.35627,      -1.33783,   222.899E-03,   1.81673E-03
C:/temp/dataset/8/5_24.odb,Step-1,Increment      1: Step Time =    1.000,"PART-1-1",           776,       11.7736,       6.00742,            0.,NA,NA,"",       1.32472,      -1.30719,   214.826E-03,   1.73988E-03
C:/temp/dataset/8/5_24.odb,Step-1,Increment      1: Step Time =    1.000,"PART-1-1",           777,       2.58139,       1.19261,            0.,NA,NA,"",       1.24154,      -1.23514,   125.898E-03,   6.22620E-03
C:/temp/dataset/8/5_24.odb,Step-1,Increment      1: Step Time =    1.000,"PART-1-1",           778,      -8.87122,       6.40892,            0.,NA,NA,"",       1.35226,      -1.35014,  -75.6560E-03,   1.93014E-03
C:/temp/dataset/8/5_24.odb,Step-1,Increment      1: Step Time =    1.000,"PART-1-1",           779,      -9.21124,       4.86121,            0.,NA,NA,"",       1.31946,      -1.31697,  -80.9940E-03,   2.55910E-03
C:/temp/dataset/8/5_24.odb,Step-1,Increment      1: Step Time =    1.000,"PART-1-1",           780,      -7.77566,       4.46419,            0.,NA,NA,"",       1.30640,      -1.30564,  -44.6020E-03,   4.10420E-03
C:/temp/dataset/8/5_24.odb,Step-1,Increment      1: Step Time =    1.000,"PART-1-1",           781,      -7.43564,       6.01190,            0.,NA,NA,"",       1.34040,      -1.33975,  -41.6522E-03,   3.11264E-03
C:/temp/dataset/8/5_24.odb,Step-1,Increment      1: Step Time =    1.000,"PART-1-1",           782,      -11.3069,       27.9101,            0.,NA,NA,"",       1.67984,      -1.67517,  -125.143E-03,   100.342E-06
C:/temp/dataset/8/5_24.odb,Step-1,Increment      1: Step Time =    1.000,"PART-1-1",           783,      -10.0805,       29.0536,            0.,NA,NA,"",       1.69432,      -1.69085,  -108.400E-03,   83.8833E-06
C:/temp/dataset/8/5_24.odb,Step-1,Increment      1: Step Time =    1.000,"PART-1-1",           784,        -11.25,           30.,            0.,NA,NA,"",       1.70833,      -1.70378,  -124.598E-03,   22.0951E-06
C:/temp/dataset/8/5_24.odb,Step-1,Increment      1: Step Time =    1.000,"PART-1-1",           785,          -15.,         23.75,            0.,NA,NA,"",       1.62809,      -1.61859,  -175.621E-03,   290.212E-06
C:/temp/dataset/8/5_24.odb,Step-1,Increment      1: Step Time =    1.000,"PART-1-1",           786,      -12.0918,       23.7968,            0.,NA,NA,"",       1.62530,      -1.61964,  -135.579E-03,   490.632E-06
C:/temp/dataset/8/5_24.odb,Step-1,Increment      1: Step Time =    1.000,"PART-1-1",           787,      -8.63614,       22.0154,            0.,NA,NA,"",       1.59757,      -1.59526,  -85.8289E-03,   1.09101E-03
C:/temp/dataset/8/5_24.odb,Step-1,Increment      1: Step Time =    1.000,"PART-1-1",           788,      -9.89938,       20.9751,            0.,NA,NA,"",       1.58552,      -1.58213,  -103.580E-03,   1.11892E-03
C:/temp/dataset/8/5_24.odb,Step-1,Increment      1: Step Time =    1.000,"PART-1-1",           789,      -7.50670,       20.8576,            0.,NA,NA,"",       1.58091,      -1.57942,  -68.7116E-03,   1.51945E-03
C:/temp/dataset/8/5_24.odb,Step-1,Increment      1: Step Time =    1.000,"PART-1-1",           790,      -11.2460,       19.8989,            0.,NA,NA,"",       1.57295,      -1.56811,  -123.315E-03,   1.08824E-03
C:/temp/dataset/8/5_24.odb,Step-1,Increment      1: Step Time =    1.000,"PART-1-1",           791,      -11.3323,       17.4620,            0.,NA,NA,"",       1.54044,      -1.53537,  -124.977E-03,   1.28449E-03
C:/temp/dataset/8/5_24.odb,Step-1,Increment      1: Step Time =    1.000,"PART-1-1",           792,      -6.30838,       21.9713,            0.,NA,NA,"",       1.59379,      -1.59290,  -53.2387E-03,   1.28206E-03
C:/temp/dataset/8/5_24.odb,Step-1,Increment      1: Step Time =    1.000,"PART-1-1",           793,      -2.23761,       26.0591,            0.,NA,NA,"",       1.64834,      -1.64834,   231.997E-06,   476.087E-06
C:/temp/dataset/8/5_24.odb,Step-1,Increment      1: Step Time =    1.000,"PART-1-1",           794,       8.85967,       17.2477,            0.,NA,NA,"",       1.50489,      -1.49476,   174.350E-03,   1.34303E-03
C:/temp/dataset/8/5_24.odb,Step-1,Increment      1: Step Time =    1.000,"PART-1-1",           795,       10.0793,       18.0998,            0.,NA,NA,"",       1.52289,      -1.51045,   194.263E-03,   1.24403E-03
C:/temp/dataset/8/5_24.odb,Step-1,Increment      1: Step Time =    1.000,"PART-1-1",           796,          3.75,           30.,            0.,NA,NA,"",       1.71168,      -1.70940,   88.2652E-03,   794.433E-06
C:/temp/dataset/8/5_24.odb,Step-1,Increment      1: Step Time =    1.000,"PART-1-1",           797,       3.75100,       27.5475,            0.,NA,NA,"",       1.67356,      -1.67125,   87.9815E-03,   215.008E-06
C:/temp/dataset/8/5_24.odb,Step-1,Increment      1: Step Time =    1.000,"PART-1-1",           798,       6.92451,       23.6804,            0.,NA,NA,"",       1.61579,      -1.60978,   139.206E-03,   529.114E-06
C:/temp/dataset/8/5_24.odb,Step-1,Increment      1: Step Time =    1.000,"PART-1-1",           799,       5.85780,       24.9146,            0.,NA,NA,"",       1.63444,      -1.62992,   121.507E-03,   300.222E-06
C:/temp/dataset/8/5_24.odb,Step-1,Increment      1: Step Time =    1.000,"PART-1-1",           800,       4.79652,       23.7913,            0.,NA,NA,"",       1.61552,      -1.61213,   104.609E-03,   498.110E-06
C:/temp/dataset/8/5_24.odb,Step-1,Increment      1: Step Time =    1.000,"PART-1-1",           801,       3.65083,       25.0814,            0.,NA,NA,"",       1.63505,      -1.63276,   86.5224E-03,   314.051E-06
C:/temp/dataset/8/5_24.odb,Step-1,Increment      1: Step Time =    1.000,"PART-1-1",           802,       4.89856,       26.2814,            0.,NA,NA,"",       1.65504,      -1.65165,   106.003E-03,   143.637E-06
C:/temp/dataset/8/5_24.odb,Step-1,Increment      1: Step Time =    1.000,"PART-1-1",           803,         -8.75,           30.,            0.,NA,NA,"",       1.70629,      -1.70391,  -90.2040E-03,   50.4344E-06
C:/temp/dataset/8/5_24.odb,Step-1,Increment      1: Step Time =    1.000,"PART-1-1",           804,      -8.99895,       28.0861,            0.,NA,NA,"",       1.68017,      -1.67758,  -93.3627E-03,   124.489E-06
C:/temp/dataset/8/5_24.odb,Step-1,Increment      1: Step Time =    1.000,"PART-1-1",           805,      -11.0560,       7.77083,            0.,NA,NA,"",       1.38366,      -1.37800,  -124.962E-03,   1.59380E-03
C:/temp/dataset/8/5_24.odb,Step-1,Increment      1: Step Time =    1.000,"PART-1-1",           806,      -9.90307,       2.86734,            0.,NA,NA,"",       1.27645,      -1.27285,  -95.8117E-03,   3.04965E-03
C:/temp/dataset/8/5_24.odb,Step-1,Increment      1: Step Time =    1.000,"PART-1-1",           807,      -11.2313,       2.93204,            0.,NA,NA,"",       1.28115,      -1.27432,  -132.125E-03,   2.94561E-03
C:/temp/dataset/8/5_24.odb,Step-1,Increment      1: Step Time =    1.000,"PART-1-1",           808,      -9.88044,       1.36056,            0.,NA,NA,"",       1.24078,      -1.23725,  -93.5721E-03,   3.37263E-03
C:/temp/dataset/8/5_24.odb,Step-1,Increment      1: Step Time =    1.000,"PART-1-1",           809,           -5.,          6.25,            0.,NA,NA,"",       1.34119,      -1.34112,   13.9666E-03,   6.17811E-03
C:/temp/dataset/8/5_24.odb,Step-1,Increment      1: Step Time =    1.000,"PART-1-1",           810,      -5.99693,       4.86688,            0.,NA,NA,"",       1.30965,      -1.30964,  -3.31306E-03,   5.91985E-03
C:/temp/dataset/8/5_24.odb,Step-1,Increment      1: Step Time =    1.000,"PART-1-1",           811,           -5.,         -6.25,            0.,NA,NA,"",   984.737E-03,  -979.386E-03,   102.524E-03,   21.8021E-03
C:/temp/dataset/8/5_24.odb,Step-1,Increment      1: Step Time =    1.000,"PART-1-1",           812,      -7.47931,      -6.74416,            0.,NA,NA,"",   954.472E-03,  -954.467E-03,  -3.12940E-03,   11.2958E-03
C:/temp/dataset/8/5_24.odb,Step-1,Increment      1: Step Time =    1.000,"PART-1-1",           813,      -11.2714,      -15.1219,            0.,NA,NA,"",   487.819E-03,  -471.814E-03,  -123.930E-03,   10.5801E-03
C:/temp/dataset/8/5_24.odb,Step-1,Increment      1: Step Time =    1.000,"PART-1-1",           814,          -15.,        -18.75,            0.,NA,NA,"",   393.560E-03,  -314.666E-03,  -236.378E-03,   17.9267E-03
C:/temp/dataset/8/5_24.odb,Step-1,Increment      1: Step Time =    1.000,"PART-1-1",           815,           -5.,        -18.75,            0.,NA,NA,"",   305.102E-03,  -288.716E-03,   98.6414E-03,   26.5254E-03
C:/temp/dataset/8/5_24.odb,Step-1,Increment      1: Step Time =    1.000,"PART-1-1",           816,          -15.,        -23.75,            0.,NA,NA,"",   208.766E-03,  -151.203E-03,  -143.948E-03,   20.6468E-03
C:/temp/dataset/8/5_24.odb,Step-1,Increment      1: Step Time =    1.000,"PART-1-1",           817,      -10.9002,      -24.6942,            0.,NA,NA,"",   109.840E-03,  -102.369E-03,  -39.8177E-03,   9.55197E-03
C:/temp/dataset/8/5_24.odb,Step-1,Increment      1: Step Time =    1.000,"PART-1-1",           818,      -9.92286,      -25.5060,            0.,NA,NA,"",   85.0011E-03,  -82.4905E-03,  -20.5061E-03,   8.65391E-03
C:/temp/dataset/8/5_24.odb,Step-1,Increment      1: Step Time =    1.000,"PART-1-1",           819,      -9.17441,      -24.3962,            0.,NA,NA,"",   109.694E-03,  -108.836E-03,  -13.6896E-03,   6.44906E-03
C:/temp/dataset/8/5_24.odb,Step-1,Increment      1: Step Time =    1.000,"PART-1-1",           820,      -10.1518,      -23.5844,            0.,NA,NA,"",   133.087E-03,  -128.866E-03,  -33.2512E-03,   6.85816E-03
C:/temp/dataset/8/5_24.odb,Step-1,Increment      1: Step Time =    1.000,"PART-1-1",           821,      -4.84440,      -26.4970,            0.,NA,NA,"",   83.3484E-03,  -82.9800E-03,   7.82695E-03,   17.1300E-03
C:/temp/dataset/8/5_24.odb,Step-1,Increment      1: Step Time =    1.000,"PART-1-1",           822,      -2.50369,      -26.4071,            0.,NA,NA,"",   99.3283E-03,  -99.3045E-03,   2.17416E-03,   20.5171E-03
C:/temp/dataset/8/5_24.odb,Step-1,Increment      1: Step Time =    1.000,"PART-1-1",           823,      -1.38955,      -25.1134,            0.,NA,NA,"",   138.563E-03,  -138.551E-03,  -1.84934E-03,   22.7283E-03
C:/temp/dataset/8/5_24.odb,Step-1,Increment      1: Step Time =    1.000,"PART-1-1",           824,  -139.682E-03,      -26.2756,            0.,NA,NA,"",   112.706E-03,  -112.158E-03,  -11.0951E-03,   22.7568E-03
C:/temp/dataset/8/5_24.odb,Step-1,Increment      1: Step Time =    1.000,"PART-1-1",           825,          3.75,          -30.,            0.,NA,NA,"",            0.,  -16.4986E-39,  -13.4675E-39,   18.4339E-03
C:/temp/dataset/8/5_24.odb,Step-1,Increment      1: Step Time =    1.000,"PART-1-1",           826,       4.16188,      -27.2827,            0.,NA,NA,"",   79.5617E-03,  -76.7566E-03,  -20.9404E-03,   21.7984E-03
C:/temp/dataset/8/5_24.odb,Step-1,Increment      1: Step Time =    1.000,"PART-1-1",           827,       5.43104,      -24.9919,            0.,NA,NA,"",   154.976E-03,  -150.008E-03,  -38.9233E-03,   22.1265E-03
C:/temp/dataset/8/5_24.odb,Step-1,Increment      1: Step Time =    1.000,"PART-1-1",           828,          3.75,          -20.,            0.,NA,NA,"",   302.262E-03,  -298.153E-03,  -49.6674E-03,   55.9032E-03
C:/temp/dataset/8/5_24.odb,Step-1,Increment      1: Step Time =    1.000,"PART-1-1",           829,       3.87291,      -22.3056,            0.,NA,NA,"",   259.933E-03,  -251.294E-03,  -66.4546E-03,   31.8757E-03
C:/temp/dataset/8/5_24.odb,Step-1,Increment      1: Step Time =    1.000,"PART-1-1",           830,       4.97088,      -23.9263,            0.,NA,NA,"",   196.861E-03,  -190.123E-03,  -51.0625E-03,   24.4962E-03
C:/temp/dataset/8/5_24.odb,Step-1,Increment      1: Step Time =    1.000,"PART-1-1",           831,       6.87342,      -24.4091,            0.,NA,NA,"",   174.943E-03,  -172.896E-03,  -26.6896E-03,   18.1391E-03
C:/temp/dataset/8/5_24.odb,Step-1,Increment      1: Step Time =    1.000,"PART-1-1",           832,       6.41326,      -23.3435,            0.,NA,NA,"",   222.988E-03,  -219.375E-03,  -39.9812E-03,   20.5861E-03
C:/temp/dataset/8/5_24.odb,Step-1,Increment      1: Step Time =    1.000,"PART-1-1",           833,       9.46100,      -26.0738,            0.,NA,NA,"",   109.602E-03,  -107.975E-03,   18.8172E-03,   16.2100E-03
C:/temp/dataset/8/5_24.odb,Step-1,Increment      1: Step Time =    1.000,"PART-1-1",           834,       10.2673,      -27.1968,            0.,NA,NA,"",   71.6697E-03,  -67.6695E-03,   23.6092E-03,   17.6134E-03
C:/temp/dataset/8/5_24.odb,Step-1,Increment      1: Step Time =    1.000,"PART-1-1",           835,       7.41841,      -16.0775,            0.,NA,NA,"",   824.107E-03,  -823.997E-03,   13.4782E-03,   24.9317E-03
C:/temp/dataset/8/5_24.odb,Step-1,Increment      1: Step Time =    1.000,"PART-1-1",           836,            5.,        -16.25,            0.,NA,NA,"",   803.436E-03,  -790.277E-03,  -144.813E-03,   15.8438E-03
C:/temp/dataset/8/5_24.odb,Step-1,Increment      1: Step Time =    1.000,"PART-1-1",           837,            5.,         -6.25,            0.,NA,NA,"",       1.19828,      -1.19534,   83.8997E-03,   19.7779E-03
C:/temp/dataset/8/5_24.odb,Step-1,Increment      1: Step Time =    1.000,"PART-1-1",           838,       7.32831,      -6.19648,            0.,NA,NA,"",       1.21530,      -1.20993,   114.185E-03,   12.7963E-03
C:/temp/dataset/8/5_24.odb,Step-1,Increment      1: Step Time =    1.000,"PART-1-1",           839,       6.34990,      -4.95679,            0.,NA,NA,"",       1.21378,      -1.20872,   110.716E-03,   13.1159E-03
C:/temp/dataset/8/5_24.odb,Step-1,Increment      1: Step Time =    1.000,"PART-1-1",           840,            5.,         13.75,            0.,NA,NA,"",       1.43586,      -1.43157,   110.822E-03,   1.35255E-03
C:/temp/dataset/8/5_24.odb,Step-1,Increment      1: Step Time =    1.000,"PART-1-1",           841,       7.57148,       13.5676,            0.,NA,NA,"",       1.43591,      -1.42757,   154.594E-03,   1.18203E-03
C:/temp/dataset/8/5_24.odb,Step-1,Increment      1: Step Time =    1.000,"PART-1-1",           842,           15.,       23.7188,            0.,NA,NA,"",       1.63307,      -1.60957,   276.066E-03,   342.479E-06
C:/temp/dataset/8/5_24.odb,Step-1,Increment      1: Step Time =    1.000,"PART-1-1",           843,       12.7096,       24.0554,            0.,NA,NA,"",       1.63252,      -1.61524,   236.902E-03,   181.208E-06
C:/temp/dataset/8/5_24.odb,Step-1,Increment      1: Step Time =    1.000,"PART-1-1",           844,           15.,      -11.3062,            0.,NA,NA,"",       1.23027,      -1.18982,   312.883E-03,   26.3114E-03
C:/temp/dataset/8/5_24.odb,Step-1,Increment      1: Step Time =    1.000,"PART-1-1",           845,           15.,      -3.76875,            0.,NA,NA,"",       1.25142,      -1.22787,   241.624E-03,   4.04160E-03
C:/temp/dataset/8/5_24.odb,Step-1,Increment      1: Step Time =    1.000,"PART-1-1",           846,       9.87633,      -16.1616,            0.,NA,NA,"",   854.894E-03,  -846.345E-03,   120.602E-03,   32.6173E-03
C:/temp/dataset/8/5_24.odb,Step-1,Increment      1: Step Time =    1.000,"PART-1-1",           847,       8.51452,      -17.2877,            0.,NA,NA,"",   730.329E-03,  -727.941E-03,   59.0091E-03,   36.1255E-03
C:/temp/dataset/8/5_24.odb,Step-1,Increment      1: Step Time =    1.000,"PART-1-1",           848,       8.29059,      -19.4066,            0.,NA,NA,"",   522.657E-03,  -521.473E-03,   35.1602E-03,   44.6261E-03
C:/temp/dataset/8/5_24.odb,Step-1,Increment      1: Step Time =    1.000,"PART-1-1",           849,       8.55616,      -8.48630,            0.,NA,NA,"",       1.19841,      -1.19174,   126.205E-03,   11.5780E-03
C:/temp/dataset/8/5_24.odb,Step-1,Increment      1: Step Time =    1.000,"PART-1-1",           850,       9.61754,      -8.87754,            0.,NA,NA,"",       1.20062,      -1.19048,   155.717E-03,   10.6255E-03
C:/temp/dataset/8/5_24.odb,Step-1,Increment      1: Step Time =    1.000,"PART-1-1",           851,       9.02908,      -7.15658,            0.,NA,NA,"",       1.21839,      -1.20960,   146.070E-03,   11.3935E-03
C:/temp/dataset/8/5_24.odb,Step-1,Increment      1: Step Time =    1.000,"PART-1-1",           852,           15.,       16.1812,            0.,NA,NA,"",       1.50253,      -1.47669,   277.439E-03,   836.371E-06
C:/temp/dataset/8/5_24.odb,Step-1,Increment      1: Step Time =    1.000,"PART-1-1",           853,       9.89201,       25.6129,            0.,NA,NA,"",       1.65203,      -1.64123,   188.592E-03,   311.811E-06
C:/temp/dataset/8/5_24.odb,Step-1,Increment      1: Step Time =    1.000,"PART-1-1",           854,       8.89238,       24.9206,            0.,NA,NA,"",       1.63887,      -1.62983,   171.847E-03,   334.843E-06
C:/temp/dataset/8/5_24.odb,Step-1,Increment      1: Step Time =    1.000,"PART-1-1",           855,       9.60238,       23.8702,            0.,NA,NA,"",       1.62279,      -1.61231,   184.128E-03,   352.259E-06
C:/temp/dataset/8/5_24.odb,Step-1,Increment      1: Step Time =    1.000,"PART-1-1",           856,       10.6020,       24.5625,            0.,NA,NA,"",       1.63617,      -1.62379,   200.882E-03,   269.124E-06
C:/temp/dataset/8/5_24.odb,Step-1,Increment      1: Step Time =    1.000,"PART-1-1",           857,       10.8145,      -1.23275,            0.,NA,NA,"",       1.25616,      -1.24133,   192.464E-03,   5.79516E-03
C:/temp/dataset/8/5_24.odb,Step-1,Increment      1: Step Time =    1.000,"PART-1-1",           858,       11.5759,  -144.200E-03,            0.,NA,NA,"",       1.26500,      -1.24851,   203.613E-03,   4.28947E-03
C:/temp/dataset/8/5_24.odb,Step-1,Increment      1: Step Time =    1.000,"PART-1-1",           859,       8.92207,      -9.93164,            0.,NA,NA,"",       1.17225,      -1.16525,   127.894E-03,   10.6526E-03
C:/temp/dataset/8/5_24.odb,Step-1,Increment      1: Step Time =    1.000,"PART-1-1",           860,       9.92328,      -10.6623,            0.,NA,NA,"",       1.16418,      -1.15344,   157.740E-03,   9.97108E-03
C:/temp/dataset/8/5_24.odb,Step-1,Increment      1: Step Time =    1.000,"PART-1-1",           861,       10.2741,      -21.0971,            0.,NA,NA,"",   421.059E-03,  -412.272E-03,   85.5718E-03,   34.7596E-03
C:/temp/dataset/8/5_24.odb,Step-1,Increment      1: Step Time =    1.000,"PART-1-1",           862,       9.54695,      -22.4905,            0.,NA,NA,"",   300.943E-03,  -297.494E-03,   45.4274E-03,   27.3543E-03
C:/temp/dataset/8/5_24.odb,Step-1,Increment      1: Step Time =    1.000,"PART-1-1",           863,       10.5655,      -23.0186,            0.,NA,NA,"",   285.257E-03,  -275.591E-03,   73.6284E-03,   24.4750E-03
C:/temp/dataset/8/5_24.odb,Step-1,Increment      1: Step Time =    1.000,"PART-1-1",           864,       9.19444,      -24.7163,            0.,NA,NA,"",   168.543E-03,  -167.353E-03,   19.9962E-03,   17.7530E-03
C:/temp/dataset/8/5_24.odb,Step-1,Increment      1: Step Time =    1.000,"PART-1-1",           865,       11.2358,      -25.7476,            0.,NA,NA,"",   145.380E-03,  -132.291E-03,   60.2862E-03,   20.9979E-03
C:/temp/dataset/8/5_24.odb,Step-1,Increment      1: Step Time =    1.000,"PART-1-1",           866,       10.9693,      -24.3901,            0.,NA,NA,"",   210.108E-03,  -197.748E-03,   70.9997E-03,   21.7693E-03
C:/temp/dataset/8/5_24.odb,Step-1,Increment      1: Step Time =    1.000,"PART-1-1",           867,       12.4335,       10.1140,            0.,NA,NA,"",       1.38808,      -1.36905,   229.057E-03,   1.74826E-03
C:/temp/dataset/8/5_24.odb,Step-1,Increment      1: Step Time =    1.000,"PART-1-1",           868,       7.92075,       5.64444,            0.,NA,NA,"",       1.30856,      -1.29792,   166.535E-03,   1.85682E-03
C:/temp/dataset/8/5_24.odb,Step-1,Increment      1: Step Time =    1.000,"PART-1-1",           869,       7.98957,       7.45442,            0.,NA,NA,"",       1.33517,      -1.32472,   166.689E-03,   1.95493E-03
C:/temp/dataset/8/5_24.odb,Step-1,Increment      1: Step Time =    1.000,"PART-1-1",           870,       8.32878,      -21.4218,            0.,NA,NA,"",   352.128E-03,  -351.769E-03,   15.9037E-03,   31.9420E-03
C:/temp/dataset/8/5_24.odb,Step-1,Increment      1: Step Time =    1.000,"PART-1-1",           871,       7.29628,      -22.4795,            0.,NA,NA,"",   268.982E-03,  -268.109E-03,  -21.6640E-03,   22.5111E-03
C:/temp/dataset/8/5_24.odb,Step-1,Increment      1: Step Time =    1.000,"PART-1-1",           872,       8.51445,      -23.5482,            0.,NA,NA,"",   222.408E-03,  -222.263E-03,   8.02587E-03,   18.9165E-03
C:/temp/dataset/8/5_24.odb,Step-1,Increment      1: Step Time =    1.000,"PART-1-1",           873,       8.18845,  -488.883E-03,            0.,NA,NA,"",       1.24821,      -1.23776,   161.186E-03,   5.51137E-03
C:/temp/dataset/8/5_24.odb,Step-1,Increment      1: Step Time =    1.000,"PART-1-1",           874,       7.03757,  -99.4150E-03,            0.,NA,NA,"",       1.24517,      -1.23601,   150.766E-03,   4.80828E-03
C:/temp/dataset/8/5_24.odb,Step-1,Increment      1: Step Time =    1.000,"PART-1-1",           875,       6.67521,      -1.55702,            0.,NA,NA,"",       1.23152,      -1.22335,   141.584E-03,   7.21945E-03
C:/temp/dataset/8/5_24.odb,Step-1,Increment      1: Step Time =    1.000,"PART-1-1",           876,       7.82608,      -1.94649,            0.,NA,NA,"",       1.23680,      -1.22755,   150.995E-03,   8.14309E-03
C:/temp/dataset/8/5_24.odb,Step-1,Increment      1: Step Time =    1.000,"PART-1-1",           877,       10.0503,   625.537E-03,            0.,NA,NA,"",       1.26450,      -1.25074,   186.017E-03,   4.28223E-03
C:/temp/dataset/8/5_24.odb,Step-1,Increment      1: Step Time =    1.000,"PART-1-1",           878,       11.6011,       12.1291,            0.,NA,NA,"",       1.41950,      -1.40264,   218.127E-03,   1.42937E-03
C:/temp/dataset/8/5_24.odb,Step-1,Increment      1: Step Time =    1.000,"PART-1-1",           879,       9.33028,      -20.3144,            0.,NA,NA,"",   464.476E-03,  -460.322E-03,   61.9794E-03,   39.1719E-03
C:/temp/dataset/8/5_24.odb,Step-1,Increment      1: Step Time =    1.000,"PART-1-1",           880,       7.30556,      -3.67465,            0.,NA,NA,"",       1.22526,      -1.21792,   133.906E-03,   11.5832E-03
C:/temp/dataset/8/5_24.odb,Step-1,Increment      1: Step Time =    1.000,"PART-1-1",           881,       5.85057,      -2.53190,            0.,NA,NA,"",       1.21869,      -1.21173,   130.111E-03,   9.25166E-03
C:/temp/dataset/8/5_24.odb,Step-1,Increment      1: Step Time =    1.000,"PART-1-1",           882,       5.20819,       1.03681,            0.,NA,NA,"",       1.24802,      -1.24022,   139.380E-03,   4.10070E-03
C:/temp/dataset/8/5_24.odb,Step-1,Increment      1: Step Time =    1.000,"PART-1-1",           883,      -5.71863,       2.55200,            0.,NA,NA,"",       1.25674,      -1.25664,   16.1220E-03,   5.63246E-03
C:/temp/dataset/8/5_24.odb,Step-1,Increment      1: Step Time =    1.000,"PART-1-1",           884,      -6.86716,       3.62545,            0.,NA,NA,"",       1.28416,      -1.28402,  -18.4021E-03,   5.77183E-03
C:/temp/dataset/8/5_24.odb,Step-1,Increment      1: Step Time =    1.000,"PART-1-1",           885,      -8.17623,      -23.0651,            0.,NA,NA,"",   142.676E-03,  -142.669E-03,   1.43979E-03,   5.27255E-03
C:/temp/dataset/8/5_24.odb,Step-1,Increment      1: Step Time =    1.000,"PART-1-1",           886,      -9.67300,      -21.9623,            0.,NA,NA,"",   175.289E-03,  -172.534E-03,  -30.9564E-03,   5.98097E-03
C:/temp/dataset/8/5_24.odb,Step-1,Increment      1: Step Time =    1.000,"PART-1-1",           887,       7.67333,      -7.62111,            0.,NA,NA,"",       1.20429,      -1.19932,   109.223E-03,   12.7396E-03
C:/temp/dataset/8/5_24.odb,Step-1,Increment      1: Step Time =    1.000,"PART-1-1",           888,       5.33284,      -22.5365,            0.,NA,NA,"",   256.373E-03,  -249.037E-03,  -60.8920E-03,   24.6686E-03
C:/temp/dataset/8/5_24.odb,Step-1,Increment      1: Step Time =    1.000,"PART-1-1",           889,       8.54152,       23.5352,            0.,NA,NA,"",       1.61552,      -1.60694,   166.315E-03,   473.581E-06
C:/temp/dataset/8/5_24.odb,Step-1,Increment      1: Step Time =    1.000,"PART-1-1",           890,       10.1087,       22.6080,            0.,NA,NA,"",       1.60252,      -1.59084,   193.137E-03,   455.301E-06
C:/temp/dataset/8/5_24.odb,Step-1,Increment      1: Step Time =    1.000,"PART-1-1",           891,      -9.54555,       23.1667,            0.,NA,NA,"",       1.61397,      -1.61091,  -99.4328E-03,   774.228E-06
C:/temp/dataset/8/5_24.odb,Step-1,Increment      1: Step Time =    1.000,"PART-1-1",           892,      -7.32935,       22.8876,            0.,NA,NA,"",       1.60746,      -1.60602,  -68.0806E-03,   1.01840E-03
C:/temp/dataset/8/5_24.odb,Step-1,Increment      1: Step Time =    1.000,"PART-1-1",           893,      -10.1333,       27.3168,            0.,NA,NA,"",       1.67062,      -1.66707,  -108.871E-03,   183.692E-06
C:/temp/dataset/8/5_24.odb,Step-1,Increment      1: Step Time =    1.000,"PART-1-1",           894,      -10.9914,       25.8301,            0.,NA,NA,"",       1.65131,      -1.64691,  -120.477E-03,   273.141E-06
C:/temp/dataset/8/5_24.odb,Step-1,Increment      1: Step Time =    1.000,"PART-1-1",           895,      -11.4574,      -26.3004,            0.,NA,NA,"",   75.3077E-03,  -66.8611E-03,  -34.6531E-03,   12.1909E-03
C:/temp/dataset/8/5_24.odb,Step-1,Increment      1: Step Time =    1.000,"PART-1-1",           896,       7.85383,      -9.49123,            0.,NA,NA,"",       1.17234,      -1.16834,   96.8004E-03,   13.3413E-03
C:/temp/dataset/8/5_24.odb,Step-1,Increment      1: Step Time =    1.000,"PART-1-1",           897,       8.45015,      -11.4354,            0.,NA,NA,"",       1.11962,      -1.11527,   98.6265E-03,   11.5394E-03
C:/temp/dataset/8/5_24.odb,Step-1,Increment      1: Step Time =    1.000,"PART-1-1",           898,       10.2448,       13.2708,            0.,NA,NA,"",       1.43594,      -1.42232,   197.323E-03,   1.42649E-03
C:/temp/dataset/8/5_24.odb,Step-1,Increment      1: Step Time =    1.000,"PART-1-1",           899,       8.92711,       12.0857,            0.,NA,NA,"",       1.41243,      -1.40129,   177.035E-03,   1.24258E-03
C:/temp/dataset/8/5_24.odb,Step-1,Increment      1: Step Time =    1.000,"PART-1-1",           900,       8.28681,       9.62105,            0.,NA,NA,"",       1.37000,      -1.35954,   168.924E-03,   1.46697E-03
C:/temp/dataset/8/5_24.odb,Step-1,Increment      1: Step Time =    1.000,"PART-1-1",           901,      -9.35950,      -26.6124,            0.,NA,NA,"",   59.6752E-03,  -58.6622E-03,  -10.9488E-03,   9.87775E-03
C:/temp/dataset/8/5_24.odb,Step-1,Increment      1: Step Time =    1.000,"PART-1-1",           902,      -7.15180,      -26.5840,            0.,NA,NA,"",   67.2038E-03,  -67.1501E-03,   2.68810E-03,   12.4693E-03
C:/temp/dataset/8/5_24.odb,Step-1,Increment      1: Step Time =    1.000,"PART-1-1",           903,      -8.09105,      -25.4802,            0.,NA,NA,"",   86.9785E-03,  -86.9733E-03,  -957.107E-06,   9.87595E-03
C:/temp/dataset/8/5_24.odb,Step-1,Increment      1: Step Time =    1.000,"PART-1-1",           904,      -8.48034,      -5.93831,            0.,NA,NA,"",   993.348E-03,  -992.422E-03,  -42.8629E-03,   9.86739E-03
C:/temp/dataset/8/5_24.odb,Step-1,Increment      1: Step Time =    1.000,"PART-1-1",           905,      -8.12524,       27.0841,            0.,NA,NA,"",       1.66571,      -1.66373,  -81.1195E-03,   247.052E-06
C:/temp/dataset/8/5_24.odb,Step-1,Increment      1: Step Time =    1.000,"PART-1-1",           906,      -9.25957,       26.3148,            0.,NA,NA,"",       1.65614,      -1.65332,  -96.5716E-03,   294.846E-06
C:/temp/dataset/8/5_24.odb,Step-1,Increment      1: Step Time =    1.000,"PART-1-1",           907,      -11.3398,       15.0079,            0.,NA,NA,"",       1.50584,      -1.50056,  -125.999E-03,   1.38191E-03
C:/temp/dataset/8/5_24.odb,Step-1,Increment      1: Step Time =    1.000,"PART-1-1",           908,      -8.76249,       3.14397,            0.,NA,NA,"",       1.27957,      -1.27789,  -65.6228E-03,   3.79655E-03
C:/temp/dataset/8/5_24.odb,Step-1,Increment      1: Step Time =    1.000,"PART-1-1",           909,      -10.2702,  -493.365E-03,            0.,NA,NA,"",       1.19363,      -1.18902,  -104.866E-03,   3.23751E-03
C:/temp/dataset/8/5_24.odb,Step-1,Increment      1: Step Time =    1.000,"PART-1-1",           910,      -8.74014,  -974.485E-03,            0.,NA,NA,"",       1.17906,      -1.17775,  -55.4824E-03,   3.87933E-03
C:/temp/dataset/8/5_24.odb,Step-1,Increment      1: Step Time =    1.000,"PART-1-1",           911,      -10.8036,      -21.5085,            0.,NA,NA,"",   199.599E-03,  -189.817E-03,  -61.7206E-03,   8.93729E-03
C:/temp/dataset/8/5_24.odb,Step-1,Increment      1: Step Time =    1.000,"PART-1-1",           912,       8.88912,       14.7527,            0.,NA,NA,"",       1.45945,      -1.44886,   175.445E-03,   1.25664E-03
C:/temp/dataset/8/5_24.odb,Step-1,Increment      1: Step Time =    1.000,"PART-1-1",           913,       8.78021,      -14.9514,            0.,NA,NA,"",   930.206E-03,  -926.498E-03,   82.9717E-03,   22.3385E-03
C:/temp/dataset/8/5_24.odb,Step-1,Increment      1: Step Time =    1.000,"PART-1-1",           914,       9.08736,      -12.4831,            0.,NA,NA,"",       1.08340,      -1.07733,   114.476E-03,   13.1537E-03
C:/temp/dataset/8/5_24.odb,Step-1,Increment      1: Step Time =    1.000,"PART-1-1",           915,      -6.58441,       1.63370,            0.,NA,NA,"",       1.23917,      -1.23917,  -1.93334E-03,   5.49975E-03
C:/temp/dataset/8/5_24.odb,Step-1,Increment      1: Step Time =    1.000,"PART-1-1",           916,      -11.0528,       22.2884,            0.,NA,NA,"",       1.60415,      -1.59960,  -120.694E-03,   765.100E-06
C:/temp/dataset/8/5_24.odb,Step-1,Increment      1: Step Time =    1.000,"PART-1-1",           917,      -10.5845,       24.6750,            0.,NA,NA,"",       1.63532,      -1.63130,  -114.575E-03,   439.357E-06
C:/temp/dataset/8/5_24.odb,Step-1,Increment      1: Step Time =    1.000,"PART-1-1",           918,       7.32741,       26.0095,            0.,NA,NA,"",       1.65399,      -1.64758,   145.492E-03,   278.052E-06
C:/temp/dataset/8/5_24.odb,Step-1,Increment      1: Step Time =    1.000,"PART-1-1",           919,       11.0547,      -20.1270,            0.,NA,NA,"",   524.681E-03,  -509.179E-03,   126.597E-03,   37.8484E-03
C:/temp/dataset/8/5_24.odb,Step-1,Increment      1: Step Time =    1.000,"PART-1-1",           920,       11.5724,       23.1751,            0.,NA,NA,"",       1.61507,      -1.60032,   217.784E-03,   255.790E-06
C:/temp/dataset/8/5_24.odb,Step-1,Increment      1: Step Time =    1.000,"PART-1-1",           921,       11.7392,       25.4428,            0.,NA,NA,"",       1.65320,      -1.63850,   220.001E-03,   267.919E-06
C:/temp/dataset/8/5_24.odb,Step-1,Increment      1: Step Time =    1.000,"PART-1-1",           922,       10.5115,       26.6462,            0.,NA,NA,"",       1.67023,      -1.65834,   198.904E-03,   287.641E-06
C:/temp/dataset/8/5_24.odb,Step-1,Increment      1: Step Time =    1.000,"PART-1-1",           923,       8.41385,       26.4284,            0.,NA,NA,"",       1.66256,      -1.65450,   163.553E-03,   290.543E-06
C:/temp/dataset/8/5_24.odb,Step-1,Increment      1: Step Time =    1.000,"PART-1-1",           924,       9.30707,      -2.42527,            0.,NA,NA,"",       1.24350,      -1.23202,   168.566E-03,   8.03699E-03
C:/temp/dataset/8/5_24.odb,Step-1,Increment      1: Step Time =    1.000,"PART-1-1",           925,       9.63410,  -928.992E-03,            0.,NA,NA,"",       1.25274,      -1.24011,   177.468E-03,   6.05183E-03
C:/temp/dataset/8/5_24.odb,Step-1,Increment      1: Step Time =    1.000,"PART-1-1",           926,       5.61561,  -459.456E-03,            0.,NA,NA,"",       1.23461,      -1.22682,   138.508E-03,   5.38997E-03
C:/temp/dataset/8/5_24.odb,Step-1,Increment      1: Step Time =    1.000,"PART-1-1",           927,      -8.35034,   879.442E-03,            0.,NA,NA,"",       1.22587,      -1.22494,  -47.6785E-03,   4.41705E-03
C:/temp/dataset/8/5_24.odb,Step-1,Increment      1: Step Time =    1.000,"PART-1-1",           928,      -7.85399,       2.30522,            0.,NA,NA,"",       1.25762,      -1.25703,  -38.5234E-03,   4.91407E-03
C:/temp/dataset/8/5_24.odb,Step-1,Increment      1: Step Time =    1.000,"PART-1-1",           929,      -6.36888,       23.7008,            0.,NA,NA,"",       1.61742,      -1.61646,  -55.4757E-03,   837.193E-06
C:/temp/dataset/8/5_24.odb,Step-1,Increment      1: Step Time =    1.000,"PART-1-1",           930,       7.80593,       24.5017,            0.,NA,NA,"",       1.63032,      -1.62306,   153.697E-03,   380.914E-06
