ODB Name,Step,Frame,Part Instance Name,    êﬂì_ÉâÉxÉã,X,Y,Z,Section Name,Material Name,Section Point,   U-Magnitude,          U-U1,          U-U2,       S-Mises
C:/temp/dataset/8/6_8.odb,Step-1,Increment      1: Step Time =    1.000,"PART-1-1",             1,            5.,           -5.,            0.,NA,NA,"",   84.9386E-03,  -81.5985E-03,   23.5850E-03,   896.225E-06
C:/temp/dataset/8/6_8.odb,Step-1,Increment      1: Step Time =    1.000,"PART-1-1",             2,            0.,           -5.,            0.,NA,NA,"",   79.9619E-03,  -78.2793E-03,   16.3175E-03,   593.968E-06
C:/temp/dataset/8/6_8.odb,Step-1,Increment      1: Step Time =    1.000,"PART-1-1",             3,            5.,         -12.5,            0.,NA,NA,"",   83.8919E-03,  -80.7849E-03,   22.6196E-03,   697.940E-06
C:/temp/dataset/8/6_8.odb,Step-1,Increment      1: Step Time =    1.000,"PART-1-1",             4,            5.,          -20.,            0.,NA,NA,"",   59.5634E-03,  -58.4832E-03,   11.2919E-03,   5.35931E-03
C:/temp/dataset/8/6_8.odb,Step-1,Increment      1: Step Time =    1.000,"PART-1-1",             5,            0.,          -20.,            0.,NA,NA,"",   37.1681E-03,  -36.7688E-03,   5.43325E-03,   2.95829E-03
C:/temp/dataset/8/6_8.odb,Step-1,Increment      1: Step Time =    1.000,"PART-1-1",             6,           -5.,          -20.,            0.,NA,NA,"",   28.9790E-03,  -28.4482E-03,   5.52099E-03,   1.52601E-03
C:/temp/dataset/8/6_8.odb,Step-1,Increment      1: Step Time =    1.000,"PART-1-1",             7,           -5.,           -5.,            0.,NA,NA,"",   75.3051E-03,  -74.7194E-03,   9.37378E-03,   1.21186E-03
C:/temp/dataset/8/6_8.odb,Step-1,Increment      1: Step Time =    1.000,"PART-1-1",             8,            5.,           20.,            0.,NA,NA,"",   117.714E-03,  -116.013E-03,   19.9416E-03,   149.552E-06
C:/temp/dataset/8/6_8.odb,Step-1,Increment      1: Step Time =    1.000,"PART-1-1",             9,            0.,           20.,            0.,NA,NA,"",   117.316E-03,  -116.678E-03,   12.2198E-03,   121.702E-06
C:/temp/dataset/8/6_8.odb,Step-1,Increment      1: Step Time =    1.000,"PART-1-1",            10,            5.,          12.5,            0.,NA,NA,"",   105.264E-03,  -103.235E-03,   20.5637E-03,   170.179E-06
C:/temp/dataset/8/6_8.odb,Step-1,Increment      1: Step Time =    1.000,"PART-1-1",            11,            5.,            5.,            0.,NA,NA,"",   94.9909E-03,  -92.2889E-03,   22.4948E-03,   376.900E-06
C:/temp/dataset/8/6_8.odb,Step-1,Increment      1: Step Time =    1.000,"PART-1-1",            12,            0.,            5.,            0.,NA,NA,"",   94.8489E-03,  -93.3256E-03,   16.9311E-03,   318.157E-06
C:/temp/dataset/8/6_8.odb,Step-1,Increment      1: Step Time =    1.000,"PART-1-1",            13,           -5.,            5.,            0.,NA,NA,"",   94.9689E-03,  -94.6627E-03,   7.62021E-03,   375.851E-06
C:/temp/dataset/8/6_8.odb,Step-1,Increment      1: Step Time =    1.000,"PART-1-1",            14,           -5.,           20.,            0.,NA,NA,"",   117.418E-03,  -117.320E-03,   4.79761E-03,   137.688E-06
C:/temp/dataset/8/6_8.odb,Step-1,Increment      1: Step Time =    1.000,"PART-1-1",            15,           15.,           30.,            0.,NA,NA,"",   137.133E-03,  -132.261E-03,   36.2259E-03,   667.924E-09
C:/temp/dataset/8/6_8.odb,Step-1,Increment      1: Step Time =    1.000,"PART-1-1",            16,            0.,           30.,            0.,NA,NA,"",   132.433E-03,  -131.882E-03,   12.0771E-03,   50.7438E-06
C:/temp/dataset/8/6_8.odb,Step-1,Increment      1: Step Time =    1.000,"PART-1-1",            17,          -15.,           30.,            0.,NA,NA,"",   131.893E-03,  -131.554E-03,  -9.44628E-03,   337.593E-09
C:/temp/dataset/8/6_8.odb,Step-1,Increment      1: Step Time =    1.000,"PART-1-1",            18,          -15.,          -30.,            0.,NA,NA,"",            0.,  -1.39635E-39,  -2.33418E-39,   4.45406E-03
C:/temp/dataset/8/6_8.odb,Step-1,Increment      1: Step Time =    1.000,"PART-1-1",            19,           15.,          -30.,            0.,NA,NA,"",            0.,  -8.15738E-39,   11.8807E-39,   25.7338E-03
C:/temp/dataset/8/6_8.odb,Step-1,Increment      1: Step Time =    1.000,"PART-1-1",            20,           15.,      -20.1000,            0.,NA,NA,"",   94.5084E-03,  -90.3472E-03,   27.7346E-03,   4.07035E-03
C:/temp/dataset/8/6_8.odb,Step-1,Increment      1: Step Time =    1.000,"PART-1-1",            21,           15.,      -10.0500,            0.,NA,NA,"",   86.9523E-03,  -81.3917E-03,   30.5957E-03,   108.360E-06
C:/temp/dataset/8/6_8.odb,Step-1,Increment      1: Step Time =    1.000,"PART-1-1",            22,           15.,            0.,            0.,NA,NA,"",   92.8796E-03,  -87.0002E-03,   32.5206E-03,   367.512E-06
C:/temp/dataset/8/6_8.odb,Step-1,Increment      1: Step Time =    1.000,"PART-1-1",            23,           15.,       9.90000,            0.,NA,NA,"",   105.313E-03,  -99.2454E-03,   35.2308E-03,   224.705E-06
C:/temp/dataset/8/6_8.odb,Step-1,Increment      1: Step Time =    1.000,"PART-1-1",            24,           15.,       19.9500,            0.,NA,NA,"",   121.184E-03,  -115.628E-03,   36.2755E-03,   20.2754E-06
C:/temp/dataset/8/6_8.odb,Step-1,Increment      1: Step Time =    1.000,"PART-1-1",            25,           2.5,           -5.,            0.,NA,NA,"",   82.0556E-03,  -79.6120E-03,   19.8758E-03,   696.063E-06
C:/temp/dataset/8/6_8.odb,Step-1,Increment      1: Step Time =    1.000,"PART-1-1",            26,            5.,          -10.,            0.,NA,NA,"",   84.9559E-03,  -81.5720E-03,   23.7383E-03,   315.315E-06
C:/temp/dataset/8/6_8.odb,Step-1,Increment      1: Step Time =    1.000,"PART-1-1",            27,            5.,          -7.5,            0.,NA,NA,"",   85.4401E-03,  -81.9586E-03,   24.1411E-03,   163.839E-06
C:/temp/dataset/8/6_8.odb,Step-1,Increment      1: Step Time =    1.000,"PART-1-1",            28,            5.,         -17.5,            0.,NA,NA,"",   76.0455E-03,  -74.3060E-03,   16.1721E-03,   2.45858E-03
C:/temp/dataset/8/6_8.odb,Step-1,Increment      1: Step Time =    1.000,"PART-1-1",            29,            5.,          -15.,            0.,NA,NA,"",   81.5681E-03,  -79.0010E-03,   20.3027E-03,   1.42799E-03
C:/temp/dataset/8/6_8.odb,Step-1,Increment      1: Step Time =    1.000,"PART-1-1",            30,           2.5,          -20.,            0.,NA,NA,"",   45.2488E-03,  -44.6677E-03,   7.22847E-03,   4.44055E-03
C:/temp/dataset/8/6_8.odb,Step-1,Increment      1: Step Time =    1.000,"PART-1-1",            31,          -2.5,          -20.,            0.,NA,NA,"",   31.5682E-03,  -31.2212E-03,   4.66753E-03,   1.86775E-03
C:/temp/dataset/8/6_8.odb,Step-1,Increment      1: Step Time =    1.000,"PART-1-1",            32,           -5.,          -7.5,            0.,NA,NA,"",   66.6283E-03,  -65.7247E-03,   10.9357E-03,   403.067E-06
C:/temp/dataset/8/6_8.odb,Step-1,Increment      1: Step Time =    1.000,"PART-1-1",            33,           -5.,          -10.,            0.,NA,NA,"",   58.6363E-03,  -57.5485E-03,   11.2424E-03,   41.8759E-06
C:/temp/dataset/8/6_8.odb,Step-1,Increment      1: Step Time =    1.000,"PART-1-1",            34,           -5.,         -12.5,            0.,NA,NA,"",   50.7433E-03,  -49.5144E-03,   11.0996E-03,   195.231E-06
C:/temp/dataset/8/6_8.odb,Step-1,Increment      1: Step Time =    1.000,"PART-1-1",            35,           -5.,          -15.,            0.,NA,NA,"",   42.9775E-03,  -41.7122E-03,   10.3516E-03,   465.207E-06
C:/temp/dataset/8/6_8.odb,Step-1,Increment      1: Step Time =    1.000,"PART-1-1",            36,           -5.,         -17.5,            0.,NA,NA,"",   35.5008E-03,  -34.3441E-03,   8.98819E-03,   941.098E-06
C:/temp/dataset/8/6_8.odb,Step-1,Increment      1: Step Time =    1.000,"PART-1-1",            37,          -2.5,           -5.,            0.,NA,NA,"",   77.9471E-03,  -76.9091E-03,   12.6784E-03,   810.955E-06
C:/temp/dataset/8/6_8.odb,Step-1,Increment      1: Step Time =    1.000,"PART-1-1",            38,           2.5,           20.,            0.,NA,NA,"",   117.507E-03,  -116.406E-03,   16.0450E-03,   138.736E-06
C:/temp/dataset/8/6_8.odb,Step-1,Increment      1: Step Time =    1.000,"PART-1-1",            39,            5.,           15.,            0.,NA,NA,"",   109.202E-03,  -107.310E-03,   20.2363E-03,   122.118E-06
C:/temp/dataset/8/6_8.odb,Step-1,Increment      1: Step Time =    1.000,"PART-1-1",            40,            5.,          17.5,            0.,NA,NA,"",   113.325E-03,  -111.544E-03,   20.0116E-03,   68.8977E-06
C:/temp/dataset/8/6_8.odb,Step-1,Increment      1: Step Time =    1.000,"PART-1-1",            41,            5.,           7.5,            0.,NA,NA,"",   98.0761E-03,  -95.6779E-03,   21.5560E-03,   297.620E-06
C:/temp/dataset/8/6_8.odb,Step-1,Increment      1: Step Time =    1.000,"PART-1-1",            42,            5.,           10.,            0.,NA,NA,"",   101.549E-03,  -99.3517E-03,   21.0113E-03,   221.204E-06
C:/temp/dataset/8/6_8.odb,Step-1,Increment      1: Step Time =    1.000,"PART-1-1",            43,           2.5,            5.,            0.,NA,NA,"",   94.8405E-03,  -92.6643E-03,   20.2005E-03,   236.796E-06
C:/temp/dataset/8/6_8.odb,Step-1,Increment      1: Step Time =    1.000,"PART-1-1",            44,          -2.5,            5.,            0.,NA,NA,"",   94.9275E-03,  -94.0547E-03,   12.8432E-03,   315.539E-06
C:/temp/dataset/8/6_8.odb,Step-1,Increment      1: Step Time =    1.000,"PART-1-1",            45,           -5.,          17.5,            0.,NA,NA,"",   114.229E-03,  -114.123E-03,   4.92203E-03,   88.7419E-06
C:/temp/dataset/8/6_8.odb,Step-1,Increment      1: Step Time =    1.000,"PART-1-1",            46,           -5.,           15.,            0.,NA,NA,"",   110.800E-03,  -110.679E-03,   5.18577E-03,   140.151E-06
C:/temp/dataset/8/6_8.odb,Step-1,Increment      1: Step Time =    1.000,"PART-1-1",            47,           -5.,          12.5,            0.,NA,NA,"",   107.207E-03,  -107.063E-03,   5.55681E-03,   189.714E-06
C:/temp/dataset/8/6_8.odb,Step-1,Increment      1: Step Time =    1.000,"PART-1-1",            48,           -5.,           10.,            0.,NA,NA,"",   103.415E-03,  -103.237E-03,   6.04843E-03,   241.796E-06
C:/temp/dataset/8/6_8.odb,Step-1,Increment      1: Step Time =    1.000,"PART-1-1",            49,           -5.,           7.5,            0.,NA,NA,"",   99.3770E-03,  -99.1536E-03,   6.65922E-03,   319.606E-06
C:/temp/dataset/8/6_8.odb,Step-1,Increment      1: Step Time =    1.000,"PART-1-1",            50,          -2.5,           20.,            0.,NA,NA,"",   117.257E-03,  -116.951E-03,   8.46523E-03,   133.406E-06
C:/temp/dataset/8/6_8.odb,Step-1,Increment      1: Step Time =    1.000,"PART-1-1",            51,          12.5,           30.,            0.,NA,NA,"",   136.099E-03,  -132.256E-03,   32.1147E-03,   3.59658E-06
C:/temp/dataset/8/6_8.odb,Step-1,Increment      1: Step Time =    1.000,"PART-1-1",            52,           10.,           30.,            0.,NA,NA,"",   135.167E-03,  -132.234E-03,   28.0024E-03,   13.6844E-06
C:/temp/dataset/8/6_8.odb,Step-1,Increment      1: Step Time =    1.000,"PART-1-1",            53,           7.5,           30.,            0.,NA,NA,"",   134.330E-03,  -132.185E-03,   23.9135E-03,   27.3214E-06
C:/temp/dataset/8/6_8.odb,Step-1,Increment      1: Step Time =    1.000,"PART-1-1",            54,            5.,           30.,            0.,NA,NA,"",   133.592E-03,  -132.105E-03,   19.8777E-03,   40.6216E-06
C:/temp/dataset/8/6_8.odb,Step-1,Increment      1: Step Time =    1.000,"PART-1-1",            55,           2.5,           30.,            0.,NA,NA,"",   132.956E-03,  -131.999E-03,   15.9256E-03,   49.2747E-06
C:/temp/dataset/8/6_8.odb,Step-1,Increment      1: Step Time =    1.000,"PART-1-1",            56,          -2.5,           30.,            0.,NA,NA,"",   132.033E-03,  -131.770E-03,   8.33474E-03,   44.7641E-06
C:/temp/dataset/8/6_8.odb,Step-1,Increment      1: Step Time =    1.000,"PART-1-1",            57,           -5.,           30.,            0.,NA,NA,"",   131.759E-03,  -131.676E-03,   4.68771E-03,   34.0484E-06
C:/temp/dataset/8/6_8.odb,Step-1,Increment      1: Step Time =    1.000,"PART-1-1",            58,          -7.5,           30.,            0.,NA,NA,"",   131.616E-03,  -131.612E-03,   1.11287E-03,   20.9414E-06
C:/temp/dataset/8/6_8.odb,Step-1,Increment      1: Step Time =    1.000,"PART-1-1",            59,          -10.,           30.,            0.,NA,NA,"",   131.597E-03,  -131.575E-03,  -2.41967E-03,   10.1591E-06
C:/temp/dataset/8/6_8.odb,Step-1,Increment      1: Step Time =    1.000,"PART-1-1",            60,         -12.5,           30.,            0.,NA,NA,"",   131.692E-03,  -131.558E-03,  -5.93347E-03,   2.76776E-06
C:/temp/dataset/8/6_8.odb,Step-1,Increment      1: Step Time =    1.000,"PART-1-1",            61,          -15.,          27.5,            0.,NA,NA,"",   128.385E-03,  -128.037E-03,  -9.44248E-03,   3.07666E-06
C:/temp/dataset/8/6_8.odb,Step-1,Increment      1: Step Time =    1.000,"PART-1-1",            62,          -15.,           25.,            0.,NA,NA,"",   124.883E-03,  -124.527E-03,  -9.42778E-03,   5.52367E-06
C:/temp/dataset/8/6_8.odb,Step-1,Increment      1: Step Time =    1.000,"PART-1-1",            63,          -15.,          22.5,            0.,NA,NA,"",   121.413E-03,  -121.048E-03,  -9.41364E-03,   2.77684E-06
C:/temp/dataset/8/6_8.odb,Step-1,Increment      1: Step Time =    1.000,"PART-1-1",            64,          -15.,           20.,            0.,NA,NA,"",   117.986E-03,  -117.608E-03,  -9.43869E-03,   29.2343E-06
C:/temp/dataset/8/6_8.odb,Step-1,Increment      1: Step Time =    1.000,"PART-1-1",            65,          -15.,          17.5,            0.,NA,NA,"",   114.572E-03,  -114.173E-03,  -9.54709E-03,   73.9194E-06
C:/temp/dataset/8/6_8.odb,Step-1,Increment      1: Step Time =    1.000,"PART-1-1",            66,          -15.,           15.,            0.,NA,NA,"",   111.109E-03,  -110.678E-03,  -9.76953E-03,   127.573E-06
C:/temp/dataset/8/6_8.odb,Step-1,Increment      1: Step Time =    1.000,"PART-1-1",            67,          -15.,          12.5,            0.,NA,NA,"",   107.523E-03,  -107.046E-03,  -10.1150E-03,   181.923E-06
C:/temp/dataset/8/6_8.odb,Step-1,Increment      1: Step Time =    1.000,"PART-1-1",            68,          -15.,           10.,            0.,NA,NA,"",   103.748E-03,  -103.208E-03,  -10.5797E-03,   232.996E-06
C:/temp/dataset/8/6_8.odb,Step-1,Increment      1: Step Time =    1.000,"PART-1-1",            69,          -15.,           7.5,            0.,NA,NA,"",   99.7284E-03,  -99.1026E-03,  -11.1550E-03,   279.982E-06
C:/temp/dataset/8/6_8.odb,Step-1,Increment      1: Step Time =    1.000,"PART-1-1",            70,          -15.,            5.,            0.,NA,NA,"",   95.4251E-03,  -94.6891E-03,  -11.8282E-03,   327.167E-06
C:/temp/dataset/8/6_8.odb,Step-1,Increment      1: Step Time =    1.000,"PART-1-1",            71,          -15.,           2.5,            0.,NA,NA,"",   90.8115E-03,  -89.9309E-03,  -12.6155E-03,   382.692E-06
C:/temp/dataset/8/6_8.odb,Step-1,Increment      1: Step Time =    1.000,"PART-1-1",            72,          -15.,            0.,            0.,NA,NA,"",   85.8271E-03,  -84.7519E-03,  -13.5428E-03,   452.307E-06
C:/temp/dataset/8/6_8.odb,Step-1,Increment      1: Step Time =    1.000,"PART-1-1",            73,          -15.,          -2.5,            0.,NA,NA,"",   80.3283E-03,  -78.9868E-03,  -14.6191E-03,   484.262E-06
C:/temp/dataset/8/6_8.odb,Step-1,Increment      1: Step Time =    1.000,"PART-1-1",            74,          -15.,           -5.,            0.,NA,NA,"",   74.1726E-03,  -72.4935E-03,  -15.6926E-03,   454.846E-06
C:/temp/dataset/8/6_8.odb,Step-1,Increment      1: Step Time =    1.000,"PART-1-1",            75,          -15.,          -7.5,            0.,NA,NA,"",   67.3130E-03,  -65.2549E-03,  -16.5176E-03,   281.522E-06
C:/temp/dataset/8/6_8.odb,Step-1,Increment      1: Step Time =    1.000,"PART-1-1",            76,          -15.,          -10.,            0.,NA,NA,"",   59.9625E-03,  -57.5313E-03,  -16.9012E-03,   53.4313E-06
C:/temp/dataset/8/6_8.odb,Step-1,Increment      1: Step Time =    1.000,"PART-1-1",            77,          -15.,         -12.5,            0.,NA,NA,"",   52.4014E-03,  -49.6625E-03,  -16.7196E-03,   198.581E-06
C:/temp/dataset/8/6_8.odb,Step-1,Increment      1: Step Time =    1.000,"PART-1-1",            78,          -15.,          -15.,            0.,NA,NA,"",   44.9572E-03,  -42.0094E-03,  -16.0113E-03,   413.939E-06
C:/temp/dataset/8/6_8.odb,Step-1,Increment      1: Step Time =    1.000,"PART-1-1",            79,          -15.,         -17.5,            0.,NA,NA,"",   37.8784E-03,  -34.8325E-03,  -14.8819E-03,   565.531E-06
C:/temp/dataset/8/6_8.odb,Step-1,Increment      1: Step Time =    1.000,"PART-1-1",            80,          -15.,          -20.,            0.,NA,NA,"",   31.2484E-03,  -28.1766E-03,  -13.5109E-03,   640.218E-06
C:/temp/dataset/8/6_8.odb,Step-1,Increment      1: Step Time =    1.000,"PART-1-1",            81,          -15.,         -22.5,            0.,NA,NA,"",   24.8540E-03,  -21.7936E-03,  -11.9481E-03,   775.013E-06
C:/temp/dataset/8/6_8.odb,Step-1,Increment      1: Step Time =    1.000,"PART-1-1",            82,          -15.,          -25.,            0.,NA,NA,"",   18.1676E-03,  -15.1978E-03,  -9.95422E-03,   1.02581E-03
C:/temp/dataset/8/6_8.odb,Step-1,Increment      1: Step Time =    1.000,"PART-1-1",            83,          -15.,         -27.5,            0.,NA,NA,"",   10.6357E-03,  -8.22597E-03,  -6.74182E-03,   2.11198E-03
C:/temp/dataset/8/6_8.odb,Step-1,Increment      1: Step Time =    1.000,"PART-1-1",            84,         -12.5,          -30.,            0.,NA,NA,"",            0.,  -1.89447E-39,  -1.42312E-39,   1.56073E-03
C:/temp/dataset/8/6_8.odb,Step-1,Increment      1: Step Time =    1.000,"PART-1-1",            85,          -10.,          -30.,            0.,NA,NA,"",            0.,  -1.64061E-39,  -1.77566E-39,   1.68848E-03
C:/temp/dataset/8/6_8.odb,Step-1,Increment      1: Step Time =    1.000,"PART-1-1",            86,          -7.5,          -30.,            0.,NA,NA,"",            0.,  -1.76179E-39,   101.371E-42,   1.95899E-03
C:/temp/dataset/8/6_8.odb,Step-1,Increment      1: Step Time =    1.000,"PART-1-1",            87,           -5.,          -30.,            0.,NA,NA,"",            0.,  -2.38687E-39,  -1.65393E-39,   2.42028E-03
C:/temp/dataset/8/6_8.odb,Step-1,Increment      1: Step Time =    1.000,"PART-1-1",            88,          -2.5,          -30.,            0.,NA,NA,"",            0.,  -2.93891E-39,  -2.09623E-39,   2.90018E-03
C:/temp/dataset/8/6_8.odb,Step-1,Increment      1: Step Time =    1.000,"PART-1-1",            89,            0.,          -30.,            0.,NA,NA,"",            0.,  -2.91123E-39,   565.858E-42,   3.37435E-03
C:/temp/dataset/8/6_8.odb,Step-1,Increment      1: Step Time =    1.000,"PART-1-1",            90,           2.5,          -30.,            0.,NA,NA,"",            0.,  -3.68448E-39,  -3.34174E-39,   3.89570E-03
C:/temp/dataset/8/6_8.odb,Step-1,Increment      1: Step Time =    1.000,"PART-1-1",            91,            5.,          -30.,            0.,NA,NA,"",            0.,  -4.54367E-39,   1.00793E-39,   4.60324E-03
C:/temp/dataset/8/6_8.odb,Step-1,Increment      1: Step Time =    1.000,"PART-1-1",            92,           7.5,          -30.,            0.,NA,NA,"",            0.,  -5.18151E-39,  -2.89617E-39,   5.68650E-03
C:/temp/dataset/8/6_8.odb,Step-1,Increment      1: Step Time =    1.000,"PART-1-1",            93,           10.,          -30.,            0.,NA,NA,"",            0.,  -7.29652E-39,   2.67790E-39,   7.42711E-03
C:/temp/dataset/8/6_8.odb,Step-1,Increment      1: Step Time =    1.000,"PART-1-1",            94,          12.5,          -30.,            0.,NA,NA,"",            0.,  -17.1911E-39,  -3.51035E-39,   8.92126E-03
C:/temp/dataset/8/6_8.odb,Step-1,Increment      1: Step Time =    1.000,"PART-1-1",            95,           15.,      -27.5250,            0.,NA,NA,"",   61.3445E-03,  -55.1827E-03,   26.7959E-03,   11.9972E-03
C:/temp/dataset/8/6_8.odb,Step-1,Increment      1: Step Time =    1.000,"PART-1-1",            96,           15.,      -25.0500,            0.,NA,NA,"",   88.6971E-03,  -83.2725E-03,   30.5429E-03,   6.79215E-03
C:/temp/dataset/8/6_8.odb,Step-1,Increment      1: Step Time =    1.000,"PART-1-1",            97,           15.,      -22.5750,            0.,NA,NA,"",   101.973E-03,  -97.1200E-03,   31.0845E-03,   7.75851E-03
C:/temp/dataset/8/6_8.odb,Step-1,Increment      1: Step Time =    1.000,"PART-1-1",            98,           15.,      -17.5875,            0.,NA,NA,"",   85.0868E-03,  -79.3858E-03,   30.6212E-03,   1.21381E-03
C:/temp/dataset/8/6_8.odb,Step-1,Increment      1: Step Time =    1.000,"PART-1-1",            99,           15.,      -15.0750,            0.,NA,NA,"",   84.9973E-03,  -79.0639E-03,   31.2000E-03,   173.148E-06
C:/temp/dataset/8/6_8.odb,Step-1,Increment      1: Step Time =    1.000,"PART-1-1",           100,           15.,      -12.5625,            0.,NA,NA,"",   86.0343E-03,  -80.2657E-03,   30.9729E-03,   189.868E-06
C:/temp/dataset/8/6_8.odb,Step-1,Increment      1: Step Time =    1.000,"PART-1-1",           101,           15.,      -7.53750,            0.,NA,NA,"",   87.8196E-03,  -82.3311E-03,   30.5594E-03,   80.1608E-06
C:/temp/dataset/8/6_8.odb,Step-1,Increment      1: Step Time =    1.000,"PART-1-1",           102,           15.,      -5.02500,            0.,NA,NA,"",   88.9826E-03,  -83.4186E-03,   30.9714E-03,   249.741E-06
C:/temp/dataset/8/6_8.odb,Step-1,Increment      1: Step Time =    1.000,"PART-1-1",           103,           15.,      -2.51250,            0.,NA,NA,"",   90.6541E-03,  -84.9343E-03,   31.6910E-03,   357.236E-06
C:/temp/dataset/8/6_8.odb,Step-1,Increment      1: Step Time =    1.000,"PART-1-1",           104,           15.,       2.47500,            0.,NA,NA,"",   95.5127E-03,  -89.5145E-03,   33.3141E-03,   341.034E-06
C:/temp/dataset/8/6_8.odb,Step-1,Increment      1: Step Time =    1.000,"PART-1-1",           105,           15.,       4.95000,            0.,NA,NA,"",   98.4943E-03,  -92.4260E-03,   34.0377E-03,   307.108E-06
C:/temp/dataset/8/6_8.odb,Step-1,Increment      1: Step Time =    1.000,"PART-1-1",           106,           15.,       7.42500,            0.,NA,NA,"",   101.773E-03,  -95.6821E-03,   34.6805E-03,   270.556E-06
C:/temp/dataset/8/6_8.odb,Step-1,Increment      1: Step Time =    1.000,"PART-1-1",           107,           15.,       12.4125,            0.,NA,NA,"",   109.120E-03,  -103.124E-03,   35.6763E-03,   171.781E-06
C:/temp/dataset/8/6_8.odb,Step-1,Increment      1: Step Time =    1.000,"PART-1-1",           108,           15.,       14.9250,            0.,NA,NA,"",   113.079E-03,  -107.197E-03,   35.9981E-03,   116.402E-06
C:/temp/dataset/8/6_8.odb,Step-1,Increment      1: Step Time =    1.000,"PART-1-1",           109,           15.,       17.4375,            0.,NA,NA,"",   117.124E-03,  -111.391E-03,   36.1948E-03,   62.5807E-06
C:/temp/dataset/8/6_8.odb,Step-1,Increment      1: Step Time =    1.000,"PART-1-1",           110,           15.,       22.4625,            0.,NA,NA,"",   125.214E-03,  -119.843E-03,   36.2793E-03,   7.07585E-06
C:/temp/dataset/8/6_8.odb,Step-1,Increment      1: Step Time =    1.000,"PART-1-1",           111,           15.,       24.9750,            0.,NA,NA,"",   129.198E-03,  -124.008E-03,   36.2518E-03,   10.7276E-06
C:/temp/dataset/8/6_8.odb,Step-1,Increment      1: Step Time =    1.000,"PART-1-1",           112,           15.,       27.4875,            0.,NA,NA,"",   133.160E-03,  -128.137E-03,   36.2311E-03,   3.71557E-06
C:/temp/dataset/8/6_8.odb,Step-1,Increment      1: Step Time =    1.000,"PART-1-1",           113,       13.1365,       7.82775,            0.,NA,NA,"",   101.322E-03,  -96.0596E-03,   32.2280E-03,   173.132E-06
C:/temp/dataset/8/6_8.odb,Step-1,Increment      1: Step Time =    1.000,"PART-1-1",           114,       12.9206,      -22.7091,            0.,NA,NA,"",   88.4863E-03,  -84.6201E-03,   25.8702E-03,   7.67762E-03
C:/temp/dataset/8/6_8.odb,Step-1,Increment      1: Step Time =    1.000,"PART-1-1",           115,       12.1826,      -25.1314,            0.,NA,NA,"",   66.0254E-03,  -64.3747E-03,   14.6713E-03,   8.67711E-03
C:/temp/dataset/8/6_8.odb,Step-1,Increment      1: Step Time =    1.000,"PART-1-1",           116,       12.6244,   112.324E-03,            0.,NA,NA,"",   91.9542E-03,  -86.7978E-03,   30.3598E-03,   197.259E-06
C:/temp/dataset/8/6_8.odb,Step-1,Increment      1: Step Time =    1.000,"PART-1-1",           117,       12.7971,       5.51469,            0.,NA,NA,"",   98.0801E-03,  -92.9038E-03,   31.4417E-03,   177.121E-06
C:/temp/dataset/8/6_8.odb,Step-1,Increment      1: Step Time =    1.000,"PART-1-1",           118,       12.0259,       2.90661,            0.,NA,NA,"",   94.6195E-03,  -89.6738E-03,   30.1906E-03,   147.052E-06
C:/temp/dataset/8/6_8.odb,Step-1,Increment      1: Step Time =    1.000,"PART-1-1",           119,       6.98518,      -9.77271,            0.,NA,NA,"",   85.4671E-03,  -81.8106E-03,   24.7317E-03,   388.544E-06
C:/temp/dataset/8/6_8.odb,Step-1,Increment      1: Step Time =    1.000,"PART-1-1",           120,       7.90645,      -27.9165,            0.,NA,NA,"",   19.1823E-03,  -19.1583E-03,   957.863E-06,   6.00834E-03
C:/temp/dataset/8/6_8.odb,Step-1,Increment      1: Step Time =    1.000,"PART-1-1",           121,      -2.48144,      -27.6485,            0.,NA,NA,"",   10.1679E-03,  -10.1658E-03,  -204.987E-06,   2.84972E-03
C:/temp/dataset/8/6_8.odb,Step-1,Increment      1: Step Time =    1.000,"PART-1-1",           122,      -12.5133,      -12.5664,            0.,NA,NA,"",   50.1808E-03,  -49.2768E-03,  -9.48175E-03,   351.248E-06
C:/temp/dataset/8/6_8.odb,Step-1,Increment      1: Step Time =    1.000,"PART-1-1",           123,      -12.5789,       17.4824,            0.,NA,NA,"",   114.376E-03,  -114.213E-03,  -6.09605E-03,   78.1811E-06
C:/temp/dataset/8/6_8.odb,Step-1,Increment      1: Step Time =    1.000,"PART-1-1",           124,      -2.62827,      -2.48556,            0.,NA,NA,"",   82.0854E-03,  -81.0642E-03,   12.9073E-03,   482.640E-06
C:/temp/dataset/8/6_8.odb,Step-1,Increment      1: Step Time =    1.000,"PART-1-1",           125,      -2.40341,       2.52844,            0.,NA,NA,"",   90.6972E-03,  -89.7222E-03,   13.2629E-03,   95.8571E-06
C:/temp/dataset/8/6_8.odb,Step-1,Increment      1: Step Time =    1.000,"PART-1-1",           126,       2.45915,      -2.56896,            0.,NA,NA,"",   85.1963E-03,  -82.7519E-03,   20.2618E-03,   426.724E-06
C:/temp/dataset/8/6_8.odb,Step-1,Increment      1: Step Time =    1.000,"PART-1-1",           127,       2.65554,       2.44196,            0.,NA,NA,"",   91.7615E-03,  -89.4207E-03,   20.5940E-03,   171.921E-06
C:/temp/dataset/8/6_8.odb,Step-1,Increment      1: Step Time =    1.000,"PART-1-1",           128,       2.47444,       22.5736,            0.,NA,NA,"",   121.476E-03,  -120.431E-03,   15.9008E-03,   75.0712E-06
C:/temp/dataset/8/6_8.odb,Step-1,Increment      1: Step Time =    1.000,"PART-1-1",           129,   16.3473E-03,       27.5162,            0.,NA,NA,"",   128.674E-03,  -128.107E-03,   12.0710E-03,   9.54811E-06
C:/temp/dataset/8/6_8.odb,Step-1,Increment      1: Step Time =    1.000,"PART-1-1",           130,      -2.67853,       22.8897,            0.,NA,NA,"",   121.490E-03,  -121.221E-03,   8.08620E-03,   62.9029E-06
C:/temp/dataset/8/6_8.odb,Step-1,Increment      1: Step Time =    1.000,"PART-1-1",           131,      -12.4925,       19.9647,            0.,NA,NA,"",   117.733E-03,  -117.584E-03,  -5.91480E-03,   53.3117E-06
C:/temp/dataset/8/6_8.odb,Step-1,Increment      1: Step Time =    1.000,"PART-1-1",           132,      -7.56076,       17.4403,            0.,NA,NA,"",   114.139E-03,  -114.131E-03,   1.32212E-03,   95.1976E-06
C:/temp/dataset/8/6_8.odb,Step-1,Increment      1: Step Time =    1.000,"PART-1-1",           133,       7.61200,       17.3671,            0.,NA,NA,"",   113.871E-03,  -111.238E-03,   24.3457E-03,   95.7462E-06
C:/temp/dataset/8/6_8.odb,Step-1,Increment      1: Step Time =    1.000,"PART-1-1",           134,      -9.59813,      -27.6832,            0.,NA,NA,"",   6.39380E-03,  -6.35499E-03,  -703.329E-06,   1.82865E-03
C:/temp/dataset/8/6_8.odb,Step-1,Increment      1: Step Time =    1.000,"PART-1-1",           135,       4.78979,      -2.62807,            0.,NA,NA,"",   86.5145E-03,  -83.3588E-03,   23.1534E-03,   247.588E-06
C:/temp/dataset/8/6_8.odb,Step-1,Increment      1: Step Time =    1.000,"PART-1-1",           136,       7.77864,      -12.2173,            0.,NA,NA,"",   85.1511E-03,  -81.3603E-03,   25.1240E-03,   583.398E-06
C:/temp/dataset/8/6_8.odb,Step-1,Increment      1: Step Time =    1.000,"PART-1-1",           137,       7.25860,      -19.5166,            0.,NA,NA,"",   71.8124E-03,  -68.7876E-03,   20.6224E-03,   3.26277E-03
C:/temp/dataset/8/6_8.odb,Step-1,Increment      1: Step Time =    1.000,"PART-1-1",           138,      -4.85223,      -22.6747,            0.,NA,NA,"",   24.5304E-03,  -24.3762E-03,   2.74614E-03,   2.20978E-03
C:/temp/dataset/8/6_8.odb,Step-1,Increment      1: Step Time =    1.000,"PART-1-1",           139,      -12.1899,      -27.1304,            0.,NA,NA,"",   8.36438E-03,  -7.95041E-03,  -2.59882E-03,   1.84107E-03
C:/temp/dataset/8/6_8.odb,Step-1,Increment      1: Step Time =    1.000,"PART-1-1",           140,      -12.5022,       10.0467,            0.,NA,NA,"",   103.686E-03,  -103.482E-03,  -6.50050E-03,   136.582E-06
C:/temp/dataset/8/6_8.odb,Step-1,Increment      1: Step Time =    1.000,"PART-1-1",           141,      -12.8398,       4.62624,            0.,NA,NA,"",   94.5836E-03,  -94.2574E-03,  -7.84796E-03,   199.761E-06
C:/temp/dataset/8/6_8.odb,Step-1,Increment      1: Step Time =    1.000,"PART-1-1",           142,      -12.8490,  -38.7177E-03,            0.,NA,NA,"",   85.4635E-03,  -85.0115E-03,  -8.77813E-03,   263.370E-06
C:/temp/dataset/8/6_8.odb,Step-1,Increment      1: Step Time =    1.000,"PART-1-1",           143,      -13.3237,      -5.02762,            0.,NA,NA,"",   73.5479E-03,  -72.6900E-03,  -11.2008E-03,   294.568E-06
C:/temp/dataset/8/6_8.odb,Step-1,Increment      1: Step Time =    1.000,"PART-1-1",           144,      -7.45280,      -10.1617,            0.,NA,NA,"",   57.1775E-03,  -57.0450E-03,   3.88932E-03,   349.876E-06
C:/temp/dataset/8/6_8.odb,Step-1,Increment      1: Step Time =    1.000,"PART-1-1",           145,  -24.6675E-03,      -2.52386,            0.,NA,NA,"",   83.6236E-03,  -81.9106E-03,   16.8390E-03,   476.236E-06
C:/temp/dataset/8/6_8.odb,Step-1,Increment      1: Step Time =    1.000,"PART-1-1",           146,       4.79423,       22.5397,            0.,NA,NA,"",   121.821E-03,  -120.240E-03,   19.5622E-03,   52.5764E-06
C:/temp/dataset/8/6_8.odb,Step-1,Increment      1: Step Time =    1.000,"PART-1-1",           147,       7.23210,       9.87276,            0.,NA,NA,"",   101.925E-03,  -98.9893E-03,   24.2849E-03,   144.614E-06
C:/temp/dataset/8/6_8.odb,Step-1,Increment      1: Step Time =    1.000,"PART-1-1",           148,       7.03782,       7.56931,            0.,NA,NA,"",   98.6430E-03,  -95.6053E-03,   24.2914E-03,   189.612E-06
C:/temp/dataset/8/6_8.odb,Step-1,Increment      1: Step Time =    1.000,"PART-1-1",           149,   58.7546E-03,       2.48470,            0.,NA,NA,"",   91.1966E-03,  -89.5564E-03,   17.2178E-03,   54.5996E-06
C:/temp/dataset/8/6_8.odb,Step-1,Increment      1: Step Time =    1.000,"PART-1-1",           150,      -4.69679,       2.58686,            0.,NA,NA,"",   90.4411E-03,  -90.0110E-03,   8.81056E-03,   281.907E-06
C:/temp/dataset/8/6_8.odb,Step-1,Increment      1: Step Time =    1.000,"PART-1-1",           151,      -12.4528,       27.7132,            0.,NA,NA,"",   128.472E-03,  -128.338E-03,  -5.86650E-03,   6.13809E-06
C:/temp/dataset/8/6_8.odb,Step-1,Increment      1: Step Time =    1.000,"PART-1-1",           152,      -11.8772,       25.1339,            0.,NA,NA,"",   124.809E-03,  -124.707E-03,  -5.04924E-03,   7.46347E-06
C:/temp/dataset/8/6_8.odb,Step-1,Increment      1: Step Time =    1.000,"PART-1-1",           153,      -12.3064,       22.4596,            0.,NA,NA,"",   121.123E-03,  -120.992E-03,  -5.64093E-03,   27.0242E-06
C:/temp/dataset/8/6_8.odb,Step-1,Increment      1: Step Time =    1.000,"PART-1-1",           154,      -7.54035,       19.8016,            0.,NA,NA,"",   117.259E-03,  -117.252E-03,   1.25792E-03,   105.631E-06
C:/temp/dataset/8/6_8.odb,Step-1,Increment      1: Step Time =    1.000,"PART-1-1",           155,   42.2180E-03,       22.5936,            0.,NA,NA,"",   121.226E-03,  -120.614E-03,   12.1670E-03,   79.7680E-06
C:/temp/dataset/8/6_8.odb,Step-1,Increment      1: Step Time =    1.000,"PART-1-1",           156,       10.3286,       27.6906,            0.,NA,NA,"",   131.595E-03,  -128.463E-03,   28.5381E-03,   12.0561E-06
C:/temp/dataset/8/6_8.odb,Step-1,Increment      1: Step Time =    1.000,"PART-1-1",           157,       7.73802,       27.2328,            0.,NA,NA,"",   130.004E-03,  -127.715E-03,   24.2884E-03,   16.1383E-06
C:/temp/dataset/8/6_8.odb,Step-1,Increment      1: Step Time =    1.000,"PART-1-1",           158,       4.99833,       27.5198,            0.,NA,NA,"",   129.689E-03,  -128.161E-03,   19.8505E-03,   15.9755E-06
C:/temp/dataset/8/6_8.odb,Step-1,Increment      1: Step Time =    1.000,"PART-1-1",           159,       2.50368,       27.5752,            0.,NA,NA,"",   129.206E-03,  -128.223E-03,   15.9014E-03,   11.8970E-06
C:/temp/dataset/8/6_8.odb,Step-1,Increment      1: Step Time =    1.000,"PART-1-1",           160,      -2.79867,       27.0761,            0.,NA,NA,"",   127.671E-03,  -127.428E-03,   7.86632E-03,   11.1590E-06
C:/temp/dataset/8/6_8.odb,Step-1,Increment      1: Step Time =    1.000,"PART-1-1",           161,      -5.48457,       27.7642,            0.,NA,NA,"",   128.488E-03,  -128.426E-03,   3.97361E-03,   15.9579E-06
C:/temp/dataset/8/6_8.odb,Step-1,Increment      1: Step Time =    1.000,"PART-1-1",           162,      -7.83691,       28.0652,            0.,NA,NA,"",   128.848E-03,  -128.847E-03,   626.891E-06,   12.6245E-06
C:/temp/dataset/8/6_8.odb,Step-1,Increment      1: Step Time =    1.000,"PART-1-1",           163,      -7.54955,       15.0035,            0.,NA,NA,"",   110.809E-03,  -110.799E-03,   1.46268E-03,   97.2157E-06
C:/temp/dataset/8/6_8.odb,Step-1,Increment      1: Step Time =    1.000,"PART-1-1",           164,      -12.5932,       15.0060,            0.,NA,NA,"",   110.971E-03,  -110.795E-03,  -6.23360E-03,   98.8783E-06
C:/temp/dataset/8/6_8.odb,Step-1,Increment      1: Step Time =    1.000,"PART-1-1",           165,      -7.55247,       12.5555,            0.,NA,NA,"",   107.314E-03,  -107.302E-03,   1.62958E-03,   116.809E-06
C:/temp/dataset/8/6_8.odb,Step-1,Increment      1: Step Time =    1.000,"PART-1-1",           166,      -12.5729,       12.5419,            0.,NA,NA,"",   107.452E-03,  -107.262E-03,  -6.37907E-03,   118.495E-06
C:/temp/dataset/8/6_8.odb,Step-1,Increment      1: Step Time =    1.000,"PART-1-1",           167,      -7.58565,       10.0709,            0.,NA,NA,"",   103.566E-03,  -103.551E-03,   1.81272E-03,   142.996E-06
C:/temp/dataset/8/6_8.odb,Step-1,Increment      1: Step Time =    1.000,"PART-1-1",           168,      -7.87743,       7.29005,            0.,NA,NA,"",   99.0602E-03,  -99.0477E-03,   1.57375E-03,   142.433E-06
C:/temp/dataset/8/6_8.odb,Step-1,Increment      1: Step Time =    1.000,"PART-1-1",           169,      -12.0798,       7.21824,            0.,NA,NA,"",   99.0793E-03,  -98.8930E-03,  -6.07354E-03,   142.295E-06
C:/temp/dataset/8/6_8.odb,Step-1,Increment      1: Step Time =    1.000,"PART-1-1",           170,      -13.1404,       2.31216,            0.,NA,NA,"",   90.2633E-03,  -89.8243E-03,  -8.89158E-03,   252.173E-06
C:/temp/dataset/8/6_8.odb,Step-1,Increment      1: Step Time =    1.000,"PART-1-1",           171,      -12.2753,      -2.89865,            0.,NA,NA,"",   78.8802E-03,  -78.4675E-03,  -8.05846E-03,   236.513E-06
C:/temp/dataset/8/6_8.odb,Step-1,Increment      1: Step Time =    1.000,"PART-1-1",           172,      -7.56646,      -5.67272,            0.,NA,NA,"",   71.7493E-03,  -71.6757E-03,   3.24896E-03,   438.820E-06
C:/temp/dataset/8/6_8.odb,Step-1,Increment      1: Step Time =    1.000,"PART-1-1",           173,      -7.39215,      -7.81560,            0.,NA,NA,"",   64.8840E-03,  -64.7650E-03,   3.92744E-03,   506.736E-06
C:/temp/dataset/8/6_8.odb,Step-1,Increment      1: Step Time =    1.000,"PART-1-1",           174,      -12.2965,      -7.15435,            0.,NA,NA,"",   67.1722E-03,  -66.5838E-03,  -8.87105E-03,   313.630E-06
C:/temp/dataset/8/6_8.odb,Step-1,Increment      1: Step Time =    1.000,"PART-1-1",           175,      -12.4696,      -9.99468,            0.,NA,NA,"",   58.3675E-03,  -57.5862E-03,  -9.51776E-03,   337.378E-06
C:/temp/dataset/8/6_8.odb,Step-1,Increment      1: Step Time =    1.000,"PART-1-1",           176,      -7.49885,      -12.5985,            0.,NA,NA,"",   49.1844E-03,  -49.0399E-03,   3.76713E-03,   358.752E-06
C:/temp/dataset/8/6_8.odb,Step-1,Increment      1: Step Time =    1.000,"PART-1-1",           177,      -7.51661,      -15.1105,            0.,NA,NA,"",   41.1478E-03,  -41.0063E-03,   3.40923E-03,   464.803E-06
C:/temp/dataset/8/6_8.odb,Step-1,Increment      1: Step Time =    1.000,"PART-1-1",           178,      -12.5153,      -15.0988,            0.,NA,NA,"",   42.3180E-03,  -41.3419E-03,  -9.03628E-03,   377.083E-06
C:/temp/dataset/8/6_8.odb,Step-1,Increment      1: Step Time =    1.000,"PART-1-1",           179,      -7.51181,      -17.6666,            0.,NA,NA,"",   33.5096E-03,  -33.3695E-03,   3.06078E-03,   607.932E-06
C:/temp/dataset/8/6_8.odb,Step-1,Increment      1: Step Time =    1.000,"PART-1-1",           180,      -12.5518,      -17.6234,            0.,NA,NA,"",   34.9944E-03,  -33.9737E-03,  -8.39026E-03,   423.376E-06
C:/temp/dataset/8/6_8.odb,Step-1,Increment      1: Step Time =    1.000,"PART-1-1",           181,      -12.7381,      -20.0729,            0.,NA,NA,"",   28.5234E-03,  -27.4158E-03,  -7.87136E-03,   536.203E-06
C:/temp/dataset/8/6_8.odb,Step-1,Increment      1: Step Time =    1.000,"PART-1-1",           182,      -13.0750,      -22.3076,            0.,NA,NA,"",   22.9645E-03,  -21.6980E-03,  -7.52077E-03,   699.251E-06
C:/temp/dataset/8/6_8.odb,Step-1,Increment      1: Step Time =    1.000,"PART-1-1",           183,      -7.24239,      -27.7492,            0.,NA,NA,"",   7.09598E-03,  -7.09353E-03,  -186.190E-06,   2.06792E-03
C:/temp/dataset/8/6_8.odb,Step-1,Increment      1: Step Time =    1.000,"PART-1-1",           184,      -4.87121,      -27.7117,            0.,NA,NA,"",   8.47609E-03,  -8.47592E-03,  -54.5829E-06,   2.45168E-03
C:/temp/dataset/8/6_8.odb,Step-1,Increment      1: Step Time =    1.000,"PART-1-1",           185,      -2.51629,      -22.5836,            0.,NA,NA,"",   27.8124E-03,  -27.7042E-03,   2.44999E-03,   2.40852E-03
C:/temp/dataset/8/6_8.odb,Step-1,Increment      1: Step Time =    1.000,"PART-1-1",           186,  -83.6569E-03,      -22.5653,            0.,NA,NA,"",   32.2650E-03,  -32.1754E-03,   2.40296E-03,   2.94847E-03
C:/temp/dataset/8/6_8.odb,Step-1,Increment      1: Step Time =    1.000,"PART-1-1",           187,  -26.1876E-03,      -27.4903,            0.,NA,NA,"",   12.5246E-03,  -12.5188E-03,  -380.763E-06,   3.24763E-03
C:/temp/dataset/8/6_8.odb,Step-1,Increment      1: Step Time =    1.000,"PART-1-1",           188,       2.63365,      -22.7776,            0.,NA,NA,"",   37.6856E-03,  -37.5488E-03,   3.20833E-03,   3.60107E-03
C:/temp/dataset/8/6_8.odb,Step-1,Increment      1: Step Time =    1.000,"PART-1-1",           189,       2.80249,      -26.9735,            0.,NA,NA,"",   17.8493E-03,  -17.8490E-03,  -95.6441E-06,   3.75360E-03
C:/temp/dataset/8/6_8.odb,Step-1,Increment      1: Step Time =    1.000,"PART-1-1",           190,       5.52127,      -27.5919,            0.,NA,NA,"",   17.5937E-03,  -17.5885E-03,   425.531E-06,   4.66777E-03
C:/temp/dataset/8/6_8.odb,Step-1,Increment      1: Step Time =    1.000,"PART-1-1",           191,       10.2455,      -28.0297,            0.,NA,NA,"",   23.1241E-03,  -23.0624E-03,   1.68850E-03,   8.17361E-03
C:/temp/dataset/8/6_8.odb,Step-1,Increment      1: Step Time =    1.000,"PART-1-1",           192,       7.32442,      -17.2829,            0.,NA,NA,"",   80.1413E-03,  -76.7756E-03,   22.9815E-03,   557.327E-06
C:/temp/dataset/8/6_8.odb,Step-1,Increment      1: Step Time =    1.000,"PART-1-1",           193,       7.51239,      -14.8720,            0.,NA,NA,"",   83.6691E-03,  -80.0522E-03,   24.3345E-03,   746.909E-06
C:/temp/dataset/8/6_8.odb,Step-1,Increment      1: Step Time =    1.000,"PART-1-1",           194,       6.95682,      -7.47937,            0.,NA,NA,"",   85.7899E-03,  -82.0928E-03,   24.9135E-03,   426.219E-06
C:/temp/dataset/8/6_8.odb,Step-1,Increment      1: Step Time =    1.000,"PART-1-1",           195,       7.18655,       5.44056,            0.,NA,NA,"",   95.9675E-03,  -92.7196E-03,   24.7556E-03,   125.658E-06
C:/temp/dataset/8/6_8.odb,Step-1,Increment      1: Step Time =    1.000,"PART-1-1",           196,       7.54073,       12.3094,            0.,NA,NA,"",   105.670E-03,  -102.789E-03,   24.5035E-03,   111.225E-06
C:/temp/dataset/8/6_8.odb,Step-1,Increment      1: Step Time =    1.000,"PART-1-1",           197,       7.60223,       14.8257,            0.,NA,NA,"",   109.676E-03,  -106.918E-03,   24.4409E-03,   91.5094E-06
C:/temp/dataset/8/6_8.odb,Step-1,Increment      1: Step Time =    1.000,"PART-1-1",           198,       12.6819,       27.6459,            0.,NA,NA,"",   132.424E-03,  -128.395E-03,   32.4159E-03,   8.44290E-06
C:/temp/dataset/8/6_8.odb,Step-1,Increment      1: Step Time =    1.000,"PART-1-1",           199,       12.0457,       20.1903,            0.,NA,NA,"",   120.196E-03,  -116.020E-03,   31.4065E-03,   51.8400E-06
C:/temp/dataset/8/6_8.odb,Step-1,Increment      1: Step Time =    1.000,"PART-1-1",           200,       12.7260,      -12.7389,            0.,NA,NA,"",   85.7923E-03,  -80.4388E-03,   29.8316E-03,   272.887E-06
C:/temp/dataset/8/6_8.odb,Step-1,Increment      1: Step Time =    1.000,"PART-1-1",           201,       12.6061,      -7.88185,            0.,NA,NA,"",   87.2081E-03,  -82.1633E-03,   29.2310E-03,   272.546E-06
C:/temp/dataset/8/6_8.odb,Step-1,Increment      1: Step Time =    1.000,"PART-1-1",           202,       12.5539,      -15.1942,            0.,NA,NA,"",   84.9632E-03,  -79.2866E-03,   30.5351E-03,   533.040E-06
C:/temp/dataset/8/6_8.odb,Step-1,Increment      1: Step Time =    1.000,"PART-1-1",           203,       12.2961,      -17.8876,            0.,NA,NA,"",   85.2306E-03,  -79.0651E-03,   31.8270E-03,   1.48114E-03
C:/temp/dataset/8/6_8.odb,Step-1,Increment      1: Step Time =    1.000,"PART-1-1",           204,       11.9819,      -5.08387,            0.,NA,NA,"",   88.0181E-03,  -83.1067E-03,   28.9905E-03,   261.494E-06
C:/temp/dataset/8/6_8.odb,Step-1,Increment      1: Step Time =    1.000,"PART-1-1",           205,       12.8886,       12.3962,            0.,NA,NA,"",   107.947E-03,  -102.965E-03,   32.4169E-03,   120.349E-06
C:/temp/dataset/8/6_8.odb,Step-1,Increment      1: Step Time =    1.000,"PART-1-1",           206,       12.6351,       22.8269,            0.,NA,NA,"",   124.727E-03,  -120.455E-03,   32.3641E-03,   16.4845E-06
C:/temp/dataset/8/6_8.odb,Step-1,Increment      1: Step Time =    1.000,"PART-1-1",           207,       12.6677,       14.8477,            0.,NA,NA,"",   111.727E-03,  -106.970E-03,   32.2561E-03,   96.4447E-06
C:/temp/dataset/8/6_8.odb,Step-1,Increment      1: Step Time =    1.000,"PART-1-1",           208,       12.7436,      -2.36883,            0.,NA,NA,"",   89.9024E-03,  -84.7468E-03,   30.0070E-03,   210.423E-06
C:/temp/dataset/8/6_8.odb,Step-1,Increment      1: Step Time =    1.000,"PART-1-1",           209,       12.7993,      -10.3700,            0.,NA,NA,"",   86.5632E-03,  -81.3925E-03,   29.4693E-03,   237.889E-06
C:/temp/dataset/8/6_8.odb,Step-1,Increment      1: Step Time =    1.000,"PART-1-1",           210,       12.9901,      -20.3906,            0.,NA,NA,"",   90.9645E-03,  -85.2726E-03,   31.6719E-03,   5.54916E-03
C:/temp/dataset/8/6_8.odb,Step-1,Increment      1: Step Time =    1.000,"PART-1-1",           211,       13.2149,       10.1248,            0.,NA,NA,"",   104.659E-03,  -99.4346E-03,   32.6545E-03,   151.474E-06
C:/temp/dataset/8/6_8.odb,Step-1,Increment      1: Step Time =    1.000,"PART-1-1",           212,       12.5082,       17.3754,            0.,NA,NA,"",   115.772E-03,  -111.229E-03,   32.1121E-03,   76.3408E-06
C:/temp/dataset/8/6_8.odb,Step-1,Increment      1: Step Time =    1.000,"PART-1-1",           213,       12.5546,      -27.7200,            0.,NA,NA,"",   37.7283E-03,  -37.0640E-03,   7.04853E-03,   11.1351E-03
C:/temp/dataset/8/6_8.odb,Step-1,Increment      1: Step Time =    1.000,"PART-1-1",           214,       9.90568,       4.71999,            0.,NA,NA,"",   95.9253E-03,  -91.7613E-03,   27.9556E-03,   64.0209E-06
C:/temp/dataset/8/6_8.odb,Step-1,Increment      1: Step Time =    1.000,"PART-1-1",           215,       10.7501,       6.50016,            0.,NA,NA,"",   98.4676E-03,  -94.0935E-03,   29.0223E-03,   90.7614E-06
C:/temp/dataset/8/6_8.odb,Step-1,Increment      1: Step Time =    1.000,"PART-1-1",           216,       9.75591,      -23.6488,            0.,NA,NA,"",   62.3231E-03,  -60.5590E-03,   14.7232E-03,   6.86669E-03
C:/temp/dataset/8/6_8.odb,Step-1,Increment      1: Step Time =    1.000,"PART-1-1",           217,       9.57327,       1.65180,            0.,NA,NA,"",   92.3918E-03,  -88.1788E-03,   27.5814E-03,   69.3415E-06
C:/temp/dataset/8/6_8.odb,Step-1,Increment      1: Step Time =    1.000,"PART-1-1",           218,       11.2006,       8.46802,            0.,NA,NA,"",   101.323E-03,  -96.8689E-03,   29.7120E-03,   105.585E-06
C:/temp/dataset/8/6_8.odb,Step-1,Increment      1: Step Time =    1.000,"PART-1-1",           219,       11.2103,      -20.8620,            0.,NA,NA,"",   82.8888E-03,  -78.2400E-03,   27.3689E-03,   4.95812E-03
C:/temp/dataset/8/6_8.odb,Step-1,Increment      1: Step Time =    1.000,"PART-1-1",           220,       11.1015,      -2.06477,            0.,NA,NA,"",   89.5124E-03,  -84.7884E-03,   28.6949E-03,   163.774E-06
C:/temp/dataset/8/6_8.odb,Step-1,Increment      1: Step Time =    1.000,"PART-1-1",           221,       5.62425,       2.31421,            0.,NA,NA,"",   92.1750E-03,  -89.0968E-03,   23.6218E-03,   260.564E-06
C:/temp/dataset/8/6_8.odb,Step-1,Increment      1: Step Time =    1.000,"PART-1-1",           222,      -6.74047,       2.51715,            0.,NA,NA,"",   90.2634E-03,  -90.1491E-03,   4.54070E-03,   275.277E-06
C:/temp/dataset/8/6_8.odb,Step-1,Increment      1: Step Time =    1.000,"PART-1-1",           223,      -7.42064,      -20.2654,            0.,NA,NA,"",   27.1283E-03,  -27.0057E-03,   2.57663E-03,   397.218E-06
C:/temp/dataset/8/6_8.odb,Step-1,Increment      1: Step Time =    1.000,"PART-1-1",           224,       7.69979,      -4.91359,            0.,NA,NA,"",   86.4165E-03,  -82.5509E-03,   25.5572E-03,   426.601E-06
C:/temp/dataset/8/6_8.odb,Step-1,Increment      1: Step Time =    1.000,"PART-1-1",           225,       7.31956,      -21.5115,            0.,NA,NA,"",   61.4550E-03,  -59.3371E-03,   15.9945E-03,   5.34951E-03
C:/temp/dataset/8/6_8.odb,Step-1,Increment      1: Step Time =    1.000,"PART-1-1",           226,      -5.66399,      -2.34175,            0.,NA,NA,"",   81.0052E-03,  -80.6527E-03,   7.54878E-03,   290.028E-06
C:/temp/dataset/8/6_8.odb,Step-1,Increment      1: Step Time =    1.000,"PART-1-1",           227,       7.85227,       20.1110,            0.,NA,NA,"",   118.581E-03,  -115.993E-03,   24.6423E-03,   97.7562E-06
C:/temp/dataset/8/6_8.odb,Step-1,Increment      1: Step Time =    1.000,"PART-1-1",           228,      -7.47305,       21.9136,            0.,NA,NA,"",   120.104E-03,  -120.098E-03,   1.25423E-03,   75.6305E-06
C:/temp/dataset/8/6_8.odb,Step-1,Increment      1: Step Time =    1.000,"PART-1-1",           229,      -10.1610,       28.1071,            0.,NA,NA,"",   128.925E-03,  -128.898E-03,  -2.64911E-03,   8.02368E-06
C:/temp/dataset/8/6_8.odb,Step-1,Increment      1: Step Time =    1.000,"PART-1-1",           230,      -12.9524,      -24.6214,            0.,NA,NA,"",   16.4270E-03,  -15.4266E-03,  -5.64485E-03,   1.15076E-03
C:/temp/dataset/8/6_8.odb,Step-1,Increment      1: Step Time =    1.000,"PART-1-1",           231,       8.38984,      -7.76285,            0.,NA,NA,"",   86.0617E-03,  -82.0792E-03,   25.8773E-03,   471.076E-06
C:/temp/dataset/8/6_8.odb,Step-1,Increment      1: Step Time =    1.000,"PART-1-1",           232,       2.50724,  -56.7369E-03,            0.,NA,NA,"",   88.4591E-03,  -86.0547E-03,   20.4841E-03,   166.709E-06
C:/temp/dataset/8/6_8.odb,Step-1,Increment      1: Step Time =    1.000,"PART-1-1",           233,       10.3135,       11.8620,            0.,NA,NA,"",   105.967E-03,  -102.037E-03,   28.5919E-03,   96.7863E-06
C:/temp/dataset/8/6_8.odb,Step-1,Increment      1: Step Time =    1.000,"PART-1-1",           234,       2.50286,       25.1199,            0.,NA,NA,"",   125.416E-03,  -124.404E-03,   15.9004E-03,   23.5548E-06
C:/temp/dataset/8/6_8.odb,Step-1,Increment      1: Step Time =    1.000,"PART-1-1",           235,      -1.67654,       25.0421,            0.,NA,NA,"",   124.748E-03,  -124.383E-03,   9.53408E-03,   29.6862E-06
C:/temp/dataset/8/6_8.odb,Step-1,Increment      1: Step Time =    1.000,"PART-1-1",           236,      -9.12088,      -25.5416,            0.,NA,NA,"",   12.9448E-03,  -12.9272E-03,  -673.813E-06,   1.54672E-03
C:/temp/dataset/8/6_8.odb,Step-1,Increment      1: Step Time =    1.000,"PART-1-1",           237,   18.1833E-03,  -29.2602E-03,            0.,NA,NA,"",   87.4209E-03,  -85.7197E-03,   17.1624E-03,   191.762E-06
C:/temp/dataset/8/6_8.odb,Step-1,Increment      1: Step Time =    1.000,"PART-1-1",           238,      -6.37745,       25.7068,            0.,NA,NA,"",   125.476E-03,  -125.447E-03,   2.70749E-03,   24.2749E-06
C:/temp/dataset/8/6_8.odb,Step-1,Increment      1: Step Time =    1.000,"PART-1-1",           239,      -10.0857,       17.4416,            0.,NA,NA,"",   114.194E-03,  -114.168E-03,  -2.40797E-03,   95.3650E-06
C:/temp/dataset/8/6_8.odb,Step-1,Increment      1: Step Time =    1.000,"PART-1-1",           240,      -10.0934,       12.5946,            0.,NA,NA,"",   107.428E-03,  -107.401E-03,  -2.42391E-03,   96.4239E-06
C:/temp/dataset/8/6_8.odb,Step-1,Increment      1: Step Time =    1.000,"PART-1-1",           241,      -9.86502,       5.52778,            0.,NA,NA,"",   96.0298E-03,  -96.0080E-03,  -2.04258E-03,   74.8597E-06
C:/temp/dataset/8/6_8.odb,Step-1,Increment      1: Step Time =    1.000,"PART-1-1",           242,      -11.6239,       2.22269,            0.,NA,NA,"",   89.9567E-03,  -89.7740E-03,  -5.72963E-03,   155.602E-06
C:/temp/dataset/8/6_8.odb,Step-1,Increment      1: Step Time =    1.000,"PART-1-1",           243,      -10.6228,      -5.01114,            0.,NA,NA,"",   73.2474E-03,  -73.1207E-03,  -4.30646E-03,   285.223E-06
C:/temp/dataset/8/6_8.odb,Step-1,Increment      1: Step Time =    1.000,"PART-1-1",           244,      -9.74711,      -1.61456,            0.,NA,NA,"",   81.8652E-03,  -81.8453E-03,  -1.80523E-03,   131.673E-06
C:/temp/dataset/8/6_8.odb,Step-1,Increment      1: Step Time =    1.000,"PART-1-1",           245,      -9.39421,      -6.20391,            0.,NA,NA,"",   69.8172E-03,  -69.8041E-03,  -1.35328E-03,   370.717E-06
C:/temp/dataset/8/6_8.odb,Step-1,Increment      1: Step Time =    1.000,"PART-1-1",           246,      -9.97684,      -10.1599,            0.,NA,NA,"",   57.1390E-03,  -57.0664E-03,  -2.87920E-03,   440.229E-06
C:/temp/dataset/8/6_8.odb,Step-1,Increment      1: Step Time =    1.000,"PART-1-1",           247,      -10.0276,      -15.1451,            0.,NA,NA,"",   41.0259E-03,  -40.9342E-03,  -2.74212E-03,   438.164E-06
C:/temp/dataset/8/6_8.odb,Step-1,Increment      1: Step Time =    1.000,"PART-1-1",           248,      -10.1181,      -20.6738,            0.,NA,NA,"",   25.6764E-03,  -25.5871E-03,  -2.13955E-03,   419.954E-06
C:/temp/dataset/8/6_8.odb,Step-1,Increment      1: Step Time =    1.000,"PART-1-1",           249,      -4.81760,      -25.2822,            0.,NA,NA,"",   16.9721E-03,  -16.9496E-03,   873.327E-06,   2.40036E-03
C:/temp/dataset/8/6_8.odb,Step-1,Increment      1: Step Time =    1.000,"PART-1-1",           250,      -2.52593,      -25.1657,            0.,NA,NA,"",   19.8449E-03,  -19.8318E-03,   718.661E-06,   2.80403E-03
C:/temp/dataset/8/6_8.odb,Step-1,Increment      1: Step Time =    1.000,"PART-1-1",           251,       4.38823,      -24.6132,            0.,NA,NA,"",   33.7730E-03,  -33.6562E-03,   2.80524E-03,   3.72750E-03
C:/temp/dataset/8/6_8.odb,Step-1,Increment      1: Step Time =    1.000,"PART-1-1",           252,       1.65324,      -24.9792,            0.,NA,NA,"",   26.3330E-03,  -26.3234E-03,   711.497E-06,   3.35016E-03
C:/temp/dataset/8/6_8.odb,Step-1,Increment      1: Step Time =    1.000,"PART-1-1",           253,      -10.0865,       15.0098,            0.,NA,NA,"",   110.867E-03,  -110.841E-03,  -2.40584E-03,   95.9028E-06
C:/temp/dataset/8/6_8.odb,Step-1,Increment      1: Step Time =    1.000,"PART-1-1",           254,       10.3961,      -12.7490,            0.,NA,NA,"",   85.6052E-03,  -80.8877E-03,   28.0253E-03,   516.910E-06
C:/temp/dataset/8/6_8.odb,Step-1,Increment      1: Step Time =    1.000,"PART-1-1",           255,      -10.0322,       8.32342,            0.,NA,NA,"",   100.832E-03,  -100.805E-03,  -2.34380E-03,   89.8836E-06
C:/temp/dataset/8/6_8.odb,Step-1,Increment      1: Step Time =    1.000,"PART-1-1",           256,      -2.46516,   4.89972E-03,            0.,NA,NA,"",   86.4410E-03,  -85.4141E-03,   13.2845E-03,   153.040E-06
C:/temp/dataset/8/6_8.odb,Step-1,Increment      1: Step Time =    1.000,"PART-1-1",           257,      -9.79923,       22.1172,            0.,NA,NA,"",   120.497E-03,  -120.479E-03,  -2.06843E-03,   51.0817E-06
C:/temp/dataset/8/6_8.odb,Step-1,Increment      1: Step Time =    1.000,"PART-1-1",           258,      -9.99953,       19.8330,            0.,NA,NA,"",   117.405E-03,  -117.382E-03,  -2.30741E-03,   78.2077E-06
C:/temp/dataset/8/6_8.odb,Step-1,Increment      1: Step Time =    1.000,"PART-1-1",           259,       4.79880,       25.0430,            0.,NA,NA,"",   125.764E-03,  -124.238E-03,   19.5348E-03,   27.3361E-06
C:/temp/dataset/8/6_8.odb,Step-1,Increment      1: Step Time =    1.000,"PART-1-1",           260,      -4.38714,       24.8432,            0.,NA,NA,"",   124.278E-03,  -124.153E-03,   5.56343E-03,   30.5344E-06
C:/temp/dataset/8/6_8.odb,Step-1,Increment      1: Step Time =    1.000,"PART-1-1",           261,      -8.41357,       26.1031,            0.,NA,NA,"",   126.043E-03,  -126.043E-03,  -179.261E-06,   17.7763E-06
C:/temp/dataset/8/6_8.odb,Step-1,Increment      1: Step Time =    1.000,"PART-1-1",           262,      -10.8386,       3.64138,            0.,NA,NA,"",   92.6175E-03,  -92.5313E-03,  -3.99477E-03,   106.522E-06
C:/temp/dataset/8/6_8.odb,Step-1,Increment      1: Step Time =    1.000,"PART-1-1",           263,      -10.0134,      -12.6076,            0.,NA,NA,"",   49.1080E-03,  -49.0241E-03,  -2.86933E-03,   450.376E-06
C:/temp/dataset/8/6_8.odb,Step-1,Increment      1: Step Time =    1.000,"PART-1-1",           264,      -10.0439,      -17.7611,            0.,NA,NA,"",   33.2812E-03,  -33.1908E-03,  -2.45114E-03,   421.974E-06
C:/temp/dataset/8/6_8.odb,Step-1,Increment      1: Step Time =    1.000,"PART-1-1",           265,      -11.0756,      -23.9180,            0.,NA,NA,"",   17.3522E-03,  -17.0865E-03,  -3.02505E-03,   966.340E-06
C:/temp/dataset/8/6_8.odb,Step-1,Increment      1: Step Time =    1.000,"PART-1-1",           266,       6.47384,      -25.3706,            0.,NA,NA,"",   35.3268E-03,  -35.0881E-03,   4.09975E-03,   4.92313E-03
C:/temp/dataset/8/6_8.odb,Step-1,Increment      1: Step Time =    1.000,"PART-1-1",           267,       8.63297,      -25.7838,            0.,NA,NA,"",   40.2328E-03,  -39.8272E-03,   5.69902E-03,   6.51613E-03
C:/temp/dataset/8/6_8.odb,Step-1,Increment      1: Step Time =    1.000,"PART-1-1",           268,       9.70463,      -17.2924,            0.,NA,NA,"",   82.9671E-03,  -78.0402E-03,   28.1653E-03,   879.582E-06
C:/temp/dataset/8/6_8.odb,Step-1,Increment      1: Step Time =    1.000,"PART-1-1",           269,       9.32258,      -19.2967,            0.,NA,NA,"",   78.8315E-03,  -74.4169E-03,   26.0101E-03,   2.62335E-03
C:/temp/dataset/8/6_8.odb,Step-1,Increment      1: Step Time =    1.000,"PART-1-1",           270,       10.5097,       23.5233,            0.,NA,NA,"",   125.017E-03,  -121.638E-03,   28.8706E-03,   24.8213E-06
C:/temp/dataset/8/6_8.odb,Step-1,Increment      1: Step Time =    1.000,"PART-1-1",           271,       10.7249,      -10.6710,            0.,NA,NA,"",   86.1584E-03,  -81.5003E-03,   27.9457E-03,   408.730E-06
C:/temp/dataset/8/6_8.odb,Step-1,Increment      1: Step Time =    1.000,"PART-1-1",           272,       12.7841,       25.2838,            0.,NA,NA,"",   128.717E-03,  -124.522E-03,   32.5946E-03,   6.70342E-06
C:/temp/dataset/8/6_8.odb,Step-1,Increment      1: Step Time =    1.000,"PART-1-1",           273,       9.70769,       21.6927,            0.,NA,NA,"",   121.773E-03,  -118.605E-03,   27.5960E-03,   54.2420E-06
C:/temp/dataset/8/6_8.odb,Step-1,Increment      1: Step Time =    1.000,"PART-1-1",           274,       9.66832,      -6.55030,            0.,NA,NA,"",   86.6823E-03,  -82.3701E-03,   26.9995E-03,   408.104E-06
C:/temp/dataset/8/6_8.odb,Step-1,Increment      1: Step Time =    1.000,"PART-1-1",           275,       10.0513,       19.0714,            0.,NA,NA,"",   117.567E-03,  -114.135E-03,   28.2029E-03,   82.2991E-06
C:/temp/dataset/8/6_8.odb,Step-1,Increment      1: Step Time =    1.000,"PART-1-1",           276,       9.87331,      -3.39328,            0.,NA,NA,"",   88.1165E-03,  -83.7106E-03,   27.5146E-03,   229.170E-06
C:/temp/dataset/8/6_8.odb,Step-1,Increment      1: Step Time =    1.000,"PART-1-1",           277,       8.09153,       3.50199,            0.,NA,NA,"",   93.9786E-03,  -90.3198E-03,   25.9675E-03,   117.243E-06
C:/temp/dataset/8/6_8.odb,Step-1,Increment      1: Step Time =    1.000,"PART-1-1",           278,       7.63606,   479.494E-03,            0.,NA,NA,"",   90.6253E-03,  -86.8889E-03,   25.7540E-03,   128.190E-06
C:/temp/dataset/8/6_8.odb,Step-1,Increment      1: Step Time =    1.000,"PART-1-1",           279,       4.79213,  -240.588E-03,            0.,NA,NA,"",   89.0531E-03,  -86.0150E-03,   23.0624E-03,   177.430E-06
C:/temp/dataset/8/6_8.odb,Step-1,Increment      1: Step Time =    1.000,"PART-1-1",           280,      -4.77040,   213.509E-03,            0.,NA,NA,"",   86.1764E-03,  -85.7021E-03,   9.02886E-03,   199.650E-06
C:/temp/dataset/8/6_8.odb,Step-1,Increment      1: Step Time =    1.000,"PART-1-1",           281,      -7.12451,      -22.8795,            0.,NA,NA,"",   21.5652E-03,  -21.5034E-03,   1.63159E-03,   1.44920E-03
C:/temp/dataset/8/6_8.odb,Step-1,Increment      1: Step Time =    1.000,"PART-1-1",           282,      -7.18564,       23.8616,            0.,NA,NA,"",   122.832E-03,  -122.821E-03,   1.59326E-03,   41.2568E-06
C:/temp/dataset/8/6_8.odb,Step-1,Increment      1: Step Time =    1.000,"PART-1-1",           283,      -8.39584,      -3.64273,            0.,NA,NA,"",   77.2084E-03,  -77.1972E-03,   1.31494E-03,   269.146E-06
C:/temp/dataset/8/6_8.odb,Step-1,Increment      1: Step Time =    1.000,"PART-1-1",           284,      -5.55212,       23.5400,            0.,NA,NA,"",   122.364E-03,  -122.301E-03,   3.91690E-03,   47.0323E-06
C:/temp/dataset/8/6_8.odb,Step-1,Increment      1: Step Time =    1.000,"PART-1-1",           285,      -8.96751,       2.09330,            0.,NA,NA,"",   89.5374E-03,  -89.5373E-03,  -91.9305E-06,   143.913E-06
C:/temp/dataset/8/6_8.odb,Step-1,Increment      1: Step Time =    1.000,"PART-1-1",           286,      -8.55747,       4.19463,            0.,NA,NA,"",   93.5189E-03,  -93.5171E-03,   580.265E-06,   134.194E-06
C:/temp/dataset/8/6_8.odb,Step-1,Increment      1: Step Time =    1.000,"PART-1-1",           287,      -7.73317,  -334.415E-03,            0.,NA,NA,"",   84.7380E-03,  -84.6914E-03,   2.81008E-03,   183.876E-06
C:/temp/dataset/8/6_8.odb,Step-1,Increment      1: Step Time =    1.000,"PART-1-1",           288,      -9.22795,      -23.2507,            0.,NA,NA,"",   19.2758E-03,  -19.2644E-03,  -663.238E-06,   974.506E-06
C:/temp/dataset/8/6_8.odb,Step-1,Increment      1: Step Time =    1.000,"PART-1-1",           289,       6.93223,       22.5746,            0.,NA,NA,"",   122.385E-03,  -120.196E-03,   23.0424E-03,   62.2486E-06
C:/temp/dataset/8/6_8.odb,Step-1,Increment      1: Step Time =    1.000,"PART-1-1",           290,       5.55352,      -23.2395,            0.,NA,NA,"",   44.6726E-03,  -44.1318E-03,   6.92986E-03,   4.23327E-03
C:/temp/dataset/8/6_8.odb,Step-1,Increment      1: Step Time =    1.000,"PART-1-1",           291,       8.74083,      -1.45726,            0.,NA,NA,"",   89.1250E-03,  -85.0163E-03,   26.7485E-03,   123.774E-06
C:/temp/dataset/8/6_8.odb,Step-1,Increment      1: Step Time =    1.000,"PART-1-1",           292,       10.8991,      -19.3920,            0.,NA,NA,"",   83.3484E-03,  -78.0246E-03,   29.3108E-03,   3.04614E-03
C:/temp/dataset/8/6_8.odb,Step-1,Increment      1: Step Time =    1.000,"PART-1-1",           293,       11.6521,       10.1032,            0.,NA,NA,"",   103.879E-03,  -99.3210E-03,   30.4349E-03,   110.962E-06
C:/temp/dataset/8/6_8.odb,Step-1,Increment      1: Step Time =    1.000,"PART-1-1",           294,       7.27299,      -23.4476,            0.,NA,NA,"",   50.6339E-03,  -49.6145E-03,   10.1093E-03,   5.26535E-03
C:/temp/dataset/8/6_8.odb,Step-1,Increment      1: Step Time =    1.000,"PART-1-1",           295,       9.33799,      -21.3321,            0.,NA,NA,"",   72.1321E-03,  -68.8403E-03,   21.5419E-03,   5.17787E-03
C:/temp/dataset/8/6_8.odb,Step-1,Increment      1: Step Time =    1.000,"PART-1-1",           296,       6.43909,  -678.324E-03,            0.,NA,NA,"",   89.0942E-03,  -85.5974E-03,   24.7154E-03,   164.239E-06
C:/temp/dataset/8/6_8.odb,Step-1,Increment      1: Step Time =    1.000,"PART-1-1",           297,       8.38797,       22.8532,            0.,NA,NA,"",   123.237E-03,  -120.588E-03,   25.4116E-03,   47.2605E-06
C:/temp/dataset/8/6_8.odb,Step-1,Increment      1: Step Time =    1.000,"PART-1-1",           298,       8.65495,       5.84832,            0.,NA,NA,"",   96.8883E-03,  -93.2032E-03,   26.4671E-03,   88.4686E-06
C:/temp/dataset/8/6_8.odb,Step-1,Increment      1: Step Time =    1.000,"PART-1-1",           299,       8.94133,       7.33953,            0.,NA,NA,"",   98.9078E-03,  -95.2186E-03,   26.7613E-03,   95.3437E-06
C:/temp/dataset/8/6_8.odb,Step-1,Increment      1: Step Time =    1.000,"PART-1-1",           300,       6.91134,      -2.43572,            0.,NA,NA,"",   87.5824E-03,  -83.8967E-03,   25.1398E-03,   221.534E-06
C:/temp/dataset/8/6_8.odb,Step-1,Increment      1: Step Time =    1.000,"PART-1-1",           301,      -6.42836,   750.251E-03,            0.,NA,NA,"",   86.9553E-03,  -86.7809E-03,   5.50401E-03,   233.224E-06
C:/temp/dataset/8/6_8.odb,Step-1,Increment      1: Step Time =    1.000,"PART-1-1",           302,       5.11217,      -21.8336,            0.,NA,NA,"",   49.7306E-03,  -48.9989E-03,   8.49945E-03,   3.82358E-03
C:/temp/dataset/8/6_8.odb,Step-1,Increment      1: Step Time =    1.000,"PART-1-1",           303,      -5.14370,       22.0291,            0.,NA,NA,"",   120.204E-03,  -120.119E-03,   4.53425E-03,   65.5285E-06
C:/temp/dataset/8/6_8.odb,Step-1,Increment      1: Step Time =    1.000,"PART-1-1",           304,      -6.99385,       4.73375,            0.,NA,NA,"",   94.4720E-03,  -94.4034E-03,   3.59886E-03,   193.825E-06
C:/temp/dataset/8/6_8.odb,Step-1,Increment      1: Step Time =    1.000,"PART-1-1",           305,      -9.29188,       24.2162,            0.,NA,NA,"",   123.392E-03,  -123.384E-03,  -1.39320E-03,   28.6373E-06
C:/temp/dataset/8/6_8.odb,Step-1,Increment      1: Step Time =    1.000,"PART-1-1",           306,       6.91679,       24.7863,            0.,NA,NA,"",   125.898E-03,  -123.786E-03,   22.9650E-03,   28.8453E-06
C:/temp/dataset/8/6_8.odb,Step-1,Increment      1: Step Time =    1.000,"PART-1-1",           307,      -7.06121,      -25.4189,            0.,NA,NA,"",   14.5268E-03,  -14.5207E-03,   422.810E-06,   1.94470E-03
C:/temp/dataset/8/6_8.odb,Step-1,Increment      1: Step Time =    1.000,"PART-1-1",           308,   226.332E-03,       25.0801,            0.,NA,NA,"",   125.010E-03,  -124.394E-03,   12.3948E-03,   27.7523E-06
C:/temp/dataset/8/6_8.odb,Step-1,Increment      1: Step Time =    1.000,"PART-1-1",           309,      -10.0604,       10.2616,            0.,NA,NA,"",   103.922E-03,  -103.895E-03,  -2.37853E-03,   94.3031E-06
C:/temp/dataset/8/6_8.odb,Step-1,Increment      1: Step Time =    1.000,"PART-1-1",           310,  -253.177E-03,      -25.0610,            0.,NA,NA,"",   23.1254E-03,  -23.1205E-03,   473.684E-06,   3.05861E-03
C:/temp/dataset/8/6_8.odb,Step-1,Increment      1: Step Time =    1.000,"PART-1-1",           311,       10.5126,      -8.54534,            0.,NA,NA,"",   86.5296E-03,  -81.9970E-03,   27.6379E-03,   411.075E-06
C:/temp/dataset/8/6_8.odb,Step-1,Increment      1: Step Time =    1.000,"PART-1-1",           312,       8.69507,       24.2171,            0.,NA,NA,"",   125.517E-03,  -122.819E-03,   25.8842E-03,   29.9411E-06
C:/temp/dataset/8/6_8.odb,Step-1,Increment      1: Step Time =    1.000,"PART-1-1",           313,       10.6943,       25.6018,            0.,NA,NA,"",   128.407E-03,  -125.054E-03,   29.1499E-03,   12.1996E-06
C:/temp/dataset/8/6_8.odb,Step-1,Increment      1: Step Time =    1.000,"PART-1-1",           314,       10.1073,       17.1283,            0.,NA,NA,"",   114.359E-03,  -110.799E-03,   28.3084E-03,   95.2951E-06
C:/temp/dataset/8/6_8.odb,Step-1,Increment      1: Step Time =    1.000,"PART-1-1",           315,       10.1760,       14.6796,            0.,NA,NA,"",   110.367E-03,  -106.647E-03,   28.4116E-03,   95.7683E-06
C:/temp/dataset/8/6_8.odb,Step-1,Increment      1: Step Time =    1.000,"PART-1-1",           316,       10.5274,  -400.724E-03,            0.,NA,NA,"",   90.6952E-03,  -86.1396E-03,   28.3829E-03,   106.464E-06
C:/temp/dataset/8/6_8.odb,Step-1,Increment      1: Step Time =    1.000,"PART-1-1",           317,      -9.77892,      -7.87927,            0.,NA,NA,"",   64.5650E-03,  -64.5212E-03,  -2.37763E-03,   446.054E-06
C:/temp/dataset/8/6_8.odb,Step-1,Increment      1: Step Time =    1.000,"PART-1-1",           318,      -10.1056,       26.5264,            0.,NA,NA,"",   126.684E-03,  -126.658E-03,  -2.56653E-03,   10.2458E-06
C:/temp/dataset/8/6_8.odb,Step-1,Increment      1: Step Time =    1.000,"PART-1-1",           319,       8.72249,      -9.20974,            0.,NA,NA,"",   85.9724E-03,  -81.9044E-03,   26.1327E-03,   458.925E-06
C:/temp/dataset/8/6_8.odb,Step-1,Increment      1: Step Time =    1.000,"PART-1-1",           320,       10.2890,      -26.3639,            0.,NA,NA,"",   42.1013E-03,  -41.6783E-03,   5.95276E-03,   7.90936E-03
C:/temp/dataset/8/6_8.odb,Step-1,Increment      1: Step Time =    1.000,"PART-1-1",           321,      -10.7934,   627.825E-03,            0.,NA,NA,"",   86.6935E-03,  -86.5979E-03,  -4.07109E-03,   136.172E-06
C:/temp/dataset/8/6_8.odb,Step-1,Increment      1: Step Time =    1.000,"PART-1-1",           322,       9.12166,      -10.6535,            0.,NA,NA,"",   85.8385E-03,  -81.6463E-03,   26.4977E-03,   479.352E-06
C:/temp/dataset/8/6_8.odb,Step-1,Increment      1: Step Time =    1.000,"PART-1-1",           323,       10.0480,      -15.0307,            0.,NA,NA,"",   84.6876E-03,  -79.8267E-03,   28.2787E-03,   670.858E-06
C:/temp/dataset/8/6_8.odb,Step-1,Increment      1: Step Time =    1.000,"PART-1-1",           324,       9.34152,       9.36934,            0.,NA,NA,"",   101.876E-03,  -98.1687E-03,   27.2326E-03,   94.6780E-06
C:/temp/dataset/8/6_8.odb,Step-1,Increment      1: Step Time =    1.000,"PART-1-1",           325,      -11.4891,      -22.3432,            0.,NA,NA,"",   21.7592E-03,  -21.3308E-03,  -4.29655E-03,   669.115E-06
C:/temp/dataset/8/6_8.odb,Step-1,Increment      1: Step Time =    1.000,"PART-1-1",           326,      -10.7249,      -25.4704,            0.,NA,NA,"",   12.8927E-03,  -12.7284E-03,  -2.05140E-03,   1.31967E-03
C:/temp/dataset/8/6_8.odb,Step-1,Increment      1: Step Time =    1.000,"PART-1-1",           327,       9.08969,       25.6240,            0.,NA,NA,"",   127.884E-03,  -125.105E-03,   26.5121E-03,   18.2234E-06
C:/temp/dataset/8/6_8.odb,Step-1,Increment      1: Step Time =    1.000,"PART-1-1",           328,       11.3751,      -22.3885,            0.,NA,NA,"",   79.4020E-03,  -75.9352E-03,   23.2062E-03,   6.77811E-03
C:/temp/dataset/8/6_8.odb,Step-1,Increment      1: Step Time =    1.000,"PART-1-1",           329,       12.7027,      -9.12592,            0.,NA,NA,"",   86.8888E-03,  -81.7951E-03,   29.3125E-03,   243.524E-06
C:/temp/dataset/8/6_8.odb,Step-1,Increment      1: Step Time =    1.000,"PART-1-1",           330,       11.5594,      -8.21360,            0.,NA,NA,"",   86.8639E-03,  -82.0664E-03,   28.4680E-03,   338.113E-06
C:/temp/dataset/8/6_8.odb,Step-1,Increment      1: Step Time =    1.000,"PART-1-1",           331,       10.6187,      -9.60815,            0.,NA,NA,"",   86.3510E-03,  -81.7663E-03,   27.7627E-03,   404.328E-06
C:/temp/dataset/8/6_8.odb,Step-1,Increment      1: Step Time =    1.000,"PART-1-1",           332,       11.7621,      -10.5205,            0.,NA,NA,"",   86.3650E-03,  -81.4363E-03,   28.7582E-03,   321.805E-06
C:/temp/dataset/8/6_8.odb,Step-1,Increment      1: Step Time =    1.000,"PART-1-1",           333,       12.2940,      -6.48286,            0.,NA,NA,"",   87.5596E-03,  -82.5884E-03,   29.0834E-03,   261.687E-06
C:/temp/dataset/8/6_8.odb,Step-1,Increment      1: Step Time =    1.000,"PART-1-1",           334,       10.8251,      -5.81708,            0.,NA,NA,"",   87.3197E-03,  -82.7063E-03,   28.0071E-03,   328.067E-06
C:/temp/dataset/8/6_8.odb,Step-1,Increment      1: Step Time =    1.000,"PART-1-1",           335,       10.0905,      -7.54782,            0.,NA,NA,"",   86.6046E-03,  -82.1914E-03,   27.2932E-03,   404.367E-06
C:/temp/dataset/8/6_8.odb,Step-1,Increment      1: Step Time =    1.000,"PART-1-1",           336,       11.3010,      -15.1125,            0.,NA,NA,"",   84.9455E-03,  -79.5890E-03,   29.6872E-03,   527.428E-06
C:/temp/dataset/8/6_8.odb,Step-1,Increment      1: Step Time =    1.000,"PART-1-1",           337,       12.6399,      -13.9666,            0.,NA,NA,"",   85.3243E-03,  -79.8330E-03,   30.1151E-03,   380.119E-06
C:/temp/dataset/8/6_8.odb,Step-1,Increment      1: Step Time =    1.000,"PART-1-1",           338,       11.5610,      -12.7439,            0.,NA,NA,"",   85.7114E-03,  -80.6447E-03,   29.0325E-03,   377.987E-06
C:/temp/dataset/8/6_8.odb,Step-1,Increment      1: Step Time =    1.000,"PART-1-1",           339,       10.2221,      -13.8898,            0.,NA,NA,"",   85.2158E-03,  -80.4345E-03,   28.1428E-03,   563.636E-06
C:/temp/dataset/8/6_8.odb,Step-1,Increment      1: Step Time =    1.000,"PART-1-1",           340,       13.8630,      -12.6507,            0.,NA,NA,"",   85.9052E-03,  -80.3376E-03,   30.4231E-03,   216.714E-06
C:/temp/dataset/8/6_8.odb,Step-1,Increment      1: Step Time =    1.000,"PART-1-1",           341,       13.7769,      -15.1346,            0.,NA,NA,"",   84.8939E-03,  -79.0844E-03,   30.8647E-03,   285.993E-06
C:/temp/dataset/8/6_8.odb,Step-1,Increment      1: Step Time =    1.000,"PART-1-1",           342,           15.,      -13.8188,            0.,NA,NA,"",   85.5116E-03,  -79.6388E-03,   31.1432E-03,   109.491E-06
C:/temp/dataset/8/6_8.odb,Step-1,Increment      1: Step Time =    1.000,"PART-1-1",           343,       10.1228,      -29.0148,            0.,NA,NA,"",   11.4749E-03,  -11.4641E-03,   497.850E-06,   7.49818E-03
C:/temp/dataset/8/6_8.odb,Step-1,Increment      1: Step Time =    1.000,"PART-1-1",           344,         11.25,          -30.,            0.,NA,NA,"",            0.,  -8.13437E-39,   971.876E-42,   8.23306E-03
C:/temp/dataset/8/6_8.odb,Step-1,Increment      1: Step Time =    1.000,"PART-1-1",           345,       12.5273,      -28.8600,            0.,NA,NA,"",   17.3533E-03,  -17.2439E-03,   1.94509E-03,   10.1350E-03
C:/temp/dataset/8/6_8.odb,Step-1,Increment      1: Step Time =    1.000,"PART-1-1",           346,       11.4001,      -27.8749,            0.,NA,NA,"",   29.1068E-03,  -28.9611E-03,   2.90868E-03,   9.17060E-03
C:/temp/dataset/8/6_8.odb,Step-1,Increment      1: Step Time =    1.000,"PART-1-1",           347,  -13.0938E-03,      -28.7451,            0.,NA,NA,"",   6.39324E-03,  -6.38363E-03,  -350.437E-06,   3.28118E-03
C:/temp/dataset/8/6_8.odb,Step-1,Increment      1: Step Time =    1.000,"PART-1-1",           348,          1.25,          -30.,            0.,NA,NA,"",            0.,  -3.42716E-39,  -1.10386E-39,   3.63491E-03
C:/temp/dataset/8/6_8.odb,Step-1,Increment      1: Step Time =    1.000,"PART-1-1",           349,       2.65125,      -28.4867,            0.,NA,NA,"",   9.00524E-03,  -8.99757E-03,  -371.664E-06,   3.76102E-03
C:/temp/dataset/8/6_8.odb,Step-1,Increment      1: Step Time =    1.000,"PART-1-1",           350,       1.38815,      -27.2319,            0.,NA,NA,"",   14.9817E-03,  -14.9777E-03,  -347.357E-06,   3.49121E-03
C:/temp/dataset/8/6_8.odb,Step-1,Increment      1: Step Time =    1.000,"PART-1-1",           351,      -13.5950,      -27.3152,            0.,NA,NA,"",   8.61959E-03,  -7.69169E-03,  -3.89042E-03,   1.71188E-03
C:/temp/dataset/8/6_8.odb,Step-1,Increment      1: Step Time =    1.000,"PART-1-1",           352,      -12.5712,      -25.8759,            0.,NA,NA,"",   12.3416E-03,  -11.6806E-03,  -3.98473E-03,   1.44308E-03
C:/temp/dataset/8/6_8.odb,Step-1,Increment      1: Step Time =    1.000,"PART-1-1",           353,      -13.9762,      -24.8107,            0.,NA,NA,"",   17.1286E-03,  -15.3300E-03,  -7.64061E-03,   1.04381E-03
C:/temp/dataset/8/6_8.odb,Step-1,Increment      1: Step Time =    1.000,"PART-1-1",           354,          -15.,        -26.25,            0.,NA,NA,"",   14.7010E-03,  -11.8732E-03,  -8.66871E-03,   1.52777E-03
C:/temp/dataset/8/6_8.odb,Step-1,Increment      1: Step Time =    1.000,"PART-1-1",           355,      -13.7576,      -15.0494,            0.,NA,NA,"",   43.4696E-03,  -41.6594E-03,  -12.4138E-03,   361.854E-06
C:/temp/dataset/8/6_8.odb,Step-1,Increment      1: Step Time =    1.000,"PART-1-1",           356,          -15.,        -16.25,            0.,NA,NA,"",   41.3624E-03,  -38.3532E-03,  -15.4881E-03,   490.670E-06
C:/temp/dataset/8/6_8.odb,Step-1,Increment      1: Step Time =    1.000,"PART-1-1",           357,      -13.7759,      -17.5617,            0.,NA,NA,"",   36.2703E-03,  -34.3810E-03,  -11.5534E-03,   477.290E-06
C:/temp/dataset/8/6_8.odb,Step-1,Increment      1: Step Time =    1.000,"PART-1-1",           358,      -12.5335,      -16.3611,            0.,NA,NA,"",   38.5804E-03,  -37.5750E-03,  -8.75017E-03,   397.013E-06
C:/temp/dataset/8/6_8.odb,Step-1,Increment      1: Step Time =    1.000,"PART-1-1",           359,      -13.7966,       15.0030,            0.,NA,NA,"",   111.036E-03,  -110.745E-03,  -8.02804E-03,   104.779E-06
C:/temp/dataset/8/6_8.odb,Step-1,Increment      1: Step Time =    1.000,"PART-1-1",           360,          -15.,         13.75,            0.,NA,NA,"",   109.336E-03,  -108.884E-03,  -9.92725E-03,   154.854E-06
C:/temp/dataset/8/6_8.odb,Step-1,Increment      1: Step Time =    1.000,"PART-1-1",           361,      -13.7864,       12.5210,            0.,NA,NA,"",   107.485E-03,  -107.166E-03,  -8.27273E-03,   143.062E-06
C:/temp/dataset/8/6_8.odb,Step-1,Increment      1: Step Time =    1.000,"PART-1-1",           362,      -12.5830,       13.7740,            0.,NA,NA,"",   109.231E-03,  -109.050E-03,  -6.29913E-03,   108.032E-06
C:/temp/dataset/8/6_8.odb,Step-1,Increment      1: Step Time =    1.000,"PART-1-1",           363,         -1.25,           -5.,            0.,NA,NA,"",   78.9683E-03,  -77.6372E-03,   14.4380E-03,   668.994E-06
C:/temp/dataset/8/6_8.odb,Step-1,Increment      1: Step Time =    1.000,"PART-1-1",           364,  -12.3337E-03,      -3.76193,            0.,NA,NA,"",   81.7845E-03,  -80.0872E-03,   16.5751E-03,   544.063E-06
C:/temp/dataset/8/6_8.odb,Step-1,Increment      1: Step Time =    1.000,"PART-1-1",           365,      -1.32647,      -2.50471,            0.,NA,NA,"",   82.8117E-03,  -81.4520E-03,   14.9453E-03,   439.579E-06
C:/temp/dataset/8/6_8.odb,Step-1,Increment      1: Step Time =    1.000,"PART-1-1",           366,      -2.56414,      -3.74278,            0.,NA,NA,"",   79.8267E-03,  -78.7738E-03,   12.9224E-03,   593.590E-06
C:/temp/dataset/8/6_8.odb,Step-1,Increment      1: Step Time =    1.000,"PART-1-1",           367,       1.21724,      -2.54641,            0.,NA,NA,"",   84.4304E-03,  -82.3559E-03,   18.6008E-03,   425.321E-06
C:/temp/dataset/8/6_8.odb,Step-1,Increment      1: Step Time =    1.000,"PART-1-1",           368,          1.25,           -5.,            0.,NA,NA,"",   80.9653E-03,  -78.9239E-03,   18.0665E-03,   631.068E-06
C:/temp/dataset/8/6_8.odb,Step-1,Increment      1: Step Time =    1.000,"PART-1-1",           369,       2.47957,      -3.78448,            0.,NA,NA,"",   83.7610E-03,  -81.3001E-03,   20.1546E-03,   533.583E-06
C:/temp/dataset/8/6_8.odb,Step-1,Increment      1: Step Time =    1.000,"PART-1-1",           370,      -2.43429,       1.26667,            0.,NA,NA,"",   88.5805E-03,  -87.5794E-03,   13.2797E-03,   85.9963E-06
C:/temp/dataset/8/6_8.odb,Step-1,Increment      1: Step Time =    1.000,"PART-1-1",           371,      -1.22349,  -12.1802E-03,            0.,NA,NA,"",   86.9097E-03,  -85.5547E-03,   15.2872E-03,   178.950E-06
C:/temp/dataset/8/6_8.odb,Step-1,Increment      1: Step Time =    1.000,"PART-1-1",           372,   38.4689E-03,       1.22772,            0.,NA,NA,"",   89.3157E-03,  -87.6405E-03,   17.2173E-03,   96.8643E-06
C:/temp/dataset/8/6_8.odb,Step-1,Increment      1: Step Time =    1.000,"PART-1-1",           373,      -1.17233,       2.50657,            0.,NA,NA,"",   90.9316E-03,  -89.6277E-03,   15.3437E-03,   48.5781E-06
C:/temp/dataset/8/6_8.odb,Step-1,Increment      1: Step Time =    1.000,"PART-1-1",           374,       4.79096,      -1.43433,            0.,NA,NA,"",   87.7223E-03,  -84.6227E-03,   23.1128E-03,   189.373E-06
C:/temp/dataset/8/6_8.odb,Step-1,Increment      1: Step Time =    1.000,"PART-1-1",           375,       3.64969,  -148.662E-03,            0.,NA,NA,"",   88.7617E-03,  -86.0369E-03,   21.8239E-03,   164.665E-06
C:/temp/dataset/8/6_8.odb,Step-1,Increment      1: Step Time =    1.000,"PART-1-1",           376,       2.48320,      -1.31285,            0.,NA,NA,"",   86.8268E-03,  -84.3916E-03,   20.4193E-03,   274.242E-06
C:/temp/dataset/8/6_8.odb,Step-1,Increment      1: Step Time =    1.000,"PART-1-1",           377,       3.62447,      -2.59851,            0.,NA,NA,"",   85.9538E-03,  -83.1331E-03,   21.8391E-03,   294.165E-06
C:/temp/dataset/8/6_8.odb,Step-1,Increment      1: Step Time =    1.000,"PART-1-1",           378,       11.9226,      -2.21680,            0.,NA,NA,"",   89.7097E-03,  -84.7678E-03,   29.3642E-03,   189.130E-06
C:/temp/dataset/8/6_8.odb,Step-1,Increment      1: Step Time =    1.000,"PART-1-1",           379,       10.4874,      -2.72902,            0.,NA,NA,"",   88.7996E-03,  -84.2349E-03,   28.1044E-03,   187.519E-06
C:/temp/dataset/8/6_8.odb,Step-1,Increment      1: Step Time =    1.000,"PART-1-1",           380,       10.9276,      -4.23857,            0.,NA,NA,"",   88.0485E-03,  -83.3872E-03,   28.2685E-03,   244.640E-06
C:/temp/dataset/8/6_8.odb,Step-1,Increment      1: Step Time =    1.000,"PART-1-1",           381,       12.3627,      -3.72635,            0.,NA,NA,"",   88.8601E-03,  -83.8294E-03,   29.4746E-03,   218.835E-06
C:/temp/dataset/8/6_8.odb,Step-1,Increment      1: Step Time =    1.000,"PART-1-1",           382,       13.8122,   56.1618E-03,            0.,NA,NA,"",   92.3932E-03,  -86.8788E-03,   31.4417E-03,   281.396E-06
C:/temp/dataset/8/6_8.odb,Step-1,Increment      1: Step Time =    1.000,"PART-1-1",           383,           15.,       1.23750,            0.,NA,NA,"",   94.1478E-03,  -88.2032E-03,   32.9240E-03,   353.417E-06
C:/temp/dataset/8/6_8.odb,Step-1,Increment      1: Step Time =    1.000,"PART-1-1",           384,       13.5130,       2.69080,            0.,NA,NA,"",   95.0214E-03,  -89.5595E-03,   31.7514E-03,   241.534E-06
C:/temp/dataset/8/6_8.odb,Step-1,Increment      1: Step Time =    1.000,"PART-1-1",           385,       12.3252,       1.50947,            0.,NA,NA,"",   93.2279E-03,  -88.1652E-03,   30.3041E-03,   170.742E-06
C:/temp/dataset/8/6_8.odb,Step-1,Increment      1: Step Time =    1.000,"PART-1-1",           386,       10.2711,       8.91868,            0.,NA,NA,"",   101.581E-03,  -97.5043E-03,   28.4886E-03,   90.0905E-06
C:/temp/dataset/8/6_8.odb,Step-1,Increment      1: Step Time =    1.000,"PART-1-1",           387,       9.14142,       8.35444,            0.,NA,NA,"",   100.367E-03,  -96.6705E-03,   26.9893E-03,   96.5014E-06
C:/temp/dataset/8/6_8.odb,Step-1,Increment      1: Step Time =    1.000,"PART-1-1",           388,       9.84573,       6.91985,            0.,NA,NA,"",   98.6713E-03,  -94.6425E-03,   27.9076E-03,   78.8987E-06
C:/temp/dataset/8/6_8.odb,Step-1,Increment      1: Step Time =    1.000,"PART-1-1",           389,       10.9754,       7.48409,            0.,NA,NA,"",   99.8678E-03,  -95.4546E-03,   29.3595E-03,   98.9317E-06
C:/temp/dataset/8/6_8.odb,Step-1,Increment      1: Step Time =    1.000,"PART-1-1",           390,       13.8339,       14.8863,            0.,NA,NA,"",   112.375E-03,  -107.076E-03,   34.1010E-03,   98.0756E-06
C:/temp/dataset/8/6_8.odb,Step-1,Increment      1: Step Time =    1.000,"PART-1-1",           391,       12.7782,       13.6219,            0.,NA,NA,"",   109.820E-03,  -104.948E-03,   32.3480E-03,   107.194E-06
C:/temp/dataset/8/6_8.odb,Step-1,Increment      1: Step Time =    1.000,"PART-1-1",           392,       13.9443,       12.4043,            0.,NA,NA,"",   108.508E-03,  -103.036E-03,   34.0252E-03,   140.103E-06
C:/temp/dataset/8/6_8.odb,Step-1,Increment      1: Step Time =    1.000,"PART-1-1",           393,           15.,       13.6688,            0.,NA,NA,"",   111.085E-03,  -105.140E-03,   35.8526E-03,   144.271E-06
C:/temp/dataset/8/6_8.odb,Step-1,Increment      1: Step Time =    1.000,"PART-1-1",           394,       6.42614,       20.0555,            0.,NA,NA,"",   118.128E-03,  -115.999E-03,   22.3257E-03,   109.194E-06
C:/temp/dataset/8/6_8.odb,Step-1,Increment      1: Step Time =    1.000,"PART-1-1",           395,       7.39225,       21.3428,            0.,NA,NA,"",   120.501E-03,  -118.119E-03,   23.8391E-03,   79.9037E-06
C:/temp/dataset/8/6_8.odb,Step-1,Increment      1: Step Time =    1.000,"PART-1-1",           396,       5.86323,       22.5571,            0.,NA,NA,"",   122.089E-03,  -120.219E-03,   21.2876E-03,   59.6042E-06
C:/temp/dataset/8/6_8.odb,Step-1,Increment      1: Step Time =    1.000,"PART-1-1",           397,       4.89712,       21.2698,            0.,NA,NA,"",   119.814E-03,  -118.177E-03,   19.7390E-03,   96.0303E-06
C:/temp/dataset/8/6_8.odb,Step-1,Increment      1: Step Time =    1.000,"PART-1-1",           398,       13.8410,       27.5667,            0.,NA,NA,"",   132.780E-03,  -128.266E-03,   34.3259E-03,   5.34126E-06
C:/temp/dataset/8/6_8.odb,Step-1,Increment      1: Step Time =    1.000,"PART-1-1",           399,       12.7330,       26.4648,            0.,NA,NA,"",   130.571E-03,  -126.461E-03,   32.5044E-03,   6.78885E-06
C:/temp/dataset/8/6_8.odb,Step-1,Increment      1: Step Time =    1.000,"PART-1-1",           400,       13.8920,       25.1294,            0.,NA,NA,"",   128.945E-03,  -124.265E-03,   34.4236E-03,   7.88694E-06
C:/temp/dataset/8/6_8.odb,Step-1,Increment      1: Step Time =    1.000,"PART-1-1",           401,           15.,       26.2313,            0.,NA,NA,"",   131.180E-03,  -126.075E-03,   36.2398E-03,   7.18895E-06
C:/temp/dataset/8/6_8.odb,Step-1,Increment      1: Step Time =    1.000,"PART-1-1",           402,       1.26001,       27.5457,            0.,NA,NA,"",   128.924E-03,  -128.164E-03,   13.9718E-03,   10.1239E-06
C:/temp/dataset/8/6_8.odb,Step-1,Increment      1: Step Time =    1.000,"PART-1-1",           403,   121.340E-03,       26.2982,            0.,NA,NA,"",   126.843E-03,  -126.253E-03,   12.2286E-03,   9.97690E-06
C:/temp/dataset/8/6_8.odb,Step-1,Increment      1: Step Time =    1.000,"PART-1-1",           404,       1.36459,       25.1000,            0.,NA,NA,"",   125.199E-03,  -124.398E-03,   14.1375E-03,   27.0728E-06
C:/temp/dataset/8/6_8.odb,Step-1,Increment      1: Step Time =    1.000,"PART-1-1",           405,       2.50327,       26.3475,            0.,NA,NA,"",   127.311E-03,  -126.314E-03,   15.8972E-03,   8.64945E-06
C:/temp/dataset/8/6_8.odb,Step-1,Increment      1: Step Time =    1.000,"PART-1-1",           406,   134.275E-03,       23.8369,            0.,NA,NA,"",   123.115E-03,  -122.502E-03,   12.2742E-03,   52.4413E-06
C:/temp/dataset/8/6_8.odb,Step-1,Increment      1: Step Time =    1.000,"PART-1-1",           407,       1.25833,       22.5836,            0.,NA,NA,"",   121.333E-03,  -120.520E-03,   14.0206E-03,   75.4764E-06
C:/temp/dataset/8/6_8.odb,Step-1,Increment      1: Step Time =    1.000,"PART-1-1",           408,       2.48865,       23.8467,            0.,NA,NA,"",   123.445E-03,  -122.418E-03,   15.8935E-03,   48.5637E-06
C:/temp/dataset/8/6_8.odb,Step-1,Increment      1: Step Time =    1.000,"PART-1-1",           409,      -5.93101,       26.7355,            0.,NA,NA,"",   126.976E-03,  -126.932E-03,   3.33620E-03,   16.4143E-06
C:/temp/dataset/8/6_8.odb,Step-1,Increment      1: Step Time =    1.000,"PART-1-1",           410,      -5.38229,       25.2750,            0.,NA,NA,"",   124.873E-03,  -124.804E-03,   4.13076E-03,   27.9535E-06
C:/temp/dataset/8/6_8.odb,Step-1,Increment      1: Step Time =    1.000,"PART-1-1",           411,      -3.59290,       25.9597,            0.,NA,NA,"",   125.958E-03,  -125.780E-03,   6.70648E-03,   18.2238E-06
C:/temp/dataset/8/6_8.odb,Step-1,Increment      1: Step Time =    1.000,"PART-1-1",           412,      -4.14162,       27.4201,            0.,NA,NA,"",   128.068E-03,  -127.931E-03,   5.90762E-03,   13.8249E-06
C:/temp/dataset/8/6_8.odb,Step-1,Increment      1: Step Time =    1.000,"PART-1-1",           413,      -13.7895,       17.4912,            0.,NA,NA,"",   114.468E-03,  -114.198E-03,  -7.84642E-03,   67.3346E-06
C:/temp/dataset/8/6_8.odb,Step-1,Increment      1: Step Time =    1.000,"PART-1-1",           414,      -12.5357,       18.7235,            0.,NA,NA,"",   116.055E-03,  -115.900E-03,  -5.99809E-03,   65.5455E-06
C:/temp/dataset/8/6_8.odb,Step-1,Increment      1: Step Time =    1.000,"PART-1-1",           415,      -13.7462,       19.9824,            0.,NA,NA,"",   117.851E-03,  -117.599E-03,  -7.69650E-03,   35.1765E-06
C:/temp/dataset/8/6_8.odb,Step-1,Increment      1: Step Time =    1.000,"PART-1-1",           416,          -15.,         18.75,            0.,NA,NA,"",   116.281E-03,  -115.894E-03,  -9.48064E-03,   51.4199E-06
C:/temp/dataset/8/6_8.odb,Step-1,Increment      1: Step Time =    1.000,"PART-1-1",           417,      -7.55055,       18.6209,            0.,NA,NA,"",   115.693E-03,  -115.686E-03,   1.29610E-03,   97.0891E-06
C:/temp/dataset/8/6_8.odb,Step-1,Increment      1: Step Time =    1.000,"PART-1-1",           418,      -6.28038,       17.4701,            0.,NA,NA,"",   114.171E-03,  -114.127E-03,   3.16255E-03,   72.7230E-06
C:/temp/dataset/8/6_8.odb,Step-1,Increment      1: Step Time =    1.000,"PART-1-1",           419,           -5.,         18.75,            0.,NA,NA,"",   115.887E-03,  -115.786E-03,   4.84371E-03,   68.3610E-06
C:/temp/dataset/8/6_8.odb,Step-1,Increment      1: Step Time =    1.000,"PART-1-1",           420,      -6.27018,       19.9008,            0.,NA,NA,"",   117.334E-03,  -117.294E-03,   3.06580E-03,   108.924E-06
C:/temp/dataset/8/6_8.odb,Step-1,Increment      1: Step Time =    1.000,"PART-1-1",           421,            5.,         18.75,            0.,NA,NA,"",   115.453E-03,  -113.714E-03,   19.9629E-03,   62.2905E-06
C:/temp/dataset/8/6_8.odb,Step-1,Increment      1: Step Time =    1.000,"PART-1-1",           422,       6.30600,       17.4335,            0.,NA,NA,"",   113.589E-03,  -111.393E-03,   22.2249E-03,   62.1197E-06
C:/temp/dataset/8/6_8.odb,Step-1,Increment      1: Step Time =    1.000,"PART-1-1",           423,       7.73213,       18.7390,            0.,NA,NA,"",   116.242E-03,  -113.630E-03,   24.5028E-03,   94.4799E-06
C:/temp/dataset/8/6_8.odb,Step-1,Increment      1: Step Time =    1.000,"PART-1-1",           424,         -6.25,          -30.,            0.,NA,NA,"",            0.,  -2.07940E-39,  -651.808E-42,   2.19128E-03
C:/temp/dataset/8/6_8.odb,Step-1,Increment      1: Step Time =    1.000,"PART-1-1",           425,      -4.93560,      -28.8558,            0.,NA,NA,"",   4.26020E-03,  -4.25733E-03,  -156.340E-06,   2.40886E-03
C:/temp/dataset/8/6_8.odb,Step-1,Increment      1: Step Time =    1.000,"PART-1-1",           426,      -6.05680,      -27.7304,            0.,NA,NA,"",   7.74912E-03,  -7.74875E-03,  -75.3934E-06,   2.25746E-03
C:/temp/dataset/8/6_8.odb,Step-1,Increment      1: Step Time =    1.000,"PART-1-1",           427,      -7.37120,      -28.8746,            0.,NA,NA,"",   3.47585E-03,  -3.47002E-03,  -201.211E-06,   1.99780E-03
C:/temp/dataset/8/6_8.odb,Step-1,Increment      1: Step Time =    1.000,"PART-1-1",           428,       8.60466,       1.06565,            0.,NA,NA,"",   91.4996E-03,  -87.5335E-03,   26.6471E-03,   92.7769E-06
C:/temp/dataset/8/6_8.odb,Step-1,Increment      1: Step Time =    1.000,"PART-1-1",           429,       8.83240,       2.57689,            0.,NA,NA,"",   93.1594E-03,  -89.2164E-03,   26.8162E-03,   83.8407E-06
C:/temp/dataset/8/6_8.odb,Step-1,Increment      1: Step Time =    1.000,"PART-1-1",           430,       6.85789,       2.90810,            0.,NA,NA,"",   93.0497E-03,  -89.6966E-03,   24.7541E-03,   199.838E-06
C:/temp/dataset/8/6_8.odb,Step-1,Increment      1: Step Time =    1.000,"PART-1-1",           431,       6.63016,       1.39685,            0.,NA,NA,"",   91.3491E-03,  -87.9410E-03,   24.7192E-03,   180.281E-06
C:/temp/dataset/8/6_8.odb,Step-1,Increment      1: Step Time =    1.000,"PART-1-1",           432,       5.99259,      -9.88635,            0.,NA,NA,"",   85.2168E-03,  -81.7245E-03,   24.1456E-03,   282.243E-06
C:/temp/dataset/8/6_8.odb,Step-1,Increment      1: Step Time =    1.000,"PART-1-1",           433,            5.,        -11.25,            0.,NA,NA,"",   84.5072E-03,  -81.2345E-03,   23.2902E-03,   506.045E-06
C:/temp/dataset/8/6_8.odb,Step-1,Increment      1: Step Time =    1.000,"PART-1-1",           434,       6.38932,      -12.3587,            0.,NA,NA,"",   84.5463E-03,  -81.1669E-03,   23.6644E-03,   540.347E-06
C:/temp/dataset/8/6_8.odb,Step-1,Increment      1: Step Time =    1.000,"PART-1-1",           435,       7.38191,      -10.9950,            0.,NA,NA,"",   85.3320E-03,  -81.6222E-03,   24.8871E-03,   481.628E-06
C:/temp/dataset/8/6_8.odb,Step-1,Increment      1: Step Time =    1.000,"PART-1-1",           436,       13.8031,      -7.70967,            0.,NA,NA,"",   87.5344E-03,  -82.2366E-03,   29.9902E-03,   152.575E-06
C:/temp/dataset/8/6_8.odb,Step-1,Increment      1: Step Time =    1.000,"PART-1-1",           437,       13.8997,      -10.2100,            0.,NA,NA,"",   86.7733E-03,  -81.3832E-03,   30.1063E-03,   151.842E-06
C:/temp/dataset/8/6_8.odb,Step-1,Increment      1: Step Time =    1.000,"PART-1-1",           438,           15.,      -8.79375,            0.,NA,NA,"",   87.3733E-03,  -81.8663E-03,   30.5287E-03,   16.0082E-06
C:/temp/dataset/8/6_8.odb,Step-1,Increment      1: Step Time =    1.000,"PART-1-1",           439,       12.4250,      -16.5409,            0.,NA,NA,"",   84.8066E-03,  -78.8803E-03,   31.1457E-03,   684.564E-06
C:/temp/dataset/8/6_8.odb,Step-1,Increment      1: Step Time =    1.000,"PART-1-1",           440,       13.6481,      -17.7375,            0.,NA,NA,"",   85.2183E-03,  -79.2040E-03,   31.4467E-03,   659.869E-06
C:/temp/dataset/8/6_8.odb,Step-1,Increment      1: Step Time =    1.000,"PART-1-1",           441,           15.,      -16.3312,            0.,NA,NA,"",   84.6095E-03,  -78.7319E-03,   30.9849E-03,   200.232E-06
C:/temp/dataset/8/6_8.odb,Step-1,Increment      1: Step Time =    1.000,"PART-1-1",           442,       12.6431,      -19.1391,            0.,NA,NA,"",   87.7271E-03,  -81.5699E-03,   32.2862E-03,   3.09305E-03
C:/temp/dataset/8/6_8.odb,Step-1,Increment      1: Step Time =    1.000,"PART-1-1",           443,       13.9950,      -20.2453,            0.,NA,NA,"",   94.2966E-03,  -88.4336E-03,   32.7315E-03,   4.96448E-03
C:/temp/dataset/8/6_8.odb,Step-1,Increment      1: Step Time =    1.000,"PART-1-1",           444,           15.,      -18.8438,            0.,NA,NA,"",   86.0706E-03,  -80.9614E-03,   29.2133E-03,   431.825E-06
C:/temp/dataset/8/6_8.odb,Step-1,Increment      1: Step Time =    1.000,"PART-1-1",           445,      -5.98837,      -22.7771,            0.,NA,NA,"",   22.9247E-03,  -22.7981E-03,   2.40660E-03,   1.86869E-03
C:/temp/dataset/8/6_8.odb,Step-1,Increment      1: Step Time =    1.000,"PART-1-1",           446,      -7.09286,      -24.1492,            0.,NA,NA,"",   18.2033E-03,  -18.1776E-03,   967.760E-06,   1.68466E-03
C:/temp/dataset/8/6_8.odb,Step-1,Increment      1: Step Time =    1.000,"PART-1-1",           447,      -5.93941,      -25.3506,            0.,NA,NA,"",   15.6873E-03,  -15.6700E-03,   736.364E-06,   2.17464E-03
C:/temp/dataset/8/6_8.odb,Step-1,Increment      1: Step Time =    1.000,"PART-1-1",           448,      -4.83491,      -23.9785,            0.,NA,NA,"",   21.0053E-03,  -20.9364E-03,   1.70035E-03,   2.25099E-03
C:/temp/dataset/8/6_8.odb,Step-1,Increment      1: Step Time =    1.000,"PART-1-1",           449,      -9.79906,      -28.8416,            0.,NA,NA,"",   3.05388E-03,  -3.01680E-03,  -474.415E-06,   1.72879E-03
C:/temp/dataset/8/6_8.odb,Step-1,Increment      1: Step Time =    1.000,"PART-1-1",           450,      -10.8940,      -27.4068,            0.,NA,NA,"",   7.08004E-03,  -6.95142E-03,  -1.34342E-03,   1.76003E-03
C:/temp/dataset/8/6_8.odb,Step-1,Increment      1: Step Time =    1.000,"PART-1-1",           451,      -12.3450,      -28.5652,            0.,NA,NA,"",   3.73572E-03,  -3.51518E-03,  -1.26459E-03,   1.78850E-03
C:/temp/dataset/8/6_8.odb,Step-1,Increment      1: Step Time =    1.000,"PART-1-1",           452,        -11.25,          -30.,            0.,NA,NA,"",            0.,  -1.39640E-39,  -1.72075E-39,   1.67114E-03
C:/temp/dataset/8/6_8.odb,Step-1,Increment      1: Step Time =    1.000,"PART-1-1",           453,      -13.5399,       7.35912,            0.,NA,NA,"",   99.4004E-03,  -99.0228E-03,  -8.65558E-03,   205.136E-06
C:/temp/dataset/8/6_8.odb,Step-1,Increment      1: Step Time =    1.000,"PART-1-1",           454,          -15.,          6.25,            0.,NA,NA,"",   97.6130E-03,  -96.9358E-03,  -11.4782E-03,   303.583E-06
C:/temp/dataset/8/6_8.odb,Step-1,Increment      1: Step Time =    1.000,"PART-1-1",           455,      -13.9199,       4.81312,            0.,NA,NA,"",   95.0053E-03,  -94.4911E-03,  -9.87071E-03,   260.339E-06
C:/temp/dataset/8/6_8.odb,Step-1,Increment      1: Step Time =    1.000,"PART-1-1",           456,      -12.4598,       5.92224,            0.,NA,NA,"",   96.8712E-03,  -96.6231E-03,  -6.92961E-03,   169.789E-06
C:/temp/dataset/8/6_8.odb,Step-1,Increment      1: Step Time =    1.000,"PART-1-1",           457,      -14.0702,       2.40608,            0.,NA,NA,"",   90.5360E-03,  -89.8921E-03,  -10.7786E-03,   315.304E-06
C:/temp/dataset/8/6_8.odb,Step-1,Increment      1: Step Time =    1.000,"PART-1-1",           458,          -15.,          1.25,            0.,NA,NA,"",   88.3711E-03,  -87.4005E-03,  -13.0615E-03,   415.558E-06
C:/temp/dataset/8/6_8.odb,Step-1,Increment      1: Step Time =    1.000,"PART-1-1",           459,      -13.9245,  -19.3588E-03,            0.,NA,NA,"",   85.6379E-03,  -84.9040E-03,  -11.1881E-03,   353.805E-06
C:/temp/dataset/8/6_8.odb,Step-1,Increment      1: Step Time =    1.000,"PART-1-1",           460,      -12.9947,       1.13672,            0.,NA,NA,"",   87.9175E-03,  -87.4720E-03,  -8.84024E-03,   257.405E-06
C:/temp/dataset/8/6_8.odb,Step-1,Increment      1: Step Time =    1.000,"PART-1-1",           461,      -13.6376,      -2.69932,            0.,NA,NA,"",   79.5710E-03,  -78.7577E-03,  -11.3482E-03,   355.802E-06
C:/temp/dataset/8/6_8.odb,Step-1,Increment      1: Step Time =    1.000,"PART-1-1",           462,          -15.,         -3.75,            0.,NA,NA,"",   77.3344E-03,  -75.8336E-03,  -15.1616E-03,   471.291E-06
C:/temp/dataset/8/6_8.odb,Step-1,Increment      1: Step Time =    1.000,"PART-1-1",           463,      -14.1618,      -5.01381,            0.,NA,NA,"",   73.8368E-03,  -72.6074E-03,  -13.4182E-03,   364.002E-06
C:/temp/dataset/8/6_8.odb,Step-1,Increment      1: Step Time =    1.000,"PART-1-1",           464,      -12.7995,      -3.96314,            0.,NA,NA,"",   76.2679E-03,  -75.6620E-03,  -9.59469E-03,   264.551E-06
C:/temp/dataset/8/6_8.odb,Step-1,Increment      1: Step Time =    1.000,"PART-1-1",           465,          -15.,         -8.75,            0.,NA,NA,"",   63.6828E-03,  -61.4343E-03,  -16.7728E-03,   167.688E-06
C:/temp/dataset/8/6_8.odb,Step-1,Increment      1: Step Time =    1.000,"PART-1-1",           466,      -13.7348,      -9.99734,            0.,NA,NA,"",   59.0311E-03,  -57.5639E-03,  -13.0793E-03,   182.220E-06
C:/temp/dataset/8/6_8.odb,Step-1,Increment      1: Step Time =    1.000,"PART-1-1",           467,      -12.3830,      -8.57451,            0.,NA,NA,"",   62.8310E-03,  -62.1485E-03,  -9.23560E-03,   319.621E-06
C:/temp/dataset/8/6_8.odb,Step-1,Increment      1: Step Time =    1.000,"PART-1-1",           468,      -13.6482,      -7.32717,            0.,NA,NA,"",   67.1209E-03,  -65.9326E-03,  -12.5737E-03,   255.816E-06
C:/temp/dataset/8/6_8.odb,Step-1,Increment      1: Step Time =    1.000,"PART-1-1",           469,      -11.2232,      -10.0773,            0.,NA,NA,"",   57.6606E-03,  -57.3308E-03,  -6.15796E-03,   390.555E-06
C:/temp/dataset/8/6_8.odb,Step-1,Increment      1: Step Time =    1.000,"PART-1-1",           470,      -9.87788,      -9.01957,            0.,NA,NA,"",   60.8607E-03,  -60.8036E-03,  -2.63615E-03,   443.211E-06
C:/temp/dataset/8/6_8.odb,Step-1,Increment      1: Step Time =    1.000,"PART-1-1",           471,      -11.0377,      -7.51681,            0.,NA,NA,"",   65.8145E-03,  -65.5745E-03,  -5.61496E-03,   362.624E-06
C:/temp/dataset/8/6_8.odb,Step-1,Increment      1: Step Time =    1.000,"PART-1-1",           472,       1.26271,  -42.9986E-03,            0.,NA,NA,"",   87.9470E-03,  -85.8957E-03,   18.8843E-03,   187.230E-06
C:/temp/dataset/8/6_8.odb,Step-1,Increment      1: Step Time =    1.000,"PART-1-1",           473,  -3.24210E-03,      -1.27656,            0.,NA,NA,"",   85.5282E-03,  -83.8140E-03,   17.0377E-03,   320.985E-06
C:/temp/dataset/8/6_8.odb,Step-1,Increment      1: Step Time =    1.000,"PART-1-1",           474,       3.63434,       22.5567,            0.,NA,NA,"",   121.623E-03,  -120.327E-03,   17.7089E-03,   56.1724E-06
C:/temp/dataset/8/6_8.odb,Step-1,Increment      1: Step Time =    1.000,"PART-1-1",           475,       2.48722,       21.2868,            0.,NA,NA,"",   119.467E-03,  -118.397E-03,   15.9574E-03,   103.204E-06
C:/temp/dataset/8/6_8.odb,Step-1,Increment      1: Step Time =    1.000,"PART-1-1",           476,          3.75,           20.,            0.,NA,NA,"",   117.602E-03,  -116.218E-03,   17.9871E-03,   162.859E-06
C:/temp/dataset/8/6_8.odb,Step-1,Increment      1: Step Time =    1.000,"PART-1-1",           477,       13.0518,       11.2605,            0.,NA,NA,"",   106.282E-03,  -101.175E-03,   32.5489E-03,   134.777E-06
C:/temp/dataset/8/6_8.odb,Step-1,Increment      1: Step Time =    1.000,"PART-1-1",           478,       14.1075,       10.0124,            0.,NA,NA,"",   104.967E-03,  -99.3312E-03,   33.9317E-03,   185.148E-06
C:/temp/dataset/8/6_8.odb,Step-1,Increment      1: Step Time =    1.000,"PART-1-1",           479,           15.,       11.1563,            0.,NA,NA,"",   107.193E-03,  -101.155E-03,   35.4686E-03,   198.553E-06
C:/temp/dataset/8/6_8.odb,Step-1,Increment      1: Step Time =    1.000,"PART-1-1",           480,       10.1417,       15.9039,            0.,NA,NA,"",   112.349E-03,  -108.710E-03,   28.3622E-03,   95.6975E-06
C:/temp/dataset/8/6_8.odb,Step-1,Increment      1: Step Time =    1.000,"PART-1-1",           481,       11.4219,       14.7636,            0.,NA,NA,"",   111.022E-03,  -106.801E-03,   30.3224E-03,   91.2368E-06
C:/temp/dataset/8/6_8.odb,Step-1,Increment      1: Step Time =    1.000,"PART-1-1",           482,       12.5880,       16.1115,            0.,NA,NA,"",   113.740E-03,  -109.089E-03,   32.1939E-03,   85.4647E-06
C:/temp/dataset/8/6_8.odb,Step-1,Increment      1: Step Time =    1.000,"PART-1-1",           483,       11.3078,       17.2518,            0.,NA,NA,"",   115.044E-03,  -111.009E-03,   30.2002E-03,   82.1981E-06
C:/temp/dataset/8/6_8.odb,Step-1,Increment      1: Step Time =    1.000,"PART-1-1",           484,       14.0683,       7.62638,            0.,NA,NA,"",   101.527E-03,  -95.8587E-03,   33.4495E-03,   219.674E-06
C:/temp/dataset/8/6_8.odb,Step-1,Increment      1: Step Time =    1.000,"PART-1-1",           485,       12.9668,       6.67122,            0.,NA,NA,"",   99.6665E-03,  -94.4469E-03,   31.8307E-03,   175.149E-06
C:/temp/dataset/8/6_8.odb,Step-1,Increment      1: Step Time =    1.000,"PART-1-1",           486,       13.8986,       5.23234,            0.,NA,NA,"",   98.2611E-03,  -92.6460E-03,   32.7407E-03,   240.385E-06
C:/temp/dataset/8/6_8.odb,Step-1,Increment      1: Step Time =    1.000,"PART-1-1",           487,           15.,        6.1875,            0.,NA,NA,"",   100.099E-03,  -94.0132E-03,   34.3693E-03,   288.782E-06
C:/temp/dataset/8/6_8.odb,Step-1,Increment      1: Step Time =    1.000,"PART-1-1",           488,       7.13496,       8.72104,            0.,NA,NA,"",   100.249E-03,  -97.2643E-03,   24.2793E-03,   161.960E-06
C:/temp/dataset/8/6_8.odb,Step-1,Increment      1: Step Time =    1.000,"PART-1-1",           489,       6.11605,       9.93638,            0.,NA,NA,"",   101.718E-03,  -99.1597E-03,   22.6685E-03,   178.633E-06
C:/temp/dataset/8/6_8.odb,Step-1,Increment      1: Step Time =    1.000,"PART-1-1",           490,            5.,          8.75,            0.,NA,NA,"",   99.7923E-03,  -97.5005E-03,   21.2639E-03,   257.277E-06
C:/temp/dataset/8/6_8.odb,Step-1,Increment      1: Step Time =    1.000,"PART-1-1",           491,       6.01891,       7.53466,            0.,NA,NA,"",   98.3417E-03,  -95.6180E-03,   22.9848E-03,   225.426E-06
C:/temp/dataset/8/6_8.odb,Step-1,Increment      1: Step Time =    1.000,"PART-1-1",           492,   29.3773E-03,       3.74235,            0.,NA,NA,"",   93.0391E-03,  -91.4507E-03,   17.1186E-03,   166.137E-06
C:/temp/dataset/8/6_8.odb,Step-1,Increment      1: Step Time =    1.000,"PART-1-1",           493,         -1.25,            5.,            0.,NA,NA,"",   94.8881E-03,  -93.6948E-03,   15.0011E-03,   311.904E-06
C:/temp/dataset/8/6_8.odb,Step-1,Increment      1: Step Time =    1.000,"PART-1-1",           494,      -2.45171,       3.76422,            0.,NA,NA,"",   92.7734E-03,  -91.8481E-03,   13.0703E-03,   172.184E-06
C:/temp/dataset/8/6_8.odb,Step-1,Increment      1: Step Time =    1.000,"PART-1-1",           495,      -3.55010,       2.55765,            0.,NA,NA,"",   90.5188E-03,  -89.8357E-03,   11.0997E-03,   175.813E-06
C:/temp/dataset/8/6_8.odb,Step-1,Increment      1: Step Time =    1.000,"PART-1-1",           496,         -3.75,            5.,            0.,NA,NA,"",   94.9709E-03,  -94.3924E-03,   10.4662E-03,   265.063E-06
C:/temp/dataset/8/6_8.odb,Step-1,Increment      1: Step Time =    1.000,"PART-1-1",           497,      -4.84840,       3.79343,            0.,NA,NA,"",   92.5861E-03,  -92.2183E-03,   8.24359E-03,   311.320E-06
C:/temp/dataset/8/6_8.odb,Step-1,Increment      1: Step Time =    1.000,"PART-1-1",           498,      -13.7264,       27.6066,            0.,NA,NA,"",   128.415E-03,  -128.187E-03,  -7.65254E-03,   3.95043E-06
C:/temp/dataset/8/6_8.odb,Step-1,Increment      1: Step Time =    1.000,"PART-1-1",           499,          -15.,         26.25,            0.,NA,NA,"",   126.631E-03,  -126.279E-03,  -9.43526E-03,   4.26605E-06
C:/temp/dataset/8/6_8.odb,Step-1,Increment      1: Step Time =    1.000,"PART-1-1",           500,      -13.4386,       25.0669,            0.,NA,NA,"",   124.828E-03,  -124.618E-03,  -7.24075E-03,   5.09343E-06
C:/temp/dataset/8/6_8.odb,Step-1,Increment      1: Step Time =    1.000,"PART-1-1",           501,      -12.1650,       26.4235,            0.,NA,NA,"",   126.638E-03,  -126.520E-03,  -5.45919E-03,   4.38278E-06
C:/temp/dataset/8/6_8.odb,Step-1,Increment      1: Step Time =    1.000,"PART-1-1",           502,      -3.53283,       23.8665,            0.,NA,NA,"",   122.885E-03,  -122.696E-03,   6.81357E-03,   45.7283E-06
C:/temp/dataset/8/6_8.odb,Step-1,Increment      1: Step Time =    1.000,"PART-1-1",           503,      -4.96963,       24.1916,            0.,NA,NA,"",   123.310E-03,  -123.219E-03,   4.73657E-03,   38.0585E-06
C:/temp/dataset/8/6_8.odb,Step-1,Increment      1: Step Time =    1.000,"PART-1-1",           504,      -5.34791,       22.7845,            0.,NA,NA,"",   121.281E-03,  -121.207E-03,   4.22564E-03,   54.5110E-06
C:/temp/dataset/8/6_8.odb,Step-1,Increment      1: Step Time =    1.000,"PART-1-1",           505,      -3.91112,       22.4594,            0.,NA,NA,"",   120.832E-03,  -120.668E-03,   6.29026E-03,   57.4685E-06
C:/temp/dataset/8/6_8.odb,Step-1,Increment      1: Step Time =    1.000,"PART-1-1",           506,      -12.3994,       21.2122,            0.,NA,NA,"",   119.422E-03,  -119.282E-03,  -5.77336E-03,   39.8640E-06
C:/temp/dataset/8/6_8.odb,Step-1,Increment      1: Step Time =    1.000,"PART-1-1",           507,      -13.6532,       22.4798,            0.,NA,NA,"",   121.257E-03,  -121.022E-03,  -7.53848E-03,   13.9523E-06
C:/temp/dataset/8/6_8.odb,Step-1,Increment      1: Step Time =    1.000,"PART-1-1",           508,          -15.,         21.25,            0.,NA,NA,"",   119.695E-03,  -119.324E-03,  -9.41877E-03,   15.5625E-06
C:/temp/dataset/8/6_8.odb,Step-1,Increment      1: Step Time =    1.000,"PART-1-1",           509,      -8.82323,       17.4409,            0.,NA,NA,"",   114.155E-03,  -114.154E-03,  -530.637E-06,   92.9057E-06
C:/temp/dataset/8/6_8.odb,Step-1,Increment      1: Step Time =    1.000,"PART-1-1",           510,      -8.76994,       19.8173,            0.,NA,NA,"",   117.327E-03,  -117.326E-03,  -520.373E-06,   87.2652E-06
C:/temp/dataset/8/6_8.odb,Step-1,Increment      1: Step Time =    1.000,"PART-1-1",           511,      -10.0426,       18.6373,            0.,NA,NA,"",   115.802E-03,  -115.778E-03,  -2.35458E-03,   86.2160E-06
C:/temp/dataset/8/6_8.odb,Step-1,Increment      1: Step Time =    1.000,"PART-1-1",           512,   21.1090E-03,       21.2968,            0.,NA,NA,"",   119.270E-03,  -118.645E-03,   12.1890E-03,   101.931E-06
C:/temp/dataset/8/6_8.odb,Step-1,Increment      1: Step Time =    1.000,"PART-1-1",           513,          1.25,           20.,            0.,NA,NA,"",   117.399E-03,  -116.546E-03,   14.1300E-03,   128.694E-06
C:/temp/dataset/8/6_8.odb,Step-1,Increment      1: Step Time =    1.000,"PART-1-1",           514,       13.8176,       22.6447,            0.,NA,NA,"",   124.953E-03,  -120.148E-03,   34.3154E-03,   9.34030E-06
C:/temp/dataset/8/6_8.odb,Step-1,Increment      1: Step Time =    1.000,"PART-1-1",           515,       12.3404,       21.5086,            0.,NA,NA,"",   122.472E-03,  -118.248E-03,   31.8857E-03,   33.7680E-06
C:/temp/dataset/8/6_8.odb,Step-1,Increment      1: Step Time =    1.000,"PART-1-1",           516,       13.5229,       20.0701,            0.,NA,NA,"",   120.655E-03,  -115.818E-03,   33.8192E-03,   30.7434E-06
C:/temp/dataset/8/6_8.odb,Step-1,Increment      1: Step Time =    1.000,"PART-1-1",           517,           15.,       21.2062,            0.,NA,NA,"",   123.205E-03,  -117.741E-03,   36.2856E-03,   6.67489E-06
C:/temp/dataset/8/6_8.odb,Step-1,Increment      1: Step Time =    1.000,"PART-1-1",           518,          6.25,           30.,            0.,NA,NA,"",   133.949E-03,  -132.148E-03,   21.8870E-03,   34.0249E-06
C:/temp/dataset/8/6_8.odb,Step-1,Increment      1: Step Time =    1.000,"PART-1-1",           519,       4.99916,       28.7599,            0.,NA,NA,"",   131.635E-03,  -130.128E-03,   19.8599E-03,   25.2032E-06
C:/temp/dataset/8/6_8.odb,Step-1,Increment      1: Step Time =    1.000,"PART-1-1",           520,       6.36817,       27.3763,            0.,NA,NA,"",   129.829E-03,  -127.941E-03,   22.0589E-03,   15.6456E-06
C:/temp/dataset/8/6_8.odb,Step-1,Increment      1: Step Time =    1.000,"PART-1-1",           521,       7.61901,       28.6164,            0.,NA,NA,"",   132.161E-03,  -129.945E-03,   24.0965E-03,   16.6912E-06
C:/temp/dataset/8/6_8.odb,Step-1,Increment      1: Step Time =    1.000,"PART-1-1",           522,       9.03329,       27.4617,            0.,NA,NA,"",   130.782E-03,  -128.088E-03,   26.4093E-03,   14.0293E-06
C:/temp/dataset/8/6_8.odb,Step-1,Increment      1: Step Time =    1.000,"PART-1-1",           523,       10.1643,       28.8453,            0.,NA,NA,"",   133.376E-03,  -130.345E-03,   28.2685E-03,   10.3291E-06
C:/temp/dataset/8/6_8.odb,Step-1,Increment      1: Step Time =    1.000,"PART-1-1",           524,          8.75,           30.,            0.,NA,NA,"",   134.736E-03,  -132.213E-03,   25.9532E-03,   20.4268E-06
C:/temp/dataset/8/6_8.odb,Step-1,Increment      1: Step Time =    1.000,"PART-1-1",           525,   8.17364E-03,       28.7581,            0.,NA,NA,"",   130.554E-03,  -129.995E-03,   12.0687E-03,   29.5982E-06
C:/temp/dataset/8/6_8.odb,Step-1,Increment      1: Step Time =    1.000,"PART-1-1",           526,       2.50184,       28.7876,            0.,NA,NA,"",   131.078E-03,  -130.109E-03,   15.9087E-03,   29.7196E-06
C:/temp/dataset/8/6_8.odb,Step-1,Increment      1: Step Time =    1.000,"PART-1-1",           527,          1.25,           30.,            0.,NA,NA,"",   132.680E-03,  -131.941E-03,   13.9882E-03,   49.9416E-06
C:/temp/dataset/8/6_8.odb,Step-1,Increment      1: Step Time =    1.000,"PART-1-1",           528,      -5.24228,       28.8821,            0.,NA,NA,"",   130.125E-03,  -130.053E-03,   4.32670E-03,   21.5899E-06
C:/temp/dataset/8/6_8.odb,Step-1,Increment      1: Step Time =    1.000,"PART-1-1",           529,      -2.64934,       28.5381,            0.,NA,NA,"",   129.853E-03,  -129.601E-03,   8.09384E-03,   23.7932E-06
C:/temp/dataset/8/6_8.odb,Step-1,Increment      1: Step Time =    1.000,"PART-1-1",           530,         -3.75,           30.,            0.,NA,NA,"",   131.880E-03,  -131.720E-03,   6.50037E-03,   39.5250E-06
C:/temp/dataset/8/6_8.odb,Step-1,Increment      1: Step Time =    1.000,"PART-1-1",           531,      -7.66846,       29.0326,            0.,NA,NA,"",   130.234E-03,  -130.231E-03,   867.777E-06,   14.1566E-06
C:/temp/dataset/8/6_8.odb,Step-1,Increment      1: Step Time =    1.000,"PART-1-1",           532,      -6.66074,       27.9147,            0.,NA,NA,"",   128.657E-03,  -128.637E-03,   2.29475E-03,   14.2040E-06
C:/temp/dataset/8/6_8.odb,Step-1,Increment      1: Step Time =    1.000,"PART-1-1",           533,         -6.25,           30.,            0.,NA,NA,"",   131.672E-03,  -131.640E-03,   2.89335E-03,   27.3831E-06
C:/temp/dataset/8/6_8.odb,Step-1,Increment      1: Step Time =    1.000,"PART-1-1",           534,      -8.85273,       25.1596,            0.,NA,NA,"",   124.710E-03,  -124.707E-03,  -787.672E-06,   21.3614E-06
C:/temp/dataset/8/6_8.odb,Step-1,Increment      1: Step Time =    1.000,"PART-1-1",           535,      -8.23876,       24.0389,            0.,NA,NA,"",   123.106E-03,  -123.106E-03,   99.8359E-06,   35.1405E-06
C:/temp/dataset/8/6_8.odb,Step-1,Increment      1: Step Time =    1.000,"PART-1-1",           536,      -6.78155,       24.7842,            0.,NA,NA,"",   124.146E-03,  -124.127E-03,   2.14610E-03,   31.6597E-06
C:/temp/dataset/8/6_8.odb,Step-1,Increment      1: Step Time =    1.000,"PART-1-1",           537,      -7.39551,       25.9049,            0.,NA,NA,"",   125.753E-03,  -125.747E-03,   1.26148E-03,   21.1312E-06
C:/temp/dataset/8/6_8.odb,Step-1,Increment      1: Step Time =    1.000,"PART-1-1",           538,      -12.4764,       28.8566,            0.,NA,NA,"",   130.084E-03,  -129.950E-03,  -5.90047E-03,   3.66441E-06
C:/temp/dataset/8/6_8.odb,Step-1,Increment      1: Step Time =    1.000,"PART-1-1",           539,        -13.75,           30.,            0.,NA,NA,"",   131.780E-03,  -131.556E-03,  -7.68939E-03,   1.16785E-06
C:/temp/dataset/8/6_8.odb,Step-1,Increment      1: Step Time =    1.000,"PART-1-1",           540,          -15.,         28.75,            0.,NA,NA,"",   130.140E-03,  -129.796E-03,  -9.44509E-03,   1.09074E-06
C:/temp/dataset/8/6_8.odb,Step-1,Increment      1: Step Time =    1.000,"PART-1-1",           541,      -7.55516,       16.2219,            0.,NA,NA,"",   112.488E-03,  -112.480E-03,   1.38701E-03,   92.9846E-06
C:/temp/dataset/8/6_8.odb,Step-1,Increment      1: Step Time =    1.000,"PART-1-1",           542,      -6.27478,       15.0018,            0.,NA,NA,"",   110.802E-03,  -110.751E-03,   3.35173E-03,   108.052E-06
C:/temp/dataset/8/6_8.odb,Step-1,Increment      1: Step Time =    1.000,"PART-1-1",           543,           -5.,         16.25,            0.,NA,NA,"",   112.539E-03,  -112.426E-03,   5.03850E-03,   112.945E-06
C:/temp/dataset/8/6_8.odb,Step-1,Increment      1: Step Time =    1.000,"PART-1-1",           544,      -12.5375,       11.2943,            0.,NA,NA,"",   105.598E-03,  -105.402E-03,  -6.43405E-03,   127.174E-06
C:/temp/dataset/8/6_8.odb,Step-1,Increment      1: Step Time =    1.000,"PART-1-1",           545,      -11.2813,       10.1542,            0.,NA,NA,"",   103.798E-03,  -103.703E-03,  -4.44459E-03,   103.179E-06
C:/temp/dataset/8/6_8.odb,Step-1,Increment      1: Step Time =    1.000,"PART-1-1",           546,      -10.0769,       11.4281,            0.,NA,NA,"",   105.701E-03,  -105.674E-03,  -2.40065E-03,   95.4948E-06
C:/temp/dataset/8/6_8.odb,Step-1,Increment      1: Step Time =    1.000,"PART-1-1",           547,      -11.3331,       12.5683,            0.,NA,NA,"",   107.435E-03,  -107.344E-03,  -4.40956E-03,   97.1956E-06
C:/temp/dataset/8/6_8.odb,Step-1,Increment      1: Step Time =    1.000,"PART-1-1",           548,      -8.81802,       15.0067,            0.,NA,NA,"",   110.831E-03,  -110.830E-03,  -462.366E-06,   90.6269E-06
C:/temp/dataset/8/6_8.odb,Step-1,Increment      1: Step Time =    1.000,"PART-1-1",           549,      -10.0861,       16.2257,            0.,NA,NA,"",   112.545E-03,  -112.519E-03,  -2.40522E-03,   95.8278E-06
C:/temp/dataset/8/6_8.odb,Step-1,Increment      1: Step Time =    1.000,"PART-1-1",           550,      -13.7511,       10.0234,            0.,NA,NA,"",   103.715E-03,  -103.360E-03,  -8.56493E-03,   179.244E-06
C:/temp/dataset/8/6_8.odb,Step-1,Increment      1: Step Time =    1.000,"PART-1-1",           551,          -15.,         11.25,            0.,NA,NA,"",   105.663E-03,  -105.157E-03,  -10.3331E-03,   207.546E-06
C:/temp/dataset/8/6_8.odb,Step-1,Increment      1: Step Time =    1.000,"PART-1-1",           552,      -7.55101,       13.7795,            0.,NA,NA,"",   109.083E-03,  -109.072E-03,   1.53897E-03,   106.473E-06
C:/temp/dataset/8/6_8.odb,Step-1,Increment      1: Step Time =    1.000,"PART-1-1",           553,      -6.27623,       12.5278,            0.,NA,NA,"",   107.258E-03,  -107.197E-03,   3.62248E-03,   145.539E-06
C:/temp/dataset/8/6_8.odb,Step-1,Increment      1: Step Time =    1.000,"PART-1-1",           554,           -5.,         13.75,            0.,NA,NA,"",   109.026E-03,  -108.894E-03,   5.35728E-03,   164.881E-06
C:/temp/dataset/8/6_8.odb,Step-1,Increment      1: Step Time =    1.000,"PART-1-1",           555,      -7.73154,       8.68047,            0.,NA,NA,"",   101.365E-03,  -101.351E-03,   1.70312E-03,   144.344E-06
C:/temp/dataset/8/6_8.odb,Step-1,Increment      1: Step Time =    1.000,"PART-1-1",           556,      -6.43871,       7.39503,            0.,NA,NA,"",   99.2323E-03,  -99.1438E-03,   4.19147E-03,   215.268E-06
C:/temp/dataset/8/6_8.odb,Step-1,Increment      1: Step Time =    1.000,"PART-1-1",           557,           -5.,          8.75,            0.,NA,NA,"",   101.421E-03,  -101.223E-03,   6.33102E-03,   279.612E-06
C:/temp/dataset/8/6_8.odb,Step-1,Increment      1: Step Time =    1.000,"PART-1-1",           558,      -6.29283,       10.0354,            0.,NA,NA,"",   103.486E-03,  -103.411E-03,   3.95462E-03,   185.293E-06
C:/temp/dataset/8/6_8.odb,Step-1,Increment      1: Step Time =    1.000,"PART-1-1",           559,      -10.9724,       6.37301,            0.,NA,NA,"",   97.5743E-03,  -97.4875E-03,  -4.11283E-03,   96.4979E-06
C:/temp/dataset/8/6_8.odb,Step-1,Increment      1: Step Time =    1.000,"PART-1-1",           560,      -11.8392,       4.13381,            0.,NA,NA,"",   93.6064E-03,  -93.4165E-03,  -5.96060E-03,   145.243E-06
C:/temp/dataset/8/6_8.odb,Step-1,Increment      1: Step Time =    1.000,"PART-1-1",           561,      -10.3518,       4.58458,            0.,NA,NA,"",   94.3399E-03,  -94.2925E-03,  -2.99248E-03,   85.4833E-06
C:/temp/dataset/8/6_8.odb,Step-1,Increment      1: Step Time =    1.000,"PART-1-1",           562,      -7.08076,   207.918E-03,            0.,NA,NA,"",   85.8601E-03,  -85.7578E-03,   4.19010E-03,   201.860E-06
C:/temp/dataset/8/6_8.odb,Step-1,Increment      1: Step Time =    1.000,"PART-1-1",           563,      -6.69858,      -1.33808,            0.,NA,NA,"",   82.8191E-03,  -82.6558E-03,   5.19813E-03,   203.272E-06
C:/temp/dataset/8/6_8.odb,Step-1,Increment      1: Step Time =    1.000,"PART-1-1",           564,      -5.21720,      -1.06412,            0.,NA,NA,"",   83.6926E-03,  -83.2804E-03,   8.29566E-03,   224.081E-06
C:/temp/dataset/8/6_8.odb,Step-1,Increment      1: Step Time =    1.000,"PART-1-1",           565,      -5.59938,   481.880E-03,            0.,NA,NA,"",   86.5311E-03,  -86.2226E-03,   7.30057E-03,   214.310E-06
C:/temp/dataset/8/6_8.odb,Step-1,Increment      1: Step Time =    1.000,"PART-1-1",           566,      -4.73360,       1.40018,            0.,NA,NA,"",   88.3206E-03,  -87.8683E-03,   8.92737E-03,   216.375E-06
C:/temp/dataset/8/6_8.odb,Step-1,Increment      1: Step Time =    1.000,"PART-1-1",           567,      -3.61778,   109.205E-03,            0.,NA,NA,"",   86.2682E-03,  -85.5350E-03,   11.2236E-03,   152.887E-06
C:/temp/dataset/8/6_8.odb,Step-1,Increment      1: Step Time =    1.000,"PART-1-1",           568,      -7.98115,      -4.65772,            0.,NA,NA,"",   74.6451E-03,  -74.6115E-03,   2.24241E-03,   346.436E-06
C:/temp/dataset/8/6_8.odb,Step-1,Increment      1: Step Time =    1.000,"PART-1-1",           569,      -6.28323,      -5.33636,            0.,NA,NA,"",   73.4545E-03,  -73.1732E-03,   6.42186E-03,   703.589E-06
C:/temp/dataset/8/6_8.odb,Step-1,Increment      1: Step Time =    1.000,"PART-1-1",           570,      -5.33200,      -3.67088,            0.,NA,NA,"",   78.3012E-03,  -77.8332E-03,   8.54774E-03,   593.804E-06
C:/temp/dataset/8/6_8.odb,Step-1,Increment      1: Step Time =    1.000,"PART-1-1",           571,      -7.02992,      -2.99224,            0.,NA,NA,"",   79.1981E-03,  -79.0650E-03,   4.58915E-03,   238.487E-06
C:/temp/dataset/8/6_8.odb,Step-1,Increment      1: Step Time =    1.000,"PART-1-1",           572,      -9.50932,      -4.32694,            0.,NA,NA,"",   75.2028E-03,  -75.1884E-03,  -1.47109E-03,   254.149E-06
C:/temp/dataset/8/6_8.odb,Step-1,Increment      1: Step Time =    1.000,"PART-1-1",           573,      -9.07148,      -2.62864,            0.,NA,NA,"",   79.5779E-03,  -79.5775E-03,  -263.712E-06,   178.652E-06
C:/temp/dataset/8/6_8.odb,Step-1,Increment      1: Step Time =    1.000,"PART-1-1",           574,      -11.0112,      -2.25660,            0.,NA,NA,"",   80.3538E-03,  -80.2056E-03,  -4.87828E-03,   170.330E-06
C:/temp/dataset/8/6_8.odb,Step-1,Increment      1: Step Time =    1.000,"PART-1-1",           575,      -11.4490,      -3.95490,            0.,NA,NA,"",   76.1324E-03,  -75.8787E-03,  -6.21078E-03,   236.587E-06
C:/temp/dataset/8/6_8.odb,Step-1,Increment      1: Step Time =    1.000,"PART-1-1",           576,      -12.8101,      -6.09098,            0.,NA,NA,"",   70.4467E-03,  -69.7226E-03,  -10.0745E-03,   282.296E-06
C:/temp/dataset/8/6_8.odb,Step-1,Increment      1: Step Time =    1.000,"PART-1-1",           577,          -15.,         -6.25,            0.,NA,NA,"",   70.8190E-03,  -68.9512E-03,  -16.1572E-03,   368.519E-06
C:/temp/dataset/8/6_8.odb,Step-1,Increment      1: Step Time =    1.000,"PART-1-1",           578,      -12.4915,      -11.2805,            0.,NA,NA,"",   54.2702E-03,  -53.4255E-03,  -9.53749E-03,   335.397E-06
C:/temp/dataset/8/6_8.odb,Step-1,Increment      1: Step Time =    1.000,"PART-1-1",           579,      -11.2634,      -12.5870,            0.,NA,NA,"",   49.5236E-03,  -49.1420E-03,  -6.13578E-03,   393.941E-06
C:/temp/dataset/8/6_8.odb,Step-1,Increment      1: Step Time =    1.000,"PART-1-1",           580,      -9.99512,      -11.3837,            0.,NA,NA,"",   53.1100E-03,  -53.0317E-03,  -2.88280E-03,   447.073E-06
C:/temp/dataset/8/6_8.odb,Step-1,Increment      1: Step Time =    1.000,"PART-1-1",           581,      -13.7566,      -12.5332,            0.,NA,NA,"",   51.1368E-03,  -49.4626E-03,  -12.9775E-03,   235.493E-06
C:/temp/dataset/8/6_8.odb,Step-1,Increment      1: Step Time =    1.000,"PART-1-1",           582,          -15.,        -11.25,            0.,NA,NA,"",   56.1840E-03,  -53.5889E-03,  -16.8781E-03,   76.7453E-06
C:/temp/dataset/8/6_8.odb,Step-1,Increment      1: Step Time =    1.000,"PART-1-1",           583,      -8.71482,      -10.1608,            0.,NA,NA,"",   57.0576E-03,  -57.0556E-03,   468.999E-06,   402.687E-06
C:/temp/dataset/8/6_8.odb,Step-1,Increment      1: Step Time =    1.000,"PART-1-1",           584,      -7.42248,      -8.98866,            0.,NA,NA,"",   61.0532E-03,  -60.9271E-03,   3.92166E-03,   392.587E-06
C:/temp/dataset/8/6_8.odb,Step-1,Increment      1: Step Time =    1.000,"PART-1-1",           585,      -8.58554,      -7.84743,            0.,NA,NA,"",   64.6756E-03,  -64.6718E-03,   703.395E-06,   441.541E-06
C:/temp/dataset/8/6_8.odb,Step-1,Increment      1: Step Time =    1.000,"PART-1-1",           586,      -7.50773,      -13.8545,            0.,NA,NA,"",   45.1289E-03,  -44.9834E-03,   3.62043E-03,   398.377E-06
C:/temp/dataset/8/6_8.odb,Step-1,Increment      1: Step Time =    1.000,"PART-1-1",           587,      -6.25830,      -15.0553,            0.,NA,NA,"",   41.8762E-03,  -41.3283E-03,   6.75202E-03,   403.178E-06
C:/temp/dataset/8/6_8.odb,Step-1,Increment      1: Step Time =    1.000,"PART-1-1",           588,           -5.,        -13.75,            0.,NA,NA,"",   46.8304E-03,  -45.5672E-03,   10.8032E-03,   333.060E-06
C:/temp/dataset/8/6_8.odb,Step-1,Increment      1: Step Time =    1.000,"PART-1-1",           589,      -6.24942,      -12.5493,            0.,NA,NA,"",   49.7942E-03,  -49.2588E-03,   7.28234E-03,   230.507E-06
C:/temp/dataset/8/6_8.odb,Step-1,Increment      1: Step Time =    1.000,"PART-1-1",           590,      -11.2978,      -17.6923,            0.,NA,NA,"",   33.9885E-03,  -33.5668E-03,  -5.33730E-03,   401.808E-06
C:/temp/dataset/8/6_8.odb,Step-1,Increment      1: Step Time =    1.000,"PART-1-1",           591,      -12.6450,      -18.8482,            0.,NA,NA,"",   31.7104E-03,  -30.6386E-03,  -8.17448E-03,   477.204E-06
C:/temp/dataset/8/6_8.odb,Step-1,Increment      1: Step Time =    1.000,"PART-1-1",           592,      -11.4281,      -20.3734,            0.,NA,NA,"",   26.8596E-03,  -26.4186E-03,  -4.84697E-03,   439.419E-06
C:/temp/dataset/8/6_8.odb,Step-1,Increment      1: Step Time =    1.000,"PART-1-1",           593,      -10.0810,      -19.2175,            0.,NA,NA,"",   29.3955E-03,  -29.3071E-03,  -2.27849E-03,   405.886E-06
C:/temp/dataset/8/6_8.odb,Step-1,Increment      1: Step Time =    1.000,"PART-1-1",           594,      -7.51421,      -16.3885,            0.,NA,NA,"",   37.2046E-03,  -37.0641E-03,   3.23049E-03,   532.892E-06
C:/temp/dataset/8/6_8.odb,Step-1,Increment      1: Step Time =    1.000,"PART-1-1",           595,      -6.25590,      -17.5833,            0.,NA,NA,"",   34.1651E-03,  -33.6976E-03,   5.63274E-03,   641.585E-06
C:/temp/dataset/8/6_8.odb,Step-1,Increment      1: Step Time =    1.000,"PART-1-1",           596,           -5.,        -16.25,            0.,NA,NA,"",   39.2518E-03,  -38.0085E-03,   9.80096E-03,   690.171E-06
C:/temp/dataset/8/6_8.odb,Step-1,Increment      1: Step Time =    1.000,"PART-1-1",           597,      -10.0205,      -13.8763,            0.,NA,NA,"",   45.0174E-03,  -44.9288E-03,  -2.82228E-03,   446.112E-06
C:/temp/dataset/8/6_8.odb,Step-1,Increment      1: Step Time =    1.000,"PART-1-1",           598,      -8.77208,      -15.1278,            0.,NA,NA,"",   40.9289E-03,  -40.9276E-03,   327.784E-06,   436.951E-06
C:/temp/dataset/8/6_8.odb,Step-1,Increment      1: Step Time =    1.000,"PART-1-1",           599,      -8.75613,      -12.6031,            0.,NA,NA,"",   49.0149E-03,  -49.0133E-03,   392.749E-06,   397.954E-06
C:/temp/dataset/8/6_8.odb,Step-1,Increment      1: Step Time =    1.000,"PART-1-1",           600,      -7.46622,      -18.9660,            0.,NA,NA,"",   30.0529E-03,  -29.9193E-03,   2.83002E-03,   411.504E-06
C:/temp/dataset/8/6_8.odb,Step-1,Increment      1: Step Time =    1.000,"PART-1-1",           601,      -8.77786,      -17.7139,            0.,NA,NA,"",   33.2392E-03,  -33.2377E-03,   313.227E-06,   414.905E-06
C:/temp/dataset/8/6_8.odb,Step-1,Increment      1: Step Time =    1.000,"PART-1-1",           602,      -8.76934,      -20.4696,            0.,NA,NA,"",   26.2320E-03,  -26.2301E-03,   316.522E-06,   388.027E-06
C:/temp/dataset/8/6_8.odb,Step-1,Increment      1: Step Time =    1.000,"PART-1-1",           603,      -14.0375,      -22.4038,            0.,NA,NA,"",   23.7546E-03,  -21.7098E-03,  -9.64192E-03,   724.452E-06
C:/temp/dataset/8/6_8.odb,Step-1,Increment      1: Step Time =    1.000,"PART-1-1",           604,      -12.9066,      -21.1902,            0.,NA,NA,"",   25.7440E-03,  -24.5538E-03,  -7.73693E-03,   612.146E-06
C:/temp/dataset/8/6_8.odb,Step-1,Increment      1: Step Time =    1.000,"PART-1-1",           605,      -13.8691,      -20.0365,            0.,NA,NA,"",   29.7413E-03,  -27.7789E-03,  -10.6242E-03,   578.264E-06
C:/temp/dataset/8/6_8.odb,Step-1,Increment      1: Step Time =    1.000,"PART-1-1",           606,          -15.,        -21.25,            0.,NA,NA,"",   28.0492E-03,  -24.9736E-03,  -12.7703E-03,   710.120E-06
C:/temp/dataset/8/6_8.odb,Step-1,Increment      1: Step Time =    1.000,"PART-1-1",           607,      -11.2823,      -23.1306,            0.,NA,NA,"",   19.5769E-03,  -19.2363E-03,  -3.63575E-03,   803.510E-06
C:/temp/dataset/8/6_8.odb,Step-1,Increment      1: Step Time =    1.000,"PART-1-1",           608,      -12.2820,      -22.3254,            0.,NA,NA,"",   22.2557E-03,  -21.4795E-03,  -5.82640E-03,   654.285E-06
C:/temp/dataset/8/6_8.odb,Step-1,Increment      1: Step Time =    1.000,"PART-1-1",           609,      -13.0137,      -23.4645,            0.,NA,NA,"",   19.7605E-03,  -18.6092E-03,  -6.64657E-03,   894.151E-06
C:/temp/dataset/8/6_8.odb,Step-1,Increment      1: Step Time =    1.000,"PART-1-1",           610,      -12.0140,      -24.2697,            0.,NA,NA,"",   16.7344E-03,  -16.1726E-03,  -4.29954E-03,   1.02842E-03
C:/temp/dataset/8/6_8.odb,Step-1,Increment      1: Step Time =    1.000,"PART-1-1",           611,          -15.,        -28.75,            0.,NA,NA,"",   5.94821E-03,  -4.60188E-03,  -3.76880E-03,   2.98639E-03
C:/temp/dataset/8/6_8.odb,Step-1,Increment      1: Step Time =    1.000,"PART-1-1",           612,        -13.75,          -30.,            0.,NA,NA,"",            0.,  -496.375E-42,  -3.46965E-39,   2.86955E-03
C:/temp/dataset/8/6_8.odb,Step-1,Increment      1: Step Time =    1.000,"PART-1-1",           613,      -2.49072,      -28.8242,            0.,NA,NA,"",   5.17468E-03,  -5.16907E-03,  -240.708E-06,   2.84717E-03
C:/temp/dataset/8/6_8.odb,Step-1,Increment      1: Step Time =    1.000,"PART-1-1",           614,      -3.67632,      -27.6801,            0.,NA,NA,"",   9.30669E-03,  -9.30610E-03,  -104.356E-06,   2.65229E-03
C:/temp/dataset/8/6_8.odb,Step-1,Increment      1: Step Time =    1.000,"PART-1-1",           615,         -3.75,          -30.,            0.,NA,NA,"",            0.,  -2.53669E-39,  -706.741E-42,   2.66089E-03
C:/temp/dataset/8/6_8.odb,Step-1,Increment      1: Step Time =    1.000,"PART-1-1",           616,      -3.67176,      -25.2240,            0.,NA,NA,"",   18.3458E-03,  -18.3270E-03,   830.789E-06,   2.60424E-03
C:/temp/dataset/8/6_8.odb,Step-1,Increment      1: Step Time =    1.000,"PART-1-1",           617,      -2.52111,      -23.8746,            0.,NA,NA,"",   24.2464E-03,  -24.1988E-03,   1.51786E-03,   2.57364E-03
C:/temp/dataset/8/6_8.odb,Step-1,Increment      1: Step Time =    1.000,"PART-1-1",           618,      -3.68426,      -22.6291,            0.,NA,NA,"",   26.1582E-03,  -26.0121E-03,   2.76081E-03,   2.28885E-03
C:/temp/dataset/8/6_8.odb,Step-1,Increment      1: Step Time =    1.000,"PART-1-1",           619,      -1.29997,      -22.5744,            0.,NA,NA,"",   29.8646E-03,  -29.7703E-03,   2.37090E-03,   2.63016E-03
C:/temp/dataset/8/6_8.odb,Step-1,Increment      1: Step Time =    1.000,"PART-1-1",           620,  -41.8285E-03,      -21.2827,            0.,NA,NA,"",   35.2999E-03,  -35.0916E-03,   3.82914E-03,   2.80060E-03
C:/temp/dataset/8/6_8.odb,Step-1,Increment      1: Step Time =    1.000,"PART-1-1",           621,         -1.25,          -20.,            0.,NA,NA,"",   34.0358E-03,  -33.6851E-03,   4.87338E-03,   2.42007E-03
C:/temp/dataset/8/6_8.odb,Step-1,Increment      1: Step Time =    1.000,"PART-1-1",           622,      -2.50814,      -21.2918,            0.,NA,NA,"",   30.4844E-03,  -30.2738E-03,   3.57683E-03,   1.94126E-03
C:/temp/dataset/8/6_8.odb,Step-1,Increment      1: Step Time =    1.000,"PART-1-1",           623,       5.99755,      -26.4812,            0.,NA,NA,"",   26.3659E-03,  -26.3031E-03,   1.81866E-03,   4.68012E-03
C:/temp/dataset/8/6_8.odb,Step-1,Increment      1: Step Time =    1.000,"PART-1-1",           624,       6.71386,      -27.7542,            0.,NA,NA,"",   18.3296E-03,  -18.3160E-03,   705.790E-06,   5.33828E-03
C:/temp/dataset/8/6_8.odb,Step-1,Increment      1: Step Time =    1.000,"PART-1-1",           625,       8.26971,      -26.8502,            0.,NA,NA,"",   29.6186E-03,  -29.4842E-03,   2.81841E-03,   6.11337E-03
C:/temp/dataset/8/6_8.odb,Step-1,Increment      1: Step Time =    1.000,"PART-1-1",           626,       7.55340,      -25.5772,            0.,NA,NA,"",   37.6102E-03,  -37.2837E-03,   4.94483E-03,   5.71229E-03
C:/temp/dataset/8/6_8.odb,Step-1,Increment      1: Step Time =    1.000,"PART-1-1",           627,       1.27500,      -22.6714,            0.,NA,NA,"",   34.8609E-03,  -34.7678E-03,   2.54619E-03,   3.27547E-03
C:/temp/dataset/8/6_8.odb,Step-1,Increment      1: Step Time =    1.000,"PART-1-1",           628,       2.56683,      -21.3888,            0.,NA,NA,"",   42.7261E-03,  -42.4534E-03,   4.81971E-03,   3.76050E-03
C:/temp/dataset/8/6_8.odb,Step-1,Increment      1: Step Time =    1.000,"PART-1-1",           629,          1.25,          -20.,            0.,NA,NA,"",   40.7881E-03,  -40.2966E-03,   6.31307E-03,   3.67388E-03
C:/temp/dataset/8/6_8.odb,Step-1,Increment      1: Step Time =    1.000,"PART-1-1",           630,       2.22787,      -25.9763,            0.,NA,NA,"",   22.4389E-03,  -22.4375E-03,   249.605E-06,   3.53191E-03
C:/temp/dataset/8/6_8.odb,Step-1,Increment      1: Step Time =    1.000,"PART-1-1",           631,       3.59536,      -25.7933,            0.,NA,NA,"",   25.6296E-03,  -25.6132E-03,   914.906E-06,   3.68768E-03
C:/temp/dataset/8/6_8.odb,Step-1,Increment      1: Step Time =    1.000,"PART-1-1",           632,       3.51094,      -23.6954,            0.,NA,NA,"",   36.0929E-03,  -35.9746E-03,   2.92084E-03,   3.65123E-03
C:/temp/dataset/8/6_8.odb,Step-1,Increment      1: Step Time =    1.000,"PART-1-1",           633,       2.14345,      -23.8784,            0.,NA,NA,"",   32.1269E-03,  -32.0760E-03,   1.80834E-03,   3.30569E-03
C:/temp/dataset/8/6_8.odb,Step-1,Increment      1: Step Time =    1.000,"PART-1-1",           634,       7.70323,      -28.9583,            0.,NA,NA,"",   9.40517E-03,  -9.40504E-03,   50.5028E-06,   5.75617E-03
C:/temp/dataset/8/6_8.odb,Step-1,Increment      1: Step Time =    1.000,"PART-1-1",           635,       5.26063,      -28.7960,            0.,NA,NA,"",   8.68042E-03,  -8.67892E-03,  -161.359E-06,   4.54859E-03
C:/temp/dataset/8/6_8.odb,Step-1,Increment      1: Step Time =    1.000,"PART-1-1",           636,          6.25,          -30.,            0.,NA,NA,"",            0.,  -4.86854E-39,  -877.646E-42,   5.14949E-03
C:/temp/dataset/8/6_8.odb,Step-1,Increment      1: Step Time =    1.000,"PART-1-1",           637,       12.1002,      -20.6263,            0.,NA,NA,"",   87.3326E-03,  -82.0877E-03,   29.8093E-03,   4.89137E-03
C:/temp/dataset/8/6_8.odb,Step-1,Increment      1: Step Time =    1.000,"PART-1-1",           638,       11.2927,      -21.6253,            0.,NA,NA,"",   81.5334E-03,  -77.4412E-03,   25.5062E-03,   5.91311E-03
C:/temp/dataset/8/6_8.odb,Step-1,Increment      1: Step Time =    1.000,"PART-1-1",           639,       12.1479,      -22.5488,            0.,NA,NA,"",   83.6935E-03,  -80.0214E-03,   24.5190E-03,   7.12003E-03
C:/temp/dataset/8/6_8.odb,Step-1,Increment      1: Step Time =    1.000,"PART-1-1",           640,       12.9554,      -21.5499,            0.,NA,NA,"",   91.2688E-03,  -86.4682E-03,   29.2102E-03,   6.59467E-03
C:/temp/dataset/8/6_8.odb,Step-1,Increment      1: Step Time =    1.000,"PART-1-1",           641,         13.75,          -30.,            0.,NA,NA,"",            0.,  -4.91412E-39,   5.64259E-39,   15.7509E-03
C:/temp/dataset/8/6_8.odb,Step-1,Increment      1: Step Time =    1.000,"PART-1-1",           642,           15.,      -28.7625,            0.,NA,NA,"",   37.4161E-03,  -34.0638E-03,   15.4798E-03,   13.5081E-03
C:/temp/dataset/8/6_8.odb,Step-1,Increment      1: Step Time =    1.000,"PART-1-1",           643,       13.7773,      -27.6225,            0.,NA,NA,"",   45.5834E-03,  -44.1610E-03,   11.2987E-03,   9.49276E-03
C:/temp/dataset/8/6_8.odb,Step-1,Increment      1: Step Time =    1.000,"PART-1-1",           644,           15.,      -26.2875,            0.,NA,NA,"",   78.3501E-03,  -72.3977E-03,   29.9551E-03,   8.63568E-03
C:/temp/dataset/8/6_8.odb,Step-1,Increment      1: Step Time =    1.000,"PART-1-1",           645,       13.5913,      -25.0907,            0.,NA,NA,"",   77.5681E-03,  -74.5284E-03,   21.5020E-03,   7.67790E-03
C:/temp/dataset/8/6_8.odb,Step-1,Increment      1: Step Time =    1.000,"PART-1-1",           646,       12.3686,      -26.4257,            0.,NA,NA,"",   53.3044E-03,  -52.2173E-03,   10.7104E-03,   9.02936E-03
C:/temp/dataset/8/6_8.odb,Step-1,Increment      1: Step Time =    1.000,"PART-1-1",           647,       13.9603,      -22.6421,            0.,NA,NA,"",   95.3900E-03,  -91.1363E-03,   28.1680E-03,   7.31793E-03
C:/temp/dataset/8/6_8.odb,Step-1,Increment      1: Step Time =    1.000,"PART-1-1",           648,       12.5516,      -23.9202,            0.,NA,NA,"",   78.9679E-03,  -76.1780E-03,   20.8049E-03,   7.94176E-03
C:/temp/dataset/8/6_8.odb,Step-1,Increment      1: Step Time =    1.000,"PART-1-1",           649,           15.,      -23.8125,            0.,NA,NA,"",   97.1300E-03,  -91.9516E-03,   31.2911E-03,   6.74386E-03
C:/temp/dataset/8/6_8.odb,Step-1,Increment      1: Step Time =    1.000,"PART-1-1",           650,           15.,      -21.3375,            0.,NA,NA,"",   102.895E-03,  -98.6160E-03,   29.3628E-03,   6.61491E-03
C:/temp/dataset/8/6_8.odb,Step-1,Increment      1: Step Time =    1.000,"PART-1-1",           651,       7.29151,      -18.3998,            0.,NA,NA,"",   76.4338E-03,  -73.1154E-03,   22.2768E-03,   1.53102E-03
C:/temp/dataset/8/6_8.odb,Step-1,Increment      1: Step Time =    1.000,"PART-1-1",           652,       6.16221,      -17.3915,            0.,NA,NA,"",   78.1205E-03,  -75.5724E-03,   19.7894E-03,   1.33045E-03
C:/temp/dataset/8/6_8.odb,Step-1,Increment      1: Step Time =    1.000,"PART-1-1",           653,            5.,        -18.75,            0.,NA,NA,"",   70.9508E-03,  -69.6563E-03,   13.4913E-03,   2.19183E-03
C:/temp/dataset/8/6_8.odb,Step-1,Increment      1: Step Time =    1.000,"PART-1-1",           654,       6.12930,      -19.7583,            0.,NA,NA,"",   66.3737E-03,  -64.1020E-03,   17.2164E-03,   3.87418E-03
C:/temp/dataset/8/6_8.odb,Step-1,Increment      1: Step Time =    1.000,"PART-1-1",           655,       11.0004,      -17.5900,            0.,NA,NA,"",   84.2094E-03,  -78.5782E-03,   30.2767E-03,   1.07890E-03
C:/temp/dataset/8/6_8.odb,Step-1,Increment      1: Step Time =    1.000,"PART-1-1",           656,       9.51360,      -18.2945,            0.,NA,NA,"",   81.3022E-03,  -76.5521E-03,   27.3830E-03,   1.69373E-03
C:/temp/dataset/8/6_8.odb,Step-1,Increment      1: Step Time =    1.000,"PART-1-1",           657,       10.1108,      -19.3444,            0.,NA,NA,"",   81.0232E-03,  -76.1531E-03,   27.6670E-03,   2.76577E-03
C:/temp/dataset/8/6_8.odb,Step-1,Increment      1: Step Time =    1.000,"PART-1-1",           658,       11.5976,      -18.6398,            0.,NA,NA,"",   85.2119E-03,  -79.3238E-03,   31.1256E-03,   1.97247E-03
C:/temp/dataset/8/6_8.odb,Step-1,Increment      1: Step Time =    1.000,"PART-1-1",           659,       10.5605,      -11.7100,            0.,NA,NA,"",   85.8938E-03,  -81.2170E-03,   27.9563E-03,   450.497E-06
C:/temp/dataset/8/6_8.odb,Step-1,Increment      1: Step Time =    1.000,"PART-1-1",           660,       12.7627,      -11.5544,            0.,NA,NA,"",   86.1983E-03,  -80.9531E-03,   29.6098E-03,   234.658E-06
C:/temp/dataset/8/6_8.odb,Step-1,Increment      1: Step Time =    1.000,"PART-1-1",           661,       5.97841,      -7.48969,            0.,NA,NA,"",   85.5254E-03,  -81.9893E-03,   24.3380E-03,   193.105E-06
C:/temp/dataset/8/6_8.odb,Step-1,Increment      1: Step Time =    1.000,"PART-1-1",           662,            5.,         -8.75,            0.,NA,NA,"",   85.3072E-03,  -81.8524E-03,   24.0313E-03,   151.914E-06
C:/temp/dataset/8/6_8.odb,Step-1,Increment      1: Step Time =    1.000,"PART-1-1",           663,       6.97100,      -8.62604,            0.,NA,NA,"",   85.6238E-03,  -81.9418E-03,   24.8391E-03,   368.419E-06
C:/temp/dataset/8/6_8.odb,Step-1,Increment      1: Step Time =    1.000,"PART-1-1",           664,       13.4909,      -5.05443,            0.,NA,NA,"",   88.5193E-03,  -83.2535E-03,   30.0754E-03,   223.652E-06
C:/temp/dataset/8/6_8.odb,Step-1,Increment      1: Step Time =    1.000,"PART-1-1",           665,           15.,      -6.28125,            0.,NA,NA,"",   88.3463E-03,  -82.8331E-03,   30.7204E-03,   168.130E-06
C:/temp/dataset/8/6_8.odb,Step-1,Increment      1: Step Time =    1.000,"PART-1-1",           666,       12.6840,      -1.12825,            0.,NA,NA,"",   90.8626E-03,  -85.7015E-03,   30.1873E-03,   201.291E-06
C:/temp/dataset/8/6_8.odb,Step-1,Increment      1: Step Time =    1.000,"PART-1-1",           667,       13.8718,      -2.44066,            0.,NA,NA,"",   90.2688E-03,  -84.8255E-03,   30.8722E-03,   278.384E-06
C:/temp/dataset/8/6_8.odb,Step-1,Increment      1: Step Time =    1.000,"PART-1-1",           668,           15.,      -1.25625,            0.,NA,NA,"",   91.7037E-03,  -85.9016E-03,   32.1013E-03,   361.499E-06
C:/temp/dataset/8/6_8.odb,Step-1,Increment      1: Step Time =    1.000,"PART-1-1",           669,       5.31213,       3.65711,            0.,NA,NA,"",   93.6544E-03,  -90.7736E-03,   23.0502E-03,   291.832E-06
C:/temp/dataset/8/6_8.odb,Step-1,Increment      1: Step Time =    1.000,"PART-1-1",           670,       7.63904,       4.47127,            0.,NA,NA,"",   94.9391E-03,  -91.4823E-03,   25.3854E-03,   129.828E-06
C:/temp/dataset/8/6_8.odb,Step-1,Increment      1: Step Time =    1.000,"PART-1-1",           671,       6.09328,       5.22028,            0.,NA,NA,"",   95.4089E-03,  -92.4627E-03,   23.5269E-03,   244.864E-06
C:/temp/dataset/8/6_8.odb,Step-1,Increment      1: Step Time =    1.000,"PART-1-1",           672,       10.7996,       2.27920,            0.,NA,NA,"",   93.4654E-03,  -88.9040E-03,   28.8419E-03,   93.0150E-06
C:/temp/dataset/8/6_8.odb,Step-1,Increment      1: Step Time =    1.000,"PART-1-1",           673,       10.9658,       3.81330,            0.,NA,NA,"",   95.2420E-03,  -90.6813E-03,   29.1194E-03,   92.9840E-06
C:/temp/dataset/8/6_8.odb,Step-1,Increment      1: Step Time =    1.000,"PART-1-1",           674,       8.99860,       4.11099,            0.,NA,NA,"",   94.9168E-03,  -91.0158E-03,   26.9319E-03,   68.7356E-06
C:/temp/dataset/8/6_8.odb,Step-1,Increment      1: Step Time =    1.000,"PART-1-1",           675,           15.,       8.66250,            0.,NA,NA,"",   103.513E-03,  -97.4281E-03,   34.9685E-03,   247.592E-06
C:/temp/dataset/8/6_8.odb,Step-1,Increment      1: Step Time =    1.000,"PART-1-1",           676,       13.1757,       8.97628,            0.,NA,NA,"",   102.963E-03,  -97.7174E-03,   32.4460E-03,   162.340E-06
C:/temp/dataset/8/6_8.odb,Step-1,Increment      1: Step Time =    1.000,"PART-1-1",           677,       7.38641,       11.0911,            0.,NA,NA,"",   103.768E-03,  -100.863E-03,   24.3800E-03,   125.609E-06
C:/temp/dataset/8/6_8.odb,Step-1,Increment      1: Step Time =    1.000,"PART-1-1",           678,       6.27036,       12.4047,            0.,NA,NA,"",   105.443E-03,  -103.000E-03,   22.5679E-03,   132.286E-06
C:/temp/dataset/8/6_8.odb,Step-1,Increment      1: Step Time =    1.000,"PART-1-1",           679,            5.,         11.25,            0.,NA,NA,"",   103.374E-03,  -101.266E-03,   20.7729E-03,   196.253E-06
C:/temp/dataset/8/6_8.odb,Step-1,Increment      1: Step Time =    1.000,"PART-1-1",           680,       10.9828,       10.9826,            0.,NA,NA,"",   104.903E-03,  -100.659E-03,   29.5344E-03,   98.5908E-06
C:/temp/dataset/8/6_8.odb,Step-1,Increment      1: Step Time =    1.000,"PART-1-1",           681,       9.82750,       10.6157,            0.,NA,NA,"",   103.887E-03,  -100.072E-03,   27.8917E-03,   94.3365E-06
C:/temp/dataset/8/6_8.odb,Step-1,Increment      1: Step Time =    1.000,"PART-1-1",           682,       11.4264,       9.28562,            0.,NA,NA,"",   102.585E-03,  -98.0799E-03,   30.0677E-03,   107.427E-06
C:/temp/dataset/8/6_8.odb,Step-1,Increment      1: Step Time =    1.000,"PART-1-1",           683,       12.2770,       18.7828,            0.,NA,NA,"",   117.983E-03,  -113.625E-03,   31.7701E-03,   63.3208E-06
C:/temp/dataset/8/6_8.odb,Step-1,Increment      1: Step Time =    1.000,"PART-1-1",           684,       13.7541,       17.4065,            0.,NA,NA,"",   116.420E-03,  -111.306E-03,   34.1270E-03,   60.6218E-06
C:/temp/dataset/8/6_8.odb,Step-1,Increment      1: Step Time =    1.000,"PART-1-1",           685,           15.,       18.6938,            0.,NA,NA,"",   119.156E-03,  -113.509E-03,   36.2467E-03,   40.9296E-06
C:/temp/dataset/8/6_8.odb,Step-1,Increment      1: Step Time =    1.000,"PART-1-1",           686,       11.5052,       27.6683,            0.,NA,NA,"",   131.996E-03,  -128.430E-03,   30.4764E-03,   10.0134E-06
C:/temp/dataset/8/6_8.odb,Step-1,Increment      1: Step Time =    1.000,"PART-1-1",           687,       12.5910,       28.8229,            0.,NA,NA,"",   134.258E-03,  -130.323E-03,   32.2645E-03,   5.08872E-06
C:/temp/dataset/8/6_8.odb,Step-1,Increment      1: Step Time =    1.000,"PART-1-1",           688,         11.25,           30.,            0.,NA,NA,"",   135.621E-03,  -132.248E-03,   30.0573E-03,   8.75243E-06
C:/temp/dataset/8/6_8.odb,Step-1,Increment      1: Step Time =    1.000,"PART-1-1",           689,       7.66010,       22.7139,            0.,NA,NA,"",   122.801E-03,  -120.388E-03,   24.2273E-03,   53.7572E-06
C:/temp/dataset/8/6_8.odb,Step-1,Increment      1: Step Time =    1.000,"PART-1-1",           690,       8.77998,       20.9019,            0.,NA,NA,"",   120.173E-03,  -117.301E-03,   26.1151E-03,   73.5536E-06
C:/temp/dataset/8/6_8.odb,Step-1,Increment      1: Step Time =    1.000,"PART-1-1",           691,       9.04783,       22.2730,            0.,NA,NA,"",   122.501E-03,  -119.599E-03,   26.5073E-03,   49.1525E-06
C:/temp/dataset/8/6_8.odb,Step-1,Increment      1: Step Time =    1.000,"PART-1-1",           692,           15.,       28.7437,            0.,NA,NA,"",   135.144E-03,  -130.198E-03,   36.2276E-03,   1.38501E-06
C:/temp/dataset/8/6_8.odb,Step-1,Increment      1: Step Time =    1.000,"PART-1-1",           693,         13.75,           30.,            0.,NA,NA,"",   136.603E-03,  -132.260E-03,   34.1712E-03,   1.45187E-06
C:/temp/dataset/8/6_8.odb,Step-1,Increment      1: Step Time =    1.000,"PART-1-1",           694,       7.11219,       6.50494,            0.,NA,NA,"",   97.2569E-03,  -94.1087E-03,   24.5449E-03,   143.463E-06
C:/temp/dataset/8/6_8.odb,Step-1,Increment      1: Step Time =    1.000,"PART-1-1",           695,            5.,          6.25,            0.,NA,NA,"",   96.4898E-03,  -93.9521E-03,   21.9839E-03,   389.450E-06
C:/temp/dataset/8/6_8.odb,Step-1,Increment      1: Step Time =    1.000,"PART-1-1",           696,       9.07599,      -27.9731,            0.,NA,NA,"",   21.0252E-03,  -20.9873E-03,   1.26096E-03,   6.91133E-03
C:/temp/dataset/8/6_8.odb,Step-1,Increment      1: Step Time =    1.000,"PART-1-1",           697,          8.75,          -30.,            0.,NA,NA,"",            0.,  -6.07983E-39,  -549.211E-42,   6.51858E-03
C:/temp/dataset/8/6_8.odb,Step-1,Increment      1: Step Time =    1.000,"PART-1-1",           698,           15.,       3.71250,            0.,NA,NA,"",   96.9637E-03,  -90.9244E-03,   33.6854E-03,   323.631E-06
C:/temp/dataset/8/6_8.odb,Step-1,Increment      1: Step Time =    1.000,"PART-1-1",           699,       12.4115,       4.21065,            0.,NA,NA,"",   96.2961E-03,  -91.2402E-03,   30.7923E-03,   162.382E-06
C:/temp/dataset/8/6_8.odb,Step-1,Increment      1: Step Time =    1.000,"PART-1-1",           700,       8.79814,       6.59392,            0.,NA,NA,"",   97.8789E-03,  -94.1936E-03,   26.6053E-03,   89.3064E-06
C:/temp/dataset/8/6_8.odb,Step-1,Increment      1: Step Time =    1.000,"PART-1-1",           701,       9.28031,       5.28415,            0.,NA,NA,"",   96.3965E-03,  -92.4712E-03,   27.2279E-03,   69.8002E-06
C:/temp/dataset/8/6_8.odb,Step-1,Increment      1: Step Time =    1.000,"PART-1-1",           702,       10.3279,       5.61007,            0.,NA,NA,"",   97.1678E-03,  -92.9029E-03,   28.4718E-03,   75.3932E-06
C:/temp/dataset/8/6_8.odb,Step-1,Increment      1: Step Time =    1.000,"PART-1-1",           703,   700.033E-03,      -25.0201,            0.,NA,NA,"",   24.6489E-03,  -24.6434E-03,   519.971E-06,   3.19513E-03
C:/temp/dataset/8/6_8.odb,Step-1,Increment      1: Step Time =    1.000,"PART-1-1",           704,  -168.417E-03,      -23.8132,            0.,NA,NA,"",   28.0086E-03,  -27.9785E-03,   1.29733E-03,   2.96525E-03
C:/temp/dataset/8/6_8.odb,Step-1,Increment      1: Step Time =    1.000,"PART-1-1",           705,         -3.75,          -20.,            0.,NA,NA,"",   29.8875E-03,  -29.5289E-03,   4.61571E-03,   1.36645E-03
C:/temp/dataset/8/6_8.odb,Step-1,Increment      1: Step Time =    1.000,"PART-1-1",           706,      -4.92611,      -21.3374,            0.,NA,NA,"",   27.3956E-03,  -27.0825E-03,   4.13052E-03,   1.74892E-03
C:/temp/dataset/8/6_8.odb,Step-1,Increment      1: Step Time =    1.000,"PART-1-1",           707,         -1.25,          -30.,            0.,NA,NA,"",            0.,  -2.97062E-39,  -930.138E-42,   3.13573E-03
C:/temp/dataset/8/6_8.odb,Step-1,Increment      1: Step Time =    1.000,"PART-1-1",           708,      -1.25381,      -27.5694,            0.,NA,NA,"",   11.3049E-03,  -11.3008E-03,  -304.521E-06,   3.04546E-03
C:/temp/dataset/8/6_8.odb,Step-1,Increment      1: Step Time =    1.000,"PART-1-1",           709,      -7.47582,      -11.3801,            0.,NA,NA,"",   53.1702E-03,  -53.0298E-03,   3.86137E-03,   343.243E-06
C:/temp/dataset/8/6_8.odb,Step-1,Increment      1: Step Time =    1.000,"PART-1-1",           710,           -5.,        -11.25,            0.,NA,NA,"",   54.6827E-03,  -53.5158E-03,   11.2364E-03,   84.6867E-06
C:/temp/dataset/8/6_8.odb,Step-1,Increment      1: Step Time =    1.000,"PART-1-1",           711,      -6.22640,      -10.0809,            0.,NA,NA,"",   57.7667E-03,  -57.2834E-03,   7.45680E-03,   172.466E-06
C:/temp/dataset/8/6_8.odb,Step-1,Increment      1: Step Time =    1.000,"PART-1-1",           712,          -15.,        -13.75,            0.,NA,NA,"",   48.6468E-03,  -45.7903E-03,  -16.4244E-03,   306.376E-06
C:/temp/dataset/8/6_8.odb,Step-1,Increment      1: Step Time =    1.000,"PART-1-1",           713,      -12.5143,      -13.8326,            0.,NA,NA,"",   46.2004E-03,  -45.2555E-03,  -9.29596E-03,   357.154E-06
C:/temp/dataset/8/6_8.odb,Step-1,Increment      1: Step Time =    1.000,"PART-1-1",           714,      -10.0899,       13.8022,            0.,NA,NA,"",   109.169E-03,  -109.142E-03,  -2.41409E-03,   96.3199E-06
C:/temp/dataset/8/6_8.odb,Step-1,Increment      1: Step Time =    1.000,"PART-1-1",           715,      -8.82292,       12.5751,            0.,NA,NA,"",   107.366E-03,  -107.365E-03,  -386.983E-06,   94.7912E-06
C:/temp/dataset/8/6_8.odb,Step-1,Increment      1: Step Time =    1.000,"PART-1-1",           716,          -15.,         16.25,            0.,NA,NA,"",   112.851E-03,  -112.439E-03,  -9.64356E-03,   100.833E-06
C:/temp/dataset/8/6_8.odb,Step-1,Increment      1: Step Time =    1.000,"PART-1-1",           717,      -12.5861,       16.2442,            0.,NA,NA,"",   112.684E-03,  -112.516E-03,  -6.15703E-03,   88.0448E-06
C:/temp/dataset/8/6_8.odb,Step-1,Increment      1: Step Time =    1.000,"PART-1-1",           718,      -12.3822,       2.26742,            0.,NA,NA,"",   90.1057E-03,  -89.8079E-03,  -7.31957E-03,   198.941E-06
C:/temp/dataset/8/6_8.odb,Step-1,Increment      1: Step Time =    1.000,"PART-1-1",           719,      -11.8212,   294.554E-03,            0.,NA,NA,"",   86.0699E-03,  -85.8312E-03,  -6.40593E-03,   189.442E-06
C:/temp/dataset/8/6_8.odb,Step-1,Increment      1: Step Time =    1.000,"PART-1-1",           720,      -11.2086,       1.42526,            0.,NA,NA,"",   88.3414E-03,  -88.2042E-03,  -4.92094E-03,   143.199E-06
C:/temp/dataset/8/6_8.odb,Step-1,Increment      1: Step Time =    1.000,"PART-1-1",           721,         -3.75,           -5.,            0.,NA,NA,"",   76.5912E-03,  -75.8185E-03,   10.8517E-03,   964.105E-06
C:/temp/dataset/8/6_8.odb,Step-1,Increment      1: Step Time =    1.000,"PART-1-1",           722,      -4.14613,      -2.41365,            0.,NA,NA,"",   81.3999E-03,  -80.7158E-03,   10.5313E-03,   291.457E-06
C:/temp/dataset/8/6_8.odb,Step-1,Increment      1: Step Time =    1.000,"PART-1-1",           723,          3.75,           -5.,            0.,NA,NA,"",   83.3944E-03,  -80.5491E-03,   21.5981E-03,   855.228E-06
C:/temp/dataset/8/6_8.odb,Step-1,Increment      1: Step Time =    1.000,"PART-1-1",           724,       4.89490,      -3.81404,            0.,NA,NA,"",   85.5297E-03,  -82.2631E-03,   23.4119E-03,   513.981E-06
C:/temp/dataset/8/6_8.odb,Step-1,Increment      1: Step Time =    1.000,"PART-1-1",           725,          3.75,            5.,            0.,NA,NA,"",   94.9264E-03,  -92.4479E-03,   21.5500E-03,   202.076E-06
C:/temp/dataset/8/6_8.odb,Step-1,Increment      1: Step Time =    1.000,"PART-1-1",           726,       2.57777,       3.72098,            0.,NA,NA,"",   93.3687E-03,  -91.1111E-03,   20.4076E-03,   138.612E-06
C:/temp/dataset/8/6_8.odb,Step-1,Increment      1: Step Time =    1.000,"PART-1-1",           727,       4.13990,       2.37808,            0.,NA,NA,"",   92.0004E-03,  -89.2971E-03,   22.1383E-03,   216.727E-06
C:/temp/dataset/8/6_8.odb,Step-1,Increment      1: Step Time =    1.000,"PART-1-1",           728,       1.35715,       2.46333,            0.,NA,NA,"",   91.4856E-03,  -89.4902E-03,   19.0032E-03,   98.2305E-06
C:/temp/dataset/8/6_8.odb,Step-1,Increment      1: Step Time =    1.000,"PART-1-1",           729,          1.25,            5.,            0.,NA,NA,"",   94.8307E-03,  -92.9727E-03,   18.6798E-03,   276.722E-06
C:/temp/dataset/8/6_8.odb,Step-1,Increment      1: Step Time =    1.000,"PART-1-1",           730,         -1.25,           30.,            0.,NA,NA,"",   132.217E-03,  -131.824E-03,   10.1932E-03,   47.7362E-06
C:/temp/dataset/8/6_8.odb,Step-1,Increment      1: Step Time =    1.000,"PART-1-1",           731,      -1.39116,       27.2962,            0.,NA,NA,"",   128.150E-03,  -127.763E-03,   9.95150E-03,   8.72241E-06
C:/temp/dataset/8/6_8.odb,Step-1,Increment      1: Step Time =    1.000,"PART-1-1",           732,         -3.75,           20.,            0.,NA,NA,"",   117.312E-03,  -117.125E-03,   6.61697E-03,   152.567E-06
C:/temp/dataset/8/6_8.odb,Step-1,Increment      1: Step Time =    1.000,"PART-1-1",           733,      -2.58927,       21.4449,            0.,NA,NA,"",   119.388E-03,  -119.102E-03,   8.25842E-03,   95.9762E-06
C:/temp/dataset/8/6_8.odb,Step-1,Increment      1: Step Time =    1.000,"PART-1-1",           734,      -5.07185,       21.0145,            0.,NA,NA,"",   118.774E-03,  -118.682E-03,   4.65912E-03,   100.607E-06
C:/temp/dataset/8/6_8.odb,Step-1,Increment      1: Step Time =    1.000,"PART-1-1",           735,      -1.31816,       22.7417,            0.,NA,NA,"",   121.347E-03,  -120.925E-03,   10.1104E-03,   70.5366E-06
C:/temp/dataset/8/6_8.odb,Step-1,Increment      1: Step Time =    1.000,"PART-1-1",           736,         -1.25,           20.,            0.,NA,NA,"",   117.268E-03,  -116.811E-03,   10.3372E-03,   126.809E-06
C:/temp/dataset/8/6_8.odb,Step-1,Increment      1: Step Time =    1.000,"PART-1-1",           737,  -725.106E-03,       25.0611,            0.,NA,NA,"",   124.869E-03,  -124.388E-03,   10.9572E-03,   28.8427E-06
C:/temp/dataset/8/6_8.odb,Step-1,Increment      1: Step Time =    1.000,"PART-1-1",           738,      -2.17754,       23.9659,            0.,NA,NA,"",   123.107E-03,  -122.791E-03,   8.80543E-03,   43.6939E-06
C:/temp/dataset/8/6_8.odb,Step-1,Increment      1: Step Time =    1.000,"PART-1-1",           739,       6.30112,       14.9129,            0.,NA,NA,"",   109.414E-03,  -107.103E-03,   22.3689E-03,   94.6916E-06
C:/temp/dataset/8/6_8.odb,Step-1,Increment      1: Step Time =    1.000,"PART-1-1",           740,       7.60711,       16.0964,            0.,NA,NA,"",   111.758E-03,  -109.065E-03,   24.3884E-03,   89.4484E-06
C:/temp/dataset/8/6_8.odb,Step-1,Increment      1: Step Time =    1.000,"PART-1-1",           741,            5.,         16.25,            0.,NA,NA,"",   111.234E-03,  -109.402E-03,   20.1079E-03,   93.7855E-06
C:/temp/dataset/8/6_8.odb,Step-1,Increment      1: Step Time =    1.000,"PART-1-1",           742,       11.0485,       19.6309,            0.,NA,NA,"",   118.871E-03,  -115.076E-03,   29.7962E-03,   66.0725E-06
C:/temp/dataset/8/6_8.odb,Step-1,Increment      1: Step Time =    1.000,"PART-1-1",           743,       10.8767,       20.9415,            0.,NA,NA,"",   120.962E-03,  -117.307E-03,   29.5067E-03,   50.1295E-06
C:/temp/dataset/8/6_8.odb,Step-1,Increment      1: Step Time =    1.000,"PART-1-1",           744,       8.95178,       19.5912,            0.,NA,NA,"",   118.051E-03,  -115.054E-03,   26.4313E-03,   84.1708E-06
C:/temp/dataset/8/6_8.odb,Step-1,Increment      1: Step Time =    1.000,"PART-1-1",           745,      -10.0357,      -16.4531,            0.,NA,NA,"",   37.0706E-03,  -36.9782E-03,  -2.61594E-03,   433.466E-06
C:/temp/dataset/8/6_8.odb,Step-1,Increment      1: Step Time =    1.000,"PART-1-1",           746,         -8.75,          -30.,            0.,NA,NA,"",            0.,  -1.63862E-39,  -928.845E-42,   1.81579E-03
C:/temp/dataset/8/6_8.odb,Step-1,Increment      1: Step Time =    1.000,"PART-1-1",           747,      -8.42026,      -27.7162,            0.,NA,NA,"",   6.68103E-03,  -6.67032E-03,  -378.089E-06,   1.92428E-03
C:/temp/dataset/8/6_8.odb,Step-1,Increment      1: Step Time =    1.000,"PART-1-1",           748,       8.78655,      -4.15343,            0.,NA,NA,"",   87.2319E-03,  -83.1027E-03,   26.5206E-03,   310.377E-06
C:/temp/dataset/8/6_8.odb,Step-1,Increment      1: Step Time =    1.000,"PART-1-1",           749,       8.68406,      -5.73195,            0.,NA,NA,"",   86.5535E-03,  -82.4721E-03,   26.2652E-03,   396.649E-06
C:/temp/dataset/8/6_8.odb,Step-1,Increment      1: Step Time =    1.000,"PART-1-1",           750,            5.,        -13.75,            0.,NA,NA,"",   82.9767E-03,  -80.1000E-03,   21.6592E-03,   1.04535E-03
C:/temp/dataset/8/6_8.odb,Step-1,Increment      1: Step Time =    1.000,"PART-1-1",           751,       6.25620,      -14.9360,            0.,NA,NA,"",   82.7549E-03,  -79.7502E-03,   22.0969E-03,   926.091E-06
C:/temp/dataset/8/6_8.odb,Step-1,Increment      1: Step Time =    1.000,"PART-1-1",           752,       7.64552,      -13.5447,            0.,NA,NA,"",   84.5727E-03,  -80.8610E-03,   24.7799E-03,   671.916E-06
C:/temp/dataset/8/6_8.odb,Step-1,Increment      1: Step Time =    1.000,"PART-1-1",           753,       7.28908,      -20.5141,            0.,NA,NA,"",   66.6804E-03,  -64.0307E-03,   18.6103E-03,   4.48416E-03
C:/temp/dataset/8/6_8.odb,Step-1,Increment      1: Step Time =    1.000,"PART-1-1",           754,       5.05608,      -20.9168,            0.,NA,NA,"",   53.6506E-03,  -52.7547E-03,   9.76371E-03,   4.80574E-03
C:/temp/dataset/8/6_8.odb,Step-1,Increment      1: Step Time =    1.000,"PART-1-1",           755,       6.21587,      -21.6726,            0.,NA,NA,"",   55.2320E-03,  -53.8807E-03,   12.1425E-03,   4.79427E-03
C:/temp/dataset/8/6_8.odb,Step-1,Increment      1: Step Time =    1.000,"PART-1-1",           756,      -6.21032,      -20.1327,            0.,NA,NA,"",   27.9613E-03,  -27.5982E-03,   4.49113E-03,   922.272E-06
C:/temp/dataset/8/6_8.odb,Step-1,Increment      1: Step Time =    1.000,"PART-1-1",           757,      -7.27258,      -21.5724,            0.,NA,NA,"",   24.3851E-03,  -24.2816E-03,   2.24385E-03,   954.409E-06
C:/temp/dataset/8/6_8.odb,Step-1,Increment      1: Step Time =    1.000,"PART-1-1",           758,      -7.56906,       11.3132,            0.,NA,NA,"",   105.469E-03,  -105.455E-03,   1.71458E-03,   128.057E-06
C:/temp/dataset/8/6_8.odb,Step-1,Increment      1: Step Time =    1.000,"PART-1-1",           759,           -5.,         11.25,            0.,NA,NA,"",   105.339E-03,  -105.180E-03,   5.78783E-03,   216.025E-06
C:/temp/dataset/8/6_8.odb,Step-1,Increment      1: Step Time =    1.000,"PART-1-1",           760,          -15.,          8.75,            0.,NA,NA,"",   101.771E-03,  -101.191E-03,  -10.8537E-03,   256.729E-06
C:/temp/dataset/8/6_8.odb,Step-1,Increment      1: Step Time =    1.000,"PART-1-1",           761,      -12.2910,       8.63249,            0.,NA,NA,"",   101.430E-03,  -101.234E-03,  -6.29228E-03,   139.172E-06
C:/temp/dataset/8/6_8.odb,Step-1,Increment      1: Step Time =    1.000,"PART-1-1",           762,      -10.0463,       9.29253,            0.,NA,NA,"",   102.398E-03,  -102.371E-03,  -2.36205E-03,   91.8474E-06
C:/temp/dataset/8/6_8.odb,Step-1,Increment      1: Step Time =    1.000,"PART-1-1",           763,      -8.95480,       7.80674,            0.,NA,NA,"",   99.9457E-03,  -99.9448E-03,  -408.027E-06,   95.4748E-06
C:/temp/dataset/8/6_8.odb,Step-1,Increment      1: Step Time =    1.000,"PART-1-1",           764,      -8.82303,       10.1663,            0.,NA,NA,"",   103.740E-03,  -103.740E-03,  -283.731E-06,   103.967E-06
C:/temp/dataset/8/6_8.odb,Step-1,Increment      1: Step Time =    1.000,"PART-1-1",           765,          -15.,          3.75,            0.,NA,NA,"",   93.1597E-03,  -92.3566E-03,  -12.2065E-03,   354.180E-06
C:/temp/dataset/8/6_8.odb,Step-1,Increment      1: Step Time =    1.000,"PART-1-1",           766,      -12.9901,       3.46920,            0.,NA,NA,"",   92.4590E-03,  -92.0812E-03,  -8.35060E-03,   225.358E-06
C:/temp/dataset/8/6_8.odb,Step-1,Increment      1: Step Time =    1.000,"PART-1-1",           767,          -15.,         -1.25,            0.,NA,NA,"",   83.1543E-03,  -81.9544E-03,  -14.0753E-03,   469.403E-06
C:/temp/dataset/8/6_8.odb,Step-1,Increment      1: Step Time =    1.000,"PART-1-1",           768,      -12.5622,      -1.46868,            0.,NA,NA,"",   82.2951E-03,  -81.8612E-03,  -8.43894E-03,   246.287E-06
C:/temp/dataset/8/6_8.odb,Step-1,Increment      1: Step Time =    1.000,"PART-1-1",           769,      -9.58657,      -7.04159,            0.,NA,NA,"",   67.2153E-03,  -67.1896E-03,  -1.85880E-03,   403.523E-06
C:/temp/dataset/8/6_8.odb,Step-1,Increment      1: Step Time =    1.000,"PART-1-1",           770,      -10.0085,      -5.60753,            0.,NA,NA,"",   71.5464E-03,  -71.4897E-03,  -2.84724E-03,   326.994E-06
C:/temp/dataset/8/6_8.odb,Step-1,Increment      1: Step Time =    1.000,"PART-1-1",           771,      -11.4596,      -6.08275,            0.,NA,NA,"",   70.2144E-03,  -69.9067E-03,  -6.56560E-03,   295.313E-06
C:/temp/dataset/8/6_8.odb,Step-1,Increment      1: Step Time =    1.000,"PART-1-1",           772,           -5.,         -8.75,            0.,NA,NA,"",   62.5715E-03,  -61.5653E-03,   11.1765E-03,   187.070E-06
C:/temp/dataset/8/6_8.odb,Step-1,Increment      1: Step Time =    1.000,"PART-1-1",           773,      -6.19608,      -7.65780,            0.,NA,NA,"",   65.7211E-03,  -65.3297E-03,   7.16180E-03,   309.761E-06
C:/temp/dataset/8/6_8.odb,Step-1,Increment      1: Step Time =    1.000,"PART-1-1",           774,      -2.54672,      -1.24033,            0.,NA,NA,"",   84.2729E-03,  -83.2446E-03,   13.1253E-03,   286.038E-06
C:/temp/dataset/8/6_8.odb,Step-1,Increment      1: Step Time =    1.000,"PART-1-1",           775,       12.1686,       8.14789,            0.,NA,NA,"",   101.303E-03,  -96.4514E-03,   30.9744E-03,   133.878E-06
C:/temp/dataset/8/6_8.odb,Step-1,Increment      1: Step Time =    1.000,"PART-1-1",           776,       11.7736,       6.00742,            0.,NA,NA,"",   98.2520E-03,  -93.4797E-03,   30.2490E-03,   127.456E-06
C:/temp/dataset/8/6_8.odb,Step-1,Increment      1: Step Time =    1.000,"PART-1-1",           777,       2.58139,       1.19261,            0.,NA,NA,"",   90.1208E-03,  -87.7456E-03,   20.5540E-03,   144.441E-06
C:/temp/dataset/8/6_8.odb,Step-1,Increment      1: Step Time =    1.000,"PART-1-1",           778,      -8.87122,       6.40892,            0.,NA,NA,"",   97.5578E-03,  -97.5576E-03,  -188.705E-06,   98.9235E-06
C:/temp/dataset/8/6_8.odb,Step-1,Increment      1: Step Time =    1.000,"PART-1-1",           779,      -9.21124,       4.86121,            0.,NA,NA,"",   94.7857E-03,  -94.7826E-03,  -762.335E-06,   92.6966E-06
C:/temp/dataset/8/6_8.odb,Step-1,Increment      1: Step Time =    1.000,"PART-1-1",           780,      -7.77566,       4.46419,            0.,NA,NA,"",   93.9873E-03,  -93.9638E-03,   2.09848E-03,   159.626E-06
C:/temp/dataset/8/6_8.odb,Step-1,Increment      1: Step Time =    1.000,"PART-1-1",           781,      -7.43564,       6.01190,            0.,NA,NA,"",   96.8271E-03,  -96.7933E-03,   2.55781E-03,   141.277E-06
C:/temp/dataset/8/6_8.odb,Step-1,Increment      1: Step Time =    1.000,"PART-1-1",           782,      -11.3069,       27.9101,            0.,NA,NA,"",   128.688E-03,  -128.618E-03,  -4.25869E-03,   6.76974E-06
C:/temp/dataset/8/6_8.odb,Step-1,Increment      1: Step Time =    1.000,"PART-1-1",           783,      -10.0805,       29.0536,            0.,NA,NA,"",   130.263E-03,  -130.239E-03,  -2.53550E-03,   7.33069E-06
C:/temp/dataset/8/6_8.odb,Step-1,Increment      1: Step Time =    1.000,"PART-1-1",           784,        -11.25,           30.,            0.,NA,NA,"",   131.631E-03,  -131.565E-03,  -4.17790E-03,   6.68122E-06
C:/temp/dataset/8/6_8.odb,Step-1,Increment      1: Step Time =    1.000,"PART-1-1",           785,          -15.,         23.75,            0.,NA,NA,"",   123.143E-03,  -122.782E-03,  -9.41854E-03,   2.24682E-06
C:/temp/dataset/8/6_8.odb,Step-1,Increment      1: Step Time =    1.000,"PART-1-1",           786,      -12.0918,       23.7968,            0.,NA,NA,"",   122.957E-03,  -122.841E-03,  -5.34352E-03,   15.4985E-06
C:/temp/dataset/8/6_8.odb,Step-1,Increment      1: Step Time =    1.000,"PART-1-1",           787,      -8.63614,       22.0154,            0.,NA,NA,"",   120.298E-03,  -120.297E-03,  -405.059E-06,   61.4082E-06
C:/temp/dataset/8/6_8.odb,Step-1,Increment      1: Step Time =    1.000,"PART-1-1",           788,      -9.89938,       20.9751,            0.,NA,NA,"",   118.943E-03,  -118.923E-03,  -2.18509E-03,   63.2628E-06
C:/temp/dataset/8/6_8.odb,Step-1,Increment      1: Step Time =    1.000,"PART-1-1",           789,      -7.50670,       20.8576,            0.,NA,NA,"",   118.666E-03,  -118.659E-03,   1.25426E-03,   92.4291E-06
C:/temp/dataset/8/6_8.odb,Step-1,Increment      1: Step Time =    1.000,"PART-1-1",           790,      -11.2460,       19.8989,            0.,NA,NA,"",   117.563E-03,  -117.491E-03,  -4.11895E-03,   63.5723E-06
C:/temp/dataset/8/6_8.odb,Step-1,Increment      1: Step Time =    1.000,"PART-1-1",           791,      -11.3323,       17.4620,            0.,NA,NA,"",   114.277E-03,  -114.198E-03,  -4.26076E-03,   82.1909E-06
C:/temp/dataset/8/6_8.odb,Step-1,Increment      1: Step Time =    1.000,"PART-1-1",           792,      -6.30838,       21.9713,            0.,NA,NA,"",   120.143E-03,  -120.108E-03,   2.89125E-03,   73.1166E-06
C:/temp/dataset/8/6_8.odb,Step-1,Increment      1: Step Time =    1.000,"PART-1-1",           793,      -2.23761,       26.0591,            0.,NA,NA,"",   126.213E-03,  -125.913E-03,   8.69496E-03,   16.3264E-06
C:/temp/dataset/8/6_8.odb,Step-1,Increment      1: Step Time =    1.000,"PART-1-1",           794,       8.85967,       17.2477,            0.,NA,NA,"",   114.096E-03,  -111.014E-03,   26.3411E-03,   92.2054E-06
C:/temp/dataset/8/6_8.odb,Step-1,Increment      1: Step Time =    1.000,"PART-1-1",           795,       10.0793,       18.0998,            0.,NA,NA,"",   115.960E-03,  -112.464E-03,   28.2574E-03,   88.2332E-06
C:/temp/dataset/8/6_8.odb,Step-1,Increment      1: Step Time =    1.000,"PART-1-1",           796,          3.75,           30.,            0.,NA,NA,"",   133.260E-03,  -132.054E-03,   17.8896E-03,   45.0946E-06
C:/temp/dataset/8/6_8.odb,Step-1,Increment      1: Step Time =    1.000,"PART-1-1",           797,       3.75100,       27.5475,            0.,NA,NA,"",   129.431E-03,  -128.193E-03,   17.8628E-03,   13.2772E-06
C:/temp/dataset/8/6_8.odb,Step-1,Increment      1: Step Time =    1.000,"PART-1-1",           798,       6.92451,       23.6804,            0.,NA,NA,"",   124.147E-03,  -121.998E-03,   22.9983E-03,   43.0499E-06
C:/temp/dataset/8/6_8.odb,Step-1,Increment      1: Step Time =    1.000,"PART-1-1",           799,       5.85780,       24.9146,            0.,NA,NA,"",   125.819E-03,  -124.013E-03,   21.2437E-03,   27.4463E-06
C:/temp/dataset/8/6_8.odb,Step-1,Increment      1: Step Time =    1.000,"PART-1-1",           800,       4.79652,       23.7913,            0.,NA,NA,"",   123.802E-03,  -122.249E-03,   19.5463E-03,   37.5855E-06
C:/temp/dataset/8/6_8.odb,Step-1,Increment      1: Step Time =    1.000,"PART-1-1",           801,       3.65083,       25.0814,            0.,NA,NA,"",   125.577E-03,  -124.322E-03,   17.7067E-03,   23.6961E-06
C:/temp/dataset/8/6_8.odb,Step-1,Increment      1: Step Time =    1.000,"PART-1-1",           802,       4.89856,       26.2814,            0.,NA,NA,"",   127.726E-03,  -126.199E-03,   19.6893E-03,   15.3489E-06
C:/temp/dataset/8/6_8.odb,Step-1,Increment      1: Step Time =    1.000,"PART-1-1",           803,         -8.75,           30.,            0.,NA,NA,"",   131.592E-03,  -131.590E-03,  -656.926E-06,   15.4211E-06
C:/temp/dataset/8/6_8.odb,Step-1,Increment      1: Step Time =    1.000,"PART-1-1",           804,      -8.99895,       28.0861,            0.,NA,NA,"",   128.876E-03,  -128.872E-03,  -1.01368E-03,   10.1981E-06
C:/temp/dataset/8/6_8.odb,Step-1,Increment      1: Step Time =    1.000,"PART-1-1",           805,      -11.0560,       7.77083,            0.,NA,NA,"",   99.9567E-03,  -99.8690E-03,  -4.18713E-03,   103.109E-06
C:/temp/dataset/8/6_8.odb,Step-1,Increment      1: Step Time =    1.000,"PART-1-1",           806,      -9.90307,       2.86734,            0.,NA,NA,"",   91.0838E-03,  -91.0598E-03,  -2.08946E-03,   105.946E-06
C:/temp/dataset/8/6_8.odb,Step-1,Increment      1: Step Time =    1.000,"PART-1-1",           807,      -11.2313,       2.93204,            0.,NA,NA,"",   91.2971E-03,  -91.1686E-03,  -4.84254E-03,   130.049E-06
C:/temp/dataset/8/6_8.odb,Step-1,Increment      1: Step Time =    1.000,"PART-1-1",           808,      -9.88044,       1.36056,            0.,NA,NA,"",   88.1347E-03,  -88.1113E-03,  -2.03275E-03,   116.514E-06
C:/temp/dataset/8/6_8.odb,Step-1,Increment      1: Step Time =    1.000,"PART-1-1",           809,           -5.,          6.25,            0.,NA,NA,"",   97.2580E-03,  -96.9986E-03,   7.09875E-03,   384.913E-06
C:/temp/dataset/8/6_8.odb,Step-1,Increment      1: Step Time =    1.000,"PART-1-1",           810,      -5.99693,       4.86688,            0.,NA,NA,"",   94.7133E-03,  -94.5517E-03,   5.52965E-03,   292.698E-06
C:/temp/dataset/8/6_8.odb,Step-1,Increment      1: Step Time =    1.000,"PART-1-1",           811,           -5.,         -6.25,            0.,NA,NA,"",   70.6264E-03,  -69.8716E-03,   10.2976E-03,   734.543E-06
C:/temp/dataset/8/6_8.odb,Step-1,Increment      1: Step Time =    1.000,"PART-1-1",           812,      -7.47931,      -6.74416,            0.,NA,NA,"",   68.4643E-03,  -68.3748E-03,   3.49905E-03,   429.521E-06
C:/temp/dataset/8/6_8.odb,Step-1,Increment      1: Step Time =    1.000,"PART-1-1",           813,      -11.2714,      -15.1219,            0.,NA,NA,"",   41.5318E-03,  -41.1205E-03,  -5.83051E-03,   396.479E-06
C:/temp/dataset/8/6_8.odb,Step-1,Increment      1: Step Time =    1.000,"PART-1-1",           814,          -15.,        -18.75,            0.,NA,NA,"",   34.5136E-03,  -31.4487E-03,  -14.2186E-03,   605.807E-06
C:/temp/dataset/8/6_8.odb,Step-1,Increment      1: Step Time =    1.000,"PART-1-1",           815,           -5.,        -18.75,            0.,NA,NA,"",   31.8496E-03,  -30.9662E-03,   7.44927E-03,   1.36285E-03
C:/temp/dataset/8/6_8.odb,Step-1,Increment      1: Step Time =    1.000,"PART-1-1",           816,          -15.,        -23.75,            0.,NA,NA,"",   21.5972E-03,  -18.5685E-03,  -11.0296E-03,   901.537E-06
C:/temp/dataset/8/6_8.odb,Step-1,Increment      1: Step Time =    1.000,"PART-1-1",           817,      -10.9002,      -24.6942,            0.,NA,NA,"",   15.1476E-03,  -14.9345E-03,  -2.53138E-03,   1.14694E-03
C:/temp/dataset/8/6_8.odb,Step-1,Increment      1: Step Time =    1.000,"PART-1-1",           818,      -9.92286,      -25.5060,            0.,NA,NA,"",   12.8367E-03,  -12.7709E-03,  -1.29845E-03,   1.42010E-03
C:/temp/dataset/8/6_8.odb,Step-1,Increment      1: Step Time =    1.000,"PART-1-1",           819,      -9.17441,      -24.3962,            0.,NA,NA,"",   16.2020E-03,  -16.1878E-03,  -678.758E-06,   1.25989E-03
C:/temp/dataset/8/6_8.odb,Step-1,Increment      1: Step Time =    1.000,"PART-1-1",           820,      -10.1518,      -23.5844,            0.,NA,NA,"",   18.2014E-03,  -18.1087E-03,  -1.83411E-03,   941.874E-06
C:/temp/dataset/8/6_8.odb,Step-1,Increment      1: Step Time =    1.000,"PART-1-1",           821,      -4.84440,      -26.4970,            0.,NA,NA,"",   12.8259E-03,  -12.8224E-03,   298.773E-06,   2.41049E-03
C:/temp/dataset/8/6_8.odb,Step-1,Increment      1: Step Time =    1.000,"PART-1-1",           822,      -2.50369,      -26.4071,            0.,NA,NA,"",   15.1841E-03,  -15.1836E-03,   124.363E-06,   2.79417E-03
C:/temp/dataset/8/6_8.odb,Step-1,Increment      1: Step Time =    1.000,"PART-1-1",           823,      -1.38955,      -25.1134,            0.,NA,NA,"",   21.4216E-03,  -21.4146E-03,   549.027E-06,   2.93236E-03
C:/temp/dataset/8/6_8.odb,Step-1,Increment      1: Step Time =    1.000,"PART-1-1",           824,  -139.682E-03,      -26.2756,            0.,NA,NA,"",   18.0611E-03,  -18.0609E-03,  -92.7727E-06,   3.13056E-03
C:/temp/dataset/8/6_8.odb,Step-1,Increment      1: Step Time =    1.000,"PART-1-1",           825,          3.75,          -30.,            0.,NA,NA,"",            0.,  -3.99177E-39,  -1.10200E-39,   4.25413E-03
C:/temp/dataset/8/6_8.odb,Step-1,Increment      1: Step Time =    1.000,"PART-1-1",           826,       4.16188,      -27.2827,            0.,NA,NA,"",   17.7199E-03,  -17.7194E-03,   137.314E-06,   4.19503E-03
C:/temp/dataset/8/6_8.odb,Step-1,Increment      1: Step Time =    1.000,"PART-1-1",           827,       5.43104,      -24.9919,            0.,NA,NA,"",   34.4904E-03,  -34.3121E-03,   3.50255E-03,   4.33707E-03
C:/temp/dataset/8/6_8.odb,Step-1,Increment      1: Step Time =    1.000,"PART-1-1",           828,          3.75,          -20.,            0.,NA,NA,"",   51.5867E-03,  -50.8478E-03,   8.69956E-03,   5.64125E-03
C:/temp/dataset/8/6_8.odb,Step-1,Increment      1: Step Time =    1.000,"PART-1-1",           829,       3.87291,      -22.3056,            0.,NA,NA,"",   43.4148E-03,  -43.1108E-03,   5.12875E-03,   3.42250E-03
C:/temp/dataset/8/6_8.odb,Step-1,Increment      1: Step Time =    1.000,"PART-1-1",           830,       4.97088,      -23.9263,            0.,NA,NA,"",   39.0206E-03,  -38.7451E-03,   4.62826E-03,   3.91632E-03
C:/temp/dataset/8/6_8.odb,Step-1,Increment      1: Step Time =    1.000,"PART-1-1",           831,       6.87342,      -24.4091,            0.,NA,NA,"",   43.0282E-03,  -42.4870E-03,   6.80301E-03,   5.03072E-03
C:/temp/dataset/8/6_8.odb,Step-1,Increment      1: Step Time =    1.000,"PART-1-1",           832,       6.41326,      -23.3435,            0.,NA,NA,"",   47.4567E-03,  -46.6868E-03,   8.51360E-03,   4.73232E-03
C:/temp/dataset/8/6_8.odb,Step-1,Increment      1: Step Time =    1.000,"PART-1-1",           833,       9.46100,      -26.0738,            0.,NA,NA,"",   41.1733E-03,  -40.7597E-03,   5.82099E-03,   7.18312E-03
C:/temp/dataset/8/6_8.odb,Step-1,Increment      1: Step Time =    1.000,"PART-1-1",           834,       10.2673,      -27.1968,            0.,NA,NA,"",   33.0620E-03,  -32.8719E-03,   3.54046E-03,   7.97685E-03
C:/temp/dataset/8/6_8.odb,Step-1,Increment      1: Step Time =    1.000,"PART-1-1",           835,       7.41841,      -16.0775,            0.,NA,NA,"",   82.3096E-03,  -78.8040E-03,   23.7655E-03,   655.259E-06
C:/temp/dataset/8/6_8.odb,Step-1,Increment      1: Step Time =    1.000,"PART-1-1",           836,            5.,        -16.25,            0.,NA,NA,"",   79.5379E-03,  -77.3799E-03,   18.4017E-03,   1.72914E-03
C:/temp/dataset/8/6_8.odb,Step-1,Increment      1: Step Time =    1.000,"PART-1-1",           837,            5.,         -6.25,            0.,NA,NA,"",   85.4934E-03,  -82.0750E-03,   23.9335E-03,   374.353E-06
C:/temp/dataset/8/6_8.odb,Step-1,Increment      1: Step Time =    1.000,"PART-1-1",           838,       7.32831,      -6.19648,            0.,NA,NA,"",   85.8889E-03,  -82.1296E-03,   25.1321E-03,   410.611E-06
C:/temp/dataset/8/6_8.odb,Step-1,Increment      1: Step Time =    1.000,"PART-1-1",           839,       6.34990,      -4.95679,            0.,NA,NA,"",   85.6405E-03,  -82.0633E-03,   24.4930E-03,   540.975E-06
C:/temp/dataset/8/6_8.odb,Step-1,Increment      1: Step Time =    1.000,"PART-1-1",           840,            5.,         13.75,            0.,NA,NA,"",   107.208E-03,  -105.252E-03,   20.3866E-03,   145.857E-06
C:/temp/dataset/8/6_8.odb,Step-1,Increment      1: Step Time =    1.000,"PART-1-1",           841,       7.57148,       13.5676,            0.,NA,NA,"",   107.649E-03,  -104.833E-03,   24.4631E-03,   100.634E-06
C:/temp/dataset/8/6_8.odb,Step-1,Increment      1: Step Time =    1.000,"PART-1-1",           842,           15.,       23.7188,            0.,NA,NA,"",   127.211E-03,  -121.931E-03,   36.2671E-03,   8.82968E-06
C:/temp/dataset/8/6_8.odb,Step-1,Increment      1: Step Time =    1.000,"PART-1-1",           843,       12.7096,       24.0554,            0.,NA,NA,"",   126.729E-03,  -122.496E-03,   32.4797E-03,   8.01056E-06
C:/temp/dataset/8/6_8.odb,Step-1,Increment      1: Step Time =    1.000,"PART-1-1",           844,           15.,      -11.3062,            0.,NA,NA,"",   86.5217E-03,  -80.8674E-03,   30.7648E-03,   150.280E-06
C:/temp/dataset/8/6_8.odb,Step-1,Increment      1: Step Time =    1.000,"PART-1-1",           845,           15.,      -3.76875,            0.,NA,NA,"",   89.7446E-03,  -84.1107E-03,   31.2968E-03,   305.787E-06
C:/temp/dataset/8/6_8.odb,Step-1,Increment      1: Step Time =    1.000,"PART-1-1",           846,       9.87633,      -16.1616,            0.,NA,NA,"",   84.0800E-03,  -79.1435E-03,   28.3860E-03,   624.366E-06
C:/temp/dataset/8/6_8.odb,Step-1,Increment      1: Step Time =    1.000,"PART-1-1",           847,       8.51452,      -17.2877,            0.,NA,NA,"",   81.5402E-03,  -77.3442E-03,   25.8201E-03,   627.585E-06
C:/temp/dataset/8/6_8.odb,Step-1,Increment      1: Step Time =    1.000,"PART-1-1",           848,       8.29059,      -19.4066,            0.,NA,NA,"",   75.4195E-03,  -71.6930E-03,   23.4138E-03,   2.79151E-03
C:/temp/dataset/8/6_8.odb,Step-1,Increment      1: Step Time =    1.000,"PART-1-1",           849,       8.55616,      -8.48630,            0.,NA,NA,"",   86.0262E-03,  -82.0024E-03,   26.0019E-03,   454.858E-06
C:/temp/dataset/8/6_8.odb,Step-1,Increment      1: Step Time =    1.000,"PART-1-1",           850,       9.61754,      -8.87754,            0.,NA,NA,"",   86.2433E-03,  -81.9447E-03,   26.8884E-03,   432.492E-06
C:/temp/dataset/8/6_8.odb,Step-1,Increment      1: Step Time =    1.000,"PART-1-1",           851,       9.02908,      -7.15658,            0.,NA,NA,"",   86.3543E-03,  -82.2078E-03,   26.4373E-03,   447.444E-06
C:/temp/dataset/8/6_8.odb,Step-1,Increment      1: Step Time =    1.000,"PART-1-1",           852,           15.,       16.1812,            0.,NA,NA,"",   115.095E-03,  -109.283E-03,   36.1112E-03,   89.6427E-06
C:/temp/dataset/8/6_8.odb,Step-1,Increment      1: Step Time =    1.000,"PART-1-1",           853,       9.89201,       25.6129,            0.,NA,NA,"",   128.138E-03,  -125.079E-03,   27.8303E-03,   15.2610E-06
C:/temp/dataset/8/6_8.odb,Step-1,Increment      1: Step Time =    1.000,"PART-1-1",           854,       8.89238,       24.9206,            0.,NA,NA,"",   126.701E-03,  -123.963E-03,   26.1964E-03,   22.7150E-06
C:/temp/dataset/8/6_8.odb,Step-1,Increment      1: Step Time =    1.000,"PART-1-1",           855,       9.60238,       23.8702,            0.,NA,NA,"",   125.257E-03,  -122.229E-03,   27.3773E-03,   26.5099E-06
C:/temp/dataset/8/6_8.odb,Step-1,Increment      1: Step Time =    1.000,"PART-1-1",           856,       10.6020,       24.5625,            0.,NA,NA,"",   126.716E-03,  -123.351E-03,   29.0080E-03,   16.3811E-06
C:/temp/dataset/8/6_8.odb,Step-1,Increment      1: Step Time =    1.000,"PART-1-1",           857,       10.8145,      -1.23275,            0.,NA,NA,"",   90.0722E-03,  -85.4263E-03,   28.5543E-03,   131.591E-06
C:/temp/dataset/8/6_8.odb,Step-1,Increment      1: Step Time =    1.000,"PART-1-1",           858,       11.5759,  -144.200E-03,            0.,NA,NA,"",   91.3120E-03,  -86.4630E-03,   29.3602E-03,   149.637E-06
C:/temp/dataset/8/6_8.odb,Step-1,Increment      1: Step Time =    1.000,"PART-1-1",           859,       8.92207,      -9.93164,            0.,NA,NA,"",   85.9174E-03,  -81.7921E-03,   26.3031E-03,   469.079E-06
C:/temp/dataset/8/6_8.odb,Step-1,Increment      1: Step Time =    1.000,"PART-1-1",           860,       9.92328,      -10.6623,            0.,NA,NA,"",   86.0070E-03,  -81.5795E-03,   27.2392E-03,   445.244E-06
C:/temp/dataset/8/6_8.odb,Step-1,Increment      1: Step Time =    1.000,"PART-1-1",           861,       10.2741,      -21.0971,            0.,NA,NA,"",   77.6977E-03,  -73.7238E-03,   24.5302E-03,   5.01906E-03
C:/temp/dataset/8/6_8.odb,Step-1,Increment      1: Step Time =    1.000,"PART-1-1",           862,       9.54695,      -22.4905,            0.,NA,NA,"",   67.9082E-03,  -65.3693E-03,   18.3951E-03,   5.97019E-03
C:/temp/dataset/8/6_8.odb,Step-1,Increment      1: Step Time =    1.000,"PART-1-1",           863,       10.5655,      -23.0186,            0.,NA,NA,"",   71.0569E-03,  -68.5212E-03,   18.8131E-03,   6.76293E-03
C:/temp/dataset/8/6_8.odb,Step-1,Increment      1: Step Time =    1.000,"PART-1-1",           864,       9.19444,      -24.7163,            0.,NA,NA,"",   51.4943E-03,  -50.5517E-03,   9.80759E-03,   6.56331E-03
C:/temp/dataset/8/6_8.odb,Step-1,Increment      1: Step Time =    1.000,"PART-1-1",           865,       11.2358,      -25.7476,            0.,NA,NA,"",   53.8571E-03,  -52.9210E-03,   9.99761E-03,   8.00014E-03
C:/temp/dataset/8/6_8.odb,Step-1,Increment      1: Step Time =    1.000,"PART-1-1",           866,       10.9693,      -24.3901,            0.,NA,NA,"",   64.3033E-03,  -62.6467E-03,   14.5018E-03,   7.62739E-03
C:/temp/dataset/8/6_8.odb,Step-1,Increment      1: Step Time =    1.000,"PART-1-1",           867,       12.4335,       10.1140,            0.,NA,NA,"",   104.257E-03,  -99.3727E-03,   31.5369E-03,   127.799E-06
C:/temp/dataset/8/6_8.odb,Step-1,Increment      1: Step Time =    1.000,"PART-1-1",           868,       7.92075,       5.64444,            0.,NA,NA,"",   96.4167E-03,  -92.9558E-03,   25.6005E-03,   109.864E-06
C:/temp/dataset/8/6_8.odb,Step-1,Increment      1: Step Time =    1.000,"PART-1-1",           869,       7.98957,       7.45442,            0.,NA,NA,"",   98.7576E-03,  -95.3977E-03,   25.5411E-03,   132.222E-06
C:/temp/dataset/8/6_8.odb,Step-1,Increment      1: Step Time =    1.000,"PART-1-1",           870,       8.32878,      -21.4218,            0.,NA,NA,"",   66.8207E-03,  -64.1119E-03,   18.8325E-03,   5.17901E-03
C:/temp/dataset/8/6_8.odb,Step-1,Increment      1: Step Time =    1.000,"PART-1-1",           871,       7.29628,      -22.4795,            0.,NA,NA,"",   56.1480E-03,  -54.6304E-03,   12.9658E-03,   5.23712E-03
C:/temp/dataset/8/6_8.odb,Step-1,Increment      1: Step Time =    1.000,"PART-1-1",           872,       8.51445,      -23.5482,            0.,NA,NA,"",   56.0686E-03,  -54.6752E-03,   12.4226E-03,   6.06047E-03
C:/temp/dataset/8/6_8.odb,Step-1,Increment      1: Step Time =    1.000,"PART-1-1",           873,       8.18845,  -488.883E-03,            0.,NA,NA,"",   89.8246E-03,  -85.8925E-03,   26.2857E-03,   97.1092E-06
C:/temp/dataset/8/6_8.odb,Step-1,Increment      1: Step Time =    1.000,"PART-1-1",           874,       7.03757,  -99.4150E-03,            0.,NA,NA,"",   89.8618E-03,  -86.2478E-03,   25.2282E-03,   146.625E-06
C:/temp/dataset/8/6_8.odb,Step-1,Increment      1: Step Time =    1.000,"PART-1-1",           875,       6.67521,      -1.55702,            0.,NA,NA,"",   88.2957E-03,  -84.6967E-03,   24.9519E-03,   175.989E-06
C:/temp/dataset/8/6_8.odb,Step-1,Increment      1: Step Time =    1.000,"PART-1-1",           876,       7.82608,      -1.94649,            0.,NA,NA,"",   88.3720E-03,  -84.4780E-03,   25.9435E-03,   168.374E-06
C:/temp/dataset/8/6_8.odb,Step-1,Increment      1: Step Time =    1.000,"PART-1-1",           877,       10.0503,   625.537E-03,            0.,NA,NA,"",   91.5053E-03,  -87.1114E-03,   28.0148E-03,   73.6762E-06
C:/temp/dataset/8/6_8.odb,Step-1,Increment      1: Step Time =    1.000,"PART-1-1",           878,       11.6011,       12.1291,            0.,NA,NA,"",   106.926E-03,  -102.488E-03,   30.4828E-03,   99.6130E-06
C:/temp/dataset/8/6_8.odb,Step-1,Increment      1: Step Time =    1.000,"PART-1-1",           879,       9.33028,      -20.3144,            0.,NA,NA,"",   75.9461E-03,  -71.9918E-03,   24.1866E-03,   3.89935E-03
C:/temp/dataset/8/6_8.odb,Step-1,Increment      1: Step Time =    1.000,"PART-1-1",           880,       7.30556,      -3.67465,            0.,NA,NA,"",   86.8343E-03,  -83.0363E-03,   25.4001E-03,   301.586E-06
C:/temp/dataset/8/6_8.odb,Step-1,Increment      1: Step Time =    1.000,"PART-1-1",           881,       5.85057,      -2.53190,            0.,NA,NA,"",   87.0787E-03,  -83.6361E-03,   24.2425E-03,   240.827E-06
C:/temp/dataset/8/6_8.odb,Step-1,Increment      1: Step Time =    1.000,"PART-1-1",           882,       5.20819,       1.03681,            0.,NA,NA,"",   90.6257E-03,  -87.5588E-03,   23.3768E-03,   191.729E-06
C:/temp/dataset/8/6_8.odb,Step-1,Increment      1: Step Time =    1.000,"PART-1-1",           883,      -5.71863,       2.55200,            0.,NA,NA,"",   90.3295E-03,  -90.0817E-03,   6.68637E-03,   293.183E-06
C:/temp/dataset/8/6_8.odb,Step-1,Increment      1: Step Time =    1.000,"PART-1-1",           884,      -6.86716,       3.62545,            0.,NA,NA,"",   92.3714E-03,  -92.2822E-03,   4.05916E-03,   247.213E-06
C:/temp/dataset/8/6_8.odb,Step-1,Increment      1: Step Time =    1.000,"PART-1-1",           885,      -8.17623,      -23.0651,            0.,NA,NA,"",   20.2652E-03,  -20.2569E-03,   580.895E-06,   1.16912E-03
C:/temp/dataset/8/6_8.odb,Step-1,Increment      1: Step Time =    1.000,"PART-1-1",           886,      -9.67300,      -21.9623,            0.,NA,NA,"",   22.4581E-03,  -22.4226E-03,  -1.26391E-03,   671.696E-06
C:/temp/dataset/8/6_8.odb,Step-1,Increment      1: Step Time =    1.000,"PART-1-1",           887,       7.67333,      -7.62111,            0.,NA,NA,"",   85.9173E-03,  -82.0920E-03,   25.3515E-03,   414.994E-06
C:/temp/dataset/8/6_8.odb,Step-1,Increment      1: Step Time =    1.000,"PART-1-1",           888,       5.33284,      -22.5365,            0.,NA,NA,"",   47.2862E-03,  -46.6344E-03,   7.82448E-03,   4.00534E-03
C:/temp/dataset/8/6_8.odb,Step-1,Increment      1: Step Time =    1.000,"PART-1-1",           889,       8.54152,       23.5352,            0.,NA,NA,"",   124.379E-03,  -121.706E-03,   25.6465E-03,   37.9915E-06
C:/temp/dataset/8/6_8.odb,Step-1,Increment      1: Step Time =    1.000,"PART-1-1",           890,       10.1087,       22.6080,            0.,NA,NA,"",   123.398E-03,  -120.126E-03,   28.2291E-03,   38.5226E-06
C:/temp/dataset/8/6_8.odb,Step-1,Increment      1: Step Time =    1.000,"PART-1-1",           891,      -9.54555,       23.1667,            0.,NA,NA,"",   121.935E-03,  -121.923E-03,  -1.73088E-03,   37.8295E-06
C:/temp/dataset/8/6_8.odb,Step-1,Increment      1: Step Time =    1.000,"PART-1-1",           892,      -7.32935,       22.8876,            0.,NA,NA,"",   121.457E-03,  -121.449E-03,   1.41803E-03,   55.5048E-06
C:/temp/dataset/8/6_8.odb,Step-1,Increment      1: Step Time =    1.000,"PART-1-1",           893,      -10.1333,       27.3168,            0.,NA,NA,"",   127.805E-03,  -127.778E-03,  -2.60888E-03,   7.89682E-06
C:/temp/dataset/8/6_8.odb,Step-1,Increment      1: Step Time =    1.000,"PART-1-1",           894,      -10.9914,       25.8301,            0.,NA,NA,"",   125.737E-03,  -125.680E-03,  -3.80768E-03,   8.16912E-06
C:/temp/dataset/8/6_8.odb,Step-1,Increment      1: Step Time =    1.000,"PART-1-1",           895,      -11.4574,      -26.3004,            0.,NA,NA,"",   10.5892E-03,  -10.3034E-03,  -2.44358E-03,   1.42847E-03
C:/temp/dataset/8/6_8.odb,Step-1,Increment      1: Step Time =    1.000,"PART-1-1",           896,       7.85383,      -9.49123,            0.,NA,NA,"",   85.7235E-03,  -81.8709E-03,   25.4100E-03,   429.382E-06
C:/temp/dataset/8/6_8.odb,Step-1,Increment      1: Step Time =    1.000,"PART-1-1",           897,       8.45015,      -11.4354,            0.,NA,NA,"",   85.5322E-03,  -81.5252E-03,   25.8727E-03,   510.160E-06
C:/temp/dataset/8/6_8.odb,Step-1,Increment      1: Step Time =    1.000,"PART-1-1",           898,       10.2448,       13.2708,            0.,NA,NA,"",   108.139E-03,  -104.314E-03,   28.5060E-03,   96.8129E-06
C:/temp/dataset/8/6_8.odb,Step-1,Increment      1: Step Time =    1.000,"PART-1-1",           899,       8.92711,       12.0857,            0.,NA,NA,"",   105.788E-03,  -102.397E-03,   26.5696E-03,   91.3980E-06
C:/temp/dataset/8/6_8.odb,Step-1,Increment      1: Step Time =    1.000,"PART-1-1",           900,       8.28681,       9.62105,            0.,NA,NA,"",   101.880E-03,  -98.5659E-03,   25.7759E-03,   111.257E-06
C:/temp/dataset/8/6_8.odb,Step-1,Increment      1: Step Time =    1.000,"PART-1-1",           901,      -9.35950,      -26.6124,            0.,NA,NA,"",   9.68834E-03,  -9.65778E-03,  -768.830E-06,   1.70345E-03
C:/temp/dataset/8/6_8.odb,Step-1,Increment      1: Step Time =    1.000,"PART-1-1",           902,      -7.15180,      -26.5840,            0.,NA,NA,"",   10.8407E-03,  -10.8407E-03,   30.9626E-06,   1.99378E-03
C:/temp/dataset/8/6_8.odb,Step-1,Increment      1: Step Time =    1.000,"PART-1-1",           903,      -8.09105,      -25.4802,            0.,NA,NA,"",   13.6312E-03,  -13.6311E-03,  -48.9869E-06,   1.72860E-03
C:/temp/dataset/8/6_8.odb,Step-1,Increment      1: Step Time =    1.000,"PART-1-1",           904,      -8.48034,      -5.93831,            0.,NA,NA,"",   70.7281E-03,  -70.7214E-03,   974.611E-06,   397.733E-06
C:/temp/dataset/8/6_8.odb,Step-1,Increment      1: Step Time =    1.000,"PART-1-1",           905,      -8.12524,       27.0841,            0.,NA,NA,"",   127.443E-03,  -127.443E-03,   221.343E-06,   12.3113E-06
C:/temp/dataset/8/6_8.odb,Step-1,Increment      1: Step Time =    1.000,"PART-1-1",           906,      -9.25957,       26.3148,            0.,NA,NA,"",   126.360E-03,  -126.352E-03,  -1.37381E-03,   13.6923E-06
C:/temp/dataset/8/6_8.odb,Step-1,Increment      1: Step Time =    1.000,"PART-1-1",           907,      -11.3398,       15.0079,            0.,NA,NA,"",   110.912E-03,  -110.827E-03,  -4.32904E-03,   91.3035E-06
C:/temp/dataset/8/6_8.odb,Step-1,Increment      1: Step Time =    1.000,"PART-1-1",           908,      -8.76249,       3.14397,            0.,NA,NA,"",   91.5482E-03,  -91.5478E-03,   257.239E-06,   137.790E-06
C:/temp/dataset/8/6_8.odb,Step-1,Increment      1: Step Time =    1.000,"PART-1-1",           909,      -10.2702,  -493.365E-03,            0.,NA,NA,"",   84.3190E-03,  -84.2671E-03,  -2.95722E-03,   125.269E-06
C:/temp/dataset/8/6_8.odb,Step-1,Increment      1: Step Time =    1.000,"PART-1-1",           910,      -8.74014,  -974.485E-03,            0.,NA,NA,"",   83.3231E-03,  -83.3213E-03,   550.202E-06,   139.145E-06
C:/temp/dataset/8/6_8.odb,Step-1,Increment      1: Step Time =    1.000,"PART-1-1",           911,      -10.8036,      -21.5085,            0.,NA,NA,"",   23.7045E-03,  -23.4762E-03,  -3.28181E-03,   542.325E-06
C:/temp/dataset/8/6_8.odb,Step-1,Increment      1: Step Time =    1.000,"PART-1-1",           912,       8.88912,       14.7527,            0.,NA,NA,"",   109.998E-03,  -106.774E-03,   26.4368E-03,   89.2535E-06
C:/temp/dataset/8/6_8.odb,Step-1,Increment      1: Step Time =    1.000,"PART-1-1",           913,       8.78021,      -14.9514,            0.,NA,NA,"",   84.2983E-03,  -80.0505E-03,   26.4219E-03,   591.701E-06
C:/temp/dataset/8/6_8.odb,Step-1,Increment      1: Step Time =    1.000,"PART-1-1",           914,       9.08736,      -12.4831,            0.,NA,NA,"",   85.4257E-03,  -81.1845E-03,   26.5825E-03,   514.022E-06
C:/temp/dataset/8/6_8.odb,Step-1,Increment      1: Step Time =    1.000,"PART-1-1",           915,      -6.58441,       1.63370,            0.,NA,NA,"",   88.6111E-03,  -88.4681E-03,   5.03274E-03,   247.430E-06
C:/temp/dataset/8/6_8.odb,Step-1,Increment      1: Step Time =    1.000,"PART-1-1",           916,      -11.0528,       22.2884,            0.,NA,NA,"",   120.805E-03,  -120.743E-03,  -3.85958E-03,   37.5209E-06
C:/temp/dataset/8/6_8.odb,Step-1,Increment      1: Step Time =    1.000,"PART-1-1",           917,      -10.5845,       24.6750,            0.,NA,NA,"",   124.093E-03,  -124.051E-03,  -3.22488E-03,   17.8341E-06
C:/temp/dataset/8/6_8.odb,Step-1,Increment      1: Step Time =    1.000,"PART-1-1",           918,       7.32741,       26.0095,            0.,NA,NA,"",   127.947E-03,  -125.748E-03,   23.6230E-03,   19.5843E-06
C:/temp/dataset/8/6_8.odb,Step-1,Increment      1: Step Time =    1.000,"PART-1-1",           919,       11.0547,      -20.1270,            0.,NA,NA,"",   83.3175E-03,  -78.2697E-03,   28.5597E-03,   3.90824E-03
C:/temp/dataset/8/6_8.odb,Step-1,Increment      1: Step Time =    1.000,"PART-1-1",           920,       11.5724,       23.1751,            0.,NA,NA,"",   124.856E-03,  -121.044E-03,   30.6160E-03,   20.0648E-06
C:/temp/dataset/8/6_8.odb,Step-1,Increment      1: Step Time =    1.000,"PART-1-1",           921,       11.7392,       25.4428,            0.,NA,NA,"",   128.549E-03,  -124.787E-03,   30.8715E-03,   9.35898E-06
C:/temp/dataset/8/6_8.odb,Step-1,Increment      1: Step Time =    1.000,"PART-1-1",           922,       10.5115,       26.6462,            0.,NA,NA,"",   130.001E-03,  -126.761E-03,   28.8424E-03,   10.4064E-06
C:/temp/dataset/8/6_8.odb,Step-1,Increment      1: Step Time =    1.000,"PART-1-1",           923,       8.41385,       26.4284,            0.,NA,NA,"",   128.942E-03,  -126.416E-03,   25.3973E-03,   14.9964E-06
C:/temp/dataset/8/6_8.odb,Step-1,Increment      1: Step Time =    1.000,"PART-1-1",           924,       9.30707,      -2.42527,            0.,NA,NA,"",   88.5625E-03,  -84.2990E-03,   27.1475E-03,   163.560E-06
C:/temp/dataset/8/6_8.odb,Step-1,Increment      1: Step Time =    1.000,"PART-1-1",           925,       9.63410,  -928.992E-03,            0.,NA,NA,"",   89.9058E-03,  -85.5804E-03,   27.5508E-03,   110.873E-06
C:/temp/dataset/8/6_8.odb,Step-1,Increment      1: Step Time =    1.000,"PART-1-1",           926,       5.61561,  -459.456E-03,            0.,NA,NA,"",   89.0704E-03,  -85.8026E-03,   23.9049E-03,   165.139E-06
C:/temp/dataset/8/6_8.odb,Step-1,Increment      1: Step Time =    1.000,"PART-1-1",           927,      -8.35034,   879.442E-03,            0.,NA,NA,"",   87.1411E-03,  -87.1309E-03,   1.33539E-03,   163.206E-06
C:/temp/dataset/8/6_8.odb,Step-1,Increment      1: Step Time =    1.000,"PART-1-1",           928,      -7.85399,       2.30522,            0.,NA,NA,"",   89.9001E-03,  -89.8721E-03,   2.24211E-03,   199.335E-06
C:/temp/dataset/8/6_8.odb,Step-1,Increment      1: Step Time =    1.000,"PART-1-1",           929,      -6.36888,       23.7008,            0.,NA,NA,"",   122.594E-03,  -122.563E-03,   2.75297E-03,   43.7320E-06
C:/temp/dataset/8/6_8.odb,Step-1,Increment      1: Step Time =    1.000,"PART-1-1",           930,       7.80593,       24.5017,            0.,NA,NA,"",   125.700E-03,  -123.305E-03,   24.4229E-03,   29.4924E-06
